    1C
    1UUSER                                                              
    1UDATE              27.october.2022                                 
    1UTIME              01:15:37                                        
    1UHOST                                                              
    1UPGM               CalculiX                                        
    1UVERSION           Version 2.17                             
    1UCOMPILETIME       Thu Jul 23 21:43:50 CEST 2020                    
    1UDIR                                                               
    1UDBN                                                               
    1UMAT    1SOLIDMATERIAL                                             
    2C                          4325                                     1
 -1         1 1.25445E+02 2.68570E+01 0.00000E+00
 -1         2 1.28886E+02 2.08289E+01 0.00000E+00
 -1         3 1.50000E+02 0.00000E+00 0.00000E+00
 -1         4 1.50000E+02 5.00000E+01 0.00000E+00
 -1         5 0.00000E+00 0.00000E+00 0.00000E+00
 -1         6 0.00000E+00 5.00000E+01 0.00000E+00
 -1         7 0.00000E+00 4.70500E+01 0.00000E+00
 -1         8 0.00000E+00 4.41000E+01 0.00000E+00
 -1         9 0.00000E+00 4.11500E+01 0.00000E+00
 -1        10 0.00000E+00 3.82000E+01 0.00000E+00
 -1        11 0.00000E+00 3.52500E+01 0.00000E+00
 -1        12 0.00000E+00 3.23500E+01 0.00000E+00
 -1        13 0.00000E+00 2.94000E+01 0.00000E+00
 -1        14 0.00000E+00 2.64500E+01 0.00000E+00
 -1        15 0.00000E+00 2.35000E+01 0.00000E+00
 -1        16 0.00000E+00 2.05500E+01 0.00000E+00
 -1        17 0.00000E+00 1.76000E+01 0.00000E+00
 -1        18 0.00000E+00 1.47000E+01 0.00000E+00
 -1        19 0.00000E+00 1.17500E+01 0.00000E+00
 -1        20 0.00000E+00 8.80000E+00 0.00000E+00
 -1        21 0.00000E+00 5.85000E+00 0.00000E+00
 -1        22 0.00000E+00 2.90000E+00 0.00000E+00
 -1        23 3.15000E+00 5.00000E+01 0.00000E+00
 -1        24 6.15000E+00 5.00000E+01 0.00000E+00
 -1        25 9.15000E+00 5.00000E+01 0.00000E+00
 -1        26 1.21500E+01 5.00000E+01 0.00000E+00
 -1        27 1.51500E+01 5.00000E+01 0.00000E+00
 -1        28 1.81500E+01 5.00000E+01 0.00000E+00
 -1        29 2.11500E+01 5.00000E+01 0.00000E+00
 -1        30 2.41500E+01 5.00000E+01 0.00000E+00
 -1        31 2.71500E+01 5.00000E+01 0.00000E+00
 -1        32 3.01500E+01 5.00000E+01 0.00000E+00
 -1        33 3.31500E+01 5.00000E+01 0.00000E+00
 -1        34 3.61500E+01 5.00000E+01 0.00000E+00
 -1        35 3.91500E+01 5.00000E+01 0.00000E+00
 -1        36 4.21500E+01 5.00000E+01 0.00000E+00
 -1        37 4.51500E+01 5.00000E+01 0.00000E+00
 -1        38 4.81500E+01 5.00000E+01 0.00000E+00
 -1        39 5.11500E+01 5.00000E+01 0.00000E+00
 -1        40 5.41500E+01 5.00000E+01 0.00000E+00
 -1        41 5.71500E+01 5.00000E+01 0.00000E+00
 -1        42 6.01500E+01 5.00000E+01 0.00000E+00
 -1        43 6.31500E+01 5.00000E+01 0.00000E+00
 -1        44 6.61500E+01 5.00000E+01 0.00000E+00
 -1        45 6.91500E+01 5.00000E+01 0.00000E+00
 -1        46 7.21500E+01 5.00000E+01 0.00000E+00
 -1        47 7.51500E+01 5.00000E+01 0.00000E+00
 -1        48 7.81500E+01 5.00000E+01 0.00000E+00
 -1        49 8.11500E+01 5.00000E+01 0.00000E+00
 -1        50 8.41500E+01 5.00000E+01 0.00000E+00
 -1        51 8.71500E+01 5.00000E+01 0.00000E+00
 -1        52 9.01500E+01 5.00000E+01 0.00000E+00
 -1        53 9.31500E+01 5.00000E+01 0.00000E+00
 -1        54 9.61500E+01 5.00000E+01 0.00000E+00
 -1        55 9.91500E+01 5.00000E+01 0.00000E+00
 -1        56 1.02150E+02 5.00000E+01 0.00000E+00
 -1        57 1.05150E+02 5.00000E+01 0.00000E+00
 -1        58 1.08150E+02 5.00000E+01 0.00000E+00
 -1        59 1.11150E+02 5.00000E+01 0.00000E+00
 -1        60 1.14150E+02 5.00000E+01 0.00000E+00
 -1        61 1.17150E+02 5.00000E+01 0.00000E+00
 -1        62 1.20150E+02 5.00000E+01 0.00000E+00
 -1        63 1.23150E+02 5.00000E+01 0.00000E+00
 -1        64 1.26150E+02 5.00000E+01 0.00000E+00
 -1        65 1.29150E+02 5.00000E+01 0.00000E+00
 -1        66 1.32150E+02 5.00000E+01 0.00000E+00
 -1        67 1.35150E+02 5.00000E+01 0.00000E+00
 -1        68 1.38150E+02 5.00000E+01 0.00000E+00
 -1        69 1.41150E+02 5.00000E+01 0.00000E+00
 -1        70 1.44150E+02 5.00000E+01 0.00000E+00
 -1        71 1.47150E+02 5.00000E+01 0.00000E+00
 -1        72 3.15000E+00 0.00000E+00 0.00000E+00
 -1        73 6.15000E+00 0.00000E+00 0.00000E+00
 -1        74 9.15000E+00 0.00000E+00 0.00000E+00
 -1        75 1.21500E+01 0.00000E+00 0.00000E+00
 -1        76 1.51500E+01 0.00000E+00 0.00000E+00
 -1        77 1.81500E+01 0.00000E+00 0.00000E+00
 -1        78 2.11500E+01 0.00000E+00 0.00000E+00
 -1        79 2.41500E+01 0.00000E+00 0.00000E+00
 -1        80 2.71500E+01 0.00000E+00 0.00000E+00
 -1        81 3.01500E+01 0.00000E+00 0.00000E+00
 -1        82 3.31500E+01 0.00000E+00 0.00000E+00
 -1        83 3.61500E+01 0.00000E+00 0.00000E+00
 -1        84 3.91500E+01 0.00000E+00 0.00000E+00
 -1        85 4.21500E+01 0.00000E+00 0.00000E+00
 -1        86 4.51500E+01 0.00000E+00 0.00000E+00
 -1        87 4.81500E+01 0.00000E+00 0.00000E+00
 -1        88 5.11500E+01 0.00000E+00 0.00000E+00
 -1        89 5.41500E+01 0.00000E+00 0.00000E+00
 -1        90 5.71500E+01 0.00000E+00 0.00000E+00
 -1        91 6.01500E+01 0.00000E+00 0.00000E+00
 -1        92 6.31500E+01 0.00000E+00 0.00000E+00
 -1        93 6.61500E+01 0.00000E+00 0.00000E+00
 -1        94 6.91500E+01 0.00000E+00 0.00000E+00
 -1        95 7.21500E+01 0.00000E+00 0.00000E+00
 -1        96 7.51500E+01 0.00000E+00 0.00000E+00
 -1        97 7.81500E+01 0.00000E+00 0.00000E+00
 -1        98 8.11500E+01 0.00000E+00 0.00000E+00
 -1        99 8.41500E+01 0.00000E+00 0.00000E+00
 -1       100 8.71500E+01 0.00000E+00 0.00000E+00
 -1       101 9.01500E+01 0.00000E+00 0.00000E+00
 -1       102 9.31500E+01 0.00000E+00 0.00000E+00
 -1       103 9.61500E+01 0.00000E+00 0.00000E+00
 -1       104 9.91500E+01 0.00000E+00 0.00000E+00
 -1       105 1.02150E+02 0.00000E+00 0.00000E+00
 -1       106 1.05150E+02 0.00000E+00 0.00000E+00
 -1       107 1.08150E+02 0.00000E+00 0.00000E+00
 -1       108 1.11150E+02 0.00000E+00 0.00000E+00
 -1       109 1.14150E+02 0.00000E+00 0.00000E+00
 -1       110 1.17150E+02 0.00000E+00 0.00000E+00
 -1       111 1.20150E+02 0.00000E+00 0.00000E+00
 -1       112 1.23150E+02 0.00000E+00 0.00000E+00
 -1       113 1.26150E+02 0.00000E+00 0.00000E+00
 -1       114 1.29150E+02 0.00000E+00 0.00000E+00
 -1       115 1.32150E+02 0.00000E+00 0.00000E+00
 -1       116 1.35150E+02 0.00000E+00 0.00000E+00
 -1       117 1.38150E+02 0.00000E+00 0.00000E+00
 -1       118 1.41150E+02 0.00000E+00 0.00000E+00
 -1       119 1.44150E+02 0.00000E+00 0.00000E+00
 -1       120 1.47150E+02 0.00000E+00 0.00000E+00
 -1       121 1.50000E+02 2.95000E+00 0.00000E+00
 -1       122 1.50000E+02 5.90000E+00 0.00000E+00
 -1       123 1.50000E+02 8.85000E+00 0.00000E+00
 -1       124 1.50000E+02 1.18000E+01 0.00000E+00
 -1       125 1.50000E+02 1.47500E+01 0.00000E+00
 -1       126 1.50000E+02 1.76500E+01 0.00000E+00
 -1       127 1.50000E+02 2.06000E+01 0.00000E+00
 -1       128 1.50000E+02 2.35500E+01 0.00000E+00
 -1       129 1.50000E+02 2.65000E+01 0.00000E+00
 -1       130 1.50000E+02 2.94500E+01 0.00000E+00
 -1       131 1.50000E+02 3.24000E+01 0.00000E+00
 -1       132 1.50000E+02 3.53000E+01 0.00000E+00
 -1       133 1.50000E+02 3.82500E+01 0.00000E+00
 -1       134 1.50000E+02 4.12000E+01 0.00000E+00
 -1       135 1.50000E+02 4.41500E+01 0.00000E+00
 -1       136 1.50000E+02 4.71000E+01 0.00000E+00
 -1       137 1.28705E+02 1.92459E+01 0.00000E+00
 -1       138 1.28237E+02 1.78844E+01 0.00000E+00
 -1       139 1.27398E+02 1.65142E+01 0.00000E+00
 -1       140 1.26352E+02 1.54389E+01 0.00000E+00
 -1       141 1.25032E+02 1.45756E+01 0.00000E+00
 -1       142 1.23640E+02 1.40522E+01 0.00000E+00
 -1       143 1.22096E+02 1.38321E+01 0.00000E+00
 -1       144 1.20660E+02 1.39372E+01 0.00000E+00
 -1       145 1.19166E+02 1.43790E+01 0.00000E+00
 -1       146 1.17732E+02 1.51950E+01 0.00000E+00
 -1       147 1.16586E+02 1.62566E+01 0.00000E+00
 -1       148 1.15659E+02 1.76321E+01 0.00000E+00
 -1       149 1.15142E+02 1.89524E+01 0.00000E+00
 -1       150 1.14899E+02 2.04059E+01 0.00000E+00
 -1       151 1.14955E+02 2.18070E+01 0.00000E+00
 -1       152 1.15375E+02 2.33984E+01 0.00000E+00
 -1       153 1.16043E+02 2.46836E+01 0.00000E+00
 -1       154 1.16996E+02 2.58380E+01 0.00000E+00
 -1       155 1.18138E+02 2.67407E+01 0.00000E+00
 -1       156 1.19467E+02 2.73977E+01 0.00000E+00
 -1       157 1.21040E+02 2.77776E+01 0.00000E+00
 -1       158 1.22571E+02 2.77954E+01 0.00000E+00
 -1       159 1.24080E+02 2.74763E+01 0.00000E+00
 -1       160 1.26606E+02 2.59979E+01 0.00000E+00
 -1       161 1.27569E+02 2.49168E+01 0.00000E+00
 -1       162 1.28292E+02 2.36507E+01 0.00000E+00
 -1       163 1.28733E+02 2.22857E+01 0.00000E+00
 -1       164 2.59800E+00 4.55750E+01 0.00000E+00
 -1       165 2.59800E+00 4.26250E+01 0.00000E+00
 -1       166 2.59800E+00 3.96750E+01 0.00000E+00
 -1       167 2.59800E+00 3.67250E+01 0.00000E+00
 -1       168 2.59800E+00 3.38250E+01 0.00000E+00
 -1       169 2.59800E+00 3.08750E+01 0.00000E+00
 -1       170 2.59800E+00 2.79250E+01 0.00000E+00
 -1       171 2.59800E+00 2.49750E+01 0.00000E+00
 -1       172 2.59800E+00 2.20250E+01 0.00000E+00
 -1       173 2.59800E+00 1.90750E+01 0.00000E+00
 -1       174 2.59800E+00 1.61750E+01 0.00000E+00
 -1       175 2.59800E+00 1.32250E+01 0.00000E+00
 -1       176 2.59800E+00 1.02750E+01 0.00000E+00
 -1       177 2.59800E+00 7.32500E+00 0.00000E+00
 -1       178 2.59800E+00 4.37500E+00 0.00000E+00
 -1       179 2.87400E+00 2.18750E+00 0.00000E+00
 -1       180 4.65000E+00 4.74020E+01 0.00000E+00
 -1       181 7.65000E+00 4.74020E+01 0.00000E+00
 -1       182 1.06500E+01 4.74020E+01 0.00000E+00
 -1       183 1.36500E+01 4.74020E+01 0.00000E+00
 -1       184 1.66500E+01 4.74020E+01 0.00000E+00
 -1       185 1.96500E+01 4.74020E+01 0.00000E+00
 -1       186 2.26500E+01 4.74020E+01 0.00000E+00
 -1       187 2.56500E+01 4.74020E+01 0.00000E+00
 -1       188 2.86500E+01 4.74020E+01 0.00000E+00
 -1       189 3.16500E+01 4.74020E+01 0.00000E+00
 -1       190 3.46500E+01 4.74020E+01 0.00000E+00
 -1       191 3.76500E+01 4.74020E+01 0.00000E+00
 -1       192 4.06500E+01 4.74020E+01 0.00000E+00
 -1       193 4.36500E+01 4.74020E+01 0.00000E+00
 -1       194 4.66500E+01 4.74020E+01 0.00000E+00
 -1       195 4.96500E+01 4.74020E+01 0.00000E+00
 -1       196 5.26500E+01 4.74020E+01 0.00000E+00
 -1       197 5.56500E+01 4.74020E+01 0.00000E+00
 -1       198 5.86500E+01 4.74020E+01 0.00000E+00
 -1       199 6.16500E+01 4.74020E+01 0.00000E+00
 -1       200 6.46500E+01 4.74020E+01 0.00000E+00
 -1       201 6.76500E+01 4.74020E+01 0.00000E+00
 -1       202 7.06500E+01 4.74020E+01 0.00000E+00
 -1       203 7.36500E+01 4.74020E+01 0.00000E+00
 -1       204 7.66500E+01 4.74020E+01 0.00000E+00
 -1       205 7.96500E+01 4.74020E+01 0.00000E+00
 -1       206 8.26500E+01 4.74020E+01 0.00000E+00
 -1       207 8.56500E+01 4.74020E+01 0.00000E+00
 -1       208 8.86500E+01 4.74020E+01 0.00000E+00
 -1       209 9.16500E+01 4.74020E+01 0.00000E+00
 -1       210 9.46500E+01 4.74020E+01 0.00000E+00
 -1       211 9.76500E+01 4.74020E+01 0.00000E+00
 -1       212 1.00650E+02 4.74020E+01 0.00000E+00
 -1       213 1.03650E+02 4.74020E+01 0.00000E+00
 -1       214 1.06650E+02 4.74020E+01 0.00000E+00
 -1       215 1.09650E+02 4.74020E+01 0.00000E+00
 -1       216 1.12650E+02 4.74020E+01 0.00000E+00
 -1       217 1.15650E+02 4.74020E+01 0.00000E+00
 -1       218 1.18650E+02 4.74020E+01 0.00000E+00
 -1       219 1.21650E+02 4.74020E+01 0.00000E+00
 -1       220 1.24650E+02 4.74020E+01 0.00000E+00
 -1       221 1.27650E+02 4.74020E+01 0.00000E+00
 -1       222 1.30650E+02 4.74020E+01 0.00000E+00
 -1       223 1.33650E+02 4.74020E+01 0.00000E+00
 -1       224 1.36650E+02 4.74020E+01 0.00000E+00
 -1       225 1.39650E+02 4.74020E+01 0.00000E+00
 -1       226 1.42650E+02 4.74020E+01 0.00000E+00
 -1       227 1.45650E+02 4.74020E+01 0.00000E+00
 -1       228 5.87400E+00 2.18750E+00 0.00000E+00
 -1       229 8.87400E+00 2.18750E+00 0.00000E+00
 -1       230 1.18740E+01 2.18750E+00 0.00000E+00
 -1       231 1.48740E+01 2.18750E+00 0.00000E+00
 -1       232 1.78740E+01 2.18750E+00 0.00000E+00
 -1       233 2.08740E+01 2.18750E+00 0.00000E+00
 -1       234 2.38740E+01 2.18750E+00 0.00000E+00
 -1       235 2.68740E+01 2.18750E+00 0.00000E+00
 -1       236 2.98740E+01 2.18750E+00 0.00000E+00
 -1       237 3.28740E+01 2.18750E+00 0.00000E+00
 -1       238 3.58740E+01 2.18750E+00 0.00000E+00
 -1       239 3.88740E+01 2.18750E+00 0.00000E+00
 -1       240 4.18740E+01 2.18750E+00 0.00000E+00
 -1       241 4.48740E+01 2.18750E+00 0.00000E+00
 -1       242 4.78740E+01 2.18750E+00 0.00000E+00
 -1       243 5.08740E+01 2.18750E+00 0.00000E+00
 -1       244 5.38740E+01 2.18750E+00 0.00000E+00
 -1       245 5.68740E+01 2.18750E+00 0.00000E+00
 -1       246 5.98740E+01 2.18750E+00 0.00000E+00
 -1       247 6.28740E+01 2.18750E+00 0.00000E+00
 -1       248 6.58740E+01 2.18750E+00 0.00000E+00
 -1       249 6.88740E+01 2.18750E+00 0.00000E+00
 -1       250 7.18740E+01 2.18750E+00 0.00000E+00
 -1       251 7.48740E+01 2.18750E+00 0.00000E+00
 -1       252 7.78740E+01 2.18750E+00 0.00000E+00
 -1       253 8.08740E+01 2.18750E+00 0.00000E+00
 -1       254 8.38740E+01 2.18750E+00 0.00000E+00
 -1       255 8.68740E+01 2.18750E+00 0.00000E+00
 -1       256 8.98740E+01 2.18750E+00 0.00000E+00
 -1       257 9.28740E+01 2.18750E+00 0.00000E+00
 -1       258 9.58740E+01 2.18750E+00 0.00000E+00
 -1       259 9.88740E+01 2.18750E+00 0.00000E+00
 -1       260 1.01874E+02 2.18750E+00 0.00000E+00
 -1       261 1.04874E+02 2.18750E+00 0.00000E+00
 -1       262 1.07874E+02 2.18750E+00 0.00000E+00
 -1       263 1.10874E+02 2.18750E+00 0.00000E+00
 -1       264 1.13874E+02 2.18750E+00 0.00000E+00
 -1       265 1.16874E+02 2.18750E+00 0.00000E+00
 -1       266 1.19874E+02 2.18750E+00 0.00000E+00
 -1       267 1.22874E+02 2.18750E+00 0.00000E+00
 -1       268 1.25874E+02 2.18750E+00 0.00000E+00
 -1       269 1.28874E+02 2.18750E+00 0.00000E+00
 -1       270 1.31874E+02 2.18750E+00 0.00000E+00
 -1       271 1.34874E+02 2.18750E+00 0.00000E+00
 -1       272 1.37874E+02 2.18750E+00 0.00000E+00
 -1       273 1.40874E+02 2.18750E+00 0.00000E+00
 -1       274 1.43874E+02 2.18750E+00 0.00000E+00
 -1       275 1.46874E+02 2.18750E+00 0.00000E+00
 -1       276 1.47402E+02 4.42500E+00 0.00000E+00
 -1       277 1.47402E+02 7.37500E+00 0.00000E+00
 -1       278 1.47402E+02 1.03250E+01 0.00000E+00
 -1       279 1.47402E+02 1.32750E+01 0.00000E+00
 -1       280 1.47402E+02 1.61750E+01 0.00000E+00
 -1       281 1.47402E+02 1.91250E+01 0.00000E+00
 -1       282 1.47402E+02 2.20750E+01 0.00000E+00
 -1       283 1.47402E+02 2.50250E+01 0.00000E+00
 -1       284 1.47402E+02 2.79750E+01 0.00000E+00
 -1       285 1.47402E+02 3.09250E+01 0.00000E+00
 -1       286 1.47402E+02 3.38250E+01 0.00000E+00
 -1       287 1.47402E+02 3.67750E+01 0.00000E+00
 -1       288 1.47402E+02 3.97250E+01 0.00000E+00
 -1       289 1.47402E+02 4.26750E+01 0.00000E+00
 -1       290 1.46526E+02 4.50385E+01 0.00000E+00
 -1       291 1.30083E+02 1.98899E+01 0.00000E+00
 -1       292 1.29617E+02 1.81710E+01 0.00000E+00
 -1       293 1.29066E+02 1.64353E+01 0.00000E+00
 -1       294 1.27805E+02 1.50728E+01 0.00000E+00
 -1       295 1.26447E+02 1.38522E+01 0.00000E+00
 -1       296 1.24763E+02 1.31790E+01 0.00000E+00
 -1       297 1.23063E+02 1.25760E+01 0.00000E+00
 -1       298 1.21289E+02 1.26755E+01 0.00000E+00
 -1       299 1.19521E+02 1.28348E+01 0.00000E+00
 -1       300 1.17684E+02 1.34419E+01 0.00000E+00
 -1       301 1.16221E+02 1.47135E+01 0.00000E+00
 -1       302 1.14839E+02 1.60794E+01 0.00000E+00
 -1       303 1.14271E+02 1.78506E+01 0.00000E+00
 -1       304 1.13742E+02 1.94650E+01 0.00000E+00
 -1       305 1.13715E+02 2.11548E+01 0.00000E+00
 -1       306 1.13669E+02 2.29976E+01 0.00000E+00
 -1       307 1.14633E+02 2.46003E+01 0.00000E+00
 -1       308 1.15520E+02 2.60862E+01 0.00000E+00
 -1       309 1.16815E+02 2.72403E+01 0.00000E+00
 -1       310 1.18191E+02 2.83064E+01 0.00000E+00
 -1       311 1.19890E+02 2.90919E+01 0.00000E+00
 -1       312 1.21791E+02 2.89988E+01 0.00000E+00
 -1       313 1.23576E+02 2.88220E+01 0.00000E+00
 -1       314 1.25332E+02 2.84233E+01 0.00000E+00
 -1       315 1.26796E+02 2.74697E+01 0.00000E+00
 -1       316 1.27993E+02 2.62633E+01 0.00000E+00
 -1       317 1.29128E+02 2.49686E+01 0.00000E+00
 -1       318 1.29746E+02 2.33664E+01 0.00000E+00
 -1       319 1.30015E+02 2.16842E+01 0.00000E+00
 -1       320 5.19600E+00 4.11500E+01 0.00000E+00
 -1       321 5.19600E+00 4.41000E+01 0.00000E+00
 -1       322 5.19600E+00 3.52750E+01 0.00000E+00
 -1       323 5.19600E+00 3.23250E+01 0.00000E+00
 -1       324 5.19600E+00 2.93750E+01 0.00000E+00
 -1       325 5.19600E+00 2.64250E+01 0.00000E+00
 -1       326 5.19600E+00 2.34750E+01 0.00000E+00
 -1       327 5.19600E+00 2.05250E+01 0.00000E+00
 -1       328 5.19600E+00 1.76250E+01 0.00000E+00
 -1       329 5.19600E+00 1.46750E+01 0.00000E+00
 -1       330 5.19600E+00 1.17250E+01 0.00000E+00
 -1       331 5.19600E+00 8.77500E+00 0.00000E+00
 -1       332 5.19600E+00 5.82500E+00 0.00000E+00
 -1       333 5.53500E+00 4.00625E+00 0.00000E+00
 -1       334 8.53500E+00 4.00625E+00 0.00000E+00
 -1       335 9.15000E+00 4.48040E+01 0.00000E+00
 -1       336 1.21500E+01 4.48040E+01 0.00000E+00
 -1       337 1.51500E+01 4.48040E+01 0.00000E+00
 -1       338 1.81500E+01 4.48040E+01 0.00000E+00
 -1       339 2.11500E+01 4.48040E+01 0.00000E+00
 -1       340 2.41500E+01 4.48040E+01 0.00000E+00
 -1       341 2.71500E+01 4.48040E+01 0.00000E+00
 -1       342 3.01500E+01 4.48040E+01 0.00000E+00
 -1       343 3.31500E+01 4.48040E+01 0.00000E+00
 -1       344 3.61500E+01 4.48040E+01 0.00000E+00
 -1       345 3.91500E+01 4.48040E+01 0.00000E+00
 -1       346 4.21500E+01 4.48040E+01 0.00000E+00
 -1       347 4.51500E+01 4.48040E+01 0.00000E+00
 -1       348 4.81500E+01 4.48040E+01 0.00000E+00
 -1       349 5.11500E+01 4.48040E+01 0.00000E+00
 -1       350 5.41500E+01 4.48040E+01 0.00000E+00
 -1       351 5.71500E+01 4.48040E+01 0.00000E+00
 -1       352 6.01500E+01 4.48040E+01 0.00000E+00
 -1       353 6.31500E+01 4.48040E+01 0.00000E+00
 -1       354 6.61500E+01 4.48040E+01 0.00000E+00
 -1       355 6.91500E+01 4.48040E+01 0.00000E+00
 -1       356 7.21500E+01 4.48040E+01 0.00000E+00
 -1       357 7.51500E+01 4.48040E+01 0.00000E+00
 -1       358 7.81500E+01 4.48040E+01 0.00000E+00
 -1       359 8.11500E+01 4.48040E+01 0.00000E+00
 -1       360 8.41500E+01 4.48040E+01 0.00000E+00
 -1       361 8.71500E+01 4.48040E+01 0.00000E+00
 -1       362 9.01500E+01 4.48040E+01 0.00000E+00
 -1       363 9.31500E+01 4.48040E+01 0.00000E+00
 -1       364 9.61500E+01 4.48040E+01 0.00000E+00
 -1       365 9.91500E+01 4.48040E+01 0.00000E+00
 -1       366 1.02150E+02 4.48040E+01 0.00000E+00
 -1       367 1.05150E+02 4.48040E+01 0.00000E+00
 -1       368 1.08150E+02 4.48040E+01 0.00000E+00
 -1       369 1.11150E+02 4.48040E+01 0.00000E+00
 -1       370 1.14150E+02 4.48040E+01 0.00000E+00
 -1       371 1.17150E+02 4.48040E+01 0.00000E+00
 -1       372 1.20150E+02 4.48040E+01 0.00000E+00
 -1       373 1.23150E+02 4.48040E+01 0.00000E+00
 -1       374 1.26150E+02 4.48040E+01 0.00000E+00
 -1       375 1.29150E+02 4.48040E+01 0.00000E+00
 -1       376 1.32150E+02 4.48040E+01 0.00000E+00
 -1       377 1.35150E+02 4.48040E+01 0.00000E+00
 -1       378 1.38150E+02 4.48040E+01 0.00000E+00
 -1       379 1.41150E+02 4.48040E+01 0.00000E+00
 -1       380 1.43838E+02 4.49212E+01 0.00000E+00
 -1       381 1.15350E+01 4.00625E+00 0.00000E+00
 -1       382 1.45350E+01 4.00625E+00 0.00000E+00
 -1       383 1.75350E+01 4.00625E+00 0.00000E+00
 -1       384 2.05350E+01 4.00625E+00 0.00000E+00
 -1       385 2.35350E+01 4.00625E+00 0.00000E+00
 -1       386 2.65350E+01 4.00625E+00 0.00000E+00
 -1       387 2.95350E+01 4.00625E+00 0.00000E+00
 -1       388 3.25350E+01 4.00625E+00 0.00000E+00
 -1       389 3.55350E+01 4.00625E+00 0.00000E+00
 -1       390 3.85350E+01 4.00625E+00 0.00000E+00
 -1       391 4.15350E+01 4.00625E+00 0.00000E+00
 -1       392 4.45350E+01 4.00625E+00 0.00000E+00
 -1       393 4.75350E+01 4.00625E+00 0.00000E+00
 -1       394 5.05350E+01 4.00625E+00 0.00000E+00
 -1       395 5.35350E+01 4.00625E+00 0.00000E+00
 -1       396 5.65350E+01 4.00625E+00 0.00000E+00
 -1       397 5.95350E+01 4.00625E+00 0.00000E+00
 -1       398 6.25350E+01 4.00625E+00 0.00000E+00
 -1       399 6.55350E+01 4.00625E+00 0.00000E+00
 -1       400 6.85350E+01 4.00625E+00 0.00000E+00
 -1       401 7.15350E+01 4.00625E+00 0.00000E+00
 -1       402 7.45350E+01 4.00625E+00 0.00000E+00
 -1       403 7.75350E+01 4.00625E+00 0.00000E+00
 -1       404 8.05350E+01 4.00625E+00 0.00000E+00
 -1       405 8.35350E+01 4.00625E+00 0.00000E+00
 -1       406 8.65350E+01 4.00625E+00 0.00000E+00
 -1       407 8.95350E+01 4.00625E+00 0.00000E+00
 -1       408 9.25350E+01 4.00625E+00 0.00000E+00
 -1       409 9.55350E+01 4.00625E+00 0.00000E+00
 -1       410 9.85350E+01 4.00625E+00 0.00000E+00
 -1       411 1.01535E+02 4.00625E+00 0.00000E+00
 -1       412 1.04535E+02 4.00625E+00 0.00000E+00
 -1       413 1.07535E+02 4.00625E+00 0.00000E+00
 -1       414 1.10535E+02 4.00625E+00 0.00000E+00
 -1       415 1.13535E+02 4.00625E+00 0.00000E+00
 -1       416 1.16535E+02 4.00625E+00 0.00000E+00
 -1       417 1.19535E+02 4.00625E+00 0.00000E+00
 -1       418 1.22535E+02 4.00625E+00 0.00000E+00
 -1       419 1.25535E+02 4.00625E+00 0.00000E+00
 -1       420 1.28535E+02 4.00625E+00 0.00000E+00
 -1       421 1.31535E+02 4.00625E+00 0.00000E+00
 -1       422 1.34535E+02 4.00625E+00 0.00000E+00
 -1       423 1.37535E+02 4.00625E+00 0.00000E+00
 -1       424 1.40535E+02 4.00625E+00 0.00000E+00
 -1       425 1.43535E+02 4.00625E+00 0.00000E+00
 -1       426 1.45469E+02 4.21562E+00 0.00000E+00
 -1       427 1.44804E+02 1.18000E+01 0.00000E+00
 -1       428 1.44804E+02 8.85000E+00 0.00000E+00
 -1       429 1.45136E+02 6.53281E+00 0.00000E+00
 -1       430 1.44804E+02 1.47000E+01 0.00000E+00
 -1       431 1.44804E+02 1.76500E+01 0.00000E+00
 -1       432 1.44804E+02 2.06000E+01 0.00000E+00
 -1       433 1.44804E+02 2.35500E+01 0.00000E+00
 -1       434 1.44804E+02 2.65000E+01 0.00000E+00
 -1       435 1.44804E+02 2.94500E+01 0.00000E+00
 -1       436 1.44804E+02 3.23500E+01 0.00000E+00
 -1       437 1.44804E+02 3.53000E+01 0.00000E+00
 -1       438 1.44804E+02 3.82500E+01 0.00000E+00
 -1       439 1.44804E+02 4.12000E+01 0.00000E+00
 -1       440 1.30737E+02 1.68600E+01 0.00000E+00
 -1       441 1.31763E+02 2.08519E+01 0.00000E+00
 -1       442 1.31203E+02 1.85789E+01 0.00000E+00
 -1       443 1.29386E+02 1.48734E+01 0.00000E+00
 -1       444 1.28049E+02 1.34364E+01 0.00000E+00
 -1       445 5.19600E+00 3.82125E+01 0.00000E+00
 -1       446 1.24430E+02 1.14190E+01 0.00000E+00
 -1       447 1.22085E+02 1.09969E+01 0.00000E+00
 -1       448 1.20317E+02 1.11563E+01 0.00000E+00
 -1       449 1.18117E+02 1.16689E+01 0.00000E+00
 -1       450 1.15882E+02 1.28465E+01 0.00000E+00
 -1       451 1.14500E+02 1.42125E+01 0.00000E+00
 -1       452 1.13002E+02 1.64672E+01 0.00000E+00
 -1       453 1.12473E+02 1.80817E+01 0.00000E+00
 -1       454 1.12265E+02 2.02867E+01 0.00000E+00
 -1       455 1.12218E+02 2.21295E+01 0.00000E+00
 -1       456 1.12969E+02 2.45107E+01 0.00000E+00
 -1       457 1.13856E+02 2.59965E+01 0.00000E+00
 -1       458 1.15026E+02 2.79435E+01 0.00000E+00
 -1       459 1.16403E+02 2.90096E+01 0.00000E+00
 -1       460 1.18427E+02 3.00278E+01 0.00000E+00
 -1       461 1.20925E+02 3.07584E+01 0.00000E+00
 -1       462 1.22710E+02 3.05816E+01 0.00000E+00
 -1       463 1.24760E+02 2.99684E+01 0.00000E+00
 -1       464 1.26909E+02 2.92432E+01 0.00000E+00
 -1       465 1.28374E+02 2.78386E+01 0.00000E+00
 -1       466 1.29509E+02 2.65438E+01 0.00000E+00
 -1       467 1.30803E+02 2.46940E+01 0.00000E+00
 -1       468 1.31494E+02 2.25342E+01 0.00000E+00
 -1       469 1.26115E+02 1.20922E+01 0.00000E+00
 -1       470 1.31057E+02 1.52982E+01 0.00000E+00
 -1       471 1.11518E+02 2.36425E+01 0.00000E+00
 -1       472 1.12663E+02 1.46003E+01 0.00000E+00
 -1       473 1.00350E+01 6.60425E+00 0.00000E+00
 -1       474 7.79400E+00 3.08500E+01 0.00000E+00
 -1       475 7.79400E+00 3.38000E+01 0.00000E+00
 -1       476 7.79400E+00 2.49500E+01 0.00000E+00
 -1       477 7.79400E+00 2.20000E+01 0.00000E+00
 -1       478 7.79400E+00 1.91000E+01 0.00000E+00
 -1       479 7.79400E+00 1.61500E+01 0.00000E+00
 -1       480 7.79400E+00 1.32000E+01 0.00000E+00
 -1       481 7.79400E+00 1.02500E+01 0.00000E+00
 -1       482 1.30350E+01 6.60425E+00 0.00000E+00
 -1       483 1.06500E+01 4.22060E+01 0.00000E+00
 -1       484 7.92300E+00 4.16780E+01 0.00000E+00
 -1       485 1.28061E+02 1.13560E+01 0.00000E+00
 -1       486 1.36500E+01 4.22060E+01 0.00000E+00
 -1       487 1.66500E+01 4.22060E+01 0.00000E+00
 -1       488 1.96500E+01 4.22060E+01 0.00000E+00
 -1       489 2.26500E+01 4.22060E+01 0.00000E+00
 -1       490 2.56500E+01 4.22060E+01 0.00000E+00
 -1       491 2.86500E+01 4.22060E+01 0.00000E+00
 -1       492 3.16500E+01 4.22060E+01 0.00000E+00
 -1       493 3.46500E+01 4.22060E+01 0.00000E+00
 -1       494 3.76500E+01 4.22060E+01 0.00000E+00
 -1       495 4.06500E+01 4.22060E+01 0.00000E+00
 -1       496 4.36500E+01 4.22060E+01 0.00000E+00
 -1       497 4.66500E+01 4.22060E+01 0.00000E+00
 -1       498 4.96500E+01 4.22060E+01 0.00000E+00
 -1       499 5.26500E+01 4.22060E+01 0.00000E+00
 -1       500 5.56500E+01 4.22060E+01 0.00000E+00
 -1       501 5.86500E+01 4.22060E+01 0.00000E+00
 -1       502 6.16500E+01 4.22060E+01 0.00000E+00
 -1       503 6.46500E+01 4.22060E+01 0.00000E+00
 -1       504 6.76500E+01 4.22060E+01 0.00000E+00
 -1       505 7.06500E+01 4.22060E+01 0.00000E+00
 -1       506 7.36500E+01 4.22060E+01 0.00000E+00
 -1       507 7.66500E+01 4.22060E+01 0.00000E+00
 -1       508 7.96500E+01 4.22060E+01 0.00000E+00
 -1       509 8.26500E+01 4.22060E+01 0.00000E+00
 -1       510 8.56500E+01 4.22060E+01 0.00000E+00
 -1       511 8.86500E+01 4.22060E+01 0.00000E+00
 -1       512 9.16500E+01 4.22060E+01 0.00000E+00
 -1       513 9.46500E+01 4.22060E+01 0.00000E+00
 -1       514 9.76500E+01 4.22060E+01 0.00000E+00
 -1       515 1.00650E+02 4.22060E+01 0.00000E+00
 -1       516 1.03650E+02 4.22060E+01 0.00000E+00
 -1       517 1.06650E+02 4.22060E+01 0.00000E+00
 -1       518 1.09650E+02 4.22060E+01 0.00000E+00
 -1       519 1.12650E+02 4.22060E+01 0.00000E+00
 -1       520 1.15650E+02 4.22060E+01 0.00000E+00
 -1       521 1.18650E+02 4.22060E+01 0.00000E+00
 -1       522 1.21650E+02 4.22060E+01 0.00000E+00
 -1       523 1.24650E+02 4.22060E+01 0.00000E+00
 -1       524 1.27650E+02 4.22060E+01 0.00000E+00
 -1       525 1.30650E+02 4.22060E+01 0.00000E+00
 -1       526 1.33650E+02 4.22060E+01 0.00000E+00
 -1       527 1.36650E+02 4.22060E+01 0.00000E+00
 -1       528 1.39650E+02 4.22060E+01 0.00000E+00
 -1       529 1.32625E+02 1.72708E+01 0.00000E+00
 -1       530 1.90350E+01 6.60425E+00 0.00000E+00
 -1       531 2.20350E+01 6.60425E+00 0.00000E+00
 -1       532 2.50350E+01 6.60425E+00 0.00000E+00
 -1       533 2.80350E+01 6.60425E+00 0.00000E+00
 -1       534 3.10350E+01 6.60425E+00 0.00000E+00
 -1       535 3.40350E+01 6.60425E+00 0.00000E+00
 -1       536 3.70350E+01 6.60425E+00 0.00000E+00
 -1       537 4.00350E+01 6.60425E+00 0.00000E+00
 -1       538 4.30350E+01 6.60425E+00 0.00000E+00
 -1       539 4.60350E+01 6.60425E+00 0.00000E+00
 -1       540 4.90350E+01 6.60425E+00 0.00000E+00
 -1       541 5.20350E+01 6.60425E+00 0.00000E+00
 -1       542 5.50350E+01 6.60425E+00 0.00000E+00
 -1       543 5.80350E+01 6.60425E+00 0.00000E+00
 -1       544 6.10350E+01 6.60425E+00 0.00000E+00
 -1       545 6.40350E+01 6.60425E+00 0.00000E+00
 -1       546 6.70350E+01 6.60425E+00 0.00000E+00
 -1       547 7.00350E+01 6.60425E+00 0.00000E+00
 -1       548 7.30350E+01 6.60425E+00 0.00000E+00
 -1       549 7.60350E+01 6.60425E+00 0.00000E+00
 -1       550 7.90350E+01 6.60425E+00 0.00000E+00
 -1       551 8.20350E+01 6.60425E+00 0.00000E+00
 -1       552 8.50350E+01 6.60425E+00 0.00000E+00
 -1       553 8.80350E+01 6.60425E+00 0.00000E+00
 -1       554 9.10350E+01 6.60425E+00 0.00000E+00
 -1       555 9.40350E+01 6.60425E+00 0.00000E+00
 -1       556 9.70350E+01 6.60425E+00 0.00000E+00
 -1       557 1.00035E+02 6.60425E+00 0.00000E+00
 -1       558 1.03035E+02 6.60425E+00 0.00000E+00
 -1       559 1.06035E+02 6.60425E+00 0.00000E+00
 -1       560 1.09035E+02 6.60425E+00 0.00000E+00
 -1       561 1.12035E+02 6.60425E+00 0.00000E+00
 -1       562 1.15035E+02 6.60425E+00 0.00000E+00
 -1       563 1.18035E+02 6.60425E+00 0.00000E+00
 -1       564 1.21035E+02 6.60425E+00 0.00000E+00
 -1       565 1.24035E+02 6.60425E+00 0.00000E+00
 -1       566 1.27035E+02 6.60425E+00 0.00000E+00
 -1       567 1.30035E+02 6.60425E+00 0.00000E+00
 -1       568 1.33035E+02 6.60425E+00 0.00000E+00
 -1       569 1.36035E+02 6.60425E+00 0.00000E+00
 -1       570 1.39035E+02 6.60425E+00 0.00000E+00
 -1       571 1.42035E+02 6.60425E+00 0.00000E+00
 -1       572 1.42206E+02 1.61750E+01 0.00000E+00
 -1       573 1.42206E+02 1.91250E+01 0.00000E+00
 -1       574 1.42206E+02 1.03250E+01 0.00000E+00
 -1       575 1.42206E+02 1.32500E+01 0.00000E+00
 -1       576 1.42206E+02 2.20750E+01 0.00000E+00
 -1       577 1.42206E+02 2.50250E+01 0.00000E+00
 -1       578 1.42206E+02 2.79750E+01 0.00000E+00
 -1       579 1.42206E+02 3.08750E+01 0.00000E+00
 -1       580 1.42206E+02 3.38250E+01 0.00000E+00
 -1       581 1.42206E+02 3.67750E+01 0.00000E+00
 -1       582 1.42206E+02 3.97250E+01 0.00000E+00
 -1       583 1.29973E+02 1.29863E+01 0.00000E+00
 -1       584 1.60350E+01 6.60425E+00 0.00000E+00
 -1       585 1.33067E+02 1.93249E+01 0.00000E+00
 -1       586 1.31699E+02 2.66978E+01 0.00000E+00
 -1       587 1.33074E+02 2.19244E+01 0.00000E+00
 -1       588 1.28713E+02 2.96580E+01 0.00000E+00
 -1       589 1.16681E+02 3.09760E+01 0.00000E+00
 -1       590 1.18790E+02 9.57907E+00 0.00000E+00
 -1       591 7.79400E+00 2.79000E+01 0.00000E+00
 -1       592 1.23561E+02 9.51999E+00 0.00000E+00
 -1       593 1.16200E+02 1.07404E+01 0.00000E+00
 -1       594 1.20558E+02 9.41972E+00 0.00000E+00
 -1       595 1.19265E+02 3.17980E+01 0.00000E+00
 -1       596 1.13985E+02 1.23097E+01 0.00000E+00
 -1       597 1.11107E+02 1.67402E+01 0.00000E+00
 -1       598 1.10745E+02 1.90315E+01 0.00000E+00
 -1       599 1.10611E+02 2.11665E+01 0.00000E+00
 -1       600 1.11940E+02 2.61328E+01 0.00000E+00
 -1       601 1.13110E+02 2.80798E+01 0.00000E+00
 -1       602 1.14767E+02 2.97000E+01 0.00000E+00
 -1       603 1.26383E+02 3.12309E+01 0.00000E+00
 -1       604 1.21978E+02 3.22934E+01 0.00000E+00
 -1       605 1.32782E+02 2.41366E+01 0.00000E+00
 -1       606 1.24333E+02 3.18441E+01 0.00000E+00
 -1       607 1.29848E+02 2.83632E+01 0.00000E+00
 -1       608 1.25816E+02 1.03963E+01 0.00000E+00
 -1       609 7.61550E+00 6.21462E+00 0.00000E+00
 -1       610 7.79400E+00 3.67375E+01 0.00000E+00
 -1       611 1.09911E+02 2.26796E+01 0.00000E+00
 -1       612 1.32945E+02 1.57089E+01 0.00000E+00
 -1       613 1.41678E+02 4.22645E+01 0.00000E+00
 -1       614 1.28186E+02 3.16457E+01 0.00000E+00
 -1       615 7.85850E+00 3.92077E+01 0.00000E+00
 -1       616 1.20318E+02 3.33330E+01 0.00000E+00
 -1       617 1.03920E+01 2.05500E+01 0.00000E+00
 -1       618 1.03920E+01 2.35000E+01 0.00000E+00
 -1       619 1.03920E+01 1.46750E+01 0.00000E+00
 -1       620 1.03920E+01 1.17250E+01 0.00000E+00
 -1       621 1.15350E+01 9.20225E+00 0.00000E+00
 -1       622 1.34687E+02 1.79021E+01 0.00000E+00
 -1       623 1.45350E+01 9.20225E+00 0.00000E+00
 -1       624 1.05855E+01 3.97357E+01 0.00000E+00
 -1       625 1.35855E+01 3.97357E+01 0.00000E+00
 -1       626 1.65855E+01 3.97357E+01 0.00000E+00
 -1       627 1.95855E+01 3.97357E+01 0.00000E+00
 -1       628 2.25855E+01 3.97357E+01 0.00000E+00
 -1       629 2.55855E+01 3.97357E+01 0.00000E+00
 -1       630 2.85855E+01 3.97357E+01 0.00000E+00
 -1       631 3.15855E+01 3.97357E+01 0.00000E+00
 -1       632 3.45855E+01 3.97357E+01 0.00000E+00
 -1       633 3.75855E+01 3.97357E+01 0.00000E+00
 -1       634 4.05855E+01 3.97357E+01 0.00000E+00
 -1       635 4.35855E+01 3.97357E+01 0.00000E+00
 -1       636 4.65855E+01 3.97357E+01 0.00000E+00
 -1       637 4.95855E+01 3.97357E+01 0.00000E+00
 -1       638 5.25855E+01 3.97357E+01 0.00000E+00
 -1       639 5.55855E+01 3.97357E+01 0.00000E+00
 -1       640 5.85855E+01 3.97357E+01 0.00000E+00
 -1       641 6.15855E+01 3.97357E+01 0.00000E+00
 -1       642 6.45855E+01 3.97357E+01 0.00000E+00
 -1       643 6.75855E+01 3.97357E+01 0.00000E+00
 -1       644 7.05855E+01 3.97357E+01 0.00000E+00
 -1       645 7.35855E+01 3.97357E+01 0.00000E+00
 -1       646 7.65855E+01 3.97357E+01 0.00000E+00
 -1       647 7.95855E+01 3.97357E+01 0.00000E+00
 -1       648 8.25855E+01 3.97357E+01 0.00000E+00
 -1       649 8.55855E+01 3.97357E+01 0.00000E+00
 -1       650 8.85855E+01 3.97357E+01 0.00000E+00
 -1       651 9.15855E+01 3.97357E+01 0.00000E+00
 -1       652 9.45855E+01 3.97357E+01 0.00000E+00
 -1       653 9.75855E+01 3.97357E+01 0.00000E+00
 -1       654 1.00586E+02 3.97357E+01 0.00000E+00
 -1       655 1.03586E+02 3.97357E+01 0.00000E+00
 -1       656 1.06586E+02 3.97357E+01 0.00000E+00
 -1       657 1.09586E+02 3.97357E+01 0.00000E+00
 -1       658 1.12586E+02 3.97357E+01 0.00000E+00
 -1       659 1.15586E+02 3.97357E+01 0.00000E+00
 -1       660 1.18586E+02 3.97357E+01 0.00000E+00
 -1       661 1.21586E+02 3.97357E+01 0.00000E+00
 -1       662 1.24586E+02 3.97357E+01 0.00000E+00
 -1       663 1.27586E+02 3.97357E+01 0.00000E+00
 -1       664 1.30585E+02 3.97357E+01 0.00000E+00
 -1       665 1.33585E+02 3.97357E+01 0.00000E+00
 -1       666 1.36585E+02 3.97357E+01 0.00000E+00
 -1       667 1.11839E+02 1.25974E+01 0.00000E+00
 -1       668 2.05350E+01 9.20225E+00 0.00000E+00
 -1       669 2.95350E+01 9.20225E+00 0.00000E+00
 -1       670 3.25350E+01 9.20225E+00 0.00000E+00
 -1       671 3.55350E+01 9.20225E+00 0.00000E+00
 -1       672 3.85350E+01 9.20225E+00 0.00000E+00
 -1       673 4.15350E+01 9.20225E+00 0.00000E+00
 -1       674 4.45350E+01 9.20225E+00 0.00000E+00
 -1       675 4.75350E+01 9.20225E+00 0.00000E+00
 -1       676 5.05350E+01 9.20225E+00 0.00000E+00
 -1       677 5.35350E+01 9.20225E+00 0.00000E+00
 -1       678 5.65350E+01 9.20225E+00 0.00000E+00
 -1       679 5.95350E+01 9.20225E+00 0.00000E+00
 -1       680 6.25350E+01 9.20225E+00 0.00000E+00
 -1       681 6.55350E+01 9.20225E+00 0.00000E+00
 -1       682 6.85350E+01 9.20225E+00 0.00000E+00
 -1       683 7.15350E+01 9.20225E+00 0.00000E+00
 -1       684 7.45350E+01 9.20225E+00 0.00000E+00
 -1       685 7.75350E+01 9.20225E+00 0.00000E+00
 -1       686 8.05350E+01 9.20225E+00 0.00000E+00
 -1       687 8.35350E+01 9.20225E+00 0.00000E+00
 -1       688 8.65350E+01 9.20225E+00 0.00000E+00
 -1       689 8.95350E+01 9.20225E+00 0.00000E+00
 -1       690 9.25350E+01 9.20225E+00 0.00000E+00
 -1       691 9.55350E+01 9.20225E+00 0.00000E+00
 -1       692 9.85350E+01 9.20225E+00 0.00000E+00
 -1       693 1.01535E+02 9.20225E+00 0.00000E+00
 -1       694 1.04535E+02 9.20225E+00 0.00000E+00
 -1       695 1.07535E+02 9.20225E+00 0.00000E+00
 -1       696 1.10535E+02 9.20225E+00 0.00000E+00
 -1       697 1.28535E+02 8.82207E+00 0.00000E+00
 -1       698 1.31535E+02 8.82207E+00 0.00000E+00
 -1       699 1.34535E+02 8.82207E+00 0.00000E+00
 -1       700 1.37535E+02 8.82207E+00 0.00000E+00
 -1       701 1.39870E+02 9.57353E+00 0.00000E+00
 -1       702 1.33975E+02 2.61505E+01 0.00000E+00
 -1       703 1.39821E+02 2.35500E+01 0.00000E+00
 -1       704 1.40178E+02 3.96665E+01 0.00000E+00
 -1       705 1.39608E+02 1.76500E+01 0.00000E+00
 -1       706 1.39821E+02 2.65000E+01 0.00000E+00
 -1       707 1.39608E+02 2.06000E+01 0.00000E+00
 -1       708 1.39821E+02 2.94000E+01 0.00000E+00
 -1       709 1.39821E+02 3.23500E+01 0.00000E+00
 -1       710 1.39821E+02 3.53000E+01 0.00000E+00
 -1       711 1.75350E+01 9.20225E+00 0.00000E+00
 -1       712 1.35121E+02 2.06191E+01 0.00000E+00
 -1       713 1.25897E+02 3.33412E+01 0.00000E+00
 -1       714 1.23543E+02 3.37905E+01 0.00000E+00
 -1       715 1.12739E+02 3.01160E+01 0.00000E+00
 -1       716 1.09315E+02 1.76309E+01 0.00000E+00
 -1       717 1.09873E+02 2.52016E+01 0.00000E+00
 -1       718 2.65350E+01 9.20225E+00 0.00000E+00
 -1       719 2.35350E+01 9.20225E+00 0.00000E+00
 -1       720 1.14587E+02 3.20441E+01 0.00000E+00
 -1       721 1.03920E+01 1.76125E+01 0.00000E+00
 -1       722 1.13907E+02 9.85221E+00 0.00000E+00
 -1       723 1.30564E+02 1.03559E+01 0.00000E+00
 -1       724 1.32220E+02 1.33429E+01 0.00000E+00
 -1       725 1.10283E+02 1.47374E+01 0.00000E+00
 -1       726 1.08799E+02 1.99813E+01 0.00000E+00
 -1       727 1.10768E+02 2.81628E+01 0.00000E+00
 -1       728 1.17402E+02 3.31811E+01 0.00000E+00
 -1       729 1.30696E+02 3.02518E+01 0.00000E+00
 -1       730 1.03920E+01 3.23250E+01 0.00000E+00
 -1       731 1.34628E+02 2.32548E+01 0.00000E+00
 -1       732 1.32547E+02 2.85864E+01 0.00000E+00
 -1       733 1.15618E+02 8.67231E+00 0.00000E+00
 -1       734 1.03920E+01 3.52625E+01 0.00000E+00
 -1       735 1.03920E+01 2.64500E+01 0.00000E+00
 -1       736 1.08491E+02 1.56280E+01 0.00000E+00
 -1       737 1.39870E+02 1.24985E+01 0.00000E+00
 -1       738 1.35007E+02 1.63402E+01 0.00000E+00
 -1       739 1.21883E+02 3.48301E+01 0.00000E+00
 -1       740 1.39739E+02 1.50743E+01 0.00000E+00
 -1       741 1.03920E+01 2.93875E+01 0.00000E+00
 -1       742 1.08099E+02 2.14944E+01 0.00000E+00
 -1       743 1.28162E+02 3.40064E+01 0.00000E+00
 -1       744 1.29900E+01 1.32000E+01 0.00000E+00
 -1       745 1.20855E+01 3.71377E+01 0.00000E+00
 -1       746 1.50855E+01 3.71377E+01 0.00000E+00
 -1       747 1.80855E+01 3.71377E+01 0.00000E+00
 -1       748 2.10855E+01 3.71377E+01 0.00000E+00
 -1       749 2.40855E+01 3.71377E+01 0.00000E+00
 -1       750 2.70855E+01 3.71377E+01 0.00000E+00
 -1       751 3.00855E+01 3.71377E+01 0.00000E+00
 -1       752 3.30855E+01 3.71377E+01 0.00000E+00
 -1       753 3.60855E+01 3.71377E+01 0.00000E+00
 -1       754 3.90855E+01 3.71377E+01 0.00000E+00
 -1       755 4.20855E+01 3.71377E+01 0.00000E+00
 -1       756 4.50855E+01 3.71377E+01 0.00000E+00
 -1       757 4.80855E+01 3.71377E+01 0.00000E+00
 -1       758 5.10855E+01 3.71377E+01 0.00000E+00
 -1       759 5.40855E+01 3.71377E+01 0.00000E+00
 -1       760 5.70855E+01 3.71377E+01 0.00000E+00
 -1       761 6.00855E+01 3.71377E+01 0.00000E+00
 -1       762 6.30855E+01 3.71377E+01 0.00000E+00
 -1       763 6.60855E+01 3.71377E+01 0.00000E+00
 -1       764 6.90855E+01 3.71377E+01 0.00000E+00
 -1       765 7.20855E+01 3.71377E+01 0.00000E+00
 -1       766 7.50855E+01 3.71377E+01 0.00000E+00
 -1       767 7.80855E+01 3.71377E+01 0.00000E+00
 -1       768 8.10855E+01 3.71377E+01 0.00000E+00
 -1       769 8.40855E+01 3.71377E+01 0.00000E+00
 -1       770 8.70855E+01 3.71377E+01 0.00000E+00
 -1       771 9.00855E+01 3.71377E+01 0.00000E+00
 -1       772 9.30855E+01 3.71377E+01 0.00000E+00
 -1       773 9.60855E+01 3.71377E+01 0.00000E+00
 -1       774 9.90855E+01 3.71377E+01 0.00000E+00
 -1       775 1.02086E+02 3.71377E+01 0.00000E+00
 -1       776 1.05086E+02 3.71377E+01 0.00000E+00
 -1       777 1.08086E+02 3.71377E+01 0.00000E+00
 -1       778 1.11086E+02 3.71377E+01 0.00000E+00
 -1       779 1.14086E+02 3.71377E+01 0.00000E+00
 -1       780 1.17086E+02 3.71377E+01 0.00000E+00
 -1       781 1.23086E+02 3.73503E+01 0.00000E+00
 -1       782 1.26086E+02 3.73503E+01 0.00000E+00
 -1       783 1.29085E+02 3.73503E+01 0.00000E+00
 -1       784 1.32085E+02 3.73503E+01 0.00000E+00
 -1       785 1.35085E+02 3.73503E+01 0.00000E+00
 -1       786 1.07054E+02 1.83666E+01 0.00000E+00
 -1       787 3.10350E+01 1.18003E+01 0.00000E+00
 -1       788 4.00350E+01 1.18003E+01 0.00000E+00
 -1       789 4.30350E+01 1.18003E+01 0.00000E+00
 -1       790 4.60350E+01 1.18003E+01 0.00000E+00
 -1       791 4.90350E+01 1.18003E+01 0.00000E+00
 -1       792 5.20350E+01 1.18003E+01 0.00000E+00
 -1       793 5.50350E+01 1.18003E+01 0.00000E+00
 -1       794 5.80350E+01 1.18003E+01 0.00000E+00
 -1       795 6.10350E+01 1.18003E+01 0.00000E+00
 -1       796 6.40350E+01 1.18003E+01 0.00000E+00
 -1       797 6.70350E+01 1.18003E+01 0.00000E+00
 -1       798 7.00350E+01 1.18003E+01 0.00000E+00
 -1       799 7.30350E+01 1.18003E+01 0.00000E+00
 -1       800 7.60350E+01 1.18003E+01 0.00000E+00
 -1       801 7.90350E+01 1.18003E+01 0.00000E+00
 -1       802 8.20350E+01 1.18003E+01 0.00000E+00
 -1       803 8.50350E+01 1.18003E+01 0.00000E+00
 -1       804 8.80350E+01 1.18003E+01 0.00000E+00
 -1       805 9.10350E+01 1.18003E+01 0.00000E+00
 -1       806 9.40350E+01 1.18003E+01 0.00000E+00
 -1       807 9.70350E+01 1.18003E+01 0.00000E+00
 -1       808 1.00035E+02 1.18003E+01 0.00000E+00
 -1       809 1.03035E+02 1.18003E+01 0.00000E+00
 -1       810 1.06035E+02 1.18003E+01 0.00000E+00
 -1       811 1.37535E+02 1.17471E+01 0.00000E+00
 -1       812 1.37390E+02 1.91250E+01 0.00000E+00
 -1       813 1.37435E+02 2.79500E+01 0.00000E+00
 -1       814 1.37435E+02 2.50000E+01 0.00000E+00
 -1       815 1.34885E+02 2.83203E+01 0.00000E+00
 -1       816 1.37223E+02 3.38250E+01 0.00000E+00
 -1       817 1.08197E+02 2.73239E+01 0.00000E+00
 -1       818 1.25041E+02 3.52506E+01 0.00000E+00
 -1       819 2.80350E+01 1.18003E+01 0.00000E+00
 -1       820 1.37223E+02 3.08750E+01 0.00000E+00
 -1       821 1.34535E+02 1.17471E+01 0.00000E+00
 -1       822 1.37413E+02 2.20625E+01 0.00000E+00
 -1       823 3.70350E+01 1.18003E+01 0.00000E+00
 -1       824 1.30437E+02 3.27411E+01 0.00000E+00
 -1       825 3.40350E+01 1.18003E+01 0.00000E+00
 -1       826 1.08061E+02 2.40164E+01 0.00000E+00
 -1       827 2.50350E+01 1.18003E+01 0.00000E+00
 -1       828 1.12304E+02 3.23827E+01 0.00000E+00
 -1       829 2.20350E+01 1.18003E+01 0.00000E+00
 -1       830 1.09538E+02 1.25604E+01 0.00000E+00
 -1       831 1.18736E+02 3.56392E+01 0.00000E+00
 -1       832 1.37625E+01 1.12011E+01 0.00000E+00
 -1       833 1.15164E+02 3.46690E+01 0.00000E+00
 -1       834 1.29900E+01 2.20250E+01 0.00000E+00
 -1       835 1.33105E+02 3.10679E+01 0.00000E+00
 -1       836 1.10193E+02 3.07149E+01 0.00000E+00
 -1       837 1.34382E+02 1.39737E+01 0.00000E+00
 -1       838 1.29900E+01 2.49750E+01 0.00000E+00
 -1       839 1.29900E+01 1.61375E+01 0.00000E+00
 -1       840 9.71585E+00 3.69211E+01 0.00000E+00
 -1       841 1.06354E+02 1.98796E+01 0.00000E+00
 -1       842 1.29900E+01 1.90875E+01 0.00000E+00
 -1       843 1.29900E+01 3.37938E+01 0.00000E+00
 -1       844 1.67625E+01 1.12011E+01 0.00000E+00
 -1       845 1.37307E+02 1.69951E+01 0.00000E+00
 -1       846 1.93988E+01 1.15007E+01 0.00000E+00
 -1       847 1.07622E+02 2.98761E+01 0.00000E+00
 -1       848 1.29900E+01 3.08563E+01 0.00000E+00
 -1       849 1.06105E+02 1.61228E+01 0.00000E+00
 -1       850 1.65855E+01 3.45397E+01 0.00000E+00
 -1       851 1.95855E+01 3.45397E+01 0.00000E+00
 -1       852 2.25855E+01 3.45397E+01 0.00000E+00
 -1       853 2.55855E+01 3.45397E+01 0.00000E+00
 -1       854 2.85855E+01 3.45397E+01 0.00000E+00
 -1       855 3.15855E+01 3.45397E+01 0.00000E+00
 -1       856 3.45855E+01 3.45397E+01 0.00000E+00
 -1       857 3.75855E+01 3.45397E+01 0.00000E+00
 -1       858 4.05855E+01 3.45397E+01 0.00000E+00
 -1       859 4.35855E+01 3.45397E+01 0.00000E+00
 -1       860 4.65855E+01 3.45397E+01 0.00000E+00
 -1       861 4.95855E+01 3.45397E+01 0.00000E+00
 -1       862 5.25855E+01 3.45397E+01 0.00000E+00
 -1       863 5.55855E+01 3.45397E+01 0.00000E+00
 -1       864 5.85855E+01 3.45397E+01 0.00000E+00
 -1       865 6.15855E+01 3.45397E+01 0.00000E+00
 -1       866 6.45855E+01 3.45397E+01 0.00000E+00
 -1       867 6.75855E+01 3.45397E+01 0.00000E+00
 -1       868 7.05855E+01 3.45397E+01 0.00000E+00
 -1       869 7.35855E+01 3.45397E+01 0.00000E+00
 -1       870 7.65855E+01 3.45397E+01 0.00000E+00
 -1       871 7.95855E+01 3.45397E+01 0.00000E+00
 -1       872 8.25855E+01 3.45397E+01 0.00000E+00
 -1       873 8.55855E+01 3.45397E+01 0.00000E+00
 -1       874 8.85855E+01 3.45397E+01 0.00000E+00
 -1       875 9.15855E+01 3.45397E+01 0.00000E+00
 -1       876 9.45855E+01 3.45397E+01 0.00000E+00
 -1       877 9.75855E+01 3.45397E+01 0.00000E+00
 -1       878 1.00586E+02 3.45397E+01 0.00000E+00
 -1       879 1.03586E+02 3.45397E+01 0.00000E+00
 -1       880 1.06586E+02 3.45397E+01 0.00000E+00
 -1       881 1.09586E+02 3.45397E+01 0.00000E+00
 -1       882 1.30585E+02 3.47974E+01 0.00000E+00
 -1       883 1.33585E+02 3.47974E+01 0.00000E+00
 -1       884 4.15350E+01 1.43982E+01 0.00000E+00
 -1       885 5.05350E+01 1.43982E+01 0.00000E+00
 -1       886 5.35350E+01 1.43982E+01 0.00000E+00
 -1       887 5.65350E+01 1.43982E+01 0.00000E+00
 -1       888 5.95350E+01 1.43982E+01 0.00000E+00
 -1       889 6.25350E+01 1.43982E+01 0.00000E+00
 -1       890 6.55350E+01 1.43982E+01 0.00000E+00
 -1       891 6.85350E+01 1.43982E+01 0.00000E+00
 -1       892 7.15350E+01 1.43982E+01 0.00000E+00
 -1       893 7.45350E+01 1.43982E+01 0.00000E+00
 -1       894 7.75350E+01 1.43982E+01 0.00000E+00
 -1       895 8.05350E+01 1.43982E+01 0.00000E+00
 -1       896 8.35350E+01 1.43982E+01 0.00000E+00
 -1       897 8.65350E+01 1.43982E+01 0.00000E+00
 -1       898 8.95350E+01 1.43982E+01 0.00000E+00
 -1       899 9.25350E+01 1.43982E+01 0.00000E+00
 -1       900 9.55350E+01 1.43982E+01 0.00000E+00
 -1       901 9.85350E+01 1.43982E+01 0.00000E+00
 -1       902 1.01535E+02 1.43982E+01 0.00000E+00
 -1       903 1.35716E+02 3.08091E+01 0.00000E+00
 -1       904 2.95350E+01 1.43982E+01 0.00000E+00
 -1       905 1.37137E+02 1.34107E+01 0.00000E+00
 -1       906 1.29900E+01 2.79188E+01 0.00000E+00
 -1       907 1.05746E+02 2.57687E+01 0.00000E+00
 -1       908 1.22978E+02 3.58691E+01 0.00000E+00
 -1       909 3.85350E+01 1.43982E+01 0.00000E+00
 -1       910 1.06197E+02 2.27267E+01 0.00000E+00
 -1       911 4.75350E+01 1.43982E+01 0.00000E+00
 -1       912 4.45350E+01 1.43982E+01 0.00000E+00
 -1       913 2.65350E+01 1.43982E+01 0.00000E+00
 -1       914 2.35350E+01 1.43982E+01 0.00000E+00
 -1       915 1.59900E+01 1.32000E+01 0.00000E+00
 -1       916 2.05351E+01 1.43983E+01 0.00000E+00
 -1       917 1.05170E+02 2.83208E+01 0.00000E+00
 -1       918 1.07104E+02 3.22079E+01 0.00000E+00
 -1       919 1.55880E+01 2.35000E+01 0.00000E+00
 -1       920 3.55350E+01 1.43982E+01 0.00000E+00
 -1       921 1.55880E+01 2.05625E+01 0.00000E+00
 -1       922 3.25350E+01 1.43982E+01 0.00000E+00
 -1       923 1.65855E+01 3.16022E+01 0.00000E+00
 -1       924 1.04691E+02 1.80433E+01 0.00000E+00
 -1       925 1.63076E+01 1.65250E+01 0.00000E+00
 -1       926 2.10855E+01 3.19417E+01 0.00000E+00
 -1       927 2.40855E+01 3.19417E+01 0.00000E+00
 -1       928 2.70855E+01 3.19417E+01 0.00000E+00
 -1       929 3.00855E+01 3.19417E+01 0.00000E+00
 -1       930 3.30855E+01 3.19417E+01 0.00000E+00
 -1       931 3.60855E+01 3.19417E+01 0.00000E+00
 -1       932 3.90855E+01 3.19417E+01 0.00000E+00
 -1       933 4.20855E+01 3.19417E+01 0.00000E+00
 -1       934 4.50855E+01 3.19417E+01 0.00000E+00
 -1       935 4.80855E+01 3.19417E+01 0.00000E+00
 -1       936 5.10855E+01 3.19417E+01 0.00000E+00
 -1       937 5.40855E+01 3.19417E+01 0.00000E+00
 -1       938 5.70855E+01 3.19417E+01 0.00000E+00
 -1       939 6.00855E+01 3.19417E+01 0.00000E+00
 -1       940 6.30855E+01 3.19417E+01 0.00000E+00
 -1       941 6.60855E+01 3.19417E+01 0.00000E+00
 -1       942 6.90855E+01 3.19417E+01 0.00000E+00
 -1       943 7.20855E+01 3.19417E+01 0.00000E+00
 -1       944 7.50855E+01 3.19417E+01 0.00000E+00
 -1       945 7.80855E+01 3.19417E+01 0.00000E+00
 -1       946 8.10855E+01 3.19417E+01 0.00000E+00
 -1       947 8.40855E+01 3.19417E+01 0.00000E+00
 -1       948 8.70855E+01 3.19417E+01 0.00000E+00
 -1       949 9.00855E+01 3.19417E+01 0.00000E+00
 -1       950 9.30855E+01 3.19417E+01 0.00000E+00
 -1       951 9.60855E+01 3.19417E+01 0.00000E+00
 -1       952 9.90855E+01 3.19417E+01 0.00000E+00
 -1       953 1.02086E+02 3.19417E+01 0.00000E+00
 -1       954 1.04595E+02 3.20748E+01 0.00000E+00
 -1       955 1.55880E+01 2.64438E+01 0.00000E+00
 -1       956 2.80350E+01 1.69963E+01 0.00000E+00
 -1       957 2.20351E+01 1.69963E+01 0.00000E+00
 -1       958 5.20350E+01 1.69963E+01 0.00000E+00
 -1       959 6.10350E+01 1.69963E+01 0.00000E+00
 -1       960 6.40350E+01 1.69963E+01 0.00000E+00
 -1       961 6.70350E+01 1.69963E+01 0.00000E+00
 -1       962 7.00350E+01 1.69963E+01 0.00000E+00
 -1       963 7.30350E+01 1.69963E+01 0.00000E+00
 -1       964 7.60350E+01 1.69963E+01 0.00000E+00
 -1       965 7.90350E+01 1.69963E+01 0.00000E+00
 -1       966 8.20350E+01 1.69963E+01 0.00000E+00
 -1       967 8.50350E+01 1.69963E+01 0.00000E+00
 -1       968 8.80350E+01 1.69963E+01 0.00000E+00
 -1       969 9.10350E+01 1.69963E+01 0.00000E+00
 -1       970 9.40350E+01 1.69963E+01 0.00000E+00
 -1       971 9.70350E+01 1.69963E+01 0.00000E+00
 -1       972 1.00035E+02 1.69963E+01 0.00000E+00
 -1       973 1.03894E+02 2.11717E+01 0.00000E+00
 -1       974 4.90350E+01 1.69963E+01 0.00000E+00
 -1       975 4.00350E+01 1.69963E+01 0.00000E+00
 -1       976 1.03442E+02 2.42138E+01 0.00000E+00
 -1       977 5.80350E+01 1.69963E+01 0.00000E+00
 -1       978 2.50350E+01 1.69963E+01 0.00000E+00
 -1       979 1.82625E+01 1.37991E+01 0.00000E+00
 -1       980 5.50350E+01 1.69963E+01 0.00000E+00
 -1       981 1.88355E+01 3.17720E+01 0.00000E+00
 -1       982 1.60868E+01 2.90230E+01 0.00000E+00
 -1       983 1.97625E+01 1.63971E+01 0.00000E+00
 -1       984 3.10350E+01 1.69963E+01 0.00000E+00
 -1       985 3.70350E+01 1.69963E+01 0.00000E+00
 -1       986 4.30350E+01 1.69963E+01 0.00000E+00
 -1       987 4.60350E+01 1.69963E+01 0.00000E+00
 -1       988 1.02867E+02 2.67659E+01 0.00000E+00
 -1       989 1.81860E+01 2.49719E+01 0.00000E+00
 -1       990 1.04882E+02 3.01978E+01 0.00000E+00
 -1       991 1.81860E+01 2.20344E+01 0.00000E+00
 -1       992 2.55855E+01 2.93438E+01 0.00000E+00
 -1       993 2.85855E+01 2.93438E+01 0.00000E+00
 -1       994 3.15855E+01 2.93438E+01 0.00000E+00
 -1       995 3.45855E+01 2.93438E+01 0.00000E+00
 -1       996 3.75855E+01 2.93438E+01 0.00000E+00
 -1       997 4.05855E+01 2.93438E+01 0.00000E+00
 -1       998 4.35855E+01 2.93438E+01 0.00000E+00
 -1       999 4.65855E+01 2.93438E+01 0.00000E+00
 -1      1000 4.95855E+01 2.93438E+01 0.00000E+00
 -1      1001 5.25855E+01 2.93438E+01 0.00000E+00
 -1      1002 5.55855E+01 2.93438E+01 0.00000E+00
 -1      1003 5.85855E+01 2.93438E+01 0.00000E+00
 -1      1004 6.15855E+01 2.93438E+01 0.00000E+00
 -1      1005 6.45855E+01 2.93438E+01 0.00000E+00
 -1      1006 6.75855E+01 2.93438E+01 0.00000E+00
 -1      1007 7.05855E+01 2.93438E+01 0.00000E+00
 -1      1008 7.35855E+01 2.93438E+01 0.00000E+00
 -1      1009 7.65855E+01 2.93438E+01 0.00000E+00
 -1      1010 7.95855E+01 2.93438E+01 0.00000E+00
 -1      1011 8.25855E+01 2.93438E+01 0.00000E+00
 -1      1012 8.55855E+01 2.93438E+01 0.00000E+00
 -1      1013 8.85855E+01 2.93438E+01 0.00000E+00
 -1      1014 9.15855E+01 2.93438E+01 0.00000E+00
 -1      1015 9.45855E+01 2.93438E+01 0.00000E+00
 -1      1016 9.75855E+01 2.93438E+01 0.00000E+00
 -1      1017 1.00586E+02 2.93438E+01 0.00000E+00
 -1      1018 6.25350E+01 1.95942E+01 0.00000E+00
 -1      1019 7.15350E+01 1.95942E+01 0.00000E+00
 -1      1020 7.45350E+01 1.95942E+01 0.00000E+00
 -1      1021 7.75350E+01 1.95942E+01 0.00000E+00
 -1      1022 8.05350E+01 1.95942E+01 0.00000E+00
 -1      1023 8.35350E+01 1.95942E+01 0.00000E+00
 -1      1024 8.65350E+01 1.95942E+01 0.00000E+00
 -1      1025 8.95350E+01 1.95942E+01 0.00000E+00
 -1      1026 9.25350E+01 1.95942E+01 0.00000E+00
 -1      1027 9.55350E+01 1.95942E+01 0.00000E+00
 -1      1028 9.85350E+01 1.95942E+01 0.00000E+00
 -1      1029 5.65350E+01 1.95942E+01 0.00000E+00
 -1      1030 6.85350E+01 1.95942E+01 0.00000E+00
 -1      1031 1.01981E+02 1.90183E+01 0.00000E+00
 -1      1032 6.55350E+01 1.95942E+01 0.00000E+00
 -1      1033 5.05350E+01 1.95942E+01 0.00000E+00
 -1      1034 1.89743E+01 1.92157E+01 0.00000E+00
 -1      1035 5.35350E+01 1.95942E+01 0.00000E+00
 -1      1036 1.01309E+02 2.23424E+01 0.00000E+00
 -1      1037 5.95350E+01 1.95942E+01 0.00000E+00
 -1      1038 1.86847E+01 2.75511E+01 0.00000E+00
 -1      1039 2.25855E+01 2.93438E+01 0.00000E+00
 -1      1040 3.40350E+01 1.69963E+01 0.00000E+00
 -1      1041 2.12468E+01 1.98149E+01 0.00000E+00
 -1      1042 2.07840E+01 2.35031E+01 0.00000E+00
 -1      1043 1.02734E+02 2.97708E+01 0.00000E+00
 -1      1044 3.85350E+01 1.95942E+01 0.00000E+00
 -1      1045 2.95350E+01 1.95942E+01 0.00000E+00
 -1      1046 4.75350E+01 1.95942E+01 0.00000E+00
 -1      1047 2.42468E+01 1.98149E+01 0.00000E+00
 -1      1048 1.87601E+01 2.96616E+01 0.00000E+00
 -1      1049 2.12827E+01 2.60824E+01 0.00000E+00
 -1      1050 1.00733E+02 2.48945E+01 0.00000E+00
 -1      1051 4.15350E+01 1.95942E+01 0.00000E+00
 -1      1052 2.68909E+01 1.97046E+01 0.00000E+00
 -1      1053 2.06728E+01 2.95027E+01 0.00000E+00
 -1      1054 5.20350E+01 2.21922E+01 0.00000E+00
 -1      1055 2.70855E+01 2.67458E+01 0.00000E+00
 -1      1056 3.55350E+01 1.95942E+01 0.00000E+00
 -1      1057 3.00855E+01 2.67458E+01 0.00000E+00
 -1      1058 3.30855E+01 2.67458E+01 0.00000E+00
 -1      1059 3.60855E+01 2.67458E+01 0.00000E+00
 -1      1060 3.90855E+01 2.67458E+01 0.00000E+00
 -1      1061 4.20855E+01 2.67458E+01 0.00000E+00
 -1      1062 4.50855E+01 2.67458E+01 0.00000E+00
 -1      1063 4.80855E+01 2.67458E+01 0.00000E+00
 -1      1064 5.10855E+01 2.67458E+01 0.00000E+00
 -1      1065 5.40855E+01 2.67458E+01 0.00000E+00
 -1      1066 5.70855E+01 2.67458E+01 0.00000E+00
 -1      1067 6.00855E+01 2.67458E+01 0.00000E+00
 -1      1068 6.30855E+01 2.67458E+01 0.00000E+00
 -1      1069 6.60855E+01 2.67458E+01 0.00000E+00
 -1      1070 6.90855E+01 2.67458E+01 0.00000E+00
 -1      1071 7.20855E+01 2.67458E+01 0.00000E+00
 -1      1072 7.50855E+01 2.67458E+01 0.00000E+00
 -1      1073 7.80855E+01 2.67458E+01 0.00000E+00
 -1      1074 8.10855E+01 2.67458E+01 0.00000E+00
 -1      1075 8.40855E+01 2.67458E+01 0.00000E+00
 -1      1076 8.70855E+01 2.67458E+01 0.00000E+00
 -1      1077 9.00855E+01 2.67458E+01 0.00000E+00
 -1      1078 9.30855E+01 2.67458E+01 0.00000E+00
 -1      1079 9.60855E+01 2.67458E+01 0.00000E+00
 -1      1080 4.45350E+01 1.95942E+01 0.00000E+00
 -1      1081 7.30350E+01 2.21922E+01 0.00000E+00
 -1      1082 8.20350E+01 2.21922E+01 0.00000E+00
 -1      1083 8.50350E+01 2.21922E+01 0.00000E+00
 -1      1084 8.80350E+01 2.21922E+01 0.00000E+00
 -1      1085 9.10350E+01 2.21922E+01 0.00000E+00
 -1      1086 9.40350E+01 2.21922E+01 0.00000E+00
 -1      1087 9.70350E+01 2.21922E+01 0.00000E+00
 -1      1088 7.60350E+01 2.21922E+01 0.00000E+00
 -1      1089 2.37840E+01 2.35031E+01 0.00000E+00
 -1      1090 5.50350E+01 2.21922E+01 0.00000E+00
 -1      1091 5.80350E+01 2.21922E+01 0.00000E+00
 -1      1092 3.25350E+01 1.95942E+01 0.00000E+00
 -1      1093 6.10350E+01 2.21922E+01 0.00000E+00
 -1      1094 7.00350E+01 2.21922E+01 0.00000E+00
 -1      1095 7.90350E+01 2.21922E+01 0.00000E+00
 -1      1096 2.40855E+01 2.67458E+01 0.00000E+00
 -1      1097 9.91595E+01 2.71191E+01 0.00000E+00
 -1      1098 4.90350E+01 2.21922E+01 0.00000E+00
 -1      1099 3.10350E+01 2.21922E+01 0.00000E+00
 -1      1100 6.40350E+01 2.21922E+01 0.00000E+00
 -1      1101 4.00350E+01 2.21922E+01 0.00000E+00
 -1      1102 2.83909E+01 2.23026E+01 0.00000E+00
 -1      1103 6.70350E+01 2.21922E+01 0.00000E+00
 -1      1104 3.70350E+01 2.21922E+01 0.00000E+00
 -1      1105 5.95350E+01 2.47903E+01 0.00000E+00
 -1      1106 3.75855E+01 2.41478E+01 0.00000E+00
 -1      1107 4.65855E+01 2.41478E+01 0.00000E+00
 -1      1108 6.25350E+01 2.47903E+01 0.00000E+00
 -1      1109 6.55350E+01 2.47903E+01 0.00000E+00
 -1      1110 6.85350E+01 2.47903E+01 0.00000E+00
 -1      1111 7.15350E+01 2.47903E+01 0.00000E+00
 -1      1112 7.45350E+01 2.47903E+01 0.00000E+00
 -1      1113 7.75350E+01 2.47903E+01 0.00000E+00
 -1      1114 8.05350E+01 2.47903E+01 0.00000E+00
 -1      1115 8.35350E+01 2.47903E+01 0.00000E+00
 -1      1116 8.65350E+01 2.47903E+01 0.00000E+00
 -1      1117 8.95350E+01 2.47903E+01 0.00000E+00
 -1      1118 9.25350E+01 2.47903E+01 0.00000E+00
 -1      1119 3.43102E+01 2.31700E+01 0.00000E+00
 -1      1120 9.66342E+01 2.48424E+01 0.00000E+00
 -1      1121 4.30350E+01 2.21922E+01 0.00000E+00
 -1      1122 4.60350E+01 2.21922E+01 0.00000E+00
 -1      1123 0.00000E+00 4.85250E+01 0.00000E+00
 -1      1124 0.00000E+00 4.55750E+01 0.00000E+00
 -1      1125 0.00000E+00 4.26250E+01 0.00000E+00
 -1      1126 0.00000E+00 3.96750E+01 0.00000E+00
 -1      1127 0.00000E+00 3.67250E+01 0.00000E+00
 -1      1128 0.00000E+00 3.38000E+01 0.00000E+00
 -1      1129 0.00000E+00 3.08750E+01 0.00000E+00
 -1      1130 0.00000E+00 2.79250E+01 0.00000E+00
 -1      1131 0.00000E+00 2.49750E+01 0.00000E+00
 -1      1132 0.00000E+00 2.20250E+01 0.00000E+00
 -1      1133 0.00000E+00 1.90750E+01 0.00000E+00
 -1      1134 0.00000E+00 1.61500E+01 0.00000E+00
 -1      1135 0.00000E+00 1.32250E+01 0.00000E+00
 -1      1136 0.00000E+00 1.02750E+01 0.00000E+00
 -1      1137 0.00000E+00 7.32500E+00 0.00000E+00
 -1      1138 0.00000E+00 4.37500E+00 0.00000E+00
 -1      1139 0.00000E+00 1.45000E+00 0.00000E+00
 -1      1140 1.57500E+00 5.00000E+01 0.00000E+00
 -1      1141 4.65000E+00 5.00000E+01 0.00000E+00
 -1      1142 7.65000E+00 5.00000E+01 0.00000E+00
 -1      1143 1.06500E+01 5.00000E+01 0.00000E+00
 -1      1144 1.36500E+01 5.00000E+01 0.00000E+00
 -1      1145 1.66500E+01 5.00000E+01 0.00000E+00
 -1      1146 1.96500E+01 5.00000E+01 0.00000E+00
 -1      1147 2.26500E+01 5.00000E+01 0.00000E+00
 -1      1148 2.56500E+01 5.00000E+01 0.00000E+00
 -1      1149 2.86500E+01 5.00000E+01 0.00000E+00
 -1      1150 3.16500E+01 5.00000E+01 0.00000E+00
 -1      1151 3.46500E+01 5.00000E+01 0.00000E+00
 -1      1152 3.76500E+01 5.00000E+01 0.00000E+00
 -1      1153 4.06500E+01 5.00000E+01 0.00000E+00
 -1      1154 4.36500E+01 5.00000E+01 0.00000E+00
 -1      1155 4.66500E+01 5.00000E+01 0.00000E+00
 -1      1156 4.96500E+01 5.00000E+01 0.00000E+00
 -1      1157 5.26500E+01 5.00000E+01 0.00000E+00
 -1      1158 5.56500E+01 5.00000E+01 0.00000E+00
 -1      1159 5.86500E+01 5.00000E+01 0.00000E+00
 -1      1160 6.16500E+01 5.00000E+01 0.00000E+00
 -1      1161 6.46500E+01 5.00000E+01 0.00000E+00
 -1      1162 6.76500E+01 5.00000E+01 0.00000E+00
 -1      1163 7.06500E+01 5.00000E+01 0.00000E+00
 -1      1164 7.36500E+01 5.00000E+01 0.00000E+00
 -1      1165 7.66500E+01 5.00000E+01 0.00000E+00
 -1      1166 7.96500E+01 5.00000E+01 0.00000E+00
 -1      1167 8.26500E+01 5.00000E+01 0.00000E+00
 -1      1168 8.56500E+01 5.00000E+01 0.00000E+00
 -1      1169 8.86500E+01 5.00000E+01 0.00000E+00
 -1      1170 9.16500E+01 5.00000E+01 0.00000E+00
 -1      1171 9.46500E+01 5.00000E+01 0.00000E+00
 -1      1172 9.76500E+01 5.00000E+01 0.00000E+00
 -1      1173 1.00650E+02 5.00000E+01 0.00000E+00
 -1      1174 1.03650E+02 5.00000E+01 0.00000E+00
 -1      1175 1.06650E+02 5.00000E+01 0.00000E+00
 -1      1176 1.09650E+02 5.00000E+01 0.00000E+00
 -1      1177 1.12650E+02 5.00000E+01 0.00000E+00
 -1      1178 1.15650E+02 5.00000E+01 0.00000E+00
 -1      1179 1.18650E+02 5.00000E+01 0.00000E+00
 -1      1180 1.21650E+02 5.00000E+01 0.00000E+00
 -1      1181 1.24650E+02 5.00000E+01 0.00000E+00
 -1      1182 1.27650E+02 5.00000E+01 0.00000E+00
 -1      1183 1.30650E+02 5.00000E+01 0.00000E+00
 -1      1184 1.33650E+02 5.00000E+01 0.00000E+00
 -1      1185 1.36650E+02 5.00000E+01 0.00000E+00
 -1      1186 1.39650E+02 5.00000E+01 0.00000E+00
 -1      1187 1.42650E+02 5.00000E+01 0.00000E+00
 -1      1188 1.45650E+02 5.00000E+01 0.00000E+00
 -1      1189 1.48575E+02 5.00000E+01 0.00000E+00
 -1      1190 1.57500E+00 0.00000E+00 0.00000E+00
 -1      1191 4.65000E+00 0.00000E+00 0.00000E+00
 -1      1192 7.65000E+00 0.00000E+00 0.00000E+00
 -1      1193 1.06500E+01 0.00000E+00 0.00000E+00
 -1      1194 1.36500E+01 0.00000E+00 0.00000E+00
 -1      1195 1.66500E+01 0.00000E+00 0.00000E+00
 -1      1196 1.96500E+01 0.00000E+00 0.00000E+00
 -1      1197 2.26500E+01 0.00000E+00 0.00000E+00
 -1      1198 2.56500E+01 0.00000E+00 0.00000E+00
 -1      1199 2.86500E+01 0.00000E+00 0.00000E+00
 -1      1200 3.16500E+01 0.00000E+00 0.00000E+00
 -1      1201 3.46500E+01 0.00000E+00 0.00000E+00
 -1      1202 3.76500E+01 0.00000E+00 0.00000E+00
 -1      1203 4.06500E+01 0.00000E+00 0.00000E+00
 -1      1204 4.36500E+01 0.00000E+00 0.00000E+00
 -1      1205 4.66500E+01 0.00000E+00 0.00000E+00
 -1      1206 4.96500E+01 0.00000E+00 0.00000E+00
 -1      1207 5.26500E+01 0.00000E+00 0.00000E+00
 -1      1208 5.56500E+01 0.00000E+00 0.00000E+00
 -1      1209 5.86500E+01 0.00000E+00 0.00000E+00
 -1      1210 6.16500E+01 0.00000E+00 0.00000E+00
 -1      1211 6.46500E+01 0.00000E+00 0.00000E+00
 -1      1212 6.76500E+01 0.00000E+00 0.00000E+00
 -1      1213 7.06500E+01 0.00000E+00 0.00000E+00
 -1      1214 7.36500E+01 0.00000E+00 0.00000E+00
 -1      1215 7.66500E+01 0.00000E+00 0.00000E+00
 -1      1216 7.96500E+01 0.00000E+00 0.00000E+00
 -1      1217 8.26500E+01 0.00000E+00 0.00000E+00
 -1      1218 8.56500E+01 0.00000E+00 0.00000E+00
 -1      1219 8.86500E+01 0.00000E+00 0.00000E+00
 -1      1220 9.16500E+01 0.00000E+00 0.00000E+00
 -1      1221 9.46500E+01 0.00000E+00 0.00000E+00
 -1      1222 9.76500E+01 0.00000E+00 0.00000E+00
 -1      1223 1.00650E+02 0.00000E+00 0.00000E+00
 -1      1224 1.03650E+02 0.00000E+00 0.00000E+00
 -1      1225 1.06650E+02 0.00000E+00 0.00000E+00
 -1      1226 1.09650E+02 0.00000E+00 0.00000E+00
 -1      1227 1.12650E+02 0.00000E+00 0.00000E+00
 -1      1228 1.15650E+02 0.00000E+00 0.00000E+00
 -1      1229 1.18650E+02 0.00000E+00 0.00000E+00
 -1      1230 1.21650E+02 0.00000E+00 0.00000E+00
 -1      1231 1.24650E+02 0.00000E+00 0.00000E+00
 -1      1232 1.27650E+02 0.00000E+00 0.00000E+00
 -1      1233 1.30650E+02 0.00000E+00 0.00000E+00
 -1      1234 1.33650E+02 0.00000E+00 0.00000E+00
 -1      1235 1.36650E+02 0.00000E+00 0.00000E+00
 -1      1236 1.39650E+02 0.00000E+00 0.00000E+00
 -1      1237 1.42650E+02 0.00000E+00 0.00000E+00
 -1      1238 1.45650E+02 0.00000E+00 0.00000E+00
 -1      1239 1.48575E+02 0.00000E+00 0.00000E+00
 -1      1240 1.50000E+02 1.47500E+00 0.00000E+00
 -1      1241 1.50000E+02 4.42500E+00 0.00000E+00
 -1      1242 1.50000E+02 7.37500E+00 0.00000E+00
 -1      1243 1.50000E+02 1.03250E+01 0.00000E+00
 -1      1244 1.50000E+02 1.32750E+01 0.00000E+00
 -1      1245 1.50000E+02 1.62000E+01 0.00000E+00
 -1      1246 1.50000E+02 1.91250E+01 0.00000E+00
 -1      1247 1.50000E+02 2.20750E+01 0.00000E+00
 -1      1248 1.50000E+02 2.50250E+01 0.00000E+00
 -1      1249 1.50000E+02 2.79750E+01 0.00000E+00
 -1      1250 1.50000E+02 3.09250E+01 0.00000E+00
 -1      1251 1.50000E+02 3.38500E+01 0.00000E+00
 -1      1252 1.50000E+02 3.67750E+01 0.00000E+00
 -1      1253 1.50000E+02 3.97250E+01 0.00000E+00
 -1      1254 1.50000E+02 4.26750E+01 0.00000E+00
 -1      1255 1.50000E+02 4.56250E+01 0.00000E+00
 -1      1256 1.50000E+02 4.85500E+01 0.00000E+00
 -1      1257 1.28841E+02 2.00322E+01 0.00000E+00
 -1      1258 1.28506E+02 1.85531E+01 0.00000E+00
 -1      1259 1.27857E+02 1.71752E+01 0.00000E+00
 -1      1260 1.26904E+02 1.59484E+01 0.00000E+00
 -1      1261 1.25717E+02 1.49699E+01 0.00000E+00
 -1      1262 1.24350E+02 1.42768E+01 0.00000E+00
 -1      1263 1.22874E+02 1.38990E+01 0.00000E+00
 -1      1264 1.21375E+02 1.38476E+01 0.00000E+00
 -1      1265 1.19901E+02 1.41164E+01 0.00000E+00
 -1      1266 1.18425E+02 1.47446E+01 0.00000E+00
 -1      1267 1.17129E+02 1.56938E+01 0.00000E+00
 -1      1268 1.16081E+02 1.69168E+01 0.00000E+00
 -1      1269 1.15367E+02 1.82791E+01 0.00000E+00
 -1      1270 1.14982E+02 1.96727E+01 0.00000E+00
 -1      1271 1.14892E+02 2.11079E+01 0.00000E+00
 -1      1272 1.15118E+02 2.26151E+01 0.00000E+00
 -1      1273 1.15676E+02 2.40583E+01 0.00000E+00
 -1      1274 1.16489E+02 2.52864E+01 0.00000E+00
 -1      1275 1.17544E+02 2.63191E+01 0.00000E+00
 -1      1276 1.18785E+02 2.71045E+01 0.00000E+00
 -1      1277 1.20243E+02 2.76332E+01 0.00000E+00
 -1      1278 1.21805E+02 2.78284E+01 0.00000E+00
 -1      1279 1.23334E+02 2.76775E+01 0.00000E+00
 -1      1280 1.24779E+02 2.72033E+01 0.00000E+00
 -1      1281 1.26048E+02 2.64575E+01 0.00000E+00
 -1      1282 1.27116E+02 2.54823E+01 0.00000E+00
 -1      1283 1.27963E+02 2.43026E+01 0.00000E+00
 -1      1284 1.28548E+02 2.29795E+01 0.00000E+00
 -1      1285 1.28848E+02 2.15613E+01 0.00000E+00
 -1      1286 1.57500E+00 4.85250E+01 0.00000E+00
 -1      1287 1.29900E+00 4.48375E+01 0.00000E+00
 -1      1288 1.29900E+00 4.63125E+01 0.00000E+00
 -1      1289 1.29900E+00 4.18875E+01 0.00000E+00
 -1      1290 1.29900E+00 4.33625E+01 0.00000E+00
 -1      1291 2.59800E+00 4.41000E+01 0.00000E+00
 -1      1292 1.29900E+00 3.89375E+01 0.00000E+00
 -1      1293 1.29900E+00 4.04125E+01 0.00000E+00
 -1      1294 2.59800E+00 4.11500E+01 0.00000E+00
 -1      1295 1.29900E+00 3.59875E+01 0.00000E+00
 -1      1296 1.29900E+00 3.74625E+01 0.00000E+00
 -1      1297 2.59800E+00 3.82000E+01 0.00000E+00
 -1      1298 1.29900E+00 3.30875E+01 0.00000E+00
 -1      1299 1.29900E+00 3.45375E+01 0.00000E+00
 -1      1300 2.59800E+00 3.52750E+01 0.00000E+00
 -1      1301 1.29900E+00 3.01375E+01 0.00000E+00
 -1      1302 1.29900E+00 3.16125E+01 0.00000E+00
 -1      1303 2.59800E+00 3.23500E+01 0.00000E+00
 -1      1304 1.29900E+00 2.71875E+01 0.00000E+00
 -1      1305 1.29900E+00 2.86625E+01 0.00000E+00
 -1      1306 2.59800E+00 2.94000E+01 0.00000E+00
 -1      1307 1.29900E+00 2.42375E+01 0.00000E+00
 -1      1308 1.29900E+00 2.57125E+01 0.00000E+00
 -1      1309 2.59800E+00 2.64500E+01 0.00000E+00
 -1      1310 1.29900E+00 2.12875E+01 0.00000E+00
 -1      1311 1.29900E+00 2.27625E+01 0.00000E+00
 -1      1312 2.59800E+00 2.35000E+01 0.00000E+00
 -1      1313 1.29900E+00 1.83375E+01 0.00000E+00
 -1      1314 1.29900E+00 1.98125E+01 0.00000E+00
 -1      1315 2.59800E+00 2.05500E+01 0.00000E+00
 -1      1316 1.29900E+00 1.54375E+01 0.00000E+00
 -1      1317 1.29900E+00 1.68875E+01 0.00000E+00
 -1      1318 2.59800E+00 1.76250E+01 0.00000E+00
 -1      1319 1.29900E+00 1.24875E+01 0.00000E+00
 -1      1320 1.29900E+00 1.39625E+01 0.00000E+00
 -1      1321 2.59800E+00 1.47000E+01 0.00000E+00
 -1      1322 1.29900E+00 9.53750E+00 0.00000E+00
 -1      1323 1.29900E+00 1.10125E+01 0.00000E+00
 -1      1324 2.59800E+00 1.17500E+01 0.00000E+00
 -1      1325 1.29900E+00 6.58750E+00 0.00000E+00
 -1      1326 1.29900E+00 8.06250E+00 0.00000E+00
 -1      1327 2.59800E+00 8.80000E+00 0.00000E+00
 -1      1328 1.29900E+00 3.63750E+00 0.00000E+00
 -1      1329 1.29900E+00 5.11250E+00 0.00000E+00
 -1      1330 2.59800E+00 5.85000E+00 0.00000E+00
 -1      1331 1.43700E+00 1.09375E+00 0.00000E+00
 -1      1332 1.43700E+00 2.54375E+00 0.00000E+00
 -1      1333 2.73600E+00 3.28125E+00 0.00000E+00
 -1      1334 3.01200E+00 1.09375E+00 0.00000E+00
 -1      1335 3.90000E+00 4.87010E+01 0.00000E+00
 -1      1336 5.40000E+00 4.87010E+01 0.00000E+00
 -1      1337 6.90000E+00 4.87010E+01 0.00000E+00
 -1      1338 8.40000E+00 4.87010E+01 0.00000E+00
 -1      1339 6.15000E+00 4.74020E+01 0.00000E+00
 -1      1340 9.90000E+00 4.87010E+01 0.00000E+00
 -1      1341 1.14000E+01 4.87010E+01 0.00000E+00
 -1      1342 9.15000E+00 4.74020E+01 0.00000E+00
 -1      1343 1.29000E+01 4.87010E+01 0.00000E+00
 -1      1344 1.44000E+01 4.87010E+01 0.00000E+00
 -1      1345 1.21500E+01 4.74020E+01 0.00000E+00
 -1      1346 1.59000E+01 4.87010E+01 0.00000E+00
 -1      1347 1.74000E+01 4.87010E+01 0.00000E+00
 -1      1348 1.51500E+01 4.74020E+01 0.00000E+00
 -1      1349 1.89000E+01 4.87010E+01 0.00000E+00
 -1      1350 2.04000E+01 4.87010E+01 0.00000E+00
 -1      1351 1.81500E+01 4.74020E+01 0.00000E+00
 -1      1352 2.19000E+01 4.87010E+01 0.00000E+00
 -1      1353 2.34000E+01 4.87010E+01 0.00000E+00
 -1      1354 2.11500E+01 4.74020E+01 0.00000E+00
 -1      1355 2.49000E+01 4.87010E+01 0.00000E+00
 -1      1356 2.64000E+01 4.87010E+01 0.00000E+00
 -1      1357 2.41500E+01 4.74020E+01 0.00000E+00
 -1      1358 2.79000E+01 4.87010E+01 0.00000E+00
 -1      1359 2.94000E+01 4.87010E+01 0.00000E+00
 -1      1360 2.71500E+01 4.74020E+01 0.00000E+00
 -1      1361 3.09000E+01 4.87010E+01 0.00000E+00
 -1      1362 3.24000E+01 4.87010E+01 0.00000E+00
 -1      1363 3.01500E+01 4.74020E+01 0.00000E+00
 -1      1364 3.39000E+01 4.87010E+01 0.00000E+00
 -1      1365 3.54000E+01 4.87010E+01 0.00000E+00
 -1      1366 3.31500E+01 4.74020E+01 0.00000E+00
 -1      1367 3.69000E+01 4.87010E+01 0.00000E+00
 -1      1368 3.84000E+01 4.87010E+01 0.00000E+00
 -1      1369 3.61500E+01 4.74020E+01 0.00000E+00
 -1      1370 3.99000E+01 4.87010E+01 0.00000E+00
 -1      1371 4.14000E+01 4.87010E+01 0.00000E+00
 -1      1372 3.91500E+01 4.74020E+01 0.00000E+00
 -1      1373 4.29000E+01 4.87010E+01 0.00000E+00
 -1      1374 4.44000E+01 4.87010E+01 0.00000E+00
 -1      1375 4.21500E+01 4.74020E+01 0.00000E+00
 -1      1376 4.59000E+01 4.87010E+01 0.00000E+00
 -1      1377 4.74000E+01 4.87010E+01 0.00000E+00
 -1      1378 4.51500E+01 4.74020E+01 0.00000E+00
 -1      1379 4.89000E+01 4.87010E+01 0.00000E+00
 -1      1380 5.04000E+01 4.87010E+01 0.00000E+00
 -1      1381 4.81500E+01 4.74020E+01 0.00000E+00
 -1      1382 5.19000E+01 4.87010E+01 0.00000E+00
 -1      1383 5.34000E+01 4.87010E+01 0.00000E+00
 -1      1384 5.11500E+01 4.74020E+01 0.00000E+00
 -1      1385 5.49000E+01 4.87010E+01 0.00000E+00
 -1      1386 5.64000E+01 4.87010E+01 0.00000E+00
 -1      1387 5.41500E+01 4.74020E+01 0.00000E+00
 -1      1388 5.79000E+01 4.87010E+01 0.00000E+00
 -1      1389 5.94000E+01 4.87010E+01 0.00000E+00
 -1      1390 5.71500E+01 4.74020E+01 0.00000E+00
 -1      1391 6.09000E+01 4.87010E+01 0.00000E+00
 -1      1392 6.24000E+01 4.87010E+01 0.00000E+00
 -1      1393 6.01500E+01 4.74020E+01 0.00000E+00
 -1      1394 6.39000E+01 4.87010E+01 0.00000E+00
 -1      1395 6.54000E+01 4.87010E+01 0.00000E+00
 -1      1396 6.31500E+01 4.74020E+01 0.00000E+00
 -1      1397 6.69000E+01 4.87010E+01 0.00000E+00
 -1      1398 6.84000E+01 4.87010E+01 0.00000E+00
 -1      1399 6.61500E+01 4.74020E+01 0.00000E+00
 -1      1400 6.99000E+01 4.87010E+01 0.00000E+00
 -1      1401 7.14000E+01 4.87010E+01 0.00000E+00
 -1      1402 6.91500E+01 4.74020E+01 0.00000E+00
 -1      1403 7.29000E+01 4.87010E+01 0.00000E+00
 -1      1404 7.44000E+01 4.87010E+01 0.00000E+00
 -1      1405 7.21500E+01 4.74020E+01 0.00000E+00
 -1      1406 7.59000E+01 4.87010E+01 0.00000E+00
 -1      1407 7.74000E+01 4.87010E+01 0.00000E+00
 -1      1408 7.51500E+01 4.74020E+01 0.00000E+00
 -1      1409 7.89000E+01 4.87010E+01 0.00000E+00
 -1      1410 8.04000E+01 4.87010E+01 0.00000E+00
 -1      1411 7.81500E+01 4.74020E+01 0.00000E+00
 -1      1412 8.19000E+01 4.87010E+01 0.00000E+00
 -1      1413 8.34000E+01 4.87010E+01 0.00000E+00
 -1      1414 8.11500E+01 4.74020E+01 0.00000E+00
 -1      1415 8.49000E+01 4.87010E+01 0.00000E+00
 -1      1416 8.64000E+01 4.87010E+01 0.00000E+00
 -1      1417 8.41500E+01 4.74020E+01 0.00000E+00
 -1      1418 8.79000E+01 4.87010E+01 0.00000E+00
 -1      1419 8.94000E+01 4.87010E+01 0.00000E+00
 -1      1420 8.71500E+01 4.74020E+01 0.00000E+00
 -1      1421 9.09000E+01 4.87010E+01 0.00000E+00
 -1      1422 9.24000E+01 4.87010E+01 0.00000E+00
 -1      1423 9.01500E+01 4.74020E+01 0.00000E+00
 -1      1424 9.39000E+01 4.87010E+01 0.00000E+00
 -1      1425 9.54000E+01 4.87010E+01 0.00000E+00
 -1      1426 9.31500E+01 4.74020E+01 0.00000E+00
 -1      1427 9.69000E+01 4.87010E+01 0.00000E+00
 -1      1428 9.84000E+01 4.87010E+01 0.00000E+00
 -1      1429 9.61500E+01 4.74020E+01 0.00000E+00
 -1      1430 9.99000E+01 4.87010E+01 0.00000E+00
 -1      1431 1.01400E+02 4.87010E+01 0.00000E+00
 -1      1432 9.91500E+01 4.74020E+01 0.00000E+00
 -1      1433 1.02900E+02 4.87010E+01 0.00000E+00
 -1      1434 1.04400E+02 4.87010E+01 0.00000E+00
 -1      1435 1.02150E+02 4.74020E+01 0.00000E+00
 -1      1436 1.05900E+02 4.87010E+01 0.00000E+00
 -1      1437 1.07400E+02 4.87010E+01 0.00000E+00
 -1      1438 1.05150E+02 4.74020E+01 0.00000E+00
 -1      1439 1.08900E+02 4.87010E+01 0.00000E+00
 -1      1440 1.10400E+02 4.87010E+01 0.00000E+00
 -1      1441 1.08150E+02 4.74020E+01 0.00000E+00
 -1      1442 1.11900E+02 4.87010E+01 0.00000E+00
 -1      1443 1.13400E+02 4.87010E+01 0.00000E+00
 -1      1444 1.11150E+02 4.74020E+01 0.00000E+00
 -1      1445 1.14900E+02 4.87010E+01 0.00000E+00
 -1      1446 1.16400E+02 4.87010E+01 0.00000E+00
 -1      1447 1.14150E+02 4.74020E+01 0.00000E+00
 -1      1448 1.17900E+02 4.87010E+01 0.00000E+00
 -1      1449 1.19400E+02 4.87010E+01 0.00000E+00
 -1      1450 1.17150E+02 4.74020E+01 0.00000E+00
 -1      1451 1.20900E+02 4.87010E+01 0.00000E+00
 -1      1452 1.22400E+02 4.87010E+01 0.00000E+00
 -1      1453 1.20150E+02 4.74020E+01 0.00000E+00
 -1      1454 1.23900E+02 4.87010E+01 0.00000E+00
 -1      1455 1.25400E+02 4.87010E+01 0.00000E+00
 -1      1456 1.23150E+02 4.74020E+01 0.00000E+00
 -1      1457 1.26900E+02 4.87010E+01 0.00000E+00
 -1      1458 1.28400E+02 4.87010E+01 0.00000E+00
 -1      1459 1.26150E+02 4.74020E+01 0.00000E+00
 -1      1460 1.29900E+02 4.87010E+01 0.00000E+00
 -1      1461 1.31400E+02 4.87010E+01 0.00000E+00
 -1      1462 1.29150E+02 4.74020E+01 0.00000E+00
 -1      1463 1.32900E+02 4.87010E+01 0.00000E+00
 -1      1464 1.34400E+02 4.87010E+01 0.00000E+00
 -1      1465 1.32150E+02 4.74020E+01 0.00000E+00
 -1      1466 1.35900E+02 4.87010E+01 0.00000E+00
 -1      1467 1.37400E+02 4.87010E+01 0.00000E+00
 -1      1468 1.35150E+02 4.74020E+01 0.00000E+00
 -1      1469 1.38900E+02 4.87010E+01 0.00000E+00
 -1      1470 1.40400E+02 4.87010E+01 0.00000E+00
 -1      1471 1.38150E+02 4.74020E+01 0.00000E+00
 -1      1472 1.41900E+02 4.87010E+01 0.00000E+00
 -1      1473 1.43400E+02 4.87010E+01 0.00000E+00
 -1      1474 1.41150E+02 4.74020E+01 0.00000E+00
 -1      1475 1.44900E+02 4.87010E+01 0.00000E+00
 -1      1476 1.46400E+02 4.87010E+01 0.00000E+00
 -1      1477 1.44150E+02 4.74020E+01 0.00000E+00
 -1      1478 1.48575E+02 4.85500E+01 0.00000E+00
 -1      1479 1.47825E+02 4.72510E+01 0.00000E+00
 -1      1480 6.01200E+00 1.09375E+00 0.00000E+00
 -1      1481 4.51200E+00 1.09375E+00 0.00000E+00
 -1      1482 4.37400E+00 2.18750E+00 0.00000E+00
 -1      1483 9.01200E+00 1.09375E+00 0.00000E+00
 -1      1484 7.51200E+00 1.09375E+00 0.00000E+00
 -1      1485 7.37400E+00 2.18750E+00 0.00000E+00
 -1      1486 1.20120E+01 1.09375E+00 0.00000E+00
 -1      1487 1.05120E+01 1.09375E+00 0.00000E+00
 -1      1488 1.03740E+01 2.18750E+00 0.00000E+00
 -1      1489 1.50120E+01 1.09375E+00 0.00000E+00
 -1      1490 1.35120E+01 1.09375E+00 0.00000E+00
 -1      1491 1.33740E+01 2.18750E+00 0.00000E+00
 -1      1492 1.80120E+01 1.09375E+00 0.00000E+00
 -1      1493 1.65120E+01 1.09375E+00 0.00000E+00
 -1      1494 1.63740E+01 2.18750E+00 0.00000E+00
 -1      1495 2.10120E+01 1.09375E+00 0.00000E+00
 -1      1496 1.95120E+01 1.09375E+00 0.00000E+00
 -1      1497 1.93740E+01 2.18750E+00 0.00000E+00
 -1      1498 2.40120E+01 1.09375E+00 0.00000E+00
 -1      1499 2.25120E+01 1.09375E+00 0.00000E+00
 -1      1500 2.23740E+01 2.18750E+00 0.00000E+00
 -1      1501 2.70120E+01 1.09375E+00 0.00000E+00
 -1      1502 2.55120E+01 1.09375E+00 0.00000E+00
 -1      1503 2.53740E+01 2.18750E+00 0.00000E+00
 -1      1504 3.00120E+01 1.09375E+00 0.00000E+00
 -1      1505 2.85120E+01 1.09375E+00 0.00000E+00
 -1      1506 2.83740E+01 2.18750E+00 0.00000E+00
 -1      1507 3.30120E+01 1.09375E+00 0.00000E+00
 -1      1508 3.15120E+01 1.09375E+00 0.00000E+00
 -1      1509 3.13740E+01 2.18750E+00 0.00000E+00
 -1      1510 3.60120E+01 1.09375E+00 0.00000E+00
 -1      1511 3.45120E+01 1.09375E+00 0.00000E+00
 -1      1512 3.43740E+01 2.18750E+00 0.00000E+00
 -1      1513 3.90120E+01 1.09375E+00 0.00000E+00
 -1      1514 3.75120E+01 1.09375E+00 0.00000E+00
 -1      1515 3.73740E+01 2.18750E+00 0.00000E+00
 -1      1516 4.20120E+01 1.09375E+00 0.00000E+00
 -1      1517 4.05120E+01 1.09375E+00 0.00000E+00
 -1      1518 4.03740E+01 2.18750E+00 0.00000E+00
 -1      1519 4.50120E+01 1.09375E+00 0.00000E+00
 -1      1520 4.35120E+01 1.09375E+00 0.00000E+00
 -1      1521 4.33740E+01 2.18750E+00 0.00000E+00
 -1      1522 4.80120E+01 1.09375E+00 0.00000E+00
 -1      1523 4.65120E+01 1.09375E+00 0.00000E+00
 -1      1524 4.63740E+01 2.18750E+00 0.00000E+00
 -1      1525 5.10120E+01 1.09375E+00 0.00000E+00
 -1      1526 4.95120E+01 1.09375E+00 0.00000E+00
 -1      1527 4.93740E+01 2.18750E+00 0.00000E+00
 -1      1528 5.40120E+01 1.09375E+00 0.00000E+00
 -1      1529 5.25120E+01 1.09375E+00 0.00000E+00
 -1      1530 5.23740E+01 2.18750E+00 0.00000E+00
 -1      1531 5.70120E+01 1.09375E+00 0.00000E+00
 -1      1532 5.55120E+01 1.09375E+00 0.00000E+00
 -1      1533 5.53740E+01 2.18750E+00 0.00000E+00
 -1      1534 6.00120E+01 1.09375E+00 0.00000E+00
 -1      1535 5.85120E+01 1.09375E+00 0.00000E+00
 -1      1536 5.83740E+01 2.18750E+00 0.00000E+00
 -1      1537 6.30120E+01 1.09375E+00 0.00000E+00
 -1      1538 6.15120E+01 1.09375E+00 0.00000E+00
 -1      1539 6.13740E+01 2.18750E+00 0.00000E+00
 -1      1540 6.60120E+01 1.09375E+00 0.00000E+00
 -1      1541 6.45120E+01 1.09375E+00 0.00000E+00
 -1      1542 6.43740E+01 2.18750E+00 0.00000E+00
 -1      1543 6.90120E+01 1.09375E+00 0.00000E+00
 -1      1544 6.75120E+01 1.09375E+00 0.00000E+00
 -1      1545 6.73740E+01 2.18750E+00 0.00000E+00
 -1      1546 7.20120E+01 1.09375E+00 0.00000E+00
 -1      1547 7.05120E+01 1.09375E+00 0.00000E+00
 -1      1548 7.03740E+01 2.18750E+00 0.00000E+00
 -1      1549 7.50120E+01 1.09375E+00 0.00000E+00
 -1      1550 7.35120E+01 1.09375E+00 0.00000E+00
 -1      1551 7.33740E+01 2.18750E+00 0.00000E+00
 -1      1552 7.80120E+01 1.09375E+00 0.00000E+00
 -1      1553 7.65120E+01 1.09375E+00 0.00000E+00
 -1      1554 7.63740E+01 2.18750E+00 0.00000E+00
 -1      1555 8.10120E+01 1.09375E+00 0.00000E+00
 -1      1556 7.95120E+01 1.09375E+00 0.00000E+00
 -1      1557 7.93740E+01 2.18750E+00 0.00000E+00
 -1      1558 8.40120E+01 1.09375E+00 0.00000E+00
 -1      1559 8.25120E+01 1.09375E+00 0.00000E+00
 -1      1560 8.23740E+01 2.18750E+00 0.00000E+00
 -1      1561 8.70120E+01 1.09375E+00 0.00000E+00
 -1      1562 8.55120E+01 1.09375E+00 0.00000E+00
 -1      1563 8.53740E+01 2.18750E+00 0.00000E+00
 -1      1564 9.00120E+01 1.09375E+00 0.00000E+00
 -1      1565 8.85120E+01 1.09375E+00 0.00000E+00
 -1      1566 8.83740E+01 2.18750E+00 0.00000E+00
 -1      1567 9.30120E+01 1.09375E+00 0.00000E+00
 -1      1568 9.15120E+01 1.09375E+00 0.00000E+00
 -1      1569 9.13740E+01 2.18750E+00 0.00000E+00
 -1      1570 9.60120E+01 1.09375E+00 0.00000E+00
 -1      1571 9.45120E+01 1.09375E+00 0.00000E+00
 -1      1572 9.43740E+01 2.18750E+00 0.00000E+00
 -1      1573 9.90120E+01 1.09375E+00 0.00000E+00
 -1      1574 9.75120E+01 1.09375E+00 0.00000E+00
 -1      1575 9.73740E+01 2.18750E+00 0.00000E+00
 -1      1576 1.02012E+02 1.09375E+00 0.00000E+00
 -1      1577 1.00512E+02 1.09375E+00 0.00000E+00
 -1      1578 1.00374E+02 2.18750E+00 0.00000E+00
 -1      1579 1.05012E+02 1.09375E+00 0.00000E+00
 -1      1580 1.03512E+02 1.09375E+00 0.00000E+00
 -1      1581 1.03374E+02 2.18750E+00 0.00000E+00
 -1      1582 1.08012E+02 1.09375E+00 0.00000E+00
 -1      1583 1.06512E+02 1.09375E+00 0.00000E+00
 -1      1584 1.06374E+02 2.18750E+00 0.00000E+00
 -1      1585 1.11012E+02 1.09375E+00 0.00000E+00
 -1      1586 1.09512E+02 1.09375E+00 0.00000E+00
 -1      1587 1.09374E+02 2.18750E+00 0.00000E+00
 -1      1588 1.14012E+02 1.09375E+00 0.00000E+00
 -1      1589 1.12512E+02 1.09375E+00 0.00000E+00
 -1      1590 1.12374E+02 2.18750E+00 0.00000E+00
 -1      1591 1.17012E+02 1.09375E+00 0.00000E+00
 -1      1592 1.15512E+02 1.09375E+00 0.00000E+00
 -1      1593 1.15374E+02 2.18750E+00 0.00000E+00
 -1      1594 1.20012E+02 1.09375E+00 0.00000E+00
 -1      1595 1.18512E+02 1.09375E+00 0.00000E+00
 -1      1596 1.18374E+02 2.18750E+00 0.00000E+00
 -1      1597 1.23012E+02 1.09375E+00 0.00000E+00
 -1      1598 1.21512E+02 1.09375E+00 0.00000E+00
 -1      1599 1.21374E+02 2.18750E+00 0.00000E+00
 -1      1600 1.26012E+02 1.09375E+00 0.00000E+00
 -1      1601 1.24512E+02 1.09375E+00 0.00000E+00
 -1      1602 1.24374E+02 2.18750E+00 0.00000E+00
 -1      1603 1.29012E+02 1.09375E+00 0.00000E+00
 -1      1604 1.27512E+02 1.09375E+00 0.00000E+00
 -1      1605 1.27374E+02 2.18750E+00 0.00000E+00
 -1      1606 1.32012E+02 1.09375E+00 0.00000E+00
 -1      1607 1.30512E+02 1.09375E+00 0.00000E+00
 -1      1608 1.30374E+02 2.18750E+00 0.00000E+00
 -1      1609 1.35012E+02 1.09375E+00 0.00000E+00
 -1      1610 1.33512E+02 1.09375E+00 0.00000E+00
 -1      1611 1.33374E+02 2.18750E+00 0.00000E+00
 -1      1612 1.38012E+02 1.09375E+00 0.00000E+00
 -1      1613 1.36512E+02 1.09375E+00 0.00000E+00
 -1      1614 1.36374E+02 2.18750E+00 0.00000E+00
 -1      1615 1.41012E+02 1.09375E+00 0.00000E+00
 -1      1616 1.39512E+02 1.09375E+00 0.00000E+00
 -1      1617 1.39374E+02 2.18750E+00 0.00000E+00
 -1      1618 1.44012E+02 1.09375E+00 0.00000E+00
 -1      1619 1.42512E+02 1.09375E+00 0.00000E+00
 -1      1620 1.42374E+02 2.18750E+00 0.00000E+00
 -1      1621 1.47012E+02 1.09375E+00 0.00000E+00
 -1      1622 1.45512E+02 1.09375E+00 0.00000E+00
 -1      1623 1.45374E+02 2.18750E+00 0.00000E+00
 -1      1624 1.48575E+02 1.47500E+00 0.00000E+00
 -1      1625 1.48701E+02 5.16250E+00 0.00000E+00
 -1      1626 1.48701E+02 3.68750E+00 0.00000E+00
 -1      1627 1.48701E+02 8.11250E+00 0.00000E+00
 -1      1628 1.48701E+02 6.63750E+00 0.00000E+00
 -1      1629 1.47402E+02 5.90000E+00 0.00000E+00
 -1      1630 1.48701E+02 1.10625E+01 0.00000E+00
 -1      1631 1.48701E+02 9.58750E+00 0.00000E+00
 -1      1632 1.47402E+02 8.85000E+00 0.00000E+00
 -1      1633 1.48701E+02 1.40125E+01 0.00000E+00
 -1      1634 1.48701E+02 1.25375E+01 0.00000E+00
 -1      1635 1.47402E+02 1.18000E+01 0.00000E+00
 -1      1636 1.48701E+02 1.69125E+01 0.00000E+00
 -1      1637 1.48701E+02 1.54625E+01 0.00000E+00
 -1      1638 1.47402E+02 1.47250E+01 0.00000E+00
 -1      1639 1.48701E+02 1.98625E+01 0.00000E+00
 -1      1640 1.48701E+02 1.83875E+01 0.00000E+00
 -1      1641 1.47402E+02 1.76500E+01 0.00000E+00
 -1      1642 1.48701E+02 2.28125E+01 0.00000E+00
 -1      1643 1.48701E+02 2.13375E+01 0.00000E+00
 -1      1644 1.47402E+02 2.06000E+01 0.00000E+00
 -1      1645 1.48701E+02 2.57625E+01 0.00000E+00
 -1      1646 1.48701E+02 2.42875E+01 0.00000E+00
 -1      1647 1.47402E+02 2.35500E+01 0.00000E+00
 -1      1648 1.48701E+02 2.87125E+01 0.00000E+00
 -1      1649 1.48701E+02 2.72375E+01 0.00000E+00
 -1      1650 1.47402E+02 2.65000E+01 0.00000E+00
 -1      1651 1.48701E+02 3.16625E+01 0.00000E+00
 -1      1652 1.48701E+02 3.01875E+01 0.00000E+00
 -1      1653 1.47402E+02 2.94500E+01 0.00000E+00
 -1      1654 1.48701E+02 3.45625E+01 0.00000E+00
 -1      1655 1.48701E+02 3.31125E+01 0.00000E+00
 -1      1656 1.47402E+02 3.23750E+01 0.00000E+00
 -1      1657 1.48701E+02 3.75125E+01 0.00000E+00
 -1      1658 1.48701E+02 3.60375E+01 0.00000E+00
 -1      1659 1.47402E+02 3.53000E+01 0.00000E+00
 -1      1660 1.48701E+02 4.04625E+01 0.00000E+00
 -1      1661 1.48701E+02 3.89875E+01 0.00000E+00
 -1      1662 1.47402E+02 3.82500E+01 0.00000E+00
 -1      1663 1.48701E+02 4.34125E+01 0.00000E+00
 -1      1664 1.48701E+02 4.19375E+01 0.00000E+00
 -1      1665 1.47402E+02 4.12000E+01 0.00000E+00
 -1      1666 1.48263E+02 4.60692E+01 0.00000E+00
 -1      1667 1.48263E+02 4.45942E+01 0.00000E+00
 -1      1668 1.46964E+02 4.38568E+01 0.00000E+00
 -1      1669 1.46088E+02 4.62202E+01 0.00000E+00
 -1      1670 1.29394E+02 1.95679E+01 0.00000E+00
 -1      1671 1.29485E+02 2.03594E+01 0.00000E+00
 -1      1672 1.28927E+02 1.80277E+01 0.00000E+00
 -1      1673 1.29161E+02 1.87084E+01 0.00000E+00
 -1      1674 1.28232E+02 1.64748E+01 0.00000E+00
 -1      1675 1.28651E+02 1.71599E+01 0.00000E+00
 -1      1676 1.27078E+02 1.52558E+01 0.00000E+00
 -1      1677 1.27601E+02 1.57935E+01 0.00000E+00
 -1      1678 1.25740E+02 1.42139E+01 0.00000E+00
 -1      1679 1.26400E+02 1.46455E+01 0.00000E+00
 -1      1680 1.24201E+02 1.36156E+01 0.00000E+00
 -1      1681 1.24897E+02 1.38773E+01 0.00000E+00
 -1      1682 1.22579E+02 1.32040E+01 0.00000E+00
 -1      1683 1.23351E+02 1.33141E+01 0.00000E+00
 -1      1684 1.20975E+02 1.33063E+01 0.00000E+00
 -1      1685 1.21693E+02 1.32538E+01 0.00000E+00
 -1      1686 1.19344E+02 1.36069E+01 0.00000E+00
 -1      1687 1.20091E+02 1.33860E+01 0.00000E+00
 -1      1688 1.17708E+02 1.43185E+01 0.00000E+00
 -1      1689 1.18425E+02 1.39105E+01 0.00000E+00
 -1      1690 1.16403E+02 1.54850E+01 0.00000E+00
 -1      1691 1.16976E+02 1.49543E+01 0.00000E+00
 -1      1692 1.15249E+02 1.68557E+01 0.00000E+00
 -1      1693 1.15712E+02 1.61680E+01 0.00000E+00
 -1      1694 1.14707E+02 1.84015E+01 0.00000E+00
 -1      1695 1.14965E+02 1.77413E+01 0.00000E+00
 -1      1696 1.14321E+02 1.99355E+01 0.00000E+00
 -1      1697 1.14442E+02 1.92087E+01 0.00000E+00
 -1      1698 1.14335E+02 2.14809E+01 0.00000E+00
 -1      1699 1.14307E+02 2.07804E+01 0.00000E+00
 -1      1700 1.14522E+02 2.31980E+01 0.00000E+00
 -1      1701 1.14312E+02 2.24023E+01 0.00000E+00
 -1      1702 1.15338E+02 2.46420E+01 0.00000E+00
 -1      1703 1.15004E+02 2.39994E+01 0.00000E+00
 -1      1704 1.16258E+02 2.59621E+01 0.00000E+00
 -1      1705 1.15782E+02 2.53849E+01 0.00000E+00
 -1      1706 1.17476E+02 2.69905E+01 0.00000E+00
 -1      1707 1.16906E+02 2.65392E+01 0.00000E+00
 -1      1708 1.18829E+02 2.78521E+01 0.00000E+00
 -1      1709 1.18165E+02 2.75236E+01 0.00000E+00
 -1      1710 1.20465E+02 2.84348E+01 0.00000E+00
 -1      1711 1.19679E+02 2.82448E+01 0.00000E+00
 -1      1712 1.22181E+02 2.83971E+01 0.00000E+00
 -1      1713 1.21416E+02 2.83882E+01 0.00000E+00
 -1      1714 1.23828E+02 2.81492E+01 0.00000E+00
 -1      1715 1.23073E+02 2.83087E+01 0.00000E+00
 -1      1716 1.25388E+02 2.76402E+01 0.00000E+00
 -1      1717 1.24706E+02 2.79498E+01 0.00000E+00
 -1      1718 1.26701E+02 2.67338E+01 0.00000E+00
 -1      1719 1.26120E+02 2.71634E+01 0.00000E+00
 -1      1720 1.27781E+02 2.55901E+01 0.00000E+00
 -1      1721 1.27300E+02 2.61306E+01 0.00000E+00
 -1      1722 1.28710E+02 2.43096E+01 0.00000E+00
 -1      1723 1.28348E+02 2.49427E+01 0.00000E+00
 -1      1724 1.29239E+02 2.28261E+01 0.00000E+00
 -1      1725 1.29019E+02 2.35085E+01 0.00000E+00
 -1      1726 1.29451E+02 2.12565E+01 0.00000E+00
 -1      1727 1.29374E+02 2.19849E+01 0.00000E+00
 -1      1728 1.27126E+02 1.44625E+01 0.00000E+00
 -1      1729 1.28435E+02 1.57541E+01 0.00000E+00
 -1      1730 1.48437E+02 2.56875E+00 0.00000E+00
 -1      1731 1.47138E+02 3.30625E+00 0.00000E+00
 -1      1732 1.29850E+02 1.90304E+01 0.00000E+00
 -1      1733 1.29342E+02 1.73031E+01 0.00000E+00
 -1      1734 1.30049E+02 2.07870E+01 0.00000E+00
 -1      1735 1.25605E+02 1.35156E+01 0.00000E+00
 -1      1736 1.23913E+02 1.28775E+01 0.00000E+00
 -1      1737 1.22176E+02 1.26257E+01 0.00000E+00
 -1      1738 1.20405E+02 1.27551E+01 0.00000E+00
 -1      1739 1.18603E+02 1.31384E+01 0.00000E+00
 -1      1740 1.16952E+02 1.40777E+01 0.00000E+00
 -1      1741 1.15530E+02 1.53965E+01 0.00000E+00
 -1      1742 1.14555E+02 1.69650E+01 0.00000E+00
 -1      1743 1.14007E+02 1.86578E+01 0.00000E+00
 -1      1744 1.13729E+02 2.03099E+01 0.00000E+00
 -1      1745 1.13692E+02 2.20762E+01 0.00000E+00
 -1      1746 1.14151E+02 2.37990E+01 0.00000E+00
 -1      1747 1.15077E+02 2.53433E+01 0.00000E+00
 -1      1748 1.16168E+02 2.66632E+01 0.00000E+00
 -1      1749 1.17503E+02 2.77733E+01 0.00000E+00
 -1      1750 1.19041E+02 2.86992E+01 0.00000E+00
 -1      1751 1.20841E+02 2.90454E+01 0.00000E+00
 -1      1752 1.22684E+02 2.89104E+01 0.00000E+00
 -1      1753 1.24454E+02 2.86227E+01 0.00000E+00
 -1      1754 1.26064E+02 2.79465E+01 0.00000E+00
 -1      1755 1.27395E+02 2.68665E+01 0.00000E+00
 -1      1756 1.28561E+02 2.56159E+01 0.00000E+00
 -1      1757 1.29437E+02 2.41675E+01 0.00000E+00
 -1      1758 1.29881E+02 2.25253E+01 0.00000E+00
 -1      1759 2.87400E+00 4.77875E+01 0.00000E+00
 -1      1760 3.89700E+00 4.04125E+01 0.00000E+00
 -1      1761 3.89700E+00 4.18875E+01 0.00000E+00
 -1      1762 3.89700E+00 4.33625E+01 0.00000E+00
 -1      1763 3.89700E+00 4.48375E+01 0.00000E+00
 -1      1764 5.19600E+00 4.26250E+01 0.00000E+00
 -1      1765 3.89700E+00 3.45500E+01 0.00000E+00
 -1      1766 3.89700E+00 3.60000E+01 0.00000E+00
 -1      1767 3.89700E+00 3.16000E+01 0.00000E+00
 -1      1768 3.89700E+00 3.30750E+01 0.00000E+00
 -1      1769 5.19600E+00 3.38000E+01 0.00000E+00
 -1      1770 3.89700E+00 2.86500E+01 0.00000E+00
 -1      1771 3.89700E+00 3.01250E+01 0.00000E+00
 -1      1772 5.19600E+00 3.08500E+01 0.00000E+00
 -1      1773 3.89700E+00 2.57000E+01 0.00000E+00
 -1      1774 3.89700E+00 2.71750E+01 0.00000E+00
 -1      1775 5.19600E+00 2.79000E+01 0.00000E+00
 -1      1776 3.89700E+00 2.27500E+01 0.00000E+00
 -1      1777 3.89700E+00 2.42250E+01 0.00000E+00
 -1      1778 5.19600E+00 2.49500E+01 0.00000E+00
 -1      1779 3.89700E+00 1.98000E+01 0.00000E+00
 -1      1780 3.89700E+00 2.12750E+01 0.00000E+00
 -1      1781 5.19600E+00 2.20000E+01 0.00000E+00
 -1      1782 3.89700E+00 1.69000E+01 0.00000E+00
 -1      1783 3.89700E+00 1.83500E+01 0.00000E+00
 -1      1784 5.19600E+00 1.90750E+01 0.00000E+00
 -1      1785 3.89700E+00 1.39500E+01 0.00000E+00
 -1      1786 3.89700E+00 1.54250E+01 0.00000E+00
 -1      1787 5.19600E+00 1.61500E+01 0.00000E+00
 -1      1788 3.89700E+00 1.10000E+01 0.00000E+00
 -1      1789 3.89700E+00 1.24750E+01 0.00000E+00
 -1      1790 5.19600E+00 1.32000E+01 0.00000E+00
 -1      1791 3.89700E+00 8.05000E+00 0.00000E+00
 -1      1792 3.89700E+00 9.52500E+00 0.00000E+00
 -1      1793 5.19600E+00 1.02500E+01 0.00000E+00
 -1      1794 3.89700E+00 5.10000E+00 0.00000E+00
 -1      1795 3.89700E+00 6.57500E+00 0.00000E+00
 -1      1796 5.19600E+00 7.30000E+00 0.00000E+00
 -1      1797 4.20450E+00 3.09687E+00 0.00000E+00
 -1      1798 4.06650E+00 4.19063E+00 0.00000E+00
 -1      1799 5.36550E+00 4.91563E+00 0.00000E+00
 -1      1800 5.70450E+00 3.09687E+00 0.00000E+00
 -1      1801 3.62400E+00 4.64885E+01 0.00000E+00
 -1      1802 8.70450E+00 3.09687E+00 0.00000E+00
 -1      1803 7.20450E+00 3.09687E+00 0.00000E+00
 -1      1804 7.03500E+00 4.00625E+00 0.00000E+00
 -1      1805 4.92300E+00 4.57510E+01 0.00000E+00
 -1      1806 8.40000E+00 4.61030E+01 0.00000E+00
 -1      1807 9.90000E+00 4.61030E+01 0.00000E+00
 -1      1808 1.14000E+01 4.61030E+01 0.00000E+00
 -1      1809 1.29000E+01 4.61030E+01 0.00000E+00
 -1      1810 1.06500E+01 4.48040E+01 0.00000E+00
 -1      1811 1.44000E+01 4.61030E+01 0.00000E+00
 -1      1812 1.59000E+01 4.61030E+01 0.00000E+00
 -1      1813 1.36500E+01 4.48040E+01 0.00000E+00
 -1      1814 1.74000E+01 4.61030E+01 0.00000E+00
 -1      1815 1.89000E+01 4.61030E+01 0.00000E+00
 -1      1816 1.66500E+01 4.48040E+01 0.00000E+00
 -1      1817 2.04000E+01 4.61030E+01 0.00000E+00
 -1      1818 2.19000E+01 4.61030E+01 0.00000E+00
 -1      1819 1.96500E+01 4.48040E+01 0.00000E+00
 -1      1820 2.34000E+01 4.61030E+01 0.00000E+00
 -1      1821 2.49000E+01 4.61030E+01 0.00000E+00
 -1      1822 2.26500E+01 4.48040E+01 0.00000E+00
 -1      1823 2.64000E+01 4.61030E+01 0.00000E+00
 -1      1824 2.79000E+01 4.61030E+01 0.00000E+00
 -1      1825 2.56500E+01 4.48040E+01 0.00000E+00
 -1      1826 2.94000E+01 4.61030E+01 0.00000E+00
 -1      1827 3.09000E+01 4.61030E+01 0.00000E+00
 -1      1828 2.86500E+01 4.48040E+01 0.00000E+00
 -1      1829 3.24000E+01 4.61030E+01 0.00000E+00
 -1      1830 3.39000E+01 4.61030E+01 0.00000E+00
 -1      1831 3.16500E+01 4.48040E+01 0.00000E+00
 -1      1832 3.54000E+01 4.61030E+01 0.00000E+00
 -1      1833 3.69000E+01 4.61030E+01 0.00000E+00
 -1      1834 3.46500E+01 4.48040E+01 0.00000E+00
 -1      1835 3.84000E+01 4.61030E+01 0.00000E+00
 -1      1836 3.99000E+01 4.61030E+01 0.00000E+00
 -1      1837 3.76500E+01 4.48040E+01 0.00000E+00
 -1      1838 4.14000E+01 4.61030E+01 0.00000E+00
 -1      1839 4.29000E+01 4.61030E+01 0.00000E+00
 -1      1840 4.06500E+01 4.48040E+01 0.00000E+00
 -1      1841 4.44000E+01 4.61030E+01 0.00000E+00
 -1      1842 4.59000E+01 4.61030E+01 0.00000E+00
 -1      1843 4.36500E+01 4.48040E+01 0.00000E+00
 -1      1844 4.74000E+01 4.61030E+01 0.00000E+00
 -1      1845 4.89000E+01 4.61030E+01 0.00000E+00
 -1      1846 4.66500E+01 4.48040E+01 0.00000E+00
 -1      1847 5.04000E+01 4.61030E+01 0.00000E+00
 -1      1848 5.19000E+01 4.61030E+01 0.00000E+00
 -1      1849 4.96500E+01 4.48040E+01 0.00000E+00
 -1      1850 5.34000E+01 4.61030E+01 0.00000E+00
 -1      1851 5.49000E+01 4.61030E+01 0.00000E+00
 -1      1852 5.26500E+01 4.48040E+01 0.00000E+00
 -1      1853 5.64000E+01 4.61030E+01 0.00000E+00
 -1      1854 5.79000E+01 4.61030E+01 0.00000E+00
 -1      1855 5.56500E+01 4.48040E+01 0.00000E+00
 -1      1856 5.94000E+01 4.61030E+01 0.00000E+00
 -1      1857 6.09000E+01 4.61030E+01 0.00000E+00
 -1      1858 5.86500E+01 4.48040E+01 0.00000E+00
 -1      1859 6.24000E+01 4.61030E+01 0.00000E+00
 -1      1860 6.39000E+01 4.61030E+01 0.00000E+00
 -1      1861 6.16500E+01 4.48040E+01 0.00000E+00
 -1      1862 6.54000E+01 4.61030E+01 0.00000E+00
 -1      1863 6.69000E+01 4.61030E+01 0.00000E+00
 -1      1864 6.46500E+01 4.48040E+01 0.00000E+00
 -1      1865 6.84000E+01 4.61030E+01 0.00000E+00
 -1      1866 6.99000E+01 4.61030E+01 0.00000E+00
 -1      1867 6.76500E+01 4.48040E+01 0.00000E+00
 -1      1868 7.14000E+01 4.61030E+01 0.00000E+00
 -1      1869 7.29000E+01 4.61030E+01 0.00000E+00
 -1      1870 7.06500E+01 4.48040E+01 0.00000E+00
 -1      1871 7.44000E+01 4.61030E+01 0.00000E+00
 -1      1872 7.59000E+01 4.61030E+01 0.00000E+00
 -1      1873 7.36500E+01 4.48040E+01 0.00000E+00
 -1      1874 7.74000E+01 4.61030E+01 0.00000E+00
 -1      1875 7.89000E+01 4.61030E+01 0.00000E+00
 -1      1876 7.66500E+01 4.48040E+01 0.00000E+00
 -1      1877 8.04000E+01 4.61030E+01 0.00000E+00
 -1      1878 8.19000E+01 4.61030E+01 0.00000E+00
 -1      1879 7.96500E+01 4.48040E+01 0.00000E+00
 -1      1880 8.34000E+01 4.61030E+01 0.00000E+00
 -1      1881 8.49000E+01 4.61030E+01 0.00000E+00
 -1      1882 8.26500E+01 4.48040E+01 0.00000E+00
 -1      1883 8.64000E+01 4.61030E+01 0.00000E+00
 -1      1884 8.79000E+01 4.61030E+01 0.00000E+00
 -1      1885 8.56500E+01 4.48040E+01 0.00000E+00
 -1      1886 8.94000E+01 4.61030E+01 0.00000E+00
 -1      1887 9.09000E+01 4.61030E+01 0.00000E+00
 -1      1888 8.86500E+01 4.48040E+01 0.00000E+00
 -1      1889 9.24000E+01 4.61030E+01 0.00000E+00
 -1      1890 9.39000E+01 4.61030E+01 0.00000E+00
 -1      1891 9.16500E+01 4.48040E+01 0.00000E+00
 -1      1892 9.54000E+01 4.61030E+01 0.00000E+00
 -1      1893 9.69000E+01 4.61030E+01 0.00000E+00
 -1      1894 9.46500E+01 4.48040E+01 0.00000E+00
 -1      1895 9.84000E+01 4.61030E+01 0.00000E+00
 -1      1896 9.99000E+01 4.61030E+01 0.00000E+00
 -1      1897 9.76500E+01 4.48040E+01 0.00000E+00
 -1      1898 1.01400E+02 4.61030E+01 0.00000E+00
 -1      1899 1.02900E+02 4.61030E+01 0.00000E+00
 -1      1900 1.00650E+02 4.48040E+01 0.00000E+00
 -1      1901 1.04400E+02 4.61030E+01 0.00000E+00
 -1      1902 1.05900E+02 4.61030E+01 0.00000E+00
 -1      1903 1.03650E+02 4.48040E+01 0.00000E+00
 -1      1904 1.07400E+02 4.61030E+01 0.00000E+00
 -1      1905 1.08900E+02 4.61030E+01 0.00000E+00
 -1      1906 1.06650E+02 4.48040E+01 0.00000E+00
 -1      1907 1.10400E+02 4.61030E+01 0.00000E+00
 -1      1908 1.11900E+02 4.61030E+01 0.00000E+00
 -1      1909 1.09650E+02 4.48040E+01 0.00000E+00
 -1      1910 1.13400E+02 4.61030E+01 0.00000E+00
 -1      1911 1.14900E+02 4.61030E+01 0.00000E+00
 -1      1912 1.12650E+02 4.48040E+01 0.00000E+00
 -1      1913 1.16400E+02 4.61030E+01 0.00000E+00
 -1      1914 1.17900E+02 4.61030E+01 0.00000E+00
 -1      1915 1.15650E+02 4.48040E+01 0.00000E+00
 -1      1916 1.19400E+02 4.61030E+01 0.00000E+00
 -1      1917 1.20900E+02 4.61030E+01 0.00000E+00
 -1      1918 1.18650E+02 4.48040E+01 0.00000E+00
 -1      1919 1.22400E+02 4.61030E+01 0.00000E+00
 -1      1920 1.23900E+02 4.61030E+01 0.00000E+00
 -1      1921 1.21650E+02 4.48040E+01 0.00000E+00
 -1      1922 1.25400E+02 4.61030E+01 0.00000E+00
 -1      1923 1.26900E+02 4.61030E+01 0.00000E+00
 -1      1924 1.24650E+02 4.48040E+01 0.00000E+00
 -1      1925 1.28400E+02 4.61030E+01 0.00000E+00
 -1      1926 1.29900E+02 4.61030E+01 0.00000E+00
 -1      1927 1.27650E+02 4.48040E+01 0.00000E+00
 -1      1928 1.31400E+02 4.61030E+01 0.00000E+00
 -1      1929 1.32900E+02 4.61030E+01 0.00000E+00
 -1      1930 1.30650E+02 4.48040E+01 0.00000E+00
 -1      1931 1.34400E+02 4.61030E+01 0.00000E+00
 -1      1932 1.35900E+02 4.61030E+01 0.00000E+00
 -1      1933 1.33650E+02 4.48040E+01 0.00000E+00
 -1      1934 1.37400E+02 4.61030E+01 0.00000E+00
 -1      1935 1.38900E+02 4.61030E+01 0.00000E+00
 -1      1936 1.36650E+02 4.48040E+01 0.00000E+00
 -1      1937 1.40400E+02 4.61030E+01 0.00000E+00
 -1      1938 1.41900E+02 4.61030E+01 0.00000E+00
 -1      1939 1.39650E+02 4.48040E+01 0.00000E+00
 -1      1940 1.43244E+02 4.61616E+01 0.00000E+00
 -1      1941 1.44744E+02 4.61616E+01 0.00000E+00
 -1      1942 1.45182E+02 4.49799E+01 0.00000E+00
 -1      1943 1.42494E+02 4.48626E+01 0.00000E+00
 -1      1944 1.17045E+01 3.09687E+00 0.00000E+00
 -1      1945 1.02045E+01 3.09687E+00 0.00000E+00
 -1      1946 1.00350E+01 4.00625E+00 0.00000E+00
 -1      1947 1.47045E+01 3.09687E+00 0.00000E+00
 -1      1948 1.32045E+01 3.09687E+00 0.00000E+00
 -1      1949 1.30350E+01 4.00625E+00 0.00000E+00
 -1      1950 1.77045E+01 3.09687E+00 0.00000E+00
 -1      1951 1.62045E+01 3.09687E+00 0.00000E+00
 -1      1952 1.60350E+01 4.00625E+00 0.00000E+00
 -1      1953 2.07045E+01 3.09687E+00 0.00000E+00
 -1      1954 1.92045E+01 3.09687E+00 0.00000E+00
 -1      1955 1.90350E+01 4.00625E+00 0.00000E+00
 -1      1956 2.37045E+01 3.09687E+00 0.00000E+00
 -1      1957 2.22045E+01 3.09687E+00 0.00000E+00
 -1      1958 2.20350E+01 4.00625E+00 0.00000E+00
 -1      1959 2.67045E+01 3.09687E+00 0.00000E+00
 -1      1960 2.52045E+01 3.09687E+00 0.00000E+00
 -1      1961 2.50350E+01 4.00625E+00 0.00000E+00
 -1      1962 2.97045E+01 3.09687E+00 0.00000E+00
 -1      1963 2.82045E+01 3.09687E+00 0.00000E+00
 -1      1964 2.80350E+01 4.00625E+00 0.00000E+00
 -1      1965 3.27045E+01 3.09687E+00 0.00000E+00
 -1      1966 3.12045E+01 3.09687E+00 0.00000E+00
 -1      1967 3.10350E+01 4.00625E+00 0.00000E+00
 -1      1968 3.57045E+01 3.09687E+00 0.00000E+00
 -1      1969 3.42045E+01 3.09687E+00 0.00000E+00
 -1      1970 3.40350E+01 4.00625E+00 0.00000E+00
 -1      1971 3.87045E+01 3.09687E+00 0.00000E+00
 -1      1972 3.72045E+01 3.09687E+00 0.00000E+00
 -1      1973 3.70350E+01 4.00625E+00 0.00000E+00
 -1      1974 4.17045E+01 3.09687E+00 0.00000E+00
 -1      1975 4.02045E+01 3.09687E+00 0.00000E+00
 -1      1976 4.00350E+01 4.00625E+00 0.00000E+00
 -1      1977 4.47045E+01 3.09687E+00 0.00000E+00
 -1      1978 4.32045E+01 3.09687E+00 0.00000E+00
 -1      1979 4.30350E+01 4.00625E+00 0.00000E+00
 -1      1980 4.77045E+01 3.09687E+00 0.00000E+00
 -1      1981 4.62045E+01 3.09687E+00 0.00000E+00
 -1      1982 4.60350E+01 4.00625E+00 0.00000E+00
 -1      1983 5.07045E+01 3.09687E+00 0.00000E+00
 -1      1984 4.92045E+01 3.09687E+00 0.00000E+00
 -1      1985 4.90350E+01 4.00625E+00 0.00000E+00
 -1      1986 5.37045E+01 3.09687E+00 0.00000E+00
 -1      1987 5.22045E+01 3.09687E+00 0.00000E+00
 -1      1988 5.20350E+01 4.00625E+00 0.00000E+00
 -1      1989 5.67045E+01 3.09687E+00 0.00000E+00
 -1      1990 5.52045E+01 3.09687E+00 0.00000E+00
 -1      1991 5.50350E+01 4.00625E+00 0.00000E+00
 -1      1992 5.97045E+01 3.09687E+00 0.00000E+00
 -1      1993 5.82045E+01 3.09687E+00 0.00000E+00
 -1      1994 5.80350E+01 4.00625E+00 0.00000E+00
 -1      1995 6.27045E+01 3.09687E+00 0.00000E+00
 -1      1996 6.12045E+01 3.09687E+00 0.00000E+00
 -1      1997 6.10350E+01 4.00625E+00 0.00000E+00
 -1      1998 6.57045E+01 3.09687E+00 0.00000E+00
 -1      1999 6.42045E+01 3.09687E+00 0.00000E+00
 -1      2000 6.40350E+01 4.00625E+00 0.00000E+00
 -1      2001 6.87045E+01 3.09687E+00 0.00000E+00
 -1      2002 6.72045E+01 3.09687E+00 0.00000E+00
 -1      2003 6.70350E+01 4.00625E+00 0.00000E+00
 -1      2004 7.17045E+01 3.09687E+00 0.00000E+00
 -1      2005 7.02045E+01 3.09687E+00 0.00000E+00
 -1      2006 7.00350E+01 4.00625E+00 0.00000E+00
 -1      2007 7.47045E+01 3.09687E+00 0.00000E+00
 -1      2008 7.32045E+01 3.09687E+00 0.00000E+00
 -1      2009 7.30350E+01 4.00625E+00 0.00000E+00
 -1      2010 7.77045E+01 3.09687E+00 0.00000E+00
 -1      2011 7.62045E+01 3.09687E+00 0.00000E+00
 -1      2012 7.60350E+01 4.00625E+00 0.00000E+00
 -1      2013 8.07045E+01 3.09687E+00 0.00000E+00
 -1      2014 7.92045E+01 3.09687E+00 0.00000E+00
 -1      2015 7.90350E+01 4.00625E+00 0.00000E+00
 -1      2016 8.37045E+01 3.09687E+00 0.00000E+00
 -1      2017 8.22045E+01 3.09687E+00 0.00000E+00
 -1      2018 8.20350E+01 4.00625E+00 0.00000E+00
 -1      2019 8.67045E+01 3.09687E+00 0.00000E+00
 -1      2020 8.52045E+01 3.09687E+00 0.00000E+00
 -1      2021 8.50350E+01 4.00625E+00 0.00000E+00
 -1      2022 8.97045E+01 3.09687E+00 0.00000E+00
 -1      2023 8.82045E+01 3.09687E+00 0.00000E+00
 -1      2024 8.80350E+01 4.00625E+00 0.00000E+00
 -1      2025 9.27045E+01 3.09687E+00 0.00000E+00
 -1      2026 9.12045E+01 3.09687E+00 0.00000E+00
 -1      2027 9.10350E+01 4.00625E+00 0.00000E+00
 -1      2028 9.57045E+01 3.09687E+00 0.00000E+00
 -1      2029 9.42045E+01 3.09687E+00 0.00000E+00
 -1      2030 9.40350E+01 4.00625E+00 0.00000E+00
 -1      2031 9.87045E+01 3.09687E+00 0.00000E+00
 -1      2032 9.72045E+01 3.09687E+00 0.00000E+00
 -1      2033 9.70350E+01 4.00625E+00 0.00000E+00
 -1      2034 1.01704E+02 3.09687E+00 0.00000E+00
 -1      2035 1.00204E+02 3.09687E+00 0.00000E+00
 -1      2036 1.00035E+02 4.00625E+00 0.00000E+00
 -1      2037 1.04704E+02 3.09687E+00 0.00000E+00
 -1      2038 1.03204E+02 3.09687E+00 0.00000E+00
 -1      2039 1.03035E+02 4.00625E+00 0.00000E+00
 -1      2040 1.07704E+02 3.09687E+00 0.00000E+00
 -1      2041 1.06204E+02 3.09687E+00 0.00000E+00
 -1      2042 1.06035E+02 4.00625E+00 0.00000E+00
 -1      2043 1.10704E+02 3.09687E+00 0.00000E+00
 -1      2044 1.09204E+02 3.09687E+00 0.00000E+00
 -1      2045 1.09035E+02 4.00625E+00 0.00000E+00
 -1      2046 1.13704E+02 3.09687E+00 0.00000E+00
 -1      2047 1.12204E+02 3.09687E+00 0.00000E+00
 -1      2048 1.12035E+02 4.00625E+00 0.00000E+00
 -1      2049 1.16704E+02 3.09687E+00 0.00000E+00
 -1      2050 1.15204E+02 3.09687E+00 0.00000E+00
 -1      2051 1.15035E+02 4.00625E+00 0.00000E+00
 -1      2052 1.19704E+02 3.09687E+00 0.00000E+00
 -1      2053 1.18204E+02 3.09687E+00 0.00000E+00
 -1      2054 1.18035E+02 4.00625E+00 0.00000E+00
 -1      2055 1.22704E+02 3.09687E+00 0.00000E+00
 -1      2056 1.21204E+02 3.09687E+00 0.00000E+00
 -1      2057 1.21035E+02 4.00625E+00 0.00000E+00
 -1      2058 1.25704E+02 3.09687E+00 0.00000E+00
 -1      2059 1.24204E+02 3.09687E+00 0.00000E+00
 -1      2060 1.24035E+02 4.00625E+00 0.00000E+00
 -1      2061 1.28704E+02 3.09687E+00 0.00000E+00
 -1      2062 1.27204E+02 3.09687E+00 0.00000E+00
 -1      2063 1.27035E+02 4.00625E+00 0.00000E+00
 -1      2064 1.31704E+02 3.09687E+00 0.00000E+00
 -1      2065 1.30204E+02 3.09687E+00 0.00000E+00
 -1      2066 1.30035E+02 4.00625E+00 0.00000E+00
 -1      2067 1.34704E+02 3.09687E+00 0.00000E+00
 -1      2068 1.33204E+02 3.09687E+00 0.00000E+00
 -1      2069 1.33035E+02 4.00625E+00 0.00000E+00
 -1      2070 1.37704E+02 3.09687E+00 0.00000E+00
 -1      2071 1.36204E+02 3.09687E+00 0.00000E+00
 -1      2072 1.36035E+02 4.00625E+00 0.00000E+00
 -1      2073 1.40704E+02 3.09687E+00 0.00000E+00
 -1      2074 1.39204E+02 3.09687E+00 0.00000E+00
 -1      2075 1.39035E+02 4.00625E+00 0.00000E+00
 -1      2076 1.43704E+02 3.09687E+00 0.00000E+00
 -1      2077 1.42204E+02 3.09687E+00 0.00000E+00
 -1      2078 1.42035E+02 4.00625E+00 0.00000E+00
 -1      2079 1.46171E+02 3.20156E+00 0.00000E+00
 -1      2080 1.44671E+02 3.20156E+00 0.00000E+00
 -1      2081 1.44502E+02 4.11094E+00 0.00000E+00
 -1      2082 1.46435E+02 4.32031E+00 0.00000E+00
 -1      2083 1.46103E+02 1.25375E+01 0.00000E+00
 -1      2084 1.46103E+02 1.10625E+01 0.00000E+00
 -1      2085 1.46103E+02 9.58750E+00 0.00000E+00
 -1      2086 1.46103E+02 8.11250E+00 0.00000E+00
 -1      2087 1.44804E+02 1.03250E+01 0.00000E+00
 -1      2088 1.46269E+02 6.95391E+00 0.00000E+00
 -1      2089 1.46269E+02 5.47891E+00 0.00000E+00
 -1      2090 1.45302E+02 5.37422E+00 0.00000E+00
 -1      2091 1.44970E+02 7.69141E+00 0.00000E+00
 -1      2092 1.46103E+02 1.54375E+01 0.00000E+00
 -1      2093 1.46103E+02 1.39875E+01 0.00000E+00
 -1      2094 1.44804E+02 1.32500E+01 0.00000E+00
 -1      2095 1.46103E+02 1.83875E+01 0.00000E+00
 -1      2096 1.46103E+02 1.69125E+01 0.00000E+00
 -1      2097 1.44804E+02 1.61750E+01 0.00000E+00
 -1      2098 1.46103E+02 2.13375E+01 0.00000E+00
 -1      2099 1.46103E+02 1.98625E+01 0.00000E+00
 -1      2100 1.44804E+02 1.91250E+01 0.00000E+00
 -1      2101 1.46103E+02 2.42875E+01 0.00000E+00
 -1      2102 1.46103E+02 2.28125E+01 0.00000E+00
 -1      2103 1.44804E+02 2.20750E+01 0.00000E+00
 -1      2104 1.46103E+02 2.72375E+01 0.00000E+00
 -1      2105 1.46103E+02 2.57625E+01 0.00000E+00
 -1      2106 1.44804E+02 2.50250E+01 0.00000E+00
 -1      2107 1.46103E+02 3.01875E+01 0.00000E+00
 -1      2108 1.46103E+02 2.87125E+01 0.00000E+00
 -1      2109 1.44804E+02 2.79750E+01 0.00000E+00
 -1      2110 1.46103E+02 3.30875E+01 0.00000E+00
 -1      2111 1.46103E+02 3.16375E+01 0.00000E+00
 -1      2112 1.44804E+02 3.09000E+01 0.00000E+00
 -1      2113 1.46103E+02 3.60375E+01 0.00000E+00
 -1      2114 1.46103E+02 3.45625E+01 0.00000E+00
 -1      2115 1.44804E+02 3.38250E+01 0.00000E+00
 -1      2116 1.46103E+02 3.89875E+01 0.00000E+00
 -1      2117 1.46103E+02 3.75125E+01 0.00000E+00
 -1      2118 1.44804E+02 3.67750E+01 0.00000E+00
 -1      2119 1.46103E+02 4.19375E+01 0.00000E+00
 -1      2120 1.46103E+02 4.04625E+01 0.00000E+00
 -1      2121 1.44804E+02 3.97250E+01 0.00000E+00
 -1      2122 1.29901E+02 1.66477E+01 0.00000E+00
 -1      2123 1.30177E+02 1.75155E+01 0.00000E+00
 -1      2124 1.30923E+02 2.03709E+01 0.00000E+00
 -1      2125 1.30889E+02 2.12681E+01 0.00000E+00
 -1      2126 1.30410E+02 1.83750E+01 0.00000E+00
 -1      2127 1.30643E+02 1.92344E+01 0.00000E+00
 -1      2128 1.30970E+02 1.77195E+01 0.00000E+00
 -1      2129 1.28595E+02 1.49731E+01 0.00000E+00
 -1      2130 1.29226E+02 1.56544E+01 0.00000E+00
 -1      2131 1.27248E+02 1.36443E+01 0.00000E+00
 -1      2132 1.27927E+02 1.42546E+01 0.00000E+00
 -1      2133 3.89700E+00 3.74688E+01 0.00000E+00
 -1      2134 3.89700E+00 3.89437E+01 0.00000E+00
 -1      2135 5.19600E+00 3.96813E+01 0.00000E+00
 -1      2136 5.19600E+00 3.67438E+01 0.00000E+00
 -1      2137 1.23746E+02 1.19975E+01 0.00000E+00
 -1      2138 1.24596E+02 1.22990E+01 0.00000E+00
 -1      2139 1.21687E+02 1.18362E+01 0.00000E+00
 -1      2140 1.22574E+02 1.17864E+01 0.00000E+00
 -1      2141 1.19919E+02 1.19955E+01 0.00000E+00
 -1      2142 1.20803E+02 1.19159E+01 0.00000E+00
 -1      2143 1.21201E+02 1.10766E+01 0.00000E+00
 -1      2144 1.17900E+02 1.25554E+01 0.00000E+00
 -1      2145 1.18819E+02 1.22519E+01 0.00000E+00
 -1      2146 1.16051E+02 1.37800E+01 0.00000E+00
 -1      2147 1.16783E+02 1.31442E+01 0.00000E+00
 -1      2148 1.14670E+02 1.51460E+01 0.00000E+00
 -1      2149 1.15361E+02 1.44630E+01 0.00000E+00
 -1      2150 1.15191E+02 1.35295E+01 0.00000E+00
 -1      2151 1.13637E+02 1.71589E+01 0.00000E+00
 -1      2152 1.13920E+02 1.62733E+01 0.00000E+00
 -1      2153 1.13107E+02 1.87734E+01 0.00000E+00
 -1      2154 1.13372E+02 1.79661E+01 0.00000E+00
 -1      2155 1.12737E+02 1.72745E+01 0.00000E+00
 -1      2156 1.12990E+02 2.07207E+01 0.00000E+00
 -1      2157 1.13004E+02 1.98759E+01 0.00000E+00
 -1      2158 1.12943E+02 2.25635E+01 0.00000E+00
 -1      2159 1.12967E+02 2.16421E+01 0.00000E+00
 -1      2160 1.12242E+02 2.12081E+01 0.00000E+00
 -1      2161 1.13801E+02 2.45555E+01 0.00000E+00
 -1      2162 1.13319E+02 2.37541E+01 0.00000E+00
 -1      2163 1.14688E+02 2.60414E+01 0.00000E+00
 -1      2164 1.14244E+02 2.52984E+01 0.00000E+00
 -1      2165 1.13412E+02 2.52536E+01 0.00000E+00
 -1      2166 1.15921E+02 2.75919E+01 0.00000E+00
 -1      2167 1.15273E+02 2.70149E+01 0.00000E+00
 -1      2168 1.17297E+02 2.86580E+01 0.00000E+00
 -1      2169 1.16609E+02 2.81250E+01 0.00000E+00
 -1      2170 1.15715E+02 2.84766E+01 0.00000E+00
 -1      2171 1.19158E+02 2.95599E+01 0.00000E+00
 -1      2172 1.18309E+02 2.91671E+01 0.00000E+00
 -1      2173 1.21358E+02 2.98786E+01 0.00000E+00
 -1      2174 1.20408E+02 2.99252E+01 0.00000E+00
 -1      2175 1.23143E+02 2.97018E+01 0.00000E+00
 -1      2176 1.22250E+02 2.97902E+01 0.00000E+00
 -1      2177 1.21817E+02 3.06700E+01 0.00000E+00
 -1      2178 1.25046E+02 2.91959E+01 0.00000E+00
 -1      2179 1.24168E+02 2.93952E+01 0.00000E+00
 -1      2180 1.26853E+02 2.83564E+01 0.00000E+00
 -1      2181 1.26121E+02 2.88332E+01 0.00000E+00
 -1      2182 1.28184E+02 2.70509E+01 0.00000E+00
 -1      2183 1.27585E+02 2.76541E+01 0.00000E+00
 -1      2184 1.29319E+02 2.57562E+01 0.00000E+00
 -1      2185 1.28751E+02 2.64036E+01 0.00000E+00
 -1      2186 1.28942E+02 2.71912E+01 0.00000E+00
 -1      2187 1.30275E+02 2.40302E+01 0.00000E+00
 -1      2188 1.29966E+02 2.48313E+01 0.00000E+00
 -1      2189 1.30755E+02 2.21092E+01 0.00000E+00
 -1      2190 1.30620E+02 2.29503E+01 0.00000E+00
 -1      2191 1.31629E+02 2.16931E+01 0.00000E+00
 -1      2192 1.25439E+02 1.26356E+01 0.00000E+00
 -1      2193 1.26281E+02 1.29722E+01 0.00000E+00
 -1      2194 1.25272E+02 1.17556E+01 0.00000E+00
 -1      2195 1.27082E+02 1.27643E+01 0.00000E+00
 -1      2196 6.42300E+00 4.57510E+01 0.00000E+00
 -1      2197 7.17300E+00 4.44520E+01 0.00000E+00
 -1      2198 1.31483E+02 1.97154E+01 0.00000E+00
 -1      2199 1.30222E+02 1.50858E+01 0.00000E+00
 -1      2200 1.30062E+02 1.58667E+01 0.00000E+00
 -1      2201 1.30897E+02 1.60791E+01 0.00000E+00
 -1      2202 1.45665E+02 4.31193E+01 0.00000E+00
 -1      2203 1.28718E+02 1.41549E+01 0.00000E+00
 -1      2204 1.30156E+02 2.56189E+01 0.00000E+00
 -1      2205 1.27642E+02 2.85409E+01 0.00000E+00
 -1      2206 1.23735E+02 3.02750E+01 0.00000E+00
 -1      2207 1.17415E+02 2.95187E+01 0.00000E+00
 -1      2208 1.14441E+02 2.69700E+01 0.00000E+00
 -1      2209 1.12593E+02 2.33201E+01 0.00000E+00
 -1      2210 1.11868E+02 2.28860E+01 0.00000E+00
 -1      2211 1.12244E+02 2.40766E+01 0.00000E+00
 -1      2212 1.12369E+02 1.91842E+01 0.00000E+00
 -1      2213 1.13751E+02 1.53399E+01 0.00000E+00
 -1      2214 1.13581E+02 1.44064E+01 0.00000E+00
 -1      2215 1.12832E+02 1.55338E+01 0.00000E+00
 -1      2216 1.19217E+02 1.14126E+01 0.00000E+00
 -1      2217 1.23257E+02 1.12080E+01 0.00000E+00
 -1      2218 1.17000E+02 1.22577E+01 0.00000E+00
 -1      2219 1.19676E+02 3.03931E+01 0.00000E+00
 -1      2220 1.25834E+02 2.96058E+01 0.00000E+00
 -1      2221 1.31148E+02 2.36141E+01 0.00000E+00
 -1      2222 1.07850E+01 5.30525E+00 0.00000E+00
 -1      2223 9.28500E+00 5.30525E+00 0.00000E+00
 -1      2224 6.49500E+00 3.01125E+01 0.00000E+00
 -1      2225 6.49500E+00 3.15875E+01 0.00000E+00
 -1      2226 6.49500E+00 3.30625E+01 0.00000E+00
 -1      2227 6.49500E+00 3.45375E+01 0.00000E+00
 -1      2228 7.79400E+00 3.23250E+01 0.00000E+00
 -1      2229 6.49500E+00 2.42125E+01 0.00000E+00
 -1      2230 6.49500E+00 2.56875E+01 0.00000E+00
 -1      2231 6.49500E+00 2.12625E+01 0.00000E+00
 -1      2232 6.49500E+00 2.27375E+01 0.00000E+00
 -1      2233 7.79400E+00 2.34750E+01 0.00000E+00
 -1      2234 6.49500E+00 1.83625E+01 0.00000E+00
 -1      2235 6.49500E+00 1.98125E+01 0.00000E+00
 -1      2236 7.79400E+00 2.05500E+01 0.00000E+00
 -1      2237 6.49500E+00 1.54125E+01 0.00000E+00
 -1      2238 6.49500E+00 1.68875E+01 0.00000E+00
 -1      2239 7.79400E+00 1.76250E+01 0.00000E+00
 -1      2240 6.49500E+00 1.24625E+01 0.00000E+00
 -1      2241 6.49500E+00 1.39375E+01 0.00000E+00
 -1      2242 7.79400E+00 1.46750E+01 0.00000E+00
 -1      2243 6.49500E+00 9.51250E+00 0.00000E+00
 -1      2244 6.49500E+00 1.09875E+01 0.00000E+00
 -1      2245 7.79400E+00 1.17250E+01 0.00000E+00
 -1      2246 1.37850E+01 5.30525E+00 0.00000E+00
 -1      2247 1.22850E+01 5.30525E+00 0.00000E+00
 -1      2248 1.15350E+01 6.60425E+00 0.00000E+00
 -1      2249 9.90000E+00 4.35050E+01 0.00000E+00
 -1      2250 1.14000E+01 4.35050E+01 0.00000E+00
 -1      2251 6.55950E+00 4.28890E+01 0.00000E+00
 -1      2252 8.53650E+00 4.32410E+01 0.00000E+00
 -1      2253 9.28650E+00 4.19420E+01 0.00000E+00
 -1      2254 6.55950E+00 4.14140E+01 0.00000E+00
 -1      2255 1.27088E+02 1.17241E+01 0.00000E+00
 -1      2256 1.28055E+02 1.23962E+01 0.00000E+00
 -1      2257 1.29000E+01 4.35050E+01 0.00000E+00
 -1      2258 1.44000E+01 4.35050E+01 0.00000E+00
 -1      2259 1.21500E+01 4.22060E+01 0.00000E+00
 -1      2260 1.59000E+01 4.35050E+01 0.00000E+00
 -1      2261 1.74000E+01 4.35050E+01 0.00000E+00
 -1      2262 1.51500E+01 4.22060E+01 0.00000E+00
 -1      2263 1.89000E+01 4.35050E+01 0.00000E+00
 -1      2264 2.04000E+01 4.35050E+01 0.00000E+00
 -1      2265 1.81500E+01 4.22060E+01 0.00000E+00
 -1      2266 2.19000E+01 4.35050E+01 0.00000E+00
 -1      2267 2.34000E+01 4.35050E+01 0.00000E+00
 -1      2268 2.11500E+01 4.22060E+01 0.00000E+00
 -1      2269 2.49000E+01 4.35050E+01 0.00000E+00
 -1      2270 2.64000E+01 4.35050E+01 0.00000E+00
 -1      2271 2.41500E+01 4.22060E+01 0.00000E+00
 -1      2272 2.79000E+01 4.35050E+01 0.00000E+00
 -1      2273 2.94000E+01 4.35050E+01 0.00000E+00
 -1      2274 2.71500E+01 4.22060E+01 0.00000E+00
 -1      2275 3.09000E+01 4.35050E+01 0.00000E+00
 -1      2276 3.24000E+01 4.35050E+01 0.00000E+00
 -1      2277 3.01500E+01 4.22060E+01 0.00000E+00
 -1      2278 3.39000E+01 4.35050E+01 0.00000E+00
 -1      2279 3.54000E+01 4.35050E+01 0.00000E+00
 -1      2280 3.31500E+01 4.22060E+01 0.00000E+00
 -1      2281 3.69000E+01 4.35050E+01 0.00000E+00
 -1      2282 3.84000E+01 4.35050E+01 0.00000E+00
 -1      2283 3.61500E+01 4.22060E+01 0.00000E+00
 -1      2284 3.99000E+01 4.35050E+01 0.00000E+00
 -1      2285 4.14000E+01 4.35050E+01 0.00000E+00
 -1      2286 3.91500E+01 4.22060E+01 0.00000E+00
 -1      2287 4.29000E+01 4.35050E+01 0.00000E+00
 -1      2288 4.44000E+01 4.35050E+01 0.00000E+00
 -1      2289 4.21500E+01 4.22060E+01 0.00000E+00
 -1      2290 4.59000E+01 4.35050E+01 0.00000E+00
 -1      2291 4.74000E+01 4.35050E+01 0.00000E+00
 -1      2292 4.51500E+01 4.22060E+01 0.00000E+00
 -1      2293 4.89000E+01 4.35050E+01 0.00000E+00
 -1      2294 5.04000E+01 4.35050E+01 0.00000E+00
 -1      2295 4.81500E+01 4.22060E+01 0.00000E+00
 -1      2296 5.19000E+01 4.35050E+01 0.00000E+00
 -1      2297 5.34000E+01 4.35050E+01 0.00000E+00
 -1      2298 5.11500E+01 4.22060E+01 0.00000E+00
 -1      2299 5.49000E+01 4.35050E+01 0.00000E+00
 -1      2300 5.64000E+01 4.35050E+01 0.00000E+00
 -1      2301 5.41500E+01 4.22060E+01 0.00000E+00
 -1      2302 5.79000E+01 4.35050E+01 0.00000E+00
 -1      2303 5.94000E+01 4.35050E+01 0.00000E+00
 -1      2304 5.71500E+01 4.22060E+01 0.00000E+00
 -1      2305 6.09000E+01 4.35050E+01 0.00000E+00
 -1      2306 6.24000E+01 4.35050E+01 0.00000E+00
 -1      2307 6.01500E+01 4.22060E+01 0.00000E+00
 -1      2308 6.39000E+01 4.35050E+01 0.00000E+00
 -1      2309 6.54000E+01 4.35050E+01 0.00000E+00
 -1      2310 6.31500E+01 4.22060E+01 0.00000E+00
 -1      2311 6.69000E+01 4.35050E+01 0.00000E+00
 -1      2312 6.84000E+01 4.35050E+01 0.00000E+00
 -1      2313 6.61500E+01 4.22060E+01 0.00000E+00
 -1      2314 6.99000E+01 4.35050E+01 0.00000E+00
 -1      2315 7.14000E+01 4.35050E+01 0.00000E+00
 -1      2316 6.91500E+01 4.22060E+01 0.00000E+00
 -1      2317 7.29000E+01 4.35050E+01 0.00000E+00
 -1      2318 7.44000E+01 4.35050E+01 0.00000E+00
 -1      2319 7.21500E+01 4.22060E+01 0.00000E+00
 -1      2320 7.59000E+01 4.35050E+01 0.00000E+00
 -1      2321 7.74000E+01 4.35050E+01 0.00000E+00
 -1      2322 7.51500E+01 4.22060E+01 0.00000E+00
 -1      2323 7.89000E+01 4.35050E+01 0.00000E+00
 -1      2324 8.04000E+01 4.35050E+01 0.00000E+00
 -1      2325 7.81500E+01 4.22060E+01 0.00000E+00
 -1      2326 8.19000E+01 4.35050E+01 0.00000E+00
 -1      2327 8.34000E+01 4.35050E+01 0.00000E+00
 -1      2328 8.11500E+01 4.22060E+01 0.00000E+00
 -1      2329 8.49000E+01 4.35050E+01 0.00000E+00
 -1      2330 8.64000E+01 4.35050E+01 0.00000E+00
 -1      2331 8.41500E+01 4.22060E+01 0.00000E+00
 -1      2332 8.79000E+01 4.35050E+01 0.00000E+00
 -1      2333 8.94000E+01 4.35050E+01 0.00000E+00
 -1      2334 8.71500E+01 4.22060E+01 0.00000E+00
 -1      2335 9.09000E+01 4.35050E+01 0.00000E+00
 -1      2336 9.24000E+01 4.35050E+01 0.00000E+00
 -1      2337 9.01500E+01 4.22060E+01 0.00000E+00
 -1      2338 9.39000E+01 4.35050E+01 0.00000E+00
 -1      2339 9.54000E+01 4.35050E+01 0.00000E+00
 -1      2340 9.31500E+01 4.22060E+01 0.00000E+00
 -1      2341 9.69000E+01 4.35050E+01 0.00000E+00
 -1      2342 9.84000E+01 4.35050E+01 0.00000E+00
 -1      2343 9.61500E+01 4.22060E+01 0.00000E+00
 -1      2344 9.99000E+01 4.35050E+01 0.00000E+00
 -1      2345 1.01400E+02 4.35050E+01 0.00000E+00
 -1      2346 9.91500E+01 4.22060E+01 0.00000E+00
 -1      2347 1.02900E+02 4.35050E+01 0.00000E+00
 -1      2348 1.04400E+02 4.35050E+01 0.00000E+00
 -1      2349 1.02150E+02 4.22060E+01 0.00000E+00
 -1      2350 1.05900E+02 4.35050E+01 0.00000E+00
 -1      2351 1.07400E+02 4.35050E+01 0.00000E+00
 -1      2352 1.05150E+02 4.22060E+01 0.00000E+00
 -1      2353 1.08900E+02 4.35050E+01 0.00000E+00
 -1      2354 1.10400E+02 4.35050E+01 0.00000E+00
 -1      2355 1.08150E+02 4.22060E+01 0.00000E+00
 -1      2356 1.11900E+02 4.35050E+01 0.00000E+00
 -1      2357 1.13400E+02 4.35050E+01 0.00000E+00
 -1      2358 1.11150E+02 4.22060E+01 0.00000E+00
 -1      2359 1.14900E+02 4.35050E+01 0.00000E+00
 -1      2360 1.16400E+02 4.35050E+01 0.00000E+00
 -1      2361 1.14150E+02 4.22060E+01 0.00000E+00
 -1      2362 1.17900E+02 4.35050E+01 0.00000E+00
 -1      2363 1.19400E+02 4.35050E+01 0.00000E+00
 -1      2364 1.17150E+02 4.22060E+01 0.00000E+00
 -1      2365 1.20900E+02 4.35050E+01 0.00000E+00
 -1      2366 1.22400E+02 4.35050E+01 0.00000E+00
 -1      2367 1.20150E+02 4.22060E+01 0.00000E+00
 -1      2368 1.23900E+02 4.35050E+01 0.00000E+00
 -1      2369 1.25400E+02 4.35050E+01 0.00000E+00
 -1      2370 1.23150E+02 4.22060E+01 0.00000E+00
 -1      2371 1.26900E+02 4.35050E+01 0.00000E+00
 -1      2372 1.28400E+02 4.35050E+01 0.00000E+00
 -1      2373 1.26150E+02 4.22060E+01 0.00000E+00
 -1      2374 1.29900E+02 4.35050E+01 0.00000E+00
 -1      2375 1.31400E+02 4.35050E+01 0.00000E+00
 -1      2376 1.29150E+02 4.22060E+01 0.00000E+00
 -1      2377 1.32900E+02 4.35050E+01 0.00000E+00
 -1      2378 1.34400E+02 4.35050E+01 0.00000E+00
 -1      2379 1.32150E+02 4.22060E+01 0.00000E+00
 -1      2380 1.35900E+02 4.35050E+01 0.00000E+00
 -1      2381 1.37400E+02 4.35050E+01 0.00000E+00
 -1      2382 1.35150E+02 4.22060E+01 0.00000E+00
 -1      2383 1.38900E+02 4.35050E+01 0.00000E+00
 -1      2384 1.40400E+02 4.35050E+01 0.00000E+00
 -1      2385 1.38150E+02 4.22060E+01 0.00000E+00
 -1      2386 1.31681E+02 1.70654E+01 0.00000E+00
 -1      2387 1.31914E+02 1.79249E+01 0.00000E+00
 -1      2388 1.97850E+01 5.30525E+00 0.00000E+00
 -1      2389 1.82850E+01 5.30525E+00 0.00000E+00
 -1      2390 2.27850E+01 5.30525E+00 0.00000E+00
 -1      2391 2.12850E+01 5.30525E+00 0.00000E+00
 -1      2392 2.05350E+01 6.60425E+00 0.00000E+00
 -1      2393 2.57850E+01 5.30525E+00 0.00000E+00
 -1      2394 2.42850E+01 5.30525E+00 0.00000E+00
 -1      2395 2.35350E+01 6.60425E+00 0.00000E+00
 -1      2396 2.87850E+01 5.30525E+00 0.00000E+00
 -1      2397 2.72850E+01 5.30525E+00 0.00000E+00
 -1      2398 2.65350E+01 6.60425E+00 0.00000E+00
 -1      2399 3.17850E+01 5.30525E+00 0.00000E+00
 -1      2400 3.02850E+01 5.30525E+00 0.00000E+00
 -1      2401 2.95350E+01 6.60425E+00 0.00000E+00
 -1      2402 3.47850E+01 5.30525E+00 0.00000E+00
 -1      2403 3.32850E+01 5.30525E+00 0.00000E+00
 -1      2404 3.25350E+01 6.60425E+00 0.00000E+00
 -1      2405 3.77850E+01 5.30525E+00 0.00000E+00
 -1      2406 3.62850E+01 5.30525E+00 0.00000E+00
 -1      2407 3.55350E+01 6.60425E+00 0.00000E+00
 -1      2408 4.07850E+01 5.30525E+00 0.00000E+00
 -1      2409 3.92850E+01 5.30525E+00 0.00000E+00
 -1      2410 3.85350E+01 6.60425E+00 0.00000E+00
 -1      2411 4.37850E+01 5.30525E+00 0.00000E+00
 -1      2412 4.22850E+01 5.30525E+00 0.00000E+00
 -1      2413 4.15350E+01 6.60425E+00 0.00000E+00
 -1      2414 4.67850E+01 5.30525E+00 0.00000E+00
 -1      2415 4.52850E+01 5.30525E+00 0.00000E+00
 -1      2416 4.45350E+01 6.60425E+00 0.00000E+00
 -1      2417 4.97850E+01 5.30525E+00 0.00000E+00
 -1      2418 4.82850E+01 5.30525E+00 0.00000E+00
 -1      2419 4.75350E+01 6.60425E+00 0.00000E+00
 -1      2420 5.27850E+01 5.30525E+00 0.00000E+00
 -1      2421 5.12850E+01 5.30525E+00 0.00000E+00
 -1      2422 5.05350E+01 6.60425E+00 0.00000E+00
 -1      2423 5.57850E+01 5.30525E+00 0.00000E+00
 -1      2424 5.42850E+01 5.30525E+00 0.00000E+00
 -1      2425 5.35350E+01 6.60425E+00 0.00000E+00
 -1      2426 5.87850E+01 5.30525E+00 0.00000E+00
 -1      2427 5.72850E+01 5.30525E+00 0.00000E+00
 -1      2428 5.65350E+01 6.60425E+00 0.00000E+00
 -1      2429 6.17850E+01 5.30525E+00 0.00000E+00
 -1      2430 6.02850E+01 5.30525E+00 0.00000E+00
 -1      2431 5.95350E+01 6.60425E+00 0.00000E+00
 -1      2432 6.47850E+01 5.30525E+00 0.00000E+00
 -1      2433 6.32850E+01 5.30525E+00 0.00000E+00
 -1      2434 6.25350E+01 6.60425E+00 0.00000E+00
 -1      2435 6.77850E+01 5.30525E+00 0.00000E+00
 -1      2436 6.62850E+01 5.30525E+00 0.00000E+00
 -1      2437 6.55350E+01 6.60425E+00 0.00000E+00
 -1      2438 7.07850E+01 5.30525E+00 0.00000E+00
 -1      2439 6.92850E+01 5.30525E+00 0.00000E+00
 -1      2440 6.85350E+01 6.60425E+00 0.00000E+00
 -1      2441 7.37850E+01 5.30525E+00 0.00000E+00
 -1      2442 7.22850E+01 5.30525E+00 0.00000E+00
 -1      2443 7.15350E+01 6.60425E+00 0.00000E+00
 -1      2444 7.67850E+01 5.30525E+00 0.00000E+00
 -1      2445 7.52850E+01 5.30525E+00 0.00000E+00
 -1      2446 7.45350E+01 6.60425E+00 0.00000E+00
 -1      2447 7.97850E+01 5.30525E+00 0.00000E+00
 -1      2448 7.82850E+01 5.30525E+00 0.00000E+00
 -1      2449 7.75350E+01 6.60425E+00 0.00000E+00
 -1      2450 8.27850E+01 5.30525E+00 0.00000E+00
 -1      2451 8.12850E+01 5.30525E+00 0.00000E+00
 -1      2452 8.05350E+01 6.60425E+00 0.00000E+00
 -1      2453 8.57850E+01 5.30525E+00 0.00000E+00
 -1      2454 8.42850E+01 5.30525E+00 0.00000E+00
 -1      2455 8.35350E+01 6.60425E+00 0.00000E+00
 -1      2456 8.87850E+01 5.30525E+00 0.00000E+00
 -1      2457 8.72850E+01 5.30525E+00 0.00000E+00
 -1      2458 8.65350E+01 6.60425E+00 0.00000E+00
 -1      2459 9.17850E+01 5.30525E+00 0.00000E+00
 -1      2460 9.02850E+01 5.30525E+00 0.00000E+00
 -1      2461 8.95350E+01 6.60425E+00 0.00000E+00
 -1      2462 9.47850E+01 5.30525E+00 0.00000E+00
 -1      2463 9.32850E+01 5.30525E+00 0.00000E+00
 -1      2464 9.25350E+01 6.60425E+00 0.00000E+00
 -1      2465 9.77850E+01 5.30525E+00 0.00000E+00
 -1      2466 9.62850E+01 5.30525E+00 0.00000E+00
 -1      2467 9.55350E+01 6.60425E+00 0.00000E+00
 -1      2468 1.00785E+02 5.30525E+00 0.00000E+00
 -1      2469 9.92850E+01 5.30525E+00 0.00000E+00
 -1      2470 9.85350E+01 6.60425E+00 0.00000E+00
 -1      2471 1.03785E+02 5.30525E+00 0.00000E+00
 -1      2472 1.02285E+02 5.30525E+00 0.00000E+00
 -1      2473 1.01535E+02 6.60425E+00 0.00000E+00
 -1      2474 1.06785E+02 5.30525E+00 0.00000E+00
 -1      2475 1.05285E+02 5.30525E+00 0.00000E+00
 -1      2476 1.04535E+02 6.60425E+00 0.00000E+00
 -1      2477 1.09785E+02 5.30525E+00 0.00000E+00
 -1      2478 1.08285E+02 5.30525E+00 0.00000E+00
 -1      2479 1.07535E+02 6.60425E+00 0.00000E+00
 -1      2480 1.12785E+02 5.30525E+00 0.00000E+00
 -1      2481 1.11285E+02 5.30525E+00 0.00000E+00
 -1      2482 1.10535E+02 6.60425E+00 0.00000E+00
 -1      2483 1.15785E+02 5.30525E+00 0.00000E+00
 -1      2484 1.14285E+02 5.30525E+00 0.00000E+00
 -1      2485 1.13535E+02 6.60425E+00 0.00000E+00
 -1      2486 1.18785E+02 5.30525E+00 0.00000E+00
 -1      2487 1.17285E+02 5.30525E+00 0.00000E+00
 -1      2488 1.16535E+02 6.60425E+00 0.00000E+00
 -1      2489 1.21785E+02 5.30525E+00 0.00000E+00
 -1      2490 1.20285E+02 5.30525E+00 0.00000E+00
 -1      2491 1.19535E+02 6.60425E+00 0.00000E+00
 -1      2492 1.24785E+02 5.30525E+00 0.00000E+00
 -1      2493 1.23285E+02 5.30525E+00 0.00000E+00
 -1      2494 1.22535E+02 6.60425E+00 0.00000E+00
 -1      2495 1.27785E+02 5.30525E+00 0.00000E+00
 -1      2496 1.26285E+02 5.30525E+00 0.00000E+00
 -1      2497 1.25535E+02 6.60425E+00 0.00000E+00
 -1      2498 1.30785E+02 5.30525E+00 0.00000E+00
 -1      2499 1.29285E+02 5.30525E+00 0.00000E+00
 -1      2500 1.28535E+02 6.60425E+00 0.00000E+00
 -1      2501 1.33785E+02 5.30525E+00 0.00000E+00
 -1      2502 1.32285E+02 5.30525E+00 0.00000E+00
 -1      2503 1.31535E+02 6.60425E+00 0.00000E+00
 -1      2504 1.36785E+02 5.30525E+00 0.00000E+00
 -1      2505 1.35285E+02 5.30525E+00 0.00000E+00
 -1      2506 1.34535E+02 6.60425E+00 0.00000E+00
 -1      2507 1.39785E+02 5.30525E+00 0.00000E+00
 -1      2508 1.38285E+02 5.30525E+00 0.00000E+00
 -1      2509 1.37535E+02 6.60425E+00 0.00000E+00
 -1      2510 1.42785E+02 5.30525E+00 0.00000E+00
 -1      2511 1.41285E+02 5.30525E+00 0.00000E+00
 -1      2512 1.40535E+02 6.60425E+00 0.00000E+00
 -1      2513 1.44336E+02 5.26953E+00 0.00000E+00
 -1      2514 1.43505E+02 1.69125E+01 0.00000E+00
 -1      2515 1.43505E+02 1.54375E+01 0.00000E+00
 -1      2516 1.43505E+02 1.98625E+01 0.00000E+00
 -1      2517 1.43505E+02 1.83875E+01 0.00000E+00
 -1      2518 1.42206E+02 1.76500E+01 0.00000E+00
 -1      2519 1.43505E+02 1.10625E+01 0.00000E+00
 -1      2520 1.43505E+02 9.58750E+00 0.00000E+00
 -1      2521 1.43505E+02 1.39750E+01 0.00000E+00
 -1      2522 1.43505E+02 1.25250E+01 0.00000E+00
 -1      2523 1.42206E+02 1.17875E+01 0.00000E+00
 -1      2524 1.42206E+02 1.47125E+01 0.00000E+00
 -1      2525 1.43505E+02 2.28125E+01 0.00000E+00
 -1      2526 1.43505E+02 2.13375E+01 0.00000E+00
 -1      2527 1.42206E+02 2.06000E+01 0.00000E+00
 -1      2528 1.43505E+02 2.57625E+01 0.00000E+00
 -1      2529 1.43505E+02 2.42875E+01 0.00000E+00
 -1      2530 1.42206E+02 2.35500E+01 0.00000E+00
 -1      2531 1.43505E+02 2.87125E+01 0.00000E+00
 -1      2532 1.43505E+02 2.72375E+01 0.00000E+00
 -1      2533 1.42206E+02 2.65000E+01 0.00000E+00
 -1      2534 1.43505E+02 3.16125E+01 0.00000E+00
 -1      2535 1.43505E+02 3.01625E+01 0.00000E+00
 -1      2536 1.42206E+02 2.94250E+01 0.00000E+00
 -1      2537 1.43505E+02 3.45625E+01 0.00000E+00
 -1      2538 1.43505E+02 3.30875E+01 0.00000E+00
 -1      2539 1.42206E+02 3.23500E+01 0.00000E+00
 -1      2540 1.43505E+02 3.75125E+01 0.00000E+00
 -1      2541 1.43505E+02 3.60375E+01 0.00000E+00
 -1      2542 1.42206E+02 3.53000E+01 0.00000E+00
 -1      2543 1.43505E+02 4.04625E+01 0.00000E+00
 -1      2544 1.43505E+02 3.89875E+01 0.00000E+00
 -1      2545 1.42206E+02 3.82500E+01 0.00000E+00
 -1      2546 1.44321E+02 4.30606E+01 0.00000E+00
 -1      2547 1.29011E+02 1.32114E+01 0.00000E+00
 -1      2548 1.29680E+02 1.39299E+01 0.00000E+00
 -1      2549 1.67850E+01 5.30525E+00 0.00000E+00
 -1      2550 1.52850E+01 5.30525E+00 0.00000E+00
 -1      2551 1.75350E+01 6.60425E+00 0.00000E+00
 -1      2552 1.32135E+02 1.89519E+01 0.00000E+00
 -1      2553 1.32415E+02 2.00884E+01 0.00000E+00
 -1      2554 1.31251E+02 2.56959E+01 0.00000E+00
 -1      2555 1.30604E+02 2.66208E+01 0.00000E+00
 -1      2556 1.32419E+02 2.13882E+01 0.00000E+00
 -1      2557 1.32284E+02 2.22293E+01 0.00000E+00
 -1      2558 1.28543E+02 2.87483E+01 0.00000E+00
 -1      2559 1.27811E+02 2.94506E+01 0.00000E+00
 -1      2560 1.17554E+02 3.05019E+01 0.00000E+00
 -1      2561 1.16542E+02 2.99928E+01 0.00000E+00
 -1      2562 1.18453E+02 1.06240E+01 0.00000E+00
 -1      2563 1.19553E+02 1.03677E+01 0.00000E+00
 -1      2564 6.49500E+00 2.71625E+01 0.00000E+00
 -1      2565 6.49500E+00 2.86375E+01 0.00000E+00
 -1      2566 7.79400E+00 2.93750E+01 0.00000E+00
 -1      2567 7.79400E+00 2.64250E+01 0.00000E+00
 -1      2568 1.22823E+02 1.02585E+01 0.00000E+00
 -1      2569 1.23996E+02 1.04695E+01 0.00000E+00
 -1      2570 1.16041E+02 1.17935E+01 0.00000E+00
 -1      2571 1.17159E+02 1.12046E+01 0.00000E+00
 -1      2572 1.20437E+02 1.02880E+01 0.00000E+00
 -1      2573 1.21321E+02 1.02083E+01 0.00000E+00
 -1      2574 1.19674E+02 9.49939E+00 0.00000E+00
 -1      2575 1.20095E+02 3.12782E+01 0.00000E+00
 -1      2576 1.18846E+02 3.09129E+01 0.00000E+00
 -1      2577 1.14243E+02 1.32611E+01 0.00000E+00
 -1      2578 1.14934E+02 1.25781E+01 0.00000E+00
 -1      2579 1.11790E+02 1.74110E+01 0.00000E+00
 -1      2580 1.12055E+02 1.66037E+01 0.00000E+00
 -1      2581 1.11505E+02 1.96591E+01 0.00000E+00
 -1      2582 1.11609E+02 1.85566E+01 0.00000E+00
 -1      2583 1.11415E+02 2.16480E+01 0.00000E+00
 -1      2584 1.11438E+02 2.07266E+01 0.00000E+00
 -1      2585 1.12898E+02 2.60647E+01 0.00000E+00
 -1      2586 1.12454E+02 2.53217E+01 0.00000E+00
 -1      2587 1.14068E+02 2.80117E+01 0.00000E+00
 -1      2588 1.13483E+02 2.70382E+01 0.00000E+00
 -1      2589 1.12525E+02 2.71063E+01 0.00000E+00
 -1      2590 1.15585E+02 2.93548E+01 0.00000E+00
 -1      2591 1.14897E+02 2.88217E+01 0.00000E+00
 -1      2592 1.26646E+02 3.02370E+01 0.00000E+00
 -1      2593 1.25571E+02 3.05996E+01 0.00000E+00
 -1      2594 1.22344E+02 3.14375E+01 0.00000E+00
 -1      2595 1.21451E+02 3.15259E+01 0.00000E+00
 -1      2596 1.32138E+02 2.33354E+01 0.00000E+00
 -1      2597 1.31793E+02 2.44153E+01 0.00000E+00
 -1      2598 1.24546E+02 3.09063E+01 0.00000E+00
 -1      2599 1.23521E+02 3.12129E+01 0.00000E+00
 -1      2600 1.25358E+02 3.15375E+01 0.00000E+00
 -1      2601 1.29679E+02 2.74535E+01 0.00000E+00
 -1      2602 1.29111E+02 2.81009E+01 0.00000E+00
 -1      2603 1.29280E+02 2.90106E+01 0.00000E+00
 -1      2604 1.25123E+02 1.09077E+01 0.00000E+00
 -1      2605 1.25965E+02 1.12442E+01 0.00000E+00
 -1      2606 8.07525E+00 5.11044E+00 0.00000E+00
 -1      2607 6.57525E+00 5.11044E+00 0.00000E+00
 -1      2608 6.40575E+00 6.01981E+00 0.00000E+00
 -1      2609 8.82525E+00 6.40944E+00 0.00000E+00
 -1      2610 1.24688E+02 9.95816E+00 0.00000E+00
 -1      2611 7.79400E+00 3.52687E+01 0.00000E+00
 -1      2612 6.49500E+00 3.60062E+01 0.00000E+00
 -1      2613 6.49500E+00 3.74750E+01 0.00000E+00
 -1      2614 1.45350E+01 6.60425E+00 0.00000E+00
 -1      2615 6.40575E+00 7.49481E+00 0.00000E+00
 -1      2616 1.11065E+02 2.24045E+01 0.00000E+00
 -1      2617 1.10261E+02 2.19231E+01 0.00000E+00
 -1      2618 1.10715E+02 2.31611E+01 0.00000E+00
 -1      2619 1.10678E+02 2.00990E+01 0.00000E+00
 -1      2620 1.26938E+02 1.08762E+01 0.00000E+00
 -1      2621 1.10926E+02 1.78859E+01 0.00000E+00
 -1      2622 1.30515E+02 1.41422E+01 0.00000E+00
 -1      2623 1.31841E+02 1.62845E+01 0.00000E+00
 -1      2624 1.32785E+02 1.64898E+01 0.00000E+00
 -1      2625 1.32001E+02 1.55035E+01 0.00000E+00
 -1      2626 1.33070E+02 2.06246E+01 0.00000E+00
 -1      2627 1.43586E+02 6.56853E+00 0.00000E+00
 -1      2628 1.32241E+02 2.54172E+01 0.00000E+00
 -1      2629 1.43419E+02 7.72713E+00 0.00000E+00
 -1      2630 1.42758E+02 4.35929E+01 0.00000E+00
 -1      2631 1.43241E+02 4.17323E+01 0.00000E+00
 -1      2632 1.41942E+02 4.09948E+01 0.00000E+00
 -1      2633 1.41414E+02 4.35342E+01 0.00000E+00
 -1      2634 1.13324E+02 1.34550E+01 0.00000E+00
 -1      2635 1.29017E+02 1.21712E+01 0.00000E+00
 -1      2636 7.70475E+00 8.23231E+00 0.00000E+00
 -1      2637 1.32846E+02 1.82978E+01 0.00000E+00
 -1      2638 1.30773E+02 2.75305E+01 0.00000E+00
 -1      2639 1.32928E+02 2.30305E+01 0.00000E+00
 -1      2640 1.23155E+02 3.20688E+01 0.00000E+00
 -1      2641 1.27548E+02 3.04444E+01 0.00000E+00
 -1      2642 1.27285E+02 3.14383E+01 0.00000E+00
 -1      2643 1.28449E+02 3.06518E+01 0.00000E+00
 -1      2644 1.13939E+02 2.88899E+01 0.00000E+00
 -1      2645 1.17495E+02 1.01597E+01 0.00000E+00
 -1      2646 1.15724E+02 3.03380E+01 0.00000E+00
 -1      2647 1.17973E+02 3.13870E+01 0.00000E+00
 -1      2648 1.11729E+02 2.48877E+01 0.00000E+00
 -1      2649 1.11885E+02 1.56703E+01 0.00000E+00
 -1      2650 1.15093E+02 1.15250E+01 0.00000E+00
 -1      2651 6.52725E+00 3.87101E+01 0.00000E+00
 -1      2652 6.52725E+00 4.01789E+01 0.00000E+00
 -1      2653 7.89075E+00 4.04429E+01 0.00000E+00
 -1      2654 7.82625E+00 3.79726E+01 0.00000E+00
 -1      2655 1.20621E+02 3.20457E+01 0.00000E+00
 -1      2656 1.19791E+02 3.25655E+01 0.00000E+00
 -1      2657 1.21148E+02 3.28132E+01 0.00000E+00
 -1      2658 1.42120E+02 8.46463E+00 0.00000E+00
 -1      2659 1.40664E+02 4.22352E+01 0.00000E+00
 -1      2660 9.09300E+00 1.98250E+01 0.00000E+00
 -1      2661 9.09300E+00 2.12750E+01 0.00000E+00
 -1      2662 9.09300E+00 2.27500E+01 0.00000E+00
 -1      2663 9.09300E+00 2.42250E+01 0.00000E+00
 -1      2664 1.03920E+01 2.20250E+01 0.00000E+00
 -1      2665 9.09300E+00 1.39375E+01 0.00000E+00
 -1      2666 9.09300E+00 1.54125E+01 0.00000E+00
 -1      2667 9.09300E+00 1.09875E+01 0.00000E+00
 -1      2668 9.09300E+00 1.24625E+01 0.00000E+00
 -1      2669 1.03920E+01 1.32000E+01 0.00000E+00
 -1      2670 1.22850E+01 7.90325E+00 0.00000E+00
 -1      2671 1.07850E+01 7.90325E+00 0.00000E+00
 -1      2672 1.33656E+02 1.75864E+01 0.00000E+00
 -1      2673 1.33877E+02 1.86135E+01 0.00000E+00
 -1      2674 1.52850E+01 7.90325E+00 0.00000E+00
 -1      2675 1.37850E+01 7.90325E+00 0.00000E+00
 -1      2676 1.30350E+01 9.20225E+00 0.00000E+00
 -1      2677 9.25425E+00 4.07069E+01 0.00000E+00
 -1      2678 1.06178E+01 4.09709E+01 0.00000E+00
 -1      2679 9.22200E+00 3.94717E+01 0.00000E+00
 -1      2680 1.21178E+01 4.09709E+01 0.00000E+00
 -1      2681 1.36178E+01 4.09709E+01 0.00000E+00
 -1      2682 1.20855E+01 3.97357E+01 0.00000E+00
 -1      2683 1.51178E+01 4.09709E+01 0.00000E+00
 -1      2684 1.66178E+01 4.09709E+01 0.00000E+00
 -1      2685 1.50855E+01 3.97357E+01 0.00000E+00
 -1      2686 1.81178E+01 4.09709E+01 0.00000E+00
 -1      2687 1.96178E+01 4.09709E+01 0.00000E+00
 -1      2688 1.80855E+01 3.97357E+01 0.00000E+00
 -1      2689 2.11178E+01 4.09709E+01 0.00000E+00
 -1      2690 2.26178E+01 4.09709E+01 0.00000E+00
 -1      2691 2.10855E+01 3.97357E+01 0.00000E+00
 -1      2692 2.41178E+01 4.09709E+01 0.00000E+00
 -1      2693 2.56178E+01 4.09709E+01 0.00000E+00
 -1      2694 2.40855E+01 3.97357E+01 0.00000E+00
 -1      2695 2.71178E+01 4.09709E+01 0.00000E+00
 -1      2696 2.86178E+01 4.09709E+01 0.00000E+00
 -1      2697 2.70855E+01 3.97357E+01 0.00000E+00
 -1      2698 3.01178E+01 4.09709E+01 0.00000E+00
 -1      2699 3.16178E+01 4.09709E+01 0.00000E+00
 -1      2700 3.00855E+01 3.97357E+01 0.00000E+00
 -1      2701 3.31177E+01 4.09709E+01 0.00000E+00
 -1      2702 3.46177E+01 4.09709E+01 0.00000E+00
 -1      2703 3.30855E+01 3.97357E+01 0.00000E+00
 -1      2704 3.61177E+01 4.09709E+01 0.00000E+00
 -1      2705 3.76177E+01 4.09709E+01 0.00000E+00
 -1      2706 3.60855E+01 3.97357E+01 0.00000E+00
 -1      2707 3.91177E+01 4.09709E+01 0.00000E+00
 -1      2708 4.06177E+01 4.09709E+01 0.00000E+00
 -1      2709 3.90855E+01 3.97357E+01 0.00000E+00
 -1      2710 4.21177E+01 4.09709E+01 0.00000E+00
 -1      2711 4.36177E+01 4.09709E+01 0.00000E+00
 -1      2712 4.20855E+01 3.97357E+01 0.00000E+00
 -1      2713 4.51177E+01 4.09709E+01 0.00000E+00
 -1      2714 4.66177E+01 4.09709E+01 0.00000E+00
 -1      2715 4.50855E+01 3.97357E+01 0.00000E+00
 -1      2716 4.81177E+01 4.09709E+01 0.00000E+00
 -1      2717 4.96177E+01 4.09709E+01 0.00000E+00
 -1      2718 4.80855E+01 3.97357E+01 0.00000E+00
 -1      2719 5.11177E+01 4.09709E+01 0.00000E+00
 -1      2720 5.26177E+01 4.09709E+01 0.00000E+00
 -1      2721 5.10855E+01 3.97357E+01 0.00000E+00
 -1      2722 5.41177E+01 4.09709E+01 0.00000E+00
 -1      2723 5.56177E+01 4.09709E+01 0.00000E+00
 -1      2724 5.40855E+01 3.97357E+01 0.00000E+00
 -1      2725 5.71177E+01 4.09709E+01 0.00000E+00
 -1      2726 5.86177E+01 4.09709E+01 0.00000E+00
 -1      2727 5.70855E+01 3.97357E+01 0.00000E+00
 -1      2728 6.01177E+01 4.09709E+01 0.00000E+00
 -1      2729 6.16177E+01 4.09709E+01 0.00000E+00
 -1      2730 6.00855E+01 3.97357E+01 0.00000E+00
 -1      2731 6.31177E+01 4.09709E+01 0.00000E+00
 -1      2732 6.46178E+01 4.09709E+01 0.00000E+00
 -1      2733 6.30855E+01 3.97357E+01 0.00000E+00
 -1      2734 6.61178E+01 4.09709E+01 0.00000E+00
 -1      2735 6.76178E+01 4.09709E+01 0.00000E+00
 -1      2736 6.60855E+01 3.97357E+01 0.00000E+00
 -1      2737 6.91178E+01 4.09709E+01 0.00000E+00
 -1      2738 7.06178E+01 4.09709E+01 0.00000E+00
 -1      2739 6.90855E+01 3.97357E+01 0.00000E+00
 -1      2740 7.21178E+01 4.09709E+01 0.00000E+00
 -1      2741 7.36178E+01 4.09709E+01 0.00000E+00
 -1      2742 7.20855E+01 3.97357E+01 0.00000E+00
 -1      2743 7.51178E+01 4.09709E+01 0.00000E+00
 -1      2744 7.66178E+01 4.09709E+01 0.00000E+00
 -1      2745 7.50855E+01 3.97357E+01 0.00000E+00
 -1      2746 7.81178E+01 4.09709E+01 0.00000E+00
 -1      2747 7.96178E+01 4.09709E+01 0.00000E+00
 -1      2748 7.80855E+01 3.97357E+01 0.00000E+00
 -1      2749 8.11178E+01 4.09709E+01 0.00000E+00
 -1      2750 8.26178E+01 4.09709E+01 0.00000E+00
 -1      2751 8.10855E+01 3.97357E+01 0.00000E+00
 -1      2752 8.41178E+01 4.09709E+01 0.00000E+00
 -1      2753 8.56178E+01 4.09709E+01 0.00000E+00
 -1      2754 8.40855E+01 3.97357E+01 0.00000E+00
 -1      2755 8.71178E+01 4.09709E+01 0.00000E+00
 -1      2756 8.86178E+01 4.09709E+01 0.00000E+00
 -1      2757 8.70855E+01 3.97357E+01 0.00000E+00
 -1      2758 9.01178E+01 4.09709E+01 0.00000E+00
 -1      2759 9.16178E+01 4.09709E+01 0.00000E+00
 -1      2760 9.00855E+01 3.97357E+01 0.00000E+00
 -1      2761 9.31178E+01 4.09709E+01 0.00000E+00
 -1      2762 9.46178E+01 4.09709E+01 0.00000E+00
 -1      2763 9.30855E+01 3.97357E+01 0.00000E+00
 -1      2764 9.61178E+01 4.09709E+01 0.00000E+00
 -1      2765 9.76178E+01 4.09709E+01 0.00000E+00
 -1      2766 9.60855E+01 3.97357E+01 0.00000E+00
 -1      2767 9.91178E+01 4.09709E+01 0.00000E+00
 -1      2768 1.00618E+02 4.09709E+01 0.00000E+00
 -1      2769 9.90855E+01 3.97357E+01 0.00000E+00
 -1      2770 1.02118E+02 4.09709E+01 0.00000E+00
 -1      2771 1.03618E+02 4.09709E+01 0.00000E+00
 -1      2772 1.02086E+02 3.97357E+01 0.00000E+00
 -1      2773 1.05118E+02 4.09709E+01 0.00000E+00
 -1      2774 1.06618E+02 4.09709E+01 0.00000E+00
 -1      2775 1.05086E+02 3.97357E+01 0.00000E+00
 -1      2776 1.08118E+02 4.09709E+01 0.00000E+00
 -1      2777 1.09618E+02 4.09709E+01 0.00000E+00
 -1      2778 1.08086E+02 3.97357E+01 0.00000E+00
 -1      2779 1.11118E+02 4.09709E+01 0.00000E+00
 -1      2780 1.12618E+02 4.09709E+01 0.00000E+00
 -1      2781 1.11086E+02 3.97357E+01 0.00000E+00
 -1      2782 1.14118E+02 4.09709E+01 0.00000E+00
 -1      2783 1.15618E+02 4.09709E+01 0.00000E+00
 -1      2784 1.14086E+02 3.97357E+01 0.00000E+00
 -1      2785 1.17118E+02 4.09709E+01 0.00000E+00
 -1      2786 1.18618E+02 4.09709E+01 0.00000E+00
 -1      2787 1.17086E+02 3.97357E+01 0.00000E+00
 -1      2788 1.20118E+02 4.09709E+01 0.00000E+00
 -1      2789 1.21618E+02 4.09709E+01 0.00000E+00
 -1      2790 1.20086E+02 3.97357E+01 0.00000E+00
 -1      2791 1.23118E+02 4.09709E+01 0.00000E+00
 -1      2792 1.24618E+02 4.09709E+01 0.00000E+00
 -1      2793 1.23086E+02 3.97357E+01 0.00000E+00
 -1      2794 1.26118E+02 4.09709E+01 0.00000E+00
 -1      2795 1.27618E+02 4.09709E+01 0.00000E+00
 -1      2796 1.26086E+02 3.97357E+01 0.00000E+00
 -1      2797 1.29118E+02 4.09709E+01 0.00000E+00
 -1      2798 1.30618E+02 4.09709E+01 0.00000E+00
 -1      2799 1.29085E+02 3.97357E+01 0.00000E+00
 -1      2800 1.32118E+02 4.09709E+01 0.00000E+00
 -1      2801 1.33618E+02 4.09709E+01 0.00000E+00
 -1      2802 1.32085E+02 3.97357E+01 0.00000E+00
 -1      2803 1.35118E+02 4.09709E+01 0.00000E+00
 -1      2804 1.36618E+02 4.09709E+01 0.00000E+00
 -1      2805 1.35085E+02 3.97357E+01 0.00000E+00
 -1      2806 1.38118E+02 4.09709E+01 0.00000E+00
 -1      2807 1.12251E+02 1.35989E+01 0.00000E+00
 -1      2808 1.12912E+02 1.24536E+01 0.00000E+00
 -1      2809 2.12850E+01 7.90325E+00 0.00000E+00
 -1      2810 1.97850E+01 7.90325E+00 0.00000E+00
 -1      2811 3.02850E+01 7.90325E+00 0.00000E+00
 -1      2812 2.87850E+01 7.90325E+00 0.00000E+00
 -1      2813 3.32850E+01 7.90325E+00 0.00000E+00
 -1      2814 3.17850E+01 7.90325E+00 0.00000E+00
 -1      2815 3.10350E+01 9.20225E+00 0.00000E+00
 -1      2816 3.62850E+01 7.90325E+00 0.00000E+00
 -1      2817 3.47850E+01 7.90325E+00 0.00000E+00
 -1      2818 3.40350E+01 9.20225E+00 0.00000E+00
 -1      2819 3.92850E+01 7.90325E+00 0.00000E+00
 -1      2820 3.77850E+01 7.90325E+00 0.00000E+00
 -1      2821 3.70350E+01 9.20225E+00 0.00000E+00
 -1      2822 4.22850E+01 7.90325E+00 0.00000E+00
 -1      2823 4.07850E+01 7.90325E+00 0.00000E+00
 -1      2824 4.00350E+01 9.20225E+00 0.00000E+00
 -1      2825 4.52850E+01 7.90325E+00 0.00000E+00
 -1      2826 4.37850E+01 7.90325E+00 0.00000E+00
 -1      2827 4.30350E+01 9.20225E+00 0.00000E+00
 -1      2828 4.82850E+01 7.90325E+00 0.00000E+00
 -1      2829 4.67850E+01 7.90325E+00 0.00000E+00
 -1      2830 4.60350E+01 9.20225E+00 0.00000E+00
 -1      2831 5.12850E+01 7.90325E+00 0.00000E+00
 -1      2832 4.97850E+01 7.90325E+00 0.00000E+00
 -1      2833 4.90350E+01 9.20225E+00 0.00000E+00
 -1      2834 5.42850E+01 7.90325E+00 0.00000E+00
 -1      2835 5.27850E+01 7.90325E+00 0.00000E+00
 -1      2836 5.20350E+01 9.20225E+00 0.00000E+00
 -1      2837 5.72850E+01 7.90325E+00 0.00000E+00
 -1      2838 5.57850E+01 7.90325E+00 0.00000E+00
 -1      2839 5.50350E+01 9.20225E+00 0.00000E+00
 -1      2840 6.02850E+01 7.90325E+00 0.00000E+00
 -1      2841 5.87850E+01 7.90325E+00 0.00000E+00
 -1      2842 5.80350E+01 9.20225E+00 0.00000E+00
 -1      2843 6.32850E+01 7.90325E+00 0.00000E+00
 -1      2844 6.17850E+01 7.90325E+00 0.00000E+00
 -1      2845 6.10350E+01 9.20225E+00 0.00000E+00
 -1      2846 6.62850E+01 7.90325E+00 0.00000E+00
 -1      2847 6.47850E+01 7.90325E+00 0.00000E+00
 -1      2848 6.40350E+01 9.20225E+00 0.00000E+00
 -1      2849 6.92850E+01 7.90325E+00 0.00000E+00
 -1      2850 6.77850E+01 7.90325E+00 0.00000E+00
 -1      2851 6.70350E+01 9.20225E+00 0.00000E+00
 -1      2852 7.22850E+01 7.90325E+00 0.00000E+00
 -1      2853 7.07850E+01 7.90325E+00 0.00000E+00
 -1      2854 7.00350E+01 9.20225E+00 0.00000E+00
 -1      2855 7.52850E+01 7.90325E+00 0.00000E+00
 -1      2856 7.37850E+01 7.90325E+00 0.00000E+00
 -1      2857 7.30350E+01 9.20225E+00 0.00000E+00
 -1      2858 7.82850E+01 7.90325E+00 0.00000E+00
 -1      2859 7.67850E+01 7.90325E+00 0.00000E+00
 -1      2860 7.60350E+01 9.20225E+00 0.00000E+00
 -1      2861 8.12850E+01 7.90325E+00 0.00000E+00
 -1      2862 7.97850E+01 7.90325E+00 0.00000E+00
 -1      2863 7.90350E+01 9.20225E+00 0.00000E+00
 -1      2864 8.42850E+01 7.90325E+00 0.00000E+00
 -1      2865 8.27850E+01 7.90325E+00 0.00000E+00
 -1      2866 8.20350E+01 9.20225E+00 0.00000E+00
 -1      2867 8.72850E+01 7.90325E+00 0.00000E+00
 -1      2868 8.57850E+01 7.90325E+00 0.00000E+00
 -1      2869 8.50350E+01 9.20225E+00 0.00000E+00
 -1      2870 9.02850E+01 7.90325E+00 0.00000E+00
 -1      2871 8.87850E+01 7.90325E+00 0.00000E+00
 -1      2872 8.80350E+01 9.20225E+00 0.00000E+00
 -1      2873 9.32850E+01 7.90325E+00 0.00000E+00
 -1      2874 9.17850E+01 7.90325E+00 0.00000E+00
 -1      2875 9.10350E+01 9.20225E+00 0.00000E+00
 -1      2876 9.62850E+01 7.90325E+00 0.00000E+00
 -1      2877 9.47850E+01 7.90325E+00 0.00000E+00
 -1      2878 9.40350E+01 9.20225E+00 0.00000E+00
 -1      2879 9.92850E+01 7.90325E+00 0.00000E+00
 -1      2880 9.77850E+01 7.90325E+00 0.00000E+00
 -1      2881 9.70350E+01 9.20225E+00 0.00000E+00
 -1      2882 1.02285E+02 7.90325E+00 0.00000E+00
 -1      2883 1.00785E+02 7.90325E+00 0.00000E+00
 -1      2884 1.00035E+02 9.20225E+00 0.00000E+00
 -1      2885 1.05285E+02 7.90325E+00 0.00000E+00
 -1      2886 1.03785E+02 7.90325E+00 0.00000E+00
 -1      2887 1.03035E+02 9.20225E+00 0.00000E+00
 -1      2888 1.08285E+02 7.90325E+00 0.00000E+00
 -1      2889 1.06785E+02 7.90325E+00 0.00000E+00
 -1      2890 1.06035E+02 9.20225E+00 0.00000E+00
 -1      2891 1.11285E+02 7.90325E+00 0.00000E+00
 -1      2892 1.09785E+02 7.90325E+00 0.00000E+00
 -1      2893 1.09035E+02 9.20225E+00 0.00000E+00
 -1      2894 1.19912E+02 8.09166E+00 0.00000E+00
 -1      2895 1.18412E+02 8.09166E+00 0.00000E+00
 -1      2896 1.23798E+02 8.06212E+00 0.00000E+00
 -1      2897 1.22298E+02 8.06212E+00 0.00000E+00
 -1      2898 1.29285E+02 7.71316E+00 0.00000E+00
 -1      2899 1.27785E+02 7.71316E+00 0.00000E+00
 -1      2900 1.32285E+02 7.71316E+00 0.00000E+00
 -1      2901 1.30785E+02 7.71316E+00 0.00000E+00
 -1      2902 1.30035E+02 8.82207E+00 0.00000E+00
 -1      2903 1.35285E+02 7.71316E+00 0.00000E+00
 -1      2904 1.33785E+02 7.71316E+00 0.00000E+00
 -1      2905 1.33035E+02 8.82207E+00 0.00000E+00
 -1      2906 1.38285E+02 7.71316E+00 0.00000E+00
 -1      2907 1.36785E+02 7.71316E+00 0.00000E+00
 -1      2908 1.36035E+02 8.82207E+00 0.00000E+00
 -1      2909 1.40953E+02 8.08889E+00 0.00000E+00
 -1      2910 1.39453E+02 8.08889E+00 0.00000E+00
 -1      2911 1.38703E+02 9.19780E+00 0.00000E+00
 -1      2912 1.41038E+02 9.94927E+00 0.00000E+00
 -1      2913 1.33378E+02 2.51436E+01 0.00000E+00
 -1      2914 1.32837E+02 2.64242E+01 0.00000E+00
 -1      2915 1.41013E+02 2.42875E+01 0.00000E+00
 -1      2916 1.41013E+02 2.28125E+01 0.00000E+00
 -1      2917 1.39914E+02 4.09362E+01 0.00000E+00
 -1      2918 1.40928E+02 4.09655E+01 0.00000E+00
 -1      2919 1.41192E+02 3.96958E+01 0.00000E+00
 -1      2920 1.40907E+02 1.83875E+01 0.00000E+00
 -1      2921 1.40907E+02 1.69125E+01 0.00000E+00
 -1      2922 1.41013E+02 2.72375E+01 0.00000E+00
 -1      2923 1.41013E+02 2.57625E+01 0.00000E+00
 -1      2924 1.39821E+02 2.50250E+01 0.00000E+00
 -1      2925 1.40907E+02 2.13375E+01 0.00000E+00
 -1      2926 1.40907E+02 1.98625E+01 0.00000E+00
 -1      2927 1.39608E+02 1.91250E+01 0.00000E+00
 -1      2928 1.41013E+02 3.01375E+01 0.00000E+00
 -1      2929 1.41013E+02 2.86875E+01 0.00000E+00
 -1      2930 1.39821E+02 2.79500E+01 0.00000E+00
 -1      2931 1.41013E+02 3.30875E+01 0.00000E+00
 -1      2932 1.41013E+02 3.16125E+01 0.00000E+00
 -1      2933 1.39821E+02 3.08750E+01 0.00000E+00
 -1      2934 1.41013E+02 3.60375E+01 0.00000E+00
 -1      2935 1.41013E+02 3.45625E+01 0.00000E+00
 -1      2936 1.39821E+02 3.38250E+01 0.00000E+00
 -1      2937 1.41192E+02 3.82207E+01 0.00000E+00
 -1      2938 1.82850E+01 7.90325E+00 0.00000E+00
 -1      2939 1.67850E+01 7.90325E+00 0.00000E+00
 -1      2940 1.60350E+01 9.20225E+00 0.00000E+00
 -1      2941 1.90350E+01 9.20225E+00 0.00000E+00
 -1      2942 1.34094E+02 1.99720E+01 0.00000E+00
 -1      2943 1.34097E+02 2.12717E+01 0.00000E+00
 -1      2944 8.91450E+00 8.42712E+00 0.00000E+00
 -1      2945 1.26140E+02 3.22860E+01 0.00000E+00
 -1      2946 1.25115E+02 3.25927E+01 0.00000E+00
 -1      2947 1.23938E+02 3.28173E+01 0.00000E+00
 -1      2948 1.22760E+02 3.30420E+01 0.00000E+00
 -1      2949 1.24720E+02 3.35659E+01 0.00000E+00
 -1      2950 1.13753E+02 2.99080E+01 0.00000E+00
 -1      2951 1.12925E+02 2.90979E+01 0.00000E+00
 -1      2952 1.25298E+02 8.06212E+00 0.00000E+00
 -1      2953 1.10030E+02 1.83312E+01 0.00000E+00
 -1      2954 1.10211E+02 1.71856E+01 0.00000E+00
 -1      2955 1.10906E+02 2.56672E+01 0.00000E+00
 -1      2956 1.10696E+02 2.44221E+01 0.00000E+00
 -1      2957 2.72850E+01 7.90325E+00 0.00000E+00
 -1      2958 2.57850E+01 7.90325E+00 0.00000E+00
 -1      2959 2.80350E+01 9.20225E+00 0.00000E+00
 -1      2960 2.42850E+01 7.90325E+00 0.00000E+00
 -1      2961 2.27850E+01 7.90325E+00 0.00000E+00
 -1      2962 2.50350E+01 9.20225E+00 0.00000E+00
 -1      2963 1.15634E+02 3.15100E+01 0.00000E+00
 -1      2964 1.14677E+02 3.08720E+01 0.00000E+00
 -1      2965 1.22059E+02 9.46985E+00 0.00000E+00
 -1      2966 9.09300E+00 1.68813E+01 0.00000E+00
 -1      2967 9.09300E+00 1.83563E+01 0.00000E+00
 -1      2968 1.03920E+01 1.90812E+01 0.00000E+00
 -1      2969 1.03920E+01 1.61437E+01 0.00000E+00
 -1      2970 1.13946E+02 1.10810E+01 0.00000E+00
 -1      2971 1.15054E+02 1.02963E+01 0.00000E+00
 -1      2972 1.29313E+02 1.08560E+01 0.00000E+00
 -1      2973 1.30269E+02 1.16711E+01 0.00000E+00
 -1      2974 1.31096E+02 1.31646E+01 0.00000E+00
 -1      2975 1.31638E+02 1.43205E+01 0.00000E+00
 -1      2976 1.10695E+02 1.57388E+01 0.00000E+00
 -1      2977 1.11473E+02 1.46688E+01 0.00000E+00
 -1      2978 1.11061E+02 1.36674E+01 0.00000E+00
 -1      2979 1.09705E+02 2.05739E+01 0.00000E+00
 -1      2980 1.09772E+02 1.95064E+01 0.00000E+00
 -1      2981 1.11939E+02 2.81213E+01 0.00000E+00
 -1      2982 1.11354E+02 2.71478E+01 0.00000E+00
 -1      2983 1.18333E+02 3.24895E+01 0.00000E+00
 -1      2984 1.17042E+02 3.20785E+01 0.00000E+00
 -1      2985 1.30272E+02 2.93075E+01 0.00000E+00
 -1      2986 1.29704E+02 2.99549E+01 0.00000E+00
 -1      2987 9.09300E+00 3.15875E+01 0.00000E+00
 -1      2988 9.09300E+00 3.30625E+01 0.00000E+00
 -1      2989 1.33851E+02 2.25896E+01 0.00000E+00
 -1      2990 1.33705E+02 2.36957E+01 0.00000E+00
 -1      2991 1.32123E+02 2.76421E+01 0.00000E+00
 -1      2992 1.31197E+02 2.84748E+01 0.00000E+00
 -1      2993 1.31621E+02 2.94191E+01 0.00000E+00
 -1      2994 1.17204E+02 9.12569E+00 0.00000E+00
 -1      2995 1.16826E+02 7.63828E+00 0.00000E+00
 -1      2996 1.15326E+02 7.63828E+00 0.00000E+00
 -1      2997 1.15909E+02 9.70633E+00 0.00000E+00
 -1      2998 9.09300E+00 3.45313E+01 0.00000E+00
 -1      2999 9.09300E+00 3.60000E+01 0.00000E+00
 -1      3000 1.03920E+01 3.37938E+01 0.00000E+00
 -1      3001 1.03920E+01 2.49750E+01 0.00000E+00
 -1      3002 9.09300E+00 2.57000E+01 0.00000E+00
 -1      3003 9.09300E+00 2.71750E+01 0.00000E+00
 -1      3004 1.12873E+02 1.12248E+01 0.00000E+00
 -1      3005 1.34904E+02 1.92606E+01 0.00000E+00
 -1      3006 1.09892E+02 2.39406E+01 0.00000E+00
 -1      3007 1.14762E+02 9.26226E+00 0.00000E+00
 -1      3008 1.32582E+02 1.45259E+01 0.00000E+00
 -1      3009 2.20350E+01 9.20225E+00 0.00000E+00
 -1      3010 1.09057E+02 1.88061E+01 0.00000E+00
 -1      3011 1.34874E+02 2.19369E+01 0.00000E+00
 -1      3012 1.12971E+02 8.22823E+00 0.00000E+00
 -1      3013 1.12221E+02 9.52723E+00 0.00000E+00
 -1      3014 1.14471E+02 8.22823E+00 0.00000E+00
 -1      3015 1.08903E+02 1.66295E+01 0.00000E+00
 -1      3016 1.09799E+02 1.61841E+01 0.00000E+00
 -1      3017 1.09387E+02 1.51827E+01 0.00000E+00
 -1      3018 1.34301E+02 2.47027E+01 0.00000E+00
 -1      3019 1.41038E+02 1.14118E+01 0.00000E+00
 -1      3020 1.39870E+02 1.10360E+01 0.00000E+00
 -1      3021 1.41038E+02 1.28743E+01 0.00000E+00
 -1      3022 1.33261E+02 2.73684E+01 0.00000E+00
 -1      3023 1.39714E+02 2.20750E+01 0.00000E+00
 -1      3024 1.33976E+02 1.60246E+01 0.00000E+00
 -1      3025 1.33816E+02 1.68055E+01 0.00000E+00
 -1      3026 1.34847E+02 1.71211E+01 0.00000E+00
 -1      3027 1.39999E+02 3.74832E+01 0.00000E+00
 -1      3028 1.10320E+02 2.66822E+01 0.00000E+00
 -1      3029 1.18860E+02 3.32570E+01 0.00000E+00
 -1      3030 1.11754E+02 2.91394E+01 0.00000E+00
 -1      3031 1.31392E+02 1.18494E+01 0.00000E+00
 -1      3032 9.66450E+00 9.72612E+00 0.00000E+00
 -1      3033 1.27042E+02 3.24935E+01 0.00000E+00
 -1      3034 1.22713E+02 3.43103E+01 0.00000E+00
 -1      3035 1.21930E+02 3.35618E+01 0.00000E+00
 -1      3036 1.21100E+02 3.40816E+01 0.00000E+00
 -1      3037 1.13663E+02 3.10800E+01 0.00000E+00
 -1      3038 1.29441E+02 3.09487E+01 0.00000E+00
 -1      3039 1.38382E+02 3.97011E+01 0.00000E+00
 -1      3040 1.26425E+02 8.50029E+00 0.00000E+00
 -1      3041 1.40973E+02 1.56246E+01 0.00000E+00
 -1      3042 1.40973E+02 1.41621E+01 0.00000E+00
 -1      3043 1.39805E+02 1.37864E+01 0.00000E+00
 -1      3044 1.39674E+02 1.63621E+01 0.00000E+00
 -1      3045 9.09300E+00 2.86437E+01 0.00000E+00
 -1      3046 9.09300E+00 3.01187E+01 0.00000E+00
 -1      3047 1.03920E+01 3.08563E+01 0.00000E+00
 -1      3048 1.03920E+01 2.79188E+01 0.00000E+00
 -1      3049 1.15995E+02 3.26126E+01 0.00000E+00
 -1      3050 1.09635E+01 1.04636E+01 0.00000E+00
 -1      3051 1.27175E+02 9.60920E+00 0.00000E+00
 -1      3052 1.28298E+02 1.00890E+01 0.00000E+00
 -1      3053 1.09355E+02 2.13305E+01 0.00000E+00
 -1      3054 1.08449E+02 2.07379E+01 0.00000E+00
 -1      3055 1.09005E+02 2.20870E+01 0.00000E+00
 -1      3056 1.28174E+02 3.28260E+01 0.00000E+00
 -1      3057 1.27030E+02 3.36738E+01 0.00000E+00
 -1      3058 1.16910E+01 1.24625E+01 0.00000E+00
 -1      3059 1.16910E+01 1.39375E+01 0.00000E+00
 -1      3060 1.13355E+01 3.84367E+01 0.00000E+00
 -1      3061 1.28355E+01 3.84367E+01 0.00000E+00
 -1      3062 1.43355E+01 3.84367E+01 0.00000E+00
 -1      3063 1.58355E+01 3.84367E+01 0.00000E+00
 -1      3064 1.35855E+01 3.71377E+01 0.00000E+00
 -1      3065 1.73355E+01 3.84367E+01 0.00000E+00
 -1      3066 1.88355E+01 3.84367E+01 0.00000E+00
 -1      3067 1.65855E+01 3.71377E+01 0.00000E+00
 -1      3068 2.03355E+01 3.84367E+01 0.00000E+00
 -1      3069 2.18355E+01 3.84367E+01 0.00000E+00
 -1      3070 1.95855E+01 3.71377E+01 0.00000E+00
 -1      3071 2.33355E+01 3.84367E+01 0.00000E+00
 -1      3072 2.48355E+01 3.84367E+01 0.00000E+00
 -1      3073 2.25855E+01 3.71377E+01 0.00000E+00
 -1      3074 2.63355E+01 3.84367E+01 0.00000E+00
 -1      3075 2.78355E+01 3.84367E+01 0.00000E+00
 -1      3076 2.55855E+01 3.71377E+01 0.00000E+00
 -1      3077 2.93355E+01 3.84367E+01 0.00000E+00
 -1      3078 3.08355E+01 3.84367E+01 0.00000E+00
 -1      3079 2.85855E+01 3.71377E+01 0.00000E+00
 -1      3080 3.23355E+01 3.84367E+01 0.00000E+00
 -1      3081 3.38355E+01 3.84367E+01 0.00000E+00
 -1      3082 3.15855E+01 3.71377E+01 0.00000E+00
 -1      3083 3.53355E+01 3.84367E+01 0.00000E+00
 -1      3084 3.68355E+01 3.84367E+01 0.00000E+00
 -1      3085 3.45855E+01 3.71377E+01 0.00000E+00
 -1      3086 3.83355E+01 3.84367E+01 0.00000E+00
 -1      3087 3.98355E+01 3.84367E+01 0.00000E+00
 -1      3088 3.75855E+01 3.71377E+01 0.00000E+00
 -1      3089 4.13355E+01 3.84367E+01 0.00000E+00
 -1      3090 4.28355E+01 3.84367E+01 0.00000E+00
 -1      3091 4.05855E+01 3.71377E+01 0.00000E+00
 -1      3092 4.43355E+01 3.84367E+01 0.00000E+00
 -1      3093 4.58355E+01 3.84367E+01 0.00000E+00
 -1      3094 4.35855E+01 3.71377E+01 0.00000E+00
 -1      3095 4.73355E+01 3.84367E+01 0.00000E+00
 -1      3096 4.88355E+01 3.84367E+01 0.00000E+00
 -1      3097 4.65855E+01 3.71377E+01 0.00000E+00
 -1      3098 5.03355E+01 3.84367E+01 0.00000E+00
 -1      3099 5.18355E+01 3.84367E+01 0.00000E+00
 -1      3100 4.95855E+01 3.71377E+01 0.00000E+00
 -1      3101 5.33355E+01 3.84367E+01 0.00000E+00
 -1      3102 5.48355E+01 3.84367E+01 0.00000E+00
 -1      3103 5.25855E+01 3.71377E+01 0.00000E+00
 -1      3104 5.63355E+01 3.84367E+01 0.00000E+00
 -1      3105 5.78355E+01 3.84367E+01 0.00000E+00
 -1      3106 5.55855E+01 3.71377E+01 0.00000E+00
 -1      3107 5.93355E+01 3.84367E+01 0.00000E+00
 -1      3108 6.08355E+01 3.84367E+01 0.00000E+00
 -1      3109 5.85855E+01 3.71377E+01 0.00000E+00
 -1      3110 6.23355E+01 3.84367E+01 0.00000E+00
 -1      3111 6.38355E+01 3.84367E+01 0.00000E+00
 -1      3112 6.15855E+01 3.71377E+01 0.00000E+00
 -1      3113 6.53355E+01 3.84367E+01 0.00000E+00
 -1      3114 6.68355E+01 3.84367E+01 0.00000E+00
 -1      3115 6.45855E+01 3.71377E+01 0.00000E+00
 -1      3116 6.83355E+01 3.84367E+01 0.00000E+00
 -1      3117 6.98355E+01 3.84367E+01 0.00000E+00
 -1      3118 6.75855E+01 3.71377E+01 0.00000E+00
 -1      3119 7.13355E+01 3.84367E+01 0.00000E+00
 -1      3120 7.28355E+01 3.84367E+01 0.00000E+00
 -1      3121 7.05855E+01 3.71377E+01 0.00000E+00
 -1      3122 7.43355E+01 3.84367E+01 0.00000E+00
 -1      3123 7.58355E+01 3.84367E+01 0.00000E+00
 -1      3124 7.35855E+01 3.71377E+01 0.00000E+00
 -1      3125 7.73355E+01 3.84367E+01 0.00000E+00
 -1      3126 7.88355E+01 3.84367E+01 0.00000E+00
 -1      3127 7.65855E+01 3.71377E+01 0.00000E+00
 -1      3128 8.03355E+01 3.84367E+01 0.00000E+00
 -1      3129 8.18355E+01 3.84367E+01 0.00000E+00
 -1      3130 7.95855E+01 3.71377E+01 0.00000E+00
 -1      3131 8.33355E+01 3.84367E+01 0.00000E+00
 -1      3132 8.48355E+01 3.84367E+01 0.00000E+00
 -1      3133 8.25855E+01 3.71377E+01 0.00000E+00
 -1      3134 8.63355E+01 3.84367E+01 0.00000E+00
 -1      3135 8.78355E+01 3.84367E+01 0.00000E+00
 -1      3136 8.55855E+01 3.71377E+01 0.00000E+00
 -1      3137 8.93355E+01 3.84367E+01 0.00000E+00
 -1      3138 9.08355E+01 3.84367E+01 0.00000E+00
 -1      3139 8.85855E+01 3.71377E+01 0.00000E+00
 -1      3140 9.23355E+01 3.84367E+01 0.00000E+00
 -1      3141 9.38355E+01 3.84367E+01 0.00000E+00
 -1      3142 9.15855E+01 3.71377E+01 0.00000E+00
 -1      3143 9.53355E+01 3.84367E+01 0.00000E+00
 -1      3144 9.68355E+01 3.84367E+01 0.00000E+00
 -1      3145 9.45855E+01 3.71377E+01 0.00000E+00
 -1      3146 9.83355E+01 3.84367E+01 0.00000E+00
 -1      3147 9.98355E+01 3.84367E+01 0.00000E+00
 -1      3148 9.75855E+01 3.71377E+01 0.00000E+00
 -1      3149 1.01336E+02 3.84367E+01 0.00000E+00
 -1      3150 1.02836E+02 3.84367E+01 0.00000E+00
 -1      3151 1.00586E+02 3.71377E+01 0.00000E+00
 -1      3152 1.04336E+02 3.84367E+01 0.00000E+00
 -1      3153 1.05836E+02 3.84367E+01 0.00000E+00
 -1      3154 1.03586E+02 3.71377E+01 0.00000E+00
 -1      3155 1.07336E+02 3.84367E+01 0.00000E+00
 -1      3156 1.08836E+02 3.84367E+01 0.00000E+00
 -1      3157 1.06586E+02 3.71377E+01 0.00000E+00
 -1      3158 1.10336E+02 3.84367E+01 0.00000E+00
 -1      3159 1.11836E+02 3.84367E+01 0.00000E+00
 -1      3160 1.09586E+02 3.71377E+01 0.00000E+00
 -1      3161 1.13336E+02 3.84367E+01 0.00000E+00
 -1      3162 1.14836E+02 3.84367E+01 0.00000E+00
 -1      3163 1.12586E+02 3.71377E+01 0.00000E+00
 -1      3164 1.16336E+02 3.84367E+01 0.00000E+00
 -1      3165 1.17836E+02 3.84367E+01 0.00000E+00
 -1      3166 1.15586E+02 3.71377E+01 0.00000E+00
 -1      3167 1.22336E+02 3.85430E+01 0.00000E+00
 -1      3168 1.23836E+02 3.85430E+01 0.00000E+00
 -1      3169 1.25336E+02 3.85430E+01 0.00000E+00
 -1      3170 1.26836E+02 3.85430E+01 0.00000E+00
 -1      3171 1.24586E+02 3.73503E+01 0.00000E+00
 -1      3172 1.28335E+02 3.85430E+01 0.00000E+00
 -1      3173 1.29835E+02 3.85430E+01 0.00000E+00
 -1      3174 1.27586E+02 3.73503E+01 0.00000E+00
 -1      3175 1.31335E+02 3.85430E+01 0.00000E+00
 -1      3176 1.32835E+02 3.85430E+01 0.00000E+00
 -1      3177 1.30585E+02 3.73503E+01 0.00000E+00
 -1      3178 1.34335E+02 3.85430E+01 0.00000E+00
 -1      3179 1.35835E+02 3.85430E+01 0.00000E+00
 -1      3180 1.33585E+02 3.73503E+01 0.00000E+00
 -1      3181 1.07927E+02 1.91740E+01 0.00000E+00
 -1      3182 1.08185E+02 1.79987E+01 0.00000E+00
 -1      3183 3.17850E+01 1.05013E+01 0.00000E+00
 -1      3184 3.02850E+01 1.05013E+01 0.00000E+00
 -1      3185 4.07850E+01 1.05013E+01 0.00000E+00
 -1      3186 3.92850E+01 1.05013E+01 0.00000E+00
 -1      3187 4.37850E+01 1.05013E+01 0.00000E+00
 -1      3188 4.22850E+01 1.05013E+01 0.00000E+00
 -1      3189 4.15350E+01 1.18003E+01 0.00000E+00
 -1      3190 4.67850E+01 1.05013E+01 0.00000E+00
 -1      3191 4.52850E+01 1.05013E+01 0.00000E+00
 -1      3192 4.45350E+01 1.18003E+01 0.00000E+00
 -1      3193 4.97850E+01 1.05013E+01 0.00000E+00
 -1      3194 4.82850E+01 1.05013E+01 0.00000E+00
 -1      3195 4.75350E+01 1.18003E+01 0.00000E+00
 -1      3196 5.27850E+01 1.05013E+01 0.00000E+00
 -1      3197 5.12850E+01 1.05013E+01 0.00000E+00
 -1      3198 5.05350E+01 1.18003E+01 0.00000E+00
 -1      3199 5.57850E+01 1.05013E+01 0.00000E+00
 -1      3200 5.42850E+01 1.05013E+01 0.00000E+00
 -1      3201 5.35350E+01 1.18003E+01 0.00000E+00
 -1      3202 5.87850E+01 1.05013E+01 0.00000E+00
 -1      3203 5.72850E+01 1.05013E+01 0.00000E+00
 -1      3204 5.65350E+01 1.18003E+01 0.00000E+00
 -1      3205 6.17850E+01 1.05013E+01 0.00000E+00
 -1      3206 6.02850E+01 1.05013E+01 0.00000E+00
 -1      3207 5.95350E+01 1.18003E+01 0.00000E+00
 -1      3208 6.47850E+01 1.05013E+01 0.00000E+00
 -1      3209 6.32850E+01 1.05013E+01 0.00000E+00
 -1      3210 6.25350E+01 1.18003E+01 0.00000E+00
 -1      3211 6.77850E+01 1.05013E+01 0.00000E+00
 -1      3212 6.62850E+01 1.05013E+01 0.00000E+00
 -1      3213 6.55350E+01 1.18003E+01 0.00000E+00
 -1      3214 7.07850E+01 1.05013E+01 0.00000E+00
 -1      3215 6.92850E+01 1.05013E+01 0.00000E+00
 -1      3216 6.85350E+01 1.18003E+01 0.00000E+00
 -1      3217 7.37850E+01 1.05013E+01 0.00000E+00
 -1      3218 7.22850E+01 1.05013E+01 0.00000E+00
 -1      3219 7.15350E+01 1.18003E+01 0.00000E+00
 -1      3220 7.67850E+01 1.05013E+01 0.00000E+00
 -1      3221 7.52850E+01 1.05013E+01 0.00000E+00
 -1      3222 7.45350E+01 1.18003E+01 0.00000E+00
 -1      3223 7.97850E+01 1.05013E+01 0.00000E+00
 -1      3224 7.82850E+01 1.05013E+01 0.00000E+00
 -1      3225 7.75350E+01 1.18003E+01 0.00000E+00
 -1      3226 8.27850E+01 1.05013E+01 0.00000E+00
 -1      3227 8.12850E+01 1.05013E+01 0.00000E+00
 -1      3228 8.05350E+01 1.18003E+01 0.00000E+00
 -1      3229 8.57850E+01 1.05013E+01 0.00000E+00
 -1      3230 8.42850E+01 1.05013E+01 0.00000E+00
 -1      3231 8.35350E+01 1.18003E+01 0.00000E+00
 -1      3232 8.87850E+01 1.05013E+01 0.00000E+00
 -1      3233 8.72850E+01 1.05013E+01 0.00000E+00
 -1      3234 8.65350E+01 1.18003E+01 0.00000E+00
 -1      3235 9.17850E+01 1.05013E+01 0.00000E+00
 -1      3236 9.02850E+01 1.05013E+01 0.00000E+00
 -1      3237 8.95350E+01 1.18003E+01 0.00000E+00
 -1      3238 9.47850E+01 1.05013E+01 0.00000E+00
 -1      3239 9.32850E+01 1.05013E+01 0.00000E+00
 -1      3240 9.25350E+01 1.18003E+01 0.00000E+00
 -1      3241 9.77850E+01 1.05013E+01 0.00000E+00
 -1      3242 9.62850E+01 1.05013E+01 0.00000E+00
 -1      3243 9.55350E+01 1.18003E+01 0.00000E+00
 -1      3244 1.00785E+02 1.05013E+01 0.00000E+00
 -1      3245 9.92850E+01 1.05013E+01 0.00000E+00
 -1      3246 9.85350E+01 1.18003E+01 0.00000E+00
 -1      3247 1.03785E+02 1.05013E+01 0.00000E+00
 -1      3248 1.02285E+02 1.05013E+01 0.00000E+00
 -1      3249 1.01535E+02 1.18003E+01 0.00000E+00
 -1      3250 1.06785E+02 1.05013E+01 0.00000E+00
 -1      3251 1.05285E+02 1.05013E+01 0.00000E+00
 -1      3252 1.04535E+02 1.18003E+01 0.00000E+00
 -1      3253 1.20796E+02 8.01198E+00 0.00000E+00
 -1      3254 1.29550E+02 9.58901E+00 0.00000E+00
 -1      3255 1.31050E+02 9.58901E+00 0.00000E+00
 -1      3256 1.38703E+02 1.06603E+01 0.00000E+00
 -1      3257 1.37535E+02 1.02846E+01 0.00000E+00
 -1      3258 1.38703E+02 1.21228E+01 0.00000E+00
 -1      3259 1.38499E+02 1.98625E+01 0.00000E+00
 -1      3260 1.38499E+02 1.83875E+01 0.00000E+00
 -1      3261 1.38628E+02 2.86750E+01 0.00000E+00
 -1      3262 1.38628E+02 2.72250E+01 0.00000E+00
 -1      3263 1.38628E+02 2.57500E+01 0.00000E+00
 -1      3264 1.38628E+02 2.42750E+01 0.00000E+00
 -1      3265 1.37435E+02 2.64750E+01 0.00000E+00
 -1      3266 1.34430E+02 2.72354E+01 0.00000E+00
 -1      3267 1.33716E+02 2.84534E+01 0.00000E+00
 -1      3268 1.38522E+02 3.45625E+01 0.00000E+00
 -1      3269 1.38522E+02 3.30875E+01 0.00000E+00
 -1      3270 1.11187E+02 1.08998E+01 0.00000E+00
 -1      3271 1.36038E+02 1.85135E+01 0.00000E+00
 -1      3272 1.36255E+02 1.98720E+01 0.00000E+00
 -1      3273 1.09483E+02 2.77434E+01 0.00000E+00
 -1      3274 1.09035E+02 2.62627E+01 0.00000E+00
 -1      3275 1.25469E+02 3.42959E+01 0.00000E+00
 -1      3276 1.24292E+02 3.45206E+01 0.00000E+00
 -1      3277 1.36032E+02 2.41274E+01 0.00000E+00
 -1      3278 1.35705E+02 2.55752E+01 0.00000E+00
 -1      3279 2.87850E+01 1.05013E+01 0.00000E+00
 -1      3280 2.72850E+01 1.05013E+01 0.00000E+00
 -1      3281 2.95350E+01 1.18003E+01 0.00000E+00
 -1      3282 1.38522E+02 3.16125E+01 0.00000E+00
 -1      3283 1.38522E+02 3.01375E+01 0.00000E+00
 -1      3284 1.37223E+02 3.23500E+01 0.00000E+00
 -1      3285 1.36035E+02 1.02846E+01 0.00000E+00
 -1      3286 1.34535E+02 1.02846E+01 0.00000E+00
 -1      3287 1.33035E+02 1.02846E+01 0.00000E+00
 -1      3288 1.36035E+02 1.17471E+01 0.00000E+00
 -1      3289 1.36267E+02 2.13408E+01 0.00000E+00
 -1      3290 1.36021E+02 2.26587E+01 0.00000E+00
 -1      3291 1.37424E+02 2.35313E+01 0.00000E+00
 -1      3292 1.37401E+02 2.05938E+01 0.00000E+00
 -1      3293 3.77850E+01 1.05013E+01 0.00000E+00
 -1      3294 3.62850E+01 1.05013E+01 0.00000E+00
 -1      3295 3.85350E+01 1.18003E+01 0.00000E+00
 -1      3296 1.30566E+02 3.14964E+01 0.00000E+00
 -1      3297 1.29311E+02 3.21934E+01 0.00000E+00
 -1      3298 3.47850E+01 1.05013E+01 0.00000E+00
 -1      3299 3.32850E+01 1.05013E+01 0.00000E+00
 -1      3300 3.25350E+01 1.18003E+01 0.00000E+00
 -1      3301 3.55350E+01 1.18003E+01 0.00000E+00
 -1      3302 1.08967E+02 2.46090E+01 0.00000E+00
 -1      3303 1.08986E+02 2.33480E+01 0.00000E+00
 -1      3304 1.08080E+02 2.27554E+01 0.00000E+00
 -1      3305 2.57850E+01 1.05013E+01 0.00000E+00
 -1      3306 2.42850E+01 1.05013E+01 0.00000E+00
 -1      3307 2.65350E+01 1.18003E+01 0.00000E+00
 -1      3308 1.38203E+02 3.75179E+01 0.00000E+00
 -1      3309 1.13446E+02 3.22134E+01 0.00000E+00
 -1      3310 1.12522E+02 3.12494E+01 0.00000E+00
 -1      3311 2.27850E+01 1.05013E+01 0.00000E+00
 -1      3312 2.12850E+01 1.05013E+01 0.00000E+00
 -1      3313 2.35350E+01 1.18003E+01 0.00000E+00
 -1      3314 1.09911E+02 1.36489E+01 0.00000E+00
 -1      3315 1.10689E+02 1.25789E+01 0.00000E+00
 -1      3316 1.19527E+02 3.44861E+01 0.00000E+00
 -1      3317 1.18069E+02 3.44101E+01 0.00000E+00
 -1      3318 1.26488E+01 1.02017E+01 0.00000E+00
 -1      3319 1.20772E+01 1.14631E+01 0.00000E+00
 -1      3320 1.33763E+01 1.22006E+01 0.00000E+00
 -1      3321 1.41488E+01 1.02017E+01 0.00000E+00
 -1      3322 1.16283E+02 3.39250E+01 0.00000E+00
 -1      3323 1.14876E+02 3.33565E+01 0.00000E+00
 -1      3324 1.38617E+02 2.28062E+01 0.00000E+00
 -1      3325 1.38510E+02 2.13312E+01 0.00000E+00
 -1      3326 1.16910E+01 2.12875E+01 0.00000E+00
 -1      3327 1.16910E+01 2.27625E+01 0.00000E+00
 -1      3328 1.32826E+02 2.98272E+01 0.00000E+00
 -1      3329 1.31900E+02 3.06599E+01 0.00000E+00
 -1      3330 1.11466E+02 3.04155E+01 0.00000E+00
 -1      3331 1.10480E+02 2.94389E+01 0.00000E+00
 -1      3332 1.33301E+02 1.36583E+01 0.00000E+00
 -1      3333 1.33664E+02 1.48413E+01 0.00000E+00
 -1      3334 1.10037E+02 1.08813E+01 0.00000E+00
 -1      3335 1.16910E+01 2.42375E+01 0.00000E+00
 -1      3336 1.16910E+01 2.57125E+01 0.00000E+00
 -1      3337 1.29900E+01 2.35000E+01 0.00000E+00
 -1      3338 1.29900E+01 1.46687E+01 0.00000E+00
 -1      3339 1.16910E+01 1.54063E+01 0.00000E+00
 -1      3340 1.16910E+01 1.68750E+01 0.00000E+00
 -1      3341 1.13734E+02 3.35259E+01 0.00000E+00
 -1      3342 8.78718E+00 3.80644E+01 0.00000E+00
 -1      3343 1.01507E+01 3.83284E+01 0.00000E+00
 -1      3344 1.20161E+02 3.76875E+01 0.00000E+00
 -1      3345 1.20911E+02 3.64948E+01 0.00000E+00
 -1      3346 1.18661E+02 3.76875E+01 0.00000E+00
 -1      3347 1.07773E+02 1.69973E+01 0.00000E+00
 -1      3348 1.07577E+02 1.99305E+01 0.00000E+00
 -1      3349 1.06704E+02 1.91231E+01 0.00000E+00
 -1      3350 1.07227E+02 2.06870E+01 0.00000E+00
 -1      3351 1.09015E+02 1.40942E+01 0.00000E+00
 -1      3352 1.37329E+02 2.94125E+01 0.00000E+00
 -1      3353 1.29299E+02 3.33737E+01 0.00000E+00
 -1      3354 1.16910E+01 1.98188E+01 0.00000E+00
 -1      3355 1.29900E+01 2.05562E+01 0.00000E+00
 -1      3356 1.16910E+01 1.83500E+01 0.00000E+00
 -1      3357 1.08537E+02 1.08813E+01 0.00000E+00
 -1      3358 1.07787E+02 1.21803E+01 0.00000E+00
 -1      3359 1.33995E+02 2.96941E+01 0.00000E+00
 -1      3360 1.26602E+02 3.46285E+01 0.00000E+00
 -1      3361 1.16910E+01 3.30594E+01 0.00000E+00
 -1      3362 1.16910E+01 3.45281E+01 0.00000E+00
 -1      3363 1.37453E+02 3.63252E+01 0.00000E+00
 -1      3364 1.36154E+02 3.55877E+01 0.00000E+00
 -1      3365 1.34695E+02 1.51569E+01 0.00000E+00
 -1      3366 1.71488E+01 1.02017E+01 0.00000E+00
 -1      3367 1.56488E+01 1.02017E+01 0.00000E+00
 -1      3368 1.52625E+01 1.12011E+01 0.00000E+00
 -1      3369 1.36160E+02 2.66602E+01 0.00000E+00
 -1      3370 1.35997E+02 1.74486E+01 0.00000E+00
 -1      3371 1.37349E+02 1.80600E+01 0.00000E+00
 -1      3372 1.38458E+02 1.73225E+01 0.00000E+00
 -1      3373 1.36157E+02 1.66676E+01 0.00000E+00
 -1      3374 1.08129E+02 2.56702E+01 0.00000E+00
 -1      3375 1.99669E+01 1.03515E+01 0.00000E+00
 -1      3376 1.84669E+01 1.03515E+01 0.00000E+00
 -1      3377 1.80806E+01 1.13509E+01 0.00000E+00
 -1      3378 2.07169E+01 1.16505E+01 0.00000E+00
 -1      3379 1.38523E+02 1.60347E+01 0.00000E+00
 -1      3380 1.09195E+02 2.90194E+01 0.00000E+00
 -1      3381 1.07910E+02 2.86000E+01 0.00000E+00
 -1      3382 1.08907E+02 3.02955E+01 0.00000E+00
 -1      3383 1.33377E+02 1.25450E+01 0.00000E+00
 -1      3384 1.34459E+02 1.28604E+01 0.00000E+00
 -1      3385 1.11248E+02 3.15488E+01 0.00000E+00
 -1      3386 1.31771E+02 3.19045E+01 0.00000E+00
 -1      3387 1.16910E+01 3.01219E+01 0.00000E+00
 -1      3388 1.16910E+01 3.15906E+01 0.00000E+00
 -1      3389 1.29900E+01 3.23250E+01 0.00000E+00
 -1      3390 1.20309E+02 3.52347E+01 0.00000E+00
 -1      3391 8.75493E+00 3.68293E+01 0.00000E+00
 -1      3392 1.32550E+02 1.10515E+01 0.00000E+00
 -1      3393 1.09007E+01 3.70294E+01 0.00000E+00
 -1      3394 1.16950E+02 3.51541E+01 0.00000E+00
 -1      3395 1.06580E+02 1.72447E+01 0.00000E+00
 -1      3396 1.07298E+02 1.58754E+01 0.00000E+00
 -1      3397 1.17911E+02 3.63885E+01 0.00000E+00
 -1      3398 1.58355E+01 3.58387E+01 0.00000E+00
 -1      3399 1.73355E+01 3.58387E+01 0.00000E+00
 -1      3400 1.88355E+01 3.58387E+01 0.00000E+00
 -1      3401 2.03355E+01 3.58387E+01 0.00000E+00
 -1      3402 1.80855E+01 3.45397E+01 0.00000E+00
 -1      3403 2.18355E+01 3.58387E+01 0.00000E+00
 -1      3404 2.33355E+01 3.58387E+01 0.00000E+00
 -1      3405 2.10855E+01 3.45397E+01 0.00000E+00
 -1      3406 2.48355E+01 3.58387E+01 0.00000E+00
 -1      3407 2.63355E+01 3.58387E+01 0.00000E+00
 -1      3408 2.40855E+01 3.45397E+01 0.00000E+00
 -1      3409 2.78355E+01 3.58387E+01 0.00000E+00
 -1      3410 2.93355E+01 3.58387E+01 0.00000E+00
 -1      3411 2.70855E+01 3.45397E+01 0.00000E+00
 -1      3412 3.08355E+01 3.58387E+01 0.00000E+00
 -1      3413 3.23355E+01 3.58387E+01 0.00000E+00
 -1      3414 3.00855E+01 3.45397E+01 0.00000E+00
 -1      3415 3.38355E+01 3.58387E+01 0.00000E+00
 -1      3416 3.53355E+01 3.58387E+01 0.00000E+00
 -1      3417 3.30855E+01 3.45397E+01 0.00000E+00
 -1      3418 3.68355E+01 3.58387E+01 0.00000E+00
 -1      3419 3.83355E+01 3.58387E+01 0.00000E+00
 -1      3420 3.60855E+01 3.45397E+01 0.00000E+00
 -1      3421 3.98355E+01 3.58387E+01 0.00000E+00
 -1      3422 4.13355E+01 3.58387E+01 0.00000E+00
 -1      3423 3.90855E+01 3.45397E+01 0.00000E+00
 -1      3424 4.28355E+01 3.58387E+01 0.00000E+00
 -1      3425 4.43355E+01 3.58387E+01 0.00000E+00
 -1      3426 4.20855E+01 3.45397E+01 0.00000E+00
 -1      3427 4.58355E+01 3.58387E+01 0.00000E+00
 -1      3428 4.73355E+01 3.58387E+01 0.00000E+00
 -1      3429 4.50855E+01 3.45397E+01 0.00000E+00
 -1      3430 4.88355E+01 3.58387E+01 0.00000E+00
 -1      3431 5.03355E+01 3.58387E+01 0.00000E+00
 -1      3432 4.80855E+01 3.45397E+01 0.00000E+00
 -1      3433 5.18355E+01 3.58387E+01 0.00000E+00
 -1      3434 5.33355E+01 3.58387E+01 0.00000E+00
 -1      3435 5.10855E+01 3.45397E+01 0.00000E+00
 -1      3436 5.48355E+01 3.58387E+01 0.00000E+00
 -1      3437 5.63355E+01 3.58387E+01 0.00000E+00
 -1      3438 5.40855E+01 3.45397E+01 0.00000E+00
 -1      3439 5.78355E+01 3.58387E+01 0.00000E+00
 -1      3440 5.93355E+01 3.58387E+01 0.00000E+00
 -1      3441 5.70855E+01 3.45397E+01 0.00000E+00
 -1      3442 6.08355E+01 3.58387E+01 0.00000E+00
 -1      3443 6.23355E+01 3.58387E+01 0.00000E+00
 -1      3444 6.00855E+01 3.45397E+01 0.00000E+00
 -1      3445 6.38355E+01 3.58387E+01 0.00000E+00
 -1      3446 6.53355E+01 3.58387E+01 0.00000E+00
 -1      3447 6.30855E+01 3.45397E+01 0.00000E+00
 -1      3448 6.68355E+01 3.58387E+01 0.00000E+00
 -1      3449 6.83355E+01 3.58387E+01 0.00000E+00
 -1      3450 6.60855E+01 3.45397E+01 0.00000E+00
 -1      3451 6.98355E+01 3.58387E+01 0.00000E+00
 -1      3452 7.13355E+01 3.58387E+01 0.00000E+00
 -1      3453 6.90855E+01 3.45397E+01 0.00000E+00
 -1      3454 7.28355E+01 3.58387E+01 0.00000E+00
 -1      3455 7.43355E+01 3.58387E+01 0.00000E+00
 -1      3456 7.20855E+01 3.45397E+01 0.00000E+00
 -1      3457 7.58355E+01 3.58387E+01 0.00000E+00
 -1      3458 7.73355E+01 3.58387E+01 0.00000E+00
 -1      3459 7.50855E+01 3.45397E+01 0.00000E+00
 -1      3460 7.88355E+01 3.58387E+01 0.00000E+00
 -1      3461 8.03355E+01 3.58387E+01 0.00000E+00
 -1      3462 7.80855E+01 3.45397E+01 0.00000E+00
 -1      3463 8.18355E+01 3.58387E+01 0.00000E+00
 -1      3464 8.33355E+01 3.58387E+01 0.00000E+00
 -1      3465 8.10855E+01 3.45397E+01 0.00000E+00
 -1      3466 8.48355E+01 3.58387E+01 0.00000E+00
 -1      3467 8.63355E+01 3.58387E+01 0.00000E+00
 -1      3468 8.40855E+01 3.45397E+01 0.00000E+00
 -1      3469 8.78355E+01 3.58387E+01 0.00000E+00
 -1      3470 8.93355E+01 3.58387E+01 0.00000E+00
 -1      3471 8.70855E+01 3.45397E+01 0.00000E+00
 -1      3472 9.08355E+01 3.58387E+01 0.00000E+00
 -1      3473 9.23355E+01 3.58387E+01 0.00000E+00
 -1      3474 9.00855E+01 3.45397E+01 0.00000E+00
 -1      3475 9.38355E+01 3.58387E+01 0.00000E+00
 -1      3476 9.53355E+01 3.58387E+01 0.00000E+00
 -1      3477 9.30855E+01 3.45397E+01 0.00000E+00
 -1      3478 9.68355E+01 3.58387E+01 0.00000E+00
 -1      3479 9.83355E+01 3.58387E+01 0.00000E+00
 -1      3480 9.60855E+01 3.45397E+01 0.00000E+00
 -1      3481 9.98355E+01 3.58387E+01 0.00000E+00
 -1      3482 1.01336E+02 3.58387E+01 0.00000E+00
 -1      3483 9.90855E+01 3.45397E+01 0.00000E+00
 -1      3484 1.02836E+02 3.58387E+01 0.00000E+00
 -1      3485 1.04336E+02 3.58387E+01 0.00000E+00
 -1      3486 1.02086E+02 3.45397E+01 0.00000E+00
 -1      3487 1.05836E+02 3.58387E+01 0.00000E+00
 -1      3488 1.07336E+02 3.58387E+01 0.00000E+00
 -1      3489 1.05086E+02 3.45397E+01 0.00000E+00
 -1      3490 1.08836E+02 3.58387E+01 0.00000E+00
 -1      3491 1.10336E+02 3.58387E+01 0.00000E+00
 -1      3492 1.08086E+02 3.45397E+01 0.00000E+00
 -1      3493 1.29835E+02 3.60739E+01 0.00000E+00
 -1      3494 1.31335E+02 3.60739E+01 0.00000E+00
 -1      3495 1.32835E+02 3.60739E+01 0.00000E+00
 -1      3496 1.34335E+02 3.60739E+01 0.00000E+00
 -1      3497 1.32085E+02 3.47974E+01 0.00000E+00
 -1      3498 4.22850E+01 1.30992E+01 0.00000E+00
 -1      3499 4.07850E+01 1.30992E+01 0.00000E+00
 -1      3500 5.12850E+01 1.30992E+01 0.00000E+00
 -1      3501 4.97850E+01 1.30992E+01 0.00000E+00
 -1      3502 5.42850E+01 1.30992E+01 0.00000E+00
 -1      3503 5.27850E+01 1.30992E+01 0.00000E+00
 -1      3504 5.20350E+01 1.43982E+01 0.00000E+00
 -1      3505 5.72850E+01 1.30992E+01 0.00000E+00
 -1      3506 5.57850E+01 1.30992E+01 0.00000E+00
 -1      3507 5.50350E+01 1.43982E+01 0.00000E+00
 -1      3508 6.02850E+01 1.30992E+01 0.00000E+00
 -1      3509 5.87850E+01 1.30992E+01 0.00000E+00
 -1      3510 5.80350E+01 1.43982E+01 0.00000E+00
 -1      3511 6.32850E+01 1.30992E+01 0.00000E+00
 -1      3512 6.17850E+01 1.30992E+01 0.00000E+00
 -1      3513 6.10350E+01 1.43982E+01 0.00000E+00
 -1      3514 6.62850E+01 1.30992E+01 0.00000E+00
 -1      3515 6.47850E+01 1.30992E+01 0.00000E+00
 -1      3516 6.40350E+01 1.43982E+01 0.00000E+00
 -1      3517 6.92850E+01 1.30992E+01 0.00000E+00
 -1      3518 6.77850E+01 1.30992E+01 0.00000E+00
 -1      3519 6.70350E+01 1.43982E+01 0.00000E+00
 -1      3520 7.22850E+01 1.30992E+01 0.00000E+00
 -1      3521 7.07850E+01 1.30992E+01 0.00000E+00
 -1      3522 7.00350E+01 1.43982E+01 0.00000E+00
 -1      3523 7.52850E+01 1.30992E+01 0.00000E+00
 -1      3524 7.37850E+01 1.30992E+01 0.00000E+00
 -1      3525 7.30350E+01 1.43982E+01 0.00000E+00
 -1      3526 7.82850E+01 1.30992E+01 0.00000E+00
 -1      3527 7.67850E+01 1.30992E+01 0.00000E+00
 -1      3528 7.60350E+01 1.43982E+01 0.00000E+00
 -1      3529 8.12850E+01 1.30992E+01 0.00000E+00
 -1      3530 7.97850E+01 1.30992E+01 0.00000E+00
 -1      3531 7.90350E+01 1.43982E+01 0.00000E+00
 -1      3532 8.42850E+01 1.30992E+01 0.00000E+00
 -1      3533 8.27850E+01 1.30992E+01 0.00000E+00
 -1      3534 8.20350E+01 1.43982E+01 0.00000E+00
 -1      3535 8.72850E+01 1.30992E+01 0.00000E+00
 -1      3536 8.57850E+01 1.30992E+01 0.00000E+00
 -1      3537 8.50350E+01 1.43982E+01 0.00000E+00
 -1      3538 9.02850E+01 1.30992E+01 0.00000E+00
 -1      3539 8.87850E+01 1.30992E+01 0.00000E+00
 -1      3540 8.80350E+01 1.43982E+01 0.00000E+00
 -1      3541 9.32850E+01 1.30992E+01 0.00000E+00
 -1      3542 9.17850E+01 1.30992E+01 0.00000E+00
 -1      3543 9.10350E+01 1.43982E+01 0.00000E+00
 -1      3544 9.62850E+01 1.30992E+01 0.00000E+00
 -1      3545 9.47850E+01 1.30992E+01 0.00000E+00
 -1      3546 9.40350E+01 1.43982E+01 0.00000E+00
 -1      3547 9.92850E+01 1.30992E+01 0.00000E+00
 -1      3548 9.77850E+01 1.30992E+01 0.00000E+00
 -1      3549 9.70350E+01 1.43982E+01 0.00000E+00
 -1      3550 1.02285E+02 1.30992E+01 0.00000E+00
 -1      3551 1.00785E+02 1.30992E+01 0.00000E+00
 -1      3552 1.00035E+02 1.43982E+01 0.00000E+00
 -1      3553 1.06070E+02 1.39615E+01 0.00000E+00
 -1      3554 1.04570E+02 1.39615E+01 0.00000E+00
 -1      3555 1.35300E+02 2.95647E+01 0.00000E+00
 -1      3556 1.34410E+02 3.09385E+01 0.00000E+00
 -1      3557 3.02850E+01 1.30992E+01 0.00000E+00
 -1      3558 2.87850E+01 1.30992E+01 0.00000E+00
 -1      3559 1.35404E+02 3.43112E+01 0.00000E+00
 -1      3560 1.30511E+02 3.37692E+01 0.00000E+00
 -1      3561 1.29374E+02 3.44019E+01 0.00000E+00
 -1      3562 1.38504E+02 1.29546E+01 0.00000E+00
 -1      3563 1.37336E+02 1.25789E+01 0.00000E+00
 -1      3564 1.35836E+02 1.25789E+01 0.00000E+00
 -1      3565 1.38438E+02 1.42425E+01 0.00000E+00
 -1      3566 1.16910E+01 2.71844E+01 0.00000E+00
 -1      3567 1.16910E+01 2.86531E+01 0.00000E+00
 -1      3568 1.29900E+01 2.93875E+01 0.00000E+00
 -1      3569 1.36072E+02 1.48754E+01 0.00000E+00
 -1      3570 1.37222E+02 1.52029E+01 0.00000E+00
 -1      3571 1.06971E+02 2.65463E+01 0.00000E+00
 -1      3572 1.06903E+02 2.48925E+01 0.00000E+00
 -1      3573 1.24010E+02 3.55599E+01 0.00000E+00
 -1      3574 1.23260E+02 3.48298E+01 0.00000E+00
 -1      3575 3.92850E+01 1.30992E+01 0.00000E+00
 -1      3576 3.77850E+01 1.30992E+01 0.00000E+00
 -1      3577 4.00350E+01 1.43982E+01 0.00000E+00
 -1      3578 1.07129E+02 2.33715E+01 0.00000E+00
 -1      3579 1.07148E+02 2.21105E+01 0.00000E+00
 -1      3580 1.22430E+02 3.53496E+01 0.00000E+00
 -1      3581 1.10945E+02 3.34612E+01 0.00000E+00
 -1      3582 1.09889E+02 3.26273E+01 0.00000E+00
 -1      3583 4.82850E+01 1.30992E+01 0.00000E+00
 -1      3584 4.67850E+01 1.30992E+01 0.00000E+00
 -1      3585 4.90350E+01 1.43982E+01 0.00000E+00
 -1      3586 4.52850E+01 1.30992E+01 0.00000E+00
 -1      3587 4.37850E+01 1.30992E+01 0.00000E+00
 -1      3588 4.30350E+01 1.43982E+01 0.00000E+00
 -1      3589 4.60350E+01 1.43982E+01 0.00000E+00
 -1      3590 2.72850E+01 1.30992E+01 0.00000E+00
 -1      3591 2.57850E+01 1.30992E+01 0.00000E+00
 -1      3592 2.80350E+01 1.43982E+01 0.00000E+00
 -1      3593 2.42850E+01 1.30992E+01 0.00000E+00
 -1      3594 2.27850E+01 1.30992E+01 0.00000E+00
 -1      3595 2.50350E+01 1.43982E+01 0.00000E+00
 -1      3596 1.36160E+02 2.81352E+01 0.00000E+00
 -1      3597 1.16125E+02 3.59034E+01 0.00000E+00
 -1      3598 1.07263E+02 1.37141E+01 0.00000E+00
 -1      3599 1.48763E+01 1.22006E+01 0.00000E+00
 -1      3600 1.44900E+01 1.32000E+01 0.00000E+00
 -1      3601 1.63762E+01 1.22006E+01 0.00000E+00
 -1      3602 1.14625E+02 3.59034E+01 0.00000E+00
 -1      3603 1.00539E+01 3.60918E+01 0.00000E+00
 -1      3604 1.12388E+01 3.62001E+01 0.00000E+00
 -1      3605 1.25378E+01 3.54658E+01 0.00000E+00
 -1      3606 1.40378E+01 3.54658E+01 0.00000E+00
 -1      3607 1.47878E+01 3.41668E+01 0.00000E+00
 -1      3608 1.44900E+01 1.46687E+01 0.00000E+00
 -1      3609 1.11695E+02 3.47602E+01 0.00000E+00
 -1      3610 1.28624E+02 3.56783E+01 0.00000E+00
 -1      3611 1.13195E+02 3.47602E+01 0.00000E+00
 -1      3612 1.06276E+02 2.13032E+01 0.00000E+00
 -1      3613 1.27124E+02 3.56783E+01 0.00000E+00
 -1      3614 1.25563E+02 3.63005E+01 0.00000E+00
 -1      3615 1.29900E+01 1.76125E+01 0.00000E+00
 -1      3616 1.03820E+02 1.52605E+01 0.00000E+00
 -1      3617 1.34651E+02 3.28032E+01 0.00000E+00
 -1      3618 1.33345E+02 3.29327E+01 0.00000E+00
 -1      3619 2.20350E+01 1.43983E+01 0.00000E+00
 -1      3620 2.12850E+01 1.30993E+01 0.00000E+00
 -1      3621 1.32011E+02 3.37692E+01 0.00000E+00
 -1      3622 1.06684E+02 2.78224E+01 0.00000E+00
 -1      3623 1.05458E+02 2.70448E+01 0.00000E+00
 -1      3624 1.06396E+02 2.90984E+01 0.00000E+00
 -1      3625 1.05971E+02 2.42477E+01 0.00000E+00
 -1      3626 1.08345E+02 3.33738E+01 0.00000E+00
 -1      3627 1.08648E+02 3.14614E+01 0.00000E+00
 -1      3628 1.07363E+02 3.10420E+01 0.00000E+00
 -1      3629 1.06845E+02 3.33738E+01 0.00000E+00
 -1      3630 1.42890E+01 2.27625E+01 0.00000E+00
 -1      3631 1.42890E+01 2.42375E+01 0.00000E+00
 -1      3632 1.99669E+01 1.29495E+01 0.00000E+00
 -1      3633 3.70350E+01 1.43982E+01 0.00000E+00
 -1      3634 3.62850E+01 1.30992E+01 0.00000E+00
 -1      3635 3.47850E+01 1.30992E+01 0.00000E+00
 -1      3636 1.24063E+02 3.63005E+01 0.00000E+00
 -1      3637 1.42890E+01 2.12938E+01 0.00000E+00
 -1      3638 1.55880E+01 2.20313E+01 0.00000E+00
 -1      3639 1.42890E+01 1.98250E+01 0.00000E+00
 -1      3640 1.36054E+02 2.95977E+01 0.00000E+00
 -1      3641 1.35404E+02 3.28362E+01 0.00000E+00
 -1      3642 3.17850E+01 1.30992E+01 0.00000E+00
 -1      3643 3.10350E+01 1.43982E+01 0.00000E+00
 -1      3644 3.32850E+01 1.30992E+01 0.00000E+00
 -1      3645 1.29900E+01 2.64469E+01 0.00000E+00
 -1      3646 1.35760E+02 1.36922E+01 0.00000E+00
 -1      3647 1.23032E+02 3.66097E+01 0.00000E+00
 -1      3648 1.47878E+01 3.26980E+01 0.00000E+00
 -1      3649 1.65855E+01 3.30710E+01 0.00000E+00
 -1      3650 1.47878E+01 3.12292E+01 0.00000E+00
 -1      3651 1.05873E+02 1.82049E+01 0.00000E+00
 -1      3652 1.05398E+02 1.70830E+01 0.00000E+00
 -1      3653 1.05523E+02 1.89615E+01 0.00000E+00
 -1      3654 1.61488E+01 1.48625E+01 0.00000E+00
 -1      3655 1.46488E+01 1.63313E+01 0.00000E+00
 -1      3656 2.03355E+01 3.32407E+01 0.00000E+00
 -1      3657 2.18355E+01 3.32407E+01 0.00000E+00
 -1      3658 2.33355E+01 3.32407E+01 0.00000E+00
 -1      3659 2.48355E+01 3.32407E+01 0.00000E+00
 -1      3660 2.25855E+01 3.19417E+01 0.00000E+00
 -1      3661 2.63355E+01 3.32407E+01 0.00000E+00
 -1      3662 2.78355E+01 3.32407E+01 0.00000E+00
 -1      3663 2.55855E+01 3.19417E+01 0.00000E+00
 -1      3664 2.93355E+01 3.32407E+01 0.00000E+00
 -1      3665 3.08355E+01 3.32407E+01 0.00000E+00
 -1      3666 2.85855E+01 3.19417E+01 0.00000E+00
 -1      3667 3.23355E+01 3.32407E+01 0.00000E+00
 -1      3668 3.38355E+01 3.32407E+01 0.00000E+00
 -1      3669 3.15855E+01 3.19417E+01 0.00000E+00
 -1      3670 3.53355E+01 3.32407E+01 0.00000E+00
 -1      3671 3.68355E+01 3.32407E+01 0.00000E+00
 -1      3672 3.45855E+01 3.19417E+01 0.00000E+00
 -1      3673 3.83355E+01 3.32407E+01 0.00000E+00
 -1      3674 3.98355E+01 3.32407E+01 0.00000E+00
 -1      3675 3.75855E+01 3.19417E+01 0.00000E+00
 -1      3676 4.13355E+01 3.32407E+01 0.00000E+00
 -1      3677 4.28355E+01 3.32407E+01 0.00000E+00
 -1      3678 4.05855E+01 3.19417E+01 0.00000E+00
 -1      3679 4.43355E+01 3.32407E+01 0.00000E+00
 -1      3680 4.58355E+01 3.32407E+01 0.00000E+00
 -1      3681 4.35855E+01 3.19417E+01 0.00000E+00
 -1      3682 4.73355E+01 3.32407E+01 0.00000E+00
 -1      3683 4.88355E+01 3.32407E+01 0.00000E+00
 -1      3684 4.65855E+01 3.19417E+01 0.00000E+00
 -1      3685 5.03355E+01 3.32407E+01 0.00000E+00
 -1      3686 5.18355E+01 3.32407E+01 0.00000E+00
 -1      3687 4.95855E+01 3.19417E+01 0.00000E+00
 -1      3688 5.33355E+01 3.32407E+01 0.00000E+00
 -1      3689 5.48355E+01 3.32407E+01 0.00000E+00
 -1      3690 5.25855E+01 3.19417E+01 0.00000E+00
 -1      3691 5.63355E+01 3.32407E+01 0.00000E+00
 -1      3692 5.78355E+01 3.32407E+01 0.00000E+00
 -1      3693 5.55855E+01 3.19417E+01 0.00000E+00
 -1      3694 5.93355E+01 3.32407E+01 0.00000E+00
 -1      3695 6.08355E+01 3.32407E+01 0.00000E+00
 -1      3696 5.85855E+01 3.19417E+01 0.00000E+00
 -1      3697 6.23355E+01 3.32407E+01 0.00000E+00
 -1      3698 6.38355E+01 3.32407E+01 0.00000E+00
 -1      3699 6.15855E+01 3.19417E+01 0.00000E+00
 -1      3700 6.53355E+01 3.32407E+01 0.00000E+00
 -1      3701 6.68355E+01 3.32407E+01 0.00000E+00
 -1      3702 6.45855E+01 3.19417E+01 0.00000E+00
 -1      3703 6.83355E+01 3.32407E+01 0.00000E+00
 -1      3704 6.98355E+01 3.32407E+01 0.00000E+00
 -1      3705 6.75855E+01 3.19417E+01 0.00000E+00
 -1      3706 7.13355E+01 3.32407E+01 0.00000E+00
 -1      3707 7.28355E+01 3.32407E+01 0.00000E+00
 -1      3708 7.05855E+01 3.19417E+01 0.00000E+00
 -1      3709 7.43355E+01 3.32407E+01 0.00000E+00
 -1      3710 7.58355E+01 3.32407E+01 0.00000E+00
 -1      3711 7.35855E+01 3.19417E+01 0.00000E+00
 -1      3712 7.73355E+01 3.32407E+01 0.00000E+00
 -1      3713 7.88355E+01 3.32407E+01 0.00000E+00
 -1      3714 7.65855E+01 3.19417E+01 0.00000E+00
 -1      3715 8.03355E+01 3.32407E+01 0.00000E+00
 -1      3716 8.18355E+01 3.32407E+01 0.00000E+00
 -1      3717 7.95855E+01 3.19417E+01 0.00000E+00
 -1      3718 8.33355E+01 3.32407E+01 0.00000E+00
 -1      3719 8.48355E+01 3.32407E+01 0.00000E+00
 -1      3720 8.25855E+01 3.19417E+01 0.00000E+00
 -1      3721 8.63355E+01 3.32407E+01 0.00000E+00
 -1      3722 8.78355E+01 3.32407E+01 0.00000E+00
 -1      3723 8.55855E+01 3.19417E+01 0.00000E+00
 -1      3724 8.93355E+01 3.32407E+01 0.00000E+00
 -1      3725 9.08355E+01 3.32407E+01 0.00000E+00
 -1      3726 8.85855E+01 3.19417E+01 0.00000E+00
 -1      3727 9.23355E+01 3.32407E+01 0.00000E+00
 -1      3728 9.38355E+01 3.32407E+01 0.00000E+00
 -1      3729 9.15855E+01 3.19417E+01 0.00000E+00
 -1      3730 9.53355E+01 3.32407E+01 0.00000E+00
 -1      3731 9.68355E+01 3.32407E+01 0.00000E+00
 -1      3732 9.45855E+01 3.19417E+01 0.00000E+00
 -1      3733 9.83355E+01 3.32407E+01 0.00000E+00
 -1      3734 9.98355E+01 3.32407E+01 0.00000E+00
 -1      3735 9.75855E+01 3.19417E+01 0.00000E+00
 -1      3736 1.01336E+02 3.32407E+01 0.00000E+00
 -1      3737 1.02836E+02 3.32407E+01 0.00000E+00
 -1      3738 1.00586E+02 3.19417E+01 0.00000E+00
 -1      3739 1.04090E+02 3.33073E+01 0.00000E+00
 -1      3740 1.05590E+02 3.33073E+01 0.00000E+00
 -1      3741 1.05849E+02 3.21414E+01 0.00000E+00
 -1      3742 1.03340E+02 3.20083E+01 0.00000E+00
 -1      3743 1.55880E+01 2.49719E+01 0.00000E+00
 -1      3744 1.42890E+01 2.57094E+01 0.00000E+00
 -1      3745 1.42890E+01 2.71812E+01 0.00000E+00
 -1      3746 2.87850E+01 1.56973E+01 0.00000E+00
 -1      3747 2.72850E+01 1.56973E+01 0.00000E+00
 -1      3748 2.27850E+01 1.56973E+01 0.00000E+00
 -1      3749 2.12851E+01 1.56973E+01 0.00000E+00
 -1      3750 5.27850E+01 1.56973E+01 0.00000E+00
 -1      3751 5.12850E+01 1.56973E+01 0.00000E+00
 -1      3752 6.17850E+01 1.56973E+01 0.00000E+00
 -1      3753 6.02850E+01 1.56973E+01 0.00000E+00
 -1      3754 6.47850E+01 1.56973E+01 0.00000E+00
 -1      3755 6.32850E+01 1.56973E+01 0.00000E+00
 -1      3756 6.25350E+01 1.69963E+01 0.00000E+00
 -1      3757 6.77850E+01 1.56973E+01 0.00000E+00
 -1      3758 6.62850E+01 1.56973E+01 0.00000E+00
 -1      3759 6.55350E+01 1.69963E+01 0.00000E+00
 -1      3760 7.07850E+01 1.56973E+01 0.00000E+00
 -1      3761 6.92850E+01 1.56973E+01 0.00000E+00
 -1      3762 6.85350E+01 1.69963E+01 0.00000E+00
 -1      3763 7.37850E+01 1.56973E+01 0.00000E+00
 -1      3764 7.22850E+01 1.56973E+01 0.00000E+00
 -1      3765 7.15350E+01 1.69963E+01 0.00000E+00
 -1      3766 7.67850E+01 1.56973E+01 0.00000E+00
 -1      3767 7.52850E+01 1.56973E+01 0.00000E+00
 -1      3768 7.45350E+01 1.69963E+01 0.00000E+00
 -1      3769 7.97850E+01 1.56973E+01 0.00000E+00
 -1      3770 7.82850E+01 1.56973E+01 0.00000E+00
 -1      3771 7.75350E+01 1.69963E+01 0.00000E+00
 -1      3772 8.27850E+01 1.56973E+01 0.00000E+00
 -1      3773 8.12850E+01 1.56973E+01 0.00000E+00
 -1      3774 8.05350E+01 1.69963E+01 0.00000E+00
 -1      3775 8.57850E+01 1.56973E+01 0.00000E+00
 -1      3776 8.42850E+01 1.56973E+01 0.00000E+00
 -1      3777 8.35350E+01 1.69963E+01 0.00000E+00
 -1      3778 8.87850E+01 1.56973E+01 0.00000E+00
 -1      3779 8.72850E+01 1.56973E+01 0.00000E+00
 -1      3780 8.65350E+01 1.69963E+01 0.00000E+00
 -1      3781 9.17850E+01 1.56973E+01 0.00000E+00
 -1      3782 9.02850E+01 1.56973E+01 0.00000E+00
 -1      3783 8.95350E+01 1.69963E+01 0.00000E+00
 -1      3784 9.47850E+01 1.56973E+01 0.00000E+00
 -1      3785 9.32850E+01 1.56973E+01 0.00000E+00
 -1      3786 9.25350E+01 1.69963E+01 0.00000E+00
 -1      3787 9.77850E+01 1.56973E+01 0.00000E+00
 -1      3788 9.62850E+01 1.56973E+01 0.00000E+00
 -1      3789 9.55350E+01 1.69963E+01 0.00000E+00
 -1      3790 1.00785E+02 1.56973E+01 0.00000E+00
 -1      3791 9.92850E+01 1.56973E+01 0.00000E+00
 -1      3792 9.85350E+01 1.69963E+01 0.00000E+00
 -1      3793 1.05046E+02 2.19492E+01 0.00000E+00
 -1      3794 1.05124E+02 2.05257E+01 0.00000E+00
 -1      3795 1.04293E+02 1.96075E+01 0.00000E+00
 -1      3796 4.97850E+01 1.56973E+01 0.00000E+00
 -1      3797 4.82850E+01 1.56973E+01 0.00000E+00
 -1      3798 5.05350E+01 1.69963E+01 0.00000E+00
 -1      3799 4.07850E+01 1.56973E+01 0.00000E+00
 -1      3800 3.92850E+01 1.56973E+01 0.00000E+00
 -1      3801 1.04594E+02 2.49912E+01 0.00000E+00
 -1      3802 1.04820E+02 2.34702E+01 0.00000E+00
 -1      3803 1.03668E+02 2.26928E+01 0.00000E+00
 -1      3804 5.87850E+01 1.56973E+01 0.00000E+00
 -1      3805 5.72850E+01 1.56973E+01 0.00000E+00
 -1      3806 5.95350E+01 1.69963E+01 0.00000E+00
 -1      3807 2.57850E+01 1.56973E+01 0.00000E+00
 -1      3808 2.42850E+01 1.56973E+01 0.00000E+00
 -1      3809 2.35350E+01 1.69963E+01 0.00000E+00
 -1      3810 2.65350E+01 1.69963E+01 0.00000E+00
 -1      3811 1.88306E+01 1.26499E+01 0.00000E+00
 -1      3812 1.75125E+01 1.25001E+01 0.00000E+00
 -1      3813 1.71263E+01 1.34996E+01 0.00000E+00
 -1      3814 1.93988E+01 1.40987E+01 0.00000E+00
 -1      3815 5.57850E+01 1.56973E+01 0.00000E+00
 -1      3816 5.42850E+01 1.56973E+01 0.00000E+00
 -1      3817 5.35350E+01 1.69963E+01 0.00000E+00
 -1      3818 1.77105E+01 3.31559E+01 0.00000E+00
 -1      3819 1.92105E+01 3.31559E+01 0.00000E+00
 -1      3820 1.99605E+01 3.18569E+01 0.00000E+00
 -1      3821 1.77105E+01 3.16871E+01 0.00000E+00
 -1      3822 1.36469E+02 3.08420E+01 0.00000E+00
 -1      3823 1.46488E+01 1.78063E+01 0.00000E+00
 -1      3824 1.45384E+01 2.84709E+01 0.00000E+00
 -1      3825 1.45384E+01 2.99396E+01 0.00000E+00
 -1      3826 1.63361E+01 3.03126E+01 0.00000E+00
 -1      3827 1.58374E+01 2.77334E+01 0.00000E+00
 -1      3828 1.22484E+02 3.60902E+01 0.00000E+00
 -1      3829 2.01488E+01 1.53977E+01 0.00000E+00
 -1      3830 1.90125E+01 1.50981E+01 0.00000E+00
 -1      3831 2.08988E+01 1.66967E+01 0.00000E+00
 -1      3832 3.02850E+01 1.56973E+01 0.00000E+00
 -1      3833 2.95350E+01 1.69963E+01 0.00000E+00
 -1      3834 3.17850E+01 1.56973E+01 0.00000E+00
 -1      3835 3.85350E+01 1.69963E+01 0.00000E+00
 -1      3836 3.77850E+01 1.56973E+01 0.00000E+00
 -1      3837 3.62850E+01 1.56973E+01 0.00000E+00
 -1      3838 4.37850E+01 1.56973E+01 0.00000E+00
 -1      3839 4.22850E+01 1.56973E+01 0.00000E+00
 -1      3840 4.15350E+01 1.69963E+01 0.00000E+00
 -1      3841 4.75350E+01 1.69963E+01 0.00000E+00
 -1      3842 4.67850E+01 1.56973E+01 0.00000E+00
 -1      3843 4.52850E+01 1.56973E+01 0.00000E+00
 -1      3844 1.03113E+02 1.62208E+01 0.00000E+00
 -1      3845 1.02363E+02 1.75198E+01 0.00000E+00
 -1      3846 5.65350E+01 1.69963E+01 0.00000E+00
 -1      3847 3.40350E+01 1.43982E+01 0.00000E+00
 -1      3848 1.04306E+02 2.62673E+01 0.00000E+00
 -1      3849 1.03155E+02 2.54898E+01 0.00000E+00
 -1      3850 1.04019E+02 2.75434E+01 0.00000E+00
 -1      3851 1.68870E+01 2.42359E+01 0.00000E+00
 -1      3852 1.68870E+01 2.57078E+01 0.00000E+00
 -1      3853 1.59478E+01 1.85438E+01 0.00000E+00
 -1      3854 1.05993E+02 3.12029E+01 0.00000E+00
 -1      3855 1.06252E+02 3.00369E+01 0.00000E+00
 -1      3856 1.05026E+02 2.92593E+01 0.00000E+00
 -1      3857 1.04739E+02 3.11363E+01 0.00000E+00
 -1      3858 1.68870E+01 2.12984E+01 0.00000E+00
 -1      3859 1.68870E+01 2.27672E+01 0.00000E+00
 -1      3860 1.81860E+01 2.35031E+01 0.00000E+00
 -1      3861 1.72851E+01 1.51621E+01 0.00000E+00
 -1      3862 2.48355E+01 3.06427E+01 0.00000E+00
 -1      3863 2.63355E+01 3.06427E+01 0.00000E+00
 -1      3864 2.78355E+01 3.06427E+01 0.00000E+00
 -1      3865 2.93355E+01 3.06427E+01 0.00000E+00
 -1      3866 2.70855E+01 2.93438E+01 0.00000E+00
 -1      3867 3.08355E+01 3.06427E+01 0.00000E+00
 -1      3868 3.23355E+01 3.06427E+01 0.00000E+00
 -1      3869 3.00855E+01 2.93438E+01 0.00000E+00
 -1      3870 3.38355E+01 3.06427E+01 0.00000E+00
 -1      3871 3.53355E+01 3.06427E+01 0.00000E+00
 -1      3872 3.30855E+01 2.93438E+01 0.00000E+00
 -1      3873 3.68355E+01 3.06427E+01 0.00000E+00
 -1      3874 3.83355E+01 3.06427E+01 0.00000E+00
 -1      3875 3.60855E+01 2.93438E+01 0.00000E+00
 -1      3876 3.98355E+01 3.06427E+01 0.00000E+00
 -1      3877 4.13355E+01 3.06427E+01 0.00000E+00
 -1      3878 3.90855E+01 2.93438E+01 0.00000E+00
 -1      3879 4.28355E+01 3.06427E+01 0.00000E+00
 -1      3880 4.43355E+01 3.06427E+01 0.00000E+00
 -1      3881 4.20855E+01 2.93438E+01 0.00000E+00
 -1      3882 4.58355E+01 3.06427E+01 0.00000E+00
 -1      3883 4.73355E+01 3.06427E+01 0.00000E+00
 -1      3884 4.50855E+01 2.93438E+01 0.00000E+00
 -1      3885 4.88355E+01 3.06427E+01 0.00000E+00
 -1      3886 5.03355E+01 3.06427E+01 0.00000E+00
 -1      3887 4.80855E+01 2.93438E+01 0.00000E+00
 -1      3888 5.18355E+01 3.06427E+01 0.00000E+00
 -1      3889 5.33355E+01 3.06427E+01 0.00000E+00
 -1      3890 5.10855E+01 2.93438E+01 0.00000E+00
 -1      3891 5.48355E+01 3.06427E+01 0.00000E+00
 -1      3892 5.63355E+01 3.06427E+01 0.00000E+00
 -1      3893 5.40855E+01 2.93438E+01 0.00000E+00
 -1      3894 5.78355E+01 3.06427E+01 0.00000E+00
 -1      3895 5.93355E+01 3.06427E+01 0.00000E+00
 -1      3896 5.70855E+01 2.93438E+01 0.00000E+00
 -1      3897 6.08355E+01 3.06427E+01 0.00000E+00
 -1      3898 6.23355E+01 3.06427E+01 0.00000E+00
 -1      3899 6.00855E+01 2.93438E+01 0.00000E+00
 -1      3900 6.38355E+01 3.06427E+01 0.00000E+00
 -1      3901 6.53355E+01 3.06427E+01 0.00000E+00
 -1      3902 6.30855E+01 2.93438E+01 0.00000E+00
 -1      3903 6.68355E+01 3.06427E+01 0.00000E+00
 -1      3904 6.83355E+01 3.06427E+01 0.00000E+00
 -1      3905 6.60855E+01 2.93438E+01 0.00000E+00
 -1      3906 6.98355E+01 3.06427E+01 0.00000E+00
 -1      3907 7.13355E+01 3.06427E+01 0.00000E+00
 -1      3908 6.90855E+01 2.93438E+01 0.00000E+00
 -1      3909 7.28355E+01 3.06427E+01 0.00000E+00
 -1      3910 7.43355E+01 3.06427E+01 0.00000E+00
 -1      3911 7.20855E+01 2.93438E+01 0.00000E+00
 -1      3912 7.58355E+01 3.06427E+01 0.00000E+00
 -1      3913 7.73355E+01 3.06427E+01 0.00000E+00
 -1      3914 7.50855E+01 2.93438E+01 0.00000E+00
 -1      3915 7.88355E+01 3.06427E+01 0.00000E+00
 -1      3916 8.03355E+01 3.06427E+01 0.00000E+00
 -1      3917 7.80855E+01 2.93438E+01 0.00000E+00
 -1      3918 8.18355E+01 3.06427E+01 0.00000E+00
 -1      3919 8.33355E+01 3.06427E+01 0.00000E+00
 -1      3920 8.10855E+01 2.93438E+01 0.00000E+00
 -1      3921 8.48355E+01 3.06427E+01 0.00000E+00
 -1      3922 8.63355E+01 3.06427E+01 0.00000E+00
 -1      3923 8.40855E+01 2.93438E+01 0.00000E+00
 -1      3924 8.78355E+01 3.06427E+01 0.00000E+00
 -1      3925 8.93355E+01 3.06427E+01 0.00000E+00
 -1      3926 8.70855E+01 2.93438E+01 0.00000E+00
 -1      3927 9.08355E+01 3.06427E+01 0.00000E+00
 -1      3928 9.23355E+01 3.06427E+01 0.00000E+00
 -1      3929 9.00855E+01 2.93438E+01 0.00000E+00
 -1      3930 9.38355E+01 3.06427E+01 0.00000E+00
 -1      3931 9.53355E+01 3.06427E+01 0.00000E+00
 -1      3932 9.30855E+01 2.93438E+01 0.00000E+00
 -1      3933 9.68355E+01 3.06427E+01 0.00000E+00
 -1      3934 9.83355E+01 3.06427E+01 0.00000E+00
 -1      3935 9.60855E+01 2.93438E+01 0.00000E+00
 -1      3936 9.98355E+01 3.06427E+01 0.00000E+00
 -1      3937 1.01336E+02 3.06427E+01 0.00000E+00
 -1      3938 9.90855E+01 2.93438E+01 0.00000E+00
 -1      3939 6.32850E+01 1.82952E+01 0.00000E+00
 -1      3940 6.17850E+01 1.82952E+01 0.00000E+00
 -1      3941 7.22850E+01 1.82952E+01 0.00000E+00
 -1      3942 7.07850E+01 1.82952E+01 0.00000E+00
 -1      3943 7.52850E+01 1.82952E+01 0.00000E+00
 -1      3944 7.37850E+01 1.82952E+01 0.00000E+00
 -1      3945 7.30350E+01 1.95942E+01 0.00000E+00
 -1      3946 7.82850E+01 1.82952E+01 0.00000E+00
 -1      3947 7.67850E+01 1.82952E+01 0.00000E+00
 -1      3948 7.60350E+01 1.95942E+01 0.00000E+00
 -1      3949 8.12850E+01 1.82952E+01 0.00000E+00
 -1      3950 7.97850E+01 1.82952E+01 0.00000E+00
 -1      3951 7.90350E+01 1.95942E+01 0.00000E+00
 -1      3952 8.42850E+01 1.82952E+01 0.00000E+00
 -1      3953 8.27850E+01 1.82952E+01 0.00000E+00
 -1      3954 8.20350E+01 1.95942E+01 0.00000E+00
 -1      3955 8.72850E+01 1.82952E+01 0.00000E+00
 -1      3956 8.57850E+01 1.82952E+01 0.00000E+00
 -1      3957 8.50350E+01 1.95942E+01 0.00000E+00
 -1      3958 9.02850E+01 1.82952E+01 0.00000E+00
 -1      3959 8.87850E+01 1.82952E+01 0.00000E+00
 -1      3960 8.80350E+01 1.95942E+01 0.00000E+00
 -1      3961 9.32850E+01 1.82952E+01 0.00000E+00
 -1      3962 9.17850E+01 1.82952E+01 0.00000E+00
 -1      3963 9.10350E+01 1.95942E+01 0.00000E+00
 -1      3964 9.62850E+01 1.82952E+01 0.00000E+00
 -1      3965 9.47850E+01 1.82952E+01 0.00000E+00
 -1      3966 9.40350E+01 1.95942E+01 0.00000E+00
 -1      3967 9.92850E+01 1.82952E+01 0.00000E+00
 -1      3968 9.77850E+01 1.82952E+01 0.00000E+00
 -1      3969 9.70350E+01 1.95942E+01 0.00000E+00
 -1      3970 5.72850E+01 1.82952E+01 0.00000E+00
 -1      3971 5.57850E+01 1.82952E+01 0.00000E+00
 -1      3972 6.92850E+01 1.82952E+01 0.00000E+00
 -1      3973 6.77850E+01 1.82952E+01 0.00000E+00
 -1      3974 7.00350E+01 1.95942E+01 0.00000E+00
 -1      3975 1.02938E+02 2.00950E+01 0.00000E+00
 -1      3976 1.03336E+02 1.85308E+01 0.00000E+00
 -1      3977 6.62850E+01 1.82952E+01 0.00000E+00
 -1      3978 6.47850E+01 1.82952E+01 0.00000E+00
 -1      3979 6.40350E+01 1.95942E+01 0.00000E+00
 -1      3980 6.70350E+01 1.95942E+01 0.00000E+00
 -1      3981 5.12850E+01 1.82952E+01 0.00000E+00
 -1      3982 4.97850E+01 1.82952E+01 0.00000E+00
 -1      3983 1.80351E+01 1.64611E+01 0.00000E+00
 -1      3984 1.76409E+01 1.78704E+01 0.00000E+00
 -1      3985 1.72811E+01 1.98891E+01 0.00000E+00
 -1      3986 1.85801E+01 2.06251E+01 0.00000E+00
 -1      3987 1.93684E+01 1.78064E+01 0.00000E+00
 -1      3988 5.42850E+01 1.82952E+01 0.00000E+00
 -1      3989 5.27850E+01 1.82952E+01 0.00000E+00
 -1      3990 5.50350E+01 1.95942E+01 0.00000E+00
 -1      3991 1.02375E+02 2.32781E+01 0.00000E+00
 -1      3992 1.02601E+02 2.17571E+01 0.00000E+00
 -1      3993 6.02850E+01 1.82952E+01 0.00000E+00
 -1      3994 5.87850E+01 1.82952E+01 0.00000E+00
 -1      3995 5.80350E+01 1.95942E+01 0.00000E+00
 -1      3996 1.84354E+01 2.62615E+01 0.00000E+00
 -1      3997 1.71364E+01 2.69974E+01 0.00000E+00
 -1      3998 1.73857E+01 2.82871E+01 0.00000E+00
 -1      3999 2.18355E+01 3.06427E+01 0.00000E+00
 -1      4000 2.33355E+01 3.06427E+01 0.00000E+00
 -1      4001 2.40855E+01 2.93438E+01 0.00000E+00
 -1      4002 3.47850E+01 1.56973E+01 0.00000E+00
 -1      4003 3.32850E+01 1.56973E+01 0.00000E+00
 -1      4004 3.25350E+01 1.69963E+01 0.00000E+00
 -1      4005 1.01645E+02 2.06803E+01 0.00000E+00
 -1      4006 2.16409E+01 1.84056E+01 0.00000E+00
 -1      4007 2.05047E+01 1.81060E+01 0.00000E+00
 -1      4008 2.01105E+01 1.95153E+01 0.00000E+00
 -1      4009 1.94850E+01 2.27687E+01 0.00000E+00
 -1      4010 1.94850E+01 2.42375E+01 0.00000E+00
 -1      4011 5.20350E+01 1.95942E+01 0.00000E+00
 -1      4012 1.02410E+02 3.08563E+01 0.00000E+00
 -1      4013 1.03664E+02 3.09228E+01 0.00000E+00
 -1      4014 1.03808E+02 2.99843E+01 0.00000E+00
 -1      4015 1.01660E+02 2.95573E+01 0.00000E+00
 -1      4016 3.92850E+01 1.82952E+01 0.00000E+00
 -1      4017 3.77850E+01 1.82952E+01 0.00000E+00
 -1      4018 3.02850E+01 1.82952E+01 0.00000E+00
 -1      4019 2.87850E+01 1.82952E+01 0.00000E+00
 -1      4020 4.45350E+01 1.69963E+01 0.00000E+00
 -1      4021 4.82850E+01 1.82952E+01 0.00000E+00
 -1      4022 4.67850E+01 1.82952E+01 0.00000E+00
 -1      4023 4.90350E+01 1.95942E+01 0.00000E+00
 -1      4024 2.46409E+01 1.84056E+01 0.00000E+00
 -1      4025 2.31409E+01 1.84056E+01 0.00000E+00
 -1      4026 2.27468E+01 1.98149E+01 0.00000E+00
 -1      4027 1.01008E+02 1.80073E+01 0.00000E+00
 -1      4028 1.00258E+02 1.93063E+01 0.00000E+00
 -1      4029 3.55350E+01 1.69963E+01 0.00000E+00
 -1      4030 1.74234E+01 2.93423E+01 0.00000E+00
 -1      4031 1.76728E+01 3.06319E+01 0.00000E+00
 -1      4032 1.87978E+01 3.07168E+01 0.00000E+00
 -1      4033 1.87224E+01 2.86063E+01 0.00000E+00
 -1      4034 2.10334E+01 2.47927E+01 0.00000E+00
 -1      4035 1.97344E+01 2.55271E+01 0.00000E+00
 -1      4036 1.99837E+01 2.68167E+01 0.00000E+00
 -1      4037 6.10350E+01 1.95942E+01 0.00000E+00
 -1      4038 1.02088E+02 2.45541E+01 0.00000E+00
 -1      4039 1.01021E+02 2.36184E+01 0.00000E+00
 -1      4040 1.01800E+02 2.58302E+01 0.00000E+00
 -1      4041 4.22850E+01 1.82952E+01 0.00000E+00
 -1      4042 4.07850E+01 1.82952E+01 0.00000E+00
 -1      4043 4.00350E+01 1.95942E+01 0.00000E+00
 -1      4044 9.99218E+01 2.09683E+01 0.00000E+00
 -1      4045 1.03952E+02 2.90458E+01 0.00000E+00
 -1      4046 2.74629E+01 1.83504E+01 0.00000E+00
 -1      4047 2.59630E+01 1.83504E+01 0.00000E+00
 -1      4048 2.55688E+01 1.97597E+01 0.00000E+00
 -1      4049 2.82129E+01 1.96494E+01 0.00000E+00
 -1      4050 1.97542E+01 3.06373E+01 0.00000E+00
 -1      4051 2.08792E+01 3.07222E+01 0.00000E+00
 -1      4052 2.16292E+01 2.94232E+01 0.00000E+00
 -1      4053 1.97165E+01 2.95821E+01 0.00000E+00
 -1      4054 1.02801E+02 2.82683E+01 0.00000E+00
 -1      4055 1.97164E+01 2.09246E+01 0.00000E+00
 -1      4056 2.10154E+01 2.16590E+01 0.00000E+00
 -1      4057 5.27850E+01 2.08932E+01 0.00000E+00
 -1      4058 5.12850E+01 2.08932E+01 0.00000E+00
 -1      4059 2.63355E+01 2.80448E+01 0.00000E+00
 -1      4060 2.78355E+01 2.80448E+01 0.00000E+00
 -1      4061 3.70350E+01 1.95942E+01 0.00000E+00
 -1      4062 3.62850E+01 1.82952E+01 0.00000E+00
 -1      4063 3.47850E+01 1.82952E+01 0.00000E+00
 -1      4064 2.93355E+01 2.80448E+01 0.00000E+00
 -1      4065 3.08355E+01 2.80448E+01 0.00000E+00
 -1      4066 2.85855E+01 2.67458E+01 0.00000E+00
 -1      4067 3.23355E+01 2.80448E+01 0.00000E+00
 -1      4068 3.38355E+01 2.80448E+01 0.00000E+00
 -1      4069 3.15855E+01 2.67458E+01 0.00000E+00
 -1      4070 3.53355E+01 2.80448E+01 0.00000E+00
 -1      4071 3.68355E+01 2.80448E+01 0.00000E+00
 -1      4072 3.45855E+01 2.67458E+01 0.00000E+00
 -1      4073 3.83355E+01 2.80448E+01 0.00000E+00
 -1      4074 3.98355E+01 2.80448E+01 0.00000E+00
 -1      4075 3.75855E+01 2.67458E+01 0.00000E+00
 -1      4076 4.13355E+01 2.80448E+01 0.00000E+00
 -1      4077 4.28355E+01 2.80448E+01 0.00000E+00
 -1      4078 4.05855E+01 2.67458E+01 0.00000E+00
 -1      4079 4.43355E+01 2.80448E+01 0.00000E+00
 -1      4080 4.58355E+01 2.80448E+01 0.00000E+00
 -1      4081 4.35855E+01 2.67458E+01 0.00000E+00
 -1      4082 4.73355E+01 2.80448E+01 0.00000E+00
 -1      4083 4.88355E+01 2.80448E+01 0.00000E+00
 -1      4084 4.65855E+01 2.67458E+01 0.00000E+00
 -1      4085 5.03355E+01 2.80448E+01 0.00000E+00
 -1      4086 5.18355E+01 2.80448E+01 0.00000E+00
 -1      4087 4.95855E+01 2.67458E+01 0.00000E+00
 -1      4088 5.33355E+01 2.80448E+01 0.00000E+00
 -1      4089 5.48355E+01 2.80448E+01 0.00000E+00
 -1      4090 5.25855E+01 2.67458E+01 0.00000E+00
 -1      4091 5.63355E+01 2.80448E+01 0.00000E+00
 -1      4092 5.78355E+01 2.80448E+01 0.00000E+00
 -1      4093 5.55855E+01 2.67458E+01 0.00000E+00
 -1      4094 5.93355E+01 2.80448E+01 0.00000E+00
 -1      4095 6.08355E+01 2.80448E+01 0.00000E+00
 -1      4096 5.85855E+01 2.67458E+01 0.00000E+00
 -1      4097 6.23355E+01 2.80448E+01 0.00000E+00
 -1      4098 6.38355E+01 2.80448E+01 0.00000E+00
 -1      4099 6.15855E+01 2.67458E+01 0.00000E+00
 -1      4100 6.53355E+01 2.80448E+01 0.00000E+00
 -1      4101 6.68355E+01 2.80448E+01 0.00000E+00
 -1      4102 6.45855E+01 2.67458E+01 0.00000E+00
 -1      4103 6.83355E+01 2.80448E+01 0.00000E+00
 -1      4104 6.98355E+01 2.80448E+01 0.00000E+00
 -1      4105 6.75855E+01 2.67458E+01 0.00000E+00
 -1      4106 7.13355E+01 2.80448E+01 0.00000E+00
 -1      4107 7.28355E+01 2.80448E+01 0.00000E+00
 -1      4108 7.05855E+01 2.67458E+01 0.00000E+00
 -1      4109 7.43355E+01 2.80448E+01 0.00000E+00
 -1      4110 7.58355E+01 2.80448E+01 0.00000E+00
 -1      4111 7.35855E+01 2.67458E+01 0.00000E+00
 -1      4112 7.73355E+01 2.80448E+01 0.00000E+00
 -1      4113 7.88355E+01 2.80448E+01 0.00000E+00
 -1      4114 7.65855E+01 2.67458E+01 0.00000E+00
 -1      4115 8.03355E+01 2.80448E+01 0.00000E+00
 -1      4116 8.18355E+01 2.80448E+01 0.00000E+00
 -1      4117 7.95855E+01 2.67458E+01 0.00000E+00
 -1      4118 8.33355E+01 2.80448E+01 0.00000E+00
 -1      4119 8.48355E+01 2.80448E+01 0.00000E+00
 -1      4120 8.25855E+01 2.67458E+01 0.00000E+00
 -1      4121 8.63355E+01 2.80448E+01 0.00000E+00
 -1      4122 8.78355E+01 2.80448E+01 0.00000E+00
 -1      4123 8.55855E+01 2.67458E+01 0.00000E+00
 -1      4124 8.93355E+01 2.80448E+01 0.00000E+00
 -1      4125 9.08355E+01 2.80448E+01 0.00000E+00
 -1      4126 8.85855E+01 2.67458E+01 0.00000E+00
 -1      4127 9.23355E+01 2.80448E+01 0.00000E+00
 -1      4128 9.38355E+01 2.80448E+01 0.00000E+00
 -1      4129 9.15855E+01 2.67458E+01 0.00000E+00
 -1      4130 9.53355E+01 2.80448E+01 0.00000E+00
 -1      4131 9.68355E+01 2.80448E+01 0.00000E+00
 -1      4132 9.45855E+01 2.67458E+01 0.00000E+00
 -1      4133 1.01726E+02 2.80548E+01 0.00000E+00
 -1      4134 4.52850E+01 1.82952E+01 0.00000E+00
 -1      4135 4.37850E+01 1.82952E+01 0.00000E+00
 -1      4136 4.60350E+01 1.95942E+01 0.00000E+00
 -1      4137 7.37850E+01 2.08932E+01 0.00000E+00
 -1      4138 7.22850E+01 2.08932E+01 0.00000E+00
 -1      4139 8.27850E+01 2.08932E+01 0.00000E+00
 -1      4140 8.12850E+01 2.08932E+01 0.00000E+00
 -1      4141 8.57850E+01 2.08932E+01 0.00000E+00
 -1      4142 8.42850E+01 2.08932E+01 0.00000E+00
 -1      4143 8.35350E+01 2.21922E+01 0.00000E+00
 -1      4144 8.87850E+01 2.08932E+01 0.00000E+00
 -1      4145 8.72850E+01 2.08932E+01 0.00000E+00
 -1      4146 8.65350E+01 2.21922E+01 0.00000E+00
 -1      4147 9.17850E+01 2.08932E+01 0.00000E+00
 -1      4148 9.02850E+01 2.08932E+01 0.00000E+00
 -1      4149 8.95350E+01 2.21922E+01 0.00000E+00
 -1      4150 9.47850E+01 2.08932E+01 0.00000E+00
 -1      4151 9.32850E+01 2.08932E+01 0.00000E+00
 -1      4152 9.25350E+01 2.21922E+01 0.00000E+00
 -1      4153 9.77850E+01 2.08932E+01 0.00000E+00
 -1      4154 9.62850E+01 2.08932E+01 0.00000E+00
 -1      4155 9.55350E+01 2.21922E+01 0.00000E+00
 -1      4156 7.67850E+01 2.08932E+01 0.00000E+00
 -1      4157 7.52850E+01 2.08932E+01 0.00000E+00
 -1      4158 7.45350E+01 2.21922E+01 0.00000E+00
 -1      4159 2.25154E+01 2.16590E+01 0.00000E+00
 -1      4160 2.22840E+01 2.35031E+01 0.00000E+00
 -1      4161 2.40154E+01 2.16590E+01 0.00000E+00
 -1      4162 5.57850E+01 2.08932E+01 0.00000E+00
 -1      4163 5.42850E+01 2.08932E+01 0.00000E+00
 -1      4164 5.35350E+01 2.21922E+01 0.00000E+00
 -1      4165 9.91718E+01 2.22673E+01 0.00000E+00
 -1      4166 5.87850E+01 2.08932E+01 0.00000E+00
 -1      4167 5.72850E+01 2.08932E+01 0.00000E+00
 -1      4168 5.65350E+01 2.21922E+01 0.00000E+00
 -1      4169 3.32850E+01 1.82952E+01 0.00000E+00
 -1      4170 3.17850E+01 1.82952E+01 0.00000E+00
 -1      4171 3.40350E+01 1.95942E+01 0.00000E+00
 -1      4172 6.17850E+01 2.08932E+01 0.00000E+00
 -1      4173 6.02850E+01 2.08932E+01 0.00000E+00
 -1      4174 5.95350E+01 2.21922E+01 0.00000E+00
 -1      4175 7.07850E+01 2.08932E+01 0.00000E+00
 -1      4176 6.92850E+01 2.08932E+01 0.00000E+00
 -1      4177 7.15350E+01 2.21922E+01 0.00000E+00
 -1      4178 7.97850E+01 2.08932E+01 0.00000E+00
 -1      4179 7.82850E+01 2.08932E+01 0.00000E+00
 -1      4180 8.05350E+01 2.21922E+01 0.00000E+00
 -1      4181 2.33355E+01 2.80448E+01 0.00000E+00
 -1      4182 2.48355E+01 2.80448E+01 0.00000E+00
 -1      4183 2.55855E+01 2.67458E+01 0.00000E+00
 -1      4184 9.98725E+01 2.82314E+01 0.00000E+00
 -1      4185 1.01013E+02 2.69425E+01 0.00000E+00
 -1      4186 9.99465E+01 2.60068E+01 0.00000E+00
 -1      4187 9.83725E+01 2.82314E+01 0.00000E+00
 -1      4188 5.05350E+01 2.21922E+01 0.00000E+00
 -1      4189 4.97850E+01 2.08932E+01 0.00000E+00
 -1      4190 4.82850E+01 2.08932E+01 0.00000E+00
 -1      4191 3.10350E+01 1.95942E+01 0.00000E+00
 -1      4192 2.09778E+01 2.77925E+01 0.00000E+00
 -1      4193 2.19341E+01 2.77131E+01 0.00000E+00
 -1      4194 2.25334E+01 2.47927E+01 0.00000E+00
 -1      4195 3.17850E+01 2.08932E+01 0.00000E+00
 -1      4196 3.02850E+01 2.08932E+01 0.00000E+00
 -1      4197 7.75350E+01 2.21922E+01 0.00000E+00
 -1      4198 4.30350E+01 1.95942E+01 0.00000E+00
 -1      4199 9.88842E+01 2.35434E+01 0.00000E+00
 -1      4200 9.76225E+01 2.69324E+01 0.00000E+00
 -1      4201 6.47850E+01 2.08932E+01 0.00000E+00
 -1      4202 6.32850E+01 2.08932E+01 0.00000E+00
 -1      4203 6.25350E+01 2.21922E+01 0.00000E+00
 -1      4204 2.26841E+01 2.64141E+01 0.00000E+00
 -1      4205 1.96788E+01 2.85269E+01 0.00000E+00
 -1      4206 4.07850E+01 2.08932E+01 0.00000E+00
 -1      4207 3.92850E+01 2.08932E+01 0.00000E+00
 -1      4208 2.89629E+01 2.09484E+01 0.00000E+00
 -1      4209 2.76409E+01 2.10036E+01 0.00000E+00
 -1      4210 2.97129E+01 2.22474E+01 0.00000E+00
 -1      4211 6.77850E+01 2.08932E+01 0.00000E+00
 -1      4212 6.62850E+01 2.08932E+01 0.00000E+00
 -1      4213 6.85350E+01 2.21922E+01 0.00000E+00
 -1      4214 3.77850E+01 2.08932E+01 0.00000E+00
 -1      4215 3.62850E+01 2.08932E+01 0.00000E+00
 -1      4216 3.85350E+01 2.21922E+01 0.00000E+00
 -1      4217 6.02850E+01 2.34912E+01 0.00000E+00
 -1      4218 5.87850E+01 2.34912E+01 0.00000E+00
 -1      4219 2.77382E+01 2.45242E+01 0.00000E+00
 -1      4220 2.92382E+01 2.45242E+01 0.00000E+00
 -1      4221 3.05602E+01 2.44690E+01 0.00000E+00
 -1      4222 3.20602E+01 2.44690E+01 0.00000E+00
 -1      4223 3.68355E+01 2.54468E+01 0.00000E+00
 -1      4224 3.83355E+01 2.54468E+01 0.00000E+00
 -1      4225 3.95602E+01 2.44690E+01 0.00000E+00
 -1      4226 4.10602E+01 2.44690E+01 0.00000E+00
 -1      4227 4.58355E+01 2.54468E+01 0.00000E+00
 -1      4228 4.73355E+01 2.54468E+01 0.00000E+00
 -1      4229 4.85602E+01 2.44690E+01 0.00000E+00
 -1      4230 5.00602E+01 2.44690E+01 0.00000E+00
 -1      4231 5.15602E+01 2.44690E+01 0.00000E+00
 -1      4232 5.30602E+01 2.44690E+01 0.00000E+00
 -1      4233 5.45602E+01 2.44690E+01 0.00000E+00
 -1      4234 5.60602E+01 2.44690E+01 0.00000E+00
 -1      4235 5.83102E+01 2.57680E+01 0.00000E+00
 -1      4236 5.98102E+01 2.57680E+01 0.00000E+00
 -1      4237 6.13102E+01 2.57680E+01 0.00000E+00
 -1      4238 6.28102E+01 2.57680E+01 0.00000E+00
 -1      4239 6.10350E+01 2.47903E+01 0.00000E+00
 -1      4240 6.43102E+01 2.57680E+01 0.00000E+00
 -1      4241 6.58102E+01 2.57680E+01 0.00000E+00
 -1      4242 6.40350E+01 2.47903E+01 0.00000E+00
 -1      4243 6.73102E+01 2.57680E+01 0.00000E+00
 -1      4244 6.88102E+01 2.57680E+01 0.00000E+00
 -1      4245 6.70350E+01 2.47903E+01 0.00000E+00
 -1      4246 7.03102E+01 2.57680E+01 0.00000E+00
 -1      4247 7.18102E+01 2.57680E+01 0.00000E+00
 -1      4248 7.00350E+01 2.47903E+01 0.00000E+00
 -1      4249 7.33102E+01 2.57680E+01 0.00000E+00
 -1      4250 7.48102E+01 2.57680E+01 0.00000E+00
 -1      4251 7.30350E+01 2.47903E+01 0.00000E+00
 -1      4252 7.63102E+01 2.57680E+01 0.00000E+00
 -1      4253 7.78102E+01 2.57680E+01 0.00000E+00
 -1      4254 7.60350E+01 2.47903E+01 0.00000E+00
 -1      4255 7.93102E+01 2.57680E+01 0.00000E+00
 -1      4256 8.08102E+01 2.57680E+01 0.00000E+00
 -1      4257 7.90350E+01 2.47903E+01 0.00000E+00
 -1      4258 8.23102E+01 2.57680E+01 0.00000E+00
 -1      4259 8.38102E+01 2.57680E+01 0.00000E+00
 -1      4260 8.20350E+01 2.47903E+01 0.00000E+00
 -1      4261 8.53102E+01 2.57680E+01 0.00000E+00
 -1      4262 8.68102E+01 2.57680E+01 0.00000E+00
 -1      4263 8.50350E+01 2.47903E+01 0.00000E+00
 -1      4264 8.83102E+01 2.57680E+01 0.00000E+00
 -1      4265 8.98102E+01 2.57680E+01 0.00000E+00
 -1      4266 8.80350E+01 2.47903E+01 0.00000E+00
 -1      4267 9.13102E+01 2.57680E+01 0.00000E+00
 -1      4268 9.28102E+01 2.57680E+01 0.00000E+00
 -1      4269 9.10350E+01 2.47903E+01 0.00000E+00
 -1      4270 8.72850E+01 2.34912E+01 0.00000E+00
 -1      4271 8.57850E+01 2.34912E+01 0.00000E+00
 -1      4272 2.39347E+01 2.51244E+01 0.00000E+00
 -1      4273 3.34226E+01 2.13821E+01 0.00000E+00
 -1      4274 3.26726E+01 2.26811E+01 0.00000E+00
 -1      4275 3.36979E+01 2.49579E+01 0.00000E+00
 -1      4276 3.49226E+01 2.13821E+01 0.00000E+00
 -1      4277 7.82850E+01 2.34912E+01 0.00000E+00
 -1      4278 7.67850E+01 2.34912E+01 0.00000E+00
 -1      4279 2.54347E+01 2.51244E+01 0.00000E+00
 -1      4280 8.42850E+01 2.34912E+01 0.00000E+00
 -1      4281 8.27850E+01 2.34912E+01 0.00000E+00
 -1      4282 9.32850E+01 2.34912E+01 0.00000E+00
 -1      4283 9.17850E+01 2.34912E+01 0.00000E+00
 -1      4284 9.68346E+01 2.35173E+01 0.00000E+00
 -1      4285 9.53346E+01 2.35173E+01 0.00000E+00
 -1      4286 9.45846E+01 2.48163E+01 0.00000E+00
 -1      4287 9.86839E+01 2.48684E+01 0.00000E+00
 -1      4288 7.52850E+01 2.34912E+01 0.00000E+00
 -1      4289 7.37850E+01 2.34912E+01 0.00000E+00
 -1      4290 2.60874E+01 2.29028E+01 0.00000E+00
 -1      4291 4.22850E+01 2.08932E+01 0.00000E+00
 -1      4292 4.15350E+01 2.21922E+01 0.00000E+00
 -1      4293 4.37850E+01 2.08932E+01 0.00000E+00
 -1      4294 4.67850E+01 2.08932E+01 0.00000E+00
 -1      4295 4.52850E+01 2.08932E+01 0.00000E+00
 -1      4296 4.45350E+01 2.21922E+01 0.00000E+00
 -1      4297 4.75350E+01 2.21922E+01 0.00000E+00
 -1      4298 7.22850E+01 2.34912E+01 0.00000E+00
 -1      4299 7.07850E+01 2.34912E+01 0.00000E+00
 -1      4300 9.78969E+01 2.59807E+01 0.00000E+00
 -1      4301 9.63599E+01 2.57941E+01 0.00000E+00
 -1      4302 8.12850E+01 2.34912E+01 0.00000E+00
 -1      4303 7.97850E+01 2.34912E+01 0.00000E+00
 -1      4304 9.02850E+01 2.34912E+01 0.00000E+00
 -1      4305 8.87850E+01 2.34912E+01 0.00000E+00
 -1      4306 4.25602E+01 2.44690E+01 0.00000E+00
 -1      4307 5.75602E+01 2.44690E+01 0.00000E+00
 -1      4308 3.51979E+01 2.49579E+01 0.00000E+00
 -1      4309 4.40602E+01 2.44690E+01 0.00000E+00
 -1      4310 3.59479E+01 2.36589E+01 0.00000E+00
 -1      4311 9.43102E+01 2.57680E+01 0.00000E+00
 -1      4312 6.92850E+01 2.34912E+01 0.00000E+00
 -1      4313 6.17850E+01 2.34912E+01 0.00000E+00
 -1      4314 2.63188E+01 2.10587E+01 0.00000E+00
 -1      4315 6.55350E+01 2.21922E+01 0.00000E+00
 -1      4316 3.88102E+01 2.31700E+01 0.00000E+00
 -1      4317 6.77850E+01 2.34912E+01 0.00000E+00
 -1      4318 3.73102E+01 2.31700E+01 0.00000E+00
 -1      4319 6.32850E+01 2.34912E+01 0.00000E+00
 -1      4320 4.78102E+01 2.31700E+01 0.00000E+00
 -1      4321 6.62850E+01 2.34912E+01 0.00000E+00
 -1      4322 6.47850E+01 2.34912E+01 0.00000E+00
 -1      4323 3.56726E+01 2.26811E+01 0.00000E+00
 -1      4324 4.48102E+01 2.31700E+01 0.00000E+00
 -1      4325 4.63102E+01 2.31700E+01 0.00000E+00
 -3
    3C                          2081                                     1
 -1       164    8    0    1
 -2         6         7        23      1123      1286      1140
 -1       165    8    0    1
 -2         7         8       164      1124      1287      1288
 -1       166    8    0    1
 -2         8         9       165      1125      1289      1290
 -1       167    8    0    1
 -2         8       165       164      1290      1291      1287
 -1       168    8    0    1
 -2         9        10       166      1126      1292      1293
 -1       169    8    0    1
 -2         9       166       165      1293      1294      1289
 -1       170    8    0    1
 -2        10        11       167      1127      1295      1296
 -1       171    8    0    1
 -2        10       167       166      1296      1297      1292
 -1       172    8    0    1
 -2        11        12       168      1128      1298      1299
 -1       173    8    0    1
 -2        11       168       167      1299      1300      1295
 -1       174    8    0    1
 -2        12        13       169      1129      1301      1302
 -1       175    8    0    1
 -2        12       169       168      1302      1303      1298
 -1       176    8    0    1
 -2        13        14       170      1130      1304      1305
 -1       177    8    0    1
 -2        13       170       169      1305      1306      1301
 -1       178    8    0    1
 -2        14        15       171      1131      1307      1308
 -1       179    8    0    1
 -2        14       171       170      1308      1309      1304
 -1       180    8    0    1
 -2        15        16       172      1132      1310      1311
 -1       181    8    0    1
 -2        15       172       171      1311      1312      1307
 -1       182    8    0    1
 -2        16        17       173      1133      1313      1314
 -1       183    8    0    1
 -2        16       173       172      1314      1315      1310
 -1       184    8    0    1
 -2        17        18       174      1134      1316      1317
 -1       185    8    0    1
 -2        17       174       173      1317      1318      1313
 -1       186    8    0    1
 -2        18        19       175      1135      1319      1320
 -1       187    8    0    1
 -2        18       175       174      1320      1321      1316
 -1       188    8    0    1
 -2        19        20       176      1136      1322      1323
 -1       189    8    0    1
 -2        19       176       175      1323      1324      1319
 -1       190    8    0    1
 -2        20        21       177      1137      1325      1326
 -1       191    8    0    1
 -2        20       177       176      1326      1327      1322
 -1       192    8    0    1
 -2        21        22       178      1138      1328      1329
 -1       193    8    0    1
 -2        21       178       177      1329      1330      1325
 -1       194    8    0    1
 -2        22         5       179      1139      1331      1332
 -1       195    8    0    1
 -2       178        22       179      1328      1332      1333
 -1       196    8    0    1
 -2         5        72       179      1190      1334      1331
 -1       197    8    0    1
 -2        24        23       180      1141      1335      1336
 -1       198    8    0    1
 -2        25        24       181      1142      1337      1338
 -1       199    8    0    1
 -2        24       180       181      1336      1339      1337
 -1       200    8    0    1
 -2        26        25       182      1143      1340      1341
 -1       201    8    0    1
 -2        25       181       182      1338      1342      1340
 -1       202    8    0    1
 -2        27        26       183      1144      1343      1344
 -1       203    8    0    1
 -2        26       182       183      1341      1345      1343
 -1       204    8    0    1
 -2        28        27       184      1145      1346      1347
 -1       205    8    0    1
 -2        27       183       184      1344      1348      1346
 -1       206    8    0    1
 -2        29        28       185      1146      1349      1350
 -1       207    8    0    1
 -2        28       184       185      1347      1351      1349
 -1       208    8    0    1
 -2        30        29       186      1147      1352      1353
 -1       209    8    0    1
 -2        29       185       186      1350      1354      1352
 -1       210    8    0    1
 -2        31        30       187      1148      1355      1356
 -1       211    8    0    1
 -2        30       186       187      1353      1357      1355
 -1       212    8    0    1
 -2        32        31       188      1149      1358      1359
 -1       213    8    0    1
 -2        31       187       188      1356      1360      1358
 -1       214    8    0    1
 -2        33        32       189      1150      1361      1362
 -1       215    8    0    1
 -2        32       188       189      1359      1363      1361
 -1       216    8    0    1
 -2        34        33       190      1151      1364      1365
 -1       217    8    0    1
 -2        33       189       190      1362      1366      1364
 -1       218    8    0    1
 -2        35        34       191      1152      1367      1368
 -1       219    8    0    1
 -2        34       190       191      1365      1369      1367
 -1       220    8    0    1
 -2        36        35       192      1153      1370      1371
 -1       221    8    0    1
 -2        35       191       192      1368      1372      1370
 -1       222    8    0    1
 -2        37        36       193      1154      1373      1374
 -1       223    8    0    1
 -2        36       192       193      1371      1375      1373
 -1       224    8    0    1
 -2        38        37       194      1155      1376      1377
 -1       225    8    0    1
 -2        37       193       194      1374      1378      1376
 -1       226    8    0    1
 -2        39        38       195      1156      1379      1380
 -1       227    8    0    1
 -2        38       194       195      1377      1381      1379
 -1       228    8    0    1
 -2        40        39       196      1157      1382      1383
 -1       229    8    0    1
 -2        39       195       196      1380      1384      1382
 -1       230    8    0    1
 -2        41        40       197      1158      1385      1386
 -1       231    8    0    1
 -2        40       196       197      1383      1387      1385
 -1       232    8    0    1
 -2        42        41       198      1159      1388      1389
 -1       233    8    0    1
 -2        41       197       198      1386      1390      1388
 -1       234    8    0    1
 -2        43        42       199      1160      1391      1392
 -1       235    8    0    1
 -2        42       198       199      1389      1393      1391
 -1       236    8    0    1
 -2        44        43       200      1161      1394      1395
 -1       237    8    0    1
 -2        43       199       200      1392      1396      1394
 -1       238    8    0    1
 -2        45        44       201      1162      1397      1398
 -1       239    8    0    1
 -2        44       200       201      1395      1399      1397
 -1       240    8    0    1
 -2        46        45       202      1163      1400      1401
 -1       241    8    0    1
 -2        45       201       202      1398      1402      1400
 -1       242    8    0    1
 -2        47        46       203      1164      1403      1404
 -1       243    8    0    1
 -2        46       202       203      1401      1405      1403
 -1       244    8    0    1
 -2        48        47       204      1165      1406      1407
 -1       245    8    0    1
 -2        47       203       204      1404      1408      1406
 -1       246    8    0    1
 -2        49        48       205      1166      1409      1410
 -1       247    8    0    1
 -2        48       204       205      1407      1411      1409
 -1       248    8    0    1
 -2        50        49       206      1167      1412      1413
 -1       249    8    0    1
 -2        49       205       206      1410      1414      1412
 -1       250    8    0    1
 -2        51        50       207      1168      1415      1416
 -1       251    8    0    1
 -2        50       206       207      1413      1417      1415
 -1       252    8    0    1
 -2        52        51       208      1169      1418      1419
 -1       253    8    0    1
 -2        51       207       208      1416      1420      1418
 -1       254    8    0    1
 -2        53        52       209      1170      1421      1422
 -1       255    8    0    1
 -2        52       208       209      1419      1423      1421
 -1       256    8    0    1
 -2        54        53       210      1171      1424      1425
 -1       257    8    0    1
 -2        53       209       210      1422      1426      1424
 -1       258    8    0    1
 -2        55        54       211      1172      1427      1428
 -1       259    8    0    1
 -2        54       210       211      1425      1429      1427
 -1       260    8    0    1
 -2        56        55       212      1173      1430      1431
 -1       261    8    0    1
 -2        55       211       212      1428      1432      1430
 -1       262    8    0    1
 -2        57        56       213      1174      1433      1434
 -1       263    8    0    1
 -2        56       212       213      1431      1435      1433
 -1       264    8    0    1
 -2        58        57       214      1175      1436      1437
 -1       265    8    0    1
 -2        57       213       214      1434      1438      1436
 -1       266    8    0    1
 -2        59        58       215      1176      1439      1440
 -1       267    8    0    1
 -2        58       214       215      1437      1441      1439
 -1       268    8    0    1
 -2        60        59       216      1177      1442      1443
 -1       269    8    0    1
 -2        59       215       216      1440      1444      1442
 -1       270    8    0    1
 -2        61        60       217      1178      1445      1446
 -1       271    8    0    1
 -2        60       216       217      1443      1447      1445
 -1       272    8    0    1
 -2        62        61       218      1179      1448      1449
 -1       273    8    0    1
 -2        61       217       218      1446      1450      1448
 -1       274    8    0    1
 -2        63        62       219      1180      1451      1452
 -1       275    8    0    1
 -2        62       218       219      1449      1453      1451
 -1       276    8    0    1
 -2        64        63       220      1181      1454      1455
 -1       277    8    0    1
 -2        63       219       220      1452      1456      1454
 -1       278    8    0    1
 -2        65        64       221      1182      1457      1458
 -1       279    8    0    1
 -2        64       220       221      1455      1459      1457
 -1       280    8    0    1
 -2        66        65       222      1183      1460      1461
 -1       281    8    0    1
 -2        65       221       222      1458      1462      1460
 -1       282    8    0    1
 -2        67        66       223      1184      1463      1464
 -1       283    8    0    1
 -2        66       222       223      1461      1465      1463
 -1       284    8    0    1
 -2        68        67       224      1185      1466      1467
 -1       285    8    0    1
 -2        67       223       224      1464      1468      1466
 -1       286    8    0    1
 -2        69        68       225      1186      1469      1470
 -1       287    8    0    1
 -2        68       224       225      1467      1471      1469
 -1       288    8    0    1
 -2        70        69       226      1187      1472      1473
 -1       289    8    0    1
 -2        69       225       226      1470      1474      1472
 -1       290    8    0    1
 -2        71        70       227      1188      1475      1476
 -1       291    8    0    1
 -2        70       226       227      1473      1477      1475
 -1       292    8    0    1
 -2         4        71       136      1189      1478      1256
 -1       293    8    0    1
 -2       136        71       227      1478      1476      1479
 -1       294    8    0    1
 -2        72        73       228      1191      1480      1481
 -1       295    8    0    1
 -2        72       228       179      1481      1482      1334
 -1       296    8    0    1
 -2        73        74       229      1192      1483      1484
 -1       297    8    0    1
 -2        73       229       228      1484      1485      1480
 -1       298    8    0    1
 -2        74        75       230      1193      1486      1487
 -1       299    8    0    1
 -2        74       230       229      1487      1488      1483
 -1       300    8    0    1
 -2        75        76       231      1194      1489      1490
 -1       301    8    0    1
 -2        75       231       230      1490      1491      1486
 -1       302    8    0    1
 -2        76        77       232      1195      1492      1493
 -1       303    8    0    1
 -2        76       232       231      1493      1494      1489
 -1       304    8    0    1
 -2        77        78       233      1196      1495      1496
 -1       305    8    0    1
 -2        77       233       232      1496      1497      1492
 -1       306    8    0    1
 -2        78        79       234      1197      1498      1499
 -1       307    8    0    1
 -2        78       234       233      1499      1500      1495
 -1       308    8    0    1
 -2        79        80       235      1198      1501      1502
 -1       309    8    0    1
 -2        79       235       234      1502      1503      1498
 -1       310    8    0    1
 -2        80        81       236      1199      1504      1505
 -1       311    8    0    1
 -2        80       236       235      1505      1506      1501
 -1       312    8    0    1
 -2        81        82       237      1200      1507      1508
 -1       313    8    0    1
 -2        81       237       236      1508      1509      1504
 -1       314    8    0    1
 -2        82        83       238      1201      1510      1511
 -1       315    8    0    1
 -2        82       238       237      1511      1512      1507
 -1       316    8    0    1
 -2        83        84       239      1202      1513      1514
 -1       317    8    0    1
 -2        83       239       238      1514      1515      1510
 -1       318    8    0    1
 -2        84        85       240      1203      1516      1517
 -1       319    8    0    1
 -2        84       240       239      1517      1518      1513
 -1       320    8    0    1
 -2        85        86       241      1204      1519      1520
 -1       321    8    0    1
 -2        85       241       240      1520      1521      1516
 -1       322    8    0    1
 -2        86        87       242      1205      1522      1523
 -1       323    8    0    1
 -2        86       242       241      1523      1524      1519
 -1       324    8    0    1
 -2        87        88       243      1206      1525      1526
 -1       325    8    0    1
 -2        87       243       242      1526      1527      1522
 -1       326    8    0    1
 -2        88        89       244      1207      1528      1529
 -1       327    8    0    1
 -2        88       244       243      1529      1530      1525
 -1       328    8    0    1
 -2        89        90       245      1208      1531      1532
 -1       329    8    0    1
 -2        89       245       244      1532      1533      1528
 -1       330    8    0    1
 -2        90        91       246      1209      1534      1535
 -1       331    8    0    1
 -2        90       246       245      1535      1536      1531
 -1       332    8    0    1
 -2        91        92       247      1210      1537      1538
 -1       333    8    0    1
 -2        91       247       246      1538      1539      1534
 -1       334    8    0    1
 -2        92        93       248      1211      1540      1541
 -1       335    8    0    1
 -2        92       248       247      1541      1542      1537
 -1       336    8    0    1
 -2        93        94       249      1212      1543      1544
 -1       337    8    0    1
 -2        93       249       248      1544      1545      1540
 -1       338    8    0    1
 -2        94        95       250      1213      1546      1547
 -1       339    8    0    1
 -2        94       250       249      1547      1548      1543
 -1       340    8    0    1
 -2        95        96       251      1214      1549      1550
 -1       341    8    0    1
 -2        95       251       250      1550      1551      1546
 -1       342    8    0    1
 -2        96        97       252      1215      1552      1553
 -1       343    8    0    1
 -2        96       252       251      1553      1554      1549
 -1       344    8    0    1
 -2        97        98       253      1216      1555      1556
 -1       345    8    0    1
 -2        97       253       252      1556      1557      1552
 -1       346    8    0    1
 -2        98        99       254      1217      1558      1559
 -1       347    8    0    1
 -2        98       254       253      1559      1560      1555
 -1       348    8    0    1
 -2        99       100       255      1218      1561      1562
 -1       349    8    0    1
 -2        99       255       254      1562      1563      1558
 -1       350    8    0    1
 -2       100       101       256      1219      1564      1565
 -1       351    8    0    1
 -2       100       256       255      1565      1566      1561
 -1       352    8    0    1
 -2       101       102       257      1220      1567      1568
 -1       353    8    0    1
 -2       101       257       256      1568      1569      1564
 -1       354    8    0    1
 -2       102       103       258      1221      1570      1571
 -1       355    8    0    1
 -2       102       258       257      1571      1572      1567
 -1       356    8    0    1
 -2       103       104       259      1222      1573      1574
 -1       357    8    0    1
 -2       103       259       258      1574      1575      1570
 -1       358    8    0    1
 -2       104       105       260      1223      1576      1577
 -1       359    8    0    1
 -2       104       260       259      1577      1578      1573
 -1       360    8    0    1
 -2       105       106       261      1224      1579      1580
 -1       361    8    0    1
 -2       105       261       260      1580      1581      1576
 -1       362    8    0    1
 -2       106       107       262      1225      1582      1583
 -1       363    8    0    1
 -2       106       262       261      1583      1584      1579
 -1       364    8    0    1
 -2       107       108       263      1226      1585      1586
 -1       365    8    0    1
 -2       107       263       262      1586      1587      1582
 -1       366    8    0    1
 -2       108       109       264      1227      1588      1589
 -1       367    8    0    1
 -2       108       264       263      1589      1590      1585
 -1       368    8    0    1
 -2       109       110       265      1228      1591      1592
 -1       369    8    0    1
 -2       109       265       264      1592      1593      1588
 -1       370    8    0    1
 -2       110       111       266      1229      1594      1595
 -1       371    8    0    1
 -2       110       266       265      1595      1596      1591
 -1       372    8    0    1
 -2       111       112       267      1230      1597      1598
 -1       373    8    0    1
 -2       111       267       266      1598      1599      1594
 -1       374    8    0    1
 -2       112       113       268      1231      1600      1601
 -1       375    8    0    1
 -2       112       268       267      1601      1602      1597
 -1       376    8    0    1
 -2       113       114       269      1232      1603      1604
 -1       377    8    0    1
 -2       113       269       268      1604      1605      1600
 -1       378    8    0    1
 -2       114       115       270      1233      1606      1607
 -1       379    8    0    1
 -2       114       270       269      1607      1608      1603
 -1       380    8    0    1
 -2       115       116       271      1234      1609      1610
 -1       381    8    0    1
 -2       115       271       270      1610      1611      1606
 -1       382    8    0    1
 -2       116       117       272      1235      1612      1613
 -1       383    8    0    1
 -2       116       272       271      1613      1614      1609
 -1       384    8    0    1
 -2       117       118       273      1236      1615      1616
 -1       385    8    0    1
 -2       117       273       272      1616      1617      1612
 -1       386    8    0    1
 -2       118       119       274      1237      1618      1619
 -1       387    8    0    1
 -2       118       274       273      1619      1620      1615
 -1       388    8    0    1
 -2       119       120       275      1238      1621      1622
 -1       389    8    0    1
 -2       119       275       274      1622      1623      1618
 -1       390    8    0    1
 -2       120         3       121      1239      1240      1624
 -1       391    8    0    1
 -2       121       122       276      1241      1625      1626
 -1       392    8    0    1
 -2       122       123       277      1242      1627      1628
 -1       393    8    0    1
 -2       122       277       276      1628      1629      1625
 -1       394    8    0    1
 -2       123       124       278      1243      1630      1631
 -1       395    8    0    1
 -2       123       278       277      1631      1632      1627
 -1       396    8    0    1
 -2       124       125       279      1244      1633      1634
 -1       397    8    0    1
 -2       124       279       278      1634      1635      1630
 -1       398    8    0    1
 -2       125       126       280      1245      1636      1637
 -1       399    8    0    1
 -2       125       280       279      1637      1638      1633
 -1       400    8    0    1
 -2       126       127       281      1246      1639      1640
 -1       401    8    0    1
 -2       126       281       280      1640      1641      1636
 -1       402    8    0    1
 -2       127       128       282      1247      1642      1643
 -1       403    8    0    1
 -2       127       282       281      1643      1644      1639
 -1       404    8    0    1
 -2       128       129       283      1248      1645      1646
 -1       405    8    0    1
 -2       128       283       282      1646      1647      1642
 -1       406    8    0    1
 -2       129       130       284      1249      1648      1649
 -1       407    8    0    1
 -2       129       284       283      1649      1650      1645
 -1       408    8    0    1
 -2       130       131       285      1250      1651      1652
 -1       409    8    0    1
 -2       130       285       284      1652      1653      1648
 -1       410    8    0    1
 -2       131       132       286      1251      1654      1655
 -1       411    8    0    1
 -2       131       286       285      1655      1656      1651
 -1       412    8    0    1
 -2       132       133       287      1252      1657      1658
 -1       413    8    0    1
 -2       132       287       286      1658      1659      1654
 -1       414    8    0    1
 -2       133       134       288      1253      1660      1661
 -1       415    8    0    1
 -2       133       288       287      1661      1662      1657
 -1       416    8    0    1
 -2       134       135       289      1254      1663      1664
 -1       417    8    0    1
 -2       134       289       288      1664      1665      1660
 -1       418    8    0    1
 -2       135       136       290      1255      1666      1667
 -1       419    8    0    1
 -2       289       135       290      1663      1667      1668
 -1       420    8    0    1
 -2       136       227       290      1479      1669      1666
 -1       421    8    0    1
 -2         2       137       291      1257      1670      1671
 -1       422    8    0    1
 -2       137       138       292      1258      1672      1673
 -1       423    8    0    1
 -2       138       139       293      1259      1674      1675
 -1       424    8    0    1
 -2       139       140       294      1260      1676      1677
 -1       425    8    0    1
 -2       140       141       295      1261      1678      1679
 -1       426    8    0    1
 -2       141       142       296      1262      1680      1681
 -1       427    8    0    1
 -2       142       143       297      1263      1682      1683
 -1       428    8    0    1
 -2       143       144       298      1264      1684      1685
 -1       429    8    0    1
 -2       144       145       299      1265      1686      1687
 -1       430    8    0    1
 -2       145       146       300      1266      1688      1689
 -1       431    8    0    1
 -2       146       147       301      1267      1690      1691
 -1       432    8    0    1
 -2       147       148       302      1268      1692      1693
 -1       433    8    0    1
 -2       148       149       303      1269      1694      1695
 -1       434    8    0    1
 -2       149       150       304      1270      1696      1697
 -1       435    8    0    1
 -2       150       151       305      1271      1698      1699
 -1       436    8    0    1
 -2       151       152       306      1272      1700      1701
 -1       437    8    0    1
 -2       152       153       307      1273      1702      1703
 -1       438    8    0    1
 -2       153       154       308      1274      1704      1705
 -1       439    8    0    1
 -2       154       155       309      1275      1706      1707
 -1       440    8    0    1
 -2       155       156       310      1276      1708      1709
 -1       441    8    0    1
 -2       156       157       311      1277      1710      1711
 -1       442    8    0    1
 -2       157       158       312      1278      1712      1713
 -1       443    8    0    1
 -2       158       159       313      1279      1714      1715
 -1       444    8    0    1
 -2       159         1       314      1280      1716      1717
 -1       445    8    0    1
 -2         1       160       315      1281      1718      1719
 -1       446    8    0    1
 -2       160       161       316      1282      1720      1721
 -1       447    8    0    1
 -2       161       162       317      1283      1722      1723
 -1       448    8    0    1
 -2       162       163       318      1284      1724      1725
 -1       449    8    0    1
 -2       163         2       319      1285      1726      1727
 -1       450    8    0    1
 -2       294       140       295      1676      1679      1728
 -1       451    8    0    1
 -2       293       139       294      1674      1677      1729
 -1       452    8    0    1
 -2       120       121       275      1624      1730      1621
 -1       453    8    0    1
 -2       121       276       275      1626      1731      1730
 -1       454    8    0    1
 -2       291       137       292      1670      1673      1732
 -1       455    8    0    1
 -2       292       138       293      1672      1675      1733
 -1       456    8    0    1
 -2         2       291       319      1671      1734      1726
 -1       457    8    0    1
 -2       141       296       295      1681      1735      1678
 -1       458    8    0    1
 -2       142       297       296      1683      1736      1680
 -1       459    8    0    1
 -2       143       298       297      1685      1737      1682
 -1       460    8    0    1
 -2       144       299       298      1687      1738      1684
 -1       461    8    0    1
 -2       145       300       299      1689      1739      1686
 -1       462    8    0    1
 -2       146       301       300      1691      1740      1688
 -1       463    8    0    1
 -2       147       302       301      1693      1741      1690
 -1       464    8    0    1
 -2       148       303       302      1695      1742      1692
 -1       465    8    0    1
 -2       149       304       303      1697      1743      1694
 -1       466    8    0    1
 -2       150       305       304      1699      1744      1696
 -1       467    8    0    1
 -2       151       306       305      1701      1745      1698
 -1       468    8    0    1
 -2       152       307       306      1703      1746      1700
 -1       469    8    0    1
 -2       153       308       307      1705      1747      1702
 -1       470    8    0    1
 -2       154       309       308      1707      1748      1704
 -1       471    8    0    1
 -2       155       310       309      1709      1749      1706
 -1       472    8    0    1
 -2       156       311       310      1711      1750      1708
 -1       473    8    0    1
 -2       157       312       311      1713      1751      1710
 -1       474    8    0    1
 -2       158       313       312      1715      1752      1712
 -1       475    8    0    1
 -2       159       314       313      1717      1753      1714
 -1       476    8    0    1
 -2         1       315       314      1719      1754      1716
 -1       477    8    0    1
 -2       160       316       315      1721      1755      1718
 -1       478    8    0    1
 -2       161       317       316      1723      1756      1720
 -1       479    8    0    1
 -2       162       318       317      1725      1757      1722
 -1       480    8    0    1
 -2       163       319       318      1727      1758      1724
 -1       481    8    0    1
 -2        23         7       164      1286      1288      1759
 -1       482    8    0    1
 -2       165       166       320      1294      1760      1761
 -1       483    8    0    1
 -2       164       165       321      1291      1762      1763
 -1       484    8    0    1
 -2       165       320       321      1761      1764      1762
 -1       485    8    0    1
 -2       167       168       322      1300      1765      1766
 -1       486    8    0    1
 -2       168       169       323      1303      1767      1768
 -1       487    8    0    1
 -2       168       323       322      1768      1769      1765
 -1       488    8    0    1
 -2       169       170       324      1306      1770      1771
 -1       489    8    0    1
 -2       169       324       323      1771      1772      1767
 -1       490    8    0    1
 -2       170       171       325      1309      1773      1774
 -1       491    8    0    1
 -2       170       325       324      1774      1775      1770
 -1       492    8    0    1
 -2       171       172       326      1312      1776      1777
 -1       493    8    0    1
 -2       171       326       325      1777      1778      1773
 -1       494    8    0    1
 -2       172       173       327      1315      1779      1780
 -1       495    8    0    1
 -2       172       327       326      1780      1781      1776
 -1       496    8    0    1
 -2       173       174       328      1318      1782      1783
 -1       497    8    0    1
 -2       173       328       327      1783      1784      1779
 -1       498    8    0    1
 -2       174       175       329      1321      1785      1786
 -1       499    8    0    1
 -2       174       329       328      1786      1787      1782
 -1       500    8    0    1
 -2       175       176       330      1324      1788      1789
 -1       501    8    0    1
 -2       175       330       329      1789      1790      1785
 -1       502    8    0    1
 -2       176       177       331      1327      1791      1792
 -1       503    8    0    1
 -2       176       331       330      1792      1793      1788
 -1       504    8    0    1
 -2       177       178       332      1330      1794      1795
 -1       505    8    0    1
 -2       177       332       331      1795      1796      1791
 -1       506    8    0    1
 -2       178       179       333      1333      1797      1798
 -1       507    8    0    1
 -2       332       178       333      1794      1798      1799
 -1       508    8    0    1
 -2       179       228       333      1482      1800      1797
 -1       509    8    0    1
 -2       180        23       164      1335      1759      1801
 -1       510    8    0    1
 -2       228       229       334      1485      1802      1803
 -1       511    8    0    1
 -2       228       334       333      1803      1804      1800
 -1       512    8    0    1
 -2       180       164       321      1801      1763      1805
 -1       513    8    0    1
 -2       182       181       335      1342      1806      1807
 -1       514    8    0    1
 -2       183       182       336      1345      1808      1809
 -1       515    8    0    1
 -2       182       335       336      1807      1810      1808
 -1       516    8    0    1
 -2       184       183       337      1348      1811      1812
 -1       517    8    0    1
 -2       183       336       337      1809      1813      1811
 -1       518    8    0    1
 -2       185       184       338      1351      1814      1815
 -1       519    8    0    1
 -2       184       337       338      1812      1816      1814
 -1       520    8    0    1
 -2       186       185       339      1354      1817      1818
 -1       521    8    0    1
 -2       185       338       339      1815      1819      1817
 -1       522    8    0    1
 -2       187       186       340      1357      1820      1821
 -1       523    8    0    1
 -2       186       339       340      1818      1822      1820
 -1       524    8    0    1
 -2       188       187       341      1360      1823      1824
 -1       525    8    0    1
 -2       187       340       341      1821      1825      1823
 -1       526    8    0    1
 -2       189       188       342      1363      1826      1827
 -1       527    8    0    1
 -2       188       341       342      1824      1828      1826
 -1       528    8    0    1
 -2       190       189       343      1366      1829      1830
 -1       529    8    0    1
 -2       189       342       343      1827      1831      1829
 -1       530    8    0    1
 -2       191       190       344      1369      1832      1833
 -1       531    8    0    1
 -2       190       343       344      1830      1834      1832
 -1       532    8    0    1
 -2       192       191       345      1372      1835      1836
 -1       533    8    0    1
 -2       191       344       345      1833      1837      1835
 -1       534    8    0    1
 -2       193       192       346      1375      1838      1839
 -1       535    8    0    1
 -2       192       345       346      1836      1840      1838
 -1       536    8    0    1
 -2       194       193       347      1378      1841      1842
 -1       537    8    0    1
 -2       193       346       347      1839      1843      1841
 -1       538    8    0    1
 -2       195       194       348      1381      1844      1845
 -1       539    8    0    1
 -2       194       347       348      1842      1846      1844
 -1       540    8    0    1
 -2       196       195       349      1384      1847      1848
 -1       541    8    0    1
 -2       195       348       349      1845      1849      1847
 -1       542    8    0    1
 -2       197       196       350      1387      1850      1851
 -1       543    8    0    1
 -2       196       349       350      1848      1852      1850
 -1       544    8    0    1
 -2       198       197       351      1390      1853      1854
 -1       545    8    0    1
 -2       197       350       351      1851      1855      1853
 -1       546    8    0    1
 -2       199       198       352      1393      1856      1857
 -1       547    8    0    1
 -2       198       351       352      1854      1858      1856
 -1       548    8    0    1
 -2       200       199       353      1396      1859      1860
 -1       549    8    0    1
 -2       199       352       353      1857      1861      1859
 -1       550    8    0    1
 -2       201       200       354      1399      1862      1863
 -1       551    8    0    1
 -2       200       353       354      1860      1864      1862
 -1       552    8    0    1
 -2       202       201       355      1402      1865      1866
 -1       553    8    0    1
 -2       201       354       355      1863      1867      1865
 -1       554    8    0    1
 -2       203       202       356      1405      1868      1869
 -1       555    8    0    1
 -2       202       355       356      1866      1870      1868
 -1       556    8    0    1
 -2       204       203       357      1408      1871      1872
 -1       557    8    0    1
 -2       203       356       357      1869      1873      1871
 -1       558    8    0    1
 -2       205       204       358      1411      1874      1875
 -1       559    8    0    1
 -2       204       357       358      1872      1876      1874
 -1       560    8    0    1
 -2       206       205       359      1414      1877      1878
 -1       561    8    0    1
 -2       205       358       359      1875      1879      1877
 -1       562    8    0    1
 -2       207       206       360      1417      1880      1881
 -1       563    8    0    1
 -2       206       359       360      1878      1882      1880
 -1       564    8    0    1
 -2       208       207       361      1420      1883      1884
 -1       565    8    0    1
 -2       207       360       361      1881      1885      1883
 -1       566    8    0    1
 -2       209       208       362      1423      1886      1887
 -1       567    8    0    1
 -2       208       361       362      1884      1888      1886
 -1       568    8    0    1
 -2       210       209       363      1426      1889      1890
 -1       569    8    0    1
 -2       209       362       363      1887      1891      1889
 -1       570    8    0    1
 -2       211       210       364      1429      1892      1893
 -1       571    8    0    1
 -2       210       363       364      1890      1894      1892
 -1       572    8    0    1
 -2       212       211       365      1432      1895      1896
 -1       573    8    0    1
 -2       211       364       365      1893      1897      1895
 -1       574    8    0    1
 -2       213       212       366      1435      1898      1899
 -1       575    8    0    1
 -2       212       365       366      1896      1900      1898
 -1       576    8    0    1
 -2       214       213       367      1438      1901      1902
 -1       577    8    0    1
 -2       213       366       367      1899      1903      1901
 -1       578    8    0    1
 -2       215       214       368      1441      1904      1905
 -1       579    8    0    1
 -2       214       367       368      1902      1906      1904
 -1       580    8    0    1
 -2       216       215       369      1444      1907      1908
 -1       581    8    0    1
 -2       215       368       369      1905      1909      1907
 -1       582    8    0    1
 -2       217       216       370      1447      1910      1911
 -1       583    8    0    1
 -2       216       369       370      1908      1912      1910
 -1       584    8    0    1
 -2       218       217       371      1450      1913      1914
 -1       585    8    0    1
 -2       217       370       371      1911      1915      1913
 -1       586    8    0    1
 -2       219       218       372      1453      1916      1917
 -1       587    8    0    1
 -2       218       371       372      1914      1918      1916
 -1       588    8    0    1
 -2       220       219       373      1456      1919      1920
 -1       589    8    0    1
 -2       219       372       373      1917      1921      1919
 -1       590    8    0    1
 -2       221       220       374      1459      1922      1923
 -1       591    8    0    1
 -2       220       373       374      1920      1924      1922
 -1       592    8    0    1
 -2       222       221       375      1462      1925      1926
 -1       593    8    0    1
 -2       221       374       375      1923      1927      1925
 -1       594    8    0    1
 -2       223       222       376      1465      1928      1929
 -1       595    8    0    1
 -2       222       375       376      1926      1930      1928
 -1       596    8    0    1
 -2       224       223       377      1468      1931      1932
 -1       597    8    0    1
 -2       223       376       377      1929      1933      1931
 -1       598    8    0    1
 -2       225       224       378      1471      1934      1935
 -1       599    8    0    1
 -2       224       377       378      1932      1936      1934
 -1       600    8    0    1
 -2       226       225       379      1474      1937      1938
 -1       601    8    0    1
 -2       225       378       379      1935      1939      1937
 -1       602    8    0    1
 -2       227       226       380      1477      1940      1941
 -1       603    8    0    1
 -2       290       227       380      1669      1941      1942
 -1       604    8    0    1
 -2       226       379       380      1938      1943      1940
 -1       605    8    0    1
 -2       229       230       381      1488      1944      1945
 -1       606    8    0    1
 -2       229       381       334      1945      1946      1802
 -1       607    8    0    1
 -2       230       231       382      1491      1947      1948
 -1       608    8    0    1
 -2       230       382       381      1948      1949      1944
 -1       609    8    0    1
 -2       231       232       383      1494      1950      1951
 -1       610    8    0    1
 -2       231       383       382      1951      1952      1947
 -1       611    8    0    1
 -2       232       233       384      1497      1953      1954
 -1       612    8    0    1
 -2       232       384       383      1954      1955      1950
 -1       613    8    0    1
 -2       233       234       385      1500      1956      1957
 -1       614    8    0    1
 -2       233       385       384      1957      1958      1953
 -1       615    8    0    1
 -2       234       235       386      1503      1959      1960
 -1       616    8    0    1
 -2       234       386       385      1960      1961      1956
 -1       617    8    0    1
 -2       235       236       387      1506      1962      1963
 -1       618    8    0    1
 -2       235       387       386      1963      1964      1959
 -1       619    8    0    1
 -2       236       237       388      1509      1965      1966
 -1       620    8    0    1
 -2       236       388       387      1966      1967      1962
 -1       621    8    0    1
 -2       237       238       389      1512      1968      1969
 -1       622    8    0    1
 -2       237       389       388      1969      1970      1965
 -1       623    8    0    1
 -2       238       239       390      1515      1971      1972
 -1       624    8    0    1
 -2       238       390       389      1972      1973      1968
 -1       625    8    0    1
 -2       239       240       391      1518      1974      1975
 -1       626    8    0    1
 -2       239       391       390      1975      1976      1971
 -1       627    8    0    1
 -2       240       241       392      1521      1977      1978
 -1       628    8    0    1
 -2       240       392       391      1978      1979      1974
 -1       629    8    0    1
 -2       241       242       393      1524      1980      1981
 -1       630    8    0    1
 -2       241       393       392      1981      1982      1977
 -1       631    8    0    1
 -2       242       243       394      1527      1983      1984
 -1       632    8    0    1
 -2       242       394       393      1984      1985      1980
 -1       633    8    0    1
 -2       243       244       395      1530      1986      1987
 -1       634    8    0    1
 -2       243       395       394      1987      1988      1983
 -1       635    8    0    1
 -2       244       245       396      1533      1989      1990
 -1       636    8    0    1
 -2       244       396       395      1990      1991      1986
 -1       637    8    0    1
 -2       245       246       397      1536      1992      1993
 -1       638    8    0    1
 -2       245       397       396      1993      1994      1989
 -1       639    8    0    1
 -2       246       247       398      1539      1995      1996
 -1       640    8    0    1
 -2       246       398       397      1996      1997      1992
 -1       641    8    0    1
 -2       247       248       399      1542      1998      1999
 -1       642    8    0    1
 -2       247       399       398      1999      2000      1995
 -1       643    8    0    1
 -2       248       249       400      1545      2001      2002
 -1       644    8    0    1
 -2       248       400       399      2002      2003      1998
 -1       645    8    0    1
 -2       249       250       401      1548      2004      2005
 -1       646    8    0    1
 -2       249       401       400      2005      2006      2001
 -1       647    8    0    1
 -2       250       251       402      1551      2007      2008
 -1       648    8    0    1
 -2       250       402       401      2008      2009      2004
 -1       649    8    0    1
 -2       251       252       403      1554      2010      2011
 -1       650    8    0    1
 -2       251       403       402      2011      2012      2007
 -1       651    8    0    1
 -2       252       253       404      1557      2013      2014
 -1       652    8    0    1
 -2       252       404       403      2014      2015      2010
 -1       653    8    0    1
 -2       253       254       405      1560      2016      2017
 -1       654    8    0    1
 -2       253       405       404      2017      2018      2013
 -1       655    8    0    1
 -2       254       255       406      1563      2019      2020
 -1       656    8    0    1
 -2       254       406       405      2020      2021      2016
 -1       657    8    0    1
 -2       255       256       407      1566      2022      2023
 -1       658    8    0    1
 -2       255       407       406      2023      2024      2019
 -1       659    8    0    1
 -2       256       257       408      1569      2025      2026
 -1       660    8    0    1
 -2       256       408       407      2026      2027      2022
 -1       661    8    0    1
 -2       257       258       409      1572      2028      2029
 -1       662    8    0    1
 -2       257       409       408      2029      2030      2025
 -1       663    8    0    1
 -2       258       259       410      1575      2031      2032
 -1       664    8    0    1
 -2       258       410       409      2032      2033      2028
 -1       665    8    0    1
 -2       259       260       411      1578      2034      2035
 -1       666    8    0    1
 -2       259       411       410      2035      2036      2031
 -1       667    8    0    1
 -2       260       261       412      1581      2037      2038
 -1       668    8    0    1
 -2       260       412       411      2038      2039      2034
 -1       669    8    0    1
 -2       261       262       413      1584      2040      2041
 -1       670    8    0    1
 -2       261       413       412      2041      2042      2037
 -1       671    8    0    1
 -2       262       263       414      1587      2043      2044
 -1       672    8    0    1
 -2       262       414       413      2044      2045      2040
 -1       673    8    0    1
 -2       263       264       415      1590      2046      2047
 -1       674    8    0    1
 -2       263       415       414      2047      2048      2043
 -1       675    8    0    1
 -2       264       265       416      1593      2049      2050
 -1       676    8    0    1
 -2       264       416       415      2050      2051      2046
 -1       677    8    0    1
 -2       265       266       417      1596      2052      2053
 -1       678    8    0    1
 -2       265       417       416      2053      2054      2049
 -1       679    8    0    1
 -2       266       267       418      1599      2055      2056
 -1       680    8    0    1
 -2       266       418       417      2056      2057      2052
 -1       681    8    0    1
 -2       267       268       419      1602      2058      2059
 -1       682    8    0    1
 -2       267       419       418      2059      2060      2055
 -1       683    8    0    1
 -2       268       269       420      1605      2061      2062
 -1       684    8    0    1
 -2       268       420       419      2062      2063      2058
 -1       685    8    0    1
 -2       269       270       421      1608      2064      2065
 -1       686    8    0    1
 -2       269       421       420      2065      2066      2061
 -1       687    8    0    1
 -2       270       271       422      1611      2067      2068
 -1       688    8    0    1
 -2       270       422       421      2068      2069      2064
 -1       689    8    0    1
 -2       271       272       423      1614      2070      2071
 -1       690    8    0    1
 -2       271       423       422      2071      2072      2067
 -1       691    8    0    1
 -2       272       273       424      1617      2073      2074
 -1       692    8    0    1
 -2       272       424       423      2074      2075      2070
 -1       693    8    0    1
 -2       273       274       425      1620      2076      2077
 -1       694    8    0    1
 -2       273       425       424      2077      2078      2073
 -1       695    8    0    1
 -2       274       275       426      1623      2079      2080
 -1       696    8    0    1
 -2       425       274       426      2076      2080      2081
 -1       697    8    0    1
 -2       275       276       426      1731      2082      2079
 -1       698    8    0    1
 -2       278       279       427      1635      2083      2084
 -1       699    8    0    1
 -2       277       278       428      1632      2085      2086
 -1       700    8    0    1
 -2       278       427       428      2084      2087      2085
 -1       701    8    0    1
 -2       276       277       429      1629      2088      2089
 -1       702    8    0    1
 -2       426       276       429      2082      2089      2090
 -1       703    8    0    1
 -2       277       428       429      2086      2091      2088
 -1       704    8    0    1
 -2       279       280       430      1638      2092      2093
 -1       705    8    0    1
 -2       279       430       427      2093      2094      2083
 -1       706    8    0    1
 -2       280       281       431      1641      2095      2096
 -1       707    8    0    1
 -2       280       431       430      2096      2097      2092
 -1       708    8    0    1
 -2       281       282       432      1644      2098      2099
 -1       709    8    0    1
 -2       281       432       431      2099      2100      2095
 -1       710    8    0    1
 -2       282       283       433      1647      2101      2102
 -1       711    8    0    1
 -2       282       433       432      2102      2103      2098
 -1       712    8    0    1
 -2       283       284       434      1650      2104      2105
 -1       713    8    0    1
 -2       283       434       433      2105      2106      2101
 -1       714    8    0    1
 -2       284       285       435      1653      2107      2108
 -1       715    8    0    1
 -2       284       435       434      2108      2109      2104
 -1       716    8    0    1
 -2       285       286       436      1656      2110      2111
 -1       717    8    0    1
 -2       285       436       435      2111      2112      2107
 -1       718    8    0    1
 -2       286       287       437      1659      2113      2114
 -1       719    8    0    1
 -2       286       437       436      2114      2115      2110
 -1       720    8    0    1
 -2       287       288       438      1662      2116      2117
 -1       721    8    0    1
 -2       287       438       437      2117      2118      2113
 -1       722    8    0    1
 -2       288       289       439      1665      2119      2120
 -1       723    8    0    1
 -2       288       439       438      2120      2121      2116
 -1       724    8    0    1
 -2       292       293       440      1733      2122      2123
 -1       725    8    0    1
 -2       319       291       441      1734      2124      2125
 -1       726    8    0    1
 -2       291       292       442      1732      2126      2127
 -1       727    8    0    1
 -2       292       440       442      2123      2128      2126
 -1       728    8    0    1
 -2       293       294       443      1729      2129      2130
 -1       729    8    0    1
 -2       294       295       444      1728      2131      2132
 -1       730    8    0    1
 -2       166       167       445      1297      2133      2134
 -1       731    8    0    1
 -2       320       166       445      1760      2134      2135
 -1       732    8    0    1
 -2       167       322       445      1766      2136      2133
 -1       733    8    0    1
 -2       296       297       446      1736      2137      2138
 -1       734    8    0    1
 -2       297       298       447      1737      2139      2140
 -1       735    8    0    1
 -2       298       299       448      1738      2141      2142
 -1       736    8    0    1
 -2       298       448       447      2142      2143      2139
 -1       737    8    0    1
 -2       299       300       449      1739      2144      2145
 -1       738    8    0    1
 -2       300       301       450      1740      2146      2147
 -1       739    8    0    1
 -2       301       302       451      1741      2148      2149
 -1       740    8    0    1
 -2       301       451       450      2149      2150      2146
 -1       741    8    0    1
 -2       302       303       452      1742      2151      2152
 -1       742    8    0    1
 -2       303       304       453      1743      2153      2154
 -1       743    8    0    1
 -2       303       453       452      2154      2155      2151
 -1       744    8    0    1
 -2       304       305       454      1744      2156      2157
 -1       745    8    0    1
 -2       305       306       455      1745      2158      2159
 -1       746    8    0    1
 -2       305       455       454      2159      2160      2156
 -1       747    8    0    1
 -2       306       307       456      1746      2161      2162
 -1       748    8    0    1
 -2       307       308       457      1747      2163      2164
 -1       749    8    0    1
 -2       307       457       456      2164      2165      2161
 -1       750    8    0    1
 -2       308       309       458      1748      2166      2167
 -1       751    8    0    1
 -2       309       310       459      1749      2168      2169
 -1       752    8    0    1
 -2       309       459       458      2169      2170      2166
 -1       753    8    0    1
 -2       310       311       460      1750      2171      2172
 -1       754    8    0    1
 -2       311       312       461      1751      2173      2174
 -1       755    8    0    1
 -2       312       313       462      1752      2175      2176
 -1       756    8    0    1
 -2       312       462       461      2176      2177      2173
 -1       757    8    0    1
 -2       313       314       463      1753      2178      2179
 -1       758    8    0    1
 -2       314       315       464      1754      2180      2181
 -1       759    8    0    1
 -2       315       316       465      1755      2182      2183
 -1       760    8    0    1
 -2       316       317       466      1756      2184      2185
 -1       761    8    0    1
 -2       316       466       465      2185      2186      2182
 -1       762    8    0    1
 -2       317       318       467      1757      2187      2188
 -1       763    8    0    1
 -2       318       319       468      1758      2189      2190
 -1       764    8    0    1
 -2       319       441       468      2125      2191      2189
 -1       765    8    0    1
 -2       295       296       469      1735      2192      2193
 -1       766    8    0    1
 -2       296       446       469      2138      2194      2192
 -1       767    8    0    1
 -2       444       295       469      2131      2193      2195
 -1       768    8    0    1
 -2       180       321       181      1805      2196      1339
 -1       769    8    0    1
 -2       335       181       321      1806      2196      2197
 -1       770    8    0    1
 -2       441       291       442      2124      2127      2198
 -1       771    8    0    1
 -2       293       443       470      2130      2199      2200
 -1       772    8    0    1
 -2       293       470       440      2200      2201      2122
 -1       773    8    0    1
 -2       439       289       290      2119      1668      2202
 -1       774    8    0    1
 -2       443       294       444      2129      2132      2203
 -1       775    8    0    1
 -2       466       317       467      2184      2188      2204
 -1       776    8    0    1
 -2       464       315       465      2180      2183      2205
 -1       777    8    0    1
 -2       462       313       463      2175      2179      2206
 -1       778    8    0    1
 -2       459       310       460      2168      2172      2207
 -1       779    8    0    1
 -2       457       308       458      2163      2167      2208
 -1       780    8    0    1
 -2       455       306       471      2158      2209      2210
 -1       781    8    0    1
 -2       306       456       471      2162      2211      2209
 -1       782    8    0    1
 -2       453       304       454      2153      2157      2212
 -1       783    8    0    1
 -2       451       302       472      2148      2213      2214
 -1       784    8    0    1
 -2       302       452       472      2152      2215      2213
 -1       785    8    0    1
 -2       448       299       449      2141      2145      2216
 -1       786    8    0    1
 -2       446       297       447      2137      2140      2217
 -1       787    8    0    1
 -2       449       300       450      2144      2147      2218
 -1       788    8    0    1
 -2       460       311       461      2171      2174      2219
 -1       789    8    0    1
 -2       463       314       464      2178      2181      2220
 -1       790    8    0    1
 -2       467       318       468      2187      2190      2221
 -1       791    8    0    1
 -2       334       381       473      1946      2222      2223
 -1       792    8    0    1
 -2       323       324       474      1772      2224      2225
 -1       793    8    0    1
 -2       322       323       475      1769      2226      2227
 -1       794    8    0    1
 -2       323       474       475      2225      2228      2226
 -1       795    8    0    1
 -2       325       326       476      1778      2229      2230
 -1       796    8    0    1
 -2       326       327       477      1781      2231      2232
 -1       797    8    0    1
 -2       326       477       476      2232      2233      2229
 -1       798    8    0    1
 -2       327       328       478      1784      2234      2235
 -1       799    8    0    1
 -2       327       478       477      2235      2236      2231
 -1       800    8    0    1
 -2       328       329       479      1787      2237      2238
 -1       801    8    0    1
 -2       328       479       478      2238      2239      2234
 -1       802    8    0    1
 -2       329       330       480      1790      2240      2241
 -1       803    8    0    1
 -2       329       480       479      2241      2242      2237
 -1       804    8    0    1
 -2       330       331       481      1793      2243      2244
 -1       805    8    0    1
 -2       330       481       480      2244      2245      2240
 -1       806    8    0    1
 -2       381       382       482      1949      2246      2247
 -1       807    8    0    1
 -2       381       482       473      2247      2248      2222
 -1       808    8    0    1
 -2       336       335       483      1810      2249      2250
 -1       809    8    0    1
 -2       335       321       484      2197      2251      2252
 -1       810    8    0    1
 -2       483       335       484      2249      2252      2253
 -1       811    8    0    1
 -2       321       320       484      1764      2254      2251
 -1       812    8    0    1
 -2       444       469       485      2195      2255      2256
 -1       813    8    0    1
 -2       337       336       486      1813      2257      2258
 -1       814    8    0    1
 -2       336       483       486      2250      2259      2257
 -1       815    8    0    1
 -2       338       337       487      1816      2260      2261
 -1       816    8    0    1
 -2       337       486       487      2258      2262      2260
 -1       817    8    0    1
 -2       339       338       488      1819      2263      2264
 -1       818    8    0    1
 -2       338       487       488      2261      2265      2263
 -1       819    8    0    1
 -2       340       339       489      1822      2266      2267
 -1       820    8    0    1
 -2       339       488       489      2264      2268      2266
 -1       821    8    0    1
 -2       341       340       490      1825      2269      2270
 -1       822    8    0    1
 -2       340       489       490      2267      2271      2269
 -1       823    8    0    1
 -2       342       341       491      1828      2272      2273
 -1       824    8    0    1
 -2       341       490       491      2270      2274      2272
 -1       825    8    0    1
 -2       343       342       492      1831      2275      2276
 -1       826    8    0    1
 -2       342       491       492      2273      2277      2275
 -1       827    8    0    1
 -2       344       343       493      1834      2278      2279
 -1       828    8    0    1
 -2       343       492       493      2276      2280      2278
 -1       829    8    0    1
 -2       345       344       494      1837      2281      2282
 -1       830    8    0    1
 -2       344       493       494      2279      2283      2281
 -1       831    8    0    1
 -2       346       345       495      1840      2284      2285
 -1       832    8    0    1
 -2       345       494       495      2282      2286      2284
 -1       833    8    0    1
 -2       347       346       496      1843      2287      2288
 -1       834    8    0    1
 -2       346       495       496      2285      2289      2287
 -1       835    8    0    1
 -2       348       347       497      1846      2290      2291
 -1       836    8    0    1
 -2       347       496       497      2288      2292      2290
 -1       837    8    0    1
 -2       349       348       498      1849      2293      2294
 -1       838    8    0    1
 -2       348       497       498      2291      2295      2293
 -1       839    8    0    1
 -2       350       349       499      1852      2296      2297
 -1       840    8    0    1
 -2       349       498       499      2294      2298      2296
 -1       841    8    0    1
 -2       351       350       500      1855      2299      2300
 -1       842    8    0    1
 -2       350       499       500      2297      2301      2299
 -1       843    8    0    1
 -2       352       351       501      1858      2302      2303
 -1       844    8    0    1
 -2       351       500       501      2300      2304      2302
 -1       845    8    0    1
 -2       353       352       502      1861      2305      2306
 -1       846    8    0    1
 -2       352       501       502      2303      2307      2305
 -1       847    8    0    1
 -2       354       353       503      1864      2308      2309
 -1       848    8    0    1
 -2       353       502       503      2306      2310      2308
 -1       849    8    0    1
 -2       355       354       504      1867      2311      2312
 -1       850    8    0    1
 -2       354       503       504      2309      2313      2311
 -1       851    8    0    1
 -2       356       355       505      1870      2314      2315
 -1       852    8    0    1
 -2       355       504       505      2312      2316      2314
 -1       853    8    0    1
 -2       357       356       506      1873      2317      2318
 -1       854    8    0    1
 -2       356       505       506      2315      2319      2317
 -1       855    8    0    1
 -2       358       357       507      1876      2320      2321
 -1       856    8    0    1
 -2       357       506       507      2318      2322      2320
 -1       857    8    0    1
 -2       359       358       508      1879      2323      2324
 -1       858    8    0    1
 -2       358       507       508      2321      2325      2323
 -1       859    8    0    1
 -2       360       359       509      1882      2326      2327
 -1       860    8    0    1
 -2       359       508       509      2324      2328      2326
 -1       861    8    0    1
 -2       361       360       510      1885      2329      2330
 -1       862    8    0    1
 -2       360       509       510      2327      2331      2329
 -1       863    8    0    1
 -2       362       361       511      1888      2332      2333
 -1       864    8    0    1
 -2       361       510       511      2330      2334      2332
 -1       865    8    0    1
 -2       363       362       512      1891      2335      2336
 -1       866    8    0    1
 -2       362       511       512      2333      2337      2335
 -1       867    8    0    1
 -2       364       363       513      1894      2338      2339
 -1       868    8    0    1
 -2       363       512       513      2336      2340      2338
 -1       869    8    0    1
 -2       365       364       514      1897      2341      2342
 -1       870    8    0    1
 -2       364       513       514      2339      2343      2341
 -1       871    8    0    1
 -2       366       365       515      1900      2344      2345
 -1       872    8    0    1
 -2       365       514       515      2342      2346      2344
 -1       873    8    0    1
 -2       367       366       516      1903      2347      2348
 -1       874    8    0    1
 -2       366       515       516      2345      2349      2347
 -1       875    8    0    1
 -2       368       367       517      1906      2350      2351
 -1       876    8    0    1
 -2       367       516       517      2348      2352      2350
 -1       877    8    0    1
 -2       369       368       518      1909      2353      2354
 -1       878    8    0    1
 -2       368       517       518      2351      2355      2353
 -1       879    8    0    1
 -2       370       369       519      1912      2356      2357
 -1       880    8    0    1
 -2       369       518       519      2354      2358      2356
 -1       881    8    0    1
 -2       371       370       520      1915      2359      2360
 -1       882    8    0    1
 -2       370       519       520      2357      2361      2359
 -1       883    8    0    1
 -2       372       371       521      1918      2362      2363
 -1       884    8    0    1
 -2       371       520       521      2360      2364      2362
 -1       885    8    0    1
 -2       373       372       522      1921      2365      2366
 -1       886    8    0    1
 -2       372       521       522      2363      2367      2365
 -1       887    8    0    1
 -2       374       373       523      1924      2368      2369
 -1       888    8    0    1
 -2       373       522       523      2366      2370      2368
 -1       889    8    0    1
 -2       375       374       524      1927      2371      2372
 -1       890    8    0    1
 -2       374       523       524      2369      2373      2371
 -1       891    8    0    1
 -2       376       375       525      1930      2374      2375
 -1       892    8    0    1
 -2       375       524       525      2372      2376      2374
 -1       893    8    0    1
 -2       377       376       526      1933      2377      2378
 -1       894    8    0    1
 -2       376       525       526      2375      2379      2377
 -1       895    8    0    1
 -2       378       377       527      1936      2380      2381
 -1       896    8    0    1
 -2       377       526       527      2378      2382      2380
 -1       897    8    0    1
 -2       379       378       528      1939      2383      2384
 -1       898    8    0    1
 -2       378       527       528      2381      2385      2383
 -1       899    8    0    1
 -2       442       440       529      2128      2386      2387
 -1       900    8    0    1
 -2       383       384       530      1955      2388      2389
 -1       901    8    0    1
 -2       384       385       531      1958      2390      2391
 -1       902    8    0    1
 -2       384       531       530      2391      2392      2388
 -1       903    8    0    1
 -2       385       386       532      1961      2393      2394
 -1       904    8    0    1
 -2       385       532       531      2394      2395      2390
 -1       905    8    0    1
 -2       386       387       533      1964      2396      2397
 -1       906    8    0    1
 -2       386       533       532      2397      2398      2393
 -1       907    8    0    1
 -2       387       388       534      1967      2399      2400
 -1       908    8    0    1
 -2       387       534       533      2400      2401      2396
 -1       909    8    0    1
 -2       388       389       535      1970      2402      2403
 -1       910    8    0    1
 -2       388       535       534      2403      2404      2399
 -1       911    8    0    1
 -2       389       390       536      1973      2405      2406
 -1       912    8    0    1
 -2       389       536       535      2406      2407      2402
 -1       913    8    0    1
 -2       390       391       537      1976      2408      2409
 -1       914    8    0    1
 -2       390       537       536      2409      2410      2405
 -1       915    8    0    1
 -2       391       392       538      1979      2411      2412
 -1       916    8    0    1
 -2       391       538       537      2412      2413      2408
 -1       917    8    0    1
 -2       392       393       539      1982      2414      2415
 -1       918    8    0    1
 -2       392       539       538      2415      2416      2411
 -1       919    8    0    1
 -2       393       394       540      1985      2417      2418
 -1       920    8    0    1
 -2       393       540       539      2418      2419      2414
 -1       921    8    0    1
 -2       394       395       541      1988      2420      2421
 -1       922    8    0    1
 -2       394       541       540      2421      2422      2417
 -1       923    8    0    1
 -2       395       396       542      1991      2423      2424
 -1       924    8    0    1
 -2       395       542       541      2424      2425      2420
 -1       925    8    0    1
 -2       396       397       543      1994      2426      2427
 -1       926    8    0    1
 -2       396       543       542      2427      2428      2423
 -1       927    8    0    1
 -2       397       398       544      1997      2429      2430
 -1       928    8    0    1
 -2       397       544       543      2430      2431      2426
 -1       929    8    0    1
 -2       398       399       545      2000      2432      2433
 -1       930    8    0    1
 -2       398       545       544      2433      2434      2429
 -1       931    8    0    1
 -2       399       400       546      2003      2435      2436
 -1       932    8    0    1
 -2       399       546       545      2436      2437      2432
 -1       933    8    0    1
 -2       400       401       547      2006      2438      2439
 -1       934    8    0    1
 -2       400       547       546      2439      2440      2435
 -1       935    8    0    1
 -2       401       402       548      2009      2441      2442
 -1       936    8    0    1
 -2       401       548       547      2442      2443      2438
 -1       937    8    0    1
 -2       402       403       549      2012      2444      2445
 -1       938    8    0    1
 -2       402       549       548      2445      2446      2441
 -1       939    8    0    1
 -2       403       404       550      2015      2447      2448
 -1       940    8    0    1
 -2       403       550       549      2448      2449      2444
 -1       941    8    0    1
 -2       404       405       551      2018      2450      2451
 -1       942    8    0    1
 -2       404       551       550      2451      2452      2447
 -1       943    8    0    1
 -2       405       406       552      2021      2453      2454
 -1       944    8    0    1
 -2       405       552       551      2454      2455      2450
 -1       945    8    0    1
 -2       406       407       553      2024      2456      2457
 -1       946    8    0    1
 -2       406       553       552      2457      2458      2453
 -1       947    8    0    1
 -2       407       408       554      2027      2459      2460
 -1       948    8    0    1
 -2       407       554       553      2460      2461      2456
 -1       949    8    0    1
 -2       408       409       555      2030      2462      2463
 -1       950    8    0    1
 -2       408       555       554      2463      2464      2459
 -1       951    8    0    1
 -2       409       410       556      2033      2465      2466
 -1       952    8    0    1
 -2       409       556       555      2466      2467      2462
 -1       953    8    0    1
 -2       410       411       557      2036      2468      2469
 -1       954    8    0    1
 -2       410       557       556      2469      2470      2465
 -1       955    8    0    1
 -2       411       412       558      2039      2471      2472
 -1       956    8    0    1
 -2       411       558       557      2472      2473      2468
 -1       957    8    0    1
 -2       412       413       559      2042      2474      2475
 -1       958    8    0    1
 -2       412       559       558      2475      2476      2471
 -1       959    8    0    1
 -2       413       414       560      2045      2477      2478
 -1       960    8    0    1
 -2       413       560       559      2478      2479      2474
 -1       961    8    0    1
 -2       414       415       561      2048      2480      2481
 -1       962    8    0    1
 -2       414       561       560      2481      2482      2477
 -1       963    8    0    1
 -2       415       416       562      2051      2483      2484
 -1       964    8    0    1
 -2       415       562       561      2484      2485      2480
 -1       965    8    0    1
 -2       416       417       563      2054      2486      2487
 -1       966    8    0    1
 -2       416       563       562      2487      2488      2483
 -1       967    8    0    1
 -2       417       418       564      2057      2489      2490
 -1       968    8    0    1
 -2       417       564       563      2490      2491      2486
 -1       969    8    0    1
 -2       418       419       565      2060      2492      2493
 -1       970    8    0    1
 -2       418       565       564      2493      2494      2489
 -1       971    8    0    1
 -2       419       420       566      2063      2495      2496
 -1       972    8    0    1
 -2       419       566       565      2496      2497      2492
 -1       973    8    0    1
 -2       420       421       567      2066      2498      2499
 -1       974    8    0    1
 -2       420       567       566      2499      2500      2495
 -1       975    8    0    1
 -2       421       422       568      2069      2501      2502
 -1       976    8    0    1
 -2       421       568       567      2502      2503      2498
 -1       977    8    0    1
 -2       422       423       569      2072      2504      2505
 -1       978    8    0    1
 -2       422       569       568      2505      2506      2501
 -1       979    8    0    1
 -2       423       424       570      2075      2507      2508
 -1       980    8    0    1
 -2       423       570       569      2508      2509      2504
 -1       981    8    0    1
 -2       424       425       571      2078      2510      2511
 -1       982    8    0    1
 -2       424       571       570      2511      2512      2507
 -1       983    8    0    1
 -2       425       426       429      2081      2090      2513
 -1       984    8    0    1
 -2       430       431       572      2097      2514      2515
 -1       985    8    0    1
 -2       431       432       573      2100      2516      2517
 -1       986    8    0    1
 -2       431       573       572      2517      2518      2514
 -1       987    8    0    1
 -2       428       427       574      2087      2519      2520
 -1       988    8    0    1
 -2       427       430       575      2094      2521      2522
 -1       989    8    0    1
 -2       574       427       575      2519      2522      2523
 -1       990    8    0    1
 -2       430       572       575      2515      2524      2521
 -1       991    8    0    1
 -2       432       433       576      2103      2525      2526
 -1       992    8    0    1
 -2       432       576       573      2526      2527      2516
 -1       993    8    0    1
 -2       433       434       577      2106      2528      2529
 -1       994    8    0    1
 -2       433       577       576      2529      2530      2525
 -1       995    8    0    1
 -2       434       435       578      2109      2531      2532
 -1       996    8    0    1
 -2       434       578       577      2532      2533      2528
 -1       997    8    0    1
 -2       435       436       579      2112      2534      2535
 -1       998    8    0    1
 -2       435       579       578      2535      2536      2531
 -1       999    8    0    1
 -2       436       437       580      2115      2537      2538
 -1      1000    8    0    1
 -2       436       580       579      2538      2539      2534
 -1      1001    8    0    1
 -2       437       438       581      2118      2540      2541
 -1      1002    8    0    1
 -2       437       581       580      2541      2542      2537
 -1      1003    8    0    1
 -2       438       439       582      2121      2543      2544
 -1      1004    8    0    1
 -2       438       582       581      2544      2545      2540
 -1      1005    8    0    1
 -2       439       290       380      2202      1942      2546
 -1      1006    8    0    1
 -2       443       444       583      2203      2547      2548
 -1      1007    8    0    1
 -2       382       383       584      1952      2549      2550
 -1      1008    8    0    1
 -2       383       530       584      2389      2551      2549
 -1      1009    8    0    1
 -2       441       442       585      2198      2552      2553
 -1      1010    8    0    1
 -2       466       467       586      2204      2554      2555
 -1      1011    8    0    1
 -2       468       441       587      2191      2556      2557
 -1      1012    8    0    1
 -2       464       465       588      2205      2558      2559
 -1      1013    8    0    1
 -2       459       460       589      2207      2560      2561
 -1      1014    8    0    1
 -2       448       449       590      2216      2562      2563
 -1      1015    8    0    1
 -2       324       325       591      1775      2564      2565
 -1      1016    8    0    1
 -2       474       324       591      2224      2565      2566
 -1      1017    8    0    1
 -2       325       476       591      2230      2567      2564
 -1      1018    8    0    1
 -2       446       447       592      2217      2568      2569
 -1      1019    8    0    1
 -2       449       450       593      2218      2570      2571
 -1      1020    8    0    1
 -2       447       448       594      2143      2572      2573
 -1      1021    8    0    1
 -2       448       590       594      2563      2574      2572
 -1      1022    8    0    1
 -2       460       461       595      2219      2575      2576
 -1      1023    8    0    1
 -2       450       451       596      2150      2577      2578
 -1      1024    8    0    1
 -2       452       453       597      2155      2579      2580
 -1      1025    8    0    1
 -2       453       454       598      2212      2581      2582
 -1      1026    8    0    1
 -2       454       455       599      2160      2583      2584
 -1      1027    8    0    1
 -2       456       457       600      2165      2585      2586
 -1      1028    8    0    1
 -2       457       458       601      2208      2587      2588
 -1      1029    8    0    1
 -2       457       601       600      2588      2589      2585
 -1      1030    8    0    1
 -2       458       459       602      2170      2590      2591
 -1      1031    8    0    1
 -2       463       464       603      2220      2592      2593
 -1      1032    8    0    1
 -2       461       462       604      2177      2594      2595
 -1      1033    8    0    1
 -2       467       468       605      2221      2596      2597
 -1      1034    8    0    1
 -2       462       463       606      2206      2598      2599
 -1      1035    8    0    1
 -2       463       603       606      2593      2600      2598
 -1      1036    8    0    1
 -2       465       466       607      2186      2601      2602
 -1      1037    8    0    1
 -2       465       607       588      2602      2603      2558
 -1      1038    8    0    1
 -2       469       446       608      2194      2604      2605
 -1      1039    8    0    1
 -2       333       334       609      1804      2606      2607
 -1      1040    8    0    1
 -2       332       333       609      1799      2607      2608
 -1      1041    8    0    1
 -2       334       473       609      2223      2609      2606
 -1      1042    8    0    1
 -2       446       592       608      2569      2610      2604
 -1      1043    8    0    1
 -2       322       475       610      2227      2611      2612
 -1      1044    8    0    1
 -2       322       610       445      2612      2613      2136
 -1      1045    8    0    1
 -2       482       382       584      2246      2550      2614
 -1      1046    8    0    1
 -2       331       332       609      1796      2608      2615
 -1      1047    8    0    1
 -2       599       455       611      2583      2616      2617
 -1      1048    8    0    1
 -2       455       471       611      2210      2618      2616
 -1      1049    8    0    1
 -2       598       454       599      2581      2584      2619
 -1      1050    8    0    1
 -2       485       469       608      2255      2605      2620
 -1      1051    8    0    1
 -2       597       453       598      2579      2582      2621
 -1      1052    8    0    1
 -2       443       583       470      2548      2622      2199
 -1      1053    8    0    1
 -2       529       440       612      2386      2623      2624
 -1      1054    8    0    1
 -2       440       470       612      2201      2625      2623
 -1      1055    8    0    1
 -2       441       585       587      2553      2626      2556
 -1      1056    8    0    1
 -2       425       429       571      2513      2627      2510
 -1      1057    8    0    1
 -2       586       467       605      2554      2597      2628
 -1      1058    8    0    1
 -2       429       428       571      2091      2629      2627
 -1      1059    8    0    1
 -2       439       380       613      2546      2630      2631
 -1      1060    8    0    1
 -2       582       439       613      2543      2631      2632
 -1      1061    8    0    1
 -2       380       379       613      1943      2633      2630
 -1      1062    8    0    1
 -2       596       451       472      2577      2214      2634
 -1      1063    8    0    1
 -2       583       444       485      2547      2256      2635
 -1      1064    8    0    1
 -2       331       609       481      2615      2636      2243
 -1      1065    8    0    1
 -2       585       442       529      2552      2387      2637
 -1      1066    8    0    1
 -2       466       586       607      2555      2638      2601
 -1      1067    8    0    1
 -2       468       587       605      2557      2639      2596
 -1      1068    8    0    1
 -2       604       462       606      2594      2599      2640
 -1      1069    8    0    1
 -2       603       464       614      2592      2641      2642
 -1      1070    8    0    1
 -2       464       588       614      2559      2643      2641
 -1      1071    8    0    1
 -2       601       458       602      2587      2591      2644
 -1      1072    8    0    1
 -2       590       449       593      2562      2571      2645
 -1      1073    8    0    1
 -2       459       589       602      2561      2646      2590
 -1      1074    8    0    1
 -2       589       460       595      2560      2576      2647
 -1      1075    8    0    1
 -2       471       456       600      2211      2586      2648
 -1      1076    8    0    1
 -2       472       452       597      2215      2580      2649
 -1      1077    8    0    1
 -2       593       450       596      2570      2578      2650
 -1      1078    8    0    1
 -2       320       445       615      2135      2651      2652
 -1      1079    8    0    1
 -2       484       320       615      2254      2652      2653
 -1      1080    8    0    1
 -2       445       610       615      2613      2654      2651
 -1      1081    8    0    1
 -2       595       461       616      2575      2655      2656
 -1      1082    8    0    1
 -2       461       604       616      2595      2657      2655
 -1      1083    8    0    1
 -2       571       428       574      2629      2520      2658
 -1      1084    8    0    1
 -2       613       379       528      2633      2384      2659
 -1      1085    8    0    1
 -2       477       478       617      2236      2660      2661
 -1      1086    8    0    1
 -2       476       477       618      2233      2662      2663
 -1      1087    8    0    1
 -2       477       617       618      2661      2664      2662
 -1      1088    8    0    1
 -2       479       480       619      2242      2665      2666
 -1      1089    8    0    1
 -2       480       481       620      2245      2667      2668
 -1      1090    8    0    1
 -2       480       620       619      2668      2669      2665
 -1      1091    8    0    1
 -2       473       482       621      2248      2670      2671
 -1      1092    8    0    1
 -2       585       529       622      2637      2672      2673
 -1      1093    8    0    1
 -2       482       584       623      2614      2674      2675
 -1      1094    8    0    1
 -2       482       623       621      2675      2676      2670
 -1      1095    8    0    1
 -2       483       484       624      2253      2677      2678
 -1      1096    8    0    1
 -2       484       615       624      2653      2679      2677
 -1      1097    8    0    1
 -2       486       483       625      2259      2680      2681
 -1      1098    8    0    1
 -2       483       624       625      2678      2682      2680
 -1      1099    8    0    1
 -2       487       486       626      2262      2683      2684
 -1      1100    8    0    1
 -2       486       625       626      2681      2685      2683
 -1      1101    8    0    1
 -2       488       487       627      2265      2686      2687
 -1      1102    8    0    1
 -2       487       626       627      2684      2688      2686
 -1      1103    8    0    1
 -2       489       488       628      2268      2689      2690
 -1      1104    8    0    1
 -2       488       627       628      2687      2691      2689
 -1      1105    8    0    1
 -2       490       489       629      2271      2692      2693
 -1      1106    8    0    1
 -2       489       628       629      2690      2694      2692
 -1      1107    8    0    1
 -2       491       490       630      2274      2695      2696
 -1      1108    8    0    1
 -2       490       629       630      2693      2697      2695
 -1      1109    8    0    1
 -2       492       491       631      2277      2698      2699
 -1      1110    8    0    1
 -2       491       630       631      2696      2700      2698
 -1      1111    8    0    1
 -2       493       492       632      2280      2701      2702
 -1      1112    8    0    1
 -2       492       631       632      2699      2703      2701
 -1      1113    8    0    1
 -2       494       493       633      2283      2704      2705
 -1      1114    8    0    1
 -2       493       632       633      2702      2706      2704
 -1      1115    8    0    1
 -2       495       494       634      2286      2707      2708
 -1      1116    8    0    1
 -2       494       633       634      2705      2709      2707
 -1      1117    8    0    1
 -2       496       495       635      2289      2710      2711
 -1      1118    8    0    1
 -2       495       634       635      2708      2712      2710
 -1      1119    8    0    1
 -2       497       496       636      2292      2713      2714
 -1      1120    8    0    1
 -2       496       635       636      2711      2715      2713
 -1      1121    8    0    1
 -2       498       497       637      2295      2716      2717
 -1      1122    8    0    1
 -2       497       636       637      2714      2718      2716
 -1      1123    8    0    1
 -2       499       498       638      2298      2719      2720
 -1      1124    8    0    1
 -2       498       637       638      2717      2721      2719
 -1      1125    8    0    1
 -2       500       499       639      2301      2722      2723
 -1      1126    8    0    1
 -2       499       638       639      2720      2724      2722
 -1      1127    8    0    1
 -2       501       500       640      2304      2725      2726
 -1      1128    8    0    1
 -2       500       639       640      2723      2727      2725
 -1      1129    8    0    1
 -2       502       501       641      2307      2728      2729
 -1      1130    8    0    1
 -2       501       640       641      2726      2730      2728
 -1      1131    8    0    1
 -2       503       502       642      2310      2731      2732
 -1      1132    8    0    1
 -2       502       641       642      2729      2733      2731
 -1      1133    8    0    1
 -2       504       503       643      2313      2734      2735
 -1      1134    8    0    1
 -2       503       642       643      2732      2736      2734
 -1      1135    8    0    1
 -2       505       504       644      2316      2737      2738
 -1      1136    8    0    1
 -2       504       643       644      2735      2739      2737
 -1      1137    8    0    1
 -2       506       505       645      2319      2740      2741
 -1      1138    8    0    1
 -2       505       644       645      2738      2742      2740
 -1      1139    8    0    1
 -2       507       506       646      2322      2743      2744
 -1      1140    8    0    1
 -2       506       645       646      2741      2745      2743
 -1      1141    8    0    1
 -2       508       507       647      2325      2746      2747
 -1      1142    8    0    1
 -2       507       646       647      2744      2748      2746
 -1      1143    8    0    1
 -2       509       508       648      2328      2749      2750
 -1      1144    8    0    1
 -2       508       647       648      2747      2751      2749
 -1      1145    8    0    1
 -2       510       509       649      2331      2752      2753
 -1      1146    8    0    1
 -2       509       648       649      2750      2754      2752
 -1      1147    8    0    1
 -2       511       510       650      2334      2755      2756
 -1      1148    8    0    1
 -2       510       649       650      2753      2757      2755
 -1      1149    8    0    1
 -2       512       511       651      2337      2758      2759
 -1      1150    8    0    1
 -2       511       650       651      2756      2760      2758
 -1      1151    8    0    1
 -2       513       512       652      2340      2761      2762
 -1      1152    8    0    1
 -2       512       651       652      2759      2763      2761
 -1      1153    8    0    1
 -2       514       513       653      2343      2764      2765
 -1      1154    8    0    1
 -2       513       652       653      2762      2766      2764
 -1      1155    8    0    1
 -2       515       514       654      2346      2767      2768
 -1      1156    8    0    1
 -2       514       653       654      2765      2769      2767
 -1      1157    8    0    1
 -2       516       515       655      2349      2770      2771
 -1      1158    8    0    1
 -2       515       654       655      2768      2772      2770
 -1      1159    8    0    1
 -2       517       516       656      2352      2773      2774
 -1      1160    8    0    1
 -2       516       655       656      2771      2775      2773
 -1      1161    8    0    1
 -2       518       517       657      2355      2776      2777
 -1      1162    8    0    1
 -2       517       656       657      2774      2778      2776
 -1      1163    8    0    1
 -2       519       518       658      2358      2779      2780
 -1      1164    8    0    1
 -2       518       657       658      2777      2781      2779
 -1      1165    8    0    1
 -2       520       519       659      2361      2782      2783
 -1      1166    8    0    1
 -2       519       658       659      2780      2784      2782
 -1      1167    8    0    1
 -2       521       520       660      2364      2785      2786
 -1      1168    8    0    1
 -2       520       659       660      2783      2787      2785
 -1      1169    8    0    1
 -2       522       521       661      2367      2788      2789
 -1      1170    8    0    1
 -2       521       660       661      2786      2790      2788
 -1      1171    8    0    1
 -2       523       522       662      2370      2791      2792
 -1      1172    8    0    1
 -2       522       661       662      2789      2793      2791
 -1      1173    8    0    1
 -2       524       523       663      2373      2794      2795
 -1      1174    8    0    1
 -2       523       662       663      2792      2796      2794
 -1      1175    8    0    1
 -2       525       524       664      2376      2797      2798
 -1      1176    8    0    1
 -2       524       663       664      2795      2799      2797
 -1      1177    8    0    1
 -2       526       525       665      2379      2800      2801
 -1      1178    8    0    1
 -2       525       664       665      2798      2802      2800
 -1      1179    8    0    1
 -2       527       526       666      2382      2803      2804
 -1      1180    8    0    1
 -2       526       665       666      2801      2805      2803
 -1      1181    8    0    1
 -2       528       527       666      2385      2804      2806
 -1      1182    8    0    1
 -2       596       472       667      2634      2807      2808
 -1      1183    8    0    1
 -2       530       531       668      2392      2809      2810
 -1      1184    8    0    1
 -2       533       534       669      2401      2811      2812
 -1      1185    8    0    1
 -2       534       535       670      2404      2813      2814
 -1      1186    8    0    1
 -2       534       670       669      2814      2815      2811
 -1      1187    8    0    1
 -2       535       536       671      2407      2816      2817
 -1      1188    8    0    1
 -2       535       671       670      2817      2818      2813
 -1      1189    8    0    1
 -2       536       537       672      2410      2819      2820
 -1      1190    8    0    1
 -2       536       672       671      2820      2821      2816
 -1      1191    8    0    1
 -2       537       538       673      2413      2822      2823
 -1      1192    8    0    1
 -2       537       673       672      2823      2824      2819
 -1      1193    8    0    1
 -2       538       539       674      2416      2825      2826
 -1      1194    8    0    1
 -2       538       674       673      2826      2827      2822
 -1      1195    8    0    1
 -2       539       540       675      2419      2828      2829
 -1      1196    8    0    1
 -2       539       675       674      2829      2830      2825
 -1      1197    8    0    1
 -2       540       541       676      2422      2831      2832
 -1      1198    8    0    1
 -2       540       676       675      2832      2833      2828
 -1      1199    8    0    1
 -2       541       542       677      2425      2834      2835
 -1      1200    8    0    1
 -2       541       677       676      2835      2836      2831
 -1      1201    8    0    1
 -2       542       543       678      2428      2837      2838
 -1      1202    8    0    1
 -2       542       678       677      2838      2839      2834
 -1      1203    8    0    1
 -2       543       544       679      2431      2840      2841
 -1      1204    8    0    1
 -2       543       679       678      2841      2842      2837
 -1      1205    8    0    1
 -2       544       545       680      2434      2843      2844
 -1      1206    8    0    1
 -2       544       680       679      2844      2845      2840
 -1      1207    8    0    1
 -2       545       546       681      2437      2846      2847
 -1      1208    8    0    1
 -2       545       681       680      2847      2848      2843
 -1      1209    8    0    1
 -2       546       547       682      2440      2849      2850
 -1      1210    8    0    1
 -2       546       682       681      2850      2851      2846
 -1      1211    8    0    1
 -2       547       548       683      2443      2852      2853
 -1      1212    8    0    1
 -2       547       683       682      2853      2854      2849
 -1      1213    8    0    1
 -2       548       549       684      2446      2855      2856
 -1      1214    8    0    1
 -2       548       684       683      2856      2857      2852
 -1      1215    8    0    1
 -2       549       550       685      2449      2858      2859
 -1      1216    8    0    1
 -2       549       685       684      2859      2860      2855
 -1      1217    8    0    1
 -2       550       551       686      2452      2861      2862
 -1      1218    8    0    1
 -2       550       686       685      2862      2863      2858
 -1      1219    8    0    1
 -2       551       552       687      2455      2864      2865
 -1      1220    8    0    1
 -2       551       687       686      2865      2866      2861
 -1      1221    8    0    1
 -2       552       553       688      2458      2867      2868
 -1      1222    8    0    1
 -2       552       688       687      2868      2869      2864
 -1      1223    8    0    1
 -2       553       554       689      2461      2870      2871
 -1      1224    8    0    1
 -2       553       689       688      2871      2872      2867
 -1      1225    8    0    1
 -2       554       555       690      2464      2873      2874
 -1      1226    8    0    1
 -2       554       690       689      2874      2875      2870
 -1      1227    8    0    1
 -2       555       556       691      2467      2876      2877
 -1      1228    8    0    1
 -2       555       691       690      2877      2878      2873
 -1      1229    8    0    1
 -2       556       557       692      2470      2879      2880
 -1      1230    8    0    1
 -2       556       692       691      2880      2881      2876
 -1      1231    8    0    1
 -2       557       558       693      2473      2882      2883
 -1      1232    8    0    1
 -2       557       693       692      2883      2884      2879
 -1      1233    8    0    1
 -2       558       559       694      2476      2885      2886
 -1      1234    8    0    1
 -2       558       694       693      2886      2887      2882
 -1      1235    8    0    1
 -2       559       560       695      2479      2888      2889
 -1      1236    8    0    1
 -2       559       695       694      2889      2890      2885
 -1      1237    8    0    1
 -2       560       561       696      2482      2891      2892
 -1      1238    8    0    1
 -2       560       696       695      2892      2893      2888
 -1      1239    8    0    1
 -2       563       564       590      2491      2894      2895
 -1      1240    8    0    1
 -2       564       565       592      2494      2896      2897
 -1      1241    8    0    1
 -2       566       567       697      2500      2898      2899
 -1      1242    8    0    1
 -2       567       568       698      2503      2900      2901
 -1      1243    8    0    1
 -2       567       698       697      2901      2902      2898
 -1      1244    8    0    1
 -2       568       569       699      2506      2903      2904
 -1      1245    8    0    1
 -2       568       699       698      2904      2905      2900
 -1      1246    8    0    1
 -2       569       570       700      2509      2906      2907
 -1      1247    8    0    1
 -2       569       700       699      2907      2908      2903
 -1      1248    8    0    1
 -2       570       571       701      2512      2909      2910
 -1      1249    8    0    1
 -2       700       570       701      2906      2910      2911
 -1      1250    8    0    1
 -2       571       574       701      2658      2912      2909
 -1      1251    8    0    1
 -2       586       605       702      2628      2913      2914
 -1      1252    8    0    1
 -2       576       577       703      2530      2915      2916
 -1      1253    8    0    1
 -2       613       528       704      2659      2917      2918
 -1      1254    8    0    1
 -2       613       704       582      2918      2919      2632
 -1      1255    8    0    1
 -2       572       573       705      2518      2920      2921
 -1      1256    8    0    1
 -2       577       578       706      2533      2922      2923
 -1      1257    8    0    1
 -2       577       706       703      2923      2924      2915
 -1      1258    8    0    1
 -2       573       576       707      2527      2925      2926
 -1      1259    8    0    1
 -2       573       707       705      2926      2927      2920
 -1      1260    8    0    1
 -2       578       579       708      2536      2928      2929
 -1      1261    8    0    1
 -2       578       708       706      2929      2930      2922
 -1      1262    8    0    1
 -2       579       580       709      2539      2931      2932
 -1      1263    8    0    1
 -2       579       709       708      2932      2933      2928
 -1      1264    8    0    1
 -2       580       581       710      2542      2934      2935
 -1      1265    8    0    1
 -2       580       710       709      2935      2936      2931
 -1      1266    8    0    1
 -2       581       582       704      2545      2919      2937
 -1      1267    8    0    1
 -2       584       530       711      2551      2938      2939
 -1      1268    8    0    1
 -2       623       584       711      2674      2939      2940
 -1      1269    8    0    1
 -2       530       668       711      2810      2941      2938
 -1      1270    8    0    1
 -2       587       585       712      2626      2942      2943
 -1      1271    8    0    1
 -2       609       473       481      2609      2944      2636
 -1      1272    8    0    1
 -2       606       603       713      2600      2945      2946
 -1      1273    8    0    1
 -2       604       606       714      2640      2947      2948
 -1      1274    8    0    1
 -2       606       713       714      2946      2949      2947
 -1      1275    8    0    1
 -2       601       602       715      2644      2950      2951
 -1      1276    8    0    1
 -2       592       565       566      2896      2497      2952
 -1      1277    8    0    1
 -2       597       598       716      2621      2953      2954
 -1      1278    8    0    1
 -2       471       600       717      2648      2955      2956
 -1      1279    8    0    1
 -2       532       533       718      2398      2957      2958
 -1      1280    8    0    1
 -2       533       669       718      2812      2959      2957
 -1      1281    8    0    1
 -2       531       532       719      2395      2960      2961
 -1      1282    8    0    1
 -2       532       718       719      2958      2962      2960
 -1      1283    8    0    1
 -2       602       589       720      2646      2963      2964
 -1      1284    8    0    1
 -2       447       594       592      2573      2965      2568
 -1      1285    8    0    1
 -2       478       479       721      2239      2966      2967
 -1      1286    8    0    1
 -2       617       478       721      2660      2967      2968
 -1      1287    8    0    1
 -2       479       619       721      2666      2969      2966
 -1      1288    8    0    1
 -2       593       596       722      2650      2970      2971
 -1      1289    8    0    1
 -2       583       485       723      2635      2972      2973
 -1      1290    8    0    1
 -2       470       583       724      2622      2974      2975
 -1      1291    8    0    1
 -2       472       597       725      2649      2976      2977
 -1      1292    8    0    1
 -2       472       725       667      2977      2978      2807
 -1      1293    8    0    1
 -2       598       599       726      2619      2979      2980
 -1      1294    8    0    1
 -2       600       601       727      2589      2981      2982
 -1      1295    8    0    1
 -2       589       595       728      2647      2983      2984
 -1      1296    8    0    1
 -2       588       607       729      2603      2985      2986
 -1      1297    8    0    1
 -2       475       474       730      2228      2987      2988
 -1      1298    8    0    1
 -2       605       587       731      2639      2989      2990
 -1      1299    8    0    1
 -2       607       586       732      2638      2991      2992
 -1      1300    8    0    1
 -2       607       732       729      2992      2993      2985
 -1      1301    8    0    1
 -2       563       590       733      2895      2994      2995
 -1      1302    8    0    1
 -2       562       563       733      2488      2995      2996
 -1      1303    8    0    1
 -2       590       593       733      2645      2997      2994
 -1      1304    8    0    1
 -2       610       475       734      2611      2998      2999
 -1      1305    8    0    1
 -2       475       730       734      2988      3000      2998
 -1      1306    8    0    1
 -2       476       618       735      2663      3001      3002
 -1      1307    8    0    1
 -2       476       735       591      3002      3003      2567
 -1      1308    8    0    1
 -2       596       667       722      2808      3004      2970
 -1      1309    8    0    1
 -2       585       622       712      2673      3005      2942
 -1      1310    8    0    1
 -2       611       471       717      2618      2956      3006
 -1      1311    8    0    1
 -2       593       722       733      2971      3007      2997
 -1      1312    8    0    1
 -2       612       470       724      2625      2975      3008
 -1      1313    8    0    1
 -2       668       531       719      2809      2961      3009
 -1      1314    8    0    1
 -2       598       726       716      2980      3010      2953
 -1      1315    8    0    1
 -2       587       712       731      2943      3011      2989
 -1      1316    8    0    1
 -2       696       561       722      2891      3012      3013
 -1      1317    8    0    1
 -2       561       562       722      2485      3014      3012
 -1      1318    8    0    1
 -2       597       716       736      2954      3015      3016
 -1      1319    8    0    1
 -2       597       736       725      3016      3017      2976
 -1      1320    8    0    1
 -2       702       605       731      2913      2990      3018
 -1      1321    8    0    1
 -2       701       574       737      2912      3019      3020
 -1      1322    8    0    1
 -2       574       575       737      2523      3021      3019
 -1      1323    8    0    1
 -2       732       586       702      2991      2914      3022
 -1      1324    8    0    1
 -2       576       703       707      2916      3023      2925
 -1      1325    8    0    1
 -2       529       612       738      2624      3024      3025
 -1      1326    8    0    1
 -2       529       738       622      3025      3026      2672
 -1      1327    8    0    1
 -2       581       704       710      2937      3027      2934
 -1      1328    8    0    1
 -2       717       600       727      2955      2982      3028
 -1      1329    8    0    1
 -2       728       595       616      2983      2656      3029
 -1      1330    8    0    1
 -2       727       601       715      2981      2951      3030
 -1      1331    8    0    1
 -2       724       583       723      2974      2973      3031
 -1      1332    8    0    1
 -2       481       473       621      2944      2671      3032
 -1      1333    8    0    1
 -2       713       603       614      2945      2642      3033
 -1      1334    8    0    1
 -2       604       714       739      2948      3034      3035
 -1      1335    8    0    1
 -2       604       739       616      3035      3036      2657
 -1      1336    8    0    1
 -2       715       602       720      2950      2964      3037
 -1      1337    8    0    1
 -2       614       588       729      2643      2986      3038
 -1      1338    8    0    1
 -2       704       528       666      2917      2806      3039
 -1      1339    8    0    1
 -2       592       566       608      2952      3040      2610
 -1      1340    8    0    1
 -2       575       572       740      2524      3041      3042
 -1      1341    8    0    1
 -2       737       575       740      3021      3042      3043
 -1      1342    8    0    1
 -2       572       705       740      2921      3044      3041
 -1      1343    8    0    1
 -2       474       591       741      2566      3045      3046
 -1      1344    8    0    1
 -2       730       474       741      2987      3046      3047
 -1      1345    8    0    1
 -2       591       735       741      3003      3048      3045
 -1      1346    8    0    1
 -2       720       589       728      2963      2984      3049
 -1      1347    8    0    1
 -2       620       481       621      2667      3032      3050
 -1      1348    8    0    1
 -2       608       566       697      3040      2899      3051
 -1      1349    8    0    1
 -2       608       697       485      3051      3052      2620
 -1      1350    8    0    1
 -2       726       599       742      2979      3053      3054
 -1      1351    8    0    1
 -2       599       611       742      2617      3055      3053
 -1      1352    8    0    1
 -2       713       614       743      3033      3056      3057
 -1      1353    8    0    1
 -2       619       620       744      2669      3058      3059
 -1      1354    8    0    1
 -2       625       624       745      2682      3060      3061
 -1      1355    8    0    1
 -2       626       625       746      2685      3062      3063
 -1      1356    8    0    1
 -2       625       745       746      3061      3064      3062
 -1      1357    8    0    1
 -2       627       626       747      2688      3065      3066
 -1      1358    8    0    1
 -2       626       746       747      3063      3067      3065
 -1      1359    8    0    1
 -2       628       627       748      2691      3068      3069
 -1      1360    8    0    1
 -2       627       747       748      3066      3070      3068
 -1      1361    8    0    1
 -2       629       628       749      2694      3071      3072
 -1      1362    8    0    1
 -2       628       748       749      3069      3073      3071
 -1      1363    8    0    1
 -2       630       629       750      2697      3074      3075
 -1      1364    8    0    1
 -2       629       749       750      3072      3076      3074
 -1      1365    8    0    1
 -2       631       630       751      2700      3077      3078
 -1      1366    8    0    1
 -2       630       750       751      3075      3079      3077
 -1      1367    8    0    1
 -2       632       631       752      2703      3080      3081
 -1      1368    8    0    1
 -2       631       751       752      3078      3082      3080
 -1      1369    8    0    1
 -2       633       632       753      2706      3083      3084
 -1      1370    8    0    1
 -2       632       752       753      3081      3085      3083
 -1      1371    8    0    1
 -2       634       633       754      2709      3086      3087
 -1      1372    8    0    1
 -2       633       753       754      3084      3088      3086
 -1      1373    8    0    1
 -2       635       634       755      2712      3089      3090
 -1      1374    8    0    1
 -2       634       754       755      3087      3091      3089
 -1      1375    8    0    1
 -2       636       635       756      2715      3092      3093
 -1      1376    8    0    1
 -2       635       755       756      3090      3094      3092
 -1      1377    8    0    1
 -2       637       636       757      2718      3095      3096
 -1      1378    8    0    1
 -2       636       756       757      3093      3097      3095
 -1      1379    8    0    1
 -2       638       637       758      2721      3098      3099
 -1      1380    8    0    1
 -2       637       757       758      3096      3100      3098
 -1      1381    8    0    1
 -2       639       638       759      2724      3101      3102
 -1      1382    8    0    1
 -2       638       758       759      3099      3103      3101
 -1      1383    8    0    1
 -2       640       639       760      2727      3104      3105
 -1      1384    8    0    1
 -2       639       759       760      3102      3106      3104
 -1      1385    8    0    1
 -2       641       640       761      2730      3107      3108
 -1      1386    8    0    1
 -2       640       760       761      3105      3109      3107
 -1      1387    8    0    1
 -2       642       641       762      2733      3110      3111
 -1      1388    8    0    1
 -2       641       761       762      3108      3112      3110
 -1      1389    8    0    1
 -2       643       642       763      2736      3113      3114
 -1      1390    8    0    1
 -2       642       762       763      3111      3115      3113
 -1      1391    8    0    1
 -2       644       643       764      2739      3116      3117
 -1      1392    8    0    1
 -2       643       763       764      3114      3118      3116
 -1      1393    8    0    1
 -2       645       644       765      2742      3119      3120
 -1      1394    8    0    1
 -2       644       764       765      3117      3121      3119
 -1      1395    8    0    1
 -2       646       645       766      2745      3122      3123
 -1      1396    8    0    1
 -2       645       765       766      3120      3124      3122
 -1      1397    8    0    1
 -2       647       646       767      2748      3125      3126
 -1      1398    8    0    1
 -2       646       766       767      3123      3127      3125
 -1      1399    8    0    1
 -2       648       647       768      2751      3128      3129
 -1      1400    8    0    1
 -2       647       767       768      3126      3130      3128
 -1      1401    8    0    1
 -2       649       648       769      2754      3131      3132
 -1      1402    8    0    1
 -2       648       768       769      3129      3133      3131
 -1      1403    8    0    1
 -2       650       649       770      2757      3134      3135
 -1      1404    8    0    1
 -2       649       769       770      3132      3136      3134
 -1      1405    8    0    1
 -2       651       650       771      2760      3137      3138
 -1      1406    8    0    1
 -2       650       770       771      3135      3139      3137
 -1      1407    8    0    1
 -2       652       651       772      2763      3140      3141
 -1      1408    8    0    1
 -2       651       771       772      3138      3142      3140
 -1      1409    8    0    1
 -2       653       652       773      2766      3143      3144
 -1      1410    8    0    1
 -2       652       772       773      3141      3145      3143
 -1      1411    8    0    1
 -2       654       653       774      2769      3146      3147
 -1      1412    8    0    1
 -2       653       773       774      3144      3148      3146
 -1      1413    8    0    1
 -2       655       654       775      2772      3149      3150
 -1      1414    8    0    1
 -2       654       774       775      3147      3151      3149
 -1      1415    8    0    1
 -2       656       655       776      2775      3152      3153
 -1      1416    8    0    1
 -2       655       775       776      3150      3154      3152
 -1      1417    8    0    1
 -2       657       656       777      2778      3155      3156
 -1      1418    8    0    1
 -2       656       776       777      3153      3157      3155
 -1      1419    8    0    1
 -2       658       657       778      2781      3158      3159
 -1      1420    8    0    1
 -2       657       777       778      3156      3160      3158
 -1      1421    8    0    1
 -2       659       658       779      2784      3161      3162
 -1      1422    8    0    1
 -2       658       778       779      3159      3163      3161
 -1      1423    8    0    1
 -2       660       659       780      2787      3164      3165
 -1      1424    8    0    1
 -2       659       779       780      3162      3166      3164
 -1      1425    8    0    1
 -2       662       661       781      2793      3167      3168
 -1      1426    8    0    1
 -2       663       662       782      2796      3169      3170
 -1      1427    8    0    1
 -2       662       781       782      3168      3171      3169
 -1      1428    8    0    1
 -2       664       663       783      2799      3172      3173
 -1      1429    8    0    1
 -2       663       782       783      3170      3174      3172
 -1      1430    8    0    1
 -2       665       664       784      2802      3175      3176
 -1      1431    8    0    1
 -2       664       783       784      3173      3177      3175
 -1      1432    8    0    1
 -2       666       665       785      2805      3178      3179
 -1      1433    8    0    1
 -2       665       784       785      3176      3180      3178
 -1      1434    8    0    1
 -2       716       726       786      3010      3181      3182
 -1      1435    8    0    1
 -2       669       670       787      2815      3183      3184
 -1      1436    8    0    1
 -2       672       673       788      2824      3185      3186
 -1      1437    8    0    1
 -2       673       674       789      2827      3187      3188
 -1      1438    8    0    1
 -2       673       789       788      3188      3189      3185
 -1      1439    8    0    1
 -2       674       675       790      2830      3190      3191
 -1      1440    8    0    1
 -2       674       790       789      3191      3192      3187
 -1      1441    8    0    1
 -2       675       676       791      2833      3193      3194
 -1      1442    8    0    1
 -2       675       791       790      3194      3195      3190
 -1      1443    8    0    1
 -2       676       677       792      2836      3196      3197
 -1      1444    8    0    1
 -2       676       792       791      3197      3198      3193
 -1      1445    8    0    1
 -2       677       678       793      2839      3199      3200
 -1      1446    8    0    1
 -2       677       793       792      3200      3201      3196
 -1      1447    8    0    1
 -2       678       679       794      2842      3202      3203
 -1      1448    8    0    1
 -2       678       794       793      3203      3204      3199
 -1      1449    8    0    1
 -2       679       680       795      2845      3205      3206
 -1      1450    8    0    1
 -2       679       795       794      3206      3207      3202
 -1      1451    8    0    1
 -2       680       681       796      2848      3208      3209
 -1      1452    8    0    1
 -2       680       796       795      3209      3210      3205
 -1      1453    8    0    1
 -2       681       682       797      2851      3211      3212
 -1      1454    8    0    1
 -2       681       797       796      3212      3213      3208
 -1      1455    8    0    1
 -2       682       683       798      2854      3214      3215
 -1      1456    8    0    1
 -2       682       798       797      3215      3216      3211
 -1      1457    8    0    1
 -2       683       684       799      2857      3217      3218
 -1      1458    8    0    1
 -2       683       799       798      3218      3219      3214
 -1      1459    8    0    1
 -2       684       685       800      2860      3220      3221
 -1      1460    8    0    1
 -2       684       800       799      3221      3222      3217
 -1      1461    8    0    1
 -2       685       686       801      2863      3223      3224
 -1      1462    8    0    1
 -2       685       801       800      3224      3225      3220
 -1      1463    8    0    1
 -2       686       687       802      2866      3226      3227
 -1      1464    8    0    1
 -2       686       802       801      3227      3228      3223
 -1      1465    8    0    1
 -2       687       688       803      2869      3229      3230
 -1      1466    8    0    1
 -2       687       803       802      3230      3231      3226
 -1      1467    8    0    1
 -2       688       689       804      2872      3232      3233
 -1      1468    8    0    1
 -2       688       804       803      3233      3234      3229
 -1      1469    8    0    1
 -2       689       690       805      2875      3235      3236
 -1      1470    8    0    1
 -2       689       805       804      3236      3237      3232
 -1      1471    8    0    1
 -2       690       691       806      2878      3238      3239
 -1      1472    8    0    1
 -2       690       806       805      3239      3240      3235
 -1      1473    8    0    1
 -2       691       692       807      2881      3241      3242
 -1      1474    8    0    1
 -2       691       807       806      3242      3243      3238
 -1      1475    8    0    1
 -2       692       693       808      2884      3244      3245
 -1      1476    8    0    1
 -2       692       808       807      3245      3246      3241
 -1      1477    8    0    1
 -2       693       694       809      2887      3247      3248
 -1      1478    8    0    1
 -2       693       809       808      3248      3249      3244
 -1      1479    8    0    1
 -2       694       695       810      2890      3250      3251
 -1      1480    8    0    1
 -2       694       810       809      3251      3252      3247
 -1      1481    8    0    1
 -2       722       562       733      3014      2996      3007
 -1      1482    8    0    1
 -2       590       564       594      2894      3253      2574
 -1      1483    8    0    1
 -2       564       592       594      2897      2965      3253
 -1      1484    8    0    1
 -2       485       697       723      3052      3254      2972
 -1      1485    8    0    1
 -2       697       698       723      2902      3255      3254
 -1      1486    8    0    1
 -2       700       701       811      2911      3256      3257
 -1      1487    8    0    1
 -2       701       737       811      3020      3258      3256
 -1      1488    8    0    1
 -2       705       707       812      2927      3259      3260
 -1      1489    8    0    1
 -2       706       708       813      2930      3261      3262
 -1      1490    8    0    1
 -2       703       706       814      2924      3263      3264
 -1      1491    8    0    1
 -2       706       813       814      3262      3265      3263
 -1      1492    8    0    1
 -2       732       702       815      3022      3266      3267
 -1      1493    8    0    1
 -2       709       710       816      2936      3268      3269
 -1      1494    8    0    1
 -2       696       722       667      3013      3004      3270
 -1      1495    8    0    1
 -2       712       622       812      3005      3271      3272
 -1      1496    8    0    1
 -2       717       727       817      3028      3273      3274
 -1      1497    8    0    1
 -2       714       713       818      2949      3275      3276
 -1      1498    8    0    1
 -2       702       731       814      3018      3277      3278
 -1      1499    8    0    1
 -2       718       669       819      2959      3279      3280
 -1      1500    8    0    1
 -2       669       787       819      3184      3281      3279
 -1      1501    8    0    1
 -2       708       709       820      2933      3282      3283
 -1      1502    8    0    1
 -2       709       816       820      3269      3284      3282
 -1      1503    8    0    1
 -2       699       700       811      2908      3257      3285
 -1      1504    8    0    1
 -2       698       699       821      2905      3286      3287
 -1      1505    8    0    1
 -2       699       811       821      3285      3288      3286
 -1      1506    8    0    1
 -2       731       712       822      3011      3289      3290
 -1      1507    8    0    1
 -2       814       731       822      3277      3290      3291
 -1      1508    8    0    1
 -2       712       812       822      3272      3292      3289
 -1      1509    8    0    1
 -2       671       672       823      2821      3293      3294
 -1      1510    8    0    1
 -2       672       788       823      3186      3295      3293
 -1      1511    8    0    1
 -2       614       729       824      3038      3296      3297
 -1      1512    8    0    1
 -2       670       671       825      2818      3298      3299
 -1      1513    8    0    1
 -2       787       670       825      3183      3299      3300
 -1      1514    8    0    1
 -2       671       823       825      3294      3301      3298
 -1      1515    8    0    1
 -2       611       717       826      3006      3302      3303
 -1      1516    8    0    1
 -2       611       826       742      3303      3304      3055
 -1      1517    8    0    1
 -2       719       718       827      2962      3305      3306
 -1      1518    8    0    1
 -2       718       819       827      3280      3307      3305
 -1      1519    8    0    1
 -2       710       704       666      3027      3039      3308
 -1      1520    8    0    1
 -2       715       720       828      3037      3309      3310
 -1      1521    8    0    1
 -2       668       719       829      3009      3311      3312
 -1      1522    8    0    1
 -2       719       827       829      3306      3313      3311
 -1      1523    8    0    1
 -2       667       725       830      2978      3314      3315
 -1      1524    8    0    1
 -2       728       616       831      3029      3316      3317
 -1      1525    8    0    1
 -2       620       621       832      3050      3318      3319
 -1      1526    8    0    1
 -2       744       620       832      3058      3319      3320
 -1      1527    8    0    1
 -2       621       623       832      2676      3321      3318
 -1      1528    8    0    1
 -2       720       728       833      3049      3322      3323
 -1      1529    8    0    1
 -2       707       703       822      3023      3324      3325
 -1      1530    8    0    1
 -2       618       617       834      2664      3326      3327
 -1      1531    8    0    1
 -2       729       732       835      2993      3328      3329
 -1      1532    8    0    1
 -2       727       715       836      3030      3330      3331
 -1      1533    8    0    1
 -2       612       724       837      3008      3332      3333
 -1      1534    8    0    1
 -2       696       667       830      3270      3315      3334
 -1      1535    8    0    1
 -2       735       618       838      3001      3335      3336
 -1      1536    8    0    1
 -2       618       834       838      3327      3337      3335
 -1      1537    8    0    1
 -2       619       744       839      3059      3338      3339
 -1      1538    8    0    1
 -2       619       839       721      3339      3340      2969
 -1      1539    8    0    1
 -2       720       833       828      3323      3341      3309
 -1      1540    8    0    1
 -2       624       615       840      2679      3342      3343
 -1      1541    8    0    1
 -2       781       661       831      3167      3344      3345
 -1      1542    8    0    1
 -2       661       660       831      2790      3346      3344
 -1      1543    8    0    1
 -2       716       786       736      3182      3347      3015
 -1      1544    8    0    1
 -2       786       726       841      3181      3348      3349
 -1      1545    8    0    1
 -2       726       742       841      3054      3350      3348
 -1      1546    8    0    1
 -2       725       736       830      3017      3351      3314
 -1      1547    8    0    1
 -2       708       820       813      3283      3352      3261
 -1      1548    8    0    1
 -2       614       824       743      3297      3353      3056
 -1      1549    8    0    1
 -2       834       617       842      3326      3354      3355
 -1      1550    8    0    1
 -2       617       721       842      2968      3356      3354
 -1      1551    8    0    1
 -2       810       695       830      3250      3357      3358
 -1      1552    8    0    1
 -2       835       732       815      3328      3267      3359
 -1      1553    8    0    1
 -2       695       696       830      2893      3334      3357
 -1      1554    8    0    1
 -2       818       713       743      3275      3057      3360
 -1      1555    8    0    1
 -2       734       730       843      3000      3361      3362
 -1      1556    8    0    1
 -2       816       710       785      3268      3363      3364
 -1      1557    8    0    1
 -2       812       707       822      3259      3325      3292
 -1      1558    8    0    1
 -2       738       612       837      3024      3333      3365
 -1      1559    8    0    1
 -2       623       711       844      2940      3366      3367
 -1      1560    8    0    1
 -2       623       844       832      3367      3368      3321
 -1      1561    8    0    1
 -2       703       814       822      3264      3291      3324
 -1      1562    8    0    1
 -2       815       702       814      3266      3278      3369
 -1      1563    8    0    1
 -2       812       622       845      3271      3370      3371
 -1      1564    8    0    1
 -2       705       812       845      3260      3371      3372
 -1      1565    8    0    1
 -2       622       738       845      3026      3373      3370
 -1      1566    8    0    1
 -2       717       817       826      3274      3374      3302
 -1      1567    8    0    1
 -2       711       668       846      2941      3375      3376
 -1      1568    8    0    1
 -2       844       711       846      3366      3376      3377
 -1      1569    8    0    1
 -2       668       829       846      3312      3378      3375
 -1      1570    8    0    1
 -2       705       845       740      3372      3379      3044
 -1      1571    8    0    1
 -2       817       727       847      3273      3380      3381
 -1      1572    8    0    1
 -2       727       836       847      3331      3382      3380
 -1      1573    8    0    1
 -2       710       666       785      3308      3179      3363
 -1      1574    8    0    1
 -2       837       724       821      3332      3383      3384
 -1      1575    8    0    1
 -2       836       715       828      3330      3310      3385
 -1      1576    8    0    1
 -2       824       729       835      3296      3329      3386
 -1      1577    8    0    1
 -2       730       741       848      3047      3387      3388
 -1      1578    8    0    1
 -2       730       848       843      3388      3389      3361
 -1      1579    8    0    1
 -2       831       616       739      3316      3036      3390
 -1      1580    8    0    1
 -2       615       610       840      2654      3391      3342
 -1      1581    8    0    1
 -2       724       723       821      3031      3392      3383
 -1      1582    8    0    1
 -2       624       840       745      3343      3393      3060
 -1      1583    8    0    1
 -2       833       728       831      3322      3317      3394
 -1      1584    8    0    1
 -2       736       786       849      3347      3395      3396
 -1      1585    8    0    1
 -2       660       780       831      3165      3397      3346
 -1      1586    8    0    1
 -2       747       746       850      3067      3398      3399
 -1      1587    8    0    1
 -2       748       747       851      3070      3400      3401
 -1      1588    8    0    1
 -2       747       850       851      3399      3402      3400
 -1      1589    8    0    1
 -2       749       748       852      3073      3403      3404
 -1      1590    8    0    1
 -2       748       851       852      3401      3405      3403
 -1      1591    8    0    1
 -2       750       749       853      3076      3406      3407
 -1      1592    8    0    1
 -2       749       852       853      3404      3408      3406
 -1      1593    8    0    1
 -2       751       750       854      3079      3409      3410
 -1      1594    8    0    1
 -2       750       853       854      3407      3411      3409
 -1      1595    8    0    1
 -2       752       751       855      3082      3412      3413
 -1      1596    8    0    1
 -2       751       854       855      3410      3414      3412
 -1      1597    8    0    1
 -2       753       752       856      3085      3415      3416
 -1      1598    8    0    1
 -2       752       855       856      3413      3417      3415
 -1      1599    8    0    1
 -2       754       753       857      3088      3418      3419
 -1      1600    8    0    1
 -2       753       856       857      3416      3420      3418
 -1      1601    8    0    1
 -2       755       754       858      3091      3421      3422
 -1      1602    8    0    1
 -2       754       857       858      3419      3423      3421
 -1      1603    8    0    1
 -2       756       755       859      3094      3424      3425
 -1      1604    8    0    1
 -2       755       858       859      3422      3426      3424
 -1      1605    8    0    1
 -2       757       756       860      3097      3427      3428
 -1      1606    8    0    1
 -2       756       859       860      3425      3429      3427
 -1      1607    8    0    1
 -2       758       757       861      3100      3430      3431
 -1      1608    8    0    1
 -2       757       860       861      3428      3432      3430
 -1      1609    8    0    1
 -2       759       758       862      3103      3433      3434
 -1      1610    8    0    1
 -2       758       861       862      3431      3435      3433
 -1      1611    8    0    1
 -2       760       759       863      3106      3436      3437
 -1      1612    8    0    1
 -2       759       862       863      3434      3438      3436
 -1      1613    8    0    1
 -2       761       760       864      3109      3439      3440
 -1      1614    8    0    1
 -2       760       863       864      3437      3441      3439
 -1      1615    8    0    1
 -2       762       761       865      3112      3442      3443
 -1      1616    8    0    1
 -2       761       864       865      3440      3444      3442
 -1      1617    8    0    1
 -2       763       762       866      3115      3445      3446
 -1      1618    8    0    1
 -2       762       865       866      3443      3447      3445
 -1      1619    8    0    1
 -2       764       763       867      3118      3448      3449
 -1      1620    8    0    1
 -2       763       866       867      3446      3450      3448
 -1      1621    8    0    1
 -2       765       764       868      3121      3451      3452
 -1      1622    8    0    1
 -2       764       867       868      3449      3453      3451
 -1      1623    8    0    1
 -2       766       765       869      3124      3454      3455
 -1      1624    8    0    1
 -2       765       868       869      3452      3456      3454
 -1      1625    8    0    1
 -2       767       766       870      3127      3457      3458
 -1      1626    8    0    1
 -2       766       869       870      3455      3459      3457
 -1      1627    8    0    1
 -2       768       767       871      3130      3460      3461
 -1      1628    8    0    1
 -2       767       870       871      3458      3462      3460
 -1      1629    8    0    1
 -2       769       768       872      3133      3463      3464
 -1      1630    8    0    1
 -2       768       871       872      3461      3465      3463
 -1      1631    8    0    1
 -2       770       769       873      3136      3466      3467
 -1      1632    8    0    1
 -2       769       872       873      3464      3468      3466
 -1      1633    8    0    1
 -2       771       770       874      3139      3469      3470
 -1      1634    8    0    1
 -2       770       873       874      3467      3471      3469
 -1      1635    8    0    1
 -2       772       771       875      3142      3472      3473
 -1      1636    8    0    1
 -2       771       874       875      3470      3474      3472
 -1      1637    8    0    1
 -2       773       772       876      3145      3475      3476
 -1      1638    8    0    1
 -2       772       875       876      3473      3477      3475
 -1      1639    8    0    1
 -2       774       773       877      3148      3478      3479
 -1      1640    8    0    1
 -2       773       876       877      3476      3480      3478
 -1      1641    8    0    1
 -2       775       774       878      3151      3481      3482
 -1      1642    8    0    1
 -2       774       877       878      3479      3483      3481
 -1      1643    8    0    1
 -2       776       775       879      3154      3484      3485
 -1      1644    8    0    1
 -2       775       878       879      3482      3486      3484
 -1      1645    8    0    1
 -2       777       776       880      3157      3487      3488
 -1      1646    8    0    1
 -2       776       879       880      3485      3489      3487
 -1      1647    8    0    1
 -2       778       777       881      3160      3490      3491
 -1      1648    8    0    1
 -2       777       880       881      3488      3492      3490
 -1      1649    8    0    1
 -2       784       783       882      3177      3493      3494
 -1      1650    8    0    1
 -2       785       784       883      3180      3495      3496
 -1      1651    8    0    1
 -2       784       882       883      3494      3497      3495
 -1      1652    8    0    1
 -2       788       789       884      3189      3498      3499
 -1      1653    8    0    1
 -2       791       792       885      3198      3500      3501
 -1      1654    8    0    1
 -2       792       793       886      3201      3502      3503
 -1      1655    8    0    1
 -2       792       886       885      3503      3504      3500
 -1      1656    8    0    1
 -2       793       794       887      3204      3505      3506
 -1      1657    8    0    1
 -2       793       887       886      3506      3507      3502
 -1      1658    8    0    1
 -2       794       795       888      3207      3508      3509
 -1      1659    8    0    1
 -2       794       888       887      3509      3510      3505
 -1      1660    8    0    1
 -2       795       796       889      3210      3511      3512
 -1      1661    8    0    1
 -2       795       889       888      3512      3513      3508
 -1      1662    8    0    1
 -2       796       797       890      3213      3514      3515
 -1      1663    8    0    1
 -2       796       890       889      3515      3516      3511
 -1      1664    8    0    1
 -2       797       798       891      3216      3517      3518
 -1      1665    8    0    1
 -2       797       891       890      3518      3519      3514
 -1      1666    8    0    1
 -2       798       799       892      3219      3520      3521
 -1      1667    8    0    1
 -2       798       892       891      3521      3522      3517
 -1      1668    8    0    1
 -2       799       800       893      3222      3523      3524
 -1      1669    8    0    1
 -2       799       893       892      3524      3525      3520
 -1      1670    8    0    1
 -2       800       801       894      3225      3526      3527
 -1      1671    8    0    1
 -2       800       894       893      3527      3528      3523
 -1      1672    8    0    1
 -2       801       802       895      3228      3529      3530
 -1      1673    8    0    1
 -2       801       895       894      3530      3531      3526
 -1      1674    8    0    1
 -2       802       803       896      3231      3532      3533
 -1      1675    8    0    1
 -2       802       896       895      3533      3534      3529
 -1      1676    8    0    1
 -2       803       804       897      3234      3535      3536
 -1      1677    8    0    1
 -2       803       897       896      3536      3537      3532
 -1      1678    8    0    1
 -2       804       805       898      3237      3538      3539
 -1      1679    8    0    1
 -2       804       898       897      3539      3540      3535
 -1      1680    8    0    1
 -2       805       806       899      3240      3541      3542
 -1      1681    8    0    1
 -2       805       899       898      3542      3543      3538
 -1      1682    8    0    1
 -2       806       807       900      3243      3544      3545
 -1      1683    8    0    1
 -2       806       900       899      3545      3546      3541
 -1      1684    8    0    1
 -2       807       808       901      3246      3547      3548
 -1      1685    8    0    1
 -2       807       901       900      3548      3549      3544
 -1      1686    8    0    1
 -2       808       809       902      3249      3550      3551
 -1      1687    8    0    1
 -2       808       902       901      3551      3552      3547
 -1      1688    8    0    1
 -2       809       810       849      3252      3553      3554
 -1      1689    8    0    1
 -2       835       815       903      3359      3555      3556
 -1      1690    8    0    1
 -2       819       787       904      3281      3557      3558
 -1      1691    8    0    1
 -2       816       785       883      3364      3496      3559
 -1      1692    8    0    1
 -2       743       824       882      3353      3560      3561
 -1      1693    8    0    1
 -2       811       737       905      3258      3562      3563
 -1      1694    8    0    1
 -2       821       811       905      3288      3563      3564
 -1      1695    8    0    1
 -2       737       740       905      3043      3565      3562
 -1      1696    8    0    1
 -2       741       735       906      3048      3566      3567
 -1      1697    8    0    1
 -2       741       906       848      3567      3568      3387
 -1      1698    8    0    1
 -2       845       738       905      3373      3569      3570
 -1      1699    8    0    1
 -2       826       817       907      3374      3571      3572
 -1      1700    8    0    1
 -2       714       818       908      3276      3573      3574
 -1      1701    8    0    1
 -2       823       788       909      3295      3575      3576
 -1      1702    8    0    1
 -2       788       884       909      3499      3577      3575
 -1      1703    8    0    1
 -2       742       826       910      3304      3578      3579
 -1      1704    8    0    1
 -2       739       714       908      3034      3574      3580
 -1      1705    8    0    1
 -2       836       828       881      3385      3581      3582
 -1      1706    8    0    1
 -2       790       791       911      3195      3583      3584
 -1      1707    8    0    1
 -2       791       885       911      3501      3585      3583
 -1      1708    8    0    1
 -2       789       790       912      3192      3586      3587
 -1      1709    8    0    1
 -2       884       789       912      3498      3587      3588
 -1      1710    8    0    1
 -2       790       911       912      3584      3589      3586
 -1      1711    8    0    1
 -2       827       819       913      3307      3590      3591
 -1      1712    8    0    1
 -2       819       904       913      3558      3592      3590
 -1      1713    8    0    1
 -2       829       827       914      3313      3593      3594
 -1      1714    8    0    1
 -2       827       913       914      3591      3595      3593
 -1      1715    8    0    1
 -2       740       845       905      3379      3570      3565
 -1      1716    8    0    1
 -2       814       813       815      3265      3596      3369
 -1      1717    8    0    1
 -2       833       831       780      3394      3397      3597
 -1      1718    8    0    1
 -2       723       698       821      3255      3287      3392
 -1      1719    8    0    1
 -2       830       736       810      3351      3598      3358
 -1      1720    8    0    1
 -2       744       832       915      3320      3599      3600
 -1      1721    8    0    1
 -2       832       844       915      3368      3601      3599
 -1      1722    8    0    1
 -2       833       780       779      3597      3166      3602
 -1      1723    8    0    1
 -2       840       610       734      3391      2999      3603
 -1      1724    8    0    1
 -2       840       734       745      3603      3604      3393
 -1      1725    8    0    1
 -2       745       734       843      3604      3362      3605
 -1      1726    8    0    1
 -2       745       843       746      3605      3606      3064
 -1      1727    8    0    1
 -2       746       843       850      3606      3607      3398
 -1      1728    8    0    1
 -2       839       744       915      3338      3600      3608
 -1      1729    8    0    1
 -2       810       736       849      3598      3396      3553
 -1      1730    8    0    1
 -2       778       881       828      3491      3581      3609
 -1      1731    8    0    1
 -2       882       783       743      3493      3610      3561
 -1      1732    8    0    1
 -2       779       778       828      3163      3609      3611
 -1      1733    8    0    1
 -2       742       910       841      3579      3612      3350
 -1      1734    8    0    1
 -2       783       782       743      3174      3613      3610
 -1      1735    8    0    1
 -2       743       782       818      3613      3614      3360
 -1      1736    8    0    1
 -2       779       828       833      3611      3341      3602
 -1      1737    8    0    1
 -2       842       721       839      3356      3340      3615
 -1      1738    8    0    1
 -2       809       849       902      3554      3616      3550
 -1      1739    8    0    1
 -2       835       903       883      3556      3617      3618
 -1      1740    8    0    1
 -2       829       914       916      3594      3619      3620
 -1      1741    8    0    1
 -2       882       824       883      3560      3621      3497
 -1      1742    8    0    1
 -2       907       817       917      3571      3622      3623
 -1      1743    8    0    1
 -2       817       847       917      3381      3624      3622
 -1      1744    8    0    1
 -2       826       907       910      3572      3625      3578
 -1      1745    8    0    1
 -2       836       881       918      3582      3626      3627
 -1      1746    8    0    1
 -2       847       836       918      3382      3627      3628
 -1      1747    8    0    1
 -2       881       880       918      3492      3629      3626
 -1      1748    8    0    1
 -2       838       834       919      3337      3630      3631
 -1      1749    8    0    1
 -2       846       829       916      3378      3620      3632
 -1      1750    8    0    1
 -2       823       909       920      3576      3633      3634
 -1      1751    8    0    1
 -2       823       920       825      3634      3635      3301
 -1      1752    8    0    1
 -2       782       781       818      3171      3636      3614
 -1      1753    8    0    1
 -2       919       834       921      3630      3637      3638
 -1      1754    8    0    1
 -2       834       842       921      3355      3639      3637
 -1      1755    8    0    1
 -2       815       813       820      3596      3352      3640
 -1      1756    8    0    1
 -2       820       816       883      3284      3559      3641
 -1      1757    8    0    1
 -2       904       787       922      3557      3642      3643
 -1      1758    8    0    1
 -2       787       825       922      3300      3644      3642
 -1      1759    8    0    1
 -2       906       735       838      3566      3336      3645
 -1      1760    8    0    1
 -2       738       837       905      3365      3646      3569
 -1      1761    8    0    1
 -2       835       883       824      3618      3621      3386
 -1      1762    8    0    1
 -2       818       781       908      3636      3647      3573
 -1      1763    8    0    1
 -2       850       843       923      3607      3648      3649
 -1      1764    8    0    1
 -2       843       848       923      3389      3650      3648
 -1      1765    8    0    1
 -2       849       786       924      3395      3651      3652
 -1      1766    8    0    1
 -2       905       837       821      3646      3384      3564
 -1      1767    8    0    1
 -2       924       786       841      3651      3349      3653
 -1      1768    8    0    1
 -2       839       915       925      3608      3654      3655
 -1      1769    8    0    1
 -2       852       851       926      3405      3656      3657
 -1      1770    8    0    1
 -2       853       852       927      3408      3658      3659
 -1      1771    8    0    1
 -2       852       926       927      3657      3660      3658
 -1      1772    8    0    1
 -2       854       853       928      3411      3661      3662
 -1      1773    8    0    1
 -2       853       927       928      3659      3663      3661
 -1      1774    8    0    1
 -2       855       854       929      3414      3664      3665
 -1      1775    8    0    1
 -2       854       928       929      3662      3666      3664
 -1      1776    8    0    1
 -2       856       855       930      3417      3667      3668
 -1      1777    8    0    1
 -2       855       929       930      3665      3669      3667
 -1      1778    8    0    1
 -2       857       856       931      3420      3670      3671
 -1      1779    8    0    1
 -2       856       930       931      3668      3672      3670
 -1      1780    8    0    1
 -2       858       857       932      3423      3673      3674
 -1      1781    8    0    1
 -2       857       931       932      3671      3675      3673
 -1      1782    8    0    1
 -2       859       858       933      3426      3676      3677
 -1      1783    8    0    1
 -2       858       932       933      3674      3678      3676
 -1      1784    8    0    1
 -2       860       859       934      3429      3679      3680
 -1      1785    8    0    1
 -2       859       933       934      3677      3681      3679
 -1      1786    8    0    1
 -2       861       860       935      3432      3682      3683
 -1      1787    8    0    1
 -2       860       934       935      3680      3684      3682
 -1      1788    8    0    1
 -2       862       861       936      3435      3685      3686
 -1      1789    8    0    1
 -2       861       935       936      3683      3687      3685
 -1      1790    8    0    1
 -2       863       862       937      3438      3688      3689
 -1      1791    8    0    1
 -2       862       936       937      3686      3690      3688
 -1      1792    8    0    1
 -2       864       863       938      3441      3691      3692
 -1      1793    8    0    1
 -2       863       937       938      3689      3693      3691
 -1      1794    8    0    1
 -2       865       864       939      3444      3694      3695
 -1      1795    8    0    1
 -2       864       938       939      3692      3696      3694
 -1      1796    8    0    1
 -2       866       865       940      3447      3697      3698
 -1      1797    8    0    1
 -2       865       939       940      3695      3699      3697
 -1      1798    8    0    1
 -2       867       866       941      3450      3700      3701
 -1      1799    8    0    1
 -2       866       940       941      3698      3702      3700
 -1      1800    8    0    1
 -2       868       867       942      3453      3703      3704
 -1      1801    8    0    1
 -2       867       941       942      3701      3705      3703
 -1      1802    8    0    1
 -2       869       868       943      3456      3706      3707
 -1      1803    8    0    1
 -2       868       942       943      3704      3708      3706
 -1      1804    8    0    1
 -2       870       869       944      3459      3709      3710
 -1      1805    8    0    1
 -2       869       943       944      3707      3711      3709
 -1      1806    8    0    1
 -2       871       870       945      3462      3712      3713
 -1      1807    8    0    1
 -2       870       944       945      3710      3714      3712
 -1      1808    8    0    1
 -2       872       871       946      3465      3715      3716
 -1      1809    8    0    1
 -2       871       945       946      3713      3717      3715
 -1      1810    8    0    1
 -2       873       872       947      3468      3718      3719
 -1      1811    8    0    1
 -2       872       946       947      3716      3720      3718
 -1      1812    8    0    1
 -2       874       873       948      3471      3721      3722
 -1      1813    8    0    1
 -2       873       947       948      3719      3723      3721
 -1      1814    8    0    1
 -2       875       874       949      3474      3724      3725
 -1      1815    8    0    1
 -2       874       948       949      3722      3726      3724
 -1      1816    8    0    1
 -2       876       875       950      3477      3727      3728
 -1      1817    8    0    1
 -2       875       949       950      3725      3729      3727
 -1      1818    8    0    1
 -2       877       876       951      3480      3730      3731
 -1      1819    8    0    1
 -2       876       950       951      3728      3732      3730
 -1      1820    8    0    1
 -2       878       877       952      3483      3733      3734
 -1      1821    8    0    1
 -2       877       951       952      3731      3735      3733
 -1      1822    8    0    1
 -2       879       878       953      3486      3736      3737
 -1      1823    8    0    1
 -2       878       952       953      3734      3738      3736
 -1      1824    8    0    1
 -2       880       879       954      3489      3739      3740
 -1      1825    8    0    1
 -2       918       880       954      3629      3740      3741
 -1      1826    8    0    1
 -2       879       953       954      3737      3742      3739
 -1      1827    8    0    1
 -2       838       919       955      3631      3743      3744
 -1      1828    8    0    1
 -2       838       955       906      3744      3745      3645
 -1      1829    8    0    1
 -2       913       904       956      3592      3746      3747
 -1      1830    8    0    1
 -2       916       914       957      3619      3748      3749
 -1      1831    8    0    1
 -2       885       886       958      3504      3750      3751
 -1      1832    8    0    1
 -2       888       889       959      3513      3752      3753
 -1      1833    8    0    1
 -2       889       890       960      3516      3754      3755
 -1      1834    8    0    1
 -2       889       960       959      3755      3756      3752
 -1      1835    8    0    1
 -2       890       891       961      3519      3757      3758
 -1      1836    8    0    1
 -2       890       961       960      3758      3759      3754
 -1      1837    8    0    1
 -2       891       892       962      3522      3760      3761
 -1      1838    8    0    1
 -2       891       962       961      3761      3762      3757
 -1      1839    8    0    1
 -2       892       893       963      3525      3763      3764
 -1      1840    8    0    1
 -2       892       963       962      3764      3765      3760
 -1      1841    8    0    1
 -2       893       894       964      3528      3766      3767
 -1      1842    8    0    1
 -2       893       964       963      3767      3768      3763
 -1      1843    8    0    1
 -2       894       895       965      3531      3769      3770
 -1      1844    8    0    1
 -2       894       965       964      3770      3771      3766
 -1      1845    8    0    1
 -2       895       896       966      3534      3772      3773
 -1      1846    8    0    1
 -2       895       966       965      3773      3774      3769
 -1      1847    8    0    1
 -2       896       897       967      3537      3775      3776
 -1      1848    8    0    1
 -2       896       967       966      3776      3777      3772
 -1      1849    8    0    1
 -2       897       898       968      3540      3778      3779
 -1      1850    8    0    1
 -2       897       968       967      3779      3780      3775
 -1      1851    8    0    1
 -2       898       899       969      3543      3781      3782
 -1      1852    8    0    1
 -2       898       969       968      3782      3783      3778
 -1      1853    8    0    1
 -2       899       900       970      3546      3784      3785
 -1      1854    8    0    1
 -2       899       970       969      3785      3786      3781
 -1      1855    8    0    1
 -2       900       901       971      3549      3787      3788
 -1      1856    8    0    1
 -2       900       971       970      3788      3789      3784
 -1      1857    8    0    1
 -2       901       902       972      3552      3790      3791
 -1      1858    8    0    1
 -2       901       972       971      3791      3792      3787
 -1      1859    8    0    1
 -2       841       910       973      3612      3793      3794
 -1      1860    8    0    1
 -2       924       841       973      3653      3794      3795
 -1      1861    8    0    1
 -2       911       885       974      3585      3796      3797
 -1      1862    8    0    1
 -2       885       958       974      3751      3798      3796
 -1      1863    8    0    1
 -2       909       884       975      3577      3799      3800
 -1      1864    8    0    1
 -2       910       907       976      3625      3801      3802
 -1      1865    8    0    1
 -2       910       976       973      3802      3803      3793
 -1      1866    8    0    1
 -2       887       888       977      3510      3804      3805
 -1      1867    8    0    1
 -2       888       959       977      3753      3806      3804
 -1      1868    8    0    1
 -2       914       913       978      3595      3807      3808
 -1      1869    8    0    1
 -2       957       914       978      3748      3808      3809
 -1      1870    8    0    1
 -2       913       956       978      3747      3810      3807
 -1      1871    8    0    1
 -2       844       846       979      3377      3811      3812
 -1      1872    8    0    1
 -2       915       844       979      3601      3812      3813
 -1      1873    8    0    1
 -2       846       916       979      3632      3814      3811
 -1      1874    8    0    1
 -2       886       887       980      3507      3815      3816
 -1      1875    8    0    1
 -2       886       980       958      3816      3817      3750
 -1      1876    8    0    1
 -2       851       850       981      3402      3818      3819
 -1      1877    8    0    1
 -2       926       851       981      3656      3819      3820
 -1      1878    8    0    1
 -2       850       923       981      3649      3821      3818
 -1      1879    8    0    1
 -2       815       820       903      3640      3822      3555
 -1      1880    8    0    1
 -2       842       839       925      3615      3655      3823
 -1      1881    8    0    1
 -2       848       906       982      3568      3824      3825
 -1      1882    8    0    1
 -2       923       848       982      3650      3825      3826
 -1      1883    8    0    1
 -2       906       955       982      3745      3827      3824
 -1      1884    8    0    1
 -2       781       831       739      3345      3390      3828
 -1      1885    8    0    1
 -2       979       916       983      3814      3829      3830
 -1      1886    8    0    1
 -2       916       957       983      3749      3831      3829
 -1      1887    8    0    1
 -2       956       904       984      3746      3832      3833
 -1      1888    8    0    1
 -2       904       922       984      3643      3834      3832
 -1      1889    8    0    1
 -2       909       975       985      3800      3835      3836
 -1      1890    8    0    1
 -2       909       985       920      3836      3837      3633
 -1      1891    8    0    1
 -2       884       912       986      3588      3838      3839
 -1      1892    8    0    1
 -2       884       986       975      3839      3840      3799
 -1      1893    8    0    1
 -2       911       974       987      3797      3841      3842
 -1      1894    8    0    1
 -2       911       987       912      3842      3843      3589
 -1      1895    8    0    1
 -2       972       902       924      3790      3844      3845
 -1      1896    8    0    1
 -2       887       977       980      3805      3846      3815
 -1      1897    8    0    1
 -2       825       920       922      3635      3847      3644
 -1      1898    8    0    1
 -2       976       907       988      3801      3848      3849
 -1      1899    8    0    1
 -2       907       917       988      3623      3850      3848
 -1      1900    8    0    1
 -2       955       919       989      3743      3851      3852
 -1      1901    8    0    1
 -2       921       842       925      3639      3823      3853
 -1      1902    8    0    1
 -2       847       918       990      3628      3854      3855
 -1      1903    8    0    1
 -2       917       847       990      3624      3855      3856
 -1      1904    8    0    1
 -2       918       954       990      3741      3857      3854
 -1      1905    8    0    1
 -2       919       921       991      3638      3858      3859
 -1      1906    8    0    1
 -2       919       991       989      3859      3860      3851
 -1      1907    8    0    1
 -2       915       979       925      3813      3861      3654
 -1      1908    8    0    1
 -2       902       849       924      3616      3652      3844
 -1      1909    8    0    1
 -2       781       739       908      3828      3580      3647
 -1      1910    8    0    1
 -2       928       927       992      3663      3862      3863
 -1      1911    8    0    1
 -2       929       928       993      3666      3864      3865
 -1      1912    8    0    1
 -2       928       992       993      3863      3866      3864
 -1      1913    8    0    1
 -2       930       929       994      3669      3867      3868
 -1      1914    8    0    1
 -2       929       993       994      3865      3869      3867
 -1      1915    8    0    1
 -2       931       930       995      3672      3870      3871
 -1      1916    8    0    1
 -2       930       994       995      3868      3872      3870
 -1      1917    8    0    1
 -2       932       931       996      3675      3873      3874
 -1      1918    8    0    1
 -2       931       995       996      3871      3875      3873
 -1      1919    8    0    1
 -2       933       932       997      3678      3876      3877
 -1      1920    8    0    1
 -2       932       996       997      3874      3878      3876
 -1      1921    8    0    1
 -2       934       933       998      3681      3879      3880
 -1      1922    8    0    1
 -2       933       997       998      3877      3881      3879
 -1      1923    8    0    1
 -2       935       934       999      3684      3882      3883
 -1      1924    8    0    1
 -2       934       998       999      3880      3884      3882
 -1      1925    8    0    1
 -2       936       935      1000      3687      3885      3886
 -1      1926    8    0    1
 -2       935       999      1000      3883      3887      3885
 -1      1927    8    0    1
 -2       937       936      1001      3690      3888      3889
 -1      1928    8    0    1
 -2       936      1000      1001      3886      3890      3888
 -1      1929    8    0    1
 -2       938       937      1002      3693      3891      3892
 -1      1930    8    0    1
 -2       937      1001      1002      3889      3893      3891
 -1      1931    8    0    1
 -2       939       938      1003      3696      3894      3895
 -1      1932    8    0    1
 -2       938      1002      1003      3892      3896      3894
 -1      1933    8    0    1
 -2       940       939      1004      3699      3897      3898
 -1      1934    8    0    1
 -2       939      1003      1004      3895      3899      3897
 -1      1935    8    0    1
 -2       941       940      1005      3702      3900      3901
 -1      1936    8    0    1
 -2       940      1004      1005      3898      3902      3900
 -1      1937    8    0    1
 -2       942       941      1006      3705      3903      3904
 -1      1938    8    0    1
 -2       941      1005      1006      3901      3905      3903
 -1      1939    8    0    1
 -2       943       942      1007      3708      3906      3907
 -1      1940    8    0    1
 -2       942      1006      1007      3904      3908      3906
 -1      1941    8    0    1
 -2       944       943      1008      3711      3909      3910
 -1      1942    8    0    1
 -2       943      1007      1008      3907      3911      3909
 -1      1943    8    0    1
 -2       945       944      1009      3714      3912      3913
 -1      1944    8    0    1
 -2       944      1008      1009      3910      3914      3912
 -1      1945    8    0    1
 -2       946       945      1010      3717      3915      3916
 -1      1946    8    0    1
 -2       945      1009      1010      3913      3917      3915
 -1      1947    8    0    1
 -2       947       946      1011      3720      3918      3919
 -1      1948    8    0    1
 -2       946      1010      1011      3916      3920      3918
 -1      1949    8    0    1
 -2       948       947      1012      3723      3921      3922
 -1      1950    8    0    1
 -2       947      1011      1012      3919      3923      3921
 -1      1951    8    0    1
 -2       949       948      1013      3726      3924      3925
 -1      1952    8    0    1
 -2       948      1012      1013      3922      3926      3924
 -1      1953    8    0    1
 -2       950       949      1014      3729      3927      3928
 -1      1954    8    0    1
 -2       949      1013      1014      3925      3929      3927
 -1      1955    8    0    1
 -2       951       950      1015      3732      3930      3931
 -1      1956    8    0    1
 -2       950      1014      1015      3928      3932      3930
 -1      1957    8    0    1
 -2       952       951      1016      3735      3933      3934
 -1      1958    8    0    1
 -2       951      1015      1016      3931      3935      3933
 -1      1959    8    0    1
 -2       953       952      1017      3738      3936      3937
 -1      1960    8    0    1
 -2       952      1016      1017      3934      3938      3936
 -1      1961    8    0    1
 -2       959       960      1018      3756      3939      3940
 -1      1962    8    0    1
 -2       962       963      1019      3765      3941      3942
 -1      1963    8    0    1
 -2       963       964      1020      3768      3943      3944
 -1      1964    8    0    1
 -2       963      1020      1019      3944      3945      3941
 -1      1965    8    0    1
 -2       964       965      1021      3771      3946      3947
 -1      1966    8    0    1
 -2       964      1021      1020      3947      3948      3943
 -1      1967    8    0    1
 -2       965       966      1022      3774      3949      3950
 -1      1968    8    0    1
 -2       965      1022      1021      3950      3951      3946
 -1      1969    8    0    1
 -2       966       967      1023      3777      3952      3953
 -1      1970    8    0    1
 -2       966      1023      1022      3953      3954      3949
 -1      1971    8    0    1
 -2       967       968      1024      3780      3955      3956
 -1      1972    8    0    1
 -2       967      1024      1023      3956      3957      3952
 -1      1973    8    0    1
 -2       968       969      1025      3783      3958      3959
 -1      1974    8    0    1
 -2       968      1025      1024      3959      3960      3955
 -1      1975    8    0    1
 -2       969       970      1026      3786      3961      3962
 -1      1976    8    0    1
 -2       969      1026      1025      3962      3963      3958
 -1      1977    8    0    1
 -2       970       971      1027      3789      3964      3965
 -1      1978    8    0    1
 -2       970      1027      1026      3965      3966      3961
 -1      1979    8    0    1
 -2       971       972      1028      3792      3967      3968
 -1      1980    8    0    1
 -2       971      1028      1027      3968      3969      3964
 -1      1981    8    0    1
 -2       980       977      1029      3846      3970      3971
 -1      1982    8    0    1
 -2       961       962      1030      3762      3972      3973
 -1      1983    8    0    1
 -2       962      1019      1030      3942      3974      3972
 -1      1984    8    0    1
 -2       924       973      1031      3795      3975      3976
 -1      1985    8    0    1
 -2       960       961      1032      3759      3977      3978
 -1      1986    8    0    1
 -2      1018       960      1032      3939      3978      3979
 -1      1987    8    0    1
 -2       961      1030      1032      3973      3980      3977
 -1      1988    8    0    1
 -2       974       958      1033      3798      3981      3982
 -1      1989    8    0    1
 -2       925       979       983      3861      3830      3983
 -1      1990    8    0    1
 -2       921       925      1034      3853      3984      3985
 -1      1991    8    0    1
 -2       991       921      1034      3858      3985      3986
 -1      1992    8    0    1
 -2       925       983      1034      3983      3987      3984
 -1      1993    8    0    1
 -2       958       980      1035      3817      3988      3989
 -1      1994    8    0    1
 -2       980      1029      1035      3971      3990      3988
 -1      1995    8    0    1
 -2       973       976      1036      3803      3991      3992
 -1      1996    8    0    1
 -2       977       959      1037      3806      3993      3994
 -1      1997    8    0    1
 -2       977      1037      1029      3994      3995      3970
 -1      1998    8    0    1
 -2       955       989      1038      3852      3996      3997
 -1      1999    8    0    1
 -2       955      1038       982      3997      3998      3827
 -1      2000    8    0    1
 -2       927       926      1039      3660      3999      4000
 -1      2001    8    0    1
 -2       927      1039       992      4000      4001      3862
 -1      2002    8    0    1
 -2       922       920      1040      3847      4002      4003
 -1      2003    8    0    1
 -2       922      1040       984      4003      4004      3834
 -1      2004    8    0    1
 -2      1031       973      1036      3975      3992      4005
 -1      2005    8    0    1
 -2       983       957      1041      3831      4006      4007
 -1      2006    8    0    1
 -2       983      1041      1034      4007      4008      3987
 -1      2007    8    0    1
 -2       989       991      1042      3860      4009      4010
 -1      2008    8    0    1
 -2      1033       958      1035      3981      3989      4011
 -1      2009    8    0    1
 -2       954       953      1043      3742      4012      4013
 -1      2010    8    0    1
 -2       990       954      1043      3857      4013      4014
 -1      2011    8    0    1
 -2       953      1017      1043      3937      4015      4012
 -1      2012    8    0    1
 -2       985       975      1044      3835      4016      4017
 -1      2013    8    0    1
 -2       956       984      1045      3833      4018      4019
 -1      2014    8    0    1
 -2       986       912       987      3838      3843      4020
 -1      2015    8    0    1
 -2       987       974      1046      3841      4021      4022
 -1      2016    8    0    1
 -2       974      1033      1046      3982      4023      4021
 -1      2017    8    0    1
 -2       957       978      1047      3809      4024      4025
 -1      2018    8    0    1
 -2       957      1047      1041      4025      4026      4006
 -1      2019    8    0    1
 -2       924      1031       972      3976      4027      3845
 -1      2020    8    0    1
 -2      1028       972      1031      3967      4027      4028
 -1      2021    8    0    1
 -2       920       985      1040      3837      4029      4002
 -1      2022    8    0    1
 -2       923       982      1048      3826      4030      4031
 -1      2023    8    0    1
 -2       981       923      1048      3821      4031      4032
 -1      2024    8    0    1
 -2       982      1038      1048      3998      4033      4030
 -1      2025    8    0    1
 -2       989      1042      1049      4010      4034      4035
 -1      2026    8    0    1
 -2       989      1049      1038      4035      4036      3996
 -1      2027    8    0    1
 -2      1037       959      1018      3993      3940      4037
 -1      2028    8    0    1
 -2      1036       976      1050      3991      4038      4039
 -1      2029    8    0    1
 -2       976       988      1050      3849      4040      4038
 -1      2030    8    0    1
 -2       975       986      1051      3840      4041      4042
 -1      2031    8    0    1
 -2       975      1051      1044      4042      4043      4016
 -1      2032    8    0    1
 -2      1028      1031      1036      4028      4005      4044
 -1      2033    8    0    1
 -2       917       990      1043      3856      4014      4045
 -1      2034    8    0    1
 -2       978       956      1052      3810      4046      4047
 -1      2035    8    0    1
 -2      1047       978      1052      4024      4047      4048
 -1      2036    8    0    1
 -2       956      1045      1052      4019      4049      4046
 -1      2037    8    0    1
 -2       926       981      1053      3820      4050      4051
 -1      2038    8    0    1
 -2      1039       926      1053      3999      4051      4052
 -1      2039    8    0    1
 -2       981      1048      1053      4032      4053      4050
 -1      2040    8    0    1
 -2       820       883       903      3641      3617      3822
 -1      2041    8    0    1
 -2       917      1043       988      4045      4054      3850
 -1      2042    8    0    1
 -2      1042       991      1041      4009      4055      4056
 -1      2043    8    0    1
 -2      1033      1035      1054      4011      4057      4058
 -1      2044    8    0    1
 -2       993       992      1055      3866      4059      4060
 -1      2045    8    0    1
 -2       985      1044      1056      4017      4061      4062
 -1      2046    8    0    1
 -2       985      1056      1040      4062      4063      4029
 -1      2047    8    0    1
 -2       994       993      1057      3869      4064      4065
 -1      2048    8    0    1
 -2       993      1055      1057      4060      4066      4064
 -1      2049    8    0    1
 -2       995       994      1058      3872      4067      4068
 -1      2050    8    0    1
 -2       994      1057      1058      4065      4069      4067
 -1      2051    8    0    1
 -2       996       995      1059      3875      4070      4071
 -1      2052    8    0    1
 -2       995      1058      1059      4068      4072      4070
 -1      2053    8    0    1
 -2       997       996      1060      3878      4073      4074
 -1      2054    8    0    1
 -2       996      1059      1060      4071      4075      4073
 -1      2055    8    0    1
 -2       998       997      1061      3881      4076      4077
 -1      2056    8    0    1
 -2       997      1060      1061      4074      4078      4076
 -1      2057    8    0    1
 -2       999       998      1062      3884      4079      4080
 -1      2058    8    0    1
 -2       998      1061      1062      4077      4081      4079
 -1      2059    8    0    1
 -2      1000       999      1063      3887      4082      4083
 -1      2060    8    0    1
 -2       999      1062      1063      4080      4084      4082
 -1      2061    8    0    1
 -2      1001      1000      1064      3890      4085      4086
 -1      2062    8    0    1
 -2      1000      1063      1064      4083      4087      4085
 -1      2063    8    0    1
 -2      1002      1001      1065      3893      4088      4089
 -1      2064    8    0    1
 -2      1001      1064      1065      4086      4090      4088
 -1      2065    8    0    1
 -2      1003      1002      1066      3896      4091      4092
 -1      2066    8    0    1
 -2      1002      1065      1066      4089      4093      4091
 -1      2067    8    0    1
 -2      1004      1003      1067      3899      4094      4095
 -1      2068    8    0    1
 -2      1003      1066      1067      4092      4096      4094
 -1      2069    8    0    1
 -2      1005      1004      1068      3902      4097      4098
 -1      2070    8    0    1
 -2      1004      1067      1068      4095      4099      4097
 -1      2071    8    0    1
 -2      1006      1005      1069      3905      4100      4101
 -1      2072    8    0    1
 -2      1005      1068      1069      4098      4102      4100
 -1      2073    8    0    1
 -2      1007      1006      1070      3908      4103      4104
 -1      2074    8    0    1
 -2      1006      1069      1070      4101      4105      4103
 -1      2075    8    0    1
 -2      1008      1007      1071      3911      4106      4107
 -1      2076    8    0    1
 -2      1007      1070      1071      4104      4108      4106
 -1      2077    8    0    1
 -2      1009      1008      1072      3914      4109      4110
 -1      2078    8    0    1
 -2      1008      1071      1072      4107      4111      4109
 -1      2079    8    0    1
 -2      1010      1009      1073      3917      4112      4113
 -1      2080    8    0    1
 -2      1009      1072      1073      4110      4114      4112
 -1      2081    8    0    1
 -2      1011      1010      1074      3920      4115      4116
 -1      2082    8    0    1
 -2      1010      1073      1074      4113      4117      4115
 -1      2083    8    0    1
 -2      1012      1011      1075      3923      4118      4119
 -1      2084    8    0    1
 -2      1011      1074      1075      4116      4120      4118
 -1      2085    8    0    1
 -2      1013      1012      1076      3926      4121      4122
 -1      2086    8    0    1
 -2      1012      1075      1076      4119      4123      4121
 -1      2087    8    0    1
 -2      1014      1013      1077      3929      4124      4125
 -1      2088    8    0    1
 -2      1013      1076      1077      4122      4126      4124
 -1      2089    8    0    1
 -2      1015      1014      1078      3932      4127      4128
 -1      2090    8    0    1
 -2      1014      1077      1078      4125      4129      4127
 -1      2091    8    0    1
 -2      1016      1015      1079      3935      4130      4131
 -1      2092    8    0    1
 -2      1015      1078      1079      4128      4132      4130
 -1      2093    8    0    1
 -2      1043      1017       988      4015      4133      4054
 -1      2094    8    0    1
 -2      1041       991      1034      4055      3986      4008
 -1      2095    8    0    1
 -2       986       987      1080      4020      4134      4135
 -1      2096    8    0    1
 -2       987      1046      1080      4022      4136      4134
 -1      2097    8    0    1
 -2      1019      1020      1081      3945      4137      4138
 -1      2098    8    0    1
 -2      1022      1023      1082      3954      4139      4140
 -1      2099    8    0    1
 -2      1023      1024      1083      3957      4141      4142
 -1      2100    8    0    1
 -2      1023      1083      1082      4142      4143      4139
 -1      2101    8    0    1
 -2      1024      1025      1084      3960      4144      4145
 -1      2102    8    0    1
 -2      1024      1084      1083      4145      4146      4141
 -1      2103    8    0    1
 -2      1025      1026      1085      3963      4147      4148
 -1      2104    8    0    1
 -2      1025      1085      1084      4148      4149      4144
 -1      2105    8    0    1
 -2      1026      1027      1086      3966      4150      4151
 -1      2106    8    0    1
 -2      1026      1086      1085      4151      4152      4147
 -1      2107    8    0    1
 -2      1027      1028      1087      3969      4153      4154
 -1      2108    8    0    1
 -2      1027      1087      1086      4154      4155      4150
 -1      2109    8    0    1
 -2      1020      1021      1088      3948      4156      4157
 -1      2110    8    0    1
 -2      1020      1088      1081      4157      4158      4137
 -1      2111    8    0    1
 -2      1042      1041      1089      4056      4159      4160
 -1      2112    8    0    1
 -2      1041      1047      1089      4026      4161      4159
 -1      2113    8    0    1
 -2      1035      1029      1090      3990      4162      4163
 -1      2114    8    0    1
 -2      1035      1090      1054      4163      4164      4057
 -1      2115    8    0    1
 -2      1028      1036      1087      4044      4165      4153
 -1      2116    8    0    1
 -2      1029      1037      1091      3995      4166      4167
 -1      2117    8    0    1
 -2      1029      1091      1090      4167      4168      4162
 -1      2118    8    0    1
 -2       984      1040      1092      4004      4169      4170
 -1      2119    8    0    1
 -2      1040      1056      1092      4063      4171      4169
 -1      2120    8    0    1
 -2      1037      1018      1093      4037      4172      4173
 -1      2121    8    0    1
 -2      1037      1093      1091      4173      4174      4166
 -1      2122    8    0    1
 -2      1030      1019      1094      3974      4175      4176
 -1      2123    8    0    1
 -2      1019      1081      1094      4138      4177      4175
 -1      2124    8    0    1
 -2      1021      1022      1095      3951      4178      4179
 -1      2125    8    0    1
 -2      1022      1082      1095      4140      4180      4178
 -1      2126    8    0    1
 -2       992      1039      1096      4001      4181      4182
 -1      2127    8    0    1
 -2       992      1096      1055      4182      4183      4059
 -1      2128    8    0    1
 -2       988      1017      1097      4133      4184      4185
 -1      2129    8    0    1
 -2      1050       988      1097      4040      4185      4186
 -1      2130    8    0    1
 -2      1017      1016      1097      3938      4187      4184
 -1      2131    8    0    1
 -2      1033      1054      1098      4058      4188      4189
 -1      2132    8    0    1
 -2      1033      1098      1046      4189      4190      4023
 -1      2133    8    0    1
 -2      1045       984      1092      4018      4170      4191
 -1      2134    8    0    1
 -2      1039      1053      1049      4052      4192      4193
 -1      2135    8    0    1
 -2      1042      1089      1049      4160      4194      4034
 -1      2136    8    0    1
 -2      1045      1092      1099      4191      4195      4196
 -1      2137    8    0    1
 -2      1088      1021      1095      4156      4179      4197
 -1      2138    8    0    1
 -2       986      1080      1051      4135      4198      4041
 -1      2139    8    0    1
 -2      1087      1036      1050      4165      4039      4199
 -1      2140    8    0    1
 -2      1016      1079      1097      4131      4200      4187
 -1      2141    8    0    1
 -2      1018      1032      1100      3979      4201      4202
 -1      2142    8    0    1
 -2      1018      1100      1093      4202      4203      4172
 -1      2143    8    0    1
 -2      1039      1049      1096      4193      4204      4181
 -1      2144    8    0    1
 -2      1048      1038      1053      4033      4205      4053
 -1      2145    8    0    1
 -2      1044      1051      1101      4043      4206      4207
 -1      2146    8    0    1
 -2      1052      1045      1102      4049      4208      4209
 -1      2147    8    0    1
 -2      1045      1099      1102      4196      4210      4208
 -1      2148    8    0    1
 -2      1032      1030      1103      3980      4211      4212
 -1      2149    8    0    1
 -2      1030      1094      1103      4176      4213      4211
 -1      2150    8    0    1
 -2      1056      1044      1104      4061      4214      4215
 -1      2151    8    0    1
 -2      1044      1101      1104      4207      4216      4214
 -1      2152    8    0    1
 -2      1053      1038      1049      4205      4036      4192
 -1      2153    8    0    1
 -2      1091      1093      1105      4174      4217      4218
 -1      2154    8    0    1
 -2      1057      1055      1102      4066      4219      4220
 -1      2155    8    0    1
 -2      1058      1057      1099      4069      4221      4222
 -1      2156    8    0    1
 -2      1060      1059      1106      4075      4223      4224
 -1      2157    8    0    1
 -2      1061      1060      1101      4078      4225      4226
 -1      2158    8    0    1
 -2      1063      1062      1107      4084      4227      4228
 -1      2159    8    0    1
 -2      1064      1063      1098      4087      4229      4230
 -1      2160    8    0    1
 -2      1065      1064      1054      4090      4231      4232
 -1      2161    8    0    1
 -2      1066      1065      1090      4093      4233      4234
 -1      2162    8    0    1
 -2      1067      1066      1105      4096      4235      4236
 -1      2163    8    0    1
 -2      1068      1067      1108      4099      4237      4238
 -1      2164    8    0    1
 -2      1067      1105      1108      4236      4239      4237
 -1      2165    8    0    1
 -2      1069      1068      1109      4102      4240      4241
 -1      2166    8    0    1
 -2      1068      1108      1109      4238      4242      4240
 -1      2167    8    0    1
 -2      1070      1069      1110      4105      4243      4244
 -1      2168    8    0    1
 -2      1069      1109      1110      4241      4245      4243
 -1      2169    8    0    1
 -2      1071      1070      1111      4108      4246      4247
 -1      2170    8    0    1
 -2      1070      1110      1111      4244      4248      4246
 -1      2171    8    0    1
 -2      1072      1071      1112      4111      4249      4250
 -1      2172    8    0    1
 -2      1071      1111      1112      4247      4251      4249
 -1      2173    8    0    1
 -2      1073      1072      1113      4114      4252      4253
 -1      2174    8    0    1
 -2      1072      1112      1113      4250      4254      4252
 -1      2175    8    0    1
 -2      1074      1073      1114      4117      4255      4256
 -1      2176    8    0    1
 -2      1073      1113      1114      4253      4257      4255
 -1      2177    8    0    1
 -2      1075      1074      1115      4120      4258      4259
 -1      2178    8    0    1
 -2      1074      1114      1115      4256      4260      4258
 -1      2179    8    0    1
 -2      1076      1075      1116      4123      4261      4262
 -1      2180    8    0    1
 -2      1075      1115      1116      4259      4263      4261
 -1      2181    8    0    1
 -2      1077      1076      1117      4126      4264      4265
 -1      2182    8    0    1
 -2      1076      1116      1117      4262      4266      4264
 -1      2183    8    0    1
 -2      1078      1077      1118      4129      4267      4268
 -1      2184    8    0    1
 -2      1077      1117      1118      4265      4269      4267
 -1      2185    8    0    1
 -2      1083      1084      1116      4146      4270      4271
 -1      2186    8    0    1
 -2      1049      1089      1096      4194      4272      4204
 -1      2187    8    0    1
 -2      1099      1092      1119      4195      4273      4274
 -1      2188    8    0    1
 -2      1058      1099      1119      4222      4274      4275
 -1      2189    8    0    1
 -2      1092      1056      1119      4171      4276      4273
 -1      2190    8    0    1
 -2      1088      1095      1113      4197      4277      4278
 -1      2191    8    0    1
 -2      1099      1057      1102      4221      4220      4210
 -1      2192    8    0    1
 -2      1055      1096      1089      4183      4272      4279
 -1      2193    8    0    1
 -2      1082      1083      1115      4143      4280      4281
 -1      2194    8    0    1
 -2      1085      1086      1118      4152      4282      4283
 -1      2195    8    0    1
 -2      1086      1087      1120      4155      4284      4285
 -1      2196    8    0    1
 -2      1118      1086      1120      4282      4285      4286
 -1      2197    8    0    1
 -2      1087      1050      1120      4199      4287      4284
 -1      2198    8    0    1
 -2      1081      1088      1112      4158      4288      4289
 -1      2199    8    0    1
 -2      1054      1064      1098      4231      4230      4188
 -1      2200    8    0    1
 -2      1054      1090      1065      4164      4233      4232
 -1      2201    8    0    1
 -2      1055      1089      1102      4279      4290      4219
 -1      2202    8    0    1
 -2      1101      1051      1121      4206      4291      4292
 -1      2203    8    0    1
 -2      1051      1080      1121      4198      4293      4291
 -1      2204    8    0    1
 -2      1080      1046      1122      4136      4294      4295
 -1      2205    8    0    1
 -2      1121      1080      1122      4293      4295      4296
 -1      2206    8    0    1
 -2      1046      1098      1122      4190      4297      4294
 -1      2207    8    0    1
 -2      1094      1081      1111      4177      4298      4299
 -1      2208    8    0    1
 -2      1050      1097      1120      4186      4300      4287
 -1      2209    8    0    1
 -2      1097      1079      1120      4200      4301      4300
 -1      2210    8    0    1
 -2      1095      1082      1114      4180      4302      4303
 -1      2211    8    0    1
 -2      1084      1085      1117      4149      4304      4305
 -1      2212    8    0    1
 -2      1061      1101      1121      4226      4292      4306
 -1      2213    8    0    1
 -2      1105      1066      1091      4235      4307      4218
 -1      2214    8    0    1
 -2      1112      1088      1113      4288      4278      4254
 -1      2215    8    0    1
 -2      1113      1095      1114      4277      4303      4257
 -1      2216    8    0    1
 -2      1059      1058      1119      4072      4275      4308
 -1      2217    8    0    1
 -2      1062      1061      1121      4081      4306      4309
 -1      2218    8    0    1
 -2      1066      1090      1091      4234      4168      4307
 -1      2219    8    0    1
 -2      1083      1116      1115      4271      4263      4280
 -1      2220    8    0    1
 -2      1059      1119      1106      4308      4310      4223
 -1      2221    8    0    1
 -2      1116      1084      1117      4270      4305      4266
 -1      2222    8    0    1
 -2      1079      1078      1118      4132      4268      4311
 -1      2223    8    0    1
 -2      1094      1111      1110      4299      4248      4312
 -1      2224    8    0    1
 -2      1082      1115      1114      4281      4260      4302
 -1      2225    8    0    1
 -2      1085      1118      1117      4283      4269      4304
 -1      2226    8    0    1
 -2      1105      1093      1108      4217      4313      4239
 -1      2227    8    0    1
 -2      1089      1047      1102      4161      4314      4290
 -1      2228    8    0    1
 -2      1100      1032      1103      4201      4212      4315
 -1      2229    8    0    1
 -2      1101      1060      1106      4225      4224      4316
 -1      2230    8    0    1
 -2      1111      1081      1112      4298      4289      4251
 -1      2231    8    0    1
 -2      1103      1094      1110      4213      4312      4317
 -1      2232    8    0    1
 -2      1104      1101      1106      4216      4316      4318
 -1      2233    8    0    1
 -2      1108      1093      1100      4313      4203      4319
 -1      2234    8    0    1
 -2      1063      1107      1098      4228      4320      4229
 -1      2235    8    0    1
 -2      1100      1103      1109      4315      4321      4322
 -1      2236    8    0    1
 -2      1109      1108      1100      4242      4319      4322
 -1      2237    8    0    1
 -2      1110      1109      1103      4245      4321      4317
 -1      2238    8    0    1
 -2      1079      1118      1120      4311      4286      4301
 -1      2239    8    0    1
 -2      1119      1056      1104      4276      4215      4323
 -1      2240    8    0    1
 -2      1119      1104      1106      4323      4318      4310
 -1      2241    8    0    1
 -2      1107      1062      1121      4227      4309      4324
 -1      2242    8    0    1
 -2      1047      1052      1102      4048      4209      4314
 -1      2243    8    0    1
 -2      1107      1121      1122      4324      4296      4325
 -1      2244    8    0    1
 -2      1122      1098      1107      4297      4320      4325
 -3
    1PSTEP                         1           1           1          
  100CL  101 1.000000000        4325                     0    1           1
 -4  DISP        4    1
 -5  D1          1    2    1    0
 -5  D2          1    2    2    0
 -5  D3          1    2    3    0
 -5  ALL         1    2    0    0    1ALL
 -1         1 1.32581E-02-3.74179E-04-1.09071E-13
 -1         2 1.44819E-02 4.63896E-04-1.13641E-13
 -1         3 1.51007E-02 8.18483E-04-1.41424E-13
 -1         4 1.42566E-02 2.36231E-04-1.47142E-13
 -1         5 0.00000E+00 0.00000E+00 0.00000E+00
 -1         6 0.00000E+00 0.00000E+00 0.00000E+00
 -1         7 0.00000E+00 0.00000E+00 0.00000E+00
 -1         8 0.00000E+00 0.00000E+00 0.00000E+00
 -1         9 0.00000E+00 0.00000E+00 0.00000E+00
 -1        10 0.00000E+00 0.00000E+00 0.00000E+00
 -1        11 0.00000E+00 0.00000E+00 0.00000E+00
 -1        12 0.00000E+00 0.00000E+00 0.00000E+00
 -1        13 0.00000E+00 0.00000E+00 0.00000E+00
 -1        14 0.00000E+00 0.00000E+00 0.00000E+00
 -1        15 0.00000E+00 0.00000E+00 0.00000E+00
 -1        16 0.00000E+00 0.00000E+00 0.00000E+00
 -1        17 0.00000E+00 0.00000E+00 0.00000E+00
 -1        18 0.00000E+00 0.00000E+00 0.00000E+00
 -1        19 0.00000E+00 0.00000E+00 0.00000E+00
 -1        20 0.00000E+00 0.00000E+00 0.00000E+00
 -1        21 0.00000E+00 0.00000E+00 0.00000E+00
 -1        22 0.00000E+00 0.00000E+00 0.00000E+00
 -1        23 4.11413E-04-2.60746E-04 4.43642E-17
 -1        24 7.03428E-04-4.01005E-04-1.04222E-16
 -1        25 9.73529E-04-4.98398E-04-4.38953E-16
 -1        26 1.23805E-03-5.67164E-04-9.56063E-16
 -1        27 1.50162E-03-6.16448E-04-1.65120E-15
 -1        28 1.76632E-03-6.51637E-04-2.51883E-15
 -1        29 2.03312E-03-6.76442E-04-3.55678E-15
 -1        30 2.30236E-03-6.93561E-04-4.75973E-15
 -1        31 2.57411E-03-7.05015E-04-6.12427E-15
 -1        32 2.84822E-03-7.12330E-04-7.64412E-15
 -1        33 3.12445E-03-7.16660E-04-9.31315E-15
 -1        34 3.40253E-03-7.18863E-04-1.11244E-14
 -1        35 3.68217E-03-7.19570E-04-1.30766E-14
 -1        36 3.96310E-03-7.19228E-04-1.51625E-14
 -1        37 4.24508E-03-7.18141E-04-1.73728E-14
 -1        38 4.52791E-03-7.16503E-04-1.97046E-14
 -1        39 4.81143E-03-7.14422E-04-2.21563E-14
 -1        40 5.09554E-03-7.11938E-04-2.47245E-14
 -1        41 5.38019E-03-7.09046E-04-2.74001E-14
 -1        42 5.66540E-03-7.05712E-04-3.01795E-14
 -1        43 5.95124E-03-7.01887E-04-3.30609E-14
 -1        44 6.23788E-03-6.97529E-04-3.60451E-14
 -1        45 6.52557E-03-6.92625E-04-3.91331E-14
 -1        46 6.81466E-03-6.87222E-04-4.23253E-14
 -1        47 7.10559E-03-6.81464E-04-4.56159E-14
 -1        48 7.39894E-03-6.75639E-04-4.90047E-14
 -1        49 7.69536E-03-6.70244E-04-5.24832E-14
 -1        50 7.99557E-03-6.66045E-04-5.60400E-14
 -1        51 8.30031E-03-6.64152E-04-5.96715E-14
 -1        52 8.61015E-03-6.66069E-04-6.33667E-14
 -1        53 8.92539E-03-6.73701E-04-6.71161E-14
 -1        54 9.24569E-03-6.89257E-04-7.09138E-14
 -1        55 9.56979E-03-7.14978E-04-7.47703E-14
 -1        56 9.89510E-03-7.52586E-04-7.86839E-14
 -1        57 1.02175E-02-8.02410E-04-8.26455E-14
 -1        58 1.05316E-02-8.62243E-04-8.66452E-14
 -1        59 1.08314E-02-9.26265E-04-9.06820E-14
 -1        60 1.11122E-02-9.84674E-04-9.47537E-14
 -1        61 1.13726E-02-1.02482E-03-9.88689E-14
 -1        62 1.16159E-02-1.03415E-03-1.03049E-13
 -1        63 1.18500E-02-1.00412E-03-1.07287E-13
 -1        64 1.20847E-02-9.33165E-04-1.11573E-13
 -1        65 1.23285E-02-8.26870E-04-1.15918E-13
 -1        66 1.25854E-02-6.95256E-04-1.20319E-13
 -1        67 1.28550E-02-5.48797E-04-1.24772E-13
 -1        68 1.31335E-02-3.95260E-04-1.29254E-13
 -1        69 1.34165E-02-2.38569E-04-1.33760E-13
 -1        70 1.37008E-02-7.95834E-05-1.38279E-13
 -1        71 1.39855E-02 8.17899E-05-1.42817E-13
 -1        72 4.13856E-04 2.61451E-04 7.23366E-17
 -1        73 7.03248E-04 4.03708E-04-3.06355E-17
 -1        74 9.74063E-04 5.00167E-04-3.03336E-16
 -1        75 1.23888E-03 5.68873E-04-7.44891E-16
 -1        76 1.50258E-03 6.18207E-04-1.35439E-15
 -1        77 1.76735E-03 6.53488E-04-2.13030E-15
 -1        78 2.03418E-03 6.78404E-04-3.06874E-15
 -1        79 2.30345E-03 6.95646E-04-4.16702E-15
 -1        80 2.57521E-03 7.07228E-04-5.42251E-15
 -1        81 2.84932E-03 7.14675E-04-6.83261E-15
 -1        82 3.12556E-03 7.19138E-04-8.38923E-15
 -1        83 3.40364E-03 7.21476E-04-1.00894E-14
 -1        84 3.68328E-03 7.22317E-04-1.19312E-14
 -1        85 3.96421E-03 7.22109E-04-1.39154E-14
 -1        86 4.24617E-03 7.21154E-04-1.60435E-14
 -1        87 4.52898E-03 7.19643E-04-1.83059E-14
 -1        88 4.81248E-03 7.17679E-04-2.06969E-14
 -1        89 5.09655E-03 7.15297E-04-2.32096E-14
 -1        90 5.38114E-03 7.12480E-04-2.58310E-14
 -1        91 5.66628E-03 7.09174E-04-2.85487E-14
 -1        92 5.95204E-03 7.05303E-04-3.13616E-14
 -1        93 6.23859E-03 7.00782E-04-3.42757E-14
 -1        94 6.52621E-03 6.95538E-04-3.72889E-14
 -1        95 6.81531E-03 6.89532E-04-4.03939E-14
 -1        96 7.10644E-03 6.82795E-04-4.35827E-14
 -1        97 7.40039E-03 6.75481E-04-4.68635E-14
 -1        98 7.69816E-03 6.67935E-04-5.02282E-14
 -1        99 8.00106E-03 6.60806E-04-5.36701E-14
 -1       100 8.31078E-03 6.55203E-04-5.71742E-14
 -1       101 8.62935E-03 6.52913E-04-6.07463E-14
 -1       102 8.95915E-03 6.56712E-04-6.43829E-14
 -1       103 9.30269E-03 6.70731E-04-6.80854E-14
 -1       104 9.66208E-03 7.00819E-04-7.18425E-14
 -1       105 1.00381E-02 7.54657E-04-7.56446E-14
 -1       106 1.04282E-02 8.41059E-04-7.95053E-14
 -1       107 1.08246E-02 9.67503E-04-8.34202E-14
 -1       108 1.12122E-02 1.13487E-03-8.73805E-14
 -1       109 1.15708E-02 1.32987E-03-9.13957E-14
 -1       110 1.18827E-02 1.51977E-03-9.54587E-14
 -1       111 1.21458E-02 1.65852E-03-9.95544E-14
 -1       112 1.23817E-02 1.70815E-03-1.03682E-13
 -1       113 1.26252E-02 1.66206E-03-1.07835E-13
 -1       114 1.29031E-02 1.54856E-03-1.12019E-13
 -1       115 1.32195E-02 1.41049E-03-1.16232E-13
 -1       116 1.35592E-02 1.28120E-03-1.20456E-13
 -1       117 1.39015E-02 1.17420E-03-1.24691E-13
 -1       118 1.42304E-02 1.08602E-03-1.28940E-13
 -1       119 1.45390E-02 1.00403E-03-1.33178E-13
 -1       120 1.48302E-02 9.14602E-04-1.37409E-13
 -1       121 1.52047E-02 7.33324E-04-1.41787E-13
 -1       122 1.53210E-02 6.54766E-04-1.42171E-13
 -1       123 1.54466E-02 5.95140E-04-1.42548E-13
 -1       124 1.55690E-02 5.62990E-04-1.42957E-13
 -1       125 1.56709E-02 5.61530E-04-1.43381E-13
 -1       126 1.57333E-02 5.86687E-04-1.43821E-13
 -1       127 1.57437E-02 6.28985E-04-1.44263E-13
 -1       128 1.56945E-02 6.72918E-04-1.44673E-13
 -1       129 1.55902E-02 7.02969E-04-1.45050E-13
 -1       130 1.54438E-02 7.08231E-04-1.45375E-13
 -1       131 1.52724E-02 6.84934E-04-1.45685E-13
 -1       132 1.50946E-02 6.36859E-04-1.45973E-13
 -1       133 1.49148E-02 5.68938E-04-1.46245E-13
 -1       134 1.47414E-02 4.89453E-04-1.46495E-13
 -1       135 1.45751E-02 4.04793E-04-1.46717E-13
 -1       136 1.44137E-02 3.19505E-04-1.46933E-13
 -1       137 1.44331E-02 6.74277E-04-1.13308E-13
 -1       138 1.42832E-02 8.55799E-04-1.12566E-13
 -1       139 1.40060E-02 1.03678E-03-1.11285E-13
 -1       140 1.36566E-02 1.17872E-03-1.09726E-13
 -1       141 1.32142E-02 1.28936E-03-1.07801E-13
 -1       142 1.27445E-02 1.34799E-03-1.05802E-13
 -1       143 1.22271E-02 1.35576E-03-1.03620E-13
 -1       144 1.17441E-02 1.31214E-03-1.01621E-13
 -1       145 1.12474E-02 1.21438E-03-9.95725E-14
 -1       146 1.07763E-02 1.06447E-03-9.76404E-14
 -1       147 1.04031E-02 8.92071E-04-9.61275E-14
 -1       148 1.01043E-02 6.90477E-04-9.49437E-14
 -1       149 9.93922E-03 5.09493E-04-9.43128E-14
 -1       150 9.86058E-03 3.22096E-04-9.40589E-14
 -1       151 9.87621E-03 1.46613E-04-9.42153E-14
 -1       152 1.00059E-02-4.33916E-05-9.48937E-14
 -1       153 1.02136E-02-1.96817E-04-9.58972E-14
 -1       154 1.05121E-02-3.31800E-04-9.72903E-14
 -1       155 1.08727E-02-4.35334E-04-9.89239E-14
 -1       156 1.12963E-02-5.07202E-04-1.00798E-13
 -1       157 1.17997E-02-5.42159E-04-1.03000E-13
 -1       158 1.23004E-02-5.29234E-04-1.05131E-13
 -1       159 1.28004E-02-4.71405E-04-1.07207E-13
 -1       160 1.36560E-02-2.47529E-04-1.10652E-13
 -1       161 1.39921E-02-9.32555E-05-1.11948E-13
 -1       162 1.42512E-02 8.19989E-05-1.12908E-13
 -1       163 1.44156E-02 2.67646E-04-1.13480E-13
 -1       164 2.40420E-04-1.25515E-04-3.87873E-17
 -1       165 2.25276E-04-9.46131E-05-6.42085E-17
 -1       166 2.19528E-04-7.27782E-05-7.76729E-17
 -1       167 2.16710E-04-5.51013E-05-8.48253E-17
 -1       168 2.15213E-04-3.99633E-05-8.80508E-17
 -1       169 2.14375E-04-2.59129E-05-8.94975E-17
 -1       170 2.13955E-04-1.26429E-05-8.99176E-17
 -1       171 2.13832E-04 2.72840E-07-8.96195E-17
 -1       172 2.13974E-04 1.32009E-05-8.83286E-17
 -1       173 2.14416E-04 2.65104E-05-8.60484E-17
 -1       174 2.15263E-04 4.03894E-05-8.22808E-17
 -1       175 2.16815E-04 5.59094E-05-7.60534E-17
 -1       176 2.19676E-04 7.38124E-05-6.63057E-17
 -1       177 2.25453E-04 9.60153E-05-4.96158E-17
 -1       178 2.39350E-04 1.27596E-04-2.04067E-17
 -1       179 2.97730E-04 1.85505E-04 1.05947E-17
 -1       180 4.68662E-04-2.63560E-04-1.03714E-16
 -1       181 7.66829E-04-3.82166E-04-3.81097E-16
 -1       182 1.05070E-03-4.65063E-04-8.31559E-16
 -1       183 1.32812E-03-5.23859E-04-1.45497E-15
 -1       184 1.60274E-03-5.65576E-04-2.24925E-15
 -1       185 1.87665E-03-5.94905E-04-3.21087E-15
 -1       186 2.15098E-03-6.15149E-04-4.33680E-15
 -1       187 2.42632E-03-6.28734E-04-5.62282E-15
 -1       188 2.70293E-03-6.37471E-04-7.06425E-15
 -1       189 2.98087E-03-6.42721E-04-8.65634E-15
 -1       190 3.26008E-03-6.45496E-04-1.03917E-14
 -1       191 3.54047E-03-6.46541E-04-1.22664E-14
 -1       192 3.82188E-03-6.46388E-04-1.42780E-14
 -1       193 4.10416E-03-6.45404E-04-1.64180E-14
 -1       194 4.38720E-03-6.43826E-04-1.86825E-14
 -1       195 4.67087E-03-6.41793E-04-2.10668E-14
 -1       196 4.95509E-03-6.39366E-04-2.35691E-14
 -1       197 5.23984E-03-6.36547E-04-2.61837E-14
 -1       198 5.52510E-03-6.33302E-04-2.89038E-14
 -1       199 5.81094E-03-6.29569E-04-3.17249E-14
 -1       200 6.09745E-03-6.25285E-04-3.46497E-14
 -1       201 6.38481E-03-6.20397E-04-3.76769E-14
 -1       202 6.67327E-03-6.14896E-04-4.08091E-14
 -1       203 6.96313E-03-6.08850E-04-4.40406E-14
 -1       204 7.25477E-03-6.02442E-04-4.73682E-14
 -1       205 7.54867E-03-5.96037E-04-5.07891E-14
 -1       206 7.84530E-03-5.90242E-04-5.42912E-14
 -1       207 8.14520E-03-5.85988E-04-5.78710E-14
 -1       208 8.44881E-03-5.84602E-04-6.15169E-14
 -1       209 8.75643E-03-5.87860E-04-6.52261E-14
 -1       210 9.06802E-03-5.97964E-04-6.89907E-14
 -1       211 9.38308E-03-6.17388E-04-7.28049E-14
 -1       212 9.70036E-03-6.48481E-04-7.66766E-14
 -1       213 1.00178E-02-6.92738E-04-8.06019E-14
 -1       214 1.03323E-02-7.49690E-04-8.45701E-14
 -1       215 1.06402E-02-8.15590E-04-8.85820E-14
 -1       216 1.09382E-02-8.82394E-04-9.26337E-14
 -1       217 1.12239E-02-9.37916E-04-9.67210E-14
 -1       218 1.14977E-02-9.67971E-04-1.00861E-13
 -1       219 1.17628E-02-9.60421E-04-1.05061E-13
 -1       220 1.20248E-02-9.09475E-04-1.09312E-13
 -1       221 1.22893E-02-8.17707E-04-1.13616E-13
 -1       222 1.25601E-02-6.94432E-04-1.17979E-13
 -1       223 1.28381E-02-5.51500E-04-1.22397E-13
 -1       224 1.31219E-02-3.99005E-04-1.26852E-13
 -1       225 1.34087E-02-2.42918E-04-1.31341E-13
 -1       226 1.36961E-02-8.51090E-05-1.35848E-13
 -1       227 1.39828E-02 7.49365E-05-1.40370E-13
 -1       228 6.04611E-04 3.31049E-04-1.18161E-16
 -1       229 8.93729E-04 4.32677E-04-4.06034E-16
 -1       230 1.17264E-03 5.04441E-04-8.56923E-16
 -1       231 1.44702E-03 5.55552E-04-1.47126E-15
 -1       232 1.71986E-03 5.91832E-04-2.24856E-15
 -1       233 1.99278E-03 6.17261E-04-3.18678E-15
 -1       234 2.26663E-03 6.34713E-04-4.28367E-15
 -1       235 2.54180E-03 6.46321E-04-5.53478E-15
 -1       236 2.81843E-03 6.53688E-04-6.93810E-15
 -1       237 3.09651E-03 6.58016E-04-8.48760E-15
 -1       238 3.37592E-03 6.60196E-04-1.01812E-14
 -1       239 3.65650E-03 6.60879E-04-1.20160E-14
 -1       240 3.93811E-03 6.60524E-04-1.39907E-14
 -1       241 4.22058E-03 6.59440E-04-1.61033E-14
 -1       242 4.50377E-03 6.57821E-04-1.83510E-14
 -1       243 4.78758E-03 6.55767E-04-2.07276E-14
 -1       244 5.07193E-03 6.53309E-04-2.32252E-14
 -1       245 5.35680E-03 6.50422E-04-2.58297E-14
 -1       246 5.64221E-03 6.47044E-04-2.85352E-14
 -1       247 5.92825E-03 6.43082E-04-3.13408E-14
 -1       248 6.21506E-03 6.38435E-04-3.42454E-14
 -1       249 6.50288E-03 6.33005E-04-3.72499E-14
 -1       250 6.79206E-03 6.26720E-04-4.03428E-14
 -1       251 7.08305E-03 6.19570E-04-4.35235E-14
 -1       252 7.37648E-03 6.11652E-04-4.67954E-14
 -1       253 7.67314E-03 6.03239E-04-5.01514E-14
 -1       254 7.97403E-03 5.94887E-04-5.35832E-14
 -1       255 8.28039E-03 5.87586E-04-5.70810E-14
 -1       256 8.59367E-03 5.82983E-04-6.06473E-14
 -1       257 8.91550E-03 5.83695E-04-6.42793E-14
 -1       258 9.24755E-03 5.93711E-04-6.79736E-14
 -1       259 9.59119E-03 6.18825E-04-7.17235E-14
 -1       260 9.94690E-03 6.66891E-04-7.55262E-14
 -1       261 1.03134E-02 7.47372E-04-7.93854E-14
 -1       262 1.06865E-02 8.69189E-04-8.32948E-14
 -1       263 1.10582E-02 1.03556E-03-8.72501E-14
 -1       264 1.14170E-02 1.23572E-03-9.12532E-14
 -1       265 1.17523E-02 1.43753E-03-9.53077E-14
 -1       266 1.20606E-02 1.59127E-03-9.94010E-14
 -1       267 1.23517E-02 1.65238E-03-1.03533E-13
 -1       268 1.26439E-02 1.60976E-03-1.07692E-13
 -1       269 1.29520E-02 1.49298E-03-1.11878E-13
 -1       270 1.32783E-02 1.34960E-03-1.16090E-13
 -1       271 1.36144E-02 1.21676E-03-1.20318E-13
 -1       272 1.39488E-02 1.10945E-03-1.24555E-13
 -1       273 1.42726E-02 1.02387E-03-1.28805E-13
 -1       274 1.45820E-02 9.46165E-04-1.33050E-13
 -1       275 1.48777E-02 8.60863E-04-1.37286E-13
 -1       276 1.50148E-02 7.84030E-04-1.38309E-13
 -1       277 1.51415E-02 7.14573E-04-1.38683E-13
 -1       278 1.52737E-02 6.60853E-04-1.39064E-13
 -1       279 1.53952E-02 6.26029E-04-1.39457E-13
 -1       280 1.54851E-02 6.10273E-04-1.39847E-13
 -1       281 1.55276E-02 6.08690E-04-1.40250E-13
 -1       282 1.55087E-02 6.13221E-04-1.40639E-13
 -1       283 1.54274E-02 6.13532E-04-1.41000E-13
 -1       284 1.52941E-02 6.00780E-04-1.41333E-13
 -1       285 1.51264E-02 5.70133E-04-1.41648E-13
 -1       286 1.49459E-02 5.22266E-04-1.41936E-13
 -1       287 1.47603E-02 4.58538E-04-1.42200E-13
 -1       288 1.45808E-02 3.84167E-04-1.42445E-13
 -1       289 1.44100E-02 3.03628E-04-1.42673E-13
 -1       290 1.41948E-02 1.89511E-04-1.41525E-13
 -1       291 1.44998E-02 5.30275E-04-1.15294E-13
 -1       292 1.43520E-02 6.53849E-04-1.14520E-13
 -1       293 1.40610E-02 7.88425E-04-1.13608E-13
 -1       294 1.36868E-02 9.86691E-04-1.11717E-13
 -1       295 1.32608E-02 1.18031E-03-1.09700E-13
 -1       296 1.28503E-02 1.34504E-03-1.07277E-13
 -1       297 1.24335E-02 1.43696E-03-1.04847E-13
 -1       298 1.20368E-02 1.41451E-03-1.02385E-13
 -1       299 1.16432E-02 1.30109E-03-9.99409E-14
 -1       300 1.12162E-02 1.08678E-03-9.74519E-14
 -1       301 1.07593E-02 8.49100E-04-9.55419E-14
 -1       302 1.03609E-02 6.14026E-04-9.37605E-14
 -1       303 1.00435E-02 4.70027E-04-9.31016E-14
 -1       304 9.87129E-03 3.43443E-04-9.24874E-14
 -1       305 9.82958E-03 2.44736E-04-9.25513E-14
 -1       306 9.92754E-03 1.49227E-04-9.26146E-14
 -1       307 1.01597E-02 5.92291E-06-9.40124E-14
 -1       308 1.04776E-02-1.39606E-04-9.53173E-14
 -1       309 1.08386E-02-3.10551E-04-9.71593E-14
 -1       310 1.12356E-02-4.64918E-04-9.91187E-14
 -1       311 1.16431E-02-5.90584E-04-1.01513E-13
 -1       312 1.20419E-02-6.17940E-04-1.04138E-13
 -1       313 1.24483E-02-5.58643E-04-1.06616E-13
 -1       314 1.28506E-02-4.15714E-04-1.09054E-13
 -1       315 1.32728E-02-2.25907E-04-1.11056E-13
 -1       316 1.36832E-02-3.25553E-05-1.12676E-13
 -1       317 1.40385E-02 1.63869E-04-1.14222E-13
 -1       318 1.43249E-02 3.05366E-04-1.15011E-13
 -1       319 1.44861E-02 4.19471E-04-1.15303E-13
 -1       320 4.55306E-04-1.64739E-04-2.62384E-16
 -1       321 4.74283E-04-2.12980E-04-2.21296E-16
 -1       322 4.40437E-04-9.40113E-05-2.99904E-16
 -1       323 4.37466E-04-6.49086E-05-3.06833E-16
 -1       324 4.35841E-04-3.79042E-05-3.09885E-16
 -1       325 4.35129E-04-1.20168E-05-3.10102E-16
 -1       326 4.35160E-04 1.35355E-05-3.07585E-16
 -1       327 4.35939E-04 3.94801E-05-3.01937E-16
 -1       328 4.37609E-04 6.61356E-05-2.93060E-16
 -1       329 4.40673E-04 9.54105E-05-2.79175E-16
 -1       330 4.46068E-04 1.28323E-04-2.58254E-16
 -1       331 4.55912E-04 1.67304E-04-2.26541E-16
 -1       332 4.75915E-04 2.17049E-04-1.76972E-16
 -1       333 5.32051E-04 2.69979E-04-1.56813E-16
 -1       334 8.24550E-04 3.73523E-04-4.52465E-16
 -1       335 8.63325E-04-3.57423E-04-6.88922E-16
 -1       336 1.14970E-03-4.26195E-04-1.24716E-15
 -1       337 1.43249E-03-4.75387E-04-1.97224E-15
 -1       338 1.71323E-03-5.10150E-04-2.86200E-15
 -1       339 1.99302E-03-5.34283E-04-3.91348E-15
 -1       340 2.27263E-03-5.50609E-04-5.12392E-15
 -1       341 2.55253E-03-5.61244E-04-6.48986E-15
 -1       342 2.83297E-03-5.67779E-04-8.00562E-15
 -1       343 3.11406E-03-5.71401E-04-9.66682E-15
 -1       344 3.39585E-03-5.72987E-04-1.14673E-14
 -1       345 3.67829E-03-5.73170E-04-1.34050E-14
 -1       346 3.96133E-03-5.72392E-04-1.54756E-14
 -1       347 4.24491E-03-5.70947E-04-1.76706E-14
 -1       348 4.52897E-03-5.69015E-04-1.99879E-14
 -1       349 4.81347E-03-5.66685E-04-2.24239E-14
 -1       350 5.09837E-03-5.63979E-04-2.49763E-14
 -1       351 5.38367E-03-5.60870E-04-2.76383E-14
 -1       352 5.66940E-03-5.57298E-04-3.04009E-14
 -1       353 5.95563E-03-5.53187E-04-3.32659E-14
 -1       354 6.24246E-03-5.48461E-04-3.62328E-14
 -1       355 6.53005E-03-5.43072E-04-3.93052E-14
 -1       356 6.81858E-03-5.37023E-04-4.24784E-14
 -1       357 7.10831E-03-5.30413E-04-4.57489E-14
 -1       358 7.39956E-03-5.23483E-04-4.91116E-14
 -1       359 7.69267E-03-5.16680E-04-5.25621E-14
 -1       360 7.98803E-03-5.10735E-04-5.60894E-14
 -1       361 8.28608E-03-5.06743E-04-5.96878E-14
 -1       362 8.58720E-03-5.06237E-04-6.33499E-14
 -1       363 8.89173E-03-5.11229E-04-6.70733E-14
 -1       364 9.19984E-03-5.24156E-04-7.08521E-14
 -1       365 9.51142E-03-5.47667E-04-7.46887E-14
 -1       366 9.82586E-03-5.84122E-04-7.85745E-14
 -1       367 1.01419E-02-6.34698E-04-8.25087E-14
 -1       368 1.04572E-02-6.98066E-04-8.64892E-14
 -1       369 1.07689E-02-7.68860E-04-9.05106E-14
 -1       370 1.10736E-02-8.36656E-04-9.45788E-14
 -1       371 1.13692E-02-8.86669E-04-9.86850E-14
 -1       372 1.16562E-02-9.03146E-04-1.02846E-13
 -1       373 1.19383E-02-8.74967E-04-1.07062E-13
 -1       374 1.22208E-02-8.00385E-04-1.11332E-13
 -1       375 1.25077E-02-6.87286E-04-1.15657E-13
 -1       376 1.28001E-02-5.48930E-04-1.20035E-13
 -1       377 1.30964E-02-3.98127E-04-1.24460E-13
 -1       378 1.33933E-02-2.43315E-04-1.28922E-13
 -1       379 1.36882E-02-8.76592E-05-1.33413E-13
 -1       380 1.39430E-02 4.95749E-05-1.37462E-13
 -1       381 1.11005E-03 4.47858E-04-9.06241E-16
 -1       382 1.39082E-03 5.00942E-04-1.52013E-15
 -1       383 1.66915E-03 5.38581E-04-2.29430E-15
 -1       384 1.94657E-03 5.64899E-04-3.22728E-15
 -1       385 2.22401E-03 5.82905E-04-4.31708E-15
 -1       386 2.50201E-03 5.94836E-04-5.55975E-15
 -1       387 2.78084E-03 6.02370E-04-6.95352E-15
 -1       388 3.06060E-03 6.06763E-04-8.49339E-15
 -1       389 3.34129E-03 6.08947E-04-1.01756E-14
 -1       390 3.62284E-03 6.09599E-04-1.19983E-14
 -1       391 3.90517E-03 6.09197E-04-1.39598E-14
 -1       392 4.18819E-03 6.08064E-04-1.60572E-14
 -1       393 4.47180E-03 6.06398E-04-1.82900E-14
 -1       394 4.75593E-03 6.04307E-04-2.06499E-14
 -1       395 5.04053E-03 6.01820E-04-2.31312E-14
 -1       396 5.32560E-03 5.98913E-04-2.57215E-14
 -1       397 5.61115E-03 5.95517E-04-2.84142E-14
 -1       398 5.89725E-03 5.91534E-04-3.12081E-14
 -1       399 6.18403E-03 5.86852E-04-3.41021E-14
 -1       400 6.47169E-03 5.81358E-04-3.70948E-14
 -1       401 6.76047E-03 5.74960E-04-4.01756E-14
 -1       402 7.05075E-03 5.67619E-04-4.33474E-14
 -1       403 7.34298E-03 5.59394E-04-4.66075E-14
 -1       404 7.63777E-03 5.50504E-04-4.99546E-14
 -1       405 7.93583E-03 5.41431E-04-5.33770E-14
 -1       406 8.23805E-03 5.33061E-04-5.68667E-14
 -1       407 8.54547E-03 5.26901E-04-6.04251E-14
 -1       408 8.85926E-03 5.25373E-04-6.40517E-14
 -1       409 9.18069E-03 5.32208E-04-6.77405E-14
 -1       410 9.51105E-03 5.52901E-04-7.14840E-14
 -1       411 9.85140E-03 5.95050E-04-7.52805E-14
 -1       412 1.02023E-02 6.68168E-04-7.91362E-14
 -1       413 1.05630E-02 7.82114E-04-8.30401E-14
 -1       414 1.09301E-02 9.42696E-04-8.69898E-14
 -1       415 1.12964E-02 1.14346E-03-9.09861E-14
 -1       416 1.16514E-02 1.35581E-03-9.50298E-14
 -1       417 1.19874E-02 1.52754E-03-9.91205E-14
 -1       418 1.23082E-02 1.60451E-03-1.03252E-13
 -1       419 1.26284E-02 1.56771E-03-1.07415E-13
 -1       420 1.29605E-02 1.44797E-03-1.11604E-13
 -1       421 1.33037E-02 1.29958E-03-1.15814E-13
 -1       422 1.36486E-02 1.16386E-03-1.20043E-13
 -1       423 1.39857E-02 1.05680E-03-1.24287E-13
 -1       424 1.43095E-02 9.74108E-04-1.28539E-13
 -1       425 1.46187E-02 9.01231E-04-1.32787E-13
 -1       426 1.48193E-02 8.45717E-04-1.35547E-13
 -1       427 1.51002E-02 6.85711E-04-1.35550E-13
 -1       428 1.49634E-02 7.45557E-04-1.35180E-13
 -1       429 1.48876E-02 7.93656E-04-1.35363E-13
 -1       430 1.52160E-02 6.41579E-04-1.35910E-13
 -1       431 1.52926E-02 6.11403E-04-1.36275E-13
 -1       432 1.53085E-02 5.90990E-04-1.36634E-13
 -1       433 1.52552E-02 5.71185E-04-1.36981E-13
 -1       434 1.51390E-02 5.42489E-04-1.37308E-13
 -1       435 1.49775E-02 4.99082E-04-1.37619E-13
 -1       436 1.47955E-02 4.41346E-04-1.37904E-13
 -1       437 1.46048E-02 3.70262E-04-1.38169E-13
 -1       438 1.44196E-02 2.91037E-04-1.38413E-13
 -1       439 1.42443E-02 2.07630E-04-1.38645E-13
 -1       440 1.42350E-02 6.47895E-04-1.15993E-13
 -1       441 1.45384E-02 4.86112E-04-1.17751E-13
 -1       442 1.44434E-02 5.61016E-04-1.16790E-13
 -1       443 1.38184E-02 8.39525E-04-1.13916E-13
 -1       444 1.34235E-02 1.03913E-03-1.11899E-13
 -1       445 4.45678E-04-1.26483E-04-2.86521E-16
 -1       446 1.26236E-02 1.42004E-03-1.06636E-13
 -1       447 1.22214E-02 1.47783E-03-1.03331E-13
 -1       448 1.19255E-02 1.40968E-03-1.00895E-13
 -1       449 1.15274E-02 1.20841E-03-9.79067E-14
 -1       450 1.10412E-02 9.02889E-04-9.49495E-14
 -1       451 1.06557E-02 6.76981E-04-9.31855E-14
 -1       452 1.01747E-02 4.35024E-04-9.13315E-14
 -1       453 9.95620E-03 3.42393E-04-9.07298E-14
 -1       454 9.81480E-03 2.67111E-04-9.05928E-14
 -1       455 9.83602E-03 2.15098E-04-9.06502E-14
 -1       456 1.00634E-02 1.14799E-04-9.18007E-14
 -1       457 1.03223E-02 3.37121E-06-9.30854E-14
 -1       458 1.07293E-02-1.81540E-04-9.47962E-14
 -1       459 1.10521E-02-3.46073E-04-9.67357E-14
 -1       460 1.14582E-02-5.38441E-04-9.95705E-14
 -1       461 1.18868E-02-6.56810E-04-1.03069E-13
 -1       462 1.21761E-02-6.39215E-04-1.05541E-13
 -1       463 1.25531E-02-5.13263E-04-1.08372E-13
 -1       464 1.29808E-02-2.85750E-04-1.11367E-13
 -1       465 1.34109E-02-5.86867E-05-1.13356E-13
 -1       466 1.37741E-02 1.26036E-04-1.14895E-13
 -1       467 1.41849E-02 3.18645E-04-1.16633E-13
 -1       468 1.44599E-02 4.32184E-04-1.17481E-13
 -1       469 1.29546E-02 1.28153E-03-1.09056E-13
 -1       470 1.40520E-02 7.14912E-04-1.16307E-13
 -1       471 9.90977E-03 1.75267E-04-8.98305E-14
 -1       472 1.04002E-02 5.11930E-04-9.07567E-14
 -1       473 9.31295E-04 3.46051E-04-7.70631E-16
 -1       474 6.65815E-04-7.51381E-05-6.54465E-16
 -1       475 6.69781E-04-1.15897E-04-6.44978E-16
 -1       476 6.63142E-04 1.10483E-06-6.54892E-16
 -1       477 6.63862E-04 3.87688E-05-6.46923E-16
 -1       478 6.66003E-04 7.68241E-05-6.33354E-16
 -1       479 6.70101E-04 1.17738E-04-6.12361E-16
 -1       480 6.77116E-04 1.62358E-04-5.81536E-16
 -1       481 6.89037E-04 2.12724E-04-5.36938E-16
 -1       482 1.21719E-03 4.06555E-04-1.33175E-15
 -1       483 9.76328E-04-3.28653E-04-1.03047E-15
 -1       484 7.12701E-04-2.51884E-04-5.83399E-16
 -1       485 1.31893E-02 1.15669E-03-1.11707E-13
 -1       486 1.26223E-03-3.83545E-04-1.68944E-15
 -1       487 1.54727E-03-4.23316E-04-2.51009E-15
 -1       488 1.83141E-03-4.51406E-04-3.49057E-15
 -1       489 2.11496E-03-4.70712E-04-4.62823E-15
 -1       490 2.39824E-03-4.83524E-04-5.91996E-15
 -1       491 2.68149E-03-4.91611E-04-7.36150E-15
 -1       492 2.96488E-03-4.96316E-04-8.94854E-15
 -1       493 3.24850E-03-4.98643E-04-1.06772E-14
 -1       494 3.53239E-03-4.99326E-04-1.25429E-14
 -1       495 3.81657E-03-4.98888E-04-1.45417E-14
 -1       496 4.10102E-03-4.97684E-04-1.66697E-14
 -1       497 4.38573E-03-4.95942E-04-1.89191E-14
 -1       498 4.67068E-03-4.93786E-04-2.12874E-14
 -1       499 4.95587E-03-4.91265E-04-2.37759E-14
 -1       500 5.24129E-03-4.88370E-04-2.63782E-14
 -1       501 5.52696E-03-4.85051E-04-2.90861E-14
 -1       502 5.81291E-03-4.81231E-04-3.18931E-14
 -1       503 6.09919E-03-4.76824E-04-3.48027E-14
 -1       504 6.38588E-03-4.71755E-04-3.78134E-14
 -1       505 6.67309E-03-4.65982E-04-4.09299E-14
 -1       506 6.96096E-03-4.59528E-04-4.41430E-14
 -1       507 7.24967E-03-4.52524E-04-4.74501E-14
 -1       508 7.53946E-03-4.45262E-04-5.08478E-14
 -1       509 7.83062E-03-4.38257E-04-5.43245E-14
 -1       510 8.12353E-03-4.32332E-04-5.78723E-14
 -1       511 8.41866E-03-4.28693E-04-6.14880E-14
 -1       512 8.71659E-03-4.29005E-04-6.51686E-14
 -1       513 9.01801E-03-4.35434E-04-6.89120E-14
 -1       514 9.32369E-03-4.50591E-04-7.27099E-14
 -1       515 9.63430E-03-4.77320E-04-7.65600E-14
 -1       516 9.95014E-03-5.18168E-04-8.04585E-14
 -1       517 1.02706E-02-5.74366E-04-8.44035E-14
 -1       518 1.05936E-02-6.44137E-04-8.83962E-14
 -1       519 1.09151E-02-7.20551E-04-9.24362E-14
 -1       520 1.12306E-02-7.89971E-04-9.65158E-14
 -1       521 1.15371E-02-8.33456E-04-1.00642E-13
 -1       522 1.18359E-02-8.32485E-04-1.04819E-13
 -1       523 1.21330E-02-7.78267E-04-1.09052E-13
 -1       524 1.24348E-02-6.75883E-04-1.13342E-13
 -1       525 1.27434E-02-5.40814E-04-1.17684E-13
 -1       526 1.30564E-02-3.90263E-04-1.22076E-13
 -1       527 1.33688E-02-2.36248E-04-1.26509E-13
 -1       528 1.36762E-02-8.35568E-05-1.30975E-13
 -1       529 1.43936E-02 5.84100E-04-1.18700E-13
 -1       530 1.78407E-03 4.81169E-04-2.92343E-15
 -1       531 2.06607E-03 5.02553E-04-3.95234E-15
 -1       532 2.34782E-03 5.16909E-04-5.13289E-15
 -1       533 2.62967E-03 5.26145E-04-6.46330E-15
 -1       534 2.91181E-03 5.31707E-04-7.94059E-15
 -1       535 3.19436E-03 5.34674E-04-9.56034E-15
 -1       536 3.47736E-03 5.35840E-04-1.13199E-14
 -1       537 3.76079E-03 5.35771E-04-1.32170E-14
 -1       538 4.04464E-03 5.34858E-04-1.52496E-14
 -1       539 4.32887E-03 5.33354E-04-1.74174E-14
 -1       540 4.61344E-03 5.31404E-04-1.97146E-14
 -1       541 4.89835E-03 5.29066E-04-2.21352E-14
 -1       542 5.18357E-03 5.26336E-04-2.46686E-14
 -1       543 5.46912E-03 5.23161E-04-2.73088E-14
 -1       544 5.75503E-03 5.19449E-04-3.00519E-14
 -1       545 6.04138E-03 5.15085E-04-3.28959E-14
 -1       546 6.32825E-03 5.09948E-04-3.58385E-14
 -1       547 6.61580E-03 5.03922E-04-3.88739E-14
 -1       548 6.90419E-03 4.96925E-04-4.20012E-14
 -1       549 7.19366E-03 4.88946E-04-4.52187E-14
 -1       550 7.48450E-03 4.80092E-04-4.85236E-14
 -1       551 7.77704E-03 4.70668E-04-5.19073E-14
 -1       552 8.07169E-03 4.61286E-04-5.53643E-14
 -1       553 8.36894E-03 4.53023E-04-5.88892E-14
 -1       554 8.66939E-03 4.47646E-04-6.24861E-14
 -1       555 8.97383E-03 4.47916E-04-6.61444E-14
 -1       556 9.28340E-03 4.57966E-04-6.98598E-14
 -1       557 9.59980E-03 4.83732E-04-7.36319E-14
 -1       558 9.92568E-03 5.33303E-04-7.74592E-14
 -1       559 1.02647E-02 6.16809E-04-8.13416E-14
 -1       560 1.06205E-02 7.45141E-04-8.52684E-14
 -1       561 1.09940E-02 9.25049E-04-8.92385E-14
 -1       562 1.13782E-02 1.14782E-03-9.32591E-14
 -1       563 1.17572E-02 1.37135E-03-9.73301E-14
 -1       564 1.21192E-02 1.52102E-03-1.01445E-13
 -1       565 1.24730E-02 1.53608E-03-1.05598E-13
 -1       566 1.28370E-02 1.42893E-03-1.09781E-13
 -1       567 1.32117E-02 1.26902E-03-1.13985E-13
 -1       568 1.35828E-02 1.11903E-03-1.18210E-13
 -1       569 1.39369E-02 1.00451E-03-1.22455E-13
 -1       570 1.42696E-02 9.22629E-04-1.26714E-13
 -1       571 1.45831E-02 8.58599E-04-1.30972E-13
 -1       572 1.50401E-02 6.25492E-04-1.32333E-13
 -1       573 1.50987E-02 5.86489E-04-1.32668E-13
 -1       574 1.47850E-02 7.50113E-04-1.31657E-13
 -1       575 1.49266E-02 6.79730E-04-1.31998E-13
 -1       576 1.50808E-02 5.54514E-04-1.32993E-13
 -1       577 1.49846E-02 5.16476E-04-1.33306E-13
 -1       578 1.48283E-02 4.62424E-04-1.33604E-13
 -1       579 1.46423E-02 3.91881E-04-1.33883E-13
 -1       580 1.44443E-02 3.06922E-04-1.34148E-13
 -1       581 1.42527E-02 2.15309E-04-1.34391E-13
 -1       582 1.40736E-02 1.22287E-04-1.34623E-13
 -1       583 1.36294E-02 9.15373E-04-1.14559E-13
 -1       584 1.50131E-03 4.50251E-04-2.04957E-15
 -1       585 1.45474E-02 5.25609E-04-1.19499E-13
 -1       586 1.39703E-02 2.64275E-04-1.18083E-13
 -1       587 1.45412E-02 4.75993E-04-1.19713E-13
 -1       588 1.31971E-02-1.30970E-04-1.13990E-13
 -1       589 1.12526E-02-4.57059E-04-9.72590E-14
 -1       590 1.17631E-02 1.33962E-03-9.86454E-14
 -1       591 6.63751E-04-3.65234E-05-6.57396E-16
 -1       592 1.24341E-02 1.49165E-03-1.05234E-13
 -1       593 1.13133E-02 1.05394E-03-9.52117E-14
 -1       594 1.20160E-02 1.45437E-03-1.01064E-13
 -1       595 1.16541E-02-6.26372E-04-1.00852E-13
 -1       596 1.08438E-02 7.50207E-04-9.23520E-14
 -1       597 1.00247E-02 3.42399E-04-8.88422E-14
 -1       598 9.82925E-03 2.70268E-04-8.85163E-14
 -1       599 9.77628E-03 2.29683E-04-8.84798E-14
 -1       600 1.01773E-02 7.16426E-05-9.05528E-14
 -1       601 1.05108E-02-7.54292E-05-9.22396E-14
 -1       602 1.08870E-02-2.64540E-04-9.45733E-14
 -1       603 1.27000E-02-4.17375E-04-1.10773E-13
 -1       604 1.20293E-02-6.72728E-04-1.04647E-13
 -1       605 1.43663E-02 4.14440E-04-1.19460E-13
 -1       606 1.23679E-02-5.83476E-04-1.07915E-13
 -1       607 1.35227E-02 4.56229E-05-1.15527E-13
 -1       608 1.27862E-02 1.36757E-03-1.08465E-13
 -1       609 7.03847E-04 2.90905E-04-4.20247E-16
 -1       610 6.76588E-04-1.60087E-04-6.27231E-16
 -1       611 9.79048E-03 1.97249E-04-8.76616E-14
 -1       612 1.42665E-02 6.42005E-04-1.19016E-13
 -1       613 1.38767E-02 1.70195E-05-1.34019E-13
 -1       614 1.29286E-02-2.83405E-04-1.13385E-13
 -1       615 6.91826E-04-2.02891E-04-6.11954E-16
 -1       616 1.18035E-02-6.78540E-04-1.02415E-13
 -1       617 8.99754E-04 7.41220E-05-1.09944E-15
 -1       618 8.97665E-04 2.51816E-05-1.11656E-15
 -1       619 9.11837E-04 1.78254E-04-1.03440E-15
 -1       620 9.24209E-04 2.36823E-04-9.79804E-16
 -1       621 1.04891E-03 3.13952E-04-1.12812E-15
 -1       622 1.45557E-02 5.60701E-04-1.21690E-13
 -1       623 1.33465E-03 3.61597E-04-1.79123E-15
 -1       624 9.50414E-04-2.70050E-04-1.07419E-15
 -1       625 1.23519E-03-3.19715E-04-1.74367E-15
 -1       626 1.52116E-03-3.56576E-04-2.57230E-15
 -1       627 1.80734E-03-3.82982E-04-3.55762E-15
 -1       628 2.09338E-03-4.01278E-04-4.69707E-15
 -1       629 2.37921E-03-4.13471E-04-5.98833E-15
 -1       630 2.66488E-03-4.21180E-04-7.42737E-15
 -1       631 2.95044E-03-4.25662E-04-9.01046E-15
 -1       632 3.23594E-03-4.27868E-04-1.07335E-14
 -1       633 3.52142E-03-4.28503E-04-1.25921E-14
 -1       634 3.80691E-03-4.28065E-04-1.45841E-14
 -1       635 4.09242E-03-4.26898E-04-1.67042E-14
 -1       636 4.37797E-03-4.25219E-04-1.89438E-14
 -1       637 4.66355E-03-4.23147E-04-2.13035E-14
 -1       638 4.94918E-03-4.20729E-04-2.37847E-14
 -1       639 5.23486E-03-4.17955E-04-2.63796E-14
 -1       640 5.52061E-03-4.14774E-04-2.90788E-14
 -1       641 5.80642E-03-4.11108E-04-3.18791E-14
 -1       642 6.09233E-03-4.06870E-04-3.47828E-14
 -1       643 6.37836E-03-4.01975E-04-3.77855E-14
 -1       644 6.66454E-03-3.96369E-04-4.08921E-14
 -1       645 6.95095E-03-3.90048E-04-4.40929E-14
 -1       646 7.23769E-03-3.83103E-04-4.73897E-14
 -1       647 7.52490E-03-3.75757E-04-5.07747E-14
 -1       648 7.81282E-03-3.68432E-04-5.42367E-14
 -1       649 8.10180E-03-3.61810E-04-5.77709E-14
 -1       650 8.39237E-03-3.56916E-04-6.13732E-14
 -1       651 8.68530E-03-3.55205E-04-6.50428E-14
 -1       652 8.98169E-03-3.58632E-04-6.87762E-14
 -1       653 9.28296E-03-3.69706E-04-7.25650E-14
 -1       654 9.59081E-03-3.91450E-04-7.64048E-14
 -1       655 9.90685E-03-4.27160E-04-8.02901E-14
 -1       656 1.02318E-02-4.79676E-04-8.42241E-14
 -1       657 1.05644E-02-5.49686E-04-8.82047E-14
 -1       658 1.09003E-02-6.32531E-04-9.22362E-14
 -1       659 1.12323E-02-7.14779E-04-9.63088E-14
 -1       660 1.15548E-02-7.72675E-04-1.00425E-13
 -1       661 1.18671E-02-7.79931E-04-1.04591E-13
 -1       662 1.21787E-02-7.22624E-04-1.08816E-13
 -1       663 1.24975E-02-6.08629E-04-1.13093E-13
 -1       664 1.28258E-02-4.61455E-04-1.17431E-13
 -1       665 1.31579E-02-3.04446E-04-1.21814E-13
 -1       666 1.34859E-02-1.51159E-04-1.26236E-13
 -1       667 1.05412E-02 5.80396E-04-8.95107E-14
 -1       668 1.90571E-03 4.20793E-04-3.57838E-15
 -1       669 2.76015E-03 4.55529E-04-7.38335E-15
 -1       670 3.04483E-03 4.59446E-04-8.94170E-15
 -1       671 3.32958E-03 4.61282E-04-1.06394E-14
 -1       672 3.61443E-03 4.61686E-04-1.24744E-14
 -1       673 3.89940E-03 4.61117E-04-1.44433E-14
 -1       674 4.18450E-03 4.59879E-04-1.65475E-14
 -1       675 4.46974E-03 4.58160E-04-1.87838E-14
 -1       676 4.75510E-03 4.56054E-04-2.11426E-14
 -1       677 5.04060E-03 4.53584E-04-2.36207E-14
 -1       678 5.32624E-03 4.50718E-04-2.62088E-14
 -1       679 5.61202E-03 4.47381E-04-2.89002E-14
 -1       680 5.89798E-03 4.43472E-04-3.16930E-14
 -1       681 6.18413E-03 4.38873E-04-3.45857E-14
 -1       682 6.47052E-03 4.33467E-04-3.75746E-14
 -1       683 6.75719E-03 4.27154E-04-4.06561E-14
 -1       684 7.04418E-03 4.19888E-04-4.38294E-14
 -1       685 7.33154E-03 4.11707E-04-4.70935E-14
 -1       686 7.61931E-03 4.02796E-04-5.04380E-14
 -1       687 7.90753E-03 3.93563E-04-5.38584E-14
 -1       688 8.19624E-03 3.84752E-04-5.73509E-14
 -1       689 8.48553E-03 3.77585E-04-6.09166E-14
 -1       690 8.77563E-03 3.73958E-04-6.45480E-14
 -1       691 9.06713E-03 3.76681E-04-6.82361E-14
 -1       692 9.36135E-03 3.89786E-04-7.19821E-14
 -1       693 9.66105E-03 4.18969E-04-7.57820E-14
 -1       694 9.97123E-03 4.72166E-04-7.96384E-14
 -1       695 1.02996E-02 5.60578E-04-8.35435E-14
 -1       696 1.06563E-02 6.98703E-04-8.74906E-14
 -1       697 1.31017E-02 1.25363E-03-1.12110E-13
 -1       698 1.35036E-02 1.08004E-03-1.16332E-13
 -1       699 1.38800E-02 9.53733E-04-1.20573E-13
 -1       700 1.42235E-02 8.72370E-04-1.24834E-13
 -1       701 1.45126E-02 8.03260E-04-1.28240E-13
 -1       702 1.42413E-02 3.67624E-04-1.21353E-13
 -1       703 1.48571E-02 5.11120E-04-1.29652E-13
 -1       704 1.38702E-02 2.68242E-05-1.31578E-13
 -1       705 1.48754E-02 5.91506E-04-1.28737E-13
 -1       706 1.47065E-02 4.53320E-04-1.29940E-13
 -1       707 1.49086E-02 5.49843E-04-1.29047E-13
 -1       708 1.45117E-02 3.72995E-04-1.30210E-13
 -1       709 1.43008E-02 2.73228E-04-1.30466E-13
 -1       710 1.40995E-02 1.65713E-04-1.30709E-13
 -1       711 1.62036E-03 3.96283E-04-2.60826E-15
 -1       712 1.46465E-02 5.15062E-04-1.22553E-13
 -1       713 1.25128E-02-5.18834E-04-1.10240E-13
 -1       714 1.21976E-02-6.48862E-04-1.06947E-13
 -1       715 1.06488E-02-1.82079E-04-9.18815E-14
 -1       716 9.85234E-03 2.77962E-04-8.65501E-14
 -1       717 9.93815E-03 1.30753E-04-8.77712E-14
 -1       718 2.47548E-03 4.48638E-04-5.96779E-15
 -1       719 2.19071E-03 4.37581E-04-4.69899E-15
 -1       720 1.10117E-02-3.81694E-04-9.44958E-14
 -1       721 9.04208E-04 1.24634E-04-1.07289E-15
 -1       722 1.10542E-02 8.94562E-04-9.20410E-14
 -1       723 1.34707E-02 1.04473E-03-1.15125E-13
 -1       724 1.39487E-02 7.84121E-04-1.17764E-13
 -1       725 1.01629E-02 3.98109E-04-8.76161E-14
 -1       726 9.72774E-03 2.28407E-04-8.60354E-14
 -1       727 1.02594E-02-8.63548E-06-8.91370E-14
 -1       728 1.14264E-02-5.77411E-04-9.83953E-14
 -1       729 1.34078E-02-1.04794E-05-1.16902E-13
 -1       730 9.03833E-04-1.22223E-04-1.11620E-15
 -1       731 1.45356E-02 4.67185E-04-1.22066E-13
 -1       732 1.38253E-02 1.96689E-04-1.19464E-13
 -1       733 1.13621E-02 1.10247E-03-9.42411E-14
 -1       734 9.11230E-04-1.75669E-04-1.09633E-15
 -1       735 8.97603E-04-2.31602E-05-1.12494E-15
 -1       736 9.94213E-03 3.19922E-04-8.53265E-14
 -1       737 1.46725E-02 7.10808E-04-1.28565E-13
 -1       738 1.44791E-02 6.03710E-04-1.22003E-13
 -1       739 1.19767E-02-6.98432E-04-1.04694E-13
 -1       740 1.47903E-02 6.43384E-04-1.28654E-13
 -1       741 8.99549E-04-7.18356E-05-1.12502E-15
 -1       742 9.69068E-03 2.00401E-04-8.52227E-14
 -1       743 1.27768E-02-3.88516E-04-1.13528E-13
 -1       744 1.16155E-03 2.43698E-04-1.55155E-15
 -1       745 1.07722E-03-2.37526E-04-1.43569E-15
 -1       746 1.36168E-03-2.74424E-04-2.19630E-15
 -1       747 1.64817E-03-3.01898E-04-3.11191E-15
 -1       748 1.93556E-03-3.21528E-04-4.18024E-15
 -1       749 2.22327E-03-3.35003E-04-5.39949E-15
 -1       750 2.51096E-03-3.43820E-04-6.76676E-15
 -1       751 2.79849E-03-3.49212E-04-8.27844E-15
 -1       752 3.08580E-03-3.52148E-04-9.93054E-15
 -1       753 3.37288E-03-3.53363E-04-1.17186E-14
 -1       754 3.65973E-03-3.53398E-04-1.36393E-14
 -1       755 3.94637E-03-3.52629E-04-1.56910E-14
 -1       756 4.23282E-03-3.51308E-04-1.78660E-14
 -1       757 4.51910E-03-3.49585E-04-2.01606E-14
 -1       758 4.80523E-03-3.47533E-04-2.25763E-14
 -1       759 5.09121E-03-3.45166E-04-2.51101E-14
 -1       760 5.37705E-03-3.42452E-04-2.77529E-14
 -1       761 5.66273E-03-3.39329E-04-3.04970E-14
 -1       762 5.94826E-03-3.35713E-04-3.33454E-14
 -1       763 6.23359E-03-3.31515E-04-3.62949E-14
 -1       764 6.51871E-03-3.26655E-04-3.93425E-14
 -1       765 6.80359E-03-3.21080E-04-4.24876E-14
 -1       766 7.08824E-03-3.14790E-04-4.57277E-14
 -1       767 7.37267E-03-3.07868E-04-4.90589E-14
 -1       768 7.65700E-03-3.00525E-04-5.24721E-14
 -1       769 7.94143E-03-2.93144E-04-5.59589E-14
 -1       770 8.22638E-03-2.86347E-04-5.95153E-14
 -1       771 8.51254E-03-2.81072E-04-6.31415E-14
 -1       772 8.80102E-03-2.78671E-04-6.68362E-14
 -1       773 9.09350E-03-2.81042E-04-7.05902E-14
 -1       774 9.39231E-03-2.90805E-04-7.43960E-14
 -1       775 9.70039E-03-3.11498E-04-7.82508E-14
 -1       776 1.00208E-02-3.47654E-04-8.21487E-14
 -1       777 1.03558E-02-4.04244E-04-8.60932E-14
 -1       778 1.07036E-02-4.84494E-04-9.00878E-14
 -1       779 1.10580E-02-5.82317E-04-9.41283E-14
 -1       780 1.14071E-02-6.78118E-04-9.82140E-14
 -1       781 1.20676E-02-7.14127E-04-1.06547E-13
 -1       782 1.23998E-02-6.11044E-04-1.10792E-13
 -1       783 1.27450E-02-4.57177E-04-1.15093E-13
 -1       784 1.30985E-02-2.89379E-04-1.19449E-13
 -1       785 1.34477E-02-1.30904E-04-1.23847E-13
 -1       786 9.69434E-03 2.35546E-04-8.36552E-14
 -1       787 2.89346E-03 3.83314E-04-8.32085E-15
 -1       788 3.75272E-03 3.86712E-04-1.36387E-14
 -1       789 4.03888E-03 3.85837E-04-1.56808E-14
 -1       790 4.32495E-03 3.84442E-04-1.78542E-14
 -1       791 4.61094E-03 3.82656E-04-2.01549E-14
 -1       792 4.89685E-03 3.80530E-04-2.25755E-14
 -1       793 5.18271E-03 3.78060E-04-2.51105E-14
 -1       794 5.46850E-03 3.75195E-04-2.77515E-14
 -1       795 5.75421E-03 3.71855E-04-3.04941E-14
 -1       796 6.03983E-03 3.67939E-04-3.33371E-14
 -1       797 6.32532E-03 3.63340E-04-3.62777E-14
 -1       798 6.61063E-03 3.57966E-04-3.93119E-14
 -1       799 6.89566E-03 3.51755E-04-4.24418E-14
 -1       800 7.18030E-03 3.44715E-04-4.56622E-14
 -1       801 7.46437E-03 3.36956E-04-4.89684E-14
 -1       802 7.74764E-03 3.28756E-04-5.23525E-14
 -1       803 8.02984E-03 3.20625E-04-5.58115E-14
 -1       804 8.31061E-03 3.13397E-04-5.93431E-14
 -1       805 8.58964E-03 3.08331E-04-6.29473E-14
 -1       806 8.86678E-03 3.07224E-04-6.66110E-14
 -1       807 9.14231E-03 3.12541E-04-7.03310E-14
 -1       808 9.41751E-03 3.27592E-04-7.41082E-14
 -1       809 9.69555E-03 3.57160E-04-7.79370E-14
 -1       810 9.98417E-03 4.08108E-04-8.18144E-14
 -1       811 1.43987E-02 7.55790E-04-1.25149E-13
 -1       812 1.47560E-02 5.53423E-04-1.25686E-13
 -1       813 1.43917E-02 3.70623E-04-1.26567E-13
 -1       814 1.46068E-02 4.57755E-04-1.26306E-13
 -1       815 1.41086E-02 2.95290E-04-1.22854E-13
 -1       816 1.39148E-02 1.20318E-04-1.26736E-13
 -1       817 9.95234E-03 5.19258E-05-8.57080E-14
 -1       818 1.23382E-02-6.11301E-04-1.09165E-13
 -1       819 2.60672E-03 3.78445E-04-6.82344E-15
 -1       820 1.41358E-02 2.49794E-04-1.26500E-13
 -1       821 1.40751E-02 8.06161E-04-1.20885E-13
 -1       822 1.47430E-02 5.12571E-04-1.26000E-13
 -1       823 3.46645E-03 3.86843E-04-1.17308E-14
 -1       824 1.31571E-02-1.71567E-04-1.16715E-13
 -1       825 3.18003E-03 3.85879E-04-9.95692E-15
 -1       826 9.75666E-03 1.55174E-04-8.53303E-14
 -1       827 2.31980E-03 3.70329E-04-5.46863E-15
 -1       828 1.07248E-02-2.94471E-04-9.14477E-14
 -1       829 2.03275E-03 3.57750E-04-4.25891E-15
 -1       830 1.02868E-02 4.75808E-04-8.64640E-14
 -1       831 1.16035E-02-6.85217E-04-1.00386E-13
 -1       832 1.24623E-03 3.00875E-04-1.67672E-15
 -1       833 1.11624E-02-5.28454E-04-9.54451E-14
 -1       834 1.13826E-03 5.90648E-05-1.68798E-15
 -1       835 1.36415E-02 8.09124E-05-1.20466E-13
 -1       836 1.03753E-02-1.35313E-04-8.85351E-14
 -1       837 1.42386E-02 7.00747E-04-1.20890E-13
 -1       838 1.13689E-03 1.19390E-06-1.70646E-15
 -1       839 1.14980E-03 1.79160E-04-1.61322E-15
 -1       840 8.54353E-04-1.96826E-04-9.49446E-16
 -1       841 9.61627E-03 2.05575E-04-8.28518E-14
 -1       842 1.14234E-03 1.17808E-04-1.65770E-15
 -1       843 1.14920E-03-1.76161E-04-1.68951E-15
 -1       844 1.53228E-03 3.35594E-04-2.46974E-15
 -1       845 1.46837E-02 5.92101E-04-1.25357E-13
 -1       846 1.78229E-03 3.49897E-04-3.30495E-15
 -1       847 1.00447E-02-5.57189E-05-8.51056E-14
 -1       848 1.14203E-03-1.15204E-04-1.70776E-15
 -1       849 9.73678E-03 2.72209E-04-8.22608E-14
 -1       850 1.49256E-03-2.24252E-04-2.67759E-15
 -1       851 1.77974E-03-2.43535E-04-3.67497E-15
 -1       852 2.06816E-03-2.57212E-04-4.82260E-15
 -1       853 2.35709E-03-2.66471E-04-6.11751E-15
 -1       854 2.64612E-03-2.72383E-04-7.55741E-15
 -1       855 2.93497E-03-2.75841E-04-9.13812E-15
 -1       856 3.22352E-03-2.77549E-04-1.08556E-14
 -1       857 3.51170E-03-2.78039E-04-1.27074E-14
 -1       858 3.79950E-03-2.77696E-04-1.46890E-14
 -1       859 4.08693E-03-2.76785E-04-1.67977E-14
 -1       860 4.37400E-03-2.75473E-04-1.90284E-14
 -1       861 4.66073E-03-2.73855E-04-2.13794E-14
 -1       862 4.94714E-03-2.71966E-04-2.38511E-14
 -1       863 5.23322E-03-2.69794E-04-2.64354E-14
 -1       864 5.51896E-03-2.67296E-04-2.91239E-14
 -1       865 5.80432E-03-2.64404E-04-3.19171E-14
 -1       866 6.08925E-03-2.61036E-04-3.48118E-14
 -1       867 6.37367E-03-2.57103E-04-3.78050E-14
 -1       868 6.65749E-03-2.52527E-04-4.08933E-14
 -1       869 6.94062E-03-2.47248E-04-4.40794E-14
 -1       870 7.22297E-03-2.41250E-04-4.73550E-14
 -1       871 7.50449E-03-2.34580E-04-5.07167E-14
 -1       872 7.78523E-03-2.27378E-04-5.41557E-14
 -1       873 8.06537E-03-2.19918E-04-5.76680E-14
 -1       874 8.34536E-03-2.12661E-04-6.12526E-14
 -1       875 8.62601E-03-2.06331E-04-6.49065E-14
 -1       876 8.90875E-03-2.02041E-04-6.86258E-14
 -1       877 9.19579E-03-2.01517E-04-7.23971E-14
 -1       878 9.49043E-03-2.07499E-04-7.62200E-14
 -1       879 9.79718E-03-2.24349E-04-8.00862E-14
 -1       880 1.01213E-02-2.58907E-04-8.39955E-14
 -1       881 1.04670E-02-3.20031E-04-8.79507E-14
 -1       882 1.30466E-02-2.64225E-04-1.17082E-13
 -1       883 1.34208E-02-9.21331E-05-1.21454E-13
 -1       884 3.89230E-03 3.11148E-04-1.48172E-14
 -1       885 4.75249E-03 3.07046E-04-2.15332E-14
 -1       886 5.03870E-03 3.05046E-04-2.40139E-14
 -1       887 5.32465E-03 3.02729E-04-2.66043E-14
 -1       888 5.61031E-03 3.00040E-04-2.92993E-14
 -1       889 5.89565E-03 2.96902E-04-3.20936E-14
 -1       890 6.18057E-03 2.93233E-04-3.49874E-14
 -1       891 6.46496E-03 2.88953E-04-3.79754E-14
 -1       892 6.74865E-03 2.84010E-04-4.10572E-14
 -1       893 7.03142E-03 2.78399E-04-4.42335E-14
 -1       894 7.31296E-03 2.72198E-04-4.74988E-14
 -1       895 7.59288E-03 2.65605E-04-5.08469E-14
 -1       896 7.87068E-03 2.58987E-04-5.42713E-14
 -1       897 8.14574E-03 2.52937E-04-5.77689E-14
 -1       898 8.41734E-03 2.48318E-04-6.13397E-14
 -1       899 8.68468E-03 2.46304E-04-6.49782E-14
 -1       900 8.94702E-03 2.48382E-04-6.86773E-14
 -1       901 9.20387E-03 2.56330E-04-7.24291E-14
 -1       902 9.45589E-03 2.72279E-04-7.62367E-14
 -1       903 1.39741E-02 2.02139E-04-1.24272E-13
 -1       904 2.74122E-03 3.06582E-04-7.69865E-15
 -1       905 1.44647E-02 6.97365E-04-1.24755E-13
 -1       906 1.13809E-03-5.65191E-05-1.71310E-15
 -1       907 9.67630E-03 9.27782E-05-8.24298E-14
 -1       908 1.20845E-02-6.93709E-04-1.06299E-13
 -1       909 3.60500E-03 3.11606E-04-1.28363E-14
 -1       910 9.61184E-03 1.62463E-04-8.28297E-14
 -1       911 4.46603E-03 3.08752E-04-1.91706E-14
 -1       912 4.17930E-03 3.10146E-04-1.69294E-14
 -1       913 2.45275E-03 3.01004E-04-6.26171E-15
 -1       914 2.16422E-03 2.92129E-04-4.96644E-15
 -1       915 1.44668E-03 2.76964E-04-2.31969E-15
 -1       916 1.87592E-03 2.78825E-04-3.81603E-15
 -1       917 9.73566E-03 1.09229E-05-8.18290E-14
 -1       918 1.00974E-02-1.58637E-04-8.45542E-14
 -1       919 1.38103E-03 3.41177E-05-2.39531E-15
 -1       920 3.31739E-03 3.11269E-04-1.09881E-14
 -1       921 1.38420E-03 9.98647E-05-2.36379E-15
 -1       922 3.02945E-03 3.09769E-04-9.27478E-15
 -1       923 1.48311E-03-1.53150E-04-2.70525E-15
 -1       924 9.56314E-03 2.20134E-04-8.05733E-14
 -1       925 1.46257E-03 1.97994E-04-2.50054E-15
 -1       926 1.91516E-03-1.81464E-04-4.25985E-15
 -1       927 2.20447E-03-1.90106E-04-5.48281E-15
 -1       928 2.49435E-03-1.95841E-04-6.85028E-15
 -1       929 2.78431E-03-1.99381E-04-8.35829E-15
 -1       930 3.07405E-03-2.01321E-04-1.00056E-14
 -1       931 3.36339E-03-2.02129E-04-1.17869E-14
 -1       932 3.65226E-03-2.02155E-04-1.36995E-14
 -1       933 3.94063E-03-2.01646E-04-1.57400E-14
 -1       934 4.22851E-03-2.00767E-04-1.79056E-14
 -1       935 4.51590E-03-1.99618E-04-2.01931E-14
 -1       936 4.80282E-03-1.98248E-04-2.25997E-14
 -1       937 5.08926E-03-1.96664E-04-2.51247E-14
 -1       938 5.37522E-03-1.94841E-04-2.77582E-14
 -1       939 5.66064E-03-1.92731E-04-3.04967E-14
 -1       940 5.94545E-03-1.90267E-04-3.33367E-14
 -1       941 6.22954E-03-1.87372E-04-3.62737E-14
 -1       942 6.51278E-03-1.83960E-04-3.93083E-14
 -1       943 6.79500E-03-1.79946E-04-4.24396E-14
 -1       944 7.07602E-03-1.75254E-04-4.56636E-14
 -1       945 7.35567E-03-1.69825E-04-4.89740E-14
 -1       946 7.63379E-03-1.63631E-04-5.23649E-14
 -1       947 7.91033E-03-1.56689E-04-5.58305E-14
 -1       948 8.18539E-03-1.49086E-04-5.93743E-14
 -1       949 8.45933E-03-1.41024E-04-6.29868E-14
 -1       950 8.73294E-03-1.32889E-04-6.66687E-14
 -1       951 9.00771E-03-1.25405E-04-7.04073E-14
 -1       952 9.28617E-03-1.19984E-04-7.41969E-14
 -1       953 9.57237E-03-1.19353E-04-7.80333E-14
 -1       954 9.82674E-03-1.31779E-04-8.12801E-14
 -1       955 1.38095E-03-3.12615E-05-2.41206E-15
 -1       956 2.58911E-03 2.29794E-04-7.07723E-15
 -1       957 2.01017E-03 2.15269E-04-4.46434E-15
 -1       958 4.89437E-03 2.31551E-04-2.29199E-14
 -1       959 5.75171E-03 2.25528E-04-3.08523E-14
 -1       960 6.03639E-03 2.22841E-04-3.36989E-14
 -1       961 6.32032E-03 2.19722E-04-3.66435E-14
 -1       962 6.60328E-03 2.16136E-04-3.96797E-14
 -1       963 6.88501E-03 2.12083E-04-4.28092E-14
 -1       964 7.16513E-03 2.07628E-04-4.60318E-14
 -1       965 7.44318E-03 2.02927E-04-4.93422E-14
 -1       966 7.71856E-03 1.98266E-04-5.27306E-14
 -1       967 7.99054E-03 1.94094E-04-5.61933E-14
 -1       968 8.25819E-03 1.91058E-04-5.97301E-14
 -1       969 8.52040E-03 1.90011E-04-6.33409E-14
 -1       970 8.77580E-03 1.91979E-04-6.70161E-14
 -1       971 9.02275E-03 1.98080E-04-7.07480E-14
 -1       972 9.25923E-03 2.09416E-04-7.45306E-14
 -1       973 9.46428E-03 1.65386E-04-7.97593E-14
 -1       974 4.60770E-03 2.33031E-04-2.04952E-14
 -1       975 3.74516E-03 2.35820E-04-1.39561E-14
 -1       976 9.46539E-03 1.09315E-04-7.93659E-14
 -1       977 5.46642E-03 2.27839E-04-2.81042E-14
 -1       978 2.29949E-03 2.24049E-04-5.70001E-15
 -1       979 1.66084E-03 2.80562E-04-3.02297E-15
 -1       980 5.18062E-03 2.29830E-04-2.54573E-14
 -1       981 1.69853E-03-1.68266E-04-3.44085E-15
 -1       982 1.43062E-03-9.06710E-05-2.56254E-15
 -1       983 1.79361E-03 2.21707E-04-3.60824E-15
 -1       984 2.87865E-03 2.33282E-04-8.59303E-15
 -1       985 3.45675E-03 2.35873E-04-1.20351E-14
 -1       986 4.03311E-03 2.35232E-04-1.60076E-14
 -1       987 4.32062E-03 2.34271E-04-1.81891E-14
 -1       988 9.48624E-03 4.59005E-05-7.87731E-14
 -1       989 1.62755E-03 1.56919E-06-3.21735E-15
 -1       990 9.78584E-03-5.82594E-05-8.15570E-14
 -1       991 1.62928E-03 7.31272E-05-3.18738E-15
 -1       992 2.34409E-03-1.20389E-04-6.15892E-15
 -1       993 2.63463E-03-1.23338E-04-7.59441E-15
 -1       994 2.92517E-03-1.25068E-04-9.16903E-15
 -1       995 3.21540E-03-1.25919E-04-1.08792E-14
 -1       996 3.50515E-03-1.26153E-04-1.27227E-14
 -1       997 3.79434E-03-1.25963E-04-1.46946E-14
 -1       998 4.08295E-03-1.25483E-04-1.67931E-14
 -1       999 4.37097E-03-1.24797E-04-1.90157E-14
 -1      1000 4.65842E-03-1.23952E-04-2.13600E-14
 -1      1001 4.94529E-03-1.22965E-04-2.38220E-14
 -1      1002 5.23158E-03-1.21827E-04-2.63979E-14
 -1      1003 5.51722E-03-1.20510E-04-2.90810E-14
 -1      1004 5.80215E-03-1.18969E-04-3.18667E-14
 -1      1005 6.08625E-03-1.17146E-04-3.47511E-14
 -1      1006 6.36936E-03-1.14967E-04-3.77313E-14
 -1      1007 6.65126E-03-1.12350E-04-4.08091E-14
 -1      1008 6.93171E-03-1.09197E-04-4.39803E-14
 -1      1009 7.21044E-03-1.05400E-04-4.72394E-14
 -1      1010 7.48715E-03-1.00833E-04-5.05843E-14
 -1      1011 7.76154E-03-9.53605E-05-5.40043E-14
 -1      1012 8.03340E-03-8.88297E-05-5.75015E-14
 -1      1013 8.30260E-03-8.10835E-05-6.10745E-14
 -1      1014 8.56926E-03-7.19880E-05-6.47157E-14
 -1      1015 8.83383E-03-6.15138E-05-6.84215E-14
 -1      1016 9.09736E-03-4.98595E-05-7.21811E-14
 -1      1017 9.36197E-03-3.79394E-05-7.59872E-14
 -1      1018 5.89280E-03 1.51909E-04-3.24106E-14
 -1      1019 6.74081E-03 1.45201E-04-4.13928E-14
 -1      1020 7.02045E-03 1.42506E-04-4.45702E-14
 -1      1021 7.29789E-03 1.39749E-04-4.78392E-14
 -1      1022 7.57251E-03 1.37162E-04-5.11915E-14
 -1      1023 7.84358E-03 1.35109E-04-5.46197E-14
 -1      1024 8.11019E-03 1.34108E-04-5.81230E-14
 -1      1025 8.37121E-03 1.34843E-04-6.17005E-14
 -1      1026 8.62518E-03 1.38148E-04-6.53518E-14
 -1      1027 8.87020E-03 1.44953E-04-6.90612E-14
 -1      1028 9.10358E-03 1.56059E-04-7.28214E-14
 -1      1029 5.32262E-03 1.55100E-04-2.69087E-14
 -1      1030 6.45941E-03 1.47700E-04-3.83067E-14
 -1      1031 9.36021E-03 1.84647E-04-7.71584E-14
 -1      1032 6.17665E-03 1.49940E-04-3.53109E-14
 -1      1033 4.74990E-03 1.57492E-04-2.18286E-14
 -1      1034 1.70963E-03 1.45616E-04-3.40524E-15
 -1      1035 5.03654E-03 1.56383E-04-2.43134E-14
 -1      1036 9.29478E-03 1.26082E-04-7.65181E-14
 -1      1037 5.60807E-03 1.53619E-04-2.96107E-14
 -1      1038 1.67641E-03-6.21194E-05-3.39879E-15
 -1      1039 2.05401E-03-1.15818E-04-4.86474E-15
 -1      1040 3.16790E-03 2.35146E-04-1.02467E-14
 -1      1041 1.92673E-03 1.37300E-04-4.23660E-15
 -1      1042 1.87723E-03 3.98141E-05-4.12484E-15
 -1      1043 9.56814E-03-4.44091E-05-7.87621E-14
 -1      1044 3.59791E-03 1.59952E-04-1.30975E-14
 -1      1045 2.72846E-03 1.56919E-04-7.91356E-15
 -1      1046 4.46272E-03 1.58435E-04-1.94595E-14
 -1      1047 2.21629E-03 1.43917E-04-5.44580E-15
 -1      1048 1.68655E-03-1.14807E-04-3.42473E-15
 -1      1049 1.92498E-03-2.74280E-05-4.33899E-15
 -1      1050 9.27886E-03 7.41427E-05-7.59379E-14
 -1      1051 3.88673E-03 1.59733E-04-1.50896E-14
 -1      1052 2.47233E-03 1.51019E-04-6.62650E-15
 -1      1053 1.86992E-03-1.15977E-04-4.11491E-15
 -1      1054 4.89253E-03 8.23289E-05-2.31713E-14
 -1      1055 2.48665E-03-4.83728E-05-6.84828E-15
 -1      1056 3.30855E-03 1.59710E-04-1.12348E-14
 -1      1057 2.77755E-03-4.92807E-05-8.34938E-15
 -1      1058 3.06832E-03-4.97554E-05-9.98694E-15
 -1      1059 3.35867E-03-4.99278E-05-1.17581E-14
 -1      1060 3.64847E-03-4.98911E-05-1.36615E-14
 -1      1061 3.93767E-03-4.97126E-05-1.56930E-14
 -1      1062 4.22623E-03-4.94327E-05-1.78485E-14
 -1      1063 4.51415E-03-4.90769E-05-2.01287E-14
 -1      1064 4.80145E-03-4.86602E-05-2.25305E-14
 -1      1065 5.08810E-03-4.81791E-05-2.50447E-14
 -1      1066 5.37407E-03-4.76212E-05-2.76717E-14
 -1      1067 5.65930E-03-4.69665E-05-3.04013E-14
 -1      1068 5.94366E-03-4.61790E-05-3.32324E-14
 -1      1069 6.22700E-03-4.52125E-05-3.61609E-14
 -1      1070 6.50908E-03-4.40030E-05-3.91875E-14
 -1      1071 6.78964E-03-4.24647E-05-4.23039E-14
 -1      1072 7.06834E-03-4.04824E-05-4.55126E-14
 -1      1073 7.34478E-03-3.79022E-05-4.88083E-14
 -1      1074 7.61854E-03-3.45195E-05-5.21844E-14
 -1      1075 7.88912E-03-3.00667E-05-5.56381E-14
 -1      1076 8.15605E-03-2.42015E-05-5.91683E-14
 -1      1077 8.41885E-03-1.65004E-05-6.27714E-14
 -1      1078 8.67712E-03-6.45605E-06-6.64416E-14
 -1      1079 8.93043E-03 6.47462E-06-7.01706E-14
 -1      1080 4.17500E-03 1.59198E-04-1.72115E-14
 -1      1081 6.87827E-03 7.62861E-05-4.31114E-14
 -1      1082 7.70293E-03 7.47279E-05-5.30459E-14
 -1      1083 7.97063E-03 7.57351E-05-5.65165E-14
 -1      1084 8.23328E-03 7.83193E-05-6.00633E-14
 -1      1085 8.48971E-03 8.31831E-05-6.36824E-14
 -1      1086 8.73842E-03 9.11177E-05-6.73674E-14
 -1      1087 8.97726E-03 1.03074E-04-7.11044E-14
 -1      1088 7.15604E-03 7.53573E-05-4.63384E-14
 -1      1089 2.16676E-03 4.19300E-05-5.32358E-15
 -1      1090 5.17896E-03 8.17293E-05-2.57157E-14
 -1      1091 5.46471E-03 8.10398E-05-2.83677E-14
 -1      1092 3.01869E-03 1.58795E-04-9.50601E-15
 -1      1093 5.74970E-03 8.02518E-05-3.11226E-14
 -1      1094 6.59836E-03 7.73335E-05-3.99759E-14
 -1      1095 7.43114E-03 7.47405E-05-4.96529E-14
 -1      1096 2.19601E-03-4.69039E-05-5.48615E-15
 -1      1097 9.19152E-03 1.40150E-05-7.40606E-14
 -1      1098 4.60546E-03 8.28439E-05-2.07392E-14
 -1      1099 2.87043E-03 8.26513E-05-8.77006E-15
 -1      1100 6.03377E-03 7.93635E-05-3.39775E-14
 -1      1101 3.74058E-03 8.37672E-05-1.41756E-14
 -1      1102 2.61403E-03 7.83244E-05-7.41480E-15
 -1      1103 6.31675E-03 7.83810E-05-3.69304E-14
 -1      1104 3.45107E-03 8.37351E-05-1.22417E-14
 -1      1105 5.60697E-03 7.77112E-06-2.98327E-14
 -1      1106 3.50348E-03 2.63583E-05-1.26413E-14
 -1      1107 4.37021E-03 2.63215E-05-1.89068E-14
 -1      1108 5.89146E-03 7.84802E-06-3.26416E-14
 -1      1109 6.17493E-03 7.98269E-06-3.55493E-14
 -1      1110 6.45714E-03 8.21894E-06-3.85546E-14
 -1      1111 6.73781E-03 8.62616E-06-4.16514E-14
 -1      1112 7.01658E-03 9.31030E-06-4.48381E-14
 -1      1113 7.29300E-03 1.04281E-05-4.81133E-14
 -1      1114 7.56657E-03 1.22043E-05-5.14718E-14
 -1      1115 7.83668E-03 1.49507E-05-5.49070E-14
 -1      1116 8.10266E-03 1.90845E-05-5.84208E-14
 -1      1117 8.36372E-03 2.51415E-05-6.20076E-14
 -1      1118 8.61897E-03 3.37604E-05-6.56638E-14
 -1      1119 3.18703E-03 5.48410E-05-1.06249E-14
 -1      1120 8.95683E-03 4.99839E-05-7.07570E-14
 -1      1121 4.02950E-03 8.35901E-05-1.62373E-14
 -1      1122 4.31779E-03 8.32682E-05-1.84267E-14
 -1      1123 0.00000E+00 0.00000E+00 0.00000E+00
 -1      1124 0.00000E+00 0.00000E+00 0.00000E+00
 -1      1125 0.00000E+00 0.00000E+00 0.00000E+00
 -1      1126 0.00000E+00 0.00000E+00 0.00000E+00
 -1      1127 0.00000E+00 0.00000E+00 0.00000E+00
 -1      1128 0.00000E+00 0.00000E+00 0.00000E+00
 -1      1129 0.00000E+00 0.00000E+00 0.00000E+00
 -1      1130 0.00000E+00 0.00000E+00 0.00000E+00
 -1      1131 0.00000E+00 0.00000E+00 0.00000E+00
 -1      1132 0.00000E+00 0.00000E+00 0.00000E+00
 -1      1133 0.00000E+00 0.00000E+00 0.00000E+00
 -1      1134 0.00000E+00 0.00000E+00 0.00000E+00
 -1      1135 0.00000E+00 0.00000E+00 0.00000E+00
 -1      1136 0.00000E+00 0.00000E+00 0.00000E+00
 -1      1137 0.00000E+00 0.00000E+00 0.00000E+00
 -1      1138 0.00000E+00 0.00000E+00 0.00000E+00
 -1      1139 0.00000E+00 0.00000E+00 0.00000E+00
 -1      1140 2.11678E-04-1.48334E-04 1.89058E-17
 -1      1141 5.51673E-04-3.37520E-04-5.53079E-17
 -1      1142 8.33520E-04-4.59020E-04-2.93141E-16
 -1      1143 1.10312E-03-5.40712E-04-7.20439E-16
 -1      1144 1.36857E-03-5.97976E-04-1.32780E-15
 -1      1145 1.63342E-03-6.38709E-04-2.10933E-15
 -1      1146 1.89952E-03-6.67561E-04-3.06195E-15
 -1      1147 2.16772E-03-6.87654E-04-4.18143E-15
 -1      1148 2.43831E-03-7.01274E-04-5.46414E-15
 -1      1149 2.71128E-03-7.10146E-04-6.90504E-15
 -1      1150 2.98647E-03-7.15576E-04-8.49878E-15
 -1      1151 3.26363E-03-7.18547E-04-1.02390E-14
 -1      1152 3.54248E-03-7.19784E-04-1.21206E-14
 -1      1153 3.82276E-03-7.19809E-04-1.41398E-14
 -1      1154 4.10420E-03-7.18987E-04-1.62866E-14
 -1      1155 4.38659E-03-7.17555E-04-1.85566E-14
 -1      1156 4.66976E-03-7.15654E-04-2.09475E-14
 -1      1157 4.95357E-03-7.13352E-04-2.34569E-14
 -1      1158 5.23796E-03-7.10659E-04-2.60778E-14
 -1      1159 5.52290E-03-7.07548E-04-2.88068E-14
 -1      1160 5.80844E-03-7.03970E-04-3.16369E-14
 -1      1161 6.09471E-03-6.99870E-04-3.45692E-14
 -1      1162 6.38191E-03-6.95211E-04-3.76052E-14
 -1      1163 6.67034E-03-6.89997E-04-4.07440E-14
 -1      1164 6.96040E-03-6.84306E-04-4.39847E-14
 -1      1165 7.25259E-03-6.78338E-04-4.73232E-14
 -1      1166 7.54753E-03-6.72463E-04-5.07562E-14
 -1      1167 7.84588E-03-6.67292E-04-5.42715E-14
 -1      1168 8.14838E-03-6.63752E-04-5.78678E-14
 -1      1169 8.45565E-03-6.63150E-04-6.15289E-14
 -1      1170 8.76813E-03-6.67227E-04-6.52484E-14
 -1      1171 9.08576E-03-6.78126E-04-6.90220E-14
 -1      1172 9.40777E-03-6.98233E-04-7.28489E-14
 -1      1173 9.73224E-03-7.29783E-04-7.67348E-14
 -1      1174 1.00559E-02-7.74122E-04-8.06716E-14
 -1      1175 1.03740E-02-8.30627E-04-8.46520E-14
 -1      1176 1.06809E-02-8.95431E-04-8.86681E-14
 -1      1177 1.09713E-02-9.60513E-04-9.27266E-14
 -1      1178 1.12420E-02-1.01396E-03-9.68197E-14
 -1      1179 1.14939E-02-1.04211E-03-1.00966E-13
 -1      1180 1.17326E-02-1.03343E-03-1.05173E-13
 -1      1181 1.19670E-02-9.82406E-04-1.09436E-13
 -1      1182 1.22064E-02-8.91405E-04-1.13755E-13
 -1      1183 1.24569E-02-7.69197E-04-1.18130E-13
 -1      1184 1.27204E-02-6.27096E-04-1.22554E-13
 -1      1185 1.29945E-02-4.74915E-04-1.27017E-13
 -1      1186 1.32753E-02-3.18631E-04-1.31509E-13
 -1      1187 1.35588E-02-1.60294E-04-1.36021E-13
 -1      1188 1.38431E-02 2.54991E-07-1.40549E-13
 -1      1189 1.41208E-02 1.58555E-04-1.44985E-13
 -1      1190 2.28437E-04 1.60713E-04 3.72423E-17
 -1      1191 5.53842E-04 3.42150E-04 1.34170E-18
 -1      1192 8.34447E-04 4.61183E-04-1.86591E-16
 -1      1193 1.10402E-03 5.42395E-04-5.45449E-16
 -1      1194 1.36947E-03 5.99656E-04-1.07244E-15
 -1      1195 1.63437E-03 6.40479E-04-1.76572E-15
 -1      1196 1.90053E-03 6.69437E-04-2.62297E-15
 -1      1197 2.16877E-03 6.89649E-04-3.64025E-15
 -1      1198 2.43938E-03 7.03396E-04-4.81696E-15
 -1      1199 2.71237E-03 7.12401E-04-6.14943E-15
 -1      1200 2.98757E-03 7.17968E-04-7.63249E-15
 -1      1201 3.26473E-03 7.21077E-04-9.26002E-15
 -1      1202 3.54359E-03 7.22451E-04-1.10306E-14
 -1      1203 3.82386E-03 7.22614E-04-1.29421E-14
 -1      1204 4.10530E-03 7.21928E-04-1.49977E-14
 -1      1205 4.38767E-03 7.20628E-04-1.71950E-14
 -1      1206 4.67082E-03 7.18855E-04-1.95203E-14
 -1      1207 4.95460E-03 7.16668E-04-2.19689E-14
 -1      1208 5.23894E-03 7.14070E-04-2.45366E-14
 -1      1209 5.52382E-03 7.11020E-04-2.72084E-14
 -1      1210 5.80928E-03 7.07447E-04-2.99719E-14
 -1      1211 6.09547E-03 7.03261E-04-3.28326E-14
 -1      1212 6.38260E-03 6.98375E-04-3.57948E-14
 -1      1213 6.67102E-03 6.92717E-04-3.88537E-14
 -1      1214 6.96121E-03 6.86267E-04-4.20021E-14
 -1      1215 7.25385E-03 6.79089E-04-4.52379E-14
 -1      1216 7.54983E-03 6.71396E-04-4.85577E-14
 -1      1217 7.85030E-03 6.63631E-04-5.19598E-14
 -1      1218 8.15676E-03 6.56604E-04-5.54331E-14
 -1      1219 8.47104E-03 6.51671E-04-5.89697E-14
 -1      1220 8.79533E-03 6.51013E-04-6.25722E-14
 -1      1221 9.13200E-03 6.57998E-04-6.62436E-14
 -1      1222 9.48331E-03 6.77626E-04-6.99751E-14
 -1      1223 9.85065E-03 7.16908E-04-7.37516E-14
 -1      1224 1.02332E-02 7.84792E-04-7.75805E-14
 -1      1225 1.06261E-02 8.90784E-04-8.14667E-14
 -1      1226 1.10183E-02 1.04098E-03-8.54032E-14
 -1      1227 1.13923E-02 1.23072E-03-8.93973E-14
 -1      1228 1.17284E-02 1.43636E-03-9.34348E-14
 -1      1229 1.20157E-02 1.61419E-03-9.75141E-14
 -1      1230 1.22636E-02 1.71552E-03-1.01622E-13
 -1      1231 1.25014E-02 1.71397E-03-1.05761E-13
 -1      1232 1.27616E-02 1.62279E-03-1.09930E-13
 -1      1233 1.30595E-02 1.48443E-03-1.14126E-13
 -1      1234 1.33885E-02 1.34252E-03-1.18346E-13
 -1      1235 1.37301E-02 1.22195E-03-1.22575E-13
 -1      1236 1.40658E-02 1.12628E-03-1.26815E-13
 -1      1237 1.43844E-02 1.04496E-03-1.31064E-13
 -1      1238 1.46836E-02 9.62394E-04-1.35294E-13
 -1      1239 1.49633E-02 8.69813E-04-1.39417E-13
 -1      1240 1.51496E-02 7.78485E-04-1.41606E-13
 -1      1241 1.52600E-02 6.95623E-04-1.41978E-13
 -1      1242 1.53842E-02 6.26235E-04-1.42358E-13
 -1      1243 1.55134E-02 5.80239E-04-1.42746E-13
 -1      1244 1.56314E-02 5.63194E-04-1.43165E-13
 -1      1245 1.57187E-02 5.74789E-04-1.43595E-13
 -1      1246 1.57587E-02 6.08071E-04-1.44043E-13
 -1      1247 1.57396E-02 6.50856E-04-1.44472E-13
 -1      1248 1.56601E-02 6.87487E-04-1.44866E-13
 -1      1249 1.55299E-02 7.04740E-04-1.45212E-13
 -1      1250 1.53657E-02 6.95363E-04-1.45521E-13
 -1      1251 1.51865E-02 6.59386E-04-1.45825E-13
 -1      1252 1.50047E-02 6.01500E-04-1.46109E-13
 -1      1253 1.48267E-02 5.27983E-04-1.46371E-13
 -1      1254 1.46567E-02 4.46199E-04-1.46601E-13
 -1      1255 1.44934E-02 3.61487E-04-1.46822E-13
 -1      1256 1.43348E-02 2.77356E-04-1.47044E-13
 -1      1257 1.45167E-02 5.54694E-04-1.13536E-13
 -1      1258 1.43966E-02 7.27996E-04-1.12983E-13
 -1      1259 1.41554E-02 9.03698E-04-1.11983E-13
 -1      1260 1.38110E-02 1.07845E-03-1.10549E-13
 -1      1261 1.33992E-02 1.23287E-03-1.08803E-13
 -1      1262 1.29449E-02 1.34789E-03-1.06826E-13
 -1      1263 1.24707E-02 1.40111E-03-1.04719E-13
 -1      1264 1.19964E-02 1.38487E-03-1.02617E-13
 -1      1265 1.15273E-02 1.29668E-03-1.00586E-13
 -1      1266 1.10483E-02 1.14155E-03-9.85827E-14
 -1      1267 1.06129E-02 9.50639E-04-9.68523E-14
 -1      1268 1.02479E-02 7.48060E-04-9.54868E-14
 -1      1269 9.99015E-03 5.60657E-04-9.45912E-14
 -1      1270 9.84898E-03 3.95795E-04-9.41400E-14
 -1      1271 9.81422E-03 2.40584E-04-9.40921E-14
 -1      1272 9.89730E-03 8.10880E-05-9.44954E-14
 -1      1273 1.00945E-02-7.91009E-05-9.53613E-14
 -1      1274 1.03751E-02-2.29090E-04-9.65708E-14
 -1      1275 1.07250E-02-3.68682E-04-9.80984E-14
 -1      1276 1.11219E-02-4.83358E-04-9.98571E-14
 -1      1277 1.15732E-02-5.61793E-04-1.01906E-13
 -1      1278 1.20521E-02-5.84867E-04-1.04091E-13
 -1      1279 1.25271E-02-5.41498E-04-1.06204E-13
 -1      1280 1.29917E-02-4.39715E-04-1.08182E-13
 -1      1281 1.34222E-02-2.99515E-04-1.09911E-13
 -1      1282 1.38078E-02-1.36425E-04-1.11350E-13
 -1      1283 1.41333E-02 3.76539E-05-1.12476E-13
 -1      1284 1.43730E-02 2.10425E-04-1.13237E-13
 -1      1285 1.45065E-02 3.79764E-04-1.13608E-13
 -1      1286 1.66710E-04-1.10341E-04-7.76560E-18
 -1      1287 1.12546E-04-5.69700E-05-3.85434E-17
 -1      1288 1.17629E-04-6.75790E-05-3.00053E-17
 -1      1289 1.08418E-04-4.34879E-05-5.26380E-17
 -1      1290 1.10282E-04-4.95999E-05-4.84774E-17
 -1      1291 2.26332E-04-1.07614E-04-1.13760E-16
 -1      1292 1.06847E-04-3.36171E-05-6.00784E-17
 -1      1293 1.07692E-04-3.83421E-05-5.79913E-17
 -1      1294 2.19102E-04-8.24647E-05-1.38683E-16
 -1      1295 1.06066E-04-2.53467E-05-6.44558E-17
 -1      1296 1.06499E-04-2.93788E-05-6.34529E-17
 -1      1297 2.15881E-04-6.32781E-05-1.52913E-16
 -1      1298 1.05656E-04-1.80900E-05-6.64074E-17
 -1      1299 1.05886E-04-2.16575E-05-6.60550E-17
 -1      1300 2.14209E-04-4.71832E-05-1.60828E-16
 -1      1301 1.05435E-04-1.12386E-05-6.77220E-17
 -1      1302 1.05559E-04-1.46237E-05-6.75729E-17
 -1      1303 2.13286E-04-3.27514E-05-1.65016E-16
 -1      1304 1.05335E-04-4.68891E-06-6.79659E-17
 -1      1305 1.05388E-04-7.94212E-06-6.79524E-17
 -1      1306 2.12789E-04-1.91893E-05-1.66886E-16
 -1      1307 1.05323E-04 1.74292E-06-6.76813E-17
 -1      1308 1.05321E-04-1.47040E-06-6.78168E-17
 -1      1309 2.12573E-04-6.16010E-06-1.67130E-16
 -1      1310 1.05396E-04 8.22432E-06-6.65836E-17
 -1      1311 1.05339E-04 4.96466E-06-6.68682E-17
 -1      1312 2.12581E-04 6.70829E-06-1.65666E-16
 -1      1313 1.05575E-04 1.49311E-05-6.48488E-17
 -1      1314 1.05446E-04 1.15313E-05-6.53638E-17
 -1      1315 2.12814E-04 1.97634E-05-1.62535E-16
 -1      1316 1.05909E-04 2.19496E-05-6.18673E-17
 -1      1317 1.05673E-04 1.83585E-05-6.28160E-17
 -1      1318 2.13327E-04 3.32649E-05-1.57426E-16
 -1      1319 1.06535E-04 2.98164E-05-5.72459E-17
 -1      1320 1.06095E-04 2.57394E-05-5.88180E-17
 -1      1321 2.14272E-04 4.77924E-05-1.49444E-16
 -1      1322 1.07728E-04 3.89154E-05-5.03747E-17
 -1      1323 1.06875E-04 3.41217E-05-5.29768E-17
 -1      1324 2.15980E-04 6.42054E-05-1.37572E-16
 -1      1325 1.10269E-04 5.03429E-05-3.87602E-17
 -1      1326 1.08430E-04 4.41588E-05-4.37747E-17
 -1      1327 2.19210E-04 8.37039E-05-1.19601E-16
 -1      1328 1.16944E-04 6.76172E-05-1.96918E-17
 -1      1329 1.12193E-04 5.77719E-05-2.90024E-17
 -1      1330 2.26328E-04 1.09441E-04-9.14796E-17
 -1      1331 1.57588E-04 1.09859E-04 1.04897E-17
 -1      1332 1.35670E-04 8.60895E-05-8.51099E-18
 -1      1333 2.56054E-04 1.52090E-04-5.74763E-17
 -1      1334 3.35105E-04 2.20738E-04-7.69784E-18
 -1      1335 4.21569E-04-2.61739E-04-7.45389E-17
 -1      1336 5.74677E-04-3.36802E-04-1.54689E-16
 -1      1337 7.21877E-04-3.97407E-04-2.84562E-16
 -1      1338 8.65056E-04-4.46706E-04-4.60122E-16
 -1      1339 6.12115E-04-3.30895E-04-2.68503E-16
 -1      1340 1.00509E-03-4.87783E-04-6.79104E-16
 -1      1341 1.14295E-03-5.21777E-04-9.42565E-16
 -1      1342 9.05369E-04-4.31600E-04-6.31968E-16
 -1      1343 1.27946E-03-5.50557E-04-1.24971E-15
 -1      1344 1.41512E-03-5.74602E-04-1.60111E-15
 -1      1345 1.18782E-03-5.01031E-04-1.16876E-15
 -1      1346 1.55038E-03-5.94978E-04-1.99482E-15
 -1      1347 1.68549E-03-6.12019E-04-2.43079E-15
 -1      1348 1.46478E-03-5.49821E-04-1.87759E-15
 -1      1349 1.82069E-03-6.26351E-04-2.90925E-15
 -1      1350 1.95609E-03-6.38269E-04-3.42935E-15
 -1      1351 1.73949E-03-5.84151E-04-2.75517E-15
 -1      1352 2.09182E-03-6.48174E-04-3.99028E-15
 -1      1353 2.22791E-03-6.56317E-04-4.59199E-15
 -1      1354 2.01382E-03-6.08002E-04-3.79848E-15
 -1      1355 2.36444E-03-6.62972E-04-5.23401E-15
 -1      1356 2.50139E-03-6.68344E-04-5.91529E-15
 -1      1357 2.28876E-03-6.24189E-04-5.00367E-15
 -1      1358 2.63879E-03-6.72629E-04-6.63563E-15
 -1      1359 2.77663E-03-6.75991E-04-7.39393E-15
 -1      1360 2.56478E-03-6.34784E-04-6.36675E-15
 -1      1361 2.91490E-03-6.78568E-04-8.18932E-15
 -1      1362 3.05357E-03-6.80490E-04-9.02226E-15
 -1      1363 2.84207E-03-6.41341E-04-7.88204E-15
 -1      1364 3.19265E-03-6.81855E-04-9.89078E-15
 -1      1365 3.33208E-03-6.82761E-04-1.07949E-14
 -1      1366 3.12065E-03-6.45021E-04-9.54464E-15
 -1      1367 3.47187E-03-6.83277E-04-1.17343E-14
 -1      1368 3.61197E-03-6.83476E-04-1.27080E-14
 -1      1369 3.40044E-03-6.46681E-04-1.13497E-14
 -1      1370 3.75236E-03-6.83404E-04-1.37151E-14
 -1      1371 3.89302E-03-6.83114E-04-1.47547E-14
 -1      1372 3.68132E-03-6.46944E-04-1.32932E-14
 -1      1373 4.03393E-03-6.82633E-04-1.58261E-14
 -1      1374 4.17506E-03-6.81999E-04-1.69282E-14
 -1      1375 3.96315E-03-6.46246E-04-1.53686E-14
 -1      1376 4.31640E-03-6.81227E-04-1.80616E-14
 -1      1377 4.45792E-03-6.80340E-04-1.92257E-14
 -1      1378 4.24579E-03-6.44878E-04-1.75691E-14
 -1      1379 4.59962E-03-6.79344E-04-2.04190E-14
 -1      1380 4.74147E-03-6.78252E-04-2.16426E-14
 -1      1381 4.52913E-03-6.43018E-04-1.98928E-14
 -1      1382 4.88347E-03-6.77061E-04-2.28952E-14
 -1      1383 5.02562E-03-6.75779E-04-2.41753E-14
 -1      1384 4.81307E-03-6.40758E-04-2.23353E-14
 -1      1385 5.16790E-03-6.74396E-04-2.54834E-14
 -1      1386 5.31032E-03-6.72915E-04-2.68195E-14
 -1      1387 5.09756E-03-6.38122E-04-2.48926E-14
 -1      1388 5.45288E-03-6.71322E-04-2.81810E-14
 -1      1389 5.59558E-03-6.69619E-04-2.95693E-14
 -1      1390 5.38256E-03-6.35088E-04-2.75590E-14
 -1      1391 5.73845E-03-6.67786E-04-3.09821E-14
 -1      1392 5.88148E-03-6.65828E-04-3.24201E-14
 -1      1393 5.66813E-03-6.31600E-04-3.03294E-14
 -1      1394 6.02471E-03-6.63724E-04-3.38852E-14
 -1      1395 6.16815E-03-6.61481E-04-3.53754E-14
 -1      1396 5.95433E-03-6.27587E-04-3.32029E-14
 -1      1397 6.31183E-03-6.59081E-04-3.68919E-14
 -1      1398 6.45579E-03-6.56537E-04-3.84337E-14
 -1      1399 6.24130E-03-6.22983E-04-3.61802E-14
 -1      1400 6.60007E-03-6.53837E-04-3.99999E-14
 -1      1401 6.74470E-03-6.51004E-04-4.15927E-14
 -1      1402 6.52925E-03-6.17745E-04-3.92598E-14
 -1      1403 6.88975E-03-6.48036E-04-4.32105E-14
 -1      1404 7.03526E-03-6.44973E-04-4.48530E-14
 -1      1405 6.81846E-03-6.11888E-04-4.24401E-14
 -1      1406 7.18130E-03-6.41829E-04-4.65201E-14
 -1      1407 7.32793E-03-6.38667E-04-4.82095E-14
 -1      1408 7.10927E-03-6.05521E-04-4.57192E-14
 -1      1409 7.47522E-03-6.35527E-04-4.99213E-14
 -1      1410 7.62325E-03-6.32501E-04-5.16556E-14
 -1      1411 7.40210E-03-5.98898E-04-4.90919E-14
 -1      1412 7.77208E-03-6.29667E-04-5.34098E-14
 -1      1413 7.92180E-03-6.27152E-04-5.51844E-14
 -1      1414 7.69743E-03-5.92486E-04-5.25526E-14
 -1      1415 8.07247E-03-6.25086E-04-5.69769E-14
 -1      1416 8.22416E-03-6.23639E-04-5.87883E-14
 -1      1417 7.99574E-03-5.87036E-04-5.60924E-14
 -1      1418 8.37693E-03-6.23004E-04-6.06153E-14
 -1      1419 8.53080E-03-6.23394E-04-6.24558E-14
 -1      1420 8.29752E-03-5.83670E-04-5.97047E-14
 -1      1421 8.68580E-03-6.25080E-04-6.43126E-14
 -1      1422 8.84192E-03-6.28307E-04-6.61836E-14
 -1      1423 8.60310E-03-5.83955E-04-6.33805E-14
 -1      1424 8.99912E-03-6.33424E-04-6.80669E-14
 -1      1425 9.15730E-03-6.40683E-04-6.99638E-14
 -1      1426 8.91260E-03-5.89932E-04-6.71155E-14
 -1      1427 9.31632E-03-6.50484E-04-7.18757E-14
 -1      1428 9.47599E-03-6.63038E-04-7.38019E-14
 -1      1429 9.22574E-03-6.04057E-04-7.09051E-14
 -1      1430 9.63603E-03-6.78724E-04-7.57411E-14
 -1      1431 9.79612E-03-6.97627E-04-7.76937E-14
 -1      1432 9.54163E-03-6.28938E-04-7.47512E-14
 -1      1433 9.95585E-03-7.19975E-04-7.96588E-14
 -1      1434 1.01147E-02-7.45606E-04-8.16345E-14
 -1      1435 9.85865E-03-6.66786E-04-7.86500E-14
 -1      1436 1.02723E-02-7.74402E-04-8.36198E-14
 -1      1437 1.04279E-02-8.05815E-04-8.56159E-14
 -1      1438 1.01743E-02-7.18453E-04-8.25926E-14
 -1      1439 1.05811E-02-8.39177E-04-8.76251E-14
 -1      1440 1.07313E-02-8.73449E-04-8.96428E-14
 -1      1441 1.04853E-02-7.82113E-04-8.65825E-14
 -1      1442 1.08781E-02-9.07303E-04-9.16679E-14
 -1      1443 1.10212E-02-9.39241E-04-9.37064E-14
 -1      1444 1.07882E-02-8.51902E-04-9.06140E-14
 -1      1445 1.11604E-02-9.67412E-04-9.57530E-14
 -1      1446 1.12959E-02-9.90105E-04-9.78086E-14
 -1      1447 1.10802E-02-9.17286E-04-9.46845E-14
 -1      1448 1.14278E-02-1.00541E-03-9.98828E-14
 -1      1449 1.15569E-02-1.01188E-03-1.01971E-13
 -1      1450 1.13601E-02-9.64151E-04-9.87999E-14
 -1      1451 1.16837E-02-1.00819E-03-1.04070E-13
 -1      1452 1.18091E-02-9.93653E-04-1.06183E-13
 -1      1453 1.16297E-02-9.78164E-04-1.02969E-13
 -1      1454 1.19341E-02-9.68061E-04-1.08313E-13
 -1      1455 1.20595E-02-9.31696E-04-1.10456E-13
 -1      1456 1.18935E-02-9.49496E-04-1.07193E-13
 -1      1457 1.21861E-02-8.85506E-04-1.12613E-13
 -1      1458 1.23145E-02-8.30565E-04-1.14784E-13
 -1      1459 1.21569E-02-8.76481E-04-1.11473E-13
 -1      1460 1.24450E-02-7.68487E-04-1.16968E-13
 -1      1461 1.25779E-02-7.00674E-04-1.19163E-13
 -1      1462 1.24248E-02-7.65848E-04-1.15808E-13
 -1      1463 1.27131E-02-6.28721E-04-1.21371E-13
 -1      1464 1.28504E-02-5.53865E-04-1.23593E-13
 -1      1465 1.26995E-02-6.29352E-04-1.20195E-13
 -1      1466 1.29896E-02-4.77171E-04-1.25824E-13
 -1      1467 1.31301E-02-3.99421E-04-1.28059E-13
 -1      1468 1.29805E-02-4.78939E-04-1.24629E-13
 -1      1469 1.32716E-02-3.21006E-04-1.30302E-13
 -1      1470 1.34137E-02-2.42252E-04-1.32553E-13
 -1      1471 1.32657E-02-3.23044E-04-1.29100E-13
 -1      1472 1.35562E-02-1.63044E-04-1.34808E-13
 -1      1473 1.36989E-02-8.34171E-05-1.37066E-13
 -1      1474 1.35527E-02-1.65428E-04-1.33595E-13
 -1      1475 1.38415E-02-3.12582E-06-1.39329E-13
 -1      1476 1.39841E-02 7.77285E-05-1.41598E-13
 -1      1477 1.38395E-02-6.25602E-06-1.38111E-13
 -1      1478 1.41992E-02 1.99984E-04-1.44879E-13
 -1      1479 1.41980E-02 1.96289E-04-1.43651E-13
 -1      1480 6.43121E-04 3.72014E-04-1.20089E-16
 -1      1481 4.92983E-04 3.03690E-04-4.22974E-17
 -1      1482 4.44911E-04 2.65892E-04-7.92416E-17
 -1      1483 9.28731E-04 4.71984E-04-4.01277E-16
 -1      1484 7.87855E-04 4.26489E-04-2.39975E-16
 -1      1485 7.44793E-04 3.90716E-04-2.84400E-16
 -1      1486 1.20365E-03 5.41416E-04-8.48741E-16
 -1      1487 1.06697E-03 5.09730E-04-6.04050E-16
 -1      1488 1.03086E-03 4.76164E-04-6.54560E-16
 -1      1489 1.47422E-03 5.90632E-04-1.46094E-15
 -1      1490 1.33916E-03 5.68163E-04-1.13408E-15
 -1      1491 1.30880E-03 5.36004E-04-1.18796E-15
 -1      1492 1.74378E-03 6.25553E-04-2.23693E-15
 -1      1493 1.60896E-03 6.09639E-04-1.82843E-15
 -1      1494 1.58305E-03 5.78313E-04-1.88399E-15
 -1      1495 2.01401E-03 6.50048E-04-3.17453E-15
 -1      1496 1.87873E-03 6.38931E-04-2.68572E-15
 -1      1497 1.85624E-03 6.08069E-04-2.74132E-15
 -1      1498 2.28572E-03 6.66864E-04-4.27051E-15
 -1      1499 2.14965E-03 6.59285E-04-3.70305E-15
 -1      1500 2.12977E-03 6.28657E-04-3.75847E-15
 -1      1501 2.55923E-03 6.78045E-04-5.52343E-15
 -1      1502 2.42224E-03 6.73058E-04-4.87757E-15
 -1      1503 2.40436E-03 6.42525E-04-4.93187E-15
 -1      1504 2.83457E-03 6.85130E-04-6.92840E-15
 -1      1505 2.69667E-03 6.82023E-04-6.20694E-15
 -1      1506 2.68029E-03 6.51500E-04-6.25837E-15
 -1      1507 3.11167E-03 6.89278E-04-8.48059E-15
 -1      1508 2.97291E-03 6.87513E-04-7.68676E-15
 -1      1509 2.95765E-03 6.56953E-04-7.73463E-15
 -1      1510 3.39033E-03 6.91350E-04-1.01771E-14
 -1      1511 3.25082E-03 6.90531E-04-9.31034E-15
 -1      1512 3.23638E-03 6.59909E-04-9.35538E-15
 -1      1513 3.67037E-03 6.91974E-04-1.20138E-14
 -1      1514 3.53019E-03 6.91812E-04-1.10781E-14
 -1      1515 3.51637E-03 6.61119E-04-1.11189E-14
 -1      1516 3.95156E-03 6.91593E-04-1.39924E-14
 -1      1517 3.81083E-03 6.91888E-04-1.29858E-14
 -1      1518 3.79745E-03 6.61123E-04-1.30229E-14
 -1      1519 4.23371E-03 6.90506E-04-1.61121E-14
 -1      1520 4.09252E-03 6.91124E-04-1.50347E-14
 -1      1521 4.07946E-03 6.60293E-04-1.50659E-14
 -1      1522 4.51666E-03 6.88898E-04-1.83673E-14
 -1      1523 4.37510E-03 6.89759E-04-1.72232E-14
 -1      1524 4.36228E-03 6.58870E-04-1.72471E-14
 -1      1525 4.80028E-03 6.86865E-04-2.07468E-14
 -1      1526 4.65839E-03 6.87931E-04-1.95417E-14
 -1      1527 4.64577E-03 6.56992E-04-1.95576E-14
 -1      1528 5.08448E-03 6.84434E-04-2.32475E-14
 -1      1529 4.94231E-03 6.85699E-04-2.19828E-14
 -1      1530 4.92984E-03 6.54717E-04-2.19921E-14
 -1      1531 5.36923E-03 6.81580E-04-2.58613E-14
 -1      1532 5.22679E-03 6.83061E-04-2.45410E-14
 -1      1533 5.21446E-03 6.52043E-04-2.45427E-14
 -1      1534 5.65454E-03 6.78239E-04-2.85736E-14
 -1      1535 5.51181E-03 6.79973E-04-2.72051E-14
 -1      1536 5.49961E-03 6.48918E-04-2.71992E-14
 -1      1537 5.94050E-03 6.74322E-04-3.13806E-14
 -1      1538 5.79743E-03 6.76355E-04-2.99652E-14
 -1      1539 5.78535E-03 6.45259E-04-2.99542E-14
 -1      1540 6.22729E-03 6.69729E-04-3.42892E-14
 -1      1541 6.08379E-03 6.72111E-04-3.28222E-14
 -1      1542 6.07181E-03 6.40962E-04-3.28082E-14
 -1      1543 6.51517E-03 6.64364E-04-3.72931E-14
 -1      1544 6.37108E-03 6.67140E-04-3.57792E-14
 -1      1545 6.35917E-03 6.35917E-04-3.57603E-14
 -1      1546 6.80452E-03 6.58161E-04-4.03935E-14
 -1      1547 6.65964E-03 6.61359E-04-3.88327E-14
 -1      1548 6.64774E-03 6.30025E-04-3.88078E-14
 -1      1549 7.09586E-03 6.51115E-04-4.35817E-14
 -1      1550 6.94991E-03 6.54725E-04-4.19763E-14
 -1      1551 6.93791E-03 6.23230E-04-4.19465E-14
 -1      1552 7.38990E-03 6.43325E-04-4.68543E-14
 -1      1553 7.24250E-03 6.47279E-04-4.52069E-14
 -1      1554 7.23023E-03 6.15548E-04-4.51732E-14
 -1      1555 7.68756E-03 6.35070E-04-5.02124E-14
 -1      1556 7.53822E-03 6.39200E-04-4.85238E-14
 -1      1557 7.52541E-03 6.07129E-04-4.84860E-14
 -1      1558 7.99000E-03 6.26910E-04-5.36456E-14
 -1      1559 7.83810E-03 6.30891E-04-5.19198E-14
 -1      1560 7.82434E-03 5.98340E-04-5.18783E-14
 -1      1561 8.29865E-03 6.19839E-04-5.71487E-14
 -1      1562 8.14345E-03 6.23106E-04-5.53892E-14
 -1      1563 8.12815E-03 5.89888E-04-5.53432E-14
 -1      1564 8.61523E-03 6.15516E-04-6.07150E-14
 -1      1565 8.45584E-03 6.17140E-04-5.89235E-14
 -1      1566 8.43816E-03 5.83008E-04-5.88745E-14
 -1      1567 8.94166E-03 6.16581E-04-6.43488E-14
 -1      1568 8.77709E-03 6.15101E-04-6.25236E-14
 -1      1569 8.75588E-03 5.79737E-04-6.24721E-14
 -1      1570 9.27982E-03 6.27082E-04-6.80462E-14
 -1      1571 9.10915E-03 6.20281E-04-6.61891E-14
 -1      1572 9.08290E-03 5.83294E-04-6.61343E-14
 -1      1573 9.63118E-03 6.52950E-04-7.17987E-14
 -1      1574 9.45376E-03 6.37628E-04-6.99166E-14
 -1      1575 9.42066E-03 5.98556E-04-6.98570E-14
 -1      1576 9.99594E-03 7.02296E-04-7.56023E-14
 -1      1577 9.81190E-03 6.74166E-04-7.36942E-14
 -1      1578 9.77000E-03 6.32529E-04-7.36329E-14
 -1      1579 1.03719E-02 7.84970E-04-7.94578E-14
 -1      1580 1.01828E-02 7.39022E-04-7.75229E-14
 -1      1581 1.01305E-02 6.94440E-04-7.74623E-14
 -1      1582 1.07531E-02 9.10264E-04-8.33682E-14
 -1      1583 1.05624E-02 8.42208E-04-8.14080E-14
 -1      1584 1.04996E-02 7.94681E-04-8.13456E-14
 -1      1585 1.11288E-02 1.08135E-03-8.73296E-14
 -1      1586 1.09426E-02 9.90813E-04-8.53418E-14
 -1      1587 1.08714E-02 9.41190E-04-8.52779E-14
 -1      1588 1.14849E-02 1.28643E-03-9.13406E-14
 -1      1589 1.13104E-02 1.18161E-03-8.93292E-14
 -1      1590 1.12368E-02 1.13209E-03-8.92608E-14
 -1      1591 1.18089E-02 1.49129E-03-9.53955E-14
 -1      1592 1.16515E-02 1.39194E-03-9.33626E-14
 -1      1593 1.15845E-02 1.34602E-03-9.32878E-14
 -1      1594 1.20987E-02 1.64472E-03-9.94896E-14
 -1      1595 1.19575E-02 1.57741E-03-9.74391E-14
 -1      1596 1.19066E-02 1.53830E-03-9.73621E-14
 -1      1597 1.23680E-02 1.70176E-03-1.03616E-13
 -1      1598 1.22344E-02 1.68630E-03-1.01548E-13
 -1      1599 1.22057E-02 1.65455E-03-1.01473E-13
 -1      1600 1.26404E-02 1.65295E-03-1.07770E-13
 -1      1601 1.25022E-02 1.68892E-03-1.05689E-13
 -1      1602 1.24966E-02 1.66161E-03-1.05615E-13
 -1      1603 1.29342E-02 1.52987E-03-1.11956E-13
 -1      1604 1.27839E-02 1.59749E-03-1.09859E-13
 -1      1605 1.27968E-02 1.57052E-03-1.09788E-13
 -1      1606 1.32527E-02 1.38185E-03-1.16161E-13
 -1      1607 1.30908E-02 1.45628E-03-1.14057E-13
 -1      1608 1.31147E-02 1.42723E-03-1.13985E-13
 -1      1609 1.35865E-02 1.24666E-03-1.20394E-13
 -1      1610 1.34187E-02 1.31147E-03-1.18275E-13
 -1      1611 1.34463E-02 1.28019E-03-1.18205E-13
 -1      1612 1.39214E-02 1.13882E-03-1.24628E-13
 -1      1613 1.37547E-02 1.18948E-03-1.22511E-13
 -1      1614 1.37815E-02 1.15718E-03-1.22440E-13
 -1      1615 1.42462E-02 1.05352E-03-1.28871E-13
 -1      1616 1.40857E-02 1.09423E-03-1.26747E-13
 -1      1617 1.41102E-02 1.06238E-03-1.26682E-13
 -1      1618 1.45557E-02 9.75864E-04-1.33114E-13
 -1      1619 1.44030E-02 1.01476E-03-1.30993E-13
 -1      1620 1.44266E-02 9.84563E-04-1.30927E-13
 -1      1621 1.48506E-02 8.89909E-04-1.37346E-13
 -1      1622 1.47046E-02 9.34616E-04-1.35232E-13
 -1      1623 1.47289E-02 9.06731E-04-1.35166E-13
 -1      1624 1.50137E-02 8.27994E-04-1.39597E-13
 -1      1625 1.51672E-02 7.25569E-04-1.40236E-13
 -1      1626 1.51074E-02 7.62931E-04-1.40049E-13
 -1      1627 1.52966E-02 6.62346E-04-1.40613E-13
 -1      1628 1.52307E-02 6.91777E-04-1.40426E-13
 -1      1629 1.50763E-02 7.50896E-04-1.38492E-13
 -1      1630 1.54283E-02 6.19121E-04-1.41005E-13
 -1      1631 1.53631E-02 6.37963E-04-1.40805E-13
 -1      1632 1.52102E-02 6.89484E-04-1.38868E-13
 -1      1633 1.55444E-02 5.98808E-04-1.41411E-13
 -1      1634 1.54894E-02 6.06072E-04-1.41209E-13
 -1      1635 1.53428E-02 6.45106E-04-1.39255E-13
 -1      1636 1.56239E-02 5.99737E-04-1.41826E-13
 -1      1637 1.55896E-02 5.96968E-04-1.41617E-13
 -1      1638 1.54543E-02 6.19491E-04-1.39648E-13
 -1      1639 1.56519E-02 6.15398E-04-1.42249E-13
 -1      1640 1.56453E-02 6.06304E-04-1.42037E-13
 -1      1641 1.55253E-02 6.10182E-04-1.40046E-13
 -1      1642 1.56170E-02 6.35273E-04-1.42644E-13
 -1      1643 1.56425E-02 6.25557E-04-1.42450E-13
 -1      1644 1.55392E-02 6.11057E-04-1.40440E-13
 -1      1645 1.55213E-02 6.47605E-04-1.43016E-13
 -1      1646 1.55763E-02 6.43053E-04-1.42835E-13
 -1      1647 1.54877E-02 6.12879E-04-1.40815E-13
 -1      1648 1.53776E-02 6.43112E-04-1.43346E-13
 -1      1649 1.54545E-02 6.47863E-04-1.43189E-13
 -1      1650 1.53763E-02 6.06074E-04-1.41164E-13
 -1      1651 1.52042E-02 6.17320E-04-1.43656E-13
 -1      1652 1.52935E-02 6.32949E-04-1.43501E-13
 -1      1653 1.52203E-02 5.83895E-04-1.41487E-13
 -1      1654 1.50220E-02 5.71687E-04-1.43945E-13
 -1      1655 1.51136E-02 5.96830E-04-1.43804E-13
 -1      1656 1.50411E-02 5.44314E-04-1.41785E-13
 -1      1657 1.48374E-02 5.08565E-04-1.44216E-13
 -1      1658 1.49290E-02 5.41908E-04-1.44082E-13
 -1      1659 1.48542E-02 4.88632E-04-1.42063E-13
 -1      1660 1.46602E-02 4.33965E-04-1.44466E-13
 -1      1661 1.47476E-02 4.72359E-04-1.44347E-13
 -1      1662 1.46696E-02 4.19854E-04-1.42322E-13
 -1      1663 1.44916E-02 3.53003E-04-1.44693E-13
 -1      1664 1.45749E-02 3.93990E-04-1.44581E-13
 -1      1665 1.44938E-02 3.42763E-04-1.42563E-13
 -1      1666 1.43037E-02 2.53788E-04-1.44228E-13
 -1      1667 1.43843E-02 2.95666E-04-1.44119E-13
 -1      1668 1.43013E-02 2.45642E-04-1.42102E-13
 -1      1669 1.40882E-02 1.31502E-04-1.40951E-13
 -1      1670 1.45112E-02 5.58223E-04-1.14293E-13
 -1      1671 1.45456E-02 5.01958E-04-1.14466E-13
 -1      1672 1.43345E-02 6.90742E-04-1.13536E-13
 -1      1673 1.44312E-02 6.29250E-04-1.13910E-13
 -1      1674 1.40097E-02 8.45706E-04-1.12445E-13
 -1      1675 1.41748E-02 7.62282E-04-1.13088E-13
 -1      1676 1.36230E-02 1.04676E-03-1.10725E-13
 -1      1677 1.38075E-02 9.57698E-04-1.11506E-13
 -1      1678 1.31834E-02 1.23995E-03-1.08758E-13
 -1      1679 1.33872E-02 1.15040E-03-1.09719E-13
 -1      1680 1.27667E-02 1.38810E-03-1.06548E-13
 -1      1681 1.29596E-02 1.32975E-03-1.07549E-13
 -1      1682 1.23395E-02 1.45552E-03-1.04238E-13
 -1      1683 1.25328E-02 1.43707E-03-1.05329E-13
 -1      1684 1.19358E-02 1.41366E-03-1.02010E-13
 -1      1685 1.21182E-02 1.44344E-03-1.03005E-13
 -1      1686 1.15208E-02 1.27682E-03-9.97702E-14
 -1      1687 1.17184E-02 1.35392E-03-1.00787E-13
 -1      1688 1.10749E-02 1.05075E-03-9.75648E-14
 -1      1689 1.12858E-02 1.16176E-03-9.85246E-14
 -1      1690 1.06260E-02 8.18809E-04-9.58514E-14
 -1      1691 1.08194E-02 9.25050E-04-9.66028E-14
 -1      1692 1.02364E-02 5.92097E-04-9.43631E-14
 -1      1693 1.04115E-02 6.87726E-04-9.49497E-14
 -1      1694 9.95933E-03 4.52536E-04-9.37180E-14
 -1      1695 1.00632E-02 5.17285E-04-9.40303E-14
 -1      1696 9.81665E-03 3.27848E-04-9.32834E-14
 -1      1697 9.86784E-03 3.80300E-04-9.34077E-14
 -1      1698 9.80607E-03 2.25353E-04-9.33905E-14
 -1      1699 9.79472E-03 2.71450E-04-9.33117E-14
 -1      1700 9.94492E-03 1.16645E-04-9.37602E-14
 -1      1701 9.85894E-03 1.72309E-04-9.34220E-14
 -1      1702 1.01969E-02-3.34127E-05-9.49651E-14
 -1      1703 1.00703E-02 3.08001E-05-9.44635E-14
 -1      1704 1.05356E-02-1.88887E-04-9.63206E-14
 -1      1705 1.03712E-02-1.11855E-04-9.56265E-14
 -1      1706 1.09077E-02-3.59805E-04-9.80623E-14
 -1      1707 1.07315E-02-2.83303E-04-9.72480E-14
 -1      1708 1.13110E-02-5.08584E-04-9.99736E-14
 -1      1709 1.11298E-02-4.41618E-04-9.90405E-14
 -1      1710 1.17340E-02-6.18058E-04-1.02278E-13
 -1      1711 1.15424E-02-5.76279E-04-1.01173E-13
 -1      1712 1.21443E-02-6.27291E-04-1.04655E-13
 -1      1713 1.19548E-02-6.32297E-04-1.03591E-13
 -1      1714 1.25648E-02-5.47898E-04-1.06930E-13
 -1      1715 1.23689E-02-5.95938E-04-1.05891E-13
 -1      1716 1.29779E-02-3.92455E-04-1.09086E-13
 -1      1717 1.27841E-02-4.72286E-04-1.08149E-13
 -1      1718 1.34023E-02-2.00851E-04-1.10873E-13
 -1      1719 1.32119E-02-2.92027E-04-1.10082E-13
 -1      1720 1.38079E-02-8.05770E-06-1.12321E-13
 -1      1721 1.36272E-02-9.80956E-05-1.11676E-13
 -1      1722 1.41508E-02 1.79975E-04-1.13567E-13
 -1      1723 1.39972E-02 1.01935E-04-1.13091E-13
 -1      1724 1.44099E-02 3.19820E-04-1.14238E-13
 -1      1725 1.43059E-02 2.57774E-04-1.13961E-13
 -1      1726 1.45387E-02 4.37940E-04-1.14465E-13
 -1      1727 1.44971E-02 3.83859E-04-1.14388E-13
 -1      1728 1.34366E-02 1.06173E-03-1.10715E-13
 -1      1729 1.38642E-02 8.42628E-04-1.12665E-13
 -1      1730 1.50397E-02 8.02082E-04-1.39538E-13
 -1      1731 1.49432E-02 8.24362E-04-1.37795E-13
 -1      1732 1.44761E-02 5.60940E-04-1.14902E-13
 -1      1733 1.42299E-02 6.75455E-04-1.14063E-13
 -1      1734 1.45540E-02 4.75664E-04-1.15295E-13
 -1      1735 1.30146E-02 1.27536E-03-1.08497E-13
 -1      1736 1.26078E-02 1.43080E-03-1.06069E-13
 -1      1737 1.22363E-02 1.47861E-03-1.03621E-13
 -1      1738 1.18615E-02 1.40278E-03-1.01170E-13
 -1      1739 1.14686E-02 1.21140E-03-9.87082E-14
 -1      1740 1.10275E-02 9.49594E-04-9.65138E-14
 -1      1741 1.05732E-02 6.88057E-04-9.46617E-14
 -1      1742 1.01847E-02 4.96235E-04-9.34406E-14
 -1      1743 9.91588E-03 3.72422E-04-9.28041E-14
 -1      1744 9.79656E-03 2.87434E-04-9.25278E-14
 -1      1745 9.82749E-03 2.14171E-04-9.25890E-14
 -1      1746 1.00151E-02 1.23591E-04-9.33187E-14
 -1      1747 1.03214E-02-2.10453E-05-9.46770E-14
 -1      1748 1.06869E-02-1.93150E-04-9.62569E-14
 -1      1749 1.10824E-02-3.81337E-04-9.81583E-14
 -1      1750 1.14808E-02-5.51056E-04-1.00332E-13
 -1      1751 1.18515E-02-6.51015E-04-1.02842E-13
 -1      1752 1.22331E-02-6.36020E-04-1.05394E-13
 -1      1753 1.26175E-02-5.17113E-04-1.07852E-13
 -1      1754 1.30172E-02-3.20032E-04-1.10073E-13
 -1      1755 1.34453E-02-1.00567E-04-1.11878E-13
 -1      1756 1.38543E-02 1.12252E-04-1.13454E-13
 -1      1757 1.42055E-02 2.79973E-04-1.14616E-13
 -1      1758 1.44554E-02 3.89814E-04-1.15153E-13
 -1      1759 2.85260E-04-1.76226E-04-6.75593E-17
 -1      1760 3.32153E-04-1.16780E-04-2.20025E-16
 -1      1761 3.36258E-04-1.32983E-04-2.06513E-16
 -1      1762 3.42214E-04-1.51987E-04-1.90088E-16
 -1      1763 3.51782E-04-1.73998E-04-1.66574E-16
 -1      1764 4.58313E-04-1.88052E-04-2.99348E-16
 -1      1765 3.24551E-04-6.53720E-05-2.47618E-16
 -1      1766 3.25701E-04-7.66644E-05-2.43552E-16
 -1      1767 3.23061E-04-4.38811E-05-2.52985E-16
 -1      1768 3.23714E-04-5.43685E-05-2.50695E-16
 -1      1769 4.36492E-04-7.92780E-05-3.67463E-16
 -1      1770 3.22278E-04-2.37666E-05-2.54842E-16
 -1      1771 3.22609E-04-3.36780E-05-2.54178E-16
 -1      1772 4.34497E-04-5.13084E-05-3.73426E-16
 -1      1773 3.21984E-04-4.33609E-06-2.54571E-16
 -1      1774 3.22081E-04-1.39864E-05-2.55004E-16
 -1      1775 4.33478E-04-2.49190E-05-3.75364E-16
 -1      1776 3.22106E-04 1.49778E-05-2.51711E-16
 -1      1777 3.21993E-04 5.31739E-06-2.53527E-16
 -1      1778 4.33181E-04 7.57405E-07-3.74009E-16
 -1      1779 3.22672E-04 3.47224E-05-2.46263E-16
 -1      1780 3.22321E-04 2.47787E-05-2.49326E-16
 -1      1781 4.33536E-04 2.64624E-05-3.69022E-16
 -1      1782 3.23802E-04 5.51557E-05-2.37969E-16
 -1      1783 3.23138E-04 4.47950E-05-2.42726E-16
 -1      1784 4.34612E-04 5.27126E-05-3.60443E-16
 -1      1785 3.25861E-04 7.78036E-05-2.25080E-16
 -1      1786 3.24662E-04 6.62242E-05-2.32385E-16
 -1      1787 4.36669E-04 8.05874E-05-3.47514E-16
 -1      1788 3.29552E-04 1.03640E-04-2.05768E-16
 -1      1789 3.27403E-04 9.02903E-05-2.16515E-16
 -1      1790 4.40320E-04 1.11554E-04-3.27578E-16
 -1      1791 3.36589E-04 1.35097E-04-1.76305E-16
 -1      1792 3.32405E-04 1.18599E-04-1.93056E-16
 -1      1793 4.46793E-04 1.47321E-04-2.98345E-16
 -1      1794 3.52318E-04 1.77593E-04-1.30782E-16
 -1      1795 3.42821E-04 1.54746E-04-1.56369E-16
 -1      1796 4.59332E-04 1.91442E-04-2.54408E-16
 -1      1797 4.07723E-04 2.33678E-04-9.94484E-17
 -1      1798 3.78109E-04 2.02652E-04-1.20306E-16
 -1      1799 4.95880E-04 2.43982E-04-2.14875E-16
 -1      1800 5.58580E-04 3.02494E-04-1.83366E-16
 -1      1801 3.40044E-04-1.90900E-04-1.20157E-16
 -1      1802 8.53622E-04 4.07107E-04-4.75870E-16
 -1      1803 7.07207E-04 3.59366E-04-3.09648E-16
 -1      1804 6.73438E-04 3.28797E-04-3.29774E-16
 -1      1805 4.58985E-04-2.36709E-04-2.16027E-16
 -1      1806 8.07281E-04-3.74110E-04-5.79574E-16
 -1      1807 9.52557E-04-4.15295E-04-8.10970E-16
 -1      1808 1.09541E-03-4.49981E-04-1.08428E-15
 -1      1809 1.23709E-03-4.78879E-04-1.40033E-15
 -1      1810 1.00399E-03-3.97908E-04-9.96761E-16
 -1      1811 1.37750E-03-5.03368E-04-1.75852E-15
 -1      1812 1.51720E-03-5.23747E-04-2.15874E-15
 -1      1813 1.28968E-03-4.55875E-04-1.63742E-15
 -1      1814 1.65638E-03-5.40932E-04-2.60005E-15
 -1      1815 1.79523E-03-5.55166E-04-3.08278E-15
 -1      1816 1.57211E-03-4.96833E-04-2.44394E-15
 -1      1817 1.93396E-03-5.67053E-04-3.60621E-15
 -1      1818 2.07263E-03-5.76800E-04-4.16977E-15
 -1      1819 1.85274E-03-5.25394E-04-3.41354E-15
 -1      1820 2.21139E-03-5.84823E-04-4.77362E-15
 -1      1821 2.35024E-03-5.91293E-04-5.41669E-15
 -1      1822 2.13266E-03-5.44896E-04-4.54380E-15
 -1      1823 2.48929E-03-5.96507E-04-6.09822E-15
 -1      1824 2.62851E-03-6.00604E-04-6.81822E-15
 -1      1825 2.41254E-03-5.57794E-04-5.83102E-15
 -1      1826 2.76798E-03-6.03797E-04-7.57609E-15
 -1      1827 2.90766E-03-6.06197E-04-8.36982E-15
 -1      1828 2.69278E-03-5.65918E-04-7.27075E-15
 -1      1829 3.04760E-03-6.07956E-04-9.20091E-15
 -1      1830 3.18775E-03-6.09161E-04-1.00668E-14
 -1      1831 2.97359E-03-5.70638E-04-8.85850E-15
 -1      1832 3.32815E-03-6.09919E-04-1.09676E-14
 -1      1833 3.46875E-03-6.10296E-04-1.19044E-14
 -1      1834 3.25505E-03-5.72966E-04-1.05888E-14
 -1      1835 3.60958E-03-6.10365E-04-1.28739E-14
 -1      1836 3.75059E-03-6.10175E-04-1.38772E-14
 -1      1837 3.53717E-03-5.73644E-04-1.24572E-14
 -1      1838 3.89180E-03-6.09774E-04-1.49127E-14
 -1      1839 4.03318E-03-6.09195E-04-1.59803E-14
 -1      1840 3.81991E-03-5.73195E-04-1.44600E-14
 -1      1841 4.17473E-03-6.08467E-04-1.70795E-14
 -1      1842 4.31642E-03-6.07614E-04-1.82091E-14
 -1      1843 4.10322E-03-5.71978E-04-1.65922E-14
 -1      1844 4.45827E-03-6.06647E-04-1.93697E-14
 -1      1845 4.60024E-03-6.05583E-04-2.05592E-14
 -1      1846 4.38703E-03-5.70219E-04-1.88485E-14
 -1      1847 4.74235E-03-6.04421E-04-2.17787E-14
 -1      1848 4.88457E-03-6.03171E-04-2.30271E-14
 -1      1849 4.67131E-03-5.68043E-04-2.12244E-14
 -1      1850 5.02692E-03-6.01825E-04-2.43037E-14
 -1      1851 5.16938E-03-6.00386E-04-2.56082E-14
 -1      1852 4.95601E-03-5.65500E-04-2.37167E-14
 -1      1853 5.31197E-03-5.98840E-04-2.69395E-14
 -1      1854 5.45468E-03-5.97189E-04-2.82972E-14
 -1      1855 5.24111E-03-5.62581E-04-2.63224E-14
 -1      1856 5.59751E-03-5.95414E-04-2.96812E-14
 -1      1857 5.74049E-03-5.93515E-04-3.10901E-14
 -1      1858 5.52664E-03-5.59235E-04-2.90347E-14
 -1      1859 5.88361E-03-5.91472E-04-3.25247E-14
 -1      1860 6.02691E-03-5.89286E-04-3.39851E-14
 -1      1861 5.81264E-03-5.55386E-04-3.18494E-14
 -1      1862 6.17039E-03-5.86937E-04-3.54718E-14
 -1      1863 6.31408E-03-5.84429E-04-3.69846E-14
 -1      1864 6.09920E-03-5.50951E-04-3.47663E-14
 -1      1865 6.45799E-03-5.81749E-04-3.85217E-14
 -1      1866 6.60218E-03-5.78907E-04-4.00839E-14
 -1      1867 6.38643E-03-5.45857E-04-3.77861E-14
 -1      1868 6.74665E-03-5.75898E-04-4.16717E-14
 -1      1869 6.89148E-03-5.72743E-04-4.32845E-14
 -1      1870 6.67452E-03-5.40071E-04-4.09070E-14
 -1      1871 7.03666E-03-5.69454E-04-4.49227E-14
 -1      1872 7.18228E-03-5.66068E-04-4.65835E-14
 -1      1873 6.96370E-03-5.33628E-04-4.41283E-14
 -1      1874 7.32834E-03-5.62621E-04-4.82670E-14
 -1      1875 7.47495E-03-5.59171E-04-4.99715E-14
 -1      1876 7.25423E-03-5.26682E-04-4.74446E-14
 -1      1877 7.62210E-03-5.55792E-04-5.16988E-14
 -1      1878 7.76991E-03-5.52571E-04-5.34460E-14
 -1      1879 7.54643E-03-5.19559E-04-5.08503E-14
 -1      1880 7.91836E-03-5.49632E-04-5.52126E-14
 -1      1881 8.06758E-03-5.47097E-04-5.69975E-14
 -1      1882 7.84069E-03-5.12832E-04-5.43369E-14
 -1      1883 8.21756E-03-5.45155E-04-5.87993E-14
 -1      1884 8.36838E-03-5.43971E-04-6.06174E-14
 -1      1885 8.13739E-03-5.07403E-04-5.78985E-14
 -1      1886 8.52005E-03-5.43812E-04-6.24532E-14
 -1      1887 8.67261E-03-5.44886E-04-6.43021E-14
 -1      1888 8.43693E-03-5.04587E-04-6.15280E-14
 -1      1889 8.82609E-03-5.47539E-04-6.61655E-14
 -1      1890 8.98042E-03-5.52019E-04-6.80439E-14
 -1      1891 8.73967E-03-5.06188E-04-6.52197E-14
 -1      1892 9.13566E-03-5.58735E-04-6.99374E-14
 -1      1893 9.29160E-03-5.67951E-04-7.18443E-14
 -1      1894 9.04585E-03-5.14503E-04-6.89720E-14
 -1      1895 9.44836E-03-5.80081E-04-7.37633E-14
 -1      1896 9.60552E-03-5.95356E-04-7.56966E-14
 -1      1897 9.35552E-03-5.32214E-04-7.27788E-14
 -1      1898 9.76325E-03-6.14085E-04-7.76427E-14
 -1      1899 9.92090E-03-6.36372E-04-7.96002E-14
 -1      1900 9.66837E-03-5.62048E-04-7.66395E-14
 -1      1901 1.00787E-02-6.62247E-04-8.15705E-14
 -1      1902 1.02357E-02-6.91539E-04-8.35496E-14
 -1      1903 9.98353E-03-6.06075E-04-8.05480E-14
 -1      1904 1.03922E-02-7.23792E-04-8.55406E-14
 -1      1905 1.05471E-02-7.58375E-04-8.75462E-14
 -1      1906 1.02993E-02-6.64557E-04-8.45054E-14
 -1      1907 1.07007E-02-7.94173E-04-8.95599E-14
 -1      1908 1.08521E-02-8.29967E-04-9.15830E-14
 -1      1909 1.06132E-02-7.34384E-04-8.85061E-14
 -1      1910 1.10012E-02-8.63989E-04-9.36167E-14
 -1      1911 1.11478E-02-8.94495E-04-9.56615E-14
 -1      1912 1.09217E-02-8.07580E-04-9.25519E-14
 -1      1913 1.12917E-02-9.19373E-04-9.77178E-14
 -1      1914 1.14334E-02-9.36758E-04-9.97882E-14
 -1      1915 1.12221E-02-8.70898E-04-9.66387E-14
 -1      1916 1.15726E-02-9.44830E-04-1.01872E-13
 -1      1917 1.17106E-02-9.42248E-04-1.03966E-13
 -1      1918 1.15131E-02-9.07909E-04-1.00773E-13
 -1      1919 1.18471E-02-9.28166E-04-1.06074E-13
 -1      1920 1.19838E-02-9.02353E-04-1.08198E-13
 -1      1921 1.17970E-02-9.03904E-04-1.04962E-13
 -1      1922 1.21203E-02-8.65248E-04-1.10337E-13
 -1      1923 1.22581E-02-8.17779E-04-1.12491E-13
 -1      1924 1.20786E-02-8.51851E-04-1.09203E-13
 -1      1925 1.23969E-02-7.61381E-04-1.14654E-13
 -1      1926 1.25372E-02-6.97661E-04-1.16831E-13
 -1      1927 1.23630E-02-7.55266E-04-1.13502E-13
 -1      1928 1.26791E-02-6.28387E-04-1.19026E-13
 -1      1929 1.28221E-02-5.55112E-04-1.21228E-13
 -1      1930 1.26530E-02-6.25946E-04-1.17854E-13
 -1      1931 1.29665E-02-4.79287E-04-1.23439E-13
 -1      1932 1.31113E-02-4.01943E-04-1.25664E-13
 -1      1933 1.29478E-02-4.78178E-04-1.22255E-13
 -1      1934 1.32569E-02-3.23888E-04-1.27897E-13
 -1      1935 1.34023E-02-2.45471E-04-1.30135E-13
 -1      1936 1.32449E-02-3.23289E-04-1.26694E-13
 -1      1937 1.35477E-02-1.66892E-04-1.32383E-13
 -1      1938 1.36926E-02-8.80819E-05-1.34636E-13
 -1      1939 1.35410E-02-1.67104E-04-1.31171E-13
 -1      1940 1.38190E-02-1.88257E-05-1.36659E-13
 -1      1941 1.39629E-02 6.10007E-05-1.38919E-13
 -1      1942 1.40689E-02 1.18201E-04-1.39493E-13
 -1      1943 1.38158E-02-2.04894E-05-1.35440E-13
 -1      1944 1.13870E-03 4.80075E-04-9.28714E-16
 -1      1945 9.96914E-04 4.46821E-04-6.81841E-16
 -1      1946 9.64525E-04 4.17365E-04-7.04284E-16
 -1      1947 1.41783E-03 5.31567E-04-1.54277E-15
 -1      1948 1.27867E-03 5.08113E-04-1.21520E-15
 -1      1949 1.24902E-03 4.79974E-04-1.23785E-15
 -1      1950 1.69423E-03 5.67877E-04-2.31797E-15
 -1      1951 1.55619E-03 5.51375E-04-1.91040E-15
 -1      1952 1.52931E-03 5.24201E-04-1.93170E-15
 -1      1953 1.96983E-03 5.93184E-04-3.25286E-15
 -1      1954 1.83204E-03 5.81736E-04-2.76557E-15
 -1      1955 1.80757E-03 5.55199E-04-2.78515E-15
 -1      1956 2.24568E-03 6.10445E-04-4.34490E-15
 -1      1957 2.10768E-03 6.02696E-04-3.77953E-15
 -1      1958 2.08521E-03 5.76564E-04-3.79604E-15
 -1      1959 2.52236E-03 6.21837E-04-5.59118E-15
 -1      1960 2.38390E-03 6.16781E-04-4.94895E-15
 -1      1961 2.36304E-03 5.90896E-04-4.96170E-15
 -1      1962 2.80011E-03 6.28985E-04-6.98786E-15
 -1      1963 2.66110E-03 6.25871E-04-6.27067E-15
 -1      1964 2.64152E-03 6.00127E-04-6.27901E-15
 -1      1965 3.07901E-03 6.33109E-04-8.53197E-15
 -1      1966 2.93942E-03 6.31374E-04-7.74200E-15
 -1      1967 2.92084E-03 6.05701E-04-7.74522E-15
 -1      1968 3.35902E-03 6.35109E-04-1.02189E-14
 -1      1969 3.21889E-03 6.34337E-04-9.35751E-15
 -1      1970 3.20107E-03 6.08691E-04-9.35561E-15
 -1      1971 3.64004E-03 6.35639E-04-1.20466E-14
 -1      1972 3.49941E-03 6.35531E-04-1.11153E-14
 -1      1973 3.48219E-03 6.09885E-04-1.11079E-14
 -1      1974 3.92196E-03 6.35159E-04-1.40136E-14
 -1      1975 3.78090E-03 6.35507E-04-1.30127E-14
 -1      1976 3.76413E-03 6.09845E-04-1.29989E-14
 -1      1977 4.20466E-03 6.33978E-04-1.61185E-14
 -1      1978 4.06322E-03 6.34645E-04-1.50492E-14
 -1      1979 4.04679E-03 6.08962E-04-1.50283E-14
 -1      1980 4.48802E-03 6.32287E-04-1.83577E-14
 -1      1981 4.34627E-03 6.33191E-04-1.72216E-14
 -1      1982 4.33009E-03 6.07485E-04-1.71936E-14
 -1      1983 4.77197E-03 6.30184E-04-2.07235E-14
 -1      1984 4.62993E-03 6.31285E-04-1.95250E-14
 -1      1985 4.61396E-03 6.05560E-04-1.94887E-14
 -1      1986 5.05644E-03 6.27693E-04-2.32083E-14
 -1      1987 4.91415E-03 6.28988E-04-2.19520E-14
 -1      1988 4.89832E-03 6.03246E-04-2.19085E-14
 -1      1989 5.34142E-03 6.24786E-04-2.58053E-14
 -1      1990 5.19887E-03 6.26294E-04-2.44930E-14
 -1      1991 5.18316E-03 6.00541E-04-2.44422E-14
 -1      1992 5.62693E-03 6.21391E-04-2.85052E-14
 -1      1993 5.48411E-03 6.23153E-04-2.71429E-14
 -1      1994 5.46848E-03 5.97392E-04-2.70841E-14
 -1      1995 5.91306E-03 6.17408E-04-3.13043E-14
 -1      1996 5.76991E-03 6.19477E-04-2.98926E-14
 -1      1997 5.75433E-03 5.93708E-04-2.98278E-14
 -1      1998 6.19994E-03 6.12724E-04-3.42022E-14
 -1      1999 6.05639E-03 6.15156E-04-3.27403E-14
 -1      2000 6.04080E-03 5.89377E-04-3.26709E-14
 -1      2001 6.48779E-03 6.07222E-04-3.71959E-14
 -1      2002 6.34373E-03 6.10075E-04-3.56876E-14
 -1      2003 6.32806E-03 5.84277E-04-3.56120E-14
 -1      2004 6.77693E-03 6.00811E-04-4.02838E-14
 -1      2005 6.63218E-03 6.04126E-04-3.87284E-14
 -1      2006 6.61634E-03 5.78293E-04-3.86477E-14
 -1      2007 7.06778E-03 5.93449E-04-4.34626E-14
 -1      2008 6.92211E-03 5.97238E-04-4.18611E-14
 -1      2009 6.90594E-03 5.71343E-04-4.17747E-14
 -1      2010 7.36087E-03 5.85193E-04-4.67258E-14
 -1      2011 7.21400E-03 5.89411E-04-4.50834E-14
 -1      2012 7.19729E-03 5.63412E-04-4.49911E-14
 -1      2013 7.65690E-03 5.76259E-04-5.00761E-14
 -1      2014 7.50846E-03 5.80773E-04-4.83908E-14
 -1      2015 7.49092E-03 5.54608E-04-4.82937E-14
 -1      2016 7.95675E-03 5.67129E-04-5.34986E-14
 -1      2017 7.80627E-03 5.71657E-04-5.17785E-14
 -1      2018 7.78747E-03 5.45235E-04-5.16768E-14
 -1      2019 8.26145E-03 5.58696E-04-5.69950E-14
 -1      2020 8.10840E-03 5.62729E-04-5.52388E-14
 -1      2021 8.08775E-03 5.35918E-04-5.51328E-14
 -1      2022 8.57222E-03 5.52485E-04-6.05562E-14
 -1      2023 8.41596E-03 5.55167E-04-5.87677E-14
 -1      2024 8.39270E-03 5.27775E-04-5.86576E-14
 -1      2025 8.89040E-03 5.50975E-04-6.41828E-14
 -1      2026 8.73025E-03 5.50928E-04-6.23606E-14
 -1      2027 8.70340E-03 5.22681E-04-6.22491E-14
 -1      2028 9.21732E-03 5.58028E-04-6.78723E-14
 -1      2029 9.05263E-03 5.53126E-04-6.60203E-14
 -1      2030 9.02101E-03 5.23630E-04-6.59046E-14
 -1      2031 9.55416E-03 5.79389E-04-7.16192E-14
 -1      2032 9.38440E-03 5.66505E-04-6.97397E-14
 -1      2033 9.34674E-03 5.35199E-04-6.96206E-14
 -1      2034 9.90153E-03 6.23087E-04-7.54195E-14
 -1      2035 9.72652E-03 5.97925E-04-7.35119E-14
 -1      2036 9.68169E-03 5.64057E-04-7.33908E-14
 -1      2037 1.02590E-02 6.99218E-04-7.92737E-14
 -1      2038 1.00792E-02 6.56542E-04-7.73405E-14
 -1      2039 1.00267E-02 6.19210E-04-7.72158E-14
 -1      2040 1.06242E-02 8.18121E-04-8.31794E-14
 -1      2041 1.04411E-02 7.52956E-04-8.12206E-14
 -1      2042 1.03820E-02 7.11386E-04-8.10947E-14
 -1      2043 1.09921E-02 9.85371E-04-8.71335E-14
 -1      2044 1.08087E-02 8.96002E-04-8.51494E-14
 -1      2045 1.07460E-02 8.50267E-04-8.50207E-14
 -1      2046 1.13540E-02 1.19267E-03-9.11346E-14
 -1      2047 1.11749E-02 1.08557E-03-8.91284E-14
 -1      2048 1.11140E-02 1.03774E-03-8.89947E-14
 -1      2049 1.16997E-02 1.40819E-03-9.51816E-14
 -1      2050 1.15297E-02 1.30247E-03-9.31522E-14
 -1      2051 1.14768E-02 1.25717E-03-9.30155E-14
 -1      2052 1.20227E-02 1.57786E-03-9.92739E-14
 -1      2053 1.18635E-02 1.50220E-03-9.72229E-14
 -1      2054 1.18230E-02 1.46487E-03-9.70838E-14
 -1      2055 1.23297E-02 1.64883E-03-1.03402E-13
 -1      2056 1.21765E-02 1.62715E-03-1.01334E-13
 -1      2057 1.21488E-02 1.59953E-03-1.01193E-13
 -1      2058 1.26367E-02 1.60529E-03-1.07559E-13
 -1      2059 1.24813E-02 1.63969E-03-1.05476E-13
 -1      2060 1.24653E-02 1.61805E-03-1.05338E-13
 -1      2061 1.29574E-02 1.48000E-03-1.11748E-13
 -1      2062 1.27948E-02 1.54944E-03-1.09650E-13
 -1      2063 1.27899E-02 1.52788E-03-1.09511E-13
 -1      2064 1.32915E-02 1.32739E-03-1.15955E-13
 -1      2065 1.31234E-02 1.40433E-03-1.13851E-13
 -1      2066 1.31290E-02 1.38015E-03-1.13712E-13
 -1      2067 1.36305E-02 1.18900E-03-1.20186E-13
 -1      2068 1.34614E-02 1.25528E-03-1.18068E-13
 -1      2069 1.34751E-02 1.22893E-03-1.17932E-13
 -1      2070 1.39647E-02 1.08071E-03-1.24427E-13
 -1      2071 1.37991E-02 1.13133E-03-1.22303E-13
 -1      2072 1.38173E-02 1.10445E-03-1.22167E-13
 -1      2073 1.42877E-02 9.97627E-04-1.28670E-13
 -1      2074 1.41281E-02 1.03695E-03-1.26549E-13
 -1      2075 1.41480E-02 1.01103E-03-1.26413E-13
 -1      2076 1.45971E-02 9.24171E-04-1.32916E-13
 -1      2077 1.44442E-02 9.60763E-04-1.30794E-13
 -1      2078 1.44644E-02 9.36918E-04-1.30663E-13
 -1      2079 1.48456E-02 8.55719E-04-1.36418E-13
 -1      2080 1.46980E-02 8.96598E-04-1.34296E-13
 -1      2081 1.47182E-02 8.75028E-04-1.34166E-13
 -1      2082 1.49162E-02 8.18168E-04-1.36927E-13
 -1      2083 1.52567E-02 6.58635E-04-1.37498E-13
 -1      2084 1.51919E-02 6.80635E-04-1.37306E-13
 -1      2085 1.51237E-02 7.06712E-04-1.37118E-13
 -1      2086 1.50541E-02 7.36359E-04-1.36932E-13
 -1      2087 1.50370E-02 7.15347E-04-1.35361E-13
 -1      2088 1.50160E-02 7.58056E-04-1.37022E-13
 -1      2089 1.49497E-02 7.93084E-04-1.36837E-13
 -1      2090 1.48515E-02 8.20853E-04-1.35455E-13
 -1      2091 1.49262E-02 7.70713E-04-1.35271E-13
 -1      2092 1.53628E-02 6.27147E-04-1.37872E-13
 -1      2093 1.53141E-02 6.41093E-04-1.37684E-13
 -1      2094 1.51691E-02 6.62929E-04-1.35726E-13
 -1      2095 1.54243E-02 6.09059E-04-1.38256E-13
 -1      2096 1.54006E-02 6.16942E-04-1.38064E-13
 -1      2097 1.52710E-02 6.25567E-04-1.36088E-13
 -1      2098 1.54228E-02 5.98612E-04-1.38627E-13
 -1      2099 1.54320E-02 6.03817E-04-1.38445E-13
 -1      2100 1.53211E-02 6.00756E-04-1.36454E-13
 -1      2101 1.53537E-02 5.86568E-04-1.38984E-13
 -1      2102 1.53965E-02 5.93745E-04-1.38807E-13
 -1      2103 1.53027E-02 5.81478E-04-1.36809E-13
 -1      2104 1.52261E-02 5.64321E-04-1.39318E-13
 -1      2105 1.52963E-02 5.77355E-04-1.39153E-13
 -1      2106 1.52149E-02 5.57766E-04-1.37147E-13
 -1      2107 1.50584E-02 5.26913E-04-1.39625E-13
 -1      2108 1.51460E-02 5.47679E-04-1.39474E-13
 -1      2109 1.50707E-02 5.21585E-04-1.37464E-13
 -1      2110 1.48743E-02 4.74822E-04-1.39913E-13
 -1      2111 1.49676E-02 5.02547E-04-1.39771E-13
 -1      2112 1.48935E-02 4.70317E-04-1.37761E-13
 -1      2113 1.46841E-02 4.08864E-04-1.40179E-13
 -1      2114 1.47789E-02 4.43061E-04-1.40047E-13
 -1      2115 1.47028E-02 4.05239E-04-1.38035E-13
 -1      2116 1.45005E-02 3.33730E-04-1.40428E-13
 -1      2117 1.45911E-02 3.72012E-04-1.40303E-13
 -1      2118 1.45120E-02 3.29603E-04-1.38290E-13
 -1      2119 1.43270E-02 2.53208E-04-1.40658E-13
 -1      2120 1.44125E-02 2.93796E-04-1.40546E-13
 -1      2121 1.43306E-02 2.48113E-04-1.38529E-13
 -1      2122 1.41516E-02 6.61727E-04-1.14796E-13
 -1      2123 1.43067E-02 6.06014E-04-1.15253E-13
 -1      2124 1.45622E-02 4.90359E-04-1.16518E-13
 -1      2125 1.45552E-02 4.70617E-04-1.16529E-13
 -1      2126 1.44248E-02 5.60296E-04-1.15649E-13
 -1      2127 1.45105E-02 5.26905E-04-1.16041E-13
 -1      2128 1.43699E-02 5.67441E-04-1.16390E-13
 -1      2129 1.37216E-02 8.65488E-04-1.12818E-13
 -1      2130 1.39208E-02 7.65618E-04-1.13763E-13
 -1      2131 1.32973E-02 1.08983E-03-1.10804E-13
 -1      2132 1.35036E-02 9.77144E-04-1.11814E-13
 -1      2133 3.27204E-04-8.89665E-05-2.37833E-16
 -1      2134 3.29314E-04-1.02142E-04-2.29892E-16
 -1      2135 4.46342E-04-1.45115E-04-3.34382E-16
 -1      2136 4.40033E-04-1.09942E-04-3.55415E-16
 -1      2137 1.25136E-02 1.46828E-03-1.05749E-13
 -1      2138 1.26796E-02 1.40886E-03-1.06966E-13
 -1      2139 1.21503E-02 1.49379E-03-1.02865E-13
 -1      2140 1.23013E-02 1.50194E-03-1.04093E-13
 -1      2141 1.18350E-02 1.38936E-03-1.00428E-13
 -1      2142 1.19911E-02 1.45674E-03-1.01644E-13
 -1      2143 1.20844E-02 1.48860E-03-1.02118E-13
 -1      2144 1.14347E-02 1.14952E-03-9.76963E-14
 -1      2145 1.16228E-02 1.27489E-03-9.89321E-14
 -1      2146 1.09576E-02 8.43715E-04-9.52641E-14
 -1      2147 1.11730E-02 9.78573E-04-9.62138E-14
 -1      2148 1.05343E-02 5.99086E-04-9.34850E-14
 -1      2149 1.07435E-02 7.18161E-04-9.43742E-14
 -1      2150 1.08770E-02 7.60632E-04-9.40789E-14
 -1      2151 1.01032E-02 4.06455E-04-9.22271E-14
 -1      2152 1.02683E-02 4.68438E-04-9.25512E-14
 -1      2153 9.88238E-03 3.18866E-04-9.16223E-14
 -1      2154 9.97999E-03 3.56705E-04-9.19251E-14
 -1      2155 1.00425E-02 3.51334E-04-9.10414E-14
 -1      2156 9.78158E-03 2.63277E-04-9.15823E-14
 -1      2157 9.80456E-03 2.82793E-04-9.15497E-14
 -1      2158 9.84877E-03 2.16528E-04-9.16398E-14
 -1      2159 9.79547E-03 2.37882E-04-9.16099E-14
 -1      2160 9.77873E-03 2.46392E-04-9.06311E-14
 -1      2161 1.01086E-02 1.16487E-04-9.29167E-14
 -1      2162 9.97591E-03 1.68408E-04-9.22183E-14
 -1      2163 1.04199E-02-1.57831E-05-9.42146E-14
 -1      2164 1.02526E-02 5.51472E-05-9.35615E-14
 -1      2165 1.01857E-02 1.03086E-04-9.24548E-14
 -1      2166 1.08298E-02-2.11869E-04-9.59966E-14
 -1      2167 1.06492E-02-1.16837E-04-9.50772E-14
 -1      2168 1.11880E-02-4.01118E-04-9.79409E-14
 -1      2169 1.10094E-02-3.05890E-04-9.69675E-14
 -1      2170 1.09264E-02-2.44294E-04-9.57806E-14
 -1      2171 1.15795E-02-5.89683E-04-1.00559E-13
 -1      2172 1.14083E-02-5.10791E-04-9.93626E-14
 -1      2173 1.19617E-02-6.82918E-04-1.03622E-13
 -1      2174 1.18059E-02-6.60596E-04-1.02309E-13
 -1      2175 1.22729E-02-6.39246E-04-1.06094E-13
 -1      2176 1.21175E-02-6.74156E-04-1.04856E-13
 -1      2177 1.20307E-02-6.90629E-04-1.04318E-13
 -1      2178 1.26452E-02-4.80783E-04-1.08736E-13
 -1      2179 1.24754E-02-5.67927E-04-1.07512E-13
 -1      2180 1.30634E-02-2.39988E-04-1.11231E-13
 -1      2181 1.28716E-02-3.52819E-04-1.10228E-13
 -1      2182 1.35015E-02-4.35223E-06-1.13030E-13
 -1      2183 1.32993E-02-1.13826E-04-1.12222E-13
 -1      2184 1.38911E-02 1.94267E-04-1.14566E-13
 -1      2185 1.37005E-02 9.77243E-05-1.13796E-13
 -1      2186 1.35699E-02 7.01783E-05-1.14137E-13
 -1      2187 1.42699E-02 3.55097E-04-1.15824E-13
 -1      2188 1.41151E-02 2.98615E-04-1.15434E-13
 -1      2189 1.45103E-02 4.43426E-04-1.16391E-13
 -1      2190 1.44259E-02 4.14624E-04-1.16252E-13
 -1      2191 1.45468E-02 4.71905E-04-1.17622E-13
 -1      2192 1.28593E-02 1.32944E-03-1.08177E-13
 -1      2193 1.30427E-02 1.22743E-03-1.09387E-13
 -1      2194 1.27518E-02 1.37507E-03-1.07856E-13
 -1      2195 1.31470E-02 1.15714E-03-1.10484E-13
 -1      2196 6.07919E-04-2.98123E-04-3.51349E-16
 -1      2197 6.63640E-04-2.92411E-04-4.73444E-16
 -1      2198 1.45495E-02 5.04919E-04-1.17272E-13
 -1      2199 1.39266E-02 7.31674E-04-1.15108E-13
 -1      2200 1.40364E-02 6.92806E-04-1.14953E-13
 -1      2201 1.41439E-02 6.42177E-04-1.16147E-13
 -1      2202 1.42181E-02 1.96881E-04-1.40086E-13
 -1      2203 1.35946E-02 9.06014E-04-1.12911E-13
 -1      2204 1.39902E-02 2.70383E-04-1.15771E-13
 -1      2205 1.31556E-02-1.57751E-04-1.12376E-13
 -1      2206 1.23385E-02-6.15791E-04-1.06971E-13
 -1      2207 1.12959E-02-4.50220E-04-9.81665E-14
 -1      2208 1.05440E-02-5.07146E-05-9.39542E-14
 -1      2209 9.90303E-03 2.00994E-04-9.12313E-14
 -1      2210 9.84555E-03 2.15954E-04-9.02512E-14
 -1      2211 9.96743E-03 1.83139E-04-9.08261E-14
 -1      2212 9.83661E-03 2.84906E-04-9.06731E-14
 -1      2213 1.04088E-02 5.04945E-04-9.22650E-14
 -1      2214 1.05387E-02 5.51610E-04-9.19769E-14
 -1      2215 1.02926E-02 4.34829E-04-9.10531E-14
 -1      2216 1.17573E-02 1.34254E-03-9.94069E-14
 -1      2217 1.24044E-02 1.49919E-03-1.04990E-13
 -1      2218 1.13231E-02 1.05595E-03-9.64382E-14
 -1      2219 1.17022E-02-6.37804E-04-1.01332E-13
 -1      2220 1.27298E-02-4.15623E-04-1.09885E-13
 -1      2221 1.43643E-02 4.12211E-04-1.17064E-13
 -1      2222 1.01663E-03 3.99804E-04-8.87026E-16
 -1      2223 8.72164E-04 3.63419E-04-6.52649E-16
 -1      2224 5.47765E-04-5.52980E-05-5.30609E-16
 -1      2225 5.48802E-04-7.20138E-05-5.28128E-16
 -1      2226 5.50222E-04-8.93372E-05-5.23968E-16
 -1      2227 5.52089E-04-1.07315E-04-5.18113E-16
 -1      2228 6.65265E-04-9.54937E-05-7.12036E-16
 -1      2229 5.46381E-04 8.85628E-06-5.28779E-16
 -1      2230 5.46361E-04-6.98064E-06-5.31029E-16
 -1      2231 5.47137E-04 4.08661E-05-5.20783E-16
 -1      2232 5.46636E-04 2.47922E-05-5.25445E-16
 -1      2233 6.61314E-04 1.99304E-05-7.13134E-16
 -1      2234 5.48967E-04 7.34860E-05-5.08098E-16
 -1      2235 5.47902E-04 5.69947E-05-5.15213E-16
 -1      2236 6.62641E-04 5.77855E-05-7.01519E-16
 -1      2237 5.52367E-04 1.08957E-04-4.88609E-16
 -1      2238 5.50438E-04 9.08828E-05-4.99343E-16
 -1      2239 6.65508E-04 9.72529E-05-6.83061E-16
 -1      2240 5.58255E-04 1.48291E-04-4.59485E-16
 -1      2241 5.54932E-04 1.28066E-04-4.75490E-16
 -1      2242 6.70610E-04 1.40023E-04-6.55441E-16
 -1      2243 5.68593E-04 1.93888E-04-4.17526E-16
 -1      2244 5.62750E-04 1.70170E-04-4.40593E-16
 -1      2245 6.79270E-04 1.87566E-04-6.15434E-16
 -1      2246 1.30211E-03 4.56750E-04-1.47376E-15
 -1      2247 1.15978E-03 4.30806E-04-1.16056E-15
 -1      2248 1.07181E-03 3.81325E-04-1.07846E-15
 -1      2249 9.15229E-04-3.46362E-04-9.06556E-16
 -1      2250 1.05933E-03-3.79691E-04-1.19006E-15
 -1      2251 5.88544E-04-2.37985E-04-4.36418E-16
 -1      2252 7.81339E-04-3.04842E-04-6.92087E-16
 -1      2253 8.40805E-04-2.93593E-04-8.44146E-16
 -1      2254 5.78974E-04-2.10158E-04-4.62480E-16
 -1      2255 1.30382E-02 1.21713E-03-1.10388E-13
 -1      2256 1.32560E-02 1.08428E-03-1.11810E-13
 -1      2257 1.20258E-03-4.08072E-04-1.51448E-15
 -1      2258 1.34540E-03-4.31961E-04-1.88043E-15
 -1      2259 1.11703E-03-3.60511E-04-1.39067E-15
 -1      2260 1.48757E-03-4.52171E-04-2.28662E-15
 -1      2261 1.62935E-03-4.69020E-04-2.73359E-15
 -1      2262 1.40335E-03-4.07282E-04-2.12897E-15
 -1      2263 1.77078E-03-4.83149E-04-3.22084E-15
 -1      2264 1.91196E-03-4.94798E-04-3.74792E-15
 -1      2265 1.68847E-03-4.40522E-04-3.02799E-15
 -1      2266 2.05299E-03-5.04441E-04-4.31449E-15
 -1      2267 2.19391E-03-5.12270E-04-4.92039E-15
 -1      2268 1.97266E-03-4.63575E-04-4.08599E-15
 -1      2269 2.33481E-03-5.18631E-04-5.56471E-15
 -1      2270 2.47570E-03-5.23679E-04-6.24711E-15
 -1      2271 2.25630E-03-4.79080E-04-5.29931E-15
 -1      2272 2.61665E-03-5.27668E-04-6.96716E-15
 -1      2273 2.75764E-03-5.30719E-04-7.72430E-15
 -1      2274 2.53971E-03-4.89074E-04-6.66520E-15
 -1      2275 2.89874E-03-5.33018E-04-8.51737E-15
 -1      2276 3.03991E-03-5.34658E-04-9.34672E-15
 -1      2277 2.82312E-03-4.95104E-04-8.17873E-15
 -1      2278 3.18121E-03-5.35773E-04-1.02114E-14
 -1      2279 3.32260E-03-5.36433E-04-1.11103E-14
 -1      2280 3.10669E-03-4.98332E-04-9.83567E-15
 -1      2281 3.46412E-03-5.36732E-04-1.20435E-14
 -1      2282 3.60574E-03-5.36722E-04-1.30104E-14
 -1      2283 3.39048E-03-4.99616E-04-1.16320E-14
 -1      2284 3.74748E-03-5.36467E-04-1.40103E-14
 -1      2285 3.88931E-03-5.36003E-04-1.50427E-14
 -1      2286 3.67453E-03-4.99573E-04-1.35629E-14
 -1      2287 4.03126E-03-5.35371E-04-1.61066E-14
 -1      2288 4.17329E-03-5.34596E-04-1.72027E-14
 -1      2289 3.95886E-03-4.98632E-04-1.56245E-14
 -1      2290 4.31542E-03-5.33699E-04-1.83298E-14
 -1      2291 4.45764E-03-5.32696E-04-1.94859E-14
 -1      2292 4.24345E-03-4.97074E-04-1.78128E-14
 -1      2293 4.59995E-03-5.31597E-04-2.06726E-14
 -1      2294 4.74234E-03-5.30407E-04-2.18882E-14
 -1      2295 4.52828E-03-4.95069E-04-2.01223E-14
 -1      2296 4.88482E-03-5.29128E-04-2.31326E-14
 -1      2297 5.02737E-03-5.27759E-04-2.44058E-14
 -1      2298 4.81336E-03-4.92695E-04-2.25504E-14
 -1      2299 5.17001E-03-5.26293E-04-2.57075E-14
 -1      2300 5.31273E-03-5.24728E-04-2.70358E-14
 -1      2301 5.09867E-03-4.89966E-04-2.50942E-14
 -1      2302 5.45554E-03-5.23049E-04-2.83896E-14
 -1      2303 5.59844E-03-5.21252E-04-2.97704E-14
 -1      2304 5.38423E-03-4.86846E-04-2.77481E-14
 -1      2305 5.74144E-03-5.19321E-04-3.11764E-14
 -1      2306 5.88455E-03-5.17250E-04-3.26070E-14
 -1      2307 5.67005E-03-4.83265E-04-3.05049E-14
 -1      2308 6.02777E-03-5.15022E-04-3.40638E-14
 -1      2309 6.17114E-03-5.12633E-04-3.55465E-14
 -1      2310 5.95619E-03-4.79134E-04-3.33643E-14
 -1      2311 6.31464E-03-5.10070E-04-3.70550E-14
 -1      2312 6.45831E-03-5.07331E-04-3.85877E-14
 -1      2313 6.24270E-03-4.74366E-04-3.63253E-14
 -1      2314 6.60216E-03-5.04411E-04-4.01465E-14
 -1      2315 6.74622E-03-5.01316E-04-4.17298E-14
 -1      2316 6.52967E-03-4.68890E-04-3.93889E-14
 -1      2317 6.89051E-03-4.98051E-04-4.33378E-14
 -1      2318 7.03507E-03-4.94636E-04-4.49710E-14
 -1      2319 6.81723E-03-4.62686E-04-4.25522E-14
 -1      2320 7.17990E-03-4.91097E-04-4.66272E-14
 -1      2321 7.32508E-03-4.87469E-04-4.83054E-14
 -1      2322 7.10554E-03-4.55817E-04-4.58115E-14
 -1      2323 7.47060E-03-4.83808E-04-5.00039E-14
 -1      2324 7.61655E-03-4.80175E-04-5.17244E-14
 -1      2325 7.39480E-03-4.48481E-04-4.91620E-14
 -1      2326 7.76292E-03-4.76665E-04-5.34644E-14
 -1      2327 7.90981E-03-4.73372E-04-5.52234E-14
 -1      2328 7.68526E-03-4.41065E-04-5.25948E-14
 -1      2329 8.05723E-03-4.70446E-04-5.70011E-14
 -1      2330 8.20526E-03-4.68025E-04-5.87950E-14
 -1      2331 7.97726E-03-4.34227E-04-5.61057E-14
 -1      2332 8.35393E-03-4.66319E-04-6.06072E-14
 -1      2333 8.50332E-03-4.65524E-04-6.24348E-14
 -1      2334 8.27121E-03-4.28976E-04-5.96893E-14
 -1      2335 8.65348E-03-4.65917E-04-6.42786E-14
 -1      2336 8.80446E-03-4.67759E-04-6.61358E-14
 -1      2337 8.56762E-03-4.26757E-04-6.33383E-14
 -1      2338 8.95634E-03-4.71384E-04-6.80077E-14
 -1      2339 9.10914E-03-4.77120E-04-6.98967E-14
 -1      2340 8.86714E-03-4.29522E-04-6.70490E-14
 -1      2341 9.26297E-03-4.85327E-04-7.17980E-14
 -1      2342 9.41773E-03-4.96380E-04-7.37125E-14
 -1      2343 9.17053E-03-4.39734E-04-7.08187E-14
 -1      2344 9.57362E-03-5.10595E-04-7.56392E-14
 -1      2345 9.73035E-03-5.28334E-04-7.75790E-14
 -1      2346 9.47858E-03-4.60259E-04-7.46418E-14
 -1      2347 9.88818E-03-5.49751E-04-7.95324E-14
 -1      2348 1.00466E-02-5.75061E-04-8.14963E-14
 -1      2349 9.79188E-03-4.94014E-04-7.85170E-14
 -1      2350 1.02058E-02-6.04094E-04-8.34699E-14
 -1      2351 1.03650E-02-6.36676E-04-8.54560E-14
 -1      2352 1.01104E-02-5.43208E-04-8.24387E-14
 -1      2353 1.05244E-02-6.72126E-04-8.74546E-14
 -1      2354 1.06829E-02-7.09572E-04-8.94649E-14
 -1      2355 1.04330E-02-6.07972E-04-8.64050E-14
 -1      2356 1.08406E-02-7.47725E-04-9.14853E-14
 -1      2357 1.09965E-02-7.84722E-04-9.35169E-14
 -1      2358 1.07562E-02-6.84329E-04-9.04207E-14
 -1      2359 1.11504E-02-8.18692E-04-9.55570E-14
 -1      2360 1.13021E-02-8.47107E-04-9.76105E-14
 -1      2361 1.10755E-02-7.61908E-04-9.44787E-14
 -1      2362 1.14511E-02-8.67955E-04-9.96787E-14
 -1      2363 1.15984E-02-8.78651E-04-1.01758E-13
 -1      2364 1.13863E-02-8.23544E-04-9.85824E-14
 -1      2365 1.17435E-02-8.77788E-04-1.03850E-13
 -1      2366 1.18883E-02-8.64114E-04-1.05953E-13
 -1      2367 1.16874E-02-8.48736E-04-1.02737E-13
 -1      2368 1.20324E-02-8.37516E-04-1.08071E-13
 -1      2369 1.21778E-02-7.98538E-04-1.10206E-13
 -1      2370 1.19833E-02-8.21926E-04-1.06943E-13
 -1      2371 1.23240E-02-7.48305E-04-1.12353E-13
 -1      2372 1.24721E-02-6.88943E-04-1.14512E-13
 -1      2373 1.22812E-02-7.41029E-04-1.11203E-13
 -1      2374 1.26217E-02-6.22157E-04-1.16684E-13
 -1      2375 1.27727E-02-5.50378E-04-1.18872E-13
 -1      2376 1.25862E-02-6.17798E-04-1.15518E-13
 -1      2377 1.29249E-02-4.75148E-04-1.21071E-13
 -1      2378 1.30773E-02-3.98215E-04-1.23276E-13
 -1      2379 1.28979E-02-4.70704E-04-1.19886E-13
 -1      2380 1.32299E-02-3.20500E-04-1.25496E-13
 -1      2381 1.33817E-02-2.42797E-04-1.27722E-13
 -1      2382 1.32118E-02-3.15628E-04-1.24298E-13
 -1      2383 1.35328E-02-1.65378E-04-1.29958E-13
 -1      2384 1.36824E-02-8.80331E-05-1.32203E-13
 -1      2385 1.35226E-02-1.61361E-04-1.28749E-13
 -1      2386 1.43303E-02 5.75456E-04-1.17343E-13
 -1      2387 1.44374E-02 5.44416E-04-1.17746E-13
 -1      2388 1.86529E-03 5.25262E-04-3.12128E-15
 -1      2389 1.72506E-03 5.12514E-04-2.65039E-15
 -1      2390 2.14537E-03 5.44533E-04-4.17896E-15
 -1      2391 2.00538E-03 5.35875E-04-3.63071E-15
 -1      2392 1.92460E-03 4.94643E-04-3.46281E-15
 -1      2393 2.42542E-03 5.57304E-04-5.38943E-15
 -1      2394 2.28538E-03 5.51626E-04-4.76501E-15
 -1      2395 2.20670E-03 5.11893E-04-4.56675E-15
 -1      2396 2.70582E-03 5.65376E-04-6.75003E-15
 -1      2397 2.56557E-03 5.61846E-04-6.05160E-15
 -1      2398 2.48864E-03 5.23183E-04-5.82152E-15
 -1      2399 2.98677E-03 5.70099E-04-8.25746E-15
 -1      2400 2.84623E-03 5.68094E-04-7.48517E-15
 -1      2401 2.77072E-03 5.30179E-04-7.22458E-15
 -1      2402 3.26836E-03 5.72471E-04-9.90759E-15
 -1      2403 3.12749E-03 5.71532E-04-9.06504E-15
 -1      2404 3.05311E-03 5.34127E-04-8.77281E-15
 -1      2405 3.55058E-03 5.73221E-04-1.16973E-14
 -1      2406 3.40940E-03 5.73014E-04-1.07851E-14
 -1      2407 3.33591E-03 5.35950E-04-1.04618E-14
 -1      2408 3.83341E-03 5.72865E-04-1.36255E-14
 -1      2409 3.69193E-03 5.73157E-04-1.26443E-14
 -1      2410 3.61914E-03 5.36316E-04-1.22893E-14
 -1      2411 4.11678E-03 5.71752E-04-1.56906E-14
 -1      2412 3.97503E-03 5.72386E-04-1.46410E-14
 -1      2413 3.90279E-03 5.35693E-04-1.42538E-14
 -1      2414 4.40066E-03 5.70103E-04-1.78888E-14
 -1      2415 4.25867E-03 5.70984E-04-1.67732E-14
 -1      2416 4.18683E-03 5.34392E-04-1.63535E-14
 -1      2417 4.68498E-03 5.68036E-04-2.02155E-14
 -1      2418 4.54277E-03 5.69116E-04-1.90364E-14
 -1      2419 4.47124E-03 5.32603E-04-1.85852E-14
 -1      2420 4.96972E-03 5.65592E-04-2.26630E-14
 -1      2421 4.82730E-03 5.66860E-04-2.14251E-14
 -1      2422 4.75598E-03 5.30422E-04-2.09426E-14
 -1      2423 5.25486E-03 5.62750E-04-2.52237E-14
 -1      2424 5.11224E-03 5.64222E-04-2.39298E-14
 -1      2425 5.04105E-03 5.27869E-04-2.34185E-14
 -1      2426 5.54042E-03 5.59443E-04-2.78898E-14
 -1      2427 5.39758E-03 5.61158E-04-2.65430E-14
 -1      2428 5.32645E-03 5.24909E-04-2.60050E-14
 -1      2429 5.82646E-03 5.55571E-04-3.06585E-14
 -1      2430 5.68338E-03 5.57582E-04-2.92617E-14
 -1      2431 5.61220E-03 5.21463E-04-2.86966E-14
 -1      2432 6.11308E-03 5.51011E-04-3.35262E-14
 -1      2433 5.96969E-03 5.53381E-04-3.20803E-14
 -1      2434 5.89835E-03 5.17421E-04-3.14896E-14
 -1      2435 6.40042E-03 5.45636E-04-3.64901E-14
 -1      2436 6.25664E-03 5.48428E-04-3.49962E-14
 -1      2437 6.18499E-03 5.12657E-04-3.43813E-14
 -1      2438 6.68868E-03 5.39330E-04-3.95491E-14
 -1      2439 6.54441E-03 5.42600E-04-3.80083E-14
 -1      2440 6.47225E-03 5.07040E-04-3.73701E-14
 -1      2441 6.97813E-03 5.32016E-04-4.26996E-14
 -1      2442 6.83322E-03 5.35795E-04-4.11122E-14
 -1      2443 6.76027E-03 5.00459E-04-4.04514E-14
 -1      2444 7.26911E-03 5.23695E-04-4.59362E-14
 -1      2445 7.12339E-03 5.27971E-04-4.43069E-14
 -1      2446 7.04927E-03 4.92846E-04-4.36232E-14
 -1      2447 7.56205E-03 5.14500E-04-4.92594E-14
 -1      2448 7.41528E-03 5.19185E-04-4.75873E-14
 -1      2449 7.33950E-03 4.84225E-04-4.68824E-14
 -1      2450 7.85748E-03 5.04787E-04-5.26605E-14
 -1      2451 7.70939E-03 5.09669E-04-5.09517E-14
 -1      2452 7.63126E-03 4.74766E-04-5.02254E-14
 -1      2453 8.15601E-03 4.95258E-04-5.61347E-14
 -1      2454 8.00627E-03 4.99935E-04-5.43887E-14
 -1      2455 7.92493E-03 4.64880E-04-5.36464E-14
 -1      2456 8.45836E-03 4.87151E-04-5.96776E-14
 -1      2457 8.30661E-03 4.90924E-04-5.78968E-14
 -1      2458 8.22094E-03 4.55353E-04-5.71367E-14
 -1      2459 8.76539E-03 4.82510E-04-6.32860E-14
 -1      2460 8.61118E-03 4.84238E-04-6.14733E-14
 -1      2461 8.51979E-03 4.47535E-04-6.06976E-14
 -1      2462 9.07807E-03 4.84558E-04-6.69567E-14
 -1      2463 8.92090E-03 4.82457E-04-6.51136E-14
 -1      2464 8.82213E-03 4.43613E-04-6.43241E-14
 -1      2465 9.39759E-03 4.98160E-04-7.06869E-14
 -1      2466 9.23686E-03 4.89556E-04-6.88146E-14
 -1      2467 9.12889E-03 4.46969E-04-6.80097E-14
 -1      2468 9.72545E-03 5.30311E-04-7.44721E-14
 -1      2469 9.56040E-03 5.11401E-04-7.25728E-14
 -1      2470 9.44142E-03 4.62627E-04-7.17539E-14
 -1      2471 1.00635E-02 5.90350E-04-7.83106E-14
 -1      2472 9.89323E-03 5.56152E-04-7.63840E-14
 -1      2473 9.76196E-03 4.97735E-04-7.55529E-14
 -1      2474 1.04139E-02 6.89319E-04-8.22018E-14
 -1      2475 1.02374E-02 6.34158E-04-8.02503E-14
 -1      2476 1.00939E-02 5.61814E-04-7.94060E-14
 -1      2477 1.07775E-02 8.37158E-04-8.61392E-14
 -1      2478 1.05947E-02 7.56543E-04-8.41645E-14
 -1      2479 1.04417E-02 6.66468E-04-8.33091E-14
 -1      2480 1.11512E-02 1.03537E-03-9.01257E-14
 -1      2481 1.09643E-02 9.30460E-04-8.81268E-14
 -1      2482 1.08086E-02 8.22812E-04-8.72579E-14
 -1      2483 1.15247E-02 1.26375E-03-9.41569E-14
 -1      2484 1.13396E-02 1.14820E-03-9.21356E-14
 -1      2485 1.11922E-02 1.03258E-03-9.12552E-14
 -1      2486 1.18818E-02 1.47193E-03-9.82388E-14
 -1      2487 1.17056E-02 1.37573E-03-9.61929E-14
 -1      2488 1.15777E-02 1.27345E-03-9.53010E-14
 -1      2489 1.22185E-02 1.58732E-03-1.02360E-13
 -1      2490 1.20507E-02 1.54515E-03-1.00295E-13
 -1      2491 1.19460E-02 1.48031E-03-9.93959E-14
 -1      2492 1.25501E-02 1.57181E-03-1.06515E-13
 -1      2493 1.23818E-02 1.59602E-03-1.04434E-13
 -1      2494 1.22942E-02 1.57030E-03-1.03528E-13
 -1      2495 1.28953E-02 1.44899E-03-1.10699E-13
 -1      2496 1.27197E-02 1.51873E-03-1.08603E-13
 -1      2497 1.26457E-02 1.51231E-03-1.07696E-13
 -1      2498 1.32545E-02 1.28817E-03-1.14906E-13
 -1      2499 1.30744E-02 1.36931E-03-1.12800E-13
 -1      2500 1.30145E-02 1.35883E-03-1.11887E-13
 -1      2501 1.36128E-02 1.14121E-03-1.19132E-13
 -1      2502 1.34353E-02 1.21103E-03-1.17016E-13
 -1      2503 1.33924E-02 1.19099E-03-1.16100E-13
 -1      2504 1.39584E-02 1.02902E-03-1.23376E-13
 -1      2505 1.37883E-02 1.08080E-03-1.21252E-13
 -1      2506 1.37593E-02 1.05390E-03-1.20334E-13
 -1      2507 1.42867E-02 9.47498E-04-1.27626E-13
 -1      2508 1.41251E-02 9.85373E-04-1.25500E-13
 -1      2509 1.41047E-02 9.56769E-04-1.24585E-13
 -1      2510 1.45984E-02 8.80734E-04-1.31878E-13
 -1      2511 1.44447E-02 9.13451E-04-1.29753E-13
 -1      2512 1.44284E-02 8.87634E-04-1.28841E-13
 -1      2513 1.47520E-02 8.46972E-04-1.34071E-13
 -1      2514 1.51798E-02 6.16570E-04-1.34301E-13
 -1      2515 1.51370E-02 6.36115E-04-1.34125E-13
 -1      2516 1.52175E-02 5.86896E-04-1.34646E-13
 -1      2517 1.52075E-02 6.00958E-04-1.34472E-13
 -1      2518 1.50896E-02 6.03082E-04-1.32504E-13
 -1      2519 1.49500E-02 7.16613E-04-1.33599E-13
 -1      2520 1.48773E-02 7.50906E-04-1.33419E-13
 -1      2521 1.50823E-02 6.58999E-04-1.33950E-13
 -1      2522 1.50193E-02 6.85784E-04-1.33776E-13
 -1      2523 1.48630E-02 7.11605E-04-1.31830E-13
 -1      2524 1.49973E-02 6.48726E-04-1.32169E-13
 -1      2525 1.51803E-02 5.60783E-04-1.34984E-13
 -1      2526 1.52084E-02 5.74571E-04-1.34817E-13
 -1      2527 1.51127E-02 5.70319E-04-1.32834E-13
 -1      2528 1.50715E-02 5.26702E-04-1.35307E-13
 -1      2529 1.51339E-02 5.45663E-04-1.35147E-13
 -1      2530 1.50537E-02 5.38104E-04-1.33157E-13
 -1      2531 1.49098E-02 4.77153E-04-1.35608E-13
 -1      2532 1.49956E-02 5.04177E-04-1.35459E-13
 -1      2533 1.49219E-02 4.93306E-04-1.33462E-13
 -1      2534 1.47234E-02 4.12522E-04-1.35890E-13
 -1      2535 1.48185E-02 4.46559E-04-1.35751E-13
 -1      2536 1.47441E-02 4.30338E-04-1.33749E-13
 -1      2537 1.45272E-02 3.34556E-04-1.36154E-13
 -1      2538 1.46252E-02 3.74579E-04-1.36025E-13
 -1      2539 1.45468E-02 3.51075E-04-1.34019E-13
 -1      2540 1.43375E-02 2.49663E-04-1.36402E-13
 -1      2541 1.44312E-02 2.92465E-04-1.36281E-13
 -1      2542 1.43486E-02 2.61162E-04-1.34275E-13
 -1      2543 1.41596E-02 1.62268E-04-1.36633E-13
 -1      2544 1.42470E-02 2.05868E-04-1.36516E-13
 -1      2545 1.41615E-02 1.67764E-04-1.34512E-13
 -1      2546 1.40917E-02 1.27731E-04-1.38056E-13
 -1      2547 1.34971E-02 9.46969E-04-1.13233E-13
 -1      2548 1.36910E-02 8.42926E-04-1.14241E-13
 -1      2549 1.58454E-03 4.97083E-04-2.21864E-15
 -1      2550 1.44360E-03 4.78755E-04-1.82614E-15
 -1      2551 1.64187E-03 4.69227E-04-2.51202E-15
 -1      2552 1.45262E-02 5.17014E-04-1.18143E-13
 -1      2553 1.45804E-02 5.02217E-04-1.18631E-13
 -1      2554 1.40753E-02 3.30222E-04-1.17364E-13
 -1      2555 1.38629E-02 2.42666E-04-1.16498E-13
 -1      2556 1.45744E-02 4.84033E-04-1.18733E-13
 -1      2557 1.45322E-02 4.73143E-04-1.18604E-13
 -1      2558 1.32590E-02-7.23776E-05-1.13689E-13
 -1      2559 1.30554E-02-1.95173E-04-1.12693E-13
 -1      2560 1.13871E-02-5.05019E-04-9.84282E-14
 -1      2561 1.12020E-02-3.99443E-04-9.70118E-14
 -1      2562 1.16893E-02 1.29292E-03-9.82880E-14
 -1      2563 1.18616E-02 1.40166E-03-9.97741E-14
 -1      2564 5.46575E-04-2.29000E-05-5.31977E-16
 -1      2565 5.47034E-04-3.89403E-05-5.31828E-16
 -1      2566 6.62493E-04-5.58154E-05-7.18731E-16
 -1      2567 6.61262E-04-1.77049E-05-7.18826E-16
 -1      2568 1.23282E-02 1.52217E-03-1.04291E-13
 -1      2569 1.24960E-02 1.48770E-03-1.05945E-13
 -1      2570 1.12253E-02 9.70319E-04-9.50962E-14
 -1      2571 1.14522E-02 1.13283E-03-9.65677E-14
 -1      2572 1.19919E-02 1.46404E-03-1.00987E-13
 -1      2573 1.21153E-02 1.50469E-03-1.02202E-13
 -1      2574 1.19055E-02 1.42770E-03-9.98606E-14
 -1      2575 1.17820E-02-6.72007E-04-1.01976E-13
 -1      2576 1.15971E-02-6.04036E-04-1.00229E-13
 -1      2577 1.07837E-02 6.83757E-04-9.27822E-14
 -1      2578 1.09714E-02 8.00675E-04-9.36612E-14
 -1      2579 9.97696E-03 3.12716E-04-8.97982E-14
 -1      2580 1.00889E-02 3.48746E-04-9.00930E-14
 -1      2581 9.79236E-03 2.60444E-04-8.95654E-14
 -1      2582 9.86402E-03 2.78421E-04-8.96325E-14
 -1      2583 9.77500E-03 2.36276E-04-8.95732E-14
 -1      2584 9.76491E-03 2.44800E-04-8.95451E-14
 -1      2585 1.02559E-02 8.18980E-05-9.18311E-14
 -1      2586 1.01218E-02 1.30461E-04-9.11922E-14
 -1      2587 1.06428E-02-9.36336E-05-9.35331E-14
 -1      2588 1.04438E-02 1.90332E-06-9.26792E-14
 -1      2589 1.03475E-02 3.26416E-05-9.14104E-14
 -1      2590 1.10043E-02-2.88500E-04-9.56694E-14
 -1      2591 1.08487E-02-2.00769E-04-9.47036E-14
 -1      2592 1.27914E-02-3.57125E-04-1.11090E-13
 -1      2593 1.25977E-02-4.79012E-04-1.09591E-13
 -1      2594 1.20915E-02-6.89036E-04-1.05108E-13
 -1      2595 1.19710E-02-6.99048E-04-1.03874E-13
 -1      2596 1.44377E-02 4.46784E-04-1.18477E-13
 -1      2597 1.42940E-02 4.07394E-04-1.18056E-13
 -1      2598 1.24236E-02-5.72568E-04-1.08164E-13
 -1      2599 1.22641E-02-6.43628E-04-1.06741E-13
 -1      2600 1.25070E-02-5.23624E-04-1.09359E-13
 -1      2601 1.36192E-02 1.21630E-04-1.15223E-13
 -1      2602 1.34370E-02 2.59474E-05-1.14455E-13
 -1      2603 1.33322E-02-2.18103E-05-1.14771E-13
 -1      2604 1.26799E-02 1.41606E-03-1.07561E-13
 -1      2605 1.28260E-02 1.33790E-03-1.08772E-13
 -1      2606 7.57919E-04 3.34213E-04-4.85587E-16
 -1      2607 6.11498E-04 2.84850E-04-3.22875E-16
 -1      2608 5.84771E-04 2.58081E-04-3.32972E-16
 -1      2609 8.13740E-04 3.22885E-04-6.29542E-16
 -1      2610 1.25841E-02 1.46448E-03-1.06859E-13
 -1      2611 6.70195E-04-1.37977E-04-6.97115E-16
 -1      2612 5.54570E-04-1.26220E-04-5.10226E-16
 -1      2613 5.57783E-04-1.46194E-04-4.99749E-16
 -1      2614 1.35784E-03 4.32734E-04-1.71706E-15
 -1      2615 5.72267E-04 2.27884E-04-3.69076E-16
 -1      2616 9.79442E-03 2.22763E-04-8.91645E-14
 -1      2617 9.75495E-03 2.21426E-04-8.80800E-14
 -1      2618 9.82569E-03 2.08477E-04-8.87552E-14
 -1      2619 9.76187E-03 2.43803E-04-8.85076E-14
 -1      2620 1.29554E-02 1.27380E-03-1.10093E-13
 -1      2621 9.89364E-03 2.81497E-04-8.86898E-14
 -1      2622 1.38286E-02 7.80350E-04-1.15434E-13
 -1      2623 1.42483E-02 6.05434E-04-1.17500E-13
 -1      2624 1.43429E-02 5.86068E-04-1.18858E-13
 -1      2625 1.41650E-02 6.41277E-04-1.17656E-13
 -1      2626 1.45988E-02 4.99073E-04-1.19613E-13
 -1      2627 1.47374E-02 8.27922E-04-1.33165E-13
 -1      2628 1.41942E-02 3.77030E-04-1.18782E-13
 -1      2629 1.47770E-02 8.00035E-04-1.33069E-13
 -1      2630 1.39101E-02 3.09452E-05-1.35743E-13
 -1      2631 1.40607E-02 1.11100E-04-1.36332E-13
 -1      2632 1.39737E-02 6.86008E-05-1.34323E-13
 -1      2633 1.37813E-02-3.67391E-05-1.33722E-13
 -1      2634 1.06361E-02 5.98397E-04-9.15641E-14
 -1      2635 1.33812E-02 1.02019E-03-1.13138E-13
 -1      2636 6.89550E-04 2.51237E-04-5.34132E-16
 -1      2637 1.45076E-02 5.32190E-04-1.19104E-13
 -1      2638 1.37431E-02 1.92795E-04-1.16815E-13
 -1      2639 1.44945E-02 4.65304E-04-1.19596E-13
 -1      2640 1.21859E-02-6.67081E-04-1.06294E-13
 -1      2641 1.29083E-02-2.77917E-04-1.12393E-13
 -1      2642 1.27889E-02-3.53268E-04-1.12094E-13
 -1      2643 1.30254E-02-2.02588E-04-1.13702E-13
 -1      2644 1.07211E-02-1.45886E-04-9.34200E-14
 -1      2645 1.15706E-02 1.21549E-03-9.69348E-14
 -1      2646 1.11029E-02-3.56981E-04-9.59283E-14
 -1      2647 1.14838E-02-5.63846E-04-9.90647E-14
 -1      2648 1.00229E-02 1.57240E-04-9.02039E-14
 -1      2649 1.01935E-02 3.85993E-04-8.98059E-14
 -1      2650 1.11063E-02 8.89331E-04-9.37897E-14
 -1      2651 5.64285E-04-1.64947E-04-4.93014E-16
 -1      2652 5.69725E-04-1.88018E-04-4.76168E-16
 -1      2653 6.97848E-04-2.27760E-04-6.55116E-16
 -1      2654 6.80683E-04-1.81669E-04-6.78711E-16
 -1      2655 1.18568E-02-6.94998E-04-1.02760E-13
 -1      2656 1.17499E-02-6.77581E-04-1.01649E-13
 -1      2657 1.19176E-02-7.05601E-04-1.03544E-13
 -1      2658 1.46848E-02 8.01423E-04-1.31313E-13
 -1      2659 1.37766E-02-3.46225E-05-1.32503E-13
 -1      2660 7.80175E-04 7.73364E-05-9.09781E-16
 -1      2661 7.78914E-04 5.54740E-05-9.18997E-16
 -1      2662 7.78067E-04 3.35611E-05-9.26288E-16
 -1      2663 7.77644E-04 1.18964E-05-9.31763E-16
 -1      2664 8.96477E-04 4.96824E-05-1.16725E-15
 -1      2665 7.91532E-04 1.73137E-04-8.46857E-16
 -1      2666 7.87522E-04 1.47721E-04-8.67308E-16
 -1      2667 8.03401E-04 2.28335E-04-7.94205E-16
 -1      2668 7.96777E-04 1.99945E-04-8.22977E-16
 -1      2669 9.14836E-04 2.07839E-04-1.06242E-15
 -1      2670 1.12983E-03 3.61964E-04-1.27918E-15
 -1      2671 9.86225E-04 3.32894E-04-9.92519E-16
 -1      2672 1.44958E-02 5.48649E-04-1.20197E-13
 -1      2673 1.45733E-02 5.29882E-04-1.20603E-13
 -1      2674 1.41607E-03 4.07869E-04-1.96818E-15
 -1      2675 1.27302E-03 3.86831E-04-1.60419E-15
 -1      2676 1.18967E-03 3.41509E-04-1.48870E-15
 -1      2677 8.28034E-04-2.65301E-04-8.65491E-16
 -1      2678 9.59662E-04-3.00554E-04-1.10785E-15
 -1      2679 8.17432E-04-2.38674E-04-8.82595E-16
 -1      2680 1.10268E-03-3.28822E-04-1.41873E-15
 -1      2681 1.24601E-03-3.53173E-04-1.77031E-15
 -1      2682 1.09017E-03-2.98221E-04-1.44170E-15
 -1      2683 1.38919E-03-3.73968E-04-2.16175E-15
 -1      2684 1.53236E-03-3.91528E-04-2.59310E-15
 -1      2685 1.37639E-03-3.41238E-04-2.18883E-15
 -1      2686 1.67531E-03-4.06347E-04-3.06410E-15
 -1      2687 1.81816E-03-4.18659E-04-3.57449E-15
 -1      2688 1.66306E-03-3.72433E-04-3.09422E-15
 -1      2689 1.96083E-03-4.28911E-04-4.12371E-15
 -1      2690 2.10341E-03-4.37279E-04-4.71152E-15
 -1      2691 1.94957E-03-3.94313E-04-4.15520E-15
 -1      2692 2.24587E-03-4.44126E-04-5.33791E-15
 -1      2693 2.38828E-03-4.49585E-04-6.00178E-15
 -1      2694 2.23578E-03-4.09121E-04-5.36947E-15
 -1      2695 2.53063E-03-4.53940E-04-6.70263E-15
 -1      2696 2.67296E-03-4.57294E-04-7.44050E-15
 -1      2697 2.52173E-03-4.18694E-04-6.73398E-15
 -1      2698 2.81527E-03-4.59860E-04-8.21415E-15
 -1      2699 2.95758E-03-4.61717E-04-9.02362E-15
 -1      2700 2.80747E-03-4.24475E-04-8.24379E-15
 -1      2701 3.09990E-03-4.63024E-04-9.86822E-15
 -1      2702 3.24223E-03-4.63837E-04-1.07482E-14
 -1      2703 3.09309E-03-4.27566E-04-9.89526E-15
 -1      2704 3.38459E-03-4.64274E-04-1.16616E-14
 -1      2705 3.52698E-03-4.64373E-04-1.26088E-14
 -1      2706 3.37865E-03-4.28789E-04-1.16853E-14
 -1      2707 3.66940E-03-4.64219E-04-1.35894E-14
 -1      2708 3.81184E-03-4.63835E-04-1.46026E-14
 -1      2709 3.66417E-03-4.28736E-04-1.36094E-14
 -1      2710 3.95433E-03-4.63281E-04-1.56474E-14
 -1      2711 4.09684E-03-4.62570E-04-1.67232E-14
 -1      2712 3.94970E-03-4.27821E-04-1.56642E-14
 -1      2713 4.23940E-03-4.61740E-04-1.78302E-14
 -1      2714 4.38198E-03-4.60796E-04-1.89681E-14
 -1      2715 4.23525E-03-4.26317E-04-1.78429E-14
 -1      2716 4.52461E-03-4.59760E-04-2.01361E-14
 -1      2717 4.66727E-03-4.58632E-04-2.13340E-14
 -1      2718 4.52083E-03-4.24387E-04-2.01439E-14
 -1      2719 4.80996E-03-4.57420E-04-2.25598E-14
 -1      2720 4.95269E-03-4.56121E-04-2.38155E-14
 -1      2721 4.80645E-03-4.22106E-04-2.25643E-14
 -1      2722 5.09546E-03-4.54733E-04-2.50997E-14
 -1      2723 5.23826E-03-4.53249E-04-2.64115E-14
 -1      2724 5.09212E-03-4.19487E-04-2.51003E-14
 -1      2725 5.38110E-03-4.51662E-04-2.77499E-14
 -1      2726 5.52399E-03-4.49962E-04-2.91131E-14
 -1      2727 5.37785E-03-4.16494E-04-2.77458E-14
 -1      2728 5.66692E-03-4.48136E-04-3.05028E-14
 -1      2729 5.80990E-03-4.46177E-04-3.19182E-14
 -1      2730 5.66364E-03-4.13057E-04-3.04957E-14
 -1      2731 5.95294E-03-4.44067E-04-3.33574E-14
 -1      2732 6.09604E-03-4.41802E-04-3.48239E-14
 -1      2733 5.94952E-03-4.09087E-04-3.33472E-14
 -1      2734 6.23920E-03-4.39363E-04-3.63153E-14
 -1      2735 6.38244E-03-4.36750E-04-3.78323E-14
 -1      2736 6.23550E-03-4.04490E-04-3.63006E-14
 -1      2737 6.52576E-03-4.33950E-04-3.93739E-14
 -1      2738 6.66919E-03-4.30968E-04-4.09410E-14
 -1      2739 6.52163E-03-3.99188E-04-3.93549E-14
 -1      2740 6.81272E-03-4.27798E-04-4.25326E-14
 -1      2741 6.95638E-03-4.24458E-04-4.41465E-14
 -1      2742 6.80794E-03-3.93141E-04-4.25072E-14
 -1      2743 7.10018E-03-4.20955E-04-4.57857E-14
 -1      2744 7.24416E-03-4.17324E-04-4.74487E-14
 -1      2745 7.09451E-03-3.86380E-04-4.57560E-14
 -1      2746 7.38831E-03-4.13592E-04-4.91309E-14
 -1      2747 7.53270E-03-4.09818E-04-5.08334E-14
 -1      2748 7.38147E-03-3.79050E-04-4.90951E-14
 -1      2749 7.67733E-03-4.06061E-04-5.25576E-14
 -1      2750 7.82228E-03-4.02410E-04-5.43003E-14
 -1      2751 7.66899E-03-3.71456E-04-5.25154E-14
 -1      2752 7.96755E-03-3.98963E-04-5.60622E-14
 -1      2753 8.11324E-03-3.95854E-04-5.78410E-14
 -1      2754 7.95737E-03-3.64137E-04-5.60139E-14
 -1      2755 8.25939E-03-3.93232E-04-5.96371E-14
 -1      2756 8.40610E-03-3.91285E-04-6.14504E-14
 -1      2757 8.24702E-03-3.57936E-04-5.95820E-14
 -1      2758 8.55344E-03-3.90219E-04-6.32806E-14
 -1      2759 8.70153E-03-3.90293E-04-6.51265E-14
 -1      2760 8.53861E-03-3.54091E-04-6.32191E-14
 -1      2761 8.85050E-03-3.91772E-04-6.69860E-14
 -1      2762 9.00046E-03-3.94995E-04-6.88607E-14
 -1      2763 8.83307E-03-3.54320E-04-6.69200E-14
 -1      2764 9.15163E-03-4.00277E-04-7.07497E-14
 -1      2765 9.30403E-03-4.08036E-04-7.26537E-14
 -1      2766 9.13170E-03-3.60898E-04-7.06795E-14
 -1      2767 9.45804E-03-4.18615E-04-7.45697E-14
 -1      2768 9.61351E-03-4.32471E-04-7.64966E-14
 -1      2769 9.43616E-03-3.76686E-04-7.44934E-14
 -1      2770 9.77093E-03-4.49929E-04-7.84363E-14
 -1      2771 9.92992E-03-4.71370E-04-8.03904E-14
 -1      2772 9.74827E-03-4.05034E-04-7.83560E-14
 -1      2773 1.00910E-02-4.97025E-04-8.23534E-14
 -1      2774 1.02534E-02-5.26923E-04-8.43264E-14
 -1      2775 1.00694E-02-4.49370E-04-8.22646E-14
 -1      2776 1.04174E-02-5.61050E-04-8.63150E-14
 -1      2777 1.05820E-02-5.98646E-04-8.83149E-14
 -1      2778 1.03995E-02-5.12038E-04-8.62213E-14
 -1      2779 1.07471E-02-6.39322E-04-9.03247E-14
 -1      2780 1.09113E-02-6.80801E-04-9.23477E-14
 -1      2781 1.07357E-02-5.91873E-04-9.02270E-14
 -1      2782 1.10741E-02-7.21843E-04-9.43792E-14
 -1      2783 1.12349E-02-7.59087E-04-9.64205E-14
 -1      2784 1.10714E-02-6.79977E-04-9.42755E-14
 -1      2785 1.13925E-02-7.90389E-04-9.84777E-14
 -1      2786 1.15480E-02-8.11943E-04-1.00547E-13
 -1      2787 1.13987E-02-7.56688E-04-9.83709E-14
 -1      2788 1.16999E-02-8.21047E-04-1.02629E-13
 -1      2789 1.18513E-02-8.15949E-04-1.04723E-13
 -1      2790 1.17136E-02-7.94820E-04-1.02514E-13
 -1      2791 1.20017E-02-7.95201E-04-1.06828E-13
 -1      2792 1.21535E-02-7.59991E-04-1.08949E-13
 -1      2793 1.20211E-02-7.70129E-04-1.06713E-13
 -1      2794 1.23067E-02-7.10411E-04-1.11086E-13
 -1      2795 1.24625E-02-6.50315E-04-1.13236E-13
 -1      2796 1.23332E-02-6.80664E-04-1.10964E-13
 -1      2797 1.26207E-02-5.81345E-04-1.15396E-13
 -1      2798 1.27807E-02-5.07156E-04-1.17571E-13
 -1      2799 1.26563E-02-5.44129E-04-1.15273E-13
 -1      2800 1.29423E-02-4.29840E-04-1.19758E-13
 -1      2801 1.31039E-02-3.51419E-04-1.21957E-13
 -1      2802 1.29881E-02-3.86987E-04-1.19629E-13
 -1      2803 1.32652E-02-2.73509E-04-1.24166E-13
 -1      2804 1.34249E-02-1.96358E-04-1.26384E-13
 -1      2805 1.33204E-02-2.29056E-04-1.24032E-13
 -1      2806 1.35829E-02-1.20462E-04-1.28612E-13
 -1      2807 1.04880E-02 5.17979E-04-9.01417E-14
 -1      2808 1.07032E-02 6.36942E-04-9.09358E-14
 -1      2809 1.98545E-03 4.63296E-04-3.81065E-15
 -1      2810 1.84341E-03 4.53038E-04-3.29263E-15
 -1      2811 2.83623E-03 4.94521E-04-7.70318E-15
 -1      2812 2.69447E-03 4.91937E-04-6.96300E-15
 -1      2813 3.11990E-03 4.97777E-04-9.29125E-15
 -1      2814 2.97805E-03 4.96442E-04-8.47938E-15
 -1      2815 2.90238E-03 4.58494E-04-8.18588E-15
 -1      2816 3.40378E-03 4.99123E-04-1.10185E-14
 -1      2817 3.26182E-03 4.98651E-04-1.01377E-14
 -1      2818 3.18716E-03 4.61121E-04-9.81279E-15
 -1      2819 3.68792E-03 4.99167E-04-1.28834E-14
 -1      2820 3.54583E-03 4.99281E-04-1.19340E-14
 -1      2821 3.47200E-03 4.62049E-04-1.15784E-14
 -1      2822 3.97231E-03 4.98330E-04-1.48847E-14
 -1      2823 3.83009E-03 4.98841E-04-1.38676E-14
 -1      2824 3.75695E-03 4.61823E-04-1.34806E-14
 -1      2825 4.25696E-03 4.96885E-04-1.70191E-14
 -1      2826 4.11461E-03 4.97672E-04-1.59347E-14
 -1      2827 4.04200E-03 4.60814E-04-1.55170E-14
 -1      2828 4.54184E-03 4.94994E-04-1.92830E-14
 -1      2829 4.39937E-03 4.95989E-04-1.81349E-14
 -1      2830 4.32719E-03 4.59263E-04-1.76857E-14
 -1      2831 4.82696E-03 4.92730E-04-2.16704E-14
 -1      2832 4.68438E-03 4.93906E-04-2.04620E-14
 -1      2833 4.61250E-03 4.57302E-04-1.99820E-14
 -1      2834 5.11232E-03 4.90097E-04-2.41746E-14
 -1      2835 4.96961E-03 4.91460E-04-2.29081E-14
 -1      2836 4.89794E-03 4.54985E-04-2.23990E-14
 -1      2837 5.39791E-03 4.87046E-04-2.67866E-14
 -1      2838 5.25508E-03 4.88627E-04-2.54675E-14
 -1      2839 5.18352E-03 4.52300E-04-2.49309E-14
 -1      2840 5.68377E-03 4.83490E-04-2.95039E-14
 -1      2841 5.54081E-03 4.85336E-04-2.81321E-14
 -1      2842 5.46925E-03 4.49188E-04-2.75694E-14
 -1      2843 5.96995E-03 4.79313E-04-3.23216E-14
 -1      2844 5.82682E-03 4.81485E-04-3.09004E-14
 -1      2845 5.75514E-03 4.45555E-04-3.03116E-14
 -1      2846 6.25649E-03 4.74388E-04-3.52374E-14
 -1      2847 6.11316E-03 4.76950E-04-3.37678E-14
 -1      2848 6.04123E-03 4.41285E-04-3.31540E-14
 -1      2849 6.54349E-03 4.68586E-04-3.82501E-14
 -1      2850 6.39992E-03 4.71601E-04-3.67323E-14
 -1      2851 6.32753E-03 4.36250E-04-3.60952E-14
 -1      2852 6.83105E-03 4.61804E-04-4.13551E-14
 -1      2853 6.68718E-03 4.65320E-04-3.97914E-14
 -1      2854 6.61410E-03 4.30331E-04-3.91310E-14
 -1      2855 7.11931E-03 4.53995E-04-4.45478E-14
 -1      2856 6.97507E-03 4.58026E-04-4.29402E-14
 -1      2857 6.90098E-03 4.23439E-04-4.22576E-14
 -1      2858 7.40841E-03 4.45209E-04-4.78297E-14
 -1      2859 7.26373E-03 4.49715E-04-4.61779E-14
 -1      2860 7.18820E-03 4.15550E-04-4.54734E-14
 -1      2861 7.69854E-03 4.35659E-04-5.11919E-14
 -1      2862 7.55331E-03 4.40509E-04-4.95007E-14
 -1      2863 7.47581E-03 4.06750E-04-4.87762E-14
 -1      2864 7.98988E-03 4.25818E-04-5.46309E-14
 -1      2865 7.84401E-03 4.30737E-04-5.29024E-14
 -1      2866 7.76383E-03 3.97299E-04-5.21586E-14
 -1      2867 8.28267E-03 4.16549E-04-5.81405E-14
 -1      2868 8.13604E-03 4.21048E-04-5.63769E-14
 -1      2869 8.05229E-03 3.87732E-04-5.56162E-14
 -1      2870 8.57722E-03 4.09293E-04-6.17190E-14
 -1      2871 8.42965E-03 4.12565E-04-5.99210E-14
 -1      2872 8.34123E-03 3.78977E-04-5.91439E-14
 -1      2873 8.87403E-03 4.06322E-04-6.53609E-14
 -1      2874 8.72525E-03 4.07108E-04-6.35331E-14
 -1      2875 8.63076E-03 3.72531E-04-6.27407E-14
 -1      2876 9.17396E-03 4.11070E-04-6.90633E-14
 -1      2877 9.02348E-03 4.07476E-04-6.72048E-14
 -1      2878 8.92123E-03 3.70681E-04-6.64001E-14
 -1      2879 9.47870E-03 4.28544E-04-7.28217E-14
 -1      2880 9.32555E-03 4.17822E-04-7.09350E-14
 -1      2881 9.21354E-03 3.76779E-04-7.01169E-14
 -1      2882 9.79132E-03 4.65813E-04-7.66342E-14
 -1      2883 9.63378E-03 4.44087E-04-7.47222E-14
 -1      2884 9.50973E-03 3.95590E-04-7.38900E-14
 -1      2885 1.01170E-02 5.32404E-04-8.05014E-14
 -1      2886 9.95224E-03 4.94515E-04-7.85620E-14
 -1      2887 9.81390E-03 4.33907E-04-7.77172E-14
 -1      2888 1.04627E-02 6.40784E-04-8.44159E-14
 -1      2889 1.02872E-02 5.80119E-04-8.24528E-14
 -1      2890 1.01331E-02 5.01302E-04-8.15963E-14
 -1      2891 1.08354E-02 8.04076E-04-8.83757E-14
 -1      2892 1.06464E-02 7.14212E-04-8.63894E-14
 -1      2893 1.04776E-02 6.11567E-04-8.55220E-14
 -1      2894 1.19699E-02 1.46767E-03-1.00057E-13
 -1      2895 1.17777E-02 1.37043E-03-9.79995E-14
 -1      2896 1.24428E-02 1.53602E-03-1.05426E-13
 -1      2897 1.22571E-02 1.54605E-03-1.03347E-13
 -1      2898 1.31430E-02 1.26374E-03-1.13054E-13
 -1      2899 1.29453E-02 1.35525E-03-1.10951E-13
 -1      2900 1.35346E-02 1.09705E-03-1.17276E-13
 -1      2901 1.33418E-02 1.17577E-03-1.15163E-13
 -1      2902 1.32908E-02 1.16094E-03-1.14224E-13
 -1      2903 1.39041E-02 9.75397E-04-1.21517E-13
 -1      2904 1.37239E-02 1.03044E-03-1.19393E-13
 -1      2905 1.36891E-02 1.00382E-03-1.18453E-13
 -1      2906 1.42448E-02 8.95110E-04-1.25772E-13
 -1      2907 1.40782E-02 9.31549E-04-1.23645E-13
 -1      2908 1.40535E-02 9.02466E-04-1.22701E-13
 -1      2909 1.45470E-02 8.31557E-04-1.29608E-13
 -1      2910 1.43908E-02 8.58026E-04-1.27476E-13
 -1      2911 1.43713E-02 8.31034E-04-1.26533E-13
 -1      2912 1.46537E-02 7.72942E-04-1.29946E-13
 -1      2913 1.43138E-02 4.14725E-04-1.20413E-13
 -1      2914 1.41152E-02 3.49026E-04-1.19725E-13
 -1      2915 1.49316E-02 5.14778E-04-1.31481E-13
 -1      2916 1.49845E-02 5.35602E-04-1.31329E-13
 -1      2917 1.37713E-02-2.97544E-05-1.31288E-13
 -1      2918 1.38730E-02 1.95068E-05-1.32804E-13
 -1      2919 1.39722E-02 7.35973E-05-1.33105E-13
 -1      2920 1.50025E-02 5.85541E-04-1.30704E-13
 -1      2921 1.49675E-02 6.07196E-04-1.30544E-13
 -1      2922 1.47747E-02 4.58920E-04-1.31772E-13
 -1      2923 1.48600E-02 4.89899E-04-1.31629E-13
 -1      2924 1.48020E-02 4.89148E-04-1.29803E-13
 -1      2925 1.50084E-02 5.51440E-04-1.31020E-13
 -1      2926 1.50170E-02 5.68296E-04-1.30862E-13
 -1      2927 1.49182E-02 5.67143E-04-1.28901E-13
 -1      2928 1.45814E-02 3.82416E-04-1.32044E-13
 -1      2929 1.46806E-02 4.23026E-04-1.31910E-13
 -1      2930 1.46203E-02 4.20419E-04-1.30079E-13
 -1      2931 1.43751E-02 2.88934E-04-1.32307E-13
 -1      2932 1.44780E-02 3.36942E-04-1.32178E-13
 -1      2933 1.44102E-02 3.28079E-04-1.30343E-13
 -1      2934 1.41776E-02 1.88637E-04-1.32553E-13
 -1      2935 1.42746E-02 2.38917E-04-1.32432E-13
 -1      2936 1.41995E-02 2.21429E-04-1.30595E-13
 -1      2937 1.40596E-02 1.22232E-04-1.32995E-13
 -1      2938 1.70120E-03 4.40574E-04-2.81261E-15
 -1      2939 1.55874E-03 4.25694E-04-2.37093E-15
 -1      2940 1.47611E-03 3.82224E-04-2.22752E-15
 -1      2941 1.76212E-03 4.11256E-04-3.11989E-15
 -1      2942 1.46264E-02 5.11700E-04-1.21028E-13
 -1      2943 1.46234E-02 5.01363E-04-1.21142E-13
 -1      2944 8.03097E-04 2.78240E-04-7.05030E-16
 -1      2945 1.25747E-02-4.82329E-04-1.10528E-13
 -1      2946 1.24242E-02-5.68378E-04-1.09095E-13
 -1      2947 1.22633E-02-6.40699E-04-1.07448E-13
 -1      2948 1.21133E-02-6.88598E-04-1.05811E-13
 -1      2949 1.23395E-02-6.10234E-04-1.08607E-13
 -1      2950 1.07885E-02-2.03240E-04-9.32428E-14
 -1      2951 1.06058E-02-1.07721E-04-9.20795E-14
 -1      2952 1.26329E-02 1.48404E-03-1.07514E-13
 -1      2953 9.82271E-03 2.58676E-04-8.75425E-14
 -1      2954 9.91854E-03 2.84606E-04-8.77025E-14
 -1      2955 1.00450E-02 1.33692E-04-8.91726E-14
 -1      2956 9.91596E-03 1.77503E-04-8.88130E-14
 -1      2957 2.55271E-03 4.88514E-04-6.25876E-15
 -1      2958 2.41097E-03 4.84152E-04-5.59055E-15
 -1      2959 2.61760E-03 4.53405E-04-6.69995E-15
 -1      2960 2.26919E-03 4.78613E-04-4.95964E-15
 -1      2961 2.12737E-03 4.71767E-04-4.36645E-15
 -1      2962 2.33273E-03 4.44821E-04-5.35830E-15
 -1      2963 1.11568E-02-4.15104E-04-9.58864E-14
 -1      2964 1.09860E-02-3.16252E-04-9.45492E-14
 -1      2965 1.22236E-02 1.52655E-03-1.03155E-13
 -1      2966 7.84371E-04 1.23464E-04-8.84072E-16
 -1      2967 7.81980E-04 1.00027E-04-8.98058E-16
 -1      2968 8.99588E-04 9.94539E-05-1.14438E-15
 -1      2969 9.05334E-04 1.51598E-04-1.11043E-15
 -1      2970 1.09800E-02 8.10096E-04-9.22114E-14
 -1      2971 1.12047E-02 9.63820E-04-9.36352E-14
 -1      2972 1.33091E-02 1.08639E-03-1.13420E-13
 -1      2973 1.35165E-02 9.64916E-04-1.14847E-13
 -1      2974 1.37805E-02 8.18780E-04-1.16161E-13
 -1      2975 1.39843E-02 7.19161E-04-1.17034E-13
 -1      2976 1.00895E-02 3.43927E-04-8.82390E-14
 -1      2977 1.02794E-02 4.18690E-04-8.91887E-14
 -1      2978 1.03477E-02 4.57978E-04-8.85685E-14
 -1      2979 9.72789E-03 2.29381E-04-8.72638E-14
 -1      2980 9.75445E-03 2.38238E-04-8.72823E-14
 -1      2981 1.03923E-02-1.11147E-05-9.07007E-14
 -1      2982 1.02294E-02 5.85412E-05-8.98598E-14
 -1      2983 1.15580E-02-6.16876E-04-9.96374E-14
 -1      2984 1.13754E-02-5.28867E-04-9.78399E-14
 -1      2985 1.34367E-02 3.85365E-05-1.16226E-13
 -1      2986 1.32800E-02-5.12636E-05-1.15456E-13
 -1      2987 7.81714E-04-9.79727E-05-9.31411E-16
 -1      2988 7.84022E-04-1.21330E-04-9.24797E-16
 -1      2989 1.45630E-02 4.82544E-04-1.20892E-13
 -1      2990 1.44754E-02 4.62470E-04-1.20772E-13
 -1      2991 1.38873E-02 2.57246E-04-1.18783E-13
 -1      2992 1.36645E-02 1.55956E-04-1.17505E-13
 -1      2993 1.36080E-02 1.16694E-04-1.18192E-13
 -1      2994 1.15783E-02 1.23212E-03-9.64445E-14
 -1      2995 1.15832E-02 1.25646E-03-9.57957E-14
 -1      2996 1.13853E-02 1.12856E-03-9.37625E-14
 -1      2997 1.13671E-02 1.07890E-03-9.47394E-14
 -1      2998 7.87066E-04-1.45478E-04-9.16029E-16
 -1      2999 7.90942E-04-1.70644E-04-9.03940E-16
 -1      3000 9.04856E-04-1.49085E-04-1.16576E-15
 -1      3001 8.95451E-04 1.01031E-06-1.18044E-15
 -1      3002 7.77615E-04-9.72098E-06-9.35165E-16
 -1      3003 7.77979E-04-3.13692E-05-9.36900E-16
 -1      3004 1.08156E-02 7.17066E-04-9.07842E-14
 -1      3005 1.46428E-02 5.27345E-04-1.22129E-13
 -1      3006 9.83854E-03 1.84530E-04-8.77284E-14
 -1      3007 1.12279E-02 9.96083E-04-9.31516E-14
 -1      3008 1.41111E-02 6.83601E-04-1.18390E-13
 -1      3009 2.04762E-03 4.31364E-04-4.16457E-15
 -1      3010 9.75807E-03 2.39979E-04-8.63003E-14
 -1      3011 1.46332E-02 4.99231E-04-1.22318E-13
 -1      3012 1.10408E-02 9.04841E-04-9.06551E-14
 -1      3013 1.08616E-02 7.76609E-04-8.97700E-14
 -1      3014 1.12424E-02 1.02555E-03-9.26660E-14
 -1      3015 9.88466E-03 2.80643E-04-8.59483E-14
 -1      3016 9.98053E-03 3.06678E-04-8.70924E-14
 -1      3017 1.00413E-02 3.34945E-04-8.64765E-14
 -1      3018 1.44208E-02 4.41160E-04-1.21716E-13
 -1      3019 1.47319E-02 7.30125E-04-1.30114E-13
 -1      3020 1.45966E-02 7.51553E-04-1.28403E-13
 -1      3021 1.48080E-02 6.91062E-04-1.30280E-13
 -1      3022 1.40439E-02 3.11581E-04-1.20417E-13
 -1      3023 1.49091E-02 5.32913E-04-1.29356E-13
 -1      3024 1.43875E-02 5.97689E-04-1.20510E-13
 -1      3025 1.44443E-02 5.71019E-04-1.20356E-13
 -1      3026 1.45360E-02 5.66125E-04-1.21855E-13
 -1      3027 1.39800E-02 9.42672E-05-1.31155E-13
 -1      3028 1.00883E-02 9.02952E-05-8.84663E-14
 -1      3029 1.16311E-02-6.56148E-04-1.00412E-13
 -1      3030 1.04610E-02-7.01129E-05-9.05219E-14
 -1      3031 1.36901E-02 8.93965E-04-1.16446E-13
 -1      3032 8.64855E-04 2.66561E-04-8.56899E-16
 -1      3033 1.26894E-02-4.17704E-04-1.11827E-13
 -1      3034 1.20805E-02-6.99383E-04-1.05835E-13
 -1      3035 1.20026E-02-7.08181E-04-1.04688E-13
 -1      3036 1.18989E-02-7.14321E-04-1.03568E-13
 -1      3037 1.08547E-02-2.72853E-04-9.31987E-14
 -1      3038 1.31454E-02-1.37767E-04-1.15152E-13
 -1      3039 1.36792E-02-6.18886E-05-1.28912E-13
 -1      3040 1.27848E-02 1.41003E-03-1.09133E-13
 -1      3041 1.49277E-02 6.29711E-04-1.30495E-13
 -1      3042 1.48651E-02 6.60259E-04-1.30332E-13
 -1      3043 1.47417E-02 6.70410E-04-1.28613E-13
 -1      3044 1.48500E-02 6.10855E-04-1.28704E-13
 -1      3045 7.78759E-04-5.31550E-05-9.36968E-16
 -1      3046 7.79977E-04-7.53455E-05-9.35151E-16
 -1      3047 8.99309E-04-9.71039E-05-1.18048E-15
 -1      3048 8.96349E-04-4.75297E-05-1.18480E-15
 -1      3049 1.12441E-02-4.88709E-04-9.64509E-14
 -1      3050 9.82945E-04 2.75801E-04-1.10601E-15
 -1      3051 1.29254E-02 1.31677E-03-1.10295E-13
 -1      3052 1.31099E-02 1.20575E-03-1.11916E-13
 -1      3053 9.71667E-03 2.18241E-04-8.68562E-14
 -1      3054 9.68501E-03 2.13510E-04-8.56348E-14
 -1      3055 9.71754E-03 2.07597E-04-8.64488E-14
 -1      3056 1.28253E-02-3.41568E-04-1.13473E-13
 -1      3057 1.26295E-02-4.63343E-04-1.11900E-13
 -1      3058 1.04027E-03 2.43297E-04-1.30107E-15
 -1      3059 1.03365E-03 2.11573E-04-1.33393E-15
 -1      3060 1.01086E-03-2.55964E-04-1.30481E-15
 -1      3061 1.15316E-03-2.79039E-04-1.64164E-15
 -1      3062 1.29597E-03-2.99126E-04-2.01801E-15
 -1      3063 1.43924E-03-3.16350E-04-2.43393E-15
 -1      3064 1.21714E-03-2.58395E-04-1.84966E-15
 -1      3065 1.58269E-03-3.31075E-04-2.88863E-15
 -1      3066 1.72628E-03-3.43447E-04-3.38243E-15
 -1      3067 1.50326E-03-2.90441E-04-2.68579E-15
 -1      3068 1.86990E-03-3.53844E-04-3.91439E-15
 -1      3069 2.01353E-03-3.62412E-04-4.48463E-15
 -1      3070 1.79068E-03-3.13689E-04-3.67592E-15
 -1      3071 2.15713E-03-3.69479E-04-5.09243E-15
 -1      3072 2.30068E-03-3.75168E-04-5.73845E-15
 -1      3073 2.07859E-03-3.29903E-04-4.81840E-15
 -1      3074 2.44419E-03-3.79748E-04-6.42084E-15
 -1      3075 2.58763E-03-3.83319E-04-7.13985E-15
 -1      3076 2.36655E-03-3.40728E-04-6.11035E-15
 -1      3077 2.73102E-03-3.86087E-04-7.89469E-15
 -1      3078 2.87435E-03-3.88133E-04-8.68503E-15
 -1      3079 2.65435E-03-3.47551E-04-7.54815E-15
 -1      3080 3.01764E-03-3.89613E-04-9.51077E-15
 -1      3081 3.16088E-03-3.90588E-04-1.03709E-14
 -1      3082 2.94191E-03-3.51478E-04-9.12867E-15
 -1      3083 3.30408E-03-3.91172E-04-1.12654E-14
 -1      3084 3.44723E-03-3.91408E-04-1.21928E-14
 -1      3085 3.22921E-03-3.53364E-04-1.08480E-14
 -1      3086 3.59035E-03-3.91380E-04-1.31537E-14
 -1      3087 3.73344E-03-3.91117E-04-1.41481E-14
 -1      3088 3.51624E-03-3.53839E-04-1.27014E-14
 -1      3089 3.87650E-03-3.90675E-04-1.51735E-14
 -1      3090 4.01954E-03-3.90074E-04-1.62307E-14
 -1      3091 3.80304E-03-3.53359E-04-1.46860E-14
 -1      3092 4.16255E-03-3.89350E-04-1.73194E-14
 -1      3093 4.30555E-03-3.88513E-04-1.84380E-14
 -1      3094 4.08962E-03-3.52230E-04-1.67984E-14
 -1      3095 4.44853E-03-3.87584E-04-1.95868E-14
 -1      3096 4.59148E-03-3.86567E-04-2.07668E-14
 -1      3097 4.37601E-03-3.50648E-04-1.90333E-14
 -1      3098 4.73443E-03-3.85469E-04-2.19760E-14
 -1      3099 4.87736E-03-3.84291E-04-2.32133E-14
 -1      3100 4.66224E-03-3.48720E-04-2.13888E-14
 -1      3101 5.02029E-03-3.83031E-04-2.44792E-14
 -1      3102 5.16319E-03-3.81685E-04-2.57740E-14
 -1      3103 4.94831E-03-3.46483E-04-2.38616E-14
 -1      3104 5.30609E-03-3.80245E-04-2.70959E-14
 -1      3105 5.44898E-03-3.78703E-04-2.84432E-14
 -1      3106 5.23424E-03-3.43924E-04-2.64479E-14
 -1      3107 5.59186E-03-3.77049E-04-2.98173E-14
 -1      3108 5.73473E-03-3.75271E-04-3.12170E-14
 -1      3109 5.52002E-03-3.40991E-04-2.91415E-14
 -1      3110 5.87758E-03-3.73357E-04-3.26416E-14
 -1      3111 6.02043E-03-3.71297E-04-3.40917E-14
 -1      3112 5.80564E-03-3.37605E-04-3.19376E-14
 -1      3113 6.16326E-03-3.69077E-04-3.55668E-14
 -1      3114 6.30609E-03-3.66687E-04-3.70679E-14
 -1      3115 6.09108E-03-3.33674E-04-3.48359E-14
 -1      3116 6.44890E-03-3.64120E-04-3.85930E-14
 -1      3117 6.59172E-03-3.61367E-04-4.01427E-14
 -1      3118 6.37632E-03-3.29108E-04-3.78333E-14
 -1      3119 6.73451E-03-3.58428E-04-4.17182E-14
 -1      3120 6.87732E-03-3.55300E-04-4.33156E-14
 -1      3121 6.66132E-03-3.23830E-04-4.09308E-14
 -1      3122 7.02012E-03-3.51994E-04-4.49369E-14
 -1      3123 7.16295E-03-3.48519E-04-4.65826E-14
 -1      3124 6.94608E-03-3.17806E-04-4.41225E-14
 -1      3125 7.30578E-03-3.44902E-04-4.82495E-14
 -1      3126 7.44868E-03-3.41168E-04-4.99368E-14
 -1      3127 7.23060E-03-3.11067E-04-4.74062E-14
 -1      3128 7.59162E-03-3.37368E-04-5.16447E-14
 -1      3129 7.73469E-03-3.33550E-04-5.33721E-14
 -1      3130 7.51493E-03-3.03746E-04-5.07764E-14
 -1      3131 7.87786E-03-3.29796E-04-5.51181E-14
 -1      3132 8.02125E-03-3.26189E-04-5.68817E-14
 -1      3133 7.79921E-03-2.96126E-04-5.42256E-14
 -1      3134 8.16488E-03-3.22847E-04-5.86639E-14
 -1      3135 8.30887E-03-3.19906E-04-6.04619E-14
 -1      3136 8.08377E-03-2.88697E-04-5.77475E-14
 -1      3137 8.45330E-03-3.17520E-04-6.22775E-14
 -1      3138 8.59831E-03-3.15901E-04-6.41110E-14
 -1      3139 8.36913E-03-2.82225E-04-6.13403E-14
 -1      3140 8.74407E-03-3.15242E-04-6.59578E-14
 -1      3141 8.89075E-03-3.15859E-04-6.78212E-14
 -1      3142 8.65620E-03-2.77841E-04-6.49987E-14
 -1      3143 9.03862E-03-3.17975E-04-6.96983E-14
 -1      3144 9.18786E-03-3.22054E-04-7.15900E-14
 -1      3145 8.94642E-03-2.77158E-04-6.87214E-14
 -1      3146 9.33888E-03-3.28333E-04-7.34955E-14
 -1      3147 9.49183E-03-3.37456E-04-7.54127E-14
 -1      3148 9.24184E-03-2.82437E-04-7.24997E-14
 -1      3149 9.64726E-03-3.49657E-04-7.73409E-14
 -1      3150 9.80515E-03-3.65754E-04-7.92813E-14
 -1      3151 9.54527E-03-2.96800E-04-7.63292E-14
 -1      3152 9.96619E-03-3.85938E-04-8.12354E-14
 -1      3153 1.01300E-02-4.11075E-04-8.31980E-14
 -1      3154 9.86000E-03-3.24440E-04-8.02061E-14
 -1      3155 1.02971E-02-4.41234E-04-8.51730E-14
 -1      3156 1.04665E-02-4.76818E-04-8.71612E-14
 -1      3157 1.01890E-02-3.70572E-04-8.41291E-14
 -1      3158 1.06385E-02-5.17565E-04-8.91618E-14
 -1      3159 1.08111E-02-5.62482E-04-9.11726E-14
 -1      3160 1.05328E-02-4.40240E-04-8.80973E-14
 -1      3161 1.09849E-02-6.10503E-04-9.31938E-14
 -1      3162 1.11564E-02-6.58126E-04-9.52264E-14
 -1      3163 1.08874E-02-5.33687E-04-9.21143E-14
 -1      3164 1.13250E-02-7.02838E-04-9.72715E-14
 -1      3165 1.14903E-02-7.38899E-04-9.93299E-14
 -1      3166 1.12422E-02-6.39639E-04-9.61759E-14
 -1      3167 1.19643E-02-7.61583E-04-1.05585E-13
 -1      3168 1.21221E-02-7.31022E-04-1.07694E-13
 -1      3169 1.22810E-02-6.81492E-04-1.09820E-13
 -1      3170 1.24443E-02-6.18265E-04-1.11961E-13
 -1      3171 1.22277E-02-6.84576E-04-1.08679E-13
 -1      3172 1.26109E-02-5.43932E-04-1.14112E-13
 -1      3173 1.27807E-02-4.64238E-04-1.16276E-13
 -1      3174 1.25638E-02-5.46665E-04-1.12953E-13
 -1      3175 1.29526E-02-3.81697E-04-1.18454E-13
 -1      3176 1.31245E-02-2.99923E-04-1.20643E-13
 -1      3177 1.29151E-02-3.77055E-04-1.17280E-13
 -1      3178 1.32959E-02-2.20084E-04-1.22843E-13
 -1      3179 1.34646E-02-1.43345E-04-1.25053E-13
 -1      3180 1.32699E-02-2.09560E-04-1.21657E-13
 -1      3181 9.69402E-03 2.25061E-04-8.48495E-14
 -1      3182 9.75661E-03 2.42644E-04-8.51056E-14
 -1      3183 2.96917E-03 4.22088E-04-8.67180E-15
 -1      3184 2.82627E-03 4.20297E-04-7.89107E-15
 -1      3185 3.82624E-03 4.24287E-04-1.40802E-14
 -1      3186 3.68342E-03 4.24615E-04-1.30937E-14
 -1      3187 4.11188E-03 4.23155E-04-1.61517E-14
 -1      3188 3.96906E-03 4.23794E-04-1.50998E-14
 -1      3189 3.89582E-03 3.86608E-04-1.46823E-14
 -1      3190 4.39753E-03 4.21538E-04-1.83537E-14
 -1      3191 4.25471E-03 4.22400E-04-1.72366E-14
 -1      3192 4.18196E-03 3.85393E-04-1.67882E-14
 -1      3193 4.68321E-03 4.19545E-04-2.06823E-14
 -1      3194 4.54037E-03 4.20586E-04-1.95029E-14
 -1      3195 4.46801E-03 3.83747E-04-1.90246E-14
 -1      3196 4.96891E-03 4.17209E-04-2.31294E-14
 -1      3197 4.82606E-03 4.18420E-04-2.18913E-14
 -1      3198 4.75398E-03 3.81754E-04-2.13839E-14
 -1      3199 5.25466E-03 4.14507E-04-2.56880E-14
 -1      3200 5.11178E-03 4.15906E-04-2.43948E-14
 -1      3201 5.03988E-03 3.79433E-04-2.38598E-14
 -1      3202 5.54045E-03 4.11373E-04-2.83537E-14
 -1      3203 5.39754E-03 4.12998E-04-2.70082E-14
 -1      3204 5.32572E-03 3.76750E-04-2.64468E-14
 -1      3205 5.82628E-03 4.07709E-04-3.11210E-14
 -1      3206 5.68336E-03 4.09613E-04-2.97245E-14
 -1      3207 5.61149E-03 3.73634E-04-2.91392E-14
 -1      3208 6.11217E-03 4.03400E-04-3.39888E-14
 -1      3209 5.96922E-03 4.05642E-04-3.25428E-14
 -1      3210 5.89719E-03 3.69988E-04-3.19319E-14
 -1      3211 6.39811E-03 3.98326E-04-3.69524E-14
 -1      3212 6.25513E-03 4.00965E-04-3.54586E-14
 -1      3213 6.18277E-03 3.65702E-04-3.48242E-14
 -1      3214 6.68408E-03 3.92380E-04-4.00122E-14
 -1      3215 6.54108E-03 3.95467E-04-3.84706E-14
 -1      3216 6.46820E-03 3.60667E-04-3.78117E-14
 -1      3217 6.97005E-03 3.85494E-04-4.31606E-14
 -1      3218 6.82705E-03 3.89057E-04-4.15752E-14
 -1      3219 6.75340E-03 3.54793E-04-4.08926E-14
 -1      3220 7.25597E-03 3.77673E-04-4.64000E-14
 -1      3221 7.11301E-03 3.81699E-04-4.47691E-14
 -1      3222 7.03827E-03 3.48039E-04-4.40652E-14
 -1      3223 7.54177E-03 3.69043E-04-4.97233E-14
 -1      3224 7.39887E-03 3.73450E-04-4.80520E-14
 -1      3225 7.32264E-03 3.40444E-04-4.73274E-14
 -1      3226 7.82731E-03 3.59916E-04-5.31261E-14
 -1      3227 7.68455E-03 3.64521E-04-5.14155E-14
 -1      3228 7.60632E-03 3.32178E-04-5.06723E-14
 -1      3229 8.11243E-03 3.50881E-04-5.66021E-14
 -1      3230 7.96990E-03 3.55350E-04-5.48545E-14
 -1      3231 7.88902E-03 3.23604E-04-5.40937E-14
 -1      3232 8.39699E-03 3.42915E-04-6.01487E-14
 -1      3233 8.25475E-03 3.46704E-04-5.83663E-14
 -1      3234 8.17041E-03 3.15358E-04-5.75875E-14
 -1      3235 8.68089E-03 3.37532E-04-6.37634E-14
 -1      3236 8.53897E-03 3.39805E-04-6.19477E-14
 -1      3237 8.45012E-03 3.08444E-04-6.11542E-14
 -1      3238 8.96433E-03 3.36948E-04-6.74388E-14
 -1      3239 8.82258E-03 3.36492E-04-6.55934E-14
 -1      3240 8.72785E-03 3.04338E-04-6.47870E-14
 -1      3241 9.24818E-03 3.44307E-04-7.11722E-14
 -1      3242 9.10604E-03 3.39405E-04-6.92985E-14
 -1      3243 9.00361E-03 3.05100E-04-6.84787E-14
 -1      3244 9.53471E-03 3.63948E-04-7.49586E-14
 -1      3245 9.39082E-03 3.52216E-04-7.30585E-14
 -1      3246 9.27816E-03 3.13502E-04-7.22269E-14
 -1      3247 9.82888E-03 4.02109E-04-7.87993E-14
 -1      3248 9.68036E-03 3.79993E-04-7.68719E-14
 -1      3249 9.55379E-03 3.33131E-04-7.60279E-14
 -1      3250 1.01394E-02 4.68476E-04-8.26886E-14
 -1      3251 9.98126E-03 4.30562E-04-8.07381E-14
 -1      3252 9.83609E-03 3.69592E-04-7.98803E-14
 -1      3253 1.20788E-02 1.51445E-03-1.01267E-13
 -1      3254 1.32634E-02 1.14676E-03-1.13621E-13
 -1      3255 1.34718E-02 1.05582E-03-1.15733E-13
 -1      3256 1.44561E-02 7.76258E-04-1.26697E-13
 -1      3257 1.43098E-02 8.07447E-04-1.24992E-13
 -1      3258 1.45429E-02 7.24856E-04-1.26856E-13
 -1      3259 1.48507E-02 5.48632E-04-1.27369E-13
 -1      3260 1.48294E-02 5.68631E-04-1.27223E-13
 -1      3261 1.44551E-02 3.76409E-04-1.28388E-13
 -1      3262 1.45628E-02 4.22006E-04-1.28259E-13
 -1      3263 1.46649E-02 4.61189E-04-1.28122E-13
 -1      3264 1.47503E-02 4.92150E-04-1.27984E-13
 -1      3265 1.45146E-02 4.26684E-04-1.26441E-13
 -1      3266 1.41766E-02 3.49968E-04-1.22111E-13
 -1      3267 1.39698E-02 2.68960E-04-1.21168E-13
 -1      3268 1.40079E-02 1.43878E-04-1.28726E-13
 -1      3269 1.41108E-02 2.03588E-04-1.28606E-13
 -1      3270 1.06223E-02 6.26102E-04-8.85114E-14
 -1      3271 1.46778E-02 5.45453E-04-1.23692E-13
 -1      3272 1.47209E-02 5.31367E-04-1.24130E-13
 -1      3273 1.00984E-02 4.63978E-05-8.74312E-14
 -1      3274 9.94594E-03 1.10058E-04-8.67537E-14
 -1      3275 1.24079E-02-5.82424E-04-1.09723E-13
 -1      3276 1.22608E-02-6.48213E-04-1.08072E-13
 -1      3277 1.45807E-02 4.73418E-04-1.24183E-13
 -1      3278 1.44447E-02 4.34269E-04-1.23832E-13
 -1      3279 2.68332E-03 4.17840E-04-7.14568E-15
 -1      3280 2.54034E-03 4.14634E-04-6.43582E-15
 -1      3281 2.74981E-03 3.81899E-04-7.59606E-15
 -1      3282 1.42198E-02 2.64164E-04-1.28485E-13
 -1      3283 1.43322E-02 3.21205E-04-1.28360E-13
 -1      3284 1.40209E-02 1.89687E-04-1.26627E-13
 -1      3285 1.41436E-02 8.35338E-04-1.22860E-13
 -1      3286 1.39687E-02 8.70755E-04-1.20731E-13
 -1      3287 1.37834E-02 9.22026E-04-1.18610E-13
 -1      3288 1.42421E-02 7.66467E-04-1.23015E-13
 -1      3289 1.47153E-02 5.14685E-04-1.24278E-13
 -1      3290 1.46610E-02 4.99200E-04-1.24039E-13
 -1      3291 1.47039E-02 4.94351E-04-1.26157E-13
 -1      3292 1.47838E-02 5.31993E-04-1.25851E-13
 -1      3293 3.54059E-03 4.24730E-04-1.21411E-14
 -1      3294 3.39776E-03 4.24601E-04-1.12229E-14
 -1      3295 3.60956E-03 3.87221E-04-1.27077E-14
 -1      3296 1.32567E-02-8.49206E-05-1.16822E-13
 -1      3297 1.30248E-02-2.20922E-04-1.15062E-13
 -1      3298 3.25491E-03 4.24158E-04-1.03378E-14
 -1      3299 3.11206E-03 4.23354E-04-9.48743E-15
 -1      3300 3.03658E-03 3.85377E-04-9.16182E-15
 -1      3301 3.32316E-03 3.86951E-04-1.08668E-14
 -1      3302 9.82955E-03 1.62073E-04-8.65597E-14
 -1      3303 9.76041E-03 1.88847E-04-8.65049E-14
 -1      3304 9.69658E-03 1.87560E-04-8.52851E-14
 -1      3305 2.39731E-03 4.10488E-04-5.76214E-15
 -1      3306 2.25422E-03 4.05295E-04-5.12456E-15
 -1      3307 2.46282E-03 3.75699E-04-6.17113E-15
 -1      3308 1.37854E-02 1.15535E-05-1.28482E-13
 -1      3309 1.08833E-02-3.29536E-04-9.29808E-14
 -1      3310 1.07101E-02-2.28895E-04-9.16828E-14
 -1      3311 2.11106E-03 3.98805E-04-4.52409E-15
 -1      3312 1.96784E-03 3.90878E-04-3.96058E-15
 -1      3313 2.17561E-03 3.65694E-04-4.89004E-15
 -1      3314 1.02290E-02 4.16204E-04-8.70472E-14
 -1      3315 1.04155E-02 5.03191E-04-8.79886E-14
 -1      3316 1.17106E-02-6.99199E-04-1.01414E-13
 -1      3317 1.15369E-02-6.50494E-04-9.94031E-14
 -1      3318 1.14501E-03 3.10587E-04-1.43950E-15
 -1      3319 1.08235E-03 2.71655E-04-1.35592E-15
 -1      3320 1.20142E-03 2.73070E-04-1.66523E-15
 -1      3321 1.28817E-03 3.32563E-04-1.78372E-15
 -1      3322 1.13093E-02-5.57765E-04-9.69311E-14
 -1      3323 1.11139E-02-4.60074E-04-9.49824E-14
 -1      3324 1.48137E-02 5.14534E-04-1.27828E-13
 -1      3325 1.48440E-02 5.32741E-04-1.27528E-13
 -1      3326 1.01655E-03 6.82085E-05-1.43520E-15
 -1      3327 1.01537E-03 4.12251E-05-1.44596E-15
 -1      3328 1.37193E-02 1.53860E-04-1.19978E-13
 -1      3329 1.35143E-02 5.25886E-05-1.18694E-13
 -1      3330 1.05218E-02-1.39315E-04-9.02219E-14
 -1      3331 1.03322E-02-5.58790E-05-8.88509E-14
 -1      3332 1.40981E-02 7.16033E-04-1.19327E-13
 -1      3333 1.42515E-02 6.49233E-04-1.19954E-13
 -1      3334 1.04813E-02 5.69661E-04-8.69878E-14
 -1      3335 1.01478E-03 1.44480E-05-1.45386E-15
 -1      3336 1.01474E-03-1.22297E-05-1.45916E-15
 -1      3337 1.13546E-03 3.01654E-05-1.75428E-15
 -1      3338 1.15308E-03 2.11856E-04-1.63674E-15
 -1      3339 1.02831E-03 1.81184E-04-1.36165E-15
 -1      3340 1.02413E-03 1.51853E-04-1.38531E-15
 -1      3341 1.09660E-02-4.13169E-04-9.34547E-14
 -1      3342 7.69929E-04-2.02474E-04-8.29388E-16
 -1      3343 8.98622E-04-2.33255E-04-1.06885E-15
 -1      3344 1.17496E-02-7.56366E-04-1.02499E-13
 -1      3345 1.18455E-02-7.39859E-04-1.03463E-13
 -1      3346 1.15868E-02-7.38763E-04-1.00423E-13
 -1      3347 9.79042E-03 2.58760E-04-8.44970E-14
 -1      3348 9.65885E-03 2.12879E-04-8.44465E-14
 -1      3349 9.63676E-03 2.14502E-04-8.32577E-14
 -1      3350 9.63427E-03 2.02580E-04-8.40417E-14
 -1      3351 1.01029E-02 3.72266E-04-8.59033E-14
 -1      3352 1.42671E-02 3.20682E-04-1.26540E-13
 -1      3353 1.29476E-02-2.83124E-04-1.15134E-13
 -1      3354 1.01834E-03 9.54700E-05-1.42184E-15
 -1      3355 1.13812E-03 8.85574E-05-1.72937E-15
 -1      3356 1.02081E-03 1.23237E-04-1.40532E-15
 -1      3357 1.03073E-02 5.06160E-04-8.50132E-14
 -1      3358 1.01344E-02 4.22631E-04-8.41401E-14
 -1      3359 1.38751E-02 2.08776E-04-1.21673E-13
 -1      3360 1.25380E-02-5.21412E-04-1.11357E-13
 -1      3361 1.02365E-03-1.49119E-04-1.44592E-15
 -1      3362 1.02771E-03-1.78344E-04-1.43387E-15
 -1      3363 1.37743E-02 2.52488E-05-1.27279E-13
 -1      3364 1.36732E-02-1.13102E-06-1.25303E-13
 -1      3365 1.43737E-02 6.30065E-04-1.21453E-13
 -1      3366 1.57476E-03 3.67316E-04-2.58731E-15
 -1      3367 1.43141E-03 3.51373E-04-2.16628E-15
 -1      3368 1.38747E-03 3.21040E-04-2.10232E-15
 -1      3369 1.43888E-02 4.03543E-04-1.24592E-13
 -1      3370 1.46303E-02 5.65091E-04-1.23531E-13
 -1      3371 1.47429E-02 5.64454E-04-1.25532E-13
 -1      3372 1.47939E-02 5.85009E-04-1.27053E-13
 -1      3373 1.45975E-02 5.83732E-04-1.23685E-13
 -1      3374 9.83819E-03 1.23778E-04-8.55322E-14
 -1      3375 1.84292E-03 3.86603E-04-3.48868E-15
 -1      3376 1.69962E-03 3.75194E-04-2.99584E-15
 -1      3377 1.65599E-03 3.45000E-04-2.91928E-15
 -1      3378 1.90654E-03 3.55708E-04-3.81311E-15
 -1      3379 1.47449E-02 6.11631E-04-1.27014E-13
 -1      3380 1.01605E-02-1.40227E-05-8.71311E-14
 -1      3381 1.00016E-02 1.23079E-05-8.54216E-14
 -1      3382 1.02090E-02-7.81862E-05-8.68289E-14
 -1      3383 1.40035E-02 7.76022E-04-1.19324E-13
 -1      3384 1.41552E-02 7.36925E-04-1.20892E-13
 -1      3385 1.05604E-02-2.01156E-04-9.00018E-14
 -1      3386 1.33878E-02-3.29867E-05-1.18603E-13
 -1      3387 1.01808E-03-9.29968E-05-1.45942E-15
 -1      3388 1.02046E-03-1.20713E-04-1.45427E-15
 -1      3389 1.14327E-03-1.45915E-04-1.75569E-15
 -1      3390 1.17931E-02-7.20628E-04-1.02547E-13
 -1      3391 7.62425E-04-1.79566E-04-8.37993E-16
 -1      3392 1.37751E-02 8.95639E-04-1.18001E-13
 -1      3393 9.62988E-04-2.18836E-04-1.23607E-15
 -1      3394 1.14007E-02-6.26999E-04-9.79196E-14
 -1      3395 9.70248E-03 2.43216E-04-8.29639E-14
 -1      3396 9.82835E-03 2.80597E-04-8.37976E-14
 -1      3397 1.15127E-02-6.92684E-04-9.93109E-14
 -1      3398 1.42504E-03-2.50993E-04-2.48528E-15
 -1      3399 1.56844E-03-2.63517E-04-2.94366E-15
 -1      3400 1.71220E-03-2.74174E-04-3.44034E-15
 -1      3401 1.85625E-03-2.83133E-04-3.97489E-15
 -1      3402 1.63460E-03-2.35509E-04-3.20802E-15
 -1      3403 2.00044E-03-2.90615E-04-4.54699E-15
 -1      3404 2.14473E-03-2.96758E-04-5.15664E-15
 -1      3405 1.92280E-03-2.51781E-04-4.27895E-15
 -1      3406 2.28905E-03-3.01776E-04-5.80285E-15
 -1      3407 2.43337E-03-3.05778E-04-6.48577E-15
 -1      3408 2.21180E-03-2.63014E-04-5.49876E-15
 -1      3409 2.57765E-03-3.08950E-04-7.20484E-15
 -1      3410 2.72188E-03-3.11376E-04-7.95959E-15
 -1      3411 2.50103E-03-2.70372E-04-6.86445E-15
 -1      3412 2.86605E-03-3.13206E-04-8.74905E-15
 -1      3413 3.01014E-03-3.14504E-04-9.57376E-15
 -1      3414 2.79016E-03-2.74856E-04-8.37290E-15
 -1      3415 3.15416E-03-3.15384E-04-1.04328E-14
 -1      3416 3.29808E-03-3.15893E-04-1.13256E-14
 -1      3417 3.07900E-03-2.77271E-04-1.00206E-14
 -1      3418 3.44192E-03-3.16116E-04-1.22512E-14
 -1      3419 3.58568E-03-3.16086E-04-1.32102E-14
 -1      3420 3.36746E-03-2.78234E-04-1.18039E-14
 -1      3421 3.72936E-03-3.15863E-04-1.42019E-14
 -1      3422 3.87296E-03-3.15468E-04-1.52246E-14
 -1      3423 3.65553E-03-2.78201E-04-1.37196E-14
 -1      3424 4.01649E-03-3.14943E-04-1.62793E-14
 -1      3425 4.15994E-03-3.14298E-04-1.73656E-14
 -1      3426 3.94320E-03-2.77493E-04-1.57637E-14
 -1      3427 4.30332E-03-3.13562E-04-1.84820E-14
 -1      3428 4.44664E-03-3.12736E-04-1.96280E-14
 -1      3429 4.23049E-03-2.76322E-04-1.79330E-14
 -1      3430 4.58989E-03-3.11838E-04-2.08051E-14
 -1      3431 4.73308E-03-3.10864E-04-2.20122E-14
 -1      3432 4.51742E-03-2.74816E-04-2.02240E-14
 -1      3433 4.87621E-03-3.09821E-04-2.32476E-14
 -1      3434 5.01928E-03-3.08703E-04-2.45111E-14
 -1      3435 4.80401E-03-2.73033E-04-2.26349E-14
 -1      3436 5.16229E-03-3.07509E-04-2.58028E-14
 -1      3437 5.30524E-03-3.06230E-04-2.71220E-14
 -1      3438 5.09028E-03-2.70983E-04-2.51610E-14
 -1      3439 5.44813E-03-3.04860E-04-2.84676E-14
 -1      3440 5.59095E-03-3.03387E-04-2.98392E-14
 -1      3441 5.37621E-03-2.68634E-04-2.77961E-14
 -1      3442 5.73370E-03-3.01804E-04-3.12357E-14
 -1      3443 5.87637E-03-3.00096E-04-3.26587E-14
 -1      3444 5.66178E-03-2.65926E-04-3.05361E-14
 -1      3445 6.01896E-03-2.98255E-04-3.41068E-14
 -1      3446 6.16147E-03-2.96265E-04-3.55795E-14
 -1      3447 5.94694E-03-2.62779E-04-3.33798E-14
 -1      3448 6.30388E-03-2.94120E-04-3.70772E-14
 -1      3449 6.44620E-03-2.91803E-04-3.85985E-14
 -1      3450 6.23163E-03-2.59104E-04-3.63226E-14
 -1      3451 6.58840E-03-2.89314E-04-4.01457E-14
 -1      3452 6.73048E-03-2.86636E-04-4.17176E-14
 -1      3453 6.51575E-03-2.54810E-04-3.93637E-14
 -1      3454 6.87244E-03-2.83778E-04-4.33111E-14
 -1      3455 7.01428E-03-2.80726E-04-4.49275E-14
 -1      3456 6.79922E-03-2.49824E-04-4.25015E-14
 -1      3457 7.15597E-03-2.77500E-04-4.65676E-14
 -1      3458 7.29754E-03-2.74094E-04-4.82286E-14
 -1      3459 7.08193E-03-2.44097E-04-4.57317E-14
 -1      3460 7.43897E-03-2.70542E-04-4.99112E-14
 -1      3461 7.58030E-03-2.66854E-04-5.16130E-14
 -1      3462 7.36381E-03-2.37635E-04-4.90490E-14
 -1      3463 7.72152E-03-2.63081E-04-5.33348E-14
 -1      3464 7.86269E-03-2.59253E-04-5.50751E-14
 -1      3465 7.64485E-03-2.30521E-04-5.24472E-14
 -1      3466 8.00382E-03-2.55446E-04-5.68333E-14
 -1      3467 8.14501E-03-2.51723E-04-5.86102E-14
 -1      3468 7.92515E-03-2.22946E-04-5.59227E-14
 -1      3469 8.28630E-03-2.48183E-04-6.04049E-14
 -1      3470 8.42785E-03-2.44946E-04-6.22159E-14
 -1      3471 8.20501E-03-2.15261E-04-5.94716E-14
 -1      3472 8.56976E-03-2.42131E-04-6.40440E-14
 -1      3473 8.71225E-03-2.39947E-04-6.58876E-14
 -1      3474 8.48506E-03-2.08030E-04-6.30909E-14
 -1      3475 8.85551E-03-2.38531E-04-6.77475E-14
 -1      3476 8.99986E-03-2.38234E-04-6.96205E-14
 -1      3477 8.76642E-03-2.02134E-04-6.67756E-14
 -1      3478 9.14559E-03-2.39204E-04-7.15082E-14
 -1      3479 9.29314E-03-2.42025E-04-7.34094E-14
 -1      3480 9.05096E-03-1.98929E-04-7.05192E-14
 -1      3481 9.44296E-03-2.46853E-04-7.53210E-14
 -1      3482 9.59552E-03-2.54613E-04-7.72444E-14
 -1      3483 9.34153E-03-2.00574E-04-7.43146E-14
 -1      3484 9.75152E-03-2.65469E-04-7.91798E-14
 -1      3485 9.91125E-03-2.80811E-04-8.11277E-14
 -1      3486 9.64228E-03-2.10564E-04-7.81579E-14
 -1      3487 1.00757E-02-3.00793E-04-8.30864E-14
 -1      3488 1.02444E-02-3.27195E-04-8.50555E-14
 -1      3489 9.95857E-03-2.34541E-04-8.20454E-14
 -1      3490 1.04188E-02-3.60104E-04-8.70376E-14
 -1      3491 1.05970E-02-4.01140E-04-8.90306E-14
 -1      3492 1.02960E-02-2.81021E-04-8.59797E-14
 -1      3493 1.28795E-02-3.68490E-04-1.16104E-13
 -1      3494 1.30637E-02-2.78251E-04-1.18280E-13
 -1      3495 1.32482E-02-1.92291E-04-1.20467E-13
 -1      3496 1.34286E-02-1.12091E-04-1.22664E-13
 -1      3497 1.32269E-02-1.73371E-04-1.19277E-13
 -1      3498 3.96567E-03 3.48797E-04-1.52875E-14
 -1      3499 3.82232E-03 3.49244E-04-1.42657E-14
 -1      3500 4.82480E-03 3.43952E-04-2.20871E-14
 -1      3501 4.68172E-03 3.44968E-04-2.08771E-14
 -1      3502 5.11084E-03 3.41684E-04-2.45922E-14
 -1      3503 4.96784E-03 3.42859E-04-2.33259E-14
 -1      3504 4.89568E-03 3.06171E-04-2.27919E-14
 -1      3505 5.39671E-03 3.39061E-04-2.72069E-14
 -1      3506 5.25379E-03 3.40421E-04-2.58855E-14
 -1      3507 5.18178E-03 3.03994E-04-2.53262E-14
 -1      3508 5.68239E-03 3.36013E-04-2.99243E-14
 -1      3509 5.53957E-03 3.37596E-04-2.85531E-14
 -1      3510 5.46761E-03 3.01475E-04-2.79670E-14
 -1      3511 5.96785E-03 3.32445E-04-3.27434E-14
 -1      3512 5.82515E-03 3.34300E-04-3.13213E-14
 -1      3513 5.75314E-03 2.98545E-04-3.07117E-14
 -1      3514 6.25304E-03 3.28256E-04-3.56593E-14
 -1      3515 6.11048E-03 3.30435E-04-3.41893E-14
 -1      3516 6.03829E-03 2.95118E-04-3.35556E-14
 -1      3517 6.53784E-03 3.23352E-04-3.86711E-14
 -1      3518 6.39549E-03 3.25900E-04-3.71537E-14
 -1      3519 6.32297E-03 2.91105E-04-3.64973E-14
 -1      3520 6.82213E-03 3.17668E-04-4.17756E-14
 -1      3521 6.68005E-03 3.20613E-04-4.02123E-14
 -1      3522 6.60704E-03 2.86431E-04-3.95320E-14
 -1      3523 7.10572E-03 3.11191E-04-4.49718E-14
 -1      3524 6.96402E-03 3.14531E-04-4.33625E-14
 -1      3525 6.89029E-03 2.81059E-04-4.26608E-14
 -1      3526 7.38835E-03 3.03999E-04-4.82559E-14
 -1      3527 7.24716E-03 3.07682E-04-4.66030E-14
 -1      3528 7.17246E-03 2.75009E-04-4.58799E-14
 -1      3529 7.66969E-03 2.96310E-04-5.16213E-14
 -1      3530 7.52919E-03 3.00208E-04-4.99284E-14
 -1      3531 7.45318E-03 2.68402E-04-4.91853E-14
 -1      3532 7.94930E-03 2.88534E-04-5.50621E-14
 -1      3533 7.80972E-03 2.92414E-04-5.33326E-14
 -1      3534 7.73199E-03 2.61503E-04-5.25712E-14
 -1      3535 8.22667E-03 2.81347E-04-5.85754E-14
 -1      3536 8.08827E-03 2.84836E-04-5.68097E-14
 -1      3537 8.00832E-03 2.54767E-04-5.60316E-14
 -1      3538 8.50121E-03 2.75754E-04-6.21601E-14
 -1      3539 8.36429E-03 2.78304E-04-6.03593E-14
 -1      3540 8.28145E-03 2.48898E-04-5.95640E-14
 -1      3541 8.77238E-03 2.73159E-04-6.58110E-14
 -1      3542 8.63719E-03 2.74016E-04-6.39783E-14
 -1      3543 8.55059E-03 2.44882E-04-6.31678E-14
 -1      3544 9.03991E-03 2.75400E-04-6.95188E-14
 -1      3545 8.90653E-03 2.73581E-04-6.76568E-14
 -1      3546 8.81489E-03 2.44007E-04-6.68357E-14
 -1      3547 9.30421E-03 2.84815E-04-7.32833E-14
 -1      3548 9.17226E-03 2.79066E-04-7.13947E-14
 -1      3549 9.07366E-03 2.47827E-04-7.05603E-14
 -1      3550 9.56711E-03 3.04164E-04-7.70978E-14
 -1      3551 9.43539E-03 2.93047E-04-7.51837E-14
 -1      3552 9.32678E-03 2.58054E-04-7.43385E-14
 -1      3553 9.85155E-03 3.22590E-04-8.20504E-14
 -1      3554 9.72338E-03 3.02955E-04-8.01079E-14
 -1      3555 1.40370E-02 2.59859E-04-1.23572E-13
 -1      3556 1.38074E-02 1.56089E-04-1.22378E-13
 -1      3557 2.81707E-03 3.45574E-04-8.05123E-15
 -1      3558 2.67319E-03 3.43361E-04-7.30091E-15
 -1      3559 1.36682E-02 2.39650E-05-1.24101E-13
 -1      3560 1.30849E-02-2.18305E-04-1.16914E-13
 -1      3561 1.29002E-02-3.26860E-04-1.15318E-13
 -1      3562 1.45734E-02 6.97699E-04-1.26661E-13
 -1      3563 1.44355E-02 7.17583E-04-1.24956E-13
 -1      3564 1.42806E-02 7.31746E-04-1.22820E-13
 -1      3565 1.46429E-02 6.57688E-04-1.26705E-13
 -1      3566 1.01527E-03-3.89352E-05-1.46194E-15
 -1      3567 1.01636E-03-6.57764E-05-1.46203E-15
 -1      3568 1.13787E-03-8.59857E-05-1.76763E-15
 -1      3569 1.44742E-02 6.37406E-04-1.23387E-13
 -1      3570 1.45936E-02 6.29014E-04-1.25064E-13
 -1      3571 9.80011E-03 8.91606E-05-8.40768E-14
 -1      3572 9.71194E-03 1.34742E-04-8.38880E-14
 -1      3573 1.22035E-02-6.74755E-04-1.07747E-13
 -1      3574 1.21334E-02-6.90763E-04-1.06640E-13
 -1      3575 3.67890E-03 3.49530E-04-1.32768E-14
 -1      3576 3.53543E-03 3.49636E-04-1.23211E-14
 -1      3577 3.74861E-03 3.11708E-04-1.38493E-14
 -1      3578 9.66695E-03 1.68048E-04-8.40887E-14
 -1      3579 9.63716E-03 1.85428E-04-8.40330E-14
 -1      3580 1.20303E-02-7.16133E-04-1.05511E-13
 -1      3581 1.06062E-02-2.99205E-04-8.97122E-14
 -1      3582 1.04417E-02-2.22578E-04-8.82609E-14
 -1      3583 4.53860E-03 3.45906E-04-1.96971E-14
 -1      3584 4.39544E-03 3.46768E-04-1.85464E-14
 -1      3585 4.60932E-03 3.08052E-04-2.03715E-14
 -1      3586 4.25223E-03 3.47542E-04-1.74284E-14
 -1      3587 4.10898E-03 3.48226E-04-1.63423E-14
 -1      3588 4.03581E-03 3.10898E-04-1.58957E-14
 -1      3589 4.32270E-03 3.09643E-04-1.80708E-14
 -1      3590 2.52925E-03 3.40435E-04-6.58558E-15
 -1      3591 2.38526E-03 3.36711E-04-5.90610E-15
 -1      3592 2.59652E-03 3.04758E-04-7.00560E-15
 -1      3593 2.24123E-03 3.32002E-04-5.26220E-15
 -1      3594 2.09718E-03 3.26198E-04-4.65451E-15
 -1      3595 2.30780E-03 2.97780E-04-5.64052E-15
 -1      3596 1.42580E-02 3.47471E-04-1.24716E-13
 -1      3597 1.13045E-02-6.17974E-04-9.68382E-14
 -1      3598 9.97162E-03 3.49125E-04-8.35834E-14
 -1      3599 1.34432E-03 2.91447E-04-2.03563E-15
 -1      3600 1.30196E-03 2.62575E-04-1.96650E-15
 -1      3601 1.48765E-03 3.07251E-04-2.44404E-15
 -1      3602 1.11234E-02-5.59151E-04-9.47994E-14
 -1      3603 8.80209E-04-1.87312E-04-1.07923E-15
 -1      3604 9.91276E-04-2.06705E-04-1.31755E-15
 -1      3605 1.11047E-03-2.07957E-04-1.61779E-15
 -1      3606 1.25232E-03-2.24631E-04-1.99186E-15
 -1      3607 1.31847E-03-2.01618E-04-2.20982E-15
 -1      3608 1.29516E-03 2.27697E-04-2.00562E-15
 -1      3609 1.07390E-02-3.91238E-04-9.07883E-14
 -1      3610 1.27464E-02-4.28805E-04-1.14329E-13
 -1      3611 1.09270E-02-4.49157E-04-9.28020E-14
 -1      3612 9.58809E-03 1.85762E-04-8.28499E-14
 -1      3613 1.25634E-02-5.20587E-04-1.12177E-13
 -1      3614 1.23613E-02-6.22786E-04-1.09997E-13
 -1      3615 1.14374E-03 1.48717E-04-1.69112E-15
 -1      3616 9.59954E-03 2.62102E-04-7.92462E-14
 -1      3617 1.36859E-02 6.62481E-05-1.22878E-13
 -1      3618 1.35133E-02-2.72724E-06-1.20976E-13
 -1      3619 2.01909E-03 2.86960E-04-4.41905E-15
 -1      3620 1.95315E-03 3.19068E-04-4.08380E-15
 -1      3621 1.32809E-02-1.24310E-04-1.19092E-13
 -1      3622 9.84352E-03 4.33968E-05-8.37772E-14
 -1      3623 9.70081E-03 6.22468E-05-8.21402E-14
 -1      3624 9.88253E-03-7.93385E-06-8.34752E-14
 -1      3625 9.62695E-03 1.38045E-04-8.26410E-14
 -1      3626 1.02869E-02-2.28830E-04-8.62618E-14
 -1      3627 1.02413E-02-1.35046E-04-8.65553E-14
 -1      3628 1.00765E-02-9.84114E-05-8.48453E-14
 -1      3629 1.01153E-02-2.03674E-04-8.42895E-14
 -1      3630 1.25745E-03 4.78560E-05-2.08142E-15
 -1      3631 1.25671E-03 1.67847E-05-2.09217E-15
 -1      3632 1.82742E-03 3.15662E-04-3.60667E-15
 -1      3633 3.46109E-03 3.11875E-04-1.19355E-14
 -1      3634 3.39189E-03 3.49505E-04-1.13996E-14
 -1      3635 3.24829E-03 3.49106E-04-1.05110E-14
 -1      3636 1.21924E-02-6.84346E-04-1.07872E-13
 -1      3637 1.25892E-03 7.90113E-05-2.06734E-15
 -1      3638 1.38062E-03 6.71065E-05-2.43456E-15
 -1      3639 1.26111E-03 1.10510E-04-2.04959E-15
 -1      3640 1.41170E-02 2.80896E-04-1.24681E-13
 -1      3641 1.37743E-02 9.60412E-05-1.23987E-13
 -1      3642 2.96088E-03 3.47218E-04-8.83621E-15
 -1      3643 2.88503E-03 3.08927E-04-8.51080E-15
 -1      3644 3.10462E-03 3.48359E-04-9.65624E-15
 -1      3645 1.13538E-03-2.77013E-05-1.76701E-15
 -1      3646 1.43561E-02 6.83204E-04-1.22824E-13
 -1      3647 1.20737E-02-7.19809E-04-1.06438E-13
 -1      3648 1.31371E-03-1.67910E-04-2.22386E-15
 -1      3649 1.48579E-03-1.89115E-04-2.74578E-15
 -1      3650 1.31003E-03-1.34874E-04-2.23336E-15
 -1      3651 9.61965E-03 2.20288E-04-8.21150E-14
 -1      3652 9.63447E-03 2.36065E-04-8.14216E-14
 -1      3653 9.57668E-03 2.07323E-04-8.17170E-14
 -1      3654 1.45229E-03 2.38152E-04-2.46297E-15
 -1      3655 1.30394E-03 1.90612E-04-2.08504E-15
 -1      3656 1.84587E-03-2.13635E-04-4.01426E-15
 -1      3657 1.99033E-03-2.19640E-04-4.58772E-15
 -1      3658 2.13500E-03-2.24616E-04-5.19823E-15
 -1      3659 2.27980E-03-2.28666E-04-5.84489E-15
 -1      3660 2.05873E-03-1.86718E-04-4.90122E-15
 -1      3661 2.42466E-03-2.31938E-04-6.52734E-15
 -1      3662 2.56953E-03-2.34508E-04-7.24610E-15
 -1      3663 2.34862E-03-1.93751E-04-6.19452E-15
 -1      3664 2.71437E-03-2.36508E-04-8.00038E-15
 -1      3665 2.85915E-03-2.37993E-04-8.78868E-15
 -1      3666 2.63877E-03-1.98236E-04-7.63068E-15
 -1      3667 3.00385E-03-2.39072E-04-9.61179E-15
 -1      3668 3.14846E-03-2.39786E-04-1.04695E-14
 -1      3669 2.92880E-03-2.00843E-04-9.20676E-15
 -1      3670 3.29296E-03-2.40218E-04-1.13600E-14
 -1      3671 3.43735E-03-2.40396E-04-1.22839E-14
 -1      3672 3.21848E-03-2.02105E-04-1.09194E-14
 -1      3673 3.58162E-03-2.40383E-04-1.32412E-14
 -1      3674 3.72577E-03-2.40196E-04-1.42303E-14
 -1      3675 3.50768E-03-2.02432E-04-1.27656E-14
 -1      3676 3.86982E-03-2.39882E-04-1.52511E-14
 -1      3677 4.01374E-03-2.39447E-04-1.63033E-14
 -1      3678 3.79638E-03-2.02121E-04-1.47411E-14
 -1      3679 4.15755E-03-2.38925E-04-1.73866E-14
 -1      3680 4.30126E-03-2.38318E-04-1.85010E-14
 -1      3681 4.08456E-03-2.01375E-04-1.68433E-14
 -1      3682 4.44486E-03-2.37645E-04-1.96452E-14
 -1      3683 4.58835E-03-2.36904E-04-2.08202E-14
 -1      3684 4.37224E-03-2.00323E-04-1.90693E-14
 -1      3685 4.73174E-03-2.36108E-04-2.20250E-14
 -1      3686 4.87504E-03-2.35248E-04-2.32586E-14
 -1      3687 4.65942E-03-1.99037E-04-2.14164E-14
 -1      3688 5.01822E-03-2.34331E-04-2.45196E-14
 -1      3689 5.16131E-03-2.33347E-04-2.58087E-14
 -1      3690 4.94613E-03-1.97542E-04-2.38807E-14
 -1      3691 5.30429E-03-2.32295E-04-2.71262E-14
 -1      3692 5.44715E-03-2.31163E-04-2.84700E-14
 -1      3693 5.23236E-03-1.95825E-04-2.64579E-14
 -1      3694 5.58990E-03-2.29949E-04-2.98384E-14
 -1      3695 5.73253E-03-2.28637E-04-3.12332E-14
 -1      3696 5.51806E-03-1.93849E-04-2.91427E-14
 -1      3697 5.87502E-03-2.27223E-04-3.26544E-14
 -1      3698 6.01737E-03-2.25689E-04-3.40999E-14
 -1      3699 5.80319E-03-1.91552E-04-3.19303E-14
 -1      3700 6.15955E-03-2.24032E-04-3.55711E-14
 -1      3701 6.30157E-03-2.22232E-04-3.70652E-14
 -1      3702 6.08766E-03-1.88858E-04-3.48202E-14
 -1      3703 6.44340E-03-2.20288E-04-3.85832E-14
 -1      3704 6.58503E-03-2.18177E-04-4.01266E-14
 -1      3705 6.37133E-03-1.85683E-04-3.78060E-14
 -1      3706 6.72643E-03-2.15904E-04-4.16937E-14
 -1      3707 6.86760E-03-2.13445E-04-4.32840E-14
 -1      3708 6.65406E-03-1.81937E-04-4.08880E-14
 -1      3709 7.00850E-03-2.10810E-04-4.48971E-14
 -1      3710 7.14914E-03-2.07977E-04-4.65328E-14
 -1      3711 6.93566E-03-1.77534E-04-4.40648E-14
 -1      3712 7.28947E-03-2.04965E-04-4.81890E-14
 -1      3713 7.42953E-03-2.01753E-04-4.98652E-14
 -1      3714 7.21594E-03-1.72399E-04-4.73307E-14
 -1      3715 7.56926E-03-1.98374E-04-5.15624E-14
 -1      3716 7.70871E-03-1.94814E-04-5.32789E-14
 -1      3717 7.49475E-03-1.66480E-04-5.06806E-14
 -1      3718 7.84785E-03-1.91115E-04-5.50156E-14
 -1      3719 7.98675E-03-1.87280E-04-5.67696E-14
 -1      3720 7.77195E-03-1.59759E-04-5.41099E-14
 -1      3721 8.12540E-03-1.83364E-04-5.85403E-14
 -1      3722 8.26392E-03-1.79396E-04-6.03324E-14
 -1      3723 8.04755E-03-1.52272E-04-5.76136E-14
 -1      3724 8.40233E-03-1.75443E-04-6.21414E-14
 -1      3725 8.54084E-03-1.71586E-04-6.39654E-14
 -1      3726 8.32178E-03-1.44135E-04-6.11916E-14
 -1      3727 8.67951E-03-1.67898E-04-6.58049E-14
 -1      3728 8.81868E-03-1.64552E-04-6.76609E-14
 -1      3729 8.59520E-03-1.35599E-04-6.48369E-14
 -1      3730 8.95848E-03-1.61620E-04-6.95314E-14
 -1      3731 9.09942E-03-1.59458E-04-7.14145E-14
 -1      3732 8.86895E-03-1.27141E-04-6.85451E-14
 -1      3733 9.24177E-03-1.58131E-04-7.33101E-14
 -1      3734 9.38625E-03-1.58353E-04-7.52177E-14
 -1      3735 9.14506E-03-1.19673E-04-7.23074E-14
 -1      3736 9.53333E-03-1.60177E-04-7.71370E-14
 -1      3737 9.68398E-03-1.64949E-04-7.90673E-14
 -1      3738 9.42697E-03-1.15111E-04-7.61186E-14
 -1      3739 9.81525E-03-1.73854E-04-8.06937E-14
 -1      3740 9.97485E-03-1.86293E-04-8.26441E-14
 -1      3741 9.96106E-03-1.36725E-04-8.29245E-14
 -1      3742 9.69759E-03-1.19277E-04-7.96611E-14
 -1      3743 1.37903E-03 1.42753E-06-2.45897E-15
 -1      3744 1.25667E-03-1.41576E-05-2.09971E-15
 -1      3745 1.25732E-03-4.51584E-05-2.10368E-15
 -1      3746 2.66460E-03 2.68663E-04-7.43005E-15
 -1      3747 2.51996E-03 2.66190E-04-6.70973E-15
 -1      3748 2.08604E-03 2.54157E-04-4.76111E-15
 -1      3749 1.94155E-03 2.48202E-04-4.18365E-15
 -1      3750 4.96662E-03 2.68436E-04-2.34982E-14
 -1      3751 4.82343E-03 2.69355E-04-2.22585E-14
 -1      3752 5.82375E-03 2.61272E-04-3.15003E-14
 -1      3753 5.68116E-03 2.62703E-04-3.01022E-14
 -1      3754 6.10852E-03 2.58056E-04-3.43704E-14
 -1      3755 5.96620E-03 2.59728E-04-3.29236E-14
 -1      3756 5.89423E-03 2.24224E-04-3.22908E-14
 -1      3757 6.39262E-03 2.54306E-04-3.73357E-14
 -1      3758 6.25066E-03 2.56254E-04-3.58408E-14
 -1      3759 6.17855E-03 2.21292E-04-3.51862E-14
 -1      3760 6.67587E-03 2.49971E-04-4.03955E-14
 -1      3761 6.53436E-03 2.52217E-04-3.88539E-14
 -1      3762 6.46202E-03 2.17896E-04-3.81765E-14
 -1      3763 6.95799E-03 2.45041E-04-4.35480E-14
 -1      3764 6.81708E-03 2.47584E-04-4.19613E-14
 -1      3765 6.74438E-03 2.14008E-04-4.12614E-14
 -1      3766 7.23864E-03 2.39576E-04-4.67900E-14
 -1      3767 7.09852E-03 2.42376E-04-4.51579E-14
 -1      3768 7.02530E-03 2.09654E-04-4.44373E-14
 -1      3769 7.51736E-03 2.33741E-04-5.01160E-14
 -1      3770 7.37826E-03 2.36701E-04-4.84421E-14
 -1      3771 7.30437E-03 2.04931E-04-4.77008E-14
 -1      3772 7.79356E-03 2.27845E-04-5.35224E-14
 -1      3773 7.65580E-03 2.30791E-04-5.18098E-14
 -1      3774 7.58104E-03 2.00048E-04-5.10491E-14
 -1      3775 8.06654E-03 2.22386E-04-5.70021E-14
 -1      3776 7.93049E-03 2.25045E-04-5.52536E-14
 -1      3777 7.85462E-03 1.95360E-04-5.44746E-14
 -1      3778 8.33540E-03 2.18086E-04-6.05548E-14
 -1      3779 8.20152E-03 2.20070E-04-5.87694E-14
 -1      3780 8.12425E-03 1.91403E-04-5.79746E-14
 -1      3781 8.59909E-03 2.15905E-04-6.41773E-14
 -1      3782 8.46793E-03 2.16708E-04-6.23571E-14
 -1      3783 8.38888E-03 1.88914E-04-6.15466E-14
 -1      3784 8.85644E-03 2.17006E-04-6.78611E-14
 -1      3785 8.72858E-03 2.16029E-04-6.60115E-14
 -1      3786 8.64721E-03 1.88815E-04-6.51876E-14
 -1      3787 9.10618E-03 2.22669E-04-7.16024E-14
 -1      3788 8.98225E-03 2.19272E-04-6.97243E-14
 -1      3789 8.89766E-03 1.92152E-04-6.88883E-14
 -1      3790 9.34701E-03 2.34095E-04-7.53949E-14
 -1      3791 9.22761E-03 2.27726E-04-7.34929E-14
 -1      3792 9.13824E-03 1.99963E-04-7.26444E-14
 -1      3793 9.52442E-03 1.65991E-04-8.13009E-14
 -1      3794 9.52852E-03 1.83810E-04-8.13089E-14
 -1      3795 9.49226E-03 1.88896E-04-8.01735E-14
 -1      3796 4.68016E-03 2.70205E-04-2.10477E-14
 -1      3797 4.53681E-03 2.70993E-04-1.98662E-14
 -1      3798 4.75111E-03 2.32400E-04-2.17262E-14
 -1      3799 3.81868E-03 2.73767E-04-1.44250E-14
 -1      3800 3.67477E-03 2.74004E-04-1.34330E-14
 -1      3801 9.55814E-03 1.09112E-04-8.09051E-14
 -1      3802 9.53272E-03 1.40497E-04-8.11052E-14
 -1      3803 9.44827E-03 1.41245E-04-7.95726E-14
 -1      3804 5.53845E-03 2.64025E-04-2.87297E-14
 -1      3805 5.39564E-03 2.65253E-04-2.73818E-14
 -1      3806 5.60922E-03 2.26742E-04-2.94937E-14
 -1      3807 2.37530E-03 2.63016E-04-6.02491E-15
 -1      3808 2.23064E-03 2.59058E-04-5.37476E-15
 -1      3809 2.15389E-03 2.20679E-04-5.10987E-15
 -1      3810 2.44363E-03 2.27753E-04-6.41457E-15
 -1      3811 1.72008E-03 3.16101E-04-3.21215E-15
 -1      3812 1.59463E-03 3.09782E-04-2.78988E-15
 -1      3813 1.55220E-03 2.80580E-04-2.70840E-15
 -1      3814 1.76709E-03 2.81267E-04-3.45585E-15
 -1      3815 5.25272E-03 2.66391E-04-2.60611E-14
 -1      3816 5.10971E-03 2.67452E-04-2.47665E-14
 -1      3817 5.03760E-03 2.30779E-04-2.42064E-14
 -1      3818 1.59359E-03-1.98107E-04-3.10133E-15
 -1      3819 1.73744E-03-2.06166E-04-3.60973E-15
 -1      3820 1.80553E-03-1.75644E-04-3.88987E-15
 -1      3821 1.58922E-03-1.61507E-04-3.11405E-15
 -1      3822 1.40559E-02 2.34219E-04-1.25395E-13
 -1      3823 1.29956E-03 1.57170E-04-2.11380E-15
 -1      3824 1.28195E-03-7.33447E-05-2.17239E-15
 -1      3825 1.28399E-03-1.05112E-04-2.16994E-15
 -1      3826 1.45494E-03-1.21932E-04-2.68793E-15
 -1      3827 1.40388E-03-6.08199E-05-2.54174E-15
 -1      3828 1.20235E-02-7.24224E-04-1.05635E-13
 -1      3829 1.83342E-03 2.50876E-04-3.76080E-15
 -1      3830 1.72550E-03 2.52507E-04-3.35954E-15
 -1      3831 1.90069E-03 2.19621E-04-4.07274E-15
 -1      3832 2.80918E-03 2.70566E-04-8.18581E-15
 -1      3833 2.73341E-03 2.32203E-04-7.86026E-15
 -1      3834 2.95368E-03 2.71961E-04-8.97528E-15
 -1      3835 3.60085E-03 2.36149E-04-1.30179E-14
 -1      3836 3.53076E-03 2.74073E-04-1.24749E-14
 -1      3837 3.38664E-03 2.73956E-04-1.15497E-14
 -1      3838 4.10621E-03 2.72927E-04-1.65066E-14
 -1      3839 3.96250E-03 2.73405E-04-1.54498E-14
 -1      3840 3.88909E-03 2.35755E-04-1.50042E-14
 -1      3841 4.46420E-03 2.33787E-04-1.93631E-14
 -1      3842 4.39337E-03 2.71712E-04-1.87157E-14
 -1      3843 4.24984E-03 2.72362E-04-1.75961E-14
 -1      3844 9.50707E-03 2.36994E-04-7.84104E-14
 -1      3845 9.41171E-03 2.07955E-04-7.75472E-14
 -1      3846 5.32365E-03 2.28908E-04-2.67976E-14
 -1      3847 3.17323E-03 3.11096E-04-1.01553E-14
 -1      3848 9.57864E-03 7.57783E-05-8.06076E-14
 -1      3849 9.46752E-03 8.39436E-05-7.90812E-14
 -1      3850 9.60176E-03 3.75142E-05-8.03089E-14
 -1      3851 1.50238E-03 1.87252E-05-2.84478E-15
 -1      3852 1.50233E-03-1.57234E-05-2.85454E-15
 -1      3853 1.42082E-03 1.48444E-04-2.48839E-15
 -1      3854 9.93850E-03-9.65595E-05-8.30648E-14
 -1      3855 9.91365E-03-4.66163E-05-8.33395E-14
 -1      3856 9.75940E-03-1.55970E-05-8.17044E-14
 -1      3857 9.80720E-03-8.84521E-05-8.14288E-14
 -1      3858 1.50486E-03 8.77624E-05-2.81319E-15
 -1      3859 1.50322E-03 5.31569E-05-2.83087E-15
 -1      3860 1.62662E-03 3.74171E-05-3.25612E-15
 -1      3861 1.55963E-03 2.39452E-04-2.80825E-15
 -1      3862 2.27306E-03-1.55948E-04-5.86587E-15
 -1      3863 2.41826E-03-1.58282E-04-6.54789E-15
 -1      3864 2.56351E-03-1.60141E-04-7.26523E-15
 -1      3865 2.70875E-03-1.61568E-04-8.01796E-15
 -1      3866 2.48863E-03-1.22307E-04-6.90442E-15
 -1      3867 2.85396E-03-1.62650E-04-8.80502E-15
 -1      3868 2.99908E-03-1.63417E-04-9.62669E-15
 -1      3869 2.77939E-03-1.24557E-04-8.40745E-15
 -1      3870 3.14411E-03-1.63941E-04-1.04824E-14
 -1      3871 3.28903E-03-1.64242E-04-1.13712E-14
 -1      3872 3.06994E-03-1.25771E-04-1.00487E-14
 -1      3873 3.43381E-03-1.64377E-04-1.22926E-14
 -1      3874 3.57846E-03-1.64358E-04-1.32477E-14
 -1      3875 3.36005E-03-1.26249E-04-1.18238E-14
 -1      3876 3.72297E-03-1.64228E-04-1.42345E-14
 -1      3877 3.86733E-03-1.63991E-04-1.52527E-14
 -1      3878 3.64962E-03-1.26221E-04-1.37306E-14
 -1      3879 4.01156E-03-1.63679E-04-1.63030E-14
 -1      3880 4.15565E-03-1.63292E-04-1.73838E-14
 -1      3881 3.93859E-03-1.25848E-04-1.57655E-14
 -1      3882 4.29959E-03-1.62852E-04-1.84958E-14
 -1      3883 4.44340E-03-1.62356E-04-1.96385E-14
 -1      3884 4.22696E-03-1.25236E-04-1.79251E-14
 -1      3885 4.58708E-03-1.61818E-04-2.08107E-14
 -1      3886 4.73062E-03-1.61233E-04-2.20134E-14
 -1      3887 4.51474E-03-1.24450E-04-2.02080E-14
 -1      3888 4.87403E-03-1.60607E-04-2.32450E-14
 -1      3889 5.01730E-03-1.59932E-04-2.45039E-14
 -1      3890 4.80194E-03-1.23520E-04-2.26101E-14
 -1      3891 5.16044E-03-1.59214E-04-2.57913E-14
 -1      3892 5.30343E-03-1.58439E-04-2.71071E-14
 -1      3893 5.08854E-03-1.22448E-04-2.51278E-14
 -1      3894 5.44627E-03-1.57610E-04-2.84488E-14
 -1      3895 5.58896E-03-1.56712E-04-2.98162E-14
 -1      3896 5.37453E-03-1.21214E-04-2.77557E-14
 -1      3897 5.73147E-03-1.55746E-04-3.12086E-14
 -1      3898 5.87380E-03-1.54695E-04-3.26270E-14
 -1      3899 5.65984E-03-1.19780E-04-3.04887E-14
 -1      3900 6.01594E-03-1.53558E-04-3.40705E-14
 -1      3901 6.15786E-03-1.52314E-04-3.55386E-14
 -1      3902 5.94437E-03-1.18093E-04-3.33231E-14
 -1      3903 6.29953E-03-1.50966E-04-3.70301E-14
 -1      3904 6.44096E-03-1.49488E-04-3.85456E-14
 -1      3905 6.22798E-03-1.16084E-04-3.62553E-14
 -1      3906 6.58209E-03-1.47884E-04-4.00850E-14
 -1      3907 6.72291E-03-1.46125E-04-4.16482E-14
 -1      3908 6.51049E-03-1.13674E-04-3.92848E-14
 -1      3909 6.86339E-03-1.44218E-04-4.32354E-14
 -1      3910 7.00351E-03-1.42130E-04-4.48449E-14
 -1      3911 6.79165E-03-1.10769E-04-4.24078E-14
 -1      3912 7.14321E-03-1.39873E-04-4.64752E-14
 -1      3913 7.28249E-03-1.37408E-04-4.81273E-14
 -1      3914 7.07121E-03-1.07262E-04-4.56220E-14
 -1      3915 7.42130E-03-1.34753E-04-4.98001E-14
 -1      3916 7.55964E-03-1.31866E-04-5.14935E-14
 -1      3917 7.34886E-03-1.03032E-04-4.89225E-14
 -1      3918 7.69745E-03-1.28770E-04-5.32067E-14
 -1      3919 7.83476E-03-1.25421E-04-5.49388E-14
 -1      3920 7.62430E-03-9.79399E-05-5.23053E-14
 -1      3921 7.97151E-03-1.21849E-04-5.66882E-14
 -1      3922 8.10778E-03-1.18009E-04-5.84560E-14
 -1      3923 7.89725E-03-9.18282E-05-5.57639E-14
 -1      3924 8.24350E-03-1.13938E-04-6.02431E-14
 -1      3925 8.37881E-03-1.09605E-04-6.20495E-14
 -1      3926 8.16753E-03-8.45208E-05-5.92983E-14
 -1      3927 8.51367E-03-1.05046E-04-6.38710E-14
 -1      3928 8.64832E-03-1.00269E-04-6.57081E-14
 -1      3929 8.43512E-03-7.58321E-05-6.29054E-14
 -1      3930 8.78273E-03-9.53093E-05-6.75604E-14
 -1      3931 8.91731E-03-9.02391E-05-6.94278E-14
 -1      3932 8.70028E-03-6.56257E-05-6.65776E-14
 -1      3933 9.05206E-03-8.50929E-05-7.13068E-14
 -1      3934 9.18767E-03-8.01309E-05-7.31984E-14
 -1      3935 8.96373E-03-5.38289E-05-7.03079E-14
 -1      3936 9.32423E-03-7.53695E-05-7.51037E-14
 -1      3937 9.46284E-03-7.16113E-05-7.70191E-14
 -1      3938 9.22705E-03-4.06781E-05-7.40891E-14
 -1      3939 5.96461E-03 1.87436E-04-3.30833E-14
 -1      3940 5.82236E-03 1.88589E-04-3.16585E-14
 -1      3941 6.81268E-03 1.78585E-04-4.21282E-14
 -1      3942 6.67214E-03 1.80301E-04-4.05623E-14
 -1      3943 7.09239E-03 1.74936E-04-4.53280E-14
 -1      3944 6.95277E-03 1.76803E-04-4.37174E-14
 -1      3945 6.88085E-03 1.43722E-04-4.29971E-14
 -1      3946 7.36989E-03 1.71104E-04-4.86132E-14
 -1      3947 7.23145E-03 1.73042E-04-4.69600E-14
 -1      3948 7.15937E-03 1.40903E-04-4.62197E-14
 -1      3949 7.64455E-03 1.67342E-04-5.19821E-14
 -1      3950 7.50761E-03 1.69210E-04-5.02874E-14
 -1      3951 7.43534E-03 1.38103E-04-4.95277E-14
 -1      3952 7.91559E-03 1.64045E-04-5.54287E-14
 -1      3953 7.78057E-03 1.65627E-04-5.36966E-14
 -1      3954 7.70810E-03 1.35615E-04-5.29180E-14
 -1      3955 8.18206E-03 1.61783E-04-5.89482E-14
 -1      3956 8.04946E-03 1.62774E-04-5.71789E-14
 -1      3957 7.97678E-03 1.33872E-04-5.63845E-14
 -1      3958 8.44272E-03 1.61306E-04-6.25398E-14
 -1      3959 8.31319E-03 1.61314E-04-6.07356E-14
 -1      3960 8.24034E-03 1.33478E-04-5.99243E-14
 -1      3961 8.69606E-03 1.63510E-04-6.61998E-14
 -1      3962 8.57040E-03 1.62079E-04-6.43623E-14
 -1      3963 8.49743E-03 1.35195E-04-6.35361E-14
 -1      3964 8.94008E-03 1.69351E-04-6.99165E-14
 -1      3965 8.81936E-03 1.66015E-04-6.80511E-14
 -1      3966 8.74633E-03 1.39908E-04-6.72142E-14
 -1      3967 9.17213E-03 1.79711E-04-7.36869E-14
 -1      3968 9.05776E-03 1.74051E-04-7.17947E-14
 -1      3969 8.98467E-03 1.48546E-04-7.09456E-14
 -1      3970 5.39457E-03 1.91569E-04-2.75358E-14
 -1      3971 5.25167E-03 1.92427E-04-2.62131E-14
 -1      3972 6.53124E-03 1.81914E-04-3.90190E-14
 -1      3973 6.38999E-03 1.83442E-04-3.74991E-14
 -1      3974 6.60033E-03 1.46385E-04-3.98635E-14
 -1      3975 9.40147E-03 1.72691E-04-7.84662E-14
 -1      3976 9.45309E-03 1.97467E-04-7.88679E-14
 -1      3977 6.24845E-03 1.84865E-04-3.60037E-14
 -1      3978 6.10664E-03 1.86200E-04-3.45313E-14
 -1      3979 6.03491E-03 1.50933E-04-3.38763E-14
 -1      3980 6.31824E-03 1.48799E-04-3.68231E-14
 -1      3981 4.82217E-03 1.94656E-04-2.24068E-14
 -1      3982 4.67875E-03 1.95299E-04-2.11946E-14
 -1      3983 1.62641E-03 2.11456E-04-3.07932E-15
 -1      3984 1.58411E-03 1.73891E-04-2.98798E-15
 -1      3985 1.54482E-03 1.22811E-04-2.91424E-15
 -1      3986 1.66768E-03 1.09256E-04-3.34841E-15
 -1      3987 1.74993E-03 1.83816E-04-3.55793E-15
 -1      3988 5.10863E-03 1.93223E-04-2.49169E-14
 -1      3989 4.96546E-03 1.93967E-04-2.36476E-14
 -1      3990 5.17970E-03 1.55795E-04-2.56288E-14
 -1      3991 9.36929E-03 1.20462E-04-7.79498E-14
 -1      3992 9.37302E-03 1.46068E-04-7.81435E-14
 -1      3993 5.67993E-03 1.89656E-04-3.02583E-14
 -1      3994 5.53733E-03 1.90649E-04-2.88845E-14
 -1      3995 5.46549E-03 1.54401E-04-2.82757E-14
 -1      3996 1.65029E-03-3.01191E-05-3.36059E-15
 -1      3997 1.52668E-03-4.63294E-05-2.93786E-15
 -1      3998 1.55170E-03-7.75487E-05-3.01967E-15
 -1      3999 1.98313E-03-1.49497E-04-4.60855E-15
 -1      4000 2.12799E-03-1.53041E-04-5.21923E-15
 -1      4001 2.19805E-03-1.18638E-04-5.54106E-15
 -1      4002 3.24242E-03 2.73593E-04-1.06581E-14
 -1      4003 3.09810E-03 2.72956E-04-9.79925E-15
 -1      4004 3.02297E-03 2.34731E-04-9.44416E-15
 -1      4005 9.31221E-03 1.54751E-04-7.68501E-14
 -1      4006 1.96699E-03 1.76480E-04-4.40041E-15
 -1      4007 1.85833E-03 1.80591E-04-3.96836E-15
 -1      4008 1.81683E-03 1.42278E-04-3.85929E-15
 -1      4009 1.75166E-03 5.73547E-05-3.69240E-15
 -1      4010 1.75077E-03 2.01830E-05-3.70939E-15
 -1      4011 4.89331E-03 1.57005E-04-2.30898E-14
 -1      4012 9.57007E-03-7.68351E-05-7.84083E-14
 -1      4013 9.69321E-03-7.88730E-05-8.00285E-14
 -1      4014 9.67356E-03-4.42106E-05-8.01679E-14
 -1      4015 9.46152E-03-3.59720E-05-7.73832E-14
 -1      4016 3.67135E-03 1.98118E-04-1.35649E-14
 -1      4017 3.52693E-03 1.98163E-04-1.26036E-14
 -1      4018 2.80295E-03 1.95385E-04-8.29503E-15
 -1      4019 2.65788E-03 1.93924E-04-7.53502E-15
 -1      4020 4.17687E-03 2.34927E-04-1.71205E-14
 -1      4021 4.53521E-03 1.95888E-04-2.00118E-14
 -1      4022 4.39155E-03 1.96431E-04-1.88599E-14
 -1      4023 4.60637E-03 1.58048E-04-2.06642E-14
 -1      4024 2.25674E-03 1.84240E-04-5.62071E-15
 -1      4025 2.11177E-03 1.80739E-04-4.99232E-15
 -1      4026 2.07039E-03 1.41284E-04-4.87022E-15
 -1      4027 9.30396E-03 1.92779E-04-7.58535E-14
 -1      4028 9.22835E-03 1.67619E-04-7.49910E-14
 -1      4029 3.31214E-03 2.35907E-04-1.11643E-14
 -1      4030 1.55680E-03-1.03033E-04-3.03113E-15
 -1      4031 1.58307E-03-1.35348E-04-3.10772E-15
 -1      4032 1.69099E-03-1.41892E-04-3.48480E-15
 -1      4033 1.67993E-03-8.86654E-05-3.46397E-15
 -1      4034 1.89961E-03 6.38366E-06-4.28260E-15
 -1      4035 1.77463E-03-1.24740E-05-3.80913E-15
 -1      4036 1.79916E-03-4.55525E-05-3.90634E-15
 -1      4037 5.75060E-03 1.52792E-04-3.10257E-14
 -1      4038 9.36818E-03 9.45135E-05-7.76584E-14
 -1      4039 9.27784E-03 1.02819E-04-7.62393E-14
 -1      4040 9.37315E-03 6.51165E-05-7.73631E-14
 -1      4041 3.95982E-03 1.97687E-04-1.55871E-14
 -1      4042 3.81565E-03 1.97957E-04-1.45594E-14
 -1      4043 3.74223E-03 1.60027E-04-1.41162E-14
 -1      4044 9.19052E-03 1.39766E-04-7.46764E-14
 -1      4045 9.65177E-03-1.08144E-05-8.03048E-14
 -1      4046 2.52986E-03 1.90683E-04-6.89610E-15
 -1      4047 2.38474E-03 1.88332E-04-6.20198E-15
 -1      4048 2.34349E-03 1.47947E-04-6.06717E-15
 -1      4049 2.59977E-03 1.54420E-04-7.29949E-15
 -1      4050 1.78263E-03-1.43226E-04-3.82259E-15
 -1      4051 1.89110E-03-1.48967E-04-4.23825E-15
 -1      4052 1.96080E-03-1.16381E-04-4.53129E-15
 -1      4053 1.77688E-03-1.15930E-04-3.81261E-15
 -1      4054 9.52257E-03 8.33816E-06-7.87804E-14
 -1      4055 1.77622E-03 1.04774E-04-3.74605E-15
 -1      4056 1.90014E-03 8.84730E-05-4.23412E-15
 -1      4057 4.96454E-03 1.19464E-04-2.37747E-14
 -1      4058 4.82118E-03 1.19891E-04-2.25321E-14
 -1      4059 2.41426E-03-8.48421E-05-6.54785E-15
 -1      4060 2.55972E-03-8.58539E-05-7.26359E-15
 -1      4061 3.45305E-03 1.60072E-04-1.21896E-14
 -1      4062 3.38236E-03 1.98049E-04-1.16747E-14
 -1      4063 3.23768E-03 1.97763E-04-1.07794E-14
 -1      4064 2.70520E-03-8.66471E-05-8.01426E-15
 -1      4065 2.85065E-03-8.72288E-05-8.79929E-15
 -1      4066 2.63145E-03-4.89800E-05-7.62553E-15
 -1      4067 2.99604E-03-8.76542E-05-9.61847E-15
 -1      4068 3.14133E-03-8.79266E-05-1.04718E-14
 -1      4069 2.92248E-03-4.96329E-05-9.19322E-15
 -1      4070 3.28650E-03-8.80911E-05-1.13590E-14
 -1      4071 3.43153E-03-8.81475E-05-1.22779E-14
 -1      4072 3.21320E-03-4.99363E-05-1.08967E-14
 -1      4073 3.57641E-03-8.81310E-05-1.32298E-14
 -1      4074 3.72114E-03-8.80402E-05-1.42145E-14
 -1      4075 3.50339E-03-4.99857E-05-1.27330E-14
 -1      4076 3.86572E-03-8.79024E-05-1.52303E-14
 -1      4077 4.01014E-03-8.77109E-05-1.62783E-14
 -1      4078 3.79297E-03-4.98553E-05-1.46988E-14
 -1      4079 4.15440E-03-8.74878E-05-1.73575E-14
 -1      4080 4.29850E-03-8.72246E-05-1.84672E-14
 -1      4081 4.08192E-03-4.96135E-05-1.67925E-14
 -1      4082 4.44244E-03-8.69382E-05-1.96073E-14
 -1      4083 4.58623E-03-8.66212E-05-2.07784E-14
 -1      4084 4.37021E-03-4.92901E-05-1.90096E-14
 -1      4085 4.72987E-03-8.62836E-05-2.19785E-14
 -1      4086 4.87336E-03-8.59160E-05-2.32081E-14
 -1      4087 4.65786E-03-4.88949E-05-2.13491E-14
 -1      4088 5.01668E-03-8.55265E-05-2.44658E-14
 -1      4089 5.15985E-03-8.51044E-05-2.57510E-14
 -1      4090 4.94487E-03-4.84424E-05-2.38059E-14
 -1      4091 5.30284E-03-8.46549E-05-2.70642E-14
 -1      4092 5.44566E-03-8.41665E-05-2.84042E-14
 -1      4093 5.23121E-03-4.79219E-05-2.63747E-14
 -1      4094 5.58830E-03-8.36424E-05-2.97701E-14
 -1      4095 5.73073E-03-8.30680E-05-3.11603E-14
 -1      4096 5.51683E-03-4.73152E-05-2.90523E-14
 -1      4097 5.87295E-03-8.24470E-05-3.25765E-14
 -1      4098 6.01493E-03-8.17610E-05-3.40178E-14
 -1      4099 5.80165E-03-4.65935E-05-3.18313E-14
 -1      4100 6.15665E-03-8.10143E-05-3.54830E-14
 -1      4101 6.29809E-03-8.01836E-05-3.69724E-14
 -1      4102 6.08551E-03-4.57174E-05-3.47114E-14
 -1      4103 6.43922E-03-7.92748E-05-3.84853E-14
 -1      4104 6.58000E-03-7.82579E-05-4.00218E-14
 -1      4105 6.36823E-03-4.46304E-05-3.76876E-14
 -1      4106 6.72040E-03-7.71415E-05-4.15820E-14
 -1      4107 6.86037E-03-7.58868E-05-4.31653E-14
 -1      4108 6.64955E-03-4.32572E-05-4.07580E-14
 -1      4109 6.99989E-03-7.45064E-05-4.47711E-14
 -1      4110 7.13890E-03-7.29498E-05-4.63981E-14
 -1      4111 6.92915E-03-4.14961E-05-4.39207E-14
 -1      4112 7.27736E-03-7.12346E-05-4.80468E-14
 -1      4113 7.41522E-03-6.92959E-05-4.97154E-14
 -1      4114 7.20667E-03-3.92107E-05-4.71719E-14
 -1      4115 7.55242E-03-6.71572E-05-5.14055E-14
 -1      4116 7.68894E-03-6.47359E-05-5.31155E-14
 -1      4117 7.48169E-03-3.62178E-05-5.05072E-14
 -1      4118 7.82470E-03-6.20625E-05-5.48436E-14
 -1      4119 7.95970E-03-5.90333E-05-5.65897E-14
 -1      4120 7.75371E-03-3.22738E-05-5.39228E-14
 -1      4121 8.09384E-03-5.56875E-05-5.83559E-14
 -1      4122 8.22715E-03-5.18971E-05-6.01400E-14
 -1      4123 8.02226E-03-2.70600E-05-5.74143E-14
 -1      4124 8.35954E-03-4.77122E-05-6.19410E-14
 -1      4125 8.49108E-03-4.29804E-05-6.37608E-14
 -1      4126 8.28681E-03-2.01680E-05-6.09799E-14
 -1      4127 8.62166E-03-3.77760E-05-6.55961E-14
 -1      4128 8.75147E-03-3.19596E-05-6.74450E-14
 -1      4129 8.54689E-03-1.10835E-05-6.46147E-14
 -1      4130 8.88032E-03-2.55355E-05-6.93091E-14
 -1      4131 9.00866E-03-1.84556E-05-7.11861E-14
 -1      4132 8.80213E-03 6.37745E-07-6.83121E-14
 -1      4133 9.42406E-03 8.55760E-06-7.73909E-14
 -1      4134 4.24777E-03 1.96913E-04-1.77377E-14
 -1      4135 4.10386E-03 1.97339E-04-1.66463E-14
 -1      4136 4.31888E-03 1.58924E-04-1.83565E-14
 -1      4137 6.94903E-03 1.09425E-04-4.38683E-14
 -1      4138 6.80946E-03 1.10389E-04-4.22775E-14
 -1      4139 7.77206E-03 1.04797E-04-5.38559E-14
 -1      4140 7.63703E-03 1.05270E-04-5.21399E-14
 -1      4141 8.03868E-03 1.04721E-04-5.73425E-14
 -1      4142 7.90598E-03 1.04623E-04-5.55900E-14
 -1      4143 7.83669E-03 7.48303E-05-5.47944E-14
 -1      4144 8.29978E-03 1.06293E-04-6.09019E-14
 -1      4145 8.17000E-03 1.05294E-04-5.91121E-14
 -1      4146 8.10164E-03 7.65007E-05-5.83009E-14
 -1      4147 8.55396E-03 1.10292E-04-6.45346E-14
 -1      4148 8.42784E-03 1.07990E-04-6.27101E-14
 -1      4149 8.36085E-03 8.01001E-05-6.18820E-14
 -1      4150 8.79936E-03 1.17603E-04-6.82279E-14
 -1      4151 8.67791E-03 1.13550E-04-6.63741E-14
 -1      4152 8.61294E-03 8.64222E-05-6.55327E-14
 -1      4153 9.03334E-03 1.29163E-04-7.19727E-14
 -1      4154 8.91797E-03 1.22912E-04-7.00936E-14
 -1      4155 8.85600E-03 9.64165E-05-6.92406E-14
 -1      4156 7.22643E-03 1.07546E-04-4.71129E-14
 -1      4157 7.08804E-03 1.08483E-04-4.54800E-14
 -1      4158 7.01734E-03 7.56920E-05-4.47395E-14
 -1      4159 2.04491E-03 9.09265E-05-4.81680E-15
 -1      4160 2.02074E-03 4.10832E-05-4.75408E-15
 -1      4161 2.18999E-03 9.29546E-05-5.43561E-15
 -1      4162 5.25081E-03 1.18516E-04-2.63427E-14
 -1      4163 5.10776E-03 1.19008E-04-2.50449E-14
 -1      4164 5.03585E-03 8.20569E-05-2.44612E-14
 -1      4165 9.13459E-03 1.13628E-04-7.38089E-14
 -1      4166 5.53641E-03 1.17425E-04-2.90161E-14
 -1      4167 5.39370E-03 1.17991E-04-2.76662E-14
 -1      4168 5.32197E-03 8.14050E-05-2.70572E-14
 -1      4169 3.09287E-03 1.97249E-04-9.91750E-15
 -1      4170 2.94796E-03 1.96481E-04-9.08957E-15
 -1      4171 3.16333E-03 1.59564E-04-1.03953E-14
 -1      4172 5.82125E-03 1.16170E-04-3.17950E-14
 -1      4173 5.67894E-03 1.16821E-04-3.03933E-14
 -1      4174 5.60736E-03 8.06586E-05-2.97606E-14
 -1      4175 6.66940E-03 1.11322E-04-4.07100E-14
 -1      4176 6.52889E-03 1.12241E-04-3.91648E-14
 -1      4177 6.73852E-03 7.67319E-05-4.15576E-14
 -1      4178 7.50101E-03 1.05894E-04-5.04433E-14
 -1      4179 7.36412E-03 1.06689E-04-4.87679E-14
 -1      4180 7.56709E-03 7.44437E-05-5.13628E-14
 -1      4181 2.12367E-03-8.19584E-05-5.22117E-15
 -1      4182 2.26888E-03-8.35461E-05-5.86670E-15
 -1      4183 2.34042E-03-4.78104E-05-6.19573E-15
 -1      4184 9.27083E-03-6.99025E-06-7.50344E-14
 -1      4185 9.33626E-03 3.31136E-05-7.64197E-14
 -1      4186 9.23145E-03 4.71588E-05-7.50097E-14
 -1      4187 9.14269E-03-1.51662E-05-7.31323E-14
 -1      4188 4.74907E-03 8.26223E-05-2.19745E-14
 -1      4189 4.67766E-03 1.20284E-04-2.13181E-14
 -1      4190 4.53400E-03 1.20650E-04-2.01335E-14
 -1      4191 2.87313E-03 1.58261E-04-8.73482E-15
 -1      4192 1.89571E-03-7.21133E-05-4.27935E-15
 -1      4193 1.98787E-03-7.13019E-05-4.64997E-15
 -1      4194 2.04440E-03 6.56063E-06-4.86957E-15
 -1      4195 2.94395E-03 1.20854E-04-9.18009E-15
 -1      4196 2.79862E-03 1.20145E-04-8.38186E-15
 -1      4197 7.29373E-03 7.48491E-05-4.80087E-14
 -1      4198 4.03084E-03 1.59606E-04-1.61730E-14
 -1      4199 9.11921E-03 8.93588E-05-7.35231E-14
 -1      4200 9.05803E-03 1.17600E-05-7.21205E-14
 -1      4201 6.10518E-03 1.14734E-04-3.46712E-14
 -1      4202 5.96334E-03 1.15479E-04-3.32209E-14
 -1      4203 5.89191E-03 7.98090E-05-3.25652E-14
 -1      4204 2.05931E-03-3.71281E-05-4.94495E-15
 -1      4205 1.77160E-03-8.88103E-05-3.80001E-15
 -1      4206 3.81345E-03 1.21894E-04-1.46704E-14
 -1      4207 3.66889E-03 1.21989E-04-1.36731E-14
 -1      4208 2.67040E-03 1.17732E-04-7.70803E-15
 -1      4209 2.54216E-03 1.15154E-04-7.06103E-15
 -1      4210 2.74168E-03 8.06791E-05-8.12226E-15
 -1      4211 6.38799E-03 1.13112E-04-3.76433E-14
 -1      4212 6.24674E-03 1.13950E-04-3.61451E-14
 -1      4213 6.45776E-03 7.78161E-05-3.84662E-14
 -1      4214 3.52417E-03 1.21994E-04-1.27086E-14
 -1      4215 3.37931E-03 1.21914E-04-1.17765E-14
 -1      4216 3.59567E-03 8.38627E-05-1.32315E-14
 -1      4217 5.67834E-03 4.41125E-05-3.05058E-14
 -1      4218 5.53586E-03 4.43016E-05-2.91275E-14
 -1      4219 2.54881E-03 1.46743E-05-7.18093E-15
 -1      4220 2.69439E-03 1.48626E-05-7.92546E-15
 -1      4221 2.82269E-03 1.65744E-05-8.61022E-15
 -1      4222 2.96818E-03 1.67038E-05-9.41893E-15
 -1      4223 3.43063E-03-1.18204E-05-1.22398E-14
 -1      4224 3.57561E-03-1.17862E-05-1.31886E-14
 -1      4225 3.69391E-03 1.69687E-05-1.39649E-14
 -1      4226 3.83859E-03 1.69919E-05-1.49714E-14
 -1      4227 4.29808E-03-1.15183E-05-1.84147E-14
 -1      4228 4.44208E-03-1.14446E-05-1.95530E-14
 -1      4229 4.55957E-03 1.69579E-05-2.04771E-14
 -1      4230 4.70328E-03 1.69438E-05-2.16697E-14
 -1      4231 4.84682E-03 1.69184E-05-2.28921E-14
 -1      4232 4.99020E-03 1.68975E-05-2.41420E-14
 -1      4233 5.13340E-03 1.68677E-05-2.54200E-14
 -1      4234 5.27643E-03 1.68434E-05-2.67251E-14
 -1      4235 5.49060E-03-1.98148E-05-2.87747E-14
 -1      4236 5.63315E-03-1.96294E-05-3.01458E-14
 -1      4237 5.77548E-03-1.94285E-05-3.15437E-14
 -1      4238 5.91757E-03-1.91991E-05-3.29656E-14
 -1      4239 5.74938E-03 7.79694E-06-3.12530E-14
 -1      4240 6.05940E-03-1.89449E-05-3.44112E-14
 -1      4241 6.20094E-03-1.86499E-05-3.58828E-14
 -1      4242 6.03338E-03 7.89461E-06-3.41111E-14
 -1      4243 6.34216E-03-1.83177E-05-3.73776E-14
 -1      4244 6.48303E-03-1.79267E-05-3.88962E-14
 -1      4245 6.31623E-03 8.06841E-06-3.70652E-14
 -1      4246 6.62351E-03-1.74806E-05-4.04382E-14
 -1      4247 6.76356E-03-1.69499E-05-4.20025E-14
 -1      4248 6.59767E-03 8.37390E-06-4.01159E-14
 -1      4249 6.90313E-03-1.63384E-05-4.35904E-14
 -1      4250 7.04217E-03-1.56058E-05-4.52001E-14
 -1      4251 6.87738E-03 8.89769E-06-4.32572E-14
 -1      4252 7.18061E-03-1.47556E-05-4.68306E-14
 -1      4253 7.31842E-03-1.37337E-05-4.84828E-14
 -1      4254 7.15494E-03 9.77051E-06-4.64876E-14
 -1      4255 7.45551E-03-1.25423E-05-5.01568E-14
 -1      4256 7.59183E-03-1.11103E-05-5.18499E-14
 -1      4257 7.42986E-03 1.11837E-05-4.98048E-14
 -1      4258 7.72728E-03-9.43755E-06-5.35630E-14
 -1      4259 7.86184E-03-7.43199E-06-5.52953E-14
 -1      4260 7.70158E-03 1.34085E-05-5.32017E-14
 -1      4261 7.99536E-03-5.09077E-06-5.70458E-14
 -1      4262 8.12783E-03-2.29684E-06-5.88156E-14
 -1      4263 7.96943E-03 1.68173E-05-5.66761E-14
 -1      4264 8.25909E-03 9.55247E-07-6.06023E-14
 -1      4265 8.38914E-03 4.81167E-06-6.24074E-14
 -1      4266 8.23268E-03 2.19033E-05-6.02241E-14
 -1      4267 8.51778E-03 9.27762E-06-6.42300E-14
 -1      4268 8.64502E-03 1.45776E-05-6.60683E-14
 -1      4269 8.49044E-03 2.92940E-05-6.38442E-14
 -1      4270 8.16619E-03 4.89558E-05-5.92617E-14
 -1      4271 8.03495E-03 4.70521E-05-5.74899E-14
 -1      4272 2.17997E-03-2.40361E-06-5.45476E-15
 -1      4273 3.10201E-03 1.07111E-04-1.01051E-14
 -1      4274 3.02830E-03 6.89687E-05-9.71888E-15
 -1      4275 3.12688E-03 2.47480E-06-1.03501E-14
 -1      4276 3.24717E-03 1.07401E-04-1.09742E-14
 -1      4277 7.36149E-03 4.27472E-05-4.89055E-14
 -1      4278 7.22407E-03 4.25669E-05-4.72482E-14
 -1      4279 2.32530E-03-2.40801E-06-6.11214E-15
 -1      4280 7.90239E-03 4.55467E-05-5.57350E-14
 -1      4281 7.76868E-03 4.44614E-05-5.39987E-14
 -1      4282 8.67529E-03 6.30286E-05-6.65301E-14
 -1      4283 8.55077E-03 5.83947E-05-6.46899E-14
 -1      4284 8.96101E-03 7.76917E-05-7.09422E-14
 -1      4285 8.84201E-03 7.06635E-05-6.90702E-14
 -1      4286 8.78702E-03 4.15917E-05-6.82104E-14
 -1      4287 9.11589E-03 6.25180E-05-7.33467E-14
 -1      4288 7.08593E-03 4.24851E-05-4.56130E-14
 -1      4289 6.94716E-03 4.25157E-05-4.39993E-14
 -1      4290 2.38944E-03 6.01078E-05-6.37454E-15
 -1      4291 3.95786E-03 1.21742E-04-1.57000E-14
 -1      4292 3.88497E-03 8.37575E-05-1.52279E-14
 -1      4293 4.10212E-03 1.21529E-04-1.67619E-14
 -1      4294 4.39018E-03 1.20978E-04-1.89791E-14
 -1      4295 4.24623E-03 1.21275E-04-1.78555E-14
 -1      4296 4.17364E-03 8.34915E-05-1.73542E-14
 -1      4297 4.46166E-03 8.31065E-05-1.96037E-14
 -1      4298 6.80782E-03 4.25966E-05-4.24068E-14
 -1      4299 6.66796E-03 4.27415E-05-4.08372E-14
 -1      4300 9.06725E-03 3.44226E-05-7.24156E-14
 -1      4301 8.94006E-03 2.98111E-05-7.04750E-14
 -1      4302 7.63388E-03 4.36443E-05-5.22812E-14
 -1      4303 7.49812E-03 4.31111E-05-5.05837E-14
 -1      4304 8.42425E-03 5.45179E-05-6.28637E-14
 -1      4305 8.29603E-03 5.14574E-05-6.10535E-14
 -1      4306 3.98311E-03 1.69923E-05-1.60105E-14
 -1      4307 5.41928E-03 1.68112E-05-2.80563E-14
 -1      4308 3.27216E-03 2.51702E-06-1.12309E-14
 -1      4309 4.12747E-03 1.69965E-05-1.70813E-14
 -1      4310 3.34499E-03 4.06913E-05-1.16538E-14
 -1      4311 8.77077E-03 2.06092E-05-6.79206E-14
 -1      4312 6.52763E-03 4.29059E-05-3.92904E-14
 -1      4313 5.82060E-03 4.39205E-05-3.19099E-14
 -1      4314 2.41393E-03 1.12309E-04-6.44119E-15
 -1      4315 6.17546E-03 7.88565E-05-3.54671E-14
 -1      4316 3.62180E-03 5.51363E-05-1.34395E-14
 -1      4317 6.38690E-03 4.31029E-05-3.77659E-14
 -1      4318 3.47691E-03 5.51143E-05-1.24825E-14
 -1      4319 5.96261E-03 4.37153E-05-3.33378E-14
 -1      4320 4.48782E-03 5.46827E-05-1.98511E-14
 -1      4321 6.24579E-03 4.33010E-05-3.62655E-14
 -1      4322 6.10435E-03 4.35126E-05-3.47893E-14
 -1      4323 3.31879E-03 6.93805E-05-1.14610E-14
 -1      4324 4.19980E-03 5.49235E-05-1.75890E-14
 -1      4325 4.34389E-03 5.48134E-05-1.87055E-14
 -3
    1PSTEP                         2           1           1          
  100CL  101 1.000000000        4325                     0    1           1
 -4  STRESS      6    1
 -5  SXX         1    4    1    1
 -5  SYY         1    4    2    2
 -5  SZZ         1    4    3    3
 -5  SXY         1    4    1    2
 -5  SYZ         1    4    2    3
 -5  SZX         1    4    3    1
 -1         1 3.40656E+01 1.10764E+01 1.87669E+00-1.88511E+01-6.85396E-13 1.32516E-12
 -1         2-8.02263E-01-2.81841E+01-3.81607E+00-1.14679E-01 3.77704E-12-7.70217E-14
 -1         3 1.99247E+01-7.96838E-02 6.75683E-02-7.80001E-02-1.72173E-13-1.99216E-13
 -1         4 1.99994E+01 9.42699E-05 2.91144E-02 5.87141E-04 2.12236E-13 5.09416E-15
 -1         5 3.27687E+01 6.14286E+00 2.74244E+00 6.22430E+00-4.70041E-14 3.69821E-12
 -1         6 3.57528E+01 1.22635E+01 5.12544E+00-8.64660E+00-2.27374E-13 3.46173E-12
 -1         7 2.08195E+01 6.09992E+00-1.28588E-01-4.72523E+00-3.22936E-14 5.48755E-13
 -1         8 1.96720E+01 5.93501E+00 5.07847E-02-3.27437E+00-4.15154E-14-3.28625E-13
 -1         9 1.91371E+01 5.77199E+00 4.90176E-02-2.52657E+00-3.45210E-14-7.98632E-13
 -1        10 1.88959E+01 5.69227E+00 5.12663E-02-1.95107E+00-2.44700E-14-1.02010E-12
 -1        11 1.87736E+01 5.65129E+00 5.04241E-02-1.45587E+00-1.84722E-14-1.11126E-12
 -1        12 1.87098E+01 5.62951E+00 4.87860E-02-1.01504E+00-6.86734E-15-1.14210E-12
 -1        13 1.86762E+01 5.61805E+00 4.74230E-02-5.95292E-01-3.97295E-15-1.14998E-12
 -1        14 1.86620E+01 5.61320E+00 4.66994E-02-1.91185E-01 1.88356E-15-1.14984E-12
 -1        15 1.86625E+01 5.61336E+00 4.67387E-02 2.08181E-01 6.11994E-15-1.13743E-12
 -1        16 1.86777E+01 5.61854E+00 4.75571E-02 6.13110E-01 1.29252E-14-1.11307E-12
 -1        17 1.87126E+01 5.63027E+00 4.90728E-02 1.03483E+00 1.55440E-14-1.06797E-12
 -1        18 1.87776E+01 5.65235E+00 5.08253E-02 1.47887E+00 2.28953E-14-9.73637E-13
 -1        19 1.89010E+01 5.69379E+00 5.15375E-02 1.97998E+00 3.51611E-14-8.15162E-13
 -1        20 1.91427E+01 5.77457E+00 4.87928E-02 2.56357E+00 4.60292E-14-5.43108E-13
 -1        21 1.96679E+01 5.94973E+00 4.59414E-02 3.30858E+00 5.18197E-14 1.56338E-14
 -1        22 2.12023E+01 6.38165E+00 1.39725E-01 4.52291E+00 8.78464E-15 1.15154E-12
 -1        23 2.30307E+01-1.37928E+00-9.38303E-01-7.11174E-01-1.49811E-13 2.66856E-12
 -1        24 1.93680E+01-9.94695E-02-3.09831E-01 6.31996E-02-4.51375E-14 1.95643E-12
 -1        25 1.86798E+01-5.63191E-02-6.87790E-02 6.07472E-02-1.08906E-14 1.27159E-12
 -1        26 1.84775E+01-2.20873E-02-6.45641E-03 3.29882E-02-2.22055E-15 7.87528E-13
 -1        27 1.84890E+01-1.17973E-02 1.58014E-03 2.26080E-02 7.74793E-15 5.08961E-13
 -1        28 1.86032E+01-6.23009E-03 1.78493E-03 1.63090E-02-2.88544E-14 2.95632E-13
 -1        29 1.87630E+01-3.07325E-03 1.73117E-03 1.21611E-02 1.76237E-14 1.14926E-13
 -1        30 1.89370E+01-1.21622E-03 1.91957E-03 9.20269E-03 4.88876E-15-8.31770E-14
 -1        31 1.91075E+01-1.19859E-04 2.08558E-03 6.97595E-03 2.20661E-14-2.45653E-13
 -1        32 1.92646E+01 5.05470E-04 2.12102E-03 5.24852E-03-4.48722E-14-4.37152E-13
 -1        33 1.94036E+01 8.28228E-04 2.03243E-03 3.88956E-03 1.44422E-14-6.47396E-13
 -1        34 1.95226E+01 9.52733E-04 1.85637E-03 2.81589E-03-4.73588E-14-8.48021E-13
 -1        35 1.96220E+01 9.46154E-04 1.62651E-03 1.96881E-03 2.41017E-14-8.26558E-13
 -1        36 1.97035E+01 8.52176E-04 1.36631E-03 1.30394E-03 1.70628E-14-6.80199E-13
 -1        37 1.97695E+01 6.98512E-04 1.08929E-03 7.86814E-04-4.42484E-14-6.40677E-13
 -1        38 1.98231E+01 5.01477E-04 8.00572E-04 3.91004E-04-9.22541E-15-8.31608E-13
 -1        39 1.98676E+01 2.69100E-04 4.98512E-04 9.76575E-05-3.67263E-15-9.36231E-13
 -1        40 1.99067E+01 3.51766E-06 1.76124E-04-1.04360E-04 6.24120E-15-9.59938E-13
 -1        41 1.99446E+01-2.96916E-04-1.77490E-04-2.17903E-04 2.12222E-14-9.67727E-13
 -1        42 1.99858E+01-6.35476E-04-5.75533E-04-2.36718E-04-3.50170E-14-9.03835E-13
 -1        43 2.00354E+01-1.01454E-03-1.03139E-03-1.44483E-04-5.31815E-14-8.14496E-13
 -1        44 2.00993E+01-1.43232E-03-1.55546E-03 8.60822E-05-1.04851E-14-8.04011E-13
 -1        45 2.01840E+01-1.87840E-03-2.15026E-03 4.93570E-04 6.09232E-15-7.13821E-13
 -1        46 2.02966E+01-2.32758E-03-2.80268E-03 1.12687E-03-6.31835E-15-8.03923E-13
 -1        47 2.04448E+01-2.73164E-03-3.47193E-03 2.04121E-03-1.68770E-14-6.42904E-13
 -1        48 2.06359E+01-3.00878E-03-4.07149E-03 3.28846E-03-7.06043E-15-7.98690E-13
 -1        49 2.08758E+01-3.03171E-03-4.44358E-03 4.89722E-03 4.25803E-14-7.81069E-13
 -1        50 2.11669E+01-2.61732E-03-4.32681E-03 6.83604E-03-6.32626E-14-8.17613E-13
 -1        51 2.15053E+01-1.52519E-03-3.32413E-03 8.95087E-03 4.15225E-15-7.59678E-13
 -1        52 2.18761E+01 5.20047E-04-8.93466E-04 1.08696E-02-9.95195E-15-6.02348E-13
 -1        53 2.22480E+01 3.75823E-03 3.58886E-03 1.18783E-02 2.66862E-14-6.93995E-13
 -1        54 2.25677E+01 8.24353E-03 1.06046E-02 1.08085E-02-6.46835E-15-6.12809E-13
 -1        55 2.27561E+01 1.35972E-02 2.00091E-02 6.04972E-03-6.12683E-16-7.32516E-13
 -1        56 2.27120E+01 1.87090E-02 3.02754E-02-4.09243E-03-2.57758E-14-7.01073E-13
 -1        57 2.23302E+01 2.15795E-02 3.77888E-02-2.04156E-02-3.93774E-14-4.75872E-13
 -1        58 2.15391E+01 1.96724E-02 3.70503E-02-4.11784E-02 2.78910E-14-4.56463E-13
 -1        59 2.03560E+01 1.11019E-02 2.28946E-02-6.05765E-02-5.17892E-14-5.64812E-13
 -1        60 1.89366E+01-3.52367E-03-5.01386E-03-6.92599E-02 3.07136E-14-2.09190E-13
 -1        61 1.75750E+01-1.99243E-02-3.84464E-02-5.86988E-02 6.23554E-14-3.06904E-13
 -1        62 1.66189E+01-3.13159E-02-6.23037E-02-2.81199E-02 6.94540E-16-4.40549E-13
 -1        63 1.63166E+01-3.22809E-02-6.37620E-02 1.17369E-02-7.27116E-14-6.84342E-13
 -1        64 1.66870E+01-2.25167E-02-4.21764E-02 4.41502E-02-2.60226E-14-9.84039E-13
 -1        65 1.75119E+01-7.15290E-03-9.50415E-03 5.70537E-02 7.55867E-14-8.16236E-13
 -1        66 1.84554E+01 6.65124E-03 1.81384E-02 4.96982E-02 7.89603E-14-5.97378E-13
 -1        67 1.92279E+01 1.39012E-02 3.06767E-02 3.07425E-02 5.44098E-14-4.28820E-13
 -1        68 1.96913E+01 1.35815E-02 2.69936E-02 1.13588E-02 6.09749E-14-8.87623E-14
 -1        69 1.98724E+01 8.14786E-03 1.32234E-02-1.01797E-04-5.90995E-14-2.03073E-13
 -1        70 1.99087E+01 3.19143E-03 1.15361E-03 1.74082E-03 2.44397E-14-1.83095E-13
 -1        71 1.99532E+01 5.32220E-03 8.31757E-03 1.05145E-02-5.44200E-14-1.65043E-13
 -1        72 2.10430E+01-4.04896E-01-9.80424E-01-3.11631E-01 4.28754E-14 3.36042E-12
 -1        73 1.93326E+01-6.58822E-02-2.91127E-01-5.38366E-02 3.32863E-14 2.50716E-12
 -1        74 1.86894E+01-2.05045E-02-6.42675E-02-2.03485E-02 2.74222E-14 1.86477E-12
 -1        75 1.84867E+01-9.87756E-03-9.30877E-03-1.54475E-02 9.11543E-15 1.40708E-12
 -1        76 1.84980E+01-5.16309E-03 6.81445E-04-1.23794E-02 9.58093E-15 1.13546E-12
 -1        77 1.86114E+01-2.61043E-03 1.74789E-03-1.01113E-02-5.38499E-15 9.40247E-13
 -1        78 1.87701E+01-1.13912E-03 1.88914E-03-8.37182E-03-3.28142E-15 8.19154E-13
 -1        79 1.89431E+01-2.73915E-04 2.08527E-03-6.93698E-03 2.64261E-14 5.91320E-13
 -1        80 1.91126E+01 2.25575E-04 2.22795E-03-5.70233E-03-2.51046E-14 4.10129E-13
 -1        81 1.92689E+01 4.94518E-04 2.24062E-03-4.62409E-03 1.47192E-14 4.20796E-13
 -1        82 1.94069E+01 6.14087E-04 2.13229E-03-3.68321E-03 7.30805E-15 3.50237E-13
 -1        83 1.95251E+01 6.35606E-04 1.93934E-03-2.86681E-03-1.22943E-14 2.29387E-13
 -1        84 1.96238E+01 5.92145E-04 1.69530E-03-2.16241E-03 3.03709E-14 1.29362E-13
 -1        85 1.97045E+01 5.04697E-04 1.42359E-03-1.55641E-03 2.21590E-14-2.57773E-13
 -1        86 1.97696E+01 3.85648E-04 1.13753E-03-1.03401E-03 1.34054E-14-5.98488E-13
 -1        87 1.98222E+01 2.40907E-04 8.41746E-04-5.79821E-04-3.67785E-14-4.64769E-13
 -1        88 1.98656E+01 7.12578E-05 5.33460E-04-1.78689E-04 1.23354E-14-4.67466E-13
 -1        89 1.99035E+01-1.26741E-04 2.03383E-04 1.83365E-04 7.47176E-14-8.58717E-13
 -1        90 1.99400E+01-3.60173E-04-1.63825E-04 5.18207E-04-6.84592E-14-8.49579E-13
 -1        91 1.99797E+01-6.39388E-04-5.89553E-04 8.34452E-04-3.57246E-14-3.26545E-13
 -1        92 2.00284E+01-9.77705E-04-1.10173E-03 1.13595E-03-1.66829E-14-1.63650E-13
 -1        93 2.00925E+01-1.39101E-03-1.73580E-03 1.41950E-03 1.10158E-14-2.99270E-13
 -1        94 2.01803E+01-1.89681E-03-2.53606E-03 1.67102E-03-1.30203E-14-6.17058E-13
 -1        95 2.03019E+01-2.51206E-03-3.55684E-03 1.85914E-03-3.52885E-14-6.15581E-13
 -1        96 2.04698E+01-3.24821E-03-4.86216E-03 1.92420E-03 4.96961E-14-5.62526E-13
 -1        97 2.06999E+01-4.10077E-03-6.52057E-03 1.75980E-03-4.25384E-15-5.05916E-13
 -1        98 2.10114E+01-5.02881E-03-8.58736E-03 1.18280E-03 3.54734E-14-4.14170E-13
 -1        99 2.14275E+01-5.91682E-03-1.10569E-02-1.12208E-04-8.27106E-14-5.58523E-13
 -1       100 2.19741E+01-6.50963E-03-1.37510E-02-2.61347E-03-5.56804E-14-2.50181E-13
 -1       101 2.26770E+01-6.31355E-03-1.60809E-02-7.04835E-03-4.02681E-14-2.95652E-13
 -1       102 2.35545E+01-4.48103E-03-1.66073E-02-1.43604E-02 6.80286E-14-5.63794E-13
 -1       103 2.46019E+01 2.28221E-04-1.23861E-02-2.54016E-02-7.19403E-14-4.65546E-13
 -1       104 2.57621E+01 9.18231E-03 1.57225E-03-3.99322E-02-8.34039E-15-7.66210E-14
 -1       105 2.68815E+01 2.27615E-02 3.14752E-02-5.43256E-02 2.74238E-14-9.74481E-14
 -1       106 2.76586E+01 3.78832E-02 7.95547E-02-5.78049E-02-4.18383E-14-6.75675E-16
 -1       107 2.76309E+01 4.52526E-02 1.32156E-01-3.06925E-02 5.63815E-14 8.33882E-15
 -1       108 2.63001E+01 3.13178E-02 1.48678E-01 4.59277E-02 4.23589E-14-4.95985E-13
 -1       109 2.34978E+01-7.89902E-03 7.52714E-02 1.59584E-01-8.87094E-15-1.19779E-13
 -1       110 1.98851E+01-5.07444E-02-9.04718E-02 2.36992E-01-2.65606E-14-1.19550E-13
 -1       111 1.70126E+01-6.45494E-02-2.42840E-01 1.87221E-01 1.67401E-14 1.61947E-13
 -1       112 1.63795E+01-3.96982E-02-2.56245E-01 1.64507E-02-7.45046E-14 2.38649E-13
 -1       113 1.81603E+01-6.20597E-05-1.15227E-01-1.52217E-01 1.38211E-13 4.59424E-14
 -1       114 2.10109E+01 2.92923E-02 5.55354E-02-2.02760E-01-8.26344E-14-4.48946E-13
 -1       115 2.32811E+01 3.83562E-02 1.44602E-01-1.47030E-01 1.37994E-13-7.79737E-13
 -1       116 2.41261E+01 2.96838E-02 1.38667E-01-5.59789E-02 4.93572E-15-6.32591E-13
 -1       117 2.36134E+01 1.18217E-02 8.09037E-02 1.92681E-02 3.08850E-14-7.48191E-13
 -1       118 2.23013E+01-7.46914E-03 1.08220E-02 6.31628E-02 5.17178E-14-9.42947E-13
 -1       119 2.08762E+01-2.24008E-02-4.89620E-02 7.26567E-02-8.74314E-14-3.83603E-13
 -1       120 2.00328E+01 2.33015E-02-2.60783E-02 1.93230E-02 1.79025E-13-2.38035E-13
 -1       121 1.99899E+01 8.44694E-02-3.62647E-02-1.78536E-03-3.72669E-13-1.67039E-13
 -1       122 1.99635E+01 9.76198E-01-7.34540E-02 5.08279E-02-3.95533E-13 3.65131E-14
 -1       123 1.99794E+01 2.67385E+00-4.52188E-02 8.44502E-02-2.49443E-13 1.59337E-13
 -1       124 2.00018E+01 4.79747E+00-3.83490E-03 1.01230E-01-1.62418E-12 5.04507E-14
 -1       125 2.00277E+01 6.92344E+00 4.58752E-02 9.44826E-02-2.04931E-12-1.58049E-13
 -1       126 2.00518E+01 8.53022E+00 9.04334E-02 6.15840E-02-3.13681E-12 3.19354E-14
 -1       127 2.00608E+01 9.21844E+00 1.09562E-01 5.35080E-03-2.58977E-12-1.43638E-13
 -1       128 2.00527E+01 8.75873E+00 9.26029E-02-5.18938E-02-1.90553E-12 7.15573E-14
 -1       129 2.00306E+01 7.31992E+00 4.80123E-02-8.78567E-02-8.25895E-13 2.56347E-13
 -1       130 2.00043E+01 5.35193E+00-2.27561E-03-9.30817E-02-6.58813E-14-3.32275E-13
 -1       131 1.99840E+01 3.37098E+00-3.83543E-02-7.32514E-02-7.36536E-13 6.85782E-14
 -1       132 1.99724E+01 1.77700E+00-5.33575E-02-4.41740E-02-7.89171E-13 8.79490E-14
 -1       133 1.99721E+01 6.87080E-01-4.99100E-02-1.53123E-02-5.34905E-13 8.84019E-14
 -1       134 1.99771E+01 1.13665E-01-3.64022E-02 4.91176E-03 1.99174E-13 2.47740E-13
 -1       135 1.99899E+01-6.97353E-02-1.61212E-02 1.45979E-02 2.17833E-13-1.50400E-13
 -1       136 1.99919E+01-4.11307E-02 2.65662E-03 2.73795E-02-1.71562E-13 8.69010E-14
 -1       137-1.63991E+00-2.23973E+01-3.44846E+00-4.53653E+00 2.87947E-12 7.06102E-13
 -1       138-1.80409E+00-9.41659E+00-2.45020E+00-3.45975E+00 1.90836E-12 9.20597E-13
 -1       139 4.43965E+00 4.57019E+00-9.33692E-01 4.84344E+00 9.38138E-14 4.94604E-14
 -1       140 1.92958E+01 1.15207E+01 7.41373E-01 1.47249E+01-2.12164E-13-1.07914E-13
 -1       141 4.14398E+01 1.02276E+01 2.37772E+00 1.98963E+01-4.92134E-13-1.27909E-12
 -1       142 6.14444E+01 4.57211E+00 3.57998E+00 1.49961E+01-5.32727E-13-1.94822E-12
 -1       143 7.05496E+01 1.03948E+00 4.02639E+00 2.31891E+00-1.10863E-13-1.87711E-12
 -1       144 6.43967E+01 2.78646E+00 3.61648E+00-1.10825E+01 4.12614E-13-1.79179E-12
 -1       145 4.53197E+01 7.95440E+00 2.43466E+00-1.79464E+01 9.52211E-13-2.22439E-12
 -1       146 2.19525E+01 1.01613E+01 7.46932E-01-1.46764E+01 1.71102E-12-2.18237E-12
 -1       147 5.41600E+00 4.67558E+00-9.21308E-01-5.38978E+00 2.30677E-12-2.06413E-12
 -1       148-1.83531E+00-7.91931E+00-2.31136E+00 3.18298E+00 2.05963E-12-9.77246E-13
 -1       149-1.86598E+00-1.98451E+01-3.12786E+00 4.89871E+00 2.24432E-12-6.74398E-13
 -1       150-7.98809E-01-2.61349E+01-3.44602E+00 1.56511E+00 1.44038E-12-1.03410E-13
 -1       151-1.20200E+00-2.33949E+01-3.24049E+00-3.14786E+00-2.02921E-13-9.29800E-14
 -1       152-1.65546E+00-1.19410E+01-2.47173E+00-3.57794E+00-1.44518E-12-6.40793E-13
 -1       153 1.33654E+00 1.08244E+00-1.33834E+00 1.63762E+00-1.93168E-12-1.37346E-12
 -1       154 1.20290E+01 9.85106E+00 4.22594E-02 1.08776E+01-1.49741E-12-1.34442E-12
 -1       155 3.00052E+01 1.10835E+01 1.47111E+00 1.77831E+01-4.71179E-13-5.08593E-13
 -1       156 5.04374E+01 6.86275E+00 2.70000E+00 1.72901E+01-9.45077E-14-5.46618E-13
 -1       157 6.58449E+01 1.89671E+00 3.51106E+00 7.97363E+00-8.10619E-14-3.33844E-13
 -1       158 6.73963E+01 1.36834E+00 3.62058E+00-6.43460E+00-2.48499E-13 1.16664E-12
 -1       159 5.42624E+01 6.25849E+00 3.02551E+00-1.72390E+01-5.28619E-13 1.55792E-12
 -1       160 1.50762E+01 1.08636E+01 4.28687E-01-1.26670E+01-4.17999E-13 4.03844E-13
 -1       161 2.75259E+00 2.83552E+00-1.13556E+00-3.19588E+00 4.36318E-14-1.08857E-13
 -1       162-1.78002E+00-1.04123E+01-2.49164E+00 3.58635E+00 1.73794E-12-5.56860E-13
 -1       163-1.53509E+00-2.28363E+01-3.43769E+00 4.36081E+00 3.44014E-12-8.96436E-13
 -1       164 2.10141E+01 3.69372E+00-5.73966E-02-3.60997E+00-5.18585E-13 8.91162E-14
 -1       165 1.99903E+01 4.20844E+00-4.59474E-02-2.80830E+00-4.80204E-13-4.51167E-13
 -1       166 1.95103E+01 4.47657E+00-3.13225E-02-2.19581E+00-3.83150E-13-7.49022E-13
 -1       167 1.92676E+01 4.61523E+00-2.34762E-02-1.67463E+00-2.89363E-13-8.91303E-13
 -1       168 1.91368E+01 4.69690E+00-1.95386E-02-1.21904E+00-1.93618E-13-9.39681E-13
 -1       169 1.90629E+01 4.74785E+00-1.74416E-02-7.92054E-01-1.03251E-13-9.56565E-13
 -1       170 1.90257E+01 4.77570E+00-1.64251E-02-3.86874E-01-6.53519E-15-9.62134E-13
 -1       171 1.90148E+01 4.78423E+00-1.61328E-02 8.27232E-03 6.38666E-14-9.68005E-13
 -1       172 1.90274E+01 4.77443E+00-1.64659E-02 4.03748E-01 1.35744E-13-9.49948E-13
 -1       173 1.90666E+01 4.74491E+00-1.75200E-02 8.09970E-01 2.03627E-13-9.24015E-13
 -1       174 1.91413E+01 4.69248E+00-1.96882E-02 1.23143E+00 2.76532E-13-8.47805E-13
 -1       175 1.92770E+01 4.60534E+00-2.40079E-02 1.69812E+00 3.80810E-13-7.32601E-13
 -1       176 1.95240E+01 4.45957E+00-3.28515E-02 2.22648E+00 4.82808E-13-5.45499E-13
 -1       177 2.00138E+01 4.18386E+00-4.72121E-02 2.84671E+00 5.38730E-13-1.81181E-13
 -1       178 2.11357E+01 3.46368E+00-5.97781E-02 3.53665E+00 5.20067E-13 4.98032E-13
 -1       179 2.24201E+01 1.14335E+00-3.36469E-01 3.01477E+00 3.84270E-13 1.40382E-12
 -1       180 2.19726E+01 8.58200E-01 6.88606E-04-1.95911E+00-4.55046E-13 7.37160E-13
 -1       181 2.04480E+01 1.90333E-01-9.93749E-03-7.64127E-01-4.06227E-13 5.12460E-13
 -1       182 1.96726E+01 1.01646E-01 1.35889E-02-2.85603E-01-2.98180E-13 3.36182E-13
 -1       183 1.93328E+01 4.71621E-02 9.98466E-03-6.79177E-02-1.92632E-13 1.42171E-13
 -1       184 1.92032E+01 2.25464E-02 5.14772E-03 3.93421E-02-1.35492E-13 2.41057E-14
 -1       185 1.91897E+01 9.50099E-03 2.42378E-03 9.19235E-02-1.14300E-13-3.59205E-14
 -1       186 1.92383E+01 2.09917E-03 1.12275E-03 1.14251E-01-1.32604E-13-1.25938E-13
 -1       187 1.93173E+01-2.13796E-03 4.89662E-04 1.19110E-01-1.10561E-13-1.84948E-13
 -1       188 1.94080E+01-4.43996E-03 1.55558E-04 1.13927E-01-1.02183E-13-2.38296E-13
 -1       189 1.94993E+01-5.50570E-03-2.94331E-05 1.03317E-01-1.30186E-13-2.45706E-13
 -1       190 1.95849E+01-5.77006E-03-1.28223E-04 9.02559E-02-1.43678E-13-3.95832E-13
 -1       191 1.96616E+01-5.51637E-03-1.71987E-04 7.66799E-02-7.87009E-16-4.33347E-13
 -1       192 1.97283E+01-4.93070E-03-1.78952E-04 6.38521E-02 6.28402E-14-3.97233E-13
 -1       193 1.97853E+01-4.13145E-03-1.60641E-04 5.25965E-02-1.02724E-14-4.18223E-13
 -1       194 1.98338E+01-3.18743E-03-1.24363E-04 4.34630E-02-1.20566E-13-3.68677E-13
 -1       195 1.98758E+01-2.13002E-03-7.45401E-05 3.68493E-02-7.82695E-14-4.58882E-13
 -1       196 1.99136E+01-9.62582E-04-1.36059E-05 3.30903E-02-4.42919E-14-4.85512E-13
 -1       197 1.99501E+01 3.31594E-04 5.72748E-05 3.25244E-02 4.48088E-14-5.34001E-13
 -1       198 1.99885E+01 1.78153E-03 1.37527E-04 3.55359E-02-1.03042E-14-4.71458E-13
 -1       199 2.00326E+01 3.41972E-03 2.26428E-04 4.25765E-02 3.98855E-14-4.84225E-13
 -1       200 2.00864E+01 5.27057E-03 3.22220E-04 5.41578E-02-4.17584E-14-4.51699E-13
 -1       201 2.01546E+01 7.33425E-03 4.20968E-04 7.08080E-02-1.94862E-14-3.83237E-13
 -1       202 2.02421E+01 9.56298E-03 5.15100E-04 9.29758E-02 5.16711E-14-3.32606E-13
 -1       203 2.03542E+01 1.18267E-02 5.91610E-04 1.20861E-01 1.18232E-13-2.93961E-13
 -1       204 2.04957E+01 1.38641E-02 6.30098E-04 1.54142E-01-8.66480E-14-3.44138E-13
 -1       205 2.06705E+01 1.52176E-02 6.01183E-04 1.91559E-01 9.57345E-15-3.36551E-13
 -1       206 2.08806E+01 1.51539E-02 4.66516E-04 2.30332E-01 1.86343E-14-4.20482E-13
 -1       207 2.11239E+01 1.25872E-02 1.82629E-04 2.65390E-01 6.79822E-14-2.84534E-13
 -1       208 2.13925E+01 6.05032E-03-2.88056E-04 2.88501E-01 9.37880E-14-2.31644E-13
 -1       209 2.16696E+01-6.18519E-03-9.55702E-04 2.87547E-01-1.01871E-13-2.59128E-13
 -1       210 2.19268E+01-2.56591E-02-1.77104E-03 2.46518E-01 5.91804E-14-3.63475E-13
 -1       211 2.21218E+01-5.26929E-02-2.59255E-03 1.47337E-01-2.11983E-15-4.57637E-13
 -1       212 2.21999E+01-8.46065E-02-3.17785E-03-2.49425E-02 6.97925E-14-3.81141E-13
 -1       213 2.21004E+01-1.13501E-01-3.23771E-03-2.72177E-01 9.76177E-14-1.94819E-13
 -1       214 2.17722E+01-1.25156E-01-2.56318E-03-5.69227E-01-5.78053E-15-2.84031E-13
 -1       215 2.11993E+01-1.02166E-01-1.19849E-03-8.52412E-01-2.32113E-14-4.03652E-13
 -1       216 2.04301E+01-3.40775E-02 4.27542E-04-1.02372E+00-2.44431E-14-3.78076E-13
 -1       217 1.95939E+01 6.81238E-02 1.81664E-03-9.85063E-01-6.62302E-14-2.75400E-13
 -1       218 1.88799E+01 1.66231E-01 2.69367E-03-6.98078E-01-8.09639E-14-2.54202E-13
 -1       219 1.84696E+01 2.10792E-01 3.29951E-03-2.33212E-01-1.02579E-13-3.56769E-13
 -1       220 1.84457E+01 1.77422E-01 3.46843E-03 2.45853E-01-1.15285E-13-4.03200E-13
 -1       221 1.87492E+01 8.57113E-02 2.95760E-03 5.69735E-01 2.71573E-13-3.10578E-13
 -1       222 1.92144E+01-1.53215E-02 1.69955E-03 6.55122E-01 1.85182E-13-6.44654E-14
 -1       223 1.96587E+01-8.13692E-02 1.88723E-04 5.34900E-01 1.30163E-13-6.90819E-14
 -1       224 1.99605E+01-9.55596E-02-8.76230E-04 3.16403E-01 1.83427E-13-1.00769E-13
 -1       225 2.00899E+01-6.75310E-02-1.42954E-03 1.15190E-01-6.17839E-14-2.49889E-13
 -1       226 2.00877E+01-1.76658E-02-1.17720E-03 6.74637E-03 8.52436E-14-2.76295E-13
 -1       227 2.00311E+01 1.94985E-02 8.85862E-05 2.99700E-03 2.98895E-14-5.12763E-14
 -1       228 2.09642E+01 2.77020E-01-5.13322E-02 1.16480E+00 4.09603E-13 1.19019E-12
 -1       229 1.98695E+01 1.26838E-01 8.31009E-03 4.43106E-01 3.32382E-13 8.91297E-13
 -1       230 1.93632E+01 5.80553E-02 1.27327E-02 1.50083E-01 2.28263E-13 6.28102E-13
 -1       231 1.91536E+01 2.77166E-02 7.62581E-03 1.08308E-02 1.50603E-13 4.63014E-13
 -1       232 1.91038E+01 1.30663E-02 3.82038E-03-5.82869E-02 9.38443E-14 3.40288E-13
 -1       233 1.91395E+01 5.11127E-03 1.90474E-03-9.06845E-02 8.10712E-14 2.48482E-13
 -1       234 1.92185E+01 5.68012E-04 1.00257E-03-1.02401E-01 1.35293E-13 1.88082E-13
 -1       235 1.93159E+01-2.01811E-03 5.42600E-04-1.02166E-01 6.25226E-14 1.61202E-13
 -1       236 1.94172E+01-3.38917E-03 2.80573E-04-9.51913E-02 1.93151E-14 1.02463E-15
 -1       237 1.95140E+01-3.97881E-03 1.21942E-04-8.47661E-02 3.26833E-14 5.41467E-14
 -1       238 1.96016E+01-4.06194E-03 2.68035E-05-7.30184E-02 7.81847E-14-3.95036E-15
 -1       239 1.96782E+01-3.81847E-03-2.56958E-05-6.13311E-02 1.24928E-13-1.00250E-13
 -1       240 1.97436E+01-3.36588E-03-4.84075E-05-5.06013E-02 1.91219E-13-1.87793E-13
 -1       241 1.97988E+01-2.77713E-03-4.97616E-05-4.14145E-02 9.67969E-14-2.54315E-13
 -1       242 1.98454E+01-2.09156E-03-3.52534E-05-3.41711E-02-7.11223E-14-2.88031E-13
 -1       243 1.98858E+01-1.32188E-03-8.27705E-06-2.91830E-02 7.45921E-15-3.04220E-13
 -1       244 1.99227E+01-4.59027E-04 2.93324E-05-2.67506E-02 2.16956E-13-2.68635E-13
 -1       245 1.99595E+01 5.24927E-04 7.68987E-05-2.72268E-02-7.85939E-14-3.21774E-13
 -1       246 2.00001E+01 1.67508E-03 1.34576E-04-3.10725E-02-1.92712E-13-3.28649E-13
 -1       247 2.00488E+01 3.05318E-03 2.03010E-04-3.89081E-02-7.05672E-14-2.32095E-13
 -1       248 2.01113E+01 4.73794E-03 2.82880E-04-5.15627E-02 5.14798E-14-1.73351E-13
 -1       249 2.01941E+01 6.82539E-03 3.74157E-04-7.01216E-02 1.46055E-13-3.46567E-13
 -1       250 2.03051E+01 9.42769E-03 4.74820E-04-9.59700E-02 6.12319E-14-5.84455E-13
 -1       251 2.04540E+01 1.26668E-02 5.78581E-04-1.30819E-01-3.03468E-14-5.91256E-13
 -1       252 2.06525E+01 1.66554E-02 6.70982E-04-1.76686E-01-7.74920E-14-4.05173E-13
 -1       253 2.09143E+01 2.14498E-02 7.23215E-04-2.35764E-01-5.40476E-14-3.64189E-13
 -1       254 2.12546E+01 2.69443E-02 6.83882E-04-3.10053E-01 8.19581E-15-2.85939E-13
 -1       255 2.16897E+01 3.26541E-02 4.72338E-04-4.00499E-01-1.98529E-13-4.41363E-13
 -1       256 2.22337E+01 3.73001E-02-1.38147E-05-5.05219E-01-9.16877E-14-2.42845E-13
 -1       257 2.28935E+01 3.80902E-02-8.48540E-04-6.16126E-01 1.18324E-13-1.95240E-13
 -1       258 2.36592E+01 2.96790E-02-1.94257E-03-7.13216E-01-7.71364E-14-2.29320E-13
 -1       259 2.44893E+01 3.26374E-03-2.78291E-03-7.56392E-01-8.96184E-14-4.49658E-13
 -1       260 2.52893E+01-5.26256E-02-2.18335E-03-6.77855E-01-3.90560E-14-2.72872E-13
 -1       261 2.58934E+01-1.45482E-01 1.39975E-03-3.84899E-01-1.48617E-13-1.46206E-13
 -1       262 2.60644E+01-2.59303E-01 8.09297E-03 2.01948E-01 1.39497E-13-1.88730E-13
 -1       263 2.55526E+01-3.28279E-01 1.28460E-02 1.04772E+00 1.66879E-13-1.78670E-13
 -1       264 2.42545E+01-2.36697E-01 5.78361E-03 1.86414E+00-2.27163E-13-2.24567E-13
 -1       265 2.24444E+01 7.48889E-02-1.85172E-02 2.10119E+00-6.60227E-14 1.85425E-14
 -1       266 2.08718E+01 4.41473E-01-4.30876E-02 1.34009E+00-9.52398E-14 1.92654E-13
 -1       267 2.03491E+01 5.51949E-01-4.52742E-02-1.14310E-01 5.37920E-14 2.00580E-13
 -1       268 2.10511E+01 2.92216E-01-2.11489E-02-1.33120E+00 4.07677E-13-1.15312E-13
 -1       269 2.23152E+01-8.31934E-02 5.29299E-03-1.58705E+00 8.53788E-15-2.65248E-13
 -1       270 2.32857E+01-2.94983E-01 1.54890E-02-1.00051E+00 2.50310E-13-3.01628E-13
 -1       271 2.35217E+01-3.01838E-01 1.10525E-02-1.25905E-01-3.28210E-15-3.94796E-13
 -1       272 2.30465E+01-1.92394E-01 2.89754E-03 5.77134E-01 1.64274E-13-3.01977E-13
 -1       273 2.21436E+01-5.29090E-02-3.47510E-03 9.10903E-01-9.44441E-14-2.80692E-13
 -1       274 2.11611E+01 8.91745E-02-6.68305E-03 8.45399E-01-8.77519E-14-2.91702E-13
 -1       275 2.03807E+01 2.03471E-01-4.28607E-03 4.40543E-01-4.48054E-14-3.54585E-13
 -1       276 2.02657E+01 7.20719E-01 1.61829E-03 7.69031E-01-6.37823E-14 8.52430E-14
 -1       277 2.01840E+01 1.64586E+00 1.00685E-03 1.27348E+00-2.77886E-13-3.45171E-14
 -1       278 2.00724E+01 2.85205E+00-1.36676E-03 1.57802E+00-4.32530E-13-5.79037E-13
 -1       279 1.99272E+01 4.17780E+00-3.69106E-03 1.57770E+00-7.98733E-13-2.24730E-13
 -1       280 1.97699E+01 5.33342E+00-6.04587E-03 1.21284E+00-1.15474E-12-5.82667E-13
 -1       281 1.96573E+01 6.06344E+00-7.00916E-03 5.09213E-01-9.76680E-13 1.76690E-14
 -1       282 1.96517E+01 6.13078E+00-7.12423E-03-3.41872E-01-8.93923E-13 4.41940E-13
 -1       283 1.97578E+01 5.52390E+00-6.32010E-03-1.06964E+00-3.31237E-13 7.45490E-13
 -1       284 1.99201E+01 4.43730E+00-4.43551E-03-1.46743E+00-5.41608E-13 3.94610E-13
 -1       285 2.00659E+01 3.17167E+00-1.70048E-03-1.48730E+00-3.71200E-13-1.98967E-13
 -1       286 2.01493E+01 2.01969E+00 1.13312E-03-1.23130E+00-1.61673E-13-4.02968E-14
 -1       287 2.01690E+01 1.10672E+00 3.00826E-03-8.44289E-01 1.06876E-13 1.84042E-13
 -1       288 2.01414E+01 5.07765E-01 3.73585E-03-4.64410E-01 2.08375E-13 3.93482E-13
 -1       289 2.00850E+01 1.84939E-01 2.25362E-03-1.74755E-01-3.32065E-14 5.45939E-15
 -1       290 2.00820E+01 7.53685E-02 3.11533E-03-5.87985E-02 6.06382E-14-3.47066E-13
 -1       291-9.55673E-01-1.21538E+01-1.05386E+00 1.33029E+00 1.81467E-12-3.55271E-14
 -1       292 3.02933E+00-1.00249E+01-8.97406E-01 3.65746E+00 1.30040E-12-2.88089E-13
 -1       293 1.21439E+01-6.25424E+00-3.91215E-01 6.65413E+00 4.28046E-13-8.55011E-13
 -1       294 2.16094E+01-1.37122E+00-3.77968E-02 7.58066E+00-1.45994E-14-4.58994E-13
 -1       295 3.28423E+01 2.28478E+00 3.93551E-01 7.11615E+00 6.56419E-15-1.17156E-12
 -1       296 4.26706E+01 5.59899E+00 9.01273E-01 6.31457E+00-6.09304E-14-1.17503E-12
 -1       297 4.69269E+01 7.19004E+00 9.88696E-01 2.60460E+00-1.89182E-13-1.34316E-12
 -1       298 4.89270E+01 6.79229E+00 1.14359E+00-7.26775E-01-2.47302E-14-1.52844E-12
 -1       299 4.29166E+01 5.34669E+00 7.47053E-01-3.24732E+00 5.26176E-13-9.92623E-13
 -1       300 3.40454E+01 1.61067E+00 3.02431E-01-4.74424E+00 9.23886E-13-9.76247E-13
 -1       301 2.29819E+01-1.77845E+00-3.90955E-02-6.45789E+00 1.09709E-12-1.05865E-12
 -1       302 1.30565E+01-6.06380E+00-3.24345E-01-6.04120E+00 1.03467E-12-1.16221E-12
 -1       303 3.36428E+00-9.25895E+00-8.12881E-01-3.25486E+00 1.24015E-12-5.05297E-13
 -1       304-6.01237E-01-1.12764E+01-9.25346E-01-1.27072E+00 8.83862E-13-6.64580E-13
 -1       305-1.39381E+00-1.20892E+01-9.93663E-01 8.68508E-01 2.84855E-13-7.05519E-13
 -1       306 2.17726E+00-8.74884E+00-5.62745E-01 4.02872E+00 7.36633E-14-6.39835E-13
 -1       307 7.53087E+00-6.27438E+00-5.84678E-01 5.12670E+00-3.24185E-13-4.85084E-13
 -1       308 1.67874E+01-2.31185E+00-1.88883E-01 7.05649E+00-5.28383E-13-3.45002E-13
 -1       309 2.68193E+01 1.74427E+00 2.14591E-01 7.87010E+00-7.61224E-13-3.50275E-14
 -1       310 3.65974E+01 4.11855E+00 5.03630E-01 6.05425E+00-2.29899E-13-2.30482E-13
 -1       311 4.25896E+01 6.47910E+00 6.11600E-01 2.68051E+00-2.12094E-13-6.36713E-14
 -1       312 4.85431E+01 6.93768E+00 1.05965E+00-1.02494E-02-5.95912E-13 1.86892E-13
 -1       313 4.63777E+01 6.61185E+00 1.03248E+00-4.16818E+00-4.07632E-13 3.92797E-13
 -1       314 3.84697E+01 4.73330E+00 6.05787E-01-6.11154E+00-1.91252E-13 4.79033E-13
 -1       315 2.94019E+01 1.92907E+00 3.20662E-01-7.80112E+00 5.35683E-15 7.67608E-13
 -1       316 1.87114E+01-1.57858E+00-1.11923E-01-7.52014E+00 1.44551E-13 3.17690E-13
 -1       317 1.03004E+01-6.33421E+00-4.64038E-01-6.24521E+00 6.90004E-13 5.01349E-13
 -1       318 2.85533E+00-9.86850E+00-8.28795E-01-3.94086E+00 1.51038E-12 5.09690E-13
 -1       319-9.92892E-01-1.26263E+01-1.09611E+00-1.27010E+00 1.96050E-12-2.28650E-13
 -1       320 2.01367E+01 3.00088E+00-2.19264E-02-2.09701E+00-4.97383E-13-4.24698E-13
 -1       321 2.07570E+01 2.20820E+00-1.76806E-02-2.36416E+00-5.55213E-13-1.06928E-13
 -1       322 1.95832E+01 3.69170E+00-1.56133E-02-1.31709E+00-2.99814E-13-6.86905E-13
 -1       323 1.94599E+01 3.84856E+00-1.37306E-02-9.23610E-01-1.85150E-13-7.27321E-13
 -1       324 1.93909E+01 3.93940E+00-1.27182E-02-5.43863E-01-6.38859E-14-7.38314E-13
 -1       325 1.93604E+01 3.98073E+00-1.22949E-02-1.73235E-01 4.00664E-14-7.64716E-13
 -1       326 1.93617E+01 3.97913E+00-1.23120E-02 1.94403E-01 1.22695E-13-7.55041E-13
 -1       327 1.93951E+01 3.93425E+00-1.27590E-02 5.65352E-01 2.05976E-13-7.54582E-13
 -1       328 1.94660E+01 3.84096E+00-1.37694E-02 9.39236E-01 3.03897E-13-6.97258E-13
 -1       329 1.95931E+01 3.67867E+00-1.56573E-02 1.33326E+00 3.94602E-13-5.83638E-13
 -1       330 1.98088E+01 3.41000E+00-1.88326E-02 1.73857E+00 5.18630E-13-4.56929E-13
 -1       331 2.01795E+01 2.95524E+00-2.29377E-02 2.12711E+00 5.94104E-13-2.44807E-13
 -1       332 2.07495E+01 2.12943E+00-3.04677E-02 2.32206E+00 6.08315E-13 1.82850E-13
 -1       333 2.10961E+01 1.18772E+00-2.49212E-02 1.92183E+00 5.47916E-13 5.73748E-13
 -1       334 2.03924E+01 4.89266E-01 8.33485E-03 9.27249E-01 4.56029E-13 4.07153E-13
 -1       335 2.04591E+01 6.75024E-01 1.25469E-02-1.02479E+00-4.43321E-13-5.20657E-14
 -1       336 2.00372E+01 3.36973E-01 7.10302E-03-4.57738E-01-3.31646E-13-8.88222E-14
 -1       337 1.97829E+01 1.76679E-01 4.10715E-03-1.48760E-01-2.35241E-13-1.22427E-13
 -1       338 1.96475E+01 9.05435E-02 1.89736E-03 2.23192E-02-1.73406E-13-2.05770E-13
 -1       339 1.95921E+01 4.13182E-02 7.92647E-04 1.13387E-01-1.25197E-13-2.39951E-13
 -1       340 1.95867E+01 1.22778E-02 2.69212E-04 1.56464E-01-1.30821E-13-2.07681E-13
 -1       341 1.96105E+01-4.73961E-03 7.18852E-06 1.70454E-01-9.94172E-14-2.03943E-13
 -1       342 1.96498E+01-1.41838E-02-1.29616E-04 1.67137E-01-1.17698E-13-2.36629E-13
 -1       343 1.96955E+01-1.87128E-02-1.96924E-04 1.54131E-01-1.98015E-13-2.02560E-13
 -1       344 1.97421E+01-2.00156E-02-2.21094E-04 1.36471E-01-1.16091E-13-2.03850E-13
 -1       345 1.97864E+01-1.91992E-02-2.17251E-04 1.17506E-01 1.90204E-14-2.89819E-13
 -1       346 1.98270E+01-1.69882E-02-1.94965E-04 9.94772E-02 2.12035E-14-3.21692E-13
 -1       347 1.98635E+01-1.38389E-02-1.60303E-04 8.38963E-02-3.70901E-14-3.07717E-13
 -1       348 1.98965E+01-1.00117E-02-1.16861E-04 7.18251E-02-1.67408E-13-3.14850E-13
 -1       349 1.99270E+01-5.62151E-03-6.64436E-05 6.40736E-02-8.81600E-14-3.33907E-13
 -1       350 1.99567E+01-6.77945E-04-9.60103E-06 6.13471E-02-5.38323E-14-3.12432E-13
 -1       351 1.99875E+01 4.87895E-03 5.38931E-05 6.43465E-02 5.31065E-14-4.04232E-13
 -1       352 2.00217E+01 1.11425E-02 1.24555E-04 7.38281E-02 3.17427E-14-3.66990E-13
 -1       353 2.00621E+01 1.81961E-02 2.02619E-04 9.06171E-02 3.88598E-14-2.30490E-13
 -1       354 2.01116E+01 2.60567E-02 2.87296E-04 1.15565E-01 1.52782E-14-1.78913E-13
 -1       355 2.01735E+01 3.45961E-02 3.75760E-04 1.49438E-01 2.65676E-14-1.80786E-13
 -1       356 2.02512E+01 4.34294E-02 4.61781E-04 1.92696E-01 1.21471E-14-2.56290E-13
 -1       357 2.03482E+01 5.17601E-02 5.33933E-04 2.45149E-01-6.44824E-15-3.82781E-13
 -1       358 2.04677E+01 5.81735E-02 5.73459E-04 3.05424E-01 8.60850E-14-3.10771E-13
 -1       359 2.06121E+01 6.03825E-02 5.52192E-04 3.70212E-01 7.40751E-14-2.75890E-13
 -1       360 2.07824E+01 5.49633E-02 4.31538E-04 4.33268E-01 1.10411E-13-1.89602E-13
 -1       361 2.09776E+01 3.71907E-02 1.64567E-04 4.84223E-01 1.25877E-13-2.05413E-13
 -1       362 2.11931E+01 1.22327E-03-2.95376E-04 5.07406E-01-4.69822E-14-2.06757E-13
 -1       363 2.14196E+01-5.88880E-02-9.74821E-04 4.81224E-01-1.07553E-13-1.14835E-13
 -1       364 2.16415E+01-1.46631E-01-1.84618E-03 3.79179E-01 2.26687E-14-4.08831E-14
 -1       365 2.18343E+01-2.58133E-01-2.78498E-03 1.74355E-01 6.21799E-14 1.74997E-14
 -1       366 2.19633E+01-3.74936E-01-3.54019E-03-1.50247E-01 1.21074E-13-9.25871E-14
 -1       367 2.19836E+01-4.57195E-01-3.75909E-03-5.83851E-01-1.79876E-14 3.73055E-15
 -1       368 2.18472E+01-4.45225E-01-3.07142E-03-1.06519E+00-1.00397E-13-4.69632E-14
 -1       369 2.15244E+01-2.81362E-01-1.29380E-03-1.46854E+00-3.20471E-14-6.57313E-14
 -1       370 2.10392E+01 4.21602E-02 9.73394E-04-1.62370E+00 2.35314E-14-4.97956E-14
 -1       371 2.04982E+01 4.37475E-01 2.95608E-03-1.39402E+00-2.18137E-14-8.08981E-14
 -1       372 2.00772E+01 7.27255E-01 4.80588E-03-7.83486E-01-1.36318E-13 1.70168E-13
 -1       373 1.99234E+01 7.51489E-01 5.96153E-03 1.88670E-03-1.00921E-13 2.35997E-13
 -1       374 2.00490E+01 4.99753E-01 5.21965E-03 6.58619E-01 5.98428E-14 3.73955E-13
 -1       375 2.03261E+01 1.16830E-01 2.34279E-03 9.62946E-01 2.75584E-13-3.58893E-14
 -1       376 2.05801E+01-2.05482E-01-7.75186E-04 8.88105E-01 2.13687E-13-3.69239E-14
 -1       377 2.06939E+01-3.51668E-01-2.74135E-03 5.74458E-01 9.18048E-14 9.67878E-15
 -1       378 2.06426E+01-3.13057E-01-1.86698E-03 2.15747E-01-3.53063E-13-1.49126E-13
 -1       379 2.04687E+01-1.64846E-01-1.92120E-03-3.98151E-02-2.34225E-13-3.61984E-13
 -1       380 2.02611E+01-9.72181E-03 8.70315E-04-1.08117E-01 1.21999E-13-2.37100E-13
 -1       381 1.98909E+01 2.28441E-01 1.07917E-02 3.98639E-01 3.60563E-13 2.96658E-13
 -1       382 1.96023E+01 1.15306E-01 6.16876E-03 1.20023E-01 2.23391E-13 1.85841E-13
 -1       383 1.94676E+01 5.76018E-02 2.80009E-03-2.87517E-02 1.63639E-13 8.64505E-14
 -1       384 1.94277E+01 2.56769E-02 1.17354E-03-1.05529E-01 1.18204E-13-1.42453E-14
 -1       385 1.94433E+01 7.21047E-03 4.46916E-04-1.40589E-01 1.28768E-13-5.24845E-14
 -1       386 1.94892E+01-3.50590E-03 9.87667E-05-1.50910E-01 1.00963E-13-1.32885E-15
 -1       387 1.95492E+01-9.42022E-03-8.24062E-05-1.46710E-01 1.15829E-13-2.77407E-14
 -1       388 1.96135E+01-1.22482E-02-1.76887E-04-1.34476E-01 2.29055E-14-1.27730E-13
 -1       389 1.96760E+01-1.30660E-02-2.18395E-04-1.18431E-01 1.15239E-13-1.46348E-13
 -1       390 1.97336E+01-1.25735E-02-2.25159E-04-1.01360E-01 1.40303E-13-1.80658E-13
 -1       391 1.97850E+01-1.12282E-02-2.08599E-04-8.51043E-02 2.40399E-13-1.79902E-13
 -1       392 1.98299E+01-9.31765E-03-1.76046E-04-7.08909E-02 9.56593E-14-1.50557E-13
 -1       393 1.98693E+01-7.00308E-03-1.31846E-04-5.95721E-02-1.66200E-14-1.72087E-13
 -1       394 1.99047E+01-4.34727E-03-7.80501E-05-5.18017E-02 4.63345E-14-1.99302E-13
 -1       395 1.99380E+01-1.33359E-03-1.48727E-05-4.81741E-02 1.39923E-13-1.99812E-13
 -1       396 1.99718E+01 2.12172E-03 5.89808E-05-4.93364E-02 2.25794E-14-9.12345E-14
 -1       397 2.00091E+01 6.16188E-03 1.46098E-04-5.60845E-02-1.54697E-13-1.33313E-13
 -1       398 2.00533E+01 1.09854E-02 2.50201E-04-6.94457E-02-9.65995E-14-1.75852E-13
 -1       399 2.01088E+01 1.68442E-02 3.75948E-04-9.07550E-02 3.43795E-14-2.56105E-13
 -1       400 2.01807E+01 2.40403E-02 5.28588E-04-1.21722E-01 2.57031E-13-2.76101E-13
 -1       401 2.02748E+01 3.29163E-02 7.13201E-04-1.64482E-01 1.63669E-13-4.28994E-13
 -1       402 2.03983E+01 4.38255E-02 9.33044E-04-2.21614E-01-9.79780E-14-4.86433E-13
 -1       403 2.05593E+01 5.70583E-02 1.18611E-03-2.96073E-01-1.32517E-13-3.53761E-13
 -1       404 2.07671E+01 7.26754E-02 1.45853E-03-3.90950E-01-6.75570E-14-2.97957E-13
 -1       405 2.10319E+01 9.01589E-02 1.71287E-03-5.08871E-01 6.86581E-14-1.29050E-13
 -1       406 2.13637E+01 1.07729E-01 1.87022E-03-6.50709E-01-2.19028E-14-2.41928E-13
 -1       407 2.17714E+01 1.21104E-01 1.78857E-03-8.13078E-01-1.95675E-13-2.27603E-13
 -1       408 2.22604E+01 1.21460E-01 1.25046E-03-9.83801E-01-4.74705E-14-5.86611E-14
 -1       409 2.28292E+01 9.26566E-02-1.25502E-05-1.13452E+00 3.21606E-14 4.13905E-15
 -1       410 2.34646E+01 9.05959E-03-2.21562E-03-1.21041E+00 3.94315E-14-1.82844E-13
 -1       411 2.41344E+01-1.61224E-01-5.18319E-03-1.12051E+00-2.25972E-13-2.93554E-13
 -1       412 2.47779E+01-4.38715E-01-8.06652E-03-7.39849E-01-1.07001E-13-2.68565E-13
 -1       413 2.52868E+01-7.79636E-01-9.44629E-03 4.95857E-02 9.12985E-14-6.50584E-14
 -1       414 2.54871E+01-1.00254E+00-8.84466E-03 1.23505E+00 1.61117E-13 1.85602E-14
 -1       415 2.51641E+01-7.78057E-01-1.22469E-02 2.47661E+00-1.33019E-13 1.19155E-13
 -1       416 2.42476E+01 1.20679E-01-2.28460E-02 3.01200E+00-2.52185E-13-3.22338E-14
 -1       417 2.31404E+01 1.28243E+00-3.18215E-02 2.11559E+00-2.27525E-13 1.05580E-14
 -1       418 2.26261E+01 1.71211E+00-3.14613E-02 7.46197E-02 2.54137E-13-1.90328E-13
 -1       419 2.29969E+01 9.82176E-01-2.15044E-02-1.74613E+00 3.13439E-13-1.48213E-13
 -1       420 2.37021E+01-2.08104E-01-1.41537E-02-2.16281E+00 1.50941E-13-4.87995E-14
 -1       421 2.40066E+01-9.02130E-01-9.08141E-03-1.31900E+00 1.69803E-13 4.63908E-14
 -1       422 2.37181E+01-9.52367E-01-1.01705E-02-4.74635E-02 2.62112E-13 4.49690E-14
 -1       423 2.29999E+01-6.19369E-01-9.51134E-03 9.72186E-01 6.61563E-14-2.35675E-13
 -1       424 2.21010E+01-1.80417E-01-4.70785E-03 1.46468E+00-1.33979E-14 1.57440E-13
 -1       425 2.12084E+01 2.33330E-01-1.12514E-03 1.40706E+00-1.38263E-14-3.03017E-14
 -1       426 2.06975E+01 4.98558E-01 1.30757E-03 1.16789E+00-1.03809E-13-6.24149E-14
 -1       427 2.00188E+01 2.25055E+00-6.45461E-04 2.59970E+00-2.04714E-13-4.76028E-13
 -1       428 2.04748E+01 1.40030E+00 4.00713E-03 2.32264E+00-3.30876E-13-3.36522E-13
 -1       429 2.06306E+01 9.39534E-01 4.10198E-03 1.79050E+00-2.85181E-13-1.44821E-13
 -1       430 1.94330E+01 3.16462E+00-5.14940E-03 2.34528E+00-3.14142E-13-9.42686E-13
 -1       431 1.88796E+01 3.93695E+00-7.92412E-03 1.46576E+00-3.00890E-13 2.05304E-13
 -1       432 1.86337E+01 4.26558E+00-8.71983E-03 1.31141E-01-2.96755E-13 1.84254E-13
 -1       433 1.88377E+01 4.00599E+00-8.00986E-03-1.23126E+00-3.43048E-13 8.29392E-13
 -1       434 1.93789E+01 3.26683E+00-5.51475E-03-2.17439E+00-4.34180E-13 4.07318E-13
 -1       435 1.99872E+01 2.32344E+00-1.78784E-03-2.48416E+00-5.21346E-13 1.10502E-14
 -1       436 2.04243E+01 1.45715E+00 2.12500E-03-2.24499E+00-1.92428E-13 1.21045E-13
 -1       437 2.06157E+01 7.87570E-01 4.07838E-03-1.68498E+00 1.58002E-13 5.83555E-13
 -1       438 2.05991E+01 3.58985E-01 5.42659E-03-1.05254E+00 3.44199E-13 2.41171E-13
 -1       439 2.04398E+01 1.37070E-01 4.69188E-03-5.12157E-01 4.69167E-14-6.84153E-15
 -1       440 1.13235E+01-6.41644E+00-1.47771E-02 7.49752E+00 4.06869E-13-1.39364E-12
 -1       441 1.84886E+00-4.37402E+00 2.40615E-02-1.38277E-01 8.32409E-13-2.63178E-13
 -1       442 4.55080E+00-5.89406E+00-6.36544E-02 5.16306E+00 7.62640E-13-7.52565E-13
 -1       443 2.14675E+01-5.98682E+00-3.08458E-02 6.81148E+00 6.22696E-14-6.33937E-13
 -1       444 2.93138E+01-3.55390E+00 2.05923E-04 4.25508E+00-1.23818E-13-1.01238E-12
 -1       445 1.97904E+01 3.43326E+00-1.86764E-02-1.71981E+00-4.16301E-13-6.19162E-13
 -1       446 3.62757E+01 5.76417E+00 2.73540E-02-1.54059E-01 1.28980E-13-9.98701E-13
 -1       447 3.62805E+01 8.21515E+00 2.46989E-02 6.59101E-01-9.01501E-14-9.54911E-13
 -1       448 3.62345E+01 6.68336E+00-3.36552E-03 1.54347E+00-6.78624E-15-1.10280E-12
 -1       449 3.45083E+01 1.97806E+00-1.74104E-02 1.15672E+00 6.32286E-13-8.00401E-13
 -1       450 2.96568E+01-3.79537E+00-4.85726E-02-1.97233E+00 6.92911E-13-6.08860E-13
 -1       451 2.30226E+01-6.03008E+00 7.37702E-04-5.03780E+00 5.64451E-13-6.29323E-13
 -1       452 1.16512E+01-6.16403E+00-5.56816E-04-6.62163E+00 6.94472E-13-5.98036E-13
 -1       453 5.48864E+00-5.38077E+00 2.38884E-02-5.02628E+00 5.71890E-13-7.11320E-13
 -1       454 1.10312E+00-5.01900E+00-3.88372E-02-6.36800E-01 3.20518E-13-1.10029E-12
 -1       455 2.52394E+00-4.68417E+00 1.76027E-02 3.46397E+00 2.05676E-13-7.17468E-13
 -1       456 9.43927E+00-5.85869E+00-2.58740E-02 6.97708E+00 3.03368E-14-4.21302E-13
 -1       457 1.64774E+01-5.97554E+00-4.75289E-02 7.27551E+00 9.10938E-14-1.87100E-13
 -1       458 2.60316E+01-4.42751E+00 1.80888E-02 4.84764E+00-2.32259E-13 3.27793E-14
 -1       459 3.07763E+01-1.35281E+00-3.84762E-02 2.19554E+00-4.84848E-13-6.01047E-14
 -1       460 3.45329E+01 3.86758E+00-1.28831E-02-1.39395E-01-2.35589E-13-4.81226E-13
 -1       461 3.50814E+01 8.03720E+00-4.73853E-02-7.72125E-01-6.62997E-13 4.67265E-14
 -1       462 3.60217E+01 8.27561E+00-3.46232E-03-5.31910E-02-6.65995E-13 1.24588E-13
 -1       463 3.61401E+01 5.32768E+00 6.70473E-02-5.45002E-01-3.00246E-13 3.90854E-13
 -1       464 3.26280E+01-2.07802E-01 2.45893E-04-1.95420E+00 2.21069E-14 6.27262E-13
 -1       465 2.71131E+01-3.95996E+00 3.97250E-03-5.34035E+00 8.73746E-14 8.62213E-13
 -1       466 2.01167E+01-6.03310E+00-3.50416E-03-7.34544E+00 3.60212E-13 4.86042E-13
 -1       467 1.08019E+01-6.40914E+00-2.89275E-02-7.59497E+00 7.68621E-13 9.50282E-13
 -1       468 3.62328E+00-5.23868E+00-1.46361E-02-4.33244E+00 8.14092E-13 7.00190E-13
 -1       469 3.48394E+01 1.66595E+00 5.03577E-02 9.29871E-01 7.10196E-14-8.81711E-13
 -1       470 1.85270E+01-6.53729E+00 4.39661E-02 7.54818E+00 1.34129E-13-1.08461E-12
 -1       471 7.70425E+00-3.85215E+00 1.17963E-01 6.06945E+00 2.85216E-13-4.67001E-13
 -1       472 1.96249E+01-6.49021E+00 7.69688E-02-5.98512E+00 3.70551E-13-5.38871E-13
 -1       473 2.03736E+01 8.31929E-01 4.02813E-03 9.71864E-01 4.61881E-13 1.20303E-15
 -1       474 1.97325E+01 3.10388E+00-5.42280E-03-6.33990E-01-1.13866E-13-6.45637E-13
 -1       475 1.98284E+01 2.93105E+00-6.00955E-03-9.50310E-01-2.18752E-13-6.15927E-13
 -1       476 1.96648E+01 3.22661E+00-5.02672E-03 8.82975E-03 7.82843E-14-6.92383E-13
 -1       477 1.96833E+01 3.19357E+00-5.10499E-03 3.30455E-01 1.61317E-13-6.96172E-13
 -1       478 1.97370E+01 3.09680E+00-5.43144E-03 6.45815E-01 2.43560E-13-6.66724E-13
 -1       479 1.98358E+01 2.91890E+00-5.97495E-03 9.61357E-01 3.61586E-13-5.69587E-13
 -1       480 1.99915E+01 2.63380E+00-6.52802E-03 1.25671E+00 4.45355E-13-4.51291E-13
 -1       481 2.02335E+01 2.18786E+00-5.69149E-03 1.50143E+00 5.24886E-13-3.36063E-13
 -1       482 2.01120E+01 4.53461E-01 5.06411E-03 4.64079E-01 3.52443E-13-3.95787E-14
 -1       483 2.03404E+01 9.71640E-01 2.68459E-03-9.36502E-01-4.00650E-13-2.60271E-13
 -1       484 2.03906E+01 1.75514E+00-5.13843E-03-1.52231E+00-4.88268E-13-3.36029E-13
 -1       485 3.08705E+01-2.79342E+00-9.55282E-02 1.68429E-01-3.32113E-15-5.24830E-13
 -1       486 2.01682E+01 5.47663E-01 2.40046E-03-4.65862E-01-3.07048E-13-2.68267E-13
 -1       487 2.00221E+01 3.06995E-01 1.33316E-03-1.66679E-01-2.55300E-13-2.52842E-13
 -1       488 1.99226E+01 1.64143E-01 6.53538E-04 1.43081E-02-1.59448E-13-2.46208E-13
 -1       489 1.98646E+01 7.70954E-02 3.13039E-04 1.16773E-01-1.08166E-13-2.52028E-13
 -1       490 1.98376E+01 2.38237E-02 1.41421E-04 1.68094E-01-1.53144E-13-2.66336E-13
 -1       491 1.98316E+01-8.01533E-03 4.69762E-05 1.86798E-01-9.97827E-14-2.76556E-13
 -1       492 1.98389E+01-2.58283E-02-7.75835E-06 1.85461E-01-1.36784E-13-1.89974E-13
 -1       493 1.98537E+01-3.43181E-02-3.82929E-05 1.72666E-01-1.40038E-13-1.89717E-13
 -1       494 1.98722E+01-3.65807E-02-5.26366E-05 1.54288E-01-7.99495E-14-1.37586E-13
 -1       495 1.98922E+01-3.46789E-02-5.57916E-05 1.34341E-01-9.80931E-15-2.01750E-13
 -1       496 1.99122E+01-2.99659E-02-5.10248E-05 1.15582E-01-3.31773E-14-3.14712E-13
 -1       497 1.99317E+01-2.32841E-02-4.03916E-05 9.99312E-02-1.51836E-13-2.91684E-13
 -1       498 1.99509E+01-1.50989E-02-2.50730E-05 8.87928E-02-1.69870E-13-1.61814E-13
 -1       499 1.99701E+01-5.59971E-03-5.56456E-06 8.32869E-02-1.14922E-13-1.75715E-13
 -1       500 1.99902E+01 5.21730E-03 1.81252E-05 8.44168E-02-3.71647E-14-1.52666E-13
 -1       501 2.00123E+01 1.74713E-02 4.62522E-05 9.31790E-02 5.72206E-14-1.40207E-13
 -1       502 2.00379E+01 3.13132E-02 7.91326E-05 1.10618E-01 3.65775E-14-2.22512E-13
 -1       503 2.00685E+01 4.68230E-02 1.16852E-04 1.37820E-01 1.12051E-13-2.22055E-13
 -1       504 2.01060E+01 6.38750E-02 1.58827E-04 1.75825E-01-3.65035E-15-1.42222E-13
 -1       505 2.01525E+01 8.19523E-02 2.03187E-04 2.25454E-01 5.63654E-14-1.03694E-13
 -1       506 2.02101E+01 9.98903E-02 2.45866E-04 2.86993E-01-7.26241E-14-1.00425E-13
 -1       507 2.02814E+01 1.15535E-01 2.79347E-04 3.59725E-01 1.31464E-14-1.78732E-13
 -1       508 2.03692E+01 1.25309E-01 2.91032E-04 4.41234E-01 7.97925E-14-8.80176E-14
 -1       509 2.04766E+01 1.23720E-01 2.61436E-04 5.26481E-01 7.09941E-14-2.77234E-13
 -1       510 2.06071E+01 1.02928E-01 1.62849E-04 6.06617E-01 9.07125E-14-2.81668E-13
 -1       511 2.07647E+01 5.26642E-02-4.05858E-05 6.67620E-01 6.73448E-14-3.17165E-13
 -1       512 2.09542E+01-3.89027E-02-3.87775E-04 6.89000E-01-4.45270E-14-1.95563E-13
 -1       513 2.11796E+01-1.82281E-01-8.99991E-04 6.43146E-01 8.43487E-14-1.03369E-13
 -1       514 2.14420E+01-3.80226E-01-1.54030E-03 4.96554E-01 1.35172E-13-2.60633E-14
 -1       515 2.17336E+01-6.16403E-01-2.15184E-03 2.15235E-01 2.04058E-15 8.76998E-14
 -1       516 2.20278E+01-8.39869E-01-2.37850E-03-2.22098E-01 1.63788E-13 2.37827E-13
 -1       517 2.22683E+01-9.53004E-01-1.77453E-03-7.98734E-01-5.28074E-14 3.60766E-13
 -1       518 2.23687E+01-8.22541E-01 4.69617E-04-1.42347E+00-1.38746E-13 2.99627E-13
 -1       519 2.22483E+01-3.48518E-01 3.33511E-03-1.90400E+00-6.75478E-14 2.92918E-13
 -1       520 2.18986E+01 4.23426E-01 2.45646E-03-1.98226E+00 2.91902E-14 3.19299E-13
 -1       521 2.14708E+01 1.21585E+00 3.67029E-04-1.48715E+00-6.72047E-14 2.75875E-13
 -1       522 2.12090E+01 1.58486E+00-5.21763E-03-5.09381E-01-9.69422E-14 4.55785E-13
 -1       523 2.12720E+01 1.32338E+00-3.03219E-03 5.07010E-01-5.08349E-14 3.68604E-13
 -1       524 2.15435E+01 5.94025E-01-1.92616E-03 1.11480E+00-1.37244E-13 1.98944E-13
 -1       525 2.17739E+01-1.78930E-01-7.56251E-04 1.14514E+00 8.27436E-14-8.30878E-14
 -1       526 2.17824E+01-6.55067E-01-2.16968E-04 7.52366E-01-5.13478E-15-2.49139E-13
 -1       527 2.15247E+01-7.10202E-01 1.87950E-03 2.22192E-01-8.24572E-14-3.35039E-13
 -1       528 2.11256E+01-5.06576E-01-5.49428E-04-2.05073E-01-2.54083E-13-1.06349E-13
 -1       529 1.10935E+01-3.76705E+00 1.73393E-01 6.64859E+00 3.18419E-13-1.43307E-12
 -1       530 1.98094E+01 1.28990E-01 1.01603E-03-1.94985E-02 1.99927E-13-1.25203E-13
 -1       531 1.97515E+01 5.94064E-02 3.64374E-04-1.17884E-01 1.54704E-13-1.93192E-13
 -1       532 1.97326E+01 1.76396E-02 8.24714E-05-1.65933E-01 1.11057E-13-2.09138E-13
 -1       533 1.97384E+01-7.05590E-03-5.35780E-05-1.82521E-01 6.57361E-14-2.01704E-13
 -1       534 1.97586E+01-2.07949E-02-1.22104E-04-1.80054E-01 1.23305E-13-1.53391E-13
 -1       535 1.97862E+01-2.73373E-02-1.52892E-04-1.66792E-01 1.16208E-13-2.08200E-13
 -1       536 1.98165E+01-2.91159E-02-1.59669E-04-1.48298E-01 1.60072E-13-1.32805E-13
 -1       537 1.98467E+01-2.77351E-02-1.50562E-04-1.28331E-01 1.71814E-13-1.84331E-13
 -1       538 1.98756E+01-2.42422E-02-1.30919E-04-1.09447E-01 1.39353E-13-1.98777E-13
 -1       539 1.99025E+01-1.92822E-02-1.04037E-04-9.34133E-02 1.31153E-14-1.66989E-13
 -1       540 1.99279E+01-1.31960E-02-7.16775E-05-8.15197E-02-3.28772E-14-1.70092E-13
 -1       541 1.99525E+01-6.08744E-03-3.43442E-05-7.48174E-02 8.85742E-14-1.94454E-13
 -1       542 1.99775E+01 2.13256E-03 8.43773E-06-7.43033E-02 2.29671E-14-9.36925E-15
 -1       543 2.00047E+01 1.17153E-02 5.79656E-05-8.10694E-02-6.65619E-14 8.71524E-15
 -1       544 2.00359E+01 2.30535E-02 1.16278E-04-9.64262E-02-5.84378E-14-6.05322E-14
 -1       545 2.00736E+01 3.66672E-02 1.86055E-04-1.22004E-01 8.27127E-14-1.50025E-13
 -1       546 2.01204E+01 5.31891E-02 2.70497E-04-1.59837E-01 1.29957E-13-3.14083E-13
 -1       547 2.01795E+01 7.33395E-02 3.73082E-04-2.12417E-01 2.12536E-13-2.23943E-13
 -1       548 2.02543E+01 9.78675E-02 4.97018E-04-2.82715E-01 2.97298E-15-1.12124E-13
 -1       549 2.03485E+01 1.27420E-01 6.44007E-04-3.74113E-01-1.38865E-13-2.03787E-13
 -1       550 2.04660E+01 1.62258E-01 8.11730E-04-4.90191E-01-1.53835E-13-2.78961E-13
 -1       551 2.06108E+01 2.01685E-01 9.89011E-04-6.34228E-01-4.90709E-14-3.56654E-13
 -1       552 2.07868E+01 2.42952E-01 1.14743E-03-8.08189E-01 7.06190E-14-2.47913E-13
 -1       553 2.09982E+01 2.79276E-01 1.22879E-03-1.01085E+00-1.72936E-13-1.60026E-13
 -1       554 2.12505E+01 2.96547E-01 1.13109E-03-1.23448E+00-2.15088E-13-3.67888E-13
 -1       555 2.15529E+01 2.68471E-01 6.99600E-04-1.45943E+00-1.76393E-14-2.46293E-13
 -1       556 2.19242E+01 1.51081E-01-2.78526E-04-1.64585E+00 1.95818E-14-1.35450E-13
 -1       557 2.24000E+01-1.18469E-01-2.08255E-03-1.72171E+00-1.81144E-13 2.71060E-13
 -1       558 2.30363E+01-6.03809E-01-4.53352E-03-1.57303E+00-1.29703E-13 2.73460E-13
 -1       559 2.39010E+01-1.31782E+00-7.07203E-03-1.03721E+00 1.44048E-14 7.18422E-14
 -1       560 2.49898E+01-2.06128E+00-8.24771E-03 4.93124E-02 7.14899E-14-1.30362E-13
 -1       561 2.60811E+01-2.28650E+00-1.49622E-02 1.68276E+00 1.23534E-14 1.42392E-13
 -1       562 2.66281E+01-1.07592E+00-6.25994E-02 3.28830E+00-2.03037E-13 6.98434E-14
 -1       563 2.64104E+01 1.49975E+00-7.06229E-02 3.53892E+00-1.46803E-13-1.42967E-13
 -1       564 2.55167E+01 3.84387E+00-1.67040E-01 1.56100E+00-3.97044E-14-3.01984E-13
 -1       565 2.58327E+01 3.05913E+00-8.70912E-02-1.29957E+00 2.28543E-13 6.25888E-14
 -1       566 2.59592E+01 4.99403E-01-8.35475E-02-2.64025E+00 3.07140E-13 4.24391E-14
 -1       567 2.59025E+01-1.68462E+00-3.10112E-02-1.69672E+00 2.37344E-13 5.78175E-14
 -1       568 2.48874E+01-2.29050E+00-1.19572E-02-2.38479E-02 2.39251E-13 4.32954E-14
 -1       569 2.35582E+01-1.73293E+00-7.23666E-03 1.39157E+00 6.14137E-14 2.83635E-13
 -1       570 2.23686E+01-7.93929E-01-5.03563E-04 2.14788E+00 1.18863E-13 1.71325E-13
 -1       571 2.14083E+01 1.26731E-01 8.93961E-04 2.26691E+00 8.90136E-14-8.92794E-14
 -1       572 1.82543E+01 2.19704E+00-7.75469E-05 2.67641E+00-2.41790E-14-4.98578E-13
 -1       573 1.72881E+01 2.84563E+00 2.02405E-03 1.13789E+00-1.94621E-13 1.43364E-13
 -1       574 2.06203E+01 6.33503E-01 9.08810E-04 3.13473E+00-3.15143E-14-5.32119E-13
 -1       575 1.95368E+01 1.33959E+00-1.64648E-03 3.31758E+00 5.00170E-15-9.04657E-13
 -1       576 1.72296E+01 2.86975E+00 2.22116E-03-8.36153E-01-2.81268E-13 4.43355E-13
 -1       577 1.81113E+01 2.24180E+00 1.09444E-03-2.47147E+00-3.15678E-13 7.97872E-13
 -1       578 1.94260E+01 1.30547E+00 8.44853E-04-3.23065E+00-3.49252E-13 9.36867E-14
 -1       579 2.05347E+01 4.87970E-01 1.75041E-03-3.11248E+00-1.52110E-13 2.35247E-13
 -1       580 2.11636E+01-3.88552E-02 2.50432E-03-2.43624E+00 2.96412E-13 4.18419E-13
 -1       581 2.12894E+01-2.57651E-01 1.82993E-03-1.59631E+00 2.99160E-13 3.87092E-13
 -1       582 2.10451E+01-2.57210E-01-5.68605E-04-8.39199E-01-5.99074E-14 3.23993E-14
 -1       583 2.67387E+01-6.04909E+00 3.00929E-03 4.26235E+00-5.91749E-14-8.14855E-13
 -1       584 1.99245E+01 2.46373E-01 2.46506E-03 1.58810E-01 2.52108E-13-8.23009E-14
 -1       585 6.26359E+00-2.08840E+00 1.85164E-01 3.30734E+00 3.67945E-13-6.30579E-13
 -1       586 1.90421E+01-5.95279E+00 1.04772E-01-7.51238E+00 2.36255E-13 7.65919E-13
 -1       587 5.78059E+00-1.97185E+00 1.84533E-01-2.62192E+00 2.95076E-13 3.27793E-13
 -1       588 2.93247E+01-3.69462E+00-6.04898E-02-2.17470E+00 7.77763E-14 7.51253E-13
 -1       589 3.05684E+01 1.06771E-01-1.07247E-01-1.23452E+00-1.29143E-13-3.93387E-13
 -1       590 3.06057E+01 3.47026E+00-1.46156E-01 3.36704E+00 7.91728E-14-6.50237E-13
 -1       591 1.96805E+01 3.19797E+00-5.11716E-03-3.12875E-01-9.48301E-15-6.67930E-13
 -1       592 3.05833E+01 6.13503E+00-1.78366E-01-1.00345E+00-3.53884E-15-5.82791E-13
 -1       593 3.06863E+01-2.07642E+00-1.02637E-01 1.86021E+00 5.07958E-13-1.68601E-13
 -1       594 3.06759E+01 5.91854E+00-1.94594E-01 2.20627E+00 6.87644E-14-6.74912E-13
 -1       595 3.09660E+01 5.39108E+00-1.63182E-01-2.03941E+00-5.14311E-13-2.58779E-13
 -1       596 2.70329E+01-5.76850E+00-1.23028E-02-2.13445E+00 3.78590E-13-4.53998E-13
 -1       597 1.15409E+01-3.98162E+00 1.61303E-01-5.96158E+00 4.29483E-13-5.16642E-13
 -1       598 5.74938E+00-2.25151E+00 1.73249E-01-3.00795E+00 5.63091E-14-1.13259E-12
 -1       599 4.68395E+00-1.71220E+00 1.95996E-01 1.29058E+00 1.36544E-13-8.34971E-13
 -1       600 1.61937E+01-5.34730E+00 1.14831E-01 7.21743E+00 2.53159E-13-6.40807E-14
 -1       601 2.32966E+01-5.94442E+00 2.91195E-02 5.24393E+00 1.80106E-13-9.11059E-14
 -1       602 2.83382E+01-4.03223E+00-4.93828E-02 1.76511E+00-2.30902E-13 9.89417E-14
 -1       603 3.10734E+01 1.81907E+00-1.44909E-01 1.10439E+00-1.74014E-13 1.22000E-13
 -1       604 3.00985E+01 7.50252E+00-2.05996E-01-2.95094E-01-7.23421E-13-5.69384E-13
 -1       605 1.03694E+01-3.51763E+00 1.52812E-01-6.62557E+00 2.90226E-13 1.44455E-12
 -1       606 3.10280E+01 5.80120E+00-1.72069E-01 1.27436E+00-4.97366E-13-4.14564E-13
 -1       607 2.59600E+01-5.85978E+00 1.58353E-02-5.03466E+00 3.69087E-13 9.15892E-13
 -1       608 3.19099E+01 2.29036E+00-1.55749E-01-1.70616E+00 2.00805E-13-6.29718E-13
 -1       609 2.05855E+01 1.30522E+00-9.96809E-04 1.54778E+00 5.50068E-13 7.19175E-14
 -1       610 1.99764E+01 2.65428E+00-7.05257E-03-1.24251E+00-3.29388E-13-5.92065E-13
 -1       611 7.60717E+00-1.51571E+00 1.67169E-01 3.88927E+00 3.43156E-13-4.93106E-13
 -1       612 1.62706E+01-4.47798E+00 1.11231E-01 7.06443E+00 3.04146E-13-1.69716E-12
 -1       613 2.08117E+01-2.54138E-01 2.61703E-04-3.48485E-01-1.54596E-13 1.98046E-13
 -1       614 2.96239E+01-1.63093E+00-7.87804E-02 6.46623E-01 7.22651E-14 1.49152E-13
 -1       615 2.01652E+01 2.28256E+00-5.45207E-03-1.43708E+00-4.04383E-13-5.00401E-13
 -1       616 2.80086E+01 5.97949E+00-1.49792E-01-1.70713E+00-4.65052E-13-5.00782E-13
 -1       617 1.99602E+01 2.44890E+00-1.57960E-03 3.94381E-01 1.92127E-13-6.20107E-13
 -1       618 1.99281E+01 2.52410E+00-1.50798E-03 1.35712E-01 1.15163E-13-6.31220E-13
 -1       619 2.01206E+01 2.04564E+00-1.60047E-03 8.50223E-01 3.82279E-13-4.45246E-13
 -1       620 2.02387E+01 1.67592E+00-2.22578E-03 9.92310E-01 4.32075E-13-3.40780E-13
 -1       621 2.03193E+01 1.03663E+00 2.93816E-03 8.31346E-01 4.08897E-13-2.24380E-13
 -1       622 1.15206E+01-1.17933E+00 1.59616E-01 4.66092E+00-1.00666E-14-1.00557E-12
 -1       623 2.02054E+01 6.13792E-01 1.08573E-03 4.20115E-01 3.19147E-13-2.06716E-13
 -1       624 2.02901E+01 1.42658E+00 2.78113E-04-9.96832E-01-3.74626E-13-3.77191E-13
 -1       625 2.02655E+01 8.64555E-01 1.56121E-04-5.64698E-01-3.12226E-13-3.27064E-13
 -1       626 2.01966E+01 5.13060E-01 1.15901E-05-2.54755E-01-2.02573E-13-2.68215E-13
 -1       627 2.01250E+01 2.89883E-01-1.62399E-04-4.96820E-02-1.60233E-13-2.63004E-13
 -1       628 2.00669E+01 1.47724E-01-1.83869E-04 7.60833E-02-1.41124E-13-2.91294E-13
 -1       629 2.00249E+01 5.77922E-02-1.58601E-04 1.45783E-01-1.27266E-13-2.61126E-13
 -1       630 1.99973E+01 2.36709E-03-1.28722E-04 1.77607E-01-8.30849E-14-1.59848E-13
 -1       631 1.99808E+01-2.98639E-02-1.04250E-04 1.84990E-01-7.21117E-14-1.65857E-13
 -1       632 1.99725E+01-4.63773E-02-8.44879E-05 1.77614E-01-1.34133E-13-7.88354E-14
 -1       633 1.99697E+01-5.22267E-02-6.77218E-05 1.62349E-01-7.96699E-14-6.54408E-14
 -1       634 1.99708E+01-5.08431E-02-5.28737E-05 1.44023E-01-5.45995E-14-8.02935E-14
 -1       635 1.99745E+01-4.45169E-02-3.92839E-05 1.26014E-01-8.99398E-14-9.20705E-14
 -1       636 1.99798E+01-3.47039E-02-2.65133E-05 1.10716E-01-6.62396E-14-1.53444E-13
 -1       637 1.99865E+01-2.22395E-02-1.42128E-05 9.98843E-02-4.56936E-14-7.02187E-14
 -1       638 1.99943E+01-7.50474E-03-1.97124E-06 9.49097E-02-1.24348E-13 1.03364E-14
 -1       639 2.00033E+01 9.43765E-03 1.06312E-05 9.70081E-02-3.30983E-14-5.79209E-14
 -1       640 2.00138E+01 2.87189E-02 2.39311E-05 1.07354E-01-8.29051E-14-3.35873E-14
 -1       641 2.00261E+01 5.05303E-02 3.81589E-05 1.27153E-01-3.05564E-14-5.39218E-14
 -1       642 2.00408E+01 7.49651E-02 5.33256E-05 1.57650E-01 9.44359E-14-5.89274E-14
 -1       643 2.00586E+01 1.01816E-01 6.90370E-05 2.00063E-01 1.00831E-13-9.50352E-14
 -1       644 2.00805E+01 1.30304E-01 8.42939E-05 2.55432E-01 1.05852E-13-1.17113E-14
 -1       645 2.01078E+01 1.58707E-01 9.72092E-05 3.24349E-01-1.17411E-13-1.10036E-14
 -1       646 2.01426E+01 1.83878E-01 1.04730E-04 4.06544E-01-3.78360E-14 7.56260E-14
 -1       647 2.01876E+01 2.00637E-01 1.02392E-04 5.00295E-01 7.73485E-14-8.80145E-15
 -1       648 2.02475E+01 2.01076E-01 8.42858E-05 6.01618E-01 1.04327E-13 3.68344E-15
 -1       649 2.03289E+01 1.73921E-01 4.35309E-05 7.03197E-01 2.92329E-14 1.16371E-14
 -1       650 2.04422E+01 1.04286E-01-2.64533E-05 7.93045E-01-1.17821E-14-1.77889E-13
 -1       651 2.06019E+01-2.54822E-02-1.32546E-04 8.52856E-01-2.38399E-14-2.95143E-13
 -1       652 2.08269E+01-2.32526E-01-2.77229E-04 8.56172E-01 1.44540E-13-2.35398E-13
 -1       653 2.11386E+01-5.25555E-01-4.30226E-04 7.66895E-01 1.71323E-13-1.21971E-13
 -1       654 2.15527E+01-8.89646E-01-5.44889E-04 5.39988E-01 1.67458E-13 4.46300E-14
 -1       655 2.20625E+01-1.26240E+00-6.54436E-04 1.28802E-01 2.50292E-13 2.27890E-13
 -1       656 2.26122E+01-1.50597E+00-1.04227E-03-4.91101E-01 7.89660E-14 2.36856E-13
 -1       657 2.30726E+01-1.40436E+00-2.67358E-03-1.26718E+00-1.57573E-13 5.72894E-13
 -1       658 2.32763E+01-7.45268E-01-1.30509E-03-1.98953E+00-3.69752E-14 5.83951E-13
 -1       659 2.30861E+01 5.05034E-01-7.37589E-03-2.29482E+00-1.80386E-13 2.48566E-13
 -1       660 2.26932E+01 1.83075E+00-1.19802E-02-1.83029E+00-1.45923E-13-1.05785E-13
 -1       661 2.23671E+01 2.65123E+00-1.36569E-02-6.18599E-01-7.76098E-14-1.05289E-13
 -1       662 2.25374E+01 2.15607E+00-5.23626E-03 6.75713E-01-9.61891E-14-2.71572E-13
 -1       663 2.29078E+01 8.67108E-01-4.83548E-03 1.35685E+00-2.20532E-13-3.80271E-13
 -1       664 2.31040E+01-4.32723E-01-3.92131E-03 1.21668E+00-1.20827E-13-3.80387E-13
 -1       665 2.28980E+01-1.15254E+00-3.32680E-03 5.64724E-01-6.32472E-14-3.96259E-13
 -1       666 2.23874E+01-1.23776E+00 7.13358E-04-1.65087E-01-1.52608E-13-3.44705E-13
 -1       667 2.35661E+01-5.75292E+00 2.00930E-02-3.58819E+00 1.96093E-13-4.51113E-13
 -1       668 2.00259E+01 1.90117E-01 2.30502E-04-2.04160E-02 2.10192E-13-2.40396E-13
 -1       669 1.99252E+01-1.32221E-02-2.94870E-05-1.86996E-01 6.27503E-14-2.29673E-13
 -1       670 1.99207E+01-3.41884E-02-4.45521E-05-1.85619E-01 1.18465E-13-1.89150E-13
 -1       671 1.99234E+01-4.38461E-02-5.10206E-05-1.72986E-01 9.88141E-14-1.40514E-13
 -1       672 1.99305E+01-4.58784E-02-5.09715E-05-1.54938E-01 1.84711E-13-1.59824E-13
 -1       673 1.99402E+01-4.27587E-02-4.65345E-05-1.35534E-01 1.40845E-13-6.92710E-14
 -1       674 1.99512E+01-3.60959E-02-3.90313E-05-1.17603E-01 3.29592E-14 4.31129E-15
 -1       675 1.99631E+01-2.68521E-02-2.93719E-05-1.03171E-01-2.74401E-15-9.07204E-14
 -1       676 1.99756E+01-1.54950E-02-1.79042E-05-9.37847E-02 6.66433E-14-2.00546E-13
 -1       677 1.99891E+01-2.10287E-03-4.59928E-06-9.07637E-02-2.18756E-14-1.97085E-13
 -1       678 2.00039E+01 1.35639E-02 1.08306E-05-9.53962E-02-3.87026E-14-1.87335E-13
 -1       679 2.00208E+01 3.20096E-02 2.89861E-05-1.09096E-01-2.48405E-14-2.06948E-13
 -1       680 2.00404E+01 5.39622E-02 5.07083E-05-1.33520E-01 5.15925E-14-2.94952E-13
 -1       681 2.00636E+01 8.03394E-02 7.70840E-05-1.70660E-01 1.41199E-13-2.28933E-13
 -1       682 2.00912E+01 1.12205E-01 1.09380E-04-2.22898E-01 1.91635E-13-1.35164E-13
 -1       683 2.01239E+01 1.50689E-01 1.48999E-04-2.93022E-01 1.35131E-13-3.16103E-14
 -1       684 2.01621E+01 1.96833E-01 1.97241E-04-3.84179E-01-7.68477E-14 1.96693E-14
 -1       685 2.02057E+01 2.51276E-01 2.54881E-04-4.99734E-01-8.26450E-14-7.18704E-14
 -1       686 2.02542E+01 3.13639E-01 3.21217E-04-6.42970E-01-9.55333E-14-8.98347E-14
 -1       687 2.03065E+01 3.81380E-01 3.92319E-04-8.16564E-01 1.03052E-14-1.59557E-13
 -1       688 2.03616E+01 4.47732E-01 4.58374E-04-1.02171E+00 1.17275E-15-5.52632E-14
 -1       689 2.04208E+01 4.98223E-01 5.01486E-04-1.25674E+00-4.99094E-14-2.15507E-13
 -1       690 2.04916E+01 5.05254E-01 5.02061E-04-1.51502E+00-1.34648E-13-1.87442E-13
 -1       691 2.05957E+01 4.20707E-01 4.55514E-04-1.78171E+00-3.68103E-14-1.27174E-13
 -1       692 2.07844E+01 1.67985E-01 3.33408E-04-2.02849E+00-3.20923E-13-3.83260E-14
 -1       693 2.11630E+01-3.59465E-01-2.90561E-05-2.19615E+00-2.48219E-13-1.26074E-13
 -1       694 2.18878E+01-1.25200E+00-2.34329E-04-2.18401E+00-6.86911E-14 1.03916E-14
 -1       695 2.32052E+01-2.51810E+00-2.71484E-03-1.75819E+00 1.54183E-13 1.39772E-13
 -1       696 2.52444E+01-3.69451E+00 1.13395E-02-6.55358E-01-1.31111E-13 3.76273E-13
 -1       697 2.82563E+01-1.73119E+00-8.52995E-02-1.73603E+00 1.02113E-13 4.90719E-14
 -1       698 2.65601E+01-3.63394E+00 2.02707E-03 3.66856E-01 1.11247E-13 6.07717E-14
 -1       699 2.43177E+01-3.11463E+00 2.93641E-03 2.07332E+00 2.01720E-13-4.77808E-14
 -1       700 2.25419E+01-1.71945E+00-5.65178E-03 2.83943E+00 3.21180E-13-3.55205E-13
 -1       701 2.14472E+01-5.98234E-01 2.39344E-03 3.21935E+00 2.14409E-13-5.97340E-13
 -1       702 1.65759E+01-3.52676E+00 1.14701E-01-6.81838E+00 2.11223E-13 9.71816E-13
 -1       703 1.60427E+01 1.57387E+00 1.99482E-02-2.35160E+00-3.03914E-13 5.61297E-13
 -1       704 2.15223E+01-6.67970E-01 3.51266E-04-7.33341E-01 2.40052E-13-1.84626E-13
 -1       705 1.61322E+01 1.41727E+00 1.90729E-02 2.68547E+00-1.60246E-13-5.82552E-13
 -1       706 1.81502E+01 4.66591E-01 1.33907E-02-3.82102E+00-2.34285E-13 3.61224E-13
 -1       707 1.50369E+01 1.94315E+00 2.47228E-02 1.81480E-01-2.67190E-13 3.53743E-13
 -1       708 2.02526E+01-5.39284E-01 1.11267E-02-3.92925E+00 7.52723E-14 4.52471E-13
 -1       709 2.16262E+01-1.07846E+00 5.43561E-03-3.15394E+00 3.36296E-13 5.41703E-13
 -1       710 2.20975E+01-1.17412E+00-5.25121E-05-2.06310E+00 2.48412E-13 3.61086E-13
 -1       711 2.01041E+01 3.53395E-01 6.29993E-04 1.49193E-01 2.54145E-13-2.44537E-13
 -1       712 9.18230E+00 1.32716E-01 1.64991E-01 2.90282E-01-2.82212E-13-1.95892E-13
 -1       713 2.82570E+01 2.92595E+00-1.17554E-01 1.94169E+00-4.93279E-13-7.72445E-13
 -1       714 2.74095E+01 5.63059E+00-1.57831E-01 8.94350E-01-5.82687E-13-6.53561E-13
 -1       715 2.58431E+01-5.14292E+00-4.85433E-03 2.52625E+00 2.59497E-14-3.90261E-14
 -1       716 1.03825E+01-1.60913E+00 1.34274E-01-4.10640E+00 7.40033E-15-1.12282E-12
 -1       717 1.32163E+01-3.11673E+00 1.16557E-01 6.23082E+00 3.85109E-13-3.90098E-13
 -1       718 1.99409E+01 2.45645E-02-1.39747E-06-1.68740E-01 8.13597E-14-2.11550E-13
 -1       719 1.99729E+01 8.75390E-02 4.53624E-05-1.18873E-01 1.35961E-13-2.27996E-13
 -1       720 2.79822E+01-2.51564E+00-6.41897E-02-9.22756E-01 5.41234E-16-1.97065E-13
 -1       721 2.00240E+01 2.29439E+00-1.67500E-03 6.37715E-01 2.90717E-13-5.11345E-13
 -1       722 2.80661E+01-3.88188E+00-8.90827E-03 1.02634E+00 2.67409E-13 8.43024E-14
 -1       723 2.78345E+01-4.56232E+00-2.91405E-03 1.02797E+00 9.56086E-14-3.90937E-13
 -1       724 2.29446E+01-5.82199E+00 3.50565E-02 5.61229E+00 3.04617E-14-9.03175E-13
 -1       725 1.72372E+01-4.22659E+00 7.54042E-02-5.42814E+00 3.06175E-13-3.20258E-13
 -1       726 8.00684E+00-2.76601E-01 1.63761E-01-8.15981E-01 1.07062E-13-8.38413E-13
 -1       727 2.07487E+01-5.12002E+00 6.37135E-02 5.42466E+00 1.88280E-13-1.11188E-13
 -1       728 2.81860E+01 2.08341E+00-1.26307E-01-2.70805E+00-1.95781E-13-3.62547E-13
 -1       729 2.71585E+01-5.14031E+00-2.15423E-02-2.80049E+00 5.40857E-13 3.77216E-13
 -1       730 2.00188E+01 2.30487E+00-1.57783E-03-6.29372E-01-1.28054E-13-5.40484E-13
 -1       731 1.05673E+01-1.02962E+00 1.44359E-01-4.29579E+00-6.22818E-14 1.13164E-12
 -1       732 2.29158E+01-5.48468E+00 5.83204E-02-5.70026E+00 3.15817E-13 6.01069E-13
 -1       733 2.84677E+01-1.52466E+00-7.18376E-02 3.12090E+00 1.49859E-13-5.76518E-14
 -1       734 2.01129E+01 2.06096E+00-1.34689E-03-8.42515E-01-2.21210E-13-5.06184E-13
 -1       735 1.99272E+01 2.52573E+00-1.51491E-03-1.26496E-01 2.45074E-14-6.27593E-13
 -1       736 1.50904E+01-2.28348E+00 7.08361E-02-4.72775E+00-2.64285E-14-5.10834E-13
 -1       737 1.99824E+01-1.73862E-01 1.68835E-03 3.91793E+00 3.89573E-13-6.14697E-13
 -1       738 1.50007E+01-2.02549E+00 9.40574E-02 5.70165E+00-8.97199E-15-1.71589E-12
 -1       739 2.59777E+01 5.50426E+00-1.06731E-01-5.23364E-01-5.58394E-13-3.29580E-13
 -1       740 1.81215E+01 5.63643E-01 1.61216E-02 3.81304E+00 3.92268E-13-8.17601E-13
 -1       741 1.99571E+01 2.45468E+00-1.58954E-03-3.84376E-01-5.04122E-14-5.57013E-13
 -1       742 9.01166E+00-3.49949E-03 1.23920E-01 1.47605E+00 2.09948E-13-4.72004E-13
 -1       743 2.73055E+01-1.54754E-01-6.41150E-02 1.63294E+00-2.79290E-13-5.79981E-13
 -1       744 2.02647E+01 1.30822E+00 5.06433E-04 6.31506E-01 3.49517E-13-3.63843E-13
 -1       745 2.02511E+01 1.45620E+00-2.24122E-04-7.46354E-01-2.55778E-13-4.11740E-13
 -1       746 2.02923E+01 9.22938E-01-9.49640E-05-4.26694E-01-2.10003E-13-3.34147E-13
 -1       747 2.02748E+01 5.64616E-01 9.38146E-05-1.86330E-01-1.76744E-13-3.09247E-13
 -1       748 2.02380E+01 3.21689E-01 3.35615E-05-2.29024E-02-1.63129E-13-2.43347E-13
 -1       749 2.01957E+01 1.60982E-01 2.17494E-06 7.94232E-02-9.57655E-14-2.28839E-13
 -1       750 2.01557E+01 5.71785E-02-9.99578E-06 1.36666E-01-8.13980E-14-2.36050E-13
 -1       751 2.01212E+01-7.15487E-03-1.49270E-05 1.62508E-01-7.86626E-14-2.16617E-13
 -1       752 2.00929E+01-4.40841E-02-1.75232E-05 1.67796E-01-6.00063E-14-2.10372E-13
 -1       753 2.00704E+01-6.20518E-02-1.83263E-05 1.60690E-01-8.46313E-14-1.44814E-13
 -1       754 2.00531E+01-6.69565E-02-1.78317E-05 1.47154E-01-6.74285E-14-1.25802E-13
 -1       755 2.00399E+01-6.28670E-02-1.65667E-05 1.31472E-01-1.32272E-13-2.16747E-13
 -1       756 2.00303E+01-5.24971E-02-1.47361E-05 1.16706E-01-9.44525E-14-2.70564E-13
 -1       757 2.00234E+01-3.75324E-02-1.27780E-05 1.05078E-01-6.88331E-14-2.07072E-13
 -1       758 2.00185E+01-1.88930E-02-1.09475E-05 9.82875E-02-6.65972E-14-2.41285E-13
 -1       759 2.00150E+01 3.05293E-03-9.30847E-06 9.77362E-02-8.04188E-14-1.92753E-13
 -1       760 2.00123E+01 2.83137E-02-7.95088E-06 1.04702E-01-7.98230E-14-2.37567E-13
 -1       761 2.00099E+01 5.70958E-02-6.90694E-06 1.20455E-01-2.62051E-14-2.27944E-13
 -1       762 2.00072E+01 8.96052E-02-6.06482E-06 1.46321E-01 6.03423E-14-1.10212E-13
 -1       763 2.00040E+01 1.25814E-01-5.22743E-06 1.83677E-01 8.46865E-14-1.05190E-13
 -1       764 1.99999E+01 1.65158E-01-4.10469E-06 2.33900E-01 8.51996E-14-1.89114E-13
 -1       765 1.99950E+01 2.06129E-01-2.32438E-06 2.98227E-01 5.87639E-14-2.29087E-13
 -1       766 1.99903E+01 2.45749E-01 7.30194E-07 3.77533E-01-1.19752E-14 5.28668E-14
 -1       767 1.99876E+01 2.78889E-01 5.96020E-06 4.72006E-01-3.88251E-14 3.58767E-14
 -1       768 1.99908E+01 2.97446E-01 1.45694E-05 5.80677E-01 4.74206E-14-1.38482E-14
 -1       769 2.00068E+01 2.89440E-01 2.78996E-05 7.00781E-01 1.41310E-14-1.71737E-13
 -1       770 2.00474E+01 2.38231E-01 4.68484E-05 8.26836E-01-1.14283E-13-1.53683E-13
 -1       771 2.01307E+01 1.22294E-01 7.02866E-05 9.49259E-01-6.20353E-14-3.37705E-14
 -1       772 2.02840E+01-8.35578E-02 7.89557E-05 1.05212E+00 1.02623E-13 6.01270E-14
 -1       773 2.05445E+01-4.03578E-01 4.38227E-05 1.10926E+00 1.05276E-13-9.89935E-14
 -1       774 2.09576E+01-8.49367E-01 4.87543E-05 1.07847E+00 2.12271E-13-2.57269E-13
 -1       775 2.15657E+01-1.39649E+00 1.65428E-04 8.95276E-01 3.91233E-13-2.80139E-13
 -1       776 2.23798E+01-1.94324E+00-1.58400E-04 4.72369E-01 2.46453E-13-2.75484E-14
 -1       777 2.33359E+01-2.25788E+00-1.77720E-03-2.74623E-01 1.19153E-13 1.80854E-13
 -1       778 2.42267E+01-1.89962E+00-1.66316E-03-1.35171E+00-9.07195E-14 1.14213E-13
 -1       779 2.46305E+01-5.86320E-01-3.25724E-02-2.35669E+00-2.97599E-13 2.43032E-13
 -1       780 2.44263E+01 1.63713E+00-3.39711E-02-2.50804E+00-2.53851E-13 3.06852E-13
 -1       781 2.37669E+01 3.73215E+00-6.49626E-02 2.71042E-01-2.59574E-13-9.85791E-14
 -1       782 2.42415E+01 2.08226E+00-4.65421E-02 1.50054E+00-3.71322E-13-4.16811E-13
 -1       783 2.45940E+01-1.28799E-01-1.76023E-02 1.49789E+00-1.09762E-13-3.73891E-13
 -1       784 2.43188E+01-1.58753E+00-1.02885E-02 6.01514E-01-9.02188E-14-3.21732E-13
 -1       785 2.35884E+01-1.96750E+00 4.38464E-03-4.10108E-01 5.79704E-15-2.98760E-13
 -1       786 1.14760E+01-9.83578E-03 8.97818E-02-2.34989E+00 4.06316E-14-9.80820E-13
 -1       787 2.00618E+01-2.36410E-02-1.15347E-05-1.75332E-01 8.25227E-14-2.42957E-13
 -1       788 2.00178E+01-6.07859E-02-1.38324E-05-1.45917E-01 7.06088E-14-1.28635E-13
 -1       789 2.00119E+01-5.47533E-02-1.20588E-05-1.29026E-01 1.21030E-15-6.69961E-14
 -1       790 2.00089E+01-4.38389E-02-9.69591E-06-1.14112E-01 8.61438E-14-1.92144E-14
 -1       791 2.00081E+01-2.91855E-02-6.87245E-06-1.03194E-01 7.20769E-14-1.07029E-13
 -1       792 2.00088E+01-1.12841E-02-3.62888E-06-9.78732E-02 6.54964E-14-7.15279E-14
 -1       793 2.00108E+01 9.90264E-03 1.06318E-07-9.95650E-02-3.23270E-14-1.43053E-13
 -1       794 2.00137E+01 3.48384E-02 4.44565E-06-1.09679E-01-8.24654E-14-1.41959E-13
 -1       795 2.00168E+01 6.43284E-02 9.48604E-06-1.29753E-01 8.52557E-15-1.09626E-13
 -1       796 2.00197E+01 9.94546E-02 1.55072E-05-1.61536E-01 6.81322E-14-1.45810E-13
 -1       797 2.00215E+01 1.41510E-01 2.28268E-05-2.07048E-01 1.20327E-14-2.35535E-14
 -1       798 2.00209E+01 1.91899E-01 3.19091E-05-2.68581E-01 9.00453E-14 1.74769E-13
 -1       799 2.00159E+01 2.51981E-01 4.32250E-05-3.48665E-01 6.35969E-15 3.04265E-13
 -1       800 2.00038E+01 3.22778E-01 5.73671E-05-4.49963E-01 3.34125E-14 6.42325E-14
 -1       801 1.99807E+01 4.04443E-01 7.50311E-05-5.75119E-01 5.61816E-15-6.67746E-14
 -1       802 1.99417E+01 4.95311E-01 9.69776E-05-7.26558E-01-1.05093E-13-2.13634E-13
 -1       803 1.98810E+01 5.90233E-01 1.24218E-04-9.06309E-01-2.27643E-14-1.38227E-13
 -1       804 1.97935E+01 6.77782E-01 1.59803E-04-1.11600E+00 1.96598E-15-2.20238E-14
 -1       805 1.96772E+01 7.35798E-01 2.18095E-04-1.35728E+00-1.70108E-14-4.05871E-14
 -1       806 1.95396E+01 7.24722E-01 3.72984E-04-1.63295E+00-1.16965E-13-1.18459E-13
 -1       807 1.94098E+01 5.78841E-01 9.70477E-04-1.94826E+00-1.68513E-13-8.55545E-14
 -1       808 1.93495E+01 1.99834E-01 1.55019E-03-2.31717E+00-2.94304E-13-1.37986E-13
 -1       809 1.95608E+01-5.86381E-01-4.47498E-03-2.73263E+00-3.95795E-13-7.49002E-14
 -1       810 2.03445E+01-1.89435E+00 2.23186E-02-3.17019E+00-1.54795E-13 9.63786E-14
 -1       811 2.10922E+01-1.83697E+00 6.56577E-03 4.22185E+00 5.65106E-13-3.69413E-13
 -1       812 1.31692E+01 9.41070E-01 7.50635E-02 2.03338E+00-2.79036E-14-2.67661E-13
 -1       813 1.92786E+01-1.63530E+00 1.21382E-02-4.93304E+00 1.35374E-13 4.42708E-13
 -1       814 1.56561E+01-1.96826E-01 5.45501E-02-4.39286E+00-1.33248E-13 7.73713E-13
 -1       815 2.07174E+01-3.74848E+00 4.99298E-02-5.69098E+00 4.60311E-13 3.92009E-13
 -1       816 2.30287E+01-2.31918E+00-5.50176E-03-2.44215E+00 1.25964E-13 5.23595E-13
 -1       817 1.75631E+01-3.03200E+00 6.65668E-02 5.14404E+00 4.00521E-13-1.62995E-14
 -1       818 2.58958E+01 3.54986E+00-8.67343E-02 1.49426E+00-4.69499E-13-3.95432E-13
 -1       819 2.00895E+01 2.30438E-02-9.69393E-06-1.59604E-01 6.31027E-14-2.34844E-13
 -1       820 2.21525E+01-2.51858E+00 1.26376E-02-3.95034E+00 1.17456E-13 5.61835E-13
 -1       821 2.28598E+01-4.06396E+00 1.19952E-02 4.35482E+00 2.55232E-13-4.11196E-13
 -1       822 1.29447E+01 1.03963E+00 7.24265E-02-1.61726E+00-5.08545E-13 4.10522E-13
 -1       823 2.00273E+01-5.99384E-02-1.45755E-05-1.62067E-01 1.16615E-13-2.01148E-13
 -1       824 2.73748E+01-3.21330E+00-2.29252E-02-3.08122E-01 4.34113E-13 8.23820E-14
 -1       825 2.00415E+01-4.90891E-02-1.42334E-05-1.73665E-01 7.11735E-14-2.69337E-13
 -1       826 1.17566E+01-1.10378E+00 9.05143E-02 4.37745E+00 3.33384E-13-3.51351E-13
 -1       827 2.01257E+01 1.00718E-01-6.79526E-06-1.16272E-01 7.58073E-14-2.70848E-13
 -1       828 2.61569E+01-3.81580E+00-1.33856E-02 2.44382E-01-1.78570E-13-4.12305E-13
 -1       829 2.01705E+01 2.23829E-01-7.77770E-05-3.13849E-02 1.57690E-13-3.24135E-13
 -1       830 2.13087E+01-4.09095E+00 6.10112E-02-3.88329E+00 2.26937E-14-1.04734E-13
 -1       831 2.53339E+01 3.49208E+00-7.43695E-02-2.38685E+00-2.59072E-13 3.23716E-13
 -1       832 2.02779E+01 9.40460E-01-1.33421E-04 5.51988E-01 3.25247E-13-3.12302E-13
 -1       833 2.64944E+01-4.49344E-01-3.57751E-02-2.40359E+00-5.62102E-14-1.61132E-13
 -1       834 2.01388E+01 1.88847E+00-2.90551E-04 1.99184E-01 1.32579E-13-5.54439E-13
 -1       835 2.50660E+01-4.59085E+00 3.99968E-03-3.27848E+00 5.13913E-13 3.55580E-13
 -1       836 2.34811E+01-4.58255E+00 5.62804E-03 2.88417E+00 1.03978E-13-3.32387E-13
 -1       837 1.98512E+01-3.75412E+00 8.62525E-02 5.86670E+00 3.26947E-13-1.12593E-12
 -1       838 2.01271E+01 1.92648E+00-3.45996E-04 3.03091E-03 6.56063E-14-5.50331E-13
 -1       839 2.02235E+01 1.57911E+00 2.29667E-04 5.36838E-01 2.99759E-13-4.23494E-13
 -1       840 2.01397E+01 2.05680E+00-1.75946E-03-1.02437E+00-2.97686E-13-5.19961E-13
 -1       841 1.11432E+01 5.55257E-01 6.75998E-02-5.99821E-01 1.95680E-13-7.31614E-13
 -1       842 2.01736E+01 1.77379E+00-1.57306E-05 3.83386E-01 2.43733E-13-4.84162E-13
 -1       843 2.02187E+01 1.58852E+00-2.98666E-04-5.29939E-01-1.68498E-13-4.45687E-13
 -1       844 2.02318E+01 5.73079E-01 8.79979E-05 2.58820E-01 2.82612E-13-3.25896E-13
 -1       845 1.52322E+01-3.32953E-02 5.01849E-02 4.05361E+00 1.06690E-13-1.24923E-12
 -1       846 2.01987E+01 3.70827E-01 1.43325E-05 8.57533E-02 2.01435E-13-3.42904E-13
 -1       847 2.07132E+01-3.44465E+00 1.89030E-02 3.70796E+00 3.28893E-13-4.62425E-13
 -1       848 2.01695E+01 1.77940E+00-2.86853E-04-3.74721E-01-8.31583E-14-4.97329E-13
 -1       849 1.49370E+01-6.51388E-01 2.65352E-02-3.41440E+00-1.79200E-13-5.38666E-13
 -1       850 2.03202E+01 9.19297E-01 4.81499E-04-2.85607E-01-1.61569E-13-3.94059E-13
 -1       851 2.03330E+01 5.65835E-01 5.71020E-05-1.14340E-01-1.15446E-13-3.36414E-13
 -1       852 2.03162E+01 3.18880E-01-2.80174E-05 4.38999E-03-9.95369E-14-2.69116E-13
 -1       853 2.02838E+01 1.52735E-01 3.88832E-06 7.91205E-02-9.19386E-14-2.30593E-13
 -1       854 2.02455E+01 4.44888E-02 6.45902E-06 1.20379E-01-5.04260E-14-1.85364E-13
 -1       855 2.02067E+01-2.21958E-02 6.39547E-06 1.38114E-01-7.93307E-14-1.68915E-13
 -1       856 2.01706E+01-5.93960E-02 5.02791E-06 1.40440E-01-7.20937E-14-1.94584E-13
 -1       857 2.01384E+01-7.58888E-02 3.97588E-06 1.33635E-01-6.26593E-14-1.75272E-13
 -1       858 2.01106E+01-7.79334E-02 2.95857E-06 1.22387E-01-1.50235E-13-1.89867E-13
 -1       859 2.00871E+01-6.98880E-02 2.13057E-06 1.10127E-01-1.59292E-13-1.45366E-13
 -1       860 2.00672E+01-5.46202E-02 1.60372E-06 9.93360E-02-5.84554E-14-2.02898E-13
 -1       861 2.00502E+01-3.38378E-02 1.11195E-06 9.18809E-02-7.38034E-14-2.04725E-13
 -1       862 2.00351E+01-8.41527E-03 8.49920E-07 8.92531E-02-4.31647E-14-2.61877E-13
 -1       863 2.00208E+01 2.13800E-02 6.72464E-07 9.27370E-02-7.30443E-14-2.87908E-13
 -1       864 2.00060E+01 5.56833E-02 4.10757E-07 1.03569E-01-4.58253E-14-2.17953E-13
 -1       865 1.99894E+01 9.47845E-02 5.22996E-08 1.23039E-01 7.16680E-14-2.30304E-13
 -1       866 1.99696E+01 1.38880E-01-1.25719E-07 1.52534E-01 1.05725E-13-2.77954E-13
 -1       867 1.99454E+01 1.87769E-01 1.61997E-07 1.93571E-01 1.59213E-14-2.53534E-13
 -1       868 1.99157E+01 2.40448E-01 8.77241E-07 2.47773E-01 8.30714E-14-2.49914E-13
 -1       869 1.98797E+01 2.94595E-01 2.22365E-06 3.16820E-01 6.42720E-14-2.38183E-13
 -1       870 1.98378E+01 3.45900E-01 4.59394E-06 4.02347E-01-3.86274E-14-2.95875E-13
 -1       871 1.97919E+01 3.87235E-01 8.64014E-06 5.05821E-01 7.89976E-15-2.11707E-13
 -1       872 1.97467E+01 4.07663E-01 1.53829E-05 6.28345E-01-5.14635E-14-2.30811E-13
 -1       873 1.97111E+01 3.91350E-01 2.61472E-05 7.70349E-01-3.71342E-14-3.66922E-13
 -1       874 1.97008E+01 3.16592E-01 4.25268E-05 9.30990E-01 1.51138E-13-1.48022E-13
 -1       875 1.97412E+01 1.55354E-01 6.87033E-05 1.10691E+00 2.11491E-14-3.16412E-14
 -1       876 1.98713E+01-1.26122E-01 6.20201E-05 1.28935E+00 5.42086E-14-1.10734E-13
 -1       877 2.01491E+01-5.62896E-01 1.35854E-06 1.45708E+00 1.22884E-13-1.10077E-13
 -1       878 2.06525E+01-1.17705E+00 5.81594E-04 1.56412E+00 2.10917E-13-2.03322E-13
 -1       879 2.14721E+01-1.94526E+00 3.46833E-03 1.52118E+00 4.79280E-13-3.15905E-13
 -1       880 2.26673E+01-2.72764E+00 7.24259E-03 1.17151E+00 2.58742E-13-3.54610E-13
 -1       881 2.41778E+01-3.17544E+00-1.16217E-02 3.15147E-01-4.25013E-14-3.36679E-13
 -1       882 2.60645E+01-1.95904E+00-1.73509E-02 6.08937E-01-4.48938E-14-4.85663E-13
 -1       883 2.50518E+01-2.99789E+00 1.33015E-02-8.87833E-01 8.93918E-14 1.75073E-13
 -1       884 2.00798E+01-7.18706E-02-2.58729E-06-1.26272E-01 2.36559E-14-1.50894E-13
 -1       885 2.00365E+01-2.47340E-02-1.23855E-06-9.53429E-02 1.19532E-14-3.51134E-14
 -1       886 2.00263E+01 6.02839E-04-8.69533E-07-9.43225E-02 5.39769E-14-1.65476E-14
 -1       887 2.00165E+01 3.05996E-02 3.41272E-08-1.00305E-01 3.24422E-14-1.38508E-13
 -1       888 2.00057E+01 6.59776E-02 8.99169E-07-1.14628E-01-5.27416E-14-2.12476E-13
 -1       889 1.99925E+01 1.07829E-01 1.64867E-06-1.38708E-01-4.94841E-15-1.59803E-13
 -1       890 1.99748E+01 1.57526E-01 2.33796E-06-1.74088E-01-2.39572E-14-1.86266E-14
 -1       891 1.99500E+01 2.16604E-01 3.38278E-06-2.22436E-01-5.63652E-14-5.67770E-14
 -1       892 1.99147E+01 2.86588E-01 4.79726E-06-2.85496E-01-7.91720E-14 2.59156E-14
 -1       893 1.98645E+01 3.68745E-01 6.72735E-06-3.64985E-01 7.69243E-14-3.95807E-14
 -1       894 1.97936E+01 4.63661E-01 9.44082E-06-4.62480E-01 7.19915E-14-7.64993E-14
 -1       895 1.96947E+01 5.70552E-01 1.33001E-05-5.79324E-01 1.74918E-14-1.35215E-13
 -1       896 1.95586E+01 6.86120E-01 1.87550E-05-7.16697E-01-1.01245E-13-7.14670E-14
 -1       897 1.93749E+01 8.02737E-01 2.67937E-05-8.76086E-01-8.15130E-14-9.86597E-14
 -1       898 1.91322E+01 9.05611E-01 4.10414E-05-1.06062E+00 1.09526E-13-3.24479E-13
 -1       899 1.88204E+01 9.68524E-01 7.56588E-05-1.27798E+00 7.06754E-14-3.68632E-13
 -1       900 1.84352E+01 9.47712E-01 2.05072E-04-1.54594E+00-1.66876E-13-4.39043E-13
 -1       901 1.79880E+01 7.68816E-01-1.25393E-04-1.90307E+00-3.32132E-13-3.59235E-13
 -1       902 1.76111E+01 3.37063E-01 6.12841E-03-2.43147E+00-3.75381E-13-1.05429E-13
 -1       903 2.27114E+01-3.49435E+00-6.85004E-02-4.05906E+00 1.48643E-13 4.00107E-13
 -1       904 2.01930E+01 1.22599E-02 2.62613E-06-1.41681E-01 6.66930E-14-2.45539E-13
 -1       905 1.96598E+01-1.71288E+00 3.30273E-02 4.84873E+00 5.17151E-13-7.73643E-13
 -1       906 2.01372E+01 1.89071E+00-4.52780E-04-1.93105E-01-8.21404E-15-5.50418E-13
 -1       907 1.53006E+01-9.85332E-01 4.22111E-02 3.91128E+00 3.18229E-13-1.37922E-13
 -1       908 2.50242E+01 4.47192E+00-1.06762E-01 3.65710E-01-4.85723E-13-2.43178E-13
 -1       909 2.01012E+01-7.38654E-02-2.81437E-06-1.39664E-01 6.73170E-14-1.84642E-13
 -1       910 1.18615E+01 2.34362E-01 5.90811E-02 2.36046E+00 2.09619E-13-3.44259E-13
 -1       911 2.00482E+01-4.56531E-02-1.56919E-06-1.02038E-01 5.32098E-14-1.24197E-13
 -1       912 2.00623E+01-6.17556E-02-2.15052E-06-1.12949E-01-1.40115E-14-1.56316E-13
 -1       913 2.02313E+01 9.64346E-02-1.08770E-05-1.09083E-01 2.95357E-14-2.72839E-13
 -1       914 2.02693E+01 2.29037E-01-1.02216E-06-4.45192E-02 7.89530E-14-2.66502E-13
 -1       915 2.02964E+01 8.22848E-01-4.51122E-04 3.46098E-01 2.93668E-13-3.46735E-13
 -1       916 2.02995E+01 4.31609E-01-3.01235E-05 6.40176E-02 1.39206E-13-2.88930E-13
 -1       917 1.81626E+01-1.83570E+00 1.26548E-02 3.69743E+00 2.07107E-13-2.29423E-13
 -1       918 2.21467E+01-3.23960E+00 7.54737E-03 2.34027E+00 3.31166E-13-5.66632E-13
 -1       919 2.02756E+01 1.40507E+00-3.18343E-05 6.99503E-02 8.12887E-14-5.20752E-13
 -1       920 2.01272E+01-6.42801E-02-2.06251E-06-1.49940E-01 3.97359E-14-2.74037E-13
 -1       921 2.02857E+01 1.33567E+00-5.64625E-04 1.97273E-01 1.51713E-13-4.48035E-13
 -1       922 2.01580E+01-3.79816E-02-1.88738E-06-1.52654E-01 1.05371E-13-2.52077E-13
 -1       923 2.03252E+01 1.08368E+00-6.34561E-05-2.24339E-01-1.10467E-13-3.76642E-13
 -1       924 1.36808E+01 5.57393E-01 3.74356E-02-1.85470E+00 1.02971E-14-6.86538E-13
 -1       925 2.03229E+01 1.02161E+00 1.31168E-04 2.89756E-01 2.28861E-13-3.78188E-13
 -1       926 2.03793E+01 5.24749E-01 2.07253E-05-5.41917E-02-6.95657E-14-3.29019E-13
 -1       927 2.03705E+01 2.86668E-01-2.34691E-05 2.31720E-02-5.55894E-14-2.76832E-13
 -1       928 2.03414E+01 1.25990E-01 8.89373E-06 7.10368E-02-1.68418E-14-1.94724E-13
 -1       929 2.03023E+01 2.18217E-02 9.22482E-06 9.65453E-02-3.89325E-14-1.64159E-13
 -1       930 2.02599E+01-4.10872E-02 7.16438E-06 1.06384E-01-7.51628E-14-9.18127E-14
 -1       931 2.02182E+01-7.43803E-02 3.91058E-06 1.06119E-01-5.87104E-14-1.04686E-13
 -1       932 2.01794E+01-8.66643E-02 3.57469E-06 1.00092E-01-1.05877E-13-2.07697E-13
 -1       933 2.01446E+01-8.41399E-02 5.50925E-06 9.16036E-02-1.37990E-13-1.60071E-13
 -1       934 2.01137E+01-7.11679E-02 3.72445E-06 8.30857E-02-1.77419E-13-1.90462E-13
 -1       935 2.00863E+01-5.04460E-02 2.13524E-06 7.63177E-02-7.19169E-14-2.17353E-13
 -1       936 2.00613E+01-2.35184E-02 2.34801E-06 7.27173E-02-8.82191E-14-1.30725E-13
 -1       937 2.00374E+01 8.88047E-03 2.09860E-06 7.34613E-02-8.29283E-14-1.15203E-13
 -1       938 2.00129E+01 4.66988E-02 1.37324E-06 7.96241E-02-4.76609E-14-1.09939E-13
 -1       939 1.99860E+01 9.02445E-02 5.85737E-07 9.23386E-02 7.51508E-14-1.21745E-13
 -1       940 1.99547E+01 1.39891E-01-6.58819E-07 1.12842E-01 6.35486E-14-1.82125E-13
 -1       941 1.99166E+01 1.95841E-01-8.64791E-07 1.42564E-01 5.77161E-14-1.25004E-13
 -1       942 1.98696E+01 2.57721E-01-7.63339E-07 1.83192E-01 5.82734E-14-3.56127E-14
 -1       943 1.98116E+01 3.24118E-01-3.52038E-07 2.36732E-01 5.29404E-14-4.92994E-14
 -1       944 1.97410E+01 3.91986E-01 6.19284E-07 3.05577E-01-1.00809E-13-3.54929E-14
 -1       945 1.96573E+01 4.55899E-01 2.64515E-06 3.92620E-01-2.43278E-14-6.71478E-14
 -1       946 1.95617E+01 5.07131E-01 6.63857E-06 5.01404E-01-1.26992E-14-1.89198E-13
 -1       947 1.94585E+01 5.32576E-01 1.40381E-05 6.36333E-01-6.69161E-14-5.41319E-14
 -1       948 1.93566E+01 5.13505E-01 2.63168E-05 8.02876E-01 6.87134E-14-9.84905E-15
 -1       949 1.92728E+01 4.24317E-01 4.59145E-05 1.00749E+00 1.30946E-13-1.83830E-14
 -1       950 1.92348E+01 2.31669E-01 9.96466E-05 1.25724E+00 6.23273E-14-4.08426E-14
 -1       951 1.92895E+01-1.08193E-01-4.63609E-05 1.55736E+00 4.42730E-14-8.94607E-14
 -1       952 1.95146E+01-6.47121E-01-3.08933E-04 1.89978E+00 1.26026E-13-1.96439E-13
 -1       953 2.00227E+01-1.43112E+00 1.43579E-03 2.25159E+00 2.44331E-13-2.37998E-13
 -1       954 2.08613E+01-2.29803E+00 3.80571E-03 2.42571E+00 3.01797E-13-6.20852E-13
 -1       955 2.02756E+01 1.40518E+00-1.64332E-05-6.51581E-02 2.82264E-14-4.96569E-13
 -1       956 2.03013E+01 7.75783E-02 7.23909E-05-9.48129E-02 3.12167E-14-2.47245E-13
 -1       957 2.03590E+01 4.08134E-01-5.09437E-05 2.23135E-02 1.13821E-13-2.91964E-13
 -1       958 2.00489E+01-1.32310E-02-3.98673E-07-8.07021E-02 2.33251E-14-1.68758E-13
 -1       959 1.99820E+01 1.05187E-01 7.29977E-07-1.07565E-01-3.44445E-14-5.90593E-14
 -1       960 1.99510E+01 1.59566E-01-8.40841E-08-1.31798E-01-7.38336E-14-1.98471E-13
 -1       961 1.99106E+01 2.23722E-01-5.16249E-07-1.65408E-01-3.98147E-14-1.52551E-13
 -1       962 1.98567E+01 2.99182E-01-8.24731E-07-2.09356E-01-1.62878E-13-1.17577E-13
 -1       963 1.97842E+01 3.87257E-01-1.17803E-06-2.64400E-01-4.23502E-14-1.36192E-13
 -1       964 1.96864E+01 4.88699E-01-1.71474E-06-3.30953E-01 1.41503E-13 1.02075E-14
 -1       965 1.95552E+01 6.03208E-01-2.78568E-06-4.08955E-01 5.42502E-14-6.21064E-14
 -1       966 1.93802E+01 7.28692E-01-5.40230E-06-4.97856E-01 1.75570E-14-1.26044E-13
 -1       967 1.91484E+01 8.60228E-01-1.18900E-05-5.96936E-01-1.46838E-14-2.12995E-13
 -1       968 1.88436E+01 9.88604E-01-2.62928E-05-7.06319E-01-2.29542E-14-1.72950E-13
 -1       969 1.84453E+01 1.09832E+00-5.71698E-05-8.29340E-01 1.30083E-13-4.65277E-14
 -1       970 1.79273E+01 1.16480E+00-1.62645E-04-9.77054E-01-1.90799E-14-7.48879E-14
 -1       971 1.72553E+01 1.15086E+00-2.20345E-04-1.17668E+00-2.77361E-13-3.86625E-14
 -1       972 1.64165E+01 1.00443E+00-1.68316E-03-1.48016E+00-4.12881E-13-1.25710E-13
 -1       973 1.31713E+01 9.49641E-01 2.60650E-02 5.65396E-01 2.61339E-13-5.32061E-13
 -1       974 2.00697E+01-4.08311E-02 1.43851E-06-8.34827E-02 1.68737E-14-9.11854E-14
 -1       975 2.01486E+01-8.41320E-02 1.30831E-06-1.09740E-01 4.01751E-14-2.15206E-13
 -1       976 1.47200E+01 2.99552E-01 1.58377E-02 2.36909E+00 2.68140E-13-2.86328E-13
 -1       977 2.00070E+01 5.90674E-02 3.73707E-07-9.16693E-02-3.00928E-14 4.92751E-15
 -1       978 2.03368E+01 2.09239E-01 7.05007E-06-5.20586E-02 4.02816E-14-2.91087E-13
 -1       979 2.02985E+01 6.06831E-01-2.38015E-04 1.82192E-01 2.40238E-13-3.35692E-13
 -1       980 2.00286E+01 1.99101E-02-3.44937E-07-8.30680E-02 5.62215E-14-1.05527E-13
 -1       981 2.03652E+01 7.73085E-01-5.89894E-05-1.31968E-01-1.06690E-13-3.43188E-13
 -1       982 2.03036E+01 1.26426E+00-7.27673E-07-1.61410E-01-4.86234E-14-4.54452E-13
 -1       983 2.03504E+01 5.91868E-01 2.31592E-04 1.06159E-01 1.50377E-13-2.93668E-13
 -1       984 2.02612E+01-6.23021E-03 2.43319E-06-1.16097E-01 1.07570E-13-3.09279E-13
 -1       985 2.01828E+01-7.81880E-02 2.88113E-07-1.18229E-01 9.26498E-16-2.26160E-13
 -1       986 2.01187E+01-7.78562E-02 1.50001E-06-9.96244E-02-2.00587E-15-1.96042E-13
 -1       987 2.00927E+01-6.27511E-02 7.95206E-07-9.02550E-02-1.91754E-14-1.12628E-13
 -1       988 1.67666E+01-4.61685E-01 5.75330E-03 2.91098E+00 1.28417E-13-2.49142E-13
 -1       989 2.03691E+01 9.96586E-01 5.60958E-05 1.00185E-03 2.38575E-14-4.69213E-13
 -1       990 1.97251E+01-2.20057E+00-3.12478E-04 3.14078E+00 1.61059E-13-2.79302E-13
 -1       991 2.03693E+01 9.68108E-01 3.76191E-04 8.06388E-02 8.05429E-14-4.41629E-13
 -1       992 2.04038E+01 2.32829E-01-4.44022E-05 2.78437E-02 6.85791E-15-2.75457E-13
 -1       993 2.03728E+01 8.66756E-02 1.77702E-06 5.27261E-02 2.79664E-14-2.26035E-13
 -1       994 2.03311E+01-6.55190E-03-1.33161E-05 6.51728E-02-4.41530E-15-2.17766E-13
 -1       995 2.02853E+01-6.07262E-02 5.06147E-07 6.89647E-02-7.93000E-14-2.15172E-13
 -1       996 2.02398E+01-8.68209E-02-1.21285E-06 6.73802E-02-1.49509E-13-2.19056E-13
 -1       997 2.01971E+01-9.29275E-02 4.21349E-06 6.29015E-02-1.21279E-13-2.85454E-13
 -1       998 2.01579E+01-8.48120E-02 8.94754E-06 5.75524E-02-1.21231E-13-2.45739E-13
 -1       999 2.01225E+01-6.64873E-02 2.47081E-06 5.27003E-02-1.28199E-13-2.08173E-13
 -1      1000 2.00899E+01-4.01984E-02-3.14422E-09 4.94248E-02-1.71429E-14-1.68730E-13
 -1      1001 2.00591E+01-7.35895E-03 1.93264E-06 4.86793E-02-1.03427E-15-1.22762E-13
 -1      1002 2.00280E+01 3.17160E-02-5.52968E-07 5.12380E-02-4.32952E-14 6.15974E-15
 -1      1003 1.99945E+01 7.72191E-02 8.94615E-07 5.79281E-02-4.07879E-14 9.05593E-14
 -1      1004 1.99564E+01 1.29596E-01-4.07229E-06 6.97362E-02 6.59914E-14 5.25481E-14
 -1      1005 1.99105E+01 1.89409E-01-6.12574E-06 8.77655E-02 5.22253E-14 3.24771E-14
 -1      1006 1.98540E+01 2.56889E-01-8.27396E-06 1.13485E-01 7.21740E-14-5.56917E-15
 -1      1007 1.97837E+01 3.31561E-01-1.09965E-05 1.48767E-01 1.40775E-13-4.24312E-14
 -1      1008 1.96963E+01 4.11755E-01-1.45829E-05 1.96076E-01 4.48367E-14-1.06145E-15
 -1      1009 1.95889E+01 4.93979E-01-1.93121E-05 2.58693E-01-8.75707E-14 6.11308E-14
 -1      1010 1.94593E+01 5.72168E-01-2.56035E-05 3.41047E-01-1.38533E-13-5.93993E-14
 -1      1011 1.93068E+01 6.36779E-01-3.41792E-05 4.49180E-01 4.60428E-14-1.97982E-13
 -1      1012 1.91328E+01 6.73741E-01-4.79956E-05 5.91435E-01 2.77581E-14-1.92707E-13
 -1      1013 1.89426E+01 6.63067E-01-8.52567E-05 7.79386E-01 6.52158E-14-3.60074E-13
 -1      1014 1.87482E+01 5.77300E-01-1.18923E-04 1.02824E+00 9.90642E-14-3.39620E-13
 -1      1015 1.85697E+01 3.82943E-01 3.17824E-04 1.36009E+00-8.17822E-14-1.64227E-13
 -1      1016 1.84464E+01 2.74754E-02 5.89738E-05 1.79772E+00 1.02599E-13-2.31958E-13
 -1      1017 1.84712E+01-5.76169E-01-3.14438E-03 2.36526E+00 1.82548E-13-2.76456E-13
 -1      1018 1.99469E+01 1.49054E-01 2.47809E-06-8.62710E-02 2.89005E-14-7.53724E-14
 -1      1019 1.97538E+01 3.80534E-01 1.04485E-06-1.62892E-01-4.92042E-14-2.21958E-13
 -1      1020 1.96462E+01 4.82394E-01 8.55770E-07-1.99799E-01-1.31267E-13-1.87071E-13
 -1      1021 1.95048E+01 5.96867E-01-6.34675E-08-2.40801E-01 1.06068E-13 1.08289E-13
 -1      1022 1.93200E+01 7.22235E-01-2.96607E-06-2.83679E-01 8.31573E-14-3.99143E-14
 -1      1023 1.90794E+01 8.54687E-01-1.04969E-05-3.25236E-01-1.81280E-14-2.03586E-14
 -1      1024 1.87668E+01 9.87591E-01-2.56189E-05-3.61541E-01-5.69126E-14-8.94804E-15
 -1      1025 1.83606E+01 1.11078E+00-4.21223E-05-3.88817E-01-1.33858E-13 5.85524E-14
 -1      1026 1.78297E+01 1.20991E+00-2.27483E-05-4.05780E-01 2.71213E-14 2.59183E-13
 -1      1027 1.71267E+01 1.26717E+00 3.09926E-04-4.15380E-01-1.51632E-13 2.71204E-13
 -1      1028 1.61728E+01 1.26702E+00 1.76162E-03-4.38698E-01-2.57559E-13 1.20203E-13
 -1      1029 2.00182E+01 4.50894E-02-7.11809E-06-6.38435E-02-6.19687E-14-3.26691E-14
 -1      1030 1.98358E+01 2.91554E-01 1.02611E-06-1.31376E-01-9.04769E-14-1.73405E-13
 -1      1031 1.47276E+01 1.06685E+00-1.68832E-03-8.35512E-01 1.00040E-14-3.49836E-13
 -1      1032 1.98984E+01 2.14789E-01 1.13270E-06-1.05818E-01-6.03037E-14-9.44543E-14
 -1      1033 2.00757E+01-2.97364E-02-2.03272E-06-5.99589E-02 1.35508E-14-1.06945E-13
 -1      1034 2.03770E+01 7.87879E-01 1.44594E-04 1.14117E-01 1.24885E-13-3.34951E-13
 -1      1035 2.00474E+01 4.43372E-03-5.08639E-06-5.99043E-02 1.34531E-14-5.11623E-14
 -1      1036 1.49757E+01 9.97004E-01 6.30434E-03 9.32182E-01 2.88624E-13-4.40861E-13
 -1      1037 1.99856E+01 9.29766E-02 2.27044E-06-7.24437E-02 8.48713E-15-6.27486E-14
 -1      1038 2.03811E+01 9.07571E-01 3.78859E-04-6.03215E-02-3.08633E-14-4.09192E-13
 -1      1039 2.04140E+01 4.51504E-01-1.25370E-04-1.39189E-02-9.77349E-15-3.31009E-13
 -1      1040 2.02208E+01-5.47158E-02-2.09161E-06-1.21842E-01 7.34849E-14-2.65639E-13
 -1      1041 2.04035E+01 5.56400E-01-1.43605E-04 4.48005E-02 8.00296E-14-3.23819E-13
 -1      1042 2.04172E+01 6.65461E-01 1.11345E-04 1.85218E-02 2.95177E-14-4.11332E-13
 -1      1043 1.89312E+01-1.29567E+00-7.39861E-04 2.79481E+00 2.30078E-13-2.61703E-13
 -1      1044 2.02121E+01-8.89730E-02 7.04553E-06-8.14857E-02-5.17951E-15-2.62379E-13
 -1      1045 2.03430E+01 4.71784E-02 1.00529E-04-7.29304E-02 8.68666E-14-3.78678E-13
 -1      1046 2.01051E+01-5.74588E-02 4.14216E-06-6.31366E-02 2.10930E-14-9.80337E-14
 -1      1047 2.04004E+01 3.07146E-01-2.74291E-04-1.85481E-02 4.78420E-14-2.74520E-13
 -1      1048 2.03756E+01 8.54477E-01 4.87522E-04-1.02290E-01-6.92267E-14-3.65720E-13
 -1      1049 2.04260E+01 6.12398E-01 4.82193E-05-1.08944E-02 1.39393E-15-4.08158E-13
 -1      1050 1.60961E+01 5.39535E-01 5.21241E-03 1.82331E+00 2.97845E-13-3.48872E-13
 -1      1051 2.01727E+01-8.96646E-02-2.16897E-06-7.53371E-02 8.93362E-15-2.20758E-13
 -1      1052 2.03755E+01 1.54561E-01-1.35307E-05-4.88579E-02 5.83801E-14-3.18219E-13
 -1      1053 2.04025E+01 6.33058E-01-1.86663E-04-5.30267E-02-4.48286E-14-3.37382E-13
 -1      1054 2.00696E+01-1.34013E-02 1.06008E-05-3.26895E-02-2.12413E-14-6.87084E-14
 -1      1055 2.04164E+01 1.66086E-01-2.99791E-04 1.47174E-02 5.41787E-14-3.04714E-13
 -1      1056 2.02550E+01-7.10224E-02-1.32470E-05-8.52348E-02 1.83699E-14-2.49713E-13
 -1      1057 2.03811E+01 4.33618E-02 1.15368E-04 2.41330E-02 3.58598E-14-2.66625E-13
 -1      1058 2.03356E+01-3.53641E-02-3.78499E-05 2.74487E-02-1.92851E-14-2.33932E-13
 -1      1059 2.02864E+01-7.76051E-02-3.43144E-05 2.80611E-02-1.07548E-13-2.28065E-13
 -1      1060 2.02393E+01-9.43748E-02-3.93825E-05 2.65526E-02-1.65516E-13-1.38279E-13
 -1      1061 2.01961E+01-9.38256E-02 1.62477E-05 2.47283E-02-1.28111E-13-1.67868E-13
 -1      1062 2.01544E+01-7.98748E-02-8.95626E-05 2.28125E-02-1.18200E-13-1.41761E-13
 -1      1063 2.01169E+01-5.60360E-02-9.52196E-06 2.09198E-02-6.01525E-14-9.08218E-14
 -1      1064 2.00821E+01-2.50058E-02 9.02493E-06 2.01343E-02 2.80346E-14-5.86589E-14
 -1      1065 2.00472E+01 1.32194E-02 3.93355E-06 2.06359E-02 5.93740E-14-5.37819E-14
 -1      1066 2.00106E+01 5.82300E-02-1.92247E-05 2.29461E-02 6.66565E-14-2.22523E-14
 -1      1067 1.99704E+01 1.10097E-01 1.21424E-05 2.75623E-02-1.20090E-14 1.31676E-14
 -1      1068 1.99225E+01 1.70312E-01 2.08355E-06 3.50799E-02-2.31651E-14 9.25639E-15
 -1      1069 1.98640E+01 2.39286E-01 6.79445E-06 4.66072E-02-3.23785E-15 4.71798E-14
 -1      1070 1.97907E+01 3.17347E-01 1.21189E-05 6.35001E-02 1.05642E-14-4.29546E-14
 -1      1071 1.96984E+01 4.04071E-01 1.93727E-05 8.77544E-02 5.68826E-14-1.08430E-13
 -1      1072 1.95825E+01 4.97771E-01 2.89556E-05 1.22217E-01-3.24900E-14-1.98010E-13
 -1      1073 1.94382E+01 5.94907E-01 4.09032E-05 1.70945E-01-1.68580E-13-2.40115E-13
 -1      1074 1.92607E+01 6.89401E-01 5.44432E-05 2.39697E-01-1.23902E-13-8.62177E-14
 -1      1075 1.90455E+01 7.71865E-01 6.63532E-05 3.36627E-01 1.46258E-14-1.94849E-13
 -1      1076 1.87882E+01 8.28781E-01 6.86615E-05 4.73287E-01-1.20847E-13-1.23352E-13
 -1      1077 1.84843E+01 8.41259E-01-1.76149E-04 6.66344E-01 1.23213E-13-3.46343E-13
 -1      1078 1.81387E+01 7.79826E-01 8.88911E-04 9.36453E-01 9.28377E-14-4.40743E-13
 -1      1079 1.77215E+01 6.23557E-01-2.00027E-03 1.31886E+00 2.10694E-14-4.35407E-13
 -1      1080 2.01371E+01-7.81192E-02-6.98833E-07-6.87236E-02-7.77836E-14-2.02989E-13
 -1      1081 1.96572E+01 4.50521E-01-1.33244E-05-8.18538E-02-6.20065E-14-4.06147E-14
 -1      1082 1.91253E+01 8.00212E-01-3.87276E-05-9.02820E-02 4.59291E-14 1.49312E-13
 -1      1083 1.88417E+01 9.22538E-01-6.03772E-05-6.82232E-02-2.15603E-14 2.22600E-13
 -1      1084 1.84805E+01 1.03465E+00-8.83323E-05-2.07679E-02-8.60006E-14 2.08439E-13
 -1      1085 1.80186E+01 1.12397E+00-2.08291E-05 6.36116E-02-9.15327E-14 1.52886E-14
 -1      1086 1.74167E+01 1.18308E+00 1.28698E-03 1.95284E-01 4.91150E-14 1.16245E-13
 -1      1087 1.66225E+01 1.18442E+00 2.96778E-04 3.85730E-01-6.90097E-15-3.54872E-14
 -1      1088 1.95218E+01 5.59105E-01-1.82029E-05-9.13760E-02-1.15332E-13-1.19279E-13
 -1      1089 2.04378E+01 3.79347E-01 8.85493E-05-1.05911E-03 5.91148E-14-4.17440E-13
 -1      1090 2.00356E+01 2.67236E-02 4.42618E-06-3.36839E-02-3.87845E-14 2.12206E-14
 -1      1091 1.99991E+01 7.38669E-02 5.52258E-06-3.66355E-02-2.42060E-14-5.08902E-14
 -1      1092 2.03000E+01-2.93701E-02-1.90469E-05-8.32647E-02 4.92972E-14-3.40487E-13
 -1      1093 1.99576E+01 1.28697E-01-1.83409E-06-4.19038E-02 1.32718E-14-1.80914E-14
 -1      1094 1.97621E+01 3.53115E-01-9.90484E-06-7.04689E-02-1.23600E-13-1.40168E-13
 -1      1095 1.93478E+01 6.76954E-01-2.58203E-05-9.57798E-02 3.37894E-14-6.60314E-14
 -1      1096 2.04313E+01 3.60002E-01 1.47383E-04 2.30962E-03 5.62796E-14-3.70810E-13
 -1      1097 1.74355E+01 2.23542E-01-5.87412E-05 1.94090E+00 2.01196E-13-3.73107E-13
 -1      1098 2.01035E+01-4.68205E-02-1.47813E-05-3.36047E-02 4.30683E-14-3.76765E-14
 -1      1099 2.03593E+01 1.18479E-02-2.65782E-05-4.15675E-02 5.45005E-14-4.21056E-13
 -1      1100 1.99070E+01 1.92912E-01-4.81418E-06-4.95720E-02-2.95575E-14 4.21343E-14
 -1      1101 2.02199E+01-9.57184E-02-7.27945E-05-4.23213E-02-1.02863E-13-2.63435E-13
 -1      1102 2.03975E+01 1.00904E-01 2.06140E-04-3.25198E-02 1.34980E-13-4.18034E-13
 -1      1103 1.98435E+01 2.67389E-01-7.24245E-06-5.93013E-02-4.19849E-16-8.37334E-14
 -1      1104 2.02633E+01-8.43642E-02 1.32327E-05-4.43864E-02-3.73861E-14-3.80905E-13
 -1      1105 1.99768E+01 1.02054E-01-5.07122E-05-1.69614E-03-2.50216E-14-1.32074E-13
 -1      1106 2.02664E+01-8.88845E-02 2.75395E-04-1.36683E-02-6.10929E-14-2.71689E-13
 -1      1107 2.01380E+01-6.93498E-02 2.36567E-04-1.11982E-02-5.21620E-14-8.04784E-14
 -1      1108 1.99294E+01 1.62004E-01 6.78079E-07-3.86415E-04-3.63097E-14-8.90969E-14
 -1      1109 1.98709E+01 2.31278E-01 1.08572E-06 2.18617E-03 4.15728E-14-7.17556E-14
 -1      1110 1.97974E+01 3.10543E-01 1.44778E-07 7.03024E-03-3.82738E-14 3.18217E-14
 -1      1111 1.97040E+01 3.99974E-01-2.08065E-06 1.56960E-02-1.01484E-15-1.76610E-13
 -1      1112 1.95854E+01 4.98787E-01-5.13830E-06 3.05475E-02-8.74421E-14-2.82721E-13
 -1      1113 1.94353E+01 6.04722E-01-8.71518E-06 5.51046E-02-9.31310E-14-2.02798E-13
 -1      1114 1.92469E+01 7.13466E-01-1.25585E-05 9.44930E-02-3.25873E-15-2.00502E-13
 -1      1115 1.90123E+01 8.18028E-01-1.66489E-05 1.56035E-01-9.81129E-14-6.23115E-14
 -1      1116 1.87221E+01 9.08108E-01-1.99195E-05 2.50042E-01-8.85582E-15-1.29590E-13
 -1      1117 1.83646E+01 9.69675E-01 4.59696E-05 3.91180E-01 3.60988E-14-3.37216E-14
 -1      1118 1.79156E+01 9.91576E-01-8.63121E-04 5.92981E-01 5.33962E-14-2.33246E-13
 -1      1119 2.03155E+01-5.65901E-02-4.78239E-05-3.01326E-02-4.78317E-14-3.97850E-13
 -1      1120 1.71420E+01 8.74563E-01-3.57489E-03 1.04864E+00 1.08097E-13-3.33764E-13
 -1      1121 2.01775E+01-8.99300E-02-4.27518E-05-3.87882E-02-6.92853E-14-1.43045E-13
 -1      1122 2.01373E+01-7.19878E-02-5.18292E-05-3.56313E-02-6.70044E-14-1.47688E-13
 -1      1123 2.79640E+01 9.08687E+00 2.32539E+00-6.69822E+00-6.40599E-14 1.96615E-12
 -1      1124 2.05480E+01 6.22732E+00 2.09691E-01-3.90380E+00-3.48332E-14 2.03629E-13
 -1      1125 1.94346E+01 5.85293E+00 7.51518E-02-2.88791E+00-2.31759E-14-5.42594E-13
 -1      1126 1.90261E+01 5.72596E+00 6.03653E-02-2.23523E+00-1.63099E-14-8.89403E-13
 -1      1127 1.88400E+01 5.66937E+00 5.78301E-02-1.70136E+00-1.03927E-14-1.04672E-12
 -1      1128 1.87457E+01 5.64038E+00 5.55605E-02-1.23409E+00-5.51382E-15-1.10488E-12
 -1      1129 1.86966E+01 5.62513E+00 5.37686E-02-8.04331E-01-3.10255E-15-1.13020E-12
 -1      1130 1.86726E+01 5.61753E+00 5.25243E-02-3.92844E-01-3.06396E-16-1.12887E-12
 -1      1131 1.86657E+01 5.61535E+00 5.21274E-02 8.47840E-03 1.43028E-15-1.12355E-12
 -1      1132 1.86736E+01 5.61788E+00 5.26380E-02 4.10204E-01 4.09330E-15-1.10622E-12
 -1      1133 1.86988E+01 5.62586E+00 5.40263E-02 8.23031E-01 5.97959E-15-1.07210E-12
 -1      1134 1.87496E+01 5.64177E+00 5.62361E-02 1.25544E+00 1.00120E-14-1.00076E-12
 -1      1135 1.88450E+01 5.67105E+00 5.84500E-02 1.72723E+00 1.43097E-14-8.73179E-13
 -1      1136 1.90317E+01 5.72763E+00 6.04052E-02 2.26829E+00 1.97412E-14-6.57964E-13
 -1      1137 1.94315E+01 5.85023E+00 6.92280E-02 2.92845E+00 2.67841E-14-2.41113E-13
 -1      1138 2.04542E+01 6.18228E+00 1.53310E-01 3.87852E+00 3.00593E-14 5.89803E-13
 -1      1139 2.52182E+01 7.99463E+00 1.43047E+00 5.84644E+00 6.60028E-14 2.32245E-12
 -1      1140 2.88138E+01 3.61636E+00 1.27126E+00-4.21710E+00-2.56989E-13 3.08492E-12
 -1      1141 2.02289E+01-1.77711E-01-6.16297E-01-1.09922E-01-8.77701E-14 2.46658E-12
 -1      1142 1.88347E+01-9.63793E-02-2.36362E-01 6.25300E-02-3.03663E-14 1.61092E-12
 -1      1143 1.85009E+01-4.80577E-02-5.95771E-02 4.05305E-02-1.75420E-14 1.02951E-12
 -1      1144 1.84460E+01-2.46194E-02-1.51934E-02 2.68018E-02-7.56556E-15 6.29875E-13
 -1      1145 1.85279E+01-1.30491E-02-4.98035E-03 1.90716E-02-1.04743E-14 4.36880E-13
 -1      1146 1.86748E+01-6.60154E-03-1.47181E-03 1.41293E-02-4.46648E-15 1.92830E-13
 -1      1147 1.88473E+01-2.82752E-03 5.73029E-04 1.06998E-02-5.08084E-15 2.66696E-14
 -1      1148 1.90228E+01-5.90869E-04 1.89825E-03 8.16063E-03 7.25890E-15-1.80964E-13
 -1      1149 1.91884E+01 7.05116E-04 2.64878E-03 6.20296E-03-6.34585E-15-3.28895E-13
 -1      1150 1.93373E+01 1.40117E-03 2.95903E-03 4.66246E-03-1.91741E-14-5.74085E-13
 -1      1151 1.94666E+01 1.70583E-03 2.96133E-03 3.44072E-03-1.28818E-14-7.33726E-13
 -1      1152 1.95757E+01 1.75288E-03 2.76097E-03 2.47139E-03-3.96075E-15-8.69992E-13
 -1      1153 1.96659E+01 1.62984E-03 2.43212E-03 1.70552E-03 1.36499E-14-7.57195E-13
 -1      1154 1.97391E+01 1.39322E-03 2.02252E-03 1.10523E-03-8.28828E-15-6.44187E-13
 -1      1155 1.97983E+01 1.07755E-03 1.55911E-03 6.41061E-04-2.79273E-14-7.50094E-13
 -1      1156 1.98467E+01 7.01190E-04 1.05272E-03 2.91062E-04-8.48937E-15-8.71514E-13
 -1      1157 1.98877E+01 2.70760E-04 5.01788E-04 4.07426E-05 2.51548E-14-9.57068E-13
 -1      1158 1.99254E+01-2.15327E-04-1.04249E-04-1.16491E-04-1.35976E-15-9.78756E-13
 -1      1159 1.99640E+01-7.63438E-04-7.81676E-04-1.78619E-04-1.56692E-15-9.90036E-13
 -1      1160 2.00083E+01-1.38097E-03-1.54861E-03-1.34143E-04-2.10756E-14-8.52291E-13
 -1      1161 2.00639E+01-2.07166E-03-2.41984E-03 3.87503E-05-3.19717E-14-8.04222E-13
 -1      1162 2.01368E+01-2.82929E-03-3.39932E-03 3.72645E-04 2.78040E-14-7.15394E-13
 -1      1163 2.02340E+01-3.62888E-03-4.46900E-03 9.10300E-04-4.10114E-14-7.96193E-13
 -1      1164 2.03630E+01-4.41448E-03-5.57202E-03 1.70177E-03-4.17749E-15-7.27771E-13
 -1      1165 2.05314E+01-5.08270E-03-6.58835E-03 2.79704E-03-1.35243E-14-6.63384E-13
 -1      1166 2.07462E+01-5.46201E-03-7.30093E-03 4.23072E-03 1.29592E-14-8.61056E-13
 -1      1167 2.10119E+01-5.28983E-03-7.35313E-03 5.99318E-03-1.14953E-14-8.23795E-13
 -1      1168 2.13286E+01-4.19428E-03-6.20500E-03 7.98103E-03-1.91162E-14-8.90184E-13
 -1      1169 2.16876E+01-1.69725E-03-3.11230E-03 9.91974E-03 3.89879E-16-6.64212E-13
 -1      1170 2.20670E+01 2.72882E-03 2.81667E-03 1.12580E-02 1.29028E-14-7.22245E-13
 -1      1171 2.24253E+01 9.49651E-03 1.23860E-02 1.10569E-02 1.96772E-15-5.90378E-13
 -1      1172 2.26962E+01 1.85653E-02 2.57646E-02 7.94933E-03 5.27356E-15-7.25670E-13
 -1      1173 2.27876E+01 2.88997E-02 4.15475E-02 3.30854E-04 3.74353E-14-7.63758E-13
 -1      1174 2.25913E+01 3.78479E-02 5.56501E-02-1.29817E-02-2.93940E-14-6.13719E-13
 -1      1175 2.20101E+01 4.09208E-02 6.09088E-02-3.14732E-02-1.24991E-14-4.39055E-13
 -1      1176 2.10072E+01 3.28804E-02 4.89046E-02-5.13903E-02 9.72876E-15-5.28896E-13
 -1      1177 1.96642E+01 1.07996E-02 1.51323E-02-6.52419E-02-1.55687E-14-3.81695E-13
 -1      1178 1.82135E+01-2.15774E-02-3.43124E-02-6.41814E-02 3.42593E-14-1.98327E-13
 -1      1179 1.69984E+01-5.23832E-02-8.08328E-02-4.35690E-02 8.54481E-15-4.16112E-13
 -1      1180 1.63438E+01-6.63264E-02-1.01582E-01-8.34505E-03-3.66859E-14-4.39858E-13
 -1      1181 1.63967E+01-5.60540E-02-8.55192E-02 2.77948E-02 2.64372E-15-8.91155E-13
 -1      1182 1.70466E+01-2.75990E-02-4.18103E-02 5.05225E-02 2.90163E-14-1.00231E-12
 -1      1183 1.79893E+01 3.91049E-03 6.69155E-03 5.34740E-02 7.57829E-14-5.97696E-13
 -1      1184 1.88870E+01 2.48152E-02 3.89239E-02 4.05883E-02 1.74851E-14-5.62279E-13
 -1      1185 1.95150E+01 2.98517E-02 4.62213E-02 2.16965E-02 9.70391E-14-1.84686E-13
 -1      1186 1.98222E+01 2.17921E-02 3.26599E-02 6.38556E-03-1.98702E-14-1.56115E-13
 -1      1187 1.99039E+01 7.76311E-03 1.10397E-02 1.07146E-03-8.31095E-15-2.73463E-13
 -1      1188 1.99280E+01-3.21985E-03 2.56359E-03 7.56104E-03-1.77842E-14-3.17110E-13
 -1      1189 1.99796E+01 9.15354E-03 2.02802E-02 6.19305E-03 8.05882E-14-1.92309E-14
 -1      1190 2.77933E+01 5.25753E-01 3.77001E-01 1.96668E+00-4.50889E-14 3.75611E-12
 -1      1191 2.00864E+01-6.62471E-02-5.73633E-01 1.29460E-01 2.31100E-14 2.97179E-12
 -1      1192 1.89094E+01-4.06124E-02-1.93234E-01 1.94085E-02 2.67269E-14 2.20866E-12
 -1      1193 1.85299E+01-2.14271E-02-5.05689E-02 1.45370E-03 2.55017E-14 1.63499E-12
 -1      1194 1.84587E+01-1.24172E-02-1.34236E-02-4.08412E-03 1.34094E-14 1.29521E-12
 -1      1195 1.85342E+01-7.41013E-03-4.67876E-03-5.54362E-03 3.77595E-15 1.03471E-12
 -1      1196 1.86780E+01-4.32853E-03-1.94300E-03-5.73696E-03-6.22890E-15 8.98056E-13
 -1      1197 1.88488E+01-2.35278E-03-3.49207E-04-5.46048E-03 7.55824E-16 7.55007E-13
 -1      1198 1.90233E+01-1.07461E-03 7.76630E-04-4.96658E-03 5.05417E-15 4.93596E-13
 -1      1199 1.91884E+01-2.62893E-04 1.49603E-03-4.36946E-03 1.12396E-14 4.20761E-13
 -1      1200 1.93370E+01 2.28908E-04 1.87257E-03-3.73559E-03 1.42958E-14 3.80364E-13
 -1      1201 1.94660E+01 4.98194E-04 1.99280E-03-3.10663E-03 4.84213E-15 2.65897E-13
 -1      1202 1.95750E+01 6.10926E-04 1.93476E-03-2.50710E-03-1.98191E-15 2.28970E-13
 -1      1203 1.96649E+01 6.11421E-04 1.75634E-03-1.94913E-03-3.15129E-15-3.53693E-14
 -1      1204 1.97379E+01 5.28028E-04 1.49557E-03-1.43581E-03 2.86688E-14-4.77968E-13
 -1      1205 1.97967E+01 3.76626E-04 1.17354E-03-9.63742E-04-1.75254E-14-5.59102E-13
 -1      1206 1.98445E+01 1.62869E-04 7.96992E-04-5.24918E-04-1.72638E-14-4.21609E-13
 -1      1207 1.98848E+01-1.16435E-04 3.60174E-04-1.08374E-04 5.40567E-14-6.53483E-13
 -1      1208 1.99215E+01-4.72581E-04-1.54148E-04 2.98513E-04 2.90566E-14-9.40910E-13
 -1      1209 1.99589E+01-9.24713E-04-7.74451E-04 7.08833E-04-2.79602E-14-5.70681E-13
 -1      1210 2.00023E+01-1.49998E-03-1.54099E-03 1.13492E-03-4.23515E-14-2.14498E-13
 -1      1211 2.00575E+01-2.23390E-03-2.50710E-03 1.58679E-03 9.61094E-15-2.22417E-13
 -1      1212 2.01319E+01-3.17058E-03-3.74105E-03 2.06967E-03-2.11807E-15-4.19290E-13
 -1      1213 2.02346E+01-4.36171E-03-5.32778E-03 2.57978E-03-7.37182E-15-6.80799E-13
 -1      1214 2.03767E+01-5.86262E-03-7.36873E-03 3.09659E-03-9.40502E-15-5.72264E-13
 -1      1215 2.05722E+01-7.72099E-03-9.97547E-03 3.56885E-03 5.80536E-14-5.73275E-13
 -1      1216 2.08386E+01-9.95062E-03-1.32478E-02 3.88982E-03-1.51061E-14-4.42154E-13
 -1      1217 2.11969E+01-1.24757E-02-1.72155E-02 3.85504E-03-4.24433E-15-5.65823E-13
 -1      1218 2.16718E+01-1.50220E-02-2.17054E-02 3.09524E-03-4.52811E-14-3.56113E-13
 -1      1219 2.22897E+01-1.69223E-02-2.60622E-02 9.83054E-04-4.86933E-14-3.28661E-13
 -1      1220 2.30747E+01-1.68122E-02-2.86306E-02-3.45942E-03 2.80158E-15-4.38691E-13
 -1      1221 2.40371E+01-1.22701E-02-2.59507E-02-1.15404E-02 3.36413E-14-5.55927E-13
 -1      1222 2.51528E+01 3.02929E-04-1.19300E-02-2.44730E-02-4.77091E-14-2.74857E-13
 -1      1223 2.63267E+01 2.47880E-02 2.18843E-02-4.19744E-02-2.57522E-14-5.89251E-14
 -1      1224 2.73409E+01 6.17361E-02 8.19459E-02-5.91768E-02-8.90173E-15-7.87807E-14
 -1      1225 2.78115E+01 1.01046E-01 1.60416E-01-6.26335E-02 4.90320E-15-2.02460E-14
 -1      1226 2.72241E+01 1.15384E-01 2.18202E-01-3.09542E-02 5.46993E-14-2.18547E-13
 -1      1227 2.51703E+01 7.02715E-02 1.85654E-01 4.93245E-02-1.54737E-15-3.34566E-13
 -1      1228 2.18254E+01-3.48899E-02 1.72646E-02 1.51382E-01 3.03479E-14-1.53627E-13
 -1      1229 1.83302E+01-1.30884E-01-2.14955E-01 2.01707E-01-6.00804E-14 3.80806E-14
 -1      1230 1.63796E+01-1.40417E-01-3.43002E-01 1.38826E-01-1.74704E-14 1.01336E-13
 -1      1231 1.69593E+01-6.18197E-02-2.62773E-01-5.26198E-03-1.43878E-14 3.25809E-13
 -1      1232 1.94525E+01 2.48700E-02-5.23796E-02-1.28092E-01 1.16487E-14-1.73112E-13
 -1      1233 2.21951E+01 6.66192E-02 1.22157E-01-1.59894E-01 6.21482E-14-5.78315E-13
 -1      1234 2.38413E+01 6.44636E-02 1.80032E-01-1.15850E-01 3.15919E-14-8.78977E-13
 -1      1235 2.40050E+01 3.84146E-02 1.42330E-01-4.48606E-02-1.80845E-15-4.03030E-13
 -1      1236 2.30369E+01 3.27638E-03 6.11678E-02 1.76292E-02 1.07511E-13-9.11202E-13
 -1      1237 2.15839E+01-3.38508E-02-2.70544E-02 5.66475E-02-1.83785E-14-7.11410E-13
 -1      1238 2.03407E+01-5.65423E-02-8.15468E-02 5.62034E-02 6.73780E-14-3.33920E-13
 -1      1239 1.99498E+01 1.80868E-02 2.59988E-02-1.78141E-02 3.49304E-14-2.44394E-13
 -1      1240 2.00192E+01-4.94476E-02 1.83917E-02-1.45186E-02-2.79013E-13-9.78224E-14
 -1      1241 1.99347E+01 3.62691E-01-1.07155E-01 1.56130E-02-5.93265E-13-1.67330E-13
 -1      1242 1.99456E+01 1.71841E+00-9.11454E-02 6.77522E-02-2.20934E-14 1.62577E-13
 -1      1243 1.99778E+01 3.69547E+00-3.73095E-02 9.28210E-02-1.06479E-12-6.93581E-14
 -1      1244 2.00254E+01 5.90928E+00 3.56422E-02 9.78234E-02-1.68164E-12 2.51236E-14
 -1      1245 2.00772E+01 7.86686E+00 1.12550E-01 7.70114E-02-2.85283E-12-4.73866E-14
 -1      1246 2.01128E+01 9.07813E+00 1.64459E-01 3.34836E-02-2.99031E-12-1.02278E-13
 -1      1247 2.01148E+01 9.19568E+00 1.66840E-01-2.31361E-02-2.15751E-12-1.31083E-13
 -1      1248 2.00811E+01 8.18615E+00 1.16584E-01-6.96042E-02-1.53939E-12 1.46438E-13
 -1      1249 2.00290E+01 6.38906E+00 3.91349E-02-9.01838E-02-1.45009E-13 7.71648E-14
 -1      1250 1.99813E+01 4.32711E+00-3.14959E-02-8.31943E-02-4.73302E-13-2.32842E-13
 -1      1251 1.99525E+01 2.48786E+00-7.34760E-02-5.83162E-02-7.78544E-13 1.07206E-13
 -1      1252 1.99449E+01 1.13122E+00-8.30795E-02-3.03482E-02-6.96880E-13-5.54418E-14
 -1      1253 1.99527E+01 3.13931E-01-6.99200E-02-5.67592E-03-2.97174E-13 1.80861E-13
 -1      1254 1.99726E+01-4.27945E-02-4.51318E-02 7.67721E-03 3.75597E-13 4.76654E-14
 -1      1255 1.99776E+01-7.95770E-02-1.54420E-02 2.29279E-02 2.22634E-14-8.85490E-14
 -1      1256 2.00046E+01-2.39985E-02 1.52796E-02 9.75555E-03-1.50140E-14 1.36406E-13
 -1      1257-1.25469E+00-2.72258E+01-4.14613E+00-2.68154E+00 3.52440E-12 2.85535E-13
 -1      1258-2.05262E+00-1.71583E+01-3.37830E+00-4.81648E+00 2.43339E-12 9.50184E-13
 -1      1259 6.44748E-01-2.54678E+00-1.88810E+00 9.48332E-02 9.59455E-13 4.26548E-13
 -1      1260 1.13712E+01 8.75644E+00-3.29011E-02 9.83459E+00-9.17044E-14-3.08642E-14
 -1      1261 3.07426E+01 1.18040E+01 1.91612E+00 1.80370E+01-2.92433E-13-5.20695E-13
 -1      1262 5.32391E+01 7.90455E+00 3.61905E+00 1.85211E+01-5.55778E-13-1.74194E-12
 -1      1263 6.85017E+01 3.11621E+00 4.57135E+00 9.11186E+00-3.33955E-13-1.90858E-12
 -1      1264 7.03553E+01 1.96056E+00 4.64223E+00-4.71166E+00 1.70104E-13-1.81788E-12
 -1      1265 5.68678E+01 5.84977E+00 3.70143E+00-1.54616E+01 6.95333E-13-2.16360E-12
 -1      1266 3.42440E+01 1.00273E+01 2.02738E+00-1.71751E+01 1.30185E-12-2.23888E-12
 -1      1267 1.31857E+01 8.22049E+00 6.79683E-03-1.01901E+01 2.23555E-12-2.25397E-12
 -1      1268 1.06395E+00-1.67222E+00-1.80091E+00-5.16633E-01 2.10343E-12-1.48415E-12
 -1      1269-2.21288E+00-1.50149E+01-3.12260E+00 4.84823E+00 2.27196E-12-8.34610E-13
 -1      1270-1.47868E+00-2.46031E+01-3.75910E+00 3.62651E+00 1.97908E-12-3.52135E-13
 -1      1271-9.60081E-01-2.68342E+01-3.90555E+00-9.40617E-01 7.11431E-13-1.51996E-13
 -1      1272-1.74707E+00-1.89670E+01-3.26954E+00-3.95861E+00-9.63452E-13-3.69843E-13
 -1      1273-7.37799E-01-5.96773E+00-2.22013E+00-1.70257E+00-1.75082E-12-1.02851E-12
 -1      1274 6.17266E+00 5.89208E+00-6.62461E-01 6.06546E+00-1.84386E-12-1.49658E-12
 -1      1275 2.10470E+01 1.13118E+01 1.00796E+00 1.48447E+01-1.06448E-12-1.00320E-12
 -1      1276 4.14050E+01 9.84688E+00 2.67870E+00 1.84602E+01-2.06613E-13-3.67262E-13
 -1      1277 6.01796E+01 4.91899E+00 3.80852E+00 1.33734E+01-1.18017E-13-5.22582E-13
 -1      1278 6.94114E+01 1.52315E+00 4.30408E+00 8.53714E-01-1.53329E-13 2.88908E-13
 -1      1279 6.30703E+01 3.96499E+00 3.97639E+00-1.25521E+01-3.13291E-13 1.54299E-12
 -1      1280 4.52971E+01 9.43670E+00 2.97973E+00-1.89048E+01-7.80931E-13 1.59317E-12
 -1      1281 2.48389E+01 1.19044E+01 1.49983E+00-1.63580E+01-4.54525E-13 8.66862E-13
 -1      1282 8.39688E+00 7.39701E+00-3.41427E-01-7.85924E+00-2.72449E-13 3.10418E-13
 -1      1283-1.49739E-01-4.07908E+00-2.06403E+00 7.90023E-01 6.80789E-13-2.20601E-13
 -1      1284-2.02993E+00-1.78506E+01-3.39680E+00 4.68867E+00 2.80354E-12-8.50486E-13
 -1      1285-1.17045E+00-2.74943E+01-4.16556E+00 2.48457E+00 3.83227E-12-4.23238E-13
 -1      1286 2.22677E+01 1.83823E+00-7.25842E-01-2.79057E+00-9.53126E-14 1.57796E-12
 -1      1287 2.03598E+01 4.69011E+00-4.87540E-02-3.30676E+00-2.65690E-13-1.51802E-13
 -1      1288 2.08675E+01 4.81066E+00-1.13366E-01-4.16106E+00-3.42532E-13 2.40842E-13
 -1      1289 1.95313E+01 4.99394E+00-1.97137E-02-2.65446E+00-2.63026E-13-6.99094E-13
 -1      1290 1.98296E+01 5.09035E+00 3.20556E-05-3.04530E+00-2.99247E-13-4.65558E-13
 -1      1291 2.05263E+01 3.95278E+00-2.59948E-02-3.07439E+00-4.63907E-13-1.38778E-13
 -1      1292 1.91851E+01 5.08416E+00-3.38190E-03-2.07077E+00-2.07487E-13-9.60738E-13
 -1      1293 1.93333E+01 5.13934E+00 1.05278E-02-2.36411E+00-2.39690E-13-8.42913E-13
 -1      1294 1.97550E+01 4.36715E+00-2.38631E-02-2.49044E+00-4.14925E-13-5.87475E-13
 -1      1295 1.90091E+01 5.13097E+00 3.48500E-03-1.56455E+00-1.57736E-13-1.08010E-12
 -1      1296 1.90872E+01 5.16068E+00 1.28203E-02-1.81452E+00-1.77389E-13-1.03045E-12
 -1      1297 1.93929E+01 4.55513E+00-1.94593E-02-1.93139E+00-3.17153E-13-8.14730E-13
 -1      1298 1.89152E+01 5.16061E+00 6.56323E-03-1.11704E+00-9.84672E-14-1.12160E-12
 -1      1299 1.89577E+01 5.17699E+00 1.27730E-02-1.33847E+00-1.25126E-13-1.09828E-12
 -1      1300 1.92054E+01 4.66144E+00-1.60370E-02-1.44474E+00-2.36307E-13-9.01879E-13
 -1      1301 1.88637E+01 5.18037E+00 8.18826E-03-6.93819E-01-5.03816E-14-1.13128E-12
 -1      1302 1.88867E+01 5.18923E+00 1.19952E-02-9.04019E-01-6.46601E-14-1.12962E-12
 -1      1303 1.91025E+01 4.72675E+00-1.40027E-02-1.00428E+00-1.38701E-13-9.48783E-13
 -1      1304 1.88398E+01 5.19227E+00 9.28600E-03-2.89162E-01 2.70392E-15-1.13806E-12
 -1      1305 1.88497E+01 5.19610E+00 1.10622E-02-4.91262E-01-1.25234E-14-1.13418E-12
 -1      1306 1.90467E+01 4.76567E+00-1.29301E-02-5.88790E-01-5.30792E-14-9.48120E-13
 -1      1307 1.88361E+01 5.19721E+00 1.02174E-02 1.08208E-01 4.26925E-14-1.13064E-12
 -1      1308 1.88357E+01 5.19708E+00 1.01468E-02-9.14422E-02 2.95803E-14-1.13780E-12
 -1      1309 1.90226E+01 4.78367E+00-1.24786E-02-1.89098E-01 2.82031E-14-9.59694E-13
 -1      1310 1.88514E+01 5.19575E+00 1.11553E-02 5.08606E-01 8.69452E-14-1.10802E-12
 -1      1311 1.88408E+01 5.19164E+00 9.22229E-03 3.06090E-01 6.90486E-14-1.12329E-12
 -1      1312 1.90234E+01 4.78304E+00-1.24956E-02 2.05772E-01 9.04671E-14-9.53470E-13
 -1      1313 1.88900E+01 5.18808E+00 1.20905E-02 9.22837E-01 1.25308E-13-1.07028E-12
 -1      1314 1.88662E+01 5.17905E+00 8.12951E-03 7.11679E-01 1.11322E-13-1.09744E-12
 -1      1315 1.90494E+01 4.76362E+00-1.29812E-02 6.06139E-01 1.63266E-13-9.29767E-13
 -1      1316 1.89620E+01 5.17512E+00 1.28983E-02 1.35603E+00 1.70773E-13-9.83753E-13
 -1      1317 1.89187E+01 5.15836E+00 6.44350E-03 1.13315E+00 1.51022E-13-1.03462E-12
 -1      1318 1.91069E+01 4.72321E+00-1.40035E-02 1.01943E+00 2.28138E-13-8.78946E-13
 -1      1319 1.90949E+01 5.15669E+00 1.28272E-02 1.84069E+00 2.36710E-13-8.41580E-13
 -1      1320 1.90153E+01 5.12632E+00 3.13900E-03 1.58789E+00 2.07429E-13-9.26641E-13
 -1      1321 1.92125E+01 4.65485E+00-1.61488E-02 1.46253E+00 3.11615E-13-7.82287E-13
 -1      1322 1.93437E+01 5.13348E+00 1.01735E-02 2.39779E+00 3.01006E-13-6.08676E-13
 -1      1323 1.91935E+01 5.07634E+00-4.38090E-03 2.10051E+00 2.71033E-13-7.53703E-13
 -1      1324 1.94053E+01 4.54243E+00-1.99852E-02 1.95822E+00 4.15203E-13-6.32522E-13
 -1      1325 1.98555E+01 5.09947E+00 6.05680E-03 3.08392E+00 3.37730E-13-1.50151E-13
 -1      1326 1.95434E+01 4.98445E+00-2.05456E-02 2.69653E+00 3.03126E-13-4.29608E-13
 -1      1327 1.97748E+01 4.34644E+00-2.45598E-02 2.52809E+00 4.86843E-13-3.47014E-13
 -1      1328 2.11036E+01 4.90704E+00 8.31972E-03 4.05400E+00 2.92294E-13 7.44377E-13
 -1      1329 2.03345E+01 4.73388E+00-4.79687E-02 3.41632E+00 2.87617E-13 2.00354E-13
 -1      1330 2.05647E+01 3.91596E+00-2.24090E-02 3.17845E+00 5.09485E-13 1.71987E-13
 -1      1331 2.72033E+01 3.20543E+00 9.29042E-01 4.58234E+00 1.45620E-13 2.44182E-12
 -1      1332 2.20204E+01 3.52222E+00-1.82000E-01 3.88505E+00 1.46966E-13 1.26138E-12
 -1      1333 2.21127E+01 2.56181E+00-3.25456E-02 3.45664E+00 4.77569E-13 9.79827E-13
 -1      1334 2.14273E+01 3.59581E-01-7.63535E-01 1.18387E+00 2.52187E-13 2.34601E-12
 -1      1335 2.20019E+01 1.31304E-01-4.00863E-01-1.28582E+00-2.83135E-13 1.67161E-12
 -1      1336 2.06791E+01 3.06730E-01-1.64796E-01-8.05879E-01-2.65996E-13 1.33381E-12
 -1      1337 2.00813E+01 1.53519E-01-7.35267E-02-4.02144E-01-2.16164E-13 1.19385E-12
 -1      1338 1.96115E+01 9.12177E-02-1.49018E-02-3.29970E-01-1.98716E-13 8.88258E-13
 -1      1339 2.09729E+01 3.69323E-01-1.04174E-01-1.27408E+00-4.60507E-13 6.40443E-13
 -1      1340 1.92541E+01 6.45072E-02 3.04769E-03-1.35329E-01-1.60013E-13 7.82038E-13
 -1      1341 1.90998E+01 4.12644E-02 1.32362E-02-1.17532E-01-1.43805E-13 5.62439E-13
 -1      1342 1.99221E+01 1.33944E-01-3.51067E-02-5.03982E-01-3.59306E-13 4.35643E-13
 -1      1343 1.89394E+01 3.15164E-02 1.32341E-02-2.80249E-02-1.01800E-13 4.53842E-13
 -1      1344 1.89199E+01 1.93786E-02 1.10465E-02-1.86540E-02-8.77224E-14 3.08142E-13
 -1      1345 1.94447E+01 5.54229E-02-8.52475E-03-1.70031E-01-2.53636E-13 2.57020E-13
 -1      1346 1.88638E+01 1.60006E-02 8.76005E-03 2.49739E-02-6.13229E-14 2.62925E-13
 -1      1347 1.89062E+01 9.06898E-03 6.42591E-03 2.95995E-02-8.25772E-14 1.59716E-13
 -1      1348 1.92358E+01 2.43724E-02-3.52509E-03-1.12325E-02-1.55130E-13 7.86766E-14
 -1      1349 1.89061E+01 7.84318E-03 4.66159E-03 5.07411E-02-8.12943E-14 1.18322E-13
 -1      1350 1.89763E+01 3.49214E-03 3.63569E-03 5.26259E-02-4.18922E-14 3.44742E-14
 -1      1351 1.91788E+01 1.01693E-02-2.22733E-03 6.74079E-02-1.42010E-13-2.44162E-16
 -1      1352 1.90057E+01 3.17195E-03 2.43642E-03 6.13920E-02-5.69085E-14-1.27494E-14
 -1      1353 1.90861E+01 3.15745E-04 2.20746E-03 6.16519E-02-6.23549E-14-1.03294E-13
 -1      1354 1.92048E+01 2.74937E-03-1.32545E-03 1.04178E-01-1.13799E-13-8.37572E-14
 -1      1355 1.91295E+01 4.24707E-04 1.32901E-03 6.32993E-02-5.96983E-14-1.44900E-13
 -1      1356 1.92101E+01-1.48073E-03 1.43756E-03 6.26073E-02-4.15170E-14-2.23146E-13
 -1      1357 1.92736E+01-1.33405E-03-5.57214E-04 1.17369E-01-1.36221E-13-1.55647E-13
 -1      1358 1.92584E+01-1.16009E-03 7.46552E-04 6.01835E-02-4.94270E-14-2.38242E-13
 -1      1359 1.93338E+01-2.42233E-03 9.70889E-04 5.89733E-02-8.68662E-14-3.42233E-13
 -1      1360 1.93614E+01-3.53746E-03 3.35198E-06 1.16948E-01-9.40829E-14-2.20673E-13
 -1      1361 1.93817E+01-2.00497E-03 4.12879E-04 5.43699E-02-9.73566E-14-3.58479E-13
 -1      1362 1.94489E+01-2.81603E-03 6.62159E-04 5.29270E-02-6.19250E-14-4.72753E-13
 -1      1363 1.94542E+01-4.59222E-03 3.55670E-04 1.08876E-01-1.27807E-13-2.48014E-13
 -1      1364 1.94934E+01-2.36731E-03 2.12172E-04 4.73594E-02-6.27480E-14-5.09473E-13
 -1      1365 1.95514E+01-2.85577E-03 4.50527E-04 4.58720E-02-9.68495E-14-6.36839E-13
 -1      1366 1.95436E+01-4.91952E-03 5.43873E-04 9.69205E-02-1.25388E-13-3.27544E-13
 -1      1367 1.95910E+01-2.41280E-03 9.20475E-05 4.01301E-02-3.05840E-14-6.32607E-13
 -1      1368 1.96397E+01-2.66836E-03 3.05865E-04 3.87203E-02 1.64164E-14-6.38306E-13
 -1      1369 1.96252E+01-4.78288E-03 6.15403E-04 8.35184E-02-7.57790E-14-4.52583E-13
 -1      1370 1.96740E+01-2.25042E-03 2.46739E-05 3.33177E-02 3.56372E-14-6.07096E-13
 -1      1371 1.97142E+01-2.33662E-03 2.10244E-04 3.20637E-02 4.39134E-14-5.52810E-13
 -1      1372 1.96970E+01-4.35296E-03 6.07418E-04 7.02585E-02 3.12617E-14-4.28939E-13
 -1      1373 1.97433E+01-1.95094E-03-6.96756E-06 2.73342E-02 6.50261E-15-5.33079E-13
 -1      1374 1.97761E+01-1.91243E-03 1.51737E-04 2.62859E-02-4.09532E-14-5.33857E-13
 -1      1375 1.97587E+01-3.73920E-03 5.45890E-04 5.81762E-02 3.42461E-14-4.02055E-13
 -1      1376 1.98007E+01-1.55759E-03-1.42029E-05 2.24518E-02-7.98100E-14-5.25846E-13
 -1      1377 1.98275E+01-1.42496E-03 1.21955E-04 2.16430E-02-6.92071E-14-6.19698E-13
 -1      1378 1.98111E+01-3.00749E-03 4.47730E-04 4.79522E-02-7.93234E-14-4.10011E-13
 -1      1379 1.98487E+01-1.09312E-03-5.00613E-06 1.88647E-02-4.20583E-14-6.61966E-13
 -1      1380 1.98712E+01-8.86448E-04 1.14780E-04 1.83219E-02-4.61697E-14-6.96709E-13
 -1      1381 1.98559E+01-2.19131E-03 3.22921E-04 4.00558E-02-1.09100E-13-4.12912E-13
 -1      1382 1.98902E+01-5.64811E-04 1.46528E-05 1.67352E-02-1.58207E-14-7.11855E-13
 -1      1383 1.99101E+01-2.96717E-04 1.25531E-04 1.64847E-02-1.12804E-14-7.41063E-13
 -1      1384 1.98953E+01-1.29957E-03 1.76247E-04 3.48498E-02-4.98263E-14-4.57678E-13
 -1      1385 1.99283E+01 3.13601E-05 3.98735E-05 1.62279E-02 6.59859E-15-7.53290E-13
 -1      1386 1.99477E+01 3.52827E-04 1.50287E-04 1.63008E-02 2.27482E-14-7.33016E-13
 -1      1387 1.99318E+01-3.23046E-04 8.68545E-06 3.26684E-02-9.55648E-15-5.58673E-13
 -1      1388 1.99669E+01 7.06916E-04 6.60754E-05 1.75323E-02 1.78953E-14-7.14728E-13
 -1      1389 1.99880E+01 1.07520E-03 1.85252E-04 1.79674E-02-3.65621E-14-7.01323E-13
 -1      1390 1.99685E+01 7.59834E-04-1.81364E-04 3.38715E-02 3.16045E-14-5.06951E-13
 -1      1391 2.00100E+01 1.47669E-03 8.83340E-05 2.08746E-02 3.39396E-15-6.72893E-13
 -1      1392 2.00354E+01 1.88316E-03 2.26062E-04 2.17199E-02-8.61347E-15-6.48390E-13
 -1      1393 2.00089E+01 1.97667E-03-3.96853E-04 3.88771E-02-8.19928E-17-4.88193E-13
 -1      1394 2.00624E+01 2.35361E-03 1.00765E-04 2.65160E-02-4.23891E-14-6.23808E-13
 -1      1395 2.00949E+01 2.78304E-03 2.67006E-04 2.78268E-02-1.36093E-14-6.28127E-13
 -1      1396 2.00570E+01 3.35326E-03-6.40665E-04 4.81680E-02 3.94379E-16-4.82306E-13
 -1      1397 2.01291E+01 3.34140E-03 9.59826E-05 3.47326E-02-2.32478E-14-5.86183E-13
 -1      1398 2.01719E+01 3.76615E-03 3.00173E-04 3.65656E-02-4.08636E-15-5.73260E-13
 -1      1399 2.01170E+01 4.90265E-03-9.13810E-04 6.22672E-02-2.73537E-14-3.96124E-13
 -1      1400 2.02160E+01 4.42420E-03 6.47667E-05 4.57699E-02 1.26059E-14-5.55590E-13
 -1      1401 2.02726E+01 4.79645E-03 3.14638E-04 4.81725E-02 1.22516E-14-5.78981E-13
 -1      1402 2.01938E+01 6.60918E-03-1.21295E-03 8.16694E-02 1.31286E-14-3.82212E-13
 -1      1403 2.03292E+01 5.55122E-03-3.76993E-06 5.97610E-02 6.23022E-14-5.22061E-13
 -1      1404 2.04032E+01 5.79302E-03 2.96012E-04 6.27507E-02 5.82618E-14-4.69540E-13
 -1      1405 2.02926E+01 8.40485E-03-1.52692E-03 1.06709E-01 7.72222E-14-3.05611E-13
 -1      1406 2.04749E+01 6.61502E-03-1.20924E-04 7.65913E-02-4.30848E-14-4.80163E-13
 -1      1407 2.05697E+01 6.60610E-03 2.27027E-04 8.01244E-02-4.94995E-14-5.31627E-13
 -1      1408 2.04184E+01 1.01350E-02-1.83178E-03 1.37340E-01 2.65363E-14-3.38934E-13
 -1      1409 2.06586E+01 7.42189E-03-2.95030E-04 9.56936E-02-1.31687E-14-5.89012E-13
 -1      1410 2.07769E+01 6.98642E-03 9.04145E-05 9.96161E-02 3.98863E-14-5.91267E-13
 -1      1411 2.05760E+01 1.15108E-02-2.08409E-03 1.72793E-01-7.07854E-14-3.23816E-13
 -1      1412 2.08840E+01 7.65487E-03-5.24413E-04 1.15753E-01 1.60442E-14-5.92026E-13
 -1      1413 2.10266E+01 6.55123E-03-1.24003E-04 1.19730E-01-4.59628E-14-6.00252E-13
 -1      1414 2.07684E+01 1.20481E-02-2.21193E-03 2.11079E-01 4.11464E-14-3.92759E-13
 -1      1415 2.11511E+01 6.83500E-03-7.84777E-04 1.34311E-01 1.10048E-14-5.40008E-13
 -1      1416 2.13156E+01 4.75781E-03-4.05776E-04 1.37736E-01 6.80634E-14-5.36705E-13
 -1      1417 2.09960E+01 1.10007E-02-2.10440E-03 2.48310E-01 2.93625E-14-3.99685E-13
 -1      1418 2.14534E+01 4.29824E-03-1.01014E-03 1.47311E-01 2.80159E-14-4.45477E-13
 -1      1419 2.16319E+01 9.12052E-04-7.03026E-04 1.49199E-01 2.66907E-14-3.89778E-13
 -1      1420 2.12545E+01 7.31365E-03-1.60194E-03 2.77873E-01 7.45240E-14-2.49689E-13
 -1      1421 2.17745E+01-7.71633E-04-1.07079E-03 1.48680E-01-6.31600E-14-4.20085E-13
 -1      1422 2.19512E+01-5.73392E-03-8.99281E-04 1.47577E-01-2.65429E-14-4.87864E-13
 -1      1423 2.15320E+01-3.39554E-04-4.94854E-04 2.89613E-01-2.09078E-14-2.78479E-13
 -1      1424 2.20839E+01-9.17810E-03-7.62531E-04 1.30244E-01 8.37564E-14-5.02185E-13
 -1      1425 2.22326E+01-1.57061E-02-8.05523E-04 1.24250E-01 3.08152E-14-4.47399E-13
 -1      1426 2.18064E+01-1.33167E-02 1.45333E-03 2.69433E-01-5.92842E-16-3.32743E-13
 -1      1427 2.23335E+01-2.13017E-02 1.60369E-04 8.25234E-02-7.81927E-16-5.31908E-13
 -1      1428 2.24163E+01-2.87523E-02-2.03145E-04 6.95513E-02-9.21659E-15-5.78467E-13
 -1      1429 2.20425E+01-3.23777E-02 4.42764E-03 2.00139E-01 4.58184E-15-3.77027E-13
 -1      1430 2.24565E+01-3.63412E-02 1.86090E-03-2.79838E-03 2.85826E-14-5.02422E-13
 -1      1431 2.24263E+01-4.29803E-02 1.01802E-03-2.42737E-02 2.89721E-14-5.69928E-13
 -1      1432 2.21911E+01-5.64918E-02 8.38917E-03 6.48610E-02 3.76964E-14-4.13310E-13
 -1      1433 2.23736E+01-5.12732E-02 4.17663E-03-1.27918E-01 4.08961E-14-4.51109E-13
 -1      1434 2.21830E+01-5.39698E-02 2.62471E-03-1.57469E-01 5.58009E-14-3.18901E-13
 -1      1435 2.21921E+01-8.11637E-02 1.27894E-02-1.45420E-01 7.63747E-14-3.37435E-13
 -1      1436 2.20101E+01-6.00906E-02 6.35022E-03-2.81687E-01-6.37381E-14-3.24631E-13
 -1      1437 2.16295E+01-5.47399E-02 3.83035E-03-3.15105E-01-2.53131E-14-3.52877E-13
 -1      1438 2.19854E+01-9.71296E-02 1.62534E-02-4.19814E-01 7.14628E-14-1.96157E-13
 -1      1439 2.13271E+01-5.46370E-02 7.00855E-03-4.33045E-01 2.20340E-14-4.04912E-13
 -1      1440 2.07690E+01-3.79931E-02 3.38414E-03-4.61179E-01-2.80830E-14-4.08833E-13
 -1      1441 2.15317E+01-9.14255E-02 1.65351E-02-7.14301E-01-2.63071E-14-3.91843E-13
 -1      1442 2.03623E+01-2.85513E-02 4.74270E-03-5.31865E-01 2.79299E-14-4.88016E-13
 -1      1443 1.97017E+01-1.39445E-03 3.15623E-04-5.42223E-01 7.77796E-14-3.31318E-13
 -1      1444 2.08424E+01-5.31372E-02 1.12288E-02-9.47206E-01-2.32804E-14-3.48281E-13
 -1      1445 1.92589E+01 1.61523E-02-5.44053E-04-5.25039E-01-2.59202E-14-2.30080E-13
 -1      1446 1.86303E+01 4.65491E-02-4.86288E-03-5.07635E-01-1.36987E-14-2.76688E-13
 -1      1447 2.00067E+01 1.65818E-02-3.40339E-04-1.01780E+00-3.17164E-14-3.52000E-13
 -1      1448 1.82528E+01 6.46835E-02-6.73100E-03-3.87198E-01-1.19705E-14-3.22724E-13
 -1      1449 1.78108E+01 8.61161E-02-9.66275E-03-3.42584E-01-6.43348E-14-3.86163E-13
 -1      1450 1.91930E+01 9.69499E-02-1.50830E-02-8.54401E-01-7.19962E-14-2.89608E-13
 -1      1451 1.75956E+01 9.42224E-02-1.02496E-02-1.48528E-01-7.01869E-15-3.79448E-13
 -1      1452 1.74493E+01 9.65648E-02-1.08093E-02-9.14542E-02-1.05496E-13-5.28901E-13
 -1      1453 1.86032E+01 1.53404E-01-2.59390E-02-4.71501E-01-6.03562E-14-2.95438E-13
 -1      1454 1.74410E+01 8.92290E-02-9.01693E-03 1.08475E-01-1.04964E-13-6.10630E-13
 -1      1455 1.75989E+01 7.18433E-02-7.21908E-03 1.56117E-01-5.48415E-14-6.90410E-13
 -1      1456 1.83836E+01 1.57834E-01-2.65347E-02 1.05330E-02-1.77766E-13-4.03614E-13
 -1      1457 1.77654E+01 5.33993E-02-4.09678E-03 2.91781E-01 5.33922E-14-6.27071E-13
 -1      1458 1.81325E+01 2.56507E-02-8.20729E-04 3.13814E-01 1.34827E-13-5.99670E-13
 -1      1459 1.85469E+01 1.08277E-01-1.67124E-02 4.19536E-01 8.13672E-14-3.84058E-13
 -1      1460 1.83847E+01 6.65246E-03 1.36651E-03 3.50415E-01 8.72891E-14-3.66790E-13
 -1      1461 1.88129E+01-1.85919E-02 4.84906E-03 3.44700E-01 1.19801E-13-3.13683E-13
 -1      1462 1.89676E+01 3.10115E-02-2.48199E-03 6.25414E-01 2.61289E-13-1.27988E-13
 -1      1463 1.90528E+01-2.91052E-02 4.57034E-03 2.95406E-01 1.20427E-13-3.57638E-13
 -1      1464 1.94117E+01-4.31333E-02 7.40483E-03 2.72134E-01 7.56738E-14-2.56250E-13
 -1      1465 1.94540E+01-3.71119E-02 8.88662E-03 6.03647E-01 1.68677E-13-1.16374E-13
 -1      1466 1.95746E+01-4.23921E-02 4.70727E-03 1.81396E-01 1.17107E-13-2.71776E-13
 -1      1467 1.97987E+01-4.37075E-02 6.46176E-03 1.55050E-01 1.16425E-13-9.89504E-14
 -1      1468 1.98426E+01-7.08851E-02 1.34648E-02 4.27886E-01 1.41809E-13-8.68702E-14
 -1      1469 1.98692E+01-3.45601E-02 2.29800E-03 7.10290E-02 3.41021E-14-2.19153E-13
 -1      1470 1.99666E+01-2.70308E-02 3.36126E-03 5.30050E-02-1.81920E-14-2.31178E-13
 -1      1471 2.00564E+01-6.64184E-02 1.14322E-02 2.12900E-01 4.83225E-14-2.17854E-13
 -1      1472 1.99678E+01-1.41292E-02-1.05945E-03 7.67135E-03 2.80370E-14-2.46542E-13
 -1      1473 1.99955E+01-4.36846E-03 7.52392E-04 3.67839E-03 1.18248E-13-1.91567E-13
 -1      1474 2.01081E+01-3.48922E-02 5.89892E-03 5.52845E-02-4.12413E-14-2.80288E-13
 -1      1475 1.99689E+01 5.84882E-03-1.83118E-03 2.85362E-03-9.26993E-17-6.32584E-14
 -1      1476 1.99917E+01 6.56425E-03 3.26041E-03 8.31319E-03-1.69658E-14-4.96864E-14
 -1      1477 2.00670E+01 4.17128E-03 2.35790E-03-3.53374E-04 1.02200E-13-2.19262E-13
 -1      1478 1.99806E+01-8.74746E-03 7.31689E-03 1.57686E-02-1.00800E-13 1.03187E-13
 -1      1479 2.00124E+01-2.46692E-03 2.89017E-03 1.74138E-02-2.40953E-14 8.04579E-14
 -1      1480 2.02600E+01 7.54753E-02-1.52093E-01 4.83873E-01 2.34125E-13 1.82750E-12
 -1      1481 2.15303E+01 2.16134E-01-2.29287E-01 7.20865E-01 2.01686E-13 2.19458E-12
 -1      1482 2.17289E+01 8.81764E-01-8.54714E-02 2.06488E+00 3.97710E-13 1.39880E-12
 -1      1483 1.93317E+01 3.23790E-02-2.13320E-02 1.86037E-01 1.86190E-13 1.36188E-12
 -1      1484 1.97524E+01 1.13618E-01-6.27002E-02 2.38046E-01 1.78673E-13 1.64593E-12
 -1      1485 2.03036E+01 1.87675E-01-5.51915E-02 7.86219E-01 3.63119E-13 1.07026E-12
 -1      1486 1.89498E+01 1.51020E-02 5.66619E-03 5.35467E-02 1.15668E-13 1.00595E-12
 -1      1487 1.90885E+01 5.16227E-02 9.77105E-04 7.98579E-02 1.30329E-13 1.21276E-12
 -1      1488 1.95585E+01 7.18319E-02-1.21569E-02 2.99044E-01 2.89241E-13 7.74674E-13
 -1      1489 1.88392E+01 7.11948E-03 6.97457E-03-8.93672E-03 8.20841E-14 8.02365E-13
 -1      1490 1.88539E+01 2.58570E-02 1.10871E-02 5.46194E-03 7.14498E-14 9.20170E-13
 -1      1491 1.92230E+01 3.10285E-02-2.46538E-03 8.35757E-02 1.74761E-13 5.48814E-13
 -1      1492 1.88651E+01 3.20531E-03 4.78140E-03-3.91774E-02 4.61950E-14 6.22405E-13
 -1      1493 1.88214E+01 1.38047E-02 8.51804E-03-3.10595E-02 5.40900E-14 7.12630E-13
 -1      1494 1.91063E+01 1.32584E-02-1.62064E-03-2.13801E-02 1.36902E-13 4.14337E-13
 -1      1495 1.89590E+01 1.04472E-03 3.29549E-03-5.25802E-02 5.20839E-14 5.17985E-13
 -1      1496 1.88886E+01 7.27043E-03 5.36612E-03-4.81134E-02 3.98516E-14 5.81141E-13
 -1      1497 1.91073E+01 4.52771E-03-1.63337E-03-7.28306E-02 7.35766E-14 3.06607E-13
 -1      1498 1.90829E+01-2.03851E-04 2.51381E-03-5.64888E-02 7.43041E-14 3.82291E-13
 -1      1499 1.90030E+01 3.43259E-03 3.43068E-03-5.42833E-02 5.85557E-14 4.85173E-13
 -1      1500 1.91697E+01-1.32967E-04-1.37641E-03-9.54022E-02 1.08183E-13 2.36231E-13
 -1      1501 1.92152E+01-9.10392E-04 2.04887E-03-5.49452E-02 8.38071E-15 2.65531E-13
 -1      1502 1.91353E+01 1.09967E-03 2.32854E-03-5.41609E-02 4.90302E-14 3.42921E-13
 -1      1503 1.92613E+01-2.65078E-03-9.99833E-04-1.01510E-01 1.04133E-13 1.78995E-13
 -1      1504 1.93432E+01-1.26982E-03 1.70464E-03-5.03868E-02 1.32120E-14 2.12540E-13
 -1      1505 1.92686E+01-3.06479E-04 1.65070E-03-5.04811E-02-6.41089E-16 2.13127E-13
 -1      1506 1.93629E+01-3.91781E-03-6.56834E-04-9.81638E-02 3.99871E-14 8.70313E-14
 -1      1507 1.94601E+01-1.40188E-03 1.41412E-03-4.43625E-02 3.31570E-14 2.20226E-13
 -1      1508 1.93937E+01-1.10844E-03 1.19160E-03-4.49721E-02 3.08048E-14 2.42690E-13
 -1      1509 1.94635E+01-4.41027E-03-3.92907E-04-8.96455E-02 2.50063E-14 2.18522E-14
 -1      1510 1.95628E+01-1.38519E-03 1.15930E-03-3.78731E-02 4.23282E-14 1.10598E-13
 -1      1511 1.95055E+01-1.50688E-03 8.61775E-04-3.87513E-02 4.25442E-14 1.78764E-13
 -1      1512 1.95567E+01-4.41663E-03-2.05256E-04-7.86851E-02 6.57065E-14 3.56644E-14
 -1      1513 1.96503E+01-1.27214E-03 9.35423E-04-3.15659E-02 9.64228E-14 1.50218E-14
 -1      1514 1.96023E+01-1.63315E-03 6.19768E-04-3.25441E-02 4.20952E-14 5.92833E-14
 -1      1515 1.96395E+01-4.12120E-03-7.94247E-05-6.70521E-02 7.98114E-14-5.37626E-14
 -1      1516 1.97234E+01-1.09686E-03 7.40089E-04-2.58570E-02 9.27528E-14-2.17242E-13
 -1      1517 1.96839E+01-1.57457E-03 4.42542E-04-2.68191E-02 9.55961E-14-5.53208E-14
 -1      1518 1.97109E+01-3.64333E-03-1.87159E-06-5.58963E-02 1.75905E-13-1.24357E-13
 -1      1519 1.97836E+01-8.79942E-04 5.70622E-04-2.10152E-02 5.90557E-14-4.17951E-13
 -1      1520 1.97515E+01-1.38782E-03 3.15172E-04-2.18792E-02 7.94304E-14-2.76436E-13
 -1      1521 1.97714E+01-3.05839E-03 3.74132E-05-4.59655E-02 1.40066E-13-2.29710E-13
 -1      1522 1.98334E+01-6.31418E-04 4.23524E-04-1.72231E-02-6.22925E-14-4.04956E-13
 -1      1523 1.98073E+01-1.10680E-03 2.27165E-04-1.79279E-02-3.30177E-14-4.42230E-13
 -1      1524 1.98223E+01-2.40973E-03 4.48428E-05-3.77567E-02 1.75851E-14-2.67867E-13
 -1      1525 1.98754E+01-3.52834E-04 2.94457E-04-1.46254E-02-8.68039E-16-3.86787E-13
 -1      1526 1.98537E+01-7.47405E-04 1.70928E-04-1.51190E-02-1.86422E-14-3.86415E-13
 -1      1527 1.98657E+01-1.71625E-03 2.35439E-05-3.16278E-02-3.64262E-14-3.16197E-13
 -1      1528 1.99131E+01-3.86095E-05 1.78338E-04-1.33664E-02 1.04208E-13-5.45983E-13
 -1      1529 1.98940E+01-3.10668E-04 1.40994E-04-1.35967E-02 1.18775E-13-4.14812E-13
 -1      1530 1.99042E+01-9.77490E-04-2.64518E-05-2.78850E-02 1.32800E-13-2.99721E-13
 -1      1531 1.99500E+01 3.23117E-04 6.93810E-05-1.36224E-02-1.09667E-13-5.84272E-13
 -1      1532 1.99315E+01 2.15333E-04 1.33559E-04-1.35287E-02 1.55240E-14-5.92617E-13
 -1      1533 1.99407E+01-1.77116E-04-1.08191E-04-2.68532E-02 1.06916E-13-2.82565E-13
 -1      1534 1.99906E+01 7.50052E-04-3.89369E-05-1.56304E-02-1.11603E-13-3.03114E-13
 -1      1535 1.99702E+01 8.54511E-04 1.46157E-04-1.51348E-02-1.46287E-13-5.62631E-13
 -1      1536 1.99789E+01 7.14927E-04-2.27951E-04-2.89358E-02-1.71568E-13-3.74136E-13
 -1      1537 2.00398E+01 1.26565E-03-1.54075E-04-1.97141E-02-5.96222E-14-2.06069E-13
 -1      1538 2.00149E+01 1.64257E-03 1.77362E-04-1.87130E-02-6.66710E-14-2.79949E-13
 -1      1539 2.00229E+01 1.74125E-03-3.95585E-04-3.46680E-02-1.30414E-13-2.47165E-13
 -1      1540 2.01037E+01 1.89922E-03-2.84859E-04-2.63103E-02 5.60643E-14-2.38256E-13
 -1      1541 2.00711E+01 2.62743E-03 2.26412E-04-2.46656E-02 3.23683E-14-1.68449E-13
 -1      1542 2.00777E+01 2.95667E-03-6.25095E-04-4.47671E-02-1.75223E-14-1.96142E-13
 -1      1543 2.01897E+01 2.68587E-03-4.42231E-04-3.59948E-02 5.42367E-14-4.74077E-13
 -1      1544 2.01453E+01 3.86992E-03 2.92597E-04-3.35230E-02 7.65515E-14-3.10819E-13
 -1      1545 2.01492E+01 4.42826E-03-9.35433E-04-6.01805E-02 1.25537E-13-2.23622E-13
 -1      1546 2.03069E+01 3.66555E-03-6.40378E-04-4.95072E-02 1.17326E-14-5.86942E-13
 -1      1547 2.02457E+01 5.44395E-03 3.74209E-04-4.59680E-02 3.99439E-14-5.92764E-13
 -1      1548 2.02446E+01 6.23502E-03-1.35145E-03-8.21314E-02 1.23232E-13-5.00741E-13
 -1      1549 2.04665E+01 4.87965E-03-8.98268E-04-6.77669E-02 1.76942E-16-5.60271E-13
 -1      1550 2.03823E+01 7.43421E-03 4.66690E-04-6.28517E-02-3.64670E-14-6.18478E-13
 -1      1551 2.03727E+01 8.46506E-03-1.90476E-03-1.12154E-01 3.04748E-15-6.01483E-13
 -1      1552 2.06823E+01 6.36179E-03-1.24118E-03-9.18669E-02-6.16163E-14-4.35105E-13
 -1      1553 2.05674E+01 9.92749E-03 5.59494E-04-8.51908E-02-1.93858E-14-5.02698E-13
 -1      1554 2.05440E+01 1.12063E-02-2.63371E-03-1.52100E-01-4.10232E-14-4.77371E-13
 -1      1555 2.09707E+01 8.11650E-03-1.70067E-03-1.23009E-01-2.89894E-14-3.48908E-13
 -1      1556 2.08158E+01 1.29891E-02 6.31189E-04-1.14115E-01-6.27189E-14-4.36074E-13
 -1      1557 2.07711E+01 1.45220E-02-3.58063E-03-2.04065E-01-8.45483E-14-3.74033E-13
 -1      1558 2.13510E+01 1.00735E-02-2.30791E-03-1.62309E-01-5.31853E-14-4.04865E-13
 -1      1559 2.11449E+01 1.66077E-02 6.43122E-04-1.50707E-01 6.26101E-14-3.57291E-13
 -1      1560 2.10685E+01 1.83934E-02-4.78197E-03-2.70155E-01 4.69273E-14-3.12546E-13
 -1      1561 2.18439E+01 1.19971E-02-3.06779E-03-2.10335E-01-1.11609E-13-2.89038E-13
 -1      1562 2.15745E+01 2.05794E-02 5.34926E-04-1.95617E-01-1.52890E-13-4.88306E-13
 -1      1563 2.14522E+01 2.25973E-02-6.24152E-03-3.51891E-01-1.55696E-13-3.73921E-13
 -1      1564 2.24689E+01 1.33203E-02-3.88576E-03-2.66137E-01-6.41067E-14-1.97984E-13
 -1      1565 2.21244E+01 2.42797E-02 2.33091E-04-2.48247E-01-7.85786E-14-2.64502E-13
 -1      1566 2.19376E+01 2.64624E-02-7.86729E-03-4.48936E-01-1.43829E-13-3.20609E-13
 -1      1567 2.32375E+01 1.28719E-02-4.40155E-03-3.25371E-01 7.21116E-14-3.39444E-13
 -1      1568 2.28106E+01 2.62625E-02-3.00864E-04-3.05181E-01 5.29880E-14-2.40656E-13
 -1      1569 2.25364E+01 2.84247E-02-9.33952E-03-5.56592E-01 3.84684E-14-2.39950E-13
 -1      1570 2.41405E+01 8.52128E-03-3.68711E-03-3.77074E-01-7.12436E-14-3.19647E-13
 -1      1571 2.36358E+01 2.36567E-02-9.37748E-04-3.57447E-01 1.20982E-14-4.07507E-13
 -1      1572 2.32495E+01 2.53211E-02-9.87502E-03-6.61351E-01 2.45247E-14-2.21409E-13
 -1      1573 2.51257E+01-3.01884E-03 1.22770E-04-3.99025E-01-1.94053E-14-2.86028E-13
 -1      1574 2.45735E+01 1.15630E-02-1.11985E-03-3.86470E-01-8.86721E-14-4.03996E-13
 -1      1575 2.40545E+01 1.15529E-02-7.91179E-03-7.34011E-01-1.06679E-13-2.71195E-13
 -1      1576 2.60660E+01-2.55809E-02 9.80757E-03-3.53305E-01 2.78436E-14-2.40474E-13
 -1      1577 2.55430E+01-1.67783E-02 4.43145E-04-3.59852E-01 1.29020E-15-2.15026E-13
 -1      1578 2.48887E+01-2.10852E-02-9.36064E-04-7.21610E-01-6.08827E-14-3.95092E-13
 -1      1579 2.67275E+01-6.03825E-02 2.73154E-02-1.87955E-01-9.10244E-14-1.00371E-13
 -1      1580 2.63771E+01-6.69724E-02 5.64874E-03-2.31348E-01-4.85037E-14-1.11265E-13
 -1      1581 2.56266E+01-8.07602E-02 1.37778E-02-5.44275E-01-9.49241E-14-1.78064E-13
 -1      1582 2.67687E+01-9.84656E-02 4.85797E-02 1.40794E-01 1.07674E-13-7.51066E-14
 -1      1583 2.68017E+01-1.34169E-01 1.52387E-02 4.37404E-02 4.99323E-14-2.58769E-14
 -1      1584 2.60657E+01-1.65641E-01 3.60403E-02-1.13685E-01 1.57097E-14-1.95055E-13
 -1      1585 2.58364E+01-1.12443E-01 5.70432E-02 6.10122E-01 1.11638E-13-2.93834E-13
 -1      1586 2.64681E+01-1.88759E-01 2.45992E-02 4.62764E-01 1.09409E-13-7.82846E-14
 -1      1587 2.59467E+01-2.44058E-01 5.73384E-02 5.99315E-01 1.25646E-13-2.13121E-13
 -1      1588 2.38190E+01-6.28278E-02 2.63131E-02 1.05259E+00-9.34903E-14-1.82049E-13
 -1      1589 2.51062E+01-1.72365E-01 2.08081E-02 9.05403E-01-9.90093E-14-3.05603E-13
 -1      1590 2.50585E+01-2.41957E-01 5.74934E-02 1.44239E+00-9.78037E-15-9.90319E-14
 -1      1591 2.11845E+01 5.66606E-02-5.14590E-02 1.15915E+00-3.79662E-14-1.73472E-14
 -1      1592 2.28174E+01-3.91176E-02-1.00000E-02 1.10828E+00-2.36625E-14-3.84692E-14
 -1      1593 2.34521E+01-7.38361E-02 1.97550E-02 1.99657E+00-9.41022E-14-1.69496E-13
 -1      1594 1.90386E+01 1.71669E-01-1.27452E-01 7.08526E-01-2.44006E-14 1.72959E-13
 -1      1595 2.03266E+01 1.61217E-01-5.86907E-02 8.21903E-01-1.18235E-13 4.77673E-14
 -1      1596 2.16481E+01 2.33630E-01-4.17159E-02 1.75435E+00-1.37779E-13 9.09689E-14
 -1      1597 1.84793E+01 1.79983E-01-1.34859E-01-1.12533E-01-2.64996E-14 1.48669E-13
 -1      1598 1.87691E+01 2.80557E-01-8.59844E-02 1.10099E-01 2.71866E-14 1.46112E-13
 -1      1599 2.05023E+01 4.69009E-01-8.08392E-02 6.34541E-01 4.49848E-14 2.04354E-13
 -1      1600 1.96713E+01 7.16991E-02-5.82019E-02-7.78213E-01 2.93900E-13-5.80508E-14
 -1      1601 1.88885E+01 2.18944E-01-6.39409E-02-5.93574E-01 1.53377E-13 1.06706E-13
 -1      1602 2.05679E+01 4.12558E-01-7.06182E-02-7.32210E-01 1.90341E-13 3.00350E-14
 -1      1603 2.16575E+01-5.19552E-02 3.46430E-02-8.96654E-01-2.84631E-14-3.48138E-13
 -1      1604 2.03933E+01 4.15811E-02-8.40954E-03-8.52433E-01 8.39673E-14-1.47410E-13
 -1      1605 2.15976E+01 9.82851E-02-3.08578E-02-1.48135E+00 2.26359E-13-1.85706E-13
 -1      1606 2.32321E+01-1.07981E-01 7.99493E-02-5.52273E-01 2.25786E-13-5.17475E-13
 -1      1607 2.22163E+01-1.02902E-01 3.56285E-02-6.24776E-01 1.12212E-13-3.87398E-13
 -1      1608 2.27789E+01-1.95558E-01 4.63934E-03-1.30624E+00 1.13349E-13-2.49759E-13
 -1      1609 2.37642E+01-9.73141E-02 7.21914E-02-6.35144E-02-7.04402E-14-6.56919E-13
 -1      1610 2.33828E+01-1.50042E-01 4.63657E-02-1.75554E-01 2.78146E-14-6.77680E-13
 -1      1611 2.34302E+01-3.00338E-01 2.09594E-02-5.64070E-01 1.55594E-13-3.74339E-13
 -1      1612 2.32886E+01-5.43043E-02 3.90942E-02 3.18187E-01 9.55902E-14-4.87017E-13
 -1      1613 2.35228E+01-1.19875E-01 3.27648E-02 2.26707E-01 8.50812E-14-4.40230E-13
 -1      1614 2.33291E+01-2.43318E-01 2.03922E-02 2.30716E-01 3.17212E-14-3.73826E-13
 -1      1615 2.22129E+01-5.21578E-03 4.21238E-03 4.91657E-01-2.66269E-14-5.62272E-13
 -1      1616 2.28136E+01-5.47599E-02 1.21666E-02 4.46571E-01 1.07934E-14-6.06785E-13
 -1      1617 2.26311E+01-1.18434E-01 1.05155E-02 7.51523E-01 8.72601E-14-3.01608E-13
 -1      1618 2.10436E+01 4.01786E-02-2.16974E-02 4.46293E-01-1.17666E-13-3.49248E-13
 -1      1619 2.16943E+01 2.02211E-02-5.75624E-03 4.55200E-01-7.61969E-14-5.62744E-13
 -1      1620 2.16583E+01 1.49108E-02-3.58200E-03 8.89822E-01-1.30715E-13-2.32800E-13
 -1      1621 2.02484E+01 8.49711E-02-1.11361E-02 2.16668E-01 3.76632E-14-2.29122E-13
 -1      1622 2.06423E+01 9.14093E-02-1.38591E-02 2.73766E-01-3.73672E-14-3.22589E-13
 -1      1623 2.07420E+01 1.42224E-01-1.46324E-02 6.55500E-01-1.57799E-14-4.22659E-13
 -1      1624 2.00496E+01 8.15301E-02-1.16950E-02 3.74290E-02-7.63088E-14-1.56697E-13
 -1      1625 2.01051E+01 8.98056E-01-1.71428E-02 4.29270E-01-2.39888E-13 2.01627E-14
 -1      1626 2.01242E+01 4.45856E-01-5.37440E-03 3.52500E-01-1.97408E-13-8.46788E-14
 -1      1627 2.00673E+01 2.18271E+00-9.25970E-03 6.89562E-01-2.46976E-13 1.20997E-13
 -1      1628 2.00952E+01 1.38217E+00-1.42813E-02 6.43599E-01-2.56278E-13 1.15324E-13
 -1      1629 2.01982E+01 1.11447E+00-2.38416E-02 1.02631E+00-1.54902E-13 5.98618E-14
 -1      1630 2.00133E+01 3.80596E+00-3.83573E-03 8.35618E-01-1.03372E-12-3.23522E-13
 -1      1631 2.00511E+01 2.81531E+00-1.01076E-02 8.15522E-01-4.55185E-13-2.60827E-13
 -1      1632 2.01029E+01 2.20524E+00-1.80971E-02 1.43869E+00-3.52652E-13-3.84830E-13
 -1      1633 1.99429E+01 5.48707E+00 2.52601E-03 8.17285E-01-1.35426E-12-1.66338E-13
 -1      1634 1.99873E+01 4.50387E+00-3.31722E-03 8.34739E-01-1.17013E-12 4.50551E-15
 -1      1635 1.99978E+01 3.51794E+00-2.60999E-03 1.59647E+00-6.60503E-13-3.85733E-13
 -1      1636 1.98740E+01 6.83338E+00 9.34458E-03 6.05510E-01-2.07163E-12-1.85317E-13
 -1      1637 1.99116E+01 6.09605E+00 4.80899E-03 6.63635E-01-1.61709E-12-4.75611E-13
 -1      1638 1.98753E+01 4.81985E+00 1.97361E-02 1.41469E+00-1.03754E-12-6.03493E-13
 -1      1639 1.98338E+01 7.53550E+00 1.40025E-02 2.21548E-01-1.80706E-12 1.29636E-14
 -1      1640 1.98508E+01 7.22031E+00 1.21631E-02 3.11747E-01-1.99813E-12 9.07989E-14
 -1      1641 1.97695E+01 5.81793E+00 4.07248E-02 8.75804E-01-1.14750E-12-1.45961E-13
 -1      1642 1.98466E+01 7.36363E+00 1.25198E-02-2.24749E-01-1.33047E-12 2.71406E-13
 -1      1643 1.98329E+01 7.57122E+00 1.38383E-02-1.33023E-01-1.72824E-12 1.66353E-13
 -1      1644 1.97238E+01 6.24039E+00 5.04993E-02 8.44958E-02-1.05160E-12 2.48319E-13
 -1      1645 1.99064E+01 6.38639E+00 5.29757E-03-5.90917E-01-6.44297E-13 3.71696E-13
 -1      1646 1.98688E+01 7.04287E+00 9.20553E-03-5.28239E-01-1.10135E-12 4.15234E-13
 -1      1647 1.97633E+01 5.95105E+00 4.25441E-02-7.19264E-01-5.57825E-13 6.50884E-13
 -1      1648 1.99833E+01 4.90626E+00-3.51544E-03-7.76428E-01-3.84109E-13 3.85885E-14
 -1      1649 1.99392E+01 5.81332E+00 1.47517E-03-7.57581E-01-6.08721E-13 4.12570E-13
 -1      1650 1.98693E+01 5.05107E+00 2.16413E-02-1.28919E+00-3.49734E-13 5.70665E-13
 -1      1651 2.00454E+01 3.31510E+00-9.39338E-03-7.66142E-01-5.17836E-13-7.07232E-14
 -1      1652 2.00109E+01 4.24105E+00-4.85454E-03-7.85863E-01-2.70436E-13-2.43658E-13
 -1      1653 1.99925E+01 3.81308E+00-1.17982E-03-1.49606E+00-5.28560E-13 5.81779E-14
 -1      1654 2.00763E+01 1.95494E+00-1.07540E-02-6.19933E-01-3.92318E-13 1.35926E-13
 -1      1655 2.00591E+01 2.71395E+00-7.18879E-03-6.59688E-01-3.93033E-13 7.70928E-14
 -1      1656 2.00859E+01 2.55693E+00-1.70741E-02-1.36966E+00-3.20239E-13-1.61872E-13
 -1      1657 2.00789E+01 9.48092E-01-8.81002E-03-4.13660E-01-2.15406E-13 7.04783E-14
 -1      1658 2.00762E+01 1.48089E+00-6.66612E-03-4.58148E-01-3.37941E-13 1.63231E-13
 -1      1659 2.01289E+01 1.50110E+00-2.29801E-02-1.04088E+00-2.58552E-14 2.30332E-13
 -1      1660 2.00625E+01 3.47521E-01-5.09258E-03-2.18623E-01 1.12734E-13 3.53636E-13
 -1      1661 2.00695E+01 6.41175E-01-4.18667E-03-2.54417E-01-1.58157E-13 3.02934E-13
 -1      1662 2.01262E+01 7.43957E-01-2.15686E-02-6.51199E-01 1.17449E-13 2.11626E-13
 -1      1663 2.00425E+01 8.29206E-02 2.34150E-03-8.15917E-02 3.73711E-14-8.92446E-14
 -1      1664 2.00432E+01 1.86311E-01-2.84673E-03-9.77911E-02 1.42571E-13 1.72216E-13
 -1      1665 2.00972E+01 2.97355E-01-1.43963E-02-3.13313E-01 1.07809E-13 2.55019E-13
 -1      1666 2.00325E+01 2.02229E-02 5.28288E-03-1.30508E-02-6.34692E-14-2.22979E-13
 -1      1667 2.00411E+01 2.49227E-02-7.57006E-04-2.64371E-02 1.18168E-13-2.17285E-13
 -1      1668 2.00846E+01 1.15116E-01-1.98187E-03-1.12125E-01-1.83031E-14-1.79983E-13
 -1      1669 2.00474E+01 3.56731E-02-4.82976E-03-2.73834E-02 5.31398E-14-2.50700E-13
 -1      1670-7.00366E-01-1.67624E+01-1.89146E+00-1.23621E+00 2.39531E-12 1.78496E-13
 -1      1671-6.88265E-01-1.92763E+01-2.11117E+00 2.39231E-01 2.74655E-12 2.53686E-14
 -1      1672 1.23890E+00-9.46356E+00-1.37010E+00 1.64725E-01 1.60849E-12 3.71203E-13
 -1      1673 4.90263E-01-1.52806E+01-1.97945E+00-5.05566E-01 1.98819E-12 3.33674E-13
 -1      1674 8.77149E+00-9.63009E-01-4.75558E-01 5.43175E+00 2.81553E-13-4.64184E-13
 -1      1675 4.99330E+00-7.13500E+00-1.31732E+00 2.07005E+00 1.10201E-12-1.25011E-13
 -1      1676 2.02581E+01 5.16845E+00 3.81401E-01 1.06601E+01-1.34892E-13-3.71481E-13
 -1      1677 1.28710E+01 1.62013E+00-5.84514E-01 6.66141E+00 7.06102E-14-1.40665E-13
 -1      1678 3.63066E+01 6.37518E+00 1.23171E+00 1.30455E+01-2.16271E-13-1.26699E-12
 -1      1679 2.61235E+01 6.13712E+00 2.88193E-01 1.11419E+01-1.23901E-13-6.62137E-13
 -1      1680 5.07469E+01 5.19314E+00 1.90673E+00 1.07586E+01-3.38313E-13-1.57796E-12
 -1      1681 4.16810E+01 7.04684E+00 1.22500E+00 1.29681E+01-3.20799E-13-1.32627E-12
 -1      1682 5.74323E+01 3.86070E+00 2.04405E+00 2.90075E+00-1.64924E-13-1.62392E-12
 -1      1683 5.34666E+01 5.06752E+00 1.79450E+00 8.21617E+00-3.09586E-13-1.56664E-12
 -1      1684 5.58111E+01 4.10608E+00 1.89875E+00-5.44616E+00 2.07168E-13-1.58484E-12
 -1      1685 5.85731E+01 3.55233E+00 2.12639E+00 3.04588E-01-2.14828E-14-1.67555E-12
 -1      1686 4.37379E+01 5.65437E+00 1.12632E+00-1.02947E+01 6.91197E-13-1.50679E-12
 -1      1687 5.23467E+01 4.17145E+00 1.84739E+00-7.27031E+00 4.91045E-13-1.33171E-12
 -1      1688 2.80995E+01 4.97587E+00 2.04986E-01-9.83690E+00 1.23934E-12-1.51190E-12
 -1      1689 3.86060E+01 4.85169E+00 1.13202E+00-1.08758E+01 9.24316E-13-1.49458E-12
 -1      1690 1.39939E+01 1.42042E+00-6.08004E-01-6.37135E+00 1.66023E-12-1.53055E-12
 -1      1691 2.20983E+01 4.34139E+00 3.53607E-01-1.00727E+01 1.42597E-12-1.54410E-12
 -1      1692 5.45555E+00-6.37608E+00-1.22932E+00-1.94209E+00 1.46705E-12-1.08769E-12
 -1      1693 9.67852E+00-7.99390E-01-4.33750E-01-5.35574E+00 1.57785E-12-1.56775E-12
 -1      1694 5.12872E-01-1.37379E+01-1.81534E+00 8.60581E-01 1.68610E-12-5.86635E-13
 -1      1695 1.34848E+00-8.33048E+00-1.26970E+00-3.35717E-02 1.64058E-12-7.04881E-13
 -1      1696-5.76899E-01-1.78453E+01-1.89624E+00 3.60480E-01 1.12843E-12-4.10533E-13
 -1      1697-6.26554E-01-1.50882E+01-1.67800E+00 1.47062E+00 1.53133E-12-6.13121E-13
 -1      1698-8.58671E-01-1.70697E+01-1.77244E+00-8.31341E-01 6.77236E-14-4.01956E-13
 -1      1699-8.56787E-01-1.83534E+01-1.91841E+00 8.82182E-01 7.88654E-13-3.98154E-13
 -1      1700 9.74841E-01-1.01622E+01-1.18292E+00 4.91897E-01-6.61027E-13-6.41029E-13
 -1      1701 4.06868E-01-1.49959E+01-1.61584E+00 4.31206E-01-4.98490E-14-3.88328E-13
 -1      1702 4.92250E+00-2.41878E+00-7.20846E-01 3.24374E+00-1.10378E-12-8.66918E-13
 -1      1703 2.70769E+00-8.31029E+00-1.39775E+00 9.65054E-01-8.55649E-13-6.09457E-13
 -1      1704 1.45619E+01 3.79439E+00 3.99623E-02 8.57080E+00-1.00053E-12-7.79599E-13
 -1      1705 8.93712E+00-5.07636E-01-8.21274E-01 4.80446E+00-1.14708E-12-9.03944E-13
 -1      1706 2.78023E+01 6.62640E+00 7.66273E-01 1.24673E+01-6.54699E-13-3.26406E-13
 -1      1707 1.91734E+01 5.43486E+00-1.08004E-01 9.68083E+00-1.07836E-12-6.58362E-13
 -1      1708 4.22376E+01 5.50087E+00 1.26613E+00 1.14485E+01-1.62870E-13-3.89577E-13
 -1      1709 3.31125E+01 6.67010E+00 5.99543E-01 1.18519E+01-3.38618E-13-3.37730E-13
 -1      1710 5.27761E+01 4.21234E+00 1.66332E+00 5.49411E+00-1.74999E-13-1.43219E-13
 -1      1711 4.60165E+01 5.68018E+00 1.16555E+00 9.46884E+00-1.97245E-13-3.60267E-13
 -1      1712 5.71588E+01 3.74822E+00 1.96306E+00-2.70831E+00-4.14668E-13 6.28442E-13
 -1      1713 5.62600E+01 3.80261E+00 1.80618E+00 3.51724E+00-3.24241E-13-1.15463E-14
 -1      1714 4.97884E+01 5.58281E+00 1.58546E+00-1.03888E+01-4.07709E-13 9.86988E-13
 -1      1715 5.57721E+01 3.92080E+00 1.98415E+00-5.69863E+00-3.53273E-13 7.40852E-13
 -1      1716 3.61229E+01 6.92174E+00 8.49730E-01-1.23122E+01-4.39815E-13 8.02469E-13
 -1      1717 4.52204E+01 5.63768E+00 1.55664E+00-1.14597E+01-4.39204E-13 9.32476E-13
 -1      1718 2.21381E+01 5.79534E+00 1.10022E-01-1.04989E+01-1.66422E-13 4.86722E-13
 -1      1719 3.09907E+01 6.57880E+00 9.53278E-01-1.28927E+01-2.54574E-13 9.92095E-13
 -1      1720 1.05272E+01 7.61651E-01-6.93043E-01-5.75289E+00 1.62981E-13 1.16018E-13
 -1      1721 1.68272E+01 4.75917E+00 2.25411E-01-9.67047E+00-1.28342E-13 4.49307E-13
 -1      1722 4.19452E+00-7.72097E+00-1.35430E+00-1.73319E+00 1.15730E-12 2.55351E-14
 -1      1723 7.17261E+00-1.82957E+00-5.71528E-01-4.54246E+00 4.15890E-13 1.90514E-13
 -1      1724 5.45997E-01-1.53859E+01-1.90875E+00 2.17320E-01 2.40652E-12-3.00864E-13
 -1      1725 1.25045E+00-9.90052E+00-1.33689E+00-3.11093E-01 1.71796E-12-3.66096E-14
 -1      1726-7.28103E-01-1.95507E+01-2.14990E+00-3.12799E-01 2.73145E-12-2.23793E-13
 -1      1727-7.44367E-01-1.71948E+01-1.92796E+00 1.22956E+00 2.71649E-12-5.47284E-13
 -1      1728 2.77081E+01 7.38253E-01 3.81401E-01 7.55230E+00-7.71605E-14-8.51763E-13
 -1      1729 1.66123E+01-4.13075E+00-3.41909E-01 6.92908E+00 2.28817E-13-4.77729E-13
 -1      1730 2.01399E+01 1.93120E-01-2.17737E-02 2.16053E-01-1.96559E-13-2.50911E-13
 -1      1731 2.03074E+01 4.29150E-01-1.74374E-02 5.97572E-01-7.47423E-14-9.70595E-14
 -1      1732 5.26998E-01-1.20863E+01-1.36770E+00 2.36454E+00 1.61782E-12-2.17271E-13
 -1      1733 7.19933E+00-8.29686E+00-7.94998E-01 5.25389E+00 9.04610E-13-6.09887E-13
 -1      1734-1.59231E+00-1.34735E+01-1.52701E+00 3.01836E-02 1.87146E-12 2.69784E-14
 -1      1735 3.84872E+01 4.52684E+00 1.02758E+00 6.80321E+00 3.05311E-15-1.21436E-12
 -1      1736 4.63350E+01 7.09824E+00 1.55182E+00 4.61066E+00-1.14020E-13-1.18483E-12
 -1      1737 4.94934E+01 7.81846E+00 1.72871E+00 1.01160E+00-1.37779E-13-1.56057E-12
 -1      1738 4.72925E+01 6.86023E+00 1.54647E+00-2.12204E+00 2.96096E-13-1.27953E-12
 -1      1739 3.93470E+01 4.07678E+00 9.42521E-01-4.06679E+00 7.24212E-13-9.88765E-13
 -1      1740 2.91979E+01 2.28918E-01 3.92240E-01-5.86968E+00 1.08979E-12-1.08624E-12
 -1      1741 1.77171E+01-4.22670E+00-3.12129E-01-6.06371E+00 1.08291E-12-1.14059E-12
 -1      1742 7.82814E+00-7.72971E+00-6.92408E-01-4.77740E+00 1.18594E-12-8.34027E-13
 -1      1743 8.78379E-01-1.11648E+01-1.23819E+00-2.09960E+00 1.09374E-12-5.76955E-13
 -1      1744-1.50676E+00-1.27009E+01-1.37156E+00-1.66660E-01 6.17756E-13-7.04548E-13
 -1      1745-1.76205E-01-1.10938E+01-1.10647E+00 2.38387E+00 2.11386E-13-7.42462E-13
 -1      1746 4.38751E+00-8.47100E+00-9.18439E-01 4.35930E+00-2.10276E-13-5.54390E-13
 -1      1747 1.19799E+01-4.42927E+00-4.75290E-01 6.12643E+00-4.52083E-13-5.07705E-13
 -1      1748 2.19383E+01-1.39496E-01 1.06555E-01 7.45073E+00-7.35745E-13-1.61759E-13
 -1      1749 3.25701E+01 3.48201E+00 7.45699E-01 7.27217E+00-5.10425E-13-1.76859E-13
 -1      1750 4.09105E+01 5.91036E+00 1.08468E+00 4.54149E+00-2.15966E-13-1.75637E-13
 -1      1751 4.67738E+01 7.52470E+00 1.39960E+00 1.45536E+00-3.85691E-13 1.19571E-13
 -1      1752 4.90444E+01 7.50738E+00 1.67827E+00-2.13694E+00-5.58886E-13 1.77747E-13
 -1      1753 4.34376E+01 6.32064E+00 1.28777E+00-5.31256E+00-3.21326E-13 5.74762E-13
 -1      1754 3.47757E+01 3.83618E+00 8.35781E-01-7.13289E+00-2.35645E-14 6.71241E-13
 -1      1755 2.43992E+01 4.75061E-01 2.82621E-01-7.85313E+00 1.89848E-14 6.03295E-13
 -1      1756 1.42830E+01-4.27912E+00-4.15897E-01-6.70728E+00 4.07341E-13 3.49387E-13
 -1      1757 6.25420E+00-8.61429E+00-8.82117E-01-5.05492E+00 1.16118E-12 6.01887E-13
 -1      1758 3.82208E-01-1.21584E+01-1.35863E+00-2.57673E+00 1.91525E-12 7.67719E-14
 -1      1759 2.28606E+01 1.98483E+00-2.35560E-02-2.72236E+00-3.41182E-13 1.27195E-12
 -1      1760 1.98222E+01 3.71852E+00-3.48793E-02-2.15492E+00-4.30413E-13-5.13829E-13
 -1      1761 2.00516E+01 3.56054E+00-4.29274E-02-2.44150E+00-4.99458E-13-3.72893E-13
 -1      1762 2.03654E+01 3.18232E+00-4.52152E-02-2.58494E+00-4.98140E-13-1.92117E-13
 -1      1763 2.05846E+01 2.80918E+00-1.42619E-01-2.85318E+00-5.32317E-13 5.72112E-14
 -1      1764 2.04304E+01 2.69112E+00-3.00632E-03-2.22131E+00-5.23531E-13-2.56042E-13
 -1      1765 1.93545E+01 4.18900E+00-2.01971E-02-1.27043E+00-2.48248E-13-7.36439E-13
 -1      1766 1.94279E+01 4.14929E+00-1.71697E-02-1.49484E+00-3.01632E-13-7.12177E-13
 -1      1767 1.92578E+01 4.29468E+00-1.68161E-02-8.59589E-01-1.43601E-13-7.62813E-13
 -1      1768 1.93005E+01 4.27075E+00-1.43721E-02-1.07035E+00-1.91205E-13-7.55271E-13
 -1      1769 1.95262E+01 3.78294E+00-9.32278E-03-1.11950E+00-2.40738E-13-7.12383E-13
 -1      1770 1.92062E+01 4.35508E+00-1.48086E-02-4.66746E-01-3.65743E-14-7.70261E-13
 -1      1771 1.92281E+01 4.34224E+00-1.33309E-02-6.67037E-01-8.62535E-14-7.70023E-13
 -1      1772 1.94291E+01 3.90327E+00-9.23527E-03-7.33147E-01-1.20512E-13-7.36838E-13
 -1      1773 1.91868E+01 4.38069E+00-1.36703E-02-8.36113E-02 5.19667E-14-7.88505E-13
 -1      1774 1.91932E+01 4.37677E+00-1.32189E-02-2.79043E-01 1.71029E-14-7.83516E-13
 -1      1775 1.93788E+01 3.96774E+00-9.16773E-03-3.58259E-01-1.00171E-14-7.54289E-13
 -1      1776 1.91949E+01 4.37540E+00-1.31715E-02 2.98111E-01 1.30574E-13-7.77073E-13
 -1      1777 1.91873E+01 4.37986E+00-1.37524E-02 1.02520E-01 9.51631E-14-7.86584E-13
 -1      1778 1.93640E+01 3.98715E+00-9.14739E-03 1.05721E-02 7.79202E-14-7.65932E-13
 -1      1779 1.92322E+01 4.33824E+00-1.33303E-02 6.86797E-01 2.07793E-13-7.58971E-13
 -1      1780 1.92089E+01 4.35192E+00-1.49167E-02 4.86017E-01 1.72149E-13-7.72769E-13
 -1      1781 1.93814E+01 3.96445E+00-9.19056E-03 3.79585E-01 1.57598E-13-7.56676E-13
 -1      1782 1.93059E+01 4.26484E+00-1.44102E-02 1.08440E+00 2.94516E-13-6.94639E-13
 -1      1783 1.92624E+01 4.28930E+00-1.69752E-02 8.76450E-01 2.53050E-13-7.36184E-13
 -1      1784 1.94344E+01 3.89698E+00-9.19448E-03 7.51687E-01 2.50464E-13-7.30820E-13
 -1      1785 1.94378E+01 4.13764E+00-1.74051E-02 1.51438E+00 3.95011E-13-5.86278E-13
 -1      1786 1.93612E+01 4.18021E+00-2.05051E-02 1.28485E+00 3.34472E-13-6.44375E-13
 -1      1787 1.95342E+01 3.77306E+00-9.24567E-03 1.13538E+00 3.41667E-13-6.41862E-13
 -1      1788 1.96673E+01 3.92112E+00-2.51958E-02 1.97944E+00 5.07214E-13-4.37334E-13
 -1      1789 1.95343E+01 3.99787E+00-2.69035E-02 1.72211E+00 4.44692E-13-5.26339E-13
 -1      1790 1.97079E+01 3.56599E+00-8.70323E-03 1.53509E+00 4.47038E-13-5.20299E-13
 -1      1791 2.00763E+01 3.52281E+00-4.51836E-02 2.47185E+00 5.73942E-13-1.53343E-13
 -1      1792 1.98361E+01 3.68326E+00-3.97234E-02 2.18276E+00 5.27223E-13-3.24032E-13
 -1      1793 2.00047E+01 3.22290E+00-5.26626E-03 1.93440E+00 5.51869E-13-3.45435E-13
 -1      1794 2.09220E+01 2.68182E+00-5.76466E-02 2.85757E+00 5.66491E-13 3.78877E-13
 -1      1795 2.04144E+01 3.09695E+00-5.04299E-02 2.61577E+00 5.60902E-13 6.09859E-14
 -1      1796 2.05182E+01 2.60995E+00 3.18841E-03 2.24434E+00 5.93023E-13-2.85570E-14
 -1      1797 2.17325E+01 1.21298E+00-1.22092E-01 2.32968E+00 4.73448E-13 1.04272E-12
 -1      1798 2.12759E+01 2.26305E+00 1.17561E-04 2.74025E+00 5.22976E-13 6.08985E-13
 -1      1799 2.09386E+01 1.68503E+00-2.29567E-02 2.13999E+00 5.80699E-13 3.77209E-13
 -1      1800 2.09539E+01 7.78677E-01-6.24464E-02 1.52398E+00 4.88318E-13 8.87750E-13
 -1      1801 2.17985E+01 2.45802E+00 9.08962E-02-3.04806E+00-4.59414E-13 4.93355E-13
 -1      1802 2.01032E+01 2.97937E-01-8.91414E-03 6.56838E-01 3.93300E-13 6.63159E-13
 -1      1803 2.06552E+01 4.40408E-01-1.24651E-02 1.03387E+00 4.16368E-13 7.99147E-13
 -1      1804 2.07463E+01 8.45121E-01 2.24877E-03 1.41492E+00 4.99045E-13 4.98117E-13
 -1      1805 2.15089E+01 1.74229E+00 7.95262E-02-2.33724E+00-4.96603E-13 3.06657E-13
 -1      1806 2.05222E+01 5.00713E-01 3.24588E-02-9.21408E-01-4.11782E-13 2.29989E-13
 -1      1807 2.00910E+01 3.52029E-01 7.70583E-03-6.29567E-01-3.60725E-13 1.31099E-13
 -1      1808 1.98961E+01 2.57246E-01 2.73336E-02-3.91193E-01-3.11268E-13 1.25880E-13
 -1      1809 1.97054E+01 1.78090E-01 1.04338E-02-2.53358E-01-2.59007E-13 3.04461E-14
 -1      1810 2.02003E+01 4.83485E-01-5.90289E-03-7.22700E-01-3.92915E-13-6.47095E-14
 -1      1811 1.95831E+01 1.32615E-01 1.65624E-02-1.19876E-01-2.13188E-13 1.14466E-14
 -1      1812 1.95052E+01 9.30560E-02 6.99182E-03-4.90920E-02-1.70514E-13-3.98930E-14
 -1      1813 1.98743E+01 2.44001E-01-5.77572E-03-2.95820E-01-2.92608E-13-1.07635E-13
 -1      1814 1.94401E+01 6.82445E-02 8.62751E-03 2.43012E-02-1.50743E-13-8.00072E-14
 -1      1815 1.94257E+01 4.66159E-02 4.13115E-03 6.04229E-02-1.26346E-13-1.10424E-13
 -1      1816 1.96917E+01 1.25173E-01-4.60709E-03-5.90301E-02-2.09489E-13-1.61837E-13
 -1      1817 1.93994E+01 3.21778E-02 4.19837E-03 9.89784E-02-1.19760E-13-1.35098E-13
 -1      1818 1.94191E+01 1.97722E-02 2.44340E-03 1.15650E-01-1.19603E-13-1.80505E-13
 -1      1819 1.96050E+01 6.07143E-02-3.43928E-03 7.03366E-02-1.57812E-13-2.19345E-13
 -1      1820 1.94171E+01 1.10628E-02 1.82757E-03 1.33399E-01-1.42302E-13-1.70643E-13
 -1      1821 1.94540E+01 3.90050E-03 1.45134E-03 1.38685E-01-1.14145E-13-1.84599E-13
 -1      1822 1.95805E+01 2.37024E-02-2.33687E-03 1.36436E-01-1.34428E-13-2.24702E-13
 -1      1823 1.94662E+01-1.34152E-03 5.32870E-04 1.43884E-01-9.91527E-14-1.67798E-13
 -1      1824 1.95101E+01-5.31191E-03 8.32622E-04 1.42503E-01-7.25995E-14-1.98229E-13
 -1      1825 1.95936E+01 2.07112E-03-1.45572E-03 1.64375E-01-1.18069E-13-2.08398E-13
 -1      1826 1.95297E+01-8.33027E-03-1.83470E-04 1.40285E-01-1.01733E-13-2.05164E-13
 -1      1827 1.95746E+01-1.02791E-02 4.34577E-04 1.35187E-01-1.19309E-13-1.90538E-13
 -1      1828 1.96276E+01-1.02495E-02-8.22719E-04 1.69328E-01-1.07434E-13-2.24707E-13
 -1      1829 1.95973E+01-1.18281E-02-5.64778E-04 1.28864E-01-1.57919E-13-1.97046E-13
 -1      1830 1.96399E+01-1.24745E-02 1.83136E-04 1.21957E-01-1.57358E-13-2.52265E-13
 -1      1831 1.96717E+01-1.66616E-02-3.97606E-04 1.60914E-01-1.74184E-13-2.37621E-13
 -1      1832 1.96629E+01-1.30415E-02-7.39913E-04 1.13713E-01-1.27240E-13-2.67718E-13
 -1      1833 1.97013E+01-1.28474E-02 3.61801E-05 1.06250E-01-4.24182E-14-3.09251E-13
 -1      1834 1.97188E+01-1.92368E-02-1.28826E-04 1.45412E-01-1.54650E-13-1.87714E-13
 -1      1835 1.97232E+01-1.27569E-02-7.84781E-04 9.75342E-02-1.32495E-15-3.34199E-13
 -1      1836 1.97568E+01-1.20225E-02-3.34101E-05 9.03399E-02 4.07133E-14-3.22990E-13
 -1      1837 1.97648E+01-1.93030E-02 2.67510E-05 1.26986E-01-4.13835E-14-2.67541E-13
 -1      1838 1.97768E+01-1.14901E-02-7.47489E-04 8.21174E-02 4.26369E-14-3.53351E-13
 -1      1839 1.98056E+01-1.04061E-02-4.35969E-05 7.57354E-02 2.08184E-14-3.70245E-13
 -1      1840 1.98075E+01-1.77271E-02 1.01046E-04 1.08413E-01 2.76980E-14-3.13637E-13
 -1      1841 1.98236E+01-9.57052E-03-6.59433E-04 6.86567E-02-2.23546E-14-3.66262E-13
 -1      1842 1.98483E+01-8.24909E-03-5.73380E-06 6.34543E-02-7.57601E-14-3.17546E-13
 -1      1843 1.98460E+01-1.50663E-02 1.16603E-04 9.15557E-02-1.15183E-14-3.34756E-13
 -1      1844 1.98645E+01-7.19188E-03-5.41022E-04 5.79745E-02-1.33142E-13-3.21434E-13
 -1      1845 1.98860E+01-5.68729E-03 7.38285E-05 5.42176E-02-1.05783E-13-3.36956E-13
 -1      1846 1.98806E+01-1.16568E-02 8.88202E-05 7.76920E-02-1.21725E-13-3.33481E-13
 -1      1847 1.99010E+01-4.44750E-03-4.05120E-04 5.06849E-02-6.71106E-14-3.65240E-13
 -1      1848 1.99204E+01-2.77135E-03 1.92467E-04 4.85940E-02-6.12907E-14-3.49449E-13
 -1      1849 1.99121E+01-7.67206E-03 2.77807E-05 6.77503E-02-1.16611E-13-3.17170E-13
 -1      1850 1.99350E+01-1.35721E-03-2.59413E-04 4.73136E-02-7.05410E-14-3.89757E-13
 -1      1851 1.99538E+01 5.08990E-04 3.50120E-04 4.71036E-02 1.41609E-14-3.85386E-13
 -1      1852 1.99418E+01-3.16641E-03-6.02631E-05 6.24829E-02-8.47654E-14-3.45749E-13
 -1      1853 1.99689E+01 2.10962E-03-1.08198E-04 4.83827E-02 8.30481E-14-4.54188E-13
 -1      1854 1.99888E+01 4.20252E-03 5.48014E-04 5.02894E-02 5.19264E-14-4.15682E-13
 -1      1855 1.99715E+01 1.88922E-03-1.71693E-04 6.25896E-02 9.75422E-15-3.36076E-13
 -1      1856 2.00055E+01 6.01127E-03 4.61715E-05 5.44632E-02 7.13261E-15-4.03923E-13
 -1      1857 2.00283E+01 8.37245E-03 7.87086E-04 5.87557E-02 3.54622E-14-4.01333E-13
 -1      1858 2.00035E+01 7.57307E-03-3.04455E-04 6.87973E-02 2.98959E-14-4.08001E-13
 -1      1859 2.00481E+01 1.04076E-02 2.01988E-04 6.61931E-02 3.62603E-14-3.84558E-13
 -1      1860 2.00758E+01 1.30668E-02 1.06587E-03 7.31696E-02 3.27359E-15-3.64950E-13
 -1      1861 2.00402E+01 1.39745E-02-4.56991E-04 8.18974E-02 1.59025E-14-3.09567E-13
 -1      1862 2.01001E+01 1.53263E-02 3.56958E-04 8.42550E-02-2.82862E-14-3.24189E-13
 -1      1863 2.01351E+01 1.82785E-02 1.37752E-03 9.42160E-02 1.19094E-15-2.73232E-13
 -1      1864 2.00844E+01 2.11461E-02-6.27118E-04 1.02731E-01 5.27013E-14-1.99217E-13
 -1      1865 2.01656E+01 2.07170E-02 5.06953E-04 1.09298E-01 3.52095E-15-2.52321E-13
 -1      1866 2.02103E+01 2.38895E-02 1.70569E-03 1.22490E-01 5.88230E-14-2.34074E-13
 -1      1867 2.01394E+01 2.90384E-02-8.10809E-04 1.32114E-01 8.19242E-15-1.76018E-13
 -1      1868 2.02486E+01 2.63850E-02 6.44763E-04 1.41785E-01 1.53070E-14-2.63236E-13
 -1      1869 2.03057E+01 2.95907E-02 2.01891E-03 1.58301E-01 5.02317E-14-2.95984E-13
 -1      1870 2.02085E+01 3.74077E-02-1.00082E-03 1.70670E-01 1.91305E-14-1.91715E-13
 -1      1871 2.03535E+01 3.18996E-02 7.58931E-04 1.81734E-01 6.06735E-14-3.63100E-13
 -1      1872 2.04252E+01 3.47730E-02 2.26348E-03 2.01354E-01-2.76743E-14-3.65835E-13
 -1      1873 2.02952E+01 4.56866E-02-1.18522E-03 2.18555E-01 5.85540E-15-3.58281E-13
 -1      1874 2.04843E+01 3.64689E-02 8.32933E-04 2.28323E-01-2.72329E-14-3.67133E-13
 -1      1875 2.05724E+01 3.83819E-02 2.35524E-03 2.50278E-01 4.51764E-14-3.05799E-13
 -1      1876 2.04029E+01 5.28071E-02-1.34587E-03 2.75012E-01 2.37438E-14-3.76491E-13
 -1      1877 2.06441E+01 3.87814E-02 8.45183E-04 2.79304E-01 2.91802E-14-3.09885E-13
 -1      1878 2.07493E+01 3.87458E-02 2.17232E-03 3.01945E-01 6.79730E-14-3.60543E-13
 -1      1879 2.05346E+01 5.69748E-02-1.45697E-03 3.37739E-01 7.74436E-14-2.71845E-13
 -1      1880 2.08342E+01 3.68306E-02 7.70541E-04 3.30220E-01 7.29941E-14-2.96846E-13
 -1      1881 2.09552E+01 3.34102E-02 1.55304E-03 3.50588E-01 7.23645E-14-2.31198E-13
 -1      1882 2.06922E+01 5.54131E-02-1.48358E-03 4.02009E-01 1.24608E-13-2.39037E-13
 -1      1883 2.10530E+01 2.77786E-02 5.83857E-04 3.73423E-01 6.20548E-14-2.20361E-13
 -1      1884 2.11853E+01 1.90703E-02 3.07762E-04 3.86780E-01 1.28381E-13-1.84497E-13
 -1      1885 2.08760E+01 4.41499E-02-1.37989E-03 4.59572E-01 1.05418E-13-2.53482E-13
 -1      1886 2.12941E+01 7.99253E-03 2.65107E-04 3.97056E-01 2.63422E-14-2.31320E-13
 -1      1887 2.14287E+01-8.19652E-03-1.74068E-03 3.96495E-01-7.70753E-14-1.75916E-13
 -1      1888 2.10833E+01 1.80244E-02-1.08599E-03 4.97458E-01 2.72912E-14-2.34247E-13
 -1      1889 2.15442E+01-2.64772E-02-1.96802E-04 3.84368E-01-1.15868E-13-1.85674E-13
 -1      1890 2.16665E+01-5.20378E-02-4.66877E-03 3.60854E-01-4.99653E-14-2.55704E-13
 -1      1891 2.13075E+01-2.87279E-02-5.21780E-04 4.97047E-01-4.94419E-14-1.46826E-13
 -1      1892 2.17812E+01-7.85338E-02-8.08373E-04 3.14216E-01-3.16429E-14-2.48521E-13
 -1      1893 2.18700E+01-1.13758E-01-8.30130E-03 2.57627E-01-3.68564E-14-2.55871E-13
 -1      1894 2.15362E+01-1.00713E-01 4.20902E-04 4.34207E-01-5.85640E-14-8.41937E-14
 -1      1895 2.19717E+01-1.47254E-01-1.59165E-03 1.64191E-01 4.25762E-14-2.35112E-13
 -1      1896 2.20004E+01-1.88644E-01-1.20113E-02 6.62006E-02 1.08010E-13-2.14773E-13
 -1      1897 2.17496E+01-1.97690E-01 1.87544E-03 2.81938E-01 3.31089E-14 1.38337E-14
 -1      1898 2.20711E+01-2.23493E-01-2.61166E-03-8.16844E-02 9.41426E-14-1.91757E-13
 -1      1899 2.20115E+01-2.61070E-01-1.45625E-02-2.22131E-01 7.51448E-14-9.28802E-14
 -1      1900 2.19175E+01-3.08601E-01 3.94831E-03 1.76622E-02 1.18167E-13-8.60138E-14
 -1      1901 2.20272E+01-2.85084E-01-3.95331E-03-4.19190E-01 1.19574E-14-1.39258E-13
 -1      1902 2.18576E+01-3.01061E-01-1.42195E-02-5.88215E-01 4.03358E-14-1.64290E-13
 -1      1903 2.19990E+01-4.04716E-01 6.54051E-03-3.62738E-01 4.52689E-14-8.12977E-14
 -1      1904 2.17917E+01-2.95939E-01-5.50408E-03-8.05925E-01-6.93282E-15-2.69064E-13
 -1      1905 2.15092E+01-2.68586E-01-9.46210E-03-9.68118E-01-5.27026E-14-2.95233E-13
 -1      1906 2.19452E+01-4.37314E-01 9.00349E-03-8.24400E-01-6.19166E-14-1.76164E-14
 -1      1907 2.13440E+01-2.16606E-01-6.55609E-03-1.14884E+00-3.59166E-14-2.56582E-13
 -1      1908 2.09760E+01-1.32703E-01-4.96387E-04-1.24901E+00-1.11902E-13-2.00659E-13
 -1      1909 2.17137E+01-3.49762E-01 9.80341E-03-1.27422E+00-2.89291E-14-2.04079E-14
 -1      1910 2.07225E+01-3.14432E-02-5.73360E-03-1.31601E+00-3.51849E-14-1.80555E-13
 -1      1911 2.03315E+01 9.56106E-02 9.55770E-03-1.29770E+00 3.16793E-14-1.34482E-13
 -1      1912 2.12974E+01-1.11202E-01 6.94741E-03-1.56223E+00-2.93075E-14-5.40700E-14
 -1      1913 2.00468E+01 2.18892E-01-1.33011E-03-1.19080E+00-4.29899E-14-1.43689E-13
 -1      1914 1.97165E+01 3.41353E-01 1.54587E-02-1.03024E+00-4.50360E-14-9.73540E-14
 -1      1915 2.07625E+01 2.36763E-01-7.71185E-04-1.52996E+00-2.34543E-14-6.74643E-14
 -1      1916 1.94954E+01 4.31934E-01 6.96366E-03-7.53457E-01-8.32329E-14 3.05918E-14
 -1      1917 1.93022E+01 4.87392E-01 1.42068E-02-4.89528E-01-8.75289E-14-3.87358E-14
 -1      1918 2.02575E+01 5.66416E-01-9.75924E-03-1.10475E+00-5.44486E-14 3.87910E-14
 -1      1919 1.92255E+01 4.95372E-01 1.56168E-02-1.34880E-01-1.35841E-13-5.98936E-14
 -1      1920 1.92032E+01 4.53155E-01 7.39313E-03 1.37554E-01-1.19480E-13-4.00812E-14
 -1      1921 1.99592E+01 7.18057E-01-1.31175E-02-3.91875E-01-1.21112E-13 1.99296E-13
 -1      1922 1.92770E+01 3.75426E-01 1.86359E-02 4.34911E-01-9.51322E-15-7.05729E-15
 -1      1923 1.94027E+01 2.60623E-01-2.77461E-04 6.17737E-01 2.19919E-13 5.34451E-14
 -1      1924 1.99537E+01 6.10215E-01-8.48946E-03 3.44581E-01-8.87398E-15 2.67576E-13
 -1      1925 1.95564E+01 1.41926E-01 1.34222E-02 7.57779E-01 3.42614E-13-1.08750E-13
 -1      1926 1.97619E+01 1.64230E-02-4.82288E-03 8.03708E-01 3.10342E-13-3.43683E-14
 -1      1927 2.01766E+01 3.04939E-01-2.51127E-04 8.31648E-01 1.58361E-13 2.10027E-13
 -1      1928 1.99000E+01-8.39074E-02 3.12978E-03 7.72865E-01 2.21940E-13-1.09921E-13
 -1      1929 2.01062E+01-1.64865E-01-4.97751E-03 7.02296E-01 1.84637E-13 7.33970E-14
 -1      1930 2.04626E+01-3.77116E-02 5.83335E-03 9.41958E-01 2.82797E-13-1.23716E-13
 -1      1931 2.01662E+01-2.11374E-01-6.58890E-03 5.62179E-01 1.03717E-13-3.32286E-15
 -1      1932 2.03164E+01-2.27505E-01-2.07734E-03 4.37038E-01 1.79599E-13 1.78530E-14
 -1      1933 2.06571E+01-2.67992E-01 7.51331E-03 7.37576E-01 8.44604E-14 4.76049E-14
 -1      1934 2.02864E+01-2.17282E-01-1.14263E-02 2.74686E-01-5.65147E-14-1.51004E-13
 -1      1935 2.03608E+01-1.81515E-01 1.67031E-03 1.61113E-01-1.94086E-13-2.14955E-13
 -1      1936 2.06892E+01-3.23950E-01 6.41239E-03 3.91580E-01-9.01742E-14-9.88460E-14
 -1      1937 2.02678E+01-1.37459E-01-1.17736E-02 4.48132E-02-1.70214E-13-3.88985E-13
 -1      1938 2.02793E+01-7.53527E-02 4.49051E-03-1.80303E-02-7.92647E-14-3.77185E-13
 -1      1939 2.05735E+01-2.33193E-01 4.92269E-03 8.06369E-02-3.16260E-13-3.15067E-13
 -1      1940 2.01636E+01-3.25322E-02-9.14239E-03-4.69235E-02 3.24797E-14-2.98817E-13
 -1      1941 2.01499E+01 1.57728E-02 5.85222E-03-5.59012E-02 8.05625E-14-2.65040E-13
 -1      1942 2.01778E+01 3.08246E-02 2.56714E-03-9.07814E-02 1.19933E-13-2.76933E-13
 -1      1943 2.03767E+01-7.19781E-02 6.73599E-03-8.23800E-02-3.99342E-14-2.72923E-13
 -1      1944 1.96206E+01 1.42019E-01 7.88141E-03 2.59234E-01 3.04085E-13 4.66200E-13
 -1      1945 1.98926E+01 2.04083E-01 1.64326E-02 4.32225E-01 3.41218E-13 5.94467E-13
 -1      1946 2.01040E+01 3.50538E-01-1.53132E-03 6.54754E-01 4.13549E-13 3.59259E-13
 -1      1947 1.93783E+01 7.19071E-02 6.94566E-03 5.62843E-02 1.97070E-13 3.10116E-13
 -1      1948 1.94933E+01 1.01786E-01 1.41910E-02 1.44795E-01 2.21178E-13 4.08232E-13
 -1      1949 1.97114E+01 1.65172E-01-1.94585E-03 2.56036E-01 2.86434E-13 2.63851E-13
 -1      1950 1.92879E+01 3.61381E-02 4.42632E-03-4.91666E-02 1.34697E-13 2.21950E-13
 -1      1951 1.93180E+01 5.19568E-02 8.33166E-03-1.95906E-03 1.62011E-13 2.85588E-13
 -1      1952 1.95112E+01 8.06634E-02-2.83102E-03 4.40755E-02 2.02813E-13 1.36394E-13
 -1      1953 1.92862E+01 1.61817E-02 2.85967E-03-1.01630E-01 9.56353E-14 1.13584E-13
 -1      1954 1.92710E+01 2.50514E-02 4.34854E-03-7.70183E-02 8.96349E-14 1.83610E-13
 -1      1955 1.94321E+01 3.74416E-02-2.84815E-03-6.78075E-02 1.30974E-13 4.39616E-14
 -1      1956 1.93334E+01 4.54638E-03 1.98582E-03-1.23671E-01 1.34033E-13 8.15914E-14
 -1      1957 1.92951E+01 9.57874E-03 2.14451E-03-1.12260E-01 9.90780E-14 9.93392E-14
 -1      1958 1.94256E+01 1.36067E-02-2.31095E-03-1.23307E-01 1.30423E-13-4.46633E-14
 -1      1959 1.94047E+01-2.24134E-03 1.44300E-03-1.27832E-01 7.98040E-14 9.83666E-14
 -1      1960 1.93563E+01 5.03269E-04 9.46824E-04-1.24352E-01 1.20940E-13 1.15619E-13
 -1      1961 1.94600E+01 2.32045E-05-1.69094E-03-1.45790E-01 1.18148E-13-1.30681E-14
 -1      1962 1.94851E+01-5.99984E-03 1.06262E-03-1.21661E-01 5.84741E-14-3.38003E-14
 -1      1963 1.94342E+01-4.68408E-03 2.75033E-04-1.22898E-01 8.47657E-14 8.00450E-14
 -1      1964 1.95155E+01-7.57262E-03-1.16995E-03-1.48742E-01 1.12442E-13-1.54591E-14
 -1      1965 1.95653E+01-7.79889E-03 7.79972E-04-1.09950E-01-2.62897E-15-6.44818E-14
 -1      1966 1.95164E+01-7.38689E-03-1.05326E-04-1.13835E-01 1.78937E-14-8.34682E-14
 -1      1967 1.95793E+01-1.14470E-02-7.79405E-04-1.40470E-01 7.78990E-14-7.30396E-14
 -1      1968 1.96401E+01-8.31504E-03 5.68667E-04-9.58129E-02 9.09661E-14-7.95141E-14
 -1      1969 1.95956E+01-8.47014E-03-3.09539E-04-1.00980E-01 6.73472E-14-7.13484E-14
 -1      1970 1.96438E+01-1.29402E-02-5.01225E-04-1.26304E-01 7.52053E-14-1.21866E-13
 -1      1971 1.97069E+01-7.99073E-03 4.14236E-04-8.12927E-02 1.30566E-13-1.27618E-13
 -1      1972 1.96680E+01-8.49237E-03-4.00394E-04-8.68309E-02 1.01119E-13-1.03535E-13
 -1      1973 1.97045E+01-1.28968E-02-3.10032E-04-1.09737E-01 1.16809E-13-1.64314E-13
 -1      1974 1.97651E+01-7.11525E-03 3.07028E-04-6.77311E-02 2.35392E-13-1.59425E-13
 -1      1975 1.97317E+01-7.81989E-03-4.16199E-04-7.30283E-02 1.89406E-13-1.26290E-13
 -1      1976 1.97594E+01-1.18636E-02-1.84725E-04-9.30712E-02 2.03432E-13-1.91297E-13
 -1      1977 1.98150E+01-5.86976E-03 2.40491E-04-5.60168E-02 9.33255E-14-2.13591E-13
 -1      1978 1.97868E+01-6.68801E-03-3.81556E-04-6.06558E-02 1.55494E-13-1.62258E-13
 -1      1979 1.98077E+01-1.01896E-02-1.09654E-04-7.78356E-02 1.65521E-13-1.44697E-13
 -1      1980 1.98579E+01-4.35420E-03 2.10674E-04-4.67647E-02-4.89820E-14-2.03973E-13
 -1      1981 1.98340E+01-5.23631E-03-3.12131E-04-5.04458E-02 2.78716E-14-2.12296E-13
 -1      1982 1.98499E+01-8.08381E-03-7.38421E-05-6.50655E-02 4.96750E-14-1.92774E-13
 -1      1983 1.98957E+01-2.60496E-03 2.16021E-04-4.04516E-02 3.72078E-14-2.58958E-13
 -1      1984 1.98750E+01-3.53090E-03-2.17202E-04-4.29340E-02-1.54519E-14-2.23632E-13
 -1      1985 1.98871E+01-5.64850E-03-7.00118E-05-5.55098E-02-5.16816E-15-1.87184E-13
 -1      1986 1.99309E+01-6.06675E-04 2.57330E-04-3.75234E-02 1.66189E-13-2.42915E-13
 -1      1987 1.99119E+01-1.57923E-03-1.01291E-04-3.85771E-02 7.64136E-14-2.59285E-13
 -1      1988 1.99212E+01-2.90209E-03-9.37994E-05-4.97887E-02 1.23938E-13-2.15594E-13
 -1      1989 1.99663E+01 1.70011E-03 3.37800E-04-3.84829E-02-1.69645E-14-2.10513E-13
 -1      1990 1.99473E+01 6.60176E-04 3.47133E-05-3.78486E-02 1.49490E-13-1.63953E-13
 -1      1991 1.99544E+01 2.06166E-04-1.43248E-04-4.85190E-02 8.28481E-14-1.59102E-13
 -1      1992 2.00053E+01 4.41431E-03 4.63167E-04-4.39646E-02-1.70879E-13-2.46070E-13
 -1      1993 1.99845E+01 3.27146E-03 1.92758E-04-4.13183E-02-1.29035E-13-2.12900E-13
 -1      1994 1.99895E+01 3.78673E-03-2.18417E-04-5.24178E-02-7.06027E-14-1.14602E-13
 -1      1995 2.00521E+01 7.67189E-03 6.41864E-04-5.48023E-02-8.87589E-14-2.13109E-13
 -1      1996 2.00271E+01 6.37799E-03 3.76984E-04-4.97222E-02-1.44898E-13-2.40432E-13
 -1      1997 2.00296E+01 8.00436E-03-3.21044E-04-6.23918E-02-1.30236E-13-1.65357E-13
 -1      1998 2.01115E+01 1.16448E-02 8.85073E-04-7.20915E-02 2.03152E-14-2.38853E-13
 -1      1999 2.00795E+01 1.01407E-02 5.93124E-04-6.40253E-02-4.89517E-17-2.35554E-13
 -1      2000 2.00788E+01 1.30753E-02-4.54273E-04-7.96162E-02-3.37815E-14-1.84265E-13
 -1      2001 2.01893E+01 1.65389E-02 1.20639E-03-9.72467E-02 1.87716E-13-3.08988E-13
 -1      2002 2.01470E+01 1.47565E-02 8.47754E-04-8.54798E-02 1.18754E-13-2.54034E-13
 -1      2003 2.01415E+01 1.92652E-02-6.22429E-04-1.05606E-01 1.39738E-13-2.94557E-13
 -1      2004 2.02926E+01 2.25869E-02 1.62059E-03-1.32049E-01 1.09826E-13-5.62072E-13
 -1      2005 2.02360E+01 2.04539E-02 1.14710E-03-1.15675E-01 1.60875E-13-4.44375E-13
 -1      2006 2.02234E+01 2.68831E-02-8.30795E-04-1.42276E-01 2.28589E-13-3.29216E-13
 -1      2007 2.04298E+01 3.00265E-02 2.14030E-03-1.78665E-01-5.83265E-14-5.54425E-13
 -1      2008 2.03539E+01 2.74786E-02 1.49492E-03-1.56568E-01-4.67852E-14-5.62769E-13
 -1      2009 2.03308E+01 3.62628E-02-1.08546E-03-1.91976E-01 1.04496E-14-4.87809E-13
 -1      2010 2.06108E+01 3.90471E-02 2.76867E-03-2.39602E-01-6.18746E-14-3.93058E-13
 -1      2011 2.05097E+01 3.60553E-02 1.88849E-03-2.10465E-01-8.13542E-14-4.57260E-13
 -1      2012 2.04714E+01 4.77134E-02-1.39339E-03-2.57469E-01-1.27950E-13-3.69094E-13
 -1      2013 2.08470E+01 4.96689E-02 3.48454E-03-3.17512E-01-6.97799E-14-3.16034E-13
 -1      2014 2.07141E+01 4.62993E-02 2.31155E-03-2.79894E-01-5.44536E-14-3.65316E-13
 -1      2015 2.06540E+01 6.14027E-02-1.76301E-03-3.41782E-01-6.54776E-14-3.78003E-13
 -1      2016 2.11513E+01 6.14910E-02 4.21529E-03-4.14693E-01 3.09848E-14-1.78189E-13
 -1      2017 2.09787E+01 5.80267E-02 2.72231E-03-3.67254E-01 1.68099E-14-2.42050E-13
 -1      2018 2.08882E+01 7.71079E-02-2.20570E-03-4.47798E-01-2.04975E-14-2.17638E-13
 -1      2019 2.15365E+01 7.32008E-02 4.79257E-03-5.31980E-01-1.22105E-13-3.63633E-13
 -1      2020 2.13165E+01 7.03746E-02 3.03542E-03-4.74007E-01-6.24973E-14-2.62776E-13
 -1      2021 2.11844E+01 9.37138E-02-2.73807E-03-5.77338E-01 4.20655E-14-1.84153E-13
 -1      2022 2.20135E+01 8.16886E-02 4.89254E-03-6.66546E-01-1.16824E-13-3.12762E-13
 -1      2023 2.17398E+01 8.10940E-02 3.10059E-03-5.99035E-01-1.84644E-13-3.43698E-13
 -1      2024 2.15524E+01 1.08277E-01-3.38280E-03-7.29299E-01-1.47241E-13-2.28695E-13
 -1      2025 2.25876E+01 8.06136E-02 3.98290E-03-8.07858E-01 7.07585E-14-1.80833E-13
 -1      2026 2.22580E+01 8.53428E-02 2.68976E-03-7.35567E-01-2.94478E-14-2.00106E-13
 -1      2027 2.19998E+01 1.14425E-01-4.15967E-03-8.96208E-01-9.81762E-14-1.51073E-13
 -1      2028 2.32515E+01 5.85238E-02 1.34690E-03-9.30991E-01-8.94142E-14-1.33960E-13
 -1      2029 2.28730E+01 7.39156E-02 1.52091E-03-8.65913E-01 1.60965E-14-8.69175E-14
 -1      2030 2.25295E+01 1.00008E-01-5.04799E-03-1.05833E+00 5.17316E-15-8.24289E-14
 -1      2031 2.39753E+01-2.36372E-03-3.64079E-03-9.87272E-01-7.45364E-14-3.43920E-13
 -1      2032 2.35718E+01 3.14368E-02-6.41960E-04-9.53646E-01-6.00431E-14-2.46247E-13
 -1      2033 2.31354E+01 4.46873E-02-5.88448E-03-1.17489E+00 3.53861E-14-8.28218E-14
 -1      2034 2.46941E+01-1.23234E-01-1.07917E-02-8.95820E-01-1.24954E-13-2.53061E-13
 -1      2035 2.43152E+01-6.30859E-02-3.73149E-03-9.34806E-01-1.17662E-13-3.76618E-13
 -1      2036 2.37960E+01-7.94355E-02-6.10805E-03-1.17381E+00-8.62426E-14-1.81204E-13
 -1      2037 2.52962E+01-3.14343E-01-1.77845E-02-5.46412E-01-1.59069E-13-2.00623E-13
 -1      2038 2.50233E+01-2.28381E-01-7.14205E-03-7.15166E-01-1.13307E-13-1.88013E-13
 -1      2039 2.44662E+01-2.97842E-01-4.57053E-03-9.47459E-01-1.63174E-13-3.11231E-13
 -1      2040 2.56184E+01-5.37409E-01-1.95211E-02 1.58495E-01 1.37685E-13-1.81754E-13
 -1      2041 2.55585E+01-4.53437E-01-9.96207E-03-1.91036E-01-1.20633E-14-1.56794E-13
 -1      2042 2.50623E+01-5.97723E-01 7.33488E-04-3.71325E-01-2.39392E-16-1.78677E-13
 -1      2043 2.54666E+01-6.58452E-01-1.13867E-02 1.18787E+00 1.27093E-13-1.23755E-13
 -1      2044 2.57200E+01-6.48665E-01-1.19046E-02 6.73495E-01 9.06046E-14-1.00689E-13
 -1      2045 2.54403E+01-8.66253E-01 1.04663E-02 6.15975E-01 8.41271E-14 1.67943E-14
 -1      2046 2.46939E+01-4.60157E-01 5.58201E-04 2.21296E+00-2.26581E-13-5.40054E-14
 -1      2047 2.52900E+01-6.17628E-01-1.56845E-02 1.70336E+00 2.03726E-14-1.00937E-13
 -1      2048 2.53959E+01-8.51679E-01 1.84084E-02 1.85314E+00 5.51052E-14 7.09623E-14
 -1      2049 2.33765E+01 1.60457E-01-3.77707E-03 2.56882E+00-1.19883E-13-9.92262E-16
 -1      2050 2.42024E+01-1.59757E-01-2.05325E-02 2.39747E+00-2.32638E-13-1.33261E-13
 -1      2051 2.47690E+01-2.97158E-01 6.62025E-03 2.79114E+00-1.89198E-13 6.45872E-14
 -1      2052 2.20422E+01 8.78221E-01-3.32635E-02 1.69870E+00-1.65649E-13 1.00839E-13
 -1      2053 2.27910E+01 6.04040E-01-2.09021E-02 2.12023E+00-1.72869E-13-6.47746E-15
 -1      2054 2.37168E+01 7.09402E-01-2.07949E-02 2.64195E+00-2.74520E-13-2.86524E-14
 -1      2055 2.14811E+01 1.07743E+00-6.17893E-02-6.01167E-02 1.48617E-13 7.72143E-14
 -1      2056 2.17999E+01 1.10087E+00-1.12940E-02 7.53957E-01 6.75571E-14 4.46314E-14
 -1      2057 2.28660E+01 1.45380E+00-5.05946E-02 1.12332E+00 8.61117E-15-1.10531E-13
 -1      2058 2.19932E+01 5.56985E-01-5.19686E-02-1.56469E+00 3.63244E-13-1.54106E-13
 -1      2059 2.17382E+01 8.75315E-01-3.45337E-03-8.99964E-01 2.43354E-13-2.15661E-14
 -1      2060 2.28017E+01 1.34237E+00-3.06240E-02-8.86010E-01 3.22506E-13-1.60620E-13
 -1      2061 2.29935E+01-1.83061E-01-1.25879E-02-1.87985E+00 5.75789E-14-2.12833E-13
 -1      2062 2.24199E+01 1.35910E-01-8.48773E-03-1.74775E+00 2.44443E-13-8.75931E-14
 -1      2063 2.33636E+01 3.95336E-01-1.01444E-02-2.02824E+00 2.19255E-13-7.24091E-14
 -1      2064 2.36660E+01-5.92481E-01 1.98140E-02-1.15315E+00 1.77970E-13-1.77674E-13
 -1      2065 2.31705E+01-4.70047E-01-1.63147E-02-1.46029E+00 6.52135E-14-1.26021E-13
 -1      2066 2.38697E+01-5.25299E-01 3.03434E-03-1.76995E+00 1.62409E-13 2.98928E-14
 -1      2067 2.36555E+01-5.98237E-01 2.63235E-02-7.50677E-02 2.04132E-13-1.27298E-13
 -1      2068 2.34894E+01-6.52395E-01-1.99428E-02-5.28004E-01 2.37293E-13-8.38244E-14
 -1      2069 2.38692E+01-9.11383E-01-2.34522E-03-6.75189E-01 2.17356E-13 5.40132E-14
 -1      2070 2.30556E+01-3.74185E-01 1.85344E-02 7.86093E-01 7.45549E-14-3.07941E-13
 -1      2071 2.32410E+01-5.05012E-01-1.71064E-02 4.22377E-01 3.28036E-14-2.59471E-13
 -1      2072 2.33561E+01-7.86098E-01-1.08635E-02 4.85286E-01 1.45751E-13-1.65634E-13
 -1      2073 2.21466E+01-8.88670E-02 1.04146E-02 1.19279E+00-1.07384E-13-7.57554E-14
 -1      2074 2.25575E+01-2.26143E-01-9.84109E-03 1.02081E+00 9.65339E-14-3.40665E-14
 -1      2075 2.25440E+01-4.06775E-01-1.11320E-02 1.24179E+00 5.98688E-14-6.47130E-14
 -1      2076 2.12064E+01 1.88143E-01 7.21370E-03 1.11890E+00-1.59681E-14-1.86811E-13
 -1      2077 2.16702E+01 6.24689E-02-3.32104E-03 1.16459E+00-8.85025E-14-1.06718E-13
 -1      2078 2.16446E+01 1.45124E-02-9.22157E-03 1.45908E+00-4.23396E-14 1.11454E-13
 -1      2079 2.05512E+01 3.85973E-01 8.29592E-03 7.89625E-01-7.05300E-14-2.44749E-13
 -1      2080 2.09416E+01 2.74793E-01-1.95088E-03 1.00514E+00-8.35269E-15-2.07539E-13
 -1      2081 2.09450E+01 3.34063E-01-9.91094E-03 1.28964E+00-3.26678E-14-1.21896E-13
 -1      2082 2.04841E+01 6.16224E-01 2.03725E-04 9.69373E-01-1.73918E-13 5.04388E-14
 -1      2083 1.99151E+01 3.19102E+00-1.45659E-02 2.07982E+00-3.85287E-13-3.59920E-13
 -1      2084 2.00947E+01 2.56738E+00 7.74508E-03 2.07720E+00-2.93835E-13-4.84321E-13
 -1      2085 2.02393E+01 2.12418E+00-8.95299E-04 1.95870E+00-3.35293E-13-4.62393E-13
 -1      2086 2.03634E+01 1.54475E+00 7.73696E-03 1.78246E+00-3.16226E-13-2.21123E-13
 -1      2087 2.02325E+01 1.80605E+00-8.97758E-03 2.48537E+00-3.16859E-13-4.77930E-13
 -1      2088 2.03985E+01 1.31596E+00 6.46807E-03 1.53072E+00-3.34941E-13-1.09728E-13
 -1      2089 2.04740E+01 8.53616E-01 7.89989E-03 1.25762E+00-2.02076E-13 1.24310E-14
 -1      2090 2.06731E+01 7.23060E-01 4.99991E-03 1.46740E+00-1.85258E-13-1.00107E-13
 -1      2091 2.05409E+01 1.16508E+00-1.90827E-03 2.05516E+00-3.59449E-13-2.46919E-13
 -1      2092 1.95324E+01 4.20164E+00-2.83536E-02 1.75445E+00-7.46046E-13-8.50268E-13
 -1      2093 1.97307E+01 3.67002E+00 1.93893E-03 1.96090E+00-5.64344E-13-5.92654E-13
 -1      2094 1.97283E+01 2.72023E+00 7.84869E-04 2.50208E+00-2.47535E-13-6.96202E-13
 -1      2095 1.92151E+01 4.94044E+00-3.24427E-02 9.51553E-01-6.16290E-13-2.81893E-14
 -1      2096 1.93584E+01 4.61066E+00-9.02922E-03 1.35627E+00-7.82686E-13-6.27883E-14
 -1      2097 1.91818E+01 3.60780E+00 1.64942E-02 1.93634E+00-3.06928E-13-3.86106E-13
 -1      2098 1.91306E+01 5.14652E+00-2.40857E-02-1.38716E-01-6.19769E-13 2.83938E-13
 -1      2099 1.91381E+01 5.11489E+00-2.32857E-02 3.52416E-01-5.47497E-13 9.65547E-15
 -1      2100 1.88038E+01 4.19403E+00 3.15153E-02 8.12615E-01-2.76179E-13 3.77545E-14
 -1      2101 1.93284E+01 4.73663E+00-9.83483E-03-1.16922E+00-3.85727E-13 8.70760E-13
 -1      2102 1.91940E+01 5.00803E+00-3.30252E-02-7.49811E-01-5.17032E-13 6.62418E-13
 -1      2103 1.87843E+01 4.23180E+00 3.28701E-02-5.61565E-01-3.13897E-13 5.71553E-13
 -1      2104 1.97026E+01 3.84915E+00 2.25322E-03-1.82232E+00-4.27160E-13 3.13504E-13
 -1      2105 1.94976E+01 4.34420E+00-3.11028E-02-1.59431E+00-3.86923E-13 6.17197E-13
 -1      2106 1.91383E+01 3.70072E+00 1.96364E-02-1.73235E+00-4.08299E-13 6.81316E-13
 -1      2107 2.00759E+01 2.76261E+00 8.21555E-03-1.97538E+00-4.63988E-13-5.98419E-14
 -1      2108 1.98929E+01 3.35319E+00-1.80573E-02-1.96477E+00-5.48332E-13 2.27479E-13
 -1      2109 1.96881E+01 2.81347E+00 2.09440E-03-2.36123E+00-5.26230E-13 1.25080E-13
 -1      2110 2.03176E+01 1.76103E+00 9.13178E-03-1.72317E+00-2.07490E-13-6.52768E-14
 -1      2111 2.02135E+01 2.31475E+00-9.75217E-04-1.86929E+00-3.28394E-13 5.63516E-14
 -1      2112 2.01946E+01 1.87237E+00-9.16806E-03-2.38561E+00-3.61816E-13 1.52489E-13
 -1      2113 2.04034E+01 9.69858E-01 7.35030E-03-1.25099E+00 1.43571E-13 4.32178E-13
 -1      2114 2.03794E+01 1.42159E+00 1.18321E-02-1.47128E+00 8.21392E-16 2.29214E-13
 -1      2115 2.05005E+01 1.08550E+00-1.35534E-02-1.97346E+00 5.79831E-14 2.58059E-13
 -1      2116 2.03648E+01 4.50475E-01 4.59766E-03-7.47417E-01 2.79563E-13 2.70837E-13
 -1      2117 2.03999E+01 7.59616E-01 1.82700E-02-9.64502E-01 3.39503E-13 2.23780E-13
 -1      2118 2.05887E+01 5.34899E-01-1.16254E-02-1.36757E+00 3.37447E-13 4.74964E-13
 -1      2119 2.02499E+01 1.70643E-01 1.89502E-03-3.36459E-01 3.82355E-14-4.48426E-16
 -1      2120 2.03152E+01 3.45928E-01 1.70713E-02-5.05822E-01 1.42649E-13 1.60925E-13
 -1      2121 2.05085E+01 2.15301E-01-7.55840E-03-7.77809E-01 1.22817E-13 9.98459E-14
 -1      2122 1.16047E+01-6.49175E+00-2.27947E-01 7.01884E+00 3.68483E-13-1.03480E-12
 -1      2123 7.13405E+00-8.14291E+00-4.99802E-01 5.51441E+00 8.08575E-13-8.67584E-13
 -1      2124 5.71863E-01-7.77107E+00-3.48697E-01 8.66931E-01 1.27479E-12-4.56302E-14
 -1      2125 5.89989E-01-8.00806E+00-3.75642E-01-9.77149E-01 1.35129E-12-2.21878E-13
 -1      2126 4.06668E+00-7.82203E+00-3.54157E-01 4.66207E+00 1.04655E-12-7.01050E-13
 -1      2127 1.75299E+00-8.57967E+00-4.73733E-01 3.11950E+00 1.26843E-12-3.97904E-13
 -1      2128 7.82889E+00-6.41248E+00-1.28486E-01 6.38894E+00 5.81091E-13-1.12016E-12
 -1      2129 2.16038E+01-3.67704E+00 5.00145E-02 7.29963E+00 3.10862E-14-5.47562E-13
 -1      2130 1.68237E+01-5.88682E+00-1.98959E-01 6.84321E+00 2.35811E-13-6.53227E-13
 -1      2131 3.07474E+01-6.07482E-01 1.71239E-01 5.73134E+00-1.06137E-13-1.01386E-12
 -1      2132 2.55097E+01-2.68491E+00-1.29519E-01 5.84378E+00-9.39249E-14-7.92921E-13
 -1      2133 1.95227E+01 4.01603E+00-2.56190E-02-1.70075E+00-3.48376E-13-6.85441E-13
 -1      2134 1.96510E+01 3.94250E+00-2.43167E-02-1.95585E+00-4.05517E-13-6.14276E-13
 -1      2135 1.99730E+01 3.25303E+00-8.01927E-03-1.90903E+00-4.48932E-13-5.24069E-13
 -1      2136 1.96932E+01 3.58306E+00-9.30066E-03-1.51744E+00-3.50653E-13-6.57484E-13
 -1      2137 4.08383E+01 6.38514E+00 2.98369E-01 1.43135E+00-1.49325E-14-1.18788E-12
 -1      2138 3.92281E+01 5.27270E+00 2.65574E-01 2.64114E+00 1.09995E-13-1.04450E-12
 -1      2139 4.19394E+01 7.28145E+00 3.57574E-01 3.74681E-01-7.48845E-14-1.26978E-12
 -1      2140 4.09805E+01 7.46515E+00 2.64579E-01 1.24951E+00-1.30340E-13-1.13454E-12
 -1      2141 3.91560E+01 5.73521E+00 1.28597E-01-4.86505E-01 2.23821E-13-1.15435E-12
 -1      2142 4.19377E+01 6.69599E+00 4.15035E-01 1.80245E-01-3.95795E-14-1.31781E-12
 -1      2143 3.69127E+01 7.94255E+00 3.40697E-01 1.05198E+00-6.26166E-14-1.02024E-12
 -1      2144 3.40942E+01 1.59173E+00-1.47110E-02-1.57006E+00 7.80785E-13-8.92397E-13
 -1      2145 3.82746E+01 3.63843E+00 2.97912E-01-1.20372E+00 5.71876E-13-9.56069E-13
 -1      2146 2.64711E+01-3.05820E+00-1.44342E-01-4.10631E+00 8.70082E-13-9.35696E-13
 -1      2147 3.14586E+01-1.14023E+00 7.73333E-02-3.43017E+00 8.28448E-13-8.82683E-13
 -1      2148 1.81331E+01-5.84818E+00-1.54226E-01-5.69833E+00 8.36275E-13-8.76410E-13
 -1      2149 2.31260E+01-3.94450E+00 6.97426E-02-5.83998E+00 8.63420E-13-8.48877E-13
 -1      2150 2.66439E+01-4.95392E+00 5.96414E-02-3.56494E+00 6.23057E-13-6.41709E-13
 -1      2151 7.57740E+00-7.71154E+00-4.48207E-01-4.94737E+00 9.77551E-13-6.36866E-13
 -1      2152 1.22673E+01-6.21917E+00-1.62763E-01-6.25319E+00 8.78408E-13-8.97775E-13
 -1      2153 2.42087E+00-7.89540E+00-3.70914E-01-3.08279E+00 7.14540E-13-6.85896E-13
 -1      2154 4.77368E+00-7.21493E+00-2.58608E-01-4.39905E+00 9.36085E-13-5.96023E-13
 -1      2155 8.59519E+00-6.05968E+00-6.25295E-02-5.82396E+00 6.70353E-13-6.24362E-13
 -1      2156-3.12972E-02-8.23655E+00-4.13663E-01 3.53892E-01 3.40832E-13-9.09828E-13
 -1      2157 3.68843E-01-7.81013E+00-3.53950E-01-1.17211E+00 5.86170E-13-8.92453E-13
 -1      2158 2.36469E+00-6.60662E+00-2.21131E-01 3.81012E+00 1.89293E-13-6.43985E-13
 -1      2159 5.48027E-01-8.23484E+00-4.69582E-01 1.97158E+00 2.33674E-13-6.65246E-13
 -1      2160 1.53621E+00-5.22922E+00-1.60568E-01 1.44648E+00 2.90552E-13-8.89844E-13
 -1      2161 8.75410E+00-6.14977E+00-2.17260E-01 6.26244E+00-1.45994E-13-4.33369E-13
 -1      2162 5.78544E+00-6.95980E+00-2.48085E-01 5.51780E+00 3.33067E-16-4.81282E-13
 -1      2163 1.65882E+01-4.11704E+00-6.80887E-02 7.15976E+00-2.04725E-13-2.81025E-13
 -1      2164 1.19711E+01-6.07381E+00-3.64379E-01 6.18961E+00-1.04139E-13-4.00874E-13
 -1      2165 1.28920E+01-6.15000E+00-9.16573E-02 7.11464E+00 6.43929E-15-3.49797E-13
 -1      2166 2.63619E+01-1.56013E+00 1.08494E-01 6.21034E+00-5.26579E-13 7.22200E-14
 -1      2167 2.15237E+01-3.60430E+00-1.96353E-01 5.92791E+00-3.62432E-13-1.09190E-13
 -1      2168 3.31423E+01 1.29576E+00 1.25669E-01 4.08824E+00-3.14540E-13-1.23013E-13
 -1      2169 2.88193E+01-2.83905E-01-8.02137E-02 4.81166E+00-5.55445E-13-6.08402E-14
 -1      2170 2.87035E+01-2.73009E+00 1.35094E-01 3.51069E+00-4.29934E-13-3.10307E-14
 -1      2171 3.79928E+01 5.10493E+00 1.61135E-01 1.46825E+00-1.97953E-13-2.44804E-13
 -1      2172 3.54398E+01 3.69587E+00 1.12148E-01 2.61323E+00-1.98119E-13-3.64264E-13
 -1      2173 4.11795E+01 7.45626E+00 3.55830E-01-9.85274E-02-6.00631E-13 1.47674E-13
 -1      2174 3.84118E+01 7.04669E+00 6.22877E-02 6.37871E-01-3.95517E-13 8.88178E-16
 -1      2175 4.06912E+01 7.18380E+00 2.76197E-01-1.61330E+00-5.02043E-13 2.18991E-13
 -1      2176 4.14586E+01 7.40242E+00 2.64062E-01-3.48378E-01-6.17062E-13 1.54349E-13
 -1      2177 3.61596E+01 8.60592E+00 2.76649E-01-3.98873E-01-6.51257E-13 1.31190E-13
 -1      2178 3.69555E+01 4.74679E+00 1.21949E-01-3.11696E+00-2.67786E-13 4.50417E-13
 -1      2179 4.06873E+01 6.00358E+00 4.37016E-01-2.49885E+00-3.73146E-13 3.57880E-13
 -1      2180 3.10229E+01 5.01592E-01 8.14229E-03-4.69071E+00-1.75138E-14 6.38156E-13
 -1      2181 3.50820E+01 2.29153E+00 2.39148E-01-4.11471E+00-9.68010E-14 5.78648E-13
 -1      2182 2.29208E+01-3.01494E+00-1.78205E-01-6.39392E+00 5.92859E-14 5.21583E-13
 -1      2183 2.79976E+01-1.02510E+00 1.47878E-01-6.51774E+00 3.33067E-14 8.56537E-13
 -1      2184 1.51028E+01-6.03250E+00-2.78652E-01-6.75308E+00 4.58966E-13 4.51639E-13
 -1      2185 1.95975E+01-3.82552E+00 2.70786E-02-7.45037E+00 2.27152E-13 3.61877E-13
 -1      2186 2.37653E+01-4.97741E+00 4.45219E-02-6.32862E+00 2.02949E-13 6.41376E-13
 -1      2187 6.87621E+00-7.89120E+00-4.01656E-01-5.70897E+00 1.05560E-12 7.33164E-13
 -1      2188 1.06924E+01-6.26494E+00-1.42521E-01-7.05936E+00 7.00551E-13 7.00766E-13
 -1      2189 1.43899E+00-8.45104E+00-4.33383E-01-2.67595E+00 1.39261E-12 1.59928E-13
 -1      2190 3.32806E+00-7.34813E+00-2.93292E-01-4.37198E+00 1.07087E-12 5.81646E-13
 -1      2191 2.58139E+00-5.19889E+00-1.58505E-01-2.23261E+00 8.47100E-13 1.20459E-13
 -1      2192 3.82493E+01 3.56830E+00 3.79024E-01 3.61173E+00 4.62547E-14-9.98979E-13
 -1      2193 3.37371E+01 1.67898E+00 4.32567E-02 3.78731E+00 9.04277E-14-9.46798E-13
 -1      2194 3.61031E+01 4.06624E+00 2.94788E-01 3.82954E-01 1.04416E-13-9.38860E-13
 -1      2195 3.26266E+01-8.36112E-01 1.71655E-01 2.63977E+00-2.16771E-14-9.23983E-13
 -1      2196 2.07371E+01 1.10873E+00-2.05643E-02-1.61596E+00-4.82215E-13 1.93845E-13
 -1      2197 2.06269E+01 1.32948E+00-1.88107E-02-1.67740E+00-5.12616E-13-5.48762E-14
 -1      2198 2.79326E+00-5.57859E+00-1.80744E-01 2.50585E+00 8.59868E-13-3.10196E-13
 -1      2199 1.95777E+01-6.70941E+00-2.08942E-01 7.19964E+00 1.35614E-13-7.88272E-13
 -1      2200 1.57932E+01-6.43887E+00-7.98974E-02 7.19660E+00 2.89269E-13-9.19265E-13
 -1      2201 1.52210E+01-6.17626E+00 1.63626E-01 7.65311E+00 2.31037E-13-1.19184E-12
 -1      2202 2.02476E+01 1.09809E-01 3.83278E-03-2.63331E-01 9.35211E-14-1.21281E-13
 -1      2203 2.56775E+01-4.82510E+00 6.49622E-02 5.61519E+00-1.76525E-14-8.48377E-13
 -1      2204 1.54258E+01-6.55129E+00-7.68528E-02-7.48824E+00 6.33493E-13 6.92807E-13
 -1      2205 3.03634E+01-1.87243E+00 1.77862E-01-3.80508E+00 8.74023E-14 7.69829E-13
 -1      2206 3.68549E+01 7.23264E+00 3.20920E-01-3.18190E-01-5.20084E-13 2.07612E-13
 -1      2207 3.31987E+01 1.47817E+00 1.81308E-01 1.05957E+00-3.47090E-13-3.47722E-13
 -1      2208 2.15246E+01-5.19951E+00 4.59132E-02 6.24912E+00-2.39808E-14-8.03246E-14
 -1      2209 5.27876E+00-5.97637E+00-1.10113E-01 5.16266E+00 1.90015E-13-5.20167E-13
 -1      2210 5.21129E+00-4.14344E+00 1.13139E-01 4.86628E+00 2.89629E-13-6.07625E-13
 -1      2211 8.25839E+00-5.07959E+00-9.22412E-02 6.52350E+00 1.50352E-13-4.60992E-13
 -1      2212 2.94920E+00-5.57765E+00-1.55626E-01-2.87936E+00 4.01373E-13-9.10161E-13
 -1      2213 1.68807E+01-6.37719E+00-4.80508E-02-6.04595E+00 6.63358E-13-8.10046E-13
 -1      2214 2.09046E+01-6.71022E+00-1.89929E-01-5.50278E+00 4.33154E-13-5.73555E-13
 -1      2215 1.59689E+01-6.06163E+00 1.83867E-01-6.40692E+00 5.11591E-13-5.24567E-13
 -1      2216 3.59858E+01 4.70389E+00 2.26952E-01 1.42018E+00 2.98817E-13-9.53460E-13
 -1      2217 3.71319E+01 7.36189E+00 3.05431E-01 2.60385E-01-3.66374E-15-1.03265E-12
 -1      2218 3.26115E+01-8.40014E-01 1.17276E-01-4.02778E-01 7.16892E-13-7.22422E-13
 -1      2219 3.55590E+01 6.28889E+00 1.77055E-01-4.79057E-01-4.31266E-13-1.60399E-13
 -1      2220 3.48020E+01 2.75180E+00 1.82155E-01-1.23915E+00-1.44079E-13 5.37681E-13
 -1      2221 6.97181E+00-6.13349E+00-1.16731E-01-6.06364E+00 7.94642E-13 9.27980E-13
 -1      2222 2.01486E+01 5.06408E-01 3.73038E-03 6.77823E-01 4.06442E-13 1.42581E-13
 -1      2223 2.04165E+01 6.99967E-01 2.07909E-02 9.69423E-01 4.54220E-13 1.98455E-13
 -1      2224 1.95595E+01 3.51607E+00-1.11352E-02-5.91558E-01-8.51453E-14-6.94582E-13
 -1      2225 1.95950E+01 3.47017E+00-1.05574E-02-7.75944E-01-1.52610E-13-6.93706E-13
 -1      2226 1.96418E+01 3.38221E+00-1.28193E-02-9.40373E-01-1.94057E-13-6.76044E-13
 -1      2227 1.97027E+01 3.30176E+00-1.28507E-02-1.12963E+00-2.65870E-13-6.53235E-13
 -1      2228 1.97863E+01 3.03326E+00 1.05074E-04-7.92368E-01-1.57804E-13-6.33312E-13
 -1      2229 1.95122E+01 3.59859E+00-9.61979E-03 9.94696E-02 1.01166E-13-7.27526E-13
 -1      2230 1.95115E+01 3.59940E+00-9.62823E-03-8.00433E-02 5.37183E-14-7.35155E-13
 -1      2231 1.95383E+01 3.55917E+00-9.72490E-03 4.45597E-01 1.87923E-13-7.32074E-13
 -1      2232 1.95208E+01 3.58173E+00-1.01401E-02 2.64729E-01 1.37018E-13-7.27619E-13
 -1      2233 1.96783E+01 3.22129E+00-9.00801E-04 1.69624E-01 1.16958E-13-6.93809E-13
 -1      2234 1.96002E+01 3.46267E+00-1.06155E-02 7.89586E-01 2.78693E-13-6.90688E-13
 -1      2235 1.95638E+01 3.50967E+00-1.12147E-02 6.08145E-01 2.25509E-13-7.20457E-13
 -1      2236 1.97151E+01 3.15776E+00-5.14183E-04 4.88149E-01 2.02172E-13-6.85390E-13
 -1      2237 1.97112E+01 3.28890E+00-1.29561E-02 1.14296E+00 3.80634E-13-5.82499E-13
 -1      2238 1.96484E+01 3.37223E+00-1.28895E-02 9.53668E-01 3.26652E-13-6.42248E-13
 -1      2239 1.97923E+01 3.02408E+00 2.35354E-04 8.03811E-01 2.99049E-13-6.20520E-13
 -1      2240 1.98906E+01 3.00334E+00-1.81738E-02 1.49012E+00 4.90758E-13-4.65090E-13
 -1      2241 1.97910E+01 3.14461E+00-1.51813E-02 1.29967E+00 4.13497E-13-5.25630E-13
 -1      2242 1.99218E+01 2.79893E+00 1.93137E-03 1.11014E+00 3.95350E-13-5.11834E-13
 -1      2243 2.01693E+01 2.54389E+00-2.83918E-02 1.79445E+00 5.69927E-13-3.01465E-13
 -1      2244 2.00179E+01 2.78323E+00-1.70882E-02 1.61999E+00 5.16464E-13-3.98372E-13
 -1      2245 2.01168E+01 2.44842E+00 5.86502E-03 1.37600E+00 4.83079E-13-3.89263E-13
 -1      2246 1.98715E+01 2.68169E-01 4.73004E-03 2.85365E-01 2.81538E-13 7.47252E-14
 -1      2247 2.00322E+01 3.67913E-01 2.01579E-02 4.42476E-01 3.48882E-13 1.28029E-13
 -1      2248 2.02111E+01 6.34566E-01-2.22596E-03 7.04713E-01 4.09541E-13-1.25347E-14
 -1      2249 2.04005E+01 8.52864E-01 1.22132E-02-1.00066E+00-4.18532E-13-1.63799E-13
 -1      2250 2.01927E+01 6.28388E-01-3.42358E-03-6.91819E-01-3.68441E-13-1.83523E-13
 -1      2251 2.05469E+01 1.95529E+00-1.38817E-02-1.90148E+00-5.13575E-13-2.34720E-13
 -1      2252 2.04128E+01 1.21713E+00-5.64332E-03-1.28721E+00-4.78442E-13-2.03570E-13
 -1      2253 2.03729E+01 1.37458E+00 3.84517E-03-1.22965E+00-4.44073E-13-2.83127E-13
 -1      2254 2.02873E+01 2.36628E+00-7.36659E-03-1.82689E+00-4.83630E-13-3.74856E-13
 -1      2255 3.24800E+01-7.59065E-01-1.35011E-01 6.70454E-01-1.50505E-14-7.28917E-13
 -1      2256 3.03045E+01-3.06589E+00-1.63775E-02 2.02960E+00-5.56846E-14-8.37663E-13
 -1      2257 2.01216E+01 4.68144E-01 1.47651E-02-4.74557E-01-3.14579E-13-1.73132E-13
 -1      2258 1.99862E+01 3.45528E-01 1.06168E-03-3.03462E-01-2.63060E-13-2.04080E-13
 -1      2259 2.02443E+01 7.49610E-01-2.64984E-04-6.92024E-01-3.59387E-13-2.55888E-13
 -1      2260 1.99177E+01 2.58233E-01 9.73006E-03-1.65791E-01-2.52817E-13-1.86193E-13
 -1      2261 1.98433E+01 1.88461E-01 1.40104E-03-6.90517E-02-2.19335E-13-2.40080E-13
 -1      2262 2.00828E+01 4.19863E-01-1.75219E-03-3.11751E-01-2.84807E-13-2.64418E-13
 -1      2263 1.97954E+01 1.37684E-01 5.70434E-03 1.31640E-02-1.81382E-13-2.30260E-13
 -1      2264 1.97631E+01 9.63812E-02 1.20454E-03 6.61885E-02-1.38392E-13-2.54038E-13
 -1      2265 1.99614E+01 2.30316E-01-2.13136E-03-7.37708E-02-2.06260E-13-2.52620E-13
 -1      2266 1.97349E+01 6.56684E-02 3.16122E-03 1.11801E-01-1.12548E-13-2.43621E-13
 -1      2267 1.97293E+01 4.07974E-02 9.74908E-04 1.38279E-01-1.09338E-13-2.25821E-13
 -1      2268 1.98850E+01 1.16864E-01-1.98250E-03 6.67452E-02-1.33231E-13-2.49962E-13
 -1      2269 1.97160E+01 2.20048E-02 1.60592E-03 1.60217E-01-1.33950E-13-2.28080E-13
 -1      2270 1.97262E+01 7.21348E-03 7.66941E-04 1.70406E-01-1.22005E-13-2.53026E-13
 -1      2271 1.98446E+01 4.77248E-02-1.64176E-03 1.42949E-01-1.25140E-13-2.57449E-13
 -1      2272 1.97231E+01-4.06534E-03 6.51371E-04 1.77368E-01-1.07800E-13-2.52361E-13
 -1      2273 1.97419E+01-1.24127E-02 5.89408E-04 1.77713E-01-1.01422E-13-2.86594E-13
 -1      2274 1.98299E+01 5.89176E-03-1.28839E-03 1.77567E-01-1.29462E-13-2.73317E-13
 -1      2275 1.97452E+01-1.87755E-02 7.14259E-05 1.75575E-01-1.32673E-13-2.52488E-13
 -1      2276 1.97677E+01-2.29087E-02 4.47728E-04 1.70274E-01-1.74989E-13-2.25516E-13
 -1      2277 1.98319E+01-1.84118E-02-9.87489E-04 1.86025E-01-1.16851E-13-2.33478E-13
 -1      2278 1.97747E+01-2.59933E-02-2.65827E-04 1.63026E-01-1.61988E-13-2.10307E-13
 -1      2279 1.97980E+01-2.73481E-02 3.43706E-04 1.54871E-01-1.33561E-13-1.95034E-13
 -1      2280 1.98439E+01-3.11842E-02-7.52037E-04 1.78834E-01-1.45902E-13-1.89222E-13
 -1      2281 1.98068E+01-2.82313E-02-4.42915E-04 1.45232E-01-9.35539E-14-1.89869E-13
 -1      2282 1.98292E+01-2.77548E-02 2.76111E-04 1.36097E-01-7.95127E-16-2.19732E-13
 -1      2283 1.98613E+01-3.62908E-02-5.78099E-04 1.63181E-01-1.23922E-13-1.71289E-13
 -1      2284 1.98388E+01-2.71547E-02-5.14668E-04 1.25913E-01-4.90717E-15-2.17507E-13
 -1      2285 1.98594E+01-2.54695E-02 2.42789E-04 1.17063E-01-5.31972E-15-2.31096E-13
 -1      2286 1.98811E+01-3.62892E-02-4.58308E-04 1.43985E-01-3.08991E-14-1.53930E-13
 -1      2287 1.98690E+01-2.38587E-02-5.18583E-04 1.07592E-01-1.80520E-14-2.92471E-13
 -1      2288 1.98877E+01-2.13593E-02 2.42165E-04 9.98940E-02-1.85957E-14-2.95102E-13
 -1      2289 1.99013E+01-3.28731E-02-3.85858E-04 1.24615E-01-2.15689E-14-2.70179E-13
 -1      2290 1.98971E+01-1.90324E-02-4.80492E-04 9.20029E-02-8.12472E-14-2.97711E-13
 -1      2291 1.99141E+01-1.59469E-02 2.73827E-04 8.60731E-02-1.58885E-13-2.79315E-13
 -1      2292 1.99212E+01-2.71311E-02-3.55526E-04 1.07397E-01-9.67419E-14-3.42083E-13
 -1      2293 1.99232E+01-1.30676E-02-4.18017E-04 8.03913E-02-1.79768E-13-2.43396E-13
 -1      2294 1.99390E+01-9.50111E-03 3.38491E-04 7.67034E-02-1.32623E-13-2.45672E-13
 -1      2295 1.99406E+01-1.97113E-02-3.63661E-04 9.39853E-02-1.69299E-13-2.13549E-13
 -1      2296 1.99482E+01-6.13662E-03-3.42872E-04 7.37300E-02-1.17380E-13-2.94193E-13
 -1      2297 1.99636E+01-2.10589E-03 4.37722E-04 7.26949E-02-8.09051E-14-2.84020E-13
 -1      2298 1.99596E+01-1.09371E-02-4.07795E-04 8.56364E-02-1.49380E-13-1.59481E-13
 -1      2299 1.99732E+01 1.74395E-03-2.62567E-04 7.28782E-02-4.47618E-14-2.94679E-13
 -1      2300 1.99893E+01 6.28050E-03 5.73354E-04 7.48982E-02-4.35172E-15-3.15585E-13
 -1      2301 1.99790E+01-8.98796E-04-4.86202E-04 8.34080E-02-7.74877E-14-1.78916E-13
 -1      2302 1.99998E+01 1.06555E-02-1.81612E-04 7.86877E-02 4.56436E-14-2.88411E-13
 -1      2303 2.00177E+01 1.57677E-02 7.46545E-04 8.41879E-02 5.53826E-14-2.67498E-13
 -1      2304 1.99998E+01 1.04675E-02-5.97286E-04 8.82981E-02 1.96364E-14-1.54843E-13
 -1      2305 2.00299E+01 2.07170E-02-1.02325E-04 9.20608E-02 4.93588E-14-2.78059E-13
 -1      2306 2.00510E+01 2.64676E-02 9.56402E-04 1.01495E-01 4.62231E-14-2.02819E-13
 -1      2307 2.00232E+01 2.33006E-02-7.38694E-04 1.01328E-01 2.91492E-14-1.85207E-13
 -1      2308 2.00655E+01 3.20125E-02-2.53598E-05 1.13954E-01 8.94562E-14-1.92064E-13
 -1      2309 2.00913E+01 3.84120E-02 1.19798E-03 1.27782E-01 8.04602E-14-1.59908E-13
 -1      2310 2.00508E+01 3.77235E-02-9.06246E-04 1.23567E-01 6.64303E-14-2.58679E-13
 -1      2311 2.01092E+01 4.44963E-02 5.00797E-05 1.45315E-01-1.94682E-14-1.46018E-13
 -1      2312 2.01412E+01 5.14411E-02 1.45941E-03 1.63938E-01-2.39359E-15-1.83609E-13
 -1      2313 2.00843E+01 5.37265E-02-1.09263E-03 1.56086E-01 5.84645E-14-1.66056E-13
 -1      2314 2.01635E+01 5.78623E-02 1.26424E-04 1.86940E-01 3.68319E-14-1.76997E-13
 -1      2315 2.02035E+01 6.50485E-02 1.71805E-03 2.10584E-01 5.69117E-14-1.60463E-13
 -1      2316 2.01256E+01 7.10109E-02-1.28588E-03 1.99831E-01 2.24012E-14-1.47607E-13
 -1      2317 2.02313E+01 7.13640E-02 2.08355E-04 2.39208E-01-4.09248E-15-1.82563E-13
 -1      2318 2.02809E+01 7.81690E-02 1.93543E-03 2.67738E-01-2.91656E-14-1.84831E-13
 -1      2319 2.01770E+01 8.87717E-02-1.46775E-03 2.55378E-01-9.57432E-16-1.00422E-13
 -1      2320 2.03156E+01 8.35689E-02 3.03959E-04 3.01676E-01-1.76169E-14-2.85180E-13
 -1      2321 2.03763E+01 8.88957E-02 2.05142E-03 3.34309E-01 6.25010E-14-1.97642E-13
 -1      2322 2.02409E+01 1.05403E-01-1.61245E-03 3.22547E-01-3.90690E-14-1.52459E-13
 -1      2323 2.04194E+01 9.20430E-02 4.26357E-04 3.72463E-01 1.14137E-13-1.46432E-13
 -1      2324 2.04922E+01 9.41309E-02 1.97823E-03 4.07378E-01 8.21252E-14-1.20511E-13
 -1      2325 2.03201E+01 1.18115E-01-1.68590E-03 3.99817E-01 7.06123E-14-1.16647E-13
 -1      2326 2.05455E+01 9.29807E-02 5.95368E-04 4.47413E-01 9.56755E-14-2.54393E-13
 -1      2327 2.06305E+01 8.92103E-02 1.59669E-03 4.81233E-01 1.23058E-13-2.10812E-13
 -1      2328 2.04176E+01 1.22471E-01-1.64640E-03 4.83523E-01 4.39782E-14-1.98195E-13
 -1      2329 2.06963E+01 8.08542E-02 8.37718E-04 5.19001E-01 6.15409E-14-2.88642E-13
 -1      2330 2.07925E+01 6.76247E-02 7.58988E-04 5.46187E-01 1.04948E-13-2.57341E-13
 -1      2331 2.05368E+01 1.11928E-01-1.44662E-03 5.66790E-01 8.12085E-14-2.76895E-13
 -1      2332 2.08733E+01 4.82730E-02 1.18205E-03 5.75051E-01 8.80056E-14-2.78864E-13
 -1      2333 2.09780E+01 2.11288E-02-6.94125E-04 5.87322E-01 1.39269E-14-2.96326E-13
 -1      2334 2.06818E+01 7.75662E-02-1.03663E-03 6.38246E-01 7.52095E-14-2.74809E-13
 -1      2335 2.10767E+01-1.35383E-02 1.64172E-03 5.97490E-01-3.90264E-14-1.87677E-13
 -1      2336 2.11845E+01-5.91963E-02-2.88721E-03 5.83545E-01-5.87457E-14-1.40359E-13
 -1      2337 2.08570E+01 8.46236E-03-3.65698E-04 6.80663E-01 8.93353E-15-2.40885E-13
 -1      2338 2.13037E+01-1.12897E-01 2.17621E-03 5.61710E-01-1.98232E-14-1.39557E-13
 -1      2339 2.14066E+01-1.79983E-01-5.81353E-03 5.07804E-01 1.10989E-13-4.66434E-14
 -1      2340 2.10671E+01-1.06491E-01 6.20971E-04 6.69926E-01 1.33547E-14-1.78683E-13
 -1      2341 2.15469E+01-2.53353E-01 2.62161E-03 4.37708E-01 1.17214E-13-4.71670E-14
 -1      2342 2.16328E+01-3.39538E-01-9.17076E-03 3.29992E-01 7.36420E-14 7.15966E-14
 -1      2343 2.13148E+01-2.74036E-01 1.98861E-03 5.75231E-01 1.02300E-13-8.93497E-14
 -1      2344 2.17893E+01-4.25828E-01 2.59839E-03 1.95083E-01-1.29963E-14 6.56844E-14
 -1      2345 2.18424E+01-5.18098E-01-1.21354E-02 2.49150E-02 6.31912E-14-2.66451E-14
 -1      2346 2.15972E+01-4.87879E-01 3.78824E-03 3.62289E-01 5.41552E-14 7.23630E-14
 -1      2347 2.19989E+01-5.97479E-01 1.47376E-03-1.85065E-01 1.58147E-13 2.46422E-14
 -1      2348 2.20003E+01-6.66433E-01-1.31807E-02-4.11979E-01 1.16285E-13 1.61395E-13
 -1      2349 2.18970E+01-7.15629E-01 5.92969E-03 2.55072E-03 9.18074E-14 8.42299E-14
 -1      2350 2.21238E+01-7.02044E-01-1.42672E-03-6.88474E-01-4.28945E-14 2.23638E-13
 -1      2351 2.20551E+01-7.01501E-01-1.02723E-02-9.40322E-01-1.32102E-13 2.31393E-13
 -1      2352 2.21717E+01-8.85379E-01 7.82600E-03-5.07446E-01 7.39380E-14 3.42600E-13
 -1      2353 2.20975E+01-6.45583E-01-6.04533E-03-1.23842E+00-1.47098E-13 2.09913E-13
 -1      2354 2.19486E+01-5.27729E-01-2.23503E-03-1.45003E+00-5.15402E-14 1.78366E-13
 -1      2355 2.23471E+01-8.85083E-01 8.16717E-03-1.11423E+00-1.18979E-13 3.55604E-13
 -1      2356 2.18686E+01-3.46066E-01-1.04981E-02-1.67658E+00-6.55346E-14 1.54166E-13
 -1      2357 2.16519E+01-9.86014E-02 9.04439E-03-1.75930E+00-5.58545E-14 1.16498E-13
 -1      2358 2.23351E+01-5.95686E-01 6.15506E-03-1.67523E+00-7.14359E-14 2.91277E-13
 -1      2359 2.14539E+01 1.83969E-01-1.27883E-02-1.79210E+00-6.17409E-14 1.07326E-13
 -1      2360 2.12116E+01 4.95821E-01 1.53425E-02-1.67590E+00-3.09227E-14 1.16862E-13
 -1      2361 2.20888E+01 1.37950E-02-6.71779E-04-1.96016E+00-6.07460E-14 2.96816E-13
 -1      2362 2.09836E+01 7.78694E-01-7.36724E-03-1.43227E+00 4.91109E-14 8.24601E-14
 -1      2363 2.07832E+01 1.01066E+00 1.14378E-02-1.11988E+00-6.79266E-14 1.80289E-13
 -1      2364 2.16854E+01 7.99496E-01-6.38696E-03-1.74667E+00 2.04209E-14 3.37863E-13
 -1      2365 2.06629E+01 1.14040E+00 4.93657E-03-6.47007E-01-1.71832E-13 1.91181E-13
 -1      2366 2.05719E+01 1.15539E+00 4.14097E-05-2.50506E-01-8.21140E-14 3.54169E-13
 -1      2367 2.13313E+01 1.41733E+00-3.89155E-03-9.96337E-01-1.31481E-13 2.88032E-13
 -1      2368 2.06220E+01 1.06362E+00 1.73016E-02 2.45646E-01-7.38203E-14 2.96451E-13
 -1      2369 2.06542E+01 8.55390E-01-1.00000E-02 5.72296E-01-3.91657E-15 3.11638E-13
 -1      2370 2.12403E+01 1.49463E+00 4.15929E-03 1.67696E-02-2.67035E-14 5.38381E-13
 -1      2371 2.08101E+01 5.98698E-01 1.87289E-02 8.76193E-01-3.28466E-14 2.75619E-13
 -1      2372 2.09198E+01 2.91778E-01-1.35944E-02 1.02203E+00 2.05050E-14 6.44246E-14
 -1      2373 2.14198E+01 1.00015E+00 1.14574E-02 8.33851E-01-6.01492E-14 1.87742E-13
 -1      2374 2.10458E+01 1.58209E-02 9.28163E-03 1.04603E+00 1.27793E-13-1.37989E-13
 -1      2375 2.11605E+01-2.31704E-01-9.18221E-03 1.00384E+00 1.96051E-13-1.95788E-13
 -1      2376 2.16739E+01 2.23755E-01 8.70090E-03 1.14457E+00-8.43694E-14 1.32657E-13
 -1      2377 2.11632E+01-4.06816E-01-2.95868E-03 8.16278E-01 9.16429E-14-2.62108E-13
 -1      2378 2.12262E+01-5.07990E-01-1.12481E-03 6.59206E-01 2.10938E-14-1.98899E-13
 -1      2379 2.17832E+01-4.28421E-01 2.92743E-04 9.50059E-01 5.50124E-14-2.21321E-13
 -1      2380 2.10964E+01-5.46755E-01-1.21682E-02 3.98308E-01 1.93400E-14-1.91569E-13
 -1      2381 2.10812E+01-5.02802E-01 3.91756E-03 2.17479E-01-2.31101E-13-2.12873E-13
 -1      2382 2.16596E+01-7.14554E-01-4.27180E-03 4.82325E-01-4.05008E-14-2.85947E-13
 -1      2383 2.08796E+01-4.32463E-01-1.15468E-02 1.63019E-02-3.79781E-13-4.03809E-14
 -1      2384 2.07975E+01-3.20190E-01 3.35137E-03-1.17628E-01-3.06003E-13-1.28984E-13
 -1      2385 2.13446E+01-6.07117E-01 9.01557E-03 4.82360E-03-1.77464E-13-2.37870E-13
 -1      2386 1.10679E+01-5.17131E+00 4.06265E-02 7.10322E+00 4.11338E-13-1.50213E-12
 -1      2387 7.95685E+00-4.74925E+00 6.65274E-02 5.84444E+00 5.44786E-13-1.04822E-12
 -1      2388 1.96238E+01 7.25228E-02 2.07152E-03-6.60336E-02 1.52787E-13-8.12835E-14
 -1      2389 1.96512E+01 1.04254E-01 6.89456E-03-1.98765E-02 1.75645E-13-2.80335E-14
 -1      2390 1.96002E+01 3.06201E-02 1.33424E-03-1.31600E-01 1.31024E-13-1.39273E-13
 -1      2391 1.95972E+01 4.95268E-02 3.67692E-03-1.09134E-01 1.43801E-13-1.16077E-13
 -1      2392 1.97683E+01 8.97737E-02-3.15414E-03-7.13126E-02 1.87045E-13-1.63474E-13
 -1      2393 1.96121E+01 5.58420E-03 8.67181E-04-1.59956E-01 9.95511E-14-1.19317E-13
 -1      2394 1.95921E+01 1.68337E-02 1.81554E-03-1.51758E-01 1.14028E-13-1.24005E-13
 -1      2395 1.97341E+01 3.57353E-02-2.28193E-03-1.43562E-01 1.32631E-13-1.92631E-13
 -1      2396 1.96441E+01-8.99878E-03 5.49393E-04-1.65572E-01 9.51910E-14-1.03832E-13
 -1      2397 1.96158E+01-2.58316E-03 7.16789E-04-1.65909E-01 9.49259E-14-1.17888E-13
 -1      2398 1.97306E+01 3.62577E-03-1.51505E-03-1.75249E-01 9.83938E-14-2.27615E-13
 -1      2399 1.96858E+01-1.68270E-02 3.30652E-04-1.57826E-01 8.59400E-14-1.37604E-13
 -1      2400 1.96546E+01-1.35473E-02 6.58989E-05-1.63022E-01 1.30462E-13-8.65327E-14
 -1      2401 1.97457E+01-1.48350E-02-9.40297E-04-1.81899E-01 8.50000E-14-1.61366E-13
 -1      2402 1.97305E+01-2.02117E-02 1.87320E-04-1.42912E-01 1.09775E-13-1.76660E-13
 -1      2403 1.96997E+01-1.89927E-02-3.06909E-04-1.50552E-01 7.51277E-14-1.62690E-13
 -1      2404 1.97710E+01-2.44770E-02-5.39873E-04-1.73756E-01 1.29663E-13-1.77829E-13
 -1      2405 1.97744E+01-2.06574E-02 1.03972E-04-1.24970E-01 1.48960E-13-1.72931E-13
 -1      2406 1.97456E+01-2.07958E-02-4.99549E-04-1.33445E-01 1.51589E-13-1.39864E-13
 -1      2407 1.98008E+01-2.83265E-02-2.75633E-04-1.57687E-01 1.37019E-13-1.67266E-13
 -1      2408 1.98152E+01-1.91553E-02 6.93997E-05-1.06775E-01 2.00824E-13-1.99155E-13
 -1      2409 1.97894E+01-2.01897E-02-5.74263E-04-1.15010E-01 1.61388E-13-2.07941E-13
 -1      2410 1.98316E+01-2.83506E-02-1.13293E-04-1.38327E-01 1.69982E-13-1.86533E-13
 -1      2411 1.98522E+01-1.63452E-02 7.61049E-05-9.02020E-02 1.04352E-13-1.63829E-13
 -1      2412 1.98294E+01-1.79830E-02-5.72515E-04-9.74707E-02 1.96517E-13-1.67816E-13
 -1      2413 1.98614E+01-2.58375E-02-2.60846E-05-1.18812E-01 1.59377E-13-1.61353E-13
 -1      2414 1.98856E+01-1.26089E-02 1.20216E-04-7.65500E-02 2.56600E-14-1.71063E-13
 -1      2415 1.98655E+01-1.46828E-02-5.22385E-04-8.23404E-02 7.00881E-14-1.37938E-13
 -1      2416 1.98893E+01-2.16064E-02 5.51727E-06-1.01289E-01 7.01032E-14-1.94664E-13
 -1      2417 1.99162E+01-8.13093E-03 2.01139E-04-6.67853E-02-2.10955E-14-1.92154E-13
 -1      2418 1.98980E+01-1.05703E-02-4.42612E-04-7.07024E-02-1.37185E-14-1.62417E-13
 -1      2419 1.99154E+01-1.61326E-02-4.94923E-06-8.72767E-02 7.55641E-16-1.82635E-13
 -1      2420 1.99455E+01-2.94009E-03 3.21344E-04-6.17291E-02 1.06278E-13-1.17376E-13
 -1      2421 1.99282E+01-5.75116E-03-3.45285E-04-6.34167E-02 5.71906E-14-1.66137E-13
 -1      2422 1.99401E+01-9.62715E-03-4.83528E-05-7.79359E-02 1.79408E-14-2.20921E-13
 -1      2423 1.99753E+01 3.06351E-03 4.86158E-04-6.22054E-02 1.39606E-14-5.69126E-14
 -1      2424 1.99577E+01-1.90079E-04-2.37826E-04-6.12836E-02 9.66493E-14-7.18242E-14
 -1      2425 1.99646E+01-2.09095E-03-1.18848E-04-7.42841E-02 5.59353E-14-1.03996E-13
 -1      2426 2.00079E+01 1.00898E-02 7.03600E-04-6.91635E-02-8.96693E-14-6.55402E-14
 -1      2427 1.99885E+01 6.26695E-03-1.24418E-04-6.51758E-02-1.27400E-14-7.16807E-16
 -1      2428 1.99903E+01 6.64864E-03-2.13033E-04-7.73602E-02-2.36507E-14 9.78281E-15
 -1      2429 2.00461E+01 1.84465E-02 9.84239E-04-8.37801E-02-7.02822E-14-1.38829E-13
 -1      2430 2.00231E+01 1.38771E-02-7.13111E-06-7.61480E-02-1.01012E-13-9.90073E-14
 -1      2431 2.00190E+01 1.69136E-02-3.28953E-04-8.83608E-02-6.61709E-14-3.87394E-14
 -1      2432 2.00933E+01 2.85308E-02 1.34090E-03-1.07548E-01 3.51513E-14-1.83645E-13
 -1      2433 2.00645E+01 2.29906E-02 1.13063E-04-9.55306E-02-1.15829E-14-1.42280E-13
 -1      2434 2.00529E+01 2.91590E-02-4.65171E-04-1.08752E-01 3.68496E-15-1.16136E-13
 -1      2435 2.01533E+01 4.08193E-02 1.78795E-03-1.42350E-01 1.91381E-13-3.02147E-13
 -1      2436 2.01161E+01 3.40427E-02 2.35370E-04-1.25009E-01 8.09846E-14-3.13386E-13
 -1      2437 2.00945E+01 4.39593E-02-6.19817E-04-1.40364E-01 1.20024E-13-2.43690E-13
 -1      2438 2.02306E+01 5.58476E-02 2.33962E-03-1.90512E-01 2.14420E-13-2.46917E-13
 -1      2439 2.01821E+01 4.75398E-02 3.58287E-04-1.66687E-01 2.65876E-13-2.22495E-13
 -1      2440 2.01467E+01 6.19906E-02-7.89523E-04-1.85457E-01 1.64225E-13-2.64715E-13
 -1      2441 2.03306E+01 7.41601E-02 3.00650E-03-2.54817E-01-5.38795E-14-3.09417E-13
 -1      2442 2.02671E+01 6.40282E-02 4.78694E-04-2.23123E-01 7.02000E-14-2.37178E-13
 -1      2443 2.02128E+01 8.39903E-02-9.68282E-04-2.46764E-01 1.25096E-13-1.27930E-13
 -1      2444 2.04591E+01 9.61951E-02 3.78860E-03-3.38435E-01-1.58685E-13-2.61291E-13
 -1      2445 2.03766E+01 8.40191E-02 5.91055E-04-2.97305E-01-1.11574E-13-2.80280E-13
 -1      2446 2.02964E+01 1.10664E-01-1.14667E-03-3.27465E-01-8.81415E-14-1.29476E-13
 -1      2447 2.06225E+01 1.22039E-01 4.66231E-03-4.44687E-01-1.27111E-13-2.96905E-13
 -1      2448 2.05165E+01 1.07823E-01 6.87092E-04-3.92513E-01-1.53726E-13-3.44668E-13
 -1      2449 2.04014E+01 1.42483E-01-1.31233E-03-4.31056E-01-1.31370E-13-2.85341E-13
 -1      2450 2.08279E+01 1.50930E-01 5.55764E-03-5.76478E-01 1.18460E-14-2.64372E-13
 -1      2451 2.06934E+01 1.35201E-01 7.56946E-04-5.11944E-01-5.21289E-14-2.99220E-13
 -1      2452 2.05318E+01 1.79255E-01-1.45369E-03-5.60995E-01-1.25716E-13-3.05472E-13
 -1      2453 2.10821E+01 1.80303E-01 6.32160E-03-7.35125E-01 2.91650E-14-2.33504E-13
 -1      2454 2.09143E+01 1.64689E-01 7.94195E-04-6.57905E-01 6.44326E-14-2.48778E-13
 -1      2455 2.06916E+01 2.19296E-01-1.57089E-03-7.19961E-01 3.20824E-14-3.44373E-13
 -1      2456 2.13912E+01 2.04101E-01 6.66644E-03-9.18135E-01-2.36007E-13-2.09309E-13
 -1      2457 2.11862E+01 1.92325E-01 8.09822E-04-8.30210E-01-8.60098E-14-1.85332E-13
 -1      2458 2.08850E+01 2.57878E-01-1.70031E-03-9.08430E-01-4.06797E-14-1.43085E-13
 -1      2459 2.17603E+01 2.09997E-01 6.11003E-03-1.11525E+00-1.82644E-13-1.78159E-13
 -1      2460 2.15163E+01 2.09484E-01 8.64459E-04-1.02324E+00-2.31310E-13-2.47159E-13
 -1      2461 2.11166E+01 2.84570E-01-1.96034E-03-1.12211E+00-2.32930E-13-2.90988E-13
 -1      2462 2.21931E+01 1.75521E-01 3.92862E-03-1.30202E+00 5.95917E-14-1.76318E-13
 -1      2463 2.19119E+01 1.99529E-01 1.12817E-03-1.22089E+00-5.94762E-14-1.30670E-13
 -1      2464 2.13935E+01 2.79095E-01-2.62240E-03-1.34761E+00-8.80882E-14-2.96584E-13
 -1      2465 2.26921E+01 6.43856E-02-8.48662E-04-1.43058E+00 4.49099E-14-1.65642E-13
 -1      2466 2.23819E+01 1.33708E-01 1.94791E-03-1.38859E+00 9.04278E-14-5.44183E-14
 -1      2467 2.17288E+01 2.06041E-01-4.19743E-03-1.55562E+00 3.72765E-15-2.21869E-13
 -1      2468 2.32594E+01-1.71249E-01-8.99951E-03-1.41883E+00-2.01238E-13 6.38552E-15
 -1      2469 2.29380E+01-3.09838E-02 3.79758E-03-1.46222E+00-1.75081E-14 8.46597E-14
 -1      2470 2.21479E+01 1.12205E-02-7.45999E-03-1.69091E+00-1.09632E-13 3.60835E-14
 -1      2471 2.38929E+01-5.71782E-01-2.06690E-02-1.14748E+00-1.13826E-13-7.98779E-14
 -1      2472 2.35923E+01-3.42638E-01 7.14684E-03-1.33831E+00-1.98147E-13-2.31334E-14
 -1      2473 2.26950E+01-3.69175E-01-1.27394E-02-1.66052E+00-1.27699E-13 3.40126E-13
 -1      2474 2.45721E+01-1.10840E+00-3.30269E-02-4.76140E-01 1.47434E-14-9.38269E-15
 -1      2475 2.43461E+01-8.21696E-01 1.11620E-02-8.73998E-01-7.94573E-14-9.34808E-14
 -1      2476 2.34317E+01-9.74957E-01-1.94025E-02-1.32806E+00-9.28151E-14 1.76579E-13
 -1      2477 2.52123E+01-1.56506E+00-3.77693E-02 6.68953E-01 1.36457E-13-8.20810E-14
 -1      2478 2.51368E+01-1.36416E+00 1.11472E-02 6.70604E-02 2.86021E-14-1.06738E-14
 -1      2479 2.43993E+01-1.71199E+00-2.26591E-02-5.24683E-01 1.35465E-14-2.84066E-14
 -1      2480 2.56054E+01-1.46672E+00-2.73851E-02 2.09865E+00-3.79826E-14 1.19061E-13
 -1      2481 2.57580E+01-1.62534E+00-4.84889E-03 1.45784E+00 1.52952E-13 5.50445E-14
 -1      2482 2.54992E+01-2.19040E+00-1.96821E-02 8.42464E-01 7.97062E-14-5.53628E-14
 -1      2483 2.54507E+01-3.10538E-01-1.76850E-02 3.14768E+00-2.43732E-13 2.19443E-15
 -1      2484 2.58665E+01-1.04020E+00-4.68138E-02 2.84841E+00-1.39000E-13 1.35512E-13
 -1      2485 2.64050E+01-1.69766E+00-1.15483E-02 2.51923E+00-8.96332E-14 1.13560E-13
 -1      2486 2.47841E+01 1.59499E+00-1.36311E-02 2.80279E+00-2.07848E-13-3.20161E-14
 -1      2487 2.52696E+01 6.17275E-01-8.60142E-02 3.22185E+00-2.21552E-13-7.77121E-14
 -1      2488 2.65965E+01 2.52699E-01-3.04059E-02 3.48895E+00-2.07584E-13-7.09918E-14
 -1      2489 2.41463E+01 2.69340E+00-8.39256E-02 7.95918E-01 1.11480E-13-2.73799E-13
 -1      2490 2.44142E+01 2.35761E+00-9.82038E-02 1.79947E+00-1.40152E-13-1.49766E-13
 -1      2491 2.61179E+01 2.77864E+00-6.15255E-02 2.68070E+00-9.62008E-14-2.34462E-13
 -1      2492 2.43560E+01 1.87884E+00-8.76335E-02-1.47904E+00 2.33778E-13-1.32255E-14
 -1      2493 2.42349E+01 2.53011E+00-2.89601E-02-6.25943E-01 3.28675E-13-1.27648E-13
 -1      2494 2.57655E+01 3.61376E+00-8.57452E-02 2.85451E-02 1.19751E-13-1.27710E-13
 -1      2495 2.48195E+01-3.18819E-02-9.10189E-02-2.29835E+00 1.86021E-13 8.30495E-14
 -1      2496 2.45365E+01 9.43070E-01-2.43551E-02-2.15278E+00 1.93470E-13 5.77424E-14
 -1      2497 2.59832E+01 1.83320E+00-5.12714E-02-1.97732E+00 2.22079E-13 1.30423E-13
 -1      2498 2.48924E+01-1.34018E+00-3.07123E-02-1.48375E+00 1.85827E-13 1.40904E-13
 -1      2499 2.47808E+01-8.19468E-01-1.47546E-02-1.94149E+00 2.17461E-13 5.27963E-14
 -1      2500 2.60563E+01-5.72952E-01-3.32963E-02-2.21645E+00 2.67432E-13-1.32533E-15
 -1      2501 2.42869E+01-1.57258E+00 5.48789E-03-4.34718E-02 2.89437E-13 3.80846E-14
 -1      2502 2.44062E+01-1.57811E+00-2.98352E-02-6.82473E-01 2.29805E-13 2.84785E-14
 -1      2503 2.54063E+01-1.98497E+00-6.53831E-03-8.60238E-01 2.05625E-13 3.91406E-14
 -1      2504 2.32918E+01-1.09672E+00 1.66471E-02 1.16029E+00 1.36734E-13 2.76289E-14
 -1      2505 2.36053E+01-1.38722E+00-3.32122E-02 6.69336E-01 2.05681E-13 9.15682E-14
 -1      2506 2.41906E+01-2.03540E+00-1.74249E-02 7.17482E-01 1.88279E-13 1.85701E-13
 -1      2507 2.22586E+01-4.10598E-01 2.03857E-02 1.78499E+00 3.32395E-14 1.46389E-13
 -1      2508 2.26617E+01-7.66792E-01-2.48477E-02 1.55587E+00 9.08934E-14 8.77146E-14
 -1      2509 2.29107E+01-1.28006E+00-1.87530E-02 1.79921E+00 7.44639E-14 2.25756E-13
 -1      2510 2.13290E+01 2.43836E-01 1.64868E-02 1.81732E+00 9.68350E-15-7.42453E-14
 -1      2511 2.17454E+01-7.76557E-02-1.38278E-02 1.85606E+00 6.30234E-14 3.56182E-14
 -1      2512 2.18456E+01-3.34444E-01-1.31651E-02 2.22575E+00 1.40142E-13 4.26091E-14
 -1      2513 2.09256E+01 5.45998E-01-1.90562E-03 1.59962E+00-1.14585E-13-1.49814E-13
 -1      2514 1.84703E+01 3.01692E+00-3.84687E-02 2.04334E+00-1.49119E-13-6.42871E-14
 -1      2515 1.89247E+01 2.69693E+00 1.81854E-02 2.50324E+00-1.18343E-13-6.59698E-13
 -1      2516 1.79218E+01 3.51021E+00-2.59516E-02 6.03553E-01-2.64408E-13 4.48756E-14
 -1      2517 1.81277E+01 3.37892E+00 1.34107E-03 1.31341E+00-2.58258E-13 1.43123E-13
 -1      2518 1.77927E+01 2.57596E+00 2.69432E-02 1.94550E+00-1.30113E-13-3.95005E-14
 -1      2519 2.02462E+01 1.43049E+00-1.27699E-02 2.85955E+00-2.02122E-13-4.49864E-13
 -1      2520 2.05885E+01 1.03791E+00 1.56130E-02 2.71835E+00-1.90996E-13-3.41368E-13
 -1      2521 1.93840E+01 2.22038E+00-3.03977E-02 2.81405E+00-2.19510E-13-8.43041E-13
 -1      2522 1.98506E+01 1.82563E+00 2.19978E-02 2.94484E+00-1.89293E-13-5.97823E-13
 -1      2523 2.00905E+01 9.70000E-01-2.23499E-03 3.25248E+00-4.06669E-14-7.65797E-13
 -1      2524 1.89085E+01 1.78135E+00 8.38206E-03 3.03868E+00 5.17018E-14-7.14948E-13
 -1      2525 1.80692E+01 3.42106E+00-1.32199E-03-1.04776E+00-3.48552E-13 5.57567E-13
 -1      2526 1.79008E+01 3.52393E+00-2.42760E-02-3.22016E-01-3.50057E-13 3.24664E-13
 -1      2527 1.73035E+01 2.93711E+00 4.21963E-02 1.53313E-01-2.11742E-13 1.68305E-13
 -1      2528 1.88292E+01 2.76680E+00 1.83806E-02-2.31600E+00-3.42846E-13 6.25049E-13
 -1      2529 1.83857E+01 3.07031E+00-3.87819E-02-1.81986E+00-4.01943E-13 7.87216E-13
 -1      2530 1.76981E+01 2.61745E+00 3.09953E-02-1.68780E+00-3.48056E-13 6.70612E-13
 -1      2531 1.97898E+01 1.84246E+00 2.39470E-02-2.83921E+00-4.75234E-13-4.70446E-15
 -1      2532 1.93037E+01 2.24649E+00-3.31916E-02-2.68491E+00-3.96550E-13 2.41173E-13
 -1      2533 1.87716E+01 1.78591E+00 5.95799E-03-2.89807E+00-2.53285E-13 3.36371E-13
 -1      2534 2.05341E+01 9.99940E-01 1.90130E-02-2.66152E+00-2.16626E-13 1.37574E-13
 -1      2535 2.01944E+01 1.39083E+00-1.46499E-02-2.79360E+00-2.89927E-13 1.00935E-13
 -1      2536 1.99688E+01 8.74434E-01-1.00906E-02-3.20451E+00-2.63968E-13 2.18455E-13
 -1      2537 2.09068E+01 3.91907E-01 8.73415E-03-2.04971E+00 2.13451E-13 4.91647E-13
 -1      2538 2.07682E+01 7.14104E-01 3.56912E-03-2.34769E+00 3.59465E-14 1.65560E-13
 -1      2539 2.08320E+01 1.91026E-01-1.52180E-02-2.79114E+00 8.45770E-15 2.96213E-13
 -1      2540 2.09310E+01 5.83875E-02-5.21949E-04-1.32513E+00 3.03114E-13 3.08321E-13
 -1      2541 2.09504E+01 2.85386E-01 1.31863E-02-1.64976E+00 2.29719E-13 6.13699E-13
 -1      2542 2.12047E+01-1.68747E-01-1.14328E-02-2.01293E+00 3.66413E-13 5.30835E-13
 -1      2543 2.07311E+01-4.98529E-02 2.88920E-04-6.82858E-01-2.28190E-14 3.85865E-14
 -1      2544 2.08529E+01 7.04605E-02 1.83198E-02-9.47088E-01 6.45076E-14 1.13277E-13
 -1      2545 2.11964E+01-2.63975E-01 5.05301E-03-1.20343E+00 1.29942E-13 3.80451E-14
 -1      2546 2.03480E+01 3.07892E-02-5.95111E-03-2.93057E-01 1.19353E-13-7.42809E-14
 -1      2547 2.76350E+01-5.02760E+00-1.13423E-01 4.33962E+00-6.56697E-14-9.68142E-13
 -1      2548 2.44226E+01-5.97279E+00 4.60676E-02 5.41503E+00-3.08087E-15-8.29253E-13
 -1      2549 1.97050E+01 1.43321E-01 3.27566E-03 6.00254E-02 2.09016E-13-1.14752E-14
 -1      2550 1.97835E+01 1.98121E-01 1.23617E-02 1.46245E-01 2.30548E-13 4.63750E-14
 -1      2551 1.98494E+01 1.81060E-01-3.79624E-03 6.55555E-02 2.30264E-13-9.97765E-14
 -1      2552 5.42423E+00-3.99396E+00 6.08876E-02 4.31876E+00 5.20001E-13-6.25888E-13
 -1      2553 4.01135E+00-3.19632E+00 9.81814E-02 1.56680E+00 6.62206E-13-3.91187E-13
 -1      2554 1.51785E+01-5.96693E+00 9.90957E-02-7.51464E+00 4.81754E-13 8.55233E-13
 -1      2555 1.94677E+01-6.20422E+00-1.84416E-03-7.52874E+00 2.80942E-13 7.09283E-13
 -1      2556 3.90964E+00-3.12999E+00 1.13670E-01-1.30499E+00 5.11223E-13-1.16573E-13
 -1      2557 4.73585E+00-3.59115E+00 6.64720E-02-3.54578E+00 5.78954E-13 5.26024E-13
 -1      2558 2.83795E+01-3.85581E+00-3.39633E-02-3.61889E+00 3.57631E-14 7.33358E-13
 -1      2559 3.06542E+01-2.03890E+00-9.27693E-02-2.04687E+00 4.93390E-14 6.56752E-13
 -1      2560 3.22142E+01 1.76381E+00-1.62997E-01-5.54876E-01-1.65021E-13-4.79283E-13
 -1      2561 3.07928E+01-5.17569E-01-4.61317E-02 3.82333E-01-2.88644E-13-1.91513E-13
 -1      2562 3.25080E+01 2.79152E+00-1.14481E-01 2.47129E+00 3.22076E-13-7.01605E-13
 -1      2563 3.31022E+01 4.83700E+00-1.82167E-01 2.28177E+00 9.47020E-14-8.88761E-13
 -1      2564 1.95188E+01 3.58476E+00-1.01021E-02-2.45306E-01 2.12989E-14-7.22845E-13
 -1      2565 1.95349E+01 3.56408E+00-9.67646E-03-4.26066E-01-3.86259E-14-7.07920E-13
 -1      2566 1.97112E+01 3.16347E+00-6.09722E-04-4.73431E-01-6.06501E-14-6.56268E-13
 -1      2567 1.96769E+01 3.22341E+00-9.22907E-04-1.52012E-01 3.52795E-14-6.86701E-13
 -1      2568 3.32759E+01 6.98502E+00-1.90550E-01 2.06935E-02-1.12077E-13-7.74564E-13
 -1      2569 3.34781E+01 5.85360E+00-1.16345E-01-7.75386E-01 2.98095E-14-8.28393E-13
 -1      2570 3.03434E+01-2.71584E+00-1.96574E-02 1.21953E-01 5.65367E-13-3.32012E-13
 -1      2571 3.22615E+01-2.81940E-01-1.72416E-01 1.37630E+00 5.58831E-13-5.02265E-13
 -1      2572 3.31497E+01 6.13510E+00-1.86705E-01 2.00682E+00 5.68989E-14-8.89566E-13
 -1      2573 3.32603E+01 7.10325E+00-1.11549E-01 1.26028E+00-1.69864E-14-7.68545E-13
 -1      2574 3.08350E+01 4.96353E+00-3.00539E-02 2.81006E+00 9.80882E-14-7.09988E-13
 -1      2575 3.28942E+01 6.62226E+00-1.49386E-01-1.32006E+00-6.00686E-13-1.50421E-13
 -1      2576 3.28624E+01 4.76499E+00-4.61745E-02-1.26707E+00-3.54994E-13-3.70953E-13
 -1      2577 2.52866E+01-5.82012E+00 6.01923E-02-3.42505E+00 4.65933E-13-5.55445E-13
 -1      2578 2.79539E+01-4.99566E+00-1.52104E-01-2.18923E+00 5.51253E-13-4.30822E-13
 -1      2579 8.67575E+00-4.56467E+00 1.25356E-01-5.38643E+00 4.75842E-13-7.13762E-13
 -1      2580 1.15297E+01-5.09889E+00 7.39784E-02-6.41124E+00 5.69350E-13-4.98518E-13
 -1      2581 3.48601E+00-3.54382E+00 8.37676E-02-1.75797E+00 1.31416E-13-1.04139E-12
 -1      2582 5.48434E+00-3.81919E+00 7.39759E-02-4.05392E+00 3.05866E-13-9.47464E-13
 -1      2583 3.55573E+00-3.16460E+00 1.06352E-01 2.43408E+00 1.81175E-13-8.11795E-13
 -1      2584 2.92648E+00-3.29625E+00 8.94349E-02 2.59388E-01 2.61617E-13-9.79383E-13
 -1      2585 1.62057E+01-5.78117E+00-1.99868E-02 7.31734E+00 1.52822E-13-9.13852E-14
 -1      2586 1.30252E+01-5.48364E+00 1.00475E-01 7.01871E+00 1.53627E-13-2.88575E-13
 -1      2587 2.43347E+01-5.30608E+00-6.63869E-02 5.11113E+00 2.32592E-14-6.90836E-14
 -1      2588 2.01790E+01-5.86708E+00 2.96023E-02 6.22283E+00 1.57513E-13-1.59595E-14
 -1      2589 1.99408E+01-5.75016E+00 1.01048E-01 6.25120E+00 1.91042E-13 9.48200E-15
 -1      2590 2.92849E+01-2.81472E+00-1.19460E-01 2.12314E+00-3.68990E-13 4.70179E-14
 -1      2591 2.71963E+01-4.12156E+00-6.98591E-03 3.15645E+00-1.69212E-13 1.20765E-13
 -1      2592 3.19164E+01 8.58706E-01-7.85673E-02-3.68951E-01-1.13354E-13 3.89411E-13
 -1      2593 3.34184E+01 3.44348E+00-7.03179E-02 1.89408E-01-2.13884E-13 2.45998E-13
 -1      2594 3.30019E+01 7.81043E+00-1.23471E-01-3.86944E-02-6.68299E-13-1.59928E-13
 -1      2595 3.23131E+01 7.71074E+00-1.98969E-01-6.10721E-01-6.74683E-13-1.99132E-13
 -1      2596 7.12028E+00-4.20468E+00 1.11373E-01-5.40774E+00 5.65270E-13 1.08108E-12
 -1      2597 1.03917E+01-4.99963E+00 1.22984E-02-7.22423E+00 5.01488E-13 1.19849E-12
 -1      2598 3.34929E+01 5.50712E+00-8.86282E-02 5.71200E-01-3.63209E-13 2.45637E-14
 -1      2599 3.32811E+01 6.95082E+00-1.66654E-01 4.85214E-01-6.34770E-13-1.40318E-13
 -1      2600 3.13756E+01 3.86810E+00-6.15105E-02 1.24352E+00-2.72810E-13-1.59622E-13
 -1      2601 2.31557E+01-5.81167E+00 1.48820E-02-6.10317E+00 3.46556E-13 7.17176E-13
 -1      2602 2.63647E+01-4.95602E+00-3.75996E-02-5.24185E+00 1.97231E-13 8.89455E-13
 -1      2603 2.79115E+01-4.77859E+00 3.03712E-02-3.58665E+00 1.83797E-13 9.07024E-13
 -1      2604 3.37764E+01 3.96454E+00-1.52772E-01-7.02881E-01 1.35059E-13-7.57672E-13
 -1      2605 3.33329E+01 2.07227E+00-6.71920E-02-5.26817E-01 5.57054E-14-7.86593E-13
 -1      2606 2.04909E+01 8.74926E-01-7.31201E-03 1.22666E+00 5.06147E-13 2.28894E-13
 -1      2607 2.08414E+01 1.25693E+00-6.05000E-03 1.72736E+00 5.39964E-13 3.07778E-13
 -1      2608 2.06472E+01 1.71563E+00-1.57889E-02 1.92150E+00 5.79000E-13 1.32040E-13
 -1      2609 2.04494E+01 1.05799E+00-9.39051E-03 1.24141E+00 5.17530E-13 3.77136E-14
 -1      2610 3.16339E+01 4.44187E+00-2.99254E-02-1.39888E+00 1.70863E-13-6.07986E-13
 -1      2611 1.99107E+01 2.81244E+00 5.63863E-04-1.09807E+00-2.77239E-13-6.04081E-13
 -1      2612 1.97818E+01 3.16152E+00-1.46926E-02-1.28680E+00-3.07269E-13-6.43051E-13
 -1      2613 1.98778E+01 3.02635E+00-1.69647E-02-1.47689E+00-3.78087E-13-6.12334E-13
 -1      2614 1.99951E+01 3.40299E-01-3.49946E-03 3.04683E-01 3.10436E-13-5.29949E-14
 -1      2615 2.04228E+01 2.11578E+00-1.27797E-02 1.87451E+00 5.64117E-13-8.58237E-14
 -1      2616 5.37166E+00-2.99328E+00 1.48751E-01 3.68925E+00 2.79485E-13-6.47205E-13
 -1      2617 6.15917E+00-1.62865E+00 1.75752E-01 2.67184E+00 2.44790E-13-6.97331E-13
 -1      2618 7.37247E+00-2.73865E+00 5.23341E-02 4.87999E+00 3.19925E-13-4.56829E-13
 -1      2619 5.09610E+00-2.07833E+00 1.64517E-01-8.40392E-01 6.95451E-14-9.28202E-13
 -1      2620 3.17309E+01-1.74762E-01-3.75206E-02-7.83787E-01 8.09630E-14-6.03573E-13
 -1      2621 8.54196E+00-3.14976E+00 1.64514E-01-4.58171E+00 2.60736E-13-9.60454E-13
 -1      2622 2.28318E+01-6.28017E+00 7.27513E-02 6.13871E+00 5.46785E-14-9.95530E-13
 -1      2623 1.41382E+01-5.36384E+00 1.20470E-01 7.29981E+00 4.46199E-13-1.55476E-12
 -1      2624 1.37943E+01-4.06195E+00 1.77445E-01 6.93081E+00 2.80831E-13-1.62831E-12
 -1      2625 1.69424E+01-5.64250E+00-7.04407E-02 7.22826E+00 2.33091E-13-1.34000E-12
 -1      2626 5.79526E+00-2.05493E+00 1.77938E-01 3.49764E-01 4.24657E-13-1.41109E-13
 -1      2627 2.10036E+01 5.28114E-01-2.81959E-04 2.05296E+00-1.18039E-13-1.17559E-13
 -1      2628 1.47505E+01-4.82946E+00 1.47605E-01-7.23923E+00 3.04839E-13 1.05725E-12
 -1      2629 2.09044E+01 7.27943E-01-2.84839E-03 2.31211E+00-1.30854E-13-2.09153E-13
 -1      2630 2.05272E+01-1.12751E-01 4.55295E-03-2.28292E-01 1.69038E-14-1.66902E-14
 -1      2631 2.06516E+01-5.50000E-02 1.02035E-02-4.48084E-01-2.96499E-14-4.54151E-15
 -1      2632 2.09160E+01-2.76894E-01-1.04590E-02-5.92079E-01-6.68879E-14 1.65743E-13
 -1      2633 2.06177E+01-2.31118E-01-1.35840E-02-1.89245E-01-2.47210E-13 4.52366E-14
 -1      2634 2.35083E+01-6.12527E+00 6.87621E-02-4.24042E+00 3.76671E-13-5.91728E-13
 -1      2635 2.91502E+01-4.45792E+00 2.97531E-02 2.15605E+00 2.34812E-14-6.56336E-13
 -1      2636 2.04367E+01 1.80807E+00 1.25495E-02 1.56226E+00 5.32716E-13-1.37263E-13
 -1      2637 8.69133E+00-3.04398E+00 1.78229E-01 5.06061E+00 2.85938E-13-1.00131E-12
 -1      2638 2.25654E+01-6.13287E+00 5.51846E-02-6.28816E+00 3.15553E-13 8.34992E-13
 -1      2639 8.06367E+00-2.78217E+00 1.76786E-01-4.67283E+00 3.24074E-13 9.00613E-13
 -1      2640 3.08683E+01 6.88874E+00-9.47083E-02 4.67051E-01-6.33715E-13-5.07608E-13
 -1      2641 3.10377E+01-1.07336E+00-6.22740E-02-5.01863E-01 6.36331E-14 5.34267E-13
 -1      2642 3.01512E+01-6.20021E-02-1.97233E-01 8.89521E-01-9.41608E-14 2.10526E-13
 -1      2643 2.97219E+01-2.47629E+00 3.73554E-02-7.36343E-01 1.38299E-13 4.83738E-13
 -1      2644 2.60096E+01-5.04191E+00 3.90685E-02 3.54901E+00-2.52576E-15 4.52416E-15
 -1      2645 3.09860E+01 7.32667E-01-7.10583E-02 2.67437E+00 3.05145E-13-4.45310E-13
 -1      2646 2.97288E+01-1.96158E+00-1.10598E-02 2.49328E-01-2.53745E-13-1.67311E-13
 -1      2647 3.10640E+01 2.84965E+00-6.35989E-02-1.74020E+00-3.00648E-13-3.05644E-13
 -1      2648 1.18886E+01-4.62881E+00 1.23573E-01 6.83761E+00 2.36505E-13-3.41754E-13
 -1      2649 1.53393E+01-5.38342E+00 8.08155E-02-6.03802E+00 4.60382E-13-4.26603E-13
 -1      2650 2.91917E+01-3.92453E+00 2.37656E-02-2.84854E-02 4.28518E-13-2.78749E-13
 -1      2651 1.99860E+01 2.83961E+00-1.48888E-02-1.58525E+00-4.03653E-13-5.63579E-13
 -1      2652 2.01320E+01 2.61192E+00-2.23697E-02-1.75226E+00-4.52149E-13-4.79658E-13
 -1      2653 2.02837E+01 2.05051E+00 3.22803E-03-1.48776E+00-4.50745E-13-4.15857E-13
 -1      2654 2.00767E+01 2.49308E+00 7.68280E-04-1.34008E+00-3.64830E-13-5.50539E-13
 -1      2655 3.12181E+01 6.84760E+00-1.39819E-01-1.25545E+00-5.82756E-13-2.86368E-13
 -1      2656 2.94488E+01 5.82163E+00-1.18316E-01-1.86784E+00-4.89442E-13-4.00138E-13
 -1      2657 2.90579E+01 6.79921E+00-1.46853E-01-1.04201E+00-6.10539E-13-5.78045E-13
 -1      2658 2.10300E+01 3.36903E-01-7.72195E-03 2.71837E+00 1.96303E-14-2.86545E-13
 -1      2659 2.09806E+01-3.60133E-01 8.72458E-03-2.81637E-01-2.18706E-13 7.44344E-14
 -1      2660 1.98447E+01 2.76485E+00-6.32242E-03 5.16350E-01 2.17933E-13-6.38892E-13
 -1      2661 1.98200E+01 2.81457E+00-5.70330E-03 3.65447E-01 1.74975E-13-6.54579E-13
 -1      2662 1.98031E+01 2.85215E+00-5.60580E-03 2.29863E-01 1.41933E-13-6.62366E-13
 -1      2663 1.97945E+01 2.86905E+00-5.43902E-03 7.52263E-02 1.00472E-13-6.55459E-13
 -1      2664 1.99496E+01 2.50085E+00 3.67492E-03 2.65229E-01 1.49743E-13-6.30889E-13
 -1      2665 2.00439E+01 2.32371E+00-1.07322E-02 1.04606E+00 4.16749E-13-4.52429E-13
 -1      2666 1.99795E+01 2.47271E+00-6.34009E-03 9.10377E-01 3.69212E-13-5.03587E-13
 -1      2667 2.02168E+01 1.90858E+00-1.19376E-02 1.22747E+00 4.78827E-13-3.53060E-13
 -1      2668 2.01244E+01 2.14628E+00-4.80152E-03 1.13422E+00 4.39189E-13-3.93111E-13
 -1      2669 2.01897E+01 1.88649E+00 6.49131E-03 9.26786E-01 4.11461E-13-3.89986E-13
 -1      2670 2.02130E+01 7.26765E-01-3.45717E-03 6.42811E-01 3.80193E-13-1.36212E-13
 -1      2671 2.03549E+01 9.51630E-01 9.17342E-03 9.06496E-01 4.33974E-13-1.10420E-13
 -1      2672 1.11833E+01-2.53888E+00 1.21325E-01 5.64719E+00 1.72098E-13-1.15755E-12
 -1      2673 9.01112E+00-1.60108E+00 1.82354E-01 3.97180E+00 1.28862E-13-8.29059E-13
 -1      2674 2.00706E+01 4.15588E-01-1.38142E-03 2.88300E-01 2.87838E-13-1.37805E-13
 -1      2675 2.01712E+01 5.53293E-01 1.02676E-02 4.50643E-01 3.33275E-13-1.10985E-13
 -1      2676 2.02540E+01 8.22433E-01 1.06954E-03 6.17332E-01 3.64309E-13-2.09841E-13
 -1      2677 2.03222E+01 1.57916E+00-8.63051E-03-1.24138E+00-4.24874E-13-3.56148E-13
 -1      2678 2.03027E+01 1.21276E+00 5.31829E-04-9.69426E-01-3.87547E-13-3.19623E-13
 -1      2679 2.02436E+01 1.85094E+00 2.16532E-03-1.22162E+00-3.85525E-13-4.22095E-13
 -1      2680 2.02960E+01 9.18181E-01 1.13192E-03-7.42547E-01-3.50639E-13-3.00510E-13
 -1      2681 2.02051E+01 7.10908E-01-2.01372E-03-5.13868E-01-3.18195E-13-3.02975E-13
 -1      2682 2.02837E+01 1.14430E+00 3.56953E-03-7.78398E-01-3.41758E-13-3.52463E-13
 -1      2683 2.01827E+01 5.34680E-01 2.33188E-03-3.59809E-01-2.57452E-13-2.81390E-13
 -1      2684 2.01041E+01 4.11976E-01-1.34185E-03-2.08656E-01-2.33554E-13-2.64456E-13
 -1      2685 2.02294E+01 6.90314E-01 1.43539E-03-4.08218E-01-2.59586E-13-2.92680E-13
 -1      2686 2.00772E+01 3.03306E-01 2.14114E-03-1.09685E-01-1.90610E-13-2.53217E-13
 -1      2687 2.00226E+01 2.28077E-01-6.32420E-04-1.56932E-02-1.53665E-13-2.50632E-13
 -1      2688 2.01554E+01 4.01225E-01-5.05454E-04-1.50929E-01-1.84730E-13-2.61055E-13
 -1      2689 1.99995E+01 1.60116E-01 1.69060E-03 4.34100E-02-1.41109E-13-2.53240E-13
 -1      2690 1.99666E+01 1.13204E-01-6.98077E-05 9.81817E-02-1.30917E-13-2.72187E-13
 -1      2691 2.00896E+01 2.17756E-01-1.34782E-03 1.40533E-02-1.56904E-13-2.79372E-13
 -1      2692 1.99495E+01 7.06495E-02 1.24669E-03 1.29762E-01-1.14438E-13-2.72977E-13
 -1      2693 1.99332E+01 4.15172E-02 2.93676E-04 1.58417E-01-1.35689E-13-2.78164E-13
 -1      2694 2.00399E+01 1.01390E-01-1.55524E-03 1.11377E-01-1.33058E-13-2.82542E-13
 -1      2695 1.99218E+01 1.53939E-02 8.75500E-04 1.71719E-01-1.23969E-13-2.13295E-13
 -1      2696 1.99168E+01-2.15490E-03 4.93106E-04 1.83420E-01-9.00095E-14-2.09118E-13
 -1      2697 2.00060E+01 2.86746E-02-1.47995E-03 1.61835E-01-1.05874E-13-2.06725E-13
 -1      2698 1.99100E+01-1.73817E-02 5.85026E-04 1.85111E-01-7.64835E-14-2.02139E-13
 -1      2699 1.99123E+01-2.72117E-02 5.82008E-04 1.86212E-01-9.56218E-14-1.59386E-13
 -1      2700 1.99848E+01-1.50570E-02-1.30289E-03 1.81232E-01-7.24224E-14-1.59134E-13
 -1      2701 1.99088E+01-3.51137E-02 3.69886E-04 1.81027E-01-1.31144E-13-1.22414E-13
 -1      2702 1.99154E+01-3.97494E-02 6.05321E-04 1.75932E-01-1.47493E-13-1.34102E-13
 -1      2703 1.99733E+01-3.92815E-02-1.10500E-03 1.81103E-01-9.79894E-14-1.19044E-13
 -1      2704 1.99143E+01-4.27051E-02 2.19247E-04 1.67194E-01-1.07812E-13-1.41028E-13
 -1      2705 1.99231E+01-4.38391E-02 5.94926E-04 1.58953E-01-9.91762E-14-1.10576E-13
 -1      2706 1.99684E+01-5.03075E-02-9.20186E-04 1.69704E-01-1.16732E-13-8.94570E-14
 -1      2707 1.99236E+01-4.34501E-02 1.20748E-04 1.48973E-01-6.85400E-14-1.16144E-13
 -1      2708 1.99334E+01-4.22214E-02 5.72568E-04 1.39696E-01-1.22287E-14-1.64228E-13
 -1      2709 1.99682E+01-5.24003E-02-7.62300E-04 1.52863E-01-5.80154E-14-8.18911E-14
 -1      2710 1.99350E+01-3.95539E-02 6.30901E-05 1.30076E-01-3.37211E-14-1.99955E-13
 -1      2711 1.99451E+01-3.67116E-02 5.53422E-04 1.21225E-01-4.47211E-14-2.26142E-13
 -1      2712 1.99710E+01-4.84320E-02-6.36265E-04 1.34670E-01-7.72882E-14-9.15324E-14
 -1      2713 1.99474E+01-3.24452E-02 3.70301E-05 1.13087E-01-7.04000E-14-2.71789E-13
 -1      2714 1.99574E+01-2.84537E-02 5.48416E-04 1.05696E-01-1.26296E-13-2.74200E-13
 -1      2715 1.99758E+01-4.02811E-02-5.43060E-04 1.17999E-01-8.97918E-14-1.00107E-13
 -1      2716 1.99603E+01-2.29819E-02 3.56113E-05 9.98559E-02-1.17782E-13-1.81733E-13
 -1      2717 1.99702E+01-1.80945E-02 5.65488E-04 9.46871E-02-1.18513E-13-1.23474E-13
 -1      2718 1.99820E+01-2.90967E-02-4.82436E-04 1.04913E-01-4.45350E-14-1.08567E-13
 -1      2719 1.99737E+01-1.16006E-02 5.39676E-05 9.17840E-02-1.37692E-13-6.68974E-14
 -1      2720 1.99838E+01-5.91744E-03 6.10454E-04 8.94530E-02-1.13582E-13-5.46643E-14
 -1      2721 1.99893E+01-1.54884E-02-4.53517E-04 9.69800E-02-8.93478E-14-1.07289E-14
 -1      2722 1.99878E+01 1.56430E-03 8.88701E-05 9.00438E-02-4.76448E-14-8.50969E-14
 -1      2723 1.99985E+01 8.04778E-03 6.87321E-04 9.11024E-02-2.81094E-14-2.48538E-14
 -1      2724 1.99977E+01 3.21574E-04-4.55019E-04 9.54985E-02-7.78465E-14-4.29002E-14
 -1      2725 2.00031E+01 1.65765E-02 1.38313E-04 9.57256E-02-6.52369E-14-1.92182E-14
 -1      2726 2.00150E+01 2.39230E-02 7.97957E-04 1.00720E-01-1.18790E-14-8.62572E-14
 -1      2727 2.00073E+01 1.83682E-02-4.85690E-04 1.01661E-01-7.82574E-14-2.49577E-14
 -1      2728 2.00206E+01 3.35932E-02 2.01160E-04 1.09930E-01-8.72465E-15-8.03416E-14
 -1      2729 2.00343E+01 4.18714E-02 9.41359E-04 1.19430E-01-1.66462E-14-1.47421E-13
 -1      2730 2.00185E+01 3.88149E-02-5.44078E-04 1.16655E-01-4.62975E-14-5.17506E-14
 -1      2731 2.00410E+01 5.27446E-02 2.76761E-04 1.33800E-01 5.60244E-14-1.40991E-13
 -1      2732 2.00574E+01 6.19656E-02 1.11233E-03 1.48393E-01 8.77538E-14-1.64661E-13
 -1      2733 2.00318E+01 6.18083E-02-6.28164E-04 1.41710E-01 3.87453E-14-7.18544E-14
 -1      2734 2.00656E+01 7.39832E-02 3.64627E-04 1.68483E-01 9.82737E-14-1.68662E-13
 -1      2735 2.00855E+01 8.40159E-02 1.29935E-03 1.88737E-01 6.31420E-14-1.49512E-13
 -1      2736 2.00477E+01 8.72995E-02-7.35210E-04 1.78062E-01 9.07175E-14-8.38040E-14
 -1      2737 2.00958E+01 9.68819E-02 4.64205E-04 2.15012E-01 7.66326E-14-9.57454E-14
 -1      2738 2.01202E+01 1.07338E-01 1.48168E-03 2.41381E-01 6.68823E-14-6.05101E-14
 -1      2739 2.00672E+01 1.14807E-01-8.61460E-04 2.26852E-01 1.14648E-13-1.00209E-13
 -1      2740 2.01333E+01 1.20360E-01 5.74761E-04 2.74081E-01-3.43753E-14-2.32186E-14
 -1      2741 2.01632E+01 1.30438E-01 1.62566E-03 3.06751E-01-8.22304E-14-9.06065E-14
 -1      2742 2.00914E+01 1.43101E-01-1.00203E-03 2.88912E-01-3.51619E-14 4.96751E-14
 -1      2743 2.01801E+01 1.42317E-01 6.95462E-04 3.45681E-01-7.43211E-14-1.64646E-14
 -1      2744 2.02167E+01 1.50595E-01 1.68039E-03 3.84332E-01-1.74902E-14-3.17094E-14
 -1      2745 2.01220E+01 1.69771E-01-1.15122E-03 3.64432E-01-6.17380E-14-3.23153E-14
 -1      2746 2.02389E+01 1.59156E-01 8.25688E-04 4.28565E-01 8.37094E-14-6.90430E-14
 -1      2747 2.02833E+01 1.63339E-01 1.57358E-03 4.72029E-01 8.26453E-14-7.50381E-14
 -1      2748 2.01614E+01 1.90689E-01-1.30358E-03 4.52454E-01 4.48924E-14 4.31638E-14
 -1      2749 2.03132E+01 1.65223E-01 9.65390E-04 5.19496E-01 4.78296E-14-1.04601E-13
 -1      2750 2.03667E+01 1.61866E-01 1.20880E-03 5.65294E-01 6.36175E-14-1.73385E-13
 -1      2751 2.02134E+01 1.99347E-01-1.45575E-03 5.50179E-01 6.78164E-14-2.73706E-14
 -1      2752 2.04079E+01 1.52231E-01 1.11479E-03 6.12256E-01 6.59301E-14-1.46357E-13
 -1      2753 2.04717E+01 1.36520E-01 4.67355E-04 6.56001E-01 1.02558E-13-1.77324E-13
 -1      2754 2.02835E+01 1.86187E-01-1.60909E-03 6.52030E-01 5.92976E-14 5.39905E-14
 -1      2755 2.05297E+01 1.08891E-01 1.27153E-03 6.96389E-01 5.61408E-14-2.30849E-13
 -1      2756 2.06052E+01 7.46733E-02-7.80870E-04 7.31104E-01 4.09197E-14-2.67078E-13
 -1      2757 2.03802E+01 1.38135E-01-1.77174E-03 7.48444E-01 4.61351E-15-8.80852E-14
 -1      2758 2.06875E+01 2.12352E-02 1.42015E-03 7.55749E-01 3.92256E-14-2.74499E-13
 -1      2759 2.07764E+01-3.83330E-02-2.64754E-03 7.71164E-01-2.02628E-15-2.25233E-13
 -1      2760 2.05159E+01 3.88755E-02-1.95737E-03 8.24383E-01-1.69894E-14-2.85973E-13
 -1      2761 2.08930E+01-1.25437E-01 1.51091E-03 7.67030E-01 5.40455E-14-2.05642E-13
 -1      2762 2.09965E+01-2.15953E-01-5.14947E-03 7.49120E-01 1.11265E-13-1.44801E-13
 -1      2763 2.07073E+01-1.29132E-01-2.16864E-03 8.57586E-01 6.52341E-14-2.83764E-13
 -1      2764 2.11583E+01-3.41373E-01 1.43309E-03 6.98871E-01 1.20526E-13-1.08614E-13
 -1      2765 2.12766E+01-4.63038E-01-8.05311E-03 6.30157E-01 1.56641E-13-1.28647E-13
 -1      2766 2.09748E+01-3.79060E-01-2.33708E-03 8.16858E-01 1.56409E-13-1.64486E-13
 -1      2767 2.14914E+01-6.21853E-01 9.70002E-04 5.13053E-01 1.81942E-13-5.58677E-14
 -1      2768 2.16212E+01-7.62335E-01-1.06352E-02 3.74767E-01 1.10054E-13 5.31076E-14
 -1      2769 2.13376E+01-7.08084E-01-2.22836E-03 6.61546E-01 1.66980E-13-6.98317E-14
 -1      2770 2.18849E+01-9.29842E-01-2.33061E-04 1.71012E-01 1.57045E-13 9.45821E-14
 -1      2771 2.20158E+01-1.05474E+00-1.13808E-02-5.09656E-02 1.62792E-13 1.50824E-13
 -1      2772 2.18019E+01-1.07757E+00-1.39622E-03 3.45256E-01 2.15215E-13 2.15812E-13
 -1      2773 2.22983E+01-1.17417E+00-2.53796E-03-3.48268E-01 8.96696E-14 1.99937E-13
 -1      2774 2.24091E+01-1.22029E+00-8.05334E-03-6.50615E-01 3.28493E-14 2.28463E-13
 -1      2775 2.23386E+01-1.38690E+00 6.28140E-04-1.69387E-01 1.45078E-13 1.84147E-13
 -1      2776 2.26406E+01-1.19928E+00-6.15483E-03-1.01041E+00-1.29167E-13 3.82901E-13
 -1      2777 2.26986E+01-1.08560E+00 6.57171E-04-1.35056E+00-1.89595E-13 3.75253E-13
 -1      2778 2.28554E+01-1.45511E+00 3.79901E-03-8.72037E-01-2.43835E-14 4.11327E-13
 -1      2779 2.27879E+01-8.27898E-01-7.95718E-03-1.67436E+00-6.50192E-14 3.37186E-13
 -1      2780 2.27621E+01-5.03185E-01 1.41793E-02-1.95166E+00-3.54656E-14 3.40137E-13
 -1      2781 2.31963E+01-1.07511E+00 4.76021E-03-1.63494E+00-8.08251E-14 6.47720E-13
 -1      2782 2.26381E+01 1.18412E-02-1.08531E-02-2.07526E+00-1.25772E-13 3.27323E-13
 -1      2783 2.25128E+01 4.94316E-01 1.47141E-02-2.13679E+00 3.75828E-15 2.37527E-13
 -1      2784 2.32125E+01-1.06201E-01 6.12898E-03-2.17761E+00-1.56178E-13 4.52636E-13
 -1      2785 2.22755E+01 1.09317E+00-8.23888E-03-1.91293E+00 4.21061E-15 9.12840E-14
 -1      2786 2.21007E+01 1.53405E+00 2.27826E-03-1.67188E+00-1.63627E-13 5.91359E-14
 -1      2787 2.29141E+01 1.17856E+00-8.24609E-03-2.09640E+00-1.19766E-13 4.56189E-14
 -1      2788 2.18934E+01 1.91428E+00-1.23858E-02-1.08051E+00-1.32108E-13 3.81483E-14
 -1      2789 2.17909E+01 2.02885E+00-2.73577E-02-5.61911E-01-9.02420E-14 1.56069E-13
 -1      2790 2.25327E+01 2.30926E+00-3.20321E-03-1.27217E+00-1.37640E-13-1.27474E-13
 -1      2791 2.18590E+01 1.91932E+00-1.33686E-03 4.51653E-02-4.13957E-14 1.54621E-13
 -1      2792 2.18597E+01 1.67415E+00-3.38128E-02 5.75824E-01-7.13724E-14 1.26092E-13
 -1      2793 2.25112E+01 2.38427E+00-9.89081E-04 5.20318E-02-5.83127E-14-1.68890E-13
 -1      2794 2.20845E+01 1.16109E+00-9.10097E-04 9.29020E-01-1.65206E-13 8.20646E-14
 -1      2795 2.21797E+01 6.94954E-01-2.75838E-02 1.22393E+00-1.78415E-13-1.17753E-13
 -1      2796 2.27724E+01 1.54363E+00 1.61838E-02 1.07050E+00-2.24440E-13-2.38632E-13
 -1      2797 2.23302E+01 1.16559E-01-6.09649E-03 1.19118E+00-1.03736E-13-5.68972E-14
 -1      2798 2.24247E+01-3.02565E-01-8.05937E-03 1.18056E+00-3.08987E-14-1.14295E-13
 -1      2799 2.30561E+01 2.45681E-01 2.07867E-02 1.32055E+00-9.49189E-14-4.24932E-13
 -1      2800 2.23571E+01-6.69614E-01-8.41898E-03 8.85615E-01 3.57042E-14-1.66693E-13
 -1      2801 2.23627E+01-8.76025E-01 9.91327E-03 6.69323E-01-2.07211E-14-1.88889E-13
 -1      2802 2.30260E+01-7.86805E-01 1.01920E-02 8.92247E-01-1.11301E-13-4.24914E-13
 -1      2803 2.20897E+01-9.50272E-01-7.36884E-03 3.17210E-01-9.75912E-14-1.66100E-13
 -1      2804 2.19450E+01-9.30927E-01 7.39963E-03 4.96805E-02-1.26689E-13-2.92277E-13
 -1      2805 2.26084E+01-1.18566E+00-5.77293E-03 1.81650E-01-1.18192E-13-3.56115E-13
 -1      2806 2.17448E+01-8.52046E-01 8.61994E-03-1.98023E-01-2.03872E-13-2.39777E-13
 -1      2807 2.17923E+01-5.79671E+00 1.64682E-01-4.64838E+00 3.01523E-13-5.94557E-13
 -1      2808 2.48424E+01-6.02614E+00-1.73574E-01-2.99742E+00 2.79193E-13-5.08125E-13
 -1      2809 1.98918E+01 1.18464E-01-2.54308E-04-7.07656E-02 1.76714E-13-2.08139E-13
 -1      2810 1.99267E+01 1.70080E-01 4.94915E-03-1.55579E-02 2.05350E-13-1.81937E-13
 -1      2811 1.98429E+01-1.81810E-02 2.48540E-04-1.83910E-01 7.85783E-14-2.05040E-13
 -1      2812 1.98345E+01-7.18157E-03 8.80608E-04-1.83426E-01 6.05961E-14-2.04086E-13
 -1      2813 1.98541E+01-3.13148E-02 2.64421E-04-1.76424E-01 1.22318E-13-1.82254E-13
 -1      2814 1.98412E+01-2.58175E-02 2.96946E-04-1.82055E-01 1.20126E-13-1.72538E-13
 -1      2815 1.99202E+01-2.46740E-02-8.59489E-04-1.86935E-01 8.78888E-14-2.31052E-13
 -1      2816 1.98704E+01-3.66096E-02 2.65584E-04-1.60759E-01 1.12243E-13-1.19836E-13
 -1      2817 1.98556E+01-3.47908E-02-6.58586E-05-1.69478E-01 1.13018E-13-1.57357E-13
 -1      2818 1.99203E+01-3.96165E-02-5.62835E-04-1.79638E-01 1.09149E-13-1.49877E-13
 -1      2819 1.98889E+01-3.66400E-02 2.67070E-04-1.41700E-01 1.65840E-13-1.44158E-13
 -1      2820 1.98738E+01-3.72831E-02-2.77383E-04-1.51447E-01 1.61260E-13-1.22815E-13
 -1      2821 1.99259E+01-4.52136E-02-3.56752E-04-1.64093E-01 1.45145E-13-1.71884E-13
 -1      2822 1.99081E+01-3.31182E-02 2.77542E-04-1.22544E-01 1.34573E-13-1.38595E-13
 -1      2823 1.98934E+01-3.54206E-02-3.86941E-04-1.31908E-01 1.69320E-13-1.02932E-13
 -1      2824 1.99347E+01-4.45147E-02-2.22129E-04-1.45226E-01 1.65787E-13-1.21409E-13
 -1      2825 1.99271E+01-2.71351E-02 3.03506E-04-1.05579E-01-2.02255E-15-1.15611E-13
 -1      2826 1.99132E+01-3.05969E-02-4.30495E-04-1.13579E-01 7.91480E-14-1.05882E-13
 -1      2827 1.99453E+01-3.95376E-02-1.42142E-04-1.26459E-01 8.03700E-14-9.95425E-15
 -1      2828 1.99458E+01-1.93146E-02 3.50510E-04-9.24585E-02-3.53300E-14-1.43890E-13
 -1      2829 1.99326E+01-2.36647E-02-4.34112E-04-9.83771E-02-1.23987E-14-1.44386E-13
 -1      2830 1.99568E+01-3.15513E-02-1.03918E-04-1.10205E-01 2.68758E-14-7.47878E-14
 -1      2831 1.99645E+01-9.92029E-03 4.24071E-04-8.44793E-02 9.36582E-14-2.38174E-13
 -1      2832 1.99515E+01-1.50651E-02-4.16522E-04-8.77334E-02 2.21882E-14-1.76847E-13
 -1      2833 1.99691E+01-2.12582E-02-9.76946E-05-9.82365E-02 2.53564E-14-1.35594E-13
 -1      2834 1.99839E+01 1.07163E-03 5.30185E-04-8.27979E-02-2.22716E-14-1.39142E-13
 -1      2835 1.99706E+01-4.91742E-03-3.91460E-04-8.28434E-02 5.72214E-14-2.26764E-13
 -1      2836 1.99820E+01-8.92221E-03-1.15673E-04-9.19793E-02 3.75379E-14-1.91009E-13
 -1      2837 2.00052E+01 1.39222E-02 6.75410E-04-8.86045E-02-7.52721E-14-1.12039E-13
 -1      2838 1.99906E+01 6.92037E-03-3.69384E-04-8.48563E-02-1.22879E-14-9.21483E-14
 -1      2839 1.99960E+01 5.54403E-03-1.51900E-04-9.27292E-02-3.95151E-14-1.87112E-13
 -1      2840 2.00295E+01 2.90928E-02 8.66890E-04-1.03261E-01-2.91528E-14-1.02856E-13
 -1      2841 2.00127E+01 2.08084E-02-3.58631E-04-9.50295E-02-6.12302E-14-9.99012E-14
 -1      2842 2.00117E+01 2.25175E-02-2.01298E-04-1.01831E-01-5.27477E-14-2.17768E-13
 -1      2843 2.00584E+01 4.72176E-02 1.11220E-03-1.28410E-01 7.62978E-14-2.32819E-13
 -1      2844 2.00382E+01 3.72930E-02-3.66577E-04-1.14851E-01 3.34783E-15-1.77330E-13
 -1      2845 2.00296E+01 4.26192E-02-2.58534E-04-1.20817E-01 3.89974E-14-2.57346E-13
 -1      2846 2.00938E+01 6.90788E-02 1.41888E-03-1.66063E-01 1.36400E-13-2.45746E-13
 -1      2847 2.00688E+01 5.70811E-02-4.00583E-04-1.46135E-01 1.35208E-13-2.02932E-13
 -1      2848 2.00508E+01 6.66781E-02-3.17118E-04-1.51508E-01 8.14288E-14-2.85150E-13
 -1      2849 2.01375E+01 9.55690E-02 1.79339E-03-2.18652E-01 1.74990E-13-2.38224E-13
 -1      2850 2.01061E+01 8.10124E-02-4.68607E-04-1.91093E-01 1.64773E-13-2.39508E-13
 -1      2851 2.00760E+01 9.56928E-02-3.68416E-04-1.96088E-01 1.85103E-13-1.66363E-13
 -1      2852 2.01917E+01 1.27619E-01 2.23935E-03-2.89046E-01 7.90885E-14-8.28785E-14
 -1      2853 2.01520E+01 1.10008E-01-5.79393E-04-2.52373E-01 1.44296E-13-1.61664E-13
 -1      2854 2.01059E+01 1.30773E-01-4.00532E-04-2.57143E-01 1.54938E-13-6.18597E-14
 -1      2855 2.02583E+01 1.66047E-01 2.75468E-03-3.80493E-01-1.03858E-13-1.04830E-13
 -1      2856 2.02085E+01 1.44967E-01-7.41795E-04-3.33042E-01-1.30529E-14-6.85759E-14
 -1      2857 2.01413E+01 1.73021E-01-3.97776E-04-3.37646E-01 3.36053E-14-1.45173E-14
 -1      2858 2.03393E+01 2.11250E-01 3.32704E-03-4.96436E-01-1.08727E-13-1.71878E-13
 -1      2859 2.02774E+01 1.86554E-01-9.62246E-04-4.36482E-01-1.13451E-13-1.59802E-13
 -1      2860 2.01822E+01 2.23301E-01-3.41639E-04-4.40859E-01-9.76634E-14-2.55895E-14
 -1      2861 2.04361E+01 2.62594E-01 3.92741E-03-6.40121E-01-1.04707E-13-2.67443E-13
 -1      2862 2.03602E+01 2.34765E-01-1.23864E-03-5.66138E-01-9.24288E-14-1.72661E-13
 -1      2863 2.02285E+01 2.81773E-01-2.15370E-04-5.70125E-01-6.55359E-14-7.44434E-14
 -1      2864 2.05504E+01 3.17268E-01 4.50209E-03-8.13827E-01 7.70954E-14-2.16978E-13
 -1      2865 2.04585E+01 2.88094E-01-1.54747E-03-7.24990E-01 1.20644E-14-2.71668E-13
 -1      2866 2.02793E+01 3.47003E-01-1.62839E-05-7.28453E-01-5.10990E-14-1.24189E-13
 -1      2867 2.06836E+01 3.68237E-01 4.96461E-03-1.01750E+00-6.75956E-14-8.75877E-14
 -1      2868 2.05739E+01 3.42004E-01-1.81899E-03-9.14597E-01 4.10542E-14-1.04718E-13
 -1      2869 2.03338E+01 4.14341E-01 2.17164E-04-9.17825E-01-1.68471E-14-1.23259E-13
 -1      2870 2.08392E+01 4.00821E-01 5.19166E-03-1.24648E+00-1.34493E-13-3.34771E-13
 -1      2871 2.07094E+01 3.86269E-01-1.89154E-03-1.13342E+00-9.44575E-14-1.90170E-13
 -1      2872 2.03916E+01 4.73110E-01 3.53191E-04-1.13808E+00-1.28062E-14-1.51416E-13
 -1      2873 2.10261E+01 3.87508E-01 5.02615E-03-1.48778E+00-1.04233E-13-2.06620E-13
 -1      2874 2.08719E+01 4.00721E-01-1.43184E-03-1.37405E+00-1.51970E-13-3.10471E-13
 -1      2875 2.04564E+01 5.02063E-01 7.92015E-05-1.38517E+00-1.02203E-13-2.21354E-13
 -1      2876 2.12653E+01 2.81407E-01 4.25524E-03-1.71450E+00 1.18793E-14-1.38648E-13
 -1      2877 2.10784E+01 3.49282E-01 1.87605E-04-1.61872E+00-2.36677E-14-1.96304E-13
 -1      2878 2.05411E+01 4.62818E-01-1.22390E-03-1.64851E+00-7.91392E-14-1.82255E-13
 -1      2879 2.16011E+01 1.09301E-02 2.13265E-03-1.87759E+00-2.82001E-13-1.32260E-14
 -1      2880 2.13659E+01 1.73634E-01 4.01068E-03-1.83220E+00-1.29059E-13-2.72622E-14
 -1      2881 2.06789E+01 2.92132E-01-4.65114E-03-1.90671E+00-1.52831E-13-2.07537E-14
 -1      2882 2.21141E+01-5.08142E-01-1.70729E-03-1.89099E+00-1.38287E-13 7.85426E-14
 -1      2883 2.18059E+01-2.07671E-01 1.12892E-02-1.94798E+00-2.08985E-13 1.37304E-13
 -1      2884 2.09420E+01-1.04367E-01-1.22241E-02-2.11818E+00-3.08228E-13-1.06820E-13
 -1      2885 2.29179E+01-1.33638E+00-9.47984E-03-1.62497E+00 1.80914E-14 5.78771E-14
 -1      2886 2.25090E+01-8.71944E-01 2.34170E-02-1.85550E+00-1.00211E-13 1.53295E-13
 -1      2887 2.14592E+01-8.27540E-01-2.51560E-02-2.19942E+00-1.66093E-13-1.00305E-13
 -1      2888 2.41190E+01-2.35014E+00-1.65539E-02-8.94856E-01 1.06616E-13-1.57279E-14
 -1      2889 2.36092E+01-1.82003E+00 3.93197E-02-1.37131E+00 1.19628E-13 1.11070E-13
 -1      2890 2.24069E+01-1.93041E+00-4.61846E-02-1.99925E+00 7.27677E-14 1.09701E-13
 -1      2891 2.56607E+01-3.05689E+00-2.58026E-02 4.74531E-01-6.65266E-14 2.45316E-13
 -1      2892 2.51705E+01-2.78307E+00 4.83086E-02-2.68823E-01 5.77663E-16 1.07411E-13
 -1      2893 2.40181E+01-3.20323E+00-7.00808E-02-1.24219E+00-1.34007E-14 2.57466E-13
 -1      2894 2.80341E+01 3.95108E+00-1.34699E-01 2.47599E+00 1.98730E-14-4.42250E-13
 -1      2895 2.83209E+01 2.29129E+00-1.61948E-01 3.46405E+00-2.77695E-14-4.18589E-13
 -1      2896 2.79260E+01 4.43312E+00-1.73858E-01-1.14947E+00 1.13409E-13-3.06186E-13
 -1      2897 2.79162E+01 5.23493E+00-1.51488E-01 3.35259E-01-1.89848E-14-4.05557E-13
 -1      2898 2.71070E+01-1.83028E+00-7.27459E-02-1.66390E+00 2.16785E-13-1.63793E-14
 -1      2899 2.72772E+01-4.14215E-01-1.77222E-02-2.12495E+00 3.11161E-13-3.10689E-14
 -1      2900 2.57663E+01-2.87126E+00 3.29680E-02 9.71263E-02 1.15131E-13 4.70804E-14
 -1      2901 2.62055E+01-2.57135E+00-2.50530E-02-6.85507E-01 2.24890E-13 7.67806E-14
 -1      2902 2.73515E+01-2.73608E+00-5.70759E-02-6.79627E-01 1.29952E-13 3.61794E-14
 -1      2903 2.39957E+01-2.30367E+00 4.25915E-02 1.67817E+00 5.77563E-14 1.57538E-13
 -1      2904 2.45885E+01-2.77190E+00-3.65075E-02 1.05202E+00 1.86889E-13 1.00691E-13
 -1      2905 2.53055E+01-3.56066E+00-6.95281E-02 1.29577E+00 9.89278E-14 6.85693E-14
 -1      2906 2.25335E+01-1.18275E+00 3.59588E-02 2.46927E+00 2.46082E-13-7.67255E-14
 -1      2907 2.30729E+01-1.80720E+00-2.15492E-02 2.14001E+00 1.39250E-13 7.12535E-14
 -1      2908 2.33249E+01-2.46279E+00-3.08573E-02 2.49834E+00 2.50782E-13-2.86885E-13
 -1      2909 2.14960E+01-1.68337E-01 2.72489E-02 2.70496E+00 2.18221E-13-3.06382E-13
 -1      2910 2.19162E+01-7.51732E-01-1.00546E-02 2.68578E+00 2.39762E-13-2.27093E-13
 -1      2911 2.19439E+01-1.14365E+00-8.21028E-03 3.02109E+00 2.83935E-13-5.01022E-13
 -1      2912 2.09581E+01 1.08262E-02-1.77057E-02 3.18804E+00 7.41820E-14-5.84697E-13
 -1      2913 1.37633E+01-3.40708E+00 2.05486E-01-6.67098E+00 2.12566E-13 1.18820E-12
 -1      2914 1.74406E+01-4.87416E+00-1.66308E-02-7.21978E+00 2.12691E-13 8.14238E-13
 -1      2915 1.71887E+01 1.93346E+00 4.09629E-02-2.40502E+00-3.22815E-13 7.14088E-13
 -1      2916 1.65408E+01 2.16075E+00-3.24821E-02-1.56008E+00-2.02478E-13 4.66752E-13
 -1      2917 2.12912E+01-6.01629E-01-1.23877E-02-4.79615E-01 6.89685E-14-8.78889E-14
 -1      2918 2.11630E+01-4.42995E-01 4.74513E-03-5.30802E-01 1.13778E-13 1.85526E-13
 -1      2919 2.12642E+01-4.80006E-01-9.44883E-03-7.91429E-01 1.30251E-13-7.76675E-14
 -1      2920 1.66039E+01 2.08409E+00-2.87932E-02 1.88005E+00-1.99703E-13-4.69520E-14
 -1      2921 1.73070E+01 1.82648E+00 3.70244E-02 2.66912E+00-9.65172E-14-5.22139E-13
 -1      2922 1.89154E+01 9.39889E-01 5.05323E-02-3.49822E+00-2.47169E-13 1.19538E-13
 -1      2923 1.79844E+01 1.29947E+00-4.27262E-02-3.12696E+00-2.81422E-13 5.28531E-13
 -1      2924 1.70966E+01 1.03462E+00 2.57693E-02-3.15602E+00-3.56758E-13 6.07932E-13
 -1      2925 1.61543E+01 2.39010E+00 7.56392E-03-3.55135E-01-1.54533E-13 4.29821E-13
 -1      2926 1.61878E+01 2.37629E+00 7.34549E-03 6.81651E-01-2.41575E-13 2.99993E-13
 -1      2927 1.55853E+01 1.75082E+00 5.69192E-02 1.47456E+00-3.35572E-13-6.62352E-14
 -1      2928 2.04778E+01 2.10236E-02 3.69335E-02-3.49209E+00-2.72483E-14 3.22867E-13
 -1      2929 1.97272E+01 3.53976E-01-2.60745E-02-3.57585E+00-1.45920E-13 3.59140E-13
 -1      2930 1.91895E+01-6.44251E-02-3.74461E-04-3.92875E+00-9.32882E-14 3.75517E-13
 -1      2931 2.14253E+01-5.39474E-01 1.42564E-02-2.77691E+00 2.94857E-13 5.13066E-13
 -1      2932 2.10257E+01-2.95670E-01-3.70152E-03-3.13721E+00 6.98351E-14 4.00001E-13
 -1      2933 2.09115E+01-8.43936E-01-1.38206E-02-3.56455E+00 2.21895E-13 5.08232E-13
 -1      2934 2.16494E+01-7.10624E-01-1.47995E-02-1.82370E+00 2.89008E-13 4.69091E-13
 -1      2935 2.16106E+01-5.63212E-01 1.28062E-02-2.24569E+00 3.50539E-13 5.13681E-13
 -1      2936 2.18389E+01-1.11572E+00-7.33065E-03-2.59978E+00 2.60971E-13 5.13816E-13
 -1      2937 2.14636E+01-4.68469E-01 1.51291E-02-1.14495E+00 2.23410E-13-9.39743E-14
 -1      2938 1.99616E+01 2.31143E-01-6.30394E-04 6.31215E-02 2.26503E-13-1.79908E-13
 -1      2939 2.00261E+01 3.14508E-01 7.49157E-03 1.60309E-01 2.49471E-13-1.51822E-13
 -1      2940 2.01466E+01 4.78780E-01-1.23442E-03 2.80530E-01 2.88671E-13-2.28142E-13
 -1      2941 2.00566E+01 2.67065E-01-2.11401E-03 6.13650E-02 2.32217E-13-2.48001E-13
 -1      2942 7.62846E+00-9.60951E-01 1.40909E-01 1.78428E+00 1.10065E-13-5.09814E-13
 -1      2943 7.40564E+00-8.96304E-01 1.46529E-01-1.15651E+00 2.19234E-14 6.23113E-14
 -1      2944 2.03381E+01 1.50027E+00-1.89844E-03 1.26701E+00 4.95115E-13-1.68309E-13
 -1      2945 2.97673E+01 2.44883E+00-9.00306E-02 1.62920E+00-2.82996E-13-3.10418E-13
 -1      2946 2.94629E+01 4.20004E+00-1.95886E-01 1.52602E+00-4.77091E-13-6.54810E-13
 -1      2947 2.91916E+01 5.75416E+00-1.59727E-01 1.14043E+00-5.36432E-13-6.03559E-13
 -1      2948 2.86708E+01 6.55809E+00-2.05808E-01 2.76359E-01-6.93168E-13-6.57755E-13
 -1      2949 2.79327E+01 4.32376E+00-1.14453E-01 1.45575E+00-5.47964E-13-7.49213E-13
 -1      2950 2.68110E+01-4.77077E+00-1.32096E-01 2.23654E+00-1.16296E-13-7.96585E-15
 -1      2951 2.47060E+01-5.36511E+00 7.83643E-02 3.76723E+00 1.07137E-13-1.09489E-13
 -1      2952 2.79208E+01 3.02150E+00-1.77281E-01-1.96943E+00 2.27651E-13-2.91621E-13
 -1      2953 8.18075E+00-1.92574E+00 1.62415E-01-3.55205E+00 4.22440E-14-1.18283E-12
 -1      2954 1.07906E+01-2.78958E+00 1.04460E-01-4.98502E+00 2.12441E-13-8.32306E-13
 -1      2955 1.42616E+01-4.38964E+00-2.56836E-02 6.75509E+00 3.16441E-13-2.25570E-13
 -1      2956 1.07502E+01-3.31468E+00 2.17681E-01 6.05575E+00 3.71467E-13-4.11060E-13
 -1      2957 1.98411E+01 6.65625E-03 1.90684E-04-1.76266E-01 6.34503E-14-2.29387E-13
 -1      2958 1.98411E+01 2.59283E-02 1.78735E-03-1.65207E-01 9.74355E-14-2.14051E-13
 -1      2959 1.99289E+01 4.18180E-03-1.26241E-03-1.78915E-01 8.18141E-14-2.13788E-13
 -1      2960 1.98547E+01 4.90999E-02 4.50564E-05-1.43389E-01 1.28686E-13-2.12161E-13
 -1      2961 1.98687E+01 8.09671E-02 3.14011E-03-1.15128E-01 1.43954E-13-1.96519E-13
 -1      2962 1.99508E+01 5.38744E-02-1.77513E-03-1.45453E-01 1.12693E-13-2.17798E-13
 -1      2963 2.89758E+01-1.47773E+00-1.99670E-01-9.64081E-01-8.25243E-14-3.39812E-13
 -1      2964 2.82997E+01-3.06707E+00 1.88722E-02 2.92797E-01-1.88767E-13-6.86395E-14
 -1      2965 3.10092E+01 6.38048E+00-7.77571E-02 5.82389E-01-1.16018E-14-5.46133E-13
 -1      2966 1.99234E+01 2.59565E+00-7.93543E-03 7.94481E-01 3.36355E-13-5.43428E-13
 -1      2967 1.98794E+01 2.68787E+00-6.16592E-03 6.45415E-01 2.62583E-13-5.87240E-13
 -1      2968 1.99985E+01 2.38832E+00 4.44883E-03 5.16877E-01 2.38404E-13-5.69104E-13
 -1      2969 2.00801E+01 2.19035E+00 5.64122E-03 7.45692E-01 3.32822E-13-4.81697E-13
 -1      2970 2.79007E+01-4.61166E+00 1.13400E-01-3.89839E-01 2.87773E-13-1.80245E-13
 -1      2971 2.89866E+01-3.17668E+00-1.60824E-01 1.29535E+00 3.94376E-13-3.73174E-14
 -1      2972 2.89855E+01-3.81384E+00-1.36320E-01 6.70256E-01 6.56940E-14-4.13655E-13
 -1      2973 2.75767E+01-5.06152E+00 1.00682E-01 2.37412E+00 2.07473E-14-5.17961E-13
 -1      2974 2.44134E+01-6.14577E+00-1.28682E-01 5.05343E+00-3.43336E-14-7.68916E-13
 -1      2975 2.10573E+01-5.94155E+00 1.57020E-01 6.42867E+00 9.00113E-14-1.14093E-12
 -1      2976 1.44936E+01-4.03258E+00 1.36676E-01-5.71380E+00 3.95892E-13-2.93321E-13
 -1      2977 1.80137E+01-5.37044E+00-9.14346E-03-5.74946E+00 4.19081E-13-3.91701E-13
 -1      2978 2.05636E+01-5.00064E+00 1.25331E-01-4.62176E+00 2.52881E-13-4.67258E-13
 -1      2979 6.32381E+00-9.91725E-01 1.63268E-01 2.32893E-01 8.47402E-14-7.12097E-13
 -1      2980 6.82580E+00-1.24044E+00 1.51642E-01-1.89336E+00 6.08125E-14-9.84685E-13
 -1      2981 2.16561E+01-5.67206E+00-6.46063E-02 5.42767E+00 1.53419E-13-1.21805E-13
 -1      2982 1.88013E+01-5.09341E+00 1.85704E-01 6.19807E+00 1.90709E-13 6.12704E-15
 -1      2983 2.93754E+01 3.50964E+00-2.35169E-01-2.25801E+00-3.69149E-13-2.97665E-13
 -1      2984 2.94796E+01 1.32650E+00-4.07181E-02-2.08099E+00-1.68490E-13-4.13919E-13
 -1      2985 2.66952E+01-5.33543E+00 6.07584E-02-3.79240E+00 4.92870E-13 6.34937E-13
 -1      2986 2.80211E+01-4.59631E+00-1.28441E-01-2.58898E+00 3.71578E-13 6.79373E-13
 -1      2987 1.98748E+01 2.69655E+00-6.08642E-03-6.35362E-01-1.15061E-13-5.96747E-13
 -1      2988 1.99177E+01 2.60767E+00-7.52460E-03-7.84710E-01-1.73056E-13-5.81937E-13
 -1      2989 8.27903E+00-1.45632E+00 1.80674E-01-3.40352E+00 9.20097E-14 7.61835E-13
 -1      2990 1.02092E+01-2.39560E+00 4.11584E-02-5.49027E+00 8.84431E-14 1.43657E-12
 -1      2991 2.11939E+01-5.53305E+00 1.60929E-01-6.46427E+00 2.17493E-13 6.54079E-13
 -1      2992 2.41266E+01-5.87407E+00-4.56406E-02-5.46083E+00 3.69704E-13 7.89278E-13
 -1      2993 2.51635E+01-5.38199E+00 5.21271E-02-4.27590E+00 4.72136E-13 5.11674E-13
 -1      2994 2.94790E+01 8.10065E-01-1.08791E-01 3.33294E+00 1.07456E-13-3.45154E-13
 -1      2995 2.74518E+01 9.32348E-02-8.44939E-02 3.30272E+00-1.16435E-14-1.08080E-13
 -1      2996 2.74892E+01-1.37934E+00-1.24754E-01 3.16607E+00-5.67740E-14-6.93889E-16
 -1      2997 2.95488E+01-1.76409E+00-6.25289E-02 2.58657E+00 3.48034E-13-9.99895E-14
 -1      2998 1.99724E+01 2.48763E+00-5.95202E-03-9.03600E-01-2.21876E-13-5.58842E-13
 -1      2999 2.00381E+01 2.34799E+00-7.14292E-03-1.03595E+00-2.77094E-13-5.52632E-13
 -1      3000 2.00739E+01 2.20093E+00 5.04630E-03-7.38665E-01-1.79175E-13-5.13019E-13
 -1      3001 1.99328E+01 2.53844E+00 3.43030E-03 4.62428E-03 7.47781E-14-6.22659E-13
 -1      3002 1.97938E+01 2.86990E+00-5.48903E-03-6.18622E-02 5.91207E-14-6.50875E-13
 -1      3003 1.98013E+01 2.85523E+00-5.55716E-03-2.16588E-01 1.57689E-15-6.48043E-13
 -1      3004 2.61711E+01-4.96547E+00 3.39036E-02-1.32853E+00 2.28435E-13-1.31457E-13
 -1      3005 1.02788E+01-4.84391E-01 1.98802E-01 2.55270E+00-9.67421E-14-6.33910E-13
 -1      3006 1.03980E+01-2.28344E+00 1.73227E-01 5.18143E+00 3.91603E-13-4.17444E-13
 -1      3007 2.83679E+01-2.62817E+00 3.42259E-03 2.08419E+00 2.38129E-13-7.18869E-15
 -1      3008 1.97609E+01-5.13768E+00 1.25161E-01 6.44966E+00 1.32477E-13-1.33801E-12
 -1      3009 1.99917E+01 1.35054E-01-2.28570E-03-7.20793E-02 1.75382E-13-2.26910E-13
 -1      3010 9.17599E+00-9.41520E-01 1.83111E-01-2.49154E+00 7.53807E-14-1.09293E-12
 -1      3011 9.83600E+00-3.62189E-01 2.07537E-01-2.01026E+00-1.87506E-13 4.36096E-13
 -1      3012 2.70134E+01-3.06053E+00 4.16221E-04 1.45122E+00 9.96590E-14 1.83156E-13
 -1      3013 2.63578E+01-3.99134E+00-8.16277E-02 1.19138E-01 4.19504E-14 1.81785E-13
 -1      3014 2.73952E+01-2.35047E+00-4.95643E-02 2.24615E+00 6.82163E-14 1.56944E-13
 -1      3015 1.27183E+01-1.90522E+00 9.85453E-02-4.47190E+00-6.75293E-14-8.17915E-13
 -1      3016 1.35411E+01-3.09714E+00 1.27153E-01-5.24876E+00 1.88988E-13-5.01058E-13
 -1      3017 1.59047E+01-3.36045E+00-3.33262E-02-5.03601E+00 1.66221E-13-4.17957E-13
 -1      3018 1.36171E+01-2.28420E+00 1.66019E-01-5.73530E+00 1.11938E-13 1.14096E-12
 -1      3019 2.04025E+01 2.78419E-01 3.07006E-02 3.49484E+00 1.63982E-13-6.62335E-13
 -1      3020 2.07482E+01-4.21688E-01-2.16729E-03 3.59610E+00 2.32707E-13-5.83869E-13
 -1      3021 1.96569E+01 5.58501E-01-3.27968E-02 3.61446E+00 1.92569E-13-8.68128E-13
 -1      3022 1.99073E+01-4.59507E+00 1.20062E-01-6.34162E+00 2.41529E-13 7.35949E-13
 -1      3023 1.55802E+01 1.82767E+00 6.30869E-02-1.12104E+00-1.44810E-13 3.94478E-13
 -1      3024 1.52740E+01-3.31115E+00 2.80837E-03 6.31173E+00 1.19793E-13-1.66962E-12
 -1      3025 1.32366E+01-2.84243E+00 1.65367E-01 6.10083E+00 1.42386E-13-1.52851E-12
 -1      3026 1.33556E+01-1.60460E+00 1.49265E-01 5.26508E+00-8.84709E-15-1.38772E-12
 -1      3027 2.18801E+01-8.81887E-01 1.85055E-02-1.35240E+00 1.82389E-13-5.85096E-14
 -1      3028 1.70868E+01-4.19124E+00 1.13213E-01 5.99252E+00 2.55476E-13-1.68823E-13
 -1      3029 2.82171E+01 4.07576E+00-1.29351E-01-2.30639E+00-3.13499E-13-3.78336E-13
 -1      3030 2.33836E+01-5.22580E+00 5.14597E-02 4.01498E+00 1.35073E-13-1.70985E-13
 -1      3031 2.55539E+01-5.32796E+00-1.34410E-02 3.40250E+00 4.19248E-14-5.27814E-13
 -1      3032 2.02904E+01 1.58767E+00-1.19198E-03 1.16584E+00 4.74730E-13-2.62293E-13
 -1      3033 2.90605E+01 7.43534E-01-9.25286E-02 1.30064E+00-2.16327E-13-3.46487E-13
 -1      3034 2.67423E+01 5.57525E+00-1.19198E-01 1.47676E-01-5.66505E-13-5.15280E-13
 -1      3035 2.79740E+01 6.36819E+00-1.60569E-01-4.01841E-01-6.60777E-13-4.88305E-13
 -1      3036 2.69310E+01 5.91401E+00-1.03825E-01-1.05878E+00-5.19085E-13-3.78161E-13
 -1      3037 2.70954E+01-3.87694E+00-1.69727E-02 8.43341E-01-6.95624E-14-3.28765E-14
 -1      3038 2.85437E+01-3.47034E+00-3.08692E-02-1.05145E+00 3.16042E-13 2.54255E-13
 -1      3039 2.19431E+01-1.01422E+00-1.43943E-02-4.94494E-01 8.73542E-15-2.85843E-13
 -1      3040 2.86742E+01 1.20360E+00-1.65823E-01-2.35972E+00 3.35676E-13-3.64375E-13
 -1      3041 1.80643E+01 1.31843E+00-4.04955E-02 3.21939E+00 1.63448E-13-7.63486E-13
 -1      3042 1.89367E+01 9.92759E-01 3.75562E-02 3.52937E+00 2.90677E-13-8.28876E-13
 -1      3043 1.90058E+01 1.77025E-01-4.94817E-03 3.91448E+00 4.17236E-13-6.35760E-13
 -1      3044 1.72123E+01 9.97600E-01 4.38712E-02 3.30964E+00 1.43382E-13-8.52854E-13
 -1      3045 1.98170E+01 2.81971E+00-5.70871E-03-3.51775E-01-2.79433E-14-6.07550E-13
 -1      3046 1.98411E+01 2.77133E+00-6.24936E-03-5.05465E-01-8.81202E-14-5.97447E-13
 -1      3047 1.99941E+01 2.39585E+00 4.23401E-03-5.07806E-01-9.50288E-14-5.56703E-13
 -1      3048 1.99476E+01 2.50436E+00 3.62260E-03-2.55738E-01-1.41850E-14-6.01620E-13
 -1      3049 2.83113E+01-2.50976E-01-5.18193E-02-1.90498E+00-5.97716E-14-3.39395E-13
 -1      3050 2.02793E+01 1.36650E+00 2.07910E-03 9.19665E-01 4.20942E-13-2.86438E-13
 -1      3051 2.97920E+01 1.08502E-01-1.71937E-01-1.79861E+00 1.42719E-13-2.46705E-13
 -1      3052 2.94885E+01-2.13986E+00-8.48648E-02-9.55598E-01-1.46272E-14-1.80037E-13
 -1      3053 7.08835E+00-8.16643E-01 1.87414E-01 1.34622E+00 1.72076E-13-6.74877E-13
 -1      3054 8.51947E+00-1.61293E-01 1.37894E-01 4.05241E-01 1.20712E-13-5.86267E-13
 -1      3055 8.11458E+00-7.99664E-01 7.74838E-02 2.60647E+00 3.12535E-13-5.22221E-13
 -1      3056 2.84785E+01-6.98758E-01-1.87619E-02 1.15822E+00-1.60490E-13-3.04270E-13
 -1      3057 2.76624E+01 1.23451E+00-1.55676E-01 1.74321E+00-3.60489E-13-6.87256E-13
 -1      3058 2.02399E+01 1.48150E+00-6.08967E-03 8.03545E-01 3.90354E-13-3.47922E-13
 -1      3059 2.02013E+01 1.66930E+00-3.34531E-04 7.47311E-01 3.59362E-13-3.91735E-13
 -1      3060 2.02687E+01 1.44673E+00 4.58657E-06-8.72843E-01-3.17510E-13-4.01041E-13
 -1      3061 2.02572E+01 1.14919E+00-4.86716E-03-6.57224E-01-2.86088E-13-3.71112E-13
 -1      3062 2.02844E+01 9.05390E-01 3.82985E-03-4.99481E-01-2.58870E-13-3.13390E-13
 -1      3063 2.02444E+01 7.07878E-01-3.49576E-03-3.41680E-01-1.96901E-13-2.91319E-13
 -1      3064 2.02719E+01 1.18855E+00 8.95350E-04-5.81277E-01-2.38806E-13-3.67835E-13
 -1      3065 2.02418E+01 5.48876E-01 3.71528E-03-2.24357E-01-1.82395E-13-2.80685E-13
 -1      3066 2.02013E+01 4.18353E-01-2.28970E-03-1.18160E-01-1.75678E-13-2.91573E-13
 -1      3067 2.02801E+01 7.44227E-01 5.62628E-04-3.02989E-01-1.90415E-13-3.15954E-13
 -1      3068 2.01869E+01 3.14005E-01 3.08488E-03-3.94466E-02-1.68269E-13-2.55068E-13
 -1      3069 2.01538E+01 2.28414E-01-1.31358E-03 2.70023E-02-1.54488E-13-2.86199E-13
 -1      3070 2.02524E+01 4.41424E-01-5.77988E-04-1.01750E-01-1.74553E-13-2.74373E-13
 -1      3071 2.01355E+01 1.60557E-01 2.29291E-03 7.52805E-02-1.12047E-13-2.54611E-13
 -1      3072 2.01115E+01 1.05243E-01-6.10269E-04 1.13243E-01-1.12153E-13-2.39673E-13
 -1      3073 2.02124E+01 2.39622E-01-9.69331E-04 3.04432E-02-1.27092E-13-2.41364E-13
 -1      3074 2.00934E+01 6.19320E-02 1.57617E-03 1.39340E-01-1.07920E-13-2.16524E-13
 -1      3075 2.00775E+01 2.72381E-02-1.47225E-04 1.57825E-01-7.38850E-14-2.02026E-13
 -1      3076 2.01715E+01 1.07566E-01-1.03202E-03 1.09596E-01-9.90728E-14-2.32622E-13
 -1      3077 2.00613E+01 6.47997E-04 1.00070E-03 1.68651E-01-8.20228E-14-1.82537E-13
 -1      3078 2.00518E+01-1.98861E-02 1.37738E-04 1.74411E-01-8.55384E-14-2.05469E-13
 -1      3079 2.01350E+01 2.37356E-02-9.46570E-04 1.50627E-01-7.09144E-14-2.30448E-13
 -1      3080 2.00381E+01-3.50013E-02 5.69831E-04 1.75364E-01-5.57931E-14-1.81790E-13
 -1      3081 2.00333E+01-4.57978E-02 3.02994E-04 1.73311E-01-7.52253E-14-1.23365E-13
 -1      3082 2.01042E+01-2.66545E-02-8.10007E-04 1.65804E-01-6.87517E-14-2.11862E-13
 -1      3083 2.00222E+01-5.30324E-02 2.62530E-04 1.68415E-01-1.16161E-13-1.06168E-13
 -1      3084 2.00206E+01-5.71500E-02 3.92637E-04 1.62064E-01-7.37469E-14-8.46804E-14
 -1      3085 2.00794E+01-5.38878E-02-6.67628E-04 1.64611E-01-9.39135E-14-1.80749E-13
 -1      3086 2.00117E+01-5.89840E-02 5.10647E-05 1.54236E-01-6.82162E-14-5.81150E-14
 -1      3087 2.00124E+01-5.85308E-02 4.37586E-04 1.46077E-01-7.41819E-14-9.61957E-14
 -1      3088 2.00600E+01-6.51441E-02-5.38028E-04 1.54084E-01-5.39282E-14-1.02406E-13
 -1      3089 2.00055E+01-5.66611E-02-9.08113E-05 1.37397E-01-9.69964E-14-1.28515E-13
 -1      3090 2.00076E+01-5.30601E-02 4.59392E-04 1.29189E-01-1.04498E-13-1.64151E-13
 -1      3091 2.00451E+01-6.54079E-02-4.27912E-04 1.39328E-01-1.15406E-13-1.84158E-13
 -1      3092 2.00023E+01-4.86123E-02-1.85530E-04 1.21133E-01-1.11555E-13-1.50902E-13
 -1      3093 2.00054E+01-4.27757E-02 4.73779E-04 1.14131E-01-8.05141E-14-1.83960E-13
 -1      3094 2.00341E+01-5.80660E-02-3.37329E-04 1.23998E-01-1.10623E-13-2.44645E-13
 -1      3095 2.00014E+01-3.64465E-02-2.51546E-04 1.07760E-01-5.33655E-14-1.44897E-13
 -1      3096 2.00053E+01-2.89029E-02 4.91985E-04 1.02893E-01-4.66013E-14-1.43088E-13
 -1      3097 2.00260E+01-4.53125E-02-2.63976E-04 1.10723E-01-8.11677E-14-2.31945E-13
 -1      3098 2.00022E+01-2.10703E-02-3.03007E-04 9.90147E-02-4.99030E-14-1.63290E-13
 -1      3099 2.00068E+01-1.20670E-02 5.21910E-04 9.70215E-02-9.70405E-14-1.11008E-13
 -1      3100 2.00203E+01-2.84457E-02-2.05493E-04 1.01451E-01-6.61889E-14-2.37714E-13
 -1      3101 2.00043E+01-2.87973E-03-3.50535E-04 9.63007E-02-1.23687E-13-1.25026E-13
 -1      3102 2.00096E+01 7.53414E-03 5.69249E-04 9.78255E-02-7.56850E-14-1.55842E-13
 -1      3103 2.00162E+01-8.10396E-03-1.58491E-04 9.77253E-02-8.82167E-14-2.21755E-13
 -1      3104 2.00074E+01 1.80824E-02-4.01994E-04 1.00870E-01-6.90981E-14-1.94362E-13
 -1      3105 2.00135E+01 2.99803E-02 6.37661E-04 1.06530E-01-7.13681E-14-1.60811E-13
 -1      3106 2.00132E+01 1.55378E-02-1.19771E-04 1.00879E-01-7.68761E-14-2.15678E-13
 -1      3107 2.00114E+01 4.19763E-02-4.62295E-04 1.13951E-01-6.73642E-14-1.39920E-13
 -1      3108 2.00185E+01 5.54722E-02 7.28712E-04 1.24372E-01-3.66448E-14-1.37478E-13
 -1      3109 2.00108E+01 4.25908E-02-8.71531E-05 1.12184E-01-4.42154E-14-2.21761E-13
 -1      3110 2.00161E+01 6.89986E-02-5.33171E-04 1.36811E-01 1.77314E-14-7.76033E-14
 -1      3111 2.00245E+01 8.41526E-02 8.41912E-04 1.52632E-01 6.12540E-14-7.46126E-14
 -1      3112 2.00083E+01 7.32651E-02-5.90659E-05 1.32936E-01 2.77459E-14-1.72618E-13
 -1      3113 2.00218E+01 9.91879E-02-6.12598E-04 1.70764E-01 9.46835E-14-8.25721E-14
 -1      3114 2.00318E+01 1.15887E-01 9.74266E-04 1.92606E-01 1.12344E-13-7.68141E-14
 -1      3115 2.00055E+01 1.07652E-01-3.57543E-05 1.64489E-01 4.85971E-14-1.04640E-13
 -1      3116 2.00285E+01 1.32173E-01-6.93315E-04 2.17107E-01 1.14629E-13-5.02475E-14
 -1      3117 2.00408E+01 1.49970E-01 1.11972E-03 2.45495E-01 1.10184E-13-6.50291E-14
 -1      3118 2.00018E+01 1.45453E-01-2.07195E-05 2.08224E-01 1.02565E-13-1.35738E-13
 -1      3119 2.00369E+01 1.66840E-01-7.60685E-04 2.76975E-01 5.74600E-14-7.14920E-14
 -1      3120 2.00520E+01 1.84743E-01 1.26863E-03 3.12208E-01-5.40773E-14-5.48731E-14
 -1      3121 1.99974E+01 1.85629E-01-2.26781E-05 2.65454E-01 6.62273E-14-2.81739E-13
 -1      3122 2.00482E+01 2.00881E-01-7.89587E-04 3.51095E-01-6.39478E-14 2.46352E-14
 -1      3123 2.00670E+01 2.17074E-01 1.40742E-03 3.93044E-01-8.17991E-15 3.87955E-14
 -1      3124 1.99926E+01 2.25921E-01-5.88439E-05 3.37248E-01 2.18468E-14-5.26569E-14
 -1      3125 2.00643E+01 2.30224E-01-7.40157E-04 4.39412E-01-3.91516E-14 5.10501E-14
 -1      3126 2.00882E+01 2.41721E-01 1.51820E-03 4.87236E-01 1.80929E-14 1.42568E-14
 -1      3127 1.99887E+01 2.62252E-01-1.59704E-04 4.24156E-01-3.82112E-14 4.38017E-14
 -1      3128 2.00887E+01 2.48320E-01-5.52375E-04 5.40551E-01 4.54555E-14-5.77695E-15
 -1      3129 2.01199E+01 2.50561E-01 1.57799E-03 5.92315E-01 1.27102E-13 4.05377E-14
 -1      3130 1.99885E+01 2.87956E-01-3.75637E-04 5.25809E-01 1.51771E-14-9.73441E-15
 -1      3131 2.01274E+01 2.45354E-01-1.39837E-04 6.51090E-01 1.09269E-13 1.30481E-14
 -1      3132 2.01690E+01 2.31818E-01 1.55604E-03 7.03266E-01 2.40585E-14 4.03567E-14
 -1      3133 1.99973E+01 2.92915E-01-7.85153E-04 6.40374E-01 6.41828E-14-9.20719E-14
 -1      3134 2.01898E+01 2.07547E-01 6.16024E-04 7.64552E-01-4.77405E-14-7.26476E-15
 -1      3135 2.02467E+01 1.69543E-01 1.40597E-03 8.11393E-01-5.09267E-14-7.53373E-14
 -1      3136 2.00239E+01 2.62694E-01-1.50313E-03 7.63770E-01-7.59667E-14-1.42296E-13
 -1      3137 2.02904E+01 1.16944E-01 1.86795E-03 8.70024E-01-5.43827E-14-1.23287E-13
 -1      3138 2.03695E+01 4.38980E-02 1.03989E-03 9.02808E-01-6.38324E-14-1.83946E-13
 -1      3139 2.00829E+01 1.78033E-01-2.68496E-03 8.88532E-01-1.23664E-13-1.18551E-13
 -1      3140 2.04506E+01-4.75381E-02 3.78398E-03 9.50192E-01 6.04368E-15-1.14824E-13
 -1      3141 2.05608E+01-1.66593E-01 2.78629E-04 9.56345E-01 1.57730E-13-1.08712E-13
 -1      3142 2.01964E+01 1.53278E-02-4.52295E-03 1.00202E+00 3.73431E-14 2.47653E-14
 -1      3143 2.06987E+01-3.06198E-01 6.49338E-03 9.78508E-01 1.15927E-13-1.23100E-13
 -1      3144 2.08494E+01-4.78669E-01-1.16712E-03 9.40782E-01 1.19743E-13-1.31754E-13
 -1      3145 2.03962E+01-2.50425E-01-7.18218E-03 1.08340E+00 1.26846E-13 4.60113E-14
 -1      3146 2.10675E+01-6.68975E-01 9.98113E-03 9.15630E-01 1.56387E-13-1.85437E-13
 -1      3147 2.12652E+01-8.90505E-01-3.66273E-03 8.12169E-01 1.50129E-13-1.19125E-13
 -1      3148 2.07235E+01-6.37336E-01-1.05569E-02 1.09880E+00 1.43901E-13-2.40708E-13
 -1      3149 2.15845E+01-1.11682E+00 1.36551E-02 7.06938E-01 2.64731E-13-5.46748E-14
 -1      3150 2.18242E+01-1.35696E+00-7.49502E-03 5.14150E-01 3.05007E-13 3.60867E-14
 -1      3151 2.12236E+01-1.13865E+00-1.38708E-02 9.95193E-01 3.08584E-13-2.45318E-13
 -1      3152 2.22481E+01-1.57060E+00 1.54665E-02 2.86899E-01 2.40478E-13 1.28409E-13
 -1      3153 2.25014E+01-1.75289E+00-1.26175E-02-9.93495E-03 1.56398E-13 1.48761E-13
 -1      3154 2.19278E+01-1.68970E+00-1.54344E-02 6.96526E-01 2.98179E-13-1.94809E-13
 -1      3155 2.29892E+01-1.85125E+00 1.12400E-02-3.94753E-01 1.11357E-13 3.13571E-13
 -1      3156 2.31997E+01-1.83803E+00-1.53891E-02-7.75877E-01 2.47134E-14 3.46947E-13
 -1      3157 2.28155E+01-2.12264E+00-1.38651E-02 1.16801E-01 1.94830E-13 1.29453E-13
 -1      3158 2.36150E+01-1.64828E+00-3.00939E-03-1.28512E+00-8.82744E-14 4.41326E-13
 -1      3159 2.37177E+01-1.28440E+00-6.82573E-03-1.63689E+00-7.07956E-14 4.19756E-13
 -1      3160 2.37234E+01-2.11431E+00-1.73731E-02-8.01115E-01 2.91846E-14 1.21498E-13
 -1      3161 2.39287E+01-7.39313E-01-2.45971E-02-2.12229E+00-2.31691E-13 4.64204E-13
 -1      3162 2.38631E+01 6.11190E-02 7.23549E-03-2.30286E+00-3.13645E-13 1.90576E-13
 -1      3163 2.44485E+01-1.24685E+00-1.03189E-02-1.86147E+00-1.88679E-13 1.80197E-13
 -1      3164 2.37037E+01 9.63911E-01-5.22556E-02-2.36944E+00-2.52413E-13 2.11966E-13
 -1      3165 2.35404E+01 1.76458E+00-1.51715E-02-2.10616E+00-2.33286E-13 5.34624E-14
 -1      3166 2.46225E+01 5.91220E-01 2.02886E-02-2.50455E+00-2.62502E-13 3.01237E-13
 -1      3167 2.30723E+01 3.21305E+00-2.96952E-02-1.70854E-01-2.44582E-13-8.84137E-14
 -1      3168 2.31424E+01 2.83332E+00-4.86813E-02 4.36103E-01-2.11157E-13-2.58417E-13
 -1      3169 2.34241E+01 2.19071E+00 8.41165E-03 1.08026E+00-2.45998E-13-4.82367E-13
 -1      3170 2.35225E+01 1.31056E+00-6.44773E-02 1.36655E+00-2.42550E-13-5.16601E-13
 -1      3171 2.40995E+01 2.93658E+00-2.38534E-02 9.24062E-01-3.06703E-13-2.87237E-13
 -1      3172 2.37431E+01 4.53195E-01 4.53801E-03 1.42480E+00-1.76321E-13-4.71049E-13
 -1      3173 2.38053E+01-3.64241E-01-3.45209E-02 1.31630E+00-1.78003E-13-4.69200E-13
 -1      3174 2.44724E+01 1.03858E+00-1.68917E-03 1.55583E+00-2.02626E-13-3.55682E-13
 -1      3175 2.36875E+01-9.85607E-01-1.32393E-02 9.03925E-01-1.67412E-13-3.83323E-13
 -1      3176 2.35923E+01-1.36920E+00-5.74737E-03 5.65670E-01-1.11173E-13-4.31033E-13
 -1      3177 2.44967E+01-8.63807E-01 2.19978E-03 1.06809E+00-1.13407E-13-3.41723E-13
 -1      3178 2.31811E+01-1.56730E+00-2.61395E-02 6.04234E-02-6.04657E-14-3.46497E-13
 -1      3179 2.30183E+01-1.56321E+00 2.33839E-02-2.94889E-01-3.22134E-14-3.97132E-13
 -1      3180 2.39386E+01-1.74190E+00 7.32377E-03 9.20627E-02-6.22475E-14-3.14539E-13
 -1      3181 9.74162E+00-1.65133E-01 1.04969E-01-1.62015E+00 8.25139E-14-1.01584E-12
 -1      3182 1.09173E+01-7.66959E-01 1.21919E-01-3.22062E+00 3.10030E-14-1.11204E-12
 -1      3183 1.99921E+01-3.01012E-02 1.19275E-04-1.80887E-01 9.19043E-14-2.17777E-13
 -1      3184 1.99959E+01-1.56632E-02 9.11079E-04-1.79919E-01 6.16636E-14-2.33237E-13
 -1      3185 1.99795E+01-5.14954E-02 3.72928E-04-1.40955E-01 9.53462E-14-1.03871E-13
 -1      3186 1.99747E+01-5.30875E-02-8.50921E-05-1.50116E-01 1.49601E-13-1.64420E-13
 -1      3187 1.99821E+01-4.49112E-02 4.03294E-04-1.23527E-01 2.70232E-15 9.75883E-15
 -1      3188 1.99763E+01-4.89034E-02-2.14225E-04-1.32112E-01 5.13150E-14-6.01261E-14
 -1      3189 2.00138E+01-5.81441E-02-3.22287E-04-1.37438E-01 2.78317E-14-1.15664E-13
 -1      3190 1.99865E+01-3.46456E-02 4.33217E-04-1.08854E-01 3.97723E-14-5.95539E-14
 -1      3191 1.99801E+01-4.03909E-02-2.94071E-04-1.15784E-01 8.17707E-14-2.73952E-16
 -1      3192 2.00096E+01-4.95770E-02-2.44477E-04-1.21439E-01 5.49917E-14-3.99608E-14
 -1      3193 1.99924E+01-2.14752E-02 4.72403E-04-9.87181E-02 6.71238E-14-1.40580E-13
 -1      3194 1.99855E+01-2.86472E-02-3.45941E-04-1.03166E-01 4.70643E-14-7.95570E-14
 -1      3195 2.00079E+01-3.67322E-02-1.89923E-04-1.08449E-01 6.05810E-14-7.44325E-14
 -1      3196 1.99996E+01-5.66151E-03 5.28686E-04-9.45780E-02 2.04670E-14-1.19107E-13
 -1      3197 1.99921E+01-1.41858E-02-3.86312E-04-9.58464E-02 5.23065E-14-1.24686E-13
 -1      3198 2.00079E+01-2.04177E-02-1.52225E-04-1.00268E-01 6.85381E-14-1.00674E-13
 -1      3199 2.00081E+01 1.29519E-02 6.08530E-04-9.77837E-02-3.12949E-14-1.82581E-13
 -1      3200 1.99998E+01 2.94444E-03-4.28862E-04-9.51999E-02-1.66630E-14-1.68160E-13
 -1      3201 2.00094E+01-8.52379E-04-1.25045E-04-9.83954E-02 3.72263E-14-7.18308E-14
 -1      3202 2.00181E+01 3.48616E-02 7.16981E-04-1.09745E-01-7.08662E-14-1.84478E-13
 -1      3203 2.00086E+01 2.30732E-02-4.85032E-04-1.02584E-01-3.63947E-14-1.53027E-13
 -1      3204 2.00118E+01 2.22209E-02-1.02462E-04-1.04237E-01-6.13347E-14-1.82109E-13
 -1      3205 2.00296E+01 6.08422E-02 8.57792E-04-1.32054E-01 4.24280E-14-1.76711E-13
 -1      3206 2.00185E+01 4.68378E-02-5.65027E-04-1.19480E-01 6.25568E-15-1.22809E-13
 -1      3207 2.00149E+01 4.94448E-02-7.73092E-05-1.19263E-01-5.45214E-14-1.29619E-13
 -1      3208 2.00428E+01 9.18966E-02 1.03339E-03-1.66577E-01 7.83340E-14-1.93238E-13
 -1      3209 2.00297E+01 7.51291E-02-6.78894E-04-1.47599E-01 5.09127E-14-1.70640E-13
 -1      3210 2.00180E+01 8.17731E-02-4.04811E-05-1.45113E-01 6.08001E-14-1.06066E-13
 -1      3211 2.00576E+01 1.29199E-01 1.24414E-03-2.15505E-01 1.12114E-13-5.01579E-14
 -1      3212 2.00421E+01 1.09041E-01-8.37016E-04-1.88956E-01 9.84525E-14-9.18239E-14
 -1      3213 2.00205E+01 1.20406E-01 1.94936E-05-1.83670E-01 5.47982E-14-1.12115E-13
 -1      3214 2.00738E+01 1.74007E-01 1.48769E-03-2.81364E-01 1.54643E-13 9.60887E-14
 -1      3215 2.00554E+01 1.49801E-01-1.05028E-03-2.45897E-01 1.59200E-13 6.11250E-14
 -1      3216 2.00213E+01 1.66708E-01 1.17635E-04-2.37090E-01 3.88101E-14 6.11784E-14
 -1      3217 2.00904E+01 2.27496E-01 1.75834E-03-3.66974E-01-6.41366E-14 1.69889E-13
 -1      3218 2.00690E+01 1.98651E-01-1.32985E-03-3.21094E-01 6.91305E-14 1.55775E-13
 -1      3219 2.00189E+01 2.22086E-01 2.73084E-04-3.07790E-01 6.17333E-14 2.43706E-13
 -1      3220 2.01061E+01 2.90461E-01 2.04722E-03-4.75321E-01-3.70794E-14-2.40686E-14
 -1      3221 2.00816E+01 2.56628E-01-1.68569E-03-4.17470E-01-4.04300E-14 6.83571E-14
 -1      3222 2.00109E+01 2.87757E-01 5.08531E-04-3.98370E-01 1.30817E-14 1.74524E-13
 -1      3223 2.01186E+01 3.62741E-01 2.34470E-03-6.09341E-01-6.31504E-14-7.84529E-14
 -1      3224 2.00913E+01 3.24147E-01-2.12311E-03-5.38044E-01-1.64729E-14-7.49897E-14
 -1      3225 1.99943E+01 3.64342E-01 8.47324E-04-5.11492E-01 2.26863E-14-1.09692E-14
 -1      3226 2.01249E+01 4.42176E-01 2.64778E-03-7.71558E-01-5.81634E-14-1.68634E-13
 -1      3227 2.00953E+01 4.00226E-01-2.63572E-03-6.85682E-01-8.40922E-14-1.67606E-13
 -1      3228 1.99645E+01 4.51121E-01 1.30535E-03-6.49701E-01-4.22752E-14-1.54677E-13
 -1      3229 2.01217E+01 5.22760E-01 2.97765E-03-9.63582E-01-1.76813E-14-9.32166E-14
 -1      3230 2.00903E+01 4.81087E-01-3.19211E-03-8.62735E-01-1.20687E-14-1.04201E-13
 -1      3231 1.99165E+01 5.44703E-01 1.87310E-03-8.15232E-01-7.30715E-14-1.63401E-13
 -1      3232 2.01072E+01 5.91542E-01 3.41486E-03-1.18546E+00-5.94143E-17-1.28730E-13
 -1      3233 2.00734E+01 5.57754E-01-3.71072E-03-1.07056E+00 6.18048E-14-5.63059E-14
 -1      3234 1.98444E+01 6.36776E-01 2.48072E-03-1.00991E+00 1.03421E-15-9.13481E-14
 -1      3235 2.00848E+01 6.23727E-01 4.16271E-03-1.43492E+00-1.16157E-13-8.77254E-14
 -1      3236 2.00447E+01 6.12114E-01-4.01049E-03-1.30899E+00-6.71788E-14-9.16351E-14
 -1      3237 1.97442E+01 7.10417E-01 2.93716E-03-1.23534E+00-2.41513E-14-4.84902E-14
 -1      3238 2.00703E+01 5.75621E-01 5.62327E-03-1.70642E+00-1.23979E-13-8.42544E-14
 -1      3239 2.00126E+01 6.10984E-01-3.70160E-03-1.57571E+00-1.13562E-13-1.29948E-13
 -1      3240 1.96175E+01 7.34428E-01 2.84083E-03-1.49365E+00-7.08069E-14-1.10031E-13
 -1      3241 2.01063E+01 3.76520E-01 8.71593E-03-1.98919E+00-2.20838E-13 1.92736E-14
 -1      3242 2.00043E+01 4.98246E-01-1.95639E-03-1.86517E+00-1.06284E-13-2.70422E-15
 -1      3243 1.94801E+01 6.55307E-01 1.48711E-03-1.78889E+00-1.50448E-13-9.11656E-14
 -1      3244 2.02827E+01-8.24099E-02 1.29870E-02-2.26406E+00-3.13459E-13-1.51128E-13
 -1      3245 2.00832E+01 1.87098E-01 2.90308E-03-2.16738E+00-3.12568E-13-5.77726E-14
 -1      3246 1.93755E+01 3.89368E-01-2.21788E-03-2.12805E+00-2.17437E-13-9.02960E-14
 -1      3247 2.07742E+01-9.16933E-01 2.44271E-02-2.48220E+00-2.25171E-13-8.99853E-14
 -1      3248 2.03888E+01-4.42214E-01 1.57647E-02-2.44975E+00-3.19426E-13-2.03832E-13
 -1      3249 1.93984E+01-1.96477E-01-1.31040E-02-2.52452E+00-3.37572E-13-1.98233E-13
 -1      3250 2.18501E+01-2.22299E+00 3.77240E-02-2.46199E+00 4.88429E-14 8.58389E-14
 -1      3251 2.11517E+01-1.51722E+00 3.97324E-02-2.61255E+00-9.05044E-14 9.50585E-15
 -1      3252 1.97932E+01-1.31956E+00-5.40617E-02-2.95730E+00-2.97148E-13 4.27280E-14
 -1      3253 2.78215E+01 4.70776E+00-2.97249E-01 1.90702E+00 1.32117E-14-4.86278E-13
 -1      3254 2.81407E+01-3.17368E+00-4.79659E-02-3.57140E-01 8.89601E-14-1.97314E-13
 -1      3255 2.72985E+01-4.03333E+00 5.89355E-02 7.08460E-01 1.27150E-13-2.37955E-13
 -1      3256 2.13536E+01-1.17688E+00 2.05159E-02 3.67865E+00 3.75572E-13-4.28505E-13
 -1      3257 2.19592E+01-1.79463E+00 2.48394E-02 3.52648E+00 4.43631E-13-3.96355E-13
 -1      3258 2.04324E+01-9.54127E-01-8.30038E-03 4.01971E+00 5.14140E-13-4.72967E-13
 -1      3259 1.40356E+01 1.38942E+00 1.59656E-02 1.08042E+00-1.82479E-13 1.40277E-13
 -1      3260 1.47404E+01 1.17854E+00 5.88443E-02 2.34772E+00-1.25933E-13-3.72737E-13
 -1      3261 1.99330E+01-1.01575E+00 6.77969E-02-4.40468E+00 9.52242E-14 4.39697E-13
 -1      3262 1.85557E+01-5.99568E-01-2.71805E-02-4.35034E+00-7.53152E-14 4.55327E-13
 -1      3263 1.71296E+01 1.85051E-01 8.56141E-02-4.03506E+00-2.41836E-13 6.67104E-13
 -1      3264 1.56717E+01 6.07983E-01-4.03537E-02-3.29759E+00-3.17000E-13 6.80154E-13
 -1      3265 1.74878E+01-9.42980E-01 4.22323E-02-4.73437E+00-4.35728E-14 6.59160E-13
 -1      3266 1.87860E+01-3.54075E+00 1.34642E-01-6.16882E+00 3.49921E-13 6.55351E-13
 -1      3267 2.14944E+01-4.80384E+00-8.34455E-02-5.76704E+00 3.69066E-13 4.93751E-13
 -1      3268 2.25737E+01-1.68860E+00 1.77676E-02-2.25643E+00 1.69601E-13 4.11372E-13
 -1      3269 2.23697E+01-1.64514E+00 3.15285E-02-2.74871E+00 2.59216E-13 4.16211E-13
 -1      3270 2.47297E+01-4.54854E+00 1.12139E-01-1.95947E+00 2.08132E-14 4.86312E-14
 -1      3271 1.21966E+01-1.44407E-01 6.91230E-02 3.29847E+00-8.12787E-14-8.29892E-13
 -1      3272 1.12118E+01 5.34798E-01 1.05498E-01 1.18597E+00-1.70271E-13-2.74586E-13
 -1      3273 1.88540E+01-4.13161E+00-9.52194E-03 5.29572E+00 3.04839E-13-1.18100E-14
 -1      3274 1.57507E+01-2.96379E+00 1.93747E-01 5.65076E+00 3.84595E-13-2.46456E-13
 -1      3275 2.71660E+01 3.32367E+00-4.89818E-02 1.77914E+00-5.33462E-13-5.53717E-13
 -1      3276 2.65783E+01 4.46910E+00-1.59940E-01 1.14042E+00-5.45869E-13-4.65874E-13
 -1      3277 1.33927E+01-5.05677E-01 1.49207E-01-4.28204E+00-5.55216E-14 8.36296E-13
 -1      3278 1.57195E+01-1.87727E+00-1.24082E-02-5.62002E+00 1.15866E-13 9.23664E-13
 -1      3279 2.00083E+01 2.76196E-03-1.12232E-04-1.73822E-01 5.62333E-14-2.33854E-13
 -1      3280 2.00188E+01 2.81595E-02 1.58377E-03-1.62370E-01 7.21537E-14-2.26852E-13
 -1      3281 2.00722E+01-1.55155E-03-9.65642E-04-1.68392E-01 7.19228E-14-2.36016E-13
 -1      3282 2.18296E+01-1.79041E+00-6.13413E-03-3.57800E+00 2.94731E-13 6.22931E-13
 -1      3283 2.10137E+01-1.50806E+00-1.60481E-02-3.94142E+00 1.24976E-13 5.72956E-13
 -1      3284 2.27467E+01-2.40455E+00 4.57429E-02-3.18449E+00 1.73397E-13 4.87864E-13
 -1      3285 2.28178E+01-2.55479E+00 3.32066E-02 3.23850E+00 4.25337E-13-2.58254E-13
 -1      3286 2.38094E+01-3.47502E+00 7.14508E-02 3.11049E+00 1.71423E-13-2.56844E-13
 -1      3287 2.48794E+01-4.04853E+00 8.40541E-03 2.43489E+00 1.34143E-13-2.49399E-13
 -1      3288 2.17782E+01-2.97156E+00-4.51520E-02 4.33982E+00 3.57913E-13-3.97056E-13
 -1      3289 1.10703E+01 5.64703E-01 9.10650E-02-6.72564E-01-4.72144E-13 1.91791E-13
 -1      3290 1.16064E+01-5.40963E-03 4.67845E-02-2.90480E+00-3.02709E-13 6.50535E-13
 -1      3291 1.43842E+01 4.49353E-01 9.41225E-02-3.06264E+00-3.04805E-13 5.42625E-13
 -1      3292 1.30459E+01 1.06832E+00 1.18963E-01 2.32233E-01-2.44340E-13 1.85879E-13
 -1      3293 1.99795E+01-5.29576E-02 3.28808E-04-1.58770E-01 1.54337E-13-2.00202E-13
 -1      3294 1.99763E+01-5.10809E-02 1.21321E-04-1.67004E-01 1.17793E-13-1.83848E-13
 -1      3295 2.00211E+01-6.08702E-02-4.28482E-04-1.54092E-01 1.05974E-13-1.76570E-13
 -1      3296 2.74080E+01-3.94291E+00 4.71355E-02-1.43546E+00 3.89393E-13 1.98008E-13
 -1      3297 2.82313E+01-2.58387E+00-1.38694E-01 5.25225E-02 2.35173E-13-2.62290E-15
 -1      3298 1.99832E+01-4.69833E-02 2.52524E-04-1.73652E-01 9.32502E-14-2.24238E-13
 -1      3299 1.99827E+01-4.00143E-02 4.39937E-04-1.78818E-01 1.11738E-13-2.13881E-13
 -1      3300 2.00490E+01-3.73006E-02-7.48558E-04-1.75056E-01 8.10606E-14-2.53016E-13
 -1      3301 2.00325E+01-5.52047E-02-5.68851E-04-1.68156E-01 9.35366E-14-2.60475E-13
 -1      3302 1.21148E+01-2.23024E+00-2.82950E-02 5.29450E+00 3.29549E-13-3.79863E-13
 -1      3303 9.91015E+00-1.21325E+00 2.06187E-01 4.09672E+00 3.66651E-13-3.74145E-13
 -1      3304 1.03584E+01-5.12762E-01 1.43282E-01 2.97676E+00 3.35093E-13-4.25243E-13
 -1      3305 2.00343E+01 5.91136E-02-5.03993E-04-1.43162E-01 7.16515E-14-2.21935E-13
 -1      3306 2.00543E+01 1.00606E-01 2.49803E-03-1.15029E-01 1.01393E-13-2.43381E-13
 -1      3307 2.01032E+01 6.02577E-02-1.19309E-03-1.39382E-01 7.16303E-14-2.57698E-13
 -1      3308 2.23177E+01-1.31592E+00-1.07219E-02-1.11198E+00 8.00558E-14-1.34451E-13
 -1      3309 2.67652E+01-3.42112E+00-1.67627E-01-1.73563E-01-1.45786E-13-2.49790E-13
 -1      3310 2.60853E+01-4.33321E+00 5.27951E-02 1.34939E+00-1.40436E-13-1.19658E-13
 -1      3311 2.00724E+01 1.50451E-01-1.08436E-03-7.60729E-02 1.53792E-13-2.73067E-13
 -1      3312 2.01038E+01 2.15643E-01 3.21860E-03-2.22924E-02 1.97943E-13-2.75750E-13
 -1      3313 2.01426E+01 1.60099E-01-1.42724E-03-7.62465E-02 1.12771E-13-2.97221E-13
 -1      3314 1.95282E+01-4.07191E+00 1.59471E-01-4.61269E+00 1.19293E-13-3.28376E-13
 -1      3315 2.20621E+01-5.06592E+00-8.36919E-02-3.80786E+00 1.07102E-13-3.27224E-13
 -1      3316 2.65755E+01 4.44505E+00-1.94008E-01-1.97663E+00-3.06810E-13-5.14311E-14
 -1      3317 2.68129E+01 2.98628E+00-3.60619E-02-2.59953E+00-2.01603E-13 5.48173E-15
 -1      3318 2.02909E+01 9.88126E-01-7.24093E-04 6.90015E-01 3.54636E-13-2.78640E-13
 -1      3319 2.02671E+01 1.30719E+00 3.06650E-03 7.71091E-01 3.74075E-13-3.13329E-13
 -1      3320 2.02696E+01 1.12690E+00-7.99079E-05 5.92489E-01 3.46994E-13-3.47993E-13
 -1      3321 2.02318E+01 7.75109E-01-3.73474E-03 4.84501E-01 3.17497E-13-2.65247E-13
 -1      3322 2.71318E+01 5.18687E-01-1.84315E-01-2.44312E+00-9.58886E-14-2.87659E-13
 -1      3323 2.74141E+01-1.24209E+00 5.91898E-02-1.78830E+00 4.71567E-14-2.61832E-13
 -1      3324 1.46214E+01 1.32561E+00 7.38630E-02-1.99176E+00-3.71521E-13 4.65659E-13
 -1      3325 1.39298E+01 1.44281E+00 1.42806E-02-6.81326E-01-3.62048E-13 3.17177E-13
 -1      3326 2.00451E+01 2.16013E+00-4.27690E-03 2.92622E-01 1.68238E-13-5.81343E-13
 -1      3327 2.00316E+01 2.19922E+00-3.29470E-03 1.70919E-01 1.13884E-13-5.96221E-13
 -1      3328 2.41874E+01-4.82320E+00 1.12475E-01-4.37545E+00 4.78340E-13 3.62793E-13
 -1      3329 2.58419E+01-5.05224E+00-1.18205E-01-3.15027E+00 5.10397E-13 3.73722E-13
 -1      3330 2.44140E+01-4.97848E+00-7.43014E-02 2.81730E+00 8.07202E-14-2.24658E-13
 -1      3331 2.22116E+01-4.76630E+00 5.28360E-02 4.09508E+00 1.44530E-13-3.12916E-13
 -1      3332 2.10900E+01-4.76126E+00 1.25896E-02 5.70085E+00 1.67887E-13-1.06960E-12
 -1      3333 1.82821E+01-4.02170E+00 1.67374E-01 6.41289E+00 2.90545E-13-1.55966E-12
 -1      3334 2.35183E+01-3.96393E+00 5.11220E-02-2.26705E+00-5.77836E-14 1.76779E-13
 -1      3335 2.00245E+01 2.21798E+00-3.65536E-03 6.58937E-02 9.21817E-14-5.87534E-13
 -1      3336 2.00240E+01 2.21873E+00-3.70415E-03-5.81979E-02 4.12572E-14-5.83228E-13
 -1      3337 2.01387E+01 1.92203E+00 4.99878E-03 1.01501E-01 9.38876E-14-5.65403E-13
 -1      3338 2.02553E+01 1.46240E+00 7.64761E-03 5.88525E-01 3.26786E-13-3.82865E-13
 -1      3339 2.01584E+01 1.80043E+00-7.25559E-03 6.85478E-01 3.47449E-13-4.35407E-13
 -1      3340 2.01235E+01 1.92973E+00-2.77955E-03 5.91067E-01 2.85133E-13-4.66213E-13
 -1      3341 2.65901E+01-2.12658E+00 3.13220E-02-1.16394E+00-1.19304E-13-3.67546E-13
 -1      3342 2.01402E+01 2.16050E+00-9.42324E-03-1.22501E+00-3.47512E-13-5.10997E-13
 -1      3343 2.02162E+01 1.74716E+00-1.81252E-03-1.01664E+00-3.38252E-13-4.51444E-13
 -1      3344 2.37577E+01 3.21680E+00-3.73331E-02-1.44000E+00-2.07577E-13 1.25727E-13
 -1      3345 2.45682E+01 3.90847E+00-4.63747E-02-1.04673E+00-3.13929E-13 1.35586E-13
 -1      3346 2.39219E+01 2.56964E+00-4.78919E-02-2.03427E+00-2.54014E-13 1.60067E-13
 -1      3347 1.31014E+01-1.06321E+00 1.09668E-01-3.61391E+00-4.74829E-14-8.10338E-13
 -1      3348 9.77294E+00 1.35747E-01 1.37973E-01-7.42706E-01 1.52520E-13-7.60739E-13
 -1      3349 1.13540E+01 2.58090E-01 8.16393E-02-1.40363E+00 6.48661E-14-8.68521E-13
 -1      3350 9.94970E+00 2.18508E-01 4.29550E-02 3.75893E-01 1.72589E-13-5.08205E-13
 -1      3351 1.83520E+01-3.20191E+00 1.27130E-01-4.40186E+00 9.13436E-14-2.77691E-13
 -1      3352 2.07954E+01-2.05807E+00 2.88202E-02-4.45376E+00 1.27516E-13 5.17609E-13
 -1      3353 2.74319E+01-1.77755E+00-4.53814E-02 6.61983E-01 2.55672E-14-3.52378E-13
 -1      3354 2.00641E+01 2.10517E+00-3.26104E-03 3.91332E-01 2.12101E-13-5.51497E-13
 -1      3355 2.01617E+01 1.84925E+00 6.11369E-03 2.92366E-01 1.88642E-13-5.16734E-13
 -1      3356 2.00895E+01 2.02348E+00-6.03058E-03 5.03040E-01 2.74704E-13-4.89770E-13
 -1      3357 2.24131E+01-3.21480E+00 6.34014E-02-2.69209E+00 6.76811E-14 7.49314E-14
 -1      3358 2.05233E+01-3.04502E+00-5.63222E-02-3.52631E+00-5.53758E-14 3.97113E-14
 -1      3359 2.29840E+01-4.27541E+00 2.84202E-02-4.60735E+00 5.04270E-13 3.67955E-13
 -1      3360 2.67307E+01 1.78895E+00-4.97101E-02 1.69123E+00-3.12229E-13-5.02501E-13
 -1      3361 2.01184E+01 1.94182E+00-2.46364E-03-5.84751E-01-1.41686E-13-4.81265E-13
 -1      3362 2.01563E+01 1.82289E+00-3.66387E-03-6.80405E-01-1.97569E-13-4.77326E-13
 -1      3363 2.28534E+01-1.69430E+00-9.91700E-03-1.29976E+00 1.40867E-13-2.99797E-14
 -1      3364 2.32845E+01-2.26873E+00-4.66907E-02-1.47179E+00 4.77422E-14 1.58236E-13
 -1      3365 1.75959E+01-2.91821E+00 1.42305E-01 5.84768E+00 2.11858E-13-1.41831E-12
 -1      3366 2.01635E+01 4.58281E-01-2.67708E-03 2.02141E-01 2.67001E-13-2.90066E-13
 -1      3367 2.02201E+01 5.99520E-01 2.80119E-03 3.40613E-01 3.00013E-13-2.78306E-13
 -1      3368 2.02548E+01 7.57696E-01 1.60692E-03 4.03098E-01 3.13436E-13-3.14562E-13
 -1      3369 1.79538E+01-1.96414E+00 6.85616E-02-5.23895E+00 2.67640E-13 6.55337E-13
 -1      3370 1.35713E+01-5.77864E-01 1.34406E-01 4.24086E+00-4.71845E-15-1.11647E-12
 -1      3371 1.42477E+01 4.75608E-01 9.41039E-02 3.07071E+00-1.26687E-14-8.18387E-13
 -1      3372 1.55152E+01 6.19912E-01-3.45925E-02 3.34254E+00 1.68858E-14-9.33673E-13
 -1      3373 1.49279E+01-1.10504E+00-2.15734E-03 4.86176E+00 7.77156E-16-1.53714E-12
 -1      3374 1.47359E+01-2.12552E+00 9.20346E-02 4.92293E+00 3.65853E-13-2.14002E-13
 -1      3375 2.01118E+01 2.74434E-01-1.74175E-03 3.12276E-02 2.02886E-13-2.97824E-13
 -1      3376 2.01557E+01 3.70444E-01 3.35875E-03 1.20479E-01 2.23881E-13-2.83429E-13
 -1      3377 2.02107E+01 4.72512E-01-4.16446E-04 1.70322E-01 2.35779E-13-3.22032E-13
 -1      3378 2.01790E+01 2.95335E-01-1.66135E-03 2.45124E-02 1.87910E-13-3.36750E-13
 -1      3379 1.68469E+01 3.33473E-01 8.48761E-02 3.94943E+00 2.80278E-13-1.09154E-12
 -1      3380 2.07994E+01-4.25351E+00 4.91809E-02 4.47691E+00 2.64296E-13-3.09253E-13
 -1      3381 1.91363E+01-3.28765E+00 9.28667E-03 4.44143E+00 2.79433E-13-2.15633E-13
 -1      3382 2.21061E+01-3.98579E+00 4.18683E-02 3.27764E+00 2.46306E-13-3.70501E-13
 -1      3383 2.30399E+01-4.82631E+00 8.89949E-02 4.90915E+00 2.33036E-13-6.25070E-13
 -1      3384 2.12758E+01-3.84494E+00 2.34934E-02 5.12780E+00 3.40401E-13-6.34100E-13
 -1      3385 2.50038E+01-4.24296E+00 6.25077E-02 1.63140E+00-3.36970E-14-2.82031E-13
 -1      3386 2.63816E+01-3.95476E+00 2.78413E-02-1.71587E+00 4.33716E-13 2.98567E-13
 -1      3387 2.00630E+01 2.11144E+00-2.79170E-03-3.83370E-01-6.08247E-14-5.27762E-13
 -1      3388 2.00871E+01 2.03236E+00-5.44658E-03-4.97730E-01-1.11241E-13-5.21828E-13
 -1      3389 2.01997E+01 1.70192E+00 5.80731E-03-4.53167E-01-1.35934E-13-4.68051E-13
 -1      3390 2.56618E+01 4.67522E+00-6.55188E-02-1.50883E+00-3.51830E-13 1.83673E-14
 -1      3391 2.00596E+01 2.34655E+00-5.77480E-03-1.13381E+00-3.10780E-13-5.50776E-13
 -1      3392 2.51650E+01-4.55934E+00-4.71137E-02 2.80104E+00 1.68737E-13-4.87584E-13
 -1      3393 2.01996E+01 1.76122E+00 2.17068E-03-8.85539E-01-2.81413E-13-4.61079E-13
 -1      3394 2.60513E+01 1.51748E+00-3.97808E-02-2.49529E+00-1.67154E-13 1.53086E-13
 -1      3395 1.30572E+01-3.69105E-01 2.39515E-02-2.88548E+00-7.85136E-15-6.85674E-13
 -1      3396 1.48371E+01-1.49262E+00 9.33454E-03-4.06274E+00-1.35780E-13-5.06248E-13
 -1      3397 2.48571E+01 2.42375E+00-7.99546E-02-2.47546E+00-2.78791E-13 3.34437E-13
 -1      3398 2.03069E+01 9.26725E-01 1.47869E-03-3.59687E-01-1.83815E-13-3.78557E-13
 -1      3399 2.02948E+01 7.34358E-01-3.15235E-03-2.36126E-01-1.67527E-13-3.52802E-13
 -1      3400 2.03070E+01 5.72369E-01 2.40842E-03-1.52641E-01-1.47794E-13-3.19148E-13
 -1      3401 2.02845E+01 4.36748E-01-2.43076E-03-6.86546E-02-1.38882E-13-2.73405E-13
 -1      3402 2.03271E+01 7.40861E-01 9.38607E-04-1.97031E-01-1.36799E-13-3.65745E-13
 -1      3403 2.02809E+01 3.27030E-01 2.37757E-03-1.14153E-02-1.24802E-13-2.50185E-13
 -1      3404 2.02555E+01 2.34927E-01-1.64763E-03 4.20187E-02-9.28170E-14-2.43911E-13
 -1      3405 2.03232E+01 4.40413E-01-1.56202E-05-5.27302E-02-1.12240E-13-3.08883E-13
 -1      3406 2.02432E+01 1.62208E-01 1.91499E-03 7.74430E-02-1.05224E-13-2.32512E-13
 -1      3407 2.02199E+01 1.01537E-01-9.17361E-04 1.08185E-01-9.24911E-14-2.58452E-13
 -1      3408 2.02975E+01 2.34836E-01-3.21905E-04 4.34608E-02-1.01410E-13-2.34768E-13
 -1      3409 2.02034E+01 5.47218E-02 1.38036E-03 1.27042E-01-7.57339E-14-2.23272E-13
 -1      3410 2.01839E+01 1.65275E-02-3.92778E-04 1.41827E-01-6.45835E-14-2.22317E-13
 -1      3411 2.02619E+01 9.75795E-02-5.36922E-04 1.00950E-01-6.90406E-14-2.13512E-13
 -1      3412 2.01661E+01-1.20075E-02 9.25913E-04 1.49160E-01-8.05751E-14-1.93972E-13
 -1      3413 2.01505E+01-3.43203E-02-4.23871E-05 1.53368E-01-7.43876E-14-2.12196E-13
 -1      3414 2.02234E+01 1.01531E-02-6.18504E-04 1.30055E-01-6.68471E-14-1.69780E-13
 -1      3415 2.01334E+01-5.00296E-02 5.67786E-04 1.53252E-01-9.87986E-14-2.24425E-13
 -1      3416 2.01213E+01-6.12149E-02 1.79919E-04 1.50974E-01-9.04714E-14-1.99382E-13
 -1      3417 2.01862E+01-4.16924E-02-6.15506E-04 1.39780E-01-7.99533E-14-1.83253E-13
 -1      3418 2.01056E+01-6.79846E-02 2.98478E-04 1.46530E-01-7.32768E-14-1.92857E-13
 -1      3419 2.00965E+01-7.14303E-02 3.14109E-04 1.40781E-01-5.30991E-14-1.80188E-13
 -1      3420 2.01524E+01-6.84195E-02-5.67013E-04 1.37311E-01-7.28186E-14-1.73820E-13
 -1      3421 2.00826E+01-7.19977E-02 1.00392E-04 1.34323E-01-1.21245E-13-1.76157E-13
 -1      3422 2.00760E+01-7.00751E-02 3.89978E-04 1.27286E-01-1.56968E-13-1.94171E-13
 -1      3423 2.01228E+01-7.75629E-02-4.95614E-04 1.28116E-01-1.10188E-13-1.89198E-13
 -1      3424 2.00640E+01-6.63269E-02-4.52372E-05 1.20498E-01-1.69929E-13-1.87935E-13
 -1      3425 2.00594E+01-6.06373E-02 4.30346E-04 1.13741E-01-1.34578E-13-2.13002E-13
 -1      3426 2.00975E+01-7.44432E-02-4.15572E-04 1.16240E-01-1.43578E-13-1.63939E-13
 -1      3427 2.00490E+01-5.38069E-02-1.56560E-04 1.07836E-01-7.11001E-14-2.36759E-13
 -1      3428 2.00460E+01-4.53525E-02 4.52902E-04 1.02501E-01-5.39252E-14-2.11036E-13
 -1      3429 2.00761E+01-6.26742E-02-3.31660E-04 1.04627E-01-1.23875E-13-1.60201E-13
 -1      3430 2.00369E+01-3.61715E-02-2.49292E-04 9.83894E-02-7.58721E-14-2.08708E-13
 -1      3431 2.00350E+01-2.55068E-02 4.69821E-04 9.53507E-02-6.38925E-14-2.09983E-13
 -1      3432 2.00579E+01-4.45446E-02-2.47071E-04 9.54349E-02-6.14265E-14-2.13768E-13
 -1      3433 2.00267E+01-1.43437E-02-3.35218E-04 9.37603E-02-4.10284E-14-2.29043E-13
 -1      3434 2.00256E+01-1.70086E-03 4.89826E-04 9.37368E-02-3.44043E-14-2.01631E-13
 -1      3435 2.00421E+01-2.13438E-02-1.62437E-04 9.03368E-02-4.44598E-14-2.36763E-13
 -1      3436 2.00176E+01 1.13367E-02-4.24402E-04 9.53001E-02-5.64585E-14-2.14872E-13
 -1      3437 2.00171E+01 2.59522E-02 5.19479E-04 9.89392E-02-6.69987E-14-2.17250E-13
 -1      3438 2.00276E+01 6.36212E-03-7.55744E-05 9.07136E-02-7.92825E-14-2.75925E-13
 -1      3439 2.00087E+01 4.09251E-02-5.24467E-04 1.04271E-01-1.04257E-13-1.97075E-13
 -1      3440 2.00084E+01 5.76315E-02 5.62905E-04 1.12211E-01-4.63364E-14-2.20192E-13
 -1      3441 2.00133E+01 3.85097E-02 1.44469E-05 9.78193E-02-5.13291E-14-2.31020E-13
 -1      3442 1.99990E+01 7.46620E-02-6.39764E-04 1.21957E-01 3.10107E-14-2.11627E-13
 -1      3443 1.99988E+01 9.35880E-02 6.22889E-04 1.34856E-01 8.33970E-14-1.94339E-13
 -1      3444 1.99978E+01 7.53152E-02 1.08781E-04 1.12915E-01 6.84660E-15-2.15921E-13
 -1      3445 1.99877E+01 1.12746E-01-7.71718E-04 1.49717E-01 9.91791E-14-2.03687E-13
 -1      3446 1.99873E+01 1.33905E-01 7.01738E-04 1.68256E-01 6.82073E-14-1.70247E-13
 -1      3447 1.99800E+01 1.17026E-01 2.08122E-04 1.37337E-01 1.16154E-13-2.54280E-13
 -1      3448 1.99738E+01 1.55069E-01-9.17524E-04 1.88998E-01 5.90054E-14-1.81669E-13
 -1      3449 1.99732E+01 1.78192E-01 8.01509E-04 2.13857E-01 8.62594E-14-2.65988E-13
 -1      3450 1.99583E+01 1.63638E-01 3.09325E-04 1.72538E-01 2.91936E-14-2.59474E-13
 -1      3451 1.99566E+01 2.00861E-01-1.06855E-03 2.41295E-01 4.33640E-14-2.56502E-13
 -1      3452 1.99559E+01 2.25182E-01 9.24982E-04 2.73093E-01 6.86212E-14-2.73906E-13
 -1      3453 1.99316E+01 2.14545E-01 4.04338E-04 2.20089E-01 7.27497E-14-2.77146E-13
 -1      3454 1.99361E+01 2.48235E-01-1.20806E-03 3.08053E-01 9.92277E-14-1.94287E-13
 -1      3455 1.99356E+01 2.72210E-01 1.07754E-03 3.47249E-01 5.90888E-14-1.12803E-13
 -1      3456 1.98990E+01 2.68072E-01 4.76626E-04 2.81645E-01 7.12952E-14-2.31089E-13
 -1      3457 1.99127E+01 2.93592E-01-1.30762E-03 3.90508E-01-5.45099E-14-1.48115E-13
 -1      3458 1.99134E+01 3.14540E-01 1.26923E-03 4.37257E-01-4.10307E-14-1.58333E-13
 -1      3459 1.98603E+01 3.20879E-01 4.96685E-04 3.58868E-01 5.79756E-15-2.72311E-13
 -1      3460 1.98885E+01 3.30868E-01-1.32211E-03 4.89445E-01-1.87183E-14-9.14795E-14
 -1      3461 1.98923E+01 3.44534E-01 1.51689E-03 5.43400E-01 2.03305E-15-1.17137E-13
 -1      3462 1.98163E+01 3.67202E-01 4.15443E-04 4.53315E-01 1.25718E-15-2.47555E-13
 -1      3463 1.98679E+01 3.50644E-01-1.18214E-03 6.04867E-01-4.64180E-14-1.31926E-13
 -1      3464 1.98783E+01 3.50703E-01 1.84471E-03 6.64909E-01-2.40264E-14-3.03229E-13
 -1      3465 1.97703E+01 3.97933E-01 1.55035E-04 5.66280E-01-3.40733E-14-2.12240E-13
 -1      3466 1.98592E+01 3.39167E-01-7.82391E-04 7.35503E-01-4.69927E-14-3.43806E-13
 -1      3467 1.98818E+01 3.16756E-01 2.27910E-03 7.99347E-01-6.90620E-14-3.01132E-13
 -1      3468 1.97287E+01 3.99569E-01-4.03707E-04 6.98545E-01-2.87323E-14-3.09339E-13
 -1      3469 1.98762E+01 2.77517E-01 3.64041E-05 8.78030E-01-1.42948E-14-2.18533E-13
 -1      3470 1.99201E+01 2.20956E-01 2.83342E-03 9.41628E-01 3.56581E-14-5.92640E-14
 -1      3471 1.97033E+01 3.53156E-01-1.43619E-03 8.49933E-01 3.77363E-14-3.10482E-13
 -1      3472 1.99413E+01 1.41350E-01 1.51985E-03 1.02573E+00 8.04315E-15-5.26650E-14
 -1      3473 2.00195E+01 3.63568E-02 3.43385E-03 1.08229E+00 7.61954E-14-4.67686E-14
 -1      3474 1.97139E+01 2.33570E-01-3.18794E-03 1.01840E+00 8.86687E-14-3.61023E-14
 -1      3475 2.00883E+01-9.80262E-02 4.01797E-03 1.16589E+00 6.49565E-14-6.02641E-14
 -1      3476 2.02186E+01-2.66803E-01 3.77554E-03 1.20403E+00 8.37322E-14-1.05510E-13
 -1      3477 1.97916E+01 9.48861E-03-6.03413E-03 1.19806E+00 4.50793E-14-7.66626E-14
 -1      3478 2.03653E+01-4.69064E-01 8.00552E-03 1.27436E+00 8.09398E-14-1.23452E-13
 -1      3479 2.05683E+01-7.13090E-01 3.30801E-03 1.27514E+00 1.73902E-13-1.75149E-13
 -1      3480 1.99836E+01-3.54054E-01-1.03981E-02 1.37436E+00 7.34496E-14-1.17397E-13
 -1      3481 2.08340E+01-9.87324E-01 1.41728E-02 1.30652E+00 2.30419E-13-1.77441E-13
 -1      3482 2.11276E+01-1.30301E+00 1.30478E-03 1.23977E+00 3.10417E-13-2.48889E-13
 -1      3483 2.03570E+01-8.86137E-01-1.61891E-02 1.51441E+00 1.65860E-13-1.61174E-13
 -1      3484 2.15585E+01-1.63005E+00 2.20993E-02 1.18484E+00 4.20065E-13-3.22835E-13
 -1      3485 2.19448E+01-1.97642E+00-3.89683E-03 1.00699E+00 3.51820E-13-2.09367E-13
 -1      3486 2.09972E+01-1.58420E+00-2.11429E-02 1.55089E+00 3.31635E-13-2.96035E-13
 -1      3487 2.25692E+01-2.27608E+00 2.98659E-02 7.89995E-01 3.00124E-13-1.37642E-13
 -1      3488 2.30205E+01-2.53579E+00-9.71399E-03 4.58077E-01 1.85833E-13-4.69852E-14
 -1      3489 2.19839E+01-2.37269E+00-2.42879E-02 1.36526E+00 4.06760E-13-3.27662E-13
 -1      3490 2.38166E+01-2.65766E+00 2.93032E-02 5.02068E-03 2.05218E-14-5.40288E-14
 -1      3491 2.43190E+01-2.54738E+00 1.34194E-02-5.35216E-01-6.89535E-14-1.52370E-13
 -1      3492 2.33104E+01-3.01499E+00-3.62169E-02 7.88803E-01 8.81881E-14-3.65512E-13
 -1      3493 2.53256E+01-1.04039E+00-3.58705E-02 1.03682E+00-2.62412E-14-4.00105E-13
 -1      3494 2.51873E+01-1.80941E+00-2.21266E-02 6.07411E-01-3.31436E-14-3.26633E-13
 -1      3495 2.46039E+01-2.23938E+00-1.97746E-02-1.32115E-01-2.05224E-14-1.66075E-13
 -1      3496 2.43306E+01-2.32184E+00 5.51078E-02-5.84647E-01 2.21524E-15-8.85403E-14
 -1      3497 2.54745E+01-2.50824E+00-8.52407E-03-1.31312E-01 2.75613E-14-1.70895E-13
 -1      3498 2.00466E+01-6.29181E-02 4.11098E-04-1.27974E-01 1.64306E-14-1.10530E-13
 -1      3499 2.00494E+01-6.61067E-02 1.70504E-06-1.35727E-01 3.30115E-14-1.07948E-13
 -1      3500 2.00233E+01-1.70858E-02 4.96849E-04-9.68762E-02 3.65006E-14-8.50328E-14
 -1      3501 2.00222E+01-2.75924E-02-3.08133E-04-9.92143E-02 5.26085E-14-6.88623E-14
 -1      3502 2.00192E+01 6.31869E-03 5.31564E-04-9.72044E-02 3.48328E-15-2.17828E-14
 -1      3503 2.00174E+01-6.17041E-03-3.89050E-04-9.61105E-02 5.38991E-14-2.20292E-14
 -1      3504 2.00309E+01-1.22529E-02-1.37701E-04-9.45665E-02-1.00299E-15-2.85278E-14
 -1      3505 2.00157E+01 3.39388E-02 5.79877E-04-1.05248E-01-4.55049E-14-1.39708E-13
 -1      3506 2.00134E+01 1.92220E-02-4.80860E-04-1.00009E-01-5.24985E-15-1.23987E-13
 -1      3507 2.00211E+01 1.54957E-02-5.77374E-05-9.69925E-02 6.57022E-14-5.74150E-14
 -1      3508 2.00119E+01 6.65435E-02 6.43332E-04-1.22437E-01-3.56273E-14-2.11019E-13
 -1      3509 2.00093E+01 4.91595E-02-5.94145E-04-1.12293E-01-4.68938E-14-1.87102E-13
 -1      3510 2.00111E+01 4.82732E-02 3.33435E-05-1.07088E-01-6.30358E-15-1.93773E-13
 -1      3511 2.00067E+01 1.05221E-01 7.21491E-04-1.50350E-01 4.38922E-14-1.63682E-13
 -1      3512 2.00040E+01 8.45768E-02-7.39311E-04-1.34448E-01 1.56369E-14-1.65845E-13
 -1      3513 1.99994E+01 8.69973E-02 1.44860E-04-1.26227E-01-4.94846E-14-1.85883E-13
 -1      3514 1.99987E+01 1.51297E-01 8.11058E-04-1.90754E-01-2.48884E-14-5.53808E-14
 -1      3515 1.99964E+01 1.26690E-01-9.26795E-04-1.68130E-01 2.95049E-14-1.17649E-13
 -1      3516 1.99843E+01 1.32915E-01 2.88975E-04-1.55890E-01-2.85473E-15-7.65686E-14
 -1      3517 1.99859E+01 2.06228E-01 9.05493E-04-2.45616E-01-5.48691E-15 2.61652E-14
 -1      3518 1.99845E+01 1.76905E-01-1.16703E-03-2.15195E-01-1.63527E-14-5.68257E-14
 -1      3519 1.99635E+01 1.87497E-01 4.81476E-04-1.97682E-01-2.88169E-14-4.87114E-14
 -1      3520 1.99655E+01 2.71432E-01 9.94865E-04-3.17050E-01-1.27457E-15 1.71076E-13
 -1      3521 1.99661E+01 2.36684E-01-1.47109E-03-2.77675E-01-1.19918E-14 1.13469E-13
 -1      3522 1.99342E+01 2.52298E-01 7.42832E-04-2.53313E-01-8.45652E-14-1.61842E-14
 -1      3523 1.99339E+01 3.48025E-01 1.06741E-03-4.07222E-01 4.32327E-14 1.85645E-15
 -1      3524 1.99379E+01 3.07337E-01-1.85084E-03-3.57714E-01 4.49909E-14 1.06025E-13
 -1      3525 1.98924E+01 3.28745E-01 1.09786E-03-3.24519E-01 1.71839E-14-3.66672E-14
 -1      3526 1.98864E+01 4.36347E-01 1.11366E-03-5.18209E-01 4.82990E-14-7.71102E-14
 -1      3527 1.98957E+01 3.89667E-01-2.31873E-03-4.57453E-01 7.08968E-14-1.52175E-15
 -1      3528 1.98333E+01 4.17801E-01 1.57540E-03-4.12953E-01 5.37146E-14-4.28082E-14
 -1      3529 1.98166E+01 5.35161E-01 1.13647E-03-6.51869E-01-4.64795E-14-1.52621E-13
 -1      3530 1.98336E+01 4.83353E-01-2.88785E-03-5.78910E-01 4.14351E-14-9.72717E-14
 -1      3531 1.97502E+01 5.19409E-01 2.20567E-03-5.20079E-01 6.37315E-14-1.13208E-13
 -1      3532 1.97172E+01 6.40285E-01 1.17213E-03-8.09795E-01-7.66240E-14-9.21167E-14
 -1      3533 1.97449E+01 5.85886E-01-3.57242E-03-7.23912E-01-1.20484E-13-1.20943E-13
 -1      3534 1.96351E+01 6.31572E-01 3.01366E-03-6.47151E-01-4.81924E-14-1.04558E-13
 -1      3535 1.95805E+01 7.42349E-01 1.33086E-03-9.93574E-01-9.14652E-14-1.54622E-14
 -1      3536 1.96212E+01 6.90808E-01-4.38856E-03-8.94229E-01-6.33631E-14-1.09724E-13
 -1      3537 1.94783E+01 7.48862E-01 4.00627E-03-7.95472E-01-8.94996E-14-7.09038E-14
 -1      3538 1.94002E+01 8.23252E-01 1.86795E-03-1.20572E+00 6.01074E-14-2.09925E-13
 -1      3539 1.94545E+01 7.84855E-01-5.35196E-03-1.09222E+00 1.03156E-15-1.15103E-13
 -1      3540 1.92688E+01 8.60070E-01 5.14929E-03-9.67269E-01 2.88805E-14-1.93701E-13
 -1      3541 1.91758E+01 8.50842E-01 3.32313E-03-1.45177E+00-7.76235E-16-2.75958E-13
 -1      3542 1.92390E+01 8.43562E-01-6.45760E-03-1.32246E+00 8.15413E-14-2.29189E-13
 -1      3543 1.89955E+01 9.44626E-01 6.32894E-03-1.16778E+00 6.59892E-14-3.64371E-13
 -1      3544 1.89214E+01 7.71435E-01 6.76877E-03-1.74396E+00-2.10217E-13-3.11769E-13
 -1      3545 1.89773E+01 8.24866E-01-7.56482E-03-1.59496E+00-1.40869E-13-2.90117E-13
 -1      3546 1.86507E+01 9.67359E-01 7.30722E-03-1.40939E+00-4.25231E-14-4.11877E-13
 -1      3547 1.86725E+01 4.97481E-01 1.08695E-02-2.10594E+00-2.70885E-13-2.08309E-13
 -1      3548 1.86916E+01 6.58764E-01-8.35869E-03-1.92981E+00-2.56928E-13-2.02931E-13
 -1      3549 1.82358E+01 8.70636E-01 7.72376E-03-1.71931E+00-2.72667E-13-3.70293E-13
 -1      3550 1.85925E+01-1.03852E-01 1.47647E-02-2.55118E+00-4.16367E-13-5.66381E-14
 -1      3551 1.84423E+01 2.47203E-01-5.73566E-03-2.35257E+00-2.87296E-13-1.24608E-13
 -1      3552 1.78070E+01 5.65517E-01 1.65977E-02-2.15343E+00-2.82850E-13-2.62233E-13
 -1      3553 1.78210E+01-1.28444E+00 7.49685E-02-3.42860E+00-2.27787E-13-1.88368E-13
 -1      3554 1.74828E+01-6.22972E-01 3.13795E-02-3.12355E+00-3.60937E-13-1.75506E-13
 -1      3555 2.20212E+01-3.50822E+00 7.83610E-02-4.77243E+00 2.76586E-13 3.64242E-13
 -1      3556 2.37151E+01-4.11498E+00-8.76186E-02-3.75784E+00 3.17444E-13 3.81853E-13
 -1      3557 2.01281E+01-7.51814E-03-2.02381E-04-1.58939E-01 8.11661E-14-2.39105E-13
 -1      3558 2.01440E+01 2.12016E-02 1.27059E-03-1.49190E-01 6.50794E-14-2.28442E-13
 -1      3559 2.38996E+01-2.78907E+00-5.02664E-02-1.76659E+00 7.09294E-14 4.86723E-13
 -1      3560 2.67110E+01-2.47695E+00 3.37241E-03 1.61906E-01 2.16143E-13-2.08521E-13
 -1      3561 2.66563E+01-1.14952E+00-4.60678E-02 1.07165E+00-2.10679E-13-5.65450E-13
 -1      3562 1.98727E+01-8.90008E-01 4.80782E-02 4.33066E+00 4.88974E-13-6.05702E-13
 -1      3563 2.02968E+01-1.72119E+00 1.69453E-02 4.46718E+00 5.05786E-13-6.86503E-13
 -1      3564 2.11507E+01-2.86121E+00 2.61073E-02 4.61432E+00 4.19741E-13-6.84156E-13
 -1      3565 1.86685E+01-6.25161E-01-2.99924E-02 4.34594E+00 4.65217E-13-7.65988E-13
 -1      3566 2.00306E+01 2.20200E+00-3.15898E-03-1.62756E-01 1.21606E-14-5.95309E-13
 -1      3567 2.00426E+01 2.16426E+00-4.48303E-03-2.84478E-01-2.70566E-14-5.58415E-13
 -1      3568 2.01594E+01 1.85253E+00 5.63592E-03-2.84788E-01-4.06796E-14-5.25433E-13
 -1      3569 1.75957E+01-1.81124E+00 1.05320E-01 5.28636E+00 2.85612E-13-1.15102E-12
 -1      3570 1.75058E+01-8.86916E-01 5.89252E-02 4.61516E+00 3.19939E-13-1.00222E-12
 -1      3571 1.61922E+01-2.07087E+00-9.48851E-03 4.52431E+00 3.98574E-13-8.88664E-14
 -1      3572 1.37913E+01-9.39830E-01 1.45832E-01 4.14814E+00 3.26829E-13-2.49890E-13
 -1      3573 2.54679E+01 4.08859E+00-8.22278E-02 9.11720E-01-4.81927E-13-3.59705E-13
 -1      3574 2.62309E+01 5.03689E+00-1.14164E-01 6.21657E-01-5.35544E-13-3.81341E-13
 -1      3575 2.00603E+01-6.72307E-02 3.53141E-04-1.43146E-01 6.56347E-14-1.32008E-13
 -1      3576 2.00652E+01-6.61857E-02 1.82757E-04-1.50322E-01 9.37127E-14-1.69991E-13
 -1      3577 2.00889E+01-7.34487E-02-4.59265E-04-1.33023E-01 5.10257E-14-1.64751E-13
 -1      3578 1.15598E+01-5.18108E-01-1.75425E-02 3.32712E+00 2.67069E-13-4.16653E-13
 -1      3579 1.05483E+01 1.60843E-01 1.35507E-01 1.92197E+00 2.16917E-13-4.14960E-13
 -1      3580 2.55232E+01 4.90323E+00-1.22391E-01-5.80458E-02-5.55500E-13-3.29352E-13
 -1      3581 2.49375E+01-3.55083E+00-6.31706E-02 3.41382E-01-8.27532E-14-3.43947E-13
 -1      3582 2.39335E+01-3.81493E+00 9.93925E-03 1.49717E+00 1.49568E-14-3.12837E-13
 -1      3583 2.00288E+01-3.66405E-02 4.70903E-04-1.02896E-01 5.79950E-14-1.04528E-13
 -1      3584 2.00287E+01-4.51584E-02-2.25793E-04-1.07943E-01 6.78316E-14-4.99225E-14
 -1      3585 2.00416E+01-3.54648E-02-2.13880E-04-9.84805E-02 5.90284E-14-5.75292E-14
 -1      3586 2.00363E+01-5.21867E-02 4.45581E-04-1.13829E-01-1.17116E-14-7.65086E-14
 -1      3587 2.00375E+01-5.83930E-02-1.27676E-04-1.20754E-01-1.32701E-14-9.98284E-14
 -1      3588 2.00698E+01-6.72747E-02-3.71588E-04-1.19554E-01 1.69488E-14-1.55470E-13
 -1      3589 2.00543E+01-5.40632E-02-2.89643E-04-1.07350E-01-1.07941E-15-1.55512E-13
 -1      3590 2.01609E+01 5.67330E-02-6.38710E-04-1.34756E-01 3.98297E-14-2.45235E-13
 -1      3591 2.01821E+01 1.03701E-01 1.86772E-03-1.10835E-01 5.52231E-14-2.65995E-13
 -1      3592 2.02090E+01 5.31170E-02-7.60105E-04-1.26475E-01 4.09379E-14-2.81447E-13
 -1      3593 2.01976E+01 1.60343E-01-1.25319E-03-8.07542E-02 7.85889E-14-2.86691E-13
 -1      3594 2.02243E+01 2.32841E-01 2.45823E-03-3.59452E-02 1.03167E-13-2.93908E-13
 -1      3595 2.02470E+01 1.61434E-01-6.89481E-04-7.84403E-02 6.43767E-14-2.75490E-13
 -1      3596 1.98236E+01-2.66491E+00 8.09730E-03-5.31476E+00 3.47663E-13 3.79734E-13
 -1      3597 2.54278E+01 7.60699E-01-2.58815E-02-2.47835E+00-1.53579E-13 2.01698E-13
 -1      3598 1.79879E+01-2.04921E+00 8.31940E-02-3.92717E+00-6.04343E-14-1.31666E-13
 -1      3599 2.02868E+01 8.84814E-01 5.74255E-04 4.46844E-01 3.13563E-13-3.47054E-13
 -1      3600 2.02783E+01 1.05614E+00-2.06436E-03 4.84170E-01 3.22143E-13-3.65008E-13
 -1      3601 2.02597E+01 6.99256E-01-1.54343E-03 3.01449E-01 2.90407E-13-3.44193E-13
 -1      3602 2.54102E+01-6.45598E-01-1.11999E-01-2.34485E+00-1.68177E-13 7.56496E-14
 -1      3603 2.01322E+01 2.06799E+00 3.23004E-03-9.30590E-01-2.55564E-13-5.17551E-13
 -1      3604 2.01801E+01 1.75098E+00-4.30549E-03-7.97102E-01-2.29426E-13-4.61031E-13
 -1      3605 2.02369E+01 1.54032E+00 4.03767E-03-6.42889E-01-2.04399E-13-4.43284E-13
 -1      3606 2.02590E+01 1.24888E+00-2.83645E-03-4.86150E-01-1.93285E-13-4.05357E-13
 -1      3607 2.02745E+01 1.24251E+00-1.47442E-05-4.07789E-01-1.69369E-13-4.06675E-13
 -1      3608 2.02668E+01 1.18836E+00-2.12046E-03 4.49222E-01 2.98570E-13-3.73160E-13
 -1      3609 2.51544E+01-2.77596E+00-2.14321E-02-6.57344E-01-1.02543E-13-2.69361E-13
 -1      3610 2.58634E+01-1.90681E-01-6.07063E-02 1.54075E+00-1.06290E-13-3.07438E-13
 -1      3611 2.55946E+01-2.06503E+00-9.49534E-03-1.22469E+00-1.46928E-13-2.11033E-13
 -1      3612 1.14487E+01 4.49248E-01 9.43222E-02 8.96784E-01 2.34854E-13-4.60458E-13
 -1      3613 2.57775E+01 1.18965E+00-3.42238E-02 1.61819E+00-3.22298E-13-3.72981E-13
 -1      3614 2.49585E+01 2.68182E+00-1.27977E-01 1.48865E+00-4.19900E-13-2.84072E-13
 -1      3615 2.02099E+01 1.69601E+00 8.43314E-03 4.63066E-01 2.64793E-13-4.57558E-13
 -1      3616 1.64089E+01-1.26399E-01 2.25090E-02-2.89771E+00-3.20251E-13-3.15408E-13
 -1      3617 2.41688E+01-3.29418E+00 1.82236E-02-2.46310E+00 1.11421E-13 3.27020E-13
 -1      3618 2.52596E+01-3.58728E+00 8.57957E-02-1.90852E+00 3.00456E-13 2.50289E-13
 -1      3619 2.02816E+01 3.27554E-01-6.20252E-04 7.54198E-03 1.13291E-13-2.53330E-13
 -1      3620 2.02362E+01 3.21833E-01-1.42741E-03 1.69623E-02 1.48349E-13-3.27392E-13
 -1      3621 2.59773E+01-3.20139E+00-6.71419E-02-6.92575E-01 3.52849E-13 1.34885E-13
 -1      3622 1.79661E+01-2.38465E+00 7.20049E-02 4.36083E+00 3.13713E-13-1.14140E-13
 -1      3623 1.66636E+01-1.46661E+00-1.13168E-02 3.84811E+00 2.68961E-13-1.64676E-13
 -1      3624 1.93940E+01-2.64136E+00 1.79402E-02 3.71700E+00 2.76533E-13-3.77056E-13
 -1      3625 1.36282E+01-3.90595E-01 6.45197E-02 3.24722E+00 2.39891E-13-2.54081E-13
 -1      3626 2.32907E+01-3.22877E+00 2.81195E-02 1.32214E+00 1.20556E-13-4.70109E-13
 -1      3627 2.27302E+01-3.96058E+00-2.61814E-02 2.60052E+00 1.88335E-13-4.35676E-13
 -1      3628 2.13949E+01-3.31168E+00 7.39867E-03 2.99688E+00 3.91323E-13-4.81495E-13
 -1      3629 2.25095E+01-2.92767E+00 4.60478E-02 1.71506E+00 2.30184E-13-5.13399E-13
 -1      3630 2.02028E+01 1.63875E+00-3.43219E-03 1.30917E-01 1.13565E-13-5.36762E-13
 -1      3631 2.01988E+01 1.65854E+00-2.74552E-03 3.99177E-02 7.06122E-14-5.41497E-13
 -1      3632 2.02539E+01 4.09001E-01 2.54978E-03 7.79332E-02 1.80637E-13-3.31081E-13
 -1      3633 2.01123E+01-6.97901E-02-5.49418E-04-1.45014E-01 5.34986E-14-2.37226E-13
 -1      3634 2.00780E+01-6.24469E-02 2.50516E-04-1.56392E-01 7.64550E-14-2.35380E-13
 -1      3635 2.00858E+01-5.52826E-02 4.40358E-04-1.61029E-01 5.06237E-14-2.48554E-13
 -1      3636 2.48216E+01 3.77315E+00-4.41460E-02 8.42339E-01-3.15199E-13-3.05474E-13
 -1      3637 2.02123E+01 1.60521E+00-2.02072E-03 2.00856E-01 1.43720E-13-5.03199E-13
 -1      3638 2.02861E+01 1.38547E+00 5.10775E-03 1.33698E-01 1.19218E-13-4.73266E-13
 -1      3639 2.02235E+01 1.54223E+00-5.37576E-03 2.87243E-01 2.04337E-13-4.73455E-13
 -1      3640 2.15725E+01-3.01656E+00 5.52781E-02-4.65289E+00 2.13084E-13 4.06972E-13
 -1      3641 2.37227E+01-3.00385E+00-6.02770E-03-2.55039E+00 8.63493E-14 3.59320E-13
 -1      3642 2.01119E+01-2.84748E-02 8.00003E-04-1.62921E-01 1.10611E-13-2.45241E-13
 -1      3643 2.01728E+01-1.38827E-02-7.08657E-04-1.47904E-01 9.47096E-14-2.26141E-13
 -1      3644 2.01005E+01-4.44958E-02 7.52248E-05-1.63574E-01 7.37079E-14-2.58235E-13
 -1      3645 2.01375E+01 1.92421E+00 5.04044E-03-9.53677E-02 2.81310E-14-5.49243E-13
 -1      3646 1.96616E+01-2.78865E+00 9.69318E-03 5.33816E+00 4.31183E-13-8.48401E-13
 -1      3647 2.43320E+01 4.05833E+00-1.04020E-01 3.04103E-01-3.05658E-13-2.09204E-13
 -1      3648 2.02666E+01 1.32298E+00-3.85324E-03-3.66535E-01-1.48366E-13-4.12323E-13
 -1      3649 2.03222E+01 1.01209E+00 2.16806E-03-2.55813E-01-1.46010E-13-3.87221E-13
 -1      3650 2.02519E+01 1.41984E+00-8.06877E-04-3.01337E-01-9.73007E-14-4.29219E-13
 -1      3651 1.27389E+01 2.79263E-01 9.86084E-02-2.10544E+00 1.24492E-14-8.07118E-13
 -1      3652 1.41823E+01 8.20769E-04 2.90612E-02-2.57011E+00-2.55191E-14-6.86493E-13
 -1      3653 1.23132E+01 4.95996E-01 1.02160E-02-1.25084E+00 8.17710E-14-8.05557E-13
 -1      3654 2.03188E+01 9.39980E-01 5.95711E-03 3.24079E-01 2.58226E-13-3.49470E-13
 -1      3655 2.02650E+01 1.28457E+00-5.32351E-03 4.07324E-01 2.64854E-13-4.14496E-13
 -1      3656 2.03570E+01 5.48563E-01 6.61988E-04-8.56567E-02-9.41285E-14-3.38666E-13
 -1      3657 2.03467E+01 4.16952E-01-1.79803E-03-2.51717E-02-8.90523E-14-3.17970E-13
 -1      3658 2.03457E+01 3.07328E-01 1.42950E-03 1.24700E-02-8.00415E-14-2.61645E-13
 -1      3659 2.03266E+01 2.16047E-01-1.36492E-03 5.11366E-02-7.22229E-14-2.37522E-13
 -1      3660 2.03748E+01 4.03984E-01 3.25310E-04-1.37623E-02-5.30456E-14-3.13224E-13
 -1      3661 2.03150E+01 1.43083E-01 1.25435E-03 7.38378E-02-4.82695E-14-1.88396E-13
 -1      3662 2.02935E+01 8.27506E-02-7.54488E-04 9.59336E-02-2.30653E-14-1.83057E-13
 -1      3663 2.03546E+01 2.05827E-01 5.95162E-05 4.82704E-02-4.01029E-14-2.27383E-13
 -1      3664 2.02759E+01 3.59121E-02 9.57621E-04 1.07361E-01-5.15513E-14-1.64831E-13
 -1      3665 2.02550E+01-1.70447E-03-3.02665E-04 1.17693E-01-7.29788E-14-1.49535E-13
 -1      3666 2.03199E+01 7.31731E-02-2.65201E-04 8.45937E-02-2.64332E-14-1.86388E-13
 -1      3667 2.02350E+01-2.97218E-02 6.82962E-04 1.21325E-01-7.78576E-14-1.47594E-13
 -1      3668 2.02159E+01-5.10211E-02 4.63869E-06 1.23842E-01-5.60900E-14-1.37120E-13
 -1      3669 2.02790E+01-1.04404E-02-4.43277E-04 1.02002E-01-5.91132E-14-1.37668E-13
 -1      3670 2.01957E+01-6.56434E-02 4.49887E-04 1.22531E-01-4.81939E-14-1.53132E-13
 -1      3671 2.01791E+01-7.53776E-02 2.00524E-04 1.20323E-01-4.42367E-14-1.28709E-13
 -1      3672 2.02369E+01-5.85394E-02-5.22694E-04 1.06580E-01-7.77161E-14-7.94857E-14
 -1      3673 2.01600E+01-8.05638E-02 2.62243E-04 1.16277E-01-9.22179E-14-1.68478E-13
 -1      3674 2.01459E+01-8.21683E-02 3.17611E-04 1.11667E-01-1.29968E-13-1.88689E-13
 -1      3675 2.01969E+01-8.12738E-02-5.30359E-04 1.03271E-01-8.12928E-14-1.65776E-13
 -1      3676 2.01284E+01-8.07361E-02 1.12398E-04 1.06554E-01-1.43172E-13-1.83927E-13
 -1      3677 2.01166E+01-7.66362E-02 3.79596E-04 1.01261E-01-1.34108E-13-1.58618E-13
 -1      3678 2.01603E+01-8.60501E-02-4.81321E-04 9.58905E-02-1.27666E-13-1.72011E-13
 -1      3679 2.01009E+01-7.05372E-02-1.07571E-05 9.62935E-02-1.66043E-13-1.81378E-13
 -1      3680 2.00912E+01-6.23430E-02 4.05852E-04 9.15613E-02-1.30371E-13-1.89948E-13
 -1      3681 2.01277E+01-7.81919E-02-4.09535E-04 8.73072E-02-1.60280E-13-1.87756E-13
 -1      3682 2.00771E+01-5.27966E-02-1.19068E-04 8.76284E-02-5.90454E-14-2.29574E-13
 -1      3683 2.00689E+01-4.14660E-02 4.13612E-04 8.43988E-02-6.38139E-14-2.10013E-13
 -1      3684 2.00989E+01-6.12304E-02-3.22852E-04 7.95970E-02-1.18376E-13-2.10320E-13
 -1      3685 2.00559E+01-2.91630E-02-2.21124E-04 8.22064E-02-9.33941E-14-1.86227E-13
 -1      3686 2.00488E+01-1.51977E-02 4.13518E-04 8.12322E-02-8.04366E-14-2.23154E-13
 -1      3687 2.00730E+01-3.72759E-02-2.17155E-04 7.43570E-02-8.24323E-14-1.67936E-13
 -1      3688 2.00361E+01-4.54391E-04-3.25785E-04 8.13680E-02-9.46420E-14-2.23404E-13
 -1      3689 2.00295E+01 1.59865E-02 4.13440E-04 8.32901E-02-9.20778E-14-2.49448E-13
 -1      3690 2.00489E+01-7.47768E-03-9.98147E-05 7.28861E-02-8.74231E-14-1.08019E-13
 -1      3691 2.00165E+01 3.31442E-02-4.42092E-04 8.62965E-02-8.09186E-14-2.39791E-13
 -1      3692 2.00098E+01 5.21398E-02 4.19610E-04 9.17284E-02-3.62740E-14-1.89839E-13
 -1      3693 2.00251E+01 2.77715E-02 2.73607E-05 7.62939E-02-5.63407E-14-1.11026E-13
 -1      3694 1.99954E+01 7.18427E-02-5.75289E-04 9.81810E-02 4.39497E-14-2.08758E-13
 -1      3695 1.99880E+01 9.35654E-02 4.35883E-04 1.07756E-01 8.52003E-14-2.25358E-13
 -1      3696 1.99998E+01 6.86082E-02 1.67392E-04 8.56826E-02-2.45632E-15-1.07080E-13
 -1      3697 1.99712E+01 1.15966E-01-7.29722E-04 1.18291E-01 7.19852E-14-2.10651E-13
 -1      3698 1.99623E+01 1.40557E-01 4.67273E-04 1.32685E-01 8.82475E-14-2.69011E-13
 -1      3699 1.99711E+01 1.15377E-01 3.21890E-04 1.02238E-01 8.18767E-14-1.28359E-13
 -1      3700 1.99420E+01 1.65706E-01-9.07416E-04 1.48035E-01 7.70614E-14-2.13414E-13
 -1      3701 1.99311E+01 1.93122E-01 5.19844E-04 1.67988E-01 2.27613E-15-1.60305E-13
 -1      3702 1.99368E+01 1.68365E-01 4.89127E-04 1.27287E-01 5.85733E-14-1.97635E-13
 -1      3703 1.99060E+01 2.20776E-01-1.10698E-03 1.89017E-01-7.34999E-15-1.25275E-13
 -1      3704 1.98926E+01 2.50574E-01 6.01121E-04 2.15323E-01 1.00229E-13-1.91810E-13
 -1      3705 1.98948E+01 2.27488E-01 6.65746E-04 1.62386E-01 2.78776E-14-4.90288E-14
 -1      3706 1.98618E+01 2.79972E-01-1.32339E-03 2.43044E-01 7.66861E-14-1.53204E-13
 -1      3707 1.98455E+01 3.11056E-01 7.24000E-04 2.76541E-01 2.71298E-14-1.70058E-13
 -1      3708 1.98429E+01 2.91847E-01 8.41414E-04 2.09381E-01 8.12592E-14-1.05722E-13
 -1      3709 1.98083E+01 3.40620E-01-1.54542E-03 3.12140E-01-3.88990E-14-1.67484E-13
 -1      3710 1.97893E+01 3.70906E-01 9.09602E-04 3.53673E-01-6.18033E-14-2.04758E-13
 -1      3711 1.97791E+01 3.59197E-01 9.96746E-04 2.70466E-01-3.67422E-15-3.30701E-14
 -1      3712 1.97453E+01 3.97872E-01-1.75319E-03 3.98546E-01-3.21295E-14-1.76924E-13
 -1      3713 1.97247E+01 4.23875E-01 1.19155E-03 4.48930E-01 2.62098E-14-1.36178E-13
 -1      3714 1.97024E+01 4.25273E-01 1.09849E-03 3.48280E-01-9.39660E-14-6.04174E-14
 -1      3715 1.96745E+01 4.43835E-01-1.91365E-03 5.04724E-01 4.42104E-15-1.80378E-13
 -1      3716 1.96547E+01 4.60171E-01 1.62101E-03 5.64688E-01-3.55359E-14-1.49414E-13
 -1      3717 1.96130E+01 4.82950E-01 1.09264E-03 4.46032E-01 1.50289E-14-1.34760E-13
 -1      3718 1.96005E+01 4.66546E-01-1.97175E-03 6.33356E-01-7.42800E-14-1.58145E-13
 -1      3719 1.95862E+01 4.65374E-01 2.26969E-03 7.03450E-01-5.85263E-14-1.59138E-13
 -1      3720 1.95133E+01 5.21233E-01 8.93813E-04 5.67684E-01-5.74314E-14-1.39212E-13
 -1      3721 1.95326E+01 4.48849E-01-1.83317E-03 7.87270E-01 3.35192E-14-1.88478E-13
 -1      3722 1.95318E+01 4.19290E-01 3.22463E-03 8.67656E-01 1.50668E-13-1.06279E-13
 -1      3723 1.94097E+01 5.24074E-01 3.66918E-04 7.18161E-01 5.42122E-15-2.63637E-14
 -1      3724 1.94874E+01 3.67330E-01-1.33406E-03 9.69083E-01 1.47686E-13-1.26495E-13
 -1      3725 1.95128E+01 2.95096E-01 4.60728E-03 1.05901E+00 6.89613E-14-2.88938E-14
 -1      3726 1.93144E+01 4.69075E-01-6.99789E-04 9.03441E-01 1.05618E-13-2.76589E-14
 -1      3727 1.94922E+01 1.91831E-01-1.50111E-04 1.18033E+00 3.84870E-14-2.23252E-14
 -1      3728 1.95633E+01 5.88115E-02 6.41572E-03 1.27706E+00 8.99235E-14-1.88365E-14
 -1      3729 1.92486E+01 3.26583E-01-2.58563E-03 1.13024E+00 6.74423E-14-3.50822E-14
 -1      3730 1.95913E+01-1.15027E-01 2.26320E-03 1.41859E+00 3.57686E-14-2.62435E-14
 -1      3731 1.97360E+01-3.30217E-01 8.22440E-03 1.51418E+00 1.16971E-13-3.81237E-14
 -1      3732 1.92478E+01 5.72612E-02-6.05538E-03 1.40496E+00 5.58886E-14-5.54196E-14
 -1      3733 1.98537E+01-5.94302E-01 6.91049E-03 1.66856E+00 1.49314E-13-1.33643E-13
 -1      3734 2.01088E+01-9.09946E-01 1.00086E-02 1.74346E+00 1.70396E-13-1.75937E-13
 -1      3735 1.93712E+01-3.88017E-01-1.22179E-02 1.72744E+00 7.62297E-14-1.49541E-13
 -1      3736 2.03783E+01-1.28205E+00 1.45777E-02 1.88725E+00 2.09344E-13-2.49776E-13
 -1      3737 2.07856E+01-1.69775E+00 1.12063E-02 1.89747E+00 3.63337E-13-2.93478E-13
 -1      3738 1.97140E+01-1.05634E+00-2.00130E-02 2.07687E+00 1.79242E-13-2.28091E-13
 -1      3739 2.12337E+01-2.08316E+00 2.81024E-02 1.94663E+00 4.44777E-13-4.66627E-13
 -1      3740 2.18167E+01-2.53721E+00 1.37929E-02 1.81294E+00 2.60127E-13-5.52777E-13
 -1      3741 2.13926E+01-2.81586E+00-3.59543E-02 2.40744E+00 2.93158E-13-6.45970E-13
 -1      3742 2.03671E+01-1.89176E+00-2.56685E-02 2.34859E+00 3.02774E-13-4.16415E-13
 -1      3743 2.02805E+01 1.42009E+00 4.99309E-03 2.34413E-03 4.70736E-14-5.15032E-13
 -1      3744 2.01994E+01 1.65906E+00-2.54503E-03-3.43734E-02 5.41437E-14-5.19111E-13
 -1      3745 2.02014E+01 1.63755E+00-4.37286E-03-1.25918E-01 3.45252E-15-5.20050E-13
 -1      3746 2.02475E+01 4.25354E-02-5.17356E-04-1.18623E-01 4.11034E-14-2.62638E-13
 -1      3747 2.02686E+01 9.03888E-02 1.20483E-03-1.00513E-01 3.50343E-14-2.72184E-13
 -1      3748 2.03140E+01 3.13944E-01-1.38005E-03-1.06606E-02 9.98991E-14-2.77250E-13
 -1      3749 2.03312E+01 4.24486E-01 1.47401E-03 4.44167E-02 1.19874E-13-2.84016E-13
 -1      3750 2.00381E+01-5.45280E-03 4.44050E-04-8.77542E-02 2.99863E-14-1.40632E-13
 -1      3751 2.00427E+01-1.95911E-02-2.87941E-04-8.79727E-02-9.18636E-15-1.07930E-13
 -1      3752 1.99875E+01 1.07642E-01 4.61820E-04-1.23193E-01-5.49445E-14-1.23676E-13
 -1      3753 1.99932E+01 8.43200E-02-6.69019E-04-1.11360E-01-5.83885E-14-9.15248E-14
 -1      3754 1.99629E+01 1.59755E-01 4.62316E-04-1.52893E-01-5.25353E-14-7.07423E-14
 -1      3755 1.99707E+01 1.32171E-01-8.53477E-04-1.35657E-01-4.77688E-14-1.50782E-13
 -1      3756 1.99675E+01 1.32769E-01 4.26995E-04-1.19310E-01-7.29884E-14-1.61853E-13
 -1      3757 1.99300E+01 2.21417E-01 4.48567E-04-1.93722E-01-4.71301E-14-1.00653E-13
 -1      3758 1.99413E+01 1.88798E-01-1.08120E-03-1.70329E-01-4.23154E-15-7.68494E-14
 -1      3759 1.99325E+01 1.92295E-01 6.73660E-04-1.48188E-01-4.40973E-14-1.87526E-13
 -1      3760 1.98850E+01 2.94130E-01 4.07095E-04-2.47010E-01-1.39808E-13-3.74312E-14
 -1      3761 1.99014E+01 2.55729E-01-1.36033E-03-2.16704E-01-1.25384E-13-5.86151E-14
 -1      3762 1.98862E+01 2.62439E-01 9.90508E-04-1.86930E-01-1.12571E-13-1.08620E-13
 -1      3763 1.98231E+01 3.79150E-01 3.21374E-04-3.13969E-01 3.26934E-14-4.19595E-14
 -1      3764 1.98469E+01 3.34384E-01-1.70110E-03-2.76052E-01-5.06066E-14-3.62118E-14
 -1      3765 1.98241E+01 3.44648E-01 1.40081E-03-2.36401E-01-8.08145E-14-1.25706E-13
 -1      3766 1.97379E+01 4.77117E-01 1.74228E-04-3.95562E-01 9.93765E-14-1.33668E-14
 -1      3767 1.97720E+01 4.25768E-01-2.11613E-03-3.49461E-01 1.16884E-13 6.20627E-15
 -1      3768 1.97405E+01 4.39989E-01 1.93389E-03-2.97194E-01 1.77767E-14-7.42002E-14
 -1      3769 1.96218E+01 5.87471E-01-4.58509E-05-4.92396E-01 1.43750E-14-1.39412E-13
 -1      3770 1.96699E+01 5.30007E-01-2.62432E-03-4.37718E-01 6.91593E-14-7.32402E-14
 -1      3771 1.96280E+01 5.48733E-01 2.62598E-03-3.69491E-01 1.21696E-13-4.91630E-15
 -1      3772 1.94648E+01 7.07548E-01-3.31580E-04-6.04752E-01-4.39159E-14-1.38501E-13
 -1      3773 1.95315E+01 6.45615E-01-3.25861E-03-5.41261E-01-1.81036E-15-1.16134E-13
 -1      3774 1.94776E+01 6.69738E-01 3.52164E-03-4.52984E-01 1.27042E-14-9.52841E-14
 -1      3775 1.92552E+01 8.31204E-01-6.32018E-04-7.32989E-01-4.83516E-14-1.87787E-13
 -1      3776 1.93458E+01 7.68359E-01-4.08088E-03-6.60374E-01-4.26754E-14-1.53571E-13
 -1      3777 1.92777E+01 7.99570E-01 4.67656E-03-5.47017E-01 1.04096E-14-1.71303E-13
 -1      3778 1.89793E+01 9.46762E-01-8.09127E-04-8.78736E-01 8.96272E-14-2.46065E-13
 -1      3779 1.90991E+01 8.89555E-01-5.20849E-03-7.95938E-01-2.95819E-14-1.57108E-13
 -1      3780 1.90140E+01 9.31250E-01 6.16465E-03-6.51231E-01-4.55155E-14-2.10037E-13
 -1      3781 1.86219E+01 1.03401E+00-5.76960E-04-1.04756E+00 3.68769E-14-2.21030E-13
 -1      3782 1.87754E+01 9.93551E-01-6.85717E-03-9.51289E-01 1.20801E-13-2.10806E-13
 -1      3783 1.86686E+01 1.05256E+00 8.09339E-03-7.67210E-01 8.93654E-14-9.83786E-14
 -1      3784 1.81680E+01 1.06000E+00 5.90900E-04-1.25400E+00-5.13427E-14-2.23411E-13
 -1      3785 1.83562E+01 1.05407E+00-9.42008E-03-1.13597E+00 3.79919E-14-2.26663E-13
 -1      3786 1.82187E+01 1.14368E+00 1.06172E-02-9.01907E-01 3.10565E-14-6.91459E-14
 -1      3787 1.76040E+01 9.71308E-01 2.79265E-03-1.53155E+00-3.70749E-13-2.46328E-13
 -1      3788 1.78210E+01 1.02919E+00-1.35981E-02-1.37238E+00-2.25982E-13-2.36260E-13
 -1      3789 1.76349E+01 1.17399E+00 1.40313E-02-1.07391E+00-1.36297E-13-6.79931E-14
 -1      3790 1.69525E+01 6.91172E-01 2.69842E-03-1.95458E+00-4.10024E-13-1.52179E-13
 -1      3791 1.71354E+01 8.51623E-01-2.48604E-02-1.70543E+00-3.79448E-13-2.67070E-13
 -1      3792 1.68780E+01 1.10096E+00 1.99017E-02-1.32089E+00-3.30532E-13-4.73480E-14
 -1      3793 1.23904E+01 5.36466E-01-1.53238E-02 1.41856E+00 2.66926E-13-3.39232E-13
 -1      3794 1.22070E+01 7.89839E-01 6.74892E-02 3.76647E-03 2.62311E-13-6.27852E-13
 -1      3795 1.33275E+01 7.97975E-01 4.78361E-02-6.34271E-01 1.26181E-13-6.26423E-13
 -1      3796 2.00537E+01-3.20231E-02 4.40621E-04-8.97000E-02 8.68065E-15-5.61421E-14
 -1      3797 2.00591E+01-4.36403E-02-1.88126E-04-9.26097E-02 4.60900E-14-1.03295E-13
 -1      3798 2.00587E+01-2.72755E-02-1.78919E-04-8.19011E-02 7.32365E-15-1.02793E-13
 -1      3799 2.01150E+01-7.77735E-02 3.57846E-04-1.18410E-01 3.21620E-14-1.90465E-13
 -1      3800 2.01258E+01-7.84475E-02 1.83637E-04-1.24176E-01 4.83381E-14-2.12181E-13
 -1      3801 1.48609E+01-3.93668E-01-2.23238E-02 3.11337E+00 2.68492E-13-1.77563E-13
 -1      3802 1.34696E+01 3.27211E-01 8.34216E-02 2.36802E+00 2.34198E-13-3.17789E-13
 -1      3803 1.39660E+01 6.30561E-01 3.66782E-02 1.52940E+00 2.72803E-13-3.86568E-13
 -1      3804 2.00067E+01 6.35700E-02 4.55704E-04-1.03282E-01-5.63371E-14-9.26773E-14
 -1      3805 2.00113E+01 4.38049E-02-5.19748E-04-9.61347E-02 1.25804E-14-9.40695E-14
 -1      3806 1.99950E+01 8.23135E-02 2.29897E-04-9.92889E-02-2.99966E-14 1.01315E-14
 -1      3807 2.02842E+01 1.49241E-01-9.72356E-04-8.06343E-02 4.41594E-14-2.84225E-13
 -1      3808 2.03054E+01 2.23687E-01 1.49250E-03-4.65939E-02 6.29311E-14-2.94955E-13
 -1      3809 2.03464E+01 3.07325E-01 1.59122E-05-1.58277E-02 8.80914E-14-2.97830E-13
 -1      3810 2.03171E+01 1.41633E-01-3.68371E-04-7.42708E-02 3.69646E-14-2.59492E-13
 -1      3811 2.02488E+01 4.85027E-01-1.40817E-03 1.35440E-01 2.19027E-13-3.49487E-13
 -1      3812 2.02688E+01 5.97666E-01 2.21176E-03 2.23410E-01 2.56189E-13-3.36990E-13
 -1      3813 2.02896E+01 7.16491E-01-2.00877E-03 2.58760E-01 2.73159E-13-3.34562E-13
 -1      3814 2.02944E+01 5.21254E-01-4.38904E-04 1.20844E-01 1.88748E-13-3.06317E-13
 -1      3815 2.00230E+01 2.62112E-02 4.49015E-04-9.18793E-02 6.03164E-14-1.27770E-13
 -1      3816 2.00272E+01 9.44192E-03-3.96075E-04-8.87407E-02 9.80413E-14-1.19424E-13
 -1      3817 2.00384E+01 3.21852E-03-6.42036E-05-8.16455E-02 4.76820E-14-1.41345E-13
 -1      3818 2.03412E+01 8.45832E-01-8.54857E-04-2.06421E-01-1.26070E-13-3.70077E-13
 -1      3819 2.03476E+01 6.68741E-01-1.30902E-03-1.23881E-01-1.05779E-13-3.57748E-13
 -1      3820 2.03726E+01 6.50517E-01 1.00742E-03-9.33227E-02-9.53854E-14-3.29471E-13
 -1      3821 2.03452E+01 9.30973E-01 7.91598E-04-1.80664E-01-9.70640E-14-3.50740E-13
 -1      3822 2.23987E+01-3.06353E+00-5.87432E-02-3.96558E+00 1.16787E-13 4.35343E-13
 -1      3823 2.02510E+01 1.38748E+00-1.82499E-03 3.43009E-01 2.33179E-13-4.41014E-13
 -1      3824 2.02222E+01 1.56933E+00-1.44178E-03-1.80716E-01-2.85076E-14-4.95720E-13
 -1      3825 2.02302E+01 1.50936E+00-4.85244E-03-2.63397E-01-6.72615E-14-4.82191E-13
 -1      3826 2.03201E+01 1.18625E+00 4.45913E-03-1.94422E-01-8.24250E-14-4.18910E-13
 -1      3827 2.02964E+01 1.34777E+00 5.20163E-03-1.14646E-01-1.01947E-14-4.70558E-13
 -1      3828 2.48459E+01 4.52287E+00-1.11747E-01-1.01023E-01-3.96225E-13-1.70377E-13
 -1      3829 2.03231E+01 5.08002E-01-1.75799E-03 8.46718E-02 1.33807E-13-2.88780E-13
 -1      3830 2.03275E+01 6.03437E-01 1.86633E-03 1.44493E-01 1.90037E-13-3.08013E-13
 -1      3831 2.03528E+01 5.02790E-01 5.68902E-04 6.32521E-02 1.25717E-13-2.76987E-13
 -1      3832 2.02292E+01 5.69788E-03 9.46374E-04-1.27774E-01 7.27115E-14-2.76518E-13
 -1      3833 2.02789E+01 3.45943E-02-4.59490E-04-1.06325E-01 6.58030E-14-2.90717E-13
 -1      3834 2.02102E+01-2.34345E-02-1.66362E-04-1.34772E-01 9.25428E-14-2.68162E-13
 -1      3835 2.01638E+01-8.18635E-02-5.25527E-04-1.14104E-01 1.52944E-14-2.12431E-13
 -1      3836 2.01428E+01-7.61300E-02 2.63269E-04-1.29371E-01 2.42383E-14-2.36068E-13
 -1      3837 2.01563E+01-7.01460E-02 3.73544E-04-1.33382E-01 1.58482E-14-2.78928E-13
 -1      3838 2.00913E+01-6.93413E-02 4.07416E-04-1.06657E-01 1.45218E-14-1.88247E-13
 -1      3839 2.00999E+01-7.47046E-02 3.63205E-05-1.12570E-01 1.76213E-14-1.80697E-13
 -1      3840 2.01321E+01-8.15878E-02-4.55886E-04-1.04696E-01 2.98347E-14-2.12174E-13
 -1      3841 2.00802E+01-5.21651E-02-2.85951E-04-8.67238E-02 9.03675E-15-9.12116E-14
 -1      3842 2.00711E+01-5.35623E-02 4.31873E-04-9.64755E-02-7.02165E-15-1.30855E-13
 -1      3843 2.00779E+01-6.23996E-02-8.40473E-05-1.01349E-01-2.36495E-16-1.44131E-13
 -1      3844 1.56734E+01 3.88342E-01-1.41914E-02-2.23894E+00-2.04742E-13-3.60486E-13
 -1      3845 1.51853E+01 7.83380E-01 1.83704E-02-1.64962E+00-2.13954E-13-3.25155E-13
 -1      3846 2.00178E+01 3.95096E-02 7.00886E-05-8.70841E-02 1.52465E-14-4.86950E-14
 -1      3847 2.01403E+01-5.19926E-02-6.34520E-04-1.51730E-01 7.16151E-14-2.70478E-13
 -1      3848 1.61605E+01-6.78406E-01 6.20086E-02 3.35950E+00 1.98827E-13-1.90918E-13
 -1      3849 1.57005E+01-1.20588E-01-1.00641E-02 2.68407E+00 2.18928E-13-2.96979E-13
 -1      3850 1.73709E+01-1.15265E+00-1.04107E-02 3.30415E+00 1.17857E-13-1.32342E-13
 -1      3851 2.03199E+01 1.19446E+00-2.35312E-03 3.20725E-02 5.33040E-14-4.95920E-13
 -1      3852 2.03185E+01 1.19300E+00-3.16946E-03-2.86773E-02 2.18381E-14-4.91353E-13
 -1      3853 2.03095E+01 1.19568E+00 4.31082E-03 2.47568E-01 1.92304E-13-4.16163E-13
 -1      3854 2.09591E+01-2.70446E+00 2.32979E-02 2.76701E+00 2.88118E-13-3.76278E-13
 -1      3855 2.01631E+01-2.80828E+00 3.43541E-03 3.42777E+00 2.43422E-13-3.99609E-13
 -1      3856 1.89294E+01-2.03741E+00-5.76883E-03 3.41634E+00 1.77798E-13-3.48109E-13
 -1      3857 2.03400E+01-2.22579E+00 2.03761E-02 2.76567E+00 2.22040E-13-3.88581E-13
 -1      3858 2.03197E+01 1.14160E+00-4.79921E-03 1.34049E-01 1.14389E-13-4.45829E-13
 -1      3859 2.03205E+01 1.18049E+00-1.86217E-03 7.80418E-02 8.49936E-14-4.79606E-13
 -1      3860 2.03733E+01 9.96115E-01 4.58440E-03 4.08674E-02 6.23187E-14-4.49681E-13
 -1      3861 2.03141E+01 8.08956E-01-8.65966E-04 2.39159E-01 2.36770E-13-3.39034E-13
 -1      3862 2.03886E+01 2.62677E-01 7.88522E-04 2.47818E-02-2.23064E-14-2.76028E-13
 -1      3863 2.03722E+01 1.77188E-01-9.66010E-04 4.94137E-02-5.98653E-15-2.37311E-13
 -1      3864 2.03586E+01 1.08756E-01 7.35685E-04 6.10401E-02-9.58221E-15-2.09132E-13
 -1      3865 2.03377E+01 5.28389E-02-4.83770E-04 7.48816E-02 1.15877E-14-2.02626E-13
 -1      3866 2.03872E+01 1.59483E-01 1.19207E-04 4.09693E-02 5.61579E-16-2.40667E-13
 -1      3867 2.03182E+01 9.46196E-03 6.07026E-04 8.00394E-02-7.28907E-15-2.00129E-13
 -1      3868 2.02960E+01-2.45977E-02-1.38950E-04 8.61457E-02-3.46603E-14-1.56127E-13
 -1      3869 2.03502E+01 3.94075E-02-2.52296E-04 5.93860E-02 2.14359E-14-2.24526E-13
 -1      3870 2.02739E+01-4.96021E-02 4.70268E-04 8.69201E-02-8.36452E-14-1.50708E-13
 -1      3871 2.02525E+01-6.78489E-02 9.42740E-05 8.79842E-02-7.96009E-14-1.41854E-13
 -1      3872 2.03062E+01-3.43899E-02-4.28787E-04 6.73572E-02-4.46208E-14-2.16273E-13
 -1      3873 2.02301E+01-7.97338E-02 3.36056E-04 8.61000E-02-1.08590E-13-1.68320E-13
 -1      3874 2.02105E+01-8.66979E-02 2.32245E-04 8.42078E-02-1.05836E-13-2.19960E-13
 -1      3875 2.02605E+01-7.45162E-02-5.06494E-04 6.83323E-02-1.14661E-13-2.09523E-13
 -1      3876 2.01892E+01-8.92956E-02 2.25445E-04 8.09769E-02-1.05429E-13-2.54403E-13
 -1      3877 2.01716E+01-8.82570E-02 3.16078E-04 7.76906E-02-1.13986E-13-1.98072E-13
 -1      3878 2.02166E+01-9.06247E-02-5.24800E-04 6.52051E-02-1.38260E-13-2.52143E-13
 -1      3879 2.01520E+01-8.42455E-02 1.23852E-04 7.41693E-02-1.25792E-13-2.13492E-13
 -1      3880 2.01366E+01-7.75714E-02 3.47181E-04 7.07040E-02-1.48472E-13-2.05534E-13
 -1      3881 2.01759E+01-8.95199E-02-4.71213E-04 6.02347E-02-1.17991E-13-2.76893E-13
 -1      3882 2.01186E+01-6.88144E-02 1.73234E-05 6.75904E-02-1.46428E-13-1.89409E-13
 -1      3883 2.01050E+01-5.79345E-02 3.43752E-04 6.48364E-02-9.92251E-14-2.21728E-13
 -1      3884 2.01388E+01-7.61750E-02-4.01026E-04 5.50955E-02-1.31219E-13-2.04169E-13
 -1      3885 2.00884E+01-4.55459E-02-8.43897E-05 6.26915E-02-4.91632E-14-1.84915E-13
 -1      3886 2.00762E+01-3.12873E-02 3.29121E-04 6.13281E-02-2.53114E-14-1.46951E-13
 -1      3887 2.01052E+01-5.37274E-02-2.92359E-04 5.09544E-02-6.93076E-14-1.99181E-13
 -1      3888 2.00602E+01-1.58372E-02-1.87547E-04 6.06358E-02-4.94377E-14-9.60056E-14
 -1      3889 2.00486E+01 1.38597E-03 3.06091E-04 6.12440E-02-4.47961E-14-6.04141E-14
 -1      3890 2.00739E+01-2.40176E-02-1.60328E-04 4.89401E-02-6.17723E-15-1.56990E-13
 -1      3891 2.00325E+01 1.96998E-02-3.07082E-04 6.24051E-02-7.04725E-14-5.03922E-14
 -1      3892 2.00207E+01 3.98737E-02 2.79247E-04 6.55183E-02-3.00325E-14-2.03779E-14
 -1      3893 2.00433E+01 1.21077E-02-1.68528E-05 4.98019E-02-3.27329E-14-5.38563E-14
 -1      3894 2.00033E+01 6.11385E-02-4.41897E-04 6.89679E-02-3.65125E-14-2.19037E-14
 -1      3895 1.99903E+01 8.44476E-02 2.56927E-04 7.51284E-02 1.77937E-15 1.15657E-14
 -1      3896 2.00115E+01 5.45823E-02 1.53751E-04 5.43887E-02-3.80536E-14 1.30387E-14
 -1      3897 1.99704E+01 1.08862E-01-6.00363E-04 8.13817E-02 7.18448E-14-3.31386E-14
 -1      3898 1.99554E+01 1.35530E-01 2.41154E-04 9.11753E-02 9.41655E-14-4.21993E-14
 -1      3899 1.99762E+01 1.03735E-01 3.40846E-04 6.36029E-02 1.49569E-14 9.29613E-14
 -1      3900 1.99314E+01 1.63305E-01-7.88633E-04 1.00819E-01 5.33102E-14-8.03003E-14
 -1      3901 1.99132E+01 1.93512E-01 2.41332E-04 1.14932E-01 6.93581E-14-3.41993E-14
 -1      3902 1.99348E+01 1.60054E-01 5.45046E-04 7.84680E-02 4.99581E-14-1.82308E-15
 -1      3903 1.98837E+01 2.24681E-01-1.00846E-03 1.28734E-01 6.13713E-14-8.38335E-14
 -1      3904 1.98613E+01 2.58332E-01 2.64705E-04 1.47976E-01 6.69666E-14 1.89852E-14
 -1      3905 1.98843E+01 2.23962E-01 7.73984E-04 1.00277E-01 7.15375E-14 1.53150E-14
 -1      3906 1.98246E+01 2.92552E-01-1.26530E-03 1.66912E-01 1.10829E-13-2.12293E-14
 -1      3907 1.97969E+01 3.29069E-01 3.25118E-04 1.92251E-01 1.17747E-13-2.96313E-14
 -1      3908 1.98216E+01 2.95329E-01 1.02234E-03 1.30694E-01 7.95287E-14-2.74146E-14
 -1      3909 1.97514E+01 3.65362E-01-1.56190E-03 2.17582E-01 6.03217E-14 3.23450E-14
 -1      3910 1.97177E+01 4.03396E-01 4.44673E-04 2.50196E-01-1.36296E-14 4.19701E-14
 -1      3911 1.97435E+01 3.73079E-01 1.28148E-03 1.71879E-01 1.24524E-13-5.41921E-14
 -1      3912 1.96619E+01 4.39827E-01-1.89948E-03 2.83576E-01-1.40737E-13 4.82686E-14
 -1      3913 1.96221E+01 4.76900E-01 6.57993E-04 3.24920E-01-7.21096E-14-2.03563E-14
 -1      3914 1.96470E+01 4.54620E-01 1.53551E-03 2.26695E-01-3.64195E-14 4.21091E-14
 -1      3915 1.95548E+01 5.10181E-01-2.27738E-03 3.68539E-01-6.25801E-14-7.24358E-14
 -1      3916 1.95096E+01 5.42262E-01 1.01845E-03 4.20442E-01-5.45666E-14-1.58065E-13
 -1      3917 1.95293E+01 5.35151E-01 1.75749E-03 2.98980E-01-9.94950E-14-3.30205E-15
 -1      3918 1.94303E+01 5.67266E-01-2.69098E-03 4.77233E-01-3.37171E-15-2.27626E-13
 -1      3919 1.93821E+01 5.88263E-01 1.60719E-03 5.42043E-01 3.90675E-15-1.21439E-13
 -1      3920 1.93890E+01 6.06832E-01 1.90445E-03 3.93950E-01-6.31909E-14-1.37563E-13
 -1      3921 1.92914E+01 5.97477E-01-3.12489E-03 6.15978E-01-1.01493E-14-7.71434E-14
 -1      3922 1.92451E+01 5.98641E-01 2.54274E-03 6.96720E-01 3.14370E-14-8.98975E-14
 -1      3923 1.92262E+01 6.57795E-01 1.90759E-03 5.18760E-01 6.38571E-14-1.74795E-13
 -1      3924 1.91456E+01 5.81508E-01-3.53422E-03 7.93181E-01 2.56200E-14-1.71939E-13
 -1      3925 1.91098E+01 5.50686E-01 3.94380E-03 8.93658E-01 1.16285E-13-1.50167E-13
 -1      3926 1.90440E+01 6.70937E-01 1.64447E-03 6.83315E-01 4.20689E-14-2.97159E-13
 -1      3927 1.90076E+01 4.92861E-01-3.83071E-03 1.01945E+00 8.92749E-14-1.30585E-13
 -1      3928 1.89970E+01 4.14481E-01 6.23394E-03 1.14387E+00 4.52707E-14-1.81878E-13
 -1      3929 1.88504E+01 6.22098E-01 8.72336E-04 9.01108E-01 8.60575E-14-3.84890E-13
 -1      3930 1.89020E+01 2.98165E-01-3.63975E-03 1.30870E+00-4.35772E-14-1.12179E-13
 -1      3931 1.89410E+01 1.49995E-01 9.43488E-03 1.46210E+00-1.67586E-14-2.07613E-13
 -1      3932 1.86611E+01 4.82134E-01 7.40543E-05 1.18968E+00 1.97223E-14-2.20559E-13
 -1      3933 1.88757E+01-4.87131E-02-2.13099E-03 1.67547E+00 6.28412E-14-1.80349E-13
 -1      3934 1.90002E+01-2.96497E-01 1.26042E-02 1.85914E+00 1.15028E-13-2.34688E-13
 -1      3935 1.85047E+01 2.03716E-01-2.47240E-03 1.57261E+00-6.96936E-15-2.44716E-13
 -1      3936 1.90126E+01-6.08181E-01 2.48367E-03 2.12609E+00 1.60867E-13-2.51137E-13
 -1      3937 1.92633E+01-9.88982E-01 1.41180E-02 2.33356E+00 2.13851E-13-2.57505E-13
 -1      3938 1.84326E+01-2.80316E-01-1.10349E-02 2.07626E+00 1.66514E-13-2.47526E-13
 -1      3939 1.99486E+01 1.54994E-01 1.85245E-04-1.08845E-01-2.27448E-14-1.33244E-13
 -1      3940 1.99635E+01 1.25980E-01-6.86170E-04-9.73123E-02 2.97685E-14-6.71305E-14
 -1      3941 1.97671E+01 3.84101E-01-2.22508E-04-2.12670E-01-6.25608E-14-2.23377E-13
 -1      3942 1.98028E+01 3.37973E-01-1.38902E-03-1.87242E-01-9.82372E-14-2.21025E-13
 -1      3943 1.96635E+01 4.85346E-01-4.96789E-04-2.63940E-01 1.54950E-15-1.25535E-13
 -1      3944 1.97119E+01 4.32675E-01-1.71108E-03-2.33594E-01-8.79590E-14-2.07365E-13
 -1      3945 1.97053E+01 4.33548E-01 1.98743E-03-1.81139E-01-9.72399E-14-1.80680E-13
 -1      3946 1.95260E+01 5.99242E-01-8.82028E-04-3.22825E-01 9.02645E-14 6.56041E-14
 -1      3947 1.95913E+01 5.40360E-01-2.09418E-03-2.87854E-01 1.21545E-13 5.29598E-14
 -1      3948 1.95828E+01 5.42447E-01 2.64779E-03-2.20168E-01-3.12881E-14-5.30672E-14
 -1      3949 1.93445E+01 7.23867E-01-1.40351E-03-3.87897E-01 3.69690E-14-1.17415E-13
 -1      3950 1.94320E+01 6.59991E-01-2.56393E-03-3.48922E-01 6.91430E-14-4.82647E-14
 -1      3951 1.94222E+01 6.63314E-01 3.49177E-03-2.62227E-01 1.30073E-13 4.42226E-14
 -1      3952 1.91061E+01 8.54883E-01-2.07843E-03-4.57140E-01-2.21203E-14-9.01432E-14
 -1      3953 1.92225E+01 7.88535E-01-3.17461E-03-4.14984E-01 1.43060E-16-9.62130E-14
 -1      3954 1.92127E+01 7.93454E-01 4.58430E-03-3.04607E-01 3.15096E-16-6.73397E-14
 -1      3955 1.87946E+01 9.84493E-01-2.90377E-03-5.28574E-01-6.90212E-14-8.59471E-14
 -1      3956 1.89479E+01 9.20028E-01-4.03740E-03-4.83815E-01-3.27283E-14-8.68166E-14
 -1      3957 1.89405E+01 9.27757E-01 6.02968E-03-3.43727E-01-4.35684E-14-1.10815E-14
 -1      3958 1.83885E+01 1.10017E+00-3.82813E-03-6.01842E-01 7.39082E-14 4.61269E-14
 -1      3959 1.85890E+01 1.04438E+00-5.36893E-03-5.53762E-01-5.53780E-14-4.04097E-14
 -1      3960 1.85873E+01 1.05800E+00 8.01532E-03-3.75681E-01-1.18935E-13-1.11911E-15
 -1      3961 1.78589E+01 1.18282E+00-4.78002E-03-6.81531E-01-3.88832E-14 6.58495E-14
 -1      3962 1.81192E+01 1.14586E+00-7.58425E-03-6.26023E-01 8.38956E-14 1.15856E-13
 -1      3963 1.81279E+01 1.17234E+00 1.09378E-02-3.97706E-01-2.14017E-14 1.65542E-13
 -1      3964 1.71646E+01 1.20678E+00-4.89749E-03-7.82423E-01-2.09698E-13 1.21730E-13
 -1      3965 1.75002E+01 1.20159E+00-1.14258E-02-7.08526E-01-9.93629E-14 6.40379E-14
 -1      3966 1.75252E+01 1.25526E+00 1.57415E-02-4.10757E-01-4.61288E-14 2.59784E-13
 -1      3967 1.62694E+01 1.13438E+00 2.41910E-03-9.34469E-01-3.43866E-13-2.19679E-14
 -1      3968 1.66759E+01 1.17428E+00-1.86467E-02-8.27138E-01-2.63564E-13 1.02548E-13
 -1      3969 1.67203E+01 1.28872E+00 2.45984E-02-4.27352E-01-2.30006E-13 2.07891E-13
 -1      3970 2.00128E+01 5.28012E-02 2.93544E-04-7.78232E-02-3.87217E-14-4.18664E-14
 -1      3971 2.00230E+01 3.17844E-02-3.88172E-04-7.35549E-02-7.15154E-15-7.61318E-14
 -1      3972 1.98451E+01 2.95831E-01-3.26717E-05-1.69733E-01-1.31608E-13-1.74358E-13
 -1      3973 1.98713E+01 2.56012E-01-1.11555E-03-1.49213E-01-9.09353E-14-1.73619E-13
 -1      3974 1.97987E+01 3.37557E-01 1.46644E-03-1.46889E-01-5.38559E-14-2.15158E-13
 -1      3975 1.38554E+01 9.60997E-01-2.40479E-02-1.66056E-01 1.19495E-13-5.38958E-13
 -1      3976 1.42270E+01 8.44197E-01 3.23435E-02-1.28515E+00 2.14828E-14-4.83009E-13
 -1      3977 1.99038E+01 2.19866E-01 9.66748E-05-1.35234E-01-6.55965E-14-1.36725E-13
 -1      3978 1.99233E+01 1.85801E-01-8.83632E-04-1.19393E-01-5.10544E-14-1.81267E-13
 -1      3979 1.99245E+01 1.82630E-01 7.21557E-04-9.57940E-02-1.97949E-14-9.80825E-14
 -1      3980 1.98698E+01 2.54236E-01 1.05258E-03-1.18341E-01-8.99183E-14-1.36619E-13
 -1      3981 2.00628E+01-2.08304E-02 3.54864E-04-7.05671E-02 3.47269E-14-1.17563E-13
 -1      3982 2.00729E+01-3.56068E-02-1.50567E-04-7.15941E-02 1.88601E-14-1.05280E-13
 -1      3983 2.03368E+01 8.00843E-01 4.52746E-04 1.94319E-01 1.96700E-13-3.25391E-13
 -1      3984 2.03442E+01 9.00714E-01-2.72758E-03 1.96331E-01 1.76891E-13-3.60443E-13
 -1      3985 2.03368E+01 1.06015E+00 1.70578E-03 1.60887E-01 1.28898E-13-3.93156E-13
 -1      3986 2.03799E+01 8.87542E-01 4.62998E-03 1.00761E-01 9.45722E-14-3.86607E-13
 -1      3987 2.03608E+01 6.90074E-01-1.12992E-03 1.09050E-01 1.47316E-13-3.23275E-13
 -1      3988 2.00383E+01 1.28692E-02 3.28306E-04-7.16465E-02 4.98537E-15-9.19037E-14
 -1      3989 2.00481E+01-4.92501E-03-2.66902E-04-7.02825E-02 2.34370E-14-1.23415E-13
 -1      3990 2.00327E+01 2.47474E-02 3.03382E-05-6.16860E-02-1.46847E-14-3.69690E-14
 -1      3991 1.47348E+01 6.00597E-01-2.92071E-02 1.63590E+00 2.52686E-13-3.62783E-13
 -1      3992 1.41843E+01 1.01365E+00 5.22605E-02 7.63782E-01 3.13186E-13-5.38397E-13
 -1      3993 1.99838E+01 9.97872E-02 2.48412E-04-8.99579E-02-1.67778E-14-1.14419E-14
 -1      3994 1.99957E+01 7.50889E-02-5.23900E-04-8.22856E-02-1.77682E-14-2.06697E-14
 -1      3995 2.00024E+01 6.92000E-02 2.18471E-04-6.79139E-02-2.29672E-14-6.86480E-14
 -1      3996 2.03807E+01 9.61955E-01 4.28694E-03-3.06580E-02-8.28856E-15-4.54291E-13
 -1      3997 2.03286E+01 1.15134E+00-5.10374E-04-6.61289E-02 2.70899E-15-4.54211E-13
 -1      3998 2.03362E+01 1.07837E+00-3.55438E-03-1.07922E-01-3.57790E-14-4.22357E-13
 -1      3999 2.03974E+01 4.90272E-01 4.55431E-04-3.40372E-02-3.47872E-14-3.34228E-13
 -1      4000 2.03914E+01 3.66004E-01-1.24715E-03 4.22699E-03-2.62015E-14-3.16578E-13
 -1      4001 2.04089E+01 3.41019E-01 4.36285E-04 8.04179E-03 5.29930E-15-2.98580E-13
 -1      4002 2.01748E+01-6.01098E-02 9.94106E-05-1.36320E-01 4.15115E-14-2.78468E-13
 -1      4003 2.01910E+01-4.45615E-02 6.23582E-04-1.36360E-01 9.25087E-14-2.80183E-13
 -1      4004 2.02387E+01-3.13453E-02-5.47938E-04-1.19475E-01 1.05136E-13-2.91016E-13
 -1      4005 1.48136E+01 1.05737E+00 1.39991E-02 8.55375E-02 1.92511E-13-4.23167E-13
 -1      4006 2.03802E+01 4.83590E-01-5.19303E-04 3.33078E-02 9.21225E-14-3.12040E-13
 -1      4007 2.03769E+01 5.79554E-01 4.60923E-04 7.74772E-02 1.16587E-13-3.07509E-13
 -1      4008 2.03856E+01 6.67622E-01-2.26491E-03 7.77309E-02 1.15792E-13-3.26060E-13
 -1      4009 2.03907E+01 8.09174E-01-2.50252E-03 4.65867E-02 5.96972E-14-4.37465E-13
 -1      4010 2.03916E+01 8.23495E-01-2.13311E-03 1.20699E-02 2.04644E-14-4.31651E-13
 -1      4011 2.00611E+01-1.28419E-02-1.21439E-04-5.97699E-02 2.14260E-14-6.32742E-14
 -1      4012 1.95105E+01-1.35237E+00 1.31319E-02 2.51159E+00 2.61568E-13-2.13043E-13
 -1      4013 1.99015E+01-1.77817E+00 1.62917E-02 2.63065E+00 2.71516E-13-3.29674E-13
 -1      4014 1.92618E+01-1.74427E+00-2.00090E-02 2.95924E+00 2.01719E-13-2.46109E-13
 -1      4015 1.86484E+01-9.77563E-01-2.90596E-02 2.59215E+00 2.01611E-13-3.28228E-13
 -1      4016 2.01811E+01-8.64308E-02 2.79881E-04-9.60670E-02 1.39692E-14-2.23384E-13
 -1      4017 2.01985E+01-8.27922E-02 3.12751E-04-9.92359E-02-1.82933E-15-2.28325E-13
 -1      4018 2.03024E+01 1.90575E-02-2.81958E-04-9.48033E-02 1.09583E-13-3.38588E-13
 -1      4019 2.03238E+01 6.48194E-02 8.45084E-04-8.29905E-02 6.37529E-14-2.98711E-13
 -1      4020 2.01044E+01-7.07911E-02-3.77096E-04-9.48685E-02-2.03964E-14-1.70535E-13
 -1      4021 2.00881E+01-4.85532E-02 3.71657E-04-7.36253E-02-4.57037E-15-1.19093E-13
 -1      4022 2.00993E+01-6.02508E-02-5.19531E-05-7.64415E-02 1.68977E-14-9.83125E-14
 -1      4023 2.00896E+01-4.38906E-02-2.39140E-04-6.14438E-02-1.34843E-14-1.09083E-13
 -1      4024 2.03695E+01 2.60000E-01 1.34900E-04-3.60056E-02 5.14874E-14-2.84219E-13
 -1      4025 2.03799E+01 3.58993E-01-1.65728E-04 2.79008E-03 8.84418E-14-2.75593E-13
 -1      4026 2.04005E+01 4.33225E-01 5.17653E-04 1.36789E-02 5.99306E-14-2.84606E-13
 -1      4027 1.55866E+01 1.01522E+00-1.51643E-02-1.19794E+00-2.02304E-13-2.18655E-13
 -1      4028 1.55278E+01 1.21525E+00 2.82568E-02-6.28229E-01-1.24624E-13-6.56454E-14
 -1      4029 2.01996E+01-6.72953E-02-5.78292E-04-1.20323E-01 3.09055E-14-2.33043E-13
 -1      4030 2.03407E+01 1.05646E+00 1.43093E-04-1.34417E-01-5.47939E-14-4.13329E-13
 -1      4031 2.03457E+01 9.64354E-01-2.86493E-03-1.62303E-01-8.11637E-14-3.76102E-13
 -1      4032 2.03693E+01 8.17478E-01 6.38737E-04-1.16127E-01-9.17305E-14-3.52729E-13
 -1      4033 2.03813E+01 8.88961E-01 3.26512E-03-8.23772E-02-5.12106E-14-3.77022E-13
 -1      4034 2.04247E+01 6.44903E-01 2.65304E-03 4.48533E-03 1.40513E-14-4.01177E-13
 -1      4035 2.03962E+01 7.99327E-01-8.76528E-04-7.47354E-03 1.06006E-14-4.38028E-13
 -1      4036 2.04000E+01 7.54594E-01-2.12131E-03-3.26126E-02-2.18614E-14-4.18993E-13
 -1      4037 1.99674E+01 1.21435E-01 4.55064E-04-7.91296E-02 2.60529E-14-4.60957E-14
 -1      4038 1.55285E+01 4.62133E-01 5.26845E-02 2.07362E+00 2.89706E-13-3.52318E-13
 -1      4039 1.54820E+01 7.33763E-01-1.65185E-02 1.42810E+00 2.39545E-13-3.95667E-13
 -1      4040 1.63814E+01 3.44824E-02-1.23560E-03 2.35883E+00 2.33234E-13-3.39304E-13
 -1      4041 2.01465E+01-8.34096E-02 3.50161E-04-8.78914E-02 6.88065E-15-1.92170E-13
 -1      4042 2.01615E+01-8.64779E-02 1.71004E-04-9.20667E-02 2.81902E-14-2.14971E-13
 -1      4043 2.01905E+01-8.99934E-02-5.11348E-04-7.84729E-02 7.98436E-15-2.32669E-13
 -1      4044 1.55242E+01 1.12919E+00-1.11844E-02 1.94057E-01 5.62389E-14-1.87335E-13
 -1      4045 1.86177E+01-1.51959E+00 3.14861E-02 3.21066E+00 1.79435E-13-2.89376E-13
 -1      4046 2.03389E+01 1.14809E-01-4.75825E-04-7.24230E-02 4.08723E-14-2.77965E-13
 -1      4047 2.03576E+01 1.81424E-01-2.60282E-04-4.94897E-02 4.08694E-14-2.91168E-13
 -1      4048 2.03872E+01 2.25837E-01-1.15112E-03-3.38760E-02 5.02796E-14-2.94644E-13
 -1      4049 2.03576E+01 1.01746E-01 1.52889E-04-6.21056E-02 7.97887E-14-3.57403E-13
 -1      4050 2.03834E+01 7.02418E-01-4.53948E-04-9.07268E-02-8.42759E-14-3.45035E-13
 -1      4051 2.03891E+01 5.80250E-01-6.32965E-04-5.30252E-02-6.08405E-14-3.23327E-13
 -1      4052 2.04071E+01 5.46013E-01 6.53704E-04-3.27458E-02-3.15370E-14-3.31155E-13
 -1      4053 2.03881E+01 7.41098E-01-5.53874E-04-7.69889E-02-5.84037E-14-3.50063E-13
 -1      4054 1.78635E+01-9.07913E-01-1.75313E-04 2.88914E+00 1.61138E-13-2.36584E-13
 -1      4055 2.03882E+01 7.58410E-01 2.61059E-04 6.73136E-02 7.82293E-14-3.88267E-13
 -1      4056 2.04135E+01 6.18222E-01 2.00127E-03 3.23414E-02 5.86561E-14-3.78341E-13
 -1      4057 2.00587E+01-3.98545E-03 2.80245E-04-4.64414E-02 2.34230E-15-2.46598E-14
 -1      4058 2.00725E+01-2.18377E-02-1.23797E-04-4.60647E-02-5.06021E-16-1.02606E-13
 -1      4059 2.04116E+01 2.02090E-01 8.16396E-04 2.08294E-02 1.87342E-14-2.91157E-13
 -1      4060 2.03935E+01 1.26311E-01-5.62599E-04 3.46720E-02 4.35516E-14-2.52151E-13
 -1      4061 2.02312E+01-8.09027E-02-6.03951E-04-8.35849E-02 6.47563E-16-2.75456E-13
 -1      4062 2.02195E+01-7.48675E-02 1.58394E-04-1.02082E-01 1.89271E-14-2.31014E-13
 -1      4063 2.02391E+01-6.17320E-02 4.50332E-04-1.02540E-01 5.82795E-14-2.28261E-13
 -1      4064 2.03773E+01 6.62425E-02 5.78906E-04 3.75964E-02 4.47951E-14-2.40319E-13
 -1      4065 2.03555E+01 1.75229E-02-1.50288E-04 4.54647E-02 2.14981E-14-2.32269E-13
 -1      4066 2.03954E+01 1.05648E-01-3.24697E-04 2.04499E-02 4.63667E-14-2.69591E-13
 -1      4067 2.03342E+01-1.97586E-02 5.29552E-04 4.52188E-02-1.03519E-14-2.38389E-13
 -1      4068 2.03103E+01-4.80081E-02 7.14957E-05 4.86950E-02-4.56261E-14-2.17990E-13
 -1      4069 2.03553E+01 2.29021E-03-7.78220E-04 2.64070E-02 6.57695E-15-2.59798E-13
 -1      4070 2.02869E+01-6.83180E-02 3.80982E-04 4.76199E-02-9.14229E-14-2.19809E-13
 -1      4071 2.02638E+01-8.19763E-02 2.09488E-04 4.80966E-02-1.36494E-13-2.05966E-13
 -1      4072 2.03079E+01-5.74786E-02-7.71332E-04 2.81713E-02-6.29872E-14-2.20379E-13
 -1      4073 2.02402E+01-9.01153E-02 2.22480E-04 4.66494E-02-1.67971E-13-1.90352E-13
 -1      4074 2.02190E+01-9.35347E-02 3.00052E-04 4.56094E-02-1.47010E-13-2.15285E-13
 -1      4075 2.02599E+01-8.67519E-02-6.89366E-04 2.73286E-02-1.39964E-13-1.82204E-13
 -1      4076 2.01969E+01-9.28449E-02 2.91768E-04 4.31876E-02-1.07109E-13-2.31195E-13
 -1      4077 2.01772E+01-8.88345E-02 3.42117E-04 4.16772E-02-8.79411E-14-2.11083E-13
 -1      4078 2.02153E+01-9.54084E-02-8.34802E-04 2.57573E-02-1.51765E-13-1.36550E-13
 -1      4079 2.01568E+01-8.19702E-02 2.29426E-04 3.94146E-02-1.05894E-13-1.76331E-13
 -1      4080 2.01388E+01-7.25906E-02 2.77642E-04 3.78962E-02-1.27276E-13-1.49002E-13
 -1      4081 2.01730E+01-8.79845E-02-8.10846E-04 2.39938E-02-9.89759E-14-1.61976E-13
 -1      4082 2.01200E+01-6.12460E-02 4.13218E-05 3.66328E-02-9.87217E-14-1.67163E-13
 -1      4083 2.01039E+01-4.77789E-02 2.74179E-04 3.56252E-02-3.89074E-14-1.39790E-13
 -1      4084 2.01335E+01-6.83184E-02-5.35187E-04 2.18269E-02-1.14559E-13-1.05266E-13
 -1      4085 2.00860E+01-3.26743E-02-8.62713E-06 3.45543E-02 1.28487E-14-1.33735E-13
 -1      4086 2.00707E+01-1.57409E-02 2.29670E-04 3.46477E-02 5.79796E-14-1.20147E-13
 -1      4087 2.00985E+01-4.11979E-02-3.79001E-04 2.05252E-02-1.68127E-14-1.08212E-13
 -1      4088 2.00530E+01 2.64073E-03-1.16976E-04 3.45464E-02 1.66419E-14-1.17753E-13
 -1      4089 2.00376E+01 2.28536E-02 1.68626E-04 3.60474E-02-2.50217E-15-3.38308E-14
 -1      4090 2.00638E+01-6.30428E-03-2.45538E-04 2.04342E-02 4.14496E-14-2.32862E-14
 -1      4091 2.00190E+01 4.44123E-02-2.69358E-04 3.71507E-02 2.75801E-14 3.06110E-16
 -1      4092 2.00026E+01 6.80077E-02 1.04997E-04 4.04183E-02 3.30895E-14 5.25798E-14
 -1      4093 2.00289E+01 3.56851E-02 3.33370E-05 2.17413E-02 6.08769E-14-5.74149E-14
 -1      4094 1.99817E+01 9.31061E-02-3.94395E-04 4.29289E-02-1.98322E-14 1.21189E-13
 -1      4095 1.99630E+01 1.20326E-01 6.48854E-05 4.84967E-02 1.27350E-14 9.79094E-14
 -1      4096 1.99910E+01 8.41421E-02 1.96547E-04 2.51732E-02 3.06139E-14 3.26150E-14
 -1      4097 1.99383E+01 1.49172E-01-5.72281E-04 5.27223E-02 1.67231E-14 8.78999E-14
 -1      4098 1.99159E+01 1.80405E-01 1.65119E-05 6.11285E-02 2.62257E-14 7.74148E-14
 -1      4099 1.99474E+01 1.40477E-01 3.75060E-04 3.11492E-02-1.74251E-14-4.48672E-15
 -1      4100 1.98856E+01 2.13308E-01-7.67335E-04 6.76644E-02 2.61532E-14 6.29254E-14
 -1      4101 1.98579E+01 2.48735E-01-2.05270E-05 7.95943E-02 5.96655E-14 3.25926E-14
 -1      4102 1.98948E+01 2.05257E-01 5.59912E-04 4.06611E-02-1.98848E-14 2.85079E-14
 -1      4103 1.98202E+01 2.85748E-01-1.00372E-03 8.91680E-02 4.64660E-14-1.93007E-14
 -1      4104 1.97857E+01 3.25264E-01-3.90566E-05 1.05518E-01 7.71056E-14-2.50796E-14
 -1      4105 1.98295E+01 2.78969E-01 7.69028E-04 5.48362E-02-1.08000E-14-3.36796E-14
 -1      4106 1.97382E+01 3.66024E-01-1.28711E-03 1.19175E-01 1.02964E-13-6.39680E-14
 -1      4107 1.96953E+01 4.08976E-01-2.43222E-05 1.41138E-01 5.03343E-14-9.96023E-14
 -1      4108 1.97474E+01 3.61573E-01 9.96274E-04 7.53607E-02 5.56275E-14-2.37640E-14
 -1      4109 1.96357E+01 4.52429E-01-1.62731E-03 1.60348E-01 1.98751E-15-9.66526E-14
 -1      4110 1.95831E+01 4.97326E-01 4.66633E-05 1.89537E-01-1.99327E-14-7.41794E-14
 -1      4111 1.96441E+01 4.52005E-01 1.23552E-03 1.04648E-01 1.41048E-14-1.69187E-13
 -1      4112 1.95090E+01 5.41409E-01-2.03751E-03 2.16364E-01-1.31809E-13-6.70547E-14
 -1      4113 1.94456E+01 5.85581E-01 2.08935E-04 2.54985E-01-1.85405E-13-1.44130E-13
 -1      4114 1.95148E+01 5.47641E-01 1.47506E-03 1.46139E-01-1.40908E-13-2.34771E-13
 -1      4115 1.93545E+01 6.26841E-01-2.53669E-03 2.92323E-01-1.54342E-13-7.73035E-14
 -1      4116 1.92800E+01 6.66034E-01 5.15112E-04 3.43428E-01-5.20281E-14-1.51873E-13
 -1      4117 1.93549E+01 6.43652E-01 1.69602E-03 2.04722E-01-1.21169E-13-1.77658E-13
 -1      4118 1.91695E+01 6.99194E-01-3.15324E-03 3.95330E-01 5.55215E-14-1.60976E-13
 -1      4119 1.90848E+01 7.27109E-01 1.04436E-03 4.63178E-01 5.74083E-14-1.85121E-13
 -1      4120 1.91595E+01 7.32271E-01 1.86934E-03 2.87328E-01-7.84444E-14-1.36523E-13
 -1      4121 1.89525E+01 7.44574E-01-3.92750E-03 5.35345E-01-4.48784E-14-1.69563E-13
 -1      4122 1.88607E+01 7.52329E-01 1.94005E-03 6.25901E-01 3.57795E-15-2.41996E-13
 -1      4123 1.89240E+01 8.01984E-01 1.94940E-03 4.03768E-01-4.12310E-14-1.38544E-13
 -1      4124 1.87044E+01 7.43605E-01-4.89540E-03 7.26634E-01 7.60372E-14-3.36277E-13
 -1      4125 1.86108E+01 7.18353E-01 3.01418E-03 8.48282E-01 1.29257E-13-3.53584E-13
 -1      4126 1.86441E+01 8.36556E-01 1.76819E-03 5.67995E-01-1.34721E-14-2.20223E-13
 -1      4127 1.84317E+01 6.66258E-01-6.73580E-03 9.87262E-01 1.18797E-13-3.32055E-13
 -1      4128 1.83500E+01 5.99120E-01 6.95819E-03 1.14691E+00 5.00949E-14-2.57689E-13
 -1      4129 1.83169E+01 8.07902E-01-3.66179E-04 8.02304E-01 1.19049E-13-4.25498E-13
 -1      4130 1.81382E+01 4.79816E-01-1.04517E-02 1.35289E+00-2.13219E-14-2.37222E-13
 -1      4131 1.80924E+01 3.40809E-01 9.74227E-03 1.55958E+00 6.34029E-14-3.12886E-13
 -1      4132 1.79430E+01 7.14639E-01 4.57892E-03 1.11813E+00 6.36996E-14-4.57887E-13
 -1      4133 1.76754E+01-5.19521E-01 6.19893E-03 2.62442E+00 1.62292E-13-2.34248E-13
 -1      4134 2.01156E+01-6.99423E-02 3.73003E-04-7.98546E-02-4.75220E-14-1.61249E-13
 -1      4135 2.01285E+01-7.78641E-02 5.15222E-05-8.38037E-02-4.91532E-14-1.94337E-13
 -1      4136 2.01199E+01-6.83161E-02-3.73754E-04-6.58422E-02-1.27298E-14-1.27800E-13
 -1      4137 1.96487E+01 4.65475E-01-9.21272E-04-1.39325E-01-9.82503E-14-9.54931E-14
 -1      4138 1.97027E+01 4.14257E-01-1.23387E-03-1.23719E-01-4.77939E-14-8.49180E-14
 -1      4139 1.90945E+01 8.23445E-01-2.84251E-03-2.03930E-01 2.23499E-14 7.08306E-14
 -1      4140 1.92166E+01 7.59910E-01-2.08529E-03-1.89942E-01 5.98238E-14 7.48785E-14
 -1      4141 1.87936E+01 9.49375E-01-3.97670E-03-2.09731E-01-5.38914E-14 9.55705E-14
 -1      4142 1.89526E+01 8.87322E-01-2.51983E-03-2.00594E-01-8.33405E-15 1.05192E-13
 -1      4143 1.89981E+01 8.66977E-01 4.98904E-03-8.01039E-02-3.64105E-15 1.34040E-13
 -1      4144 1.84060E+01 1.06492E+00-5.51592E-03-1.97835E-01-1.78968E-13 7.43557E-14
 -1      4145 1.86130E+01 1.00970E+00-3.17098E-03-1.96285E-01-4.47105E-14 1.15484E-13
 -1      4146 1.86804E+01 9.85907E-01 6.48466E-03-4.57658E-02-3.89049E-14 2.68221E-13
 -1      4147 1.79037E+01 1.15703E+00-7.49156E-03-1.61247E-01-1.06507E-14 1.44156E-13
 -1      4148 1.81747E+01 1.11532E+00-4.27496E-03-1.69661E-01-1.39315E-13 3.38799E-14
 -1      4149 1.82755E+01 1.08908E+00 8.68693E-03 1.94525E-02-1.35459E-13 3.36082E-14
 -1      4150 1.72419E+01 1.20694E+00-1.12206E-02-9.20724E-02-5.38259E-14 2.08891E-13
 -1      4151 1.76025E+01 1.18644E+00-6.97791E-03-1.13645E-01 3.37615E-14 2.17082E-13
 -1      4152 1.77572E+01 1.16512E+00 1.32760E-02 1.27364E-01-4.80985E-15 1.00956E-13
 -1      4153 1.63541E+01 1.20171E+00-1.60515E-02 8.80413E-03-1.17265E-13 5.87356E-15
 -1      4154 1.68401E+01 1.20597E+00-1.16249E-02-2.29500E-02-6.05842E-14 1.83021E-13
 -1      4155 1.70826E+01 1.21471E+00 2.73692E-02 2.84582E-01 2.69527E-14 7.26769E-14
 -1      4156 1.95091E+01 5.76285E-01-1.37888E-03-1.64010E-01-4.00042E-14-3.37196E-14
 -1      4157 1.95803E+01 5.19413E-01-1.48004E-03-1.47350E-01-1.56261E-13-1.33884E-13
 -1      4158 1.95959E+01 5.07343E-01 2.33247E-03-8.67486E-02-9.72968E-14-4.20010E-14
 -1      4159 2.04207E+01 4.67697E-01-9.97709E-04 1.74969E-02 5.47152E-14-3.61563E-13
 -1      4160 2.04255E+01 5.22204E-01-7.18025E-05 8.84910E-03 4.33111E-14-3.96459E-13
 -1      4161 2.04217E+01 3.49392E-01 1.61381E-03-1.01625E-02 4.22278E-14-3.59302E-13
 -1      4162 2.00270E+01 3.63101E-02 2.09410E-04-4.87594E-02-7.65284E-14 2.37980E-14
 -1      4163 2.00412E+01 1.50958E-02-2.43058E-04-4.66516E-02-2.33499E-15-1.68717E-15
 -1      4164 2.00521E+01 6.43406E-03-1.00841E-04-3.30250E-02-2.36730E-14-1.61841E-14
 -1      4165 1.59249E+01 1.12907E+00 3.56725E-02 6.25213E-01 1.15064E-13-2.77400E-13
 -1      4166 1.99923E+01 8.37396E-02 1.16936E-04-5.44783E-02 2.51874E-14-5.24769E-14
 -1      4167 2.00081E+01 5.88071E-02-3.92020E-04-5.03456E-02-2.45975E-14 8.22849E-15
 -1      4168 2.00175E+01 5.03939E-02 1.46734E-04-3.50107E-02-3.68420E-14 9.00063E-15
 -1      4169 2.02610E+01-4.26978E-02 1.46619E-05-1.03176E-01 6.33761E-14-2.85535E-13
 -1      4170 2.02818E+01-1.59379E-02 5.95724E-04-9.89084E-02 9.71254E-14-2.97632E-13
 -1      4171 2.02754E+01-5.12373E-02-6.26863E-04-8.44075E-02 2.97735E-14-2.68942E-13
 -1      4172 1.99518E+01 1.39126E-01-2.49034E-05-6.38440E-02-1.11810E-14-8.42536E-14
 -1      4173 1.99709E+01 1.10122E-01-4.79314E-04-5.75005E-02 2.10975E-14-7.13119E-14
 -1      4174 1.99794E+01 1.01486E-01 4.02377E-04-3.91728E-02 5.60096E-15-4.09825E-14
 -1      4175 1.97559E+01 3.66347E-01-5.86533E-04-1.15622E-01-6.64828E-14-1.34714E-13
 -1      4176 1.97968E+01 3.21177E-01-1.01090E-03-1.01932E-01-8.04848E-14-1.27583E-13
 -1      4177 1.97145E+01 4.03716E-01 1.77719E-03-7.61883E-02-1.03031E-13-6.84249E-14
 -1      4178 1.93282E+01 6.96904E-01-2.00113E-03-1.86895E-01 9.04540E-14-1.63420E-14
 -1      4179 1.94216E+01 6.35563E-01-1.75650E-03-1.70576E-01 9.82375E-14 2.05712E-14
 -1      4180 1.92477E+01 7.42900E-01 3.87923E-03-9.35616E-02 5.72498E-14 5.92397E-14
 -1      4181 2.04229E+01 4.05392E-01-3.11612E-04-6.14957E-03 1.58553E-14-3.47028E-13
 -1      4182 2.04167E+01 2.93802E-01-1.12811E-03 1.60289E-02 2.97900E-14-3.33850E-13
 -1      4183 2.04233E+01 2.58874E-01-6.84718E-04 1.03593E-02 5.63040E-14-3.47567E-13
 -1      4184 1.79782E+01-1.62779E-01 1.27995E-02 2.14906E+00 2.04665E-13-2.74903E-13
 -1      4185 1.71232E+01-1.06189E-01 5.96943E-03 2.40192E+00 1.86576E-13-3.18849E-13
 -1      4186 1.67307E+01 3.35310E-01-2.40492E-02 1.90523E+00 2.29931E-13-3.43449E-13
 -1      4187 1.79327E+01 1.04539E-01-9.44552E-03 1.87072E+00 1.61897E-13-2.64586E-13
 -1      4188 2.00854E+01-3.05718E-02-3.47755E-04-3.29184E-02 3.59946E-15-8.69168E-14
 -1      4189 2.00900E+01-3.76641E-02 3.28567E-04-4.71053E-02 1.79438E-14-1.12127E-13
 -1      4190 2.01044E+01-5.19570E-02 5.96576E-05-4.81551E-02 6.49052E-14-9.07171E-14
 -1      4191 2.03191E+01 7.80425E-03-4.35084E-04-7.84917E-02 7.52822E-14-3.58841E-13
 -1      4192 2.04152E+01 6.30759E-01 1.38987E-03-3.32876E-02-1.94895E-14-3.67092E-13
 -1      4193 2.04206E+01 5.34438E-01-7.81465E-05-1.41732E-02-4.62396E-15-3.68556E-13
 -1      4194 2.04307E+01 4.92544E-01-1.14184E-03-2.03043E-03 2.92762E-14-4.07489E-13
 -1      4195 2.03303E+01-9.39535E-03 2.30572E-04-6.27562E-02 4.19330E-14-4.15326E-13
 -1      4196 2.03516E+01 3.02952E-02 4.38932E-04-5.60446E-02 6.53395E-14-4.12013E-13
 -1      4197 1.94433E+01 6.21349E-01 3.01838E-03-9.38744E-02-3.42296E-14-1.36206E-13
 -1      4198 2.01533E+01-8.44923E-02-4.61199E-04-7.19978E-02-3.91106E-14-2.29214E-13
 -1      4199 1.63032E+01 8.76819E-01-7.81543E-03 1.06685E+00 1.59283E-13-2.04049E-13
 -1      4200 1.75906E+01 4.43022E-01 8.16857E-03 1.61666E+00 1.07539E-13-4.62548E-13
 -1      4201 1.99018E+01 2.03947E-01-1.61714E-04-7.72392E-02-5.56809E-14-1.54184E-14
 -1      4202 1.99258E+01 1.70124E-01-6.29440E-04-6.84303E-02-1.96896E-14-2.38320E-14
 -1      4203 1.99339E+01 1.61447E-01 6.41771E-04-4.56509E-02-2.38895E-14 5.99489E-16
 -1      4204 2.04290E+01 4.84543E-01 1.89277E-04-6.05612E-03 2.61684E-14-3.86271E-13
 -1      4205 2.03920E+01 7.67541E-01-7.09369E-04-5.88923E-02-3.65656E-14-3.69377E-13
 -1      4206 2.01968E+01-9.20533E-02 3.94413E-04-5.95419E-02-4.63992E-14-2.36287E-13
 -1      4207 2.02165E+01-9.13339E-02 3.51825E-04-6.14183E-02-5.47733E-14-2.63759E-13
 -1      4208 2.03695E+01 7.44553E-02-2.23579E-04-5.31708E-02 1.07883E-13-4.07424E-13
 -1      4209 2.03880E+01 1.33325E-01 2.08045E-03-4.21248E-02 1.03740E-13-3.70567E-13
 -1      4210 2.03735E+01 5.66434E-02-1.03666E-03-3.64065E-02 1.05006E-13-4.20645E-13
 -1      4211 1.98382E+01 2.79339E-01-3.41936E-04-9.46200E-02-4.41108E-14-1.11164E-13
 -1      4212 1.98694E+01 2.40074E-01-8.09601E-04-8.32952E-02-1.98395E-14-5.44312E-14
 -1      4213 1.98063E+01 3.11640E-01 1.32341E-03-6.48469E-02-4.38413E-14-1.74593E-13
 -1      4214 2.02389E+01-8.69299E-02 1.82892E-04-6.36059E-02-1.97078E-14-3.25622E-13
 -1      4215 2.02610E+01-7.74170E-02 2.93154E-04-6.43902E-02-1.72738E-14-3.42186E-13
 -1      4216 2.02392E+01-9.06975E-02-4.82955E-04-4.38743E-02-6.90048E-14-3.28486E-13
 -1      4217 1.99667E+01 1.15335E-01-1.79560E-04-2.16048E-02 1.58167E-14-4.27368E-14
 -1      4218 1.99875E+01 8.76068E-02-3.15867E-04-1.92868E-02-3.69529E-14-9.75459E-14
 -1      4219 2.04119E+01 1.38643E-01 1.63514E-03-8.88392E-03 8.97978E-14-3.81150E-13
 -1      4220 2.03926E+01 7.40037E-02 8.66503E-05-3.88956E-03 8.45375E-14-3.71832E-13
 -1      4221 2.03744E+01 2.96023E-02 6.05644E-04-9.64486E-03 4.39343E-14-3.51200E-13
 -1      4222 2.03513E+01-1.12835E-02 2.36555E-04-7.09926E-03 1.28983E-14-3.11190E-13
 -1      4223 2.02780E+01-8.32941E-02 3.56680E-04 6.60465E-03-8.39423E-14-2.52950E-13
 -1      4224 2.02547E+01-9.13830E-02 4.97757E-04 6.40670E-03-1.06636E-13-1.84899E-13
 -1      4225 2.02331E+01-9.42116E-02 4.79632E-04-8.41034E-03-1.27242E-13-2.08418E-13
 -1      4226 2.02114E+01-9.43655E-02 4.88798E-04-8.14868E-03-1.50997E-13-1.94833E-13
 -1      4227 2.01474E+01-7.46145E-02 3.00712E-04 5.75834E-03-9.42286E-14-1.26442E-13
 -1      4228 2.01285E+01-6.24686E-02 3.78625E-04 4.97565E-03-6.56737E-14-5.40898E-14
 -1      4229 2.01117E+01-5.11832E-02 1.68086E-04-6.64898E-03-2.50010E-14-1.84508E-14
 -1      4230 2.00943E+01-3.58061E-02 1.85205E-04-6.48975E-03 4.66230E-15-1.53473E-14
 -1      4231 2.00770E+01-1.88068E-02 2.28779E-04-6.56956E-03-1.30499E-14-3.60611E-14
 -1      4232 2.00593E+01-5.94678E-05 7.43878E-05-6.12610E-03 3.02837E-14-4.36203E-14
 -1      4233 2.00418E+01 2.03170E-02 7.25748E-05-6.68513E-03 3.78230E-14-4.49421E-14
 -1      4234 2.00232E+01 4.25472E-02-8.92717E-05-5.82052E-03 1.47275E-14-4.56466E-14
 -1      4235 1.99938E+01 7.99813E-02-4.54822E-05 1.10195E-02 1.00398E-14-5.73911E-14
 -1      4236 1.99739E+01 1.06303E-01 1.37191E-04 1.27672E-02-2.47690E-14-9.99722E-14
 -1      4237 1.99496E+01 1.35184E-01-3.37645E-04 1.40770E-02-3.55001E-15-8.47162E-14
 -1      4238 1.99261E+01 1.66435E-01 1.19312E-04 1.71103E-02-1.54004E-14-9.11575E-14
 -1      4239 1.99540E+01 1.32174E-01 2.89014E-04-1.09138E-03-2.84325E-14-1.23069E-13
 -1      4240 1.98963E+01 1.99641E-01-4.90354E-04 1.93582E-02-2.84941E-14-7.58265E-14
 -1      4241 1.98676E+01 2.35530E-01 1.30216E-04 2.40199E-02-9.74828E-15-3.36815E-14
 -1      4242 1.99016E+01 1.97065E-01 5.16662E-04 8.56054E-04-8.37977E-15-7.68504E-14
 -1      4243 1.98301E+01 2.73427E-01-6.55828E-04 2.77913E-02-5.12302E-14 4.30821E-14
 -1      4244 1.97942E+01 3.14151E-01 1.54391E-04 3.47162E-02-6.91415E-14-5.28913E-15
 -1      4245 1.98363E+01 2.71592E-01 7.45360E-04 4.54342E-03 2.20372E-14-6.61948E-14
 -1      4246 1.97466E+01 3.56786E-01-8.52765E-04 4.08404E-02 2.59643E-14-6.62981E-14
 -1      4247 1.97016E+01 4.02174E-01 2.01609E-04 5.09684E-02 3.83854E-14-1.14379E-13
 -1      4248 1.97536E+01 3.56248E-01 1.00910E-03 1.12592E-02-2.12860E-14-3.36717E-14
 -1      4249 1.96410E+01 4.49107E-01-1.08659E-03 6.06785E-02-2.85172E-14-1.96631E-13
 -1      4250 1.95845E+01 4.98359E-01 2.85708E-04 7.53749E-02-3.01196E-14-2.35999E-13
 -1      4251 1.96485E+01 4.50745E-01 1.31337E-03 2.29522E-02-7.84370E-14-2.41033E-13
 -1      4252 1.95078E+01 5.48402E-01-1.36610E-03 9.04783E-02-1.21728E-13-2.31302E-13
 -1      4253 1.94378E+01 5.99812E-01 4.27727E-04 1.11715E-01-1.30781E-13-2.28963E-13
 -1      4254 1.95153E+01 5.53574E-01 1.66399E-03 4.25524E-02-8.06921E-14-2.82556E-13
 -1      4255 1.93413E+01 6.50722E-01-1.70540E-03 1.34815E-01-5.24238E-14-2.16581E-13
 -1      4256 1.92556E+01 7.01347E-01 6.59459E-04 1.65420E-01-6.35448E-14-1.19547E-13
 -1      4257 1.93473E+01 6.61461E-01 2.06910E-03 7.43654E-02-4.21152E-14-1.79624E-13
 -1      4258 1.91351E+01 7.49490E-01-2.12846E-03 2.00209E-01-1.12213E-13-8.04642E-14
 -1      4259 1.90318E+01 7.94796E-01 1.02906E-03 2.44210E-01-7.27045E-14-1.64569E-13
 -1      4260 1.91374E+01 7.68774E-01 2.54318E-03 1.24591E-01-5.60122E-14-1.31541E-13
 -1      4261 1.88823E+01 8.34787E-01-2.67789E-03 2.95871E-01 2.26103E-14-2.34076E-13
 -1      4262 1.87597E+01 8.68299E-01 1.61327E-03 3.58982E-01-3.67149E-14-1.55543E-13
 -1      4263 1.88769E+01 8.66903E-01 3.11595E-03 2.02014E-01-4.59277E-14-9.87101E-14
 -1      4264 1.85751E+01 8.92652E-01-3.38548E-03 4.34783E-01-9.67956E-14-6.08973E-14
 -1      4265 1.84321E+01 9.05490E-01 2.55091E-03 5.25189E-01 4.20106E-14-1.73192E-13
 -1      4266 1.85556E+01 9.43689E-01 3.87447E-03 3.18975E-01 2.83348E-14-3.80529E-14
 -1      4267 1.82022E+01 9.10041E-01-2.81921E-03 6.34850E-01 1.05319E-13-3.03454E-13
 -1      4268 1.80146E+01 8.78020E-01-4.53450E-03 7.68734E-01 4.25747E-14-3.52171E-13
 -1      4269 1.81597E+01 9.83371E-01 5.17611E-03 4.92627E-01 5.28184E-14-1.68867E-13
 -1      4270 1.85887E+01 9.63883E-01-5.04932E-03 1.19680E-01-6.43143E-14 9.65083E-14
 -1      4271 1.87724E+01 9.17615E-01-1.26567E-03 8.78940E-02-2.07339E-14 9.67224E-14
 -1      4272 2.04364E+01 3.77506E-01 2.24499E-03 1.79186E-05 6.96737E-14-3.95283E-13
 -1      4273 2.03094E+01-4.15604E-02 3.10432E-04-5.57660E-02-3.32129E-15-4.02569E-13
 -1      4274 2.03342E+01-2.38385E-02-8.48288E-04-3.62655E-02 2.09827E-15-3.85149E-13
 -1      4275 2.03286E+01-4.49978E-02 5.51993E-04-1.93695E-03-3.62485E-14-2.84231E-13
 -1      4276 2.02870E+01-6.29311E-02 3.25072E-04-5.82915E-02-2.41809E-14-3.68315E-13
 -1      4277 1.93860E+01 6.38239E-01-2.01357E-03-1.82974E-02-4.30948E-14-1.19805E-13
 -1      4278 1.94741E+01 5.82199E-01-9.76758E-04-1.98306E-02-4.31910E-14-1.51679E-13
 -1      4279 2.04272E+01 2.67777E-01-1.19980E-03 4.30001E-03 7.01578E-14-3.85378E-13
 -1      4280 1.89174E+01 8.64942E-01-3.70257E-03 4.76376E-02-3.83060E-14 9.01775E-14
 -1      4281 1.90615E+01 8.10497E-01-1.17872E-03 3.03753E-02-3.32230E-14 2.97804E-14
 -1      4282 1.76410E+01 1.06805E+00-1.17298E-02 4.08743E-01 6.05862E-14-6.91801E-14
 -1      4283 1.79526E+01 1.05685E+00-2.34592E-03 3.27089E-01 6.88479E-15-7.03146E-14
 -1      4284 1.68241E+01 1.00045E+00-2.22988E-02 7.43242E-01 4.50980E-14-1.63735E-13
 -1      4285 1.72479E+01 1.03379E+00-6.00929E-03 6.12857E-01 9.17913E-14-9.73579E-14
 -1      4286 1.75757E+01 9.52590E-01 1.25580E-02 8.06483E-01 5.89217E-14-3.04109E-13
 -1      4287 1.66853E+01 7.39405E-01 2.03356E-02 1.40859E+00 2.33434E-13-3.36251E-13
 -1      4288 1.95494E+01 5.27194E-01-1.47599E-03-2.89254E-02-9.60053E-14-1.75113E-13
 -1      4289 1.96179E+01 4.74663E-01-8.51887E-04-2.70151E-02-9.08358E-14-1.48860E-13
 -1      4290 2.04167E+01 2.32033E-01-5.35849E-04-1.45503E-02 8.95806E-14-4.17104E-13
 -1      4291 2.01754E+01-8.92723E-02 1.88911E-04-5.64646E-02-1.07650E-14-1.71510E-13
 -1      4292 2.01960E+01-9.38467E-02-9.09758E-04-4.03954E-02-8.58546E-14-1.70839E-13
 -1      4293 2.01578E+01-8.32488E-02 4.23000E-04-5.42646E-02-4.80983E-14-1.73870E-13
 -1      4294 2.01221E+01-6.44748E-02 2.60091E-04-4.97784E-02-1.49527E-14-1.13678E-13
 -1      4295 2.01380E+01-7.52116E-02 2.54142E-05-5.17913E-02-8.83689E-14-1.44604E-13
 -1      4296 2.01559E+01-8.16025E-02-3.66365E-04-3.68648E-02-5.96653E-14-1.40668E-13
 -1      4297 2.01193E+01-5.96513E-02-2.25626E-04-3.47998E-02 2.18202E-14-1.01932E-13
 -1      4298 1.96775E+01 4.24106E-01-1.06869E-03-3.20113E-02-5.87928E-14-1.69634E-13
 -1      4299 1.97305E+01 3.76400E-01-7.17804E-04-2.84526E-02-9.37706E-14-1.76268E-13
 -1      4300 1.72786E+01 5.79740E-01 7.83197E-03 1.48167E+00 1.63128E-13-3.98571E-13
 -1      4301 1.73996E+01 7.22737E-01-1.87390E-02 1.19357E+00 3.92499E-14-4.26036E-13
 -1      4302 1.91788E+01 7.53078E-01-2.73090E-03 4.87126E-03 4.42183E-14-2.30048E-14
 -1      4303 1.92917E+01 6.95935E-01-1.08595E-03-2.71373E-03 5.16424E-15-1.53402E-13
 -1      4304 1.81745E+01 1.03653E+00-6.88310E-03 2.34046E-01-1.63715E-14-4.95486E-14
 -1      4305 1.84099E+01 1.00565E+00-1.36885E-03 1.81463E-01 2.40124E-14 9.02743E-14
 -1      4306 2.01900E+01-9.11110E-02 5.49129E-04-7.84191E-03-1.53476E-13-1.94630E-13
 -1      4307 2.00047E+01 6.67108E-02 2.60003E-05-6.81960E-03-1.27130E-14-1.06093E-13
 -1      4308 2.03033E+01-6.66770E-02 3.57095E-04-3.98444E-04-8.10337E-14-2.98447E-13
 -1      4309 2.01689E+01-8.47074E-02 3.54495E-04-7.65468E-03-1.13471E-13-1.87432E-13
 -1      4310 2.02888E+01-7.42020E-02-3.58340E-04-2.19996E-02-6.20568E-14-3.27187E-13
 -1      4311 1.78094E+01 8.26777E-01 8.13315E-04 9.36756E-01 3.94099E-14-3.59770E-13
 -1      4312 1.97775E+01 3.31121E-01-7.57382E-04-3.09747E-02-7.49455E-14-8.99031E-14
 -1      4313 1.99426E+01 1.45161E-01-3.27871E-04-2.15208E-02-1.89040E-14-9.82984E-15
 -1      4314 2.03973E+01 1.96619E-01-1.54681E-03-2.83088E-02 8.80900E-14-3.44219E-13
 -1      4315 1.98777E+01 2.31126E-01 9.50326E-04-5.43629E-02-2.51917E-14 5.86519E-15
 -1      4316 2.02417E+01-9.32926E-02-5.07884E-04-2.78075E-02-7.16679E-14-2.99853E-13
 -1      4317 1.98185E+01 2.88755E-01-5.82105E-04-2.69405E-02 3.10811E-14-7.08641E-14
 -1      4318 2.02639E+01-8.53789E-02 3.04438E-04-2.86697E-02-5.46768E-14-3.32202E-13
 -1      4319 1.99171E+01 1.77269E-01-3.30601E-04-2.46753E-02-5.54574E-14-9.25530E-15
 -1      4320 2.01198E+01-5.85054E-02-2.18356E-04-2.23672E-02-1.40904E-14-3.30571E-14
 -1      4321 1.98556E+01 2.48932E-01-5.17383E-04-2.80615E-02 2.58305E-14-5.46566E-14
 -1      4322 1.98876E+01 2.11876E-01-4.51216E-04-2.42693E-02 3.16031E-14 2.53767E-14
 -1      4323 2.02876E+01-7.17785E-02-4.75943E-04-3.69752E-02-4.20835E-14-4.18372E-13
 -1      4324 2.01565E+01-8.05189E-02-3.38177E-04-2.47479E-02-5.70554E-14-1.30698E-13
 -1      4325 2.01370E+01-7.00904E-02 1.01448E-04-2.34228E-02-3.95481E-14-1.35976E-13
 -3
    1PSTEP                         3           1           1          
  100CL  101 1.000000000        4325                     0    1           1
 -4  TOSTRAIN    6    1
 -5  EXX         1    4    1    1
 -5  EYY         1    4    2    2
 -5  EZZ         1    4    3    3
 -5  EXY         1    4    1    2
 -5  EYZ         1    4    2    3
 -5  EZX         1    4    3    1
 -1         1 1.43713E-04 1.39843E-06-5.55519E-05-1.16697E-04-4.24279E-18 8.20563E-18
 -1         2 4.18942E-05-1.27612E-04 2.32373E-05-7.09920E-07 2.33817E-17-4.76774E-19
 -1         3 9.48970E-05-2.89399E-05-2.80283E-05-4.82858E-07-1.06585E-18-1.23324E-18
 -1         4 9.51934E-05-2.86117E-05-2.84320E-05 3.63468E-09 1.31384E-18 3.15358E-20
 -1         5 1.43348E-04-2.14785E-05-4.25287E-05 3.85314E-05-2.90903E-19 2.28929E-17
 -1         6 1.45410E-04 2.57580E-10-4.41879E-05-5.35265E-05-1.40777E-18 2.14287E-17
 -1         7 9.06101E-05-5.11244E-07-3.90687E-05-2.92515E-05-1.99900E-19 3.39705E-18
 -1         8 8.51252E-05 8.65024E-08-3.63396E-05-2.02699E-05-2.56942E-19-2.03437E-18
 -1         9 8.28135E-05 7.68814E-08-3.53510E-05-1.56406E-05-2.13677E-19-4.94391E-18
 -1        10 8.17754E-05 3.86828E-08-3.48818E-05-1.20781E-05-1.51493E-19-6.31488E-18
 -1        11 8.12526E-05 1.94856E-08-3.46525E-05-9.01253E-06-1.14369E-19-6.87924E-18
 -1        12 8.09824E-05 9.23180E-09-3.45381E-05-6.28357E-06-4.25187E-20-7.07015E-18
 -1        13 8.08406E-05 4.61575E-09-3.44802E-05-3.68514E-06-2.45970E-20-7.11891E-18
 -1        14 8.07813E-05 2.75465E-09-3.44566E-05-1.18353E-06 1.16601E-20-7.11808E-18
 -1        15 8.07834E-05 2.74482E-09-3.44573E-05 1.28874E-06 3.78843E-20-7.04125E-18
 -1        16 8.08471E-05 4.53842E-09-3.44825E-05 3.79544E-06 8.00132E-20-6.89042E-18
 -1        17 8.09943E-05 8.42042E-09-3.45419E-05 6.40607E-06 9.62160E-20-6.61121E-18
 -1        18 8.12698E-05 1.81764E-08-3.46579E-05 9.15492E-06 1.41723E-19-6.02728E-18
 -1        19 8.17972E-05 3.81911E-08-3.48900E-05 1.22570E-05 2.17641E-19-5.04623E-18
 -1        20 8.28367E-05 8.15118E-08-3.53638E-05 1.58697E-05 2.84921E-19-3.36211E-18
 -1        21 8.50914E-05 1.69426E-07-3.63779E-05 2.04817E-05 3.20761E-19 9.67553E-20
 -1        22 9.16469E-05-9.97443E-08-3.87402E-05 2.79990E-05 5.43160E-20 7.12860E-18
 -1        23 1.12981E-04-3.81286E-05-3.53987E-05-4.40250E-06-9.27475E-19 1.65200E-17
 -1        24 9.28131E-05-2.76996E-05-2.90018E-05 3.91235E-07-2.79435E-19 1.21113E-17
 -1        25 8.91300E-05-2.68553E-05-2.69325E-05 3.76054E-07-6.74152E-20 7.87178E-18
 -1        26 8.80291E-05-2.64924E-05-2.63957E-05 2.04213E-07-1.37370E-20 4.87515E-18
 -1        27 8.80575E-05-2.64713E-05-2.63885E-05 1.39954E-07 4.79632E-20 3.15071E-18
 -1        28 8.85930E-05-2.66082E-05-2.65586E-05 1.00960E-07-1.78621E-19 1.83011E-18
 -1        29 8.93493E-05-2.68213E-05-2.67916E-05 7.52828E-08 1.09099E-19 7.11445E-19
 -1        30 9.01750E-05-2.70613E-05-2.70419E-05 5.69691E-08 3.02636E-20-5.14910E-19
 -1        31 9.09852E-05-2.72999E-05-2.72863E-05 4.31845E-08 1.36600E-19-1.52072E-18
 -1        32 9.17326E-05-2.75215E-05-2.75115E-05 3.24908E-08-2.77780E-19-2.70619E-18
 -1        33 9.23938E-05-2.77183E-05-2.77109E-05 2.40782E-08 8.94040E-20-4.00769E-18
 -1        34 9.29607E-05-2.78875E-05-2.78819E-05 1.74317E-08-2.93174E-19-5.24966E-18
 -1        35 9.34345E-05-2.80293E-05-2.80251E-05 1.21879E-08 1.49201E-19-5.11678E-18
 -1        36 9.38231E-05-2.81458E-05-2.81426E-05 8.07203E-09 1.05627E-19-4.21076E-18
 -1        37 9.41381E-05-2.82404E-05-2.82380E-05 4.87075E-09-2.73919E-19-3.96609E-18
 -1        38 9.43938E-05-2.83175E-05-2.83156E-05 2.42050E-09-5.71097E-20-5.14805E-18
 -1        39 9.46064E-05-2.83817E-05-2.83803E-05 6.04547E-10-2.27353E-20-5.79571E-18
 -1        40 9.47936E-05-2.84384E-05-2.84373E-05-6.46039E-10 3.86360E-20-5.94247E-18
 -1        41 9.49749E-05-2.84934E-05-2.84927E-05-1.34892E-09 1.31376E-19-5.99069E-18
 -1        42 9.51722E-05-2.85533E-05-2.85530E-05-1.46540E-09-2.16772E-19-5.59517E-18
 -1        43 9.54097E-05-2.86254E-05-2.86255E-05-8.94416E-10-3.29219E-19-5.04212E-18
 -1        44 9.57153E-05-2.87179E-05-2.87187E-05 5.32890E-10-6.49075E-20-4.97721E-18
 -1        45 9.61199E-05-2.88401E-05-2.88418E-05 3.05543E-09 3.77142E-20-4.41889E-18
 -1        46 9.66579E-05-2.90022E-05-2.90052E-05 6.97589E-09-3.91132E-20-4.97667E-18
 -1        47 9.73651E-05-2.92149E-05-2.92195E-05 1.26361E-08-1.04476E-19-3.97988E-18
 -1        48 9.82763E-05-2.94884E-05-2.94950E-05 2.03571E-08-4.37066E-20-4.94427E-18
 -1        49 9.94192E-05-2.98306E-05-2.98394E-05 3.03161E-08 2.63593E-19-4.83519E-18
 -1        50 1.00805E-04-3.02448E-05-3.02554E-05 4.23184E-08-3.91626E-19-5.06141E-18
 -1        51 1.02413E-04-3.07244E-05-3.07356E-05 5.54102E-08 2.57044E-20-4.70277E-18
 -1        52 1.04173E-04-3.12479E-05-3.12566E-05 6.72882E-08-6.16072E-20-3.72880E-18
 -1        53 1.05933E-04-3.17701E-05-3.17712E-05 7.35324E-08 1.65201E-19-4.29615E-18
 -1        54 1.07438E-04-3.22155E-05-3.22009E-05 6.69098E-08-4.00417E-20-3.79360E-18
 -1        55 1.08314E-04-3.24725E-05-3.24328E-05 3.74507E-08-3.79097E-21-4.53462E-18
 -1        56 1.08083E-04-3.23999E-05-3.23283E-05-2.53341E-08-1.59567E-19-4.33999E-18
 -1        57 1.06250E-04-3.18516E-05-3.17512E-05-1.26382E-07-2.43764E-19-2.94586E-18
 -1        58 1.02486E-04-3.07294E-05-3.06219E-05-2.54914E-07 1.72660E-19-2.82574E-18
 -1        59 9.68850E-05-2.90599E-05-2.89869E-05-3.74997E-07-3.20599E-19-3.49642E-18
 -1        60 9.01864E-05-2.70619E-05-2.70711E-05-4.28752E-07 1.90133E-19-1.29495E-18
 -1        61 8.37736E-05-2.51470E-05-2.52617E-05-3.63373E-07 3.86007E-19-1.89992E-18
 -1        62 7.92712E-05-2.38014E-05-2.39932E-05-1.74076E-07 4.30961E-21-2.72717E-18
 -1        63 7.78351E-05-2.33720E-05-2.35669E-05 7.26571E-08-4.50120E-19-4.23640E-18
 -1        64 7.95545E-05-2.38856E-05-2.40073E-05 2.73311E-07-1.61095E-19-6.09174E-18
 -1        65 8.34138E-05-2.50375E-05-2.50521E-05 3.53190E-07 4.67917E-19-5.05292E-18
 -1        66 8.78476E-05-2.63591E-05-2.62880E-05 3.07655E-07 4.88800E-19-3.69801E-18
 -1        67 9.14976E-05-2.74460E-05-2.73422E-05 1.90311E-07 3.36825E-19-2.65461E-18
 -1        68 9.37101E-05-2.81043E-05-2.80213E-05 7.03163E-08 3.77467E-19-5.49509E-19
 -1        69 9.46001E-05-2.83693E-05-2.83379E-05-6.30173E-10-3.65853E-19-1.25712E-18
 -1        70 9.47971E-05-2.84274E-05-2.84400E-05 1.07765E-08 1.51293E-19-1.13345E-18
 -1        71 9.49956E-05-2.84911E-05-2.84725E-05 6.50900E-08-3.36885E-19-1.02169E-18
 -1        72 1.02184E-04-3.05889E-05-3.41517E-05-1.92914E-06 2.65439E-19 2.08027E-17
 -1        73 9.25698E-05-2.75158E-05-2.89101E-05-3.33274E-07 2.06051E-19 1.55204E-17
 -1        74 8.91180E-05-2.67049E-05-2.69758E-05-1.25967E-07 1.69761E-19 1.15438E-17
 -1        75 8.80592E-05-2.64433E-05-2.64398E-05-9.56273E-08 5.64282E-20 8.71046E-18
 -1        76 8.80922E-05-2.64513E-05-2.64151E-05-7.66341E-08 5.93109E-20 7.02902E-18
 -1        77 8.86269E-05-2.66026E-05-2.65756E-05-6.25935E-08-3.33364E-20 5.82059E-18
 -1        78 8.93806E-05-2.68226E-05-2.68039E-05-5.18255E-08-2.03135E-20 5.07094E-18
 -1        79 9.02028E-05-2.70659E-05-2.70513E-05-4.29432E-08 1.63590E-19 3.66055E-18
 -1        80 9.10091E-05-2.73059E-05-2.72935E-05-3.53002E-08-1.55409E-19 2.53890E-18
 -1        81 9.17526E-05-2.75278E-05-2.75170E-05-2.86253E-08 9.11190E-20 2.60493E-18
 -1        82 9.24101E-05-2.77243E-05-2.77149E-05-2.28008E-08 4.52404E-20 2.16813E-18
 -1        83 9.29732E-05-2.78928E-05-2.78847E-05-1.77469E-08-7.61079E-20 1.42001E-18
 -1        84 9.34433E-05-2.80336E-05-2.80268E-05-1.33864E-08 1.88010E-19 8.00811E-19
 -1        85 9.38281E-05-2.81489E-05-2.81432E-05-9.63494E-09 1.37175E-19-1.59574E-18
 -1        86 9.41390E-05-2.82421E-05-2.82375E-05-6.40104E-09 8.29858E-20-3.70493E-18
 -1        87 9.43901E-05-2.83176E-05-2.83138E-05-3.58937E-09-2.27676E-19-2.87714E-18
 -1        88 9.45973E-05-2.83799E-05-2.83770E-05-1.10617E-09 7.63617E-20-2.89384E-18
 -1        89 9.47784E-05-2.84344E-05-2.84324E-05 1.13511E-09 4.62538E-19-5.31587E-18
 -1        90 9.49529E-05-2.84871E-05-2.84859E-05 3.20795E-09-4.23795E-19-5.25930E-18
 -1        91 9.51434E-05-2.85447E-05-2.85444E-05 5.16566E-09-2.21153E-19-2.02147E-18
 -1        92 9.53763E-05-2.86151E-05-2.86158E-05 7.03209E-09-1.03275E-19-1.01307E-18
 -1        93 9.56832E-05-2.87078E-05-2.87099E-05 8.78736E-09 6.81928E-20-1.85263E-18
 -1        94 9.61030E-05-2.88344E-05-2.88384E-05 1.03444E-08-8.06020E-20-3.81989E-18
 -1        95 9.66842E-05-2.90095E-05-2.90160E-05 1.15090E-08-2.18453E-19-3.81074E-18
 -1        96 9.74868E-05-2.92511E-05-2.92611E-05 1.19117E-08 3.07643E-19-3.48231E-18
 -1        97 9.85861E-05-2.95815E-05-2.95965E-05 1.08940E-08-2.63331E-20-3.13186E-18
 -1        98 1.00074E-04-3.00280E-05-3.00501E-05 7.32207E-09 2.19598E-19-2.56391E-18
 -1        99 1.02060E-04-3.06231E-05-3.06549E-05-6.94623E-10-5.12018E-19-3.45752E-18
 -1       100 1.04667E-04-3.14029E-05-3.14477E-05-1.61786E-08-3.44689E-19-1.54875E-18
 -1       101 1.08018E-04-3.24028E-05-3.24632E-05-4.36326E-08-2.49277E-19-1.83022E-18
 -1       102 1.12195E-04-3.36470E-05-3.37220E-05-8.88976E-08 4.21128E-19-3.49010E-18
 -1       103 1.17169E-04-3.51268E-05-3.52049E-05-1.57248E-07-4.45345E-19-2.88195E-18
 -1       104 1.22661E-04-3.67615E-05-3.68086E-05-2.47199E-07-5.16305E-20-4.74312E-19
 -1       105 1.27930E-04-3.83387E-05-3.82848E-05-3.36301E-07 1.69764E-19-6.03260E-19
 -1       106 1.31540E-04-3.94456E-05-3.91876E-05-3.57840E-07-2.59000E-19-4.18553E-21
 -1       107 1.31322E-04-3.94460E-05-3.89080E-05-1.90001E-07 3.49027E-19 5.16425E-20
 -1       108 1.24981E-04-3.76348E-05-3.69083E-05 2.84314E-07 2.62216E-19-3.07034E-18
 -1       109 1.11798E-04-3.37134E-05-3.31986E-05 9.87901E-07-5.49182E-20-7.41577E-19
 -1       110 9.48929E-05-2.85197E-05-2.87657E-05 1.46709E-06-1.64437E-19-7.39936E-19
 -1       111 8.14517E-05-2.42642E-05-2.53679E-05 1.15899E-06 1.03629E-19 1.00236E-18
 -1       112 7.84206E-05-2.32223E-05-2.45628E-05 1.01838E-07-4.61209E-19 1.47736E-18
 -1       113 8.66425E-05-2.57790E-05-2.64919E-05-9.42295E-07 8.55591E-19 2.84338E-19
 -1       114 9.99306E-05-2.99554E-05-2.97929E-05-1.25518E-06-5.11547E-19-2.77927E-18
 -1       115 1.10601E-04-3.32826E-05-3.26249E-05-9.10187E-07 8.54253E-19-4.82684E-18
 -1       116 1.14645E-04-3.45225E-05-3.38479E-05-3.46536E-07 3.05627E-20-3.91606E-18
 -1       117 1.12312E-04-3.37928E-05-3.33651E-05 1.19279E-07 1.91195E-19-4.63168E-18
 -1       118 1.06192E-04-3.19101E-05-3.17968E-05 3.91007E-07 3.20157E-19-5.83723E-18
 -1       119 9.95126E-05-2.98599E-05-3.00243E-05 4.49780E-07-5.41238E-19-2.37472E-18
 -1       120 9.53981E-05-2.84700E-05-2.87757E-05 1.19619E-07 1.10825E-18-1.47354E-18
 -1       121 9.51210E-05-2.81029E-05-2.88503E-05-1.10522E-08-2.30701E-18-1.03405E-18
 -1       122 9.37747E-05-2.37658E-05-3.02636E-05 3.14649E-07-2.44857E-18 2.26044E-19
 -1       123 9.13847E-05-1.57448E-05-3.25771E-05 5.22787E-07-1.54427E-18 9.86374E-19
 -1       124 8.83986E-05-5.72343E-06-3.54458E-05 6.26661E-07-1.00546E-17 3.12317E-19
 -1       125 8.54137E-05 4.29225E-06-3.82831E-05 5.84892E-07-1.26863E-17-9.78409E-19
 -1       126 8.31695E-05 1.18455E-05-4.04008E-05 3.81234E-07-1.94183E-17 1.97703E-19
 -1       127 8.22018E-05 1.50826E-05-4.13057E-05 3.31240E-08-1.60319E-17-8.89176E-19
 -1       128 8.28442E-05 1.29293E-05-4.07182E-05-3.21247E-07-1.17961E-17 4.42968E-19
 -1       129 8.48581E-05 6.17304E-06-3.88435E-05-5.43875E-07-5.11264E-18 1.58691E-18
 -1       130 8.76163E-05-3.08897E-06-3.62340E-05-5.76220E-07-4.07873E-19-2.05694E-18
 -1       131 9.04010E-05-1.24415E-05-3.35469E-05-4.53461E-07-4.55950E-18 4.24531E-19
 -1       132 9.26443E-05-1.99939E-05-3.13246E-05-2.73458E-07-4.88537E-18 5.44449E-19
 -1       133 9.41950E-05-2.51885E-05-2.97508E-05-9.47906E-08-3.31134E-18 5.47248E-19
 -1       134 9.50187E-05-2.79454E-05-2.88744E-05 3.04062E-08 1.23298E-18 1.53363E-18
 -1       135 9.53129E-05-2.88661E-05-2.85342E-05 9.03679E-08 1.34849E-18-9.31045E-19
 -1       136 9.52545E-05-2.87595E-05-2.84885E-05 1.69492E-07-1.06206E-18 5.37960E-19
 -1       137 2.91134E-05-9.93848E-05 1.79177E-05-2.80833E-05 1.78245E-17 4.37127E-18
 -1       138 8.36164E-06-3.87634E-05 4.36195E-06-2.14175E-05 1.18140E-17 5.69947E-18
 -1       139 1.59462E-05 1.67543E-05-1.73173E-05 2.99832E-05 5.81065E-19 3.07049E-19
 -1       140 7.43676E-05 2.62360E-05-4.04933E-05 9.11538E-05-1.31163E-18-6.70003E-19
 -1       141 1.79325E-04-1.38934E-05-6.24882E-05 1.23167E-04-3.04657E-18-7.91891E-18
 -1       142 2.80947E-04-7.11201E-05-7.72618E-05 9.28331E-05-3.29782E-18-1.20609E-17
 -1       143 3.28713E-04-1.01587E-04-8.30968E-05 1.43551E-05-6.85938E-19-1.16201E-17
 -1       144 2.97504E-04-8.38928E-05-7.87546E-05-6.86057E-05 2.55436E-18-1.10923E-17
 -1       145 2.00967E-04-3.03424E-05-6.45122E-05-1.11097E-04 5.89556E-18-1.37723E-17
 -1       146 8.89523E-05 1.59595E-05-4.23200E-05-9.08538E-05 1.05917E-17-1.35119E-17
 -1       147 2.04272E-05 1.58437E-05-1.88037E-05-3.33653E-05 1.42801E-17-1.27788E-17
 -1       148 5.87568E-06-3.17872E-05 2.92869E-06 1.97041E-05 1.27500E-17-6.04930E-18
 -1       149 2.39330E-05-8.73666E-05 1.61213E-05 3.03254E-05 1.38935E-17-4.17487E-18
 -1       150 3.84546E-05-1.18388E-04 2.20671E-05 9.68875E-06 8.91672E-18-6.40013E-19
 -1       151 3.23267E-05-1.05058E-04 1.97075E-05-1.94867E-05-1.25636E-18-5.75427E-19
 -1       152 1.27064E-05-5.09657E-05 7.65330E-06-2.21492E-05-8.94424E-18-3.96634E-18
 -1       153 6.73004E-06 5.15704E-06-9.82872E-06 1.01376E-05-1.19584E-17-8.50103E-18
 -1       154 4.31475E-05 2.96652E-05-3.10559E-05 6.73375E-05-9.26908E-18-8.32210E-18
 -1       155 1.24947E-04 7.81264E-06-5.16929E-05 1.10086E-04-2.91718E-18-3.14715E-18
 -1       156 2.26517E-04-4.32308E-05-6.90003E-05 1.07034E-04-5.84664E-19-3.38347E-18
 -1       157 3.05822E-04-9.00480E-05-8.00543E-05 4.93606E-05-5.01907E-19-2.06718E-18
 -1       158 3.13808E-04-9.49368E-05-8.09943E-05-3.98332E-05-1.53838E-18 7.22254E-18
 -1       159 2.45129E-04-5.20374E-05-7.20512E-05-1.06718E-04-3.27283E-18 9.64516E-18
 -1       160 5.56597E-05 2.95816E-05-3.50156E-05-7.84145E-05-2.58684E-18 2.50129E-18
 -1       161 1.06791E-05 1.11924E-05-1.33904E-05-1.97840E-05 2.67239E-19-6.73815E-19
 -1       162 9.95801E-06-4.34802E-05 5.55269E-06 2.22012E-05 1.07582E-17-3.44742E-18
 -1       163 3.02243E-05-1.01640E-04 1.84463E-05 2.69955E-05 2.12963E-17-5.54947E-18
 -1       164 9.48725E-05-1.23490E-05-3.55702E-05-2.23475E-05-3.21032E-18 5.51604E-19
 -1       165 8.92454E-05-8.45173E-06-3.47884E-05-1.73847E-05-2.97271E-18-2.79292E-18
 -1       166 8.65557E-05-6.51005E-06-3.44161E-05-1.35931E-05-2.37188E-18-4.63680E-18
 -1       167 8.51906E-05-5.51423E-06-3.42301E-05-1.03668E-05-1.79130E-18-5.51760E-18
 -1       168 8.44457E-05-4.94419E-06-3.41412E-05-7.54647E-06-1.19859E-18-5.81708E-18
 -1       169 8.40181E-05-4.59901E-06-3.40985E-05-4.90319E-06-6.39170E-19-5.92159E-18
 -1       170 8.37997E-05-4.41472E-06-3.40802E-05-2.39493E-06-4.04547E-20-5.95608E-18
 -1       171 8.37352E-05-4.35895E-06-3.40755E-05 5.12096E-08 3.95365E-19-5.99240E-18
 -1       172 8.38096E-05-4.42309E-06-3.40810E-05 2.49939E-06 8.40317E-19-5.88064E-18
 -1       173 8.40401E-05-4.61823E-06-3.40999E-05 5.01410E-06 1.26055E-18-5.72007E-18
 -1       174 8.44737E-05-4.97146E-06-3.41420E-05 7.62315E-06 1.71187E-18-5.24834E-18
 -1       175 8.52506E-05-5.57411E-06-3.42320E-05 1.05122E-05 2.35739E-18-4.53518E-18
 -1       176 8.66478E-05-6.60852E-06-3.44188E-05 1.37830E-05 2.98880E-18-3.37690E-18
 -1       177 8.93941E-05-8.60048E-06-3.47928E-05 1.76225E-05 3.33501E-18-1.12151E-18
 -1       178 9.57833E-05-1.36147E-05-3.54266E-05 2.18935E-05 3.21951E-18 3.08323E-18
 -1       179 1.05610E-04-2.61036E-05-3.52644E-05 1.86628E-05 2.37884E-18 8.69019E-18
 -1       180 1.03404E-04-2.73038E-05-3.26122E-05-1.21278E-05-2.81694E-18 4.56336E-18
 -1       181 9.71139E-05-2.82909E-05-2.95307E-05-4.73031E-06-2.51471E-18 3.17236E-18
 -1       182 9.35143E-05-2.76391E-05-2.81842E-05-1.76802E-06-1.84589E-18 2.08110E-18
 -1       183 9.19795E-05-2.74080E-05-2.76382E-05-4.20443E-07-1.19248E-18 8.80117E-19
 -1       184 9.14041E-05-2.73331E-05-2.74408E-05 2.43546E-07-8.38760E-19 1.49225E-19
 -1       185 9.13626E-05-2.73721E-05-2.74159E-05 5.69050E-07-7.07571E-19-2.22364E-19
 -1       186 9.16062E-05-2.74748E-05-2.74809E-05 7.07270E-07-8.20884E-19-7.79616E-19
 -1       187 9.19894E-05-2.76070E-05-2.75907E-05 7.37351E-07-6.84428E-19-1.14491E-18
 -1       188 9.24251E-05-2.77471E-05-2.77186E-05 7.05259E-07-6.32562E-19-1.47517E-18
 -1       189 9.28618E-05-2.78823E-05-2.78484E-05 6.39583E-07-8.05912E-19-1.52104E-18
 -1       190 9.32699E-05-2.80057E-05-2.79708E-05 5.58727E-07-8.89435E-19-2.45039E-18
 -1       191 9.36348E-05-2.81140E-05-2.80810E-05 4.74685E-07-4.87220E-21-2.68262E-18
 -1       192 9.39516E-05-2.82065E-05-2.81771E-05 3.95275E-07 3.89011E-19-2.45906E-18
 -1       193 9.42219E-05-2.82842E-05-2.82596E-05 3.25597E-07-6.35915E-20-2.58900E-18
 -1       194 9.44516E-05-2.83491E-05-2.83301E-05 2.69057E-07-7.46359E-19-2.28229E-18
 -1       195 9.46498E-05-2.84040E-05-2.83913E-05 2.28114E-07-4.84525E-19-2.84070E-18
 -1       196 9.48281E-05-2.84526E-05-2.84467E-05 2.04845E-07-2.74188E-19-3.00555E-18
 -1       197 9.49999E-05-2.84986E-05-2.85003E-05 2.01341E-07 2.77388E-19-3.30572E-18
 -1       198 9.51807E-05-2.85467E-05-2.85569E-05 2.19984E-07-6.37879E-20-2.91855E-18
 -1       199 9.53879E-05-2.86020E-05-2.86218E-05 2.63569E-07 2.46911E-19-2.99758E-18
 -1       200 9.56415E-05-2.86702E-05-2.87008E-05 3.35263E-07-2.58505E-19-2.79624E-18
 -1       201 9.59632E-05-2.87579E-05-2.88007E-05 4.38335E-07-1.20629E-19-2.37242E-18
 -1       202 9.63768E-05-2.88725E-05-2.89286E-05 5.75565E-07 3.19868E-19-2.05899E-18
 -1       203 9.69071E-05-2.90220E-05-2.90915E-05 7.48189E-07 7.31914E-19-1.81976E-18
 -1       204 9.75778E-05-2.92144E-05-2.92963E-05 9.54213E-07-5.36392E-19-2.13038E-18
 -1       205 9.84084E-05-2.94577E-05-2.95482E-05 1.18584E-06 5.92642E-20-2.08341E-18
 -1       206 9.94089E-05-2.97579E-05-2.98488E-05 1.42586E-06 1.15356E-19-2.60298E-18
 -1       207 1.00572E-04-3.01173E-05-3.01941E-05 1.64289E-06 4.20843E-19-1.76140E-18
 -1       208 1.01861E-04-3.05315E-05-3.05708E-05 1.78596E-06 5.80592E-19-1.43399E-18
 -1       209 1.03199E-04-3.09847E-05-3.09524E-05 1.78005E-06-6.30632E-19-1.60413E-18
 -1       210 1.04452E-04-3.14436E-05-3.12957E-05 1.52606E-06 3.66356E-19-2.25008E-18
 -1       211 1.05421E-04-3.18497E-05-3.15396E-05 9.12083E-07-1.31224E-20-2.83299E-18
 -1       212 1.05839E-04-3.21124E-05-3.16084E-05-1.54406E-07 4.32050E-19-2.35944E-18
 -1       213 1.05407E-04-3.21078E-05-3.14252E-05-1.68490E-06 6.04303E-19-1.20602E-18
 -1       214 1.03860E-04-3.16955E-05-3.09365E-05-3.52378E-06-3.57822E-20-1.75829E-18
 -1       215 1.01097E-04-3.07695E-05-3.01445E-05-5.27684E-06-1.43685E-19-2.49880E-18
 -1       216 9.73343E-05-2.93488E-05-2.91352E-05-6.33734E-06-1.51316E-19-2.34048E-18
 -1       217 9.32042E-05-2.76694E-05-2.80799E-05-6.09801E-06-4.09999E-19-1.70486E-18
 -1       218 8.96631E-05-2.61836E-05-2.71960E-05-4.32144E-06-5.01195E-19-1.57363E-18
 -1       219 8.76445E-05-2.53861E-05-2.66705E-05-1.44369E-06-6.35020E-19-2.20857E-18
 -1       220 8.75783E-05-2.55111E-05-2.65880E-05 1.52195E-06-7.13675E-19-2.49600E-18
 -1       221 8.91551E-05-2.63806E-05-2.68929E-05 3.52693E-06 1.68116E-18-1.92263E-18
 -1       222 9.15168E-05-2.75246E-05-2.74192E-05 4.05552E-06 1.14636E-18-3.99072E-19
 -1       223 9.37287E-05-2.84715E-05-2.79667E-05 3.31128E-06 8.05775E-19-4.27652E-19
 -1       224 9.51879E-05-2.89688E-05-2.83827E-05 1.95869E-06 1.13551E-18-6.23815E-19
 -1       225 9.57646E-05-2.90194E-05-2.86102E-05 7.13081E-07-3.82473E-19-1.54693E-18
 -1       226 9.56828E-05-2.87792E-05-2.86771E-05 4.17633E-08 5.27697E-19-1.71039E-18
 -1       227 9.53581E-05-2.85231E-05-2.86433E-05 1.85529E-08 1.85032E-19-3.17424E-19
 -1       228 9.95072E-05-2.85564E-05-3.05891E-05 7.21066E-06 2.53573E-18 7.36786E-18
 -1       229 9.44238E-05-2.77929E-05-2.85267E-05 2.74304E-06 2.05761E-18 5.51755E-18
 -1       230 9.21048E-05-2.74035E-05-2.76841E-05 9.29083E-07 1.41305E-18 3.88823E-18
 -1       231 9.11571E-05-2.72412E-05-2.73655E-05 6.70478E-08 9.32308E-19 2.86627E-18
 -1       232 9.09462E-05-2.72343E-05-2.72916E-05-3.60824E-07 5.80943E-19 2.10654E-18
 -1       233 9.11305E-05-2.73205E-05-2.73404E-05-5.61380E-07 5.01869E-19 1.53822E-18
 -1       234 9.15143E-05-2.74537E-05-2.74510E-05-6.33909E-07 8.37529E-19 1.16432E-18
 -1       235 9.19827E-05-2.76046E-05-2.75887E-05-6.32458E-07 3.87045E-19 9.97914E-19
 -1       236 9.24675E-05-2.77555E-05-2.77327E-05-5.89279E-07 1.19569E-19 6.34303E-21
 -1       237 9.29291E-05-2.78962E-05-2.78708E-05-5.24743E-07 2.02325E-19 3.35193E-19
 -1       238 9.33467E-05-2.80216E-05-2.79963E-05-4.52019E-07 4.84000E-19-2.44541E-20
 -1       239 9.37112E-05-2.81299E-05-2.81064E-05-3.79669E-07 7.73365E-19-6.20594E-19
 -1       240 9.40221E-05-2.82211E-05-2.82006E-05-3.13246E-07 1.18374E-18-1.16253E-18
 -1       241 9.42839E-05-2.82971E-05-2.82802E-05-2.56376E-07 5.99219E-19-1.57433E-18
 -1       242 9.45048E-05-2.83604E-05-2.83477E-05-2.11536E-07-4.40281E-19-1.78305E-18
 -1       243 9.46960E-05-2.84145E-05-2.84064E-05-1.80657E-07 4.61761E-20-1.88327E-18
 -1       244 9.48707E-05-2.84632E-05-2.84602E-05-1.65599E-07 1.34306E-18-1.66298E-18
 -1       245 9.50445E-05-2.85112E-05-2.85140E-05-1.68547E-07-4.86534E-19-1.99193E-18
 -1       246 9.52358E-05-2.85637E-05-2.85733E-05-1.92353E-07-1.19298E-18-2.03449E-18
 -1       247 9.54660E-05-2.86270E-05-2.86446E-05-2.40860E-07-4.36844E-19-1.43678E-18
 -1       248 9.57611E-05-2.87083E-05-2.87359E-05-3.19197E-07 3.18685E-19-1.07312E-18
 -1       249 9.61520E-05-2.88167E-05-2.88567E-05-4.34086E-07 9.04153E-19-2.14541E-18
 -1       250 9.66767E-05-2.89630E-05-2.90185E-05-5.94100E-07 3.79056E-19-3.61806E-18
 -1       251 9.73812E-05-2.91605E-05-2.92354E-05-8.09832E-07-1.87861E-19-3.66016E-18
 -1       252 9.83207E-05-2.94253E-05-2.95242E-05-1.09377E-06-4.79713E-19-2.50821E-18
 -1       253 9.95601E-05-2.97764E-05-2.99047E-05-1.45949E-06-3.34579E-19-2.25450E-18
 -1       254 1.01173E-04-3.02365E-05-3.03990E-05-1.91938E-06 5.07351E-20-1.77010E-18
 -1       255 1.03237E-04-3.08305E-05-3.10297E-05-2.47928E-06-1.22899E-18-2.73225E-18
 -1       256 1.05822E-04-3.15848E-05-3.18158E-05-3.12754E-06-5.67593E-19-1.50332E-18
 -1       257 1.08963E-04-3.25224E-05-3.27634E-05-3.81411E-06 7.32482E-19-1.20863E-18
 -1       258 1.12623E-04-3.36548E-05-3.38506E-05-4.41515E-06-4.77512E-19-1.41960E-18
 -1       259 1.16615E-04-3.49651E-05-3.50026E-05-4.68242E-06-5.54781E-19-2.78359E-18
 -1       260 1.20503E-04-3.63750E-05-3.60628E-05-4.19625E-06-2.41782E-19-1.68921E-18
 -1       261 1.23508E-04-3.76854E-05-3.67761E-05-2.38271E-06-9.20010E-19-9.05091E-19
 -1       262 1.24475E-04-3.84812E-05-3.68259E-05 1.25015E-06 8.63557E-19-1.16834E-18
 -1       263 1.22130E-04-3.80853E-05-3.59736E-05 6.48588E-06 1.03303E-18-1.10607E-18
 -1       264 1.15827E-04-3.57846E-05-3.42836E-05 1.15399E-05-1.40624E-18-1.39021E-18
 -1       265 1.06797E-04-3.16803E-05-3.22586E-05 1.30074E-05-4.08707E-19 1.14760E-19
 -1       266 9.88202E-05-2.76530E-05-3.06526E-05 8.29582E-06-5.89588E-19 1.19264E-18
 -1       267 9.61765E-05-2.63771E-05-3.00742E-05-7.07631E-07 3.32990E-19 1.24171E-18
 -1       268 9.98560E-05-2.86512E-05-3.05911E-05-8.24074E-06 2.52373E-18-7.13863E-19
 -1       269 1.06374E-04-3.22826E-05-3.17348E-05-9.82458E-06 5.28535E-20-1.64200E-18
 -1       270 1.11284E-04-3.46922E-05-3.27702E-05-6.19364E-06 1.54953E-18-1.86725E-18
 -1       271 1.12423E-04-3.50555E-05-3.31186E-05-7.79412E-07-2.03420E-20-2.44399E-18
 -1       272 1.10016E-04-3.38438E-05-3.26349E-05 3.57273E-06 1.01694E-18-1.86939E-18
 -1       273 1.05526E-04-3.18806E-05-3.15746E-05 5.63893E-06-5.84654E-19-1.73761E-18
 -1       274 1.00649E-04-2.97960E-05-3.03894E-05 5.23342E-06-5.43224E-19-1.80578E-18
 -1       275 9.67663E-05-2.81402E-05-2.94263E-05 2.72717E-06-2.77372E-19-2.19505E-18
 -1       276 9.54713E-05-2.55213E-05-2.99729E-05 4.76067E-06-3.94844E-19 5.27705E-19
 -1       277 9.37615E-05-2.09982E-05-3.11807E-05 7.88347E-06-1.72025E-18-2.13681E-19
 -1       278 9.15103E-05-1.50917E-05-3.27557E-05 9.76871E-06-2.67756E-18-3.58452E-18
 -1       279 8.89284E-05-8.56788E-06-3.44533E-05 9.76673E-06-4.94454E-18-1.39118E-18
 -1       280 8.65321E-05-2.83691E-06-3.58907E-05 7.50808E-06-7.14838E-18-3.60698E-18
 -1       281 8.49542E-05 8.01680E-07-3.67773E-05 3.15227E-06-6.04611E-18 1.09360E-19
 -1       282 8.48314E-05 1.13052E-06-3.68660E-05-2.11635E-06-5.53380E-18 2.73582E-18
 -1       283 8.62027E-05-1.91217E-06-3.61469E-05-6.62156E-06-2.05052E-18 4.61493E-18
 -1       284 8.85249E-05-7.32093E-06-3.48174E-05-9.08411E-06-3.35281E-18 2.44283E-18
 -1       285 9.10235E-05-1.35600E-05-3.32047E-05-9.20708E-06-2.29793E-18-1.23170E-18
 -1       286 9.30623E-05-1.91688E-05-3.16646E-05-7.62236E-06-1.00084E-18-2.49458E-19
 -1       287 9.44577E-05-2.35471E-05-3.03796E-05-5.22655E-06 6.61606E-19 1.13931E-18
 -1       288 9.51808E-05-2.63609E-05-2.94810E-05-2.87492E-06 1.28994E-18 2.43584E-18
 -1       289 9.53753E-05-2.78154E-05-2.89463E-05-1.08182E-06-2.05564E-19 3.38003E-20
 -1       290 9.55163E-05-2.83341E-05-2.87814E-05-3.63991E-07 3.75381E-19-2.14850E-18
 -1       291 1.43172E-05-5.50043E-05 1.37094E-05 8.23513E-06 1.12332E-17-2.19487E-19
 -1       292 3.00287E-05-5.07834E-05 5.72037E-06 2.26414E-05 8.04999E-18-1.78340E-18
 -1       293 6.73214E-05-4.65716E-05-1.02767E-05 4.11922E-05 2.65015E-18-5.29295E-18
 -1       294 1.04915E-04-3.73462E-05-2.90917E-05 4.69279E-05-9.04208E-20-2.84180E-18
 -1       295 1.52565E-04-3.65998E-05-4.83074E-05 4.40523E-05 4.07635E-20-7.25166E-18
 -1       296 1.93907E-04-3.55837E-05-6.46648E-05 3.90902E-05-3.77221E-19-7.27411E-18
 -1       297 2.11777E-04-3.42125E-05-7.26018E-05 1.61237E-05-1.17123E-18-8.31490E-18
 -1       298 2.21649E-04-3.91852E-05-7.41534E-05-4.49908E-06-1.52572E-19-9.46183E-18
 -1       299 1.95659E-04-3.69163E-05-6.53902E-05-2.01025E-05 3.25721E-18-6.14522E-18
 -1       300 1.59388E-04-4.13985E-05-4.94971E-05-2.93691E-05 5.71911E-18-6.04316E-18
 -1       301 1.12034E-04-4.12442E-05-3.04768E-05-3.99774E-05 6.79087E-18-6.55434E-18
 -1       302 7.12995E-05-4.70640E-05-1.15340E-05-3.73979E-05 6.40484E-18-7.19464E-18
 -1       303 3.04087E-05-4.77351E-05 4.55010E-06-2.01491E-05 7.67666E-18-3.12812E-18
 -1       304 1.45680E-05-5.15162E-05 1.25616E-05-7.86637E-06 5.47173E-18-4.11404E-18
 -1       305 1.20527E-05-5.41571E-05 1.45298E-05 5.37648E-06 1.76347E-18-4.36751E-18
 -1       306 2.36702E-05-4.39676E-05 6.70823E-06 2.49397E-05 4.55492E-19-3.96094E-18
 -1       307 4.56599E-05-3.98011E-05-4.57917E-06 3.17367E-05-2.00726E-18-3.00278E-18
 -1       308 8.35123E-05-3.47209E-05-2.15787E-05 4.36830E-05-3.27103E-18-2.13537E-18
 -1       309 1.24913E-04-3.03138E-05-3.97833E-05 4.87197E-05-4.71204E-18-2.16417E-19
 -1       310 1.67670E-04-3.33894E-05-5.57675E-05 3.74787E-05-1.42311E-18-1.42725E-18
 -1       311 1.92678E-04-3.08632E-05-6.71858E-05 1.65936E-05-1.31290E-18-3.93764E-19
 -1       312 2.19733E-04-3.78245E-05-7.42123E-05-6.34484E-08-3.68915E-18 1.15691E-18
 -1       313 2.09926E-04-3.62438E-05-7.07828E-05-2.58030E-05-2.52321E-18 2.43109E-18
 -1       314 1.75562E-04-3.32826E-05-5.88339E-05-3.78333E-05-1.18378E-18 2.96589E-18
 -1       315 1.36795E-04-3.32748E-05-4.32316E-05-4.82927E-05 3.26108E-20 4.75122E-18
 -1       316 9.15170E-05-3.40878E-05-2.50084E-05-4.65533E-05 8.94890E-19 1.96660E-18
 -1       317 5.87612E-05-4.42148E-05-7.87565E-06-3.86608E-05 4.27180E-18 3.10379E-18
 -1       318 2.88787E-05-4.98879E-05 6.07218E-06-2.43958E-05 9.34955E-18 3.15509E-18
 -1       319 1.48754E-05-5.71409E-05 1.42364E-05-7.86250E-06 1.21364E-17-1.41560E-18
 -1       320 9.16334E-05-1.44455E-05-3.31581E-05-1.29815E-05-3.07904E-18-2.62908E-18
 -1       321 9.57138E-05-1.91124E-05-3.28917E-05-1.46352E-05-3.43704E-18-6.61950E-19
 -1       322 8.80018E-05-1.03742E-05-3.33242E-05-8.15339E-06-1.85599E-18-4.25226E-18
 -1       323 8.71880E-05-9.45381E-06-3.33632E-05-5.71759E-06-1.14617E-18-4.50246E-18
 -1       324 8.67282E-05-8.92409E-06-3.33896E-05-3.36677E-06-3.95484E-19-4.57052E-18
 -1       325 8.65231E-05-8.68426E-06-3.34030E-05-1.07241E-06 2.48030E-19-4.73396E-18
 -1       326 8.65316E-05-8.69374E-06-3.34027E-05 1.20345E-06 7.59542E-19-4.67407E-18
 -1       327 8.67554E-05-8.95454E-06-3.33884E-05 3.49980E-06 1.27509E-18-4.67122E-18
 -1       328 8.72278E-05-9.49859E-06-3.33612E-05 5.81432E-06 1.88127E-18-4.31635E-18
 -1       329 8.80676E-05-1.04503E-05-3.33200E-05 8.25349E-06 2.44278E-18-3.61299E-18
 -1       330 8.94831E-05-1.20333E-05-3.32594E-05 1.07626E-05 3.21057E-18-2.82858E-18
 -1       331 9.19039E-05-1.47225E-05-3.31589E-05 1.31678E-05 3.67778E-18-1.51547E-18
 -1       332 9.58085E-05-1.94584E-05-3.28292E-05 1.43746E-05 3.76575E-18 1.13191E-18
 -1       333 9.87965E-05-2.44459E-05-3.19527E-05 1.18970E-05 3.39185E-18 3.55174E-18
 -1       334 9.63960E-05-2.68141E-05-2.97913E-05 5.74012E-06 2.82303E-18 2.52047E-18
 -1       335 9.64422E-05-2.60309E-05-3.01319E-05-6.34392E-06-2.74438E-18-3.22317E-19
 -1       336 9.49235E-05-2.70300E-05-2.90721E-05-2.83361E-06-2.05304E-18-5.49853E-19
 -1       337 9.39458E-05-2.74258E-05-2.84941E-05-9.20893E-07-1.45626E-18-7.57880E-19
 -1       338 9.34274E-05-2.76394E-05-2.81882E-05 1.38167E-07-1.07347E-18-1.27382E-18
 -1       339 9.32354E-05-2.77931E-05-2.80439E-05 7.01918E-07-7.75027E-19-1.48541E-18
 -1       340 9.32520E-05-2.79229E-05-2.79972E-05 9.68587E-07-8.09843E-19-1.28565E-18
 -1       341 9.33903E-05-2.80377E-05-2.80083E-05 1.05519E-06-6.15440E-19-1.26251E-18
 -1       342 9.35909E-05-2.81385E-05-2.80515E-05 1.03466E-06-7.28609E-19-1.46484E-18
 -1       343 9.38150E-05-2.82252E-05-2.81106E-05 9.54147E-07-1.22581E-18-1.25394E-18
 -1       344 9.40387E-05-2.82979E-05-2.81754E-05 8.44821E-07-7.18657E-19-1.26193E-18
 -1       345 9.42487E-05-2.83574E-05-2.82399E-05 7.27421E-07 1.17745E-19-1.79412E-18
 -1       346 9.44388E-05-2.84049E-05-2.83009E-05 6.15811E-07 1.31260E-19-1.99143E-18
 -1       347 9.46082E-05-2.84421E-05-2.83575E-05 5.19358E-07-2.29605E-19-1.90491E-18
 -1       348 9.47597E-05-2.84711E-05-2.84098E-05 4.44631E-07-1.03634E-18-1.94907E-18
 -1       349 9.48988E-05-2.84939E-05-2.84595E-05 3.96646E-07-5.45752E-19-2.06704E-18
 -1       350 9.50329E-05-2.85128E-05-2.85087E-05 3.79768E-07-3.33247E-19-1.93411E-18
 -1       351 9.51715E-05-2.85304E-05-2.85603E-05 3.98335E-07 3.28754E-19-2.50239E-18
 -1       352 9.53255E-05-2.85496E-05-2.86178E-05 4.57031E-07 1.96502E-19-2.27185E-18
 -1       353 9.55076E-05-2.85738E-05-2.86852E-05 5.60963E-07 2.40561E-19-1.42684E-18
 -1       354 9.57319E-05-2.86072E-05-2.87667E-05 7.15405E-07 9.45793E-20-1.10756E-18
 -1       355 9.60142E-05-2.86550E-05-2.88669E-05 9.25090E-07 1.64466E-19-1.11915E-18
 -1       356 9.63716E-05-2.87241E-05-2.89901E-05 1.19288E-06 7.51966E-20-1.58655E-18
 -1       357 9.68215E-05-2.88232E-05-2.91403E-05 1.51759E-06-3.99175E-20-2.36959E-18
 -1       358 9.73813E-05-2.89634E-05-2.93199E-05 1.89072E-06 5.32907E-19-1.92382E-18
 -1       359 9.80657E-05-2.91591E-05-2.95295E-05 2.29179E-06 4.58560E-19-1.70789E-18
 -1       360 9.88848E-05-2.94281E-05-2.97657E-05 2.68214E-06 6.83495E-19-1.17373E-18
 -1       361 9.98400E-05-2.97911E-05-3.00203E-05 2.99757E-06 7.79237E-19-1.27161E-18
 -1       362 1.00918E-04-3.02696E-05-3.02790E-05 3.14109E-06-2.90842E-19-1.27993E-18
 -1       363 1.02084E-04-3.08785E-05-3.05200E-05 2.97900E-06-6.65801E-19-7.10881E-19
 -1       364 1.03267E-04-3.16120E-05-3.07157E-05 2.34730E-06 1.40329E-19-2.53085E-19
 -1       365 1.04345E-04-3.24170E-05-3.08363E-05 1.07934E-06 3.84923E-19 1.08331E-19
 -1       366 1.05128E-04-3.31565E-05-3.08573E-05-9.30101E-07 7.49507E-19-5.73158E-19
 -1       367 1.05342E-04-3.35768E-05-3.07698E-05-3.61431E-06-1.11347E-19 2.30946E-20
 -1       368 1.04675E-04-3.33261E-05-3.05889E-05-6.59400E-06-6.21506E-19-2.90724E-19
 -1       369 1.02901E-04-3.20871E-05-3.03534E-05-9.09096E-06-1.98387E-19-4.06907E-19
 -1       370 1.00125E-04-2.98566E-05-3.01115E-05-1.00515E-05 1.45670E-19-3.08259E-19
 -1       371 9.69815E-05-2.72042E-05-2.98941E-05-8.62963E-06-1.35037E-19-5.00798E-19
 -1       372 9.45599E-05-2.52254E-05-2.96977E-05-4.85015E-06-8.43875E-19 1.05342E-18
 -1       373 9.37911E-05-2.48920E-05-2.95071E-05 1.16796E-08-6.24745E-19 1.46093E-18
 -1       374 9.47501E-05-2.62691E-05-2.93305E-05 4.07717E-06 3.70457E-19 2.31496E-18
 -1       375 9.66205E-05-2.84842E-05-2.91930E-05 5.96109E-06 1.70600E-18-2.22172E-19
 -1       376 9.82951E-05-3.03775E-05-2.91103E-05 5.49779E-06 1.32283E-18-2.28576E-19
 -1       377 9.90489E-05-3.12335E-05-2.90734E-05 3.55617E-06 5.68315E-19 5.99148E-20
 -1       378 9.87481E-05-3.09776E-05-2.90511E-05 1.33558E-06-2.18563E-18-9.23159E-19
 -1       379 9.77083E-05-3.00232E-05-2.90147E-05-2.46475E-07-1.44996E-18-2.24085E-18
 -1       380 9.64942E-05-2.89920E-05-2.89264E-05-6.69296E-07 7.55229E-19-1.46776E-18
 -1       381 9.43767E-05-2.73431E-05-2.86905E-05 2.46776E-06 2.23205E-18 1.83646E-18
 -1       382 9.31705E-05-2.74630E-05-2.81386E-05 7.42999E-07 1.38290E-18 1.15045E-18
 -1       383 9.26165E-05-2.75405E-05-2.78798E-05-1.77987E-07 1.01301E-18 5.35170E-19
 -1       384 9.24745E-05-2.76333E-05-2.77849E-05-6.53273E-07 7.31739E-19-8.81851E-20
 -1       385 9.25763E-05-2.77425E-05-2.77843E-05-8.70311E-07 7.97137E-19-3.24905E-19
 -1       386 9.28104E-05-2.78585E-05-2.78362E-05-9.34207E-07 6.25008E-19-8.22600E-21
 -1       387 9.31050E-05-2.79722E-05-2.79144E-05-9.08207E-07 7.17036E-19-1.71728E-19
 -1       388 9.34152E-05-2.80773E-05-2.80026E-05-8.32468E-07 1.41796E-19-7.90711E-19
 -1       389 9.37143E-05-2.81705E-05-2.80910E-05-7.33144E-07 7.13384E-19-9.05965E-19
 -1       390 9.39879E-05-2.82504E-05-2.81740E-05-6.27469E-07 8.68543E-19-1.11836E-18
 -1       391 9.42304E-05-2.83174E-05-2.82492E-05-5.26836E-07 1.48819E-18-1.11368E-18
 -1       392 9.44417E-05-2.83726E-05-2.83160E-05-4.38848E-07 5.92177E-19-9.32021E-19
 -1       393 9.46261E-05-2.84179E-05-2.83754E-05-3.68780E-07-1.02886E-19-1.06530E-18
 -1       394 9.47906E-05-2.84559E-05-2.84295E-05-3.20677E-07 2.86833E-19-1.23378E-18
 -1       395 9.49449E-05-2.84892E-05-2.84811E-05-2.98220E-07 8.66188E-19-1.23693E-18
 -1       396 9.51008E-05-2.85211E-05-2.85339E-05-3.05416E-07 1.39777E-19-5.64785E-19
 -1       397 9.52722E-05-2.85552E-05-2.85925E-05-3.47189E-07-9.57650E-19-8.25269E-19
 -1       398 9.54759E-05-2.85956E-05-2.86621E-05-4.29902E-07-5.97997E-19-1.08861E-18
 -1       399 9.57318E-05-2.86472E-05-2.87492E-05-5.61817E-07 2.12826E-19-1.58541E-18
 -1       400 9.60633E-05-2.87158E-05-2.88614E-05-7.53515E-07 1.59114E-18-1.70920E-18
 -1       401 9.64986E-05-2.88083E-05-2.90076E-05-1.01822E-06 1.01319E-18-2.65567E-18
 -1       402 9.70707E-05-2.89330E-05-2.91985E-05-1.37189E-06-6.06530E-19-3.01125E-18
 -1       403 9.78182E-05-2.91004E-05-2.94463E-05-1.83283E-06-8.20344E-19-2.18995E-18
 -1       404 9.87852E-05-2.93233E-05-2.97642E-05-2.42017E-06-4.18210E-19-1.84450E-18
 -1       405 1.00021E-04-2.96187E-05-3.01662E-05-3.15015E-06 4.25025E-19-7.98881E-19
 -1       406 1.01575E-04-3.00092E-05-3.06645E-05-4.02820E-06-1.35588E-19-1.49765E-18
 -1       407 1.03498E-04-3.05278E-05-3.12664E-05-5.03334E-06-1.21132E-18-1.40897E-18
 -1       408 1.05827E-04-3.12240E-05-3.19681E-05-6.09020E-06-2.93866E-19-3.63139E-19
 -1       409 1.08578E-04-3.21720E-05-3.27456E-05-7.02323E-06 1.99090E-19 2.56244E-20
 -1       410 1.11726E-04-3.34746E-05-3.35444E-05-7.49298E-06 2.44099E-19-1.13189E-18
 -1       411 1.15163E-04-3.52380E-05-3.42720E-05-6.93652E-06-1.39888E-18-1.81724E-18
 -1       412 1.18628E-04-3.74746E-05-3.48087E-05-4.58002E-06-6.62396E-19-1.66255E-18
 -1       413 1.21541E-04-3.98231E-05-3.50552E-05 3.06959E-07 5.65179E-19-4.02747E-19
 -1       414 1.22812E-04-4.11715E-05-3.50200E-05 7.64553E-06 9.97401E-19 1.14894E-19
 -1       415 1.20958E-04-3.96363E-05-3.48955E-05 1.53314E-05-8.23452E-19 7.37627E-19
 -1       416 1.15325E-04-3.40321E-05-3.49206E-05 1.86457E-05-1.56117E-18-1.99516E-19
 -1       417 1.08406E-04-2.69055E-05-3.50413E-05 1.30965E-05-1.40847E-18 6.53506E-20
 -1       418 1.05342E-04-2.41251E-05-3.49187E-05 4.61932E-07 1.57324E-18-1.17822E-18
 -1       419 1.08137E-04-2.81450E-05-3.43583E-05-1.08094E-05 1.94030E-18-9.17515E-19
 -1       420 1.13184E-04-3.48308E-05-3.36302E-05-1.33888E-05 9.34387E-19-3.02100E-19
 -1       421 1.15619E-04-3.85780E-05-3.30496E-05-8.16527E-06 1.05115E-18 2.87187E-19
 -1       422 1.14319E-04-3.84036E-05-3.25710E-05-2.93822E-07 1.62260E-18 2.78381E-19
 -1       423 1.10422E-04-3.57929E-05-3.20175E-05 6.01829E-06 4.09537E-19-1.45895E-18
 -1       424 1.05507E-04-3.24252E-05-3.13375E-05 9.06706E-06-8.29364E-20 9.74614E-19
 -1       425 1.00661E-04-2.91850E-05-3.06364E-05 8.71039E-06-8.55911E-20-1.87583E-19
 -1       426 9.78457E-05-2.71957E-05-3.02739E-05 7.22977E-06-6.42626E-19-3.86373E-19
 -1       427 9.21134E-05-1.78805E-05-3.18164E-05 1.60934E-05-1.26727E-18-2.94684E-18
 -1       428 9.54927E-05-2.25873E-05-3.12310E-05 1.43783E-05-2.04828E-18-2.08323E-18
 -1       429 9.68931E-05-2.50042E-05-3.07950E-05 1.10841E-05-1.76540E-18-8.96510E-19
 -1       430 8.80245E-05-1.26844E-05-3.23068E-05 1.45184E-05-1.94469E-18-5.83568E-18
 -1       431 8.42902E-05-8.21223E-06-3.26329E-05 9.07377E-06-1.86266E-18 1.27093E-18
 -1       432 8.26505E-05-6.29479E-06-3.27547E-05 8.11824E-07-1.83706E-18 1.14062E-18
 -1       433 8.39917E-05-7.82332E-06-3.26719E-05-7.62206E-06-2.12363E-18 5.13433E-18
 -1       434 8.76214E-05-1.21199E-05-3.23773E-05-1.34605E-05-2.68778E-18 2.52149E-18
 -1       435 9.18604E-05-1.74866E-05-3.18808E-05-1.53781E-05-3.22737E-18 6.84061E-20
 -1       436 9.51737E-05-2.22417E-05-3.12490E-05-1.38975E-05-1.19122E-18 7.49326E-19
 -1       437 9.70393E-05-2.57065E-05-3.05567E-05-1.04308E-05 9.78103E-19 3.61248E-18
 -1       438 9.75705E-05-2.77256E-05-2.99143E-05-6.51575E-06 2.13075E-18 1.49296E-18
 -1       439 9.71297E-05-2.85537E-05-2.93731E-05-3.17050E-06 2.90437E-19-4.23483E-20
 -1       440 6.31090E-05-4.67099E-05-7.08048E-06 4.64132E-05 2.51865E-18-8.62703E-18
 -1       441 1.50183E-05-2.35043E-05 3.72195E-06-8.56002E-07 5.15299E-18-1.62895E-18
 -1       442 3.01815E-05-3.44772E-05 1.61582E-06 3.19618E-05 4.72104E-18-4.65868E-18
 -1       443 1.10823E-04-5.91325E-05-2.22621E-05 4.21663E-05 3.85294E-19-3.92446E-18
 -1       444 1.44666E-04-5.88005E-05-3.67989E-05 2.63410E-05-7.66247E-19-6.26751E-18
 -1       445 8.93620E-05-1.18965E-05-3.32656E-05-1.06465E-05-2.57710E-18-3.83290E-18
 -1       446 1.64468E-04-2.44130E-05-5.99267E-05-9.53699E-07 7.98223E-19-6.18218E-18
 -1       447 1.60993E-04-1.27448E-05-6.34476E-05 4.08015E-06-5.57771E-19-5.91138E-18
 -1       448 1.63002E-04-1.99333E-05-6.13273E-05 9.55483E-06-4.23516E-20-6.82687E-18
 -1       449 1.61524E-04-3.98533E-05-5.22062E-05 7.16062E-06 3.91393E-18-4.95483E-18
 -1       450 1.46714E-04-6.03707E-05-3.71763E-05-1.22097E-05 4.28932E-18-3.76908E-18
 -1       451 1.18245E-04-6.16052E-05-2.42716E-05-3.11864E-05 3.49412E-18-3.89572E-18
 -1       452 6.42886E-05-4.59964E-05-7.84150E-06-4.09910E-05 4.29933E-18-3.70217E-18
 -1       453 3.37891E-05-3.34978E-05-4.03540E-08-3.11150E-05 3.54039E-18-4.40362E-18
 -1       454 1.24784E-05-2.54204E-05 5.40918E-06-3.94209E-06 1.98413E-18-6.81142E-18
 -1       455 1.86853E-05-2.59363E-05 3.16986E-06 2.14436E-05 1.27346E-18-4.44152E-18
 -1       456 5.33554E-05-4.13462E-05-5.23833E-06 4.31915E-05 1.87935E-19-2.60801E-18
 -1       457 8.70680E-05-5.19261E-05-1.52289E-05 4.50389E-05 5.64547E-19-1.15822E-18
 -1       458 1.30259E-04-5.82972E-05-3.07769E-05 3.00092E-05-1.43752E-18 2.03076E-19
 -1       459 1.48542E-04-5.03532E-05-4.22168E-05 1.35915E-05-3.00147E-18-3.72271E-19
 -1       460 1.58936E-04-3.08973E-05-5.49192E-05-8.62918E-07-1.45848E-18-2.97838E-18
 -1       461 1.55640E-04-1.17762E-05-6.18236E-05-4.77982E-06-4.10430E-18 2.89368E-19
 -1       462 1.59715E-04-1.20470E-05-6.32984E-05-3.29278E-07-4.12314E-18 7.71144E-19
 -1       463 1.64389E-04-2.63545E-05-5.89204E-05-3.37382E-06-1.85860E-18 2.41934E-18
 -1       464 1.55668E-04-4.76013E-05-4.63133E-05-1.20974E-05 1.36831E-19 3.88290E-18
 -1       465 1.34762E-04-5.75957E-05-3.30570E-05-3.30593E-05 5.40725E-19 5.33758E-18
 -1       466 1.04417E-04-5.74621E-05-2.01361E-05-4.54718E-05 2.22981E-18 3.00871E-18
 -1       467 6.06348E-05-4.59097E-05-6.41310E-06-4.70165E-05 4.75874E-18 5.88270E-18
 -1       468 2.47585E-05-3.01013E-05 2.23802E-06-2.68199E-05 5.03958E-18 4.33459E-18
 -1       469 1.63450E-04-4.19095E-05-5.19108E-05 5.75634E-06 4.39637E-19-5.45892E-18
 -1       470 9.74998E-05-5.76598E-05-1.69187E-05 4.67269E-05 8.30304E-19-6.71421E-18
 -1       471 4.20215E-05-2.95182E-05-4.94128E-06 3.75728E-05 1.76569E-18-2.89092E-18
 -1       472 1.02614E-04-5.90514E-05-1.83974E-05-3.70507E-05 2.29377E-18-3.33585E-18
 -1       473 9.58231E-05-2.51494E-05-3.02745E-05 6.01630E-06 2.85927E-18 7.44628E-21
 -1       474 8.95381E-05-1.34012E-05-3.26493E-05-3.92470E-06-7.04886E-19-3.99680E-18
 -1       475 9.02421E-05-1.43602E-05-3.25421E-05-5.88287E-06-1.35418E-18-3.81289E-18
 -1       476 8.90398E-05-1.27206E-05-3.27260E-05 5.46603E-08 4.84617E-19-4.28618E-18
 -1       477 8.91752E-05-1.29043E-05-3.27056E-05 2.04568E-06 9.98630E-19-4.30963E-18
 -1       478 8.95695E-05-1.34413E-05-3.26456E-05 3.99790E-06 1.50775E-18-4.12734E-18
 -1       479 9.02948E-05-1.44288E-05-3.25351E-05 5.95126E-06 2.23839E-18-3.52602E-18
 -1       480 9.14442E-05-1.60080E-05-3.23529E-05 7.77966E-06 2.75696E-18-2.79371E-18
 -1       481 9.32327E-05-1.84785E-05-3.20577E-05 9.29458E-06 3.24929E-18-2.08039E-18
 -1       482 9.51162E-05-2.65793E-05-2.93551E-05 2.87287E-06 2.18179E-18-2.45009E-19
 -1       483 9.54671E-05-2.44347E-05-3.04330E-05-5.79739E-06-2.48021E-18-1.61120E-18
 -1       484 9.45980E-05-2.07642E-05-3.16612E-05-9.42384E-06-3.02262E-18-2.08018E-18
 -1       485 1.51130E-04-5.72663E-05-4.05650E-05 1.04265E-06-2.05604E-20-3.24911E-18
 -1       486 9.52533E-05-2.62072E-05-2.95827E-05-2.88391E-06-1.90077E-18-1.66070E-18
 -1       487 9.49030E-05-2.71431E-05-2.90353E-05-1.03182E-06-1.58043E-18-1.56521E-18
 -1       488 9.46340E-05-2.76801E-05-2.86922E-05 8.85736E-08-9.87058E-19-1.52415E-18
 -1       489 9.44827E-05-2.80113E-05-2.84866E-05 7.22877E-07-6.69600E-19-1.56017E-18
 -1       490 9.44305E-05-2.82262E-05-2.83728E-05 1.04058E-06-9.48031E-19-1.64875E-18
 -1       491 9.44477E-05-2.83691E-05-2.83192E-05 1.15637E-06-6.17702E-19-1.71201E-18
 -1       492 9.45077E-05-2.84642E-05-2.83044E-05 1.14809E-06-8.46760E-19-1.17603E-18
 -1       493 9.45904E-05-2.85258E-05-2.83136E-05 1.06889E-06-8.66900E-19-1.17444E-18
 -1       494 9.46821E-05-2.85630E-05-2.83369E-05 9.55113E-07-4.94926E-19-8.51724E-19
 -1       495 9.47744E-05-2.85825E-05-2.83681E-05 8.31636E-07-6.07243E-20-1.24893E-18
 -1       496 9.48629E-05-2.85886E-05-2.84034E-05 7.15507E-07-2.05383E-19-1.94822E-18
 -1       497 9.49464E-05-2.85847E-05-2.84409E-05 6.18622E-07-9.39936E-19-1.80566E-18
 -1       498 9.50258E-05-2.85731E-05-2.84798E-05 5.49670E-07-1.05158E-18-1.00171E-18
 -1       499 9.51036E-05-2.85553E-05-2.85207E-05 5.15586E-07-7.11424E-19-1.08776E-18
 -1       500 9.51839E-05-2.85326E-05-2.85648E-05 5.22580E-07-2.30067E-19-9.45076E-19
 -1       501 9.52718E-05-2.85059E-05-2.86138E-05 5.76822E-07 3.54223E-19-8.67950E-19
 -1       502 9.53738E-05-2.84766E-05-2.86700E-05 6.84780E-07 2.26432E-19-1.37745E-18
 -1       503 9.54974E-05-2.84465E-05-2.87357E-05 8.53168E-07 6.93649E-19-1.37463E-18
 -1       504 9.56516E-05-2.84190E-05-2.88134E-05 1.08844E-06-2.25975E-20-8.80423E-19
 -1       505 9.58467E-05-2.83993E-05-2.89053E-05 1.39566E-06 3.48929E-19-6.41917E-19
 -1       506 9.60955E-05-2.83963E-05-2.90131E-05 1.77663E-06-4.49578E-19-6.21676E-19
 -1       507 9.64128E-05-2.84237E-05-2.91372E-05 2.22687E-06 8.13825E-20-1.10644E-18
 -1       508 9.68170E-05-2.85026E-05-2.92765E-05 2.73145E-06 4.93953E-19-5.44871E-19
 -1       509 9.73305E-05-2.86635E-05-2.94278E-05 3.25917E-06 4.39487E-19-1.71621E-18
 -1       510 9.79816E-05-2.89488E-05-2.95849E-05 3.75525E-06 5.61554E-19-1.74366E-18
 -1       511 9.88045E-05-2.94131E-05-2.97393E-05 4.13289E-06 4.16896E-19-1.96340E-18
 -1       512 9.98379E-05-3.01192E-05-2.98808E-05 4.26524E-06-2.75643E-19-1.21063E-18
 -1       513 1.01117E-04-3.11232E-05-3.00004E-05 3.98138E-06 5.22158E-19-6.39906E-19
 -1       514 1.02650E-04-3.24398E-05-3.00956E-05 3.07390E-06 8.36779E-19-1.61345E-19
 -1       515 1.04377E-04-3.39802E-05-3.01777E-05 1.33241E-06 1.26331E-20 5.42903E-19
 -1       516 1.06098E-04-3.54643E-05-3.02798E-05-1.37489E-06 1.01392E-18 1.47226E-18
 -1       517 1.07403E-04-3.63474E-05-3.04588E-05-4.94454E-06-3.26903E-19 2.23331E-18
 -1       518 1.07692E-04-3.58728E-05-3.07779E-05-8.81193E-06-8.58903E-19 1.85483E-18
 -1       519 1.06437E-04-3.34477E-05-3.12695E-05-1.17867E-05-4.18153E-19 1.81330E-18
 -1       520 1.03671E-04-2.92710E-05-3.18770E-05-1.22712E-05 1.80703E-19 1.97661E-18
 -1       521 1.00504E-04-2.48833E-05-3.24078E-05-9.20616E-06-4.16022E-19 1.70779E-18
 -1       522 9.87387E-05-2.27442E-05-3.25875E-05-3.15331E-06-6.00121E-19 2.82153E-18
 -1       523 9.94092E-05-2.40825E-05-3.22936E-05 3.13863E-06-3.14691E-19 2.28184E-18
 -1       524 1.01742E-04-2.79449E-05-3.16342E-05 6.90115E-06-8.49603E-19 1.23156E-18
 -1       525 1.03942E-04-3.19566E-05-3.08536E-05 7.08896E-06 5.12222E-19-5.14352E-19
 -1       526 1.04662E-04-3.42368E-05-3.01829E-05 4.65751E-06-3.17876E-20-1.54229E-18
 -1       527 1.03510E-04-3.41342E-05-2.97260E-05 1.37547E-06-5.10451E-19-2.07405E-18
 -1       528 1.01323E-04-3.25909E-05-2.94584E-05-1.26950E-06-1.57289E-18-6.58353E-19
 -1       529 5.79598E-05-3.40338E-05-9.64063E-06 4.11580E-05 1.97126E-18-8.87135E-18
 -1       530 9.41450E-05-2.76864E-05-2.84786E-05-1.20705E-07 1.23765E-18-7.75064E-19
 -1       531 9.39693E-05-2.79340E-05-2.82995E-05-7.29757E-07 9.57693E-19-1.19595E-18
 -1       532 9.39392E-05-2.81055E-05-2.82142E-05-1.02721E-06 6.87496E-19-1.29466E-18
 -1       533 9.40025E-05-2.82312E-05-2.81879E-05-1.12989E-06 4.06938E-19-1.24864E-18
 -1       534 9.41187E-05-2.83255E-05-2.81975E-05-1.11462E-06 7.63316E-19-9.49562E-19
 -1       535 9.42593E-05-2.83960E-05-2.82277E-05-1.03253E-06 7.19381E-19-1.28886E-18
 -1       536 9.44060E-05-2.84477E-05-2.82684E-05-9.18032E-07 9.90920E-19-8.22124E-19
 -1       537 9.45481E-05-2.84843E-05-2.83136E-05-7.94430E-07 1.06361E-18-1.14110E-18
 -1       538 9.46804E-05-2.85089E-05-2.83597E-05-6.77530E-07 8.62663E-19-1.23053E-18
 -1       539 9.48016E-05-2.85238E-05-2.84051E-05-5.78273E-07 8.11901E-20-1.03374E-18
 -1       540 9.49137E-05-2.85311E-05-2.84499E-05-5.04646E-07-2.03525E-19-1.05295E-18
 -1       541 9.50205E-05-2.85325E-05-2.84950E-05-4.63155E-07 5.48317E-19-1.20376E-18
 -1       542 9.51280E-05-2.85292E-05-2.85423E-05-4.59973E-07 1.42178E-19-5.80001E-20
 -1       543 9.52435E-05-2.85224E-05-2.85945E-05-5.01858E-07-4.12050E-19 5.39515E-20
 -1       544 9.53759E-05-2.85131E-05-2.86551E-05-5.96924E-07-3.61758E-19-3.74723E-19
 -1       545 9.55357E-05-2.85022E-05-2.87280E-05-7.55264E-07 5.12031E-19-9.28726E-19
 -1       546 9.57350E-05-2.84905E-05-2.88181E-05-9.89464E-07 8.04494E-19-1.94432E-18
 -1       547 9.59874E-05-2.84791E-05-2.89308E-05-1.31496E-06 1.31570E-18-1.38631E-18
 -1       548 9.63083E-05-2.84693E-05-2.90721E-05-1.75014E-06 1.84036E-20-6.94100E-19
 -1       549 9.67145E-05-2.84634E-05-2.92482E-05-2.31594E-06-8.59641E-19-1.26154E-18
 -1       550 9.72242E-05-2.84656E-05-2.94651E-05-3.03452E-06-9.52313E-19-1.72690E-18
 -1       551 9.78571E-05-2.84850E-05-2.97274E-05-3.92617E-06-3.03773E-19-2.20786E-18
 -1       552 9.86362E-05-2.85402E-05-3.00371E-05-5.00308E-06 4.37165E-19-1.53470E-18
 -1       553 9.95909E-05-2.86694E-05-3.03906E-05-6.25762E-06-1.07056E-18-9.90637E-19
 -1       554 1.00768E-04-2.89473E-05-3.07761E-05-7.64200E-06-1.33150E-18-2.27740E-18
 -1       555 1.02248E-04-2.95124E-05-3.11701E-05-9.03459E-06-1.09195E-19-1.52467E-18
 -1       556 1.04185E-04-3.06004E-05-3.15374E-05-1.01886E-05 1.21221E-19-8.38502E-19
 -1       557 1.06839E-04-3.25612E-05-3.18407E-05-1.06582E-05-1.12137E-18 1.67799E-18
 -1       558 1.10566E-04-3.57778E-05-3.20680E-05-9.73780E-06-8.02922E-19 1.69285E-18
 -1       559 1.15707E-04-4.04095E-05-3.22953E-05-6.42082E-06 8.91750E-20 4.44745E-19
 -1       560 1.21955E-04-4.55035E-05-3.27943E-05 3.05267E-07 4.42557E-19-8.07004E-19
 -1       561 1.27484E-04-4.81254E-05-3.40635E-05 1.04171E-05 7.64778E-20 8.81497E-19
 -1       562 1.28427E-04-4.30741E-05-3.68012E-05 2.03561E-05-1.25689E-18 4.32377E-19
 -1       563 1.23722E-04-3.04867E-05-4.02080E-05 2.19076E-05-9.08760E-19-8.85004E-19
 -1       564 1.16255E-04-1.79096E-05-4.27391E-05 9.66333E-06-2.45957E-19-1.86944E-18
 -1       565 1.18767E-04-2.22122E-05-4.16888E-05-8.04496E-06 1.41485E-18 3.87451E-19
 -1       566 1.23021E-04-3.45871E-05-3.81958E-05-1.63444E-05 1.90135E-18 2.62739E-19
 -1       567 1.25796E-04-4.49813E-05-3.47446E-05-1.05035E-05 1.46929E-18 3.57898E-19
 -1       568 1.21800E-04-4.64434E-05-3.23382E-05-1.47630E-07 1.48108E-18 2.68018E-19
 -1       569 1.14668E-04-4.18963E-05-3.12134E-05 8.61446E-06 3.80177E-19 1.75584E-18
 -1       570 1.07652E-04-3.57350E-05-3.08233E-05 1.32964E-05 7.35816E-19 1.06058E-18
 -1       571 1.01762E-04-2.99811E-05-3.07600E-05 1.40333E-05 5.51037E-19-5.52682E-19
 -1       572 8.37866E-05-1.56153E-05-2.92165E-05 1.65683E-05-1.49679E-19-3.08644E-18
 -1       573 7.82561E-05-1.11495E-05-2.87528E-05 7.04409E-06-1.20480E-18 8.87504E-19
 -1       574 9.72854E-05-2.64421E-05-3.03582E-05 1.94054E-05-1.95088E-19-3.29407E-18
 -1       575 9.11212E-05-2.15284E-05-2.98313E-05 2.05374E-05 3.09610E-20-5.60026E-18
 -1       576 7.79428E-05-1.09514E-05-2.87028E-05-5.17619E-06-1.74118E-18 2.74457E-18
 -1       577 8.30403E-05-1.51997E-05-2.90707E-05-1.52996E-05-1.95420E-18 4.93921E-18
 -1       578 9.06388E-05-2.15362E-05-2.96124E-05-1.99993E-05-2.16204E-18 5.79966E-19
 -1       579 9.70846E-05-2.70141E-05-3.00240E-05-1.92677E-05-9.41633E-19 1.45629E-18
 -1       580 1.00831E-04-3.04223E-05-3.01663E-05-1.50815E-05 1.83493E-18 2.59021E-18
 -1       581 1.01744E-04-3.16430E-05-3.00367E-05-9.88191E-06 1.85194E-18 2.39628E-18
 -1       582 1.00583E-04-3.12884E-05-2.96997E-05-5.19504E-06-3.70857E-19 2.00568E-19
 -1       583 1.35964E-04-6.70076E-05-2.95422E-05 2.63860E-05-3.66448E-19-5.04435E-18
 -1       584 9.45229E-05-2.72938E-05-2.88037E-05 9.83108E-07 1.56067E-18-5.09482E-19
 -1       585 3.25455E-05-1.91573E-05-5.08283E-06 2.04740E-05 2.27770E-18-3.90355E-18
 -1       586 9.90308E-05-5.56992E-05-1.82001E-05-4.65052E-05 1.46224E-18 4.74143E-18
 -1       587 3.00799E-05-1.79114E-05-4.56233E-06-1.62310E-05 1.82668E-18 2.02928E-18
 -1       588 1.45006E-04-5.93995E-05-3.69025E-05-1.34624E-05 4.81508E-19 4.65037E-18
 -1       589 1.45564E-04-4.30075E-05-4.43323E-05-7.64226E-06-7.99467E-19-2.43501E-18
 -1       590 1.40993E-04-2.69886E-05-4.93759E-05 2.08436E-05 4.90273E-19-4.02537E-18
 -1       591 8.91554E-05-1.28793E-05-3.27079E-05-1.93685E-06-5.87043E-20-4.13480E-18
 -1       592 1.37125E-04-1.42212E-05-5.33042E-05-6.21180E-06-2.20229E-20-3.60778E-18
 -1       593 1.49238E-04-5.35787E-05-4.13601E-05 1.15156E-05 3.14453E-18-1.04381E-18
 -1       594 1.37899E-04-1.53612E-05-5.32044E-05 1.36579E-05 4.25740E-19-4.17807E-18
 -1       595 1.39989E-04-1.83322E-05-5.27157E-05-1.26249E-05-3.18379E-18-1.60216E-18
 -1       596 1.36986E-04-6.60699E-05-3.04363E-05-1.32133E-05 2.34361E-18-2.81046E-18
 -1       597 6.04145E-05-3.56776E-05-1.00309E-05-3.69050E-05 2.65878E-18-3.19824E-18
 -1       598 3.03470E-05-1.91824E-05-4.17196E-06-1.86207E-05 3.48581E-19-7.01132E-18
 -1       599 2.44705E-05-1.51247E-05-3.31205E-06 7.98928E-06 8.45246E-19-5.16881E-18
 -1       600 8.45879E-05-4.87613E-05-1.49481E-05 4.46793E-05 1.56701E-18-3.96703E-19
 -1       601 1.19386E-04-6.16292E-05-2.46501E-05 3.24624E-05 1.11485E-18-5.64018E-19
 -1       602 1.40775E-04-5.96137E-05-3.49580E-05 1.09269E-05-1.42942E-18 6.12405E-19
 -1       603 1.45577E-04-3.55213E-05-4.76793E-05 6.83668E-06-1.07732E-18 7.55289E-19
 -1       604 1.32902E-04-6.97725E-06-5.46966E-05-1.82677E-06-4.47826E-18-3.52476E-18
 -1       605 5.41850E-05-3.17824E-05-9.06056E-06-4.10154E-05 1.79666E-18 8.94239E-18
 -1       606 1.39711E-04-1.64551E-05-5.34325E-05 7.88888E-06-3.07907E-18-2.56630E-18
 -1       607 1.31967E-04-6.50120E-05-2.86391E-05-3.11669E-05 2.28498E-18 5.66977E-18
 -1       608 1.48902E-04-3.44566E-05-4.95991E-05-1.05619E-05 1.24307E-18-3.89826E-18
 -1       609 9.61631E-05-2.31911E-05-3.12772E-05 9.58149E-06 3.40518E-18 4.45207E-19
 -1       610 9.13441E-05-1.58883E-05-3.23632E-05-7.69174E-06-2.03907E-18-3.66516E-18
 -1       611 3.81511E-05-1.83239E-05-7.90605E-06 2.40765E-05 2.12436E-18-3.05255E-18
 -1       612 8.37173E-05-4.47263E-05-1.63169E-05 4.37322E-05 1.88258E-18-1.05062E-17
 -1       613 9.94660E-05-3.09415E-05-2.93667E-05-2.15729E-06-9.57023E-19 1.22600E-18
 -1       614 1.43509E-04-4.99737E-05-4.03651E-05 4.00290E-06 4.47366E-19 9.23213E-19
 -1       615 9.27718E-05-1.79303E-05-3.20942E-05-8.89624E-06-2.50332E-18-3.09772E-18
 -1       616 1.25046E-04-1.13246E-05-4.92678E-05-1.05679E-05-2.87891E-18-3.10007E-18
 -1       617 9.15524E-05-1.68509E-05-3.20205E-05 2.44140E-06 1.18936E-18-3.83876E-18
 -1       618 9.12921E-05-1.64471E-05-3.20818E-05 8.40120E-07 7.12912E-19-3.90755E-18
 -1       619 9.28925E-05-1.90004E-05-3.16737E-05 5.26329E-06 2.36649E-18-2.75629E-18
 -1       620 9.39836E-05-2.09286E-05-3.13171E-05 6.14287E-06 2.67475E-18-2.10959E-18
 -1       621 9.52735E-05-2.40954E-05-3.04945E-05 5.14643E-06 2.53127E-18-1.38902E-18
 -1       622 5.63167E-05-2.23019E-05-1.40132E-05 2.88533E-05-6.23496E-20-6.22500E-18
 -1       623 9.53377E-05-2.59436E-05-2.97365E-05 2.60071E-06 1.97567E-18-1.27967E-18
 -1       624 9.45811E-05-2.21930E-05-3.10225E-05-6.17086E-06-2.31911E-18-2.33499E-18
 -1       625 9.52670E-05-2.48340E-05-3.01850E-05-3.49575E-06-1.93283E-18-2.02468E-18
 -1       626 9.54413E-05-2.64091E-05-2.95851E-05-1.57705E-06-1.25402E-18-1.66038E-18
 -1       627 9.54196E-05-2.73694E-05-2.91649E-05-3.07555E-07-9.91921E-19-1.62812E-18
 -1       628 9.53457E-05-2.79632E-05-2.88788E-05 4.70992E-07-8.73623E-19-1.80325E-18
 -1       629 9.52744E-05-2.83316E-05-2.86903E-05 9.02463E-07-7.87839E-19-1.61650E-18
 -1       630 9.52219E-05-2.85561E-05-2.85715E-05 1.09947E-06-5.14335E-19-9.89537E-19
 -1       631 9.51895E-05-2.86861E-05-2.85019E-05 1.14518E-06-4.46406E-19-1.02674E-18
 -1       632 9.51733E-05-2.87528E-05-2.84662E-05 1.09952E-06-8.30350E-19-4.88029E-19
 -1       633 9.51687E-05-2.87768E-05-2.84539E-05 1.00502E-06-4.93194E-19-4.05110E-19
 -1       634 9.51719E-05-2.87718E-05-2.84574E-05 8.91568E-07-3.37997E-19-4.97055E-19
 -1       635 9.51801E-05-2.87469E-05-2.84715E-05 7.80090E-07-5.56770E-19-5.69960E-19
 -1       636 9.51916E-05-2.87078E-05-2.84932E-05 6.85385E-07-4.10054E-19-9.49894E-19
 -1       637 9.52056E-05-2.86580E-05-2.85204E-05 6.18331E-07-2.82865E-19-4.34687E-19
 -1       638 9.52217E-05-2.85990E-05-2.85526E-05 5.87536E-07-7.69776E-19 6.39869E-20
 -1       639 9.52404E-05-2.85312E-05-2.85896E-05 6.00527E-07-2.04894E-19-3.58558E-19
 -1       640 9.52627E-05-2.84544E-05-2.86320E-05 6.64573E-07-5.13222E-19-2.07921E-19
 -1       641 9.52900E-05-2.83681E-05-2.86807E-05 7.87139E-07-1.89159E-19-3.33801E-19
 -1       642 9.53250E-05-2.82728E-05-2.87365E-05 9.75927E-07 5.84603E-19-3.64789E-19
 -1       643 9.53714E-05-2.81704E-05-2.88002E-05 1.23848E-06 6.24189E-19-5.88313E-19
 -1       644 9.54350E-05-2.80660E-05-2.88721E-05 1.58125E-06 6.55272E-19-7.24988E-20
 -1       645 9.55246E-05-2.79698E-05-2.89517E-05 2.00787E-06-7.26833E-19-6.81173E-20
 -1       646 9.56541E-05-2.78996E-05-2.90373E-05 2.51670E-06-2.34223E-19 4.68161E-19
 -1       647 9.58447E-05-2.78842E-05-2.91256E-05 3.09707E-06 4.78824E-19-5.44852E-20
 -1       648 9.61291E-05-2.79676E-05-2.92118E-05 3.72430E-06 6.45834E-19 2.28023E-20
 -1       649 9.65559E-05-2.82132E-05-2.92896E-05 4.35313E-06 1.80966E-19 7.20390E-20
 -1       650 9.71949E-05-2.87065E-05-2.93523E-05 4.90933E-06-7.29368E-20-1.10122E-18
 -1       651 9.81406E-05-2.95524E-05-2.93954E-05 5.27958E-06-1.47580E-19-1.82707E-18
 -1       652 9.95084E-05-3.08596E-05-2.94219E-05 5.30011E-06 8.94771E-19-1.45722E-18
 -1       653 1.01412E-04-3.27001E-05-2.94493E-05 4.74745E-06 1.06057E-18-7.55063E-19
 -1       654 1.03903E-04-3.50252E-05-2.95212E-05 3.34278E-06 1.03664E-18 2.76281E-19
 -1       655 1.06864E-04-3.75283E-05-2.97175E-05 7.97346E-07 1.54943E-18 1.41074E-18
 -1       656 1.09830E-04-3.94730E-05-3.01568E-05-3.04015E-06 4.88838E-19 1.46625E-18
 -1       657 1.11879E-04-3.96445E-05-3.09673E-05-7.84447E-06-9.75449E-19 3.54649E-18
 -1       658 1.11906E-04-3.67989E-05-3.21934E-05-1.23162E-05-2.28896E-19 3.61494E-18
 -1       659 1.09223E-04-3.05647E-05-3.37368E-05-1.42060E-05-1.11668E-18 1.53874E-18
 -1       660 1.05465E-04-2.36839E-05-3.50913E-05-1.13303E-05-9.03328E-19-6.54854E-19
 -1       661 1.02742E-04-1.93086E-05-3.58055E-05-3.82942E-06-4.80440E-19-6.51788E-19
 -1       662 1.04248E-04-2.19218E-05-3.53013E-05 4.18298E-06-5.95454E-19-1.68116E-18
 -1       663 1.07853E-04-2.85894E-05-3.39871E-05 8.39953E-06-1.36519E-18-2.35406E-18
 -1       664 1.10643E-04-3.50606E-05-3.24061E-05 7.53184E-06-7.47978E-19-2.35477E-18
 -1       665 1.10689E-04-3.81949E-05-3.10808E-05 3.49591E-06-3.91529E-19-2.45303E-18
 -1       666 1.08374E-04-3.78771E-05-3.02103E-05-1.02197E-06-9.44720E-19-2.13389E-18
 -1       667 1.20409E-04-6.10894E-05-2.53517E-05-2.22126E-05 1.21385E-18-2.79265E-18
 -1       668 9.50894E-05-2.77034E-05-2.88789E-05-1.26385E-07 1.30119E-18-1.48816E-18
 -1       669 9.49009E-05-2.85275E-05-2.84458E-05-1.15759E-06 3.88454E-19-1.42178E-18
 -1       670 9.49093E-05-2.86209E-05-2.84095E-05-1.14907E-06 7.33354E-19-1.17093E-18
 -1       671 9.49360E-05-2.86707E-05-2.83996E-05-1.07087E-06 6.11706E-19-8.69851E-19
 -1       672 9.49728E-05-2.86906E-05-2.84069E-05-9.59137E-07 1.14345E-18-9.89389E-19
 -1       673 9.50143E-05-2.86895E-05-2.84251E-05-8.39019E-07 8.71897E-19-4.28821E-19
 -1       674 9.50573E-05-2.86735E-05-2.84503E-05-7.28021E-07 2.04033E-19 2.66890E-20
 -1       675 9.51006E-05-2.86465E-05-2.84804E-05-6.38678E-07-1.69867E-20-5.61602E-19
 -1       676 9.51442E-05-2.86104E-05-2.85146E-05-5.80572E-07 4.12554E-19-1.24148E-18
 -1       677 9.51892E-05-2.85659E-05-2.85529E-05-5.61870E-07-1.35420E-19-1.22005E-18
 -1       678 9.52375E-05-2.85125E-05-2.85964E-05-5.90548E-07-2.39588E-19-1.15969E-18
 -1       679 9.52913E-05-2.84487E-05-2.86467E-05-6.75355E-07-1.53774E-19-1.28111E-18
 -1       680 9.53533E-05-2.83722E-05-2.87060E-05-8.26552E-07 3.19382E-19-1.82589E-18
 -1       681 9.54261E-05-2.82798E-05-2.87767E-05-1.05647E-06 8.74087E-19-1.41720E-18
 -1       682 9.55120E-05-2.81676E-05-2.88615E-05-1.37984E-06 1.18631E-18-8.36732E-19
 -1       683 9.56127E-05-2.80311E-05-2.89630E-05-1.81394E-06 8.36525E-19-1.95683E-19
 -1       684 9.57286E-05-2.78660E-05-2.90833E-05-2.37825E-06-4.75724E-19 1.21762E-19
 -1       685 9.58585E-05-2.76692E-05-2.92231E-05-3.09359E-06-5.11612E-19-4.44912E-19
 -1       686 9.60001E-05-2.74415E-05-2.93811E-05-3.98029E-06-5.91396E-19-5.56119E-19
 -1       687 9.61520E-05-2.71937E-05-2.95522E-05-5.05492E-06 6.37935E-20-9.87735E-19
 -1       688 9.63198E-05-2.69566E-05-2.97255E-05-6.32487E-06 7.25991E-21-3.42106E-19
 -1       689 9.65297E-05-2.68009E-05-2.98820E-05-7.77980E-06-3.08963E-19-1.33409E-18
 -1       690 9.68563E-05-2.68684E-05-2.99931E-05-9.37868E-06-8.33537E-19-1.16036E-18
 -1       691 9.74731E-05-2.74197E-05-3.00213E-05-1.10296E-05-2.27873E-19-7.87268E-19
 -1       692 9.87328E-05-2.88925E-05-2.99304E-05-1.25573E-05-1.98666E-18-2.37256E-19
 -1       693 1.01290E-04-3.19446E-05-2.97195E-05-1.35952E-05-1.53660E-18-7.80460E-19
 -1       694 1.06017E-04-3.72299E-05-2.94809E-05-1.35200E-05-4.25232E-19 6.43315E-20
 -1       695 1.14102E-04-4.51374E-05-2.95660E-05-1.08840E-05 9.54461E-19 8.65257E-19
 -1       696 1.25473E-04-5.36726E-05-3.07316E-05-4.05698E-06-8.11646E-19 2.32929E-18
 -1       697 1.37149E-04-4.84881E-05-3.82992E-05-1.07468E-05 6.32151E-19 3.03727E-19
 -1       698 1.31665E-04-5.52503E-05-3.27419E-05 2.27101E-06 6.88691E-19 3.76175E-19
 -1       699 1.20244E-04-4.95754E-05-3.02762E-05 1.28348E-05 1.24874E-18-2.95790E-19
 -1       700 1.09807E-04-4.03826E-05-2.97733E-05 1.75774E-05 1.98826E-18-2.19889E-18
 -1       701 1.02981E-04-3.34910E-05-2.97728E-05 1.99293E-05 1.32729E-18-3.69782E-18
 -1       702 8.38074E-05-4.06379E-05-1.80955E-05-4.22090E-05 1.30753E-18 6.01605E-18
 -1       703 7.41169E-05-1.54520E-05-2.50715E-05-1.45575E-05-1.88137E-18 3.47470E-18
 -1       704 1.03441E-04-3.39275E-05-2.97902E-05-4.53973E-06 1.48603E-18-1.14292E-18
 -1       705 7.47682E-05-1.63244E-05-2.49799E-05 1.66243E-05-9.91996E-19-3.60628E-18
 -1       706 8.57438E-05-2.37261E-05-2.65316E-05-2.36540E-05-1.45033E-18 2.23615E-18
 -1       707 6.87932E-05-1.22636E-05-2.41395E-05 1.12345E-06-1.65404E-18 2.18983E-18
 -1       708 9.71956E-05-3.15163E-05-2.81090E-05-2.43240E-05 4.65974E-19 2.80101E-18
 -1       709 1.04515E-04-3.60378E-05-2.93280E-05-1.95244E-05 2.08183E-18 3.35340E-18
 -1       710 1.06904E-04-3.71588E-05-2.98908E-05-1.27716E-05 1.53779E-18 2.23530E-18
 -1       711 9.52280E-05-2.70382E-05-2.92220E-05 9.23578E-07 1.57328E-18-1.51380E-18
 -1       712 4.32999E-05-1.27213E-05-1.25215E-05 1.79698E-06-1.74704E-18-1.21279E-18
 -1       713 1.30545E-04-2.62661E-05-4.51068E-05 1.20200E-05-3.05361E-18-4.78185E-18
 -1       714 1.22703E-04-1.21187E-05-4.79518E-05 5.53645E-06-3.60683E-18-4.04585E-18
 -1       715 1.30416E-04-6.14019E-05-2.95948E-05 1.56387E-05 1.60777E-19-2.41616E-19
 -1       716 5.15476E-05-2.26865E-05-1.18940E-05-2.54206E-05 4.58192E-20-6.95075E-18
 -1       717 6.72208E-05-3.38885E-05-1.38729E-05 3.85718E-05 2.38395E-18-2.41492E-18
 -1       718 9.49217E-05-2.83701E-05-2.85221E-05-1.04458E-06 5.03655E-19-1.30960E-18
 -1       719 9.49837E-05-2.81159E-05-2.86575E-05-7.35879E-07 8.41663E-19-1.41140E-18
 -1       720 1.36934E-04-5.18621E-05-3.66865E-05-5.71230E-06 3.34181E-21-1.21981E-18
 -1       721 9.20771E-05-1.76777E-05-3.18914E-05 3.94776E-06 1.79968E-18-3.16547E-18
 -1       722 1.39206E-04-5.85668E-05-3.45913E-05 6.35354E-06 1.65539E-18 5.21878E-19
 -1       723 1.39067E-04-6.14848E-05-3.32598E-05 6.36363E-06 5.91861E-19-2.42008E-18
 -1       724 1.17527E-04-6.05519E-05-2.42940E-05 3.47428E-05 1.88624E-19-5.59107E-18
 -1       725 8.80121E-05-4.48589E-05-1.82275E-05-3.36028E-05 1.89534E-18-1.98248E-18
 -1       726 3.82890E-05-1.29894E-05-1.02634E-05-5.05131E-06 6.62764E-19-5.19025E-18
 -1       727 1.06027E-04-5.41131E-05-2.20233E-05 3.35812E-05 1.16549E-18-6.88333E-19
 -1       728 1.31423E-04-3.01643E-05-4.38436E-05-1.67641E-05-1.21192E-18-2.24440E-18
 -1       729 1.36700E-04-6.32447E-05-3.15571E-05-1.73364E-05 3.34822E-18 2.33508E-18
 -1       730 9.20371E-05-1.76204E-05-3.18985E-05-3.89611E-06-7.92714E-19-3.34586E-18
 -1       731 5.15851E-05-2.02053E-05-1.29378E-05-2.65930E-05-3.85585E-19 7.00544E-18
 -1       732 1.16875E-04-5.89377E-05-2.46239E-05-3.52873E-05 1.95514E-18 3.72087E-18
 -1       733 1.37841E-04-4.78259E-05-3.88322E-05 1.93199E-05 9.27700E-19-3.56839E-19
 -1       734 9.28333E-05-1.89167E-05-3.16833E-05-5.21557E-06-1.36939E-18-3.13352E-18
 -1       735 9.12856E-05-1.64380E-05-3.20829E-05-7.83070E-07 1.51713E-19-3.88510E-18
 -1       736 7.50198E-05-3.25326E-05-1.79582E-05-2.92670E-05-1.63590E-19-3.16232E-18
 -1       737 9.54000E-05-2.93765E-05-2.82898E-05 2.42539E-05 2.41164E-18-3.80526E-18
 -1       738 7.41911E-05-3.12091E-05-1.80881E-05 3.52959E-05-5.55204E-20-1.06222E-17
 -1       739 1.15993E-04-1.07478E-05-4.54825E-05-3.23987E-06-3.45679E-18-2.04025E-18
 -1       740 8.54648E-05-2.32269E-05-2.66163E-05 2.36046E-05 2.42833E-18-5.06134E-18
 -1       741 9.15295E-05-1.68190E-05-3.20244E-05-2.37947E-06-3.12076E-19-3.44818E-18
 -1       742 4.27406E-05-1.30675E-05-1.22787E-05 9.13742E-06 1.29967E-18-2.92181E-18
 -1       743 1.30339E-04-3.96531E-05-3.90920E-05 1.01087E-05-1.72897E-18-3.59037E-18
 -1       744 9.46290E-05-2.27207E-05-3.08161E-05 3.90932E-06 2.16367E-18-2.25236E-18
 -1       745 9.43537E-05-2.19955E-05-3.10115E-05-4.62029E-06-1.58339E-18-2.54887E-18
 -1       746 9.53118E-05-2.45940E-05-3.03080E-05-2.64144E-06-1.30002E-18-2.06853E-18
 -1       747 9.57401E-05-2.62755E-05-2.97702E-05-1.15347E-06-1.09413E-18-1.91438E-18
 -1       748 9.59119E-05-2.73796E-05-2.93708E-05-1.41777E-07-1.00985E-18-1.50643E-18
 -1       749 9.59398E-05-2.80844E-05-2.90809E-05 4.91667E-07-5.92834E-19-1.41662E-18
 -1       750 9.58979E-05-2.85216E-05-2.88756E-05 8.46028E-07-5.03892E-19-1.46126E-18
 -1       751 9.58257E-05-2.87787E-05-2.87345E-05 1.00600E-06-4.86959E-19-1.34096E-18
 -1       752 9.57436E-05-2.89141E-05-2.86413E-05 1.03874E-06-3.71468E-19-1.30230E-18
 -1       753 9.56622E-05-2.89675E-05-2.85835E-05 9.94748E-07-5.23908E-19-8.96466E-19
 -1       754 9.55864E-05-2.89660E-05-2.85517E-05 9.10951E-07-4.17414E-19-7.78776E-19
 -1       755 9.55181E-05-2.89278E-05-2.85388E-05 8.13872E-07-8.18825E-19-1.34177E-18
 -1       756 9.54573E-05-2.88647E-05-2.85398E-05 7.22463E-07-5.84706E-19-1.67492E-18
 -1       757 9.54030E-05-2.87835E-05-2.85512E-05 6.50484E-07-4.26110E-19-1.28187E-18
 -1       758 9.53530E-05-2.86877E-05-2.85709E-05 6.08446E-07-4.12268E-19-1.49367E-18
 -1       759 9.53049E-05-2.85782E-05-2.85972E-05 6.05034E-07-4.97831E-19-1.19324E-18
 -1       760 9.52561E-05-2.84541E-05-2.86294E-05 6.48152E-07-4.94142E-19-1.47066E-18
 -1       761 9.52035E-05-2.83136E-05-2.86671E-05 7.45673E-07-1.62222E-19-1.41108E-18
 -1       762 9.51446E-05-2.81551E-05-2.87098E-05 9.05794E-07 3.73548E-19-6.82267E-19
 -1       763 9.50773E-05-2.79780E-05-2.87569E-05 1.13705E-06 5.24250E-19-6.51178E-19
 -1       764 9.50016E-05-2.77848E-05-2.88072E-05 1.44796E-06 5.27426E-19-1.17071E-18
 -1       765 9.49201E-05-2.75828E-05-2.88588E-05 1.84617E-06 3.63777E-19-1.41816E-18
 -1       766 9.48408E-05-2.73873E-05-2.89086E-05 2.33711E-06-7.41322E-20 3.27270E-19
 -1       767 9.47805E-05-2.72256E-05-2.89521E-05 2.92194E-06-2.40346E-19 2.22094E-19
 -1       768 9.47692E-05-2.71418E-05-2.89831E-05 3.59467E-06 2.93556E-19-8.57270E-20
 -1       769 9.48571E-05-2.72029E-05-2.89945E-05 4.33817E-06 8.74779E-20-1.06313E-18
 -1       770 9.51233E-05-2.75048E-05-2.89792E-05 5.11851E-06-7.07468E-19-9.51374E-19
 -1       771 9.56858E-05-2.81759E-05-2.89326E-05 5.87636E-06-3.84028E-19-2.09055E-19
 -1       772 9.67097E-05-2.93752E-05-2.88574E-05 6.51311E-06 6.35287E-19 3.72215E-19
 -1       773 9.84076E-05-3.12712E-05-2.87726E-05 6.86682E-06 6.51711E-19-6.12817E-19
 -1       774 1.01012E-04-3.39841E-05-2.87259E-05 6.67627E-06 1.31406E-18-1.59262E-18
 -1       775 1.04688E-04-3.74583E-05-2.88123E-05 5.54219E-06 2.42192E-18-1.73420E-18
 -1       776 1.09347E-04-4.12244E-05-2.91958E-05 2.92419E-06 1.52566E-18-1.70539E-19
 -1       777 1.14351E-04-4.40862E-05-3.01199E-05-1.70005E-06 7.37615E-19 1.11958E-18
 -1       778 1.18081E-04-4.36530E-05-3.19038E-05-8.36773E-06-5.61599E-19 7.07021E-19
 -1       779 1.18172E-04-3.79318E-05-3.45039E-05-1.45890E-05-1.84228E-18 1.50449E-18
 -1       780 1.14025E-04-2.70503E-05-3.73952E-05-1.55260E-05-1.57148E-18 1.89955E-18
 -1       781 1.07937E-04-1.60877E-05-3.95936E-05 1.67788E-06-1.60687E-18-6.10244E-19
 -1       782 1.12528E-04-2.46487E-05-3.78270E-05 9.28903E-06-2.29864E-18-2.58026E-18
 -1       783 1.17323E-04-3.57224E-05-3.50341E-05 9.27266E-06-6.79486E-19-2.31457E-18
 -1       784 1.18087E-04-4.22862E-05-3.25223E-05 3.72366E-06-5.58502E-19-1.99167E-18
 -1       785 1.15130E-04-4.30730E-05-3.08661E-05-2.53877E-06 3.58881E-20-1.84947E-18
 -1       786 5.45335E-05-1.65694E-05-1.59527E-05-1.45469E-05 2.51529E-19-6.07177E-18
 -1       787 9.55660E-05-2.87722E-05-2.86259E-05-1.08539E-06 5.10855E-19-1.50402E-18
 -1       788 9.54095E-05-2.88862E-05-2.85100E-05-9.03294E-07 4.37102E-19-7.96314E-19
 -1       789 9.53731E-05-2.88492E-05-2.85103E-05-7.98730E-07 7.49233E-21-4.14738E-19
 -1       790 9.53432E-05-2.87929E-05-2.85216E-05-7.06408E-07 5.33271E-19-1.18946E-19
 -1       791 9.53181E-05-2.87219E-05-2.85413E-05-6.38817E-07 4.46191E-19-6.62558E-19
 -1       792 9.52963E-05-2.86378E-05-2.85680E-05-6.05882E-07 4.05454E-19-4.42792E-19
 -1       793 9.52756E-05-2.85398E-05-2.86011E-05-6.16355E-07-2.00119E-19-8.85567E-19
 -1       794 9.52533E-05-2.84250E-05-2.86407E-05-6.78967E-07-5.10500E-19-8.78793E-19
 -1       795 9.52263E-05-2.82891E-05-2.86873E-05-8.03232E-07 5.27773E-20-6.78640E-19
 -1       796 9.51900E-05-2.81261E-05-2.87416E-05-9.99987E-07 4.21771E-19-9.02634E-19
 -1       797 9.51384E-05-2.79284E-05-2.88042E-05-1.28172E-06 7.44879E-20-1.45808E-19
 -1       798 9.50634E-05-2.76875E-05-2.88753E-05-1.66264E-06 5.57423E-19 1.08190E-18
 -1       799 9.49538E-05-2.73943E-05-2.89539E-05-2.15840E-06 3.93695E-20 1.88354E-18
 -1       800 9.47949E-05-2.70399E-05-2.90377E-05-2.78549E-06 2.06839E-19 3.97630E-19
 -1       801 9.45682E-05-2.66180E-05-2.91212E-05-3.56026E-06 3.47792E-20-4.13366E-19
 -1       802 9.42525E-05-2.61296E-05-2.91952E-05-4.49774E-06-6.50573E-19-1.32250E-18
 -1       803 9.38282E-05-2.55910E-05-2.92441E-05-5.61048E-06-1.40922E-19-8.55694E-19
 -1       804 9.32864E-05-2.50492E-05-2.92440E-05-6.90859E-06 1.21705E-20-1.36337E-19
 -1       805 9.26495E-05-2.46068E-05-2.91604E-05-8.40224E-06-1.05305E-19-2.51254E-19
 -1       806 9.20100E-05-2.44632E-05-2.89473E-05-1.01087E-05-7.24070E-19-7.33318E-19
 -1       807 9.15991E-05-2.49732E-05-2.85505E-05-1.20607E-05-1.04317E-18-5.29623E-19
 -1       808 9.18527E-05-2.66928E-05-2.79202E-05-1.43444E-05-1.82188E-18-8.54198E-19
 -1       809 9.39907E-05-3.07299E-05-2.71276E-05-1.69163E-05-2.45016E-18-4.63668E-19
 -1       810 9.95530E-05-3.81162E-05-2.62511E-05-1.96250E-05-9.58269E-19 5.96629E-19
 -1       811 1.03054E-04-3.88886E-05-2.74762E-05 2.61352E-05 3.49827E-18-2.28683E-18
 -1       812 6.12587E-05-1.44390E-05-1.98000E-05 1.25876E-05-1.72735E-19-1.65699E-18
 -1       813 9.41218E-05-3.53454E-05-2.51470E-05-3.05379E-05 8.38027E-19 2.74061E-18
 -1       814 7.47560E-05-2.33810E-05-2.18249E-05-2.71939E-05-8.24871E-19 4.78966E-18
 -1       815 1.03938E-04-4.75175E-05-2.40035E-05-3.52299E-05 2.84956E-18 2.42674E-18
 -1       816 1.12981E-04-4.39340E-05-2.96112E-05-1.51181E-05 7.79777E-19 3.24130E-18
 -1       817 8.78703E-05-3.96234E-05-2.04418E-05 3.18440E-05 2.47939E-18-1.00903E-19
 -1       818 1.18366E-04-1.99661E-05-4.24783E-05 9.25020E-06-2.90638E-18-2.44789E-18
 -1       819 9.56312E-05-2.85895E-05-2.87322E-05-9.88026E-07 3.90636E-19-1.45380E-18
 -1       820 1.09068E-04-4.36578E-05-2.79883E-05-2.44545E-05 7.27123E-19 3.47803E-18
 -1       821 1.14645E-04-5.20262E-05-2.67941E-05 2.69584E-05 1.58001E-18-2.54551E-18
 -1       822 6.00529E-05-1.36453E-05-1.96328E-05-1.00116E-05-3.14813E-18 2.54134E-18
 -1       823 9.54535E-05-2.88958E-05-2.85248E-05-1.00327E-06 7.21904E-19-1.24520E-18
 -1       824 1.34980E-04-5.43756E-05-3.46256E-05-1.90742E-06 2.68736E-18 5.09993E-19
 -1       825 9.55058E-05-2.88644E-05-2.85606E-05-1.07507E-06 4.40598E-19-1.66733E-18
 -1       826 5.74315E-05-2.21806E-05-1.47874E-05 2.70985E-05 2.06382E-18-2.17497E-18
 -1       827 9.56927E-05-2.82713E-05-2.88949E-05-7.19778E-07 4.69283E-19-1.67668E-18
 -1       828 1.30027E-04-5.55183E-05-3.19796E-05 1.51284E-06-1.10543E-18-2.55237E-18
 -1       829 9.57302E-05-2.77490E-05-2.91351E-05-1.94288E-07 9.76176E-19-2.00655E-18
 -1       830 1.07227E-04-5.00088E-05-2.43062E-05-2.40394E-05 1.40462E-19-6.48311E-19
 -1       831 1.15755E-04-1.94560E-05-4.15341E-05-1.47757E-05-1.60376E-18 2.00395E-18
 -1       832 9.52183E-05-2.44899E-05-3.03126E-05 3.41707E-06 2.01343E-18-1.93330E-18
 -1       833 1.26857E-04-3.99378E-05-3.73776E-05-1.48794E-05-3.48011E-19-9.97487E-19
 -1       834 9.32015E-05-1.97765E-05-3.14689E-05 1.23305E-06 8.20727E-19-3.43224E-18
 -1       835 1.25915E-04-5.76755E-05-2.92312E-05-2.02953E-05 3.18136E-18 2.20121E-18
 -1       836 1.18353E-04-5.53742E-05-2.69712E-05 1.78544E-05 6.43684E-19-2.05765E-18
 -1       837 9.97691E-05-4.63588E-05-2.25850E-05 3.63177E-05 2.02396E-18-6.97006E-18
 -1       838 9.30916E-05-1.95788E-05-3.15067E-05 1.87628E-08 4.06134E-19-3.40681E-18
 -1       839 9.40462E-05-2.13715E-05-3.11455E-05 3.32328E-06 1.85565E-18-2.62163E-18
 -1       840 9.29678E-05-1.89743E-05-3.17177E-05-6.34131E-06-1.84282E-18-3.21881E-18
 -1       841 5.21729E-05-1.33713E-05-1.63901E-05-3.71318E-06 1.21136E-18-4.52909E-18
 -1       842 9.35306E-05-2.03727E-05-3.13534E-05 2.37334E-06 1.50883E-18-2.99719E-18
 -1       843 9.40108E-05-2.13191E-05-3.11546E-05-3.28057E-06-1.04308E-18-2.75901E-18
 -1       844 9.55233E-05-2.61738E-05-2.97209E-05 1.60222E-06 1.74950E-18-2.01745E-18
 -1       845 7.25103E-05-2.19906E-05-2.14738E-05 2.50938E-05 6.60464E-19-7.73335E-18
 -1       846 9.56546E-05-2.70895E-05-2.93850E-05 5.30854E-07 1.24698E-18-2.12274E-18
 -1       847 1.03528E-04-4.60204E-05-2.45794E-05 2.29540E-05 2.03600E-18-2.86264E-18
 -1       848 9.35034E-05-2.03398E-05-3.13569E-05-2.31970E-06-5.14789E-19-3.07870E-18
 -1       849 7.20214E-05-2.44784E-05-2.02817E-05-2.11368E-05-1.10936E-18-3.33464E-18
 -1       850 9.54491E-05-2.46520E-05-3.03399E-05-1.76804E-06-1.00019E-18-2.43941E-18
 -1       851 9.60153E-05-2.63527E-05-2.98552E-05-7.07821E-07-7.14667E-19-2.08256E-18
 -1       852 9.62882E-05-2.75046E-05-2.94788E-05 2.71761E-08-6.16181E-19-1.66595E-18
 -1       853 9.63714E-05-2.82496E-05-2.91951E-05 4.89794E-07-5.69144E-19-1.42748E-18
 -1       854 9.63434E-05-2.87102E-05-2.89856E-05 7.45205E-07-3.12161E-19-1.14749E-18
 -1       855 9.62541E-05-2.89724E-05-2.88350E-05 8.54989E-07-4.91095E-19-1.04566E-18
 -1       856 9.61351E-05-2.90979E-05-2.87302E-05 8.69390E-07-4.46294E-19-1.20457E-18
 -1       857 9.60055E-05-2.91305E-05-2.86607E-05 8.27262E-07-3.87891E-19-1.08502E-18
 -1       858 9.58762E-05-2.91006E-05-2.86181E-05 7.57634E-07-9.30024E-19-1.17537E-18
 -1       859 9.57527E-05-2.90287E-05-2.85960E-05 6.81737E-07-9.86094E-19-8.99886E-19
 -1       860 9.56363E-05-2.89276E-05-2.85894E-05 6.14937E-07-3.61867E-19-1.25603E-18
 -1       861 9.55257E-05-2.88043E-05-2.85949E-05 5.68787E-07-4.56878E-19-1.26735E-18
 -1       862 9.54174E-05-2.86617E-05-2.86096E-05 5.52519E-07-2.67210E-19-1.62114E-18
 -1       863 9.53065E-05-2.84993E-05-2.86316E-05 5.74086E-07-4.52179E-19-1.78229E-18
 -1       864 9.51869E-05-2.83148E-05-2.86595E-05 6.41142E-07-2.83680E-19-1.34923E-18
 -1       865 9.50520E-05-2.81049E-05-2.86916E-05 7.61667E-07 4.43659E-19-1.42569E-18
 -1       866 9.48951E-05-2.78667E-05-2.87264E-05 9.44258E-07 6.54485E-19-1.72067E-18
 -1       867 9.47101E-05-2.75994E-05-2.87617E-05 1.19829E-06 9.85605E-20-1.56950E-18
 -1       868 9.44931E-05-2.73060E-05-2.87945E-05 1.53384E-06 5.14252E-19-1.54708E-18
 -1       869 9.42445E-05-2.69968E-05-2.88204E-05 1.96127E-06 3.97874E-19-1.47446E-18
 -1       870 9.39717E-05-2.66926E-05-2.88339E-05 2.49072E-06-2.39122E-19-1.83161E-18
 -1       871 9.36940E-05-2.64302E-05-2.88273E-05 3.13127E-06 4.89033E-20-1.31057E-18
 -1       872 9.34494E-05-2.62683E-05-2.87918E-05 3.88975E-06-3.18584E-19-1.42883E-18
 -1       873 9.33034E-05-2.62952E-05-2.87177E-05 4.76883E-06-2.29878E-19-2.27142E-18
 -1       874 9.33612E-05-2.66365E-05-2.85961E-05 5.76327E-06 9.35618E-19-9.16326E-19
 -1       875 9.37836E-05-2.74620E-05-2.84233E-05 6.85230E-06 1.30923E-19-1.95874E-19
 -1       876 9.48056E-05-2.89883E-05-2.82072E-05 7.98168E-06 3.35577E-19-6.85496E-19
 -1       877 9.67521E-05-3.14648E-05-2.79802E-05 9.02002E-06 7.60707E-19-6.81428E-19
 -1       878 1.00026E-04-3.51094E-05-2.78193E-05 9.68262E-06 1.30568E-18-1.25866E-18
 -1       879 1.05022E-04-3.99425E-05-2.78789E-05 9.41684E-06 2.96697E-18-1.95560E-18
 -1       880 1.11826E-04-4.53810E-05-2.84508E-05 7.25219E-06 1.60174E-18-2.19520E-18
 -1       881 1.19685E-04-4.96442E-05-3.00587E-05 1.95091E-06-2.63104E-19-2.08419E-18
 -1       882 1.26940E-04-4.65390E-05-3.45190E-05 3.76961E-06-2.77913E-19-3.00648E-18
 -1       883 1.23558E-04-5.00830E-05-3.14423E-05-5.49611E-06 5.53373E-19 1.08379E-18
 -1       884 9.57206E-05-2.90276E-05-2.85827E-05-7.81684E-07 1.46441E-19-9.34104E-19
 -1       885 9.54470E-05-2.87413E-05-2.85882E-05-5.90218E-07 7.39962E-20-2.17369E-19
 -1       886 9.53623E-05-2.86061E-05-2.86098E-05-5.83901E-07 3.34143E-19-1.02438E-19
 -1       887 9.52727E-05-2.84492E-05-2.86387E-05-6.20938E-07 2.00833E-19-8.57428E-19
 -1       888 9.51712E-05-2.82655E-05-2.86739E-05-7.09602E-07-3.26495E-19-1.31533E-18
 -1       889 9.50485E-05-2.80473E-05-2.87148E-05-8.58669E-07-3.06330E-20-9.89257E-19
 -1       890 9.48932E-05-2.77853E-05-2.87605E-05-1.07769E-06-1.48306E-19-1.15307E-19
 -1       891 9.46906E-05-2.74686E-05-2.88094E-05-1.37699E-06-3.48927E-19-3.51477E-19
 -1       892 9.44226E-05-2.70849E-05-2.88590E-05-1.76736E-06-4.90113E-19 1.60430E-19
 -1       893 9.40661E-05-2.66219E-05-2.89046E-05-2.25943E-06 4.76198E-19-2.45023E-19
 -1       894 9.35929E-05-2.60687E-05-2.89389E-05-2.86297E-06 4.45662E-19-4.73567E-19
 -1       895 9.29691E-05-2.54184E-05-2.89503E-05-3.58629E-06 1.08283E-19-8.37046E-19
 -1       896 9.21562E-05-2.46737E-05-2.89210E-05-4.43670E-06-6.26752E-19-4.42415E-19
 -1       897 9.11147E-05-2.38559E-05-2.88251E-05-5.42339E-06-5.04604E-19-6.10751E-19
 -1       898 8.98118E-05-2.30193E-05-2.86252E-05-6.56574E-06 6.78019E-19-2.00868E-18
 -1       899 8.82375E-05-2.22744E-05-2.82696E-05-7.91132E-06 4.37514E-19-2.28201E-18
 -1       900 8.64326E-05-2.18234E-05-2.76889E-05-9.57007E-06-1.03304E-18-2.71789E-18
 -1       901 8.45590E-05-2.20359E-05-2.67960E-05-1.17809E-05-2.05606E-18-2.22383E-18
 -1       902 8.33720E-05-2.35624E-05-2.56110E-05-1.50520E-05-2.32378E-18-6.52662E-19
 -1       903 1.13240E-04-4.89868E-05-2.77792E-05-2.51275E-05 9.20169E-19 2.47685E-18
 -1       904 9.61398E-05-2.87888E-05-2.88647E-05-8.77073E-07 4.12861E-19-1.52000E-18
 -1       905 9.60177E-05-3.62891E-05-2.54811E-05 3.00159E-05 3.20141E-18-4.78923E-18
 -1       906 9.31911E-05-1.97634E-05-3.14706E-05-1.19541E-06-5.08488E-20-3.40735E-18
 -1       907 7.42072E-05-2.66103E-05-2.02493E-05 2.42127E-05 1.96998E-18-8.53796E-19
 -1       908 1.12927E-04-1.43015E-05-4.26457E-05 2.26392E-06-3.00679E-18-1.50537E-18
 -1       909 9.58257E-05-2.90678E-05-2.86105E-05-8.64585E-07 4.16724E-19-1.14302E-18
 -1       910 5.60642E-05-1.59134E-05-1.69985E-05 1.46124E-05 1.29764E-18-2.13115E-18
 -1       911 9.55327E-05-2.88576E-05-2.85750E-05-6.31661E-07 3.29394E-19-7.68839E-19
 -1       912 9.56231E-05-2.89545E-05-2.85722E-05-6.99210E-07-8.67379E-20-9.67672E-19
 -1       913 9.62016E-05-2.84426E-05-2.90396E-05-6.75276E-07 1.82841E-19-1.68900E-18
 -1       914 9.61932E-05-2.78655E-05-2.92833E-05-2.75595E-07 4.88757E-19-1.64977E-18
 -1       915 9.54745E-05-2.50758E-05-3.01724E-05 2.14251E-06 1.81794E-18-2.14646E-18
 -1       916 9.60479E-05-2.69440E-05-2.96160E-05 3.96299E-07 8.61753E-19-1.78862E-18
 -1       917 8.90931E-05-3.47061E-05-2.32639E-05 2.28889E-05 1.28210E-18-1.42024E-18
 -1       918 1.10078E-04-4.70756E-05-2.69742E-05 1.44874E-05 2.05006E-18-3.50773E-18
 -1       919 9.45432E-05-2.22743E-05-3.09725E-05 4.33026E-07 5.03216E-19-3.22370E-18
 -1       920 9.59358E-05-2.90593E-05-2.86614E-05-9.28198E-07 2.45984E-19-1.69642E-18
 -1       921 9.46912E-05-2.26184E-05-3.08903E-05 1.22121E-06 9.39178E-19-2.77355E-18
 -1       922 9.60445E-05-2.89779E-05-2.87428E-05-9.45003E-07 6.52299E-19-1.56048E-18
 -1       923 9.52385E-05-2.38755E-05-3.05844E-05-1.38877E-06-6.83843E-19-2.33159E-18
 -1       924 6.42968E-05-1.69432E-05-2.01620E-05-1.14815E-05 6.37425E-20-4.25000E-18
 -1       925 9.53163E-05-2.41681E-05-3.04916E-05 1.79373E-06 1.41676E-18-2.34116E-18
 -1       926 9.62945E-05-2.66145E-05-2.98628E-05-3.35473E-07-4.30645E-19-2.03679E-18
 -1       927 9.65930E-05-2.77356E-05-2.95104E-05 1.43446E-07-3.44125E-19-1.71372E-18
 -1       928 9.66839E-05-2.84592E-05-2.92391E-05 4.39752E-07-1.04259E-19-1.20543E-18
 -1       929 9.66466E-05-2.88994E-05-2.90345E-05 5.97661E-07-2.41011E-19-1.01622E-18
 -1       930 9.65344E-05-2.91384E-05-2.88840E-05 6.58566E-07-4.65293E-19-5.68364E-19
 -1       931 9.63833E-05-2.92373E-05-2.87768E-05 6.56928E-07-3.63445E-19-6.48056E-19
 -1       932 9.62163E-05-2.92404E-05-2.87039E-05 6.19620E-07-6.55427E-19-1.28575E-18
 -1       933 9.60467E-05-2.91786E-05-2.86577E-05 5.67070E-07-8.54224E-19-9.90916E-19
 -1       934 9.58812E-05-2.90728E-05-2.86322E-05 5.14340E-07-1.09831E-18-1.17905E-18
 -1       935 9.57211E-05-2.89349E-05-2.86226E-05 4.72443E-07-4.45200E-19-1.34552E-18
 -1       936 9.55636E-05-2.87710E-05-2.86254E-05 4.50155E-07-5.46118E-19-8.09252E-19
 -1       937 9.54035E-05-2.85826E-05-2.86375E-05 4.54760E-07-5.13366E-19-7.13162E-19
 -1       938 9.52330E-05-2.83675E-05-2.86566E-05 4.92911E-07-2.95044E-19-6.80575E-19
 -1       939 9.50427E-05-2.81218E-05-2.86804E-05 5.71620E-07 4.65219E-19-7.53660E-19
 -1       940 9.48223E-05-2.78405E-05-2.87065E-05 6.98549E-07 3.93396E-19-1.12744E-18
 -1       941 9.45611E-05-2.75197E-05-2.87320E-05 8.82538E-07 3.57290E-19-7.73834E-19
 -1       942 9.42488E-05-2.71579E-05-2.87533E-05 1.13405E-06 3.60740E-19-2.20460E-19
 -1       943 9.38778E-05-2.67588E-05-2.87653E-05 1.46548E-06 3.27726E-19-3.05187E-19
 -1       944 9.34448E-05-2.63348E-05-2.87614E-05 1.89167E-06-6.24058E-19-2.19718E-19
 -1       945 9.29549E-05-2.59109E-05-2.87331E-05 2.43051E-06-1.50601E-19-4.15677E-19
 -1       946 9.24266E-05-2.55304E-05-2.86698E-05 3.10393E-06-7.86137E-20-1.17122E-18
 -1       947 9.18986E-05-2.52618E-05-2.85586E-05 3.93921E-06-4.14243E-19-3.35103E-19
 -1       948 9.14408E-05-2.52071E-05-2.83858E-05 4.97019E-06 4.25369E-19-6.09702E-20
 -1       949 9.11688E-05-2.55120E-05-2.81385E-05 6.23681E-06 8.10619E-19-1.13799E-19
 -1       950 9.12630E-05-2.63752E-05-2.78087E-05 7.78288E-06 3.85836E-19-2.52835E-19
 -1       951 9.20093E-05-2.80715E-05-2.74021E-05 9.64082E-06 2.74071E-19-5.53805E-19
 -1       952 9.38514E-05-3.09590E-05-2.69550E-05 1.17606E-05 7.80164E-19-1.21605E-18
 -1       953 9.73885E-05-3.54207E-05-2.65525E-05 1.39384E-05 1.51252E-18-1.47332E-18
 -1       954 1.02617E-04-4.07503E-05-2.65009E-05 1.50163E-05 1.86827E-18-3.84337E-18
 -1       955 9.45433E-05-2.22739E-05-3.09727E-05-4.03360E-07 1.74735E-19-3.07400E-18
 -1       956 9.65620E-05-2.86326E-05-2.91124E-05-5.86937E-07 1.93246E-19-1.53057E-18
 -1       957 9.63649E-05-2.71408E-05-2.96676E-05 1.38131E-07 7.04608E-19-1.80740E-18
 -1       958 9.54897E-05-2.87043E-05-2.86223E-05-4.99584E-07 1.44394E-19-1.04469E-18
 -1       959 9.50023E-05-2.80449E-05-2.86960E-05-6.65881E-07-2.13228E-19-3.65605E-19
 -1       960 9.47768E-05-2.77416E-05-2.87294E-05-8.15892E-07-4.57065E-19-1.22863E-18
 -1       961 9.44928E-05-2.73784E-05-2.87633E-05-1.02395E-06-2.46472E-19-9.44365E-19
 -1       962 9.41284E-05-2.69421E-05-2.87941E-05-1.29601E-06-1.00829E-18-7.27856E-19
 -1       963 9.36570E-05-2.64190E-05-2.88163E-05-1.63676E-06-2.62168E-19-8.43091E-19
 -1       964 9.30466E-05-2.57963E-05-2.88216E-05-2.04876E-06 8.75970E-19 6.31893E-20
 -1       965 9.22583E-05-2.50636E-05-2.87977E-05-2.53162E-06 3.35835E-19-3.84469E-19
 -1       966 9.12457E-05-2.42160E-05-2.87270E-05-3.08197E-06 1.08686E-19-7.80273E-19
 -1       967 8.99542E-05-2.32586E-05-2.85839E-05-3.69532E-06-9.09003E-20-1.31854E-18
 -1       968 8.83194E-05-2.22118E-05-2.83319E-05-4.37245E-06-1.42098E-19-1.07064E-18
 -1       969 8.62660E-05-2.11203E-05-2.79198E-05-5.13401E-06 8.05275E-19-2.88028E-19
 -1       970 8.37041E-05-2.00635E-05-2.72751E-05-6.04843E-06-1.18114E-19-4.63593E-19
 -1       971 8.05242E-05-1.91698E-05-2.62955E-05-7.28421E-06-1.71699E-18-2.39338E-19
 -1       972 7.67414E-05-1.86668E-05-2.48951E-05-9.16292E-06-2.55593E-18-7.78208E-19
 -1       973 6.13267E-05-1.43313E-05-2.00487E-05 3.50007E-06 1.61781E-18-3.29370E-18
 -1       974 9.56285E-05-2.88655E-05-2.86127E-05-5.16798E-07 1.04456E-19-5.64481E-19
 -1       975 9.60659E-05-2.91843E-05-2.86635E-05-6.79342E-07 2.48703E-19-1.33223E-18
 -1       976 6.96449E-05-1.96248E-05-2.13811E-05 1.46658E-05 1.65991E-18-1.77251E-18
 -1       977 9.51870E-05-2.83001E-05-2.86658E-05-5.67477E-07-1.86289E-19 3.05036E-20
 -1       978 9.65429E-05-2.80562E-05-2.93514E-05-3.22267E-07 2.49362E-19-1.80197E-18
 -1       979 9.57930E-05-2.61079E-05-2.98659E-05 1.12785E-06 1.48719E-18-2.07809E-18
 -1       980 9.53456E-05-2.85174E-05-2.86407E-05-5.14231E-07 3.48038E-19-6.53264E-19
 -1       981 9.58729E-05-2.54117E-05-3.01979E-05-8.16945E-07-6.60464E-19-2.12449E-18
 -1       982 9.48778E-05-2.29849E-05-3.08113E-05-9.99205E-07-3.01002E-19-2.81328E-18
 -1       983 9.60609E-05-2.62539E-05-2.99165E-05 6.57173E-07 9.30904E-19-1.81795E-18
 -1       984 9.64907E-05-2.89742E-05-2.89356E-05-7.18694E-07 6.65912E-19-1.91459E-18
 -1       985 9.62201E-05-2.92048E-05-2.87208E-05-7.31892E-07 5.73547E-21-1.40004E-18
 -1       986 9.59144E-05-2.91117E-05-2.86297E-05-6.16722E-07-1.24173E-20-1.21359E-18
 -1       987 9.57690E-05-2.90026E-05-2.86141E-05-5.58721E-07-1.18705E-19-6.97222E-19
 -1       988 8.04920E-05-2.61589E-05-2.32653E-05 1.80203E-05 7.94964E-19-1.54231E-18
 -1       989 9.55721E-05-2.43532E-05-3.05222E-05 6.20193E-09 1.47689E-19-2.90465E-18
 -1       990 9.70732E-05-3.86572E-05-2.50365E-05 1.94429E-05 9.97024E-19-1.72901E-18
 -1       991 9.56132E-05-2.44895E-05-3.04802E-05 4.99193E-07 4.98599E-19-2.73389E-18
 -1       992 9.68286E-05-2.80396E-05-2.94812E-05 1.72366E-07 4.24538E-20-1.70521E-18
 -1       993 9.68897E-05-2.86913E-05-2.92279E-05 3.26400E-07 1.73125E-19-1.39927E-18
 -1       994 9.68239E-05-2.90755E-05-2.90351E-05 4.03451E-07-2.73329E-20-1.34807E-18
 -1       995 9.66834E-05-2.92682E-05-2.88922E-05 4.26924E-07-4.90905E-19-1.33202E-18
 -1       996 9.65041E-05-2.93274E-05-2.87900E-05 4.17116E-07-9.25530E-19-1.35606E-18
 -1       997 9.63092E-05-2.92955E-05-2.87202E-05 3.89390E-07-7.50772E-19-1.76710E-18
 -1       998 9.61113E-05-2.92009E-05-2.86758E-05 3.56277E-07-7.50477E-19-1.52124E-18
 -1       999 9.59164E-05-2.90630E-05-2.86514E-05 3.26240E-07-7.93614E-19-1.28869E-18
 -1      1000 9.57238E-05-2.88913E-05-2.86425E-05 3.05963E-07-1.06122E-19-1.04452E-18
 -1      1001 9.55298E-05-2.86908E-05-2.86453E-05 3.01348E-07-6.40266E-21-7.59955E-19
 -1      1002 9.53259E-05-2.84603E-05-2.86567E-05 3.17188E-07-2.68018E-19 3.81317E-20
 -1      1003 9.51018E-05-2.81959E-05-2.86739E-05 3.58603E-07-2.52497E-19 5.60605E-19
 -1      1004 9.48451E-05-2.78919E-05-2.86942E-05 4.31700E-07 4.08518E-19 3.25298E-19
 -1      1005 9.45415E-05-2.75417E-05-2.87142E-05 5.43310E-07 3.23299E-19 2.01049E-19
 -1      1006 9.41761E-05-2.71396E-05-2.87299E-05 7.02525E-07 4.46792E-19-3.44758E-20
 -1      1007 9.37344E-05-2.66835E-05-2.87361E-05 9.20939E-07 8.71463E-19-2.62669E-19
 -1      1008 9.32035E-05-2.61767E-05-2.87258E-05 1.21380E-06 2.77560E-19-6.57092E-21
 -1      1009 9.25746E-05-2.56318E-05-2.86899E-05 1.60143E-06-5.42105E-19 3.78429E-19
 -1      1010 9.18461E-05-2.50744E-05-2.86165E-05 2.11124E-06-8.57588E-19-3.67710E-19
 -1      1011 9.10275E-05-2.45488E-05-2.84910E-05 2.78064E-06 2.85027E-19-1.22560E-18
 -1      1012 9.01461E-05-2.41242E-05-2.82953E-05 3.66126E-06 1.71836E-19-1.19295E-18
 -1      1013 8.92558E-05-2.39033E-05-2.80085E-05 4.82477E-06 4.03716E-19-2.22903E-18
 -1      1014 8.84525E-05-2.40339E-05-2.76084E-05 6.36531E-06 6.13255E-19-2.10241E-18
 -1      1015 8.78796E-05-2.47050E-05-2.70737E-05 8.41962E-06-5.06271E-19-1.01665E-18
 -1      1016 8.78005E-05-2.62212E-05-2.63909E-05 1.11287E-05 6.35134E-19-1.43593E-18
 -1      1017 8.87857E-05-2.91266E-05-2.55793E-05 1.46421E-05 1.13005E-18-1.71140E-18
 -1      1018 9.47724E-05-2.77858E-05-2.87085E-05-5.34058E-07 1.78908E-19-4.66591E-19
 -1      1019 9.35223E-05-2.64077E-05-2.87634E-05-1.00838E-06-3.04597E-19-1.37402E-18
 -1      1020 9.28640E-05-2.57688E-05-2.87551E-05-1.23685E-06-8.12606E-19-1.15806E-18
 -1      1021 9.20275E-05-2.50218E-05-2.87167E-05-1.49067E-06 6.56609E-19 6.70363E-19
 -1      1022 9.09684E-05-2.41608E-05-2.86318E-05-1.75611E-06 5.14783E-19-2.47088E-19
 -1      1023 8.96332E-05-2.31863E-05-2.84773E-05-2.01336E-06-1.12221E-19-1.26029E-19
 -1      1024 8.79548E-05-2.21068E-05-2.82207E-05-2.23811E-06-3.52316E-19-5.53927E-20
 -1      1025 8.58447E-05-2.09400E-05-2.78165E-05-2.40696E-06-8.28644E-19 3.62468E-19
 -1      1026 8.31751E-05-1.97095E-05-2.71996E-05-2.51197E-06 1.67893E-19 1.60447E-18
 -1      1027 7.97449E-05-1.84330E-05-2.62754E-05-2.57140E-06-9.38676E-19 1.67888E-18
 -1      1028 7.52009E-05-1.70732E-05-2.49057E-05-2.71575E-06-1.59441E-18 7.44111E-19
 -1      1029 9.52602E-05-2.83827E-05-2.86618E-05-3.95222E-07-3.83616E-19-2.02237E-19
 -1      1030 9.40396E-05-2.69485E-05-2.87533E-05-8.13281E-07-5.60095E-19-1.07346E-18
 -1      1031 6.86098E-05-1.59568E-05-2.25715E-05-5.17222E-06 6.19318E-20-2.16565E-18
 -1      1032 9.44474E-05-2.74035E-05-2.87331E-05-6.55062E-07-3.73309E-19-5.84717E-19
 -1      1033 9.56413E-05-2.88212E-05-2.86372E-05-3.71174E-07 8.38862E-20-6.62041E-19
 -1      1034 9.59074E-05-2.53583E-05-3.02348E-05 7.06437E-07 7.73096E-19-2.07350E-18
 -1      1035 9.54575E-05-2.86180E-05-2.86455E-05-3.70836E-07 8.32813E-20-3.16719E-19
 -1      1036 6.98797E-05-1.66553E-05-2.27882E-05 5.77065E-06 1.78671E-18-2.72913E-18
 -1      1037 9.50369E-05-2.81082E-05-2.86837E-05-4.48461E-07 5.25394E-20-3.88444E-19
 -1      1038 9.57557E-05-2.47946E-05-3.04106E-05-3.73419E-07-1.91059E-19-2.53309E-18
 -1      1039 9.65646E-05-2.70126E-05-2.98084E-05-8.61645E-08-6.05026E-20-2.04910E-18
 -1      1040 9.63675E-05-2.91474E-05-2.88087E-05-7.54262E-07 4.54907E-19-1.64443E-18
 -1      1041 9.63647E-05-2.64981E-05-2.99433E-05 2.77336E-07 4.95421E-19-2.00460E-18
 -1      1042 9.62738E-05-2.59987E-05-3.01175E-05 1.14659E-07 1.82729E-19-2.54634E-18
 -1      1043 9.20004E-05-3.32133E-05-2.51971E-05 1.73012E-05 1.42429E-18-1.62006E-18
 -1      1044 9.63750E-05-2.92981E-05-2.87472E-05-5.04435E-07-3.20636E-20-1.62425E-18
 -1      1045 9.68040E-05-2.88370E-05-2.91284E-05-4.51474E-07 5.37746E-19-2.34420E-18
 -1      1046 9.58207E-05-2.89952E-05-2.86395E-05-3.90845E-07 1.30576E-19-6.06876E-19
 -1      1047 9.67065E-05-2.76805E-05-2.95836E-05-1.14822E-07 2.96165E-19-1.69941E-18
 -1      1048 9.58054E-05-2.50398E-05-3.03264E-05-6.33224E-07-4.28546E-19-2.26398E-18
 -1      1049 9.63919E-05-2.62639E-05-3.00547E-05-6.74417E-08 8.62911E-21-2.52669E-18
 -1      1050 7.58700E-05-2.04327E-05-2.37404E-05 1.12871E-05 1.84380E-18-2.15968E-18
 -1      1051 9.61884E-05-2.92451E-05-2.86900E-05-4.66373E-07 5.53033E-20-1.36660E-18
 -1      1052 9.68056E-05-2.83719E-05-2.93288E-05-3.02453E-07 3.61401E-19-1.96993E-18
 -1      1053 9.62509E-05-2.61317E-05-3.00517E-05-3.28261E-07-2.77510E-19-2.08855E-18
 -1      1054 9.55887E-05-2.87347E-05-2.86517E-05-2.02364E-07-1.31494E-19-4.25338E-19
 -1      1055 9.69839E-05-2.83749E-05-2.94049E-05 9.11079E-08 3.35392E-19-1.88633E-18
 -1      1056 9.65540E-05-2.92739E-05-2.88344E-05-5.27644E-07 1.13718E-19-1.54584E-18
 -1      1057 9.69906E-05-2.89095E-05-2.91772E-05 1.49395E-07 2.21989E-19-1.65054E-18
 -1      1058 9.68868E-05-2.92192E-05-2.90005E-05 1.69921E-07-1.19384E-19-1.44815E-18
 -1      1059 9.67128E-05-2.93501E-05-2.88699E-05 1.73711E-07-6.65772E-19-1.41183E-18
 -1      1060 9.65124E-05-2.93626E-05-2.87786E-05 1.64373E-07-1.02462E-18-8.56013E-19
 -1      1061 9.63059E-05-2.92984E-05-2.87174E-05 1.53080E-07-7.93065E-19-1.03918E-18
 -1      1062 9.60874E-05-2.91722E-05-2.86783E-05 1.41220E-07-7.31716E-19-8.77568E-19
 -1      1063 9.58747E-05-2.90052E-05-2.86584E-05 1.29504E-07-3.72373E-19-5.62230E-19
 -1      1064 9.56649E-05-2.88079E-05-2.86530E-05 1.24641E-07 1.73547E-19-3.63127E-19
 -1      1065 9.54441E-05-2.85760E-05-2.86578E-05 1.27746E-07 3.67554E-19-3.32935E-19
 -1      1066 9.52055E-05-2.83093E-05-2.86699E-05 1.42047E-07 4.12635E-19-1.37753E-19
 -1      1067 9.49396E-05-2.80048E-05-2.86863E-05 1.70623E-07-7.43413E-20 8.15136E-20
 -1      1068 9.46260E-05-2.76498E-05-2.87041E-05 2.17161E-07-1.43403E-19 5.73015E-20
 -1      1069 9.42485E-05-2.72377E-05-2.87189E-05 2.88521E-07-2.00438E-20 2.92065E-19
 -1      1070 9.37879E-05-2.67612E-05-2.87257E-05 3.93096E-07 6.53974E-20-2.65909E-19
 -1      1071 9.32244E-05-2.62164E-05-2.87177E-05 5.43242E-07 3.52130E-19-6.71235E-19
 -1      1072 9.25386E-05-2.56046E-05-2.86859E-05 7.56584E-07-2.01128E-19-1.22577E-18
 -1      1073 9.17128E-05-2.49360E-05-2.86185E-05 1.05823E-06-1.04359E-18-1.48643E-18
 -1      1074 9.07329E-05-2.42326E-05-2.84999E-05 1.48384E-06-7.67010E-19-5.33728E-19
 -1      1075 8.95902E-05-2.35324E-05-2.83102E-05 2.08388E-06 9.05405E-20-1.20621E-18
 -1      1076 8.82836E-05-2.28938E-05-2.80239E-05 2.92987E-06-7.48098E-19-7.63606E-19
 -1      1077 8.68190E-05-2.23999E-05-2.76088E-05 4.12499E-06 7.62748E-19-2.14403E-18
 -1      1078 8.52594E-05-2.22002E-05-2.70222E-05 5.79709E-06 5.74709E-19-2.72841E-18
 -1      1079 8.35000E-05-2.23442E-05-2.62167E-05 8.16435E-06 1.30429E-19-2.69537E-18
 -1      1080 9.60026E-05-2.91393E-05-2.86557E-05-4.25432E-07-4.81517E-19-1.25660E-18
 -1      1081 9.29620E-05-2.59363E-05-2.87253E-05-5.06714E-07-3.83849E-19-2.51425E-19
 -1      1082 8.99297E-05-2.35113E-05-2.84652E-05-5.58889E-07 2.84323E-19 9.24311E-19
 -1      1083 8.84046E-05-2.25236E-05-2.82349E-05-4.22334E-07-1.33469E-19 1.37800E-18
 -1      1084 8.65244E-05-2.14737E-05-2.78792E-05-1.28563E-07-5.32383E-19 1.29034E-18
 -1      1085 8.41974E-05-2.03887E-05-2.73467E-05 3.93786E-07-5.66631E-19 9.46440E-20
 -1      1086 8.12449E-05-1.92492E-05-2.65650E-05 1.20890E-06 3.04048E-19 7.19609E-19
 -1      1087 7.74623E-05-1.81067E-05-2.54370E-05 2.38785E-06-4.27218E-20-2.19681E-19
 -1      1088 9.21622E-05-2.52258E-05-2.86871E-05-5.65661E-07-7.13957E-19-7.38394E-19
 -1      1089 9.67807E-05-2.73905E-05-2.97383E-05-6.55641E-09 3.65949E-19-2.58415E-18
 -1      1090 9.53693E-05-2.84950E-05-2.86604E-05-2.08520E-07-2.40094E-19 1.31365E-19
 -1      1091 9.51284E-05-2.82184E-05-2.86757E-05-2.26791E-07-1.49847E-19-3.15034E-19
 -1      1092 9.67085E-05-2.91398E-05-2.89581E-05-5.15448E-07 3.05173E-19-2.10777E-18
 -1      1093 9.48522E-05-2.78980E-05-2.86947E-05-2.59405E-07 8.21586E-20-1.11995E-19
 -1      1094 9.36010E-05-2.65501E-05-2.87361E-05-4.36236E-07-7.65145E-19-8.67707E-19
 -1      1095 9.11654E-05-2.44161E-05-2.86069E-05-5.92923E-07 2.09172E-19-4.08766E-19
 -1      1096 9.67774E-05-2.74735E-05-2.97012E-05 1.42977E-08 3.48398E-19-2.29549E-18
 -1      1097 8.27068E-05-2.38432E-05-2.52274E-05 1.20151E-05 1.24550E-18-2.30971E-18
 -1      1098 9.57977E-05-2.89422E-05-2.86524E-05-2.08029E-07 2.66613E-19-2.33235E-19
 -1      1099 9.69323E-05-2.90283E-05-2.91018E-05-2.57323E-07 3.37384E-19-2.60653E-18
 -1      1100 9.45198E-05-2.75200E-05-2.87142E-05-3.06874E-07-1.82975E-19 2.60832E-19
 -1      1101 9.64222E-05-2.93413E-05-2.87492E-05-2.61989E-07-6.36768E-19-1.63079E-18
 -1      1102 9.69866E-05-2.86591E-05-2.92825E-05-2.01313E-07 8.35588E-19-2.58783E-18
 -1      1103 9.41109E-05-2.70746E-05-2.87299E-05-3.67103E-07-2.59905E-21-5.18350E-19
 -1      1104 9.66124E-05-2.93493E-05-2.88270E-05-2.74773E-07-2.31438E-19-2.35798E-18
 -1      1105 9.49821E-05-2.80523E-05-2.86844E-05-1.04999E-08-1.54895E-19-8.17601E-19
 -1      1106 9.66335E-05-2.93757E-05-2.88238E-05-8.46136E-08-3.78194E-19-1.68189E-18
 -1      1107 9.59941E-05-2.90992E-05-2.86684E-05-6.93224E-08-3.22908E-19-4.98200E-19
 -1      1108 9.46703E-05-2.76991E-05-2.87020E-05-2.39209E-09-2.24774E-19-5.51552E-19
 -1      1109 9.42929E-05-2.72857E-05-2.87174E-05 1.35334E-08 2.57356E-19-4.44201E-19
 -1      1110 9.38296E-05-2.68032E-05-2.87256E-05 4.35205E-08-2.36933E-19 1.96991E-19
 -1      1111 9.32573E-05-2.62440E-05-2.87200E-05 9.71655E-08-6.28229E-21-1.09330E-18
 -1      1112 9.25511E-05-2.56039E-05-2.86917E-05 1.89103E-07-5.41308E-19-1.75018E-18
 -1      1113 9.16851E-05-2.48850E-05-2.86286E-05 3.41124E-07-5.76525E-19-1.25541E-18
 -1      1114 9.06326E-05-2.40981E-05-2.85148E-05 5.84957E-07-2.01730E-20-1.24121E-18
 -1      1115 8.93661E-05-2.32650E-05-2.83291E-05 9.65931E-07-6.07365E-19-3.85738E-19
 -1      1116 8.78557E-05-2.24215E-05-2.80433E-05 1.54788E-06-5.48216E-20-8.02222E-19
 -1      1117 8.60654E-05-2.16178E-05-2.76202E-05 2.42159E-06 2.23469E-19-2.08753E-19
 -1      1118 8.38973E-05-2.08707E-05-2.70144E-05 3.67083E-06 3.30548E-19-1.44390E-18
 -1      1119 9.68212E-05-2.92915E-05-2.89415E-05-1.86535E-07-2.96101E-19-2.46288E-18
 -1      1120 8.03843E-05-2.03189E-05-2.57550E-05 6.49159E-06 6.69170E-19-2.06616E-18
 -1      1121 9.62120E-05-2.92532E-05-2.86968E-05-2.40117E-07-4.28909E-19-8.85517E-19
 -1      1122 9.59950E-05-2.91104E-05-2.86650E-05-2.20575E-07-4.14789E-19-9.14258E-19
 -1      1123 1.16859E-04 2.57580E-10-4.18565E-05-4.14652E-05-3.97258E-19 1.21708E-17
 -1      1124 8.86518E-05 7.19256E-11-3.72519E-05-2.41663E-05-2.15464E-19 1.26049E-18
 -1      1125 8.40770E-05 4.14369E-11-3.57672E-05-1.78775E-05-1.43466E-19-3.35894E-18
 -1      1126 8.23345E-05 3.20344E-11-3.50727E-05-1.38371E-05-1.00956E-19-5.50583E-18
 -1      1127 8.15328E-05 2.73363E-11-3.47381E-05-1.05322E-05-6.43745E-20-6.47968E-18
 -1      1128 8.11282E-05 2.46040E-11-3.45727E-05-7.63963E-06-3.41328E-20-6.83971E-18
 -1      1129 8.09189E-05 2.29494E-11-3.44893E-05-4.97919E-06-1.92138E-20-6.99645E-18
 -1      1130 8.08169E-05 2.20557E-11-3.44500E-05-2.43189E-06-1.89921E-21-6.98822E-18
 -1      1131 8.07879E-05 2.17852E-11-3.44390E-05 5.24853E-08 8.85331E-21-6.95529E-18
 -1      1132 8.08213E-05 2.20994E-11-3.44515E-05 2.53936E-06 2.53382E-20-6.84803E-18
 -1      1133 8.09279E-05 2.30494E-11-3.44923E-05 5.09495E-06 3.70048E-20-6.63679E-18
 -1      1134 8.11440E-05 2.47664E-11-3.45771E-05 7.77176E-06 6.19724E-20-6.19521E-18
 -1      1135 8.15532E-05 2.76403E-11-3.47446E-05 1.06924E-05 8.85546E-20-5.40540E-18
 -1      1136 8.23583E-05 3.25000E-11-3.50828E-05 1.40418E-05 1.22211E-19-4.07310E-18
 -1      1137 8.40747E-05 4.19260E-11-3.57871E-05 1.81285E-05 1.65754E-19-1.49263E-18
 -1      1138 8.83503E-05 6.67475E-11-3.73221E-05 2.40099E-05 1.86347E-19 3.65116E-18
 -1      1139 1.06622E-04 1.63930E-10-4.06352E-05 3.61923E-05 4.08482E-19 1.43769E-17
 -1      1140 1.30226E-04-2.57579E-05-4.02751E-05-2.61059E-05-1.59115E-18 1.90968E-17
 -1      1141 9.74622E-05-2.88642E-05-3.15793E-05-6.80467E-07-5.43398E-19 1.52694E-17
 -1      1142 9.01643E-05-2.70280E-05-2.78945E-05 3.87091E-07-1.87988E-19 9.97241E-18
 -1      1143 8.82534E-05-2.65736E-05-2.66450E-05 2.50903E-07-1.08579E-19 6.37318E-18
 -1      1144 8.78950E-05-2.64470E-05-2.63886E-05 1.65916E-07-4.68333E-20 3.89916E-18
 -1      1145 8.82537E-05-2.65234E-05-2.64735E-05 1.18062E-07-6.48410E-20 2.70450E-18
 -1      1146 8.89391E-05-2.67076E-05-2.66758E-05 8.74669E-08-2.76498E-20 1.19371E-18
 -1      1147 8.97522E-05-2.69390E-05-2.69179E-05 6.62371E-08-3.14527E-20 1.65092E-19
 -1      1148 9.05827E-05-2.71809E-05-2.71655E-05 5.05182E-08 4.49361E-20-1.12025E-18
 -1      1149 9.13684E-05-2.74124E-05-2.74003E-05 3.83993E-08-3.92837E-20-2.03604E-18
 -1      1150 9.20761E-05-2.76223E-05-2.76126E-05 2.88628E-08-1.18697E-19-3.55387E-18
 -1      1151 9.26913E-05-2.78055E-05-2.77977E-05 2.12997E-08-7.97447E-20-4.54212E-18
 -1      1152 9.32113E-05-2.79609E-05-2.79547E-05 1.52991E-08-2.45189E-20-5.38566E-18
 -1      1153 9.36412E-05-2.80898E-05-2.80848E-05 1.05580E-08 8.44994E-20-4.68740E-18
 -1      1154 9.39910E-05-2.81950E-05-2.81911E-05 6.84187E-09-5.13086E-20-3.98783E-18
 -1      1155 9.42740E-05-2.82804E-05-2.82774E-05 3.96847E-09-1.72883E-19-4.64344E-18
 -1      1156 9.45054E-05-2.83506E-05-2.83484E-05 1.80182E-09-5.25532E-20-5.39509E-18
 -1      1157 9.47023E-05-2.84104E-05-2.84090E-05 2.52216E-10 1.55720E-19-5.92470E-18
 -1      1158 9.48832E-05-2.84657E-05-2.84650E-05-7.21136E-10-8.41752E-21-6.05897E-18
 -1      1159 9.50687E-05-2.85225E-05-2.85226E-05-1.10574E-09-9.69988E-21-6.12880E-18
 -1      1160 9.52819E-05-2.85877E-05-2.85887E-05-8.30410E-10-1.30468E-19-5.27609E-18
 -1      1161 9.55486E-05-2.86691E-05-2.86712E-05 2.39883E-10-1.97920E-19-4.97852E-18
 -1      1162 9.58984E-05-2.87755E-05-2.87790E-05 2.30685E-09 1.72120E-19-4.42863E-18
 -1      1163 9.63641E-05-2.89167E-05-2.89219E-05 5.63519E-09-2.53880E-19-4.92881E-18
 -1      1164 9.69811E-05-2.91031E-05-2.91103E-05 1.05347E-08-2.58601E-20-4.50524E-18
 -1      1165 9.77854E-05-2.93454E-05-2.93547E-05 1.73150E-08-8.37223E-20-4.10666E-18
 -1      1166 9.88095E-05-2.96530E-05-2.96644E-05 2.61902E-08 8.02237E-20-5.33035E-18
 -1      1167 1.00075E-04-3.00317E-05-3.00445E-05 3.71006E-08-7.11611E-20-5.09968E-18
 -1      1168 1.01580E-04-3.04805E-05-3.04930E-05 4.94064E-08-1.18339E-19-5.51066E-18
 -1      1169 1.03281E-04-3.09860E-05-3.09947E-05 6.14079E-08 2.41340E-21-4.11178E-18
 -1      1170 1.05073E-04-3.15154E-05-3.15148E-05 6.96922E-08 7.98752E-20-4.47102E-18
 -1      1171 1.06756E-04-3.20086E-05-3.19908E-05 6.84473E-08 1.21827E-20-3.65471E-18
 -1      1172 1.08014E-04-3.23716E-05-3.23270E-05 4.92102E-08 3.26505E-20-4.49226E-18
 -1      1173 1.08412E-04-3.24755E-05-3.23972E-05 2.04814E-09 2.31746E-19-4.72802E-18
 -1      1174 1.07444E-04-3.21726E-05-3.20624E-05-8.03628E-08-1.81963E-19-3.79923E-18
 -1      1175 1.04665E-04-3.13352E-05-3.12115E-05-1.94834E-07-7.73712E-20-2.71797E-18
 -1      1176 9.99177E-05-2.99236E-05-2.98244E-05-3.18131E-07 6.02320E-20-3.27410E-18
 -1      1177 9.36021E-05-2.80619E-05-2.80351E-05-4.03879E-07-9.63773E-20-2.36290E-18
 -1      1178 8.68109E-05-2.60730E-05-2.61519E-05-3.97313E-07 2.12081E-19-1.22767E-18
 -1      1179 8.11350E-05-2.44174E-05-2.45935E-05-2.69713E-07 5.28965E-20-2.57588E-18
 -1      1180 7.80675E-05-2.35190E-05-2.37373E-05-5.16598E-08-2.27097E-19-2.72293E-18
 -1      1181 7.82817E-05-2.35686E-05-2.37510E-05 1.72063E-07 1.63649E-20-5.51670E-18
 -1      1182 8.12732E-05-2.44239E-05-2.45119E-05 3.12759E-07 1.79627E-19-6.20478E-18
 -1      1183 8.56483E-05-2.56900E-05-2.56728E-05 3.31030E-07 4.69132E-19-3.70010E-18
 -1      1184 8.98469E-05-2.69188E-05-2.68315E-05 2.51261E-07 1.08242E-19-3.48078E-18
 -1      1185 9.28200E-05-2.78025E-05-2.77011E-05 1.34312E-07 6.00718E-19-1.14331E-18
 -1      1186 9.43138E-05-2.82604E-05-2.81931E-05 3.95297E-08-1.23002E-19-9.66438E-19
 -1      1187 9.47535E-05-2.84129E-05-2.83926E-05 6.63286E-09-5.14490E-20-1.69286E-18
 -1      1188 9.48961E-05-2.84876E-05-2.84518E-05 4.68064E-08-1.10093E-19-1.96306E-18
 -1      1189 9.50990E-05-2.85277E-05-2.84588E-05 3.83379E-08 4.98878E-19-1.19045E-19
 -1      1190 1.31059E-04-3.77397E-05-3.86605E-05 1.21747E-05-2.79097E-19 2.32515E-17
 -1      1191 9.65634E-05-2.81908E-05-3.13317E-05 8.01419E-07 1.43096E-19 1.83968E-17
 -1      1192 9.03789E-05-2.69308E-05-2.78756E-05 1.20148E-07 1.65456E-19 1.36726E-17
 -1      1193 8.83404E-05-2.65011E-05-2.66815E-05 8.99912E-09 1.57872E-19 1.01214E-17
 -1      1194 8.79355E-05-2.64095E-05-2.64158E-05-2.52826E-08 8.30125E-20 8.01791E-18
 -1      1195 8.82755E-05-2.65061E-05-2.64892E-05-3.43177E-08 2.33753E-20 6.40537E-18
 -1      1196 8.89520E-05-2.67008E-05-2.66860E-05-3.55145E-08-3.85590E-20 5.55941E-18
 -1      1197 8.97603E-05-2.69376E-05-2.69252E-05-3.38030E-08 4.67936E-21 4.67386E-18
 -1      1198 9.05878E-05-2.71824E-05-2.71710E-05-3.07455E-08 3.12876E-20 3.05560E-18
 -1      1199 9.13715E-05-2.74154E-05-2.74045E-05-2.70491E-08 6.95782E-20 2.60471E-18
 -1      1200 9.20778E-05-2.76258E-05-2.76156E-05-2.31251E-08 8.84980E-20 2.35463E-18
 -1      1201 9.26917E-05-2.78091E-05-2.77998E-05-1.92315E-08 2.99752E-20 1.64603E-18
 -1      1202 9.32105E-05-2.79641E-05-2.79559E-05-1.55201E-08-1.22689E-20 1.41744E-18
 -1      1203 9.36391E-05-2.80923E-05-2.80853E-05-1.20660E-08-1.95080E-20-2.18955E-19
 -1      1204 9.39872E-05-2.81967E-05-2.81907E-05-8.88837E-09 1.77473E-19-2.95885E-18
 -1      1205 9.42680E-05-2.82809E-05-2.82760E-05-5.96602E-09-1.08490E-19-3.46111E-18
 -1      1206 9.44963E-05-2.83497E-05-2.83457E-05-3.24949E-09-1.06871E-19-2.60996E-18
 -1      1207 9.46891E-05-2.84079E-05-2.84050E-05-6.70885E-10 3.34637E-19-4.04537E-18
 -1      1208 9.48650E-05-2.84613E-05-2.84593E-05 1.84794E-09 1.79874E-19-5.82468E-18
 -1      1209 9.50450E-05-2.85161E-05-2.85151E-05 4.38801E-09-1.73087E-19-3.53279E-18
 -1      1210 9.52534E-05-2.85796E-05-2.85799E-05 7.02570E-09-2.62176E-19-1.32785E-18
 -1      1211 9.55188E-05-2.86607E-05-2.86624E-05 9.82297E-09 5.94965E-20-1.37687E-18
 -1      1212 9.58763E-05-2.87697E-05-2.87732E-05 1.28123E-08-1.31118E-20-2.59561E-18
 -1      1213 9.63690E-05-2.89197E-05-2.89257E-05 1.59701E-08-4.56353E-20-4.21447E-18
 -1      1214 9.70506E-05-2.91269E-05-2.91362E-05 1.91694E-08-5.82223E-20-3.54259E-18
 -1      1215 9.79881E-05-2.94114E-05-2.94253E-05 2.20929E-08 3.59379E-19-3.54884E-18
 -1      1216 9.92645E-05-2.97979E-05-2.98183E-05 2.40798E-08-9.35136E-20-2.73715E-18
 -1      1217 1.00980E-04-3.03161E-05-3.03454E-05 2.38645E-08-2.62737E-20-3.50272E-18
 -1      1218 1.03251E-04-3.10002E-05-3.10416E-05 1.91610E-08-2.80313E-19-2.20451E-18
 -1      1219 1.06203E-04-3.18858E-05-3.19424E-05 6.08557E-09-3.01435E-19-2.03456E-18
 -1      1220 1.09944E-04-3.30030E-05-3.30762E-05-2.14154E-08 1.73443E-20-2.71572E-18
 -1      1221 1.14517E-04-3.43600E-05-3.44447E-05-7.14405E-08 2.08254E-19-3.44139E-18
 -1      1222 1.19792E-04-3.59141E-05-3.59898E-05-1.51499E-07-2.95342E-19-1.70150E-18
 -1      1223 1.25298E-04-3.75227E-05-3.75407E-05-2.59842E-07-1.59416E-19-3.64754E-19
 -1      1224 1.29990E-04-3.88816E-05-3.87565E-05-3.66332E-07-5.51035E-20-4.87706E-19
 -1      1225 1.32062E-04-3.94788E-05-3.91112E-05-3.87731E-07 3.03410E-20-1.25348E-19
 -1      1226 1.29162E-04-3.86538E-05-3.80173E-05-1.91621E-07 3.38601E-19-1.35292E-18
 -1      1227 1.19493E-04-3.58882E-05-3.51739E-05 3.05342E-07-9.56883E-21-2.07121E-18
 -1      1228 1.03956E-04-3.13700E-05-3.10471E-05 9.37128E-07 1.87864E-19-9.51642E-19
 -1      1229 8.77807E-05-2.65022E-05-2.70226E-05 1.24866E-06-3.71953E-19 2.35899E-19
 -1      1230 7.86885E-05-2.35780E-05-2.48321E-05 8.59401E-07-1.08156E-19 6.27201E-19
 -1      1231 8.12221E-05-2.41465E-05-2.53905E-05-3.25741E-08-8.90708E-20 2.01689E-18
 -1      1232 9.26702E-05-2.75960E-05-2.80742E-05-7.92952E-07 7.21103E-20-1.07192E-18
 -1      1233 1.05421E-04-3.15646E-05-3.12208E-05-9.89819E-07 3.84738E-19-3.58009E-18
 -1      1234 1.13181E-04-3.40093E-05-3.32938E-05-7.17168E-07 1.95585E-19-5.44113E-18
 -1      1235 1.14051E-04-3.43132E-05-3.36699E-05-2.77708E-07-1.11901E-20-2.49499E-18
 -1      1236 1.09607E-04-3.29816E-05-3.26232E-05 1.09133E-07 6.65550E-19-5.64071E-18
 -1      1237 1.02867E-04-3.09567E-05-3.09146E-05 3.50675E-07-1.13772E-19-4.40388E-18
 -1      1238 9.70579E-05-2.92109E-05-2.93657E-05 3.47926E-07 4.17107E-19-2.06716E-18
 -1      1239 9.49359E-05-2.84507E-05-2.84017E-05-1.10278E-07 2.16228E-19-1.51292E-18
 -1      1240 9.53737E-05-2.88606E-05-2.84406E-05-8.98771E-08-1.72723E-18-6.05566E-19
 -1      1241 9.45621E-05-2.65980E-05-2.95065E-05 9.66518E-08-3.67258E-18-1.03585E-18
 -1      1242 9.26543E-05-2.01806E-05-3.13826E-05 4.19418E-07-1.36849E-19 1.00643E-18
 -1      1243 8.99063E-05-1.08889E-05-3.39966E-05 5.74606E-07-6.59172E-18-4.29360E-19
 -1      1244 8.68664E-05-5.19216E-07-3.68799E-05 6.05574E-07-1.04102E-17 1.55528E-19
 -1      1245 8.42064E-05 8.61879E-06-3.93841E-05 4.76737E-07-1.76603E-17-2.93358E-19
 -1      1246 8.25717E-05 1.42617E-05-4.09182E-05 2.07280E-07-1.85115E-17-6.33144E-19
 -1      1247 8.24099E-05 1.48152E-05-4.10777E-05-1.43223E-07-1.33560E-17-8.11471E-19
 -1      1248 8.37631E-05 1.01279E-05-3.98266E-05-4.30883E-07-9.52954E-18 9.06517E-19
 -1      1249 8.61929E-05 1.75537E-06-3.75537E-05-5.58281E-07-8.97749E-19 4.77690E-19
 -1      1250 8.90126E-05-7.89448E-06-3.48763E-05-5.15012E-07-2.92983E-18-1.44140E-18
 -1      1251 9.15627E-05-1.65516E-05-3.24075E-05-3.61005E-07-4.81956E-18 6.63654E-19
 -1      1252 9.34785E-05-2.29873E-05-3.05044E-05-1.87870E-07-4.31404E-18-3.43214E-19
 -1      1253 9.46642E-05-2.69091E-05-2.92853E-05-3.51367E-08-1.83965E-18 1.11961E-18
 -1      1254 9.52333E-05-2.86716E-05-2.86861E-05 4.75256E-08 2.32511E-18 2.95065E-19
 -1      1255 9.52673E-05-2.88963E-05-2.84993E-05 1.41935E-07 1.37828E-19-5.48156E-19
 -1      1256 9.52726E-05-2.87142E-05-2.84710E-05 6.03915E-08-9.29486E-20 8.44419E-19
 -1      1257 3.88423E-05-1.21931E-04 2.09429E-05-1.66000E-05 2.18175E-17 1.76760E-18
 -1      1258 1.95635E-05-7.39475E-05 1.13570E-05-2.98163E-05 1.50636E-17 5.88264E-18
 -1      1259 9.40578E-06-1.03513E-05-6.27376E-06 5.87063E-07 5.93940E-18 2.64105E-18
 -1      1260 4.16866E-05 2.54997E-05-2.89105E-05 6.08808E-05-5.65818E-19-1.89735E-19
 -1      1261 1.26793E-04 9.55409E-06-5.16565E-05 1.11658E-04-1.80926E-18-3.22550E-18
 -1      1262 2.37057E-04-4.35851E-05-7.01144E-05 1.14654E-04-3.44065E-18-1.07827E-17
 -1      1263 3.15216E-04-8.95510E-05-8.05430E-05 5.64068E-05-2.06740E-18-1.18157E-17
 -1      1264 3.25593E-04-9.78033E-05-8.12025E-05-2.91674E-05 1.05313E-18-1.12537E-17
 -1      1265 2.57154E-04-5.86714E-05-7.19706E-05-9.57145E-05 4.30504E-18-1.33933E-17
 -1      1266 1.45846E-04-4.06735E-06-5.35906E-05-1.06322E-04 8.05782E-18-1.38608E-17
 -1      1267 5.10358E-05 2.02988E-05-3.05479E-05-6.30817E-05 1.38422E-17-1.39523E-17
 -1      1268 1.00280E-05-6.91017E-06-7.70680E-06-3.19820E-06 1.30240E-17-9.18777E-18
 -1      1269 1.53732E-05-6.38773E-05 9.74154E-06 3.00129E-05 1.40633E-17-5.16732E-18
 -1      1270 3.34761E-05-1.09675E-04 1.93593E-05 2.24498E-05 1.22519E-17-2.17989E-18
 -1      1271 3.93421E-05-1.20831E-04 2.11083E-05-5.82287E-06 4.40457E-18-9.40842E-19
 -1      1272 2.34471E-05-8.31524E-05 1.40223E-05-2.45057E-05-5.96481E-18-2.28932E-18
 -1      1273 8.18362E-06-2.41922E-05-9.92725E-07-1.05397E-05-1.08369E-17-6.36545E-18
 -1      1274 2.19227E-05 2.01858E-05-2.03899E-05 3.75481E-05-1.14146E-17-9.26315E-18
 -1      1275 8.26243E-05 2.23588E-05-4.14272E-05 9.18959E-05-6.58822E-18-6.21045E-18
 -1      1276 1.79273E-04-1.60868E-05-6.04613E-05 1.14278E-04-1.27902E-18-2.27005E-18
 -1      1277 2.74102E-04-6.79878E-05-7.48622E-05 8.27878E-05-7.30354E-19-3.23482E-18
 -1      1278 3.22206E-04-9.80548E-05-8.08395E-05 5.28490E-06-9.49418E-19 1.78872E-18
 -1      1279 2.88990E-04-7.69001E-05-7.68295E-05-7.77037E-05-1.93949E-18 9.55284E-18
 -1      1280 1.97963E-04-2.40303E-05-6.40020E-05-1.17030E-04-4.83486E-18 9.86285E-18
 -1      1281 9.91318E-05 1.90608E-05-4.53484E-05-1.01264E-04-2.81384E-18 5.36849E-18
 -1      1282 2.99058E-05 2.37161E-05-2.41885E-05-4.86524E-05-1.68729E-18 1.92276E-18
 -1      1283 8.06282E-06-1.62617E-05-3.78753E-06 4.89062E-06 4.21145E-18-1.36626E-18
 -1      1284 2.06871E-05-7.72506E-05 1.22256E-05 2.90251E-05 1.73549E-17-5.26558E-18
 -1      1285 3.96548E-05-1.23302E-04 2.11136E-05 1.53806E-05 2.37241E-17-2.62008E-18
 -1      1286 1.04448E-04-2.20206E-05-3.78935E-05-1.72750E-05-5.89958E-19 9.76883E-18
 -1      1287 9.03208E-05-6.68187E-06-3.60177E-05-2.04704E-05-1.64473E-18-9.39730E-19
 -1      1288 9.26586E-05-6.74084E-06-3.72229E-05-2.57589E-05-2.12055E-18 1.49094E-18
 -1      1289 8.59002E-05-4.09303E-06-3.51300E-05-1.64324E-05-1.62826E-18-4.32773E-18
 -1      1290 8.71547E-05-4.08827E-06-3.55998E-05-1.88518E-05-1.85241E-18-2.88208E-18
 -1      1291 9.21347E-05-1.04634E-05-3.50939E-05-1.90320E-05-2.87176E-18-8.59156E-19
 -1      1292 8.40991E-05-3.19212E-06-3.46864E-05-1.28191E-05-1.28443E-18-5.94744E-18
 -1      1293 8.47062E-05-3.16094E-06-3.49107E-05-1.46349E-05-1.48374E-18-5.21801E-18
 -1      1294 8.78667E-05-7.39139E-06-3.45738E-05-1.54170E-05-2.56860E-18-3.63671E-18
 -1      1295 8.31843E-05-2.72755E-06-3.44692E-05-9.68529E-06-9.76483E-19-6.68633E-18
 -1      1296 8.35007E-05-2.71106E-06-3.45788E-05-1.12327E-05-1.09813E-18-6.37898E-18
 -1      1297 8.58677E-05-5.98529E-06-3.43042E-05-1.19562E-05-1.96334E-18-5.04360E-18
 -1      1298 8.26908E-05-2.45679E-06-3.43628E-05-6.91502E-06-6.09559E-19-6.94323E-18
 -1      1299 8.28606E-05-2.44831E-06-3.44172E-05-8.28577E-06-7.74585E-19-6.79890E-18
 -1      1300 8.48182E-05-5.21610E-06-3.41719E-05-8.94364E-06-1.46285E-18-5.58303E-18
 -1      1301 8.24152E-05-2.29149E-06-3.43097E-05-4.29507E-06-3.11887E-19-7.00319E-18
 -1      1302 8.25064E-05-2.28753E-06-3.43371E-05-5.59631E-06-4.00279E-19-6.99293E-18
 -1      1303 8.42318E-05-4.76096E-06-3.41085E-05-6.21700E-06-8.58623E-19-5.87343E-18
 -1      1304 8.22825E-05-2.20217E-06-3.42873E-05-1.79005E-06 1.67386E-20-7.04514E-18
 -1      1305 8.23216E-05-2.20059E-06-3.42984E-05-3.04114E-06-7.75283E-20-7.02110E-18
 -1      1306 8.39091E-05-4.49747E-06-3.40793E-05-3.64489E-06-3.28583E-19-5.86930E-18
 -1      1307 8.22564E-05-2.17465E-06-3.42846E-05 6.69862E-07 2.64286E-19-6.99918E-18
 -1      1308 8.22551E-05-2.17470E-06-3.42843E-05-5.66071E-07 1.83116E-19-7.04354E-18
 -1      1309 8.37676E-05-4.37787E-06-3.40683E-05-1.17061E-06 1.74591E-19-5.94098E-18
 -1      1310 8.23302E-05-2.20487E-06-3.43000E-05 3.14851E-06 5.38236E-19-6.85917E-18
 -1      1311 8.22882E-05-2.20650E-06-3.42881E-05 1.89485E-06 4.27443E-19-6.95373E-18
 -1      1312 8.37726E-05-4.38204E-06-3.40687E-05 1.27382E-06 5.60034E-19-5.90242E-18
 -1      1313 8.25238E-05-2.29788E-06-3.43398E-05 5.71280E-06 7.75710E-19-6.62549E-18
 -1      1314 8.24290E-05-2.30125E-06-3.43117E-05 4.40563E-06 6.89137E-19-6.79368E-18
 -1      1315 8.39247E-05-4.51092E-06-3.40804E-05 3.75229E-06 1.01070E-18-5.75571E-18
 -1      1316 8.28840E-05-2.46365E-06-3.44202E-05 8.39449E-06 1.05717E-18-6.08989E-18
 -1      1317 8.27109E-05-2.47233E-06-3.43652E-05 7.01473E-06 9.34896E-19-6.40475E-18
 -1      1318 8.42577E-05-4.78406E-06-3.41097E-05 6.31076E-06 1.41229E-18-5.44113E-18
 -1      1319 8.35430E-05-2.74105E-06-3.45840E-05 1.13948E-05 1.46531E-18-5.20976E-18
 -1      1320 8.32212E-05-2.75813E-06-3.44731E-05 9.82978E-06 1.28408E-18-5.73637E-18
 -1      1321 8.48613E-05-5.25738E-06-3.41731E-05 9.05378E-06 1.92905E-18-4.84275E-18
 -1      1322 8.47650E-05-3.20330E-06-3.49190E-05 1.48435E-05 1.86337E-18-3.76803E-18
 -1      1323 8.41522E-05-3.24003E-06-3.46921E-05 1.30032E-05 1.67781E-18-4.66578E-18
 -1      1324 8.59454E-05-6.06263E-06-3.43062E-05 1.21223E-05 2.57030E-18-3.91560E-18
 -1      1325 8.72566E-05-4.09054E-06-3.56212E-05 1.90909E-05 2.09058E-18-9.29433E-19
 -1      1326 8.59727E-05-4.15439E-06-3.51377E-05 1.66928E-05 1.87652E-18-2.65947E-18
 -1      1327 8.79915E-05-7.51725E-06-3.45758E-05 1.56501E-05 3.01376E-18-2.14818E-18
 -1      1328 9.34712E-05-6.79297E-06-3.71184E-05 2.50962E-05 1.80969E-18 4.60802E-18
 -1      1329 9.01367E-05-6.43842E-06-3.60404E-05 2.11487E-05 1.78046E-18 1.24043E-18
 -1      1330 9.23651E-05-1.06988E-05-3.50791E-05 1.96761E-05 3.15398E-18 1.06477E-18
 -1      1331 1.23633E-04-2.49251E-05-3.90170E-05 2.83669E-05 9.01455E-19 1.51153E-17
 -1      1332 1.00087E-04-1.44253E-05-3.73561E-05 2.40503E-05 9.09608E-19 7.80869E-18
 -1      1333 1.01685E-04-1.93440E-05-3.54043E-05 2.13983E-05 2.95637E-18 6.06581E-18
 -1      1334 1.02612E-04-2.78074E-05-3.47600E-05 7.32871E-06 1.56113E-18 1.45228E-17
 -1      1335 1.05156E-04-3.02333E-05-3.35277E-05-7.95985E-06-1.75272E-18 1.03482E-17
 -1      1336 9.82691E-05-2.78455E-05-3.07645E-05-4.98877E-06-1.64663E-18 8.25698E-18
 -1      1337 9.55108E-05-2.78514E-05-2.92570E-05-2.48946E-06-1.33815E-18 7.39049E-18
 -1      1338 9.32790E-05-2.75608E-05-2.82177E-05-2.04267E-06-1.23016E-18 5.49878E-18
 -1      1339 9.94922E-05-2.80538E-05-3.09850E-05-7.88717E-06-2.85080E-18 3.96462E-18
 -1      1340 9.15896E-05-2.72030E-05-2.75835E-05-8.37749E-07-9.90545E-19 4.84122E-18
 -1      1341 9.08735E-05-2.71078E-05-2.72813E-05-7.27577E-07-8.90218E-19 3.48176E-18
 -1      1342 9.47258E-05-2.77721E-05-2.88186E-05-3.11989E-06-2.22431E-18 2.69683E-18
 -1      1343 9.01236E-05-2.69251E-05-2.70383E-05-1.73488E-07-6.30186E-19 2.80950E-18
 -1      1344 9.00515E-05-2.69520E-05-2.70036E-05-1.15477E-07-5.43044E-19 1.90752E-18
 -1      1345 9.25270E-05-2.75021E-05-2.78980E-05-1.05258E-06-1.57012E-18 1.59107E-18
 -1      1346 8.97923E-05-2.68846E-05-2.69295E-05 1.54600E-07-3.79618E-19 1.62764E-18
 -1      1347 9.00072E-05-2.69748E-05-2.69911E-05 1.83235E-07-5.11189E-19 9.88712E-19
 -1      1348 9.15690E-05-2.73586E-05-2.75312E-05-6.95344E-08-9.60334E-19 4.87051E-19
 -1      1349 9.00111E-05-2.69780E-05-2.69977E-05 3.14112E-07-5.03251E-19 7.32485E-19
 -1      1350 9.03534E-05-2.70976E-05-2.70967E-05 3.25780E-07-2.59332E-19 2.13413E-19
 -1      1351 9.13164E-05-2.73467E-05-2.74235E-05 4.17287E-07-8.79113E-19-1.51539E-21
 -1      1352 9.04953E-05-2.71394E-05-2.71439E-05 3.80046E-07-3.52290E-19-7.89329E-20
 -1      1353 9.08826E-05-2.72675E-05-2.72558E-05 3.81655E-07-3.86007E-19-6.39444E-19
 -1      1354 9.14493E-05-2.74204E-05-2.74457E-05 6.44912E-07-7.04472E-19-5.18495E-19
 -1      1355 9.10903E-05-2.73277E-05-2.73221E-05 3.91853E-07-3.69561E-19-8.96998E-19
 -1      1356 9.14767E-05-2.74521E-05-2.74340E-05 3.87569E-07-2.57010E-19-1.38138E-18
 -1      1357 9.17816E-05-2.75392E-05-2.75344E-05 7.26570E-07-8.43273E-19-9.63524E-19
 -1      1358 9.17074E-05-2.75186E-05-2.75068E-05 3.72564E-07-3.05977E-19-1.47484E-18
 -1      1359 9.20676E-05-2.76326E-05-2.76116E-05 3.65073E-07-5.37743E-19-2.11858E-18
 -1      1360 9.22024E-05-2.76760E-05-2.76541E-05 7.23961E-07-5.82418E-19-1.36607E-18
 -1      1361 9.22960E-05-2.76982E-05-2.76833E-05 3.36575E-07-6.02684E-19-2.21915E-18
 -1      1362 9.26169E-05-2.77985E-05-2.77770E-05 3.27644E-07-3.83345E-19-2.92656E-18
 -1      1363 9.26452E-05-2.78141E-05-2.77835E-05 6.73996E-07-7.91189E-19-1.53533E-18
 -1      1364 9.28287E-05-2.78593E-05-2.78433E-05 2.93177E-07-3.88440E-19-3.15388E-18
 -1      1365 9.31053E-05-2.79448E-05-2.79243E-05 2.83969E-07-5.99545E-19-3.94234E-18
 -1      1366 9.30712E-05-2.79437E-05-2.79099E-05 5.99984E-07-7.76209E-19-2.02765E-18
 -1      1367 9.32936E-05-2.79987E-05-2.79832E-05 2.48424E-07-1.89330E-19-3.91614E-18
 -1      1368 9.35259E-05-2.80699E-05-2.80515E-05 2.39697E-07 1.01626E-19-3.95142E-18
 -1      1369 9.34594E-05-2.80597E-05-2.80263E-05 5.17018E-07-4.69108E-19-2.80170E-18
 -1      1370 9.36887E-05-2.81164E-05-2.81023E-05 2.06252E-07 2.20611E-19-3.75821E-18
 -1      1371 9.38801E-05-2.81745E-05-2.81588E-05 1.98489E-07 2.71845E-19-3.42215E-18
 -1      1372 9.38006E-05-2.81602E-05-2.81295E-05 4.34934E-07 1.93525E-19-2.65534E-18
 -1      1373 9.40184E-05-2.82140E-05-2.82019E-05 1.69212E-07 4.02543E-20-3.30001E-18
 -1      1374 9.41743E-05-2.82609E-05-2.82481E-05 1.62722E-07-2.53519E-19-3.30483E-18
 -1      1375 9.40936E-05-2.82453E-05-2.82188E-05 3.60138E-07 2.12000E-19-2.48891E-18
 -1      1376 9.42914E-05-2.82941E-05-2.82846E-05 1.38987E-07-4.94062E-19-3.25524E-18
 -1      1377 9.44186E-05-2.83320E-05-2.83224E-05 1.33980E-07-4.28425E-19-3.83622E-18
 -1      1378 9.43424E-05-2.83166E-05-2.82952E-05 2.96847E-07-4.91049E-19-2.53816E-18
 -1      1379 9.45192E-05-2.83605E-05-2.83538E-05 1.16781E-07-2.60361E-19-4.09788E-18
 -1      1380 9.46257E-05-2.83918E-05-2.83856E-05 1.13421E-07-2.85812E-19-4.31296E-18
 -1      1381 9.45547E-05-2.83765E-05-2.83609E-05 2.47964E-07-6.75378E-19-2.55612E-18
 -1      1382 9.47158E-05-2.84172E-05-2.84136E-05 1.03599E-07-9.79379E-20-4.40672E-18
 -1      1383 9.48101E-05-2.84446E-05-2.84419E-05 1.02048E-07-6.98310E-20-4.58753E-18
 -1      1384 9.47410E-05-2.84283E-05-2.84191E-05 2.15737E-07-3.08449E-19-2.83325E-18
 -1      1385 9.48967E-05-2.84689E-05-2.84689E-05 1.00458E-07 4.08484E-20-4.66323E-18
 -1      1386 9.49885E-05-2.84953E-05-2.84965E-05 1.00909E-07 1.40822E-19-4.53772E-18
 -1      1387 9.49137E-05-2.84755E-05-2.84735E-05 2.02233E-07-5.91592E-20-3.45845E-18
 -1      1388 9.50794E-05-2.85209E-05-2.85248E-05 1.08533E-07 1.10781E-19-4.42451E-18
 -1      1389 9.51794E-05-2.85495E-05-2.85550E-05 1.11227E-07-2.26337E-19-4.34152E-18
 -1      1390 9.50874E-05-2.85226E-05-2.85284E-05 2.09681E-07 1.95647E-19-3.13827E-18
 -1      1391 9.52836E-05-2.85788E-05-2.85874E-05 1.29224E-07 2.10102E-20-4.16553E-18
 -1      1392 9.54038E-05-2.86134E-05-2.86237E-05 1.34457E-07-5.33217E-20-4.01384E-18
 -1      1393 9.52785E-05-2.85742E-05-2.85889E-05 2.40668E-07-5.07475E-22-3.02215E-18
 -1      1394 9.55315E-05-2.86494E-05-2.86634E-05 1.64147E-07-2.62408E-19-3.86167E-18
 -1      1395 9.56855E-05-2.86941E-05-2.87097E-05 1.72261E-07-8.42481E-20-3.88841E-18
 -1      1396 9.55056E-05-2.86360E-05-2.86607E-05 2.98183E-07 2.44142E-21-2.98570E-18
 -1      1397 9.58479E-05-2.87401E-05-2.87601E-05 2.15011E-07-1.43915E-19-3.62875E-18
 -1      1398 9.60509E-05-2.87995E-05-2.88210E-05 2.26359E-07-2.52964E-20-3.54875E-18
 -1      1399 9.57896E-05-2.87139E-05-2.87499E-05 3.85464E-07-1.69332E-19-2.45220E-18
 -1      1400 9.62601E-05-2.88590E-05-2.88860E-05 2.83338E-07 7.80362E-20-3.43936E-18
 -1      1401 9.65288E-05-2.89384E-05-2.89662E-05 2.98211E-07 7.58429E-20-3.58417E-18
 -1      1402 9.61534E-05-2.88151E-05-2.88636E-05 5.05572E-07 8.12721E-20-2.36608E-18
 -1      1403 9.67976E-05-2.90152E-05-2.90496E-05 3.69949E-07 3.85680E-19-3.23180E-18
 -1      1404 9.71493E-05-2.91202E-05-2.91543E-05 3.88457E-07 3.60668E-19-2.90668E-18
 -1      1405 9.66216E-05-2.89472E-05-2.90087E-05 6.60578E-07 4.78042E-19-1.89188E-18
 -1      1406 9.74901E-05-2.92181E-05-2.92598E-05 4.74136E-07-2.66715E-19-2.97243E-18
 -1      1407 9.79413E-05-2.93542E-05-2.93937E-05 4.96008E-07-3.06424E-19-3.29102E-18
 -1      1408 9.72187E-05-2.91183E-05-2.91924E-05 8.50197E-07 1.64272E-19-2.09816E-18
 -1      1409 9.83640E-05-2.94765E-05-2.95243E-05 5.92389E-07-8.15195E-20-3.64626E-18
 -1      1410 9.89276E-05-2.96482E-05-2.96909E-05 6.16671E-07 2.46915E-19-3.66022E-18
 -1      1411 9.79673E-05-2.93364E-05-2.94206E-05 1.06967E-06-4.38196E-19-2.00457E-18
 -1      1412 9.94374E-05-2.97971E-05-2.98477E-05 7.16563E-07 9.93221E-20-3.66493E-18
 -1      1413 1.00118E-04-3.00067E-05-3.00480E-05 7.41185E-07-2.84531E-19-3.71585E-18
 -1      1414 9.88829E-05-2.96086E-05-2.96968E-05 1.30668E-06 2.54716E-19-2.43136E-18
 -1      1415 1.00711E-04-3.01822E-05-3.02293E-05 8.31450E-07 6.81254E-20-3.34290E-18
 -1      1416 1.01497E-04-3.04276E-05-3.04596E-05 8.52654E-07 4.21346E-19-3.32245E-18
 -1      1417 9.99684E-05-2.99389E-05-3.00201E-05 1.53716E-06 1.81768E-19-2.47424E-18
 -1      1418 1.02154E-04-3.06258E-05-3.06586E-05 9.11928E-07 1.73432E-19-2.75771E-18
 -1      1419 1.03009E-04-3.08974E-05-3.09074E-05 9.23610E-07 1.65228E-19-2.41291E-18
 -1      1420 1.01204E-04-3.03265E-05-3.03817E-05 1.72016E-06 4.61339E-19-1.54569E-18
 -1      1421 1.03691E-04-3.11085E-05-3.11104E-05 9.20398E-07-3.90990E-19-2.60052E-18
 -1      1422 1.04539E-04-3.13849E-05-3.13550E-05 9.13574E-07-1.64313E-19-3.02011E-18
 -1      1423 1.02535E-04-3.07610E-05-3.07619E-05 1.79284E-06-1.29429E-19-1.72392E-18
 -1      1424 1.05176E-04-3.15910E-05-3.15389E-05 8.06273E-07 5.18492E-19-3.10877E-18
 -1      1425 1.05893E-04-3.18346E-05-3.17423E-05 7.69165E-07 1.90761E-19-2.76963E-18
 -1      1426 1.03857E-04-3.12176E-05-3.11261E-05 1.66792E-06-3.66937E-21-2.05984E-18
 -1      1427 1.06380E-04-3.20066E-05-3.18737E-05 5.10859E-07-4.83735E-21-3.29278E-18
 -1      1428 1.06786E-04-3.21599E-05-3.19832E-05 4.30556E-07-5.70540E-20-3.58099E-18
 -1      1429 1.05004E-04-3.16498E-05-3.14220E-05 1.23896E-06 2.83657E-20-2.33397E-18
 -1      1430 1.06985E-04-3.22564E-05-3.20199E-05-1.73233E-08 1.76937E-19-3.11023E-18
 -1      1431 1.06852E-04-3.22436E-05-3.19713E-05-1.50266E-07 1.79349E-19-3.52812E-18
 -1      1432 1.05741E-04-3.19826E-05-3.15809E-05 4.01521E-07 2.33361E-19-2.55858E-18
 -1      1433 1.06608E-04-3.22125E-05-3.18692E-05-7.91872E-07 2.53170E-19-2.79258E-18
 -1      1434 1.05707E-04-3.19508E-05-3.16004E-05-9.74811E-07 3.45437E-19-1.97414E-18
 -1      1435 1.05774E-04-3.21077E-05-3.15261E-05-9.00217E-07 4.72790E-19-2.08889E-18
 -1      1436 1.04887E-04-3.17382E-05-3.13269E-05-1.74378E-06-3.94562E-19-2.00961E-18
 -1      1437 1.03070E-04-3.11654E-05-3.08028E-05-1.95065E-06-1.56694E-19-2.18450E-18
 -1      1438 1.04808E-04-3.18934E-05-3.11915E-05-2.59885E-06 4.42389E-19-1.21430E-18
 -1      1439 1.01626E-04-3.07374E-05-3.03558E-05-2.68076E-06 1.36405E-19-2.50661E-18
 -1      1440 9.89497E-05-2.98558E-05-2.95997E-05-2.85492E-06-1.73847E-19-2.53083E-18
 -1      1441 1.02639E-04-3.12185E-05-3.05502E-05-4.42186E-06-1.62849E-19-2.42570E-18
 -1      1442 9.69971E-05-2.92317E-05-2.90256E-05-3.29250E-06 1.72898E-19-3.02108E-18
 -1      1443 9.38192E-05-2.81524E-05-2.81418E-05-3.35662E-06 4.81491E-19-2.05098E-18
 -1      1444 9.93092E-05-3.00439E-05-2.96454E-05-5.86365E-06-1.44115E-19-2.15602E-18
 -1      1445 9.16869E-05-2.74351E-05-2.75384E-05-3.25024E-06-1.60453E-19-1.42426E-18
 -1      1446 8.86564E-05-2.63862E-05-2.67044E-05-3.14250E-06-8.48059E-20-1.71289E-18
 -1      1447 9.52466E-05-2.85015E-05-2.86062E-05-6.30067E-06-1.96340E-19-2.17905E-18
 -1      1448 8.68351E-05-2.57577E-05-2.61998E-05-2.39694E-06-7.40955E-20-1.99783E-18
 -1      1449 8.47043E-05-2.50202E-05-2.56131E-05-2.12076E-06-3.98251E-19-2.39053E-18
 -1      1450 9.12784E-05-2.69354E-05-2.76289E-05-5.28915E-06-4.45698E-19-1.79281E-18
 -1      1451 8.36687E-05-2.46733E-05-2.53200E-05-9.19462E-07-4.34435E-20-2.34895E-18
 -1      1452 8.29695E-05-2.44523E-05-2.51170E-05-5.66145E-07-6.53082E-19-3.27415E-18
 -1      1453 8.84047E-05-2.58085E-05-2.69187E-05-2.91882E-06-3.73647E-19-1.82890E-18
 -1      1454 8.29378E-05-2.44779E-05-2.50861E-05 6.71514E-07-6.49774E-19-3.78009E-18
 -1      1455 8.37121E-05-2.47889E-05-2.52783E-05 9.66439E-07-3.39501E-19-4.27402E-18
 -1      1456 8.73536E-05-2.54729E-05-2.66142E-05 6.52043E-08-1.10043E-18-2.49857E-18
 -1      1457 8.45269E-05-2.51191E-05-2.54750E-05 1.80626E-06 3.30522E-19-3.88190E-18
 -1      1458 8.63097E-05-2.57802E-05-2.59441E-05 1.94266E-06 8.34645E-19-3.71225E-18
 -1      1459 8.81879E-05-2.59561E-05-2.67299E-05 2.59713E-06 5.03700E-19-2.37749E-18
 -1      1460 8.75349E-05-2.62342E-05-2.62669E-05 2.16924E-06 5.40361E-19-2.27060E-18
 -1      1461 8.96050E-05-2.69711E-05-2.68260E-05 2.13386E-06 7.41625E-19-1.94182E-18
 -1      1462 9.02812E-05-2.69454E-05-2.71527E-05 3.87161E-06 1.61750E-18-7.92307E-19
 -1      1463 9.07627E-05-2.73634E-05-2.71549E-05 1.82870E-06 7.45501E-19-2.21391E-18
 -1      1464 9.24876E-05-2.79469E-05-2.76341E-05 1.68464E-06 4.68462E-19-1.58632E-18
 -1      1465 9.26782E-05-2.79808E-05-2.76960E-05 3.73686E-06 1.04419E-18-7.20415E-19
 -1      1466 9.32660E-05-2.81722E-05-2.78807E-05 1.12293E-06 7.24948E-19-1.68246E-18
 -1      1467 9.43328E-05-2.85012E-05-2.81907E-05 9.59831E-07 7.20729E-19-6.12577E-19
 -1      1468 9.45706E-05-2.87034E-05-2.81812E-05 2.64882E-06 8.77870E-19-5.37767E-19
 -1      1469 9.46614E-05-2.85524E-05-2.83243E-05 4.39703E-07 2.11110E-19-1.35668E-18
 -1      1470 9.51126E-05-2.86572E-05-2.84690E-05 3.28126E-07-1.12619E-19-1.43111E-18
 -1      1471 9.55854E-05-2.89847E-05-2.85027E-05 1.31795E-06 2.99148E-19-1.34862E-18
 -1      1472 9.51067E-05-2.85913E-05-2.85103E-05 4.74893E-08 1.73561E-19-1.52622E-18
 -1      1473 9.52216E-05-2.85868E-05-2.85551E-05 2.27710E-08 7.32014E-19-1.18589E-18
 -1      1474 9.57943E-05-2.89004E-05-2.86479E-05 3.42237E-07-2.55304E-19-1.73512E-18
 -1      1475 9.50843E-05-2.84965E-05-2.85441E-05 1.76653E-08-5.74891E-22-3.91600E-19
 -1      1476 9.51844E-05-2.85329E-05-2.85534E-05 5.14626E-08-1.05025E-19-3.07580E-19
 -1      1477 9.55477E-05-2.86506E-05-2.86618E-05-2.18755E-09 6.32667E-19-1.35734E-18
 -1      1478 9.51477E-05-2.85958E-05-2.84964E-05 9.76154E-08-6.23992E-19 6.38779E-19
 -1      1479 9.52963E-05-2.86050E-05-2.85718E-05 1.07800E-07-1.49157E-19 4.98074E-19
 -1      1480 9.65857E-05-2.83662E-05-2.97750E-05 2.99540E-06 1.44933E-18 1.13131E-17
 -1      1481 1.02544E-04-2.94009E-05-3.21582E-05 4.46250E-06 1.24869E-18 1.35857E-17
 -1      1482 1.02333E-04-2.67203E-05-3.27079E-05 1.27826E-05 2.46211E-18 8.65922E-18
 -1      1483 9.20398E-05-2.74320E-05-2.77645E-05 1.15166E-06 1.15261E-18 8.43068E-18
 -1      1484 9.39861E-05-2.75870E-05-2.86785E-05 1.47362E-06 1.10607E-18 1.01890E-17
 -1      1485 9.64947E-05-2.80327E-05-2.95361E-05 4.86707E-06 2.24792E-18 6.62540E-18
 -1      1486 9.02076E-05-2.70074E-05-2.70658E-05 3.31479E-07 7.16047E-19 6.22739E-18
 -1      1487 9.08223E-05-2.70248E-05-2.73383E-05 4.94359E-07 8.06799E-19 7.50760E-18
 -1      1488 9.30504E-05-2.75813E-05-2.81012E-05 1.85122E-06 1.79054E-18 4.79558E-18
 -1      1489 8.96906E-05-2.68893E-05-2.68902E-05-5.53225E-08 5.08147E-19 4.96703E-18
 -1      1490 8.97277E-05-2.68269E-05-2.69183E-05 3.38120E-08 4.42312E-19 5.69628E-18
 -1      1491 9.14975E-05-2.73102E-05-2.75175E-05 5.17374E-07 1.08185E-18 3.39742E-18
 -1      1492 8.98225E-05-2.69417E-05-2.69320E-05-2.42527E-07 2.85970E-19 3.85299E-18
 -1      1493 8.95939E-05-2.68342E-05-2.68669E-05-1.92273E-07 3.34842E-19 4.41153E-18
 -1      1494 9.09658E-05-2.72293E-05-2.73214E-05-1.32353E-07 8.47495E-19 2.56494E-18
 -1      1495 9.02747E-05-2.70840E-05-2.70701E-05-3.25497E-07 3.22424E-19 3.20657E-18
 -1      1496 8.99279E-05-2.69568E-05-2.69686E-05-2.97845E-07 2.46700E-19 3.59755E-18
 -1      1497 9.09830E-05-2.72722E-05-2.73104E-05-4.50856E-07 4.55476E-19 1.89804E-18
 -1      1498 9.08678E-05-2.72659E-05-2.72491E-05-3.49692E-07 4.59977E-19 2.36657E-18
 -1      1499 9.04807E-05-2.71357E-05-2.71357E-05-3.36039E-07 3.62487E-19 3.00345E-18
 -1      1500 9.12866E-05-2.73840E-05-2.73917E-05-5.90585E-07 6.69702E-19 1.46238E-18
 -1      1501 9.14991E-05-2.74575E-05-2.74392E-05-3.40137E-07 5.18804E-20 1.64376E-18
 -1      1502 9.11153E-05-2.73342E-05-2.73266E-05-3.35282E-07 3.03520E-19 2.12284E-18
 -1      1503 9.17257E-05-2.75273E-05-2.75171E-05-6.28394E-07 6.44630E-19 1.10807E-18
 -1      1504 9.21096E-05-2.76416E-05-2.76231E-05-3.11919E-07 8.17882E-20 1.31573E-18
 -1      1505 9.17534E-05-2.75304E-05-2.75183E-05-3.12502E-07-3.96902E-21 1.31936E-18
 -1      1506 9.22110E-05-2.76791E-05-2.76589E-05-6.07681E-07 2.47539E-19 5.38763E-19
 -1      1507 9.26671E-05-2.78088E-05-2.77914E-05-2.74625E-07 2.05258E-19 1.36330E-18
 -1      1508 9.23507E-05-2.77122E-05-2.76980E-05-2.78399E-07 1.90696E-19 1.50237E-18
 -1      1509 9.26901E-05-2.78254E-05-2.78005E-05-5.54948E-07 1.54801E-19 1.35275E-19
 -1      1510 9.31564E-05-2.79551E-05-2.79393E-05-2.34452E-07 2.62032E-19 6.84652E-19
 -1      1511 9.28844E-05-2.78734E-05-2.78588E-05-2.39889E-07 2.63369E-19 1.10663E-18
 -1      1512 9.31337E-05-2.79589E-05-2.79328E-05-4.87098E-07 4.06754E-19 2.20781E-19
 -1      1513 9.35734E-05-2.80793E-05-2.80656E-05-1.95408E-07 5.96903E-19 9.29933E-20
 -1      1514 9.33456E-05-2.80119E-05-2.79980E-05-2.01464E-07 2.60589E-19 3.66990E-19
 -1      1515 9.35273E-05-2.80759E-05-2.80509E-05-4.15084E-07 4.94069E-19-3.32816E-19
 -1      1516 9.39214E-05-2.81825E-05-2.81712E-05-1.60067E-07 5.74184E-19-1.34483E-18
 -1      1517 9.37342E-05-2.81279E-05-2.81154E-05-1.66023E-07 5.91785E-19-3.42464E-19
 -1      1518 9.38666E-05-2.81758E-05-2.81532E-05-3.46025E-07 1.08893E-18-7.69832E-19
 -1      1519 9.42082E-05-2.82673E-05-2.82583E-05-1.30094E-07 3.65583E-19-2.58732E-18
 -1      1520 9.40563E-05-2.82235E-05-2.82130E-05-1.35443E-07 4.91712E-19-1.71127E-18
 -1      1521 9.41537E-05-2.82594E-05-2.82403E-05-2.84548E-07 8.67075E-19-1.42202E-18
 -1      1522 9.44449E-05-2.83370E-05-2.83305E-05-1.06619E-07-3.85621E-19-2.50687E-18
 -1      1523 9.43215E-05-2.83017E-05-2.82934E-05-1.10982E-07-2.04395E-19-2.73761E-18
 -1      1524 9.43953E-05-2.83291E-05-2.83139E-05-2.33732E-07 1.08860E-19-1.65822E-18
 -1      1525 9.46450E-05-2.83956E-05-2.83916E-05-9.05382E-08-5.37368E-21-2.39439E-18
 -1      1526 9.45424E-05-2.83663E-05-2.83606E-05-9.35938E-08-1.15404E-19-2.39210E-18
 -1      1527 9.46010E-05-2.83878E-05-2.83770E-05-1.95791E-07-2.25495E-19-1.95741E-18
 -1      1528 9.48240E-05-2.84477E-05-2.84464E-05-8.27441E-08 6.45099E-19-3.37989E-18
 -1      1529 9.47334E-05-2.84216E-05-2.84188E-05-8.41702E-08 7.35272E-19-2.56788E-18
 -1      1530 9.47832E-05-2.84391E-05-2.84333E-05-1.72621E-07 8.22098E-19-1.85541E-18
 -1      1531 9.49996E-05-2.84986E-05-2.85002E-05-8.43293E-08-6.78889E-19-3.61692E-18
 -1      1532 9.49113E-05-2.84727E-05-2.84732E-05-8.37492E-08 9.61007E-20-3.66858E-18
 -1      1533 9.49562E-05-2.84874E-05-2.84870E-05-1.66234E-07 6.61859E-19-1.74921E-18
 -1      1534 9.51922E-05-2.85543E-05-2.85592E-05-9.67599E-08-6.90878E-19-1.87642E-18
 -1      1535 9.50950E-05-2.85251E-05-2.85294E-05-9.36914E-08-9.05586E-19-3.48295E-18
 -1      1536 9.51370E-05-2.85376E-05-2.85434E-05-1.79126E-07-1.06209E-18-2.31608E-18
 -1      1537 9.54258E-05-2.86220E-05-2.86308E-05-1.22040E-07-3.69090E-19-1.27567E-18
 -1      1538 9.53066E-05-2.85852E-05-2.85943E-05-1.15843E-07-4.12725E-19-1.73302E-18
 -1      1539 9.53454E-05-2.85953E-05-2.86086E-05-2.14612E-07-8.07323E-19-1.53007E-18
 -1      1540 9.57294E-05-2.87101E-05-2.87236E-05-1.62873E-07 3.47065E-19-1.47492E-18
 -1      1541 9.55724E-05-2.86607E-05-2.86756E-05-1.52692E-07 2.00375E-19-1.04278E-18
 -1      1542 9.56048E-05-2.86675E-05-2.86896E-05-2.77130E-07-1.08472E-19-1.21421E-18
 -1      1543 9.61381E-05-2.88290E-05-2.88483E-05-2.22825E-07 3.35751E-19-2.93476E-18
 -1      1544 9.59239E-05-2.87609E-05-2.87831E-05-2.07523E-07 4.73890E-19-1.92412E-18
 -1      1545 9.59435E-05-2.87621E-05-2.87953E-05-3.72546E-07 7.77133E-19-1.38433E-18
 -1      1546 9.66952E-05-2.89915E-05-2.90181E-05-3.06473E-07 7.26314E-20-3.63345E-18
 -1      1547 9.63997E-05-2.88970E-05-2.89284E-05-2.84564E-07 2.47272E-19-3.66949E-18
 -1      1548 9.63959E-05-2.88892E-05-2.89362E-05-5.08432E-07 7.62863E-19-3.09983E-18
 -1      1549 9.74540E-05-2.92134E-05-2.92491E-05-4.19509E-07 1.09684E-21-3.46834E-18
 -1      1550 9.70474E-05-2.90829E-05-2.91260E-05-3.89082E-07-2.25749E-19-3.82868E-18
 -1      1551 9.70033E-05-2.90608E-05-2.91250E-05-6.94288E-07 1.88672E-20-3.72347E-18
 -1      1552 9.84799E-05-2.95141E-05-2.95612E-05-5.68700E-07-3.81434E-19-2.69351E-18
 -1      1553 9.79251E-05-2.93355E-05-2.93935E-05-5.27372E-07-1.20007E-19-3.11194E-18
 -1      1554 9.78162E-05-2.92914E-05-2.93771E-05-9.41570E-07-2.53951E-19-2.95515E-18
 -1      1555 9.98515E-05-2.99171E-05-2.99779E-05-7.61483E-07-1.79455E-19-2.15991E-18
 -1      1556 9.91033E-05-2.96759E-05-2.97524E-05-7.06427E-07-3.88259E-19-2.69950E-18
 -1      1557 9.88943E-05-2.95987E-05-2.97108E-05-1.26326E-06-5.23394E-19-2.31544E-18
 -1      1558 1.01660E-04-3.04501E-05-3.05268E-05-1.00477E-06-3.29241E-19-2.50631E-18
 -1      1559 1.00666E-04-3.01289E-05-3.02277E-05-9.32949E-07 3.87587E-19-2.21181E-18
 -1      1560 1.00307E-04-3.00035E-05-3.01469E-05-1.67239E-06 2.90501E-19-1.93481E-18
 -1      1561 1.04006E-04-3.11440E-05-3.12373E-05-1.30208E-06-6.90914E-19-1.78928E-18
 -1      1562 1.02706E-04-3.07235E-05-3.08476E-05-1.21096E-06-9.46463E-19-3.02284E-18
 -1      1563 1.02130E-04-3.05294E-05-3.07079E-05-2.17837E-06-9.63831E-19-2.31475E-18
 -1      1564 1.06981E-04-3.20294E-05-3.21359E-05-1.64752E-06-3.96848E-19-1.22560E-18
 -1      1565 1.05319E-04-3.14910E-05-3.16399E-05-1.53677E-06-4.86440E-19-1.63741E-18
 -1      1566 1.04438E-04-3.12022E-05-3.14147E-05-2.77913E-06-8.90371E-19-1.98472E-18
 -1      1567 1.10643E-04-3.31289E-05-3.32358E-05-2.01420E-06 4.46405E-19-2.10128E-18
 -1      1568 1.08585E-04-3.24610E-05-3.26255E-05-1.88922E-06 3.28023E-19-1.48979E-18
 -1      1569 1.07289E-04-3.20462E-05-3.22800E-05-3.44557E-06 2.38139E-19-1.48540E-18
 -1      1570 1.14948E-04-3.44407E-05-3.45162E-05-2.33427E-06-4.41033E-19-1.97877E-18
 -1      1571 1.12519E-04-3.36514E-05-3.38036E-05-2.21276E-06 7.48913E-20-2.52262E-18
 -1      1572 1.10690E-04-3.30788E-05-3.32967E-05-4.09407E-06 1.51819E-19-1.37062E-18
 -1      1573 1.19650E-04-3.59084E-05-3.58889E-05-2.47016E-06-1.20128E-19-1.77062E-18
 -1      1574 1.17002E-04-3.50484E-05-3.51269E-05-2.39243E-06-5.48923E-19-2.50092E-18
 -1      1575 1.14540E-04-3.42973E-05-3.44178E-05-4.54388E-06-6.60391E-19-1.67882E-18
 -1      1576 1.24146E-04-3.73729E-05-3.71539E-05-2.18712E-06 1.72365E-19-1.48869E-18
 -1      1577 1.21657E-04-3.65705E-05-3.64639E-05-2.22765E-06 7.98726E-21-1.33111E-18
 -1      1578 1.18549E-04-3.56544E-05-3.55296E-05-4.46711E-06-3.76893E-19-2.44579E-18
 -1      1579 1.27321E-04-3.85088E-05-3.79659E-05-1.16353E-06-5.63489E-19-6.21352E-19
 -1      1580 1.25693E-04-3.80086E-05-3.75590E-05-1.43215E-06-3.00260E-19-6.88797E-19
 -1      1581 1.22127E-04-3.70137E-05-3.64285E-05-3.36932E-06-5.87642E-19-1.10231E-18
 -1      1582 1.27541E-04-3.87792E-05-3.78690E-05 8.71582E-07 6.66562E-19-4.64915E-19
 -1      1583 1.27797E-04-3.89488E-05-3.80239E-05 2.70774E-07 3.09101E-19-1.60193E-19
 -1      1584 1.24307E-04-3.80769E-05-3.68284E-05-7.03765E-07 9.72500E-20-1.20749E-18
 -1      1585 1.23110E-04-3.75261E-05-3.64769E-05 3.77695E-06 6.91073E-19-1.81895E-18
 -1      1586 1.26273E-04-3.87456E-05-3.74248E-05 2.86473E-06 6.77256E-19-4.84582E-19
 -1      1587 1.23823E-04-3.83108E-05-3.64451E-05 3.71004E-06 7.77788E-19-1.31935E-18
 -1      1588 1.13476E-04-3.43639E-05-3.38121E-05 6.51601E-06-5.78755E-19-1.12698E-18
 -1      1589 1.19770E-04-3.67166E-05-3.55207E-05 5.60488E-06-6.12908E-19-1.89185E-18
 -1      1590 1.19590E-04-3.70322E-05-3.51785E-05 8.92911E-06-6.05629E-20-6.13040E-19
 -1      1591 1.00871E-04-2.99203E-05-3.05896E-05 7.17572E-06-2.35025E-19-1.07573E-19
 -1      1592 1.08724E-04-3.27682E-05-3.25880E-05 6.86078E-06-1.46484E-19-2.38122E-19
 -1      1593 1.11754E-04-3.38828E-05-3.33035E-05 1.23597E-05-5.82532E-19-1.04932E-18
 -1      1594 9.05969E-05-2.61985E-05-2.80502E-05 4.38611E-06-1.51063E-19 1.07070E-18
 -1      1595 9.66468E-05-2.81864E-05-2.95478E-05 5.08797E-06-7.31969E-19 2.96038E-19
 -1      1596 1.02812E-04-2.97537E-05-3.14582E-05 1.08602E-05-8.52909E-19 5.63065E-19
 -1      1597 8.79323E-05-2.53493E-05-2.72983E-05-6.96634E-07-1.64060E-19 9.20354E-19
 -1      1598 8.90989E-05-2.53542E-05-2.76233E-05 6.81566E-07 1.68295E-19 9.04525E-19
 -1      1599 9.70756E-05-2.69402E-05-3.03440E-05 3.92811E-06 2.78462E-19 1.26506E-18
 -1      1600 9.36535E-05-2.76773E-05-2.84814E-05-4.81751E-06 1.81937E-18-3.59565E-19
 -1      1601 8.97236E-05-2.58496E-05-2.76008E-05-3.67450E-06 9.49524E-19 6.60527E-19
 -1      1602 9.74541E-05-2.73173E-05-3.03084E-05-4.53273E-06 1.17833E-18 1.85950E-19
 -1      1603 1.03156E-04-3.12361E-05-3.07001E-05-5.55071E-06-1.76205E-19-2.15506E-18
 -1      1604 9.70637E-05-2.89233E-05-2.92328E-05-5.27697E-06 5.19797E-19-9.12572E-19
 -1      1605 1.02749E-04-3.03416E-05-3.11410E-05-9.17028E-06 1.40127E-18-1.14958E-18
 -1      1606 1.10669E-04-3.38171E-05-3.26537E-05-3.41884E-06 1.39771E-18-3.20343E-18
 -1      1607 1.05888E-04-3.22784E-05-3.14208E-05-3.86766E-06 6.94660E-19-2.39816E-18
 -1      1608 1.08744E-04-3.34792E-05-3.22399E-05-8.08627E-06 7.01687E-19-1.54621E-18
 -1      1609 1.13199E-04-3.45154E-05-3.34660E-05-3.93185E-07-4.36057E-19-4.06664E-18
 -1      1610 1.11495E-04-3.41848E-05-3.29689E-05-1.08676E-06 1.72186E-19-4.19514E-18
 -1      1611 1.11971E-04-3.49318E-05-3.29428E-05-3.49186E-06 9.63156E-19-2.31735E-18
 -1      1612 1.10920E-04-3.35839E-05-3.30057E-05 1.96973E-06 5.91745E-19-3.01488E-18
 -1      1613 1.12138E-04-3.42217E-05-3.32767E-05 1.40343E-06 5.26682E-19-2.72525E-18
 -1      1614 1.11409E-04-3.45151E-05-3.28826E-05 1.42824E-06 1.96353E-19-2.31417E-18
 -1      1615 1.05777E-04-3.17635E-05-3.17052E-05 3.04359E-06-1.64832E-19-3.48067E-18
 -1      1616 1.08697E-04-3.28690E-05-3.24546E-05 2.76449E-06 6.68163E-20-3.75627E-18
 -1      1617 1.07921E-04-3.29091E-05-3.21108E-05 4.65229E-06 5.40182E-19-1.86710E-18
 -1      1618 1.00181E-04-2.98399E-05-3.02229E-05 2.76277E-06-7.28410E-19-2.16205E-18
 -1      1619 1.03286E-04-3.08874E-05-3.10482E-05 2.81790E-06-4.71691E-19-3.48358E-18
 -1      1620 1.03119E-04-3.08643E-05-3.09788E-05 5.50842E-06-8.09187E-19-1.44113E-18
 -1      1621 9.63156E-05-2.85058E-05-2.91007E-05 1.34128E-06 2.33152E-19-1.41837E-18
 -1      1622 9.81857E-05-2.90339E-05-2.96855E-05 1.69474E-06-2.31323E-19-1.99699E-18
 -1      1623 9.85891E-05-2.89332E-05-2.99043E-05 4.05786E-06-9.76867E-20-2.61647E-18
 -1      1624 9.53747E-05-2.82374E-05-2.88145E-05 2.31703E-07-4.72393E-19-9.70029E-19
 -1      1625 9.44803E-05-2.44207E-05-3.00862E-05 2.65738E-06-1.48506E-18 1.24825E-19
 -1      1626 9.52003E-05-2.66181E-05-2.94114E-05 2.18214E-06-1.22206E-18-5.24201E-19
 -1      1627 9.24538E-05-1.82605E-05-3.18299E-05 4.26872E-06-1.52897E-18 7.49022E-19
 -1      1628 9.37374E-05-2.21053E-05-3.07500E-05 3.98418E-06-1.58649E-18 7.13910E-19
 -1      1629 9.46237E-05-2.35135E-05-3.05602E-05 6.35334E-06-9.58914E-19 3.70577E-19
 -1      1630 8.98698E-05-1.04613E-05-3.40458E-05 5.17288E-06-6.39923E-18-2.00276E-18
 -1      1631 9.14742E-05-1.52238E-05-3.27145E-05 5.04847E-06-2.81787E-18-1.61464E-18
 -1      1632 9.26034E-05-1.81914E-05-3.19549E-05 8.90616E-06-2.18310E-18-2.38228E-18
 -1      1633 8.71239E-05-2.36456E-06-3.63165E-05 5.05938E-06-8.38356E-18-1.02972E-18
 -1      1634 8.87484E-05-7.10158E-06-3.50032E-05 5.16743E-06-7.24372E-18 2.78925E-20
 -1      1635 9.02055E-05-1.18124E-05-3.36063E-05 9.88291E-06-4.08881E-18-2.38788E-18
 -1      1636 8.48627E-05 4.13515E-06-3.81089E-05 3.74839E-06-1.28244E-17-1.14718E-18
 -1      1637 8.61016E-05 5.76822E-07-3.71309E-05 4.10822E-06-1.00107E-17-2.94425E-18
 -1      1638 8.77308E-05-5.46989E-06-3.51849E-05 8.75762E-06-6.42287E-18-3.73589E-18
 -1      1639 8.36617E-05 7.52929E-06-3.90323E-05 1.37149E-06-1.11866E-17 8.02564E-20
 -1      1640 8.41957E-05 6.00672E-06-3.86152E-05 1.92986E-06-1.23694E-17 5.62099E-19
 -1      1641 8.57708E-05-5.95836E-07-3.63595E-05 5.42164E-06-7.10358E-18-9.03572E-19
 -1      1642 8.39702E-05 6.69474E-06-3.88121E-05-1.39130E-06-8.23620E-18 1.68014E-18
 -1      1643 8.36065E-05 7.70095E-06-3.90828E-05-8.23475E-07-1.06987E-17 1.02982E-18
 -1      1644 8.49359E-05 1.46716E-06-3.68512E-05 5.23069E-07-6.50990E-18 1.53719E-18
 -1      1645 8.56612E-05 1.96619E-06-3.75358E-05-3.65806E-06-3.98847E-18 2.30098E-18
 -1      1646 8.45392E-05 5.14025E-06-3.84015E-05-3.27005E-06-6.81782E-18 2.57050E-18
 -1      1647 8.55488E-05 4.42117E-08-3.65322E-05-4.45259E-06-3.45321E-18 4.02928E-18
 -1      1648 8.81545E-05-5.17936E-06-3.55732E-05-4.80646E-06-2.37789E-18 2.38883E-19
 -1      1649 8.66417E-05-8.04194E-07-3.67823E-05-4.68979E-06-3.76824E-18 2.55401E-18
 -1      1650 8.73690E-05-4.36289E-06-3.54975E-05-7.98068E-06-2.16502E-18 3.53268E-18
 -1      1651 9.07320E-05-1.28367E-05-3.34169E-05-4.74278E-06-3.20560E-18-4.37809E-19
 -1      1652 8.92383E-05-8.38458E-06-3.46688E-05-4.86487E-06-1.67416E-18-1.50836E-18
 -1      1653 8.97567E-05-1.04015E-05-3.40136E-05-9.26134E-06-3.27204E-18 3.60151E-19
 -1      1654 9.28239E-05-1.93558E-05-3.15244E-05-3.83768E-06-2.42866E-18 8.41448E-19
 -1      1655 9.16527E-05-1.57220E-05-3.25672E-05-4.08378E-06-2.43310E-18 4.77237E-19
 -1      1656 9.20189E-05-1.64939E-05-3.24282E-05-8.47886E-06-1.98243E-18-1.00207E-18
 -1      1657 9.42719E-05-2.41568E-05-3.00805E-05-2.56075E-06-1.33347E-18 4.36301E-19
 -1      1658 9.34948E-05-2.16188E-05-3.08275E-05-2.83616E-06-2.09207E-18 1.01048E-18
 -1      1659 9.37402E-05-2.15746E-05-3.10094E-05-6.44354E-06-1.60063E-19 1.42586E-18
 -1      1660 9.50464E-05-2.69985E-05-2.91814E-05-1.35338E-06 6.97882E-19 2.18918E-18
 -1      1661 9.46593E-05-2.56116E-05-2.96067E-05-1.57496E-06-9.79071E-19 1.87530E-18
 -1      1662 9.48069E-05-2.51782E-05-2.99172E-05-4.03123E-06 7.27062E-19 1.31006E-18
 -1      1663 9.53185E-05-2.82406E-05-2.87394E-05-5.05092E-07 2.31346E-19-5.52467E-19
 -1      1664 9.51817E-05-2.77419E-05-2.89129E-05-6.05373E-07 8.82579E-19 1.06610E-18
 -1      1665 9.52966E-05-2.72737E-05-2.92036E-05-1.93956E-06 6.67386E-19 1.57868E-18
 -1      1666 9.53564E-05-2.85291E-05-2.86216E-05-8.07909E-08-3.92911E-19-1.38034E-18
 -1      1667 9.53991E-05-2.85103E-05-2.86693E-05-1.63658E-07 7.31519E-19-1.34509E-18
 -1      1668 9.54794E-05-2.81413E-05-2.88662E-05-6.94106E-07-1.13297E-19-1.11418E-18
 -1      1669 9.54198E-05-2.84624E-05-2.87131E-05-1.69516E-07 3.28960E-19-1.55195E-18
 -1      1670 2.33133E-05-7.61183E-05 1.59398E-05-7.65274E-06 1.48282E-17 1.10517E-18
 -1      1671 2.72760E-05-8.77926E-05 1.84676E-05 1.48095E-06 1.70023E-17 1.57125E-19
 -1      1672 2.13762E-05-4.48771E-05 5.22522E-06 1.01973E-06 9.95857E-18 2.29800E-18
 -1      1673 2.69918E-05-7.06374E-05 1.17031E-05-3.12969E-06 1.23074E-17 2.06565E-18
 -1      1674 4.38241E-05-1.64371E-05-1.34195E-05 3.36251E-05 1.74235E-18-2.87398E-18
 -1      1675 3.58524E-05-3.92276E-05-3.21338E-06 1.28146E-05 6.82285E-18-7.73765E-19
 -1      1676 8.85387E-05-4.87333E-06-3.45074E-05 6.59914E-05-8.35174E-19-2.30139E-18
 -1      1677 5.98108E-05-9.83714E-06-2.34850E-05 4.12373E-05 4.37916E-19-8.69056E-19
 -1      1678 1.62022E-04-2.32682E-05-5.51087E-05 8.07581E-05-1.33831E-18-7.84437E-18
 -1      1679 1.15219E-04-8.50668E-06-4.47143E-05 6.89734E-05-7.67412E-19-4.10049E-18
 -1      1680 2.31509E-04-5.04902E-05-7.08346E-05 6.66010E-05-2.09424E-18-9.76883E-18
 -1      1681 1.86664E-04-2.77380E-05-6.37779E-05 8.02790E-05-1.98608E-18-8.21029E-18
 -1      1682 2.65052E-04-6.65820E-05-7.78279E-05 1.79570E-05-1.02025E-18-1.00530E-17
 -1      1683 2.44800E-04-5.48135E-05-7.50750E-05 5.08620E-05-1.91599E-18-9.69768E-18
 -1      1684 2.57189E-04-6.28899E-05-7.65543E-05-3.37143E-05 1.28241E-18-9.81118E-18
 -1      1685 2.70807E-04-6.97977E-05-7.86249E-05 1.88555E-06-1.32137E-19-1.03723E-17
 -1      1686 1.98589E-04-3.71662E-05-6.51970E-05-6.37290E-05 4.27942E-18-9.32922E-18
 -1      1687 2.40672E-04-5.75561E-05-7.19432E-05-4.50067E-05 3.03984E-18-8.24332E-18
 -1      1688 1.26406E-04-1.67404E-05-4.62745E-05-6.08951E-05 7.67115E-18-9.35971E-18
 -1      1689 1.75290E-04-3.36653E-05-5.66918E-05-6.73262E-05 5.72213E-18-9.25468E-18
 -1      1690 6.54773E-05-1.23589E-05-2.49158E-05-3.94417E-05 1.02771E-17-9.47491E-18
 -1      1691 9.85230E-05-1.14009E-05-3.60872E-05-6.23546E-05 8.82778E-18-9.55961E-18
 -1      1692 3.68437E-05-3.63998E-05-4.53888E-06-1.20225E-05 9.08273E-18-6.73306E-18
 -1      1693 4.78498E-05-1.70134E-05-1.47499E-05-3.31546E-05 9.76714E-18-9.70530E-18
 -1      1694 2.46612E-05-6.35581E-05 1.02485E-05 5.32740E-06 1.04371E-17-3.63155E-18
 -1      1695 2.01359E-05-3.97815E-05 3.92811E-06-2.07825E-07 1.01542E-17-4.36370E-18
 -1      1696 2.54551E-05-8.14448E-05 1.72878E-05 2.23155E-06 6.98548E-18-2.54152E-18
 -1      1697 2.09682E-05-6.85565E-05 1.44592E-05 9.10382E-06 9.47999E-18-3.79555E-18
 -1      1698 2.28284E-05-7.75254E-05 1.71717E-05-5.14640E-06 4.19281E-19-2.48774E-18
 -1      1699 2.48798E-05-8.34327E-05 1.83079E-05 5.46113E-06 4.88224E-18-2.46444E-18
 -1      1700 2.08494E-05-4.80942E-05 7.49186E-06 3.04508E-06-4.09286E-18-3.96824E-18
 -1      1701 2.56685E-05-6.96818E-05 1.31469E-05 2.66937E-06-3.08320E-19-2.40388E-18
 -1      1702 2.79257E-05-1.75203E-05-7.00935E-06 2.00803E-05-6.83217E-18-5.36553E-18
 -1      1703 2.67624E-05-4.14442E-05 1.34778E-06 5.97414E-06-5.29565E-18-3.77226E-18
 -1      1704 6.38646E-05-2.79124E-06-2.60329E-05 5.30573E-05-6.19350E-18-4.82555E-18
 -1      1705 4.44562E-05-1.40114E-05-1.59530E-05 2.97419E-05-7.09983E-18-5.59465E-18
 -1      1706 1.21831E-04-9.25791E-06-4.55349E-05 7.71782E-05-4.05305E-18-2.02102E-18
 -1      1707 8.36922E-05-1.35602E-06-3.56690E-05 5.99289E-05-6.67462E-18-4.07762E-18
 -1      1708 1.91464E-04-3.59536E-05-6.21686E-05 7.08716E-05-1.00818E-18-2.41235E-18
 -1      1709 1.47293E-04-1.63977E-05-5.39773E-05 7.33689E-05-2.09683E-18-2.09048E-18
 -1      1710 2.42921E-04-5.77118E-05-7.34914E-05 3.40111E-05-1.08336E-18-8.86420E-19
 -1      1711 2.09346E-04-4.03544E-05-6.83021E-05 5.86167E-05-1.22068E-18-2.23024E-18
 -1      1712 2.64026E-04-6.66111E-05-7.76621E-05-1.67657E-05-2.56693E-18 3.89032E-18
 -1      1713 2.59892E-04-6.48440E-05-7.72028E-05 2.17734E-05-2.00726E-18-7.11508E-20
 -1      1714 2.26847E-04-4.68064E-05-7.15519E-05-6.43116E-05-2.52379E-18 6.10965E-18
 -1      1715 2.57146E-04-6.38384E-05-7.58272E-05-3.52772E-05-2.18683E-18 4.58626E-18
 -1      1716 1.60912E-04-1.98574E-05-5.74460E-05-7.62184E-05-2.72279E-18 4.96785E-18
 -1      1717 2.05058E-04-3.99782E-05-6.52418E-05-7.09411E-05-2.71919E-18 5.77253E-18
 -1      1718 9.69833E-05-4.18618E-06-3.93810E-05-6.49931E-05-1.03084E-18 3.01544E-18
 -1      1719 1.36815E-04-1.43066E-05-4.91313E-05-7.98118E-05-1.57718E-18 6.14099E-18
 -1      1720 5.00315E-05-1.04219E-05-1.94271E-05-3.56131E-05 1.00797E-18 7.19978E-19
 -1      1721 7.30087E-05-1.69816E-06-2.97643E-05-5.98648E-05-7.95364E-19 2.78166E-18
 -1      1722 3.29386E-05-4.08240E-05-1.41127E-06-1.07293E-05 7.16251E-18 1.57548E-19
 -1      1723 3.75854E-05-1.81424E-05-1.03545E-05-2.81200E-05 2.57244E-18 1.17992E-18
 -1      1724 2.73067E-05-7.13196E-05 1.21107E-05 1.34532E-06 1.48968E-17-1.86249E-18
 -1      1725 2.20080E-05-4.70218E-05 5.99110E-06-1.92581E-06 1.06328E-17-2.26687E-19
 -1      1726 2.75338E-05-8.89873E-05 1.87322E-05-1.93638E-06 1.69090E-17-1.38511E-18
 -1      1727 2.37736E-05-7.80624E-05 1.64466E-05 7.61153E-06 1.68161E-17-3.38792E-18
 -1      1728 1.30344E-04-3.66124E-05-3.88215E-05 4.67523E-05-4.77727E-19-5.27447E-18
 -1      1729 8.54957E-05-4.29137E-05-1.94589E-05 4.28943E-05 1.41624E-18-2.95784E-18
 -1      1730 9.56595E-05-2.78206E-05-2.91508E-05 1.33747E-06-1.21680E-18-1.55326E-18
 -1      1731 9.61138E-05-2.69421E-05-2.97067E-05 3.69925E-06-4.62692E-19-6.00831E-19
 -1      1732 2.17296E-05-5.63530E-05 1.00005E-05 1.46376E-05 1.00140E-17-1.34509E-18
 -1      1733 4.72709E-05-4.86579E-05-2.21780E-06 3.25241E-05 5.59973E-18-3.77554E-18
 -1      1734 1.38469E-05-5.97034E-05 1.42512E-05 1.86851E-07 1.15852E-17 1.67289E-19
 -1      1735 1.75338E-04-3.48934E-05-5.65555E-05 4.21151E-05 1.90582E-20-7.51657E-18
 -1      1736 2.08286E-04-3.46086E-05-6.89436E-05 2.85422E-05-7.06002E-19-7.33531E-18
 -1      1737 2.22044E-04-3.59437E-05-7.36422E-05 6.26227E-06-8.52962E-19-9.66068E-18
 -1      1738 2.13193E-04-3.71023E-05-6.99969E-05-1.31364E-05 1.83298E-18-7.92103E-18
 -1      1739 1.80196E-04-3.81432E-05-5.75457E-05-2.51754E-05 4.48321E-18-6.12151E-18
 -1      1740 1.38150E-04-4.11815E-05-4.01705E-05-3.63361E-05 6.74577E-18-6.72290E-18
 -1      1741 9.08511E-05-4.49914E-05-2.07583E-05-3.75373E-05 6.70342E-18-7.06087E-18
 -1      1742 4.93084E-05-4.70020E-05-3.43779E-06-2.95744E-05 7.34039E-18-5.16330E-18
 -1      1743 2.19014E-05-5.26519E-05 8.79877E-06-1.29976E-05 6.77033E-18-3.57130E-18
 -1      1744 1.29285E-05-5.63687E-05 1.37654E-05-1.03171E-06 3.82446E-18-4.36222E-18
 -1      1745 1.65898E-05-5.09950E-05 1.08310E-05 1.47573E-05 1.30782E-18-4.59600E-18
 -1      1746 3.43064E-05-4.52939E-05 1.46004E-06 2.69861E-05-1.30189E-18-3.43175E-18
 -1      1747 6.40537E-05-3.75269E-05-1.30499E-05 3.79255E-05-2.79775E-18-3.14249E-18
 -1      1748 1.04515E-04-3.21569E-05-3.06337E-05 4.61236E-05-4.55450E-18-1.00119E-18
 -1      1749 1.49056E-04-3.10130E-05-4.79521E-05 4.50182E-05-3.16007E-18-1.09437E-18
 -1      1750 1.84819E-04-3.18486E-05-6.17218E-05 2.81140E-05-1.33683E-18-1.08717E-18
 -1      1751 2.09983E-04-3.29872E-05-7.09046E-05 9.00936E-06-2.38779E-18 7.40519E-19
 -1      1752 2.20423E-04-3.67116E-05-7.27965E-05-1.32287E-05-3.45971E-18 1.10030E-18
 -1      1753 1.95977E-04-3.37951E-05-6.49510E-05-3.28873E-05-1.98926E-18 3.55796E-18
 -1      1754 1.58924E-04-3.26060E-05-5.11799E-05-4.41560E-05-1.46113E-19 4.15470E-18
 -1      1755 1.15104E-04-3.29976E-05-3.41889E-05-4.86146E-05 1.17738E-19 3.73457E-18
 -1      1756 7.47213E-05-4.01868E-05-1.62717E-05-4.15213E-05 2.52162E-18 2.16332E-18
 -1      1757 4.33482E-05-4.86948E-05-8.29000E-07-3.12924E-05 7.18792E-18 3.72610E-18
 -1      1758 2.11301E-05-5.65022E-05 1.03534E-05-1.59512E-05 1.18559E-17 4.75185E-19
 -1      1759 1.06058E-04-2.31728E-05-3.56057E-05-1.68527E-05-2.11209E-18 7.87402E-18
 -1      1760 8.91292E-05-1.05604E-05-3.37957E-05-1.33400E-05-2.66446E-18-3.18085E-18
 -1      1761 9.04584E-05-1.16288E-05-3.39360E-05-1.51140E-05-3.09188E-18-2.30835E-18
 -1      1762 9.24965E-05-1.38749E-05-3.38549E-05-1.60020E-05-3.08374E-18-1.18929E-18
 -1      1763 9.42124E-05-1.58257E-05-3.40988E-05-1.76626E-05-3.29530E-18 3.54166E-19
 -1      1764 9.34473E-05-1.63671E-05-3.30450E-05-1.37509E-05-3.24091E-18-1.58501E-18
 -1      1765 8.62088E-05-7.67281E-06-3.37297E-05-7.86454E-06-1.53678E-18-4.55890E-18
 -1      1766 8.66108E-05-7.97109E-06-3.37635E-05-9.25378E-06-1.86724E-18-4.40870E-18
 -1      1767 8.55923E-05-7.03619E-06-3.37264E-05-5.32127E-06-8.88955E-19-4.72218E-18
 -1      1768 8.58266E-05-7.21471E-06-3.37416E-05-6.62600E-06-1.18365E-18-4.67549E-18
 -1      1769 8.75912E-05-9.86730E-06-3.33432E-05-6.93023E-06-1.49028E-18-4.40998E-18
 -1      1770 8.52577E-05-6.67781E-06-3.37295E-05-2.88938E-06-2.26411E-19-4.76827E-18
 -1      1771 8.53784E-05-6.77240E-06-3.37355E-05-4.12928E-06-5.33949E-19-4.76681E-18
 -1      1772 8.69565E-05-9.15563E-06-3.33759E-05-4.53853E-06-7.46023E-19-4.56137E-18
 -1      1773 8.51270E-05-6.52972E-06-3.37329E-05-5.17594E-07 3.21699E-19-4.88121E-18
 -1      1774 8.51626E-05-6.55823E-06-3.37343E-05-1.72741E-06 1.05874E-19-4.85032E-18
 -1      1775 8.66248E-05-8.77687E-06-3.33958E-05-2.21780E-06-6.20102E-20-4.66942E-18
 -1      1776 8.51723E-05-6.56715E-06-3.37345E-05 1.84545E-06 8.08313E-19-4.81043E-18
 -1      1777 8.51306E-05-6.53425E-06-3.37328E-05 6.34649E-07 5.89105E-19-4.86931E-18
 -1      1778 8.65266E-05-8.66334E-06-3.34023E-05 6.54462E-08 4.82363E-19-4.74149E-18
 -1      1779 8.54035E-05-6.79726E-06-3.37355E-05 4.25160E-06 1.28634E-18-4.69839E-18
 -1      1780 8.52754E-05-6.69661E-06-3.37294E-05 3.00868E-06 1.06568E-18-4.78383E-18
 -1      1781 8.66422E-05-8.79630E-06-3.33950E-05 2.34981E-06 9.75605E-19-4.68418E-18
 -1      1782 8.58609E-05-7.25051E-06-3.37411E-05 6.71294E-06 1.82319E-18-4.30015E-18
 -1      1783 8.56226E-05-7.06826E-06-3.37262E-05 5.42565E-06 1.56650E-18-4.55733E-18
 -1      1784 8.69906E-05-9.19319E-06-3.33743E-05 4.65330E-06 1.55049E-18-4.52412E-18
 -1      1785 8.66750E-05-8.04041E-06-3.37621E-05 9.37472E-06 2.44531E-18-3.62936E-18
 -1      1786 8.62537E-05-7.72379E-06-3.37282E-05 7.95383E-06 2.07054E-18-3.98897E-18
 -1      1787 8.76433E-05-9.92587E-06-3.33402E-05 7.02855E-06 2.11508E-18-3.97343E-18
 -1      1788 8.80883E-05-9.38819E-06-3.38177E-05 1.22537E-05 3.13988E-18-2.70730E-18
 -1      1789 8.73478E-05-8.83025E-06-3.37455E-05 1.06607E-05 2.75285E-18-3.25830E-18
 -1      1790 8.87653E-05-1.11608E-05-3.32899E-05 9.50294E-06 2.76738E-18-3.22090E-18
 -1      1791 9.06335E-05-1.18406E-05-3.39282E-05 1.53020E-05 3.55297E-18-9.49233E-19
 -1      1792 8.92524E-05-1.07412E-05-3.37882E-05 1.35123E-05 3.26376E-18-2.00593E-18
 -1      1793 9.06637E-05-1.32234E-05-3.32073E-05 1.19748E-05 3.41633E-18-2.13841E-18
 -1      1794 9.58798E-05-1.70356E-05-3.39943E-05 1.76897E-05 3.50685E-18 2.34538E-18
 -1      1795 9.28594E-05-1.43440E-05-3.38278E-05 1.61928E-05 3.47226E-18 3.77486E-19
 -1      1796 9.39724E-05-1.68879E-05-3.30250E-05 1.38936E-05 3.67109E-18-1.76818E-19
 -1      1797 1.01930E-04-2.50960E-05-3.33607E-05 1.44218E-05 2.93089E-18 6.45492E-18
 -1      1798 9.80808E-05-1.96179E-05-3.36266E-05 1.69635E-05 3.23749E-18 3.76983E-18
 -1      1799 9.73334E-05-2.18556E-05-3.24288E-05 1.32475E-05 3.59481E-18 2.33506E-18
 -1      1800 9.87574E-05-2.61370E-05-3.13439E-05 9.43418E-06 3.02295E-18 5.49556E-18
 -1      1801 1.00161E-04-1.95658E-05-3.42194E-05-1.88690E-05-2.84394E-18 3.05398E-18
 -1      1802 9.53167E-05-2.72874E-05-2.91869E-05 4.06614E-06 2.43469E-18 4.10525E-18
 -1      1803 9.77469E-05-2.73925E-05-3.01960E-05 6.40018E-06 2.57752E-18 4.94710E-18
 -1      1804 9.75812E-05-2.56164E-05-3.08341E-05 8.75902E-06 3.08937E-18 3.08360E-18
 -1      1805 9.98210E-05-2.25441E-05-3.28374E-05-1.44686E-05-3.07423E-18 1.89831E-18
 -1      1806 9.69633E-05-2.69795E-05-2.98782E-05-5.70396E-06-2.54909E-18 1.42373E-18
 -1      1807 9.51573E-05-2.70360E-05-2.91676E-05-3.89732E-06-2.23308E-18 8.11557E-19
 -1      1808 9.43367E-05-2.72370E-05-2.86603E-05-2.42167E-06-1.92690E-18 7.79257E-19
 -1      1809 9.35660E-05-2.73175E-05-2.83553E-05-1.56840E-06-1.60337E-18 1.88471E-19
 -1      1810 9.55096E-05-2.65468E-05-2.95764E-05-4.47386E-06-2.43234E-18-4.00585E-19
 -1      1811 9.30397E-05-2.73680E-05-2.80864E-05-7.42087E-07-1.31974E-18 7.08596E-20
 -1      1812 9.27391E-05-2.74315E-05-2.79643E-05-3.03903E-07-1.05557E-18-2.46953E-19
 -1      1813 9.42993E-05-2.72217E-05-2.87680E-05-1.83127E-06-1.81138E-18-6.66311E-19
 -1      1814 9.24622E-05-2.74590E-05-2.78280E-05 1.50436E-07-9.33171E-19-4.95281E-19
 -1      1815 9.24309E-05-2.75349E-05-2.77979E-05 3.74047E-07-7.82144E-19-6.83579E-19
 -1      1816 9.35977E-05-2.75283E-05-2.83317E-05-3.65424E-07-1.29684E-18-1.00185E-18
 -1      1817 9.23262E-05-2.75662E-05-2.77394E-05 6.12724E-07-7.41372E-19-8.36321E-19
 -1      1818 9.24404E-05-2.76510E-05-2.77582E-05 7.15931E-07-7.40399E-19-1.11741E-18
 -1      1819 9.32754E-05-2.77131E-05-2.81103E-05 4.35417E-07-9.76929E-19-1.35785E-18
 -1      1820 9.24442E-05-2.76887E-05-2.77459E-05 8.25806E-07-8.80916E-19-1.05636E-18
 -1      1821 9.26305E-05-2.77749E-05-2.77901E-05 8.58528E-07-7.06610E-19-1.14275E-18
 -1      1822 9.32098E-05-2.78559E-05-2.80171E-05 8.44602E-07-8.32176E-19-1.39101E-18
 -1      1823 9.26974E-05-2.78160E-05-2.78044E-05 8.90710E-07-6.13803E-19-1.03875E-18
 -1      1824 9.29116E-05-2.78980E-05-2.78600E-05 8.82163E-07-4.49426E-19-1.22713E-18
 -1      1825 9.33019E-05-2.79789E-05-2.80007E-05 1.01756E-06-7.30901E-19-1.29008E-18
 -1      1826 9.30109E-05-2.79390E-05-2.78886E-05 8.68428E-07-6.29773E-19-1.27006E-18
 -1      1827 9.32267E-05-2.80133E-05-2.79470E-05 8.36869E-07-7.38577E-19-1.17952E-18
 -1      1828 9.34808E-05-2.80871E-05-2.80288E-05 1.04822E-06-6.65065E-19-1.39104E-18
 -1      1829 9.33384E-05-2.80517E-05-2.79820E-05 7.97727E-07-9.77593E-19-1.21981E-18
 -1      1830 9.35408E-05-2.81166E-05-2.80383E-05 7.54973E-07-9.74120E-19-1.56164E-18
 -1      1831 9.36992E-05-2.81812E-05-2.80805E-05 9.96133E-07-1.07828E-18-1.47099E-18
 -1      1832 9.36527E-05-2.81510E-05-2.80748E-05 7.03936E-07-7.87677E-19-1.65730E-18
 -1      1833 9.38341E-05-2.82060E-05-2.81262E-05 6.57740E-07-2.62589E-19-1.91441E-18
 -1      1834 9.39267E-05-2.82611E-05-2.81428E-05 9.00167E-07-9.57358E-19-1.16204E-18
 -1      1835 9.39395E-05-2.82357E-05-2.81615E-05 6.03783E-07-8.20232E-21-2.06885E-18
 -1      1836 9.40972E-05-2.82812E-05-2.82070E-05 5.59247E-07 2.52034E-19-1.99946E-18
 -1      1837 9.41455E-05-2.83274E-05-2.82077E-05 7.86102E-07-2.56183E-19-1.65621E-18
 -1      1838 9.41928E-05-2.83062E-05-2.82397E-05 5.08346E-07 2.63943E-19-2.18741E-18
 -1      1839 9.43275E-05-2.83433E-05-2.82791E-05 4.68838E-07 1.28876E-19-2.29200E-18
 -1      1840 9.43464E-05-2.83809E-05-2.82706E-05 6.71126E-07 1.71463E-19-1.94156E-18
 -1      1841 9.44129E-05-2.83641E-05-2.83090E-05 4.25018E-07-1.38385E-19-2.26734E-18
 -1      1842 9.45276E-05-2.83940E-05-2.83430E-05 3.92812E-07-4.68991E-19-1.96576E-18
 -1      1843 9.45262E-05-2.84234E-05-2.83294E-05 5.66773E-07-7.13038E-20-2.07230E-18
 -1      1844 9.46041E-05-2.84114E-05-2.83702E-05 3.58890E-07-8.24211E-19-1.98983E-18
 -1      1845 9.47032E-05-2.84357E-05-2.84001E-05 3.35633E-07-6.54847E-19-2.08592E-18
 -1      1846 9.46860E-05-2.84565E-05-2.83838E-05 4.80951E-07-7.53535E-19-2.06441E-18
 -1      1847 9.47735E-05-2.84506E-05-2.84255E-05 3.13764E-07-4.15447E-19-2.26101E-18
 -1      1848 9.48628E-05-2.84712E-05-2.84529E-05 3.00820E-07-3.79418E-19-2.16326E-18
 -1      1849 9.48303E-05-2.84824E-05-2.84347E-05 4.19407E-07-7.21880E-19-1.96343E-18
 -1      1850 9.49307E-05-2.84846E-05-2.84778E-05 2.92894E-07-4.36683E-19-2.41278E-18
 -1      1851 9.50168E-05-2.85035E-05-2.85045E-05 2.91594E-07 8.76626E-20-2.38572E-18
 -1      1852 9.49655E-05-2.85033E-05-2.84840E-05 3.86799E-07-5.24738E-19-2.14035E-18
 -1      1853 9.50870E-05-2.85168E-05-2.85305E-05 2.99512E-07 5.14107E-19-2.81164E-18
 -1      1854 9.51777E-05-2.85361E-05-2.85588E-05 3.11315E-07 3.21449E-19-2.57327E-18
 -1      1855 9.51001E-05-2.85215E-05-2.85343E-05 3.87459E-07 6.03833E-20-2.08047E-18
 -1      1856 9.52557E-05-2.85508E-05-2.85877E-05 3.37153E-07 4.41543E-20-2.50048E-18
 -1      1857 9.53597E-05-2.85731E-05-2.86201E-05 3.63726E-07 2.19528E-19-2.48444E-18
 -1      1858 9.52444E-05-2.85399E-05-2.85887E-05 4.25888E-07 1.85070E-19-2.52572E-18
 -1      1859 9.54519E-05-2.85908E-05-2.86540E-05 4.09767E-07 2.24468E-19-2.38060E-18
 -1      1860 9.55790E-05-2.86191E-05-2.86934E-05 4.52955E-07 2.02649E-20-2.25921E-18
 -1      1861 9.54102E-05-2.85616E-05-2.86510E-05 5.06984E-07 9.84442E-20-1.91636E-18
 -1      1862 9.56924E-05-2.86420E-05-2.87346E-05 5.21578E-07-1.75105E-19-2.00688E-18
 -1      1863 9.58536E-05-2.86794E-05-2.87840E-05 5.83242E-07 7.37245E-21-1.69144E-18
 -1      1864 9.56108E-05-2.85905E-05-2.87252E-05 6.35956E-07 3.26246E-19-1.23325E-18
 -1      1865 9.59962E-05-2.87100E-05-2.88351E-05 6.76606E-07 2.17962E-20-1.56199E-18
 -1      1866 9.62031E-05-2.87606E-05-2.88979E-05 7.58271E-07 3.64141E-19-1.44903E-18
 -1      1867 9.58615E-05-2.86311E-05-2.88159E-05 8.17849E-07 5.07144E-20-1.08964E-18
 -1      1868 9.63833E-05-2.88019E-05-2.89612E-05 8.77714E-07 9.47573E-20-1.62955E-18
 -1      1869 9.66484E-05-2.88701E-05-2.90407E-05 9.79956E-07 3.10959E-19-1.83228E-18
 -1      1870 9.61787E-05-2.86897E-05-2.89274E-05 1.05653E-06 1.18427E-19-1.18681E-18
 -1      1871 9.68749E-05-2.89256E-05-2.91184E-05 1.12502E-06 3.75598E-19-2.24776E-18
 -1      1872 9.72100E-05-2.90165E-05-2.92178E-05 1.24648E-06-1.71317E-19-2.26469E-18
 -1      1873 9.65800E-05-2.87738E-05-2.90640E-05 1.35296E-06 3.62483E-20-2.21793E-18
 -1      1874 9.74911E-05-2.90908E-05-2.93114E-05 1.41343E-06-1.68584E-19-2.27273E-18
 -1      1875 9.79057E-05-2.92098E-05-2.94328E-05 1.54934E-06 2.79665E-19-1.89304E-18
 -1      1876 9.70831E-05-2.88936E-05-2.92288E-05 1.70246E-06 1.46985E-19-2.33066E-18
 -1      1877 9.82486E-05-2.93081E-05-2.95429E-05 1.72903E-06 1.80640E-19-1.91834E-18
 -1      1878 9.87477E-05-2.94605E-05-2.96869E-05 1.86918E-06 4.20786E-19-2.23193E-18
 -1      1879 9.77045E-05-2.90618E-05-2.94235E-05 2.09077E-06 4.79413E-19-1.68285E-18
 -1      1880 9.91568E-05-2.95889E-05-2.98121E-05 2.04422E-06 4.51868E-19-1.83762E-18
 -1      1881 9.97367E-05-2.97791E-05-2.99763E-05 2.17031E-06 4.47971E-19-1.43123E-18
 -1      1882 9.84575E-05-2.92944E-05-2.96466E-05 2.48863E-06 7.71383E-19-1.47975E-18
 -1      1883 1.00212E-04-2.99443E-05-3.01126E-05 2.31167E-06 3.84150E-19-1.36414E-18
 -1      1884 1.00855E-04-3.01743E-05-3.02905E-05 2.39435E-06 7.94740E-19-1.14212E-18
 -1      1885 9.93484E-05-2.96106E-05-2.98925E-05 2.84497E-06 6.52586E-19-1.56918E-18
 -1      1886 1.01388E-04-3.03824E-05-3.04302E-05 2.45797E-06 1.63071E-19-1.43198E-18
 -1      1887 1.02056E-04-3.06490E-05-3.06090E-05 2.45449E-06-4.77133E-19-1.08901E-18
 -1      1888 1.00372E-04-3.00316E-05-3.01499E-05 3.07950E-06 1.68945E-19-1.45010E-18
 -1      1889 1.02630E-04-3.09032E-05-3.07405E-05 2.37942E-06-7.17280E-19-1.14941E-18
 -1      1890 1.03255E-04-3.11933E-05-3.09001E-05 2.23386E-06-3.09308E-19-1.58293E-18
 -1      1891 1.01506E-04-3.05753E-05-3.04007E-05 3.07696E-06-3.06068E-19-9.08926E-19
 -1      1892 1.03833E-04-3.14888E-05-3.10076E-05 1.94515E-06-1.95885E-19-1.53846E-18
 -1      1893 1.04317E-04-3.17727E-05-3.11199E-05 1.59483E-06-2.28160E-19-1.58396E-18
 -1      1894 1.02697E-04-3.12463E-05-3.06202E-05 2.68795E-06-3.62540E-19-5.21200E-19
 -1      1895 1.04840E-04-3.20871E-05-3.11853E-05 1.01642E-06 2.63566E-19-1.45545E-18
 -1      1896 1.05050E-04-3.23102E-05-3.12168E-05 4.09813E-07 6.68637E-19-1.32955E-18
 -1      1897 1.03849E-04-3.20149E-05-3.07795E-05 1.74533E-06 2.04959E-19 8.56372E-20
 -1      1898 1.05424E-04-3.25907E-05-3.12233E-05-5.05665E-07 5.82785E-19-1.18707E-18
 -1      1899 1.05210E-04-3.26673E-05-3.11413E-05-1.37510E-06 4.65187E-19-5.74972E-19
 -1      1900 1.04804E-04-3.27858E-05-3.08510E-05 1.09338E-07 7.31512E-19-5.32466E-19
 -1      1901 1.05304E-04-3.28193E-05-3.10790E-05-2.59499E-06 7.40194E-20-8.62070E-19
 -1      1902 1.04534E-04-3.26385E-05-3.08628E-05-3.64133E-06 2.49689E-19-1.01703E-18
 -1      1903 1.05326E-04-3.33636E-05-3.08178E-05-2.24552E-06 2.80242E-19-5.03271E-19
 -1      1904 1.04201E-04-3.25324E-05-3.07345E-05-4.98906E-06-4.29141E-20-1.66563E-18
 -1      1905 1.02822E-04-3.19929E-05-3.03888E-05-5.99311E-06-3.26243E-19-1.82763E-18
 -1      1906 1.05113E-04-3.34456E-05-3.06827E-05-5.10343E-06-3.83292E-19-1.09054E-19
 -1      1907 1.01957E-04-3.15135E-05-3.02132E-05-7.11185E-06-2.22340E-19-1.58836E-18
 -1      1908 1.00076E-04-3.05969E-05-2.97785E-05-7.73197E-06-6.92731E-19-1.24216E-18
 -1      1909 1.03884E-04-3.26991E-05-3.04732E-05-7.88801E-06-1.79090E-19-1.26335E-19
 -1      1910 9.87319E-05-2.97452E-05-2.95860E-05-8.14670E-06-2.17811E-19-1.11772E-18
 -1      1911 9.66664E-05-2.86034E-05-2.91361E-05-8.03340E-06 1.96110E-19-8.32501E-19
 -1      1912 1.01565E-04-3.09644E-05-3.02330E-05-9.67094E-06-1.81428E-19-3.34719E-19
 -1      1913 9.51503E-05-2.75941E-05-2.89574E-05-7.37164E-06-2.66134E-19-8.89497E-19
 -1      1914 9.33783E-05-2.65630E-05-2.85804E-05-6.37770E-06-2.78800E-19-6.02671E-19
 -1      1915 9.85319E-05-2.85322E-05-3.00026E-05-9.47119E-06-1.45193E-19-4.17635E-19
 -1      1916 9.22084E-05-2.58037E-05-2.84345E-05-4.66426E-06-5.15247E-19 1.89385E-19
 -1      1917 9.11985E-05-2.52739E-05-2.82031E-05-3.03041E-06-5.41863E-19-2.39790E-19
 -1      1918 9.56692E-05-2.62282E-05-2.97950E-05-6.83892E-06-3.37060E-19 2.40131E-19
 -1      1919 9.08200E-05-2.51284E-05-2.80983E-05-8.34969E-07-8.40932E-19-3.70770E-19
 -1      1920 9.07860E-05-2.52859E-05-2.80453E-05 8.51525E-07-7.39632E-19-2.48124E-19
 -1      1921 9.40367E-05-2.50751E-05-2.96014E-05-2.42589E-06-7.49740E-19 1.23374E-18
 -1      1922 9.12323E-05-2.57775E-05-2.79862E-05 2.69230E-06-5.88886E-20-4.36851E-20
 -1      1923 9.20221E-05-2.64767E-05-2.80918E-05 3.82409E-06 1.36139E-18 3.30852E-19
 -1      1924 9.41579E-05-2.55874E-05-2.94174E-05 2.13312E-06-5.49347E-20 1.65642E-18
 -1      1925 9.29036E-05-2.72810E-05-2.80765E-05 4.69101E-06 2.12094E-18-6.73219E-19
 -1      1926 9.40877E-05-2.81462E-05-2.82777E-05 4.97534E-06 1.92116E-18-2.12757E-19
 -1      1927 9.56438E-05-2.73713E-05-2.92606E-05 5.14830E-06 9.80333E-19 1.30017E-18
 -1      1928 9.48774E-05-2.88326E-05-2.82938E-05 4.78440E-06 1.37392E-18-6.80465E-19
 -1      1929 9.59866E-05-2.95011E-05-2.85114E-05 4.34755E-06 1.14299E-18 4.54364E-19
 -1      1930 9.74865E-05-2.94202E-05-2.91506E-05 5.83117E-06 1.75065E-18-7.65860E-19
 -1      1931 9.63411E-05-2.98060E-05-2.85383E-05 3.48016E-06 6.42058E-19-2.05736E-20
 -1      1932 9.70727E-05-3.01038E-05-2.87083E-05 2.70547E-06 1.11180E-18 1.10516E-19
 -1      1933 9.87391E-05-3.07970E-05-2.90915E-05 4.56595E-06 5.22850E-19 2.94698E-19
 -1      1934 9.69285E-05-2.99989E-05-2.87245E-05 1.70043E-06-3.49858E-19-9.34789E-19
 -1      1935 9.72129E-05-2.99536E-05-2.88195E-05 9.97369E-07-1.20148E-18-1.33067E-18
 -1      1936 9.89735E-05-3.11077E-05-2.90626E-05 2.42407E-06-5.58221E-19-6.11904E-19
 -1      1937 9.67267E-05-2.95918E-05-2.88138E-05 2.77415E-07-1.05370E-18-2.40800E-18
 -1      1938 9.66691E-05-2.93356E-05-2.88413E-05-1.11616E-07-4.90690E-19-2.33496E-18
 -1      1939 9.82950E-05-3.05082E-05-2.90341E-05 4.99181E-07-1.95780E-18-1.95041E-18
 -1      1940 9.60769E-05-2.89471E-05-2.88023E-05-2.90479E-07 2.01061E-19-1.84982E-18
 -1      1941 9.59209E-05-2.87188E-05-2.87802E-05-3.46055E-07 4.98717E-19-1.64072E-18
 -1      1942 9.60369E-05-2.86823E-05-2.88572E-05-5.61980E-07 7.42441E-19-1.71435E-18
 -1      1943 9.71252E-05-2.94620E-05-2.89747E-05-5.09971E-07-2.47215E-19-1.68953E-18
 -1      1944 9.32173E-05-2.73644E-05-2.81948E-05 1.60478E-06 1.88243E-18 2.88600E-18
 -1      1945 9.44118E-05-2.74697E-05-2.86313E-05 2.67568E-06 2.11229E-18 3.68004E-18
 -1      1946 9.52350E-05-2.70486E-05-2.92281E-05 4.05324E-06 2.56008E-18 2.22398E-18
 -1      1947 9.21652E-05-2.73509E-05-2.77530E-05 3.48426E-07 1.21995E-18 1.91977E-18
 -1      1948 9.26595E-05-2.73831E-05-2.79254E-05 8.96352E-07 1.36919E-18 2.52714E-18
 -1      1949 9.36306E-05-2.73698E-05-2.84044E-05 1.58498E-06 1.77316E-18 1.63337E-18
 -1      1950 9.17893E-05-2.73884E-05-2.75847E-05-3.04365E-07 8.33838E-19 1.37398E-18
 -1      1951 9.19045E-05-2.73617E-05-2.76317E-05-1.21275E-08 1.00292E-18 1.76791E-18
 -1      1952 9.27991E-05-2.74849E-05-2.80018E-05 2.72848E-07 1.25550E-18 8.44346E-19
 -1      1953 9.18119E-05-2.74788E-05-2.75612E-05-6.29139E-07 5.92027E-19 7.03138E-19
 -1      1954 9.17246E-05-2.74169E-05-2.75451E-05-4.76780E-07 5.54882E-19 1.13663E-18
 -1      1955 9.24844E-05-2.75778E-05-2.78272E-05-4.19761E-07 8.10794E-19 2.72146E-19
 -1      1956 9.20544E-05-2.76003E-05-2.76162E-05-7.65579E-07 8.29727E-19 5.05088E-19
 -1      1957 9.18645E-05-2.75218E-05-2.75678E-05-6.94946E-07 6.13340E-19 6.14956E-19
 -1      1958 9.24866E-05-2.76827E-05-2.77813E-05-7.63329E-07 8.07381E-19-2.76488E-19
 -1      1959 9.24047E-05-2.77338E-05-2.77110E-05-7.91339E-07 4.94025E-19 6.08936E-19
 -1      1960 9.21709E-05-2.76508E-05-2.76481E-05-7.69800E-07 7.48676E-19 7.15736E-19
 -1      1961 9.26692E-05-2.77975E-05-2.78081E-05-9.02508E-07 7.31390E-19-8.08983E-20
 -1      1962 9.27932E-05-2.78659E-05-2.78222E-05-7.53142E-07 3.61982E-19-2.09240E-19
 -1      1963 9.25503E-05-2.77859E-05-2.77552E-05-7.60799E-07 5.24740E-19 4.95517E-19
 -1      1964 9.29433E-05-2.79136E-05-2.78740E-05-9.20783E-07 6.96068E-19-9.56998E-20
 -1      1965 9.31779E-05-2.79886E-05-2.79355E-05-6.80643E-07-1.62746E-20-3.99173E-19
 -1      1966 9.29461E-05-2.79156E-05-2.78706E-05-7.04693E-07 1.10770E-19-5.16707E-19
 -1      1967 9.32522E-05-2.80238E-05-2.79578E-05-8.69573E-07 4.82231E-19-4.52150E-19
 -1      1968 9.35352E-05-2.80976E-05-2.80426E-05-5.93127E-07 5.63123E-19-4.92231E-19
 -1      1969 9.33251E-05-2.80337E-05-2.79831E-05-6.25115E-07 4.16911E-19-4.41681E-19
 -1      1970 9.35610E-05-2.81234E-05-2.80464E-05-7.81883E-07 4.65557E-19-7.54406E-19
 -1      1971 9.38534E-05-2.81914E-05-2.81394E-05-5.03241E-07 8.08266E-19-7.90015E-19
 -1      1972 9.36697E-05-2.81370E-05-2.80869E-05-5.37525E-07 6.25975E-19-6.40934E-19
 -1      1973 9.38500E-05-2.82103E-05-2.81324E-05-6.79324E-07 7.23104E-19-1.01718E-18
 -1      1974 9.41293E-05-2.82702E-05-2.82242E-05-4.19288E-07 1.45719E-18-9.86916E-19
 -1      1975 9.39725E-05-2.82249E-05-2.81790E-05-4.52080E-07 1.17251E-18-7.81794E-19
 -1      1976 9.41095E-05-2.82839E-05-2.82116E-05-5.76155E-07 1.25934E-18-1.18422E-18
 -1      1977 9.43652E-05-2.83354E-05-2.82976E-05-3.46771E-07 5.77729E-19-1.32223E-18
 -1      1978 9.42330E-05-2.82982E-05-2.82591E-05-3.75488E-07 9.62580E-19-1.00446E-18
 -1      1979 9.43370E-05-2.83451E-05-2.82827E-05-4.81840E-07 1.02465E-18-8.95742E-19
 -1      1980 9.45674E-05-2.83895E-05-2.83612E-05-2.89496E-07-3.03222E-19-1.26269E-18
 -1      1981 9.44557E-05-2.83588E-05-2.83283E-05-3.12284E-07 1.72539E-19-1.31421E-18
 -1      1982 9.45349E-05-2.83954E-05-2.83458E-05-4.02787E-07 3.07512E-19-1.19336E-18
 -1      1983 9.47450E-05-2.84352E-05-2.84177E-05-2.50415E-07 2.30334E-19-1.60307E-18
 -1      1984 9.46483E-05-2.84094E-05-2.83889E-05-2.65782E-07-9.56550E-20-1.38439E-18
 -1      1985 9.47088E-05-2.84370E-05-2.84025E-05-3.43632E-07-3.19934E-20-1.15876E-18
 -1      1986 9.49095E-05-2.84760E-05-2.84706E-05-2.32288E-07 1.02879E-18-1.50376E-18
 -1      1987 9.48210E-05-2.84529E-05-2.84438E-05-2.38810E-07 4.73036E-19-1.60510E-18
 -1      1988 9.48673E-05-2.84726E-05-2.84552E-05-3.08216E-07 7.67237E-19-1.33463E-18
 -1      1989 9.50746E-05-2.85156E-05-2.85241E-05-2.38227E-07-1.05018E-19-1.30318E-18
 -1      1990 9.49864E-05-2.84931E-05-2.84970E-05-2.34301E-07 9.25412E-19-1.01495E-18
 -1      1991 9.50210E-05-2.85051E-05-2.85073E-05-3.00355E-07 5.12869E-19-9.84914E-19
 -1      1992 9.52565E-05-2.85587E-05-2.85831E-05-2.72162E-07-1.05782E-18-1.52329E-18
 -1      1993 9.51594E-05-2.85340E-05-2.85531E-05-2.55780E-07-7.98786E-19-1.31795E-18
 -1      1994 9.51829E-05-2.85380E-05-2.85628E-05-3.24491E-07-4.37064E-19-7.09441E-19
 -1      1995 9.54743E-05-2.86102E-05-2.86538E-05-3.39252E-07-5.49459E-19-1.31924E-18
 -1      1996 9.53575E-05-2.85803E-05-2.86175E-05-3.07804E-07-8.96989E-19-1.48839E-18
 -1      1997 9.53682E-05-2.85752E-05-2.86267E-05-3.86235E-07-8.06221E-19-1.02364E-18
 -1      1998 9.57511E-05-2.86765E-05-2.87431E-05-4.46281E-07 1.25761E-19-1.47861E-18
 -1      1999 9.56014E-05-2.86376E-05-2.86967E-05-3.96347E-07-3.02335E-22-1.45819E-18
 -1      2000 9.55952E-05-2.86211E-05-2.87048E-05-4.92862E-07-2.09123E-19-1.14069E-18
 -1      2001 9.61142E-05-2.87648E-05-2.88598E-05-6.02003E-07 1.16205E-18-1.91279E-18
 -1      2002 9.59160E-05-2.87124E-05-2.87985E-05-5.29161E-07 7.35144E-19-1.57259E-18
 -1      2003 9.58854E-05-2.86810E-05-2.88041E-05-6.53751E-07 8.65043E-19-1.82345E-18
 -1      2004 9.65969E-05-2.88842E-05-2.90140E-05-8.17445E-07 6.79873E-19-3.47950E-18
 -1      2005 9.63309E-05-2.88128E-05-2.89323E-05-7.16085E-07 9.95893E-19-2.75089E-18
 -1      2006 9.62645E-05-2.87613E-05-2.89329E-05-8.80756E-07 1.41507E-18-2.03800E-18
 -1      2007 9.72386E-05-2.90455E-05-2.92181E-05-1.10602E-06-3.61069E-19-3.43215E-18
 -1      2008 9.68819E-05-2.89483E-05-2.91091E-05-9.69232E-07-2.89622E-19-3.48381E-18
 -1      2009 9.67631E-05-2.88698E-05-2.91010E-05-1.18842E-06 6.46888E-20-3.01977E-18
 -1      2010 9.80867E-05-2.92619E-05-2.94865E-05-1.48325E-06-3.83034E-19-2.43322E-18
 -1      2011 9.76112E-05-2.91306E-05-2.93421E-05-1.30288E-06-5.03621E-19-2.83065E-18
 -1      2012 9.74168E-05-2.90157E-05-2.93197E-05-1.59386E-06-7.92070E-19-2.28487E-18
 -1      2013 9.91957E-05-2.95499E-05-2.98359E-05-1.96555E-06-4.31970E-19-1.95640E-18
 -1      2014 9.85690E-05-2.93743E-05-2.96467E-05-1.73268E-06-3.37093E-19-2.26148E-18
 -1      2015 9.82671E-05-2.92108E-05-2.96018E-05-2.11579E-06-4.05335E-19-2.34002E-18
 -1      2016 1.00627E-04-2.99294E-05-3.02839E-05-2.56715E-06 1.91807E-19-1.10308E-18
 -1      2017 9.98120E-05-2.96972E-05-3.00396E-05-2.27348E-06 1.04058E-19-1.49841E-18
 -1      2018 9.93608E-05-2.94700E-05-2.99610E-05-2.77208E-06-1.26893E-19-1.34728E-18
 -1      2019 1.02443E-04-3.04247E-05-3.08481E-05-3.29321E-06-7.55888E-19-2.25106E-18
 -1      2020 1.01402E-04-3.01214E-05-3.05383E-05-2.93433E-06-3.86889E-19-1.62671E-18
 -1      2021 1.00748E-04-2.98133E-05-3.04104E-05-3.57399E-06 2.60406E-19-1.13999E-18
 -1      2022 1.04703E-04-3.10659E-05-3.15413E-05-4.12624E-06-7.23197E-19-1.93614E-18
 -1      2023 1.03403E-04-3.06752E-05-3.11580E-05-3.70831E-06-1.14304E-18-2.12765E-18
 -1      2024 1.02481E-04-3.02687E-05-3.09599E-05-4.51471E-06-9.11493E-19-1.41573E-18
 -1      2025 1.07439E-04-3.18899E-05-3.23642E-05-5.00102E-06 4.38030E-19-1.11944E-18
 -1      2026 1.05865E-04-3.13946E-05-3.19063E-05-4.55351E-06-1.82301E-19-1.23875E-18
 -1      2027 1.04604E-04-3.08775E-05-3.16116E-05-5.54795E-06-6.07761E-19-9.35212E-19
 -1      2028 1.10636E-04-3.29396E-05-3.32936E-05-5.76328E-06-5.53516E-19-8.29272E-19
 -1      2029 1.08811E-04-3.23259E-05-3.27741E-05-5.36042E-06 9.96488E-20-5.38055E-19
 -1      2030 1.07148E-04-3.17016E-05-3.23520E-05-6.55158E-06 3.20251E-20-5.10271E-19
 -1      2031 1.14177E-04-3.42565E-05-3.42644E-05-6.11168E-06-4.61415E-19-2.12903E-18
 -1      2032 1.12203E-04-3.35234E-05-3.37220E-05-5.90352E-06-3.71696E-19-1.52440E-18
 -1      2033 1.10113E-04-3.28293E-05-3.31424E-05-7.27311E-06 2.19057E-19-5.12706E-19
 -1      2034 1.17782E-04-3.58486E-05-3.51526E-05-5.54555E-06-7.73526E-19-1.56655E-18
 -1      2035 1.15882E-04-3.50311E-05-3.46636E-05-5.78690E-06-7.28389E-19-2.33144E-18
 -1      2036 1.13436E-04-3.43638E-05-3.39099E-05-7.26645E-06-5.33886E-19-1.12174E-18
 -1      2037 1.20932E-04-3.76089E-05-3.57730E-05-3.38255E-06-9.84716E-19-1.24195E-18
 -1      2038 1.19495E-04-3.68249E-05-3.54553E-05-4.42722E-06-7.01436E-19-1.16390E-18
 -1      2039 1.16938E-04-3.63635E-05-3.45480E-05-5.86522E-06-1.01013E-18-1.92668E-18
 -1      2040 1.22788E-04-3.91289E-05-3.59230E-05 9.81160E-07 8.52353E-19-1.12515E-18
 -1      2041 1.22369E-04-3.86571E-05-3.59118E-05-1.18260E-06-7.46712E-20-9.70627E-19
 -1      2042 1.20197E-04-3.86506E-05-3.49459E-05-2.29868E-06-1.46907E-21-1.10609E-18
 -1      2043 1.22226E-04-3.95001E-05-3.54944E-05 7.35350E-06 7.86788E-19-7.66115E-19
 -1      2044 1.23420E-04-3.98147E-05-3.58729E-05 4.16926E-06 5.60895E-19-6.23317E-19
 -1      2045 1.22367E-04-4.04832E-05-3.50559E-05 3.81318E-06 5.20793E-19 1.03967E-19
 -1      2046 1.18247E-04-3.74691E-05-3.46170E-05 1.36993E-05-1.40265E-18-3.34313E-19
 -1      2047 1.21333E-04-3.90472E-05-3.53209E-05 1.05446E-05 1.26115E-19-6.24846E-19
 -1      2048 1.22123E-04-4.03618E-05-3.49755E-05 1.14718E-05 3.41143E-19 4.39292E-19
 -1      2049 1.11093E-04-3.26256E-05-3.36422E-05 1.59022E-05-7.42133E-19-6.14099E-21
 -1      2050 1.15507E-04-3.53063E-05-3.44444E-05 1.48415E-05-1.44013E-18-8.25010E-19
 -1      2051 1.18363E-04-3.68088E-05-3.49283E-05 1.72785E-05-1.17123E-18 3.99826E-19
 -1      2052 1.03756E-04-2.72593E-05-3.29019E-05 1.05158E-05-1.02544E-18 6.24224E-19
 -1      2053 1.07696E-04-2.96524E-05-3.35211E-05 1.31252E-05-1.07012E-18-4.01547E-20
 -1      2054 1.11954E-04-3.04734E-05-3.49936E-05 1.63549E-05-1.69944E-18-1.77348E-19
 -1      2055 1.00840E-04-2.54684E-05-3.25208E-05-3.72151E-07 9.19931E-19 4.77965E-19
 -1      2056 1.02253E-04-2.58844E-05-3.27692E-05 4.66735E-06 4.18223E-19 2.76288E-19
 -1      2057 1.06881E-04-2.56706E-05-3.49835E-05 6.95387E-06 5.32572E-20-6.84270E-19
 -1      2058 1.04008E-04-2.86923E-05-3.24620E-05-9.68619E-06 2.24866E-18-9.53997E-19
 -1      2059 1.02270E-04-2.68814E-05-3.23214E-05-5.57121E-06 1.50645E-18-1.33487E-19
 -1      2060 1.06705E-04-2.61378E-05-3.46373E-05-5.48482E-06 1.99640E-18-9.94341E-19
 -1      2061 1.09772E-04-3.37016E-05-3.26463E-05-1.16371E-05 3.56435E-19-1.31753E-18
 -1      2062 1.06579E-04-3.13691E-05-3.22630E-05-1.08194E-05 1.51324E-18-5.42260E-19
 -1      2063 1.10705E-04-3.14796E-05-3.39897E-05-1.25558E-05 1.35724E-18-4.48266E-19
 -1      2064 1.13513E-04-3.66582E-05-3.28678E-05-7.13855E-06 1.10173E-18-1.09990E-18
 -1      2065 1.11031E-04-3.53158E-05-3.25070E-05-9.03986E-06 4.03710E-19-7.80144E-19
 -1      2066 1.14411E-04-3.66053E-05-3.33346E-05-1.09568E-05 1.00538E-18 1.85077E-19
 -1      2067 1.13462E-04-3.66799E-05-3.28136E-05-4.64705E-07 1.26367E-18-7.88035E-19
 -1      2068 1.12815E-04-3.66344E-05-3.27193E-05-3.26860E-06 1.46897E-18-5.18900E-19
 -1      2069 1.14968E-04-3.84354E-05-3.28080E-05-4.17974E-06 1.34554E-18 3.34363E-19
 -1      2070 1.10296E-04-3.47448E-05-3.23137E-05 4.86629E-06 4.61527E-19-1.90631E-18
 -1      2071 1.11417E-04-3.55818E-05-3.25614E-05 2.61471E-06 2.03063E-19-1.60625E-18
 -1      2072 1.12358E-04-3.70937E-05-3.22946E-05 3.00415E-06 9.02289E-19-1.02535E-18
 -1      2073 1.05572E-04-3.20761E-05-3.14615E-05 7.38397E-06-6.64762E-19-4.68965E-19
 -1      2074 1.07754E-04-3.32878E-05-3.19488E-05 6.31932E-06 5.97595E-19-2.10911E-19
 -1      2075 1.07949E-04-3.41268E-05-3.16776E-05 7.68730E-06 3.70610E-19-4.00620E-19
 -1      2076 1.00704E-04-2.94092E-05-3.05293E-05 6.92649E-06-9.88464E-20-1.15644E-18
 -1      2077 1.03107E-04-3.06552E-05-3.10625E-05 7.20934E-06-5.47873E-19-6.60620E-19
 -1      2078 1.03062E-04-3.08386E-05-3.09856E-05 9.03238E-06-2.62102E-19 6.89961E-19
 -1      2079 9.72996E-05-2.75327E-05-2.98707E-05 4.88816E-06-4.36612E-19-1.51510E-18
 -1      2080 9.93323E-05-2.86053E-05-3.03185E-05 6.22229E-06-5.17054E-20-1.28474E-18
 -1      2081 9.92751E-05-2.83165E-05-3.04459E-05 7.98347E-06-2.02228E-19-7.54587E-19
 -1      2082 9.66626E-05-2.63288E-05-3.01423E-05 6.00088E-06-1.07664E-18 3.12244E-19
 -1      2083 9.02963E-05-1.32341E-05-3.30782E-05 1.28751E-05-2.38511E-18-2.22808E-18
 -1      2084 9.20102E-05-1.64921E-05-3.23375E-05 1.28589E-05-1.81898E-18-2.99818E-18
 -1      2085 9.33446E-05-1.87969E-05-3.19522E-05 1.21253E-05-2.07563E-18-2.86243E-18
 -1      2086 9.47510E-05-2.17457E-05-3.12606E-05 1.10343E-05-1.95760E-18-1.36885E-18
 -1      2087 9.37781E-05-2.02906E-05-3.15264E-05 1.53856E-05-1.96150E-18-2.95861E-18
 -1      2088 9.52467E-05-2.28835E-05-3.09899E-05 9.47589E-06-2.07345E-18-6.79274E-19
 -1      2089 9.62644E-05-2.51950E-05-3.04304E-05 7.78528E-06-1.25095E-18 7.69543E-20
 -1      2090 9.74032E-05-2.60970E-05-3.05421E-05 9.08388E-06-1.14684E-18-6.19710E-19
 -1      2091 9.61522E-05-2.37934E-05-3.10177E-05 1.27224E-05-2.22516E-18-1.52855E-18
 -1      2092 8.70496E-05-7.85512E-06-3.40408E-05 1.08609E-05-4.61839E-18-5.26357E-18
 -1      2093 8.87100E-05-1.07132E-05-3.34204E-05 1.21389E-05-3.49357E-18-3.66880E-18
 -1      2094 9.00573E-05-1.52310E-05-3.20657E-05 1.54891E-05-1.53235E-18-4.30982E-18
 -1      2095 8.44891E-05-3.87790E-06-3.46624E-05 5.89057E-06-3.81513E-18-1.74489E-19
 -1      2096 8.56090E-05-5.68642E-06-3.42845E-05 8.39597E-06-4.84521E-18-3.88682E-19
 -1      2097 8.61646E-05-1.02462E-05-3.24781E-05 1.19869E-05-1.90003E-18-2.39018E-18
 -1      2098 8.37802E-05-2.78774E-06-3.47962E-05-8.58717E-07-3.83667E-18 1.75770E-18
 -1      2099 8.38602E-05-2.95030E-06-3.47580E-05 2.18162E-06-3.38926E-18 5.97555E-20
 -1      2100 8.35056E-05-6.93608E-06-3.27040E-05 5.03047E-06-1.70968E-18 2.33708E-19
 -1      2101 8.52876E-05-5.04262E-06-3.44255E-05-7.23801E-06-2.38784E-18 5.39041E-18
 -1      2102 8.42929E-05-3.52508E-06-3.47316E-05-4.64168E-06-3.20068E-18 4.10067E-18
 -1      2103 8.33568E-05-6.73030E-06-3.27237E-05-3.47636E-06-1.94317E-18 3.53820E-18
 -1      2104 8.83199E-05-9.82052E-06-3.36346E-05-1.12810E-05-2.64433E-18 1.94073E-18
 -1      2105 8.66840E-05-7.12259E-06-3.42078E-05-9.86954E-06-2.39524E-18 3.82074E-18
 -1      2106 8.58198E-05-9.74593E-06-3.25336E-05-1.07241E-05-2.52756E-18 4.21766E-18
 -1      2107 9.16411E-05-1.55363E-05-3.25873E-05-1.22286E-05-2.87230E-18-3.70451E-19
 -1      2108 8.99638E-05-1.24251E-05-3.32947E-05-1.21629E-05-3.39443E-18 1.40821E-18
 -1      2109 8.97306E-05-1.47314E-05-3.21351E-05-1.46172E-05-3.25761E-18 7.74302E-19
 -1      2110 9.42219E-05-2.06524E-05-3.14975E-05-1.06672E-05-1.28448E-18-4.04091E-19
 -1      2111 9.29493E-05-1.78524E-05-3.21878E-05-1.15718E-05-2.03292E-18 3.48842E-19
 -1      2112 9.35032E-05-1.99203E-05-3.15680E-05-1.47680E-05-2.23981E-18 9.43980E-19
 -1      2113 9.57630E-05-2.45398E-05-3.04982E-05-7.74423E-06 8.88774E-19 2.67539E-18
 -1      2114 9.49968E-05-2.23608E-05-3.10879E-05-9.10790E-06 5.07558E-21 1.41895E-18
 -1      2115 9.60900E-05-2.40980E-05-3.09017E-05-1.22167E-05 3.58945E-19 1.59751E-18
 -1      2116 9.63250E-05-2.69540E-05-2.97142E-05-4.62687E-06 1.73063E-18 1.67661E-18
 -1      2117 9.60309E-05-2.55515E-05-3.01408E-05-5.97073E-06 2.10168E-18 1.38531E-18
 -1      2118 9.72940E-05-2.68487E-05-3.02320E-05-8.46594E-06 2.08896E-18 2.94024E-18
 -1      2119 9.61817E-05-2.81186E-05-2.91632E-05-2.08284E-06 2.36693E-19-2.76609E-21
 -1      2120 9.62202E-05-2.73988E-05-2.94345E-05-3.13128E-06 8.83065E-19 9.96197E-19
 -1      2121 9.73627E-05-2.82618E-05-2.96414E-05-4.81501E-06 7.60296E-19 6.18086E-19
 -1      2122 6.48601E-05-4.71656E-05-8.38968E-06 4.34500E-05 2.28148E-18-6.40579E-18
 -1      2123 4.63184E-05-4.82533E-05-9.38776E-07 3.41368E-05 5.00554E-18-5.37093E-18
 -1      2124 1.43228E-05-3.73239E-05 8.62412E-06 5.36672E-06 7.89128E-18-2.81638E-19
 -1      2125 1.47862E-05-3.84398E-05 8.80847E-06-6.04902E-06 8.36530E-18-1.37389E-18
 -1      2126 3.10454E-05-4.25513E-05 3.67832E-06 2.88604E-05 6.47896E-18-4.33977E-18
 -1      2127 2.12810E-05-4.26831E-05 7.49653E-06 1.93112E-05 7.85115E-18-2.46360E-18
 -1      2128 4.66247E-05-4.15362E-05-2.63527E-06 3.95506E-05 3.59693E-18-6.93424E-18
 -1      2129 1.08057E-04-4.84437E-05-2.53715E-05 4.51882E-05 1.93124E-19-3.38983E-18
 -1      2130 8.88069E-05-5.17821E-05-1.65716E-05 4.23627E-05 1.45859E-18-4.04352E-18
 -1      2131 1.47039E-04-4.70622E-05-4.22415E-05 3.54797E-05-6.56874E-19-6.27651E-18
 -1      2132 1.25495E-04-4.90426E-05-3.32235E-05 3.61758E-05-5.81065E-19-4.90856E-18
 -1      2133 8.72644E-05-8.72894E-06-3.37487E-05-1.05284E-05-2.15662E-18-4.24321E-18
 -1      2134 8.79790E-05-9.26436E-06-3.38209E-05-1.21076E-05-2.51033E-18-3.80265E-18
 -1      2135 9.04738E-05-1.30308E-05-3.32182E-05-1.18178E-05-2.77910E-18-3.24423E-18
 -1      2136 8.86718E-05-1.10577E-05-3.32961E-05-9.39369E-06-2.17071E-18-4.07013E-18
 -1      2137 1.84920E-04-2.83612E-05-6.60413E-05 8.86077E-06-9.23266E-20-7.35330E-18
 -1      2138 1.78889E-04-3.13115E-05-6.23080E-05 1.63499E-05 6.81226E-19-6.46583E-18
 -1      2139 1.88799E-04-2.57507E-05-6.86128E-05 2.31946E-06-4.63327E-19-7.86047E-18
 -1      2140 1.84103E-04-2.33732E-05-6.79481E-05 7.73504E-06-8.07222E-19-7.02317E-18
 -1      2141 1.78080E-04-2.88104E-05-6.35180E-05-3.01170E-06 1.38448E-18-7.14642E-18
 -1      2142 1.89545E-04-2.86183E-05-6.75004E-05 1.11580E-06-2.44793E-19-8.15777E-18
 -1      2143 1.63941E-04-1.53974E-05-6.24565E-05 6.51226E-06-3.87941E-19-6.31580E-18
 -1      2144 1.60101E-04-4.11054E-05-5.10500E-05-9.71941E-06 4.83333E-18-5.52477E-18
 -1      2145 1.76637E-04-3.77777E-05-5.84571E-05-7.45162E-06 3.54017E-18-5.91822E-18
 -1      2146 1.30628E-04-5.21725E-05-3.41343E-05-2.54200E-05 5.38586E-18-5.79328E-18
 -1      2147 1.51321E-04-5.04810E-05-4.29437E-05-2.12344E-05 5.12857E-18-5.46421E-18
 -1      2148 9.49231E-05-5.35326E-05-1.82843E-05-3.52754E-05 5.17707E-18-5.42525E-18
 -1      2149 1.15659E-04-5.19201E-05-2.70700E-05-3.61522E-05 5.34478E-18-5.25542E-18
 -1      2150 1.33868E-04-6.17380E-05-3.07017E-05-2.20687E-05 3.85696E-18-3.97216E-18
 -1      2151 4.77397E-05-4.69062E-05-1.94269E-06-3.06266E-05 6.05120E-18-3.94241E-18
 -1      2152 6.75328E-05-4.69073E-05-9.41524E-06-3.87102E-05 5.43795E-18-5.55762E-18
 -1      2153 2.33370E-05-4.05256E-05 6.05451E-06-1.90840E-05 4.42363E-18-4.24618E-18
 -1      2154 3.34083E-05-4.08069E-05 2.25603E-06-2.72322E-05 5.79498E-18-3.68968E-18
 -1      2155 4.96755E-05-4.10451E-05-3.91991E-06-3.60531E-05 4.14961E-18-3.86501E-18
 -1      2156 1.22084E-05-3.85860E-05 9.84138E-06 2.19076E-06 2.10996E-18-5.63235E-18
 -1      2157 1.34194E-05-3.72124E-05 8.94494E-06-7.25594E-06 3.62869E-18-5.52520E-18
 -1      2158 2.10143E-05-3.45223E-05 5.00690E-06 2.35865E-05 1.17123E-18-3.98698E-18
 -1      2159 1.50445E-05-3.93256E-05 8.74505E-06 1.22050E-05 1.44652E-18-4.11785E-18
 -1      2160 1.50150E-05-2.68662E-05 4.51112E-06 8.95442E-06 1.79867E-18-5.50826E-18
 -1      2161 5.07820E-05-4.14801E-05-4.75505E-06 3.87675E-05-9.04208E-19-2.68261E-18
 -1      2162 3.78467E-05-4.10524E-05 4.96295E-07 3.41578E-05 1.27055E-21-2.97923E-18
 -1      2163 8.49703E-05-4.32052E-05-1.81402E-05 4.43224E-05-1.26758E-18-1.73938E-18
 -1      2164 6.62025E-05-4.55039E-05-1.01598E-05 3.83166E-05-6.44169E-19-2.48128E-18
 -1      2165 7.03072E-05-4.75720E-05-1.00679E-05 4.40430E-05 4.06576E-20-2.16544E-18
 -1      2166 1.27607E-04-4.52441E-05-3.49145E-05 3.84449E-05-3.25938E-18 4.48080E-19
 -1      2167 1.07923E-04-4.76310E-05-2.65342E-05 3.66966E-05-2.24337E-18-6.75932E-19
 -1      2168 1.55790E-04-4.13553E-05-4.85988E-05 2.53082E-05-1.94712E-18-7.61906E-19
 -1      2169 1.37755E-04-4.24078E-05-4.11468E-05 2.97865E-05-3.43811E-18-3.75236E-19
 -1      2170 1.40390E-04-5.41984E-05-3.64616E-05 2.17328E-05-2.66138E-18-1.91853E-19
 -1      2171 1.73395E-04-3.01965E-05-6.08009E-05 9.08914E-06-1.22481E-18-1.51534E-18
 -1      2172 1.63321E-04-3.31890E-05-5.53740E-05 1.61772E-05-1.22650E-18-2.25438E-18
 -1      2173 1.84933E-04-2.38302E-05-6.77853E-05-6.09931E-07-3.71847E-18 9.14266E-19
 -1      2174 1.72758E-04-2.14074E-05-6.46442E-05 3.94872E-06-2.44793E-18 5.92923E-21
 -1      2175 1.83111E-04-2.43163E-05-6.70776E-05-9.98708E-06-3.10819E-18 1.35546E-18
 -1      2176 1.86470E-04-2.43542E-05-6.85441E-05-2.15663E-06-3.82054E-18 9.55466E-19
 -1      2177 1.59499E-04-1.10713E-05-6.26334E-05-2.46921E-06-4.03145E-18 8.12093E-19
 -1      2178 1.69023E-04-3.03641E-05-5.89940E-05-1.92955E-05-1.65764E-18 2.78843E-18
 -1      2179 1.84548E-04-3.01605E-05-6.46202E-05-1.54691E-05-2.30965E-18 2.21499E-18
 -1      2180 1.47000E-04-4.19415E-05-4.49962E-05-2.90377E-05-1.08844E-19 3.95014E-18
 -1      2181 1.63442E-04-3.95468E-05-5.22520E-05-2.54720E-05-5.99236E-19 3.58210E-18
 -1      2182 1.13708E-04-4.68463E-05-2.92855E-05-3.95814E-05 3.67189E-19 3.22847E-18
 -1      2183 1.34575E-04-4.50893E-05-3.78280E-05-4.03479E-05 2.06253E-19 5.30243E-18
 -1      2184 8.09339E-05-4.99035E-05-1.42844E-05-4.18048E-05 2.84095E-18 2.79606E-18
 -1      2185 9.87479E-05-4.62519E-05-2.24025E-05-4.61214E-05 1.40523E-18 2.23998E-18
 -1      2186 1.20215E-04-5.77160E-05-2.66278E-05-3.91772E-05 1.25615E-18 3.97004E-18
 -1      2187 4.45908E-05-4.68265E-05-4.62672E-07-3.53412E-05 6.53444E-18 4.53861E-18
 -1      2188 6.00698E-05-4.49043E-05-7.00365E-06-4.37008E-05 4.33681E-18 4.33813E-18
 -1      2189 1.95443E-05-4.16796E-05 7.95349E-06-1.65654E-05 8.62089E-18 9.90182E-19
 -1      2190 2.67642E-05-3.93265E-05 4.34632E-06-2.70646E-05 6.62888E-18 3.60074E-18
 -1      2191 1.99458E-05-2.82179E-05 2.98451E-06-1.38209E-05 5.24377E-18 7.45813E-19
 -1      2192 1.76501E-04-3.81915E-05-5.79346E-05 2.23584E-05 2.86403E-19-6.18419E-18
 -1      2193 1.58193E-04-4.02626E-05-5.03885E-05 2.34452E-05 5.59809E-19-5.86062E-18
 -1      2194 1.65689E-04-3.26339E-05-5.59810E-05 2.37067E-06 6.46074E-19-5.81234E-18
 -1      2195 1.56314E-04-5.08361E-05-4.45976E-05 1.63415E-05-1.34043E-19-5.72044E-18
 -1      2196 9.71934E-05-2.43153E-05-3.13062E-05-1.00036E-05-2.98508E-18 1.19994E-18
 -1      2197 9.63511E-05-2.31093E-05-3.14559E-05-1.03839E-05-3.17336E-18-3.39687E-19
 -1      2198 2.15288E-05-3.02969E-05 3.11835E-06 1.55124E-05 5.32276E-18-1.92022E-18
 -1      2199 1.03111E-04-5.96193E-05-1.93783E-05 4.45692E-05 8.39410E-19-4.87962E-18
 -1      2200 8.45185E-05-5.31089E-05-1.37439E-05 4.45504E-05 1.79105E-18-5.69058E-18
 -1      2201 8.10703E-05-5.13887E-05-1.21418E-05 4.73764E-05 1.43064E-18-7.37787E-18
 -1      2202 9.62547E-05-2.84077E-05-2.90637E-05-1.63014E-06 5.78941E-19-7.50792E-19
 -1      2203 1.29074E-04-5.97516E-05-2.94798E-05 3.47607E-05-1.09267E-19-5.25160E-18
 -1      2204 8.29249E-05-5.31237E-05-1.30438E-05-4.63558E-05 3.92176E-18 4.28885E-18
 -1      2205 1.47009E-04-5.25468E-05-3.98544E-05-2.35553E-05 5.40831E-19 4.76541E-18
 -1      2206 1.64709E-04-1.86671E-05-6.14540E-05-1.96975E-06-3.21915E-18 1.28495E-18
 -1      2207 1.55718E-04-4.06468E-05-4.86750E-05 6.55924E-06-2.14876E-18-2.15231E-18
 -1      2208 1.09861E-04-5.55746E-05-2.31030E-05 3.86850E-05-1.48231E-19-4.97420E-19
 -1      2209 3.38319E-05-3.58427E-05 4.72235E-07 3.19593E-05 1.17568E-18-3.22021E-18
 -1      2210 3.05733E-05-2.73370E-05-9.86755E-07 3.01246E-05 1.79275E-18-3.76189E-18
 -1      2211 4.67140E-05-3.58545E-05-4.98039E-06 4.03835E-05 9.30889E-19-2.85387E-18
 -1      2212 2.22342E-05-3.05510E-05 3.01385E-06-1.78246E-05 2.48456E-18-5.63489E-18
 -1      2213 8.95633E-05-5.44143E-05-1.52339E-05-3.74273E-05 4.10684E-18-5.01465E-18
 -1      2214 1.09403E-04-6.15459E-05-2.11822E-05-3.40649E-05 2.68149E-18-3.55060E-18
 -1      2215 8.44393E-05-5.19403E-05-1.32777E-05-3.96619E-05 3.16684E-18-3.24721E-18
 -1      2216 1.64317E-04-2.93331E-05-5.70474E-05 8.79158E-06 1.84907E-18-5.90255E-18
 -1      2217 1.65865E-04-1.84253E-05-6.21082E-05 1.61191E-06-2.15993E-20-6.39235E-18
 -1      2218 1.56325E-04-5.07555E-05-4.48294E-05-2.49339E-06 4.43778E-18-4.47233E-18
 -1      2219 1.60092E-04-2.11044E-05-5.89396E-05-2.96559E-06-2.67006E-18-9.92723E-19
 -1      2220 1.61532E-04-3.68736E-05-5.27809E-05-7.67094E-06-8.92032E-19 3.32842E-18
 -1      2221 4.21280E-05-3.90001E-05-1.75346E-06-3.75369E-05 4.92020E-18 5.74458E-18
 -1      2222 9.52168E-05-2.63775E-05-2.94894E-05 4.19605E-06 2.51607E-18 8.82641E-19
 -1      2223 9.61915E-05-2.58629E-05-3.00673E-05 6.00119E-06 2.81183E-18 1.22853E-18
 -1      2224 8.81335E-05-1.11831E-05-3.30181E-05-3.66203E-06-5.27090E-19-4.29978E-18
 -1      2225 8.83672E-05-1.14532E-05-3.30005E-05-4.80346E-06-9.44730E-19-4.29438E-18
 -1      2226 8.87187E-05-1.19356E-05-3.29524E-05-5.82136E-06-1.20131E-18-4.18504E-18
 -1      2227 8.91240E-05-1.24057E-05-3.29247E-05-6.99296E-06-1.64587E-18-4.04383E-18
 -1      2228 8.98869E-05-1.38221E-05-3.25988E-05-4.90513E-06-9.76878E-19-3.92051E-18
 -1      2229 8.77880E-05-1.07247E-05-3.30612E-05 6.15764E-07 6.26266E-19-4.50374E-18
 -1      2230 8.77836E-05-1.07198E-05-3.30614E-05-4.95506E-07 3.32542E-19-4.55096E-18
 -1      2231 8.79688E-05-1.09495E-05-3.30427E-05 2.75846E-06 1.16334E-18-4.53188E-18
 -1      2232 8.78541E-05-1.08166E-05-3.30520E-05 1.63880E-06 8.48209E-19-4.50432E-18
 -1      2233 8.91058E-05-1.27711E-05-3.27180E-05 1.05006E-06 7.24024E-19-4.29500E-18
 -1      2234 8.84029E-05-1.14962E-05-3.29975E-05 4.88791E-06 1.72524E-18-4.27568E-18
 -1      2235 8.81634E-05-1.12196E-05-3.30156E-05 3.76471E-06 1.39601E-18-4.45997E-18
 -1      2236 8.93712E-05-1.31268E-05-3.26780E-05 3.02188E-06 1.25154E-18-4.24289E-18
 -1      2237 8.91828E-05-1.24789E-05-3.29189E-05 7.07549E-06 2.35631E-18-3.60594E-18
 -1      2238 8.87646E-05-1.19924E-05-3.29479E-05 5.90366E-06 2.02213E-18-3.97583E-18
 -1      2239 8.99284E-05-1.38746E-05-3.25937E-05 4.97598E-06 1.85126E-18-3.84131E-18
 -1      2240 9.04528E-05-1.40876E-05-3.27922E-05 9.22452E-06 3.03802E-18-2.87911E-18
 -1      2241 8.97722E-05-1.32768E-05-3.28374E-05 8.04555E-06 2.55974E-18-3.25390E-18
 -1      2242 9.08644E-05-1.51342E-05-3.24490E-05 6.87227E-06 2.44740E-18-3.16850E-18
 -1      2243 9.24505E-05-1.66589E-05-3.25825E-05 1.11085E-05 3.52812E-18-1.86621E-18
 -1      2244 9.13717E-05-1.53191E-05-3.26544E-05 1.00285E-05 3.19716E-18-2.46610E-18
 -1      2245 9.22880E-05-1.70875E-05-3.22080E-05 8.51812E-06 2.99049E-18-2.40973E-18
 -1      2246 9.42364E-05-2.71176E-05-2.87484E-05 1.76655E-06 1.74286E-18 4.62583E-19
 -1      2247 9.48370E-05-2.68942E-05-2.90470E-05 2.73914E-06 2.15974E-18 7.92555E-19
 -1      2248 9.53400E-05-2.58481E-05-2.97901E-05 4.36251E-06 2.53526E-18-7.75962E-20
 -1      2249 9.59092E-05-2.50997E-05-3.03037E-05-6.19458E-06-2.59091E-18-1.01399E-18
 -1      2250 9.52628E-05-2.58495E-05-2.97607E-05-4.28269E-06-2.28081E-18-1.13609E-18
 -1      2251 9.50688E-05-2.00220E-05-3.22121E-05-1.17711E-05-3.17929E-18-1.45301E-18
 -1      2252 9.54732E-05-2.33573E-05-3.09268E-05-7.96842E-06-2.96178E-18-1.26020E-18
 -1      2253 9.50446E-05-2.25640E-05-3.10495E-05-7.61214E-06-2.74902E-18-1.75269E-18
 -1      2254 9.32363E-05-1.77033E-05-3.23973E-05-1.13093E-05-2.99390E-18-2.32054E-18
 -1      2255 1.55944E-04-4.98217E-05-4.59585E-05 4.15043E-06-9.32266E-20-4.51257E-18
 -1      2256 1.48710E-04-5.78682E-05-3.89902E-05 1.25642E-05-3.44689E-19-5.18596E-18
 -1      2257 9.51274E-05-2.65370E-05-2.93436E-05-2.93773E-06-1.94739E-18-1.07177E-18
 -1      2258 9.46774E-05-2.69079E-05-2.90403E-05-1.87857E-06-1.62847E-18-1.26335E-18
 -1      2259 9.53312E-05-2.53505E-05-2.99926E-05-4.28396E-06-2.22477E-18-1.58407E-18
 -1      2260 9.44634E-05-2.72381E-05-2.87764E-05-1.02633E-06-1.56506E-18-1.15262E-18
 -1      2261 9.42205E-05-2.74521E-05-2.86101E-05-4.27463E-07-1.35779E-18-1.48621E-18
 -1      2262 9.50349E-05-2.66878E-05-2.92978E-05-1.92988E-06-1.76309E-18-1.63687E-18
 -1      2263 9.40589E-05-2.76316E-05-2.84487E-05 8.14914E-08-1.12284E-18-1.42542E-18
 -1      2264 9.39706E-05-2.77758E-05-2.83650E-05 4.09738E-07-8.56715E-19-1.57262E-18
 -1      2265 9.47285E-05-2.74166E-05-2.88555E-05-4.56676E-07-1.27685E-18-1.56384E-18
 -1      2266 9.38772E-05-2.78845E-05-2.82714E-05 6.92103E-07-6.96724E-19-1.50813E-18
 -1      2267 9.38894E-05-2.79918E-05-2.82384E-05 8.56010E-07-6.76856E-19-1.39794E-18
 -1      2268 9.45262E-05-2.78478E-05-2.85835E-05 4.13184E-07-8.24762E-19-1.54738E-18
 -1      2269 9.38518E-05-2.80632E-05-2.81895E-05 9.91822E-07-8.29212E-19-1.41192E-18
 -1      2270 9.39231E-05-2.81471E-05-2.81870E-05 1.05489E-06-7.55267E-19-1.56635E-18
 -1      2271 9.44324E-05-2.81199E-05-2.84255E-05 8.84922E-07-7.74679E-19-1.59373E-18
 -1      2272 9.39244E-05-2.81961E-05-2.81669E-05 1.09800E-06-6.67332E-19-1.56223E-18
 -1      2273 9.40258E-05-2.82626E-05-2.81821E-05 1.10013E-06-6.27853E-19-1.77415E-18
 -1      2274 9.44216E-05-2.82986E-05-2.83430E-05 1.09922E-06-8.01432E-19-1.69196E-18
 -1      2275 9.40513E-05-2.82969E-05-2.81802E-05 1.08689E-06-8.21309E-19-1.56302E-18
 -1      2276 9.41639E-05-2.83493E-05-2.82047E-05 1.05408E-06-1.08327E-18-1.39605E-18
 -1      2277 9.44654E-05-2.84176E-05-2.83097E-05 1.15158E-06-7.23363E-19-1.44534E-18
 -1      2278 9.42026E-05-2.83729E-05-2.82137E-05 1.00921E-06-1.00278E-18-1.30190E-18
 -1      2279 9.43147E-05-2.84136E-05-2.82421E-05 9.58725E-07-8.26807E-19-1.20735E-18
 -1      2280 9.45406E-05-2.84959E-05-2.83075E-05 1.10707E-06-9.03200E-19-1.17137E-18
 -1      2281 9.43592E-05-2.84293E-05-2.82572E-05 8.99056E-07-5.79143E-19-1.17538E-18
 -1      2282 9.44642E-05-2.84600E-05-2.82865E-05 8.42503E-07-4.92203E-21-1.36025E-18
 -1      2283 9.46305E-05-2.85453E-05-2.83243E-05 1.01017E-06-7.67138E-19-1.06036E-18
 -1      2284 9.45098E-05-2.84697E-05-2.83047E-05 7.79462E-07-3.03778E-20-1.34647E-18
 -1      2285 9.46047E-05-2.84922E-05-2.83331E-05 7.24677E-07-3.29315E-20-1.43060E-18
 -1      2286 9.47243E-05-2.85737E-05-2.83519E-05 8.91334E-07-1.91280E-19-9.52902E-19
 -1      2287 9.46491E-05-2.84971E-05-2.83527E-05 6.66044E-07-1.11751E-19-1.81053E-18
 -1      2288 9.47336E-05-2.85131E-05-2.83794E-05 6.18391E-07-1.15116E-19-1.82682E-18
 -1      2289 9.48158E-05-2.85865E-05-2.83854E-05 7.71424E-07-1.33522E-19-1.67254E-18
 -1      2290 9.47757E-05-2.85143E-05-2.83995E-05 5.69542E-07-5.02959E-19-1.84297E-18
 -1      2291 9.48513E-05-2.85250E-05-2.84246E-05 5.32833E-07-9.83574E-19-1.72909E-18
 -1      2292 9.49023E-05-2.85876E-05-2.84218E-05 6.64837E-07-5.98879E-19-2.11765E-18
 -1      2293 9.48916E-05-2.85233E-05-2.84450E-05 4.97660E-07-1.11285E-18-1.50674E-18
 -1      2294 9.49608E-05-2.85301E-05-2.84691E-05 4.74830E-07-8.20999E-19-1.52082E-18
 -1      2295 9.49837E-05-2.85799E-05-2.84601E-05 5.81814E-07-1.04804E-18-1.32197E-18
 -1      2296 9.50005E-05-2.85261E-05-2.84903E-05 4.56424E-07-7.26636E-19-1.82120E-18
 -1      2297 9.50673E-05-2.85301E-05-2.85144E-05 4.50016E-07-5.00841E-19-1.75822E-18
 -1      2298 9.50619E-05-2.85652E-05-2.85000E-05 5.30130E-07-9.24732E-19-9.87261E-19
 -1      2299 9.51084E-05-2.85245E-05-2.85369E-05 4.51151E-07-2.77097E-19-1.82420E-18
 -1      2300 9.51773E-05-2.85271E-05-2.85624E-05 4.63655E-07-2.69392E-20-1.95362E-18
 -1      2301 9.51401E-05-2.85450E-05-2.85425E-05 5.16335E-07-4.79686E-19-1.10757E-18
 -1      2302 9.52223E-05-2.85202E-05-2.85873E-05 4.87114E-07 2.82556E-19-1.78540E-18
 -1      2303 9.52990E-05-2.85227E-05-2.86157E-05 5.21163E-07 3.42845E-19-1.65594E-18
 -1      2304 9.52230E-05-2.85204E-05-2.85889E-05 5.46607E-07 1.21559E-19-9.58555E-19
 -1      2305 9.53510E-05-2.85153E-05-2.86442E-05 5.69900E-07 3.05555E-19-1.72132E-18
 -1      2306 9.54416E-05-2.85196E-05-2.86775E-05 6.28303E-07 2.86143E-19-1.25554E-18
 -1      2307 9.53164E-05-2.84926E-05-2.86414E-05 6.27269E-07 1.80447E-19-1.14652E-18
 -1      2308 9.55044E-05-2.85126E-05-2.87109E-05 7.05427E-07 5.53776E-19-1.18897E-18
 -1      2309 9.56161E-05-2.85206E-05-2.87510E-05 7.91029E-07 4.98087E-19-9.89908E-19
 -1      2310 9.54274E-05-2.84631E-05-2.87022E-05 7.64937E-07 4.11235E-19-1.60135E-18
 -1      2311 9.56943E-05-2.85156E-05-2.87907E-05 8.99568E-07-1.20518E-19-9.03922E-19
 -1      2312 9.58349E-05-2.85303E-05-2.88397E-05 1.01485E-06-1.48179E-20-1.13662E-18
 -1      2313 9.55641E-05-2.84344E-05-2.87738E-05 9.66246E-07 3.61923E-19-1.02796E-18
 -1      2314 9.59336E-05-2.85296E-05-2.88870E-05 1.15725E-06 2.28007E-19-1.09570E-18
 -1      2315 9.61116E-05-2.85548E-05-2.89468E-05 1.30361E-06 3.52311E-19-9.93342E-19
 -1      2316 9.57365E-05-2.84109E-05-2.88584E-05 1.23705E-06 1.38674E-19-9.13758E-19
 -1      2317 9.62372E-05-2.85623E-05-2.90028E-05 1.48081E-06-2.53341E-20-1.13015E-18
 -1      2318 9.64613E-05-2.86033E-05-2.90752E-05 1.65742E-06-1.80549E-19-1.14419E-18
 -1      2319 9.59562E-05-2.83994E-05-2.89581E-05 1.58091E-06-5.92696E-21-6.21661E-19
 -1      2320 9.66211E-05-2.86248E-05-2.91402E-05 1.86752E-06-1.09056E-19-1.76540E-18
 -1      2321 9.69000E-05-2.86886E-05-2.92262E-05 2.06953E-06 3.86911E-19-1.22350E-18
 -1      2322 9.62370E-05-2.84114E-05-2.90738E-05 1.99672E-06-2.41856E-19-9.43791E-19
 -1      2323 9.71032E-05-2.87329E-05-2.93001E-05 2.30572E-06 7.06561E-19-9.06484E-19
 -1      2324 9.74444E-05-2.88291E-05-2.93996E-05 2.52186E-06 5.08394E-19-7.46022E-19
 -1      2325 9.65960E-05-2.84638E-05-2.92055E-05 2.47506E-06 4.37124E-19-7.22101E-19
 -1      2326 9.77022E-05-2.89089E-05-2.94808E-05 2.76970E-06 5.92277E-19-1.57481E-18
 -1      2327 9.81109E-05-2.90497E-05-2.95920E-05 2.97906E-06 7.61789E-19-1.30503E-18
 -1      2328 9.70538E-05-2.85824E-05-2.93507E-05 2.99324E-06 2.72246E-19-1.22692E-18
 -1      2329 9.84372E-05-2.91824E-05-2.96777E-05 3.21287E-06 3.80967E-19-1.78683E-18
 -1      2330 9.89144E-05-2.93827E-05-2.97966E-05 3.38116E-06 6.49680E-19-1.59306E-18
 -1      2331 9.76364E-05-2.88032E-05-2.95050E-05 3.50870E-06 5.02719E-19-1.71411E-18
 -1      2332 9.93262E-05-2.95909E-05-2.98824E-05 3.55984E-06 5.44797E-19-1.72630E-18
 -1      2333 9.98659E-05-2.98669E-05-3.00020E-05 3.63580E-06 8.62139E-20-1.83440E-18
 -1      2334 9.83752E-05-2.91745E-05-2.96611E-05 3.95105E-06 4.65583E-19-1.70120E-18
 -1      2335 1.00382E-04-3.01763E-05-3.00824E-05 3.69875E-06-2.41592E-19-1.16181E-18
 -1      2336 1.00967E-04-3.05414E-05-3.01928E-05 3.61242E-06-3.63663E-19-8.68892E-19
 -1      2337 9.93074E-05-2.97549E-05-2.98095E-05 4.21363E-06 5.53029E-20-1.49120E-18
 -1      2338 1.01604E-04-3.09746E-05-3.02622E-05 3.47726E-06-1.22716E-19-8.63923E-19
 -1      2339 1.02201E-04-3.14296E-05-3.03514E-05 3.14355E-06 6.87074E-19-2.88744E-19
 -1      2340 1.00471E-04-3.06038E-05-2.99407E-05 4.14716E-06 8.26713E-20-1.10613E-18
 -1      2341 1.02962E-04-3.19914E-05-3.04068E-05 2.70962E-06 7.25607E-19-2.91985E-19
 -1      2342 1.03511E-04-3.25077E-05-3.04626E-05 2.04281E-06 4.55881E-19 4.43217E-19
 -1      2343 1.01888E-04-3.17576E-05-3.00488E-05 3.56095E-06 6.33289E-19-5.53117E-19
 -1      2344 1.04363E-04-3.31590E-05-3.05068E-05 1.20766E-06-8.04549E-20 4.06619E-19
 -1      2345 1.04769E-04-3.36532E-05-3.05211E-05 1.54236E-07 3.91187E-19-1.64944E-19
 -1      2346 1.03535E-04-3.31818E-05-3.01382E-05 2.24274E-06 3.35246E-19 4.47962E-19
 -1      2347 1.05608E-04-3.42742E-05-3.05664E-05-1.14564E-06 9.79008E-19 1.52547E-19
 -1      2348 1.05734E-04-3.45836E-05-3.05397E-05-2.55034E-06 7.19869E-19 9.99110E-19
 -1      2349 1.05285E-04-3.46977E-05-3.02309E-05 1.57902E-08 5.68333E-19 5.21423E-19
 -1      2350 1.06356E-04-3.49464E-05-3.06092E-05-4.26198E-06-2.65535E-19 1.38443E-18
 -1      2351 1.06041E-04-3.48331E-05-3.05540E-05-5.82104E-06-8.17776E-19 1.43243E-18
 -1      2352 1.06833E-04-3.59011E-05-3.03717E-05-3.14133E-06 4.57710E-19 2.12086E-18
 -1      2353 1.06157E-04-3.46334E-05-3.06744E-05-7.66640E-06-9.10612E-19 1.29946E-18
 -1      2354 1.05274E-04-3.38650E-05-3.06119E-05-8.97637E-06-3.19057E-19 1.10417E-18
 -1      2355 1.07668E-04-3.61508E-05-3.06212E-05-6.89760E-06-7.36539E-19 2.20136E-18
 -1      2356 1.04646E-04-3.28738E-05-3.07965E-05-1.03788E-05-4.05687E-19 9.54362E-19
 -1      2357 1.03232E-04-3.14138E-05-3.07474E-05-1.08909E-05-3.45766E-19 7.21176E-19
 -1      2358 1.07200E-04-3.47526E-05-3.10269E-05-1.03705E-05-4.42224E-19 1.80315E-18
 -1      2359 1.01917E-04-2.97541E-05-3.09722E-05-1.10939E-05-3.82203E-19 6.64400E-19
 -1      2360 1.00277E-04-2.79631E-05-3.09375E-05-1.03746E-05-1.91426E-19 7.23434E-19
 -1      2361 1.05166E-04-3.14888E-05-3.15784E-05-1.21343E-05-3.76045E-19 1.83743E-18
 -1      2362 9.88200E-05-2.62580E-05-3.11241E-05-8.86642E-06 3.04012E-19 5.10466E-19
 -1      2363 9.75073E-05-2.48939E-05-3.10796E-05-6.93261E-06-4.20492E-19 1.11607E-18
 -1      2364 1.02131E-04-2.71629E-05-3.21517E-05-1.08127E-05 1.26415E-19 2.09153E-18
 -1      2365 9.67587E-05-2.40951E-05-3.11241E-05-4.00528E-06-1.06373E-18 1.18351E-18
 -1      2366 9.63106E-05-2.38866E-05-3.10387E-05-1.55075E-06-5.08326E-19 2.19247E-18
 -1      2367 9.95586E-05-2.37186E-05-3.25166E-05-6.16780E-06-8.13919E-19 1.78305E-18
 -1      2368 9.66559E-05-2.44199E-05-3.08971E-05 1.52067E-06-4.56978E-19 1.83517E-18
 -1      2369 9.71455E-05-2.54184E-05-3.07756E-05 3.54278E-06-2.42438E-20 1.92919E-18
 -1      2370 9.90034E-05-2.32320E-05-3.24587E-05 1.03812E-07-1.65310E-19 3.33284E-18
 -1      2371 9.82135E-05-2.69045E-05-3.04948E-05 5.42405E-06-2.03333E-19 1.70621E-18
 -1      2372 9.92206E-05-2.84766E-05-3.03670E-05 6.32688E-06 1.26937E-19 3.98819E-19
 -1      2373 1.00554E-04-2.58535E-05-3.19740E-05 5.16193E-06-3.72352E-19 1.16221E-18
 -1      2374 1.00182E-04-3.00033E-05-3.00438E-05 6.47543E-06 7.91101E-19-8.54218E-19
 -1      2375 1.01108E-04-3.13195E-05-2.99420E-05 6.21425E-06 1.21365E-18-1.21202E-18
 -1      2376 1.02877E-04-2.99096E-05-3.12409E-05 7.08541E-06-5.22287E-19 8.21213E-19
 -1      2377 1.01363E-04-3.21661E-05-2.96661E-05 5.05315E-06 5.67314E-19-1.62256E-18
 -1      2378 1.01804E-04-3.27405E-05-2.96028E-05 4.08080E-06 1.30580E-19-1.23128E-18
 -1      2379 1.04341E-04-3.31593E-05-3.05054E-05 5.88132E-06 3.40555E-19-1.37008E-18
 -1      2380 1.01258E-04-3.27240E-05-2.94146E-05 2.46572E-06 1.19725E-19-1.18590E-18
 -1      2381 1.01100E-04-3.25159E-05-2.93791E-05 1.34630E-06-1.43063E-18-1.31779E-18
 -1      2382 1.04168E-04-3.43389E-05-2.99419E-05 2.98582E-06-2.50721E-19-1.77015E-18
 -1      2383 1.00061E-04-3.18709E-05-2.92652E-05 1.00916E-07-2.35103E-18-2.49977E-19
 -1      2384 9.94884E-05-3.12402E-05-2.92374E-05-7.28171E-07-1.89431E-18-7.98474E-19
 -1      2385 1.02496E-04-3.33963E-05-2.95821E-05 2.98604E-08-1.09858E-18-1.47253E-18
 -1      2386 6.00340E-05-4.04947E-05-8.23027E-06 4.39723E-05 2.54597E-18-9.29873E-18
 -1      2387 4.45794E-05-3.40774E-05-4.26549E-06 3.61799E-05 3.37246E-18-6.48912E-18
 -1      2388 9.33403E-05-2.76917E-05-2.81278E-05-4.08779E-07 9.45821E-19-5.03183E-19
 -1      2389 9.34184E-05-2.75866E-05-2.81893E-05-1.23045E-07 1.08733E-18-1.73541E-19
 -1      2390 9.32886E-05-2.78564E-05-2.80377E-05-8.14669E-07 8.11101E-19-8.62164E-19
 -1      2391 9.32438E-05-2.77654E-05-2.80492E-05-6.75592E-07 8.90198E-19-7.18573E-19
 -1      2392 9.40112E-05-2.78085E-05-2.83837E-05-4.41459E-07 1.15790E-18-1.01198E-18
 -1      2393 9.33816E-05-2.79919E-05-2.80211E-05-9.90201E-07 6.16269E-19-7.38631E-19
 -1      2394 9.32692E-05-2.79112E-05-2.80042E-05-9.39455E-07 7.05888E-19-7.67652E-19
 -1      2395 9.39240E-05-2.80181E-05-2.82535E-05-8.88718E-07 8.21051E-19-1.19248E-18
 -1      2396 9.35552E-05-2.81066E-05-2.80475E-05-1.02497E-06 5.89277E-19-6.42772E-19
 -1      2397 9.34112E-05-2.80359E-05-2.80155E-05-1.02706E-06 5.87636E-19-7.29783E-19
 -1      2398 9.39520E-05-2.81671E-05-2.81989E-05-1.08488E-06 6.09105E-19-1.40905E-18
 -1      2399 9.37653E-05-2.82031E-05-2.80969E-05-9.77016E-07 5.32009E-19-8.51837E-19
 -1      2400 9.36125E-05-2.81426E-05-2.80583E-05-1.00919E-06 8.07621E-19-5.35679E-19
 -1      2401 9.40497E-05-2.82775E-05-2.81914E-05-1.12604E-06 5.26191E-19-9.98932E-19
 -1      2402 9.39835E-05-2.82830E-05-2.81567E-05-8.84693E-07 6.79561E-19-1.09361E-18
 -1      2403 9.38356E-05-2.82324E-05-2.81167E-05-9.31988E-07 4.65077E-19-1.00713E-18
 -1      2404 9.41834E-05-2.83601E-05-2.82119E-05-1.07563E-06 8.02673E-19-1.10084E-18
 -1      2405 9.41931E-05-2.83476E-05-2.82191E-05-7.73621E-07 9.22132E-19-1.07053E-18
 -1      2406 9.40573E-05-2.83064E-05-2.81807E-05-8.26088E-07 9.38409E-19-8.65828E-19
 -1      2407 9.43305E-05-2.84214E-05-2.82477E-05-9.76160E-07 8.48213E-19-1.03545E-18
 -1      2408 9.43854E-05-2.83988E-05-2.82798E-05-6.60987E-07 1.24320E-18-1.23286E-18
 -1      2409 9.42648E-05-2.83659E-05-2.82444E-05-7.11970E-07 9.99068E-19-1.28725E-18
 -1      2410 9.44768E-05-2.84657E-05-2.82909E-05-8.56308E-07 1.05227E-18-1.15473E-18
 -1      2411 9.45577E-05-2.84383E-05-2.83366E-05-5.58393E-07 6.45986E-19-1.01418E-18
 -1      2412 9.44524E-05-2.84126E-05-2.83048E-05-6.03390E-07 1.21653E-18-1.03886E-18
 -1      2413 9.46150E-05-2.84964E-05-2.83366E-05-7.35503E-07 9.86621E-19-9.98851E-19
 -1      2414 9.47113E-05-2.84683E-05-2.83895E-05-4.73881E-07 1.58848E-19-1.05896E-18
 -1      2415 9.46192E-05-2.84484E-05-2.83608E-05-5.09726E-07 4.33879E-19-8.53899E-19
 -1      2416 9.47419E-05-2.85162E-05-2.83824E-05-6.27030E-07 4.33972E-19-1.20506E-18
 -1      2417 9.48506E-05-2.84908E-05-2.84392E-05-4.13433E-07-1.30591E-19-1.18952E-18
 -1      2418 9.47683E-05-2.84755E-05-2.84128E-05-4.37682E-07-8.49239E-20-1.00544E-18
 -1      2419 9.48582E-05-2.85274E-05-2.84275E-05-5.40284E-07 4.67771E-21-1.13060E-18
 -1      2420 9.49823E-05-2.85080E-05-2.84878E-05-3.82132E-07 6.57911E-19-7.26614E-19
 -1      2421 9.49051E-05-2.84958E-05-2.84623E-05-3.92579E-07 3.54037E-19-1.02847E-18
 -1      2422 9.49669E-05-2.85317E-05-2.84724E-05-4.82460E-07 1.11062E-19-1.36761E-18
 -1      2423 9.51153E-05-2.85222E-05-2.85382E-05-3.85081E-07 8.64226E-20-3.52316E-19
 -1      2424 9.50373E-05-2.85116E-05-2.85119E-05-3.79375E-07 5.98305E-19-4.44626E-19
 -1      2425 9.50729E-05-2.85307E-05-2.85185E-05-4.59854E-07 3.46266E-19-6.43782E-19
 -1      2426 9.52603E-05-2.85357E-05-2.85938E-05-4.28155E-07-5.55095E-19-4.05725E-19
 -1      2427 9.51745E-05-2.85249E-05-2.85645E-05-4.03469E-07-7.88665E-20-4.43736E-21
 -1      2428 9.51829E-05-2.85257E-05-2.85681E-05-4.78896E-07-1.46409E-19 6.05603E-20
 -1      2429 9.54301E-05-2.85509E-05-2.86590E-05-5.18639E-07-4.35080E-19-8.59419E-19
 -1      2430 9.53282E-05-2.85383E-05-2.86243E-05-4.71393E-07-6.25310E-19-6.12902E-19
 -1      2431 9.53051E-05-2.85176E-05-2.86244E-05-5.46995E-07-4.09629E-19-2.39815E-19
 -1      2432 9.56398E-05-2.85708E-05-2.87391E-05-6.65773E-07 2.17603E-19-1.13685E-18
 -1      2433 9.55120E-05-2.85542E-05-2.86958E-05-5.91380E-07-7.17037E-20-8.80783E-19
 -1      2434 9.54491E-05-2.85075E-05-2.86909E-05-6.73229E-07 2.28115E-20-7.18937E-19
 -1      2435 9.59072E-05-2.85986E-05-2.88402E-05-8.81212E-07 1.18474E-18-1.87043E-18
 -1      2436 9.57420E-05-2.85755E-05-2.87848E-05-7.73864E-07 5.01333E-19-1.94001E-18
 -1      2437 9.56262E-05-2.84962E-05-2.87722E-05-8.68920E-07 7.43006E-19-1.50856E-18
 -1      2438 9.62533E-05-2.86383E-05-2.89696E-05-1.17936E-06 1.32736E-18-1.52854E-18
 -1      2439 9.60367E-05-2.86057E-05-2.88978E-05-1.03187E-06 1.64590E-18-1.37735E-18
 -1      2440 9.58493E-05-2.84847E-05-2.88733E-05-1.14807E-06 1.01663E-18-1.63871E-18
 -1      2441 9.67021E-05-2.86949E-05-2.91353E-05-1.57744E-06-3.33540E-19-1.91544E-18
 -1      2442 9.64179E-05-2.86488E-05-2.90422E-05-1.38124E-06 4.34572E-19-1.46825E-18
 -1      2443 9.61329E-05-2.84741E-05-2.90001E-05-1.52759E-06 7.74406E-19-7.91947E-19
 -1      2444 9.72812E-05-2.87746E-05-2.93466E-05-2.09508E-06-9.82332E-19-1.61751E-18
 -1      2445 9.69105E-05-2.87102E-05-2.92266E-05-1.84046E-06-6.90696E-19-1.73507E-18
 -1      2446 9.64933E-05-2.84663E-05-2.91585E-05-2.02717E-06-5.45639E-19-8.01521E-19
 -1      2447 9.80216E-05-2.88863E-05-2.96129E-05-2.75283E-06-7.86875E-19-1.83798E-18
 -1      2448 9.75426E-05-2.87968E-05-2.94600E-05-2.42984E-06-9.51637E-19-2.13366E-18
 -1      2449 9.69481E-05-2.84646E-05-2.93547E-05-2.66844E-06-8.13245E-19-1.76639E-18
 -1      2450 9.89571E-05-2.90434E-05-2.99434E-05-3.56867E-06 7.33337E-20-1.63659E-18
 -1      2451 9.83459E-05-2.89193E-05-2.97516E-05-3.16918E-06-3.22699E-19-1.85231E-18
 -1      2452 9.75166E-05-2.84755E-05-2.95942E-05-3.47283E-06-7.78245E-19-1.89102E-18
 -1      2453 1.00124E-04-2.92677E-05-3.03447E-05-4.55077E-06 1.80547E-19-1.44550E-18
 -1      2454 9.93556E-05-2.90945E-05-3.01091E-05-4.07274E-06 3.98868E-19-1.54006E-18
 -1      2455 9.82205E-05-2.85130E-05-2.98802E-05-4.45690E-06 1.98604E-19-2.13183E-18
 -1      2456 1.01562E-04-2.95964E-05-3.08186E-05-5.68369E-06-1.46099E-18-1.29572E-18
 -1      2457 1.00611E-04-2.93514E-05-3.05370E-05-5.13940E-06-5.32443E-19-1.14729E-18
 -1      2458 9.90862E-05-2.86052E-05-3.02122E-05-5.62362E-06-2.51826E-19-8.85765E-19
 -1      2459 1.03312E-04-3.00949E-05-3.13570E-05-6.90391E-06-1.13065E-18-1.10289E-18
 -1      2460 1.02158E-04-2.97412E-05-3.10327E-05-6.33434E-06-1.43192E-18-1.53003E-18
 -1      2461 1.00151E-04-2.88087E-05-3.05824E-05-6.94640E-06-1.44195E-18-1.80135E-18
 -1      2462 1.05425E-04-3.08742E-05-3.19365E-05-8.06013E-06 3.68904E-19-1.09149E-18
 -1      2463 1.04056E-04-3.03542E-05-3.15824E-05-7.55787E-06-3.68185E-19-8.08908E-19
 -1      2464 1.01479E-04-2.92294E-05-3.09734E-05-8.34236E-06-5.45307E-19-1.83600E-18
 -1      2465 1.07967E-04-3.21094E-05-3.25133E-05-8.85597E-06 2.78014E-19-1.02540E-18
 -1      2466 1.06387E-04-3.13402E-05-3.21559E-05-8.59601E-06 5.59792E-19-3.36876E-19
 -1      2467 1.03182E-04-3.00540E-05-3.13554E-05-9.63005E-06 2.30767E-20-1.37347E-18
 -1      2468 1.11016E-04-3.40303E-05-3.30259E-05-8.78321E-06-1.24576E-18 3.95293E-20
 -1      2469 1.09267E-04-3.29215E-05-3.27062E-05-9.05184E-06-1.08384E-19 5.24080E-19
 -1      2470 1.05461E-04-3.15758E-05-3.16914E-05-1.04676E-05-6.78674E-19 2.23374E-19
 -1      2471 1.14622E-04-3.68260E-05-3.34144E-05-7.10343E-06-7.04645E-19-4.94485E-19
 -1      2472 1.12824E-04-3.53451E-05-3.31798E-05-8.28480E-06-1.22662E-18-1.43208E-19
 -1      2473 1.08617E-04-3.41612E-05-3.19547E-05-1.02794E-05-7.90517E-19 2.10554E-18
 -1      2474 1.18641E-04-4.03340E-05-3.36769E-05-2.94753E-06 9.12678E-20-5.80879E-20
 -1      2475 1.17092E-04-3.87090E-05-3.35532E-05-5.41046E-06-4.91881E-19-5.78696E-19
 -1      2476 1.13000E-04-3.80888E-05-3.21734E-05-8.22130E-06-5.74566E-19 1.09311E-18
 -1      2477 1.22349E-04-4.34163E-05-3.39617E-05 4.14114E-06 8.44730E-19-5.08120E-19
 -1      2478 1.21632E-04-4.24217E-05-3.39079E-05 4.15136E-07 1.77056E-19-6.60818E-20
 -1      2479 1.18665E-04-4.29761E-05-3.25183E-05-3.24804E-06 8.38596E-20-1.75847E-19
 -1      2480 1.24065E-04-4.35244E-05-3.46143E-05 1.29917E-05-2.35138E-19 7.37041E-19
 -1      2481 1.24986E-04-4.45300E-05-3.44983E-05 9.02474E-06 9.46837E-19 3.40752E-19
 -1      2482 1.24582E-04-4.68298E-05-3.33921E-05 5.21525E-06 4.93413E-19-3.42724E-19
 -1      2483 1.21662E-04-3.78116E-05-3.59987E-05 1.94856E-05-1.50883E-18 1.35922E-20
 -1      2484 1.24727E-04-4.18386E-05-3.56891E-05 1.76330E-05-8.60466E-19 8.38880E-19
 -1      2485 1.28180E-04-4.57890E-05-3.53511E-05 1.55952E-05-5.54860E-19 7.02984E-19
 -1      2486 1.15760E-04-2.77911E-05-3.77493E-05 1.73506E-05-1.28654E-18-1.98179E-19
 -1      2487 1.19573E-04-3.30372E-05-3.73909E-05 1.99448E-05-1.37153E-18-4.81068E-19
 -1      2488 1.26332E-04-3.67482E-05-3.85008E-05 2.15983E-05-1.28500E-18-4.39451E-19
 -1      2489 1.11255E-04-2.15491E-05-3.87421E-05 4.92711E-06 6.90120E-19-1.69495E-18
 -1      2490 1.13031E-04-2.35105E-05-3.87131E-05 1.11396E-05-8.67521E-19-9.27117E-19
 -1      2491 1.20489E-04-2.39917E-05-4.15737E-05 1.65948E-05-5.95676E-19-1.45142E-18
 -1      2492 1.13422E-04-2.57223E-05-3.78957E-05-9.15597E-06 1.44721E-18-8.18776E-20
 -1      2493 1.11831E-04-2.25318E-05-3.83737E-05-3.87489E-06 2.03468E-18-7.90202E-19
 -1      2494 1.17653E-04-1.94770E-05-4.23786E-05 1.76708E-07 7.41366E-19-7.90599E-19
 -1      2495 1.18364E-04-3.54782E-05-3.58443E-05-1.42279E-05 1.15162E-18 5.14104E-19
 -1      2496 1.15528E-04-3.05265E-05-3.65153E-05-1.33268E-05 1.19770E-18 3.57451E-19
 -1      2497 1.21184E-04-2.83160E-05-3.99818E-05-1.22406E-05 1.37484E-18 8.07381E-19
 -1      2498 1.20494E-04-4.18984E-05-3.37922E-05-9.18513E-06 1.15036E-18 8.72260E-19
 -1      2499 1.19195E-04-3.92822E-05-3.43007E-05-1.20187E-05 1.34620E-18 3.26822E-19
 -1      2500 1.24943E-04-3.99040E-05-3.65633E-05-1.37209E-05 1.65553E-18-8.23210E-21
 -1      2501 1.17891E-04-4.21919E-05-3.24229E-05-2.69111E-07 1.79175E-18 2.35760E-19
 -1      2502 1.18517E-04-4.23382E-05-3.27536E-05-4.22483E-06 1.42260E-18 1.76295E-19
 -1      2503 1.23828E-04-4.57377E-05-3.34902E-05-5.32528E-06 1.27292E-18 2.42291E-19
 -1      2504 1.12456E-04-3.85203E-05-3.16280E-05 7.18276E-06 8.46451E-19 1.71021E-19
 -1      2505 1.14435E-04-4.02803E-05-3.18983E-05 4.14351E-06 1.27328E-18 5.66850E-19
 -1      2506 1.18126E-04-4.42256E-05-3.17333E-05 4.44156E-06 1.16553E-18 1.14958E-18
 -1      2507 1.06551E-04-3.37823E-05-3.11143E-05 1.10499E-05 2.05769E-19 9.06206E-19
 -1      2508 1.09044E-04-3.59897E-05-3.13967E-05 9.63157E-06 5.62675E-19 5.42988E-19
 -1      2509 1.10954E-04-3.87983E-05-3.09902E-05 1.11380E-05 4.60965E-19 1.39754E-18
 -1      2510 1.01195E-04-2.93324E-05-3.07398E-05 1.12501E-05 5.99458E-20-4.59618E-19
 -1      2511 1.03680E-04-3.14149E-05-3.10198E-05 1.14899E-05 3.90145E-19 2.20487E-19
 -1      2512 1.04523E-04-3.27818E-05-3.07930E-05 1.37784E-05 8.67542E-19 2.63771E-19
 -1      2513 9.88685E-05-2.72910E-05-3.06828E-05 9.90241E-06-7.09333E-19-9.27422E-19
 -1      2514 8.36987E-05-1.19649E-05-3.08791E-05 1.26493E-05-9.23119E-19-3.97960E-19
 -1      2515 8.62390E-05-1.42188E-05-3.08015E-05 1.54962E-05-7.32597E-19-4.08384E-18
 -1      2516 8.03643E-05-8.85018E-06-3.07407E-05 3.73628E-06-1.63681E-18 2.77800E-19
 -1      2517 8.14936E-05-9.80858E-06-3.07174E-05 8.13063E-06-1.59874E-18 8.86003E-19
 -1      2518 8.10087E-05-1.31902E-05-2.89698E-05 1.20435E-05-8.05460E-19-2.44531E-19
 -1      2519 9.43853E-05-2.20931E-05-3.10276E-05 1.77020E-05-1.25123E-18-2.78487E-18
 -1      2520 9.65353E-05-2.44920E-05-3.08205E-05 1.68279E-05-1.18236E-18-2.11323E-18
 -1      2521 8.91763E-05-1.70748E-05-3.10082E-05 1.74203E-05-1.35887E-18-5.21883E-18
 -1      2522 9.18871E-05-1.96959E-05-3.08613E-05 1.82299E-05-1.17182E-18-3.70081E-18
 -1      2523 9.42863E-05-2.40784E-05-3.00970E-05 2.01344E-05-2.51748E-19-4.74065E-18
 -1      2524 8.74838E-05-1.85415E-05-2.95170E-05 1.88109E-05 3.20058E-19-4.42587E-18
 -1      2525 8.11585E-05-9.52050E-06-3.07067E-05-6.48613E-06-2.15771E-18 3.45161E-18
 -1      2526 8.02422E-05-8.75721E-06-3.07223E-05-1.99343E-06-2.16702E-18 2.00981E-18
 -1      2527 7.81413E-05-1.07933E-05-2.87142E-05 9.49079E-07-1.31079E-18 1.04189E-18
 -1      2528 8.56841E-05-1.37499E-05-3.07639E-05-1.43372E-05-2.12238E-18 3.86935E-18
 -1      2529 8.32202E-05-1.15894E-05-3.08361E-05-1.12658E-05-2.48822E-18 4.87325E-18
 -1      2530 8.04931E-05-1.28632E-05-2.88746E-05-1.04483E-05-2.15464E-18 4.15141E-18
 -1      2531 9.15709E-05-1.95318E-05-3.07892E-05-1.75761E-05-2.94192E-18-2.91240E-20
 -1      2532 8.87605E-05-1.68317E-05-3.09440E-05-1.66209E-05-2.45483E-18 1.49298E-18
 -1      2533 8.68286E-05-1.83207E-05-2.93394E-05-1.79404E-05-1.56795E-18 2.08230E-18
 -1      2534 9.63257E-05-2.45999E-05-3.06723E-05-1.64761E-05-1.34102E-18 8.51651E-19
 -1      2535 9.41978E-05-2.22052E-05-3.09058E-05-1.72937E-05-1.79478E-18 6.24835E-19
 -1      2536 9.38545E-05-2.43484E-05-2.98240E-05-1.98374E-05-1.63409E-18 1.35234E-18
 -1      2537 9.89840E-05-2.80132E-05-3.03852E-05-1.26887E-05 1.32137E-18 3.04353E-18
 -1      2538 9.78711E-05-2.62735E-05-3.06721E-05-1.45333E-05 2.22526E-19 1.02489E-18
 -1      2539 9.89488E-05-2.88286E-05-3.01053E-05-1.72785E-05 5.23576E-20 1.83370E-18
 -1      2540 9.95888E-05-2.96227E-05-2.99873E-05-8.20318E-06 1.87642E-18 1.90865E-18
 -1      2541 9.93372E-05-2.85890E-05-3.02740E-05-1.02128E-05 1.42207E-18 3.79909E-18
 -1      2542 1.01232E-04-3.10797E-05-3.01058E-05-1.24610E-05 2.26827E-18 3.28612E-18
 -1      2543 9.87902E-05-2.98536E-05-2.95432E-05-4.22722E-06-1.41262E-19 2.38868E-19
 -1      2544 9.91725E-05-2.94804E-05-2.98032E-05-5.86293E-06 3.99332E-19 7.01231E-19
 -1      2545 1.01305E-04-3.15448E-05-2.98794E-05-7.44982E-06 8.04405E-19 2.35515E-19
 -1      2546 9.68598E-05-2.89135E-05-2.91409E-05-1.81416E-06 7.38848E-19-4.59833E-19
 -1      2547 1.38940E-04-6.32575E-05-3.28364E-05 2.68643E-05-4.06788E-19-5.99339E-18
 -1      2548 1.24765E-04-6.33970E-05-2.61374E-05 3.35216E-05-1.92700E-20-5.13344E-18
 -1      2549 9.36238E-05-2.74722E-05-2.83391E-05 3.71586E-07 1.29391E-18-7.10383E-20
 -1      2550 9.39064E-05-2.73364E-05-2.84863E-05 9.05328E-07 1.42720E-18 2.87088E-19
 -1      2551 9.42676E-05-2.74886E-05-2.86330E-05 4.05820E-07 1.42544E-18-6.17663E-19
 -1      2552 3.14483E-05-2.68547E-05-1.75330E-06 2.67352E-05 3.21915E-18-3.87433E-18
 -1      2553 2.35276E-05-2.10913E-05-6.96795E-07 9.69922E-06 4.09922E-18-2.42209E-18
 -1      2554 8.06610E-05-5.02390E-05-1.26874E-05-4.65192E-05 2.98219E-18 5.29417E-18
 -1      2555 1.01569E-04-5.73523E-05-1.89567E-05-4.66065E-05 1.73896E-18 4.39089E-18
 -1      2556 2.29264E-05-2.06523E-05-5.72492E-07-8.07849E-06 3.16470E-18-7.21672E-19
 -1      2557 2.75869E-05-2.39612E-05-1.31876E-06-2.19501E-05 3.58411E-18 3.25684E-18
 -1      2558 1.40698E-04-5.88547E-05-3.51956E-05-2.24026E-05 2.21287E-19 4.53967E-18
 -1      2559 1.49018E-04-5.33682E-05-4.13208E-05-1.26711E-05 3.05448E-19 4.06555E-18
 -1      2560 1.51114E-04-3.73884E-05-4.93162E-05-3.43495E-06-1.02163E-18-2.96673E-18
 -1      2561 1.47438E-04-4.63884E-05-4.34700E-05 2.36682E-06-1.78697E-18-1.18585E-18
 -1      2562 1.50976E-04-3.29835E-05-5.09731E-05 1.52984E-05 1.99349E-18-4.34337E-18
 -1      2563 1.50980E-04-2.39952E-05-5.50663E-05 1.41252E-05 5.85935E-19-5.50169E-18
 -1      2564 8.78401E-05-1.07993E-05-3.30532E-05-1.51856E-06 1.31850E-19-4.47476E-18
 -1      2565 8.79454E-05-1.09213E-05-3.30446E-05-2.63755E-06-2.39113E-19-4.38236E-18
 -1      2566 8.93447E-05-1.30939E-05-3.26811E-05-2.93077E-06-3.75453E-19-4.06261E-18
 -1      2567 8.90961E-05-1.27590E-05-3.27192E-05-9.41026E-07 2.18397E-19-4.25101E-18
 -1      2568 1.48750E-04-1.40028E-05-5.84230E-05 1.28103E-07-6.93720E-19-4.79489E-18
 -1      2569 1.51224E-04-1.97854E-05-5.67422E-05-4.80001E-06 1.85077E-19-5.12815E-18
 -1      2570 1.48400E-04-5.62523E-05-3.95616E-05 7.54944E-07 3.49995E-18-2.05554E-18
 -1      2571 1.54275E-04-4.71842E-05-4.65062E-05 8.51994E-06 3.45944E-18-3.10925E-18
 -1      2572 1.49358E-04-1.78753E-05-5.70103E-05 1.24232E-05 3.52366E-19-5.50741E-18
 -1      2573 1.48394E-04-1.35304E-05-5.81935E-05 7.80172E-06-1.05456E-19-4.75768E-18
 -1      2574 1.39785E-04-2.03712E-05-5.12838E-05 1.73956E-05 6.07534E-19-4.39483E-18
 -1      2575 1.47392E-04-1.52438E-05-5.71635E-05-8.17183E-06-3.71869E-18-9.31101E-19
 -1      2576 1.49747E-04-2.41900E-05-5.39734E-05-7.84377E-06-2.19763E-18-2.29609E-18
 -1      2577 1.28641E-04-6.39245E-05-2.75226E-05-2.12027E-05 2.88446E-18-3.43864E-18
 -1      2578 1.40468E-04-6.35057E-05-3.35218E-05-1.35524E-05 3.41238E-18-2.66688E-18
 -1      2579 4.76550E-05-3.43096E-05-5.27603E-06-3.33446E-05 2.94577E-18-4.41855E-18
 -1      2580 6.20816E-05-4.08570E-05-8.83455E-06-3.96886E-05 3.52472E-18-3.08616E-18
 -1      2581 2.15430E-05-2.19750E-05 4.81487E-07-1.08827E-05 8.13575E-19-6.44677E-18
 -1      2582 3.14662E-05-2.61271E-05-2.02652E-06-2.50957E-05 1.89333E-18-5.86570E-18
 -1      2583 2.13010E-05-2.03011E-05-5.23199E-08 1.50681E-05 1.12158E-18-5.02545E-18
 -1      2584 1.85168E-05-2.00049E-05 9.54116E-07 1.60574E-06 1.61953E-18-6.06349E-18
 -1      2585 8.54573E-05-5.06518E-05-1.49873E-05 4.52978E-05 9.46136E-19-5.65712E-19
 -1      2586 6.97149E-05-4.48635E-05-1.02952E-05 4.34491E-05 9.51218E-19-1.78639E-18
 -1      2587 1.23554E-04-5.99361E-05-2.74999E-05 3.16404E-05 1.44207E-19-4.27646E-19
 -1      2588 1.04430E-04-5.68079E-05-2.03046E-05 3.85223E-05 9.75147E-19-9.89970E-20
 -1      2589 1.03026E-04-5.60128E-05-1.97911E-05 3.86979E-05 1.18225E-18 5.86570E-20
 -1      2590 1.43644E-04-5.50684E-05-3.83834E-05 1.31432E-05-2.28429E-18 2.91168E-19
 -1      2591 1.35404E-04-5.84683E-05-3.29971E-05 1.95400E-05-1.04767E-18 7.47507E-19
 -1      2592 1.50868E-04-4.13935E-05-4.71957E-05-2.28398E-06-7.01555E-19 2.41023E-18
 -1      2593 1.54317E-04-3.12427E-05-5.29947E-05 1.17252E-06-1.32455E-18 1.52254E-18
 -1      2594 1.46171E-04-9.77664E-06-5.88913E-05-2.39536E-07-4.13776E-18-9.90076E-19
 -1      2595 1.43141E-04-9.15952E-06-5.81244E-05-3.78066E-06-4.17672E-18-1.23278E-18
 -1      2596 3.97537E-05-3.03532E-05-3.63479E-06-3.34765E-05 3.49952E-18 6.69198E-18
 -1      2597 5.66091E-05-3.86706E-05-7.64439E-06-4.47214E-05 3.10501E-18 7.41937E-18
 -1      2598 1.51750E-04-2.14961E-05-5.61364E-05 3.53600E-06-2.24824E-18 1.51619E-19
 -1      2599 1.48790E-04-1.42072E-05-5.82678E-05 3.00371E-06-3.92939E-18-8.68526E-19
 -1      2600 1.43969E-04-2.63148E-05-5.06410E-05 7.69797E-06-1.68898E-18-9.87852E-19
 -1      2601 1.18546E-04-6.07754E-05-2.47063E-05-3.77815E-05 2.14575E-18 4.43972E-18
 -1      2602 1.32680E-04-6.12102E-05-3.07629E-05-3.24496E-05 1.22079E-18 5.50635E-18
 -1      2603 1.39695E-04-6.26722E-05-3.29024E-05-2.22031E-05 1.13799E-18 5.61456E-18
 -1      2604 1.55395E-04-2.91550E-05-5.46431E-05-4.35117E-06 8.36022E-19-4.69023E-18
 -1      2605 1.55864E-04-3.76546E-05-5.08988E-05-3.26125E-06 3.44742E-19-4.86959E-18
 -1      2606 9.63364E-05-2.50960E-05-3.05575E-05 7.59359E-06 3.13329E-18 1.41696E-18
 -1      2607 9.74579E-05-2.37794E-05-3.15979E-05 1.06932E-05 3.34266E-18 1.90532E-18
 -1      2608 9.58918E-05-2.13038E-05-3.20221E-05 1.18950E-05 3.58427E-18 8.17413E-19
 -1      2609 9.58803E-05-2.41620E-05-3.07696E-05 7.68490E-06 3.20376E-18 2.33468E-19
 -1      2610 1.44335E-04-2.39969E-05-5.16794E-05-8.65971E-06 1.05794E-18-3.76379E-18
 -1      2611 9.07941E-05-1.50521E-05-3.24589E-05-6.79759E-06-1.71624E-18-3.73955E-18
 -1      2612 8.97035E-05-1.31839E-05-3.28461E-05-7.96589E-06-1.90214E-18-3.98078E-18
 -1      2613 9.03570E-05-1.39614E-05-3.28010E-05-9.14264E-06-2.34054E-18-3.79063E-18
 -1      2614 9.47338E-05-2.69390E-05-2.90673E-05 1.88613E-06 1.92175E-18-3.28060E-19
 -1      2615 9.42469E-05-1.90820E-05-3.22588E-05 1.16041E-05 3.49215E-18-5.31301E-19
 -1      2616 2.96429E-05-2.21400E-05-2.68935E-06 2.28382E-05 1.73038E-18-4.00668E-18
 -1      2617 3.14050E-05-1.68054E-05-5.63525E-06 1.65400E-05 1.51534E-18-4.31712E-18
 -1      2618 3.89446E-05-2.36481E-05-6.37054E-06 3.02095E-05 1.98047E-18-2.82782E-18
 -1      2619 2.70011E-05-1.74120E-05-3.52768E-06-5.20243E-06 4.30452E-19-5.74627E-18
 -1      2620 1.51403E-04-4.61085E-05-4.52589E-05-4.85202E-06 5.00914E-19-3.73669E-18
 -1      2621 4.49406E-05-2.74367E-05-6.91974E-06-2.83630E-05 1.61413E-18-5.94596E-18
 -1      2622 1.17590E-04-6.26263E-05-2.32987E-05 3.80015E-05 3.38390E-19-6.16259E-18
 -1      2623 7.48154E-05-4.59117E-05-1.19612E-05 4.51893E-05 2.76239E-18-9.62484E-18
 -1      2624 7.12366E-05-3.93023E-05-1.30584E-05 4.29050E-05 1.73832E-18-1.00801E-17
 -1      2625 8.88395E-05-5.09719E-05-1.64782E-05 4.47464E-05 1.44292E-18-8.29521E-18
 -1      2626 3.02779E-05-1.83185E-05-4.49600E-06 2.16521E-06 2.62878E-18-8.73503E-19
 -1      2627 9.92631E-05-2.74899E-05-3.07609E-05 1.27088E-05-7.30714E-19-7.27752E-19
 -1      2628 7.69288E-05-4.42804E-05-1.34700E-05-4.48143E-05 1.88698E-18 6.54471E-18
 -1      2629 9.85089E-05-2.63930E-05-3.09169E-05 1.43130E-05-8.10048E-19-1.29475E-18
 -1      2630 9.79033E-05-2.98680E-05-2.91419E-05-1.41324E-06 1.04642E-19-1.03321E-19
 -1      2631 9.84048E-05-2.97787E-05-2.93751E-05-2.77385E-06-1.83546E-19-2.81126E-20
 -1      2632 1.00010E-04-3.11836E-05-2.95342E-05-3.66525E-06-4.14068E-19 1.02603E-18
 -1      2633 9.85291E-05-3.05350E-05-2.91884E-05-1.17152E-06-1.53035E-18 2.80037E-19
 -1      2634 1.20597E-04-6.28495E-05-2.45055E-05-2.62502E-05 2.33188E-18-3.66305E-18
 -1      2635 1.45137E-04-6.29139E-05-3.51331E-05 1.33470E-05 1.45372E-19-4.06322E-18
 -1      2636 9.47167E-05-2.06033E-05-3.17185E-05 9.67114E-06 3.29776E-18-8.49720E-19
 -1      2637 4.54812E-05-2.71659E-05-7.21894E-06 3.13276E-05 1.77019E-18-6.19859E-18
 -1      2638 1.16137E-04-6.15193E-05-2.32123E-05-3.89267E-05 1.95368E-18 5.16902E-18
 -1      2639 4.21204E-05-2.50205E-05-6.70315E-06-2.89271E-05 2.00630E-18 5.57517E-18
 -1      2640 1.37286E-04-1.11588E-05-5.43896E-05 2.89127E-06-3.92282E-18-3.14239E-18
 -1      2641 1.49421E-04-4.93618E-05-4.31027E-05-3.10677E-06 3.93870E-19 3.30724E-18
 -1      2642 1.43947E-04-4.30866E-05-4.39238E-05 5.50656E-06-5.82970E-19 1.30348E-18
 -1      2643 1.45017E-04-5.43051E-05-3.87444E-05-4.55831E-06 8.56139E-19 2.99458E-18
 -1      2644 1.31002E-04-6.12214E-05-2.97677E-05 2.19700E-05-1.56701E-20 2.78462E-20
 -1      2645 1.46607E-04-4.06753E-05-4.56507E-05 1.65556E-05 1.88931E-18-2.75688E-18
 -1      2646 1.44384E-04-5.17948E-05-3.97201E-05 1.54346E-06-1.57088E-18-1.03571E-18
 -1      2647 1.43944E-04-3.07166E-05-4.87510E-05-1.07727E-05-1.86135E-18-1.89185E-18
 -1      2648 6.30485E-05-3.92022E-05-9.78269E-06 4.23281E-05 1.46410E-18-2.11546E-18
 -1      2649 8.06197E-05-4.76641E-05-1.38379E-05-3.73782E-05 2.85027E-18-2.64094E-18
 -1      2650 1.44581E-04-6.04246E-05-3.59828E-05-1.76338E-07 2.65270E-18-1.72562E-18
 -1      2651 9.11360E-05-1.50082E-05-3.26789E-05-9.81344E-06-2.49880E-18-3.48882E-18
 -1      2652 9.21675E-05-1.62904E-05-3.25979E-05-1.08473E-05-2.79902E-18-2.96931E-18
 -1      2653 9.36550E-05-1.92170E-05-3.18906E-05-9.20997E-06-2.79033E-18-2.57436E-18
 -1      2654 9.20406E-05-1.68103E-05-3.22389E-05-8.29570E-06-2.25847E-18-3.40809E-18
 -1      2655 1.39075E-04-1.17899E-05-5.50453E-05-7.77185E-06-3.60773E-18-1.77273E-18
 -1      2656 1.32085E-04-1.41787E-05-5.09498E-05-1.15628E-05-3.02984E-18-2.47704E-18
 -1      2657 1.28868E-04-8.92430E-06-5.19237E-05-6.45055E-06-3.77946E-18-3.57840E-18
 -1      2658 9.96728E-05-2.84276E-05-3.05610E-05 1.68280E-05 1.21520E-19-1.77385E-18
 -1      2659 1.00410E-04-3.16996E-05-2.94162E-05-1.74347E-06-1.35390E-18 4.60785E-19
 -1      2660 9.05576E-05-1.51745E-05-3.23294E-05 3.19645E-06 1.34911E-18-3.95505E-18
 -1      2661 9.03681E-05-1.49034E-05-3.23622E-05 2.26229E-06 1.08318E-18-4.05215E-18
 -1      2662 9.02338E-05-1.47004E-05-3.23913E-05 1.42296E-06 8.78633E-19-4.10036E-18
 -1      2663 9.01685E-05-1.46079E-05-3.24023E-05 4.65686E-07 6.21969E-19-4.05760E-18
 -1      2664 9.14202E-05-1.65959E-05-3.20546E-05 1.64189E-06 9.26984E-19-3.90550E-18
 -1      2665 9.21428E-05-1.75535E-05-3.20048E-05 6.47560E-06 2.57988E-18-2.80075E-18
 -1      2666 9.16170E-05-1.67582E-05-3.21047E-05 5.63567E-06 2.28560E-18-3.11745E-18
 -1      2667 9.35609E-05-1.97756E-05-3.16645E-05 7.59863E-06 2.96417E-18-2.18561E-18
 -1      2668 9.27714E-05-1.85220E-05-3.18382E-05 7.02137E-06 2.71879E-18-2.43355E-18
 -1      2669 9.34371E-05-1.98684E-05-3.15065E-05 5.73725E-06 2.54714E-18-2.41420E-18
 -1      2670 9.52190E-05-2.54100E-05-2.99304E-05 3.97931E-06 2.35358E-18-8.43210E-19
 -1      2671 9.55556E-05-2.45600E-05-3.03942E-05 5.61164E-06 2.68652E-18-6.83554E-19
 -1      2672 5.67073E-05-2.82393E-05-1.17714E-05 3.49588E-05 1.06546E-18-7.16611E-18
 -1      2673 4.49368E-05-2.07577E-05-9.71741E-06 2.45873E-05 7.97693E-19-5.13217E-18
 -1      2674 9.49825E-05-2.66913E-05-2.92725E-05 1.78471E-06 1.78185E-18-8.53079E-19
 -1      2675 9.52481E-05-2.61959E-05-2.95575E-05 2.78969E-06 2.06313E-18-6.87045E-19
 -1      2676 9.52713E-05-2.50195E-05-3.01041E-05 3.82158E-06 2.25525E-18-1.29902E-18
 -1      2677 9.45288E-05-2.14996E-05-3.13288E-05-7.68475E-06-2.63017E-18-2.20473E-18
 -1      2678 9.49463E-05-2.32296E-05-3.07339E-05-6.00121E-06-2.39910E-18-1.97862E-18
 -1      2679 9.37508E-05-2.01085E-05-3.15533E-05-7.56239E-06-2.38658E-18-2.61297E-18
 -1      2680 9.53345E-05-2.46237E-05-3.03006E-05-4.59672E-06-2.17062E-18-1.86030E-18
 -1      2681 9.52020E-05-2.54763E-05-2.98896E-05-3.18109E-06-1.96978E-18-1.87556E-18
 -1      2682 9.49491E-05-2.35327E-05-3.05944E-05-4.81865E-06-2.11564E-18-2.18191E-18
 -1      2683 9.53411E-05-2.62897E-05-2.95852E-05-2.22739E-06-1.59375E-18-1.74194E-18
 -1      2684 9.51471E-05-2.67564E-05-2.93150E-05-1.29168E-06-1.44581E-18-1.63711E-18
 -1      2685 9.53422E-05-2.56140E-05-2.98785E-05-2.52707E-06-1.60696E-18-1.81183E-18
 -1      2686 9.51695E-05-2.72405E-05-2.91048E-05-6.79002E-07-1.17997E-18-1.56753E-18
 -1      2687 9.50206E-05-2.75167E-05-2.89325E-05-9.71485E-08-9.51261E-19-1.55153E-18
 -1      2688 9.54056E-05-2.68821E-05-2.93690E-05-9.34322E-07-1.14357E-18-1.61606E-18
 -1      2689 9.50045E-05-2.78106E-05-2.87914E-05 2.68729E-07-8.73531E-19-1.56768E-18
 -1      2690 9.49176E-05-2.79846E-05-2.86858E-05 6.07792E-07-8.10439E-19-1.68497E-18
 -1      2691 9.53557E-05-2.76606E-05-2.90170E-05 8.69968E-08-9.71313E-19-1.72944E-18
 -1      2692 9.48951E-05-2.81647E-05-2.85943E-05 8.03291E-07-7.08426E-19-1.68986E-18
 -1      2693 9.48603E-05-2.82787E-05-2.85339E-05 9.80679E-07-8.39980E-19-1.72197E-18
 -1      2694 9.52856E-05-2.81434E-05-2.87807E-05 6.89478E-07-8.23692E-19-1.74907E-18
 -1      2695 9.48424E-05-2.83876E-05-2.84775E-05 1.06302E-06-7.67426E-19-1.32040E-18
 -1      2696 9.48443E-05-2.84636E-05-2.84472E-05 1.13546E-06-5.57202E-19-1.29454E-18
 -1      2697 9.52277E-05-2.84413E-05-2.86280E-05 1.00184E-06-6.55410E-19-1.27972E-18
 -1      2698 9.48334E-05-2.85264E-05-2.84152E-05 1.14593E-06-4.73469E-19-1.25134E-18
 -1      2699 9.48583E-05-2.85765E-05-2.84044E-05 1.15274E-06-5.91944E-19-9.86676E-19
 -1      2700 9.51893E-05-2.86196E-05-2.85345E-05 1.12191E-06-4.48329E-19-9.85117E-19
 -1      2701 9.48534E-05-2.86089E-05-2.83892E-05 1.12064E-06-8.11843E-19-7.57801E-19
 -1      2702 9.48911E-05-2.86407E-05-2.83909E-05 1.08911E-06-9.13051E-19-8.30156E-19
 -1      2703 9.51685E-05-2.87187E-05-2.84824E-05 1.12111E-06-6.06601E-19-7.36937E-19
 -1      2704 9.48905E-05-2.86526E-05-2.83869E-05 1.03501E-06-6.67408E-19-8.73030E-19
 -1      2705 9.49338E-05-2.86712E-05-2.83961E-05 9.83998E-07-6.13948E-19-6.84520E-19
 -1      2706 9.51610E-05-2.87646E-05-2.84589E-05 1.05055E-06-7.22625E-19-5.53781E-19
 -1      2707 9.49362E-05-2.86694E-05-2.83997E-05 9.22211E-07-4.24295E-19-7.18984E-19
 -1      2708 9.49806E-05-2.86782E-05-2.84133E-05 8.64784E-07-7.57014E-20-1.01665E-18
 -1      2709 9.51625E-05-2.87744E-05-2.84548E-05 9.46296E-07-3.59143E-19-5.06945E-19
 -1      2710 9.49850E-05-2.86670E-05-2.84218E-05 8.05230E-07-2.08749E-19-1.23782E-18
 -1      2711 9.50282E-05-2.86686E-05-2.84379E-05 7.50441E-07-2.76845E-19-1.39993E-18
 -1      2712 9.51699E-05-2.87597E-05-2.84638E-05 8.33674E-07-4.78450E-19-5.66629E-19
 -1      2713 9.50339E-05-2.86508E-05-2.84498E-05 7.00065E-07-4.35809E-19-1.68251E-18
 -1      2714 9.50751E-05-2.86469E-05-2.84673E-05 6.54307E-07-7.81833E-19-1.69743E-18
 -1      2715 9.51810E-05-2.87278E-05-2.84818E-05 7.30468E-07-5.55854E-19-6.19711E-19
 -1      2716 9.50818E-05-2.86242E-05-2.84817E-05 6.18155E-07-7.29124E-19-1.12501E-18
 -1      2717 9.51215E-05-2.86159E-05-2.85004E-05 5.86158E-07-7.33654E-19-7.64361E-19
 -1      2718 9.51945E-05-2.86835E-05-2.85064E-05 6.49461E-07-2.75693E-19-6.72081E-19
 -1      2719 9.51292E-05-2.85891E-05-2.85170E-05 5.68187E-07-8.52381E-19-4.14127E-19
 -1      2720 9.51685E-05-2.85773E-05-2.85369E-05 5.53757E-07-7.03126E-19-3.38398E-19
 -1      2721 9.52099E-05-2.86292E-05-2.85362E-05 6.00353E-07-5.53105E-19-6.64172E-20
 -1      2722 9.51775E-05-2.85466E-05-2.85558E-05 5.57414E-07-2.94944E-19-5.26790E-19
 -1      2723 9.52184E-05-2.85319E-05-2.85775E-05 5.63967E-07-1.74011E-19-1.53856E-19
 -1      2724 9.52273E-05-2.85659E-05-2.85708E-05 5.91181E-07-4.81907E-19-2.65573E-19
 -1      2725 9.52292E-05-2.84972E-05-2.85989E-05 5.92587E-07-4.03847E-19-1.18970E-19
 -1      2726 9.52743E-05-2.84801E-05-2.86232E-05 6.23506E-07-7.35367E-20-5.33973E-19
 -1      2727 9.52474E-05-2.84937E-05-2.86104E-05 6.29327E-07-4.84451E-19-1.54500E-19
 -1      2728 9.52878E-05-2.84411E-05-2.86478E-05 6.80521E-07-5.40097E-20-4.97353E-19
 -1      2729 9.53402E-05-2.84224E-05-2.86757E-05 7.39328E-07-1.03048E-19-9.12605E-19
 -1      2730 9.52717E-05-2.84123E-05-2.86559E-05 7.22153E-07-2.86603E-19-3.20361E-19
 -1      2731 9.53576E-05-2.83792E-05-2.87040E-05 8.28287E-07 3.46818E-19-8.72800E-19
 -1      2732 9.54211E-05-2.83599E-05-2.87366E-05 9.18626E-07 5.43238E-19-1.01933E-18
 -1      2733 9.53020E-05-2.83216E-05-2.87081E-05 8.77254E-07 2.39852E-19-4.44813E-19
 -1      2734 9.54443E-05-2.83134E-05-2.87691E-05 1.04299E-06 6.08361E-19-1.04410E-18
 -1      2735 9.55234E-05-2.82954E-05-2.88074E-05 1.16837E-06 3.90879E-19-9.25551E-19
 -1      2736 9.53416E-05-2.82228E-05-2.87678E-05 1.10229E-06 5.61585E-19-5.18787E-19
 -1      2737 9.55552E-05-2.82476E-05-2.88445E-05 1.33103E-06 4.74393E-19-5.92710E-19
 -1      2738 9.56551E-05-2.82342E-05-2.88895E-05 1.49426E-06 4.14034E-19-3.74586E-19
 -1      2739 9.53953E-05-2.81195E-05-2.88355E-05 1.40432E-06 7.09727E-19-6.20343E-19
 -1      2740 9.56999E-05-2.81895E-05-2.89310E-05 1.69669E-06-2.12799E-19-1.43734E-19
 -1      2741 9.58268E-05-2.81858E-05-2.89832E-05 1.89893E-06-5.09046E-19-5.60897E-19
 -1      2742 9.54704E-05-2.80191E-05-2.89112E-05 1.78850E-06-2.17669E-19 3.07513E-19
 -1      2743 9.58913E-05-2.81520E-05-2.90287E-05 2.13993E-06-4.60083E-19-1.01924E-19
 -1      2744 9.60525E-05-2.81663E-05-2.90882E-05 2.37920E-06-1.08272E-19-1.96297E-19
 -1      2745 9.55782E-05-2.79356E-05-2.89937E-05 2.25601E-06-3.82188E-19-2.00047E-19
 -1      2746 9.61471E-05-2.81560E-05-2.91361E-05 2.65302E-06 5.18201E-19-4.27409E-19
 -1      2747 9.63517E-05-2.82006E-05-2.92020E-05 2.92209E-06 5.11614E-19-4.64522E-19
 -1      2748 9.57363E-05-2.78922E-05-2.90807E-05 2.80091E-06 2.77905E-19 2.67205E-19
 -1      2749 9.64923E-05-2.82335E-05-2.92503E-05 3.21593E-06 2.96088E-19-6.47529E-19
 -1      2750 9.67511E-05-2.83262E-05-2.93207E-05 3.49944E-06 3.93823E-19-1.07333E-18
 -1      2751 9.59716E-05-2.79249E-05-2.91680E-05 3.40587E-06 4.19816E-19-1.69437E-19
 -1      2752 9.69616E-05-2.84309E-05-2.93664E-05 3.79016E-06 4.08139E-19-9.06021E-19
 -1      2753 9.72884E-05-2.85958E-05-2.94380E-05 4.06096E-06 6.34883E-19-1.09772E-18
 -1      2754 9.63244E-05-2.80875E-05-2.92501E-05 4.03637E-06 3.67080E-19 3.34227E-19
 -1      2755 9.76030E-05-2.88114E-05-2.94776E-05 4.31098E-06 3.47538E-19-1.42906E-18
 -1      2756 9.80143E-05-2.90793E-05-2.95463E-05 4.52588E-06 2.53313E-19-1.65334E-18
 -1      2757 9.68538E-05-2.84543E-05-2.93204E-05 4.63322E-06 2.85597E-20-5.45289E-19
 -1      2758 9.84797E-05-2.94545E-05-2.95772E-05 4.67845E-06 2.42826E-19-1.69928E-18
 -1      2759 9.89936E-05-2.98593E-05-2.96384E-05 4.77388E-06-1.25438E-20-1.39430E-18
 -1      2760 9.76418E-05-2.91205E-05-2.93732E-05 5.10333E-06-1.05173E-19-1.77031E-18
 -1      2761 9.96675E-05-3.04466E-05-2.96607E-05 4.74828E-06 3.34567E-19-1.27302E-18
 -1      2762 1.00299E-04-3.10160E-05-2.97110E-05 4.63741E-06 6.88783E-19-8.96388E-19
 -1      2763 9.87936E-05-3.01936E-05-2.94077E-05 5.30887E-06 4.03830E-19-1.75663E-18
 -1      2764 1.01239E-04-3.18538E-05-2.97316E-05 4.32635E-06 7.46116E-19-6.72373E-19
 -1      2765 1.01990E-04-3.25886E-05-2.97721E-05 3.90097E-06 9.69686E-19-7.96386E-19
 -1      2766 1.00425E-04-3.17657E-05-2.94336E-05 5.05674E-06 9.68244E-19-1.01825E-18
 -1      2767 1.03227E-04-3.36646E-05-2.98090E-05 3.17604E-06 1.12631E-18-3.45848E-19
 -1      2768 1.04062E-04-3.45024E-05-2.98490E-05 2.31999E-06 6.81287E-19 3.28762E-19
 -1      2769 1.02622E-04-3.38509E-05-2.94814E-05 4.09529E-06 1.03368E-18-4.32291E-19
 -1      2770 1.05542E-04-3.56916E-05-2.99369E-05 1.05865E-06 9.72184E-19 5.85508E-19
 -1      2771 1.06360E-04-3.64574E-05-2.99985E-05-3.15501E-07 1.00776E-18 9.33672E-19
 -1      2772 1.05360E-04-3.62748E-05-2.96128E-05 2.13730E-06 1.33228E-18 1.33598E-18
 -1      2773 1.07864E-04-3.74424E-05-3.01894E-05-2.15595E-06 5.55097E-19 1.23771E-18
 -1      2774 1.08465E-04-3.78125E-05-3.03081E-05-4.02761E-06 2.03352E-19 1.41429E-18
 -1      2775 1.08355E-04-3.85176E-05-2.99281E-05-1.04859E-06 8.98104E-19 1.13996E-18
 -1      2776 1.09534E-04-3.80457E-05-3.06597E-05-6.25495E-06-7.99603E-19 2.37034E-18
 -1      2777 1.09638E-04-3.75970E-05-3.08726E-05-8.36063E-06-1.17368E-18 2.32299E-18
 -1      2778 1.10909E-04-3.95851E-05-3.05538E-05-5.39832E-06-1.50946E-19 2.54631E-18
 -1      2779 1.09708E-04-3.64852E-05-3.14093E-05-1.03651E-05-4.02509E-19 2.08735E-18
 -1      2780 1.09090E-04-3.49337E-05-3.17309E-05-1.20817E-05-2.19550E-19 2.10561E-18
 -1      2781 1.11987E-04-3.82639E-05-3.15790E-05-1.01211E-05-5.00348E-19 4.00970E-18
 -1      2782 1.07799E-04-3.22683E-05-3.24088E-05-1.28468E-05-7.78587E-19 2.02628E-18
 -1      2783 1.06477E-04-2.98283E-05-3.27972E-05-1.32277E-05 2.32686E-20 1.47040E-18
 -1      2784 1.10679E-04-3.36752E-05-3.29798E-05-1.34805E-05-9.66819E-19 2.80204E-18
 -1      2785 1.04524E-04-2.66049E-05-3.34231E-05-1.18419E-05 2.60678E-20 5.65093E-19
 -1      2786 1.03047E-04-2.42707E-05-3.37531E-05-1.03498E-05-1.01293E-18 3.66090E-19
 -1      2787 1.07443E-04-2.71105E-05-3.44574E-05-1.29777E-05-7.41410E-19 2.82403E-19
 -1      2788 1.01537E-04-2.21429E-05-3.40699E-05-6.68889E-06-8.17810E-19 2.36150E-19
 -1      2789 1.00907E-04-2.14295E-05-3.41584E-05-3.47850E-06-5.58645E-19 9.66140E-19
 -1      2790 1.04004E-04-2.11885E-05-3.55038E-05-7.87535E-06-8.52056E-19-7.89137E-19
 -1      2791 1.01351E-04-2.20857E-05-3.39754E-05 2.79595E-07-2.56261E-19 9.57174E-19
 -1      2792 1.01750E-04-2.32077E-05-3.37808E-05 3.56463E-06-4.41831E-19 7.80567E-19
 -1      2793 1.03792E-04-2.08038E-05-3.55697E-05 3.22102E-07-3.60975E-19-1.04551E-18
 -1      2794 1.03507E-04-2.60190E-05-3.32123E-05 5.75108E-06-1.02270E-18 5.08021E-19
 -1      2795 1.04664E-04-2.83365E-05-3.28094E-05 7.57669E-06-1.10447E-18-7.28943E-19
 -1      2796 1.06212E-04-2.52045E-05-3.46601E-05 6.62689E-06-1.38939E-18-1.47725E-18
 -1      2797 1.06177E-04-3.13366E-05-3.20959E-05 7.37399E-06-6.42172E-19-3.52219E-19
 -1      2798 1.07228E-04-3.34645E-05-3.16414E-05 7.30825E-06-1.91276E-19-7.07538E-19
 -1      2799 1.09410E-04-3.17971E-05-3.31893E-05 8.17483E-06-5.87589E-19-2.63052E-18
 -1      2800 1.07431E-04-3.51153E-05-3.10222E-05 5.48238E-06 2.21027E-19-1.03191E-18
 -1      2801 1.07727E-04-3.61325E-05-3.06481E-05 4.14343E-06-1.28273E-19-1.16931E-18
 -1      2802 1.10757E-04-3.66555E-05-3.17217E-05 5.52343E-06-6.89007E-19-2.63042E-18
 -1      2803 1.06557E-04-3.60713E-05-3.02343E-05 1.96368E-06-6.04136E-19-1.02823E-18
 -1      2804 1.05819E-04-3.57936E-05-2.99849E-05 3.07546E-07-7.84268E-19-1.80934E-18
 -1      2805 1.09361E-04-3.79355E-05-3.06315E-05 1.12450E-06-7.31663E-19-2.20452E-18
 -1      2806 1.04751E-04-3.51336E-05-2.98057E-05-1.22585E-06-1.26205E-18-1.48434E-18
 -1      2807 1.11819E-04-5.89705E-05-2.20666E-05-2.87757E-05 1.86654E-18-3.68060E-18
 -1      2808 1.27154E-04-6.39370E-05-2.77069E-05-1.85554E-05 1.72837E-18-3.14551E-18
 -1      2809 9.45541E-05-2.78524E-05-2.85873E-05-4.38073E-07 1.09394E-18-1.28848E-18
 -1      2810 9.46392E-05-2.76639E-05-2.86862E-05-9.63110E-08 1.27121E-18-1.12628E-18
 -1      2811 9.45155E-05-2.84339E-05-2.83198E-05-1.13849E-06 4.86437E-19-1.26930E-18
 -1      2812 9.44589E-05-2.83704E-05-2.83205E-05-1.13550E-06 3.75119E-19-1.26339E-18
 -1      2813 9.45876E-05-2.85125E-05-2.83170E-05-1.09215E-06 7.57206E-19-1.12824E-18
 -1      2814 9.45184E-05-2.84680E-05-2.83063E-05-1.12701E-06 7.43637E-19-1.06809E-18
 -1      2815 9.48944E-05-2.85736E-05-2.84262E-05-1.15722E-06 5.44074E-19-1.43032E-18
 -1      2816 9.46727E-05-2.85609E-05-2.83327E-05-9.95174E-07 6.94835E-19-7.41841E-19
 -1      2817 9.46002E-05-2.85307E-05-2.83157E-05-1.04915E-06 6.99633E-19-9.74112E-19
 -1      2818 9.49158E-05-2.86454E-05-2.84036E-05-1.11205E-06 6.75682E-19-9.27812E-19
 -1      2819 9.47611E-05-2.85876E-05-2.83591E-05-8.77192E-07 1.02663E-18-8.92405E-19
 -1      2820 9.46908E-05-2.85683E-05-2.83392E-05-9.37528E-07 9.98275E-19-7.60285E-19
 -1      2821 9.49502E-05-2.86803E-05-2.84026E-05-1.01582E-06 8.98519E-19-1.06405E-18
 -1      2822 9.48475E-05-2.85983E-05-2.83915E-05-7.58604E-07 8.33070E-19-8.57971E-19
 -1      2823 9.47818E-05-2.85873E-05-2.83704E-05-8.16571E-07 1.04817E-18-6.37196E-19
 -1      2824 9.49910E-05-2.86898E-05-2.84156E-05-8.99016E-07 1.02630E-18-7.51582E-19
 -1      2825 9.49294E-05-2.85970E-05-2.84271E-05-6.53583E-07-1.25205E-20-7.15685E-19
 -1      2826 9.48691E-05-2.85925E-05-2.84058E-05-7.03111E-07 4.89964E-19-6.55461E-19
 -1      2827 9.50342E-05-2.86813E-05-2.84374E-05-7.82843E-07 4.97528E-19-6.16216E-20
 -1      2828 9.50072E-05-2.85865E-05-2.84648E-05-5.72362E-07-2.18709E-19-8.90745E-19
 -1      2829 9.49514E-05-2.85871E-05-2.84433E-05-6.09001E-07-7.67537E-20-8.93819E-19
 -1      2830 9.50778E-05-2.86599E-05-2.84652E-05-6.82219E-07 1.66374E-19-4.62972E-19
 -1      2831 9.50827E-05-2.85686E-05-2.85045E-05-5.22967E-07 5.79789E-19-1.47441E-18
 -1      2832 9.50294E-05-2.85733E-05-2.84826E-05-5.43112E-07 1.37356E-19-1.09477E-18
 -1      2833 9.51212E-05-2.86283E-05-2.84973E-05-6.08131E-07 1.56968E-19-8.39389E-19
 -1      2834 9.51594E-05-2.85441E-05-2.85475E-05-5.12558E-07-1.37872E-19-8.61353E-19
 -1      2835 9.51057E-05-2.85523E-05-2.85243E-05-5.12840E-07 3.54228E-19-1.40378E-18
 -1      2836 9.51653E-05-2.85880E-05-2.85335E-05-5.69395E-07 2.32377E-19-1.18244E-18
 -1      2837 9.52418E-05-2.85135E-05-2.85955E-05-5.48504E-07-4.65970E-19-6.93575E-19
 -1      2838 9.51841E-05-2.85245E-05-2.85697E-05-5.25301E-07-7.60678E-20-5.70442E-19
 -1      2839 9.52114E-05-2.85391E-05-2.85744E-05-5.74038E-07-2.44618E-19-1.15831E-18
 -1      2840 9.53356E-05-2.84762E-05-2.86509E-05-6.39233E-07-1.80470E-19-6.36728E-19
 -1      2841 9.52694E-05-2.84900E-05-2.86210E-05-5.88278E-07-3.79044E-19-6.18436E-19
 -1      2842 9.52617E-05-2.84806E-05-2.86212E-05-6.30385E-07-3.26533E-19-1.34809E-18
 -1      2843 9.54472E-05-2.84316E-05-2.87170E-05-7.94922E-07 4.72320E-19-1.44126E-18
 -1      2844 9.53674E-05-2.84479E-05-2.86811E-05-7.10982E-07 2.07247E-20-1.09776E-18
 -1      2845 9.53187E-05-2.84105E-05-2.86759E-05-7.47916E-07 2.41412E-19-1.59309E-18
 -1      2846 9.55840E-05-2.83785E-05-2.87973E-05-1.02801E-06 8.44381E-19-1.52129E-18
 -1      2847 9.54846E-05-2.83973E-05-2.87531E-05-9.04645E-07 8.36999E-19-1.25624E-18
 -1      2848 9.53852E-05-2.83260E-05-2.87408E-05-9.37904E-07 5.04083E-19-1.76521E-18
 -1      2849 9.57540E-05-2.83154E-05-2.88959E-05-1.35356E-06 1.08327E-18-1.47472E-18
 -1      2850 9.56281E-05-2.83365E-05-2.88409E-05-1.18296E-06 1.02003E-18-1.48267E-18
 -1      2851 9.54637E-05-2.82238E-05-2.88184E-05-1.21388E-06 1.14588E-18-1.02986E-18
 -1      2852 9.59655E-05-2.82408E-05-2.90169E-05-1.78933E-06 4.89595E-19-5.13057E-19
 -1      2853 9.58057E-05-2.82639E-05-2.89485E-05-1.56231E-06 8.93264E-19-1.00078E-18
 -1      2854 9.55563E-05-2.80995E-05-2.89115E-05-1.59184E-06 9.59141E-19-3.82941E-19
 -1      2855 9.62270E-05-2.81537E-05-2.91645E-05-2.35543E-06-6.42930E-19-6.48945E-19
 -1      2856 9.60250E-05-2.81779E-05-2.90799E-05-2.06169E-06-8.08036E-20-4.24517E-19
 -1      2857 9.56641E-05-2.79487E-05-2.90223E-05-2.09019E-06 2.08033E-19-8.98687E-20
 -1      2858 9.65470E-05-2.80549E-05-2.93420E-05-3.07318E-06-6.73070E-19-1.06401E-18
 -1      2859 9.62937E-05-2.80779E-05-2.92387E-05-2.70203E-06-7.02317E-19-9.89253E-19
 -1      2860 9.57872E-05-2.77679E-05-2.91523E-05-2.72913E-06-6.04583E-19-1.58411E-19
 -1      2861 9.69342E-05-2.79497E-05-2.95509E-05-3.96266E-06-6.48189E-19-1.65560E-18
 -1      2862 9.66197E-05-2.79663E-05-2.94273E-05-3.50466E-06-5.72179E-19-1.06885E-18
 -1      2863 9.59239E-05-2.75557E-05-2.93014E-05-3.52935E-06-4.05698E-19-4.60840E-19
 -1      2864 9.73993E-05-2.78533E-05-2.97895E-05-5.03798E-06 4.77257E-19-1.34320E-18
 -1      2865 9.70122E-05-2.78524E-05-2.96454E-05-4.48803E-06 7.46837E-20-1.68175E-18
 -1      2866 9.60726E-05-2.73181E-05-2.94663E-05-4.50947E-06-3.16327E-19-7.68788E-19
 -1      2867 9.79602E-05-2.78016E-05-3.00504E-05-6.29884E-06-4.18449E-19-5.42210E-19
 -1      2868 9.74851E-05-2.77601E-05-2.98886E-05-5.66179E-06 2.54145E-19-6.48255E-19
 -1      2869 9.62352E-05-2.70755E-05-2.96391E-05-5.68177E-06-1.04292E-19-7.63033E-19
 -1      2870 9.86544E-05-2.78691E-05-3.03182E-05-7.71631E-06-8.32573E-19-2.07239E-18
 -1      2871 9.80670E-05-2.77428E-05-3.01457E-05-7.01641E-06-5.84737E-19-1.17724E-18
 -1      2872 9.64265E-05-2.68785E-05-2.98050E-05-7.04523E-06-7.92762E-20-9.37339E-19
 -1      2873 9.95633E-05-2.81991E-05-3.05669E-05-9.21007E-06-6.45253E-19-1.27907E-18
 -1      2874 9.88197E-05-2.79068E-05-3.03963E-05-8.50603E-06-9.40764E-19-1.92197E-18
 -1      2875 9.66939E-05-2.68327E-05-2.99402E-05-8.57483E-06-6.32687E-19-1.37029E-18
 -1      2876 1.00855E-04-2.90450E-05-3.07607E-05-1.06136E-05 7.35393E-20-8.58294E-19
 -1      2877 9.98743E-05-2.84491E-05-3.06102E-05-1.00207E-05-1.46515E-19-1.21521E-18
 -1      2878 9.71552E-05-2.71388E-05-3.00114E-05-1.02051E-05-4.89910E-19-1.12824E-18
 -1      2879 1.02844E-04-3.08098E-05-3.08642E-05-1.16232E-05-1.74572E-18-8.18756E-20
 -1      2880 1.01489E-04-2.97016E-05-3.07516E-05-1.13422E-05-7.98935E-19-1.68766E-19
 -1      2881 9.80604E-05-2.81436E-05-2.99808E-05-1.18034E-05-9.46098E-19-1.28476E-19
 -1      2882 1.06034E-04-3.40089E-05-3.08738E-05-1.17061E-05-8.56066E-19 4.86212E-19
 -1      2883 1.04118E-04-3.21564E-05-3.08009E-05-1.20589E-05-1.29372E-18 8.49980E-19
 -1      2884 9.98904E-05-3.03967E-05-2.98263E-05-1.31125E-05-1.90808E-18-6.61269E-19
 -1      2885 1.11056E-04-3.90901E-05-3.08759E-05-1.00593E-05 1.11990E-19 3.58292E-19
 -1      2886 1.08398E-04-3.63413E-05-3.07986E-05-1.14864E-05-6.20356E-19 9.48969E-19
 -1      2887 1.03405E-04-3.45607E-05-2.95935E-05-1.36155E-05-1.02819E-18-6.20938E-19
 -1      2888 1.18233E-04-4.56232E-05-3.11772E-05-5.53959E-06 6.60017E-19-9.73674E-20
 -1      2889 1.14968E-04-4.24504E-05-3.09401E-05-8.48905E-06 7.40555E-19 6.87584E-19
 -1      2890 1.09523E-04-4.11363E-05-2.94721E-05-1.23763E-05 4.50469E-19 6.79102E-19
 -1      2891 1.26597E-04-5.11778E-05-3.24140E-05 2.93757E-06-4.11857E-19 1.51863E-18
 -1      2892 1.23766E-04-4.92796E-05-3.17520E-05-1.66414E-06 3.57673E-21 6.64924E-19
 -1      2893 1.19048E-04-4.94649E-05-3.00692E-05-7.68974E-06-8.29662E-20 1.59385E-18
 -1      2894 1.28044E-04-2.10416E-05-4.63345E-05 1.53276E-05 1.23032E-19-2.73777E-18
 -1      2895 1.31819E-04-2.93162E-05-4.45029E-05 2.14441E-05-1.71948E-19-2.59123E-18
 -1      2896 1.26896E-04-1.85358E-05-4.70552E-05-7.11578E-06 7.01767E-19-1.89545E-18
 -1      2897 1.25672E-04-1.47357E-05-4.80802E-05 2.07541E-06-1.17949E-19-2.51057E-18
 -1      2898 1.31800E-04-4.73360E-05-3.64560E-05-1.03004E-05 1.34202E-18-1.01432E-19
 -1      2899 1.30508E-04-4.09145E-05-3.84600E-05-1.31545E-05 1.92621E-18-1.92343E-19
 -1      2900 1.26752E-04-5.05288E-05-3.25503E-05 6.01258E-07 7.12722E-19 2.91459E-19
 -1      2901 1.28497E-04-4.96451E-05-3.38823E-05-4.24361E-06 1.39218E-18 4.75305E-19
 -1      2902 1.34235E-04-5.20210E-05-3.54367E-05-4.20722E-06 8.04496E-19 2.23908E-19
 -1      2903 1.17496E-04-4.53103E-05-3.07859E-05 1.03887E-05 3.57547E-19 9.75244E-19
 -1      2904 1.21100E-04-4.82738E-05-3.13404E-05 6.51253E-06 1.15694E-18 6.23330E-19
 -1      2905 1.25688E-04-5.30068E-05-3.13951E-05 8.02145E-06 6.12431E-19 4.24483E-19
 -1      2906 1.08941E-04-3.78743E-05-3.03299E-05 1.52859E-05 1.52337E-18-4.74972E-19
 -1      2907 1.12483E-04-4.15362E-05-3.04822E-05 1.32477E-05 8.62028E-19 4.41104E-19
 -1      2908 1.14633E-04-4.50048E-05-2.99500E-05 1.54659E-05 1.55247E-18-1.77595E-18
 -1      2909 1.02564E-04-3.15492E-05-3.03384E-05 1.67450E-05 1.35089E-18-1.89665E-18
 -1      2910 1.05451E-04-3.48742E-05-3.02828E-05 1.66263E-05 1.48424E-18-1.40581E-18
 -1      2911 1.06140E-04-3.67826E-05-2.97537E-05 1.87020E-05 1.75769E-18-3.10157E-18
 -1      2912 9.98102E-05-2.98633E-05-3.00399E-05 1.97355E-05 4.59225E-19-3.61956E-18
 -1      2913 7.01133E-05-3.61796E-05-1.38161E-05-4.12965E-05 1.31587E-18 7.35542E-18
 -1      2914 9.00371E-05-4.81016E-05-1.80312E-05-4.46939E-05 1.31661E-18 5.04059E-18
 -1      2915 7.90305E-05-1.54069E-05-2.71223E-05-1.48882E-05-1.99838E-18 4.42055E-18
 -1      2916 7.57254E-05-1.32941E-05-2.68712E-05-9.65765E-06-1.25344E-18 2.88941E-18
 -1      2917 1.02264E-04-3.32632E-05-2.96155E-05-2.96905E-06 4.26948E-19-5.44073E-19
 -1      2918 1.01402E-04-3.23492E-05-2.95774E-05-3.28592E-06 7.04336E-19 1.14850E-18
 -1      2919 1.01957E-04-3.26497E-05-2.97367E-05-4.89932E-06 8.06316E-19-4.80799E-19
 -1      2920 7.61300E-05-1.37544E-05-2.68342E-05 1.16384E-05-1.23625E-18-2.90638E-19
 -1      2921 7.97524E-05-1.60797E-05-2.71573E-05 1.65231E-05-5.97482E-19-3.23229E-18
 -1      2922 8.86586E-05-2.26186E-05-2.81241E-05-2.16557E-05-1.53009E-18 7.40002E-19
 -1      2923 8.38446E-05-1.94430E-05-2.77518E-05-1.93574E-05-1.74214E-18 3.27187E-18
 -1      2924 7.98974E-05-1.95337E-05-2.57790E-05-1.95373E-05-2.20850E-18 3.76339E-18
 -1      2925 7.35002E-05-1.17070E-05-2.64560E-05-2.19845E-06-9.56636E-19 2.66080E-18
 -1      2926 7.36795E-05-1.18202E-05-2.64851E-05 4.21974E-06-1.49546E-18 1.85709E-18
 -1      2927 7.16332E-05-1.40088E-05-2.44948E-05 9.12822E-06-2.07735E-18-4.10043E-19
 -1      2928 9.74307E-05-2.92067E-05-2.91082E-05-2.16177E-05-1.68678E-19 1.99870E-18
 -1      2929 9.34708E-05-2.64589E-05-2.88116E-05-2.21362E-05-9.03318E-19 2.22324E-18
 -1      2930 9.14711E-05-2.77198E-05-2.73233E-05-2.43208E-05-5.77494E-19 2.32463E-18
 -1      2931 1.02776E-04-3.31969E-05-2.97690E-05-1.71904E-05 1.82530E-18 3.17612E-18
 -1      2932 1.00550E-04-3.14394E-05-2.96320E-05-1.94208E-05 4.32313E-19 2.47619E-18
 -1      2933 1.00804E-04-3.38725E-05-2.87337E-05-2.20662E-05 1.37363E-18 3.14620E-18
 -1      2934 1.04129E-04-3.42905E-05-2.99830E-05-1.12896E-05 1.78910E-18 2.90389E-18
 -1      2935 1.03694E-04-3.35726E-05-3.00068E-05-1.39019E-05 2.17000E-18 3.17993E-18
 -1      2936 1.05599E-04-3.65009E-05-2.96395E-05-1.60939E-05 1.61553E-18 3.18077E-18
 -1      2937 1.02855E-04-3.29148E-05-2.99211E-05-7.08777E-06 1.38301E-18-5.81753E-19
 -1      2938 9.47258E-05-2.74149E-05-2.88497E-05 3.90752E-07 1.40216E-18-1.11372E-18
 -1      2939 9.49022E-05-2.71217E-05-2.90223E-05 9.92387E-07 1.54434E-18-9.39848E-19
 -1      2940 9.52540E-05-2.64992E-05-2.94707E-05 1.73661E-06 1.78701E-18-1.41231E-18
 -1      2941 9.51289E-05-2.73775E-05-2.90438E-05 3.79879E-07 1.43753E-18-1.53524E-18
 -1      2942 3.74975E-05-1.56751E-05-8.85402E-06 1.10455E-05 6.81438E-19-3.15647E-18
 -1      2943 3.63360E-05-1.50569E-05-8.60129E-06-7.15936E-06 1.35684E-19 3.85824E-19
 -1      2944 9.47077E-05-2.19076E-05-3.12068E-05 7.84340E-06 3.06501E-18-1.04191E-18
 -1      2945 1.38380E-04-3.07350E-05-4.64518E-05 1.00855E-05-1.75198E-18-1.92171E-18
 -1      2946 1.34579E-04-2.18098E-05-4.90227E-05 9.44676E-06-2.95360E-18-4.05358E-18
 -1      2947 1.31016E-04-1.40734E-05-5.06831E-05 7.05981E-06-3.32058E-18-3.73626E-18
 -1      2948 1.27453E-04-9.43523E-06-5.13070E-05 1.71079E-06-4.29107E-18-4.07179E-18
 -1      2949 1.27000E-04-1.91510E-05-4.66257E-05 9.01179E-06-3.39226E-18-4.63803E-18
 -1      2950 1.34676E-04-6.08307E-05-3.21151E-05 1.38452E-05-7.19872E-19-4.94455E-20
 -1      2951 1.25200E-04-6.09543E-05-2.72566E-05 2.33209E-05 6.63227E-19-6.77732E-19
 -1      2952 1.28893E-04-2.52456E-05-4.50475E-05-1.21917E-05 1.40915E-18-1.80529E-18
 -1      2953 4.14750E-05-2.10890E-05-8.16233E-06-2.19889E-05 2.61468E-19-7.32260E-18
 -1      2954 5.52199E-05-2.88481E-05-1.09327E-05-3.08596E-05 1.31502E-18-5.15229E-18
 -1      2955 7.42201E-05-4.12401E-05-1.42252E-05 4.18172E-05 1.95887E-18-1.39633E-18
 -1      2956 5.56159E-05-3.14527E-05-9.58563E-06 3.74880E-05 2.29948E-18-2.54449E-18
 -1      2957 9.44715E-05-2.83130E-05-2.83530E-05-1.09117E-06 3.92788E-19-1.42002E-18
 -1      2958 9.44416E-05-2.82234E-05-2.83729E-05-1.02271E-06 6.03172E-19-1.32508E-18
 -1      2959 9.48953E-05-2.84481E-05-2.84818E-05-1.10757E-06 5.06468E-19-1.32345E-18
 -1      2960 9.44760E-05-2.81301E-05-2.84338E-05-8.87646E-07 7.96630E-19-1.31338E-18
 -1      2961 9.44926E-05-2.80027E-05-2.84845E-05-7.12695E-07 8.91143E-19-1.21654E-18
 -1      2962 9.49296E-05-2.82421E-05-2.85866E-05-9.00426E-07 6.97620E-19-1.34828E-18
 -1      2963 1.40376E-04-4.81456E-05-4.02338E-05-5.96812E-06-5.10893E-19-2.10350E-18
 -1      2964 1.39115E-04-5.50602E-05-3.59568E-05 1.81255E-06-1.16860E-18-4.24787E-19
 -1      2965 1.38659E-04-1.38046E-05-5.37842E-05 3.60526E-06-7.24213E-20-3.38080E-18
 -1      2966 9.11765E-05-1.60904E-05-3.22078E-05 4.91822E-06 2.08220E-18-3.36408E-18
 -1      2967 9.08330E-05-1.55910E-05-3.22684E-05 3.99543E-06 1.62551E-18-3.63530E-18
 -1      2968 9.18126E-05-1.72027E-05-3.19599E-05 3.19971E-06 1.47583E-18-3.52303E-18
 -1      2969 9.24823E-05-1.82636E-05-3.17880E-05 4.61619E-06 2.06033E-18-2.98194E-18
 -1      2970 1.39286E-04-6.19804E-05-3.27300E-05-2.41329E-06 1.78148E-18-1.11575E-18
 -1      2971 1.42799E-04-5.63067E-05-3.76371E-05 8.01886E-06 2.44135E-18-2.31134E-19
 -1      2972 1.43669E-04-5.93743E-05-3.66087E-05 4.14920E-06 4.06708E-19-2.56079E-18
 -1      2973 1.38404E-04-6.36415E-05-3.16850E-05 1.46970E-05 1.28431E-19-3.20655E-18
 -1      2974 1.25218E-04-6.39580E-05-2.67093E-05 3.12831E-05-2.12605E-19-4.75995E-18
 -1      2975 1.08536E-04-5.85992E-05-2.08462E-05 3.97965E-05 5.57348E-19-7.06283E-18
 -1      2976 7.45828E-05-4.01032E-05-1.42935E-05-3.53712E-05 2.45089E-18-1.81583E-18
 -1      2977 9.34646E-05-5.12943E-05-1.81053E-05-3.55919E-05 2.59414E-18-2.42484E-18
 -1      2978 1.04886E-04-5.33681E-05-2.16359E-05-2.86109E-05 1.56553E-18-2.89254E-18
 -1      2979 3.12969E-05-1.39897E-05-6.83979E-06 1.44172E-06 5.24573E-19-4.40796E-18
 -1      2980 3.40592E-05-1.58746E-05-7.25699E-06-1.17208E-05 3.76506E-19-6.09567E-18
 -1      2981 1.11320E-04-5.78549E-05-2.31420E-05 3.35999E-05 9.49630E-19-7.54045E-19
 -1      2982 9.65410E-05-5.13786E-05-1.86984E-05 3.83690E-05 1.18045E-18 3.79047E-20
 -1      2983 1.35205E-04-2.49164E-05-4.80985E-05-1.39781E-05-2.28508E-18-1.84272E-18
 -1      2984 1.38542E-04-3.57389E-05-4.42027E-05-1.28823E-05-1.04312E-18-2.56227E-18
 -1      2985 1.34655E-04-6.36295E-05-3.02246E-05-2.34767E-05 3.05117E-18 3.93066E-18
 -1      2986 1.40184E-04-6.17339E-05-3.40756E-05-1.60270E-05 2.30033E-18 4.20573E-18
 -1      2987 9.07982E-05-1.55431E-05-3.22737E-05-3.93320E-06-7.12285E-19-3.69414E-18
 -1      2988 9.11317E-05-1.60256E-05-3.22149E-05-4.85773E-06-1.07130E-18-3.60247E-18
 -1      2989 4.12463E-05-1.90201E-05-8.88638E-06-2.10694E-05 5.69630E-19 4.71628E-18
 -1      2990 5.19788E-05-2.60510E-05-1.09663E-05-3.39874E-05 5.47607E-19 8.89321E-18
 -1      2991 1.08598E-04-5.68548E-05-2.16063E-05-4.00169E-05 1.34636E-18 4.04899E-18
 -1      2992 1.23345E-04-6.23731E-05-2.62924E-05-3.38051E-05 2.28879E-18 4.88600E-18
 -1      2993 1.27440E-04-6.16508E-05-2.80110E-05-2.64698E-05 2.92290E-18 3.16753E-18
 -1      2994 1.39374E-04-3.81000E-05-4.37881E-05 2.06325E-05 6.65450E-19-2.13653E-18
 -1      2995 1.30711E-04-3.86522E-05-3.97525E-05 2.04454E-05-7.21037E-20-6.68971E-19
 -1      2996 1.33050E-04-4.56604E-05-3.78939E-05 1.95995E-05-3.51466E-19-4.28810E-21
 -1      2997 1.43318E-04-5.05237E-05-3.99902E-05 1.60121E-05 2.15448E-18-6.18969E-19
 -1      2998 9.15613E-05-1.66776E-05-3.21141E-05-5.59372E-06-1.37352E-18-3.45950E-18
 -1      2999 9.20754E-05-1.74347E-05-3.20141E-05-6.41299E-06-1.71534E-18-3.42106E-18
 -1      3000 9.24388E-05-1.82036E-05-3.17972E-05-4.57269E-06-1.10918E-18-3.17583E-18
 -1      3001 9.12870E-05-1.63925E-05-3.20855E-05 2.86265E-08 4.62912E-19-3.85456E-18
 -1      3002 9.01643E-05-1.46029E-05-3.24029E-05-3.82956E-07 3.65986E-19-4.02923E-18
 -1      3003 9.02212E-05-1.46834E-05-3.23930E-05-1.34079E-06 9.76156E-21-4.01169E-18
 -1      3004 1.31669E-04-6.10808E-05-3.01323E-05-8.22424E-06 1.41412E-18-8.13893E-19
 -1      3005 4.93547E-05-1.72746E-05-1.30453E-05 1.58024E-05-5.98905E-19-3.92409E-18
 -1      3006 5.25290E-05-2.59753E-05-1.07674E-05 3.20755E-05 2.42431E-18-2.58430E-18
 -1      3007 1.38835E-04-5.30455E-05-3.67547E-05 1.29021E-05 1.47410E-18-4.45222E-20
 -1      3008 1.01260E-04-5.28737E-05-2.02942E-05 3.99265E-05 8.19928E-19-8.28287E-18
 -1      3009 9.50091E-05-2.79133E-05-2.87635E-05-4.46205E-07 1.08570E-18-1.40468E-18
 -1      3010 4.47786E-05-1.78536E-05-1.08916E-05-1.54238E-05 4.66662E-19-6.76589E-18
 -1      3011 4.70590E-05-1.60726E-05-1.25457E-05-1.24445E-05-1.16078E-18 2.69992E-18
 -1      3012 1.33007E-04-5.31651E-05-3.42164E-05 8.98377E-06 6.16941E-19 1.13386E-18
 -1      3013 1.31332E-04-5.65438E-05-3.23408E-05 7.37521E-07 2.59672E-19 1.12534E-18
 -1      3014 1.33882E-04-5.02579E-05-3.60142E-05 1.39047E-05 4.22325E-19 9.71600E-19
 -1      3015 6.31443E-05-2.73823E-05-1.49780E-05-2.76832E-05-4.18064E-19-5.06335E-18
 -1      3016 6.87241E-05-3.42743E-05-1.43144E-05-3.24924E-05 1.16986E-18-3.10173E-18
 -1      3017 8.05851E-05-3.86756E-05-1.80791E-05-3.11753E-05 1.02899E-18-2.58742E-18
 -1      3018 6.78695E-05-3.05674E-05-1.53993E-05-3.55042E-05 6.92979E-19 7.06298E-18
 -1      3019 9.67134E-05-2.78645E-05-2.93980E-05 2.16347E-05 1.01513E-18-4.10017E-18
 -1      3020 9.94066E-05-3.16453E-05-2.90482E-05 2.22616E-05 1.44057E-18-3.61443E-18
 -1      3021 9.28532E-05-2.53749E-05-2.90353E-05 2.23753E-05 1.19209E-18-5.37413E-18
 -1      3022 1.01190E-04-5.04919E-05-2.13029E-05-3.92576E-05 1.49501E-18 4.55587E-18
 -1      3023 7.14901E-05-1.36443E-05-2.45679E-05-6.93975E-06-8.96445E-19 2.44202E-18
 -1      3024 7.74596E-05-3.75914E-05-1.70764E-05 3.90726E-05 7.41630E-19-1.03357E-17
 -1      3025 6.68559E-05-3.26811E-05-1.40614E-05 3.77671E-05 8.81444E-19-9.46210E-18
 -1      3026 6.56769E-05-2.69335E-05-1.60763E-05 3.25933E-05-5.48454E-20-8.59082E-18
 -1      3027 1.05425E-04-3.54833E-05-2.99094E-05-8.37198E-06 1.12908E-18-3.62203E-19
 -1      3028 8.71916E-05-4.45298E-05-1.78831E-05 3.70966E-05 1.58162E-18-1.04508E-18
 -1      3029 1.28729E-04-2.07170E-05-4.67486E-05-1.42777E-05-1.94066E-18-2.34210E-18
 -1      3030 1.18742E-04-5.83633E-05-2.56946E-05 2.48546E-05 8.36233E-19-1.05847E-18
 -1      3031 1.29316E-04-6.18576E-05-2.89582E-05 2.10631E-05 2.59563E-19-3.26738E-18
 -1      3032 9.43547E-05-2.14243E-05-3.12601E-05 7.21707E-06 2.93880E-18-1.62372E-18
 -1      3033 1.37453E-04-3.78421E-05-4.30178E-05 8.05157E-06-1.33911E-18-2.14501E-18
 -1      3034 1.19550E-04-1.14842E-05-4.67355E-05 9.14184E-07-3.50682E-18-3.18982E-18
 -1      3035 1.24341E-04-9.40870E-06-4.98248E-05-2.48759E-06-4.09043E-18-3.02285E-18
 -1      3036 1.19942E-04-1.01625E-05-4.74158E-05-6.55433E-06-3.21343E-18-2.34100E-18
 -1      3037 1.34588E-04-5.71451E-05-3.32500E-05 5.22068E-06-4.30531E-19-2.03447E-19
 -1      3038 1.40924E-04-5.72580E-05-3.59660E-05-6.50897E-06 1.95650E-18 1.57389E-18
 -1      3039 1.05960E-04-3.61563E-05-2.99669E-05-3.06115E-06 5.40778E-20-1.76950E-18
 -1      3040 1.35061E-04-3.49949E-05-4.34722E-05-1.46078E-05 2.07798E-18-2.25544E-18
 -1      3041 8.41950E-05-1.94701E-05-2.78825E-05 1.99295E-05 1.01183E-18-4.72634E-18
 -1      3042 8.87029E-05-2.23787E-05-2.82918E-05 2.18485E-05 1.79943E-18-5.13114E-18
 -1      3043 9.02578E-05-2.63010E-05-2.74275E-05 2.42325E-05 2.58289E-18-3.93565E-18
 -1      3044 8.04757E-05-1.99012E-05-2.58053E-05 2.04882E-05 8.87598E-19-5.27957E-18
 -1      3045 9.03467E-05-1.48747E-05-3.23654E-05-2.17766E-06-1.72982E-19-3.76103E-18
 -1      3046 9.05315E-05-1.51388E-05-3.23333E-05-3.12907E-06-5.45506E-19-3.69848E-18
 -1      3047 9.17811E-05-1.71602E-05-3.19654E-05-3.14356E-06-5.88273E-19-3.44626E-18
 -1      3048 9.14058E-05-1.65762E-05-3.20570E-05-1.58314E-06-8.78121E-20-3.72432E-18
 -1      3049 1.35248E-04-4.15658E-05-4.03329E-05-1.17927E-05-3.70048E-19-2.10107E-18
 -1      3050 9.46130E-05-2.24663E-05-3.09127E-05 5.69316E-06 2.60583E-18-1.77319E-18
 -1      3051 1.41957E-04-4.17976E-05-4.35337E-05-1.11343E-05 8.83455E-19-1.52709E-18
 -1      3052 1.43600E-04-5.21950E-05-3.94736E-05-5.91561E-06-9.04208E-20-1.11470E-18
 -1      3053 3.46529E-05-1.42827E-05-8.06713E-06 8.33374E-06 1.06521E-18-4.17757E-18
 -1      3054 4.06023E-05-1.31357E-05-1.12836E-05 2.50864E-06 7.47268E-19-3.62911E-18
 -1      3055 3.96725E-05-1.55109E-05-1.00809E-05 1.61353E-05 1.93473E-18-3.23291E-18
 -1      3056 1.36637E-04-4.39842E-05-3.97747E-05 7.16991E-06-9.93570E-19-1.88359E-18
 -1      3057 1.30184E-04-3.34166E-05-4.20226E-05 1.07913E-05-2.23161E-18-4.25433E-18
 -1      3058 9.42727E-05-2.18507E-05-3.10596E-05 4.97432E-06 2.41648E-18-2.15380E-18
 -1      3059 9.38125E-05-2.09095E-05-3.12453E-05 4.62621E-06 2.22462E-18-2.42503E-18
 -1      3060 9.44510E-05-2.20661E-05-3.10221E-05-5.40331E-06-1.96554E-18-2.48263E-18
 -1      3061 9.48281E-05-2.34596E-05-3.06037E-05-4.06853E-06-1.77102E-18-2.29736E-18
 -1      3062 9.52934E-05-2.46718E-05-3.02529E-05-3.09202E-06-1.60253E-18-1.94003E-18
 -1      3063 9.53956E-05-2.55447E-05-2.99485E-05-2.11516E-06-1.21891E-18-1.80340E-18
 -1      3064 9.48335E-05-2.33013E-05-3.06535E-05-3.59838E-06-1.47832E-18-2.27707E-18
 -1      3065 9.55999E-05-2.63084E-05-2.96832E-05-1.38888E-06-1.12911E-18-1.73757E-18
 -1      3066 9.56025E-05-2.68636E-05-2.94676E-05-7.31464E-07-1.08753E-18-1.80497E-18
 -1      3067 9.55081E-05-2.54285E-05-3.00321E-05-1.87565E-06-1.17876E-18-1.95590E-18
 -1      3068 9.56753E-05-2.73476E-05-2.92724E-05-2.44193E-07-1.04167E-18-1.57899E-18
 -1      3069 9.56460E-05-2.77016E-05-2.91237E-05 1.67157E-07-9.56356E-19-1.77171E-18
 -1      3070 9.58101E-05-2.68291E-05-2.95653E-05-6.29881E-07-1.08056E-18-1.69850E-18
 -1      3071 9.56507E-05-2.80037E-05-2.89835E-05 4.66022E-07-6.93624E-19-1.57616E-18
 -1      3072 9.56194E-05-2.82286E-05-2.88839E-05 7.01028E-07-6.94282E-19-1.48369E-18
 -1      3073 9.59084E-05-2.77324E-05-2.92217E-05 1.88458E-07-7.86763E-19-1.49416E-18
 -1      3074 9.55919E-05-2.84121E-05-2.87858E-05 8.62579E-07-6.68078E-19-1.34039E-18
 -1      3075 9.55683E-05-2.85522E-05-2.87217E-05 9.77014E-07-4.57383E-19-1.25064E-18
 -1      3076 9.59028E-05-2.83028E-05-2.89751E-05 6.78449E-07-6.13308E-19-1.44004E-18
 -1      3077 9.55277E-05-2.86573E-05-2.86552E-05 1.04403E-06-5.07761E-19-1.12999E-18
 -1      3078 9.55130E-05-2.87403E-05-2.86164E-05 1.07969E-06-5.29524E-19-1.27195E-18
 -1      3079 9.58482E-05-2.86498E-05-2.88026E-05 9.32455E-07-4.38994E-19-1.42658E-18
 -1      3080 9.54689E-05-2.87934E-05-2.85732E-05 1.08559E-06-3.45386E-19-1.12537E-18
 -1      3081 9.54618E-05-2.88375E-05-2.85522E-05 1.07288E-06-4.65680E-19-7.63685E-19
 -1      3082 9.57736E-05-2.88461E-05-2.86861E-05 1.02641E-06-4.25606E-19-1.31152E-18
 -1      3083 9.54190E-05-2.88560E-05-2.85261E-05 1.04257E-06-7.19094E-19-6.57233E-19
 -1      3084 9.54173E-05-2.88736E-05-2.85173E-05 1.00325E-06-4.56529E-19-5.24212E-19
 -1      3085 9.56942E-05-2.89405E-05-2.86111E-05 1.01902E-06-5.81370E-19-1.11892E-18
 -1      3086 9.53781E-05-2.88691E-05-2.85037E-05 9.54791E-07-4.22290E-19-3.59759E-19
 -1      3087 9.53800E-05-2.88684E-05-2.85034E-05 9.04285E-07-4.59221E-19-5.95497E-19
 -1      3088 9.56175E-05-2.89666E-05-2.85666E-05 9.53853E-07-3.33841E-19-6.33944E-19
 -1      3089 9.53452E-05-2.88489E-05-2.84987E-05 8.50554E-07-6.00454E-19-7.95569E-19
 -1      3090 9.53493E-05-2.88356E-05-2.85043E-05 7.99744E-07-6.46895E-19-1.01617E-18
 -1      3091 9.55470E-05-2.89468E-05-2.85445E-05 8.62505E-07-7.14421E-19-1.14003E-18
 -1      3092 9.53187E-05-2.88059E-05-2.85061E-05 7.49869E-07-6.90580E-19-9.34157E-19
 -1      3093 9.53243E-05-2.87835E-05-2.85158E-05 7.06523E-07-4.98421E-19-1.13880E-18
 -1      3094 9.54837E-05-2.88961E-05-2.85387E-05 7.67610E-07-6.84812E-19-1.51447E-18
 -1      3095 9.52972E-05-2.87466E-05-2.85226E-05 6.67085E-07-3.30358E-19-8.96979E-19
 -1      3096 9.53039E-05-2.87173E-05-2.85354E-05 6.36957E-07-2.88484E-19-8.85784E-19
 -1      3097 9.54270E-05-2.88240E-05-2.85451E-05 6.85429E-07-5.02467E-19-1.43585E-18
 -1      3098 9.52792E-05-2.86745E-05-2.85459E-05 6.12948E-07-3.08924E-19-1.01084E-18
 -1      3099 9.52868E-05-2.86393E-05-2.85614E-05 6.00610E-07-6.00727E-19-6.87190E-19
 -1      3100 9.53755E-05-2.87355E-05-2.85607E-05 6.28030E-07-4.09741E-19-1.47157E-18
 -1      3101 9.52633E-05-2.85908E-05-2.85752E-05 5.96147E-07-7.65680E-19-7.73973E-19
 -1      3102 9.52721E-05-2.85500E-05-2.85931E-05 6.05586E-07-4.68526E-19-9.64736E-19
 -1      3103 9.53271E-05-2.86329E-05-2.85838E-05 6.04966E-07-5.46103E-19-1.37277E-18
 -1      3104 9.52482E-05-2.84954E-05-2.86098E-05 6.24436E-07-4.27750E-19-1.20319E-18
 -1      3105 9.52586E-05-2.84489E-05-2.86305E-05 6.59471E-07-4.41803E-19-9.95497E-19
 -1      3106 9.52790E-05-2.85161E-05-2.86131E-05 6.24491E-07-4.75900E-19-1.33515E-18
 -1      3107 9.52331E-05-2.83872E-05-2.86499E-05 7.05411E-07-4.17016E-19-8.66169E-19
 -1      3108 9.52458E-05-2.83347E-05-2.86736E-05 7.69920E-07-2.26849E-19-8.51052E-19
 -1      3109 9.52286E-05-2.83839E-05-2.86481E-05 6.94473E-07-2.73714E-19-1.37281E-18
 -1      3110 9.52172E-05-2.82652E-05-2.86956E-05 8.46925E-07 1.09766E-19-4.80401E-19
 -1      3111 9.52336E-05-2.82070E-05-2.87227E-05 9.44865E-07 3.79191E-19-4.61888E-19
 -1      3112 9.51731E-05-2.82344E-05-2.86883E-05 8.22940E-07 1.71760E-19-1.06859E-18
 -1      3113 9.52009E-05-2.81293E-05-2.87471E-05 1.05711E-06 5.86136E-19-5.11161E-19
 -1      3114 9.52228E-05-2.80665E-05-2.87778E-05 1.19232E-06 6.95464E-19-4.75516E-19
 -1      3115 9.51103E-05-2.80665E-05-2.87332E-05 1.01827E-06 3.00839E-19-6.47774E-19
 -1      3116 9.51860E-05-2.79818E-05-2.88043E-05 1.34399E-06 7.09609E-19-3.11056E-19
 -1      3117 9.52163E-05-2.79171E-05-2.88386E-05 1.51973E-06 6.82092E-19-4.02561E-19
 -1      3118 9.50391E-05-2.78814E-05-2.87819E-05 1.28900E-06 6.34923E-19-8.40286E-19
 -1      3119 9.51768E-05-2.78286E-05-2.88662E-05 1.71461E-06 3.55705E-19-4.42569E-19
 -1      3120 9.52200E-05-2.77678E-05-2.89036E-05 1.93272E-06-3.34764E-19-3.39690E-19
 -1      3121 9.49607E-05-2.76838E-05-2.88330E-05 1.64329E-06 4.09979E-19-1.74410E-18
 -1      3122 9.51817E-05-2.76826E-05-2.89310E-05 2.17345E-06-3.95867E-19 1.52504E-19
 -1      3123 9.52450E-05-2.76355E-05-2.89705E-05 2.43313E-06-5.06375E-20 2.40162E-19
 -1      3124 9.48803E-05-2.74850E-05-2.88839E-05 2.08773E-06 1.35242E-19-3.25971E-19
 -1      3125 9.52163E-05-2.75659E-05-2.89956E-05 2.72017E-06-2.42367E-19 3.16024E-19
 -1      3126 9.53106E-05-2.75486E-05-2.90355E-05 3.01622E-06 1.12004E-19 8.82562E-20
 -1      3127 9.48100E-05-2.73063E-05-2.89307E-05 2.62573E-06-2.36546E-19 2.71154E-19
 -1      3128 9.53065E-05-2.75149E-05-2.90555E-05 3.34627E-06 2.81391E-19-3.57622E-20
 -1      3129 9.54487E-05-2.75518E-05-2.90931E-05 3.66671E-06 7.86822E-19 2.50948E-19
 -1      3130 9.47727E-05-2.71833E-05-2.89682E-05 3.25501E-06 9.39537E-20-6.02606E-20
 -1      3131 9.54943E-05-2.75848E-05-2.91045E-05 4.03056E-06 6.76424E-19 8.07739E-20
 -1      3132 9.57095E-05-2.77112E-05-2.91366E-05 4.35355E-06 1.48934E-19 2.49827E-19
 -1      3133 9.48078E-05-2.71716E-05-2.89897E-05 3.96422E-06 3.97322E-19-5.69969E-19
 -1      3134 9.58443E-05-2.78551E-05-2.91361E-05 4.73294E-06-2.95536E-19-4.49722E-20
 -1      3135 9.61686E-05-2.81185E-05-2.91594E-05 5.02291E-06-3.15260E-19-4.66374E-19
 -1      3136 9.49788E-05-2.73525E-05-2.89880E-05 4.72810E-06-4.70270E-19-8.80878E-19
 -1      3137 9.64514E-05-2.84321E-05-2.91445E-05 5.38586E-06-3.36654E-19-7.63204E-19
 -1      3138 9.69336E-05-2.88918E-05-2.91571E-05 5.58881E-06-3.95153E-19-1.13871E-18
 -1      3139 9.53823E-05-2.78382E-05-2.89570E-05 5.50044E-06-7.65541E-19-7.33889E-19
 -1      3140 9.74464E-05-2.94470E-05-2.91293E-05 5.88214E-06 3.74131E-20-7.10817E-19
 -1      3141 9.81460E-05-3.01662E-05-2.91332E-05 5.92023E-06 9.76421E-19-6.72981E-19
 -1      3142 9.61580E-05-2.87726E-05-2.88955E-05 6.20298E-06 2.31171E-19 1.53309E-19
 -1      3143 9.89934E-05-3.10369E-05-2.91012E-05 6.05743E-06 7.17641E-19-7.62048E-19
 -1      3144 9.99685E-05-3.20626E-05-2.91066E-05 5.82389E-06 7.41267E-19-8.15619E-19
 -1      3145 9.74927E-05-3.03197E-05-2.88139E-05 6.70675E-06 7.85240E-19 2.84832E-19
 -1      3146 1.01263E-04-3.32963E-05-2.90933E-05 5.66819E-06 9.68113E-19-1.14795E-18
 -1      3147 1.02540E-04-3.46141E-05-2.91241E-05 5.02772E-06 9.29368E-19-7.37443E-19
 -1      3148 9.96089E-05-3.26248E-05-2.87448E-05 6.80206E-06 8.90814E-19-1.49010E-18
 -1      3149 1.04359E-04-3.61726E-05-2.91745E-05 4.37628E-06 1.63881E-18-3.38462E-19
 -1      3150 1.05874E-04-3.76285E-05-2.92746E-05 3.18283E-06 1.88814E-18 2.23391E-19
 -1      3151 1.02711E-04-3.57217E-05-2.87588E-05 6.16072E-06 1.91028E-18-1.51864E-18
 -1      3152 1.08165E-04-3.92841E-05-2.94656E-05 1.77604E-06 1.48868E-18 7.94907E-19
 -1      3153 1.09671E-04-4.04738E-05-2.97007E-05-6.15021E-08 9.68180E-19 9.20902E-19
 -1      3154 1.06854E-04-3.93495E-05-2.89851E-05 4.31183E-06 1.84587E-18-1.20596E-18
 -1      3155 1.12101E-04-4.16733E-05-3.01435E-05-2.44371E-06 6.89353E-19 1.94115E-18
 -1      3156 1.13122E-04-4.18730E-05-3.05899E-05-4.80305E-06 1.52987E-19 2.14777E-18
 -1      3157 1.11697E-04-4.26816E-05-2.96272E-05 7.23052E-07 1.20609E-18 8.01378E-19
 -1      3158 1.14811E-04-4.15804E-05-3.13953E-05-7.95549E-06-5.46469E-19 2.73201E-18
 -1      3159 1.14786E-04-3.99889E-05-3.20801E-05-1.01331E-05-4.38257E-19 2.59849E-18
 -1      3160 1.16014E-04-4.39339E-05-3.09528E-05-4.95928E-06 1.80669E-19 7.52126E-19
 -1      3161 1.15038E-04-3.76693E-05-3.32449E-05-1.31380E-05-1.43428E-18 2.87365E-18
 -1      3162 1.13536E-04-3.38094E-05-3.41430E-05-1.42558E-05-1.94162E-18 1.17976E-18
 -1      3163 1.18217E-04-4.08490E-05-3.31943E-05-1.15234E-05-1.16801E-18 1.11551E-18
 -1      3164 1.11572E-04-2.91977E-05-3.54883E-05-1.46679E-05-1.56255E-18 1.31217E-18
 -1      3165 1.09598E-04-2.52047E-05-3.62222E-05-1.30382E-05-1.44414E-18 3.30952E-19
 -1      3166 1.16376E-04-3.23886E-05-3.59230E-05-1.55043E-05-1.62509E-18 1.86480E-18
 -1      3167 1.05320E-04-1.76178E-05-3.76919E-05-1.05767E-06-1.51407E-18-5.47302E-19
 -1      3168 1.06224E-04-1.94991E-05-3.73400E-05 2.69969E-06-1.30717E-18-1.59971E-18
 -1      3169 1.08402E-04-2.30430E-05-3.65525E-05 6.68732E-06-1.52282E-18-2.98605E-18
 -1      3170 1.10232E-04-2.72707E-05-3.57829E-05 8.45960E-06-1.50149E-18-3.19802E-18
 -1      3171 1.10598E-04-2.04100E-05-3.87365E-05 5.72039E-06-1.89862E-18-1.77813E-18
 -1      3172 1.12408E-04-3.17671E-05-3.45445E-05 8.82020E-06-1.09149E-18-2.91602E-18
 -1      3173 1.13928E-04-3.56928E-05-3.36517E-05 8.14855E-06-1.10192E-18-2.90457E-18
 -1      3174 1.15054E-04-3.00125E-05-3.64522E-05 9.63130E-06-1.25432E-18-2.20185E-18
 -1      3175 1.14225E-04-3.85138E-05-3.24944E-05 5.59572E-06-1.03637E-18-2.37295E-18
 -1      3176 1.14309E-04-4.02151E-05-3.17747E-05 3.50177E-06-6.88211E-19-2.66830E-18
 -1      3177 1.17882E-04-3.91118E-05-3.37508E-05 6.61201E-06-7.02051E-19-2.11544E-18
 -1      3178 1.12663E-04-4.05419E-05-3.10014E-05 3.74049E-07-3.74312E-19-2.14498E-18
 -1      3179 1.11811E-04-4.03605E-05-3.05387E-05-1.82550E-06-1.99418E-19-2.45843E-18
 -1      3180 1.16471E-04-4.25032E-05-3.16747E-05 5.69912E-07-3.85334E-19-1.94714E-18
 -1      3181 4.64746E-05-1.48529E-05-1.31808E-05-1.00295E-05 5.10814E-19-6.28837E-18
 -1      3182 5.29087E-05-1.94225E-05-1.39199E-05-1.99372E-05 1.91959E-19-6.88405E-18
 -1      3183 9.52432E-05-2.87036E-05-2.85165E-05-1.11978E-06 5.68932E-19-1.34814E-18
 -1      3184 9.52398E-05-2.86415E-05-2.85389E-05-1.11379E-06 3.81727E-19-1.44385E-18
 -1      3185 9.52137E-05-2.87879E-05-2.84668E-05-8.72581E-07 5.90238E-19-6.43013E-19
 -1      3186 9.51934E-05-2.87879E-05-2.84598E-05-9.29289E-07 9.26104E-19-1.01784E-18
 -1      3187 9.52164E-05-2.87603E-05-2.84798E-05-7.64690E-07 1.67287E-20 6.04118E-20
 -1      3188 9.51953E-05-2.87701E-05-2.84687E-05-8.17836E-07 3.17664E-19-3.72209E-19
 -1      3189 9.53873E-05-2.88675E-05-2.85096E-05-8.50807E-07 1.72291E-19-7.16017E-19
 -1      3190 9.52228E-05-2.87178E-05-2.85006E-05-6.73859E-07 2.46210E-19-3.68667E-19
 -1      3191 9.52015E-05-2.87349E-05-2.84867E-05-7.16757E-07 5.06199E-19-1.69591E-21
 -1      3192 9.53551E-05-2.88209E-05-2.85155E-05-7.51765E-07 3.40425E-19-2.47376E-19
 -1      3193 9.52320E-05-2.86635E-05-2.85277E-05-6.11112E-07 4.15528E-19-8.70258E-19
 -1      3194 9.52104E-05-2.86866E-05-2.85114E-05-6.38649E-07 2.91351E-19-4.92496E-19
 -1      3195 9.53283E-05-2.87573E-05-2.85311E-05-6.71349E-07 3.75025E-19-4.60773E-19
 -1      3196 9.52435E-05-2.85986E-05-2.85603E-05-5.85483E-07 1.26701E-19-7.37328E-19
 -1      3197 9.52213E-05-2.86271E-05-2.85417E-05-5.93335E-07 3.23802E-19-7.71868E-19
 -1      3198 9.53053E-05-2.86798E-05-2.85543E-05-6.20705E-07 4.24283E-19-6.23221E-19
 -1      3199 9.52574E-05-2.85222E-05-2.85986E-05-6.05327E-07-1.93731E-19-1.13026E-18
 -1      3200 9.52335E-05-2.85565E-05-2.85774E-05-5.89333E-07-1.03152E-19-1.04099E-18
 -1      3201 9.52842E-05-2.85887E-05-2.85842E-05-6.09115E-07 2.30448E-19-4.44667E-19
 -1      3202 9.52733E-05-2.84322E-05-2.86436E-05-6.79371E-07-4.38695E-19-1.14200E-18
 -1      3203 9.52466E-05-2.84731E-05-2.86189E-05-6.35042E-07-2.25301E-19-9.47309E-19
 -1      3204 9.52629E-05-2.84824E-05-2.86206E-05-6.45279E-07-3.79691E-19-1.12734E-18
 -1      3205 9.52908E-05-2.83252E-05-2.86965E-05-8.17477E-07 2.62649E-19-1.09392E-18
 -1      3206 9.52602E-05-2.83740E-05-2.86675E-05-7.39635E-07 3.87256E-20-7.60247E-19
 -1      3207 9.52384E-05-2.83571E-05-2.86637E-05-7.38294E-07-3.37514E-19-8.02404E-19
 -1      3208 9.53091E-05-2.81964E-05-2.87589E-05-1.03119E-06 4.84925E-19-1.19624E-18
 -1      3209 9.52732E-05-2.82551E-05-2.87244E-05-9.13710E-07 3.15174E-19-1.05634E-18
 -1      3210 9.52070E-05-2.82077E-05-2.87141E-05-8.98317E-07 3.76382E-19-6.56600E-19
 -1      3211 9.53262E-05-2.80403E-05-2.88324E-05-1.33408E-06 6.94036E-19-3.10501E-19
 -1      3212 9.52839E-05-2.81111E-05-2.87913E-05-1.16972E-06 6.09468E-19-5.68434E-19
 -1      3213 9.51635E-05-2.80273E-05-2.87726E-05-1.13700E-06 3.39227E-19-6.94042E-19
 -1      3214 9.53388E-05-2.78504E-05-2.89183E-05-1.74178E-06 9.57313E-19 5.94835E-19
 -1      3215 9.52893E-05-2.79357E-05-2.88695E-05-1.52222E-06 9.85525E-19 3.78393E-19
 -1      3216 9.51011E-05-2.78081E-05-2.88394E-05-1.46770E-06 2.40253E-19 3.78723E-19
 -1      3217 9.53412E-05-2.76198E-05-2.90172E-05-2.27174E-06-3.97036E-19 1.05170E-18
 -1      3218 9.52845E-05-2.77221E-05-2.89600E-05-1.98773E-06 4.27950E-19 9.64321E-19
 -1      3219 9.50103E-05-2.75412E-05-2.89143E-05-1.90537E-06 3.82159E-19 1.50866E-18
 -1      3220 9.53256E-05-2.73428E-05-2.91282E-05-2.94247E-06-2.29540E-19-1.48996E-19
 -1      3221 9.52623E-05-2.74635E-05-2.90626E-05-2.58434E-06-2.50281E-19 4.23163E-19
 -1      3222 9.48783E-05-2.72175E-05-2.89957E-05-2.46610E-06 8.09821E-20 1.08039E-18
 -1      3223 9.52813E-05-2.70169E-05-2.92479E-05-3.77211E-06-3.90931E-19-4.85660E-19
 -1      3224 9.52127E-05-2.71552E-05-2.91750E-05-3.33075E-06-1.01975E-19-4.64222E-19
 -1      3225 9.46891E-05-2.68295E-05-2.90797E-05-3.16638E-06 1.40439E-19-6.79045E-20
 -1      3226 9.51972E-05-2.66480E-05-2.93689E-05-4.77631E-06-3.60059E-19-1.04392E-18
 -1      3227 9.51239E-05-2.67980E-05-2.92919E-05-4.24470E-06-5.20571E-19-1.03756E-18
 -1      3228 9.44229E-05-2.63744E-05-2.91590E-05-4.02196E-06-2.61704E-19-9.57524E-19
 -1      3229 9.50663E-05-2.62601E-05-2.94778E-05-5.96503E-06-1.09456E-19-5.77056E-19
 -1      3230 9.49855E-05-2.64050E-05-2.94029E-05-5.34074E-06-7.47108E-20-6.45055E-19
 -1      3231 9.40594E-05-2.58609E-05-2.92213E-05-5.04667E-06-4.52347E-19-1.01153E-18
 -1      3232 9.48985E-05-2.59126E-05-2.95533E-05-7.33857E-06-3.67268E-22-7.96902E-19
 -1      3233 9.47963E-05-2.60151E-05-2.94908E-05-6.62729E-06 3.82601E-19-3.48561E-19
 -1      3234 9.35837E-05-2.53204E-05-2.92470E-05-6.25182E-06 6.40227E-21-5.65488E-19
 -1      3235 9.47447E-05-2.57283E-05-2.95637E-05-8.88284E-06-7.19070E-19-5.43062E-19
 -1      3236 9.45823E-05-2.57148E-05-2.95289E-05-8.10328E-06-4.15869E-19-5.67265E-19
 -1      3237 9.30008E-05-2.48272E-05-2.92068E-05-7.64734E-06-1.49509E-19-3.00177E-19
 -1      3238 9.47427E-05-2.59389E-05-2.94674E-05-1.05636E-05-7.67488E-19-5.21575E-19
 -1      3239 9.44306E-05-2.56747E-05-2.94799E-05-9.75439E-06-7.03004E-19-8.04442E-19
 -1      3240 9.23634E-05-2.45318E-05-2.90607E-05-9.24643E-06-4.38328E-19-6.81144E-19
 -1      3241 9.51940E-05-2.69428E-05-2.92197E-05-1.23140E-05-1.36709E-18 1.19315E-19
 -1      3242 9.45496E-05-2.62022E-05-2.92987E-05-1.15463E-05-6.57948E-19-1.67397E-20
 -1      3243 9.18243E-05-2.47104E-05-2.87579E-05-1.10741E-05-9.31344E-19-5.64358E-19
 -1      3244 9.66835E-05-2.93863E-05-2.87957E-05-1.40156E-05-1.94046E-18-9.35557E-19
 -1      3245 9.53630E-05-2.78035E-05-2.89438E-05-1.34171E-05-1.93495E-18-3.57640E-19
 -1      3246 9.17111E-05-2.58219E-05-2.82461E-05-1.31736E-05-1.34604E-18-5.58976E-19
 -1      3247 1.00200E-04-3.40787E-05-2.82513E-05-1.53660E-05-1.39392E-18-5.57040E-19
 -1      3248 9.76985E-05-3.12551E-05-2.84200E-05-1.51651E-05-1.97740E-18-1.26182E-18
 -1      3249 9.26729E-05-2.86289E-05-2.74938E-05-1.56280E-05-2.08973E-18-1.22715E-18
 -1      3250 1.07170E-04-4.18540E-05-2.78590E-05-1.52409E-05 3.02351E-19 5.31378E-19
 -1      3251 1.02833E-04-3.74984E-05-2.78601E-05-1.61729E-05-5.60264E-19 5.88489E-20
 -1      3252 9.62154E-05-3.44823E-05-2.66483E-05-1.83071E-05-1.83950E-18 2.64513E-19
 -1      3253 1.26183E-04-1.69025E-05-4.78859E-05 1.18053E-05 8.17387E-20-3.01020E-18
 -1      3254 1.38606E-04-5.52453E-05-3.58956E-05-2.21087E-06 5.50677E-19-1.22158E-18
 -1      3255 1.35670E-04-5.82883E-05-3.29552E-05 4.38571E-06 7.87112E-19-1.47315E-18
 -1      3256 1.03336E-04-3.61386E-05-2.87262E-05 2.27726E-05 2.32497E-18-2.65265E-18
 -1      3257 1.07096E-04-3.99517E-05-2.86883E-05 2.18306E-05 2.74629E-18-2.45361E-18
 -1      3258 9.86722E-05-3.37208E-05-2.78657E-05 2.48839E-05 3.18278E-18-2.92788E-18
 -1      3259 6.48286E-05-1.34574E-05-2.19598E-05 6.68833E-06-1.12963E-18 8.68315E-19
 -1      3260 6.84248E-05-1.55297E-05-2.24612E-05 1.45335E-05-7.79581E-19-2.30745E-18
 -1      3261 9.62734E-05-3.34095E-05-2.67018E-05-2.72671E-05 5.89482E-19 2.72193E-18
 -1      3262 8.92560E-05-2.93244E-05-2.57811E-05-2.69307E-05-4.66235E-19 2.81871E-18
 -1      3263 8.11830E-05-2.37120E-05-2.43276E-05-2.49789E-05-1.49707E-18 4.12970E-18
 -1      3264 7.38161E-05-1.94353E-05-2.34488E-05-2.04137E-05-1.96237E-18 4.21049E-18
 -1      3265 8.45621E-05-2.95333E-05-2.34344E-05-2.93080E-05-2.69714E-19 4.08050E-18
 -1      3266 9.43228E-05-4.38901E-05-2.11377E-05-3.81879E-05 2.16608E-18 4.05692E-18
 -1      3267 1.09336E-04-5.34625E-05-2.42410E-05-3.57007E-05 2.28466E-18 3.05657E-18
 -1      3268 1.09881E-04-4.03146E-05-2.97513E-05-1.39684E-05 1.04991E-18 2.54659E-18
 -1      3269 1.08828E-04-3.98358E-05-2.94564E-05-1.70159E-05 1.60467E-18 2.57655E-18
 -1      3270 1.24098E-04-5.71481E-05-2.82962E-05-1.21301E-05 1.28855E-19 3.01014E-19
 -1      3271 5.81868E-05-1.82102E-05-1.68883E-05 2.04191E-05-5.03177E-19-5.13736E-18
 -1      3272 5.24747E-05-1.36209E-05-1.62785E-05 7.34169E-06-1.05407E-18-1.69978E-18
 -1      3273 9.56968E-05-4.65950E-05-2.10773E-05 3.27830E-05 1.88711E-18-7.31095E-20
 -1      3274 7.89604E-05-3.68910E-05-1.73444E-05 3.49809E-05 2.38080E-18-1.52567E-18
 -1      3275 1.24684E-04-2.29116E-05-4.37899E-05 1.10137E-05-3.30248E-18-3.42773E-18
 -1      3276 1.20407E-04-1.64591E-05-4.51150E-05 7.05973E-06-3.37913E-18-2.88399E-18
 -1      3277 6.42842E-05-2.17536E-05-1.76996E-05-2.65079E-05-3.43750E-19 5.17712E-18
 -1      3278 7.75544E-05-3.13781E-05-1.98337E-05-3.47906E-05 7.17252E-19 5.71790E-18
 -1      3279 9.52739E-05-2.85700E-05-2.85878E-05-1.07604E-06 3.48111E-19-1.44767E-18
 -1      3280 9.52850E-05-2.84664E-05-2.86309E-05-1.00515E-06 4.46666E-19-1.40432E-18
 -1      3281 9.55855E-05-2.86806E-05-2.86770E-05-1.04243E-06 4.45236E-19-1.46105E-18
 -1      3282 1.06517E-04-3.97021E-05-2.86566E-05-2.21495E-05 1.82452E-18 3.85623E-18
 -1      3283 1.02243E-04-3.71779E-05-2.79416E-05-2.43993E-05 7.73660E-19 3.54688E-18
 -1      3284 1.11687E-04-4.40109E-05-2.88424E-05-1.97135E-05 1.07341E-18 3.02011E-18
 -1      3285 1.12258E-04-4.48099E-05-2.87890E-05 2.00478E-05 2.63304E-18-1.59872E-18
 -1      3286 1.18240E-04-5.06633E-05-2.87089E-05 1.92554E-05 1.06118E-18-1.59000E-18
 -1      3287 1.24245E-04-5.48327E-05-2.97183E-05 1.50731E-05 8.30436E-19-1.54396E-18
 -1      3288 1.08015E-04-4.51976E-05-2.70817E-05 2.68655E-05 2.21565E-18-2.45794E-18
 -1      3289 5.17787E-05-1.32557E-05-1.61877E-05-4.16349E-06-2.92280E-18 1.18722E-18
 -1      3290 5.52094E-05-1.66731E-05-1.63500E-05-1.79821E-05-1.87398E-18 4.02722E-18
 -1      3291 6.77197E-05-1.85435E-05-2.07425E-05-1.89592E-05-1.88690E-18 3.35912E-18
 -1      3292 6.04273E-05-1.37197E-05-1.95967E-05 1.43763E-06-1.51258E-18 1.15075E-18
 -1      3293 9.52158E-05-2.87948E-05-2.84650E-05-9.82860E-07 9.55417E-19-1.23935E-18
 -1      3294 9.51980E-05-2.87810E-05-2.84640E-05-1.03384E-06 7.29193E-19-1.13811E-18
 -1      3295 9.54261E-05-2.88908E-05-2.85166E-05-9.53905E-07 6.56032E-19-1.09305E-18
 -1      3296 1.36080E-04-5.79974E-05-3.32971E-05-8.88616E-06 2.41053E-18 1.22566E-18
 -1      3297 1.38324E-04-5.24364E-05-3.72996E-05 3.25140E-07 1.45582E-18-1.62524E-20
 -1      3298 9.52248E-05-2.87715E-05-2.84791E-05-1.07499E-06 5.77263E-19-1.38814E-18
 -1      3299 9.52122E-05-2.87379E-05-2.84874E-05-1.10697E-06 6.91711E-19-1.32403E-18
 -1      3300 9.55260E-05-2.88180E-05-2.85918E-05-1.08368E-06 5.01804E-19-1.56629E-18
 -1      3301 9.54723E-05-2.88799E-05-2.85416E-05-1.04097E-06 5.79036E-19-1.61247E-18
 -1      3302 6.09158E-05-2.78866E-05-1.42555E-05 3.27755E-05 2.04008E-18-2.35179E-18
 -1      3303 4.86299E-05-2.02293E-05-1.14423E-05 2.53607E-05 2.26973E-18-2.31611E-18
 -1      3304 4.98536E-05-1.74442E-05-1.33829E-05 1.84275E-05 2.07438E-18-2.63237E-18
 -1      3305 9.53179E-05-2.83383E-05-2.87073E-05-8.86239E-07 4.43557E-19-1.37388E-18
 -1      3306 9.53493E-05-2.81735E-05-2.87808E-05-7.12083E-07 6.27668E-19-1.50664E-18
 -1      3307 9.56453E-05-2.84303E-05-2.88107E-05-8.62841E-07 4.43426E-19-1.59527E-18
 -1      3308 1.08170E-04-3.81333E-05-3.00535E-05-6.88369E-06 4.95580E-19-8.32316E-19
 -1      3309 1.32580E-04-5.42876E-05-3.41469E-05-1.07443E-06-9.02461E-19-1.54626E-18
 -1      3310 1.30330E-04-5.79744E-05-3.08230E-05 8.35335E-06-8.69334E-19-7.40757E-19
 -1      3311 9.53695E-05-2.79569E-05-2.88950E-05-4.70927E-07 9.52044E-19-1.69041E-18
 -1      3312 9.54199E-05-2.76975E-05-2.90125E-05-1.38000E-07 1.22536E-18-1.70702E-18
 -1      3313 9.56905E-05-2.80107E-05-2.90107E-05-4.72002E-07 6.98108E-19-1.83994E-18
 -1      3314 9.85806E-05-4.75153E-05-2.13210E-05-2.85547E-05 7.38507E-19-2.03275E-18
 -1      3315 1.12414E-04-5.55211E-05-2.46787E-05-2.35725E-05 6.63015E-19-2.02564E-18
 -1      3316 1.20477E-04-1.65209E-05-4.52389E-05-1.22363E-05-1.89947E-18-3.18352E-19
 -1      3317 1.23466E-04-2.40323E-05-4.27421E-05-1.60923E-05-1.24789E-18 3.39343E-20
 -1      3318 9.52127E-05-2.42806E-05-3.04020E-05 4.27152E-06 2.19536E-18-1.72491E-18
 -1      3319 9.46380E-05-2.27326E-05-3.08057E-05 4.77342E-06 2.31570E-18-1.93966E-18
 -1      3320 9.49123E-05-2.35903E-05-3.05669E-05 3.66779E-06 2.14806E-18-2.15424E-18
 -1      3321 9.52400E-05-2.52063E-05-3.00277E-05 2.99929E-06 1.96546E-18-1.64201E-18
 -1      3322 1.28721E-04-3.60265E-05-4.03784E-05-1.51241E-05-5.93558E-19-1.78078E-18
 -1      3323 1.32233E-04-4.51623E-05-3.71068E-05-1.10704E-05 2.91856E-19-1.62080E-18
 -1      3324 6.76264E-05-1.46808E-05-2.24297E-05-1.23299E-05-2.29988E-18 2.88264E-18
 -1      3325 6.42510E-05-1.30496E-05-2.18929E-05-4.21773E-06-2.24124E-18 1.96348E-18
 -1      3326 9.23729E-05-1.83434E-05-3.17421E-05 1.81147E-06 1.04147E-18-3.59879E-18
 -1      3327 9.22517E-05-1.81394E-05-3.17740E-05 1.05807E-06 7.04997E-19-3.69090E-18
 -1      3328 1.21908E-04-5.76818E-05-2.71276E-05-2.70861E-05 2.96115E-18 2.24585E-18
 -1      3329 1.30443E-04-6.08064E-05-3.02623E-05-1.95017E-05 3.15964E-18 2.31349E-18
 -1      3330 1.23475E-04-5.84780E-05-2.81188E-05 1.74404E-05 4.99802E-19-1.39078E-18
 -1      3331 1.12503E-04-5.45029E-05-2.46702E-05 2.53505E-05 8.94731E-19-1.93710E-18
 -1      3332 1.07212E-04-5.28193E-05-2.32668E-05 3.52910E-05 1.03926E-18-6.62136E-18
 -1      3333 9.25638E-05-4.55073E-05-1.95750E-05 3.96989E-05 1.79857E-18-9.65506E-18
 -1      3334 1.17582E-04-5.25465E-05-2.76914E-05-1.40341E-05-3.57713E-19 1.09436E-18
 -1      3335 9.21916E-05-1.80394E-05-3.17924E-05 4.07914E-07 5.70649E-19-3.63711E-18
 -1      3336 9.21881E-05-1.80350E-05-3.17930E-05-3.60272E-07 2.55402E-19-3.61046E-18
 -1      3337 9.31456E-05-1.96242E-05-3.14915E-05 6.28341E-07 5.81209E-19-3.50011E-18
 -1      3338 9.43539E-05-2.19833E-05-3.09889E-05 3.64325E-06 2.02296E-18-2.37011E-18
 -1      3339 9.34309E-05-2.02140E-05-3.14044E-05 4.24344E-06 2.15087E-18-2.69538E-18
 -1      3340 9.30735E-05-1.95547E-05-3.15179E-05 3.65899E-06 1.76511E-18-2.88608E-18
 -1      3341 1.29613E-04-4.81571E-05-3.47987E-05-7.20537E-06-7.38560E-19-2.27534E-18
 -1      3342 9.28328E-05-1.84702E-05-3.19030E-05-7.58338E-06-2.15127E-18-3.16331E-18
 -1      3343 9.37742E-05-2.05579E-05-3.13849E-05-6.29348E-06-2.09394E-18-2.79465E-18
 -1      3344 1.08590E-04-1.85682E-05-3.87128E-05-8.91427E-06-1.28500E-18 7.78311E-19
 -1      3345 1.11474E-04-1.64195E-05-4.09018E-05-6.47975E-06-1.94336E-18 8.39363E-19
 -1      3346 1.10311E-04-2.18693E-05-3.80731E-05-1.25931E-05-1.57244E-18 9.90900E-19
 -1      3347 6.37497E-05-2.39358E-05-1.66752E-05-2.23718E-05-2.93920E-19-5.01645E-18
 -1      3348 4.61468E-05-1.35120E-05-1.34982E-05-4.59771E-06 9.44190E-19-4.70940E-18
 -1      3349 5.35815E-05-1.51077E-05-1.62000E-05-8.68912E-06 4.01550E-19-5.37665E-18
 -1      3350 4.70060E-05-1.32347E-05-1.43215E-05 2.32696E-06 1.06842E-18-3.14599E-18
 -1      3351 9.17830E-05-4.16459E-05-2.10376E-05-2.72496E-05 5.65500E-19-1.71905E-18
 -1      3352 1.01925E-04-3.95492E-05-2.66304E-05-2.75709E-05 7.89355E-19 3.20425E-18
 -1      3353 1.33232E-04-4.75882E-05-3.68652E-05 4.09799E-06 1.58263E-19-2.18143E-18
 -1      3354 9.25408E-05-1.86338E-05-3.16860E-05 2.42253E-06 1.31300E-18-3.41403E-18
 -1      3355 9.33577E-05-2.00053E-05-3.14152E-05 1.80989E-06 1.16778E-18-3.19883E-18
 -1      3356 9.27820E-05-1.90550E-05-3.16186E-05 3.11406E-06 1.70055E-18-3.03191E-18
 -1      3357 1.11231E-04-4.74178E-05-2.71242E-05-1.66653E-05 4.18944E-19 4.63880E-19
 -1      3358 1.02160E-04-4.37386E-05-2.52372E-05-2.18295E-05-3.42810E-19 2.45798E-19
 -1      3359 1.15515E-04-5.32340E-05-2.65913E-05-2.85217E-05 3.12169E-18 2.27783E-18
 -1      3360 1.24805E-04-2.95969E-05-4.09791E-05 1.04695E-05-1.93282E-18-3.11068E-18
 -1      3361 9.30312E-05-1.94902E-05-3.15263E-05-3.61989E-06-8.77103E-19-2.97926E-18
 -1      3362 9.33835E-05-2.01091E-05-3.14163E-05-4.21203E-06-1.22305E-18-2.95487E-18
 -1      3363 1.11260E-04-4.07017E-05-3.02745E-05-8.04613E-06 8.72030E-19-1.85587E-19
 -1      3364 1.14186E-04-4.40004E-05-3.02449E-05-9.11109E-06 2.95548E-19 9.79556E-19
 -1      3365 8.77554E-05-3.92365E-05-2.02904E-05 3.61999E-05 1.31158E-18-8.78003E-18
 -1      3366 9.53660E-05-2.66190E-05-2.94725E-05 1.25135E-06 1.65286E-18-1.79565E-18
 -1      3367 9.54257E-05-2.60350E-05-2.97290E-05 2.10856E-06 1.85723E-18-1.72285E-18
 -1      3368 9.53669E-05-2.53297E-05-3.00103E-05 2.49537E-06 1.94032E-18-1.94729E-18
 -1      3369 8.82020E-05-3.50992E-05-2.25158E-05-3.24316E-05 1.65685E-18 4.05686E-18
 -1      3370 6.52588E-05-2.23313E-05-1.79220E-05 2.62530E-05-2.92226E-20-6.91147E-18
 -1      3371 6.70323E-05-1.82235E-05-2.05852E-05 1.90091E-05-7.84167E-20-5.06626E-18
 -1      3372 7.30456E-05-1.91632E-05-2.32149E-05 2.06919E-05 1.04536E-19-5.77989E-18
 -1      3373 7.26671E-05-2.65846E-05-1.97573E-05 3.00966E-05 4.83073E-21-9.51562E-18
 -1      3374 7.30758E-05-3.13042E-05-1.75765E-05 3.04753E-05 2.26481E-18-1.32476E-18
 -1      3375 9.53809E-05-2.74218E-05-2.91315E-05 1.93314E-07 1.25596E-18-1.84367E-18
 -1      3376 9.54456E-05-2.70347E-05-2.93071E-05 7.45822E-07 1.38593E-18-1.75456E-18
 -1      3377 9.55668E-05-2.66217E-05-2.95494E-05 1.05437E-06 1.45958E-18-1.99353E-18
 -1      3378 9.56707E-05-2.74184E-05-2.92569E-05 1.51744E-07 1.16325E-18-2.08464E-18
 -1      3379 7.96258E-05-2.26003E-05-2.41392E-05 2.44489E-05 1.73504E-18-6.75715E-18
 -1      3380 1.05051E-04-5.00384E-05-2.34028E-05 2.77142E-05 1.63610E-18-1.91441E-18
 -1      3381 9.58086E-05-4.30063E-05-2.25967E-05 2.74945E-05 1.72980E-18-1.33487E-18
 -1      3382 1.10901E-04-5.06199E-05-2.56867E-05 2.02902E-05 1.52475E-18-2.29357E-18
 -1      3383 1.16481E-04-5.60237E-05-2.55957E-05 3.03900E-05 1.44271E-18-3.86948E-18
 -1      3384 1.06773E-04-4.87369E-05-2.47894E-05 3.17435E-05 2.10726E-18-3.92536E-18
 -1      3385 1.25038E-04-5.60136E-05-2.93607E-05 1.00991E-05-2.08622E-19-1.74588E-18
 -1      3386 1.31236E-04-5.65599E-05-3.19057E-05-1.06221E-05 2.68488E-18 1.84831E-18
 -1      3387 9.25258E-05-1.86030E-05-3.16911E-05-2.37324E-06-3.76533E-19-3.26709E-18
 -1      3388 9.27574E-05-1.90102E-05-3.16252E-05-3.08119E-06-6.88633E-19-3.23036E-18
 -1      3389 9.37494E-05-2.07606E-05-3.12604E-05-2.80532E-06-8.41494E-19-2.89746E-18
 -1      3390 1.15614E-04-1.43031E-05-4.36505E-05-9.34035E-06-2.17815E-18 1.13767E-19
 -1      3391 9.21777E-05-1.74742E-05-3.20362E-05-7.01882E-06-1.92388E-18-3.40957E-18
 -1      3392 1.26414E-04-5.75938E-05-2.96609E-05 1.73398E-05 1.04452E-18-3.01840E-18
 -1      3393 9.36694E-05-2.04729E-05-3.13622E-05-5.48191E-06-1.74208E-18-2.85430E-18
 -1      3394 1.21943E-04-2.99333E-05-3.95735E-05-1.54470E-05-1.03476E-18 9.47671E-19
 -1      3395 6.26702E-05-2.04450E-05-1.80118E-05-1.78625E-05-4.85720E-20-4.24464E-18
 -1      3396 7.27719E-05-2.83169E-05-1.90191E-05-2.51503E-05-8.40521E-19-3.13397E-18
 -1      3397 1.15019E-04-2.38542E-05-3.93533E-05-1.53243E-05-1.72586E-18 2.07031E-18
 -1      3398 9.53733E-05-2.45989E-05-3.03266E-05-2.22663E-06-1.13790E-18-2.34344E-18
 -1      3399 9.55975E-05-2.54912E-05-3.00567E-05-1.46173E-06-1.03707E-18-2.18401E-18
 -1      3400 9.58787E-05-2.62878E-05-2.98161E-05-9.44920E-07-9.14913E-19-1.97568E-18
 -1      3401 9.59722E-05-2.68946E-05-2.96133E-05-4.25004E-07-8.59746E-19-1.69251E-18
 -1      3402 9.57361E-05-2.55122E-05-3.00926E-05-1.21971E-06-8.46849E-19-2.26414E-18
 -1      3403 9.61053E-05-2.74189E-05-2.94286E-05-7.06663E-08-7.72584E-19-1.54876E-18
 -1      3404 9.61216E-05-2.78154E-05-2.92799E-05 2.60116E-07-5.74582E-19-1.50992E-18
 -1      3405 9.61479E-05-2.69359E-05-2.96623E-05-3.26425E-07-6.94819E-19-1.91214E-18
 -1      3406 9.61617E-05-2.81492E-05-2.91414E-05 4.79409E-07-6.51389E-19-1.43936E-18
 -1      3407 9.61417E-05-2.84008E-05-2.90351E-05 6.69717E-07-5.72564E-19-1.59994E-18
 -1      3408 9.63197E-05-2.78777E-05-2.93334E-05 2.69043E-07-6.27776E-19-1.45333E-18
 -1      3409 9.61265E-05-2.86034E-05-2.89336E-05 7.86451E-07-4.68829E-19-1.38216E-18
 -1      3410 9.60907E-05-2.87549E-05-2.88596E-05 8.77976E-07-3.99803E-19-1.37625E-18
 -1      3411 9.63465E-05-2.84801E-05-2.90875E-05 6.24927E-07-4.27394E-19-1.32174E-18
 -1      3412 9.60451E-05-2.88673E-05-2.87872E-05 9.23371E-07-4.98798E-19-1.20078E-18
 -1      3413 9.60041E-05-2.89499E-05-2.87377E-05 9.49419E-07-4.60495E-19-1.31359E-18
 -1      3414 9.62884E-05-2.88414E-05-2.89081E-05 8.05105E-07-4.13815E-19-1.05102E-18
 -1      3415 9.59438E-05-2.90010E-05-2.86878E-05 9.48701E-07-6.11610E-19-1.38930E-18
 -1      3416 9.59029E-05-2.90365E-05-2.86564E-05 9.34599E-07-5.60061E-19-1.23427E-18
 -1      3417 9.61854E-05-2.90352E-05-2.87809E-05 8.65304E-07-4.94949E-19-1.13443E-18
 -1      3418 9.58375E-05-2.90464E-05-2.86237E-05 9.07088E-07-4.53618E-19-1.19388E-18
 -1      3419 9.57993E-05-2.90499E-05-2.86058E-05 8.71498E-07-3.28709E-19-1.11545E-18
 -1      3420 9.60624E-05-2.91142E-05-2.86941E-05 8.50021E-07-4.50782E-19-1.07603E-18
 -1      3421 9.57343E-05-2.90325E-05-2.85861E-05 8.31526E-07-7.50565E-19-1.09049E-18
 -1      3422 9.56998E-05-2.90143E-05-2.85781E-05 7.87962E-07-9.71708E-19-1.20201E-18
 -1      3423 9.59343E-05-2.91155E-05-2.86384E-05 7.93097E-07-6.82114E-19-1.17123E-18
 -1      3424 9.56377E-05-2.89787E-05-2.85683E-05 7.45941E-07-1.05194E-18-1.16341E-18
 -1      3425 9.56070E-05-2.89457E-05-2.85676E-05 7.04109E-07-8.33100E-19-1.31859E-18
 -1      3426 9.58091E-05-2.90645E-05-2.86063E-05 7.19584E-07-8.88814E-19-1.01486E-18
 -1      3427 9.55487E-05-2.88975E-05-2.85653E-05 6.67557E-07-4.40143E-19-1.46565E-18
 -1      3428 9.55211E-05-2.88537E-05-2.85701E-05 6.34529E-07-3.33822E-19-1.30642E-18
 -1      3429 9.56903E-05-2.89781E-05-2.85921E-05 6.47690E-07-7.66844E-19-9.91718E-19
 -1      3430 9.54657E-05-2.87960E-05-2.85736E-05 6.09077E-07-4.69684E-19-1.29200E-18
 -1      3431 9.54404E-05-2.87435E-05-2.85827E-05 5.90266E-07-3.95525E-19-1.29990E-18
 -1      3432 9.55778E-05-2.88659E-05-2.85917E-05 5.90787E-07-3.80259E-19-1.32332E-18
 -1      3433 9.53862E-05-2.86774E-05-2.85907E-05 5.80421E-07-2.53985E-19-1.41788E-18
 -1      3434 9.53618E-05-2.86168E-05-2.86033E-05 5.80275E-07-2.12979E-19-1.24819E-18
 -1      3435 9.54693E-05-2.87330E-05-2.86019E-05 5.59228E-07-2.75227E-19-1.46568E-18
 -1      3436 9.53064E-05-2.85420E-05-2.86148E-05 5.89953E-07-3.49505E-19-1.33016E-18
 -1      3437 9.52816E-05-2.84730E-05-2.86304E-05 6.12481E-07-4.14754E-19-1.34488E-18
 -1      3438 9.53607E-05-2.85805E-05-2.86203E-05 5.61561E-07-4.90796E-19-1.70810E-18
 -1      3439 9.52218E-05-2.83882E-05-2.86448E-05 6.45486E-07-6.45399E-19-1.21999E-18
 -1      3440 9.51951E-05-2.83098E-05-2.86631E-05 6.94638E-07-2.86844E-19-1.36309E-18
 -1      3441 9.52463E-05-2.84071E-05-2.86454E-05 6.05548E-07-3.17752E-19-1.43012E-18
 -1      3442 9.51278E-05-2.82136E-05-2.86798E-05 7.54970E-07 1.91971E-19-1.31007E-18
 -1      3443 9.50978E-05-2.81250E-05-2.87005E-05 8.34820E-07 5.16267E-19-1.20305E-18
 -1      3444 9.51201E-05-2.82099E-05-2.86754E-05 6.98996E-07 4.23837E-20-1.33666E-18
 -1      3445 9.50194E-05-2.80158E-05-2.87186E-05 9.26819E-07 6.13966E-19-1.26092E-18
 -1      3446 9.49853E-05-2.79166E-05-2.87412E-05 1.04158E-06 4.22236E-19-1.05391E-18
 -1      3447 9.49752E-05-2.79858E-05-2.87090E-05 8.50181E-07 7.19049E-19-1.57411E-18
 -1      3448 9.48930E-05-2.77942E-05-2.87598E-05 1.16999E-06 3.65271E-19-1.12462E-18
 -1      3449 9.48545E-05-2.76857E-05-2.87838E-05 1.32388E-06 5.33987E-19-1.64659E-18
 -1      3450 9.48053E-05-2.77331E-05-2.87442E-05 1.06809E-06 1.80722E-19-1.60627E-18
 -1      3451 9.47462E-05-2.75515E-05-2.88015E-05 1.49373E-06 2.68444E-19-1.58787E-18
 -1      3452 9.47050E-05-2.74374E-05-2.88257E-05 1.69057E-06 4.24798E-19-1.69561E-18
 -1      3453 9.46055E-05-2.74527E-05-2.87783E-05 1.36246E-06 4.50356E-19-1.71567E-18
 -1      3454 9.45809E-05-2.72963E-05-2.88405E-05 1.90700E-06 6.14266E-19-1.20273E-18
 -1      3455 9.45409E-05-2.71847E-05-2.88631E-05 2.14964E-06 3.65788E-19-6.98302E-19
 -1      3456 9.43737E-05-2.71514E-05-2.88079E-05 1.74352E-06 4.41351E-19-1.43055E-18
 -1      3457 9.44049E-05-2.70468E-05-2.88724E-05 2.41743E-06-3.37442E-19-9.16901E-19
 -1      3458 9.43745E-05-2.69517E-05-2.88910E-05 2.70683E-06-2.53999E-19-9.80156E-19
 -1      3459 9.41137E-05-2.68446E-05-2.88279E-05 2.22156E-06 3.58897E-20-1.68573E-18
 -1      3460 9.42365E-05-2.68347E-05-2.88911E-05 3.02989E-06-1.15875E-19-5.66302E-19
 -1      3461 9.42310E-05-2.67791E-05-2.89026E-05 3.36391E-06 1.25858E-20-7.25136E-19
 -1      3462 9.38383E-05-2.65611E-05-2.88316E-05 2.80624E-06 7.78263E-21-1.53248E-18
 -1      3463 9.41100E-05-2.67114E-05-2.88893E-05 3.74441E-06-2.87350E-19-8.16683E-19
 -1      3464 9.41550E-05-2.67302E-05-2.88898E-05 4.11610E-06-1.48735E-19-1.87713E-18
 -1      3465 9.35756E-05-2.63486E-05-2.88110E-05 3.50554E-06-2.10930E-19-1.31387E-18
 -1      3466 9.40842E-05-2.67541E-05-2.88585E-05 4.55312E-06-2.90907E-19-2.12832E-18
 -1      3467 9.42197E-05-2.68975E-05-2.88443E-05 4.94834E-06-4.27527E-19-1.86415E-18
 -1      3468 9.33758E-05-2.62805E-05-2.87566E-05 4.32432E-06-1.77867E-19-1.91496E-18
 -1      3469 9.42521E-05-2.70731E-05-2.87909E-05 5.43543E-06-8.84915E-20-1.35282E-18
 -1      3470 9.45379E-05-2.74092E-05-2.87594E-05 5.82913E-06 2.20740E-19-3.66872E-19
 -1      3471 9.33227E-05-2.64638E-05-2.86589E-05 5.26149E-06 2.33605E-19-1.92203E-18
 -1      3472 9.47544E-05-2.78166E-05-2.86823E-05 6.34978E-06 4.97908E-20-3.26021E-19
 -1      3473 9.52743E-05-2.84311E-05-2.86349E-05 6.69989E-06 4.71686E-19-2.89519E-19
 -1      3474 9.35464E-05-2.70459E-05-2.85115E-05 6.30438E-06 5.48901E-19-2.23491E-19
 -1      3475 9.57927E-05-2.91700E-05-2.85383E-05 7.21739E-06 4.02112E-19-3.73063E-19
 -1      3476 9.66546E-05-3.01595E-05-2.84845E-05 7.45354E-06 5.18343E-19-6.53154E-19
 -1      3477 9.42407E-05-2.82199E-05-2.83160E-05 7.41656E-06 2.79063E-19-4.74578E-19
 -1      3478 9.76362E-05-3.13383E-05-2.83850E-05 7.88888E-06 5.01056E-19-7.64225E-19
 -1      3479 9.89580E-05-3.27836E-05-2.83488E-05 7.89373E-06 1.07654E-18-1.08425E-18
 -1      3480 9.56809E-05-3.02192E-05-2.80918E-05 8.50797E-06 4.54689E-19-7.26746E-19
 -1      3481 1.00600E-04-3.44847E-05-2.82849E-05 8.08800E-06 1.42640E-18-1.09844E-18
 -1      3482 1.02467E-04-3.63890E-05-2.83146E-05 7.67475E-06 1.92163E-18-1.54074E-18
 -1      3483 9.82269E-05-3.32779E-05-2.78925E-05 9.37491E-06 1.02676E-18-9.97742E-19
 -1      3484 1.04956E-04-3.85915E-05-2.83639E-05 7.33474E-06 2.60040E-18-1.99850E-18
 -1      3485 1.07328E-04-4.07556E-05-2.85448E-05 6.23376E-06 2.17794E-18-1.29609E-18
 -1      3486 1.02280E-04-3.75096E-05-2.78335E-05 9.60075E-06 2.05298E-18-1.83260E-18
 -1      3487 1.10681E-04-4.31229E-05-2.88480E-05 4.89044E-06 1.85791E-18-8.52068E-19
 -1      3488 1.13258E-04-4.49478E-05-2.93101E-05 2.83572E-06 1.15040E-18-2.90843E-19
 -1      3489 1.08109E-04-4.26694E-05-2.81317E-05 8.45163E-06 2.51803E-18-2.02838E-18
 -1      3490 1.17167E-04-4.67211E-05-3.00875E-05 3.10804E-08 1.27038E-19-3.34452E-19
 -1      3491 1.19425E-04-4.68909E-05-3.10383E-05-3.31324E-06-4.26852E-19-9.43244E-19
 -1      3492 1.15361E-04-4.76060E-05-2.91660E-05 4.88306E-06 5.45936E-19-2.26270E-18
 -1      3493 1.22135E-04-4.10824E-05-3.48639E-05 6.41841E-06-1.62458E-19-2.47684E-18
 -1      3494 1.22556E-04-4.45665E-05-3.35024E-05 3.76016E-06-2.05174E-19-2.02201E-18
 -1      3495 1.20389E-04-4.57839E-05-3.20434E-05-8.17853E-07-1.27044E-19-1.02808E-18
 -1      3496 1.19098E-04-4.58931E-05-3.11786E-05-3.61925E-06 1.37180E-20-5.48116E-19
 -1      3497 1.24903E-04-4.83240E-05-3.28495E-05-8.12883E-07 1.70624E-19-1.05792E-18
 -1      3498 9.55491E-05-2.89381E-05-2.85461E-05-7.92218E-07 1.01713E-19-6.84230E-19
 -1      3499 9.55677E-05-2.89568E-05-2.85475E-05-8.40214E-07 2.04357E-19-6.68249E-19
 -1      3500 9.53726E-05-2.86868E-05-2.85779E-05-5.99710E-07 2.25956E-19-5.26394E-19
 -1      3501 9.53839E-05-2.87342E-05-2.85653E-05-6.14184E-07 3.25672E-19-4.26291E-19
 -1      3502 9.53196E-05-2.85695E-05-2.86053E-05-6.01741E-07 2.15632E-20-1.34846E-19
 -1      3503 9.53303E-05-2.86251E-05-2.85893E-05-5.94970E-07 3.33661E-19-1.36371E-19
 -1      3504 9.54027E-05-2.86737E-05-2.85987E-05-5.85412E-07-6.20893E-21-1.76601E-19
 -1      3505 9.52634E-05-2.84330E-05-2.86395E-05-6.51533E-07-2.81697E-19-8.64860E-19
 -1      3506 9.52749E-05-2.84983E-05-2.86203E-05-6.19106E-07-3.24991E-20-7.67537E-19
 -1      3507 9.53164E-05-2.85277E-05-2.86239E-05-6.00429E-07 4.06728E-19-3.55426E-19
 -1      3508 9.51988E-05-2.82725E-05-2.86804E-05-7.57945E-07-2.20550E-19-1.30631E-18
 -1      3509 9.52128E-05-2.83497E-05-2.86577E-05-6.95147E-07-2.90295E-19-1.15825E-18
 -1      3510 9.52217E-05-2.83574E-05-2.86560E-05-6.62924E-07-3.90222E-20-1.19954E-18
 -1      3511 9.51188E-05-2.80810E-05-2.87279E-05-9.30736E-07 2.71714E-19-1.01327E-18
 -1      3512 9.51375E-05-2.81734E-05-2.87015E-05-8.32295E-07 9.68000E-20-1.02666E-18
 -1      3513 9.51106E-05-2.81565E-05-2.86941E-05-7.81407E-07-3.06333E-19-1.15070E-18
 -1      3514 9.50147E-05-2.78503E-05-2.87819E-05-1.18086E-06-1.54071E-19-3.42834E-19
 -1      3515 9.50412E-05-2.79617E-05-2.87517E-05-1.04080E-06 1.82649E-19-7.28305E-19
 -1      3516 9.49730E-05-2.79165E-05-2.87375E-05-9.65033E-07-1.76722E-20-4.73996E-19
 -1      3517 9.48749E-05-2.75705E-05-2.88415E-05-1.52048E-06-3.39666E-20 1.61975E-19
 -1      3518 9.49135E-05-2.77053E-05-2.88076E-05-1.33216E-06-1.01231E-19-3.51778E-19
 -1      3519 9.47960E-05-2.76272E-05-2.87849E-05-1.22375E-06-1.78391E-19-3.01547E-19
 -1      3520 9.46846E-05-2.72310E-05-2.89052E-05-1.96269E-06-7.89027E-21 1.05904E-18
 -1      3521 9.47408E-05-2.73939E-05-2.88682E-05-1.71894E-06-7.42354E-20 7.02427E-19
 -1      3522 9.45633E-05-2.72771E-05-2.88343E-05-1.56813E-06-5.23499E-19-1.00188E-19
 -1      3523 9.44249E-05-2.68213E-05-2.89692E-05-2.52090E-06 2.67631E-19 1.14923E-20
 -1      3524 9.45062E-05-2.70166E-05-2.89306E-05-2.21442E-06 2.78515E-19 6.56343E-19
 -1      3525 9.42547E-05-2.68539E-05-2.88822E-05-2.00893E-06 1.06376E-19-2.26988E-19
 -1      3526 9.40721E-05-2.63329E-05-2.90272E-05-3.20796E-06 2.98994E-19-4.77349E-19
 -1      3527 9.41879E-05-2.65635E-05-2.89901E-05-2.83185E-06 4.38885E-19-9.42035E-21
 -1      3528 9.38450E-05-2.63459E-05-2.89226E-05-2.55638E-06 3.32519E-19-2.65003E-19
 -1      3529 9.35986E-05-2.57627E-05-2.90685E-05-4.03538E-06-2.87731E-19-9.44800E-19
 -1      3530 9.37595E-05-2.60280E-05-2.90380E-05-3.58373E-06 2.56503E-19-6.02158E-19
 -1      3531 9.33033E-05-2.57443E-05-2.89461E-05-3.21954E-06 3.94528E-19-7.00811E-19
 -1      3532 9.29753E-05-2.51202E-05-2.90766E-05-5.01301E-06-4.74339E-19-5.70247E-19
 -1      3533 9.31913E-05-2.54119E-05-2.90610E-05-4.48136E-06-7.45854E-19-7.48694E-19
 -1      3534 9.25941E-05-2.50470E-05-2.89381E-05-4.00617E-06-2.98334E-19-6.47264E-19
 -1      3535 9.21782E-05-2.44391E-05-2.90263E-05-6.15070E-06-5.66213E-19-9.57175E-20
 -1      3536 9.24538E-05-2.47345E-05-2.90381E-05-5.53571E-06-3.92248E-19-6.79246E-19
 -1      3537 9.16784E-05-2.42659E-05-2.88769E-05-4.92435E-06-5.54044E-19-4.38928E-19
 -1      3538 9.12031E-05-2.37970E-05-2.88817E-05-7.46398E-06 3.72093E-19-1.29954E-18
 -1      3539 9.15268E-05-2.40471E-05-2.89388E-05-6.76138E-06 6.38542E-21-7.12544E-19
 -1      3540 9.05200E-05-2.34386E-05-2.87310E-05-5.98786E-06 1.78785E-19-1.19910E-18
 -1      3541 9.00933E-05-2.33472E-05-2.85937E-05-8.98712E-06-4.80509E-21-1.70831E-18
 -1      3542 9.04186E-05-2.34582E-05-2.87202E-05-8.18666E-06 5.04780E-19-1.41879E-18
 -1      3543 8.90964E-05-2.26473E-05-2.84558E-05-7.22909E-06 4.08503E-19-2.25563E-18
 -1      3544 8.89904E-05-2.33668E-05-2.81004E-05-1.07959E-05-1.30134E-18-1.93000E-18
 -1      3545 8.92006E-05-2.31717E-05-2.83248E-05-9.87358E-06-8.72045E-19-1.79597E-18
 -1      3546 8.74207E-05-2.20479E-05-2.79911E-05-8.72478E-06-2.63240E-19-2.54972E-18
 -1      3547 8.81903E-05-2.43215E-05-2.73339E-05-1.30368E-05-1.67691E-18-1.28953E-18
 -1      3548 8.80787E-05-2.35534E-05-2.76832E-05-1.19465E-05-1.59050E-18-1.25624E-18
 -1      3549 8.55822E-05-2.19163E-05-2.72581E-05-1.06433E-05-1.68794E-18-2.29229E-18
 -1      3550 8.86629E-05-2.70763E-05-2.63420E-05-1.57930E-05-2.57751E-18-3.50617E-19
 -1      3551 8.74753E-05-2.51607E-05-2.67265E-05-1.45635E-05-1.77850E-18-7.71381E-19
 -1      3552 8.39637E-05-2.27694E-05-2.61674E-05-1.33307E-05-1.75098E-18-1.62335E-18
 -1      3553 8.65896E-05-3.16820E-05-2.32666E-05-2.12247E-05-1.41015E-18-1.16611E-18
 -1      3554 8.40964E-05-2.79868E-05-2.39360E-05-1.93363E-05-2.23441E-18-1.08647E-18
 -1      3555 1.09763E-04-4.82767E-05-2.60740E-05-2.95436E-05 1.71221E-18 2.25484E-18
 -1      3556 1.18933E-04-5.33486E-05-2.84173E-05-2.32628E-05 1.96516E-18 2.36384E-18
 -1      3557 9.58592E-05-2.87900E-05-2.87447E-05-9.83908E-07 5.02457E-19-1.48018E-18
 -1      3558 9.58919E-05-2.86781E-05-2.88014E-05-9.23559E-07 4.02872E-19-1.41416E-18
 -1      3559 1.17864E-04-4.73518E-05-3.03973E-05-1.09360E-05 4.39091E-19 3.01304E-18
 -1      3560 1.30729E-04-4.99583E-05-3.46040E-05 1.00227E-06 1.33803E-18-1.29083E-18
 -1      3561 1.28643E-04-4.34886E-05-3.66577E-05 6.63403E-06-1.30419E-18-3.50042E-18
 -1      3562 9.58345E-05-3.26963E-05-2.68891E-05 2.68089E-05 3.02697E-18-3.74959E-18
 -1      3563 9.90861E-05-3.72158E-05-2.64559E-05 2.76540E-05 3.13105E-18-4.24980E-18
 -1      3564 1.04768E-04-4.38773E-05-2.60035E-05 2.85648E-05 2.59839E-18-4.23526E-18
 -1      3565 8.98333E-05-2.96033E-05-2.59190E-05 2.69034E-05 2.87992E-18-4.74185E-18
 -1      3566 9.22427E-05-1.81250E-05-3.17759E-05-1.00754E-06 7.52798E-20-3.68525E-18
 -1      3567 9.23554E-05-1.83198E-05-3.17454E-05-1.76106E-06-1.67493E-19-3.45686E-18
 -1      3568 9.33425E-05-1.99856E-05-3.14187E-05-1.76298E-06-2.51826E-19-3.25268E-18
 -1      3569 8.62259E-05-3.39121E-05-2.20476E-05 3.27251E-05 1.76806E-18-7.12532E-18
 -1      3570 8.45436E-05-2.93158E-05-2.34606E-05 2.85701E-05 1.98055E-18-6.20421E-18
 -1      3571 8.00777E-05-3.29794E-05-2.02185E-05 2.80076E-05 2.46736E-18-5.50095E-19
 -1      3572 6.68072E-05-2.43856E-05-1.76648E-05 2.56790E-05 2.02323E-18-1.54684E-18
 -1      3573 1.15552E-04-1.67958E-05-4.26151E-05 5.64398E-06-2.98325E-18-2.22676E-18
 -1      3574 1.17876E-04-1.33244E-05-4.52118E-05 3.84835E-06-3.31508E-18-2.36067E-18
 -1      3575 9.56206E-05-2.89782E-05-2.85598E-05-8.86142E-07 4.06310E-19-8.17189E-19
 -1      3576 9.56430E-05-2.89800E-05-2.85692E-05-9.30566E-07 5.80126E-19-1.05233E-18
 -1      3577 9.57672E-05-2.90476E-05-2.85957E-05-8.23475E-07 3.15874E-19-1.01989E-18
 -1      3578 5.58119E-05-1.89561E-05-1.58574E-05 2.05964E-05 1.65328E-18-2.57922E-18
 -1      3579 4.98065E-05-1.44966E-05-1.46535E-05 1.18979E-05 1.34281E-18-2.56889E-18
 -1      3580 1.14709E-04-1.29382E-05-4.40492E-05-3.59331E-07-3.43879E-18-2.03883E-18
 -1      3581 1.23913E-04-5.24435E-05-3.08532E-05 2.11332E-06-5.12289E-19-2.12918E-18
 -1      3582 1.19405E-04-5.23713E-05-2.86935E-05 9.26820E-06 9.25913E-20-1.93662E-18
 -1      3583 9.54267E-05-2.87877E-05-2.85579E-05-6.36978E-07 3.59017E-19-6.47078E-19
 -1      3584 9.54396E-05-2.88271E-05-2.85490E-05-6.68216E-07 4.19910E-19-3.09044E-19
 -1      3585 9.54871E-05-2.87994E-05-2.85812E-05-6.09641E-07 3.65414E-19-3.56133E-19
 -1      3586 9.54848E-05-2.88724E-05-2.85466E-05-7.04658E-07-7.25001E-20-4.73625E-19
 -1      3587 9.55002E-05-2.89029E-05-2.85422E-05-7.47523E-07-8.21484E-20-6.17985E-19
 -1      3588 9.56671E-05-2.89910E-05-2.85768E-05-7.40094E-07 1.04921E-19-9.62432E-19
 -1      3589 9.55742E-05-2.89060E-05-2.85731E-05-6.64551E-07-6.68204E-21-9.62696E-19
 -1      3590 9.59240E-05-2.85302E-05-2.88853E-05-8.34206E-07 2.46565E-19-1.51812E-18
 -1      3591 9.59544E-05-2.83404E-05-2.89708E-05-6.86120E-07 3.41857E-19-1.64664E-18
 -1      3592 9.61587E-05-2.86160E-05-2.89496E-05-7.82941E-07 2.53425E-19-1.74229E-18
 -1      3593 9.59519E-05-2.80884E-05-2.90888E-05-4.99907E-07 4.86503E-19-1.77475E-18
 -1      3594 9.59703E-05-2.77867E-05-2.92129E-05-2.22518E-07 6.38651E-19-1.81943E-18
 -1      3595 9.61845E-05-2.81545E-05-2.91581E-05-4.85583E-07 3.98523E-19-1.70541E-18
 -1      3596 9.81933E-05-4.10210E-05-2.44738E-05-3.29009E-05 2.15220E-18 2.35073E-18
 -1      3597 1.20035E-04-3.26661E-05-3.75354E-05-1.53422E-05-9.50742E-19 1.24859E-18
 -1      3598 8.84654E-05-3.55740E-05-2.23734E-05-2.43110E-05-3.74130E-19-8.15057E-19
 -1      3599 9.53388E-05-2.47685E-05-3.02424E-05 2.76618E-06 1.94110E-18-2.14843E-18
 -1      3600 9.50575E-05-2.39368E-05-3.04876E-05 2.99724E-06 1.99422E-18-2.25957E-18
 -1      3601 9.54779E-05-2.56104E-05-2.99487E-05 1.86611E-06 1.79776E-18-2.13072E-18
 -1      3602 1.22083E-04-3.92145E-05-3.59113E-05-1.45157E-05-1.04108E-18 4.68283E-19
 -1      3603 9.29088E-05-1.89173E-05-3.16992E-05-5.76080E-06-1.58206E-18-3.20388E-18
 -1      3604 9.36004E-05-2.04845E-05-3.13506E-05-4.93444E-06-1.42025E-18-2.85400E-18
 -1      3605 9.41602E-05-2.15808E-05-3.10912E-05-3.97979E-06-1.26533E-18-2.74414E-18
 -1      3606 9.46914E-05-2.29903E-05-3.07391E-05-3.00950E-06-1.19653E-18-2.50935E-18
 -1      3607 9.47704E-05-2.30469E-05-3.07387E-05-2.52441E-06-1.04847E-18-2.51752E-18
 -1      3608 9.48138E-05-2.32906E-05-3.06603E-05 2.78090E-06 1.84829E-18-2.31004E-18
 -1      3609 1.23779E-04-4.91230E-05-3.20712E-05-4.06927E-06-6.34785E-19-1.66749E-18
 -1      3610 1.23518E-04-3.77690E-05-3.69644E-05 9.53795E-06-6.58012E-19-1.90318E-18
 -1      3611 1.24843E-04-4.63837E-05-3.36589E-05-7.58139E-06-9.09555E-19-1.30642E-18
 -1      3612 5.37413E-05-1.43508E-05-1.65480E-05 5.55152E-06 1.45386E-18-2.85053E-18
 -1      3613 1.21099E-04-3.11111E-05-3.86875E-05 1.00174E-05-1.99519E-18-2.30893E-18
 -1      3614 1.15202E-04-2.27016E-05-4.00956E-05 9.21548E-06-2.59939E-18-1.75852E-18
 -1      3615 9.38029E-05-2.08072E-05-3.12541E-05 2.86660E-06 1.63920E-18-2.83250E-18
 -1      3616 7.82862E-05-2.40754E-05-2.31536E-05-1.79382E-05-1.98251E-18-1.95254E-18
 -1      3617 1.19769E-04-5.02394E-05-2.97341E-05-1.52477E-05 6.89743E-19 2.02440E-18
 -1      3618 1.25286E-04-5.32900E-05-3.05519E-05-1.18146E-05 1.85995E-18 1.54941E-18
 -1      3619 9.61119E-05-2.74130E-05-2.94446E-05 4.66884E-08 7.01328E-19-1.56824E-18
 -1      3620 9.59052E-05-2.73743E-05-2.93754E-05 1.05005E-07 9.18353E-19-2.02671E-18
 -1      3621 1.28371E-04-5.22593E-05-3.28567E-05-4.28737E-06 2.18429E-18 8.35014E-19
 -1      3622 8.88568E-05-3.71242E-05-2.19164E-05 2.69956E-05 1.94203E-18-7.06571E-19
 -1      3623 8.14618E-05-3.07728E-05-2.17639E-05 2.38216E-05 1.66500E-18-1.01943E-18
 -1      3624 9.61002E-05-4.03093E-05-2.38469E-05 2.30100E-05 1.71187E-18-2.33416E-18
 -1      3625 6.53621E-05-2.14210E-05-1.86037E-05 2.01018E-05 1.48503E-18-1.57291E-18
 -1      3626 1.15480E-04-4.86877E-05-2.85260E-05 8.18470E-06 7.46289E-19-2.91020E-18
 -1      3627 1.13935E-04-5.12943E-05-2.69385E-05 1.60984E-05 1.16587E-18-2.69705E-18
 -1      3628 1.06601E-04-4.63446E-05-2.57979E-05 1.85521E-05 2.42247E-18-2.98068E-18
 -1      3629 1.11305E-04-4.61635E-05-2.77547E-05 1.06171E-05 1.42495E-18-3.17819E-18
 -1      3630 9.38674E-05-2.10526E-05-3.12185E-05 8.10437E-07 7.03020E-19-3.32281E-18
 -1      3631 9.38195E-05-2.09537E-05-3.12379E-05 2.47109E-07 4.37123E-19-3.35212E-18
 -1      3632 9.58594E-05-2.69902E-05-2.95063E-05 4.82444E-07 1.11823E-18-2.04955E-18
 -1      3633 9.58734E-05-2.90634E-05-2.86348E-05-8.97706E-07 3.31182E-19-1.46854E-18
 -1      3634 9.56985E-05-2.89806E-05-2.85925E-05-9.68138E-07 4.73293E-19-1.45712E-18
 -1      3635 9.57251E-05-2.89579E-05-2.86130E-05-9.96849E-07 3.13385E-19-1.53867E-18
 -1      3636 1.12871E-04-1.74289E-05-4.10598E-05 5.21448E-06-1.95119E-18-1.89104E-18
 -1      3637 9.39588E-05-2.12280E-05-3.11775E-05 1.24339E-06 8.89696E-19-3.11504E-18
 -1      3638 9.46137E-05-2.23899E-05-3.09350E-05 8.27652E-07 7.38017E-19-2.92974E-18
 -1      3639 9.41069E-05-2.15391E-05-3.11195E-05 1.77817E-06 1.26494E-18-2.93091E-18
 -1      3640 1.06957E-04-4.52614E-05-2.62452E-05-2.88036E-05 1.31911E-18 2.51936E-18
 -1      3641 1.17265E-04-4.81850E-05-2.96270E-05-1.57882E-05 5.34557E-19 2.22437E-18
 -1      3642 9.58106E-05-2.88680E-05-2.86868E-05-1.00856E-06 6.84737E-19-1.51816E-18
 -1      3643 9.60816E-05-2.88833E-05-2.88018E-05-9.15595E-07 5.86298E-19-1.39992E-18
 -1      3644 9.57802E-05-2.89270E-05-2.86511E-05-1.01260E-06 4.56287E-19-1.59860E-18
 -1      3645 9.31368E-05-1.96122E-05-3.14927E-05-5.90371E-07 1.74144E-19-3.40007E-18
 -1      3646 9.75968E-05-4.13812E-05-2.40581E-05 3.30458E-05 2.66923E-18-5.25200E-18
 -1      3647 1.10218E-04-1.52860E-05-4.10529E-05 1.88254E-06-1.89211E-18-1.29506E-18
 -1      3648 9.46233E-05-2.26469E-05-3.08607E-05-2.26902E-06-9.18460E-19-2.55247E-18
 -1      3649 9.53232E-05-2.42153E-05-3.04672E-05-1.58360E-06-9.03871E-19-2.39708E-18
 -1      3650 9.44103E-05-2.21690E-05-3.09634E-05-1.86542E-06-6.02338E-19-2.65707E-18
 -1      3651 6.01215E-05-1.70094E-05-1.81278E-05-1.30337E-05 7.70668E-20-4.99649E-18
 -1      3652 6.74919E-05-2.02980E-05-2.01232E-05-1.59102E-05-1.57981E-19-4.24970E-18
 -1      3653 5.79111E-05-1.52430E-05-1.82502E-05-7.74331E-06 5.06198E-19-4.98680E-18
 -1      3654 9.54049E-05-2.45593E-05-3.03413E-05 2.00621E-06 1.59854E-18-2.16338E-18
 -1      3655 9.46727E-05-2.28254E-05-3.08105E-05 2.52153E-06 1.63957E-18-2.56593E-18
 -1      3656 9.61536E-05-2.64702E-05-2.98620E-05-5.30256E-07-5.82700E-19-2.09650E-18
 -1      3657 9.62960E-05-2.70787E-05-2.96709E-05-1.55825E-07-5.51276E-19-1.96838E-18
 -1      3658 9.64433E-05-2.76039E-05-2.94976E-05 7.71951E-08-4.95495E-19-1.61971E-18
 -1      3659 9.64865E-05-2.80072E-05-2.93531E-05 3.16560E-07-4.47094E-19-1.47037E-18
 -1      3660 9.64451E-05-2.71835E-05-2.96824E-05-8.51955E-08-3.28378E-19-1.93901E-18
 -1      3661 9.65317E-05-2.83418E-05-2.92198E-05 4.57091E-07-2.98811E-19-1.16626E-18
 -1      3662 9.65185E-05-2.85956E-05-2.91125E-05 5.93875E-07-1.42785E-19-1.13321E-18
 -1      3663 9.66323E-05-2.80979E-05-2.93717E-05 2.98817E-07-2.48256E-19-1.40761E-18
 -1      3664 9.64995E-05-2.87960E-05-2.90124E-05 6.64615E-07-3.19127E-19-1.02038E-18
 -1      3665 9.64552E-05-2.89434E-05-2.89347E-05 7.28574E-07-4.51774E-19-9.25693E-19
 -1      3666 9.66573E-05-2.86796E-05-2.91342E-05 5.23675E-07-1.63634E-19-1.15383E-18
 -1      3667 9.63987E-05-2.90497E-05-2.88615E-05 7.51059E-07-4.81975E-19-9.13677E-19
 -1      3668 9.63393E-05-2.91229E-05-2.88070E-05 7.66644E-07-3.47224E-19-8.48839E-19
 -1      3669 9.65821E-05-2.90190E-05-2.89572E-05 6.31440E-07-3.65939E-19-8.52232E-19
 -1      3670 9.62633E-05-2.91643E-05-2.87551E-05 7.58527E-07-2.98343E-19-9.47962E-19
 -1      3671 9.61984E-05-2.91865E-05-2.87187E-05 7.44855E-07-2.73847E-19-7.96772E-19
 -1      3672 9.64507E-05-2.91879E-05-2.88288E-05 6.59779E-07-4.81100E-19-4.92055E-19
 -1      3673 9.61145E-05-2.91840E-05-2.86836E-05 7.19810E-07-5.70873E-19-1.04296E-18
 -1      3674 9.60496E-05-2.91715E-05-2.86609E-05 6.91274E-07-8.04562E-19-1.16807E-18
 -1      3675 9.62924E-05-2.92389E-05-2.87391E-05 6.39299E-07-5.03241E-19-1.02623E-18
 -1      3676 9.59645E-05-2.91394E-05-2.86389E-05 6.59618E-07-8.86301E-19-1.13860E-18
 -1      3677 9.59024E-05-2.91035E-05-2.86268E-05 6.26853E-07-8.30191E-19-9.81922E-19
 -1      3678 9.61251E-05-2.92095E-05-2.86798E-05 5.93608E-07-7.90311E-19-1.06483E-18
 -1      3679 9.58195E-05-2.90515E-05-2.86149E-05 5.96103E-07-1.02789E-18-1.12281E-18
 -1      3680 9.57609E-05-2.89992E-05-2.86107E-05 5.66808E-07-8.07056E-19-1.17587E-18
 -1      3681 9.59587E-05-2.91257E-05-2.86442E-05 5.40473E-07-9.92207E-19-1.16230E-18
 -1      3682 9.56806E-05-2.89328E-05-2.86067E-05 5.42461E-07-3.65519E-19-1.42117E-18
 -1      3683 9.56249E-05-2.88679E-05-2.86087E-05 5.22468E-07-3.95038E-19-1.30008E-18
 -1      3684 9.57970E-05-2.90038E-05-2.86268E-05 4.92744E-07-7.32803E-19-1.30198E-18
 -1      3685 9.55460E-05-2.87898E-05-2.86106E-05 5.08897E-07-5.78154E-19-1.15283E-18
 -1      3686 9.54915E-05-2.87141E-05-2.86174E-05 5.02866E-07-4.97941E-19-1.38143E-18
 -1      3687 9.56394E-05-2.88530E-05-2.86235E-05 4.60305E-07-5.10295E-19-1.03960E-18
 -1      3688 9.54113E-05-2.86247E-05-2.86239E-05 5.03707E-07-5.85879E-19-1.38298E-18
 -1      3689 9.53554E-05-2.85381E-05-2.86345E-05 5.15606E-07-5.70006E-19-1.54420E-18
 -1      3690 9.54819E-05-2.86768E-05-2.86311E-05 4.51200E-07-5.41191E-19-6.68687E-19
 -1      3691 9.52700E-05-2.84365E-05-2.86445E-05 5.34216E-07-5.00925E-19-1.48442E-18
 -1      3692 9.52097E-05-2.83378E-05-2.86579E-05 5.67842E-07-2.24554E-19-1.17519E-18
 -1      3693 9.53179E-05-2.84751E-05-2.86468E-05 4.72296E-07-3.48776E-19-6.87304E-19
 -1      3694 9.51144E-05-2.82219E-05-2.86702E-05 6.07787E-07 2.72070E-19-1.29231E-18
 -1      3695 9.50465E-05-2.81093E-05-2.86858E-05 6.67063E-07 5.27430E-19-1.39507E-18
 -1      3696 9.51390E-05-2.82447E-05-2.86684E-05 5.30416E-07-1.52057E-20-6.62876E-19
 -1      3697 9.49361E-05-2.79770E-05-2.86994E-05 7.32278E-07 4.45622E-19-1.30403E-18
 -1      3698 9.48571E-05-2.78489E-05-2.87161E-05 8.21386E-07 5.46294E-19-1.66531E-18
 -1      3699 9.49352E-05-2.79812E-05-2.86934E-05 6.32904E-07 5.06856E-19-7.94603E-19
 -1      3700 9.47263E-05-2.76981E-05-2.87296E-05 9.16410E-07 4.77047E-19-1.32114E-18
 -1      3701 9.46331E-05-2.75540E-05-2.87463E-05 1.03993E-06 1.40903E-20-9.92362E-19
 -1      3702 9.46962E-05-2.76802E-05-2.87194E-05 7.87965E-07 3.62597E-19-1.22345E-18
 -1      3703 9.44769E-05-2.73843E-05-2.87579E-05 1.17010E-06-4.54999E-20-7.75510E-19
 -1      3704 9.43677E-05-2.72256E-05-2.87731E-05 1.33295E-06 6.20464E-19-1.18739E-18
 -1      3705 9.44113E-05-2.73388E-05-2.87430E-05 1.00525E-06 1.72575E-19-3.03512E-19
 -1      3706 9.41822E-05-2.70390E-05-2.87803E-05 1.50456E-06 4.74724E-19-9.48406E-19
 -1      3707 9.40571E-05-2.68706E-05-2.87917E-05 1.71192E-06 1.67946E-19-1.05274E-18
 -1      3708 9.40717E-05-2.69584E-05-2.87599E-05 1.29617E-06 5.03033E-19-6.54473E-19
 -1      3709 9.38407E-05-2.66733E-05-2.87915E-05 1.93229E-06-2.40803E-19-1.03680E-18
 -1      3710 9.37037E-05-2.65055E-05-2.87960E-05 2.18940E-06-3.82592E-19-1.26755E-18
 -1      3711 9.36716E-05-2.65468E-05-2.87643E-05 1.67431E-06-2.27451E-20-2.04720E-19
 -1      3712 9.34591E-05-2.63104E-05-2.87842E-05 2.46719E-06-1.98897E-19-1.09525E-18
 -1      3713 9.33198E-05-2.61614E-05-2.87780E-05 2.77909E-06 1.62251E-19-8.43008E-19
 -1      3714 9.32119E-05-2.61228E-05-2.87486E-05 2.15602E-06-5.81694E-19-3.74013E-19
 -1      3715 9.30566E-05-2.59901E-05-2.87495E-05 3.12448E-06 2.73683E-20-1.11663E-18
 -1      3716 9.29341E-05-2.58892E-05-2.87278E-05 3.49569E-06-2.19984E-19-9.24942E-19
 -1      3717 9.27036E-05-2.57203E-05-2.87033E-05 2.76115E-06 9.30358E-20-8.34231E-19
 -1      3718 9.26720E-05-2.57762E-05-2.86766E-05 3.92077E-06-4.59829E-19-9.78995E-19
 -1      3719 9.25995E-05-2.57675E-05-2.86343E-05 4.35469E-06-3.62306E-19-9.85141E-19
 -1      3720 9.21746E-05-2.53954E-05-2.86165E-05 3.51423E-06-3.55527E-19-8.61786E-19
 -1      3721 9.23740E-05-2.57638E-05-2.85537E-05 4.87358E-06 2.07500E-19-1.16677E-18
 -1      3722 9.24047E-05-2.59105E-05-2.84861E-05 5.37120E-06 9.32704E-19-6.57920E-19
 -1      3723 9.16779E-05-2.52331E-05-2.84751E-05 4.44576E-06 3.35598E-20-1.63204E-19
 -1      3724 9.22745E-05-2.60881E-05-2.83703E-05 5.99908E-06 9.14245E-19-7.83066E-19
 -1      3725 9.24897E-05-2.64767E-05-2.82750E-05 6.55578E-06 4.26904E-19-1.78866E-19
 -1      3726 9.13040E-05-2.53572E-05-2.82654E-05 5.59273E-06 6.53824E-19-1.71221E-19
 -1      3727 9.25463E-05-2.69324E-05-2.81208E-05 7.30680E-06 2.38253E-19-1.38204E-19
 -1      3728 9.30653E-05-2.76766E-05-2.80010E-05 7.90560E-06 5.56669E-19-1.16607E-19
 -1      3729 9.11970E-05-2.59391E-05-2.79768E-05 6.99672E-06 4.17500E-19-2.17175E-19
 -1      3730 9.34531E-05-2.85386E-05-2.78125E-05 8.78176E-06 2.21425E-19-1.62460E-19
 -1      3731 9.44410E-05-2.97785E-05-2.76834E-05 9.37350E-06 7.24108E-19-2.36004E-19
 -1      3732 9.15830E-05-2.72155E-05-2.76075E-05 8.69739E-06 3.45977E-19-3.43074E-19
 -1      3733 9.53803E-05-3.12022E-05-2.74804E-05 1.03292E-05 9.24321E-19-8.27313E-19
 -1      3734 9.70417E-05-3.30742E-05-2.73792E-05 1.07928E-05 1.05484E-18-1.08913E-18
 -1      3735 9.28156E-05-2.95034E-05-2.71770E-05 1.06937E-05 4.71898E-19-9.25732E-19
 -1      3736 9.88501E-05-3.52377E-05-2.72109E-05 1.16830E-05 1.29594E-18-1.54623E-18
 -1      3737 1.01388E-04-3.77942E-05-2.72150E-05 1.17463E-05 2.24923E-18-1.81677E-18
 -1      3738 9.54140E-05-3.31645E-05-2.67491E-05 1.28568E-05 1.10959E-18-1.41199E-18
 -1      3739 1.04049E-04-4.02938E-05-2.72241E-05 1.20506E-05 2.75338E-18-2.88864E-18
 -1      3740 1.07494E-04-4.32684E-05-2.74765E-05 1.12230E-05 1.61031E-18-3.42195E-18
 -1      3741 1.05943E-04-4.39183E-05-2.67094E-05 1.49032E-05 1.81478E-18-3.99886E-18
 -1      3742 9.97255E-05-3.80676E-05-2.65156E-05 1.45389E-05 1.87432E-18-2.57780E-18
 -1      3743 9.45382E-05-2.22170E-05-3.09771E-05 1.45113E-08 2.91408E-19-3.18829E-18
 -1      3744 9.38211E-05-2.09523E-05-3.12385E-05-2.12788E-07 3.35175E-19-3.21354E-18
 -1      3745 9.38642E-05-2.10551E-05-3.12194E-05-7.79494E-07 2.13729E-20-3.21936E-18
 -1      3746 9.63568E-05-2.87218E-05-2.89883E-05-7.34336E-07 2.54449E-19-1.62586E-18
 -1      3747 9.63865E-05-2.85265E-05-2.90786E-05-6.22222E-07 2.16879E-19-1.68495E-18
 -1      3748 9.62869E-05-2.75231E-05-2.94751E-05-6.59945E-08 6.18423E-19-1.71631E-18
 -1      3749 9.62068E-05-2.70253E-05-2.96440E-05 2.74960E-07 7.42075E-19-1.75819E-18
 -1      3750 9.54268E-05-2.86525E-05-2.86160E-05-5.43241E-07 1.85629E-19-8.70582E-19
 -1      3751 9.54696E-05-2.87252E-05-2.86057E-05-5.44593E-07-5.68680E-20-6.68139E-19
 -1      3752 9.50241E-05-2.80416E-05-2.87051E-05-7.62622E-07-3.40133E-19-7.65616E-19
 -1      3753 9.50861E-05-2.81592E-05-2.86853E-05-6.89369E-07-3.61453E-19-5.66582E-19
 -1      3754 9.48327E-05-2.77584E-05-2.87445E-05-9.46481E-07-3.25219E-19-4.37928E-19
 -1      3755 9.49112E-05-2.78990E-05-2.87225E-05-8.39784E-07-2.95712E-19-9.33411E-19
 -1      3756 9.48931E-05-2.78934E-05-2.87127E-05-7.38585E-07-4.51833E-19-1.00195E-18
 -1      3757 9.45880E-05-2.74178E-05-2.87857E-05-1.19923E-06-2.91758E-19-6.23090E-19
 -1      3758 9.46904E-05-2.75870E-05-2.87624E-05-1.05442E-06-2.61953E-20-4.75734E-19
 -1      3759 9.46408E-05-2.75602E-05-2.87465E-05-9.17354E-07-2.72983E-19-1.16087E-18
 -1      3760 9.42699E-05-2.70072E-05-2.88255E-05-1.52911E-06-8.65476E-19-2.31717E-19
 -1      3761 9.44054E-05-2.72109E-05-2.88024E-05-1.34150E-06-7.76184E-19-3.62855E-19
 -1      3762 9.43198E-05-2.71605E-05-2.87790E-05-1.15719E-06-6.96866E-19-6.72409E-19
 -1      3763 9.38535E-05-2.65137E-05-2.88588E-05-1.94362E-06 2.02387E-19-2.59750E-19
 -1      3764 9.40336E-05-2.67579E-05-2.88384E-05-1.70889E-06-3.13279E-19-2.24168E-19
 -1      3765 9.39062E-05-2.66810E-05-2.88059E-05-1.46344E-06-5.00280E-19-7.78179E-19
 -1      3766 9.33084E-05-2.59253E-05-2.88778E-05-2.44872E-06 6.15188E-19-8.27469E-20
 -1      3767 9.35473E-05-2.62153E-05-2.88641E-05-2.16333E-06 7.23565E-19 3.84197E-20
 -1      3768 9.33710E-05-2.61083E-05-2.88200E-05-1.83977E-06 1.10046E-19-4.59335E-19
 -1      3769 9.25978E-05-2.52336E-05-2.88706E-05-3.04816E-06 8.89883E-20-8.63028E-19
 -1      3770 9.29128E-05-2.55723E-05-2.88695E-05-2.70968E-06 4.28129E-19-4.53392E-19
 -1      3771 9.26791E-05-2.54308E-05-2.88114E-05-2.28732E-06 7.53358E-19-3.04345E-20
 -1      3772 9.16792E-05-2.44371E-05-2.88192E-05-3.74370E-06-2.71860E-19-8.57387E-19
 -1      3773 9.20896E-05-2.48232E-05-2.88400E-05-3.35066E-06-1.12071E-20-7.18926E-19
 -1      3774 9.17886E-05-2.46409E-05-2.87651E-05-2.80418E-06 7.86452E-20-5.89854E-19
 -1      3775 9.05050E-05-2.35484E-05-2.86979E-05-4.53755E-06-2.99320E-19-1.16249E-18
 -1      3776 9.10311E-05-2.39722E-05-2.87540E-05-4.08803E-06-2.64181E-19-9.50679E-19
 -1      3777 9.06497E-05-2.37388E-05-2.86595E-05-3.38630E-06 6.44404E-20-1.06045E-18
 -1      3778 8.90262E-05-2.26037E-05-2.84697E-05-5.43980E-06 5.54835E-19-1.52326E-18
 -1      3779 8.96849E-05-2.30411E-05-2.85801E-05-4.92723E-06-1.83126E-19-9.72574E-19
 -1      3780 8.92039E-05-2.27372E-05-2.84639E-05-4.03143E-06-2.81763E-19-1.30023E-18
 -1      3781 8.71996E-05-2.16781E-05-2.80827E-05-6.48488E-06 2.28285E-19-1.36828E-18
 -1      3782 8.79972E-05-2.20810E-05-2.82740E-05-5.88893E-06 7.47813E-19-1.30499E-18
 -1      3783 8.73831E-05-2.16689E-05-2.81346E-05-4.74940E-06 5.53213E-19-6.09010E-19
 -1      3784 8.49991E-05-2.09075E-05-2.74657E-05-7.76283E-06-3.17837E-19-1.38302E-18
 -1      3785 8.59181E-05-2.11903E-05-2.77738E-05-7.03219E-06 2.35187E-19-1.40315E-18
 -1      3786 8.51068E-05-2.05958E-05-2.76100E-05-5.58323E-06 1.92254E-19-4.28046E-19
 -1      3787 8.24369E-05-2.05273E-05-2.65228E-05-9.48105E-06-2.29511E-18-1.52488E-18
 -1      3788 8.34110E-05-2.05382E-05-2.69936E-05-8.49572E-06-1.39893E-18-1.46256E-18
 -1      3789 8.22787E-05-1.96223E-05-2.68031E-05-6.64800E-06-8.43742E-19-4.20909E-19
 -1      3790 7.97352E-05-2.09305E-05-2.51925E-05-1.20998E-05-2.53824E-18-9.42066E-19
 -1      3791 8.04162E-05-2.03883E-05-2.58142E-05-1.05574E-05-2.34897E-18-1.65329E-18
 -1      3792 7.87703E-05-1.88972E-05-2.55895E-05-8.17691E-06-2.04615E-18-2.93106E-19
 -1      3793 5.82577E-05-1.51242E-05-1.85400E-05 8.78154E-06 1.65239E-18-2.10003E-18
 -1      3794 5.69040E-05-1.37739E-05-1.82456E-05 2.33162E-08 1.62383E-18-3.88672E-18
 -1      3795 6.22560E-05-1.53078E-05-1.99515E-05-3.92644E-06 7.81117E-19-3.87786E-18
 -1      3796 9.55391E-05-2.88013E-05-2.86004E-05-5.55286E-07 5.37374E-20-3.47546E-19
 -1      3797 9.55823E-05-2.88635E-05-2.85945E-05-5.73298E-07 2.85319E-19-6.39448E-19
 -1      3798 9.55566E-05-2.87849E-05-2.86171E-05-5.07007E-07 4.53369E-20-6.36337E-19
 -1      3799 9.58963E-05-2.91066E-05-2.86229E-05-7.33015E-07 1.99098E-19-1.17907E-18
 -1      3800 9.59492E-05-2.91250E-05-2.86383E-05-7.68706E-07 2.99236E-19-1.31350E-18
 -1      3801 7.13603E-05-2.30725E-05-2.07737E-05 1.92733E-05 1.66210E-18-1.09918E-18
 -1      3802 6.35543E-05-1.78033E-05-1.93125E-05 1.46592E-05 1.44979E-18-1.96727E-18
 -1      3803 6.55513E-05-1.70011E-05-2.06775E-05 9.46772E-06 1.68877E-18-2.39303E-18
 -1      3804 9.51786E-05-2.82790E-05-2.86697E-05-6.39367E-07-3.48753E-19-5.73716E-19
 -1      3805 9.52300E-05-2.83782E-05-2.86526E-05-5.95119E-07 7.78787E-20-5.82335E-19
 -1      3806 9.50963E-05-2.81726E-05-2.86808E-05-6.14646E-07-1.85693E-19 6.27188E-20
 -1      3807 9.63796E-05-2.82654E-05-2.91953E-05-4.99165E-07 2.73368E-19-1.75949E-18
 -1      3808 9.63708E-05-2.79447E-05-2.93202E-05-2.88438E-07 3.89573E-19-1.82591E-18
 -1      3809 9.64486E-05-2.76029E-05-2.95053E-05-9.79807E-08 5.45328E-19-1.84371E-18
 -1      3810 9.65465E-05-2.83495E-05-2.92286E-05-4.59771E-07 2.28828E-19-1.60638E-18
 -1      3811 9.57318E-05-2.66151E-05-2.96264E-05 8.38437E-07 1.35588E-18-2.16349E-18
 -1      3812 9.56613E-05-2.61126E-05-2.97988E-05 1.38301E-06 1.58593E-18-2.08613E-18
 -1      3813 9.55963E-05-2.55704E-05-3.00182E-05 1.60185E-06 1.69099E-18-2.07110E-18
 -1      3814 9.58958E-05-2.65092E-05-2.97387E-05 7.48083E-07 1.16844E-18-1.89625E-18
 -1      3815 9.53094E-05-2.84801E-05-2.86395E-05-5.68776E-07 3.73387E-19-7.90957E-19
 -1      3816 9.53546E-05-2.85647E-05-2.86256E-05-5.49347E-07 6.06922E-19-7.39294E-19
 -1      3817 9.54164E-05-2.86109E-05-2.86312E-05-5.05425E-07 2.95174E-19-8.74991E-19
 -1      3818 9.56556E-05-2.50298E-05-3.02712E-05-1.27785E-06-7.80433E-19-2.29096E-18
 -1      3819 9.59400E-05-2.58817E-05-3.00296E-05-7.66881E-07-6.54825E-19-2.21463E-18
 -1      3820 9.60819E-05-2.60075E-05-3.00283E-05-5.77712E-07-5.90481E-19-2.03958E-18
 -1      3821 9.55507E-05-2.46325E-05-3.03907E-05-1.11840E-06-6.00873E-19-2.17125E-18
 -1      3822 1.11121E-04-4.65025E-05-2.79014E-05-2.45488E-05 7.22982E-19 2.69499E-18
 -1      3823 9.44539E-05-2.23204E-05-3.09208E-05 2.12339E-06 1.44349E-18-2.73009E-18
 -1      3824 9.40564E-05-2.14138E-05-3.11376E-05-1.11872E-06-1.76476E-19-3.06874E-18
 -1      3825 9.41852E-05-2.17060E-05-3.10797E-05-1.63055E-06-4.16381E-19-2.98499E-18
 -1      3826 9.50613E-05-2.33863E-05-3.07021E-05-1.20357E-06-5.10250E-19-2.59325E-18
 -1      3827 9.47169E-05-2.25844E-05-3.08955E-05-7.09716E-07-6.31103E-20-2.91298E-18
 -1      3828 1.12012E-04-1.37970E-05-4.24875E-05-6.25378E-07-2.45280E-18-1.05471E-18
 -1      3829 9.60533E-05-2.66114E-05-2.97671E-05 5.24159E-07 8.28331E-19-1.78768E-18
 -1      3830 9.59329E-05-2.61684E-05-2.98925E-05 8.94482E-07 1.17642E-18-1.90675E-18
 -1      3831 9.61992E-05-2.66821E-05-2.97910E-05 3.91560E-07 7.78250E-19-1.71468E-18
 -1      3832 9.63202E-05-2.88731E-05-2.89025E-05-7.90981E-07 4.50119E-19-1.71178E-18
 -1      3833 9.65176E-05-2.88045E-05-2.90215E-05-6.58200E-07 4.07352E-19-1.79968E-18
 -1      3834 9.62727E-05-2.89830E-05-2.88390E-05-8.34300E-07 5.72884E-19-1.66005E-18
 -1      3835 9.61358E-05-2.91945E-05-2.86910E-05-7.06359E-07 9.46796E-20-1.31505E-18
 -1      3836 9.60266E-05-2.91384E-05-2.86654E-05-8.00869E-07 1.50047E-19-1.46137E-18
 -1      3837 9.60819E-05-2.91292E-05-2.86927E-05-8.25701E-07 9.81078E-20-1.72669E-18
 -1      3838 9.57712E-05-2.90326E-05-2.86008E-05-6.60257E-07 8.98967E-20-1.16534E-18
 -1      3839 9.58203E-05-2.90699E-05-2.86072E-05-6.96865E-07 1.09084E-19-1.11860E-18
 -1      3840 9.59842E-05-2.91480E-05-2.86457E-05-6.48117E-07 1.84691E-19-1.31346E-18
 -1      3841 9.56951E-05-2.89340E-05-2.86129E-05-5.36861E-07 5.59418E-20-5.64643E-19
 -1      3842 9.56527E-05-2.89287E-05-2.85945E-05-5.97229E-07-4.34673E-20-8.10053E-19
 -1      3843 9.56982E-05-2.89797E-05-2.85940E-05-6.27397E-07-1.46398E-21-8.92240E-19
 -1      3844 7.41008E-05-2.05211E-05-2.30129E-05-1.38601E-05-1.26746E-18-2.23158E-18
 -1      3845 7.11658E-05-1.79892E-05-2.27250E-05-1.02119E-05-1.32448E-18-2.01286E-18
 -1      3846 9.52664E-05-2.84088E-05-2.86530E-05-5.39092E-07 9.43832E-20-3.01445E-19
 -1      3847 9.59813E-05-2.90185E-05-2.87006E-05-9.39281E-07 4.43332E-19-1.67439E-18
 -1      3848 7.78353E-05-2.64055E-05-2.18220E-05 2.07969E-05 1.23083E-18-1.18187E-18
 -1      3849 7.49509E-05-2.29891E-05-2.23049E-05 1.66157E-05 1.35527E-18-1.83845E-18
 -1      3850 8.43800E-05-3.02895E-05-2.32185E-05 2.04543E-05 7.29593E-19-8.19260E-19
 -1      3851 9.50582E-05-2.33371E-05-3.07460E-05 1.98544E-07 3.29977E-19-3.06998E-18
 -1      3852 9.50550E-05-2.33409E-05-3.07458E-05-1.77526E-07 1.35188E-19-3.04171E-18
 -1      3853 9.49977E-05-2.33261E-05-3.07012E-05 1.53256E-06 1.19046E-18-2.57625E-18
 -1      3854 1.03636E-04-4.28533E-05-2.59671E-05 1.71291E-05 1.78358E-18-2.32934E-18
 -1      3855 1.00022E-04-4.21821E-05-2.47763E-05 2.12195E-05 1.50689E-18-2.47377E-18
 -1      3856 9.30589E-05-3.67357E-05-2.41589E-05 2.11488E-05 1.10066E-18-2.15496E-18
 -1      3857 1.00008E-04-3.96853E-05-2.57805E-05 1.71208E-05 1.37453E-18-2.40550E-18
 -1      3858 9.51366E-05-2.35851E-05-3.06819E-05 8.29828E-07 7.08124E-19-2.75989E-18
 -1      3859 9.50807E-05-2.34053E-05-3.07246E-05 4.83116E-07 5.26151E-19-2.96899E-18
 -1      3860 9.55861E-05-2.43678E-05-3.05059E-05 2.52989E-07 3.85783E-19-2.78374E-18
 -1      3861 9.55795E-05-2.51668E-05-3.01799E-05 1.48051E-06 1.46572E-18-2.09878E-18
 -1      3862 9.67124E-05-2.78769E-05-2.94981E-05 1.53411E-07-1.38087E-19-1.70874E-18
 -1      3863 9.67585E-05-2.82580E-05-2.93608E-05 3.05895E-07-3.70594E-20-1.46907E-18
 -1      3864 9.67893E-05-2.85669E-05-2.92356E-05 3.77868E-07-5.93183E-20-1.29463E-18
 -1      3865 9.67713E-05-2.88015E-05-2.91316E-05 4.63553E-07 7.17331E-20-1.25435E-18
 -1      3866 9.68537E-05-2.83653E-05-2.93518E-05 2.53619E-07 3.47659E-21-1.48984E-18
 -1      3867 9.67388E-05-2.89818E-05-2.90366E-05 4.95482E-07-4.51228E-20-1.23889E-18
 -1      3868 9.66830E-05-2.91112E-05-2.89598E-05 5.33283E-07-2.14563E-19-9.66503E-19
 -1      3869 9.68496E-05-2.88836E-05-2.91291E-05 3.67628E-07 1.32698E-19-1.38992E-18
 -1      3870 9.66127E-05-2.91996E-05-2.88897E-05 5.38077E-07-5.17803E-19-9.32955E-19
 -1      3871 9.65373E-05-2.92554E-05-2.88348E-05 5.44664E-07-4.92767E-19-8.78145E-19
 -1      3872 9.67459E-05-2.91720E-05-2.89617E-05 4.16973E-07-2.76224E-19-1.33883E-18
 -1      3873 9.64474E-05-2.92803E-05-2.87847E-05 5.33000E-07-6.72223E-19-1.04198E-18
 -1      3874 9.63638E-05-2.92853E-05-2.87471E-05 5.21286E-07-6.55175E-19-1.36166E-18
 -1      3875 9.65858E-05-2.92977E-05-2.88396E-05 4.23009E-07-7.09805E-19-1.29704E-18
 -1      3876 9.62662E-05-2.92672E-05-2.87130E-05 5.01285E-07-6.52658E-19-1.57488E-18
 -1      3877 9.61811E-05-2.92374E-05-2.86891E-05 4.80942E-07-7.05625E-19-1.22616E-18
 -1      3878 9.63995E-05-2.93116E-05-2.87538E-05 4.03651E-07-8.55895E-19-1.56089E-18
 -1      3879 9.60819E-05-2.91899E-05-2.86676E-05 4.59143E-07-7.78712E-19-1.32161E-18
 -1      3880 9.59989E-05-2.91364E-05-2.86541E-05 4.37692E-07-9.19113E-19-1.27235E-18
 -1      3881 9.62041E-05-2.92483E-05-2.86970E-05 3.72881E-07-7.30422E-19-1.71410E-18
 -1      3882 9.59010E-05-2.90685E-05-2.86424E-05 4.18417E-07-9.06458E-19-1.17253E-18
 -1      3883 9.58206E-05-2.89979E-05-2.86371E-05 4.01368E-07-6.14250E-19-1.37260E-18
 -1      3884 9.60086E-05-2.91319E-05-2.86629E-05 3.41068E-07-8.12307E-19-1.26390E-18
 -1      3885 9.57242E-05-2.89145E-05-2.86330E-05 3.88090E-07-3.04344E-19-1.14471E-18
 -1      3886 9.56450E-05-2.88297E-05-2.86340E-05 3.79650E-07-1.56690E-19-9.09696E-19
 -1      3887 9.58162E-05-2.89771E-05-2.86464E-05 3.15432E-07-4.29047E-19-1.23302E-18
 -1      3888 9.55477E-05-2.87326E-05-2.86357E-05 3.75364E-07-3.06043E-19-5.94320E-19
 -1      3889 9.54672E-05-2.86347E-05-2.86414E-05 3.79130E-07-2.77309E-19-3.73992E-19
 -1      3890 9.56245E-05-2.87911E-05-2.86434E-05 3.02963E-07-3.82400E-20-9.71844E-19
 -1      3891 9.53650E-05-2.85235E-05-2.86474E-05 3.86317E-07-4.36259E-19-3.11951E-19
 -1      3892 9.52792E-05-2.84115E-05-2.86566E-05 4.05590E-07-1.85916E-19-1.26149E-19
 -1      3893 9.54270E-05-2.85756E-05-2.86507E-05 3.08297E-07-2.02632E-19-3.33396E-19
 -1      3894 9.51669E-05-2.82843E-05-2.86655E-05 4.26944E-07-2.26030E-19-1.35594E-19
 -1      3895 9.50711E-05-2.81559E-05-2.86771E-05 4.65080E-07 1.10151E-20 7.15972E-20
 -1      3896 9.52148E-05-2.83282E-05-2.86651E-05 3.36692E-07-2.35570E-19 8.07159E-20
 -1      3897 9.49424E-05-2.80099E-05-2.86875E-05 5.03792E-07 4.44753E-19-2.05144E-19
 -1      3898 9.48316E-05-2.78626E-05-2.87001E-05 5.64419E-07 5.82929E-19-2.61234E-19
 -1      3899 9.49763E-05-2.80440E-05-2.86841E-05 3.93732E-07 9.25904E-20 5.75475E-19
 -1      3900 9.46794E-05-2.76947E-05-2.87105E-05 6.24115E-07 3.30015E-19-4.97097E-19
 -1      3901 9.45480E-05-2.75263E-05-2.87227E-05 7.11485E-07 4.29360E-19-2.11710E-19
 -1      3902 9.46983E-05-2.77169E-05-2.87044E-05 4.85754E-07 3.09265E-19-1.12857E-20
 -1      3903 9.43650E-05-2.73340E-05-2.87311E-05 7.96928E-07 3.79918E-19-5.18969E-19
 -1      3904 9.42080E-05-2.71434E-05-2.87410E-05 9.16043E-07 4.14555E-19 1.17528E-19
 -1      3905 9.43662E-05-2.73408E-05-2.87224E-05 6.20765E-07 4.42851E-19 9.48069E-20
 -1      3906 9.39868E-05-2.69260E-05-2.87448E-05 1.03326E-06 6.86085E-19-1.31420E-19
 -1      3907 9.38002E-05-2.67147E-05-2.87498E-05 1.19012E-06 7.28910E-19-1.83432E-19
 -1      3908 9.39654E-05-2.69117E-05-2.87336E-05 8.09059E-07 4.92320E-19-1.69709E-19
 -1      3909 9.35345E-05-2.64742E-05-2.87457E-05 1.34694E-06 3.73420E-19 2.00231E-19
 -1      3910 9.33169E-05-2.62479E-05-2.87423E-05 1.54884E-06-8.43737E-20 2.59815E-19
 -1      3911 9.34821E-05-2.64303E-05-2.87319E-05 1.06401E-06 7.70862E-19-3.35475E-19
 -1      3912 9.30024E-05-2.59913E-05-2.87258E-05 1.75547E-06-8.71227E-19 2.98806E-19
 -1      3913 9.27562E-05-2.57615E-05-2.87097E-05 2.01141E-06-4.46393E-19-1.26015E-19
 -1      3914 9.29054E-05-2.59044E-05-2.87093E-05 1.40335E-06-2.25454E-19 2.60675E-19
 -1      3915 9.23923E-05-2.55027E-05-2.86750E-05 2.28143E-06-3.87400E-19-4.48412E-19
 -1      3916 9.21267E-05-2.52901E-05-2.86407E-05 2.60274E-06-3.37793E-19-9.78500E-19
 -1      3917 9.22298E-05-2.53532E-05-2.86552E-05 1.85083E-06-6.15921E-19-2.04414E-20
 -1      3918 9.17186E-05-2.50524E-05-2.85807E-05 2.95430E-06-2.08722E-20-1.40911E-18
 -1      3919 9.14531E-05-2.48898E-05-2.85215E-05 3.35551E-06 2.41844E-20-7.51765E-19
 -1      3920 9.14591E-05-2.48117E-05-2.85565E-05 2.43874E-06-3.91182E-19-8.51581E-19
 -1      3921 9.10148E-05-2.47096E-05-2.84276E-05 3.81320E-06-6.28291E-20-4.77555E-19
 -1      3922 9.07846E-05-2.46460E-05-2.83361E-05 4.31303E-06 1.94610E-19-5.56508E-19
 -1      3923 9.06110E-05-2.43364E-05-2.83967E-05 3.21137E-06 3.95306E-19-1.08207E-18
 -1      3924 9.03440E-05-2.45768E-05-2.81984E-05 4.91017E-06 1.58600E-19-1.06438E-18
 -1      3925 9.02069E-05-2.46831E-05-2.80677E-05 5.53217E-06 7.19857E-19-9.29607E-19
 -1      3926 8.97247E-05-2.40131E-05-2.81563E-05 4.23005E-06 2.60426E-19-1.83956E-18
 -1      3927 8.98136E-05-2.48012E-05-2.78760E-05 6.31088E-06 5.52654E-19-8.08383E-19
 -1      3928 8.98611E-05-2.51738E-05-2.77011E-05 7.08108E-06 2.80247E-19-1.12591E-18
 -1      3929 8.88739E-05-2.39680E-05-2.78137E-05 5.57829E-06 5.32737E-19-2.38265E-18
 -1      3930 8.95889E-05-2.55779E-05-2.74462E-05 8.10151E-06-2.69764E-19-6.94440E-19
 -1      3931 8.99676E-05-2.63578E-05-2.72280E-05 9.05110E-06-1.03744E-19-1.28523E-18
 -1      3932 8.81735E-05-2.43629E-05-2.73471E-05 7.36472E-06 1.22091E-19-1.36536E-18
 -1      3933 8.99568E-05-2.71942E-05-2.69058E-05 1.03719E-05 3.89016E-19-1.11645E-18
 -1      3934 9.08826E-05-2.85730E-05-2.66595E-05 1.15089E-05 7.12082E-19-1.45283E-18
 -1      3935 8.78301E-05-2.54617E-05-2.67381E-05 9.73520E-06-4.31445E-20-1.51491E-18
 -1      3936 9.14016E-05-3.00605E-05-2.62802E-05 1.31615E-05 9.95844E-19-1.55466E-18
 -1      3937 9.31229E-05-3.22487E-05-2.60390E-05 1.44458E-05 1.32384E-18-1.59408E-18
 -1      3938 8.81906E-05-2.76514E-05-2.59844E-05 1.28530E-05 1.03080E-18-1.53230E-18
 -1      3939 9.47719E-05-2.77603E-05-2.87186E-05-6.73804E-07-1.40801E-19-8.24843E-19
 -1      3940 9.48854E-05-2.79184E-05-2.87026E-05-6.02410E-07 1.84281E-19-4.15570E-19
 -1      3941 9.35809E-05-2.64094E-05-2.87886E-05-1.31653E-06-3.87281E-19-1.38281E-18
 -1      3942 9.38182E-05-2.66783E-05-2.87791E-05-1.15912E-06-6.08135E-19-1.36825E-18
 -1      3943 9.29432E-05-2.57789E-05-2.87865E-05-1.63391E-06 9.59209E-21-7.77123E-19
 -1      3944 9.32504E-05-2.60970E-05-2.87861E-05-1.44606E-06-5.44508E-19-1.28368E-18
 -1      3945 9.32128E-05-2.60888E-05-2.87604E-05-1.12133E-06-6.01962E-19-1.11850E-18
 -1      3946 9.21263E-05-2.50395E-05-2.87546E-05-1.99844E-06 5.58780E-19 4.06121E-19
 -1      3947 9.25231E-05-2.54115E-05-2.87695E-05-1.78195E-06 7.52424E-19 3.27846E-19
 -1      3948 9.24725E-05-2.53961E-05-2.87377E-05-1.36294E-06-1.93688E-19-3.28511E-19
 -1      3949 9.10846E-05-2.41860E-05-2.86758E-05-2.40127E-06 2.28856E-19-7.26855E-19
 -1      3950 9.15943E-05-2.46136E-05-2.87151E-05-2.15999E-06 4.28028E-19-2.98782E-19
 -1      3951 9.15340E-05-2.45923E-05-2.86769E-05-1.62331E-06 8.05216E-19 2.73759E-19
 -1      3952 8.97632E-05-2.32206E-05-2.85256E-05-2.82992E-06-1.36935E-19-5.58029E-19
 -1      3953 9.04137E-05-2.37012E-05-2.86023E-05-2.56895E-06 8.85704E-22-5.95605E-19
 -1      3954 9.03492E-05-2.36750E-05-2.85585E-05-1.88566E-06 1.95039E-21-4.16864E-19
 -1      3955 8.80956E-05-2.21572E-05-2.82696E-05-3.27213E-06-4.27274E-19-5.32054E-19
 -1      3956 8.89196E-05-2.26816E-05-2.84020E-05-2.99505E-06-2.02604E-19-5.37435E-19
 -1      3957 8.88591E-05-2.26486E-05-2.83546E-05-2.12783E-06-2.69709E-19-6.85995E-20
 -1      3958 8.59980E-05-2.10249E-05-2.78592E-05-3.72569E-06 4.57527E-19 2.85548E-19
 -1      3959 8.70346E-05-2.15748E-05-2.80732E-05-3.42805E-06-3.42817E-19-2.50156E-19
 -1      3960 8.69882E-05-2.15267E-05-2.80266E-05-2.32565E-06-7.36265E-19-6.92764E-21
 -1      3961 8.33593E-05-1.98734E-05-2.72252E-05-4.21900E-06-2.40706E-19 4.07640E-19
 -1      3962 8.46557E-05-2.04172E-05-2.75576E-05-3.87538E-06 5.19353E-19 7.17206E-19
 -1      3963 8.46327E-05-2.03300E-05-2.75196E-05-2.46199E-06-1.32487E-19 1.02478E-18
 -1      3964 8.00193E-05-1.87673E-05-2.62682E-05-4.84357E-06-1.29813E-18 7.53568E-19
 -1      3965 8.16340E-05-1.92621E-05-2.67712E-05-4.38611E-06-6.15104E-19 3.96423E-19
 -1      3966 8.16377E-05-1.90811E-05-2.67543E-05-2.54278E-06-2.85560E-19 1.60819E-18
 -1      3967 7.58496E-05-1.78437E-05-2.48511E-05-5.78481E-06-2.12869E-18-1.35993E-19
 -1      3968 7.77581E-05-1.82043E-05-2.55890E-05-5.12038E-06-1.63159E-18 6.34825E-19
 -1      3969 7.77442E-05-1.77845E-05-2.56100E-05-2.64551E-06-1.42385E-18 1.28695E-18
 -1      3970 9.52231E-05-2.83387E-05-2.86637E-05-4.81762E-07-2.39706E-19-2.59173E-19
 -1      3971 9.53029E-05-2.84524E-05-2.86516E-05-4.55340E-07-4.42715E-20-4.71292E-19
 -1      3972 9.40777E-05-2.69413E-05-2.87729E-05-1.05073E-06-8.14715E-19-1.07936E-18
 -1      3973 9.42612E-05-2.71669E-05-2.87587E-05-9.23702E-07-5.62933E-19-1.07479E-18
 -1      3974 9.37951E-05-2.66785E-05-2.87591E-05-9.09315E-07-3.33394E-19-1.33193E-18
 -1      3975 6.46396E-05-1.51829E-05-2.12808E-05-1.02796E-06 7.39735E-19-3.33641E-18
 -1      3976 6.64956E-05-1.63506E-05-2.13763E-05-7.95567E-06 1.32984E-19-2.99005E-18
 -1      3977 9.44658E-05-2.73872E-05-2.87477E-05-8.37163E-07-4.06074E-19-8.46392E-19
 -1      3978 9.46089E-05-2.75759E-05-2.87316E-05-7.39098E-07-3.16051E-19-1.12213E-18
 -1      3979 9.46164E-05-2.75949E-05-2.87210E-05-5.93010E-07-1.22540E-19-6.07177E-19
 -1      3980 9.42534E-05-2.71763E-05-2.87436E-05-7.32587E-07-5.56637E-19-8.45736E-19
 -1      3981 9.55665E-05-2.87609E-05-2.86297E-05-4.36844E-07 2.14976E-19-7.27771E-19
 -1      3982 9.56364E-05-2.88449E-05-2.86254E-05-4.43202E-07 1.16753E-19-6.51733E-19
 -1      3983 9.56973E-05-2.52397E-05-3.01945E-05 1.20293E-06 1.21766E-18-2.01433E-18
 -1      3984 9.55945E-05-2.47702E-05-3.03629E-05 1.21538E-06 1.09504E-18-2.23131E-18
 -1      3985 9.53250E-05-2.40067E-05-3.05590E-05 9.95969E-07 7.97943E-19-2.43382E-18
 -1      3986 9.57728E-05-2.48944E-05-3.03601E-05 6.23761E-07 5.85448E-19-2.39328E-18
 -1      3987 9.59721E-05-2.57992E-05-3.00781E-05 6.75074E-07 9.11954E-19-2.00122E-18
 -1      3988 9.54018E-05-2.85654E-05-2.86430E-05-4.43526E-07 3.08618E-20-5.68927E-19
 -1      3989 9.54744E-05-2.86632E-05-2.86343E-05-4.35082E-07 1.45086E-19-7.63998E-19
 -1      3990 9.53585E-05-2.85004E-05-2.86534E-05-3.81866E-07-9.09052E-20-2.28856E-19
 -1      3991 6.93496E-05-1.81481E-05-2.20468E-05 1.01270E-05 1.56424E-18-2.24580E-18
 -1      3992 6.60215E-05-1.55110E-05-2.14625E-05 4.72818E-06 1.93876E-18-3.33294E-18
 -1      3993 9.50181E-05-2.80735E-05-2.86897E-05-5.56882E-07-1.03862E-19-7.08308E-20
 -1      3994 9.51111E-05-2.82070E-05-2.86751E-05-5.09387E-07-1.09994E-19-1.27955E-19
 -1      3995 9.51502E-05-2.82456E-05-2.86726E-05-4.20419E-07-1.42178E-19-4.24964E-19
 -1      3996 9.56704E-05-2.45406E-05-3.04690E-05-1.89788E-07-5.13103E-20-2.81228E-18
 -1      3997 9.51587E-05-2.35575E-05-3.06880E-05-4.09369E-07 1.67699E-20-2.81178E-18
 -1      3998 9.53036E-05-2.39116E-05-3.06092E-05-6.68087E-07-2.21489E-19-2.61459E-18
 -1      3999 9.64294E-05-2.68052E-05-2.98374E-05-2.10707E-07-2.15349E-19-2.06903E-18
 -1      4000 9.65807E-05-2.73859E-05-2.96593E-05 2.61671E-08-1.62200E-19-1.95977E-18
 -1      4001 9.66973E-05-2.75322E-05-2.96406E-05 4.97825E-08 3.28053E-20-1.84835E-18
 -1      4002 9.61561E-05-2.91075E-05-2.87348E-05-8.43888E-07 2.56976E-19-1.72385E-18
 -1      4003 9.62105E-05-2.90574E-05-2.87777E-05-8.44135E-07 5.72673E-19-1.73447E-18
 -1      4004 9.64203E-05-2.90609E-05-2.88703E-05-7.39607E-07 6.50841E-19-1.80153E-18
 -1      4005 6.90106E-05-1.61473E-05-2.26062E-05 5.29518E-07 1.19174E-18-2.61961E-18
 -1      4006 9.63583E-05-2.68110E-05-2.98078E-05 2.06191E-07 5.70282E-19-1.93167E-18
 -1      4007 9.62043E-05-2.63507E-05-2.99356E-05 4.79621E-07 7.21726E-19-1.90363E-18
 -1      4008 9.61235E-05-2.59398E-05-3.00867E-05 4.81191E-07 7.16807E-19-2.01847E-18
 -1      4009 9.59461E-05-2.52728E-05-3.02974E-05 2.88394E-07 3.69554E-19-2.70812E-18
 -1      4010 9.59295E-05-2.52064E-05-3.03174E-05 7.47186E-08 1.26684E-19-2.67213E-18
 -1      4011 9.55475E-05-2.87197E-05-2.86409E-05-3.70004E-07 1.32637E-19-3.91698E-19
 -1      4012 9.48205E-05-3.43308E-05-2.58777E-05 1.55479E-05 1.61923E-18-1.31884E-18
 -1      4013 9.72859E-05-3.69214E-05-2.58129E-05 1.62850E-05 1.68082E-18-2.04083E-18
 -1      4014 9.42431E-05-3.57943E-05-2.51203E-05 1.83191E-05 1.24874E-18-1.52353E-18
 -1      4015 9.02400E-05-3.12541E-05-2.53824E-05 1.60466E-05 1.24806E-18-2.03189E-18
 -1      4016 9.62238E-05-2.92422E-05-2.87054E-05-5.94700E-07 8.64762E-20-1.38285E-18
 -1      4017 9.63012E-05-2.92497E-05-2.87353E-05-6.14318E-07-1.13245E-20-1.41344E-18
 -1      4018 9.66511E-05-2.89122E-05-2.90320E-05-5.86878E-07 6.78368E-19-2.09602E-18
 -1      4019 9.66861E-05-2.87265E-05-2.91225E-05-5.13750E-07 3.94661E-19-1.84916E-18
 -1      4020 9.58369E-05-2.90571E-05-2.86212E-05-5.87281E-07-1.26263E-19-1.05569E-18
 -1      4021 9.57263E-05-2.89290E-05-2.86261E-05-4.55775E-07-2.82928E-20-7.37245E-19
 -1      4022 9.57969E-05-2.90001E-05-2.86274E-05-4.73209E-07 1.04605E-19-6.08601E-19
 -1      4023 9.57276E-05-2.89080E-05-2.86378E-05-3.80367E-07-8.34741E-20-6.75278E-19
 -1      4024 9.66258E-05-2.78613E-05-2.94700E-05-2.22892E-07 3.18731E-19-1.75945E-18
 -1      4025 9.65345E-05-2.74044E-05-2.96278E-05 1.72719E-08 5.47497E-19-1.70605E-18
 -1      4026 9.65257E-05-2.70814E-05-2.97600E-05 8.46789E-08 3.70999E-19-1.76185E-18
 -1      4027 7.27931E-05-1.74105E-05-2.37891E-05-7.41582E-06-1.25236E-18-1.35357E-18
 -1      4028 7.21654E-05-1.64360E-05-2.37841E-05-3.88904E-06-7.71478E-19-4.06379E-19
 -1      4029 9.62857E-05-2.91762E-05-2.87632E-05-7.44855E-07 1.91320E-19-1.44264E-18
 -1      4030 9.53512E-05-2.40276E-05-3.05668E-05-8.32102E-07-3.39200E-19-2.55870E-18
 -1      4031 9.55106E-05-2.44690E-05-3.04565E-05-1.00473E-06-5.02442E-19-2.32825E-18
 -1      4032 9.58277E-05-2.52071E-05-3.02637E-05-7.18879E-07-5.67856E-19-2.18356E-18
 -1      4033 9.57793E-05-2.48877E-05-3.03706E-05-5.09954E-07-3.17018E-19-2.33395E-18
 -1      4034 9.63356E-05-2.61110E-05-3.00869E-05 2.77663E-08 8.69841E-20-2.48348E-18
 -1      4035 9.59842E-05-2.53299E-05-3.02835E-05-4.62647E-08 6.56231E-20-2.71160E-18
 -1      4036 9.60678E-05-2.55465E-05-3.02309E-05-2.01887E-07-1.35332E-19-2.59377E-18
 -1      4037 9.49085E-05-2.79472E-05-2.86961E-05-4.89850E-07 1.61280E-19-2.85354E-19
 -1      4038 7.32098E-05-2.00582E-05-2.25929E-05 1.28367E-05 1.79342E-18-2.18102E-18
 -1      4039 7.26994E-05-1.85995E-05-2.32441E-05 8.84061E-06 1.48290E-18-2.44936E-18
 -1      4040 7.79592E-05-2.32360E-05-2.34571E-05 1.46023E-05 1.44383E-18-2.10045E-18
 -1      4041 9.60544E-05-2.91784E-05-2.86599E-05-5.44090E-07 4.25945E-20-1.18962E-18
 -1      4042 9.61303E-05-2.92142E-05-2.86778E-05-5.69937E-07 1.74511E-19-1.33077E-18
 -1      4043 9.62747E-05-2.92714E-05-2.87175E-05-4.85784E-07 4.94270E-20-1.44033E-18
 -1      4044 7.23276E-05-1.67844E-05-2.38438E-05 1.20131E-06 3.48144E-19-1.15969E-18
 -1      4045 9.07818E-05-3.38779E-05-2.42760E-05 1.98755E-05 1.11079E-18-1.79138E-18
 -1      4046 9.66884E-05-2.85081E-05-2.92218E-05-4.48333E-07 2.53019E-19-1.72073E-18
 -1      4047 9.66820E-05-2.82179E-05-2.93427E-05-3.06365E-07 2.53001E-19-1.80247E-18
 -1      4048 9.67611E-05-2.80476E-05-2.94527E-05-2.09709E-07 3.11254E-19-1.82399E-18
 -1      4049 9.67952E-05-2.85979E-05-2.92269E-05-3.84464E-07 4.93930E-19-2.21249E-18
 -1      4050 9.60610E-05-2.57737E-05-3.01248E-05-5.61642E-07-5.21708E-19-2.13593E-18
 -1      4051 9.62627E-05-2.63632E-05-2.99592E-05-3.28251E-07-3.76632E-19-2.00155E-18
 -1      4052 9.63955E-05-2.65538E-05-2.99299E-05-2.02712E-07-1.95229E-19-2.05001E-18
 -1      4053 9.60285E-05-2.55961E-05-3.01873E-05-4.76598E-07-3.61547E-19-2.16706E-18
 -1      4054 8.63617E-05-2.98425E-05-2.42231E-05 1.78852E-05 9.97514E-19-1.46456E-18
 -1      4055 9.60030E-05-2.55149E-05-3.02082E-05 4.16703E-07 4.84277E-19-2.40356E-18
 -1      4056 9.63213E-05-2.62211E-05-3.00358E-05 2.00209E-07 3.63109E-19-2.34211E-18
 -1      4057 9.55231E-05-2.86747E-05-2.86483E-05-2.87494E-07 1.45000E-20-1.52656E-19
 -1      4058 9.56149E-05-2.87789E-05-2.86445E-05-2.85162E-07-3.13251E-21-6.35178E-19
 -1      4059 9.69083E-05-2.81983E-05-2.94443E-05 1.28944E-07 1.15974E-19-1.80240E-18
 -1      4060 9.69324E-05-2.85313E-05-2.93167E-05 2.14636E-07 2.69605E-19-1.56094E-18
 -1      4061 9.64556E-05-2.92861E-05-2.87890E-05-5.17430E-07 4.00879E-21-1.70520E-18
 -1      4062 9.63902E-05-2.92418E-05-2.87773E-05-6.31939E-07 1.17168E-19-1.43009E-18
 -1      4063 9.64644E-05-2.92077E-05-2.88227E-05-6.34772E-07 3.60778E-19-1.41305E-18
 -1      4064 9.69393E-05-2.87958E-05-2.92023E-05 2.32740E-07 2.77303E-19-1.48769E-18
 -1      4065 9.69059E-05-2.89956E-05-2.91050E-05 2.81448E-07 1.33083E-19-1.43785E-18
 -1      4066 9.69703E-05-2.86327E-05-2.92887E-05 1.26595E-07 2.87032E-19-1.66890E-18
 -1      4067 9.68568E-05-2.91436E-05-2.90181E-05 2.79926E-07-6.40829E-20-1.47574E-18
 -1      4068 9.67844E-05-2.92435E-05-2.89458E-05 3.01445E-07-2.82447E-19-1.34946E-18
 -1      4069 9.69278E-05-2.90670E-05-2.90860E-05 1.63472E-07 4.07144E-20-1.60827E-18
 -1      4070 9.67015E-05-2.93072E-05-2.88819E-05 2.94790E-07-5.65951E-19-1.36072E-18
 -1      4071 9.66109E-05-2.93389E-05-2.88301E-05 2.97741E-07-8.44961E-19-1.27503E-18
 -1      4072 9.67875E-05-2.92839E-05-2.89329E-05 1.74394E-07-3.89921E-19-1.36425E-18
 -1      4073 9.65102E-05-2.93440E-05-2.87847E-05 2.88782E-07-1.03982E-18-1.17837E-18
 -1      4074 9.64141E-05-2.93301E-05-2.87492E-05 2.82344E-07-9.10064E-19-1.33272E-18
 -1      4075 9.66006E-05-2.93548E-05-2.88221E-05 1.69177E-07-8.66445E-19-1.12793E-18
 -1      4076 9.63081E-05-2.92953E-05-2.87187E-05 2.67352E-07-6.63053E-19-1.43121E-18
 -1      4077 9.62086E-05-2.92481E-05-2.86961E-05 2.58002E-07-5.44397E-19-1.30670E-18
 -1      4078 9.64010E-05-2.93322E-05-2.87467E-05 1.59450E-07-9.39498E-19-8.45310E-19
 -1      4079 9.61018E-05-2.91862E-05-2.86773E-05 2.43995E-07-6.55532E-19-1.09157E-18
 -1      4080 9.60025E-05-2.91158E-05-2.86647E-05 2.34596E-07-7.87900E-19-9.22394E-19
 -1      4081 9.61888E-05-2.92364E-05-2.86968E-05 1.48533E-07-6.12708E-19-1.00271E-18
 -1      4082 9.58968E-05-2.90345E-05-2.86551E-05 2.26774E-07-6.11134E-19-1.03482E-18
 -1      4083 9.58009E-05-2.89478E-05-2.86503E-05 2.20537E-07-2.40856E-19-8.65369E-19
 -1      4084 9.59721E-05-2.90867E-05-2.86671E-05 1.35119E-07-7.09172E-19-6.51645E-19
 -1      4085 9.56945E-05-2.88499E-05-2.86477E-05 2.13907E-07 7.95394E-20-8.27885E-19
 -1      4086 9.55970E-05-2.87477E-05-2.86489E-05 2.14486E-07 3.58922E-19-7.43765E-19
 -1      4087 9.57666E-05-2.89078E-05-2.86551E-05 1.27061E-07-1.04079E-19-6.69882E-19
 -1      4088 9.54870E-05-2.86344E-05-2.86515E-05 2.13859E-07 1.03021E-19-7.28950E-19
 -1      4089 9.53843E-05-2.85166E-05-2.86570E-05 2.23151E-07-1.54896E-20-2.09429E-19
 -1      4090 9.55514E-05-2.86923E-05-2.86548E-05 1.26497E-07 2.56593E-19-1.44153E-19
 -1      4091 9.52655E-05-2.83867E-05-2.86633E-05 2.29980E-07 1.70734E-19 1.89497E-21
 -1      4092 9.51530E-05-2.82514E-05-2.86717E-05 2.50208E-07 2.04840E-19 3.25494E-19
 -1      4093 9.53245E-05-2.84428E-05-2.86635E-05 1.34589E-07 3.76857E-19-3.55426E-19
 -1      4094 9.50187E-05-2.81014E-05-2.86802E-05 2.65750E-07-1.22771E-19 7.50220E-19
 -1      4095 9.48899E-05-2.79457E-05-2.86901E-05 3.00217E-07 7.88357E-20 6.06106E-19
 -1      4096 9.50746E-05-2.81581E-05-2.86778E-05 1.55834E-07 1.89515E-19 2.01902E-19
 -1      4097 9.47321E-05-2.77722E-05-2.86991E-05 3.26376E-07 1.03524E-19 5.44142E-19
 -1      4098 9.45797E-05-2.75922E-05-2.87089E-05 3.78415E-07 1.62349E-19 4.79234E-19
 -1      4099 9.47865E-05-2.78279E-05-2.86952E-05 1.92828E-07-1.07870E-19-2.77749E-20
 -1      4100 9.43899E-05-2.73912E-05-2.87164E-05 4.18875E-07 1.61901E-19 3.89538E-19
 -1      4101 9.42063E-05-2.71840E-05-2.87239E-05 4.92726E-07 3.69358E-19 2.01764E-19
 -1      4102 9.44430E-05-2.74445E-05-2.87117E-05 2.51712E-07-1.23096E-19 1.76477E-19
 -1      4103 9.39750E-05-2.69524E-05-2.87275E-05 5.51992E-07 2.87647E-19-1.19481E-19
 -1      4104 9.37529E-05-2.67163E-05-2.87301E-05 6.53207E-07 4.77320E-19-1.55254E-19
 -1      4105 9.40264E-05-2.70005E-05-2.87227E-05 3.39462E-07-6.68570E-20-2.08493E-19
 -1      4106 9.34702E-05-2.64526E-05-2.87264E-05 7.37749E-07 6.37394E-19-3.95993E-19
 -1      4107 9.32030E-05-2.61886E-05-2.87205E-05 8.73714E-07 3.11593E-19-6.16586E-19
 -1      4108 9.35172E-05-2.64902E-05-2.87223E-05 4.66519E-07 3.44361E-19-1.47111E-19
 -1      4109 9.28594E-05-2.58943E-05-2.87051E-05 9.92631E-07 1.23037E-20-5.98325E-19
 -1      4110 9.25424E-05-2.56077E-05-2.86861E-05 1.17333E-06-1.23393E-19-4.59206E-19
 -1      4111 9.28957E-05-2.59123E-05-2.87028E-05 6.47823E-07 8.73152E-20-1.04735E-18
 -1      4112 9.21294E-05-2.52889E-05-2.86531E-05 1.33940E-06-8.15957E-19-4.15101E-19
 -1      4113 9.17613E-05-2.49913E-05-2.86150E-05 1.57848E-06-1.14775E-18-8.92235E-19
 -1      4114 9.21433E-05-2.52726E-05-2.86537E-05 9.04670E-07-8.72287E-19-1.45334E-18
 -1      4115 9.12723E-05-2.46607E-05-2.85568E-05 1.80962E-06-9.55449E-19-4.78546E-19
 -1      4116 9.08575E-05-2.43721E-05-2.84919E-05 2.12598E-06-3.22078E-19-9.40164E-19
 -1      4117 9.12442E-05-2.45872E-05-2.85613E-05 1.26733E-06-7.50093E-19-1.09979E-18
 -1      4118 9.02888E-05-2.40510E-05-2.83988E-05 2.44728E-06 3.43705E-19-9.96515E-19
 -1      4119 8.98400E-05-2.38031E-05-2.82978E-05 2.86729E-06 3.55385E-19-1.14599E-18
 -1      4120 9.01867E-05-2.38863E-05-2.84079E-05 1.77869E-06-4.85608E-19-8.45142E-19
 -1      4121 8.91920E-05-2.35238E-05-2.81574E-05 3.31404E-06-2.77819E-19-1.04968E-18
 -1      4122 8.87351E-05-2.33640E-05-2.80093E-05 3.87463E-06 2.21487E-20-1.49807E-18
 -1      4123 8.89659E-05-2.32181E-05-2.81707E-05 2.49951E-06-2.55239E-19-8.57656E-19
 -1      4124 8.80132E-05-2.31726E-05-2.78062E-05 4.49821E-06 4.70706E-19-2.08171E-18
 -1      4125 8.75921E-05-2.31704E-05-2.75987E-05 5.25127E-06 8.00163E-19-2.18885E-18
 -1      4126 8.75836E-05-2.26533E-05-2.78210E-05 3.51616E-06-8.33991E-20-1.36328E-18
 -1      4127 8.68278E-05-2.31487E-05-2.73149E-05 6.11162E-06 7.35411E-19-2.05558E-18
 -1      4128 8.65150E-05-2.33712E-05-2.70370E-05 7.09990E-06 3.10111E-19-1.59522E-18
 -1      4129 8.60699E-05-2.23194E-05-2.73229E-05 4.96664E-06 7.36966E-19-2.63404E-18
 -1      4130 8.57018E-05-2.36119E-05-2.66469E-05 8.37503E-06-1.31993E-19-1.46852E-18
 -1      4131 8.56536E-05-2.42373E-05-2.62868E-05 9.65455E-06 3.92494E-19-1.93691E-18
 -1      4132 8.44152E-05-2.22363E-05-2.66319E-05 6.92179E-06 3.94331E-19-2.83454E-18
 -1      4133 8.49021E-05-2.77334E-05-2.44789E-05 1.62464E-05 1.00466E-18-1.45011E-18
 -1      4134 9.58882E-05-2.90702E-05-2.86349E-05-4.94338E-07-2.94184E-19-9.98210E-19
 -1      4135 9.59611E-05-2.91259E-05-2.86435E-05-5.18785E-07-3.04281E-19-1.20304E-18
 -1      4136 9.59071E-05-2.90675E-05-2.86469E-05-4.07595E-07-7.88037E-20-7.91145E-19
 -1      4137 9.29014E-05-2.58517E-05-2.87389E-05-8.62490E-07-6.08216E-19-5.91148E-19
 -1      4138 9.32322E-05-2.61723E-05-2.87444E-05-7.65877E-07-2.95867E-19-5.25683E-19
 -1      4139 8.97540E-05-2.33527E-05-2.84678E-05-1.26243E-06 1.38357E-19 4.38475E-19
 -1      4140 9.04249E-05-2.38307E-05-2.85478E-05-1.17583E-06 3.70338E-19 4.63534E-19
 -1      4141 8.81429E-05-2.23215E-05-2.82232E-05-1.29833E-06-3.33613E-19 5.91627E-19
 -1      4142 8.89865E-05-2.28462E-05-2.83547E-05-1.24177E-06-5.15919E-20 6.51190E-19
 -1      4143 8.92213E-05-2.30188E-05-2.83549E-05-4.95881E-07-2.25394E-20 8.29772E-19
 -1      4144 8.61340E-05-2.12153E-05-2.78418E-05-1.22469E-06-1.10790E-18 4.60297E-19
 -1      4145 8.71956E-05-2.17774E-05-2.80476E-05-1.21510E-06-2.76780E-19 7.14902E-19
 -1      4146 8.75365E-05-2.20007E-05-2.80638E-05-2.83312E-07-2.40840E-19 1.66041E-18
 -1      4147 8.36133E-05-2.00563E-05-2.72652E-05-9.98193E-07-6.59329E-20 8.92392E-19
 -1      4148 8.49589E-05-2.06467E-05-2.75775E-05-1.05028E-06-8.62429E-19 2.09734E-19
 -1      4149 8.54581E-05-2.09342E-05-2.76224E-05 1.20420E-07-8.38554E-19 2.08051E-19
 -1      4150 8.03960E-05-1.88679E-05-2.64089E-05-5.69972E-07-3.33205E-19 1.29314E-18
 -1      4151 8.21366E-05-1.94868E-05-2.68746E-05-7.03519E-07 2.09000E-19 1.34384E-18
 -1      4152 8.28747E-05-1.98382E-05-2.69687E-05 7.88443E-07-2.97752E-20 6.24968E-19
 -1      4153 7.61828E-05-1.76176E-05-2.51562E-05 5.45018E-08-7.25929E-19 3.63629E-20
 -1      4154 7.84849E-05-1.82980E-05-2.58355E-05-1.42072E-07-3.75047E-19 1.13299E-18
 -1      4155 7.95714E-05-1.86585E-05-2.60087E-05 1.76170E-06 1.66853E-19 4.49906E-19
 -1      4156 9.20794E-05-2.51240E-05-2.87000E-05-1.01530E-06-2.47645E-19-2.08740E-19
 -1      4157 9.24997E-05-2.54964E-05-2.87209E-05-9.12164E-07-9.67332E-19-8.28803E-19
 -1      4158 9.25858E-05-2.55816E-05-2.87078E-05-5.37015E-07-6.02313E-19-2.60006E-19
 -1      4159 9.65748E-05-2.69439E-05-2.98453E-05 1.08314E-07 3.38713E-19-2.23825E-18
 -1      4160 9.65185E-05-2.66925E-05-2.99257E-05 5.47801E-08 2.68116E-19-2.45427E-18
 -1      4161 9.67447E-05-2.75124E-05-2.96653E-05-6.29107E-08 2.61411E-19-2.22425E-18
 -1      4162 9.53145E-05-2.84374E-05-2.86609E-05-3.01844E-07-4.73747E-19 1.47321E-19
 -1      4163 9.54131E-05-2.85581E-05-2.86530E-05-2.88795E-07-1.44547E-20-1.04444E-20
 -1      4164 9.54770E-05-2.86150E-05-2.86555E-05-2.04440E-07-1.46547E-19-1.00188E-19
 -1      4165 7.41691E-05-1.74243E-05-2.41930E-05 3.87037E-06 7.12297E-19-1.71723E-18
 -1      4166 9.50817E-05-2.81618E-05-2.86795E-05-3.37246E-07 1.55922E-19-3.24857E-19
 -1      4167 9.51933E-05-2.83024E-05-2.86689E-05-3.11663E-07-1.52270E-19 5.09384E-20
 -1      4168 9.52494E-05-2.83567E-05-2.86678E-05-2.16733E-07-2.28070E-19 5.57182E-20
 -1      4169 9.65419E-05-2.91476E-05-2.88832E-05-6.38707E-07 3.92328E-19-1.76760E-18
 -1      4170 9.66021E-05-2.90508E-05-2.89484E-05-6.12290E-07 6.01252E-19-1.84248E-18
 -1      4171 9.66235E-05-2.92079E-05-2.88946E-05-5.22523E-07 1.84312E-19-1.66488E-18
 -1      4172 9.48097E-05-2.78400E-05-2.87014E-05-3.95225E-07-6.92156E-20-5.21570E-19
 -1      4173 9.49427E-05-2.80047E-05-2.86894E-05-3.55956E-07 1.30604E-19-4.41455E-19
 -1      4174 9.49944E-05-2.80593E-05-2.86850E-05-2.42498E-07 3.46726E-20-2.53701E-19
 -1      4175 9.35531E-05-2.64773E-05-2.87488E-05-7.15754E-07-4.11560E-19-8.33945E-19
 -1      4176 9.38131E-05-2.67503E-05-2.87448E-05-6.31009E-07-4.98239E-19-7.89799E-19
 -1      4177 9.32991E-05-2.62436E-05-2.87318E-05-4.71642E-07-6.37813E-19-4.23583E-19
 -1      4178 9.10463E-05-2.42903E-05-2.86168E-05-1.15697E-06 5.59954E-19-1.01165E-19
 -1      4179 9.15784E-05-2.47161E-05-2.86615E-05-1.05595E-06 6.08137E-19 1.27346E-19
 -1      4180 9.05887E-05-2.39646E-05-2.85395E-05-5.79191E-07 3.54403E-19 3.66722E-19
 -1      4181 9.66732E-05-2.72447E-05-2.97562E-05-3.80688E-08 9.81520E-20-2.14827E-18
 -1      4182 9.68044E-05-2.77661E-05-2.95918E-05 9.92263E-08 1.84414E-19-2.06669E-18
 -1      4183 9.68849E-05-2.79424E-05-2.95492E-05 6.41289E-08 3.48549E-19-2.15161E-18
 -1      4184 8.58248E-05-2.64766E-05-2.53897E-05 1.33037E-05 1.26697E-18-1.70178E-18
 -1      4185 8.16824E-05-2.49759E-05-2.42816E-05 1.48690E-05 1.15500E-18-1.97383E-18
 -1      4186 7.92255E-05-2.22700E-05-2.44946E-05 1.17943E-05 1.42338E-18-2.12611E-18
 -1      4187 8.52578E-05-2.51068E-05-2.58124E-05 1.15806E-05 1.00222E-18-1.63791E-18
 -1      4188 9.56888E-05-2.88385E-05-2.86514E-05-2.03780E-07 2.22824E-20-5.38057E-19
 -1      4189 9.57198E-05-2.88798E-05-2.86446E-05-2.91604E-07 1.11081E-19-6.94121E-19
 -1      4190 9.58096E-05-2.89681E-05-2.86461E-05-2.98103E-07 4.01794E-19-5.61582E-19
 -1      4191 9.67469E-05-2.89895E-05-2.90405E-05-4.85901E-07 4.66033E-19-2.22140E-18
 -1      4192 9.63121E-05-2.61629E-05-3.00590E-05-2.06066E-07-1.20649E-19-2.27248E-18
 -1      4193 9.64778E-05-2.66273E-05-2.99362E-05-8.77391E-08-2.86246E-20-2.28154E-18
 -1      4194 9.65870E-05-2.68396E-05-2.98958E-05-1.25694E-08 1.81233E-19-2.52255E-18
 -1      4195 9.68240E-05-2.90883E-05-2.90287E-05-3.88491E-07 2.59585E-19-2.57107E-18
 -1      4196 9.68687E-05-2.89301E-05-2.91150E-05-3.46943E-07 4.04483E-19-2.55056E-18
 -1      4197 9.16951E-05-2.48216E-05-2.86494E-05-5.81127E-07-2.11897E-19-8.43181E-19
 -1      4198 9.60897E-05-2.91922E-05-2.86720E-05-4.45701E-07-2.42113E-19-1.41894E-18
 -1      4199 7.63928E-05-1.91038E-05-2.45801E-05 6.60433E-06 9.86039E-19-1.26316E-18
 -1      4200 8.31202E-05-2.30315E-05-2.57234E-05 1.00079E-05 6.65717E-19-2.86340E-18
 -1      4201 9.44794E-05-2.74597E-05-2.87233E-05-4.78148E-07-3.44691E-19-9.54474E-20
 -1      4202 9.46428E-05-2.76545E-05-2.87115E-05-4.23616E-07-1.21888E-19-1.47531E-19
 -1      4203 9.46917E-05-2.77091E-05-2.87046E-05-2.82601E-07-1.47888E-19 3.71120E-21
 -1      4204 9.65883E-05-2.68771E-05-2.98755E-05-3.74903E-08 1.61995E-19-2.39120E-18
 -1      4205 9.60092E-05-2.54754E-05-3.02313E-05-3.64571E-07-2.26358E-19-2.28662E-18
 -1      4206 9.63061E-05-2.92914E-05-2.87192E-05-3.68593E-07-2.87233E-19-1.46273E-18
 -1      4207 9.63989E-05-2.93161E-05-2.87485E-05-3.80209E-07-3.39073E-19-1.63279E-18
 -1      4208 9.68916E-05-2.87444E-05-2.92067E-05-3.29153E-07 6.67846E-19-2.52215E-18
 -1      4209 9.68922E-05-2.84938E-05-2.93062E-05-2.60773E-07 6.42202E-19-2.29399E-18
 -1      4210 9.69373E-05-2.88338E-05-2.91909E-05-2.25374E-07 6.50035E-19-2.60399E-18
 -1      4211 9.40691E-05-2.70096E-05-2.87410E-05-5.85743E-07-2.73067E-19-6.88156E-19
 -1      4212 9.42742E-05-2.72404E-05-2.87316E-05-5.15637E-07-1.22816E-19-3.36955E-19
 -1      4213 9.38687E-05-2.68126E-05-2.87336E-05-4.01433E-07-2.71398E-19-1.08081E-18
 -1      4214 9.64994E-05-2.93269E-05-2.87876E-05-3.93751E-07-1.22001E-19-2.01576E-18
 -1      4215 9.65911E-05-2.93133E-05-2.88323E-05-3.98606E-07-1.06933E-19-2.11830E-18
 -1      4216 9.65073E-05-2.93443E-05-2.87858E-05-2.71603E-07-4.27173E-19-2.03348E-18
 -1      4217 9.49148E-05-2.79743E-05-2.86894E-05-1.33744E-07 9.79128E-20-2.64561E-19
 -1      4218 9.50537E-05-2.81359E-05-2.86802E-05-1.19394E-07-2.28756E-19-6.03856E-19
 -1      4219 9.69992E-05-2.85020E-05-2.93502E-05-5.49957E-08 5.55891E-19-2.35950E-18
 -1      4220 9.70017E-05-2.87800E-05-2.92376E-05-2.40782E-08 5.23327E-19-2.30182E-18
 -1      4221 9.69780E-05-2.89662E-05-2.91457E-05-5.97063E-08 2.71974E-19-2.17410E-18
 -1      4222 9.69268E-05-2.91274E-05-2.90561E-05-4.39478E-08 7.98465E-20-1.92641E-18
 -1      4223 9.66802E-05-2.93657E-05-2.88478E-05 4.08859E-08-5.19643E-19-1.56588E-18
 -1      4224 9.65809E-05-2.93712E-05-2.88024E-05 3.96605E-08-6.60130E-19-1.14461E-18
 -1      4225 9.64821E-05-2.93538E-05-2.87676E-05-5.20640E-08-7.87686E-19-1.29021E-18
 -1      4226 9.63789E-05-2.93235E-05-2.87363E-05-5.04442E-08-9.34745E-19-1.20611E-18
 -1      4227 9.60463E-05-2.91378E-05-2.86740E-05 3.56469E-08-5.83320E-19-7.82739E-19
 -1      4228 9.59387E-05-2.90530E-05-2.86639E-05 3.08016E-08-4.06552E-19-3.34841E-19
 -1      4229 9.58430E-05-2.89750E-05-2.86571E-05-4.11604E-08-1.54768E-19-1.14220E-19
 -1      4230 9.57380E-05-2.88769E-05-2.86541E-05-4.01746E-08 2.88619E-20-9.50073E-20
 -1      4231 9.56315E-05-2.87714E-05-2.86535E-05-4.06687E-08-8.07853E-20-2.23235E-19
 -1      4232 9.55204E-05-2.86565E-05-2.86557E-05-3.79235E-08 1.87471E-19-2.70030E-19
 -1      4233 9.54082E-05-2.85346E-05-2.86599E-05-4.13841E-08 2.34143E-19-2.78213E-19
 -1      4234 9.52880E-05-2.84019E-05-2.86658E-05-3.60318E-08 9.11700E-20-2.82574E-19
 -1      4235 9.50945E-05-2.81817E-05-2.86771E-05 6.82158E-08 6.21510E-20-3.55278E-19
 -1      4236 9.49617E-05-2.80281E-05-2.86853E-05 7.90351E-08-1.53332E-19-6.18876E-19
 -1      4237 9.48055E-05-2.78552E-05-2.86942E-05 8.71434E-08-2.19762E-20-5.24434E-19
 -1      4238 9.46481E-05-2.76734E-05-2.87030E-05 1.05921E-07-9.53356E-20-5.64309E-19
 -1      4239 9.48299E-05-2.78768E-05-2.86932E-05-6.75615E-09-1.76011E-19-7.61859E-19
 -1      4240 9.44598E-05-2.74719E-05-2.87108E-05 1.19836E-07-1.76392E-19-4.69402E-19
 -1      4241 9.42709E-05-2.72609E-05-2.87181E-05 1.48694E-07-6.03465E-20-2.08505E-19
 -1      4242 9.44872E-05-2.74932E-05-2.87099E-05 5.29938E-09-5.18747E-20-4.75740E-19
 -1      4243 9.40394E-05-2.70258E-05-2.87225E-05 1.72041E-07-3.17139E-19 2.66699E-19
 -1      4244 9.38093E-05-2.67818E-05-2.87255E-05 2.14910E-07-4.28019E-19-3.27423E-20
 -1      4245 9.40693E-05-2.70453E-05-2.87220E-05 2.81259E-08 1.36421E-19-4.09777E-19
 -1      4246 9.35230E-05-2.65093E-05-2.87232E-05 2.52822E-07 1.60731E-19-4.10417E-19
 -1      4247 9.32421E-05-2.62303E-05-2.87187E-05 3.15519E-07 2.37624E-19-7.08062E-19
 -1      4248 9.35544E-05-2.65245E-05-2.87236E-05 6.96996E-08-1.31771E-19-2.08444E-19
 -1      4249 9.28883E-05-2.59183E-05-2.87053E-05 3.75629E-07-1.76535E-19-1.21724E-18
 -1      4250 9.25474E-05-2.56052E-05-2.86885E-05 4.66606E-07-1.86455E-19-1.46095E-18
 -1      4251 9.29186E-05-2.59248E-05-2.87070E-05 1.42085E-07-4.85562E-19-1.49211E-18
 -1      4252 9.21127E-05-2.52549E-05-2.86582E-05 5.60104E-07-7.53552E-19-1.43187E-18
 -1      4253 9.17035E-05-2.49126E-05-2.86231E-05 6.91569E-07-8.09597E-19-1.41739E-18
 -1      4254 9.21366E-05-2.52452E-05-2.86618E-05 2.63420E-07-4.99523E-19-1.74916E-18
 -1      4255 9.11741E-05-2.45293E-05-2.85681E-05 8.34569E-07-3.24528E-19-1.34074E-18
 -1      4256 9.06904E-05-2.41692E-05-2.85068E-05 1.02403E-06-3.93373E-19-7.40052E-19
 -1      4257 9.11822E-05-2.44922E-05-2.85741E-05 4.60357E-07-2.60713E-19-1.11195E-18
 -1      4258 9.00519E-05-2.37638E-05-2.84167E-05 1.23939E-06-6.94653E-19-4.98112E-19
 -1      4259 8.94906E-05-2.34050E-05-2.83188E-05 1.51178E-06-4.50075E-19-1.01876E-18
 -1      4260 9.00285E-05-2.36819E-05-2.84252E-05 7.71279E-07-3.46742E-19-8.14304E-19
 -1      4261 8.87272E-05-2.29958E-05-2.81801E-05 1.83158E-06 1.39968E-19-1.44904E-18
 -1      4262 8.80894E-05-2.26672E-05-2.80324E-05 2.22227E-06-2.27282E-19-9.62886E-19
 -1      4263 8.86472E-05-2.28434E-05-2.81906E-05 1.25056E-06-2.84314E-19-6.11063E-19
 -1      4264 8.71824E-05-2.22803E-05-2.78272E-05 2.69151E-06-5.99211E-19-3.76983E-19
 -1      4265 8.64747E-05-2.20234E-05-2.76130E-05 3.25117E-06 2.60065E-19-1.07214E-18
 -1      4266 8.70063E-05-2.20198E-05-2.78377E-05 1.97461E-06 1.75406E-19-2.35566E-19
 -1      4267 8.53812E-05-2.16656E-05-2.73167E-05 3.93003E-06 6.51978E-19-1.87852E-18
 -1      4268 8.45360E-05-2.15476E-05-2.70110E-05 4.75883E-06 2.63558E-19-2.18011E-18
 -1      4269 8.50624E-05-2.12671E-05-2.73225E-05 3.04960E-06 3.26971E-19-1.04537E-18
 -1      4270 8.71477E-05-2.19581E-05-2.79563E-05 7.40876E-07-3.98136E-19 5.97433E-19
 -1      4271 8.80834E-05-2.24463E-05-2.81346E-05 5.44106E-07-1.28354E-19 5.98759E-19
 -1      4272 9.67735E-05-2.74004E-05-2.97234E-05 1.10925E-10 4.31314E-19-2.44699E-18
 -1      4273 9.67702E-05-2.92117E-05-2.89525E-05-3.45218E-07-2.05602E-20-2.49209E-18
 -1      4274 9.68649E-05-2.91612E-05-2.90189E-05-2.24500E-07 1.29893E-20-2.38426E-18
 -1      4275 9.68663E-05-2.92559E-05-2.89739E-05-1.19906E-08-2.24395E-19-1.75952E-18
 -1      4276 9.66940E-05-2.92815E-05-2.88899E-05-3.60852E-07-1.49691E-19-2.28005E-18
 -1      4277 9.14054E-05-2.46522E-05-2.86156E-05-1.13270E-07-2.66778E-19-7.41651E-19
 -1      4278 9.19036E-05-2.50464E-05-2.86565E-05-1.22761E-07-2.67373E-19-9.38963E-19
 -1      4279 9.68913E-05-2.79048E-05-2.95699E-05 2.66191E-08 4.34310E-19-2.38568E-18
 -1      4280 8.88527E-05-2.29009E-05-2.82782E-05 2.94900E-07-2.37133E-19 5.58241E-19
 -1      4281 8.96128E-05-2.33695E-05-2.83942E-05 1.88037E-07-2.05666E-19 1.84355E-19
 -1      4282 8.24959E-05-2.00988E-05-2.67831E-05 2.53031E-06 3.75056E-19-4.28257E-19
 -1      4283 8.39819E-05-2.06105E-05-2.71675E-05 2.02484E-06 4.26205E-20-4.35281E-19
 -1      4284 7.87174E-05-1.92385E-05-2.55698E-05 4.60102E-06 2.79180E-19-1.01361E-18
 -1      4285 8.06647E-05-1.97085E-05-2.61454E-05 3.79388E-06 5.68234E-19-6.02691E-19
 -1      4286 8.23151E-05-2.05900E-05-2.64092E-05 4.99251E-06 3.64751E-19-1.88258E-18
 -1      4287 7.83686E-05-2.03442E-05-2.47956E-05 8.71985E-06 1.44507E-18-2.08156E-18
 -1      4288 9.23412E-05-2.54151E-05-2.86878E-05-1.79062E-07-5.94319E-19-1.08403E-18
 -1      4289 9.27415E-05-2.57640E-05-2.87077E-05-1.67236E-07-5.62317E-19-9.21514E-19
 -1      4290 9.68917E-05-2.80611E-05-2.95008E-05-9.00735E-08 5.54547E-19-2.58207E-18
 -1      4291 9.62008E-05-2.92474E-05-2.86936E-05-3.49543E-07-6.66403E-20-1.06173E-18
 -1      4292 9.63068E-05-2.92970E-05-2.87217E-05-2.50067E-07-5.31481E-19-1.05757E-18
 -1      4293 9.61079E-05-2.91939E-05-2.86759E-05-3.35924E-07-2.97751E-19-1.07634E-18
 -1      4294 9.59113E-05-2.90533E-05-2.86525E-05-3.08152E-07-9.25645E-20-7.03719E-19
 -1      4295 9.60028E-05-2.91268E-05-2.86611E-05-3.20613E-07-5.47045E-19-8.95169E-19
 -1      4296 9.60974E-05-2.91821E-05-2.86792E-05-2.28211E-07-3.69356E-19-8.70802E-19
 -1      4297 9.58917E-05-2.90256E-05-2.86577E-05-2.15427E-07 1.35078E-19-6.31009E-19
 -1      4298 9.30978E-05-2.60896E-05-2.87216E-05-1.98165E-07-3.63955E-19-1.05011E-18
 -1      4299 9.34180E-05-2.63930E-05-2.87276E-05-1.76135E-07-5.80485E-19-1.09118E-18
 -1      4300 8.14395E-05-2.19342E-05-2.54746E-05 9.17224E-06 1.00984E-18-2.46735E-18
 -1      4301 8.18498E-05-2.13883E-05-2.59784E-05 7.38874E-06 2.42976E-19-2.63736E-18
 -1      4302 9.02557E-05-2.38083E-05-2.84871E-05 3.01554E-08 2.73733E-19-1.42411E-19
 -1      4303 9.08725E-05-2.42440E-05-2.85589E-05-1.67993E-08 3.19690E-20-9.49629E-19
 -1      4304 8.50741E-05-2.10178E-05-2.74770E-05 1.44886E-06-1.01347E-19-3.06728E-19
 -1      4305 8.62313E-05-2.15090E-05-2.77430E-05 1.12334E-06 1.48649E-19 5.58841E-19
 -1      4306 9.62722E-05-2.92775E-05-2.87101E-05-4.85452E-08-9.50089E-19-1.20485E-18
 -1      4307 9.51650E-05-2.82605E-05-2.86733E-05-4.22165E-08-7.86994E-20-6.56768E-19
 -1      4308 9.67770E-05-2.93227E-05-2.89077E-05-2.46656E-09-5.01637E-19-1.84753E-18
 -1      4309 9.61629E-05-2.92166E-05-2.86900E-05-4.73861E-08-7.02437E-19-1.16029E-18
 -1      4310 9.67200E-05-2.93369E-05-2.88797E-05-1.36188E-07-3.84161E-19-2.02544E-18
 -1      4311 8.36243E-05-2.15061E-05-2.66192E-05 5.79896E-06 2.43966E-19-2.22715E-18
 -1      4312 9.37064E-05-2.66757E-05-2.87301E-05-1.91748E-07-4.63948E-19-5.56543E-19
 -1      4313 9.47578E-05-2.77977E-05-2.86983E-05-1.33224E-07-1.17025E-19-6.08513E-20
 -1      4314 9.68515E-05-2.82006E-05-2.94273E-05-1.75245E-07 5.45319E-19-2.13088E-18
 -1      4315 9.43243E-05-2.72975E-05-2.87224E-05-3.36532E-07-1.55949E-19 3.63084E-20
 -1      4316 9.65231E-05-2.93602E-05-2.87859E-05-1.72142E-07-4.43659E-19-1.85623E-18
 -1      4317 9.39623E-05-2.69363E-05-2.87275E-05-1.66775E-07 1.92407E-19-4.38682E-19
 -1      4318 9.66161E-05-2.93554E-05-2.88249E-05-1.77479E-07-3.38475E-19-2.05649E-18
 -1      4319 9.45907E-05-2.76084E-05-2.87078E-05-1.52752E-07-3.43308E-19-5.72947E-20
 -1      4320 9.58925E-05-2.90209E-05-2.86600E-05-1.38464E-07-8.72264E-20-2.04639E-19
 -1      4321 9.41955E-05-2.71790E-05-2.87232E-05-1.73714E-07 1.59903E-19-3.38350E-19
 -1      4322 9.44008E-05-2.74013E-05-2.87157E-05-1.50238E-07 1.95638E-19 1.57094E-19
 -1      4323 9.67106E-05-2.93233E-05-2.88819E-05-2.28894E-07-2.60517E-19-2.58992E-18
 -1      4324 9.60988E-05-2.91779E-05-2.86816E-05-1.53202E-07-3.53200E-19-8.09086E-19
 -1      4325 9.59904E-05-2.91010E-05-2.86665E-05-1.44998E-07-2.44822E-19-8.41758E-19
 -3
    1PSTEP                         4           1           1          
  100CL  101 1.000000000        4325                     0    1           1
 -4  ERROR       1    1
 -5  STR(%)      1    1    0    0
 -1         1 1.23518E+01
 -1         2 2.40023E+01
 -1         3 2.42669E-01
 -1         4 6.90655E-02
 -1         5 1.40393E+01
 -1         6 1.31434E+01
 -1         7 1.31434E+01
 -1         8 3.66390E+00
 -1         9 1.82688E+00
 -1        10 1.29015E+00
 -1        11 1.04366E+00
 -1        12 9.00014E-01
 -1        13 8.08889E-01
 -1        14 7.53934E-01
 -1        15 7.55895E-01
 -1        16 8.13182E-01
 -1        17 9.00872E-01
 -1        18 1.05264E+00
 -1        19 1.30778E+00
 -1        20 1.83577E+00
 -1        21 3.50550E+00
 -1        22 8.64145E+00
 -1        23 1.31434E+01
 -1        24 4.31801E+00
 -1        25 3.34116E+00
 -1        26 2.11147E+00
 -1        27 1.36269E+00
 -1        28 1.01404E+00
 -1        29 7.75211E-01
 -1        30 5.95553E-01
 -1        31 4.55520E-01
 -1        32 3.48233E-01
 -1        33 2.69712E-01
 -1        34 2.06793E-01
 -1        35 1.57438E-01
 -1        36 1.19694E-01
 -1        37 9.17763E-02
 -1        38 7.21103E-02
 -1        39 5.93255E-02
 -1        40 5.22340E-02
 -1        41 5.82638E-02
 -1        42 6.76505E-02
 -1        43 8.15101E-02
 -1        44 1.07480E-01
 -1        45 1.41017E-01
 -1        46 1.81923E-01
 -1        47 2.28983E-01
 -1        48 2.79362E-01
 -1        49 3.27852E-01
 -1        50 3.93266E-01
 -1        51 4.96343E-01
 -1        52 6.28723E-01
 -1        53 7.49760E-01
 -1        54 8.21664E-01
 -1        55 8.21664E-01
 -1        56 9.35342E-01
 -1        57 9.35342E-01
 -1        58 1.29940E+00
 -1        59 1.66706E+00
 -1        60 2.67584E+00
 -1        61 3.38009E+00
 -1        62 3.45629E+00
 -1        63 3.45629E+00
 -1        64 3.32921E+00
 -1        65 2.91051E+00
 -1        66 2.08058E+00
 -1        67 1.32798E+00
 -1        68 7.47518E-01
 -1        69 4.01195E-01
 -1        70 2.75580E-01
 -1        71 1.60596E-01
 -1        72 1.40393E+01
 -1        73 3.39475E+00
 -1        74 2.41314E+00
 -1        75 1.66595E+00
 -1        76 1.14488E+00
 -1        77 9.05929E-01
 -1        78 7.31302E-01
 -1        79 5.87903E-01
 -1        80 4.68460E-01
 -1        81 3.69151E-01
 -1        82 2.95103E-01
 -1        83 2.33694E-01
 -1        84 1.83245E-01
 -1        85 1.43020E-01
 -1        86 1.12109E-01
 -1        87 8.95875E-02
 -1        88 7.46186E-02
 -1        89 6.70573E-02
 -1        90 7.65369E-02
 -1        91 9.27769E-02
 -1        92 1.15919E-01
 -1        93 1.46157E-01
 -1        94 1.83574E-01
 -1        95 2.27873E-01
 -1        96 2.84843E-01
 -1        97 3.75422E-01
 -1        98 4.85334E-01
 -1        99 6.12812E-01
 -1       100 7.50831E-01
 -1       101 8.83337E-01
 -1       102 9.80445E-01
 -1       103 1.04998E+00
 -1       104 1.44574E+00
 -1       105 1.81465E+00
 -1       106 1.96709E+00
 -1       107 2.51427E+00
 -1       108 2.51427E+00
 -1       109 3.41800E+00
 -1       110 5.04773E+00
 -1       111 6.12764E+00
 -1       112 6.58530E+00
 -1       113 6.58530E+00
 -1       114 4.87425E+00
 -1       115 2.24900E+00
 -1       116 1.58387E+00
 -1       117 1.71994E+00
 -1       118 1.71994E+00
 -1       119 1.45492E+00
 -1       120 1.05369E+00
 -1       121 5.48912E-01
 -1       122 5.48912E-01
 -1       123 4.87106E-01
 -1       124 3.31775E-01
 -1       125 4.10455E-01
 -1       126 7.29189E-01
 -1       127 7.50019E-01
 -1       128 7.50019E-01
 -1       129 4.58692E-01
 -1       130 3.02019E-01
 -1       131 4.21391E-01
 -1       132 4.21391E-01
 -1       133 4.07506E-01
 -1       134 3.19850E-01
 -1       135 1.75094E-01
 -1       136 1.48244E-01
 -1       137 2.40391E+01
 -1       138 4.64671E+01
 -1       139 4.64671E+01
 -1       140 1.91383E+01
 -1       141 1.24217E+01
 -1       142 1.29135E+01
 -1       143 1.29135E+01
 -1       144 1.30012E+01
 -1       145 1.30012E+01
 -1       146 1.82310E+01
 -1       147 4.55952E+01
 -1       148 4.55952E+01
 -1       149 2.41466E+01
 -1       150 2.41466E+01
 -1       151 2.54675E+01
 -1       152 2.95926E+01
 -1       153 2.95926E+01
 -1       154 2.61511E+01
 -1       155 1.24315E+01
 -1       156 1.34593E+01
 -1       157 1.34593E+01
 -1       158 1.19838E+01
 -1       159 1.23518E+01
 -1       160 2.23292E+01
 -1       161 4.77608E+01
 -1       162 4.77608E+01
 -1       163 2.41112E+01
 -1       164 6.07815E+00
 -1       165 2.30089E+00
 -1       166 1.50589E+00
 -1       167 1.15824E+00
 -1       168 9.72023E-01
 -1       169 8.64432E-01
 -1       170 7.96073E-01
 -1       171 7.55895E-01
 -1       172 7.99500E-01
 -1       173 8.67271E-01
 -1       174 9.81048E-01
 -1       175 1.17252E+00
 -1       176 1.52757E+00
 -1       177 2.26081E+00
 -1       178 3.93115E+00
 -1       179 1.40393E+01
 -1       180 4.31801E+00
 -1       181 3.34116E+00
 -1       182 2.11147E+00
 -1       183 1.44750E+00
 -1       184 1.02567E+00
 -1       185 7.75211E-01
 -1       186 5.95553E-01
 -1       187 4.68309E-01
 -1       188 3.68479E-01
 -1       189 2.90682E-01
 -1       190 2.34259E-01
 -1       191 1.86522E-01
 -1       192 1.47297E-01
 -1       193 1.15942E-01
 -1       194 9.15817E-02
 -1       195 7.32396E-02
 -1       196 5.99049E-02
 -1       197 5.20991E-02
 -1       198 5.82638E-02
 -1       199 6.90724E-02
 -1       200 8.83583E-02
 -1       201 1.13382E-01
 -1       202 1.44009E-01
 -1       203 1.81923E-01
 -1       204 2.28983E-01
 -1       205 2.91749E-01
 -1       206 3.66979E-01
 -1       207 4.40227E-01
 -1       208 5.19197E-01
 -1       209 6.28723E-01
 -1       210 7.49760E-01
 -1       211 8.21664E-01
 -1       212 8.19327E-01
 -1       213 9.35342E-01
 -1       214 8.98148E-01
 -1       215 1.29940E+00
 -1       216 1.83298E+00
 -1       217 2.67584E+00
 -1       218 3.38009E+00
 -1       219 3.45629E+00
 -1       220 3.32921E+00
 -1       221 2.91051E+00
 -1       222 2.14545E+00
 -1       223 1.56658E+00
 -1       224 1.13469E+00
 -1       225 7.54608E-01
 -1       226 5.09726E-01
 -1       227 3.39151E-01
 -1       228 3.39475E+00
 -1       229 2.41314E+00
 -1       230 1.66595E+00
 -1       231 1.14488E+00
 -1       232 9.05929E-01
 -1       233 7.31302E-01
 -1       234 5.87903E-01
 -1       235 4.68460E-01
 -1       236 3.69151E-01
 -1       237 2.95103E-01
 -1       238 2.33694E-01
 -1       239 1.85999E-01
 -1       240 1.47579E-01
 -1       241 1.17138E-01
 -1       242 9.40656E-02
 -1       243 7.76966E-02
 -1       244 6.73920E-02
 -1       245 7.09195E-02
 -1       246 8.17777E-02
 -1       247 9.79441E-02
 -1       248 1.19168E-01
 -1       249 1.46157E-01
 -1       250 1.93854E-01
 -1       251 2.55063E-01
 -1       252 3.30518E-01
 -1       253 4.20285E-01
 -1       254 5.24337E-01
 -1       255 6.35366E-01
 -1       256 7.50831E-01
 -1       257 8.83337E-01
 -1       258 9.80445E-01
 -1       259 1.25509E+00
 -1       260 1.47034E+00
 -1       261 1.81465E+00
 -1       262 1.96709E+00
 -1       263 2.51427E+00
 -1       264 2.43053E+00
 -1       265 3.41800E+00
 -1       266 5.04773E+00
 -1       267 6.12764E+00
 -1       268 6.58530E+00
 -1       269 4.87425E+00
 -1       270 2.31510E+00
 -1       271 1.09985E+00
 -1       272 1.58387E+00
 -1       273 1.71994E+00
 -1       274 1.45492E+00
 -1       275 1.05369E+00
 -1       276 7.05302E-01
 -1       277 8.11481E-01
 -1       278 8.11481E-01
 -1       279 6.13583E-01
 -1       280 1.29703E+00
 -1       281 1.52721E+00
 -1       282 1.52721E+00
 -1       283 1.36907E+00
 -1       284 7.06931E-01
 -1       285 7.65002E-01
 -1       286 7.67836E-01
 -1       287 7.67836E-01
 -1       288 7.11091E-01
 -1       289 5.03603E-01
 -1       290 4.14914E-01
 -1       291 3.15626E+01
 -1       292 2.78431E+01
 -1       293 4.64671E+01
 -1       294 2.02408E+01
 -1       295 1.13006E+01
 -1       296 1.24217E+01
 -1       297 1.29135E+01
 -1       298 1.22388E+01
 -1       299 1.30012E+01
 -1       300 1.19990E+01
 -1       301 1.86856E+01
 -1       302 4.55952E+01
 -1       303 3.97555E+01
 -1       304 2.89506E+01
 -1       305 2.89506E+01
 -1       306 3.12036E+01
 -1       307 3.12036E+01
 -1       308 2.84434E+01
 -1       309 1.23249E+01
 -1       310 1.24315E+01
 -1       311 1.34593E+01
 -1       312 1.17986E+01
 -1       313 1.19838E+01
 -1       314 1.23518E+01
 -1       315 1.14035E+01
 -1       316 2.33851E+01
 -1       317 4.77608E+01
 -1       318 2.89684E+01
 -1       319 3.15626E+01
 -1       320 1.07032E+00
 -1       321 2.47956E+00
 -1       322 7.88657E-01
 -1       323 6.95176E-01
 -1       324 6.31959E-01
 -1       325 5.87667E-01
 -1       326 5.90876E-01
 -1       327 6.34546E-01
 -1       328 7.01292E-01
 -1       329 7.96476E-01
 -1       330 9.31857E-01
 -1       331 1.16014E+00
 -1       332 1.32914E+00
 -1       333 2.20075E+00
 -1       334 1.91426E+00
 -1       335 1.72965E+00
 -1       336 1.26740E+00
 -1       337 9.07109E-01
 -1       338 6.56196E-01
 -1       339 5.38682E-01
 -1       340 4.41683E-01
 -1       341 3.56298E-01
 -1       342 2.90939E-01
 -1       343 2.35993E-01
 -1       344 1.88906E-01
 -1       345 1.53492E-01
 -1       346 1.24393E-01
 -1       347 9.99854E-02
 -1       348 7.99657E-02
 -1       349 6.37560E-02
 -1       350 5.05987E-02
 -1       351 4.82128E-02
 -1       352 5.52647E-02
 -1       353 6.90724E-02
 -1       354 8.83583E-02
 -1       355 1.13382E-01
 -1       356 1.56290E-01
 -1       357 2.08957E-01
 -1       358 2.69370E-01
 -1       359 3.34353E-01
 -1       360 3.97739E-01
 -1       361 4.52420E-01
 -1       362 5.09765E-01
 -1       363 5.77382E-01
 -1       364 6.01032E-01
 -1       365 5.46220E-01
 -1       366 4.75677E-01
 -1       367 4.56397E-01
 -1       368 8.41197E-01
 -1       369 1.35862E+00
 -1       370 1.74209E+00
 -1       371 2.20210E+00
 -1       372 2.35130E+00
 -1       373 2.19741E+00
 -1       374 2.21812E+00
 -1       375 1.95974E+00
 -1       376 1.66812E+00
 -1       377 1.31880E+00
 -1       378 1.07535E+00
 -1       379 8.40175E-01
 -1       380 7.01568E-01
 -1       381 1.13047E+00
 -1       382 8.91345E-01
 -1       383 7.03902E-01
 -1       384 5.45189E-01
 -1       385 4.37893E-01
 -1       386 3.71463E-01
 -1       387 3.07843E-01
 -1       388 2.52494E-01
 -1       389 2.07410E-01
 -1       390 1.68025E-01
 -1       391 1.34825E-01
 -1       392 1.08052E-01
 -1       393 8.78165E-02
 -1       394 7.30157E-02
 -1       395 6.32648E-02
 -1       396 5.94536E-02
 -1       397 6.34570E-02
 -1       398 7.23006E-02
 -1       399 9.39344E-02
 -1       400 1.23342E-01
 -1       401 1.61387E-01
 -1       402 2.34960E-01
 -1       403 3.32778E-01
 -1       404 4.59730E-01
 -1       405 6.19543E-01
 -1       406 8.12527E-01
 -1       407 1.03174E+00
 -1       408 1.25732E+00
 -1       409 1.44960E+00
 -1       410 1.62211E+00
 -1       411 1.66380E+00
 -1       412 1.67811E+00
 -1       413 1.47595E+00
 -1       414 1.48407E+00
 -1       415 2.02956E+00
 -1       416 3.09988E+00
 -1       417 3.91405E+00
 -1       418 4.12675E+00
 -1       419 3.60013E+00
 -1       420 3.01153E+00
 -1       421 2.30473E+00
 -1       422 1.60893E+00
 -1       423 1.34813E+00
 -1       424 1.18810E+00
 -1       425 1.07100E+00
 -1       426 9.93568E-01
 -1       427 1.16626E+00
 -1       428 1.07050E+00
 -1       429 1.07050E+00
 -1       430 1.58636E+00
 -1       431 2.45125E+00
 -1       432 2.47422E+00
 -1       433 2.47422E+00
 -1       434 1.73968E+00
 -1       435 1.22574E+00
 -1       436 1.08808E+00
 -1       437 1.08808E+00
 -1       438 9.57114E-01
 -1       439 8.06553E-01
 -1       440 2.78431E+01
 -1       441 3.15626E+01
 -1       442 2.79633E+01
 -1       443 1.55995E+01
 -1       444 8.54257E+00
 -1       445 9.12795E-01
 -1       446 1.03463E+01
 -1       447 1.17739E+01
 -1       448 1.12369E+01
 -1       449 8.17904E+00
 -1       450 7.80724E+00
 -1       451 1.51577E+01
 -1       452 2.67888E+01
 -1       453 2.60355E+01
 -1       454 3.31776E+01
 -1       455 3.31776E+01
 -1       456 3.12036E+01
 -1       457 1.93546E+01
 -1       458 1.14159E+01
 -1       459 6.56972E+00
 -1       460 8.63114E+00
 -1       461 1.17986E+01
 -1       462 1.15713E+01
 -1       463 9.87584E+00
 -1       464 6.64222E+00
 -1       465 9.82073E+00
 -1       466 1.71204E+01
 -1       467 2.89684E+01
 -1       468 2.98990E+01
 -1       469 8.09153E+00
 -1       470 1.46171E+01
 -1       471 2.21890E+01
 -1       472 1.43630E+01
 -1       473 1.04784E+00
 -1       474 4.86793E-01
 -1       475 5.11357E-01
 -1       476 4.31671E-01
 -1       477 4.57522E-01
 -1       478 4.87167E-01
 -1       479 5.11343E-01
 -1       480 5.11343E-01
 -1       481 6.09047E-01
 -1       482 8.91345E-01
 -1       483 8.02330E-01
 -1       484 8.76964E-01
 -1       485 5.23732E+00
 -1       486 7.01527E-01
 -1       487 5.88668E-01
 -1       488 4.76567E-01
 -1       489 3.78248E-01
 -1       490 3.23558E-01
 -1       491 2.73697E-01
 -1       492 2.26592E-01
 -1       493 1.87146E-01
 -1       494 1.53492E-01
 -1       495 1.24393E-01
 -1       496 1.02575E-01
 -1       497 8.45380E-02
 -1       498 6.94331E-02
 -1       499 5.69272E-02
 -1       500 4.64705E-02
 -1       501 4.34062E-02
 -1       502 5.23278E-02
 -1       503 6.48953E-02
 -1       504 8.98583E-02
 -1       505 1.27031E-01
 -1       506 1.72324E-01
 -1       507 2.25844E-01
 -1       508 2.86480E-01
 -1       509 3.51265E-01
 -1       510 4.18157E-01
 -1       511 4.74963E-01
 -1       512 5.05060E-01
 -1       513 5.05060E-01
 -1       514 4.91273E-01
 -1       515 6.24489E-01
 -1       516 8.02279E-01
 -1       517 1.07797E+00
 -1       518 1.19359E+00
 -1       519 1.43961E+00
 -1       520 1.66947E+00
 -1       521 1.73905E+00
 -1       522 1.87656E+00
 -1       523 2.11220E+00
 -1       524 1.83592E+00
 -1       525 1.64124E+00
 -1       526 1.43878E+00
 -1       527 1.31880E+00
 -1       528 1.59144E+00
 -1       529 1.91724E+01
 -1       530 5.45189E-01
 -1       531 4.37893E-01
 -1       532 3.71463E-01
 -1       533 3.07843E-01
 -1       534 2.52494E-01
 -1       535 2.08017E-01
 -1       536 1.69145E-01
 -1       537 1.36051E-01
 -1       538 1.10071E-01
 -1       539 8.91255E-02
 -1       540 7.14190E-02
 -1       541 5.64775E-02
 -1       542 4.84962E-02
 -1       543 4.59359E-02
 -1       544 5.62914E-02
 -1       545 7.19604E-02
 -1       546 1.03127E-01
 -1       547 1.51942E-01
 -1       548 2.16575E-01
 -1       549 3.01144E-01
 -1       550 4.10019E-01
 -1       551 5.47263E-01
 -1       552 7.15495E-01
 -1       553 9.13817E-01
 -1       554 1.13447E+00
 -1       555 1.35812E+00
 -1       556 1.54824E+00
 -1       557 1.70103E+00
 -1       558 2.00061E+00
 -1       559 2.29146E+00
 -1       560 2.47472E+00
 -1       561 3.32203E+00
 -1       562 2.44936E+00
 -1       563 3.91405E+00
 -1       564 7.17752E+00
 -1       565 4.28958E+00
 -1       566 6.67696E+00
 -1       567 2.71814E+00
 -1       568 2.82695E+00
 -1       569 1.95435E+00
 -1       570 1.44803E+00
 -1       571 1.18810E+00
 -1       572 3.24444E+00
 -1       573 3.80494E+00
 -1       574 1.64323E+00
 -1       575 2.23651E+00
 -1       576 3.80494E+00
 -1       577 3.29417E+00
 -1       578 2.37020E+00
 -1       579 1.78400E+00
 -1       580 1.53137E+00
 -1       581 1.13895E+00
 -1       582 8.55595E-01
 -1       583 1.01213E+01
 -1       584 7.03902E-01
 -1       585 2.79633E+01
 -1       586 1.36346E+01
 -1       587 2.98990E+01
 -1       588 4.56338E+00
 -1       589 3.99451E+00
 -1       590 6.39221E+00
 -1       591 4.57515E-01
 -1       592 7.81242E+00
 -1       593 5.09259E+00
 -1       594 7.84030E+00
 -1       595 6.58554E+00
 -1       596 9.39809E+00
 -1       597 1.76151E+01
 -1       598 2.60355E+01
 -1       599 3.31776E+01
 -1       600 1.67417E+01
 -1       601 9.34607E+00
 -1       602 6.05394E+00
 -1       603 5.03740E+00
 -1       604 8.12729E+00
 -1       605 2.18492E+01
 -1       606 7.23190E+00
 -1       607 7.90492E+00
 -1       608 6.67696E+00
 -1       609 1.32810E+00
 -1       610 5.11357E-01
 -1       611 1.86294E+01
 -1       612 1.13476E+01
 -1       613 8.55595E-01
 -1       614 3.30699E+00
 -1       615 4.60388E-01
 -1       616 6.61085E+00
 -1       617 3.58330E-01
 -1       618 3.42879E-01
 -1       619 3.61900E-01
 -1       620 3.37967E-01
 -1       621 5.43966E-01
 -1       622 1.37390E+01
 -1       623 5.15091E-01
 -1       624 3.52576E-01
 -1       625 3.84165E-01
 -1       626 3.12161E-01
 -1       627 3.18696E-01
 -1       628 2.97559E-01
 -1       629 2.64062E-01
 -1       630 2.26516E-01
 -1       631 1.96814E-01
 -1       632 1.72210E-01
 -1       633 1.47136E-01
 -1       634 1.23576E-01
 -1       635 1.02575E-01
 -1       636 8.45380E-02
 -1       637 6.94331E-02
 -1       638 5.69272E-02
 -1       639 4.64705E-02
 -1       640 3.73461E-02
 -1       641 3.99354E-02
 -1       642 6.44698E-02
 -1       643 9.44667E-02
 -1       644 1.31111E-01
 -1       645 1.75354E-01
 -1       646 2.27667E-01
 -1       647 2.87686E-01
 -1       648 3.53715E-01
 -1       649 4.23429E-01
 -1       650 4.89076E-01
 -1       651 5.55976E-01
 -1       652 6.44107E-01
 -1       653 7.30052E-01
 -1       654 7.81031E-01
 -1       655 9.98355E-01
 -1       656 1.23291E+00
 -1       657 1.30340E+00
 -1       658 1.81334E+00
 -1       659 1.72326E+00
 -1       660 2.95440E+00
 -1       661 3.88827E+00
 -1       662 2.45420E+00
 -1       663 2.11220E+00
 -1       664 1.83592E+00
 -1       665 1.74065E+00
 -1       666 1.72814E+00
 -1       667 7.86430E+00
 -1       668 3.96505E-01
 -1       669 2.34190E-01
 -1       670 1.97255E-01
 -1       671 1.63135E-01
 -1       672 1.35270E-01
 -1       673 1.10545E-01
 -1       674 8.91803E-02
 -1       675 7.14190E-02
 -1       676 5.64775E-02
 -1       677 4.52078E-02
 -1       678 3.58821E-02
 -1       679 4.13956E-02
 -1       680 5.41439E-02
 -1       681 8.53321E-02
 -1       682 1.25646E-01
 -1       683 1.77901E-01
 -1       684 2.45376E-01
 -1       685 3.31828E-01
 -1       686 4.41482E-01
 -1       687 5.78966E-01
 -1       688 7.49165E-01
 -1       689 9.56938E-01
 -1       690 1.20643E+00
 -1       691 1.49958E+00
 -1       692 1.83000E+00
 -1       693 2.13746E+00
 -1       694 2.58485E+00
 -1       695 3.58000E+00
 -1       696 5.40490E+00
 -1       697 3.99608E+00
 -1       698 5.32591E+00
 -1       699 3.54735E+00
 -1       700 2.43372E+00
 -1       701 1.97431E+00
 -1       702 1.16754E+01
 -1       703 5.95254E+00
 -1       704 1.59144E+00
 -1       705 5.33812E+00
 -1       706 4.10703E+00
 -1       707 5.95254E+00
 -1       708 3.33106E+00
 -1       709 2.24069E+00
 -1       710 1.72814E+00
 -1       711 4.63952E-01
 -1       712 1.29957E+01
 -1       713 4.07546E+00
 -1       714 5.58742E+00
 -1       715 6.10301E+00
 -1       716 1.42880E+01
 -1       717 1.43671E+01
 -1       718 2.73516E-01
 -1       719 3.28229E-01
 -1       720 3.59397E+00
 -1       721 3.61900E-01
 -1       722 6.50322E+00
 -1       723 6.32342E+00
 -1       724 9.17483E+00
 -1       725 1.09549E+01
 -1       726 1.31997E+01
 -1       727 1.08426E+01
 -1       728 3.70831E+00
 -1       729 5.21577E+00
 -1       730 3.58756E-01
 -1       731 1.47551E+01
 -1       732 8.10895E+00
 -1       733 3.45822E+00
 -1       734 3.58756E-01
 -1       735 3.42507E-01
 -1       736 9.42835E+00
 -1       737 2.96441E+00
 -1       738 7.84703E+00
 -1       739 5.32746E+00
 -1       740 4.42807E+00
 -1       741 3.57971E-01
 -1       742 1.31156E+01
 -1       743 3.48893E+00
 -1       744 2.41803E-01
 -1       745 2.01653E-01
 -1       746 2.00905E-01
 -1       747 2.46940E-01
 -1       748 2.53949E-01
 -1       749 2.39190E-01
 -1       750 2.13789E-01
 -1       751 1.84410E-01
 -1       752 1.63433E-01
 -1       753 1.40856E-01
 -1       754 1.18266E-01
 -1       755 9.69895E-02
 -1       756 7.76062E-02
 -1       757 6.01776E-02
 -1       758 4.43844E-02
 -1       759 2.96354E-02
 -1       760 2.03219E-02
 -1       761 2.54656E-02
 -1       762 4.49260E-02
 -1       763 6.91939E-02
 -1       764 1.00353E-01
 -1       765 1.37850E-01
 -1       766 1.81657E-01
 -1       767 2.37991E-01
 -1       768 3.06703E-01
 -1       769 3.86357E-01
 -1       770 4.74498E-01
 -1       771 5.66312E-01
 -1       772 6.65839E-01
 -1       773 8.20381E-01
 -1       774 1.01299E+00
 -1       775 1.19635E+00
 -1       776 1.45068E+00
 -1       777 1.87071E+00
 -1       778 1.99055E+00
 -1       779 2.37589E+00
 -1       780 2.76023E+00
 -1       781 3.88827E+00
 -1       782 3.48893E+00
 -1       783 2.75871E+00
 -1       784 2.08723E+00
 -1       785 2.49279E+00
 -1       786 9.09262E+00
 -1       787 1.89214E-01
 -1       788 1.13372E-01
 -1       789 9.13797E-02
 -1       790 7.18981E-02
 -1       791 5.48087E-02
 -1       792 4.17772E-02
 -1       793 2.95670E-02
 -1       794 2.44446E-02
 -1       795 3.64001E-02
 -1       796 6.08842E-02
 -1       797 9.14379E-02
 -1       798 1.30010E-01
 -1       799 1.81531E-01
 -1       800 2.56349E-01
 -1       801 3.54151E-01
 -1       802 4.80443E-01
 -1       803 6.40921E-01
 -1       804 8.40358E-01
 -1       805 1.07992E+00
 -1       806 1.36862E+00
 -1       807 1.76692E+00
 -1       808 2.45014E+00
 -1       809 5.22834E+00
 -1       810 7.36612E+00
 -1       811 3.61613E+00
 -1       812 9.26928E+00
 -1       813 6.37073E+00
 -1       814 8.74105E+00
 -1       815 7.07258E+00
 -1       816 2.49279E+00
 -1       817 1.01383E+01
 -1       818 3.48893E+00
 -1       819 2.17761E-01
 -1       820 3.48732E+00
 -1       821 5.32591E+00
 -1       822 9.26928E+00
 -1       823 1.37685E-01
 -1       824 3.06116E+00
 -1       825 1.63526E-01
 -1       826 1.02105E+01
 -1       827 2.54394E-01
 -1       828 3.35538E+00
 -1       829 2.86152E-01
 -1       830 8.71048E+00
 -1       831 3.88827E+00
 -1       832 2.82060E-01
 -1       833 2.48299E+00
 -1       834 2.88133E-01
 -1       835 5.15472E+00
 -1       836 4.67690E+00
 -1       837 7.63530E+00
 -1       838 2.81797E-01
 -1       839 2.82127E-01
 -1       840 2.95306E-01
 -1       841 8.05779E+00
 -1       842 2.88133E-01
 -1       843 2.79684E-01
 -1       844 2.39834E-01
 -1       845 6.83501E+00
 -1       846 2.74474E-01
 -1       847 4.77595E+00
 -1       848 2.89607E-01
 -1       849 7.47786E+00
 -1       850 1.57882E-01
 -1       851 1.65844E-01
 -1       852 1.84206E-01
 -1       853 1.82981E-01
 -1       854 1.70337E-01
 -1       855 1.51737E-01
 -1       856 1.32590E-01
 -1       857 1.16524E-01
 -1       858 9.93586E-02
 -1       859 8.24402E-02
 -1       860 6.64873E-02
 -1       861 5.17099E-02
 -1       862 3.79432E-02
 -1       863 3.11473E-02
 -1       864 3.33493E-02
 -1       865 4.38191E-02
 -1       866 6.79617E-02
 -1       867 9.81801E-02
 -1       868 1.35236E-01
 -1       869 1.79936E-01
 -1       870 2.32539E-01
 -1       871 2.92323E-01
 -1       872 3.56898E-01
 -1       873 4.38173E-01
 -1       874 5.42835E-01
 -1       875 6.94130E-01
 -1       876 8.89657E-01
 -1       877 1.10226E+00
 -1       878 1.41601E+00
 -1       879 1.81298E+00
 -1       880 2.25057E+00
 -1       881 2.89543E+00
 -1       882 2.75871E+00
 -1       883 3.16026E+00
 -1       884 9.73132E-02
 -1       885 4.75706E-02
 -1       886 3.33510E-02
 -1       887 2.79778E-02
 -1       888 3.13153E-02
 -1       889 5.26173E-02
 -1       890 8.13660E-02
 -1       891 1.20693E-01
 -1       892 1.72080E-01
 -1       893 2.39147E-01
 -1       894 3.26413E-01
 -1       895 4.39614E-01
 -1       896 5.86212E-01
 -1       897 7.76183E-01
 -1       898 1.02319E+00
 -1       899 1.34583E+00
 -1       900 1.76692E+00
 -1       901 2.43737E+00
 -1       902 6.08014E+00
 -1       903 3.16026E+00
 -1       904 1.76207E-01
 -1       905 6.83501E+00
 -1       906 2.89607E-01
 -1       907 7.29472E+00
 -1       908 3.54246E+00
 -1       909 1.16305E-01
 -1       910 7.96281E+00
 -1       911 6.27888E-02
 -1       912 7.93461E-02
 -1       913 1.96920E-01
 -1       914 2.10036E-01
 -1       915 1.65789E-01
 -1       916 2.06204E-01
 -1       917 4.59813E+00
 -1       918 3.44150E+00
 -1       919 2.19904E-01
 -1       920 1.35267E-01
 -1       921 2.34477E-01
 -1       922 1.52417E-01
 -1       923 2.42905E-01
 -1       924 6.08014E+00
 -1       925 2.34477E-01
 -1       926 1.12653E-01
 -1       927 1.34201E-01
 -1       928 1.39136E-01
 -1       929 1.33581E-01
 -1       930 1.21814E-01
 -1       931 1.06945E-01
 -1       932 9.32262E-02
 -1       933 8.00910E-02
 -1       934 6.68853E-02
 -1       935 5.42969E-02
 -1       936 4.25229E-02
 -1       937 3.86120E-02
 -1       938 4.05334E-02
 -1       939 4.52608E-02
 -1       940 6.01440E-02
 -1       941 8.68776E-02
 -1       942 1.20511E-01
 -1       943 1.62472E-01
 -1       944 2.14186E-01
 -1       945 2.76940E-01
 -1       946 3.51620E-01
 -1       947 4.38173E-01
 -1       948 5.34474E-01
 -1       949 6.70547E-01
 -1       950 8.55972E-01
 -1       951 1.20810E+00
 -1       952 1.64826E+00
 -1       953 2.01470E+00
 -1       954 2.41079E+00
 -1       955 2.48764E-01
 -1       956 1.52607E-01
 -1       957 1.46332E-01
 -1       958 3.95797E-02
 -1       959 4.64335E-02
 -1       960 7.14080E-02
 -1       961 1.04190E-01
 -1       962 1.46513E-01
 -1       963 2.01099E-01
 -1       964 2.71397E-01
 -1       965 3.61973E-01
 -1       966 4.79284E-01
 -1       967 6.33189E-01
 -1       968 8.39966E-01
 -1       969 1.12832E+00
 -1       970 1.54840E+00
 -1       971 2.19289E+00
 -1       972 5.18591E+00
 -1       973 5.73859E+00
 -1       974 5.22027E-02
 -1       975 9.48925E-02
 -1       976 5.73859E+00
 -1       977 3.95018E-02
 -1       978 1.55991E-01
 -1       979 1.80926E-01
 -1       980 3.64832E-02
 -1       981 9.42616E-02
 -1       982 2.48764E-01
 -1       983 1.03900E-01
 -1       984 1.40852E-01
 -1       985 1.09318E-01
 -1       986 8.01014E-02
 -1       987 6.57283E-02
 -1       988 3.54817E+00
 -1       989 1.71731E-01
 -1       990 3.36552E+00
 -1       991 1.72534E-01
 -1       992 9.91359E-02
 -1       993 1.05252E-01
 -1       994 1.02763E-01
 -1       995 9.48894E-02
 -1       996 8.41137E-02
 -1       997 7.22213E-02
 -1       998 6.13170E-02
 -1       999 5.15325E-02
 -1      1000 4.43395E-02
 -1      1001 4.25112E-02
 -1      1002 4.36957E-02
 -1      1003 4.77525E-02
 -1      1004 5.60515E-02
 -1      1005 7.01765E-02
 -1      1006 9.69826E-02
 -1      1007 1.32390E-01
 -1      1008 1.77856E-01
 -1      1009 2.35958E-01
 -1      1010 3.09925E-01
 -1      1011 4.03834E-01
 -1      1012 5.22670E-01
 -1      1013 6.70547E-01
 -1      1014 8.55732E-01
 -1      1015 1.11601E+00
 -1      1016 1.40603E+00
 -1      1017 2.28005E+00
 -1      1018 5.89156E-02
 -1      1019 1.52992E-01
 -1      1020 2.03507E-01
 -1      1021 2.67114E-01
 -1      1022 3.47366E-01
 -1      1023 4.49772E-01
 -1      1024 5.83849E-01
 -1      1025 7.67734E-01
 -1      1026 1.03859E+00
 -1      1027 1.47463E+00
 -1      1028 2.68731E+00
 -1      1029 4.44347E-02
 -1      1030 1.13008E-01
 -1      1031 4.38841E+00
 -1      1032 8.15371E-02
 -1      1033 4.31029E-02
 -1      1034 1.72534E-01
 -1      1035 4.22236E-02
 -1      1036 3.78538E+00
 -1      1037 4.90400E-02
 -1      1038 1.71731E-01
 -1      1039 8.04252E-02
 -1      1040 1.24899E-01
 -1      1041 9.49541E-02
 -1      1042 1.09816E-01
 -1      1043 3.11026E+00
 -1      1044 8.62172E-02
 -1      1045 1.17302E-01
 -1      1046 5.18607E-02
 -1      1047 1.03724E-01
 -1      1048 1.34616E-01
 -1      1049 1.09816E-01
 -1      1050 2.65972E+00
 -1      1051 7.41337E-02
 -1      1052 1.15473E-01
 -1      1053 8.42197E-02
 -1      1054 4.31029E-02
 -1      1055 7.30940E-02
 -1      1056 9.94532E-02
 -1      1057 7.73853E-02
 -1      1058 7.61034E-02
 -1      1059 7.01247E-02
 -1      1060 6.41057E-02
 -1      1061 5.89434E-02
 -1      1062 5.21971E-02
 -1      1063 4.73434E-02
 -1      1064 4.43395E-02
 -1      1065 4.36957E-02
 -1      1066 4.77525E-02
 -1      1067 5.60515E-02
 -1      1068 7.01765E-02
 -1      1069 8.96274E-02
 -1      1070 1.16098E-01
 -1      1071 1.50400E-01
 -1      1072 1.93957E-01
 -1      1073 2.53657E-01
 -1      1074 3.31782E-01
 -1      1075 4.34257E-01
 -1      1076 5.91049E-01
 -1      1077 8.02170E-01
 -1      1078 1.11601E+00
 -1      1079 1.36017E+00
 -1      1080 6.29638E-02
 -1      1081 1.68239E-01
 -1      1082 3.78210E-01
 -1      1083 4.95155E-01
 -1      1084 6.52319E-01
 -1      1085 8.65163E-01
 -1      1086 1.17079E+00
 -1      1087 2.45018E+00
 -1      1088 2.20994E-01
 -1      1089 7.95575E-02
 -1      1090 4.44347E-02
 -1      1091 4.90400E-02
 -1      1092 1.10632E-01
 -1      1093 5.89156E-02
 -1      1094 1.28210E-01
 -1      1095 2.89350E-01
 -1      1096 5.83326E-02
 -1      1097 2.12167E+00
 -1      1098 4.48352E-02
 -1      1099 8.89940E-02
 -1      1100 7.54218E-02
 -1      1101 6.61362E-02
 -1      1102 8.60654E-02
 -1      1103 9.80734E-02
 -1      1104 7.63454E-02
 -1      1105 5.54115E-02
 -1      1106 6.98348E-02
 -1      1107 4.97777E-02
 -1      1108 6.97915E-02
 -1      1109 8.96274E-02
 -1      1110 1.16098E-01
 -1      1111 1.50400E-01
 -1      1112 1.93957E-01
 -1      1113 2.48501E-01
 -1      1114 3.18771E-01
 -1      1115 4.25674E-01
 -1      1116 5.72283E-01
 -1      1117 7.78414E-01
 -1      1118 1.06829E+00
 -1      1119 9.08719E-02
 -1      1120 1.83719E+00
 -1      1121 5.63029E-02
 -1      1122 5.11673E-02
 -1      1123 1.31434E+01
 -1      1124 8.40365E+00
 -1      1125 2.74539E+00
 -1      1126 1.55851E+00
 -1      1127 1.16690E+00
 -1      1128 9.71835E-01
 -1      1129 8.54452E-01
 -1      1130 7.81412E-01
 -1      1131 7.54914E-01
 -1      1132 7.84538E-01
 -1      1133 8.57027E-01
 -1      1134 9.76755E-01
 -1      1135 1.18021E+00
 -1      1136 1.57177E+00
 -1      1137 2.67064E+00
 -1      1138 6.07348E+00
 -1      1139 1.13404E+01
 -1      1140 1.31434E+01
 -1      1141 8.73071E+00
 -1      1142 3.82959E+00
 -1      1143 2.72632E+00
 -1      1144 1.73708E+00
 -1      1145 1.18837E+00
 -1      1146 8.94628E-01
 -1      1147 6.85382E-01
 -1      1148 5.25537E-01
 -1      1149 4.01877E-01
 -1      1150 3.08973E-01
 -1      1151 2.38253E-01
 -1      1152 1.82116E-01
 -1      1153 1.38566E-01
 -1      1154 1.05735E-01
 -1      1155 8.19433E-02
 -1      1156 6.57179E-02
 -1      1157 5.57798E-02
 -1      1158 5.52489E-02
 -1      1159 6.29572E-02
 -1      1160 7.45803E-02
 -1      1161 9.44948E-02
 -1      1162 1.24248E-01
 -1      1163 1.61470E-01
 -1      1164 2.05453E-01
 -1      1165 2.54173E-01
 -1      1166 3.03607E-01
 -1      1167 3.60559E-01
 -1      1168 4.44805E-01
 -1      1169 5.62533E-01
 -1      1170 6.89241E-01
 -1      1171 7.85712E-01
 -1      1172 8.21664E-01
 -1      1173 8.78503E-01
 -1      1174 9.35342E-01
 -1      1175 1.11737E+00
 -1      1176 1.48323E+00
 -1      1177 2.17145E+00
 -1      1178 3.02797E+00
 -1      1179 3.41819E+00
 -1      1180 3.45629E+00
 -1      1181 3.39275E+00
 -1      1182 3.11986E+00
 -1      1183 2.49555E+00
 -1      1184 1.70428E+00
 -1      1185 1.03775E+00
 -1      1186 5.74357E-01
 -1      1187 3.38388E-01
 -1      1188 2.18088E-01
 -1      1189 1.14831E-01
 -1      1190 1.40393E+01
 -1      1191 8.71703E+00
 -1      1192 2.90394E+00
 -1      1193 2.03954E+00
 -1      1194 1.40542E+00
 -1      1195 1.02541E+00
 -1      1196 8.18615E-01
 -1      1197 6.59603E-01
 -1      1198 5.28182E-01
 -1      1199 4.18806E-01
 -1      1200 3.32127E-01
 -1      1201 2.64399E-01
 -1      1202 2.08470E-01
 -1      1203 1.63132E-01
 -1      1204 1.27565E-01
 -1      1205 1.00848E-01
 -1      1206 8.21031E-02
 -1      1207 7.08380E-02
 -1      1208 7.17971E-02
 -1      1209 8.46569E-02
 -1      1210 1.04348E-01
 -1      1211 1.31038E-01
 -1      1212 1.64866E-01
 -1      1213 2.05724E-01
 -1      1214 2.56358E-01
 -1      1215 3.30133E-01
 -1      1216 4.30378E-01
 -1      1217 5.49073E-01
 -1      1218 6.81821E-01
 -1      1219 8.17084E-01
 -1      1220 9.31891E-01
 -1      1221 1.01521E+00
 -1      1222 1.24786E+00
 -1      1223 1.63020E+00
 -1      1224 1.89087E+00
 -1      1225 2.24068E+00
 -1      1226 2.51427E+00
 -1      1227 2.96614E+00
 -1      1228 4.23287E+00
 -1      1229 5.58769E+00
 -1      1230 6.35647E+00
 -1      1231 6.58530E+00
 -1      1232 5.72977E+00
 -1      1233 3.56163E+00
 -1      1234 1.91644E+00
 -1      1235 1.65191E+00
 -1      1236 1.71994E+00
 -1      1237 1.58743E+00
 -1      1238 1.25430E+00
 -1      1239 6.48178E-01
 -1      1240 3.95790E-01
 -1      1241 5.48912E-01
 -1      1242 5.18009E-01
 -1      1243 4.09440E-01
 -1      1244 3.71115E-01
 -1      1245 5.69822E-01
 -1      1246 7.39604E-01
 -1      1247 7.50019E-01
 -1      1248 6.04355E-01
 -1      1249 3.80355E-01
 -1      1250 3.61705E-01
 -1      1251 4.21391E-01
 -1      1252 4.14448E-01
 -1      1253 3.63678E-01
 -1      1254 2.47472E-01
 -1      1255 1.61669E-01
 -1      1256 1.08655E-01
 -1      1257 2.40207E+01
 -1      1258 3.52531E+01
 -1      1259 4.64671E+01
 -1      1260 3.28027E+01
 -1      1261 1.57800E+01
 -1      1262 1.26676E+01
 -1      1263 1.29135E+01
 -1      1264 1.29573E+01
 -1      1265 1.30012E+01
 -1      1266 1.56161E+01
 -1      1267 3.19131E+01
 -1      1268 4.55952E+01
 -1      1269 3.48709E+01
 -1      1270 2.41466E+01
 -1      1271 2.48071E+01
 -1      1272 2.75301E+01
 -1      1273 2.95926E+01
 -1      1274 2.78719E+01
 -1      1275 1.92913E+01
 -1      1276 1.29454E+01
 -1      1277 1.34593E+01
 -1      1278 1.27216E+01
 -1      1279 1.21678E+01
 -1      1280 1.23518E+01
 -1      1281 1.73405E+01
 -1      1282 3.50450E+01
 -1      1283 4.77608E+01
 -1      1284 3.59360E+01
 -1      1285 2.40567E+01
 -1      1286 1.31434E+01
 -1      1287 4.87102E+00
 -1      1288 9.61078E+00
 -1      1289 2.06388E+00
 -1      1290 2.98239E+00
 -1      1291 4.18952E+00
 -1      1292 1.39802E+00
 -1      1293 1.66638E+00
 -1      1294 1.90339E+00
 -1      1295 1.10095E+00
 -1      1296 1.22420E+00
 -1      1297 1.33206E+00
 -1      1298 9.36019E-01
 -1      1299 1.00784E+00
 -1      1300 1.06513E+00
 -1      1301 8.36661E-01
 -1      1302 8.82223E-01
 -1      1303 9.18228E-01
 -1      1304 7.75003E-01
 -1      1305 8.02481E-01
 -1      1306 8.30252E-01
 -1      1307 7.55895E-01
 -1      1308 7.54914E-01
 -1      1309 7.75984E-01
 -1      1310 8.06341E-01
 -1      1311 7.77697E-01
 -1      1312 7.77697E-01
 -1      1313 8.84072E-01
 -1      1314 8.40226E-01
 -1      1315 8.33386E-01
 -1      1316 1.01684E+00
 -1      1317 9.40960E-01
 -1      1318 9.24159E-01
 -1      1319 1.24015E+00
 -1      1320 1.11258E+00
 -1      1321 1.07678E+00
 -1      1322 1.68167E+00
 -1      1323 1.41768E+00
 -1      1324 1.35005E+00
 -1      1325 2.88316E+00
 -1      1326 2.04829E+00
 -1      1327 1.89419E+00
 -1      1328 6.28630E+00
 -1      1329 3.71833E+00
 -1      1330 3.09598E+00
 -1      1331 1.40393E+01
 -1      1332 1.13404E+01
 -1      1333 8.98523E+00
 -1      1334 1.40393E+01
 -1      1335 8.73071E+00
 -1      1336 4.31801E+00
 -1      1337 3.82959E+00
 -1      1338 3.34116E+00
 -1      1339 3.82959E+00
 -1      1340 2.72632E+00
 -1      1341 2.11147E+00
 -1      1342 2.72632E+00
 -1      1343 1.77949E+00
 -1      1344 1.40510E+00
 -1      1345 1.77949E+00
 -1      1346 1.19418E+00
 -1      1347 1.01986E+00
 -1      1348 1.23659E+00
 -1      1349 8.94628E-01
 -1      1350 7.75211E-01
 -1      1351 9.00442E-01
 -1      1352 6.85382E-01
 -1      1353 5.95553E-01
 -1      1354 6.85382E-01
 -1      1355 5.31931E-01
 -1      1356 4.61914E-01
 -1      1357 5.31931E-01
 -1      1358 4.11999E-01
 -1      1359 3.58356E-01
 -1      1360 4.18394E-01
 -1      1361 3.19457E-01
 -1      1362 2.80197E-01
 -1      1363 3.29580E-01
 -1      1364 2.51986E-01
 -1      1365 2.20526E-01
 -1      1366 2.62470E-01
 -1      1367 1.96657E-01
 -1      1368 1.71980E-01
 -1      1369 2.10390E-01
 -1      1370 1.52368E-01
 -1      1371 1.33495E-01
 -1      1372 1.66909E-01
 -1      1373 1.17818E-01
 -1      1374 1.03859E-01
 -1      1375 1.31620E-01
 -1      1376 9.16790E-02
 -1      1377 8.18460E-02
 -1      1378 1.03762E-01
 -1      1379 7.26749E-02
 -1      1380 6.62826E-02
 -1      1381 8.24107E-02
 -1      1382 5.96152E-02
 -1      1383 5.60694E-02
 -1      1384 6.65722E-02
 -1      1385 5.21665E-02
 -1      1386 5.51814E-02
 -1      1387 5.60020E-02
 -1      1388 5.82638E-02
 -1      1389 6.29572E-02
 -1      1390 5.51814E-02
 -1      1391 6.83615E-02
 -1      1392 7.52913E-02
 -1      1393 6.36681E-02
 -1      1394 8.49342E-02
 -1      1395 9.79189E-02
 -1      1396 7.87154E-02
 -1      1397 1.10431E-01
 -1      1398 1.27200E-01
 -1      1399 1.00870E-01
 -1      1400 1.42513E-01
 -1      1401 1.62966E-01
 -1      1402 1.28696E-01
 -1      1403 1.81923E-01
 -1      1404 2.05453E-01
 -1      1405 1.62966E-01
 -1      1406 2.28983E-01
 -1      1407 2.54173E-01
 -1      1408 2.05453E-01
 -1      1409 2.85555E-01
 -1      1410 3.09800E-01
 -1      1411 2.60366E-01
 -1      1412 3.47415E-01
 -1      1413 3.80122E-01
 -1      1414 3.29364E-01
 -1      1415 4.16746E-01
 -1      1416 4.68285E-01
 -1      1417 4.03603E-01
 -1      1418 5.07770E-01
 -1      1419 5.73960E-01
 -1      1420 4.79712E-01
 -1      1421 6.28723E-01
 -1      1422 6.89241E-01
 -1      1423 5.73960E-01
 -1      1424 7.49760E-01
 -1      1425 7.85712E-01
 -1      1426 6.89241E-01
 -1      1427 8.21664E-01
 -1      1428 8.21664E-01
 -1      1429 7.85712E-01
 -1      1430 8.20495E-01
 -1      1431 8.77334E-01
 -1      1432 8.20495E-01
 -1      1433 9.35342E-01
 -1      1434 9.35342E-01
 -1      1435 8.77334E-01
 -1      1436 9.16745E-01
 -1      1437 1.09877E+00
 -1      1438 9.16745E-01
 -1      1439 1.29940E+00
 -1      1440 1.48323E+00
 -1      1441 1.09877E+00
 -1      1442 1.75002E+00
 -1      1443 2.25441E+00
 -1      1444 1.56619E+00
 -1      1445 2.67584E+00
 -1      1446 3.02797E+00
 -1      1447 2.25441E+00
 -1      1448 3.38009E+00
 -1      1449 3.41819E+00
 -1      1450 3.02797E+00
 -1      1451 3.45629E+00
 -1      1452 3.45629E+00
 -1      1453 3.41819E+00
 -1      1454 3.39275E+00
 -1      1455 3.32921E+00
 -1      1456 3.39275E+00
 -1      1457 3.11986E+00
 -1      1458 2.91051E+00
 -1      1459 3.11986E+00
 -1      1460 2.52798E+00
 -1      1461 2.11302E+00
 -1      1462 2.52798E+00
 -1      1463 1.82358E+00
 -1      1464 1.44728E+00
 -1      1465 1.85602E+00
 -1      1466 1.23134E+00
 -1      1467 9.41104E-01
 -1      1468 1.35064E+00
 -1      1469 7.51063E-01
 -1      1470 5.77902E-01
 -1      1471 9.44648E-01
 -1      1472 4.55461E-01
 -1      1473 3.92653E-01
 -1      1474 6.32167E-01
 -1      1475 3.07366E-01
 -1      1476 2.49873E-01
 -1      1477 4.24438E-01
 -1      1478 1.54420E-01
 -1      1479 2.43698E-01
 -1      1480 3.39475E+00
 -1      1481 8.71703E+00
 -1      1482 8.71703E+00
 -1      1483 2.41314E+00
 -1      1484 2.90394E+00
 -1      1485 2.90394E+00
 -1      1486 1.66595E+00
 -1      1487 2.03954E+00
 -1      1488 2.03954E+00
 -1      1489 1.14488E+00
 -1      1490 1.40542E+00
 -1      1491 1.40542E+00
 -1      1492 9.05929E-01
 -1      1493 1.02541E+00
 -1      1494 1.02541E+00
 -1      1495 7.31302E-01
 -1      1496 8.18615E-01
 -1      1497 8.18615E-01
 -1      1498 5.87903E-01
 -1      1499 6.59603E-01
 -1      1500 6.59603E-01
 -1      1501 4.68460E-01
 -1      1502 5.28182E-01
 -1      1503 5.28182E-01
 -1      1504 3.69151E-01
 -1      1505 4.18806E-01
 -1      1506 4.18806E-01
 -1      1507 2.95103E-01
 -1      1508 3.32127E-01
 -1      1509 3.32127E-01
 -1      1510 2.33694E-01
 -1      1511 2.64399E-01
 -1      1512 2.64399E-01
 -1      1513 1.84622E-01
 -1      1514 2.09847E-01
 -1      1515 2.09847E-01
 -1      1516 1.45300E-01
 -1      1517 1.65412E-01
 -1      1518 1.66789E-01
 -1      1519 1.14624E-01
 -1      1520 1.30079E-01
 -1      1521 1.32359E-01
 -1      1522 9.18265E-02
 -1      1523 1.03087E-01
 -1      1524 1.05602E-01
 -1      1525 7.61576E-02
 -1      1526 8.36420E-02
 -1      1527 8.58811E-02
 -1      1528 6.72246E-02
 -1      1529 7.10053E-02
 -1      1530 7.25443E-02
 -1      1531 7.37282E-02
 -1      1532 6.89884E-02
 -1      1533 6.91557E-02
 -1      1534 8.72773E-02
 -1      1535 7.91573E-02
 -1      1536 7.63486E-02
 -1      1537 1.06931E-01
 -1      1538 9.53605E-02
 -1      1539 8.98609E-02
 -1      1540 1.32662E-01
 -1      1541 1.17543E-01
 -1      1542 1.08556E-01
 -1      1543 1.64866E-01
 -1      1544 1.46157E-01
 -1      1545 1.32662E-01
 -1      1546 2.10864E-01
 -1      1547 1.88714E-01
 -1      1548 1.70006E-01
 -1      1549 2.69953E-01
 -1      1550 2.41468E-01
 -1      1551 2.24459E-01
 -1      1552 3.52970E-01
 -1      1553 3.07681E-01
 -1      1554 2.92790E-01
 -1      1555 4.52809E-01
 -1      1556 3.97854E-01
 -1      1557 3.75401E-01
 -1      1558 5.68574E-01
 -1      1559 5.04835E-01
 -1      1560 4.72311E-01
 -1      1561 6.93099E-01
 -1      1562 6.24089E-01
 -1      1563 5.79852E-01
 -1      1564 8.17084E-01
 -1      1565 7.50831E-01
 -1      1566 6.93099E-01
 -1      1567 9.31891E-01
 -1      1568 8.83337E-01
 -1      1569 8.17084E-01
 -1      1570 1.01521E+00
 -1      1571 9.80445E-01
 -1      1572 9.31891E-01
 -1      1573 1.35042E+00
 -1      1574 1.15254E+00
 -1      1575 1.11777E+00
 -1      1576 1.64250E+00
 -1      1577 1.45804E+00
 -1      1578 1.36271E+00
 -1      1579 1.89087E+00
 -1      1580 1.81465E+00
 -1      1581 1.64250E+00
 -1      1582 2.24068E+00
 -1      1583 1.96709E+00
 -1      1584 1.89087E+00
 -1      1585 2.51427E+00
 -1      1586 2.51427E+00
 -1      1587 2.24068E+00
 -1      1588 2.92427E+00
 -1      1589 2.47240E+00
 -1      1590 2.47240E+00
 -1      1591 4.23287E+00
 -1      1592 3.41800E+00
 -1      1593 2.92427E+00
 -1      1594 5.58769E+00
 -1      1595 5.04773E+00
 -1      1596 4.23287E+00
 -1      1597 6.35647E+00
 -1      1598 6.12764E+00
 -1      1599 5.58769E+00
 -1      1600 6.58530E+00
 -1      1601 6.58530E+00
 -1      1602 6.35647E+00
 -1      1603 4.87425E+00
 -1      1604 5.72977E+00
 -1      1605 5.72977E+00
 -1      1606 2.28205E+00
 -1      1607 3.59468E+00
 -1      1608 3.59468E+00
 -1      1609 1.34186E+00
 -1      1610 1.67442E+00
 -1      1611 1.70748E+00
 -1      1612 1.65191E+00
 -1      1613 1.58387E+00
 -1      1614 1.34186E+00
 -1      1615 1.71994E+00
 -1      1616 1.71994E+00
 -1      1617 1.65191E+00
 -1      1618 1.45492E+00
 -1      1619 1.58743E+00
 -1      1620 1.58743E+00
 -1      1621 1.05369E+00
 -1      1622 1.25430E+00
 -1      1623 1.25430E+00
 -1      1624 8.01299E-01
 -1      1625 6.27107E-01
 -1      1626 6.27107E-01
 -1      1627 6.49294E-01
 -1      1628 6.80197E-01
 -1      1629 7.58392E-01
 -1      1630 5.71628E-01
 -1      1631 6.49294E-01
 -1      1632 8.11481E-01
 -1      1633 5.12019E-01
 -1      1634 4.72679E-01
 -1      1635 7.12532E-01
 -1      1636 1.01311E+00
 -1      1637 8.53742E-01
 -1      1638 9.55306E-01
 -1      1639 1.13861E+00
 -1      1640 1.12820E+00
 -1      1641 1.41212E+00
 -1      1642 1.13861E+00
 -1      1643 1.13861E+00
 -1      1644 1.52721E+00
 -1      1645 9.13880E-01
 -1      1646 1.05954E+00
 -1      1647 1.44814E+00
 -1      1648 5.04475E-01
 -1      1649 5.82812E-01
 -1      1650 1.03800E+00
 -1      1651 5.93197E-01
 -1      1652 5.33511E-01
 -1      1653 7.35967E-01
 -1      1654 5.94613E-01
 -1      1655 5.94613E-01
 -1      1656 7.66419E-01
 -1      1657 5.87671E-01
 -1      1658 5.94613E-01
 -1      1659 7.67836E-01
 -1      1660 5.15471E-01
 -1      1661 5.59299E-01
 -1      1662 7.39464E-01
 -1      1663 3.39348E-01
 -1      1664 4.11727E-01
 -1      1665 6.07347E-01
 -1      1666 2.81579E-01
 -1      1667 2.95004E-01
 -1      1668 4.59259E-01
 -1      1669 3.77033E-01
 -1      1670 2.78009E+01
 -1      1671 2.77824E+01
 -1      1672 3.71551E+01
 -1      1673 2.59411E+01
 -1      1674 4.64671E+01
 -1      1675 4.64671E+01
 -1      1676 1.96896E+01
 -1      1677 3.33540E+01
 -1      1678 1.18612E+01
 -1      1679 1.52195E+01
 -1      1680 1.26676E+01
 -1      1681 1.24217E+01
 -1      1682 1.29135E+01
 -1      1683 1.29135E+01
 -1      1684 1.26200E+01
 -1      1685 1.25761E+01
 -1      1686 1.30012E+01
 -1      1687 1.30012E+01
 -1      1688 1.51150E+01
 -1      1689 1.25001E+01
 -1      1690 3.21404E+01
 -1      1691 1.84583E+01
 -1      1692 4.55952E+01
 -1      1693 4.55952E+01
 -1      1694 3.19511E+01
 -1      1695 4.26754E+01
 -1      1696 2.65486E+01
 -1      1697 2.65486E+01
 -1      1698 2.72091E+01
 -1      1699 2.65486E+01
 -1      1700 3.03981E+01
 -1      1701 2.83356E+01
 -1      1702 3.03981E+01
 -1      1703 3.03981E+01
 -1      1704 2.72973E+01
 -1      1705 2.90180E+01
 -1      1706 1.23782E+01
 -1      1707 1.92380E+01
 -1      1708 1.29454E+01
 -1      1709 1.24315E+01
 -1      1710 1.34593E+01
 -1      1711 1.34593E+01
 -1      1712 1.18912E+01
 -1      1713 1.26290E+01
 -1      1714 1.21678E+01
 -1      1715 1.19838E+01
 -1      1716 1.23518E+01
 -1      1717 1.23518E+01
 -1      1718 1.68664E+01
 -1      1719 1.18777E+01
 -1      1720 3.55730E+01
 -1      1721 2.28572E+01
 -1      1722 4.77608E+01
 -1      1723 4.77608E+01
 -1      1724 2.65398E+01
 -1      1725 3.83646E+01
 -1      1726 2.77824E+01
 -1      1727 2.78369E+01
 -1      1728 1.57707E+01
 -1      1729 3.33540E+01
 -1      1730 8.01299E-01
 -1      1731 8.79494E-01
 -1      1732 2.97029E+01
 -1      1733 3.71551E+01
 -1      1734 3.15626E+01
 -1      1735 1.18612E+01
 -1      1736 1.26676E+01
 -1      1737 1.25761E+01
 -1      1738 1.26200E+01
 -1      1739 1.25001E+01
 -1      1740 1.53423E+01
 -1      1741 3.21404E+01
 -1      1742 4.26754E+01
 -1      1743 3.43531E+01
 -1      1744 2.89506E+01
 -1      1745 3.00771E+01
 -1      1746 3.12036E+01
 -1      1747 2.98235E+01
 -1      1748 2.03841E+01
 -1      1749 1.23782E+01
 -1      1750 1.29454E+01
 -1      1751 1.26290E+01
 -1      1752 1.18912E+01
 -1      1753 1.21678E+01
 -1      1754 1.18777E+01
 -1      1755 1.73943E+01
 -1      1756 3.55730E+01
 -1      1757 3.83646E+01
 -1      1758 3.02655E+01
 -1      1759 9.61078E+00
 -1      1760 1.28811E+00
 -1      1761 1.68561E+00
 -1      1762 2.39022E+00
 -1      1763 4.27885E+00
 -1      1764 1.77494E+00
 -1      1765 8.80340E-01
 -1      1766 9.73450E-01
 -1      1767 7.79804E-01
 -1      1768 8.33600E-01
 -1      1769 7.41917E-01
 -1      1770 7.14016E-01
 -1      1771 7.48196E-01
 -1      1772 6.63568E-01
 -1      1773 6.71781E-01
 -1      1774 6.91870E-01
 -1      1775 6.09813E-01
 -1      1776 6.95188E-01
 -1      1777 6.73386E-01
 -1      1778 5.89272E-01
 -1      1779 7.50909E-01
 -1      1780 7.17023E-01
 -1      1781 6.12711E-01
 -1      1782 8.41170E-01
 -1      1783 7.84281E-01
 -1      1784 6.67919E-01
 -1      1785 9.84498E-01
 -1      1786 8.88762E-01
 -1      1787 7.48884E-01
 -1      1788 1.22972E+00
 -1      1789 1.05219E+00
 -1      1790 8.64166E-01
 -1      1791 1.71048E+00
 -1      1792 1.34386E+00
 -1      1793 1.04600E+00
 -1      1794 2.63015E+00
 -1      1795 1.79497E+00
 -1      1796 1.24464E+00
 -1      1797 8.12003E+00
 -1      1798 3.06595E+00
 -1      1799 1.76494E+00
 -1      1800 2.79775E+00
 -1      1801 5.19808E+00
 -1      1802 2.16370E+00
 -1      1803 2.65450E+00
 -1      1804 2.05751E+00
 -1      1805 3.39879E+00
 -1      1806 2.53540E+00
 -1      1807 1.92056E+00
 -1      1808 1.68944E+00
 -1      1809 1.35745E+00
 -1      1810 1.49852E+00
 -1      1811 1.17731E+00
 -1      1812 9.66391E-01
 -1      1813 1.08726E+00
 -1      1814 8.40934E-01
 -1      1815 7.15703E-01
 -1      1816 7.81652E-01
 -1      1817 6.56947E-01
 -1      1818 5.67118E-01
 -1      1819 5.97439E-01
 -1      1820 5.18618E-01
 -1      1821 4.54996E-01
 -1      1822 4.90183E-01
 -1      1823 4.12303E-01
 -1      1824 3.62388E-01
 -1      1825 3.98991E-01
 -1      1826 3.29709E-01
 -1      1827 2.90810E-01
 -1      1828 3.23618E-01
 -1      1829 2.63337E-01
 -1      1830 2.35126E-01
 -1      1831 2.63466E-01
 -1      1832 2.11582E-01
 -1      1833 1.87714E-01
 -1      1834 2.12449E-01
 -1      1835 1.70007E-01
 -1      1836 1.50395E-01
 -1      1837 1.71199E-01
 -1      1838 1.35845E-01
 -1      1839 1.20168E-01
 -1      1840 1.38943E-01
 -1      1841 1.07964E-01
 -1      1842 9.57835E-02
 -1      1843 1.12189E-01
 -1      1844 8.57737E-02
 -1      1845 7.66027E-02
 -1      1846 8.99756E-02
 -1      1847 6.84978E-02
 -1      1848 6.18304E-02
 -1      1849 7.18609E-02
 -1      1850 5.52518E-02
 -1      1851 5.13489E-02
 -1      1852 5.71774E-02
 -1      1853 5.01559E-02
 -1      1854 5.32383E-02
 -1      1855 4.94057E-02
 -1      1856 5.67643E-02
 -1      1857 6.21686E-02
 -1      1858 5.17387E-02
 -1      1859 6.90724E-02
 -1      1860 7.87154E-02
 -1      1861 6.21686E-02
 -1      1862 8.83583E-02
 -1      1863 1.00870E-01
 -1      1864 7.87154E-02
 -1      1865 1.13382E-01
 -1      1866 1.28696E-01
 -1      1867 1.00870E-01
 -1      1868 1.50150E-01
 -1      1869 1.69106E-01
 -1      1870 1.34836E-01
 -1      1871 1.95440E-01
 -1      1872 2.18970E-01
 -1      1873 1.82624E-01
 -1      1874 2.49177E-01
 -1      1875 2.80559E-01
 -1      1876 2.39164E-01
 -1      1877 3.13051E-01
 -1      1878 3.50666E-01
 -1      1879 3.01862E-01
 -1      1880 3.82359E-01
 -1      1881 4.18983E-01
 -1      1882 3.66046E-01
 -1      1883 4.46323E-01
 -1      1884 4.85808E-01
 -1      1885 4.25079E-01
 -1      1886 5.14481E-01
 -1      1887 5.69244E-01
 -1      1888 4.81092E-01
 -1      1889 6.03052E-01
 -1      1890 6.63571E-01
 -1      1891 5.43574E-01
 -1      1892 6.75396E-01
 -1      1893 7.11348E-01
 -1      1894 5.89207E-01
 -1      1895 6.83942E-01
 -1      1896 6.82773E-01
 -1      1897 5.73626E-01
 -1      1898 6.47502E-01
 -1      1899 7.05509E-01
 -1      1900 5.10949E-01
 -1      1901 6.95870E-01
 -1      1902 6.77273E-01
 -1      1903 4.66037E-01
 -1      1904 8.69673E-01
 -1      1905 1.07030E+00
 -1      1906 6.48797E-01
 -1      1907 1.32901E+00
 -1      1908 1.59580E+00
 -1      1909 1.09991E+00
 -1      1910 1.78753E+00
 -1      1911 2.20896E+00
 -1      1912 1.55035E+00
 -1      1913 2.43897E+00
 -1      1914 2.79110E+00
 -1      1915 1.97209E+00
 -1      1916 2.86570E+00
 -1      1917 2.90379E+00
 -1      1918 2.27670E+00
 -1      1919 2.82685E+00
 -1      1920 2.76331E+00
 -1      1921 2.27435E+00
 -1      1922 2.77366E+00
 -1      1923 2.56431E+00
 -1      1924 2.20776E+00
 -1      1925 2.43513E+00
 -1      1926 2.05260E+00
 -1      1927 2.08893E+00
 -1      1928 1.90679E+00
 -1      1929 1.61735E+00
 -1      1930 1.81393E+00
 -1      1931 1.44269E+00
 -1      1932 1.22674E+00
 -1      1933 1.49346E+00
 -1      1934 1.10502E+00
 -1      1935 9.14979E-01
 -1      1936 1.19707E+00
 -1      1937 7.97391E-01
 -1      1938 6.74950E-01
 -1      1939 9.57762E-01
 -1      1940 6.05647E-01
 -1      1941 5.20359E-01
 -1      1942 5.58241E-01
 -1      1943 7.70871E-01
 -1      1944 1.39821E+00
 -1      1945 1.77180E+00
 -1      1946 1.52236E+00
 -1      1947 1.01811E+00
 -1      1948 1.27865E+00
 -1      1949 1.01091E+00
 -1      1950 8.04916E-01
 -1      1951 9.24393E-01
 -1      1952 7.97624E-01
 -1      1953 6.38245E-01
 -1      1954 7.25559E-01
 -1      1955 6.24546E-01
 -1      1956 5.12898E-01
 -1      1957 5.84598E-01
 -1      1958 4.91541E-01
 -1      1959 4.19962E-01
 -1      1960 4.79683E-01
 -1      1961 4.04678E-01
 -1      1962 3.38497E-01
 -1      1963 3.88152E-01
 -1      1964 3.39653E-01
 -1      1965 2.73799E-01
 -1      1966 3.10823E-01
 -1      1967 2.80169E-01
 -1      1968 2.20552E-01
 -1      1969 2.51257E-01
 -1      1970 2.29952E-01
 -1      1971 1.77012E-01
 -1      1972 2.00860E-01
 -1      1973 1.87718E-01
 -1      1974 1.41202E-01
 -1      1975 1.60412E-01
 -1      1976 1.51425E-01
 -1      1977 1.12595E-01
 -1      1978 1.27816E-01
 -1      1979 1.21439E-01
 -1      1980 9.09411E-02
 -1      1981 1.02477E-01
 -1      1982 9.79344E-02
 -1      1983 7.53561E-02
 -1      1984 8.35406E-02
 -1      1985 8.04161E-02
 -1      1986 6.53284E-02
 -1      1987 7.04807E-02
 -1      1988 6.81402E-02
 -1      1989 6.51865E-02
 -1      1990 6.34228E-02
 -1      1991 6.13592E-02
 -1      1992 7.26174E-02
 -1      1993 6.71883E-02
 -1      1994 6.14553E-02
 -1      1995 8.51223E-02
 -1      1996 7.70392E-02
 -1      1997 6.78788E-02
 -1      1998 1.06551E-01
 -1      1999 9.59393E-02
 -1      2000 8.31175E-02
 -1      2001 1.34749E-01
 -1      2002 1.21255E-01
 -1      2003 1.08638E-01
 -1      2004 1.77620E-01
 -1      2005 1.53772E-01
 -1      2006 1.42364E-01
 -1      2007 2.45011E-01
 -1      2008 2.14407E-01
 -1      2009 1.98173E-01
 -1      2010 3.31648E-01
 -1      2011 2.93921E-01
 -1      2012 2.83869E-01
 -1      2013 4.40008E-01
 -1      2014 3.95124E-01
 -1      2015 3.96254E-01
 -1      2016 5.71940E-01
 -1      2017 5.19914E-01
 -1      2018 5.39637E-01
 -1      2019 7.23947E-01
 -1      2020 6.68432E-01
 -1      2021 7.16035E-01
 -1      2022 8.91287E-01
 -1      2023 8.33555E-01
 -1      2024 9.22135E-01
 -1      2025 1.07033E+00
 -1      2026 1.00408E+00
 -1      2027 1.14453E+00
 -1      2028 1.21502E+00
 -1      2029 1.16647E+00
 -1      2030 1.35346E+00
 -1      2031 1.43860E+00
 -1      2032 1.30128E+00
 -1      2033 1.53586E+00
 -1      2034 1.56707E+00
 -1      2035 1.45945E+00
 -1      2036 1.64296E+00
 -1      2037 1.74638E+00
 -1      2038 1.57423E+00
 -1      2039 1.67096E+00
 -1      2040 1.72152E+00
 -1      2041 1.64530E+00
 -1      2042 1.57703E+00
 -1      2043 1.99917E+00
 -1      2044 1.72558E+00
 -1      2045 1.48001E+00
 -1      2046 2.23004E+00
 -1      2047 2.27191E+00
 -1      2048 1.75682E+00
 -1      2049 3.25894E+00
 -1      2050 2.76520E+00
 -1      2051 2.56472E+00
 -1      2052 4.48089E+00
 -1      2053 3.66603E+00
 -1      2054 3.50696E+00
 -1      2055 5.12720E+00
 -1      2056 4.58724E+00
 -1      2057 4.02040E+00
 -1      2058 5.09272E+00
 -1      2059 4.86389E+00
 -1      2060 3.86344E+00
 -1      2061 3.94289E+00
 -1      2062 4.79842E+00
 -1      2063 3.30583E+00
 -1      2064 2.30992E+00
 -1      2065 3.58949E+00
 -1      2066 2.65813E+00
 -1      2067 1.35439E+00
 -1      2068 1.96202E+00
 -1      2069 1.95683E+00
 -1      2070 1.46600E+00
 -1      2071 1.22399E+00
 -1      2072 1.47853E+00
 -1      2073 1.45402E+00
 -1      2074 1.38599E+00
 -1      2075 1.26811E+00
 -1      2076 1.26296E+00
 -1      2077 1.39547E+00
 -1      2078 1.12955E+00
 -1      2079 1.02363E+00
 -1      2080 1.22425E+00
 -1      2081 1.03229E+00
 -1      2082 8.49435E-01
 -1      2083 8.89919E-01
 -1      2084 9.88869E-01
 -1      2085 9.40991E-01
 -1      2086 9.40991E-01
 -1      2087 1.11838E+00
 -1      2088 9.40991E-01
 -1      2089 8.87901E-01
 -1      2090 1.03203E+00
 -1      2091 1.07050E+00
 -1      2092 1.44169E+00
 -1      2093 1.09997E+00
 -1      2094 1.37631E+00
 -1      2095 1.98923E+00
 -1      2096 1.87414E+00
 -1      2097 2.01881E+00
 -1      2098 2.00071E+00
 -1      2099 2.00071E+00
 -1      2100 2.46273E+00
 -1      2101 1.92164E+00
 -1      2102 2.00071E+00
 -1      2103 2.47422E+00
 -1      2104 1.22330E+00
 -1      2105 1.55437E+00
 -1      2106 2.10695E+00
 -1      2107 9.95373E-01
 -1      2108 9.66337E-01
 -1      2109 1.48271E+00
 -1      2110 9.27958E-01
 -1      2111 9.26541E-01
 -1      2112 1.15691E+00
 -1      2113 9.27958E-01
 -1      2114 9.27958E-01
 -1      2115 1.08808E+00
 -1      2116 8.34103E-01
 -1      2117 8.62475E-01
 -1      2118 1.02260E+00
 -1      2119 6.55078E-01
 -1      2120 7.58822E-01
 -1      2121 8.81833E-01
 -1      2122 3.71551E+01
 -1      2123 2.78431E+01
 -1      2124 3.15626E+01
 -1      2125 3.15626E+01
 -1      2126 2.79032E+01
 -1      2127 2.97629E+01
 -1      2128 2.79032E+01
 -1      2129 1.79201E+01
 -1      2130 3.10333E+01
 -1      2131 9.92161E+00
 -1      2132 1.43917E+01
 -1      2133 1.03552E+00
 -1      2134 1.20934E+00
 -1      2135 9.91560E-01
 -1      2136 8.50726E-01
 -1      2137 1.16299E+01
 -1      2138 1.13840E+01
 -1      2139 1.20063E+01
 -1      2140 1.23437E+01
 -1      2141 1.21190E+01
 -1      2142 1.17378E+01
 -1      2143 1.15054E+01
 -1      2144 1.00890E+01
 -1      2145 1.05901E+01
 -1      2146 1.32464E+01
 -1      2147 9.90310E+00
 -1      2148 3.03765E+01
 -1      2149 1.69216E+01
 -1      2150 1.14825E+01
 -1      2151 3.32722E+01
 -1      2152 3.61920E+01
 -1      2153 2.74931E+01
 -1      2154 3.28955E+01
 -1      2155 2.64122E+01
 -1      2156 3.10641E+01
 -1      2157 3.10641E+01
 -1      2158 3.21906E+01
 -1      2159 3.10641E+01
 -1      2160 3.31776E+01
 -1      2161 3.12036E+01
 -1      2162 3.12036E+01
 -1      2163 2.38990E+01
 -1      2164 2.52791E+01
 -1      2165 2.52791E+01
 -1      2166 1.18704E+01
 -1      2167 1.99297E+01
 -1      2168 9.50063E+00
 -1      2169 9.44731E+00
 -1      2170 8.99282E+00
 -1      2171 1.10452E+01
 -1      2172 1.05313E+01
 -1      2173 1.17986E+01
 -1      2174 1.26290E+01
 -1      2175 1.17776E+01
 -1      2176 1.16850E+01
 -1      2177 1.16850E+01
 -1      2178 1.11138E+01
 -1      2179 1.09298E+01
 -1      2180 9.02287E+00
 -1      2181 9.49701E+00
 -1      2182 1.66029E+01
 -1      2183 1.06121E+01
 -1      2184 3.24406E+01
 -1      2185 2.02527E+01
 -1      2186 1.34706E+01
 -1      2187 2.89684E+01
 -1      2188 3.83646E+01
 -1      2189 3.07308E+01
 -1      2190 2.94337E+01
 -1      2191 3.07308E+01
 -1      2192 1.02566E+01
 -1      2193 9.69609E+00
 -1      2194 9.21891E+00
 -1      2195 8.31705E+00
 -1      2196 2.91036E+00
 -1      2197 2.10460E+00
 -1      2198 2.97629E+01
 -1      2199 1.51083E+01
 -1      2200 3.05421E+01
 -1      2201 2.12301E+01
 -1      2202 6.10734E-01
 -1      2203 1.20710E+01
 -1      2204 2.30444E+01
 -1      2205 8.23148E+00
 -1      2206 1.07236E+01
 -1      2207 7.60043E+00
 -1      2208 1.53853E+01
 -1      2209 2.66963E+01
 -1      2210 2.76833E+01
 -1      2211 2.66963E+01
 -1      2212 2.96066E+01
 -1      2213 2.99791E+01
 -1      2214 1.47603E+01
 -1      2215 2.05759E+01
 -1      2216 9.70796E+00
 -1      2217 1.10601E+01
 -1      2218 7.99314E+00
 -1      2219 1.02149E+01
 -1      2220 8.25903E+00
 -1      2221 2.94337E+01
 -1      2222 1.08915E+00
 -1      2223 1.48105E+00
 -1      2224 5.59376E-01
 -1      2225 5.90985E-01
 -1      2226 6.03267E-01
 -1      2227 6.50007E-01
 -1      2228 4.99075E-01
 -1      2229 5.11274E-01
 -1      2230 5.09669E-01
 -1      2231 5.46034E-01
 -1      2232 5.24199E-01
 -1      2233 4.44596E-01
 -1      2234 5.94229E-01
 -1      2235 5.60857E-01
 -1      2236 4.72344E-01
 -1      2237 6.53910E-01
 -1      2238 6.06317E-01
 -1      2239 4.99255E-01
 -1      2240 7.21600E-01
 -1      2241 6.53910E-01
 -1      2242 5.11343E-01
 -1      2243 8.84596E-01
 -1      2244 7.70452E-01
 -1      2245 5.60195E-01
 -1      2246 8.91345E-01
 -1      2247 1.01091E+00
 -1      2248 9.69593E-01
 -1      2249 1.26599E+00
 -1      2250 1.03487E+00
 -1      2251 1.67826E+00
 -1      2252 1.30330E+00
 -1      2253 8.39647E-01
 -1      2254 9.73644E-01
 -1      2255 6.66443E+00
 -1      2256 6.88994E+00
 -1      2257 9.84465E-01
 -1      2258 8.04318E-01
 -1      2259 7.51928E-01
 -1      2260 7.47889E-01
 -1      2261 6.22432E-01
 -1      2262 6.45098E-01
 -1      2263 5.66381E-01
 -1      2264 5.07624E-01
 -1      2265 5.32617E-01
 -1      2266 4.58465E-01
 -1      2267 4.09966E-01
 -1      2268 4.27407E-01
 -1      2269 3.82620E-01
 -1      2270 3.39928E-01
 -1      2271 3.50903E-01
 -1      2272 3.14997E-01
 -1      2273 2.82318E-01
 -1      2274 2.98627E-01
 -1      2275 2.58765E-01
 -1      2276 2.31292E-01
 -1      2277 2.50144E-01
 -1      2278 2.11569E-01
 -1      2279 1.88026E-01
 -1      2280 2.06869E-01
 -1      2281 1.71199E-01
 -1      2282 1.53492E-01
 -1      2283 1.70319E-01
 -1      2284 1.38943E-01
 -1      2285 1.24393E-01
 -1      2286 1.38943E-01
 -1      2287 1.13484E-01
 -1      2288 1.01280E-01
 -1      2289 1.13484E-01
 -1      2290 9.22617E-02
 -1      2291 8.22519E-02
 -1      2292 9.35565E-02
 -1      2293 7.46994E-02
 -1      2294 6.65946E-02
 -1      2295 7.69855E-02
 -1      2296 6.03416E-02
 -1      2297 5.37630E-02
 -1      2298 6.31802E-02
 -1      2299 4.85346E-02
 -1      2300 4.73416E-02
 -1      2301 5.16988E-02
 -1      2302 4.58095E-02
 -1      2303 4.93355E-02
 -1      2304 4.49384E-02
 -1      2305 5.37963E-02
 -1      2306 6.07001E-02
 -1      2307 4.78670E-02
 -1      2308 6.69839E-02
 -1      2309 7.66268E-02
 -1      2310 5.86116E-02
 -1      2311 8.91083E-02
 -1      2312 1.01620E-01
 -1      2313 7.73768E-02
 -1      2314 1.20206E-01
 -1      2315 1.41660E-01
 -1      2316 1.08444E-01
 -1      2317 1.64307E-01
 -1      2318 1.90641E-01
 -1      2319 1.49677E-01
 -1      2320 2.17401E-01
 -1      2321 2.47607E-01
 -1      2322 1.99084E-01
 -1      2323 2.77925E-01
 -1      2324 3.10417E-01
 -1      2325 2.56162E-01
 -1      2326 3.42809E-01
 -1      2327 3.74502E-01
 -1      2328 3.18873E-01
 -1      2329 4.07948E-01
 -1      2330 4.35288E-01
 -1      2331 3.84711E-01
 -1      2332 4.63691E-01
 -1      2333 4.92364E-01
 -1      2334 4.46560E-01
 -1      2335 5.07413E-01
 -1      2336 5.41221E-01
 -1      2337 4.90012E-01
 -1      2338 5.41221E-01
 -1      2339 5.53046E-01
 -1      2340 5.05060E-01
 -1      2341 5.46152E-01
 -1      2342 5.18746E-01
 -1      2343 4.98166E-01
 -1      2344 5.85355E-01
 -1      2345 5.50083E-01
 -1      2346 5.57881E-01
 -1      2347 6.38978E-01
 -1      2348 6.29338E-01
 -1      2349 7.13384E-01
 -1      2350 7.67183E-01
 -1      2351 9.59583E-01
 -1      2352 9.40123E-01
 -1      2353 1.01739E+00
 -1      2354 1.27610E+00
 -1      2355 1.13578E+00
 -1      2356 1.39912E+00
 -1      2357 1.59085E+00
 -1      2358 1.31660E+00
 -1      2359 1.70578E+00
 -1      2360 1.93579E+00
 -1      2361 1.55454E+00
 -1      2362 1.97058E+00
 -1      2363 2.04517E+00
 -1      2364 1.70426E+00
 -1      2365 2.11393E+00
 -1      2366 2.03698E+00
 -1      2367 1.80781E+00
 -1      2368 2.15481E+00
 -1      2369 2.16516E+00
 -1      2370 1.99438E+00
 -1      2371 2.02702E+00
 -1      2372 1.89783E+00
 -1      2373 1.97406E+00
 -1      2374 1.80049E+00
 -1      2375 1.65468E+00
 -1      2376 1.73858E+00
 -1      2377 1.55345E+00
 -1      2378 1.37879E+00
 -1      2379 1.54001E+00
 -1      2380 1.31880E+00
 -1      2381 1.19707E+00
 -1      2382 1.37879E+00
 -1      2383 1.33340E+00
 -1      2384 1.21581E+00
 -1      2385 1.45512E+00
 -1      2386 2.35078E+01
 -1      2387 2.35679E+01
 -1      2388 5.45189E-01
 -1      2389 6.24546E-01
 -1      2390 4.37893E-01
 -1      2391 4.91541E-01
 -1      2392 4.91541E-01
 -1      2393 3.71463E-01
 -1      2394 4.04678E-01
 -1      2395 4.04678E-01
 -1      2396 3.07843E-01
 -1      2397 3.39653E-01
 -1      2398 3.39653E-01
 -1      2399 2.52494E-01
 -1      2400 2.80169E-01
 -1      2401 2.80169E-01
 -1      2402 2.07713E-01
 -1      2403 2.30256E-01
 -1      2404 2.30256E-01
 -1      2405 1.68585E-01
 -1      2406 1.88277E-01
 -1      2407 1.88581E-01
 -1      2408 1.35438E-01
 -1      2409 1.52038E-01
 -1      2410 1.52598E-01
 -1      2411 1.09062E-01
 -1      2412 1.22448E-01
 -1      2413 1.23061E-01
 -1      2414 8.84710E-02
 -1      2415 9.85888E-02
 -1      2416 9.95984E-02
 -1      2417 7.22174E-02
 -1      2418 7.96178E-02
 -1      2419 8.02723E-02
 -1      2420 5.98711E-02
 -1      2421 6.47466E-02
 -1      2422 6.39483E-02
 -1      2423 5.39749E-02
 -1      2424 5.58805E-02
 -1      2425 5.24868E-02
 -1      2426 5.46965E-02
 -1      2427 5.26947E-02
 -1      2428 4.72161E-02
 -1      2429 6.42960E-02
 -1      2430 5.98742E-02
 -1      2431 5.11136E-02
 -1      2432 8.29474E-02
 -1      2433 7.21305E-02
 -1      2434 6.41259E-02
 -1      2435 1.13235E-01
 -1      2436 9.85310E-02
 -1      2437 8.75440E-02
 -1      2438 1.56664E-01
 -1      2439 1.37642E-01
 -1      2440 1.27535E-01
 -1      2441 2.25767E-01
 -1      2442 1.88981E-01
 -1      2443 1.84258E-01
 -1      2444 3.16961E-01
 -1      2445 2.68052E-01
 -1      2446 2.58860E-01
 -1      2447 4.34874E-01
 -1      2448 3.71399E-01
 -1      2449 3.55581E-01
 -1      2450 5.83403E-01
 -1      2451 5.03496E-01
 -1      2452 4.78641E-01
 -1      2453 7.64011E-01
 -1      2454 6.67519E-01
 -1      2455 6.31379E-01
 -1      2456 9.72780E-01
 -1      2457 8.63172E-01
 -1      2458 8.14656E-01
 -1      2459 1.19590E+00
 -1      2460 1.08311E+00
 -1      2461 1.02414E+00
 -1      2462 1.40386E+00
 -1      2463 1.30772E+00
 -1      2464 1.24629E+00
 -1      2465 1.58517E+00
 -1      2466 1.49892E+00
 -1      2467 1.45318E+00
 -1      2468 1.68241E+00
 -1      2469 1.66157E+00
 -1      2470 1.62463E+00
 -1      2471 1.83936E+00
 -1      2472 1.83220E+00
 -1      2473 1.85082E+00
 -1      2474 1.88370E+00
 -1      2475 1.98479E+00
 -1      2476 2.14603E+00
 -1      2477 1.97940E+00
 -1      2478 1.97533E+00
 -1      2479 2.38309E+00
 -1      2480 2.67580E+00
 -1      2481 2.40305E+00
 -1      2482 2.89838E+00
 -1      2483 2.77462E+00
 -1      2484 2.23946E+00
 -1      2485 2.88570E+00
 -1      2486 3.91405E+00
 -1      2487 3.50696E+00
 -1      2488 3.18171E+00
 -1      2489 5.65214E+00
 -1      2490 5.54578E+00
 -1      2491 5.54578E+00
 -1      2492 3.94486E+00
 -1      2493 4.20817E+00
 -1      2494 5.73355E+00
 -1      2495 4.84425E+00
 -1      2496 5.13855E+00
 -1      2497 5.48327E+00
 -1      2498 2.51144E+00
 -1      2499 2.86484E+00
 -1      2500 4.69755E+00
 -1      2501 2.21794E+00
 -1      2502 2.56584E+00
 -1      2503 2.77255E+00
 -1      2504 1.65124E+00
 -1      2505 1.78164E+00
 -1      2506 2.39065E+00
 -1      2507 1.31807E+00
 -1      2508 1.39808E+00
 -1      2509 1.70119E+00
 -1      2510 1.12955E+00
 -1      2511 1.18810E+00
 -1      2512 1.31807E+00
 -1      2513 1.07075E+00
 -1      2514 2.84785E+00
 -1      2515 2.41540E+00
 -1      2516 3.13958E+00
 -1      2517 3.12809E+00
 -1      2518 3.52469E+00
 -1      2519 1.40475E+00
 -1      2520 1.35687E+00
 -1      2521 1.91143E+00
 -1      2522 1.70138E+00
 -1      2523 1.93987E+00
 -1      2524 2.74047E+00
 -1      2525 3.13958E+00
 -1      2526 3.13958E+00
 -1      2527 3.80494E+00
 -1      2528 2.51692E+00
 -1      2529 2.88419E+00
 -1      2530 3.54955E+00
 -1      2531 1.79797E+00
 -1      2532 2.05494E+00
 -1      2533 2.83218E+00
 -1      2534 1.43604E+00
 -1      2535 1.50487E+00
 -1      2536 2.07710E+00
 -1      2537 1.30973E+00
 -1      2538 1.30973E+00
 -1      2539 1.65768E+00
 -1      2540 1.04803E+00
 -1      2541 1.11351E+00
 -1      2542 1.33516E+00
 -1      2543 8.31074E-01
 -1      2544 9.06355E-01
 -1      2545 9.97270E-01
 -1      2546 7.54060E-01
 -1      2547 9.33196E+00
 -1      2548 1.28604E+01
 -1      2549 7.03902E-01
 -1      2550 7.97624E-01
 -1      2551 6.24546E-01
 -1      2552 2.79633E+01
 -1      2553 2.97629E+01
 -1      2554 2.13015E+01
 -1      2555 1.53775E+01
 -1      2556 3.07308E+01
 -1      2557 2.98990E+01
 -1      2558 7.19205E+00
 -1      2559 5.60280E+00
 -1      2560 6.31282E+00
 -1      2561 5.28211E+00
 -1      2562 7.28563E+00
 -1      2563 8.81455E+00
 -1      2564 5.22591E-01
 -1      2565 5.44737E-01
 -1      2566 4.72154E-01
 -1      2567 4.44593E-01
 -1      2568 9.79316E+00
 -1      2569 9.07935E+00
 -1      2570 6.44992E+00
 -1      2571 6.63582E+00
 -1      2572 9.53859E+00
 -1      2573 9.80710E+00
 -1      2574 7.11626E+00
 -1      2575 9.19208E+00
 -1      2576 7.60834E+00
 -1      2577 1.22779E+01
 -1      2578 8.60266E+00
 -1      2579 2.18253E+01
 -1      2580 2.22020E+01
 -1      2581 2.96066E+01
 -1      2582 2.60355E+01
 -1      2583 3.31776E+01
 -1      2584 3.31776E+01
 -1      2585 1.80481E+01
 -1      2586 2.39726E+01
 -1      2587 1.03810E+01
 -1      2588 1.43503E+01
 -1      2589 1.30439E+01
 -1      2590 6.31183E+00
 -1      2591 8.73493E+00
 -1      2592 5.83981E+00
 -1      2593 7.45662E+00
 -1      2594 9.84929E+00
 -1      2595 9.96296E+00
 -1      2596 2.58741E+01
 -1      2597 2.54088E+01
 -1      2598 8.55387E+00
 -1      2599 9.40160E+00
 -1      2600 6.13465E+00
 -1      2601 1.25126E+01
 -1      2602 8.86282E+00
 -1      2603 6.23415E+00
 -1      2604 8.51162E+00
 -1      2605 7.38424E+00
 -1      2606 1.62118E+00
 -1      2607 1.76443E+00
 -1      2608 1.32862E+00
 -1      2609 1.18797E+00
 -1      2610 7.24469E+00
 -1      2611 5.11357E-01
 -1      2612 6.50007E-01
 -1      2613 7.12076E-01
 -1      2614 7.97624E-01
 -1      2615 1.24412E+00
 -1      2616 2.59035E+01
 -1      2617 2.59035E+01
 -1      2618 2.04092E+01
 -1      2619 2.96066E+01
 -1      2620 5.95714E+00
 -1      2621 2.18253E+01
 -1      2622 1.23692E+01
 -1      2623 1.95953E+01
 -1      2624 1.52600E+01
 -1      2625 1.29823E+01
 -1      2626 2.89311E+01
 -1      2627 1.12930E+00
 -1      2628 1.77419E+01
 -1      2629 1.12930E+00
 -1      2630 7.78582E-01
 -1      2631 8.31074E-01
 -1      2632 8.55595E-01
 -1      2633 8.47885E-01
 -1      2634 1.18805E+01
 -1      2635 7.67933E+00
 -1      2636 9.68574E-01
 -1      2637 2.35679E+01
 -1      2638 1.07697E+01
 -1      2639 2.58741E+01
 -1      2640 7.67959E+00
 -1      2641 4.97460E+00
 -1      2642 4.17219E+00
 -1      2643 3.93518E+00
 -1      2644 7.70001E+00
 -1      2645 5.74240E+00
 -1      2646 5.02422E+00
 -1      2647 5.29002E+00
 -1      2648 1.94653E+01
 -1      2649 1.59891E+01
 -1      2650 7.24534E+00
 -1      2651 6.86592E-01
 -1      2652 7.65356E-01
 -1      2653 6.68676E-01
 -1      2654 4.85873E-01
 -1      2655 9.20474E+00
 -1      2656 6.59819E+00
 -1      2657 7.36907E+00
 -1      2658 1.41567E+00
 -1      2659 1.22352E+00
 -1      2660 4.22748E-01
 -1      2661 4.07926E-01
 -1      2662 4.00200E-01
 -1      2663 3.87275E-01
 -1      2664 3.50605E-01
 -1      2665 4.36622E-01
 -1      2666 4.36622E-01
 -1      2667 4.73507E-01
 -1      2668 4.24655E-01
 -1      2669 3.49933E-01
 -1      2670 7.17656E-01
 -1      2671 7.95904E-01
 -1      2672 1.64557E+01
 -1      2673 2.08511E+01
 -1      2674 6.09497E-01
 -1      2675 7.03218E-01
 -1      2676 5.29529E-01
 -1      2677 6.14770E-01
 -1      2678 5.77453E-01
 -1      2679 4.06482E-01
 -1      2680 5.93247E-01
 -1      2681 5.42846E-01
 -1      2682 3.68370E-01
 -1      2683 5.06844E-01
 -1      2684 4.50415E-01
 -1      2685 3.48163E-01
 -1      2686 4.53682E-01
 -1      2687 3.97631E-01
 -1      2688 3.15429E-01
 -1      2689 3.87063E-01
 -1      2690 3.37903E-01
 -1      2691 3.08128E-01
 -1      2692 3.21155E-01
 -1      2693 2.93810E-01
 -1      2694 2.80810E-01
 -1      2695 2.75037E-01
 -1      2696 2.50107E-01
 -1      2697 2.45289E-01
 -1      2698 2.35256E-01
 -1      2699 2.11703E-01
 -1      2700 2.11665E-01
 -1      2701 1.99401E-01
 -1      2702 1.79678E-01
 -1      2703 1.84512E-01
 -1      2704 1.67141E-01
 -1      2705 1.50314E-01
 -1      2706 1.59673E-01
 -1      2707 1.38534E-01
 -1      2708 1.23985E-01
 -1      2709 1.35356E-01
 -1      2710 1.13484E-01
 -1      2711 1.02575E-01
 -1      2712 1.13076E-01
 -1      2713 9.35565E-02
 -1      2714 8.45380E-02
 -1      2715 9.35565E-02
 -1      2716 7.69855E-02
 -1      2717 6.94331E-02
 -1      2718 7.69855E-02
 -1      2719 6.31802E-02
 -1      2720 5.69272E-02
 -1      2721 6.31802E-02
 -1      2722 5.16988E-02
 -1      2723 4.64705E-02
 -1      2724 5.16988E-02
 -1      2725 4.19083E-02
 -1      2726 4.03761E-02
 -1      2727 4.19083E-02
 -1      2728 4.16708E-02
 -1      2729 4.61316E-02
 -1      2730 3.86407E-02
 -1      2731 5.83988E-02
 -1      2732 6.46826E-02
 -1      2733 5.22026E-02
 -1      2734 7.96810E-02
 -1      2735 9.21625E-02
 -1      2736 7.94683E-02
 -1      2737 1.10485E-01
 -1      2738 1.29071E-01
 -1      2739 1.12789E-01
 -1      2740 1.51192E-01
 -1      2741 1.73839E-01
 -1      2742 1.53232E-01
 -1      2743 1.99995E-01
 -1      2744 2.26755E-01
 -1      2745 2.01510E-01
 -1      2746 2.56765E-01
 -1      2747 2.87083E-01
 -1      2748 2.57677E-01
 -1      2749 3.20098E-01
 -1      2750 3.52490E-01
 -1      2751 3.20701E-01
 -1      2752 3.87347E-01
 -1      2753 4.20793E-01
 -1      2754 3.88572E-01
 -1      2755 4.53616E-01
 -1      2756 4.82019E-01
 -1      2757 4.56252E-01
 -1      2758 5.15470E-01
 -1      2759 5.30518E-01
 -1      2760 5.22526E-01
 -1      2761 5.74584E-01
 -1      2762 5.74584E-01
 -1      2763 6.00042E-01
 -1      2764 6.17556E-01
 -1      2765 6.10662E-01
 -1      2766 6.87080E-01
 -1      2767 6.36152E-01
 -1      2768 7.02760E-01
 -1      2769 7.55542E-01
 -1      2770 8.11422E-01
 -1      2771 9.00317E-01
 -1      2772 8.89693E-01
 -1      2773 1.01759E+00
 -1      2774 1.15544E+00
 -1      2775 1.11563E+00
 -1      2776 1.19069E+00
 -1      2777 1.24849E+00
 -1      2778 1.26816E+00
 -1      2779 1.50346E+00
 -1      2780 1.62648E+00
 -1      2781 1.55837E+00
 -1      2782 1.58144E+00
 -1      2783 1.69637E+00
 -1      2784 1.76830E+00
 -1      2785 2.31193E+00
 -1      2786 2.34672E+00
 -1      2787 2.33883E+00
 -1      2788 2.81366E+00
 -1      2789 2.88242E+00
 -1      2790 3.42133E+00
 -1      2791 2.16538E+00
 -1      2792 2.28320E+00
 -1      2793 3.17123E+00
 -1      2794 2.11220E+00
 -1      2795 1.97406E+00
 -1      2796 2.28320E+00
 -1      2797 1.83592E+00
 -1      2798 1.73858E+00
 -1      2799 1.97406E+00
 -1      2800 1.69095E+00
 -1      2801 1.58972E+00
 -1      2802 1.78829E+00
 -1      2803 1.58346E+00
 -1      2804 1.52347E+00
 -1      2805 1.73440E+00
 -1      2806 1.65979E+00
 -1      2807 1.11136E+01
 -1      2808 8.63120E+00
 -1      2809 4.17199E-01
 -1      2810 4.70847E-01
 -1      2811 2.43342E-01
 -1      2812 2.71017E-01
 -1      2813 2.02636E-01
 -1      2814 2.24875E-01
 -1      2815 2.15723E-01
 -1      2816 1.66140E-01
 -1      2817 1.85576E-01
 -1      2818 1.80195E-01
 -1      2819 1.35661E-01
 -1      2820 1.52208E-01
 -1      2821 1.49203E-01
 -1      2822 1.10308E-01
 -1      2823 1.23298E-01
 -1      2824 1.22908E-01
 -1      2825 8.91529E-02
 -1      2826 9.96258E-02
 -1      2827 9.98625E-02
 -1      2828 7.14190E-02
 -1      2829 8.02723E-02
 -1      2830 8.02996E-02
 -1      2831 5.64775E-02
 -1      2832 6.39483E-02
 -1      2833 6.39483E-02
 -1      2834 4.68520E-02
 -1      2835 5.08426E-02
 -1      2836 5.08426E-02
 -1      2837 4.09090E-02
 -1      2838 4.21891E-02
 -1      2839 4.05449E-02
 -1      2840 4.88435E-02
 -1      2841 4.36657E-02
 -1      2842 3.86388E-02
 -1      2843 6.30522E-02
 -1      2844 5.52176E-02
 -1      2845 4.77697E-02
 -1      2846 9.42298E-02
 -1      2847 7.86463E-02
 -1      2848 6.97380E-02
 -1      2849 1.38794E-01
 -1      2850 1.14387E-01
 -1      2851 1.05489E-01
 -1      2852 1.97238E-01
 -1      2853 1.64922E-01
 -1      2854 1.51774E-01
 -1      2855 2.73260E-01
 -1      2856 2.30976E-01
 -1      2857 2.11639E-01
 -1      2858 3.70923E-01
 -1      2859 3.16486E-01
 -1      2860 2.88602E-01
 -1      2861 4.94372E-01
 -1      2862 4.25750E-01
 -1      2863 3.86655E-01
 -1      2864 6.47230E-01
 -1      2865 5.63114E-01
 -1      2866 5.10224E-01
 -1      2867 8.31491E-01
 -1      2868 7.32330E-01
 -1      2869 6.64065E-01
 -1      2870 1.04570E+00
 -1      2871 9.35377E-01
 -1      2872 8.53051E-01
 -1      2873 1.28228E+00
 -1      2874 1.17045E+00
 -1      2875 1.08169E+00
 -1      2876 1.52391E+00
 -1      2877 1.42885E+00
 -1      2878 1.35301E+00
 -1      2879 1.76551E+00
 -1      2880 1.68912E+00
 -1      2881 1.66479E+00
 -1      2882 2.06903E+00
 -1      2883 1.91924E+00
 -1      2884 1.98373E+00
 -1      2885 2.43816E+00
 -1      2886 2.29273E+00
 -1      2887 2.36116E+00
 -1      2888 3.02736E+00
 -1      2889 2.93573E+00
 -1      2890 3.08243E+00
 -1      2891 4.36347E+00
 -1      2892 3.93981E+00
 -1      2893 4.49245E+00
 -1      2894 6.78487E+00
 -1      2895 5.15313E+00
 -1      2896 6.05100E+00
 -1      2897 7.49497E+00
 -1      2898 3.35711E+00
 -1      2899 5.33652E+00
 -1      2900 4.07643E+00
 -1      2901 4.02203E+00
 -1      2902 4.66100E+00
 -1      2903 2.75085E+00
 -1      2904 3.18715E+00
 -1      2905 4.43663E+00
 -1      2906 1.94088E+00
 -1      2907 2.19404E+00
 -1      2908 2.99054E+00
 -1      2909 1.58121E+00
 -1      2910 1.71117E+00
 -1      2911 2.20402E+00
 -1      2912 1.80877E+00
 -1      2913 1.67623E+01
 -1      2914 1.26550E+01
 -1      2915 4.62336E+00
 -1      2916 4.87874E+00
 -1      2917 1.59144E+00
 -1      2918 1.22352E+00
 -1      2919 1.22352E+00
 -1      2920 4.57153E+00
 -1      2921 4.29128E+00
 -1      2922 3.23862E+00
 -1      2923 3.70060E+00
 -1      2924 5.02979E+00
 -1      2925 4.87874E+00
 -1      2926 4.87874E+00
 -1      2927 5.64533E+00
 -1      2928 2.55753E+00
 -1      2929 2.85063E+00
 -1      2930 3.71905E+00
 -1      2931 1.88603E+00
 -1      2932 2.01234E+00
 -1      2933 2.78587E+00
 -1      2934 1.43354E+00
 -1      2935 1.62975E+00
 -1      2936 1.98441E+00
 -1      2937 1.36519E+00
 -1      2938 5.04570E-01
 -1      2939 5.83927E-01
 -1      2940 4.89522E-01
 -1      2941 4.30229E-01
 -1      2942 2.04795E+01
 -1      2943 2.14473E+01
 -1      2944 8.28444E-01
 -1      2945 4.55643E+00
 -1      2946 5.65368E+00
 -1      2947 6.40966E+00
 -1      2948 6.85735E+00
 -1      2949 4.83144E+00
 -1      2950 6.07848E+00
 -1      2951 7.72454E+00
 -1      2952 7.24469E+00
 -1      2953 2.01618E+01
 -1      2954 1.59516E+01
 -1      2955 1.55544E+01
 -1      2956 1.82780E+01
 -1      2957 2.90680E-01
 -1      2958 3.22489E-01
 -1      2959 2.53853E-01
 -1      2960 3.49846E-01
 -1      2961 3.83061E-01
 -1      2962 3.00873E-01
 -1      2963 3.79424E+00
 -1      2964 4.82396E+00
 -1      2965 7.82636E+00
 -1      2966 4.36622E-01
 -1      2967 4.24533E-01
 -1      2968 3.60115E-01
 -1      2969 3.61900E-01
 -1      2970 7.95065E+00
 -1      2971 5.79791E+00
 -1      2972 5.78037E+00
 -1      2973 8.22238E+00
 -1      2974 9.64809E+00
 -1      2975 1.18960E+01
 -1      2976 1.42850E+01
 -1      2977 1.26590E+01
 -1      2978 9.40961E+00
 -1      2979 2.31887E+01
 -1      2980 1.96176E+01
 -1      2981 1.00944E+01
 -1      2982 1.37921E+01
 -1      2983 5.14692E+00
 -1      2984 3.85141E+00
 -1      2985 6.56034E+00
 -1      2986 4.88957E+00
 -1      2987 4.22775E-01
 -1      2988 4.35057E-01
 -1      2989 2.23270E+01
 -1      2990 1.83022E+01
 -1      2991 1.08718E+01
 -1      2992 8.00693E+00
 -1      2993 6.66236E+00
 -1      2994 4.92522E+00
 -1      2995 3.68613E+00
 -1      2996 2.95379E+00
 -1      2997 4.27541E+00
 -1      2998 4.35057E-01
 -1      2999 4.35057E-01
 -1      3000 3.58756E-01
 -1      3001 3.42693E-01
 -1      3002 3.87089E-01
 -1      3003 4.00011E-01
 -1      3004 7.18376E+00
 -1      3005 1.33673E+01
 -1      3006 1.64983E+01
 -1      3007 4.98072E+00
 -1      3008 1.02612E+01
 -1      3009 3.62367E-01
 -1      3010 1.37438E+01
 -1      3011 1.38754E+01
 -1      3012 4.91263E+00
 -1      3013 5.95406E+00
 -1      3014 4.47629E+00
 -1      3015 1.18582E+01
 -1      3016 1.35217E+01
 -1      3017 1.01916E+01
 -1      3018 1.32152E+01
 -1      3019 2.30382E+00
 -1      3020 2.46936E+00
 -1      3021 2.60046E+00
 -1      3022 9.89215E+00
 -1      3023 5.95254E+00
 -1      3024 9.59730E+00
 -1      3025 1.35097E+01
 -1      3026 1.07930E+01
 -1      3027 1.65979E+00
 -1      3028 1.26049E+01
 -1      3029 5.15958E+00
 -1      3030 8.47282E+00
 -1      3031 7.74913E+00
 -1      3032 5.76507E-01
 -1      3033 3.69122E+00
 -1      3034 5.45744E+00
 -1      3035 6.72737E+00
 -1      3036 5.96915E+00
 -1      3037 4.84849E+00
 -1      3038 4.26138E+00
 -1      3039 1.65979E+00
 -1      3040 6.67696E+00
 -1      3041 3.83626E+00
 -1      3042 3.33229E+00
 -1      3043 3.69624E+00
 -1      3044 4.88309E+00
 -1      3045 4.07743E-01
 -1      3046 4.22382E-01
 -1      3047 3.58364E-01
 -1      3048 3.50239E-01
 -1      3049 3.65114E+00
 -1      3050 4.40966E-01
 -1      3051 5.33652E+00
 -1      3052 4.61670E+00
 -1      3053 2.31466E+01
 -1      3054 1.31576E+01
 -1      3055 1.58725E+01
 -1      3056 3.39796E+00
 -1      3057 3.78219E+00
 -1      3058 2.89885E-01
 -1      3059 3.01852E-01
 -1      3060 2.77114E-01
 -1      3061 2.92909E-01
 -1      3062 2.92535E-01
 -1      3063 2.56533E-01
 -1      3064 2.01279E-01
 -1      3065 2.79550E-01
 -1      3066 2.82818E-01
 -1      3067 2.23922E-01
 -1      3068 2.86323E-01
 -1      3069 2.75754E-01
 -1      3070 2.50444E-01
 -1      3071 2.68375E-01
 -1      3072 2.51626E-01
 -1      3073 2.46570E-01
 -1      3074 2.38925E-01
 -1      3075 2.20152E-01
 -1      3076 2.26490E-01
 -1      3077 2.05463E-01
 -1      3078 1.90612E-01
 -1      3079 1.99100E-01
 -1      3080 1.80123E-01
 -1      3081 1.67822E-01
 -1      3082 1.73922E-01
 -1      3083 1.56533E-01
 -1      3084 1.43996E-01
 -1      3085 1.52145E-01
 -1      3086 1.32701E-01
 -1      3087 1.20921E-01
 -1      3088 1.29561E-01
 -1      3089 1.10283E-01
 -1      3090 9.97822E-02
 -1      3091 1.07628E-01
 -1      3092 9.00906E-02
 -1      3093 8.10721E-02
 -1      3094 8.72978E-02
 -1      3095 7.23578E-02
 -1      3096 6.48054E-02
 -1      3097 6.88919E-02
 -1      3098 5.69088E-02
 -1      3099 5.06558E-02
 -1      3100 5.22810E-02
 -1      3101 4.32813E-02
 -1      3102 3.80529E-02
 -1      3103 3.70099E-02
 -1      3104 3.33962E-02
 -1      3105 2.88340E-02
 -1      3106 2.49787E-02
 -1      3107 3.14058E-02
 -1      3108 3.27005E-02
 -1      3109 2.28937E-02
 -1      3110 4.24307E-02
 -1      3111 5.46979E-02
 -1      3112 3.51958E-02
 -1      3113 6.68319E-02
 -1      3114 8.18303E-02
 -1      3115 5.70599E-02
 -1      3116 9.74098E-02
 -1      3117 1.15732E-01
 -1      3118 8.47734E-02
 -1      3119 1.34481E-01
 -1      3120 1.56602E-01
 -1      3121 1.19102E-01
 -1      3122 1.78505E-01
 -1      3123 2.04662E-01
 -1      3124 1.59754E-01
 -1      3125 2.32829E-01
 -1      3126 2.62839E-01
 -1      3127 2.09824E-01
 -1      3128 2.97195E-01
 -1      3129 3.30209E-01
 -1      3130 2.72347E-01
 -1      3131 3.70036E-01
 -1      3132 4.04893E-01
 -1      3133 3.46530E-01
 -1      3134 4.48963E-01
 -1      3135 4.81787E-01
 -1      3136 4.30427E-01
 -1      3137 5.27694E-01
 -1      3138 5.61144E-01
 -1      3139 5.20405E-01
 -1      3140 6.10908E-01
 -1      3141 6.54974E-01
 -1      3142 6.16076E-01
 -1      3143 7.32244E-01
 -1      3144 7.75217E-01
 -1      3145 7.43110E-01
 -1      3146 8.71523E-01
 -1      3147 8.97013E-01
 -1      3148 9.16688E-01
 -1      3149 9.88691E-01
 -1      3150 1.09735E+00
 -1      3151 1.10467E+00
 -1      3152 1.22452E+00
 -1      3153 1.34179E+00
 -1      3154 1.32351E+00
 -1      3155 1.55181E+00
 -1      3156 1.58706E+00
 -1      3157 1.66069E+00
 -1      3158 1.64698E+00
 -1      3159 1.90194E+00
 -1      3160 1.93063E+00
 -1      3161 2.09462E+00
 -1      3162 2.04958E+00
 -1      3163 2.18322E+00
 -1      3164 2.24175E+00
 -1      3165 2.85731E+00
 -1      3166 2.56806E+00
 -1      3167 3.88827E+00
 -1      3168 3.17123E+00
 -1      3169 2.97156E+00
 -1      3170 2.80057E+00
 -1      3171 3.68860E+00
 -1      3172 2.43546E+00
 -1      3173 2.29731E+00
 -1      3174 3.12382E+00
 -1      3175 1.96157E+00
 -1      3176 1.91394E+00
 -1      3177 2.42297E+00
 -1      3178 2.11672E+00
 -1      3179 2.11047E+00
 -1      3180 2.29001E+00
 -1      3181 1.11461E+01
 -1      3182 1.16903E+01
 -1      3183 1.93235E-01
 -1      3184 2.11702E-01
 -1      3185 1.11958E-01
 -1      3186 1.24321E-01
 -1      3187 9.02800E-02
 -1      3188 1.00962E-01
 -1      3189 1.02376E-01
 -1      3190 7.16586E-02
 -1      3191 8.05392E-02
 -1      3192 8.16389E-02
 -1      3193 5.56431E-02
 -1      3194 6.31138E-02
 -1      3195 6.33534E-02
 -1      3196 4.34925E-02
 -1      3197 4.91273E-02
 -1      3198 4.82929E-02
 -1      3199 3.27245E-02
 -1      3200 3.73874E-02
 -1      3201 3.56721E-02
 -1      3202 3.29201E-02
 -1      3203 3.01634E-02
 -1      3204 2.70058E-02
 -1      3205 4.52720E-02
 -1      3206 3.88979E-02
 -1      3207 3.04224E-02
 -1      3208 7.31082E-02
 -1      3209 5.75141E-02
 -1      3210 4.86422E-02
 -1      3211 1.08542E-01
 -1      3212 8.83850E-02
 -1      3213 7.61611E-02
 -1      3214 1.53956E-01
 -1      3215 1.27828E-01
 -1      3216 1.10724E-01
 -1      3217 2.13453E-01
 -1      3218 1.79716E-01
 -1      3219 1.55771E-01
 -1      3220 2.94088E-01
 -1      3221 2.50863E-01
 -1      3222 2.18940E-01
 -1      3223 3.97816E-01
 -1      3224 3.42989E-01
 -1      3225 3.05250E-01
 -1      3226 5.29704E-01
 -1      3227 4.60963E-01
 -1      3228 4.17297E-01
 -1      3229 6.95043E-01
 -1      3230 6.09943E-01
 -1      3231 5.60682E-01
 -1      3232 8.98648E-01
 -1      3233 7.94761E-01
 -1      3234 7.40639E-01
 -1      3235 1.14318E+00
 -1      3236 1.01843E+00
 -1      3237 9.60141E-01
 -1      3238 1.43410E+00
 -1      3239 1.28752E+00
 -1      3240 1.22427E+00
 -1      3241 1.79846E+00
 -1      3242 1.63325E+00
 -1      3243 1.56777E+00
 -1      3244 2.29380E+00
 -1      3245 2.14007E+00
 -1      3246 2.10853E+00
 -1      3247 3.90659E+00
 -1      3248 3.68290E+00
 -1      3249 3.83924E+00
 -1      3250 5.47306E+00
 -1      3251 4.97548E+00
 -1      3252 6.29722E+00
 -1      3253 7.50891E+00
 -1      3254 5.15975E+00
 -1      3255 5.82467E+00
 -1      3256 2.79522E+00
 -1      3257 3.02492E+00
 -1      3258 3.29027E+00
 -1      3259 7.61091E+00
 -1      3260 7.30370E+00
 -1      3261 4.85089E+00
 -1      3262 5.23888E+00
 -1      3263 6.42404E+00
 -1      3264 7.34679E+00
 -1      3265 7.55589E+00
 -1      3266 9.37397E+00
 -1      3267 7.59077E+00
 -1      3268 2.11047E+00
 -1      3269 2.36674E+00
 -1      3270 6.63460E+00
 -1      3271 1.15041E+01
 -1      3272 1.11325E+01
 -1      3273 1.04905E+01
 -1      3274 1.22527E+01
 -1      3275 3.78219E+00
 -1      3276 4.53817E+00
 -1      3277 1.17481E+01
 -1      3278 1.02082E+01
 -1      3279 2.25975E-01
 -1      3280 2.45638E-01
 -1      3281 2.03487E-01
 -1      3282 2.86401E+00
 -1      3283 3.40919E+00
 -1      3284 2.99006E+00
 -1      3285 3.58174E+00
 -1      3286 4.43663E+00
 -1      3287 5.32591E+00
 -1      3288 4.47102E+00
 -1      3289 1.11325E+01
 -1      3290 1.20122E+01
 -1      3291 9.00517E+00
 -1      3292 9.26928E+00
 -1      3293 1.36478E-01
 -1      3294 1.50410E-01
 -1      3295 1.25529E-01
 -1      3296 4.13847E+00
 -1      3297 3.18407E+00
 -1      3298 1.63331E-01
 -1      3299 1.80391E-01
 -1      3300 1.76370E-01
 -1      3301 1.50606E-01
 -1      3302 1.22888E+01
 -1      3303 1.44200E+01
 -1      3304 1.16631E+01
 -1      3305 2.63955E-01
 -1      3306 2.91311E-01
 -1      3307 2.36077E-01
 -1      3308 1.72814E+00
 -1      3309 3.47468E+00
 -1      3310 4.72920E+00
 -1      3311 3.07191E-01
 -1      3312 3.41329E-01
 -1      3313 2.70273E-01
 -1      3314 9.83270E+00
 -1      3315 8.28739E+00
 -1      3316 5.24956E+00
 -1      3317 3.79829E+00
 -1      3318 4.13013E-01
 -1      3319 3.10013E-01
 -1      3320 2.61932E-01
 -1      3321 3.98576E-01
 -1      3322 3.09565E+00
 -1      3323 3.03848E+00
 -1      3324 7.61091E+00
 -1      3325 7.61091E+00
 -1      3326 3.23232E-01
 -1      3327 3.15506E-01
 -1      3328 6.63183E+00
 -1      3329 5.18524E+00
 -1      3330 5.38995E+00
 -1      3331 7.75977E+00
 -1      3332 8.40507E+00
 -1      3333 9.49144E+00
 -1      3334 7.05769E+00
 -1      3335 3.12338E-01
 -1      3336 3.12152E-01
 -1      3337 2.84965E-01
 -1      3338 2.61965E-01
 -1      3339 3.22013E-01
 -1      3340 3.22013E-01
 -1      3341 2.91919E+00
 -1      3342 3.77847E-01
 -1      3343 3.23941E-01
 -1      3344 3.88827E+00
 -1      3345 3.88827E+00
 -1      3346 3.42133E+00
 -1      3347 9.26048E+00
 -1      3348 1.06287E+01
 -1      3349 8.57520E+00
 -1      3350 1.05867E+01
 -1      3351 9.06941E+00
 -1      3352 4.92903E+00
 -1      3353 3.27505E+00
 -1      3354 3.23232E-01
 -1      3355 2.88133E-01
 -1      3356 3.25016E-01
 -1      3357 6.14524E+00
 -1      3358 8.03830E+00
 -1      3359 6.11365E+00
 -1      3360 3.48893E+00
 -1      3361 3.19220E-01
 -1      3362 3.19220E-01
 -1      3363 2.11047E+00
 -1      3364 2.49279E+00
 -1      3365 7.74117E+00
 -1      3366 3.51893E-01
 -1      3367 3.77462E-01
 -1      3368 2.60947E-01
 -1      3369 7.90681E+00
 -1      3370 1.02870E+01
 -1      3371 8.05215E+00
 -1      3372 6.08657E+00
 -1      3373 7.34102E+00
 -1      3374 1.01744E+01
 -1      3375 3.35489E-01
 -1      3376 3.69213E-01
 -1      3377 2.57154E-01
 -1      3378 2.80313E-01
 -1      3379 5.63154E+00
 -1      3380 7.80929E+00
 -1      3381 7.45713E+00
 -1      3382 4.72642E+00
 -1      3383 7.25037E+00
 -1      3384 6.48061E+00
 -1      3385 4.01614E+00
 -1      3386 4.10794E+00
 -1      3387 3.23789E-01
 -1      3388 3.24182E-01
 -1      3389 2.84645E-01
 -1      3390 4.60786E+00
 -1      3391 4.03332E-01
 -1      3392 5.82467E+00
 -1      3393 2.48479E-01
 -1      3394 3.18563E+00
 -1      3395 8.28524E+00
 -1      3396 8.45310E+00
 -1      3397 3.32425E+00
 -1      3398 1.79393E-01
 -1      3399 2.02411E-01
 -1      3400 2.06392E-01
 -1      3401 2.09897E-01
 -1      3402 1.61863E-01
 -1      3403 2.19078E-01
 -1      3404 2.11698E-01
 -1      3405 1.75025E-01
 -1      3406 2.11085E-01
 -1      3407 1.98385E-01
 -1      3408 1.83593E-01
 -1      3409 1.92063E-01
 -1      3410 1.77374E-01
 -1      3411 1.76659E-01
 -1      3412 1.68074E-01
 -1      3413 1.57585E-01
 -1      3414 1.61037E-01
 -1      3415 1.48011E-01
 -1      3416 1.36723E-01
 -1      3417 1.42164E-01
 -1      3418 1.28690E-01
 -1      3419 1.17395E-01
 -1      3420 1.24557E-01
 -1      3421 1.08812E-01
 -1      3422 9.81740E-02
 -1      3423 1.07941E-01
 -1      3424 8.97148E-02
 -1      3425 8.00232E-02
 -1      3426 9.08994E-02
 -1      3427 7.20467E-02
 -1      3428 6.33325E-02
 -1      3429 7.44638E-02
 -1      3430 5.59438E-02
 -1      3431 4.80472E-02
 -1      3432 5.90986E-02
 -1      3433 4.11638E-02
 -1      3434 3.37893E-02
 -1      3435 4.48266E-02
 -1      3436 3.03913E-02
 -1      3437 2.57346E-02
 -1      3438 3.45453E-02
 -1      3439 2.68356E-02
 -1      3440 2.94074E-02
 -1      3441 3.22483E-02
 -1      3442 3.46423E-02
 -1      3443 4.43726E-02
 -1      3444 3.85842E-02
 -1      3445 5.64438E-02
 -1      3446 6.85778E-02
 -1      3447 5.58904E-02
 -1      3448 8.36870E-02
 -1      3449 9.92665E-02
 -1      3450 8.30709E-02
 -1      3451 1.17795E-01
 -1      3452 1.36543E-01
 -1      3453 1.16708E-01
 -1      3454 1.58893E-01
 -1      3455 1.80797E-01
 -1      3456 1.57586E-01
 -1      3457 2.07098E-01
 -1      3458 2.35265E-01
 -1      3459 2.06238E-01
 -1      3460 2.65157E-01
 -1      3461 2.99513E-01
 -1      3462 2.62431E-01
 -1      3463 3.31801E-01
 -1      3464 3.71628E-01
 -1      3465 3.24611E-01
 -1      3466 4.12265E-01
 -1      3467 4.56336E-01
 -1      3468 3.97536E-01
 -1      3469 5.08667E-01
 -1      3470 5.54574E-01
 -1      3471 4.90504E-01
 -1      3472 6.30221E-01
 -1      3473 6.79985E-01
 -1      3474 6.18483E-01
 -1      3475 7.77748E-01
 -1      3476 8.55019E-01
 -1      3477 7.91893E-01
 -1      3478 9.61321E-01
 -1      3479 1.05763E+00
 -1      3480 9.95959E-01
 -1      3481 1.21450E+00
 -1      3482 1.30618E+00
 -1      3483 1.25914E+00
 -1      3484 1.50467E+00
 -1      3485 1.63183E+00
 -1      3486 1.61450E+00
 -1      3487 1.85062E+00
 -1      3488 2.06064E+00
 -1      3489 2.03177E+00
 -1      3490 2.38307E+00
 -1      3491 2.44299E+00
 -1      3492 2.57300E+00
 -1      3493 2.75871E+00
 -1      3494 2.42297E+00
 -1      3495 2.62374E+00
 -1      3496 2.82653E+00
 -1      3497 2.95948E+00
 -1      3498 9.43464E-02
 -1      3499 1.05343E-01
 -1      3500 4.46739E-02
 -1      3501 5.11896E-02
 -1      3502 3.14590E-02
 -1      3503 3.75641E-02
 -1      3504 4.04608E-02
 -1      3505 2.62112E-02
 -1      3506 2.87724E-02
 -1      3507 3.06644E-02
 -1      3508 3.38577E-02
 -1      3509 2.78800E-02
 -1      3510 2.96466E-02
 -1      3511 5.67508E-02
 -1      3512 4.45087E-02
 -1      3513 4.19663E-02
 -1      3514 8.64019E-02
 -1      3515 7.11251E-02
 -1      3516 6.69916E-02
 -1      3517 1.25352E-01
 -1      3518 1.06066E-01
 -1      3519 1.01030E-01
 -1      3520 1.76806E-01
 -1      3521 1.51045E-01
 -1      3522 1.46387E-01
 -1      3523 2.47748E-01
 -1      3524 2.10339E-01
 -1      3525 2.05614E-01
 -1      3526 3.40282E-01
 -1      3527 2.91381E-01
 -1      3528 2.82780E-01
 -1      3529 4.60029E-01
 -1      3530 3.96882E-01
 -1      3531 3.83014E-01
 -1      3532 6.13566E-01
 -1      3533 5.33327E-01
 -1      3534 5.12913E-01
 -1      3535 8.08270E-01
 -1      3536 7.08552E-01
 -1      3537 6.81197E-01
 -1      3538 1.05156E+00
 -1      3539 9.31774E-01
 -1      3540 8.99687E-01
 -1      3541 1.35722E+00
 -1      3542 1.21288E+00
 -1      3543 1.18451E+00
 -1      3544 1.76692E+00
 -1      3545 1.56777E+00
 -1      3546 1.55637E+00
 -1      3547 2.44375E+00
 -1      3548 2.10214E+00
 -1      3549 2.10214E+00
 -1      3550 5.65424E+00
 -1      3551 4.26514E+00
 -1      3552 4.25876E+00
 -1      3553 7.42199E+00
 -1      3554 6.35310E+00
 -1      3555 5.11642E+00
 -1      3556 4.15749E+00
 -1      3557 1.82710E-01
 -1      3558 1.96984E-01
 -1      3559 2.82653E+00
 -1      3560 2.90994E+00
 -1      3561 3.12382E+00
 -1      3562 4.89971E+00
 -1      3563 5.22557E+00
 -1      3564 6.08046E+00
 -1      3565 5.63154E+00
 -1      3566 3.16057E-01
 -1      3567 3.23789E-01
 -1      3568 2.89607E-01
 -1      3569 7.34102E+00
 -1      3570 6.83501E+00
 -1      3571 8.71652E+00
 -1      3572 8.75263E+00
 -1      3573 3.51569E+00
 -1      3574 4.56494E+00
 -1      3575 1.14839E-01
 -1      3576 1.26995E-01
 -1      3577 1.06809E-01
 -1      3578 9.08667E+00
 -1      3579 1.05392E+01
 -1      3580 4.43496E+00
 -1      3581 3.12540E+00
 -1      3582 3.78616E+00
 -1      3583 5.87988E-02
 -1      3584 6.73435E-02
 -1      3585 5.51797E-02
 -1      3586 7.56221E-02
 -1      3587 8.53629E-02
 -1      3588 8.83296E-02
 -1      3589 7.10675E-02
 -1      3590 2.07340E-01
 -1      3591 2.25657E-01
 -1      3592 1.86563E-01
 -1      3593 2.32215E-01
 -1      3594 2.48094E-01
 -1      3595 2.03478E-01
 -1      3596 6.72166E+00
 -1      3597 2.62161E+00
 -1      3598 8.39723E+00
 -1      3599 2.23924E-01
 -1      3600 2.03796E-01
 -1      3601 2.02811E-01
 -1      3602 2.42944E+00
 -1      3603 3.27031E-01
 -1      3604 2.80205E-01
 -1      3605 2.40668E-01
 -1      3606 2.40294E-01
 -1      3607 2.18783E-01
 -1      3608 2.23958E-01
 -1      3609 2.67296E+00
 -1      3610 3.12382E+00
 -1      3611 2.86564E+00
 -1      3612 8.01030E+00
 -1      3613 3.48893E+00
 -1      3614 3.48893E+00
 -1      3615 2.85130E-01
 -1      3616 6.77900E+00
 -1      3617 3.16026E+00
 -1      3618 4.15749E+00
 -1      3619 2.08120E-01
 -1      3620 2.46178E-01
 -1      3621 3.11071E+00
 -1      3622 7.36822E+00
 -1      3623 5.94643E+00
 -1      3624 4.68704E+00
 -1      3625 7.62876E+00
 -1      3626 3.16846E+00
 -1      3627 4.05920E+00
 -1      3628 4.10872E+00
 -1      3629 2.84603E+00
 -1      3630 2.54018E-01
 -1      3631 2.50850E-01
 -1      3632 2.40339E-01
 -1      3633 1.25786E-01
 -1      3634 1.36476E-01
 -1      3635 1.49396E-01
 -1      3636 3.68860E+00
 -1      3637 2.61305E-01
 -1      3638 2.27190E-01
 -1      3639 2.61305E-01
 -1      3640 5.27995E+00
 -1      3641 3.32379E+00
 -1      3642 1.70815E-01
 -1      3643 1.64312E-01
 -1      3644 1.57971E-01
 -1      3645 2.85702E-01
 -1      3646 7.23516E+00
 -1      3647 3.71537E+00
 -1      3648 2.61295E-01
 -1      3649 2.00394E-01
 -1      3650 2.66256E-01
 -1      3651 7.58638E+00
 -1      3652 6.77900E+00
 -1      3653 7.06897E+00
 -1      3654 2.00133E-01
 -1      3655 2.58302E-01
 -1      3656 1.39249E-01
 -1      3657 1.48429E-01
 -1      3658 1.59203E-01
 -1      3659 1.58591E-01
 -1      3660 1.23427E-01
 -1      3661 1.61058E-01
 -1      3662 1.54736E-01
 -1      3663 1.36668E-01
 -1      3664 1.51959E-01
 -1      3665 1.42659E-01
 -1      3666 1.36359E-01
 -1      3667 1.36776E-01
 -1      3668 1.27202E-01
 -1      3669 1.27697E-01
 -1      3670 1.19767E-01
 -1      3671 1.11735E-01
 -1      3672 1.14379E-01
 -1      3673 1.04875E-01
 -1      3674 9.62924E-02
 -1      3675 1.00086E-01
 -1      3676 8.97248E-02
 -1      3677 8.12656E-02
 -1      3678 8.66586E-02
 -1      3679 7.46628E-02
 -1      3680 6.66863E-02
 -1      3681 7.34882E-02
 -1      3682 6.03921E-02
 -1      3683 5.30034E-02
 -1      3684 6.05911E-02
 -1      3685 4.71164E-02
 -1      3686 4.02331E-02
 -1      3687 4.84099E-02
 -1      3688 3.82776E-02
 -1      3689 3.48797E-02
 -1      3690 4.05675E-02
 -1      3691 3.58403E-02
 -1      3692 3.69413E-02
 -1      3693 3.95727E-02
 -1      3694 3.93051E-02
 -1      3695 4.45400E-02
 -1      3696 4.28971E-02
 -1      3697 5.19816E-02
 -1      3698 6.40529E-02
 -1      3699 5.27024E-02
 -1      3700 7.74197E-02
 -1      3701 9.25288E-02
 -1      3702 7.35108E-02
 -1      3703 1.09346E-01
 -1      3704 1.27874E-01
 -1      3705 1.03694E-01
 -1      3706 1.48854E-01
 -1      3707 1.71204E-01
 -1      3708 1.41492E-01
 -1      3709 1.97061E-01
 -1      3710 2.23363E-01
 -1      3711 1.88329E-01
 -1      3712 2.54740E-01
 -1      3713 2.84631E-01
 -1      3714 2.45563E-01
 -1      3715 3.21971E-01
 -1      3716 3.54259E-01
 -1      3717 3.14280E-01
 -1      3718 3.97536E-01
 -1      3719 4.38173E-01
 -1      3720 3.94896E-01
 -1      3721 4.86324E-01
 -1      3722 5.38655E-01
 -1      3723 4.86324E-01
 -1      3724 6.06691E-01
 -1      3725 6.82338E-01
 -1      3726 6.02510E-01
 -1      3727 7.75051E-01
 -1      3728 8.72814E-01
 -1      3729 7.63259E-01
 -1      3730 1.04888E+00
 -1      3731 1.15518E+00
 -1      3732 1.03204E+00
 -1      3733 1.37526E+00
 -1      3734 1.53214E+00
 -1      3735 1.42818E+00
 -1      3736 1.71535E+00
 -1      3737 1.91384E+00
 -1      3738 1.83148E+00
 -1      3739 2.11188E+00
 -1      3740 2.33068E+00
 -1      3741 2.92614E+00
 -1      3742 2.21274E+00
 -1      3743 2.34334E-01
 -1      3744 2.65280E-01
 -1      3745 2.69185E-01
 -1      3746 1.64407E-01
 -1      3747 1.74763E-01
 -1      3748 1.78184E-01
 -1      3749 1.76268E-01
 -1      3750 3.64653E-02
 -1      3751 4.35751E-02
 -1      3752 4.95254E-02
 -1      3753 3.88744E-02
 -1      3754 7.63870E-02
 -1      3755 6.20126E-02
 -1      3756 5.89207E-02
 -1      3757 1.12442E-01
 -1      3758 9.27779E-02
 -1      3759 8.77989E-02
 -1      3760 1.59297E-01
 -1      3761 1.33603E-01
 -1      3762 1.25351E-01
 -1      3763 2.20123E-01
 -1      3764 1.86590E-01
 -1      3765 1.73806E-01
 -1      3766 2.98905E-01
 -1      3767 2.55272E-01
 -1      3768 2.36248E-01
 -1      3769 4.00794E-01
 -1      3770 3.44193E-01
 -1      3771 3.16685E-01
 -1      3772 5.32748E-01
 -1      3773 4.59449E-01
 -1      3774 4.20629E-01
 -1      3775 7.04686E-01
 -1      3776 6.09700E-01
 -1      3777 5.56237E-01
 -1      3778 9.31578E-01
 -1      3779 8.08074E-01
 -1      3780 7.36577E-01
 -1      3781 1.23707E+00
 -1      3782 1.07575E+00
 -1      3783 9.84141E-01
 -1      3784 1.65766E+00
 -1      3785 1.44712E+00
 -1      3786 1.33836E+00
 -1      3787 2.31513E+00
 -1      3788 1.97991E+00
 -1      3789 1.87065E+00
 -1      3790 5.63303E+00
 -1      3791 3.81164E+00
 -1      3792 3.68940E+00
 -1      3793 6.85070E+00
 -1      3794 6.89819E+00
 -1      3795 5.90936E+00
 -1      3796 4.98866E-02
 -1      3797 5.74958E-02
 -1      3798 4.58912E-02
 -1      3799 9.61028E-02
 -1      3800 1.05599E-01
 -1      3801 6.51665E+00
 -1      3802 6.85070E+00
 -1      3803 5.73859E+00
 -1      3804 3.54086E-02
 -1      3805 3.37398E-02
 -1      3806 4.29677E-02
 -1      3807 1.76455E-01
 -1      3808 1.83014E-01
 -1      3809 1.51161E-01
 -1      3810 1.54299E-01
 -1      3811 2.27700E-01
 -1      3812 2.10380E-01
 -1      3813 1.73357E-01
 -1      3814 1.93565E-01
 -1      3815 3.22305E-02
 -1      3816 3.49171E-02
 -1      3817 3.80314E-02
 -1      3818 1.26072E-01
 -1      3819 1.30053E-01
 -1      3820 1.03457E-01
 -1      3821 1.68584E-01
 -1      3822 3.32379E+00
 -1      3823 2.61305E-01
 -1      3824 2.69185E-01
 -1      3825 2.69185E-01
 -1      3826 2.45835E-01
 -1      3827 2.48764E-01
 -1      3828 4.60786E+00
 -1      3829 1.55052E-01
 -1      3830 1.42413E-01
 -1      3831 1.25116E-01
 -1      3832 1.58530E-01
 -1      3833 1.46730E-01
 -1      3834 1.46634E-01
 -1      3835 1.02105E-01
 -1      3836 1.12812E-01
 -1      3837 1.22292E-01
 -1      3838 7.97238E-02
 -1      3839 8.87073E-02
 -1      3840 8.74970E-02
 -1      3841 5.89655E-02
 -1      3842 6.42586E-02
 -1      3843 7.25372E-02
 -1      3844 6.08014E+00
 -1      3845 5.63303E+00
 -1      3846 3.79925E-02
 -1      3847 1.43842E-01
 -1      3848 5.42145E+00
 -1      3849 4.64338E+00
 -1      3850 4.07315E+00
 -1      3851 1.95817E-01
 -1      3852 2.10247E-01
 -1      3853 2.34477E-01
 -1      3854 3.40351E+00
 -1      3855 4.07073E+00
 -1      3856 3.98183E+00
 -1      3857 2.88815E+00
 -1      3858 2.03505E-01
 -1      3859 1.96219E-01
 -1      3860 1.72132E-01
 -1      3861 2.07701E-01
 -1      3862 1.16668E-01
 -1      3863 1.19136E-01
 -1      3864 1.22194E-01
 -1      3865 1.19417E-01
 -1      3866 1.02194E-01
 -1      3867 1.18172E-01
 -1      3868 1.12288E-01
 -1      3869 1.04008E-01
 -1      3870 1.08352E-01
 -1      3871 1.00917E-01
 -1      3872 9.88262E-02
 -1      3873 9.55294E-02
 -1      3874 8.86700E-02
 -1      3875 8.95016E-02
 -1      3876 8.27238E-02
 -1      3877 7.61562E-02
 -1      3878 7.81675E-02
 -1      3879 7.07040E-02
 -1      3880 6.41012E-02
 -1      3881 6.67691E-02
 -1      3882 5.92089E-02
 -1      3883 5.29147E-02
 -1      3884 5.64247E-02
 -1      3885 4.93182E-02
 -1      3886 4.34312E-02
 -1      3887 4.79360E-02
 -1      3888 4.25171E-02
 -1      3889 4.05616E-02
 -1      3890 4.34253E-02
 -1      3891 4.11539E-02
 -1      3892 4.21145E-02
 -1      3893 4.31035E-02
 -1      3894 4.41429E-02
 -1      3895 4.65066E-02
 -1      3896 4.57241E-02
 -1      3897 5.06561E-02
 -1      3898 5.80977E-02
 -1      3899 5.19020E-02
 -1      3900 6.51603E-02
 -1      3901 7.85271E-02
 -1      3902 6.31140E-02
 -1      3903 9.19301E-02
 -1      3904 1.08747E-01
 -1      3905 8.35796E-02
 -1      3906 1.26450E-01
 -1      3907 1.47431E-01
 -1      3908 1.14686E-01
 -1      3909 1.70164E-01
 -1      3910 1.96021E-01
 -1      3911 1.55123E-01
 -1      3912 2.25072E-01
 -1      3913 2.56449E-01
 -1      3914 2.06907E-01
 -1      3915 2.93432E-01
 -1      3916 3.30772E-01
 -1      3917 2.72941E-01
 -1      3918 3.77727E-01
 -1      3919 4.21003E-01
 -1      3920 3.56879E-01
 -1      3921 4.80422E-01
 -1      3922 5.28572E-01
 -1      3923 4.63252E-01
 -1      3924 6.02510E-01
 -1      3925 6.70547E-01
 -1      3926 5.96608E-01
 -1      3927 7.63139E-01
 -1      3928 8.55852E-01
 -1      3929 7.63139E-01
 -1      3930 9.85993E-01
 -1      3931 1.16206E+00
 -1      3932 9.85873E-01
 -1      3933 1.30707E+00
 -1      3934 1.52715E+00
 -1      3935 1.26102E+00
 -1      3936 1.96415E+00
 -1      3937 2.14737E+00
 -1      3938 1.84304E+00
 -1      3939 6.51618E-02
 -1      3940 5.26745E-02
 -1      3941 1.77046E-01
 -1      3942 1.49752E-01
 -1      3943 2.37452E-01
 -1      3944 2.02303E-01
 -1      3945 1.78250E-01
 -1      3946 3.14544E-01
 -1      3947 2.69256E-01
 -1      3948 2.35311E-01
 -1      3949 4.13325E-01
 -1      3950 3.54670E-01
 -1      3951 3.07240E-01
 -1      3952 5.41480E-01
 -1      3953 4.64528E-01
 -1      3954 3.98569E-01
 -1      3955 7.11907E-01
 -1      3956 6.08519E-01
 -1      3957 5.16810E-01
 -1      3958 9.48024E-01
 -1      3959 8.03850E-01
 -1      3960 6.75791E-01
 -1      3961 1.29350E+00
 -1      3962 1.08345E+00
 -1      3963 9.03161E-01
 -1      3964 1.83376E+00
 -1      3965 1.51152E+00
 -1      3966 1.25661E+00
 -1      3967 3.93661E+00
 -1      3968 2.44010E+00
 -1      3969 2.08097E+00
 -1      3970 4.19682E-02
 -1      3971 4.04589E-02
 -1      3972 1.29760E-01
 -1      3973 1.08599E-01
 -1      3974 1.33000E-01
 -1      3975 5.06350E+00
 -1      3976 5.23427E+00
 -1      3977 9.28635E-02
 -1      3978 7.64725E-02
 -1      3979 7.02263E-02
 -1      3980 9.72723E-02
 -1      3981 4.13413E-02
 -1      3982 4.76528E-02
 -1      3983 1.69188E-01
 -1      3984 2.03505E-01
 -1      3985 2.03505E-01
 -1      3986 1.72534E-01
 -1      3987 1.38217E-01
 -1      3988 3.93534E-02
 -1      3989 4.09016E-02
 -1      3990 4.33291E-02
 -1      3991 4.76199E+00
 -1      3992 4.76199E+00
 -1      3993 4.77368E-02
 -1      3994 4.42709E-02
 -1      3995 4.67374E-02
 -1      3996 1.71731E-01
 -1      3997 2.10247E-01
 -1      3998 2.10247E-01
 -1      3999 9.65390E-02
 -1      4000 1.07313E-01
 -1      4001 8.97806E-02
 -1      4002 1.30083E-01
 -1      4003 1.38658E-01
 -1      4004 1.32876E-01
 -1      4005 4.08689E+00
 -1      4006 1.20643E-01
 -1      4007 9.94268E-02
 -1      4008 1.33744E-01
 -1      4009 1.41175E-01
 -1      4010 1.40774E-01
 -1      4011 4.26632E-02
 -1      4012 2.56248E+00
 -1      4013 2.76052E+00
 -1      4014 3.23789E+00
 -1      4015 2.69515E+00
 -1      4016 9.05548E-02
 -1      4017 9.77678E-02
 -1      4018 1.29077E-01
 -1      4019 1.34954E-01
 -1      4020 7.29149E-02
 -1      4021 5.20317E-02
 -1      4022 5.87945E-02
 -1      4023 4.74818E-02
 -1      4024 1.29858E-01
 -1      4025 1.25028E-01
 -1      4026 9.93390E-02
 -1      4027 4.78716E+00
 -1      4028 3.53786E+00
 -1      4029 1.17109E-01
 -1      4030 1.91690E-01
 -1      4031 1.88761E-01
 -1      4032 1.14439E-01
 -1      4033 1.53173E-01
 -1      4034 1.09816E-01
 -1      4035 1.40774E-01
 -1      4036 1.40774E-01
 -1      4037 5.39778E-02
 -1      4038 4.19915E+00
 -1      4039 3.22255E+00
 -1      4040 3.10395E+00
 -1      4041 7.71176E-02
 -1      4042 8.45131E-02
 -1      4043 8.01755E-02
 -1      4044 3.23634E+00
 -1      4045 3.85420E+00
 -1      4046 1.34040E-01
 -1      4047 1.35732E-01
 -1      4048 1.09599E-01
 -1      4049 1.16388E-01
 -1      4050 8.92406E-02
 -1      4051 9.84362E-02
 -1      4052 8.23225E-02
 -1      4053 1.09418E-01
 -1      4054 3.32922E+00
 -1      4055 1.33744E-01
 -1      4056 1.02385E-01
 -1      4057 4.26632E-02
 -1      4058 4.31029E-02
 -1      4059 8.61149E-02
 -1      4060 8.91732E-02
 -1      4061 9.28352E-02
 -1      4062 1.04386E-01
 -1      4063 1.12176E-01
 -1      4064 9.13188E-02
 -1      4065 9.00742E-02
 -1      4066 7.52396E-02
 -1      4067 8.94332E-02
 -1      4068 8.54964E-02
 -1      4069 7.67443E-02
 -1      4070 8.25070E-02
 -1      4071 7.71192E-02
 -1      4072 7.31140E-02
 -1      4073 7.41097E-02
 -1      4074 6.81635E-02
 -1      4075 6.71152E-02
 -1      4076 6.55823E-02
 -1      4077 6.01302E-02
 -1      4078 6.15245E-02
 -1      4079 5.67570E-02
 -1      4080 5.18648E-02
 -1      4081 5.55702E-02
 -1      4082 4.94379E-02
 -1      4083 4.58414E-02
 -1      4084 4.97702E-02
 -1      4085 4.43395E-02
 -1      4086 4.34253E-02
 -1      4087 4.58414E-02
 -1      4088 4.31035E-02
 -1      4089 4.36957E-02
 -1      4090 4.40176E-02
 -1      4091 4.57241E-02
 -1      4092 4.77525E-02
 -1      4093 4.57241E-02
 -1      4094 5.19020E-02
 -1      4095 5.60515E-02
 -1      4096 5.19020E-02
 -1      4097 6.31140E-02
 -1      4098 7.01765E-02
 -1      4099 6.31140E-02
 -1      4100 7.99020E-02
 -1      4101 9.33050E-02
 -1      4102 7.99020E-02
 -1      4103 1.06540E-01
 -1      4104 1.24244E-01
 -1      4105 1.02863E-01
 -1      4106 1.41395E-01
 -1      4107 1.64128E-01
 -1      4108 1.33249E-01
 -1      4109 1.85906E-01
 -1      4110 2.14957E-01
 -1      4111 1.72178E-01
 -1      4112 2.44807E-01
 -1      4113 2.81791E-01
 -1      4114 2.23807E-01
 -1      4115 3.20853E-01
 -1      4116 3.67808E-01
 -1      4117 2.92719E-01
 -1      4118 4.19045E-01
 -1      4119 4.78464E-01
 -1      4120 3.83019E-01
 -1      4121 5.56860E-01
 -1      4122 6.30798E-01
 -1      4123 5.12653E-01
 -1      4124 7.36358E-01
 -1      4125 8.28951E-01
 -1      4126 6.96610E-01
 -1      4127 9.85873E-01
 -1      4128 1.11601E+00
 -1      4129 9.59092E-01
 -1      4130 1.23809E+00
 -1      4131 1.38310E+00
 -1      4132 1.23809E+00
 -1      4133 2.91411E+00
 -1      4134 6.43460E-02
 -1      4135 7.15326E-02
 -1      4136 5.74123E-02
 -1      4137 1.85873E-01
 -1      4138 1.60616E-01
 -1      4139 4.13991E-01
 -1      4140 3.62788E-01
 -1      4141 5.39502E-01
 -1      4142 4.72463E-01
 -1      4143 4.36683E-01
 -1      4144 7.10026E-01
 -1      4145 6.18084E-01
 -1      4146 5.73737E-01
 -1      4147 9.51876E-01
 -1      4148 8.16448E-01
 -1      4149 7.58741E-01
 -1      4150 1.32271E+00
 -1      4151 1.10469E+00
 -1      4152 1.01798E+00
 -1      4153 2.56874E+00
 -1      4154 1.96240E+00
 -1      4155 1.81048E+00
 -1      4156 2.44054E-01
 -1      4157 2.12251E-01
 -1      4158 1.94617E-01
 -1      4159 8.72558E-02
 -1      4160 9.46868E-02
 -1      4161 9.16407E-02
 -1      4162 4.44347E-02
 -1      4163 4.33291E-02
 -1      4164 4.37688E-02
 -1      4165 3.11778E+00
 -1      4166 4.90400E-02
 -1      4167 4.67374E-02
 -1      4168 4.67374E-02
 -1      4169 1.17765E-01
 -1      4170 1.25742E-01
 -1      4171 1.05042E-01
 -1      4172 5.89156E-02
 -1      4173 5.39778E-02
 -1      4174 5.39778E-02
 -1      4175 1.40601E-01
 -1      4176 1.20609E-01
 -1      4177 1.48225E-01
 -1      4178 3.18358E-01
 -1      4179 2.78232E-01
 -1      4180 3.33780E-01
 -1      4181 6.93789E-02
 -1      4182 7.87342E-02
 -1      4183 6.57133E-02
 -1      4184 2.20086E+00
 -1      4185 2.83492E+00
 -1      4186 2.39070E+00
 -1      4187 1.76385E+00
 -1      4188 4.39690E-02
 -1      4189 4.39690E-02
 -1      4190 4.83480E-02
 -1      4191 1.13967E-01
 -1      4192 9.70179E-02
 -1      4193 9.51207E-02
 -1      4194 9.46868E-02
 -1      4195 9.98129E-02
 -1      4196 1.03148E-01
 -1      4197 2.55172E-01
 -1      4198 6.85487E-02
 -1      4199 2.55495E+00
 -1      4200 1.74092E+00
 -1      4201 7.84795E-02
 -1      4202 6.71687E-02
 -1      4203 6.71687E-02
 -1      4204 8.40743E-02
 -1      4205 1.27975E-01
 -1      4206 7.01350E-02
 -1      4207 7.61767E-02
 -1      4208 1.01684E-01
 -1      4209 1.00769E-01
 -1      4210 8.75297E-02
 -1      4211 1.05540E-01
 -1      4212 8.98052E-02
 -1      4213 1.13142E-01
 -1      4214 8.12813E-02
 -1      4215 8.78993E-02
 -1      4216 7.12408E-02
 -1      4217 5.71636E-02
 -1      4218 5.22258E-02
 -1      4219 7.95797E-02
 -1      4220 8.17254E-02
 -1      4221 8.31897E-02
 -1      4222 8.25487E-02
 -1      4223 6.99797E-02
 -1      4224 6.69703E-02
 -1      4225 6.51210E-02
 -1      4226 6.25398E-02
 -1      4227 5.09874E-02
 -1      4228 4.85606E-02
 -1      4229 4.60893E-02
 -1      4230 4.45873E-02
 -1      4231 4.37212E-02
 -1      4232 4.33993E-02
 -1      4233 4.40652E-02
 -1      4234 4.60936E-02
 -1      4235 5.15820E-02
 -1      4236 5.57315E-02
 -1      4237 6.29215E-02
 -1      4238 6.99840E-02
 -1      4239 6.26015E-02
 -1      4240 7.99020E-02
 -1      4241 8.96274E-02
 -1      4242 7.97094E-02
 -1      4243 1.02863E-01
 -1      4244 1.16098E-01
 -1      4245 1.02863E-01
 -1      4246 1.33249E-01
 -1      4247 1.50400E-01
 -1      4248 1.33249E-01
 -1      4249 1.72178E-01
 -1      4250 1.93957E-01
 -1      4251 1.72178E-01
 -1      4252 2.21229E-01
 -1      4253 2.51079E-01
 -1      4254 2.21229E-01
 -1      4255 2.86214E-01
 -1      4256 3.25276E-01
 -1      4257 2.83636E-01
 -1      4258 3.78728E-01
 -1      4259 4.29965E-01
 -1      4260 3.72222E-01
 -1      4261 5.03270E-01
 -1      4262 5.81666E-01
 -1      4263 4.98978E-01
 -1      4264 6.84731E-01
 -1      4265 7.90292E-01
 -1      4266 6.75348E-01
 -1      4267 9.35229E-01
 -1      4268 1.09215E+00
 -1      4269 9.23351E-01
 -1      4270 6.12301E-01
 -1      4271 5.33719E-01
 -1      4272 6.89450E-02
 -1      4273 1.00752E-01
 -1      4274 8.99329E-02
 -1      4275 8.34876E-02
 -1      4276 9.51626E-02
 -1      4277 2.68926E-01
 -1      4278 2.34748E-01
 -1      4279 7.63257E-02
 -1      4280 4.60415E-01
 -1      4281 4.01942E-01
 -1      4282 1.11954E+00
 -1      4283 9.66725E-01
 -1      4284 2.14368E+00
 -1      4285 1.50399E+00
 -1      4286 1.45274E+00
 -1      4287 2.24845E+00
 -1      4288 2.07475E-01
 -1      4289 1.81098E-01
 -1      4290 8.28115E-02
 -1      4291 6.52183E-02
 -1      4292 6.12196E-02
 -1      4293 5.96334E-02
 -1      4294 5.15140E-02
 -1      4295 5.70655E-02
 -1      4296 5.37351E-02
 -1      4297 4.80012E-02
 -1      4298 1.59320E-01
 -1      4299 1.39305E-01
 -1      4300 1.97943E+00
 -1      4301 1.59868E+00
 -1      4302 3.48490E-01
 -1      4303 3.04060E-01
 -1      4304 8.21788E-01
 -1      4305 7.15367E-01
 -1      4306 5.76231E-02
 -1      4307 4.83963E-02
 -1      4308 8.04983E-02
 -1      4309 5.42500E-02
 -1      4310 8.03534E-02
 -1      4311 1.21423E+00
 -1      4312 1.22154E-01
 -1      4313 6.43535E-02
 -1      4314 9.48947E-02
 -1      4315 8.67476E-02
 -1      4316 6.79855E-02
 -1      4317 1.07086E-01
 -1      4318 7.30901E-02
 -1      4319 7.26066E-02
 -1      4320 4.73065E-02
 -1      4321 9.38504E-02
 -1      4322 8.25246E-02
 -1      4323 8.36087E-02
 -1      4324 5.30403E-02
 -1      4325 5.04725E-02
 -3
 9999
