    1C
    1UUSER                                                              
    1UDATE              27.october.2022                                 
    1UTIME              00:34:49                                        
    1UHOST                                                              
    1UPGM               CalculiX                                        
    1UVERSION           Version 2.17                             
    1UCOMPILETIME       Thu Jul 23 21:43:50 CEST 2020                    
    1UDIR                                                               
    1UDBN                                                               
    1UMAT    1SOLIDMATERIAL                                             
    2C                          4313                                     1
 -1         1 9.42146E+01 3.14141E+01 0.00000E+00
 -1         2 1.06037E+02 2.63398E+01 0.00000E+00
 -1         3 1.50000E+02 0.00000E+00 0.00000E+00
 -1         4 1.50000E+02 5.00000E+01 0.00000E+00
 -1         5 0.00000E+00 0.00000E+00 0.00000E+00
 -1         6 0.00000E+00 5.00000E+01 0.00000E+00
 -1         7 0.00000E+00 4.70500E+01 0.00000E+00
 -1         8 0.00000E+00 4.41000E+01 0.00000E+00
 -1         9 0.00000E+00 4.11500E+01 0.00000E+00
 -1        10 0.00000E+00 3.82000E+01 0.00000E+00
 -1        11 0.00000E+00 3.52500E+01 0.00000E+00
 -1        12 0.00000E+00 3.23500E+01 0.00000E+00
 -1        13 0.00000E+00 2.94000E+01 0.00000E+00
 -1        14 0.00000E+00 2.64500E+01 0.00000E+00
 -1        15 0.00000E+00 2.35000E+01 0.00000E+00
 -1        16 0.00000E+00 2.05500E+01 0.00000E+00
 -1        17 0.00000E+00 1.76000E+01 0.00000E+00
 -1        18 0.00000E+00 1.47000E+01 0.00000E+00
 -1        19 0.00000E+00 1.17500E+01 0.00000E+00
 -1        20 0.00000E+00 8.80000E+00 0.00000E+00
 -1        21 0.00000E+00 5.85000E+00 0.00000E+00
 -1        22 0.00000E+00 2.90000E+00 0.00000E+00
 -1        23 3.15000E+00 5.00000E+01 0.00000E+00
 -1        24 6.15000E+00 5.00000E+01 0.00000E+00
 -1        25 9.15000E+00 5.00000E+01 0.00000E+00
 -1        26 1.21500E+01 5.00000E+01 0.00000E+00
 -1        27 1.51500E+01 5.00000E+01 0.00000E+00
 -1        28 1.81500E+01 5.00000E+01 0.00000E+00
 -1        29 2.11500E+01 5.00000E+01 0.00000E+00
 -1        30 2.41500E+01 5.00000E+01 0.00000E+00
 -1        31 2.71500E+01 5.00000E+01 0.00000E+00
 -1        32 3.01500E+01 5.00000E+01 0.00000E+00
 -1        33 3.31500E+01 5.00000E+01 0.00000E+00
 -1        34 3.61500E+01 5.00000E+01 0.00000E+00
 -1        35 3.91500E+01 5.00000E+01 0.00000E+00
 -1        36 4.21500E+01 5.00000E+01 0.00000E+00
 -1        37 4.51500E+01 5.00000E+01 0.00000E+00
 -1        38 4.81500E+01 5.00000E+01 0.00000E+00
 -1        39 5.11500E+01 5.00000E+01 0.00000E+00
 -1        40 5.41500E+01 5.00000E+01 0.00000E+00
 -1        41 5.71500E+01 5.00000E+01 0.00000E+00
 -1        42 6.01500E+01 5.00000E+01 0.00000E+00
 -1        43 6.31500E+01 5.00000E+01 0.00000E+00
 -1        44 6.61500E+01 5.00000E+01 0.00000E+00
 -1        45 6.91500E+01 5.00000E+01 0.00000E+00
 -1        46 7.21500E+01 5.00000E+01 0.00000E+00
 -1        47 7.51500E+01 5.00000E+01 0.00000E+00
 -1        48 7.81500E+01 5.00000E+01 0.00000E+00
 -1        49 8.11500E+01 5.00000E+01 0.00000E+00
 -1        50 8.41500E+01 5.00000E+01 0.00000E+00
 -1        51 8.71500E+01 5.00000E+01 0.00000E+00
 -1        52 9.01500E+01 5.00000E+01 0.00000E+00
 -1        53 9.31500E+01 5.00000E+01 0.00000E+00
 -1        54 9.61500E+01 5.00000E+01 0.00000E+00
 -1        55 9.91500E+01 5.00000E+01 0.00000E+00
 -1        56 1.02150E+02 5.00000E+01 0.00000E+00
 -1        57 1.05150E+02 5.00000E+01 0.00000E+00
 -1        58 1.08150E+02 5.00000E+01 0.00000E+00
 -1        59 1.11150E+02 5.00000E+01 0.00000E+00
 -1        60 1.14150E+02 5.00000E+01 0.00000E+00
 -1        61 1.17150E+02 5.00000E+01 0.00000E+00
 -1        62 1.20150E+02 5.00000E+01 0.00000E+00
 -1        63 1.23150E+02 5.00000E+01 0.00000E+00
 -1        64 1.26150E+02 5.00000E+01 0.00000E+00
 -1        65 1.29150E+02 5.00000E+01 0.00000E+00
 -1        66 1.32150E+02 5.00000E+01 0.00000E+00
 -1        67 1.35150E+02 5.00000E+01 0.00000E+00
 -1        68 1.38150E+02 5.00000E+01 0.00000E+00
 -1        69 1.41150E+02 5.00000E+01 0.00000E+00
 -1        70 1.44150E+02 5.00000E+01 0.00000E+00
 -1        71 1.47150E+02 5.00000E+01 0.00000E+00
 -1        72 3.15000E+00 0.00000E+00 0.00000E+00
 -1        73 6.15000E+00 0.00000E+00 0.00000E+00
 -1        74 9.15000E+00 0.00000E+00 0.00000E+00
 -1        75 1.21500E+01 0.00000E+00 0.00000E+00
 -1        76 1.51500E+01 0.00000E+00 0.00000E+00
 -1        77 1.81500E+01 0.00000E+00 0.00000E+00
 -1        78 2.11500E+01 0.00000E+00 0.00000E+00
 -1        79 2.41500E+01 0.00000E+00 0.00000E+00
 -1        80 2.71500E+01 0.00000E+00 0.00000E+00
 -1        81 3.01500E+01 0.00000E+00 0.00000E+00
 -1        82 3.31500E+01 0.00000E+00 0.00000E+00
 -1        83 3.61500E+01 0.00000E+00 0.00000E+00
 -1        84 3.91500E+01 0.00000E+00 0.00000E+00
 -1        85 4.21500E+01 0.00000E+00 0.00000E+00
 -1        86 4.51500E+01 0.00000E+00 0.00000E+00
 -1        87 4.81500E+01 0.00000E+00 0.00000E+00
 -1        88 5.11500E+01 0.00000E+00 0.00000E+00
 -1        89 5.41500E+01 0.00000E+00 0.00000E+00
 -1        90 5.71500E+01 0.00000E+00 0.00000E+00
 -1        91 6.01500E+01 0.00000E+00 0.00000E+00
 -1        92 6.31500E+01 0.00000E+00 0.00000E+00
 -1        93 6.61500E+01 0.00000E+00 0.00000E+00
 -1        94 6.91500E+01 0.00000E+00 0.00000E+00
 -1        95 7.21500E+01 0.00000E+00 0.00000E+00
 -1        96 7.51500E+01 0.00000E+00 0.00000E+00
 -1        97 7.81500E+01 0.00000E+00 0.00000E+00
 -1        98 8.11500E+01 0.00000E+00 0.00000E+00
 -1        99 8.41500E+01 0.00000E+00 0.00000E+00
 -1       100 8.71500E+01 0.00000E+00 0.00000E+00
 -1       101 9.01500E+01 0.00000E+00 0.00000E+00
 -1       102 9.31500E+01 0.00000E+00 0.00000E+00
 -1       103 9.61500E+01 0.00000E+00 0.00000E+00
 -1       104 9.91500E+01 0.00000E+00 0.00000E+00
 -1       105 1.02150E+02 0.00000E+00 0.00000E+00
 -1       106 1.05150E+02 0.00000E+00 0.00000E+00
 -1       107 1.08150E+02 0.00000E+00 0.00000E+00
 -1       108 1.11150E+02 0.00000E+00 0.00000E+00
 -1       109 1.14150E+02 0.00000E+00 0.00000E+00
 -1       110 1.17150E+02 0.00000E+00 0.00000E+00
 -1       111 1.20150E+02 0.00000E+00 0.00000E+00
 -1       112 1.23150E+02 0.00000E+00 0.00000E+00
 -1       113 1.26150E+02 0.00000E+00 0.00000E+00
 -1       114 1.29150E+02 0.00000E+00 0.00000E+00
 -1       115 1.32150E+02 0.00000E+00 0.00000E+00
 -1       116 1.35150E+02 0.00000E+00 0.00000E+00
 -1       117 1.38150E+02 0.00000E+00 0.00000E+00
 -1       118 1.41150E+02 0.00000E+00 0.00000E+00
 -1       119 1.44150E+02 0.00000E+00 0.00000E+00
 -1       120 1.47150E+02 0.00000E+00 0.00000E+00
 -1       121 1.50000E+02 2.95000E+00 0.00000E+00
 -1       122 1.50000E+02 5.90000E+00 0.00000E+00
 -1       123 1.50000E+02 8.85000E+00 0.00000E+00
 -1       124 1.50000E+02 1.18000E+01 0.00000E+00
 -1       125 1.50000E+02 1.47500E+01 0.00000E+00
 -1       126 1.50000E+02 1.76500E+01 0.00000E+00
 -1       127 1.50000E+02 2.06000E+01 0.00000E+00
 -1       128 1.50000E+02 2.35500E+01 0.00000E+00
 -1       129 1.50000E+02 2.65000E+01 0.00000E+00
 -1       130 1.50000E+02 2.94500E+01 0.00000E+00
 -1       131 1.50000E+02 3.24000E+01 0.00000E+00
 -1       132 1.50000E+02 3.53000E+01 0.00000E+00
 -1       133 1.50000E+02 3.82500E+01 0.00000E+00
 -1       134 1.50000E+02 4.12000E+01 0.00000E+00
 -1       135 1.50000E+02 4.41500E+01 0.00000E+00
 -1       136 1.50000E+02 4.71000E+01 0.00000E+00
 -1       137 1.05868E+02 2.48130E+01 0.00000E+00
 -1       138 1.05366E+02 2.33490E+01 0.00000E+00
 -1       139 1.04524E+02 2.19931E+01 0.00000E+00
 -1       140 1.03532E+02 2.09739E+01 0.00000E+00
 -1       141 1.02316E+02 2.01556E+01 0.00000E+00
 -1       142 1.00949E+02 1.96060E+01 0.00000E+00
 -1       143 9.93519E+01 1.93469E+01 0.00000E+00
 -1       144 9.78220E+01 1.94460E+01 0.00000E+00
 -1       145 9.63386E+01 1.98806E+01 0.00000E+00
 -1       146 9.49193E+01 2.06787E+01 0.00000E+00
 -1       147 9.38020E+01 2.16922E+01 0.00000E+00
 -1       148 9.28377E+01 2.30880E+01 0.00000E+00
 -1       149 9.22979E+01 2.44449E+01 0.00000E+00
 -1       150 9.20493E+01 2.59174E+01 0.00000E+00
 -1       151 9.21328E+01 2.74965E+01 0.00000E+00
 -1       152 9.25324E+01 2.89273E+01 0.00000E+00
 -1       153 9.32437E+01 3.02694E+01 0.00000E+00
 -1       154 9.54063E+01 3.23249E+01 0.00000E+00
 -1       155 9.68417E+01 3.29868E+01 0.00000E+00
 -1       156 9.82406E+01 3.32944E+01 0.00000E+00
 -1       157 9.97987E+01 3.32982E+01 0.00000E+00
 -1       158 1.01201E+02 3.29969E+01 0.00000E+00
 -1       159 1.02538E+02 3.24012E+01 0.00000E+00
 -1       160 1.03710E+02 3.15515E+01 0.00000E+00
 -1       161 1.04723E+02 3.04226E+01 0.00000E+00
 -1       162 1.05434E+02 2.91820E+01 0.00000E+00
 -1       163 1.05889E+02 2.77706E+01 0.00000E+00
 -1       164 2.59800E+00 4.55750E+01 0.00000E+00
 -1       165 2.59800E+00 4.26250E+01 0.00000E+00
 -1       166 2.59800E+00 3.96750E+01 0.00000E+00
 -1       167 2.59800E+00 3.67250E+01 0.00000E+00
 -1       168 2.59800E+00 3.38250E+01 0.00000E+00
 -1       169 2.59800E+00 3.08750E+01 0.00000E+00
 -1       170 2.59800E+00 2.79250E+01 0.00000E+00
 -1       171 2.59800E+00 2.49750E+01 0.00000E+00
 -1       172 2.59800E+00 2.20250E+01 0.00000E+00
 -1       173 2.59800E+00 1.90750E+01 0.00000E+00
 -1       174 2.59800E+00 1.61750E+01 0.00000E+00
 -1       175 2.59800E+00 1.32250E+01 0.00000E+00
 -1       176 2.59800E+00 1.02750E+01 0.00000E+00
 -1       177 2.59800E+00 7.32500E+00 0.00000E+00
 -1       178 2.59800E+00 4.37500E+00 0.00000E+00
 -1       179 2.87400E+00 2.18750E+00 0.00000E+00
 -1       180 4.65000E+00 4.74020E+01 0.00000E+00
 -1       181 7.65000E+00 4.74020E+01 0.00000E+00
 -1       182 1.06500E+01 4.74020E+01 0.00000E+00
 -1       183 1.36500E+01 4.74020E+01 0.00000E+00
 -1       184 1.66500E+01 4.74020E+01 0.00000E+00
 -1       185 1.96500E+01 4.74020E+01 0.00000E+00
 -1       186 2.26500E+01 4.74020E+01 0.00000E+00
 -1       187 2.56500E+01 4.74020E+01 0.00000E+00
 -1       188 2.86500E+01 4.74020E+01 0.00000E+00
 -1       189 3.16500E+01 4.74020E+01 0.00000E+00
 -1       190 3.46500E+01 4.74020E+01 0.00000E+00
 -1       191 3.76500E+01 4.74020E+01 0.00000E+00
 -1       192 4.06500E+01 4.74020E+01 0.00000E+00
 -1       193 4.36500E+01 4.74020E+01 0.00000E+00
 -1       194 4.66500E+01 4.74020E+01 0.00000E+00
 -1       195 4.96500E+01 4.74020E+01 0.00000E+00
 -1       196 5.26500E+01 4.74020E+01 0.00000E+00
 -1       197 5.56500E+01 4.74020E+01 0.00000E+00
 -1       198 5.86500E+01 4.74020E+01 0.00000E+00
 -1       199 6.16500E+01 4.74020E+01 0.00000E+00
 -1       200 6.46500E+01 4.74020E+01 0.00000E+00
 -1       201 6.76500E+01 4.74020E+01 0.00000E+00
 -1       202 7.06500E+01 4.74020E+01 0.00000E+00
 -1       203 7.36500E+01 4.74020E+01 0.00000E+00
 -1       204 7.66500E+01 4.74020E+01 0.00000E+00
 -1       205 7.96500E+01 4.74020E+01 0.00000E+00
 -1       206 8.26500E+01 4.74020E+01 0.00000E+00
 -1       207 8.56500E+01 4.74020E+01 0.00000E+00
 -1       208 8.86500E+01 4.74020E+01 0.00000E+00
 -1       209 9.16500E+01 4.74020E+01 0.00000E+00
 -1       210 9.46500E+01 4.74020E+01 0.00000E+00
 -1       211 9.76500E+01 4.74020E+01 0.00000E+00
 -1       212 1.00650E+02 4.74020E+01 0.00000E+00
 -1       213 1.03650E+02 4.74020E+01 0.00000E+00
 -1       214 1.06650E+02 4.74020E+01 0.00000E+00
 -1       215 1.09650E+02 4.74020E+01 0.00000E+00
 -1       216 1.12650E+02 4.74020E+01 0.00000E+00
 -1       217 1.15650E+02 4.74020E+01 0.00000E+00
 -1       218 1.18650E+02 4.74020E+01 0.00000E+00
 -1       219 1.21650E+02 4.74020E+01 0.00000E+00
 -1       220 1.24650E+02 4.74020E+01 0.00000E+00
 -1       221 1.27650E+02 4.74020E+01 0.00000E+00
 -1       222 1.30650E+02 4.74020E+01 0.00000E+00
 -1       223 1.33650E+02 4.74020E+01 0.00000E+00
 -1       224 1.36650E+02 4.74020E+01 0.00000E+00
 -1       225 1.39650E+02 4.74020E+01 0.00000E+00
 -1       226 1.42650E+02 4.74020E+01 0.00000E+00
 -1       227 1.45650E+02 4.74020E+01 0.00000E+00
 -1       228 5.87400E+00 2.18750E+00 0.00000E+00
 -1       229 8.87400E+00 2.18750E+00 0.00000E+00
 -1       230 1.18740E+01 2.18750E+00 0.00000E+00
 -1       231 1.48740E+01 2.18750E+00 0.00000E+00
 -1       232 1.78740E+01 2.18750E+00 0.00000E+00
 -1       233 2.08740E+01 2.18750E+00 0.00000E+00
 -1       234 2.38740E+01 2.18750E+00 0.00000E+00
 -1       235 2.68740E+01 2.18750E+00 0.00000E+00
 -1       236 2.98740E+01 2.18750E+00 0.00000E+00
 -1       237 3.28740E+01 2.18750E+00 0.00000E+00
 -1       238 3.58740E+01 2.18750E+00 0.00000E+00
 -1       239 3.88740E+01 2.18750E+00 0.00000E+00
 -1       240 4.18740E+01 2.18750E+00 0.00000E+00
 -1       241 4.48740E+01 2.18750E+00 0.00000E+00
 -1       242 4.78740E+01 2.18750E+00 0.00000E+00
 -1       243 5.08740E+01 2.18750E+00 0.00000E+00
 -1       244 5.38740E+01 2.18750E+00 0.00000E+00
 -1       245 5.68740E+01 2.18750E+00 0.00000E+00
 -1       246 5.98740E+01 2.18750E+00 0.00000E+00
 -1       247 6.28740E+01 2.18750E+00 0.00000E+00
 -1       248 6.58740E+01 2.18750E+00 0.00000E+00
 -1       249 6.88740E+01 2.18750E+00 0.00000E+00
 -1       250 7.18740E+01 2.18750E+00 0.00000E+00
 -1       251 7.48740E+01 2.18750E+00 0.00000E+00
 -1       252 7.78740E+01 2.18750E+00 0.00000E+00
 -1       253 8.08740E+01 2.18750E+00 0.00000E+00
 -1       254 8.38740E+01 2.18750E+00 0.00000E+00
 -1       255 8.68740E+01 2.18750E+00 0.00000E+00
 -1       256 8.98740E+01 2.18750E+00 0.00000E+00
 -1       257 9.28740E+01 2.18750E+00 0.00000E+00
 -1       258 9.58740E+01 2.18750E+00 0.00000E+00
 -1       259 9.88740E+01 2.18750E+00 0.00000E+00
 -1       260 1.01874E+02 2.18750E+00 0.00000E+00
 -1       261 1.04874E+02 2.18750E+00 0.00000E+00
 -1       262 1.07874E+02 2.18750E+00 0.00000E+00
 -1       263 1.10874E+02 2.18750E+00 0.00000E+00
 -1       264 1.13874E+02 2.18750E+00 0.00000E+00
 -1       265 1.16874E+02 2.18750E+00 0.00000E+00
 -1       266 1.19874E+02 2.18750E+00 0.00000E+00
 -1       267 1.22874E+02 2.18750E+00 0.00000E+00
 -1       268 1.25874E+02 2.18750E+00 0.00000E+00
 -1       269 1.28874E+02 2.18750E+00 0.00000E+00
 -1       270 1.31874E+02 2.18750E+00 0.00000E+00
 -1       271 1.34874E+02 2.18750E+00 0.00000E+00
 -1       272 1.37874E+02 2.18750E+00 0.00000E+00
 -1       273 1.40874E+02 2.18750E+00 0.00000E+00
 -1       274 1.43874E+02 2.18750E+00 0.00000E+00
 -1       275 1.46874E+02 2.18750E+00 0.00000E+00
 -1       276 1.47402E+02 4.42500E+00 0.00000E+00
 -1       277 1.47402E+02 7.37500E+00 0.00000E+00
 -1       278 1.47402E+02 1.03250E+01 0.00000E+00
 -1       279 1.47402E+02 1.32750E+01 0.00000E+00
 -1       280 1.47402E+02 1.61750E+01 0.00000E+00
 -1       281 1.47402E+02 1.91250E+01 0.00000E+00
 -1       282 1.47402E+02 2.20750E+01 0.00000E+00
 -1       283 1.47402E+02 2.50250E+01 0.00000E+00
 -1       284 1.47402E+02 2.79750E+01 0.00000E+00
 -1       285 1.47402E+02 3.09250E+01 0.00000E+00
 -1       286 1.47402E+02 3.38250E+01 0.00000E+00
 -1       287 1.47402E+02 3.67750E+01 0.00000E+00
 -1       288 1.47402E+02 3.97250E+01 0.00000E+00
 -1       289 1.47402E+02 4.26750E+01 0.00000E+00
 -1       290 1.46526E+02 4.50385E+01 0.00000E+00
 -1       291 1.07241E+02 2.54342E+01 0.00000E+00
 -1       292 1.06763E+02 2.36874E+01 0.00000E+00
 -1       293 1.06117E+02 2.19431E+01 0.00000E+00
 -1       294 1.04897E+02 2.06380E+01 0.00000E+00
 -1       295 1.03601E+02 1.95590E+01 0.00000E+00
 -1       296 1.02116E+02 1.86781E+01 0.00000E+00
 -1       297 1.00371E+02 1.81143E+01 0.00000E+00
 -1       298 9.85086E+01 1.81866E+01 0.00000E+00
 -1       299 9.67158E+01 1.84194E+01 0.00000E+00
 -1       300 9.50347E+01 1.92229E+01 0.00000E+00
 -1       301 9.35460E+01 2.02875E+01 0.00000E+00
 -1       302 9.21156E+01 2.15581E+01 0.00000E+00
 -1       303 9.14413E+01 2.33183E+01 0.00000E+00
 -1       304 9.09781E+01 2.49793E+01 0.00000E+00
 -1       305 9.07967E+01 2.67754E+01 0.00000E+00
 -1       306 9.11649E+01 2.85380E+01 0.00000E+00
 -1       307 9.17427E+01 3.02053E+01 0.00000E+00
 -1       308 9.28045E+01 3.16260E+01 0.00000E+00
 -1       309 9.40234E+01 3.28993E+01 0.00000E+00
 -1       310 9.55462E+01 3.39090E+01 0.00000E+00
 -1       311 9.72808E+01 3.43247E+01 0.00000E+00
 -1       312 9.90163E+01 3.46762E+01 0.00000E+00
 -1       313 1.00754E+02 3.43329E+01 0.00000E+00
 -1       314 1.02362E+02 3.38066E+01 0.00000E+00
 -1       315 1.03835E+02 3.29579E+01 0.00000E+00
 -1       316 1.05243E+02 3.19086E+01 0.00000E+00
 -1       317 1.06130E+02 3.04052E+01 0.00000E+00
 -1       318 1.06815E+02 2.88485E+01 0.00000E+00
 -1       319 1.07169E+02 2.71798E+01 0.00000E+00
 -1       320 5.19600E+00 4.11500E+01 0.00000E+00
 -1       321 5.19600E+00 4.41000E+01 0.00000E+00
 -1       322 5.19600E+00 3.52750E+01 0.00000E+00
 -1       323 5.19600E+00 3.23250E+01 0.00000E+00
 -1       324 5.19600E+00 2.93750E+01 0.00000E+00
 -1       325 5.19600E+00 2.64250E+01 0.00000E+00
 -1       326 5.19600E+00 2.34750E+01 0.00000E+00
 -1       327 5.19600E+00 2.05250E+01 0.00000E+00
 -1       328 5.19600E+00 1.76250E+01 0.00000E+00
 -1       329 5.19600E+00 1.46750E+01 0.00000E+00
 -1       330 5.19600E+00 1.17250E+01 0.00000E+00
 -1       331 5.19600E+00 8.77500E+00 0.00000E+00
 -1       332 5.19600E+00 5.82500E+00 0.00000E+00
 -1       333 5.53500E+00 4.00625E+00 0.00000E+00
 -1       334 8.53500E+00 4.00625E+00 0.00000E+00
 -1       335 9.15000E+00 4.48040E+01 0.00000E+00
 -1       336 1.21500E+01 4.48040E+01 0.00000E+00
 -1       337 1.51500E+01 4.48040E+01 0.00000E+00
 -1       338 1.81500E+01 4.48040E+01 0.00000E+00
 -1       339 2.11500E+01 4.48040E+01 0.00000E+00
 -1       340 2.41500E+01 4.48040E+01 0.00000E+00
 -1       341 2.71500E+01 4.48040E+01 0.00000E+00
 -1       342 3.01500E+01 4.48040E+01 0.00000E+00
 -1       343 3.31500E+01 4.48040E+01 0.00000E+00
 -1       344 3.61500E+01 4.48040E+01 0.00000E+00
 -1       345 3.91500E+01 4.48040E+01 0.00000E+00
 -1       346 4.21500E+01 4.48040E+01 0.00000E+00
 -1       347 4.51500E+01 4.48040E+01 0.00000E+00
 -1       348 4.81500E+01 4.48040E+01 0.00000E+00
 -1       349 5.11500E+01 4.48040E+01 0.00000E+00
 -1       350 5.41500E+01 4.48040E+01 0.00000E+00
 -1       351 5.71500E+01 4.48040E+01 0.00000E+00
 -1       352 6.01500E+01 4.48040E+01 0.00000E+00
 -1       353 6.31500E+01 4.48040E+01 0.00000E+00
 -1       354 6.61500E+01 4.48040E+01 0.00000E+00
 -1       355 6.91500E+01 4.48040E+01 0.00000E+00
 -1       356 7.21500E+01 4.48040E+01 0.00000E+00
 -1       357 7.51500E+01 4.48040E+01 0.00000E+00
 -1       358 7.81500E+01 4.48040E+01 0.00000E+00
 -1       359 8.11500E+01 4.48040E+01 0.00000E+00
 -1       360 8.41500E+01 4.48040E+01 0.00000E+00
 -1       361 8.71500E+01 4.48040E+01 0.00000E+00
 -1       362 9.01500E+01 4.48040E+01 0.00000E+00
 -1       363 9.31500E+01 4.48040E+01 0.00000E+00
 -1       364 9.61500E+01 4.48040E+01 0.00000E+00
 -1       365 9.91500E+01 4.48040E+01 0.00000E+00
 -1       366 1.02150E+02 4.48040E+01 0.00000E+00
 -1       367 1.05150E+02 4.48040E+01 0.00000E+00
 -1       368 1.08150E+02 4.48040E+01 0.00000E+00
 -1       369 1.11150E+02 4.48040E+01 0.00000E+00
 -1       370 1.14150E+02 4.48040E+01 0.00000E+00
 -1       371 1.17150E+02 4.48040E+01 0.00000E+00
 -1       372 1.20150E+02 4.48040E+01 0.00000E+00
 -1       373 1.23150E+02 4.48040E+01 0.00000E+00
 -1       374 1.26150E+02 4.48040E+01 0.00000E+00
 -1       375 1.29150E+02 4.48040E+01 0.00000E+00
 -1       376 1.32150E+02 4.48040E+01 0.00000E+00
 -1       377 1.35150E+02 4.48040E+01 0.00000E+00
 -1       378 1.38150E+02 4.48040E+01 0.00000E+00
 -1       379 1.41150E+02 4.48040E+01 0.00000E+00
 -1       380 1.43838E+02 4.49212E+01 0.00000E+00
 -1       381 1.15350E+01 4.00625E+00 0.00000E+00
 -1       382 1.45350E+01 4.00625E+00 0.00000E+00
 -1       383 1.75350E+01 4.00625E+00 0.00000E+00
 -1       384 2.05350E+01 4.00625E+00 0.00000E+00
 -1       385 2.35350E+01 4.00625E+00 0.00000E+00
 -1       386 2.65350E+01 4.00625E+00 0.00000E+00
 -1       387 2.95350E+01 4.00625E+00 0.00000E+00
 -1       388 3.25350E+01 4.00625E+00 0.00000E+00
 -1       389 3.55350E+01 4.00625E+00 0.00000E+00
 -1       390 3.85350E+01 4.00625E+00 0.00000E+00
 -1       391 4.15350E+01 4.00625E+00 0.00000E+00
 -1       392 4.45350E+01 4.00625E+00 0.00000E+00
 -1       393 4.75350E+01 4.00625E+00 0.00000E+00
 -1       394 5.05350E+01 4.00625E+00 0.00000E+00
 -1       395 5.35350E+01 4.00625E+00 0.00000E+00
 -1       396 5.65350E+01 4.00625E+00 0.00000E+00
 -1       397 5.95350E+01 4.00625E+00 0.00000E+00
 -1       398 6.25350E+01 4.00625E+00 0.00000E+00
 -1       399 6.55350E+01 4.00625E+00 0.00000E+00
 -1       400 6.85350E+01 4.00625E+00 0.00000E+00
 -1       401 7.15350E+01 4.00625E+00 0.00000E+00
 -1       402 7.45350E+01 4.00625E+00 0.00000E+00
 -1       403 7.75350E+01 4.00625E+00 0.00000E+00
 -1       404 8.05350E+01 4.00625E+00 0.00000E+00
 -1       405 8.35350E+01 4.00625E+00 0.00000E+00
 -1       406 8.65350E+01 4.00625E+00 0.00000E+00
 -1       407 8.95350E+01 4.00625E+00 0.00000E+00
 -1       408 9.25350E+01 4.00625E+00 0.00000E+00
 -1       409 9.55350E+01 4.00625E+00 0.00000E+00
 -1       410 9.85350E+01 4.00625E+00 0.00000E+00
 -1       411 1.01535E+02 4.00625E+00 0.00000E+00
 -1       412 1.04535E+02 4.00625E+00 0.00000E+00
 -1       413 1.07535E+02 4.00625E+00 0.00000E+00
 -1       414 1.10535E+02 4.00625E+00 0.00000E+00
 -1       415 1.13535E+02 4.00625E+00 0.00000E+00
 -1       416 1.16535E+02 4.00625E+00 0.00000E+00
 -1       417 1.19535E+02 4.00625E+00 0.00000E+00
 -1       418 1.22535E+02 4.00625E+00 0.00000E+00
 -1       419 1.25535E+02 4.00625E+00 0.00000E+00
 -1       420 1.28535E+02 4.00625E+00 0.00000E+00
 -1       421 1.31535E+02 4.00625E+00 0.00000E+00
 -1       422 1.34535E+02 4.00625E+00 0.00000E+00
 -1       423 1.37535E+02 4.00625E+00 0.00000E+00
 -1       424 1.40535E+02 4.00625E+00 0.00000E+00
 -1       425 1.43535E+02 4.00625E+00 0.00000E+00
 -1       426 1.45469E+02 4.21562E+00 0.00000E+00
 -1       427 1.44804E+02 1.18000E+01 0.00000E+00
 -1       428 1.44804E+02 8.85000E+00 0.00000E+00
 -1       429 1.45136E+02 6.53281E+00 0.00000E+00
 -1       430 1.44804E+02 1.47000E+01 0.00000E+00
 -1       431 1.44804E+02 1.76500E+01 0.00000E+00
 -1       432 1.44804E+02 2.06000E+01 0.00000E+00
 -1       433 1.44804E+02 2.35500E+01 0.00000E+00
 -1       434 1.44804E+02 2.65000E+01 0.00000E+00
 -1       435 1.44804E+02 2.94500E+01 0.00000E+00
 -1       436 1.44804E+02 3.23500E+01 0.00000E+00
 -1       437 1.44804E+02 3.53000E+01 0.00000E+00
 -1       438 1.44804E+02 3.82500E+01 0.00000E+00
 -1       439 1.44804E+02 4.12000E+01 0.00000E+00
 -1       440 1.07891E+02 2.22773E+01 0.00000E+00
 -1       441 1.08667E+02 2.63673E+01 0.00000E+00
 -1       442 1.08368E+02 2.40241E+01 0.00000E+00
 -1       443 1.06576E+02 2.02908E+01 0.00000E+00
 -1       444 1.05132E+02 1.90381E+01 0.00000E+00
 -1       445 5.19600E+00 3.82125E+01 0.00000E+00
 -1       446 1.01668E+02 1.70831E+01 0.00000E+00
 -1       447 9.93767E+01 1.65203E+01 0.00000E+00
 -1       448 9.75839E+01 1.67531E+01 0.00000E+00
 -1       449 9.52079E+01 1.74249E+01 0.00000E+00
 -1       450 9.33902E+01 1.84964E+01 0.00000E+00
 -1       451 9.19597E+01 1.97670E+01 0.00000E+00
 -1       452 9.04898E+01 2.19445E+01 0.00000E+00
 -1       453 8.99612E+01 2.38007E+01 0.00000E+00
 -1       454 8.93477E+01 2.57218E+01 0.00000E+00
 -1       455 8.94659E+01 2.79731E+01 0.00000E+00
 -1       456 9.01499E+01 2.98236E+01 0.00000E+00
 -1       457 9.10341E+01 3.18421E+01 0.00000E+00
 -1       458 9.24776E+01 3.31589E+01 0.00000E+00
 -1       459 9.40685E+01 3.44845E+01 0.00000E+00
 -1       460 9.60919E+01 3.54588E+01 0.00000E+00
 -1       461 9.78274E+01 3.58104E+01 0.00000E+00
 -1       462 1.00185E+02 3.60228E+01 0.00000E+00
 -1       463 1.01793E+02 3.54965E+01 0.00000E+00
 -1       464 1.03830E+02 3.46505E+01 0.00000E+00
 -1       465 1.05314E+02 3.34725E+01 0.00000E+00
 -1       466 1.07164E+02 3.20282E+01 0.00000E+00
 -1       467 1.07849E+02 3.04715E+01 0.00000E+00
 -1       468 1.08342E+02 2.83002E+01 0.00000E+00
 -1       469 1.03648E+02 1.77875E+01 0.00000E+00
 -1       470 9.03339E+01 2.01534E+01 0.00000E+00
 -1       471 1.00350E+01 6.60425E+00 0.00000E+00
 -1       472 7.79400E+00 3.08500E+01 0.00000E+00
 -1       473 7.79400E+00 3.38000E+01 0.00000E+00
 -1       474 7.79400E+00 2.49500E+01 0.00000E+00
 -1       475 7.79400E+00 2.20000E+01 0.00000E+00
 -1       476 7.79400E+00 1.91000E+01 0.00000E+00
 -1       477 7.79400E+00 1.61500E+01 0.00000E+00
 -1       478 7.79400E+00 1.32000E+01 0.00000E+00
 -1       479 7.79400E+00 1.02500E+01 0.00000E+00
 -1       480 1.30350E+01 6.60425E+00 0.00000E+00
 -1       481 1.06500E+01 4.22060E+01 0.00000E+00
 -1       482 1.03120E+02 1.61351E+01 0.00000E+00
 -1       483 1.36500E+01 4.22060E+01 0.00000E+00
 -1       484 1.66500E+01 4.22060E+01 0.00000E+00
 -1       485 1.96500E+01 4.22060E+01 0.00000E+00
 -1       486 2.26500E+01 4.22060E+01 0.00000E+00
 -1       487 2.56500E+01 4.22060E+01 0.00000E+00
 -1       488 2.86500E+01 4.22060E+01 0.00000E+00
 -1       489 3.16500E+01 4.22060E+01 0.00000E+00
 -1       490 3.46500E+01 4.22060E+01 0.00000E+00
 -1       491 3.76500E+01 4.22060E+01 0.00000E+00
 -1       492 4.06500E+01 4.22060E+01 0.00000E+00
 -1       493 4.36500E+01 4.22060E+01 0.00000E+00
 -1       494 4.66500E+01 4.22060E+01 0.00000E+00
 -1       495 4.96500E+01 4.22060E+01 0.00000E+00
 -1       496 5.26500E+01 4.22060E+01 0.00000E+00
 -1       497 5.56500E+01 4.22060E+01 0.00000E+00
 -1       498 5.86500E+01 4.22060E+01 0.00000E+00
 -1       499 6.16500E+01 4.22060E+01 0.00000E+00
 -1       500 6.46500E+01 4.22060E+01 0.00000E+00
 -1       501 6.76500E+01 4.22060E+01 0.00000E+00
 -1       502 7.06500E+01 4.22060E+01 0.00000E+00
 -1       503 7.36500E+01 4.22060E+01 0.00000E+00
 -1       504 7.66500E+01 4.22060E+01 0.00000E+00
 -1       505 7.96500E+01 4.22060E+01 0.00000E+00
 -1       506 8.26500E+01 4.22060E+01 0.00000E+00
 -1       507 8.56500E+01 4.22060E+01 0.00000E+00
 -1       508 8.86500E+01 4.22060E+01 0.00000E+00
 -1       509 9.16500E+01 4.22060E+01 0.00000E+00
 -1       510 9.46500E+01 4.22060E+01 0.00000E+00
 -1       511 9.76500E+01 4.22060E+01 0.00000E+00
 -1       512 1.00650E+02 4.22060E+01 0.00000E+00
 -1       513 1.03650E+02 4.22060E+01 0.00000E+00
 -1       514 1.06650E+02 4.22060E+01 0.00000E+00
 -1       515 1.09650E+02 4.22060E+01 0.00000E+00
 -1       516 1.12650E+02 4.22060E+01 0.00000E+00
 -1       517 1.15650E+02 4.22060E+01 0.00000E+00
 -1       518 1.18650E+02 4.22060E+01 0.00000E+00
 -1       519 1.21650E+02 4.22060E+01 0.00000E+00
 -1       520 1.24650E+02 4.22060E+01 0.00000E+00
 -1       521 1.27650E+02 4.22060E+01 0.00000E+00
 -1       522 1.30650E+02 4.22060E+01 0.00000E+00
 -1       523 1.33650E+02 4.22060E+01 0.00000E+00
 -1       524 1.36650E+02 4.22060E+01 0.00000E+00
 -1       525 1.39650E+02 4.22060E+01 0.00000E+00
 -1       526 1.10108E+02 2.26104E+01 0.00000E+00
 -1       527 1.90350E+01 6.60425E+00 0.00000E+00
 -1       528 2.20350E+01 6.60425E+00 0.00000E+00
 -1       529 2.50350E+01 6.60425E+00 0.00000E+00
 -1       530 2.80350E+01 6.60425E+00 0.00000E+00
 -1       531 3.10350E+01 6.60425E+00 0.00000E+00
 -1       532 3.40350E+01 6.60425E+00 0.00000E+00
 -1       533 3.70350E+01 6.60425E+00 0.00000E+00
 -1       534 4.00350E+01 6.60425E+00 0.00000E+00
 -1       535 4.30350E+01 6.60425E+00 0.00000E+00
 -1       536 4.60350E+01 6.60425E+00 0.00000E+00
 -1       537 4.90350E+01 6.60425E+00 0.00000E+00
 -1       538 5.20350E+01 6.60425E+00 0.00000E+00
 -1       539 5.50350E+01 6.60425E+00 0.00000E+00
 -1       540 5.80350E+01 6.60425E+00 0.00000E+00
 -1       541 6.10350E+01 6.60425E+00 0.00000E+00
 -1       542 6.40350E+01 6.60425E+00 0.00000E+00
 -1       543 6.70350E+01 6.60425E+00 0.00000E+00
 -1       544 7.00350E+01 6.60425E+00 0.00000E+00
 -1       545 7.30350E+01 6.60425E+00 0.00000E+00
 -1       546 7.60350E+01 6.60425E+00 0.00000E+00
 -1       547 7.90350E+01 6.60425E+00 0.00000E+00
 -1       548 8.20350E+01 6.60425E+00 0.00000E+00
 -1       549 8.50350E+01 6.60425E+00 0.00000E+00
 -1       550 8.80350E+01 6.60425E+00 0.00000E+00
 -1       551 9.10350E+01 6.60425E+00 0.00000E+00
 -1       552 9.40350E+01 6.60425E+00 0.00000E+00
 -1       553 9.70350E+01 6.60425E+00 0.00000E+00
 -1       554 1.00035E+02 6.60425E+00 0.00000E+00
 -1       555 1.03035E+02 6.60425E+00 0.00000E+00
 -1       556 1.06035E+02 6.60425E+00 0.00000E+00
 -1       557 1.09035E+02 6.60425E+00 0.00000E+00
 -1       558 1.12035E+02 6.60425E+00 0.00000E+00
 -1       559 1.15035E+02 6.60425E+00 0.00000E+00
 -1       560 1.18035E+02 6.60425E+00 0.00000E+00
 -1       561 1.21035E+02 6.60425E+00 0.00000E+00
 -1       562 1.24035E+02 6.60425E+00 0.00000E+00
 -1       563 1.27035E+02 6.60425E+00 0.00000E+00
 -1       564 1.30035E+02 6.60425E+00 0.00000E+00
 -1       565 1.33035E+02 6.60425E+00 0.00000E+00
 -1       566 1.36035E+02 6.60425E+00 0.00000E+00
 -1       567 1.39035E+02 6.60425E+00 0.00000E+00
 -1       568 1.42035E+02 6.60425E+00 0.00000E+00
 -1       569 1.42206E+02 1.61750E+01 0.00000E+00
 -1       570 1.42206E+02 1.91250E+01 0.00000E+00
 -1       571 1.42206E+02 1.03250E+01 0.00000E+00
 -1       572 1.42206E+02 1.32500E+01 0.00000E+00
 -1       573 1.42206E+02 2.20750E+01 0.00000E+00
 -1       574 1.42206E+02 2.50250E+01 0.00000E+00
 -1       575 1.42206E+02 2.79750E+01 0.00000E+00
 -1       576 1.42206E+02 3.08750E+01 0.00000E+00
 -1       577 1.42206E+02 3.38250E+01 0.00000E+00
 -1       578 1.42206E+02 3.67750E+01 0.00000E+00
 -1       579 1.42206E+02 3.97250E+01 0.00000E+00
 -1       580 1.10196E+02 2.76184E+01 0.00000E+00
 -1       581 1.60350E+01 6.60425E+00 0.00000E+00
 -1       582 1.08943E+02 2.01522E+01 0.00000E+00
 -1       583 1.09703E+02 2.97897E+01 0.00000E+00
 -1       584 7.92300E+00 4.16780E+01 0.00000E+00
 -1       585 1.07294E+02 3.41022E+01 0.00000E+00
 -1       586 9.44088E+01 3.63659E+01 0.00000E+00
 -1       587 9.59294E+01 1.54386E+01 0.00000E+00
 -1       588 7.79400E+00 2.79000E+01 0.00000E+00
 -1       589 1.00931E+02 1.51361E+01 0.00000E+00
 -1       590 9.34281E+01 1.64831E+01 0.00000E+00
 -1       591 9.82702E+01 1.50190E+01 0.00000E+00
 -1       592 8.85760E+01 2.24028E+01 0.00000E+00
 -1       593 9.15360E+01 1.78494E+01 0.00000E+00
 -1       594 1.05810E+02 3.52802E+01 0.00000E+00
 -1       595 8.79625E+01 2.43240E+01 0.00000E+00
 -1       596 8.78614E+01 2.69286E+01 0.00000E+00
 -1       597 8.81992E+01 2.94930E+01 0.00000E+00
 -1       598 8.90833E+01 3.15115E+01 0.00000E+00
 -1       599 9.07693E+01 3.35820E+01 0.00000E+00
 -1       600 9.23603E+01 3.49075E+01 0.00000E+00
 -1       601 9.66857E+01 3.69871E+01 0.00000E+00
 -1       602 9.88524E+01 3.76248E+01 0.00000E+00
 -1       603 1.01575E+02 3.75489E+01 0.00000E+00
 -1       604 1.03611E+02 3.67030E+01 0.00000E+00
 -1       605 1.09076E+02 3.19407E+01 0.00000E+00
 -1       606 1.06978E+02 1.83690E+01 0.00000E+00
 -1       607 1.10406E+02 2.49536E+01 0.00000E+00
 -1       608 7.61550E+00 6.21462E+00 0.00000E+00
 -1       609 1.05494E+02 1.71183E+01 0.00000E+00
 -1       610 7.79400E+00 3.67375E+01 0.00000E+00
 -1       611 1.41678E+02 4.22645E+01 0.00000E+00
 -1       612 8.88186E+01 3.32514E+01 0.00000E+00
 -1       613 8.99101E+01 1.82358E+01 0.00000E+00
 -1       614 8.84201E+01 2.06117E+01 0.00000E+00
 -1       615 1.03920E+01 2.05500E+01 0.00000E+00
 -1       616 1.03920E+01 2.35000E+01 0.00000E+00
 -1       617 1.03920E+01 1.46750E+01 0.00000E+00
 -1       618 1.03920E+01 1.17250E+01 0.00000E+00
 -1       619 1.15350E+01 9.20225E+00 0.00000E+00
 -1       620 1.09226E+02 1.78663E+01 0.00000E+00
 -1       621 1.45350E+01 9.20225E+00 0.00000E+00
 -1       622 1.09638E+02 3.42190E+01 0.00000E+00
 -1       623 1.12125E+02 2.35439E+01 0.00000E+00
 -1       624 1.02808E+02 1.39229E+01 0.00000E+00
 -1       625 9.78035E+00 3.93914E+01 0.00000E+00
 -1       626 1.51500E+01 3.96080E+01 0.00000E+00
 -1       627 1.81500E+01 3.96080E+01 0.00000E+00
 -1       628 2.11500E+01 3.96080E+01 0.00000E+00
 -1       629 2.41500E+01 3.96080E+01 0.00000E+00
 -1       630 2.71500E+01 3.96080E+01 0.00000E+00
 -1       631 3.01500E+01 3.96080E+01 0.00000E+00
 -1       632 3.31500E+01 3.96080E+01 0.00000E+00
 -1       633 3.61500E+01 3.96080E+01 0.00000E+00
 -1       634 3.91500E+01 3.96080E+01 0.00000E+00
 -1       635 4.21500E+01 3.96080E+01 0.00000E+00
 -1       636 4.51500E+01 3.96080E+01 0.00000E+00
 -1       637 4.81500E+01 3.96080E+01 0.00000E+00
 -1       638 5.11500E+01 3.96080E+01 0.00000E+00
 -1       639 5.41500E+01 3.96080E+01 0.00000E+00
 -1       640 5.71500E+01 3.96080E+01 0.00000E+00
 -1       641 6.01500E+01 3.96080E+01 0.00000E+00
 -1       642 6.31500E+01 3.96080E+01 0.00000E+00
 -1       643 6.61500E+01 3.96080E+01 0.00000E+00
 -1       644 6.91500E+01 3.96080E+01 0.00000E+00
 -1       645 7.21500E+01 3.96080E+01 0.00000E+00
 -1       646 7.51500E+01 3.96080E+01 0.00000E+00
 -1       647 7.81500E+01 3.96080E+01 0.00000E+00
 -1       648 8.11500E+01 3.96080E+01 0.00000E+00
 -1       649 8.41500E+01 3.96080E+01 0.00000E+00
 -1       650 8.71500E+01 3.96080E+01 0.00000E+00
 -1       651 9.01500E+01 3.96080E+01 0.00000E+00
 -1       652 9.31500E+01 3.96080E+01 0.00000E+00
 -1       653 9.91500E+01 3.96080E+01 0.00000E+00
 -1       654 1.08150E+02 3.96080E+01 0.00000E+00
 -1       655 1.11150E+02 3.96080E+01 0.00000E+00
 -1       656 1.14150E+02 3.96080E+01 0.00000E+00
 -1       657 1.17150E+02 3.96080E+01 0.00000E+00
 -1       658 1.20150E+02 3.96080E+01 0.00000E+00
 -1       659 1.23150E+02 3.96080E+01 0.00000E+00
 -1       660 1.26150E+02 3.96080E+01 0.00000E+00
 -1       661 1.29150E+02 3.96080E+01 0.00000E+00
 -1       662 1.32150E+02 3.96080E+01 0.00000E+00
 -1       663 1.35150E+02 3.96080E+01 0.00000E+00
 -1       664 1.38150E+02 3.96080E+01 0.00000E+00
 -1       665 1.05733E+02 3.75723E+01 0.00000E+00
 -1       666 2.05350E+01 9.20225E+00 0.00000E+00
 -1       667 2.95350E+01 9.20225E+00 0.00000E+00
 -1       668 3.25350E+01 9.20225E+00 0.00000E+00
 -1       669 3.55350E+01 9.20225E+00 0.00000E+00
 -1       670 3.85350E+01 9.20225E+00 0.00000E+00
 -1       671 4.15350E+01 9.20225E+00 0.00000E+00
 -1       672 4.45350E+01 9.20225E+00 0.00000E+00
 -1       673 4.75350E+01 9.20225E+00 0.00000E+00
 -1       674 5.05350E+01 9.20225E+00 0.00000E+00
 -1       675 5.35350E+01 9.20225E+00 0.00000E+00
 -1       676 5.65350E+01 9.20225E+00 0.00000E+00
 -1       677 5.95350E+01 9.20225E+00 0.00000E+00
 -1       678 6.25350E+01 9.20225E+00 0.00000E+00
 -1       679 6.55350E+01 9.20225E+00 0.00000E+00
 -1       680 6.85350E+01 9.20225E+00 0.00000E+00
 -1       681 7.15350E+01 9.20225E+00 0.00000E+00
 -1       682 7.45350E+01 9.20225E+00 0.00000E+00
 -1       683 7.75350E+01 9.20225E+00 0.00000E+00
 -1       684 8.05350E+01 9.20225E+00 0.00000E+00
 -1       685 8.35350E+01 9.20225E+00 0.00000E+00
 -1       686 8.65350E+01 9.20225E+00 0.00000E+00
 -1       687 8.95350E+01 9.20225E+00 0.00000E+00
 -1       688 9.25350E+01 9.20225E+00 0.00000E+00
 -1       689 9.55350E+01 9.20225E+00 0.00000E+00
 -1       690 9.85350E+01 9.20225E+00 0.00000E+00
 -1       691 1.01535E+02 9.20225E+00 0.00000E+00
 -1       692 1.04535E+02 9.20225E+00 0.00000E+00
 -1       693 1.07535E+02 9.20225E+00 0.00000E+00
 -1       694 1.10535E+02 9.20225E+00 0.00000E+00
 -1       695 1.13535E+02 9.20225E+00 0.00000E+00
 -1       696 1.16535E+02 9.20225E+00 0.00000E+00
 -1       697 1.19535E+02 9.20225E+00 0.00000E+00
 -1       698 1.22535E+02 9.20225E+00 0.00000E+00
 -1       699 1.25535E+02 9.20225E+00 0.00000E+00
 -1       700 1.28535E+02 9.20225E+00 0.00000E+00
 -1       701 1.31535E+02 9.20225E+00 0.00000E+00
 -1       702 1.34535E+02 9.20225E+00 0.00000E+00
 -1       703 1.37535E+02 9.20225E+00 0.00000E+00
 -1       704 1.39870E+02 9.76363E+00 0.00000E+00
 -1       705 1.39608E+02 2.35500E+01 0.00000E+00
 -1       706 1.40178E+02 3.96665E+01 0.00000E+00
 -1       707 1.39608E+02 1.76500E+01 0.00000E+00
 -1       708 1.39608E+02 2.65000E+01 0.00000E+00
 -1       709 1.39608E+02 2.06000E+01 0.00000E+00
 -1       710 1.11459E+02 2.90466E+01 0.00000E+00
 -1       711 1.39608E+02 2.94000E+01 0.00000E+00
 -1       712 1.39608E+02 3.23500E+01 0.00000E+00
 -1       713 1.39608E+02 3.53000E+01 0.00000E+00
 -1       714 1.75350E+01 9.20225E+00 0.00000E+00
 -1       715 1.11378E+02 2.05035E+01 0.00000E+00
 -1       716 1.10956E+02 3.13215E+01 0.00000E+00
 -1       717 1.07218E+02 3.63943E+01 0.00000E+00
 -1       718 9.39532E+01 1.42236E+01 0.00000E+00
 -1       719 2.65350E+01 9.20225E+00 0.00000E+00
 -1       720 2.35350E+01 9.20225E+00 0.00000E+00
 -1       721 1.24652E+01 3.94997E+01 0.00000E+00
 -1       722 8.67950E+01 2.28927E+01 0.00000E+00
 -1       723 9.51179E+01 3.82503E+01 0.00000E+00
 -1       724 1.03920E+01 1.76125E+01 0.00000E+00
 -1       725 9.11837E+01 1.53682E+01 0.00000E+00
 -1       726 1.03920E+01 3.23250E+01 0.00000E+00
 -1       727 9.96762E+01 1.33641E+01 0.00000E+00
 -1       728 8.59976E+01 2.84785E+01 0.00000E+00
 -1       729 9.67676E+01 1.33756E+01 0.00000E+00
 -1       730 8.61981E+01 2.55598E+01 0.00000E+00
 -1       731 9.72848E+01 3.89513E+01 0.00000E+00
 -1       732 8.70702E+01 3.11904E+01 0.00000E+00
 -1       733 9.05206E+01 3.54980E+01 0.00000E+00
 -1       734 1.12345E+02 2.64475E+01 0.00000E+00
 -1       735 1.05181E+02 1.49061E+01 0.00000E+00
 -1       736 1.07741E+02 1.66157E+01 0.00000E+00
 -1       737 9.24870E+01 3.68974E+01 0.00000E+00
 -1       738 1.03920E+01 3.52625E+01 0.00000E+00
 -1       739 1.03920E+01 2.64500E+01 0.00000E+00
 -1       740 1.11661E+02 1.82177E+01 0.00000E+00
 -1       741 8.68055E+01 3.29302E+01 0.00000E+00
 -1       742 1.11518E+02 3.35998E+01 0.00000E+00
 -1       743 8.66391E+01 2.11016E+01 0.00000E+00
 -1       744 1.04791E+02 3.89066E+01 0.00000E+00
 -1       745 1.39608E+02 1.47250E+01 0.00000E+00
 -1       746 1.39739E+02 1.22443E+01 0.00000E+00
 -1       747 8.95579E+01 1.57546E+01 0.00000E+00
 -1       748 8.85698E+01 3.51674E+01 0.00000E+00
 -1       749 8.79963E+01 1.86941E+01 0.00000E+00
 -1       750 1.03920E+01 2.93875E+01 0.00000E+00
 -1       751 1.38879E+02 3.74540E+01 0.00000E+00
 -1       752 1.04779E+02 1.25203E+01 0.00000E+00
 -1       753 1.29900E+01 1.32000E+01 0.00000E+00
 -1       754 1.13905E+02 2.14950E+01 0.00000E+00
 -1       755 9.17853E+01 1.29011E+01 0.00000E+00
 -1       756 9.04122E+01 3.77316E+01 0.00000E+00
 -1       757 1.09805E+02 1.56732E+01 0.00000E+00
 -1       758 1.96500E+01 3.70100E+01 0.00000E+00
 -1       759 2.26500E+01 3.70100E+01 0.00000E+00
 -1       760 2.56500E+01 3.70100E+01 0.00000E+00
 -1       761 2.86500E+01 3.70100E+01 0.00000E+00
 -1       762 3.16500E+01 3.70100E+01 0.00000E+00
 -1       763 3.46500E+01 3.70100E+01 0.00000E+00
 -1       764 3.76500E+01 3.70100E+01 0.00000E+00
 -1       765 4.06500E+01 3.70100E+01 0.00000E+00
 -1       766 4.36500E+01 3.70100E+01 0.00000E+00
 -1       767 4.66500E+01 3.70100E+01 0.00000E+00
 -1       768 4.96500E+01 3.70100E+01 0.00000E+00
 -1       769 5.26500E+01 3.70100E+01 0.00000E+00
 -1       770 5.56500E+01 3.70100E+01 0.00000E+00
 -1       771 5.86500E+01 3.70100E+01 0.00000E+00
 -1       772 6.16500E+01 3.70100E+01 0.00000E+00
 -1       773 6.46500E+01 3.70100E+01 0.00000E+00
 -1       774 6.76500E+01 3.70100E+01 0.00000E+00
 -1       775 7.06500E+01 3.70100E+01 0.00000E+00
 -1       776 7.36500E+01 3.70100E+01 0.00000E+00
 -1       777 7.66500E+01 3.70100E+01 0.00000E+00
 -1       778 7.96500E+01 3.70100E+01 0.00000E+00
 -1       779 8.26500E+01 3.70100E+01 0.00000E+00
 -1       780 8.56500E+01 3.70100E+01 0.00000E+00
 -1       781 9.82144E+01 1.14872E+01 0.00000E+00
 -1       782 9.46723E+01 1.15156E+01 0.00000E+00
 -1       783 1.12650E+02 3.70100E+01 0.00000E+00
 -1       784 1.15650E+02 3.70100E+01 0.00000E+00
 -1       785 1.18650E+02 3.70100E+01 0.00000E+00
 -1       786 1.21650E+02 3.70100E+01 0.00000E+00
 -1       787 1.24650E+02 3.70100E+01 0.00000E+00
 -1       788 1.27650E+02 3.70100E+01 0.00000E+00
 -1       789 1.30650E+02 3.70100E+01 0.00000E+00
 -1       790 1.33650E+02 3.70100E+01 0.00000E+00
 -1       791 1.36264E+02 3.72320E+01 0.00000E+00
 -1       792 3.10350E+01 1.18003E+01 0.00000E+00
 -1       793 4.00350E+01 1.18003E+01 0.00000E+00
 -1       794 4.30350E+01 1.18003E+01 0.00000E+00
 -1       795 4.60350E+01 1.18003E+01 0.00000E+00
 -1       796 4.90350E+01 1.18003E+01 0.00000E+00
 -1       797 5.20350E+01 1.18003E+01 0.00000E+00
 -1       798 5.50350E+01 1.18003E+01 0.00000E+00
 -1       799 5.80350E+01 1.18003E+01 0.00000E+00
 -1       800 6.10350E+01 1.18003E+01 0.00000E+00
 -1       801 6.40350E+01 1.18003E+01 0.00000E+00
 -1       802 6.70350E+01 1.18003E+01 0.00000E+00
 -1       803 7.00350E+01 1.18003E+01 0.00000E+00
 -1       804 7.30350E+01 1.18003E+01 0.00000E+00
 -1       805 7.60350E+01 1.18003E+01 0.00000E+00
 -1       806 7.90350E+01 1.18003E+01 0.00000E+00
 -1       807 8.20350E+01 1.18003E+01 0.00000E+00
 -1       808 8.50350E+01 1.18003E+01 0.00000E+00
 -1       809 8.80350E+01 1.18003E+01 0.00000E+00
 -1       810 1.03035E+02 1.15876E+01 0.00000E+00
 -1       811 1.09035E+02 1.18003E+01 0.00000E+00
 -1       812 1.12035E+02 1.18003E+01 0.00000E+00
 -1       813 1.15035E+02 1.18003E+01 0.00000E+00
 -1       814 1.18035E+02 1.18003E+01 0.00000E+00
 -1       815 1.21035E+02 1.18003E+01 0.00000E+00
 -1       816 1.24035E+02 1.18003E+01 0.00000E+00
 -1       817 1.27035E+02 1.18003E+01 0.00000E+00
 -1       818 1.30035E+02 1.18003E+01 0.00000E+00
 -1       819 1.33035E+02 1.18003E+01 0.00000E+00
 -1       820 1.36035E+02 1.18003E+01 0.00000E+00
 -1       821 1.37887E+02 1.20223E+01 0.00000E+00
 -1       822 1.37625E+01 1.12011E+01 0.00000E+00
 -1       823 8.42196E+01 2.68901E+01 0.00000E+00
 -1       824 1.29900E+01 2.20250E+01 0.00000E+00
 -1       825 1.37010E+02 2.50250E+01 0.00000E+00
 -1       826 1.37010E+02 3.38250E+01 0.00000E+00
 -1       827 1.37010E+02 2.79250E+01 0.00000E+00
 -1       828 2.80350E+01 1.18003E+01 0.00000E+00
 -1       829 1.37010E+02 3.08750E+01 0.00000E+00
 -1       830 3.70350E+01 1.18003E+01 0.00000E+00
 -1       831 3.40350E+01 1.18003E+01 0.00000E+00
 -1       832 1.13684E+02 2.83548E+01 0.00000E+00
 -1       833 1.66500E+01 3.70100E+01 0.00000E+00
 -1       834 1.09798E+02 3.68315E+01 0.00000E+00
 -1       835 2.50350E+01 1.18003E+01 0.00000E+00
 -1       836 2.20350E+01 1.18003E+01 0.00000E+00
 -1       837 1.13181E+02 3.06297E+01 0.00000E+00
 -1       838 1.14112E+02 2.48532E+01 0.00000E+00
 -1       839 1.07600E+02 1.40558E+01 0.00000E+00
 -1       840 8.48229E+01 2.38516E+01 0.00000E+00
 -1       841 8.46274E+01 3.05886E+01 0.00000E+00
 -1       842 1.29900E+01 2.49750E+01 0.00000E+00
 -1       843 1.29900E+01 1.61375E+01 0.00000E+00
 -1       844 8.65567E+01 3.48463E+01 0.00000E+00
 -1       845 1.13743E+02 3.29080E+01 0.00000E+00
 -1       846 8.46670E+01 2.20606E+01 0.00000E+00
 -1       847 8.62154E+01 1.91840E+01 0.00000E+00
 -1       848 8.86500E+01 3.73902E+01 0.00000E+00
 -1       849 1.37010E+02 1.61875E+01 0.00000E+00
 -1       850 1.14188E+02 1.92091E+01 0.00000E+00
 -1       851 1.67625E+01 1.12011E+01 0.00000E+00
 -1       852 1.37010E+02 1.91375E+01 0.00000E+00
 -1       853 1.29900E+01 1.90875E+01 0.00000E+00
 -1       854 8.76440E+01 1.62129E+01 0.00000E+00
 -1       855 1.15451E+02 2.67604E+01 0.00000E+00
 -1       856 1.37010E+02 2.20812E+01 0.00000E+00
 -1       857 1.93988E+01 1.15007E+01 0.00000E+00
 -1       858 1.39652E+01 3.69017E+01 0.00000E+00
 -1       859 8.43627E+01 3.23284E+01 0.00000E+00
 -1       860 1.12084E+02 3.53049E+01 0.00000E+00
 -1       861 1.29900E+01 3.08563E+01 0.00000E+00
 -1       862 1.36637E+02 3.55285E+01 0.00000E+00
 -1       863 8.28494E+01 2.90001E+01 0.00000E+00
 -1       864 1.29900E+01 3.37938E+01 0.00000E+00
 -1       865 1.16222E+02 2.30377E+01 0.00000E+00
 -1       866 8.26746E+01 2.50042E+01 0.00000E+00
 -1       867 2.41500E+01 3.44120E+01 0.00000E+00
 -1       868 2.71500E+01 3.44120E+01 0.00000E+00
 -1       869 3.01500E+01 3.44120E+01 0.00000E+00
 -1       870 3.31500E+01 3.44120E+01 0.00000E+00
 -1       871 3.61500E+01 3.44120E+01 0.00000E+00
 -1       872 3.91500E+01 3.44120E+01 0.00000E+00
 -1       873 4.21500E+01 3.44120E+01 0.00000E+00
 -1       874 4.51500E+01 3.44120E+01 0.00000E+00
 -1       875 4.81500E+01 3.44120E+01 0.00000E+00
 -1       876 5.11500E+01 3.44120E+01 0.00000E+00
 -1       877 5.41500E+01 3.44120E+01 0.00000E+00
 -1       878 5.71500E+01 3.44120E+01 0.00000E+00
 -1       879 6.01500E+01 3.44120E+01 0.00000E+00
 -1       880 6.31500E+01 3.44120E+01 0.00000E+00
 -1       881 6.61500E+01 3.44120E+01 0.00000E+00
 -1       882 6.91500E+01 3.44120E+01 0.00000E+00
 -1       883 7.21500E+01 3.44120E+01 0.00000E+00
 -1       884 7.51500E+01 3.44120E+01 0.00000E+00
 -1       885 7.81500E+01 3.44120E+01 0.00000E+00
 -1       886 8.11500E+01 3.44120E+01 0.00000E+00
 -1       887 1.17150E+02 3.44120E+01 0.00000E+00
 -1       888 1.20150E+02 3.44120E+01 0.00000E+00
 -1       889 1.23150E+02 3.44120E+01 0.00000E+00
 -1       890 1.26150E+02 3.44120E+01 0.00000E+00
 -1       891 1.29150E+02 3.44120E+01 0.00000E+00
 -1       892 1.32150E+02 3.44120E+01 0.00000E+00
 -1       893 4.45350E+01 1.43982E+01 0.00000E+00
 -1       894 4.15350E+01 1.43982E+01 0.00000E+00
 -1       895 5.05350E+01 1.43982E+01 0.00000E+00
 -1       896 5.35350E+01 1.43982E+01 0.00000E+00
 -1       897 5.65350E+01 1.43982E+01 0.00000E+00
 -1       898 5.95350E+01 1.43982E+01 0.00000E+00
 -1       899 6.25350E+01 1.43982E+01 0.00000E+00
 -1       900 6.55350E+01 1.43982E+01 0.00000E+00
 -1       901 6.85350E+01 1.43982E+01 0.00000E+00
 -1       902 7.15350E+01 1.43982E+01 0.00000E+00
 -1       903 7.45350E+01 1.43982E+01 0.00000E+00
 -1       904 7.75350E+01 1.43982E+01 0.00000E+00
 -1       905 8.05350E+01 1.43982E+01 0.00000E+00
 -1       906 8.35350E+01 1.43982E+01 0.00000E+00
 -1       907 1.19535E+02 1.43982E+01 0.00000E+00
 -1       908 1.22535E+02 1.43982E+01 0.00000E+00
 -1       909 1.25535E+02 1.43982E+01 0.00000E+00
 -1       910 1.28535E+02 1.43982E+01 0.00000E+00
 -1       911 1.31535E+02 1.43982E+01 0.00000E+00
 -1       912 1.34535E+02 1.43982E+01 0.00000E+00
 -1       913 1.37449E+02 1.41049E+01 0.00000E+00
 -1       914 1.34412E+02 2.64750E+01 0.00000E+00
 -1       915 2.95350E+01 1.43982E+01 0.00000E+00
 -1       916 1.81500E+01 3.44120E+01 0.00000E+00
 -1       917 3.85350E+01 1.43982E+01 0.00000E+00
 -1       918 1.13535E+02 1.43982E+01 0.00000E+00
 -1       919 2.65350E+01 1.43982E+01 0.00000E+00
 -1       920 1.16535E+02 1.43982E+01 0.00000E+00
 -1       921 2.35350E+01 1.43982E+01 0.00000E+00
 -1       922 4.75350E+01 1.43982E+01 0.00000E+00
 -1       923 1.29900E+01 2.79188E+01 0.00000E+00
 -1       924 1.15271E+02 2.98985E+01 0.00000E+00
 -1       925 1.59900E+01 1.32000E+01 0.00000E+00
 -1       926 2.11500E+01 3.44120E+01 0.00000E+00
 -1       927 1.17561E+02 2.49450E+01 0.00000E+00
 -1       928 8.25187E+01 2.32132E+01 0.00000E+00
 -1       929 1.15832E+02 3.21768E+01 0.00000E+00
 -1       930 1.55880E+01 2.05562E+01 0.00000E+00
 -1       931 8.42432E+01 2.01430E+01 0.00000E+00
 -1       932 1.55880E+01 2.35063E+01 0.00000E+00
 -1       933 8.25847E+01 3.07400E+01 0.00000E+00
 -1       934 1.34412E+02 2.35313E+01 0.00000E+00
 -1       935 1.16505E+02 2.07519E+01 0.00000E+00
 -1       936 8.13044E+01 2.71143E+01 0.00000E+00
 -1       937 1.34412E+02 2.94250E+01 0.00000E+00
 -1       938 1.34394E+02 3.49702E+01 0.00000E+00
 -1       939 3.25350E+01 1.43982E+01 0.00000E+00
 -1       940 2.05351E+01 1.43983E+01 0.00000E+00
 -1       941 1.55700E+01 3.41029E+01 0.00000E+00
 -1       942 8.38873E+01 1.68794E+01 0.00000E+00
 -1       943 1.34535E+02 1.73482E+01 0.00000E+00
 -1       944 3.55350E+01 1.43982E+01 0.00000E+00
 -1       945 1.55880E+01 2.93875E+01 0.00000E+00
 -1       946 1.55790E+01 3.17452E+01 0.00000E+00
 -1       947 1.34580E+02 3.26435E+01 0.00000E+00
 -1       948 1.55880E+01 1.76063E+01 0.00000E+00
 -1       949 1.24035E+02 1.69963E+01 0.00000E+00
 -1       950 2.86500E+01 3.18140E+01 0.00000E+00
 -1       951 3.16500E+01 3.18140E+01 0.00000E+00
 -1       952 3.46500E+01 3.18140E+01 0.00000E+00
 -1       953 3.76500E+01 3.18140E+01 0.00000E+00
 -1       954 4.06500E+01 3.18140E+01 0.00000E+00
 -1       955 4.36500E+01 3.18140E+01 0.00000E+00
 -1       956 4.66500E+01 3.18140E+01 0.00000E+00
 -1       957 4.96500E+01 3.18140E+01 0.00000E+00
 -1       958 5.26500E+01 3.18140E+01 0.00000E+00
 -1       959 5.56500E+01 3.18140E+01 0.00000E+00
 -1       960 5.86500E+01 3.18140E+01 0.00000E+00
 -1       961 6.16500E+01 3.18140E+01 0.00000E+00
 -1       962 6.46500E+01 3.18140E+01 0.00000E+00
 -1       963 6.76500E+01 3.18140E+01 0.00000E+00
 -1       964 7.06500E+01 3.18140E+01 0.00000E+00
 -1       965 7.36500E+01 3.18140E+01 0.00000E+00
 -1       966 7.66500E+01 3.18140E+01 0.00000E+00
 -1       967 7.96500E+01 3.18140E+01 0.00000E+00
 -1       968 4.30350E+01 1.69963E+01 0.00000E+00
 -1       969 1.21650E+02 3.18140E+01 0.00000E+00
 -1       970 1.24650E+02 3.18140E+01 0.00000E+00
 -1       971 1.27650E+02 3.18140E+01 0.00000E+00
 -1       972 1.30650E+02 3.18140E+01 0.00000E+00
 -1       973 5.50350E+01 1.69963E+01 0.00000E+00
 -1       974 5.20350E+01 1.69963E+01 0.00000E+00
 -1       975 6.10350E+01 1.69963E+01 0.00000E+00
 -1       976 6.40350E+01 1.69963E+01 0.00000E+00
 -1       977 6.70350E+01 1.69963E+01 0.00000E+00
 -1       978 7.00350E+01 1.69963E+01 0.00000E+00
 -1       979 7.30350E+01 1.69963E+01 0.00000E+00
 -1       980 7.60350E+01 1.69963E+01 0.00000E+00
 -1       981 7.90350E+01 1.69963E+01 0.00000E+00
 -1       982 8.14611E+01 1.69378E+01 0.00000E+00
 -1       983 2.20351E+01 1.69963E+01 0.00000E+00
 -1       984 1.21035E+02 1.69963E+01 0.00000E+00
 -1       985 1.30035E+02 1.69963E+01 0.00000E+00
 -1       986 1.32285E+02 1.71723E+01 0.00000E+00
 -1       987 1.55880E+01 2.64469E+01 0.00000E+00
 -1       988 1.96500E+01 3.18140E+01 0.00000E+00
 -1       989 2.26500E+01 3.18140E+01 0.00000E+00
 -1       990 2.50351E+01 1.69963E+01 0.00000E+00
 -1       991 4.00350E+01 1.69963E+01 0.00000E+00
 -1       992 1.27035E+02 1.69963E+01 0.00000E+00
 -1       993 5.80350E+01 1.69963E+01 0.00000E+00
 -1       994 1.82625E+01 1.37991E+01 0.00000E+00
 -1       995 1.34412E+02 2.05875E+01 0.00000E+00
 -1       996 2.80351E+01 1.69963E+01 0.00000E+00
 -1       997 2.56500E+01 3.18140E+01 0.00000E+00
 -1       998 1.17408E+02 2.84469E+01 0.00000E+00
 -1       999 1.18020E+02 1.75751E+01 0.00000E+00
 -1      1000 1.18981E+02 2.25247E+01 0.00000E+00
 -1      1001 8.03872E+01 2.43010E+01 0.00000E+00
 -1      1002 1.17969E+02 3.07252E+01 0.00000E+00
 -1      1003 8.20950E+01 2.12956E+01 0.00000E+00
 -1      1004 1.81860E+01 2.20313E+01 0.00000E+00
 -1      1005 4.60350E+01 1.69963E+01 0.00000E+00
 -1      1006 8.04772E+01 2.94641E+01 0.00000E+00
 -1      1007 1.31814E+02 2.50031E+01 0.00000E+00
 -1      1008 1.18650E+02 3.18140E+01 0.00000E+00
 -1      1009 1.31814E+02 2.79531E+01 0.00000E+00
 -1      1010 3.10351E+01 1.69963E+01 0.00000E+00
 -1      1011 1.81860E+01 1.90812E+01 0.00000E+00
 -1      1012 3.70350E+01 1.69963E+01 0.00000E+00
 -1      1013 1.90352E+01 1.69963E+01 0.00000E+00
 -1      1014 1.76145E+01 3.17796E+01 0.00000E+00
 -1      1015 4.90350E+01 1.69963E+01 0.00000E+00
 -1      1016 1.81860E+01 2.79172E+01 0.00000E+00
 -1      1017 7.99634E+01 2.23834E+01 0.00000E+00
 -1      1018 5.95350E+01 1.95942E+01 0.00000E+00
 -1      1019 1.31814E+02 2.20594E+01 0.00000E+00
 -1      1020 3.31500E+01 2.92160E+01 0.00000E+00
 -1      1021 3.61500E+01 2.92160E+01 0.00000E+00
 -1      1022 3.91500E+01 2.92160E+01 0.00000E+00
 -1      1023 4.21500E+01 2.92160E+01 0.00000E+00
 -1      1024 4.51500E+01 2.92160E+01 0.00000E+00
 -1      1025 4.81500E+01 2.92160E+01 0.00000E+00
 -1      1026 5.11500E+01 2.92160E+01 0.00000E+00
 -1      1027 5.41500E+01 2.92160E+01 0.00000E+00
 -1      1028 5.71500E+01 2.92160E+01 0.00000E+00
 -1      1029 6.01500E+01 2.92160E+01 0.00000E+00
 -1      1030 6.31500E+01 2.92160E+01 0.00000E+00
 -1      1031 6.61500E+01 2.92160E+01 0.00000E+00
 -1      1032 6.91500E+01 2.92160E+01 0.00000E+00
 -1      1033 7.21500E+01 2.92160E+01 0.00000E+00
 -1      1034 7.51500E+01 2.92160E+01 0.00000E+00
 -1      1035 7.78136E+01 2.93401E+01 0.00000E+00
 -1      1036 1.20080E+02 2.68096E+01 0.00000E+00
 -1      1037 1.26150E+02 2.92160E+01 0.00000E+00
 -1      1038 1.29150E+02 2.92160E+01 0.00000E+00
 -1      1039 6.55350E+01 1.95942E+01 0.00000E+00
 -1      1040 6.25350E+01 1.95942E+01 0.00000E+00
 -1      1041 7.15350E+01 1.95942E+01 0.00000E+00
 -1      1042 7.45350E+01 1.95942E+01 0.00000E+00
 -1      1043 7.75350E+01 1.95942E+01 0.00000E+00
 -1      1044 1.20017E+02 1.98371E+01 0.00000E+00
 -1      1045 1.23017E+02 1.98371E+01 0.00000E+00
 -1      1046 6.85350E+01 1.95942E+01 0.00000E+00
 -1      1047 1.81860E+01 2.49719E+01 0.00000E+00
 -1      1048 1.23150E+02 2.92160E+01 0.00000E+00
 -1      1049 5.35350E+01 1.95942E+01 0.00000E+00
 -1      1050 7.87372E+01 2.63951E+01 0.00000E+00
 -1      1051 8.05650E+01 1.91459E+01 0.00000E+00
 -1      1052 2.35351E+01 1.95943E+01 0.00000E+00
 -1      1053 5.05350E+01 1.95942E+01 0.00000E+00
 -1      1054 2.11500E+01 2.92160E+01 0.00000E+00
 -1      1055 1.32049E+02 1.96158E+01 0.00000E+00
 -1      1056 2.65351E+01 1.95943E+01 0.00000E+00
 -1      1057 1.21500E+02 2.43893E+01 0.00000E+00
 -1      1058 4.15350E+01 1.95942E+01 0.00000E+00
 -1      1059 3.01500E+01 2.92160E+01 0.00000E+00
 -1      1060 3.40350E+01 1.69963E+01 0.00000E+00
 -1      1061 5.65350E+01 1.95942E+01 0.00000E+00
 -1      1062 1.29216E+02 2.35313E+01 0.00000E+00
 -1      1063 1.26017E+02 1.98371E+01 0.00000E+00
 -1      1064 4.45350E+01 1.95942E+01 0.00000E+00
 -1      1065 3.85350E+01 1.95942E+01 0.00000E+00
 -1      1066 1.22259E+02 2.21132E+01 0.00000E+00
 -1      1067 2.07840E+01 2.35016E+01 0.00000E+00
 -1      1068 2.05351E+01 1.95943E+01 0.00000E+00
 -1      1069 1.20150E+02 2.92610E+01 0.00000E+00
 -1      1070 7.83134E+01 2.44775E+01 0.00000E+00
 -1      1071 2.95351E+01 1.95943E+01 0.00000E+00
 -1      1072 2.71500E+01 2.92160E+01 0.00000E+00
 -1      1073 2.07840E+01 2.64469E+01 0.00000E+00
 -1      1074 1.29033E+02 1.97264E+01 0.00000E+00
 -1      1075 2.41500E+01 2.92160E+01 0.00000E+00
 -1      1076 4.75350E+01 1.95942E+01 0.00000E+00
 -1      1077 2.37840E+01 2.64469E+01 0.00000E+00
 -1      1078 1.29234E+02 2.65276E+01 0.00000E+00
 -1      1079 3.76500E+01 2.66180E+01 0.00000E+00
 -1      1080 4.06500E+01 2.66180E+01 0.00000E+00
 -1      1081 4.36500E+01 2.66180E+01 0.00000E+00
 -1      1082 4.66500E+01 2.66180E+01 0.00000E+00
 -1      1083 4.96500E+01 2.66180E+01 0.00000E+00
 -1      1084 5.26500E+01 2.66180E+01 0.00000E+00
 -1      1085 5.56500E+01 2.66180E+01 0.00000E+00
 -1      1086 5.86500E+01 2.66180E+01 0.00000E+00
 -1      1087 6.16500E+01 2.66180E+01 0.00000E+00
 -1      1088 6.46500E+01 2.66180E+01 0.00000E+00
 -1      1089 6.76500E+01 2.66180E+01 0.00000E+00
 -1      1090 7.06500E+01 2.66180E+01 0.00000E+00
 -1      1091 7.36500E+01 2.66180E+01 0.00000E+00
 -1      1092 6.40350E+01 2.21922E+01 0.00000E+00
 -1      1093 5.50350E+01 2.21922E+01 0.00000E+00
 -1      1094 5.80350E+01 2.21922E+01 0.00000E+00
 -1      1095 7.00350E+01 2.21922E+01 0.00000E+00
 -1      1096 7.60350E+01 2.21922E+01 0.00000E+00
 -1      1097 7.30350E+01 2.21922E+01 0.00000E+00
 -1      1098 6.70350E+01 2.21922E+01 0.00000E+00
 -1      1099 4.90350E+01 2.21922E+01 0.00000E+00
 -1      1100 1.25985E+02 2.59133E+01 0.00000E+00
 -1      1101 5.20350E+01 2.21922E+01 0.00000E+00
 -1      1102 6.10350E+01 2.21922E+01 0.00000E+00
 -1      1103 3.16500E+01 2.66180E+01 0.00000E+00
 -1      1104 2.51595E+01 2.30206E+01 0.00000E+00
 -1      1105 3.46500E+01 2.66180E+01 0.00000E+00
 -1      1106 3.25350E+01 1.95943E+01 0.00000E+00
 -1      1107 1.25259E+02 2.21132E+01 0.00000E+00
 -1      1108 4.00350E+01 2.21922E+01 0.00000E+00
 -1      1109 7.61936E+01 2.65065E+01 0.00000E+00
 -1      1110 4.60350E+01 2.21922E+01 0.00000E+00
 -1      1111 4.30350E+01 2.21922E+01 0.00000E+00
 -1      1112 2.81595E+01 2.30206E+01 0.00000E+00
 -1      1113 3.55350E+01 1.95943E+01 0.00000E+00
 -1      1114 2.86500E+01 2.66180E+01 0.00000E+00
 -1      1115 2.62170E+01 2.65324E+01 0.00000E+00
 -1      1116 7.46143E+01 2.43494E+01 0.00000E+00
 -1      1117 3.31500E+01 2.40200E+01 0.00000E+00
 -1      1118 3.70350E+01 2.21923E+01 0.00000E+00
 -1      1119 1.24344E+02 2.40727E+01 0.00000E+00
 -1      1120 0.00000E+00 4.85250E+01 0.00000E+00
 -1      1121 0.00000E+00 4.55750E+01 0.00000E+00
 -1      1122 0.00000E+00 4.26250E+01 0.00000E+00
 -1      1123 0.00000E+00 3.96750E+01 0.00000E+00
 -1      1124 0.00000E+00 3.67250E+01 0.00000E+00
 -1      1125 0.00000E+00 3.38000E+01 0.00000E+00
 -1      1126 0.00000E+00 3.08750E+01 0.00000E+00
 -1      1127 0.00000E+00 2.79250E+01 0.00000E+00
 -1      1128 0.00000E+00 2.49750E+01 0.00000E+00
 -1      1129 0.00000E+00 2.20250E+01 0.00000E+00
 -1      1130 0.00000E+00 1.90750E+01 0.00000E+00
 -1      1131 0.00000E+00 1.61500E+01 0.00000E+00
 -1      1132 0.00000E+00 1.32250E+01 0.00000E+00
 -1      1133 0.00000E+00 1.02750E+01 0.00000E+00
 -1      1134 0.00000E+00 7.32500E+00 0.00000E+00
 -1      1135 0.00000E+00 4.37500E+00 0.00000E+00
 -1      1136 0.00000E+00 1.45000E+00 0.00000E+00
 -1      1137 1.57500E+00 5.00000E+01 0.00000E+00
 -1      1138 4.65000E+00 5.00000E+01 0.00000E+00
 -1      1139 7.65000E+00 5.00000E+01 0.00000E+00
 -1      1140 1.06500E+01 5.00000E+01 0.00000E+00
 -1      1141 1.36500E+01 5.00000E+01 0.00000E+00
 -1      1142 1.66500E+01 5.00000E+01 0.00000E+00
 -1      1143 1.96500E+01 5.00000E+01 0.00000E+00
 -1      1144 2.26500E+01 5.00000E+01 0.00000E+00
 -1      1145 2.56500E+01 5.00000E+01 0.00000E+00
 -1      1146 2.86500E+01 5.00000E+01 0.00000E+00
 -1      1147 3.16500E+01 5.00000E+01 0.00000E+00
 -1      1148 3.46500E+01 5.00000E+01 0.00000E+00
 -1      1149 3.76500E+01 5.00000E+01 0.00000E+00
 -1      1150 4.06500E+01 5.00000E+01 0.00000E+00
 -1      1151 4.36500E+01 5.00000E+01 0.00000E+00
 -1      1152 4.66500E+01 5.00000E+01 0.00000E+00
 -1      1153 4.96500E+01 5.00000E+01 0.00000E+00
 -1      1154 5.26500E+01 5.00000E+01 0.00000E+00
 -1      1155 5.56500E+01 5.00000E+01 0.00000E+00
 -1      1156 5.86500E+01 5.00000E+01 0.00000E+00
 -1      1157 6.16500E+01 5.00000E+01 0.00000E+00
 -1      1158 6.46500E+01 5.00000E+01 0.00000E+00
 -1      1159 6.76500E+01 5.00000E+01 0.00000E+00
 -1      1160 7.06500E+01 5.00000E+01 0.00000E+00
 -1      1161 7.36500E+01 5.00000E+01 0.00000E+00
 -1      1162 7.66500E+01 5.00000E+01 0.00000E+00
 -1      1163 7.96500E+01 5.00000E+01 0.00000E+00
 -1      1164 8.26500E+01 5.00000E+01 0.00000E+00
 -1      1165 8.56500E+01 5.00000E+01 0.00000E+00
 -1      1166 8.86500E+01 5.00000E+01 0.00000E+00
 -1      1167 9.16500E+01 5.00000E+01 0.00000E+00
 -1      1168 9.46500E+01 5.00000E+01 0.00000E+00
 -1      1169 9.76500E+01 5.00000E+01 0.00000E+00
 -1      1170 1.00650E+02 5.00000E+01 0.00000E+00
 -1      1171 1.03650E+02 5.00000E+01 0.00000E+00
 -1      1172 1.06650E+02 5.00000E+01 0.00000E+00
 -1      1173 1.09650E+02 5.00000E+01 0.00000E+00
 -1      1174 1.12650E+02 5.00000E+01 0.00000E+00
 -1      1175 1.15650E+02 5.00000E+01 0.00000E+00
 -1      1176 1.18650E+02 5.00000E+01 0.00000E+00
 -1      1177 1.21650E+02 5.00000E+01 0.00000E+00
 -1      1178 1.24650E+02 5.00000E+01 0.00000E+00
 -1      1179 1.27650E+02 5.00000E+01 0.00000E+00
 -1      1180 1.30650E+02 5.00000E+01 0.00000E+00
 -1      1181 1.33650E+02 5.00000E+01 0.00000E+00
 -1      1182 1.36650E+02 5.00000E+01 0.00000E+00
 -1      1183 1.39650E+02 5.00000E+01 0.00000E+00
 -1      1184 1.42650E+02 5.00000E+01 0.00000E+00
 -1      1185 1.45650E+02 5.00000E+01 0.00000E+00
 -1      1186 1.48575E+02 5.00000E+01 0.00000E+00
 -1      1187 1.57500E+00 0.00000E+00 0.00000E+00
 -1      1188 4.65000E+00 0.00000E+00 0.00000E+00
 -1      1189 7.65000E+00 0.00000E+00 0.00000E+00
 -1      1190 1.06500E+01 0.00000E+00 0.00000E+00
 -1      1191 1.36500E+01 0.00000E+00 0.00000E+00
 -1      1192 1.66500E+01 0.00000E+00 0.00000E+00
 -1      1193 1.96500E+01 0.00000E+00 0.00000E+00
 -1      1194 2.26500E+01 0.00000E+00 0.00000E+00
 -1      1195 2.56500E+01 0.00000E+00 0.00000E+00
 -1      1196 2.86500E+01 0.00000E+00 0.00000E+00
 -1      1197 3.16500E+01 0.00000E+00 0.00000E+00
 -1      1198 3.46500E+01 0.00000E+00 0.00000E+00
 -1      1199 3.76500E+01 0.00000E+00 0.00000E+00
 -1      1200 4.06500E+01 0.00000E+00 0.00000E+00
 -1      1201 4.36500E+01 0.00000E+00 0.00000E+00
 -1      1202 4.66500E+01 0.00000E+00 0.00000E+00
 -1      1203 4.96500E+01 0.00000E+00 0.00000E+00
 -1      1204 5.26500E+01 0.00000E+00 0.00000E+00
 -1      1205 5.56500E+01 0.00000E+00 0.00000E+00
 -1      1206 5.86500E+01 0.00000E+00 0.00000E+00
 -1      1207 6.16500E+01 0.00000E+00 0.00000E+00
 -1      1208 6.46500E+01 0.00000E+00 0.00000E+00
 -1      1209 6.76500E+01 0.00000E+00 0.00000E+00
 -1      1210 7.06500E+01 0.00000E+00 0.00000E+00
 -1      1211 7.36500E+01 0.00000E+00 0.00000E+00
 -1      1212 7.66500E+01 0.00000E+00 0.00000E+00
 -1      1213 7.96500E+01 0.00000E+00 0.00000E+00
 -1      1214 8.26500E+01 0.00000E+00 0.00000E+00
 -1      1215 8.56500E+01 0.00000E+00 0.00000E+00
 -1      1216 8.86500E+01 0.00000E+00 0.00000E+00
 -1      1217 9.16500E+01 0.00000E+00 0.00000E+00
 -1      1218 9.46500E+01 0.00000E+00 0.00000E+00
 -1      1219 9.76500E+01 0.00000E+00 0.00000E+00
 -1      1220 1.00650E+02 0.00000E+00 0.00000E+00
 -1      1221 1.03650E+02 0.00000E+00 0.00000E+00
 -1      1222 1.06650E+02 0.00000E+00 0.00000E+00
 -1      1223 1.09650E+02 0.00000E+00 0.00000E+00
 -1      1224 1.12650E+02 0.00000E+00 0.00000E+00
 -1      1225 1.15650E+02 0.00000E+00 0.00000E+00
 -1      1226 1.18650E+02 0.00000E+00 0.00000E+00
 -1      1227 1.21650E+02 0.00000E+00 0.00000E+00
 -1      1228 1.24650E+02 0.00000E+00 0.00000E+00
 -1      1229 1.27650E+02 0.00000E+00 0.00000E+00
 -1      1230 1.30650E+02 0.00000E+00 0.00000E+00
 -1      1231 1.33650E+02 0.00000E+00 0.00000E+00
 -1      1232 1.36650E+02 0.00000E+00 0.00000E+00
 -1      1233 1.39650E+02 0.00000E+00 0.00000E+00
 -1      1234 1.42650E+02 0.00000E+00 0.00000E+00
 -1      1235 1.45650E+02 0.00000E+00 0.00000E+00
 -1      1236 1.48575E+02 0.00000E+00 0.00000E+00
 -1      1237 1.50000E+02 1.47500E+00 0.00000E+00
 -1      1238 1.50000E+02 4.42500E+00 0.00000E+00
 -1      1239 1.50000E+02 7.37500E+00 0.00000E+00
 -1      1240 1.50000E+02 1.03250E+01 0.00000E+00
 -1      1241 1.50000E+02 1.32750E+01 0.00000E+00
 -1      1242 1.50000E+02 1.62000E+01 0.00000E+00
 -1      1243 1.50000E+02 1.91250E+01 0.00000E+00
 -1      1244 1.50000E+02 2.20750E+01 0.00000E+00
 -1      1245 1.50000E+02 2.50250E+01 0.00000E+00
 -1      1246 1.50000E+02 2.79750E+01 0.00000E+00
 -1      1247 1.50000E+02 3.09250E+01 0.00000E+00
 -1      1248 1.50000E+02 3.38500E+01 0.00000E+00
 -1      1249 1.50000E+02 3.67750E+01 0.00000E+00
 -1      1250 1.50000E+02 3.97250E+01 0.00000E+00
 -1      1251 1.50000E+02 4.26750E+01 0.00000E+00
 -1      1252 1.50000E+02 4.56250E+01 0.00000E+00
 -1      1253 1.50000E+02 4.85500E+01 0.00000E+00
 -1      1254 1.05994E+02 2.55718E+01 0.00000E+00
 -1      1255 1.05657E+02 2.40671E+01 0.00000E+00
 -1      1256 1.04983E+02 2.26470E+01 0.00000E+00
 -1      1257 1.04054E+02 2.14582E+01 0.00000E+00
 -1      1258 1.02945E+02 2.05328E+01 0.00000E+00
 -1      1259 1.01647E+02 1.98447E+01 0.00000E+00
 -1      1260 1.00158E+02 1.94302E+01 0.00000E+00
 -1      1261 9.85842E+01 1.93544E+01 0.00000E+00
 -1      1262 9.70683E+01 1.96222E+01 0.00000E+00
 -1      1263 9.56057E+01 2.02382E+01 0.00000E+00
 -1      1264 9.43333E+01 2.11553E+01 0.00000E+00
 -1      1265 9.32774E+01 2.23608E+01 0.00000E+00
 -1      1266 9.25323E+01 2.37523E+01 0.00000E+00
 -1      1267 9.21342E+01 2.51745E+01 0.00000E+00
 -1      1268 9.20463E+01 2.67093E+01 0.00000E+00
 -1      1269 9.22945E+01 2.82225E+01 0.00000E+00
 -1      1270 9.28515E+01 2.96177E+01 0.00000E+00
 -1      1271 9.36983E+01 3.08678E+01 0.00000E+00
 -1      1272 9.47860E+01 3.19015E+01 0.00000E+00
 -1      1273 9.61053E+01 3.26965E+01 0.00000E+00
 -1      1274 9.75333E+01 3.31765E+01 0.00000E+00
 -1      1275 9.90195E+01 3.33398E+01 0.00000E+00
 -1      1276 1.00507E+02 3.31835E+01 0.00000E+00
 -1      1277 1.01885E+02 3.27341E+01 0.00000E+00
 -1      1278 1.03146E+02 3.20067E+01 0.00000E+00
 -1      1279 1.04247E+02 3.10146E+01 0.00000E+00
 -1      1280 1.05110E+02 2.98205E+01 0.00000E+00
 -1      1281 1.05699E+02 2.84884E+01 0.00000E+00
 -1      1282 1.06000E+02 2.70590E+01 0.00000E+00
 -1      1283 1.57500E+00 4.85250E+01 0.00000E+00
 -1      1284 1.29900E+00 4.48375E+01 0.00000E+00
 -1      1285 1.29900E+00 4.63125E+01 0.00000E+00
 -1      1286 1.29900E+00 4.18875E+01 0.00000E+00
 -1      1287 1.29900E+00 4.33625E+01 0.00000E+00
 -1      1288 2.59800E+00 4.41000E+01 0.00000E+00
 -1      1289 1.29900E+00 3.89375E+01 0.00000E+00
 -1      1290 1.29900E+00 4.04125E+01 0.00000E+00
 -1      1291 2.59800E+00 4.11500E+01 0.00000E+00
 -1      1292 1.29900E+00 3.59875E+01 0.00000E+00
 -1      1293 1.29900E+00 3.74625E+01 0.00000E+00
 -1      1294 2.59800E+00 3.82000E+01 0.00000E+00
 -1      1295 1.29900E+00 3.30875E+01 0.00000E+00
 -1      1296 1.29900E+00 3.45375E+01 0.00000E+00
 -1      1297 2.59800E+00 3.52750E+01 0.00000E+00
 -1      1298 1.29900E+00 3.01375E+01 0.00000E+00
 -1      1299 1.29900E+00 3.16125E+01 0.00000E+00
 -1      1300 2.59800E+00 3.23500E+01 0.00000E+00
 -1      1301 1.29900E+00 2.71875E+01 0.00000E+00
 -1      1302 1.29900E+00 2.86625E+01 0.00000E+00
 -1      1303 2.59800E+00 2.94000E+01 0.00000E+00
 -1      1304 1.29900E+00 2.42375E+01 0.00000E+00
 -1      1305 1.29900E+00 2.57125E+01 0.00000E+00
 -1      1306 2.59800E+00 2.64500E+01 0.00000E+00
 -1      1307 1.29900E+00 2.12875E+01 0.00000E+00
 -1      1308 1.29900E+00 2.27625E+01 0.00000E+00
 -1      1309 2.59800E+00 2.35000E+01 0.00000E+00
 -1      1310 1.29900E+00 1.83375E+01 0.00000E+00
 -1      1311 1.29900E+00 1.98125E+01 0.00000E+00
 -1      1312 2.59800E+00 2.05500E+01 0.00000E+00
 -1      1313 1.29900E+00 1.54375E+01 0.00000E+00
 -1      1314 1.29900E+00 1.68875E+01 0.00000E+00
 -1      1315 2.59800E+00 1.76250E+01 0.00000E+00
 -1      1316 1.29900E+00 1.24875E+01 0.00000E+00
 -1      1317 1.29900E+00 1.39625E+01 0.00000E+00
 -1      1318 2.59800E+00 1.47000E+01 0.00000E+00
 -1      1319 1.29900E+00 9.53750E+00 0.00000E+00
 -1      1320 1.29900E+00 1.10125E+01 0.00000E+00
 -1      1321 2.59800E+00 1.17500E+01 0.00000E+00
 -1      1322 1.29900E+00 6.58750E+00 0.00000E+00
 -1      1323 1.29900E+00 8.06250E+00 0.00000E+00
 -1      1324 2.59800E+00 8.80000E+00 0.00000E+00
 -1      1325 1.29900E+00 3.63750E+00 0.00000E+00
 -1      1326 1.29900E+00 5.11250E+00 0.00000E+00
 -1      1327 2.59800E+00 5.85000E+00 0.00000E+00
 -1      1328 1.43700E+00 1.09375E+00 0.00000E+00
 -1      1329 1.43700E+00 2.54375E+00 0.00000E+00
 -1      1330 2.73600E+00 3.28125E+00 0.00000E+00
 -1      1331 3.01200E+00 1.09375E+00 0.00000E+00
 -1      1332 3.90000E+00 4.87010E+01 0.00000E+00
 -1      1333 5.40000E+00 4.87010E+01 0.00000E+00
 -1      1334 6.90000E+00 4.87010E+01 0.00000E+00
 -1      1335 8.40000E+00 4.87010E+01 0.00000E+00
 -1      1336 6.15000E+00 4.74020E+01 0.00000E+00
 -1      1337 9.90000E+00 4.87010E+01 0.00000E+00
 -1      1338 1.14000E+01 4.87010E+01 0.00000E+00
 -1      1339 9.15000E+00 4.74020E+01 0.00000E+00
 -1      1340 1.29000E+01 4.87010E+01 0.00000E+00
 -1      1341 1.44000E+01 4.87010E+01 0.00000E+00
 -1      1342 1.21500E+01 4.74020E+01 0.00000E+00
 -1      1343 1.59000E+01 4.87010E+01 0.00000E+00
 -1      1344 1.74000E+01 4.87010E+01 0.00000E+00
 -1      1345 1.51500E+01 4.74020E+01 0.00000E+00
 -1      1346 1.89000E+01 4.87010E+01 0.00000E+00
 -1      1347 2.04000E+01 4.87010E+01 0.00000E+00
 -1      1348 1.81500E+01 4.74020E+01 0.00000E+00
 -1      1349 2.19000E+01 4.87010E+01 0.00000E+00
 -1      1350 2.34000E+01 4.87010E+01 0.00000E+00
 -1      1351 2.11500E+01 4.74020E+01 0.00000E+00
 -1      1352 2.49000E+01 4.87010E+01 0.00000E+00
 -1      1353 2.64000E+01 4.87010E+01 0.00000E+00
 -1      1354 2.41500E+01 4.74020E+01 0.00000E+00
 -1      1355 2.79000E+01 4.87010E+01 0.00000E+00
 -1      1356 2.94000E+01 4.87010E+01 0.00000E+00
 -1      1357 2.71500E+01 4.74020E+01 0.00000E+00
 -1      1358 3.09000E+01 4.87010E+01 0.00000E+00
 -1      1359 3.24000E+01 4.87010E+01 0.00000E+00
 -1      1360 3.01500E+01 4.74020E+01 0.00000E+00
 -1      1361 3.39000E+01 4.87010E+01 0.00000E+00
 -1      1362 3.54000E+01 4.87010E+01 0.00000E+00
 -1      1363 3.31500E+01 4.74020E+01 0.00000E+00
 -1      1364 3.69000E+01 4.87010E+01 0.00000E+00
 -1      1365 3.84000E+01 4.87010E+01 0.00000E+00
 -1      1366 3.61500E+01 4.74020E+01 0.00000E+00
 -1      1367 3.99000E+01 4.87010E+01 0.00000E+00
 -1      1368 4.14000E+01 4.87010E+01 0.00000E+00
 -1      1369 3.91500E+01 4.74020E+01 0.00000E+00
 -1      1370 4.29000E+01 4.87010E+01 0.00000E+00
 -1      1371 4.44000E+01 4.87010E+01 0.00000E+00
 -1      1372 4.21500E+01 4.74020E+01 0.00000E+00
 -1      1373 4.59000E+01 4.87010E+01 0.00000E+00
 -1      1374 4.74000E+01 4.87010E+01 0.00000E+00
 -1      1375 4.51500E+01 4.74020E+01 0.00000E+00
 -1      1376 4.89000E+01 4.87010E+01 0.00000E+00
 -1      1377 5.04000E+01 4.87010E+01 0.00000E+00
 -1      1378 4.81500E+01 4.74020E+01 0.00000E+00
 -1      1379 5.19000E+01 4.87010E+01 0.00000E+00
 -1      1380 5.34000E+01 4.87010E+01 0.00000E+00
 -1      1381 5.11500E+01 4.74020E+01 0.00000E+00
 -1      1382 5.49000E+01 4.87010E+01 0.00000E+00
 -1      1383 5.64000E+01 4.87010E+01 0.00000E+00
 -1      1384 5.41500E+01 4.74020E+01 0.00000E+00
 -1      1385 5.79000E+01 4.87010E+01 0.00000E+00
 -1      1386 5.94000E+01 4.87010E+01 0.00000E+00
 -1      1387 5.71500E+01 4.74020E+01 0.00000E+00
 -1      1388 6.09000E+01 4.87010E+01 0.00000E+00
 -1      1389 6.24000E+01 4.87010E+01 0.00000E+00
 -1      1390 6.01500E+01 4.74020E+01 0.00000E+00
 -1      1391 6.39000E+01 4.87010E+01 0.00000E+00
 -1      1392 6.54000E+01 4.87010E+01 0.00000E+00
 -1      1393 6.31500E+01 4.74020E+01 0.00000E+00
 -1      1394 6.69000E+01 4.87010E+01 0.00000E+00
 -1      1395 6.84000E+01 4.87010E+01 0.00000E+00
 -1      1396 6.61500E+01 4.74020E+01 0.00000E+00
 -1      1397 6.99000E+01 4.87010E+01 0.00000E+00
 -1      1398 7.14000E+01 4.87010E+01 0.00000E+00
 -1      1399 6.91500E+01 4.74020E+01 0.00000E+00
 -1      1400 7.29000E+01 4.87010E+01 0.00000E+00
 -1      1401 7.44000E+01 4.87010E+01 0.00000E+00
 -1      1402 7.21500E+01 4.74020E+01 0.00000E+00
 -1      1403 7.59000E+01 4.87010E+01 0.00000E+00
 -1      1404 7.74000E+01 4.87010E+01 0.00000E+00
 -1      1405 7.51500E+01 4.74020E+01 0.00000E+00
 -1      1406 7.89000E+01 4.87010E+01 0.00000E+00
 -1      1407 8.04000E+01 4.87010E+01 0.00000E+00
 -1      1408 7.81500E+01 4.74020E+01 0.00000E+00
 -1      1409 8.19000E+01 4.87010E+01 0.00000E+00
 -1      1410 8.34000E+01 4.87010E+01 0.00000E+00
 -1      1411 8.11500E+01 4.74020E+01 0.00000E+00
 -1      1412 8.49000E+01 4.87010E+01 0.00000E+00
 -1      1413 8.64000E+01 4.87010E+01 0.00000E+00
 -1      1414 8.41500E+01 4.74020E+01 0.00000E+00
 -1      1415 8.79000E+01 4.87010E+01 0.00000E+00
 -1      1416 8.94000E+01 4.87010E+01 0.00000E+00
 -1      1417 8.71500E+01 4.74020E+01 0.00000E+00
 -1      1418 9.09000E+01 4.87010E+01 0.00000E+00
 -1      1419 9.24000E+01 4.87010E+01 0.00000E+00
 -1      1420 9.01500E+01 4.74020E+01 0.00000E+00
 -1      1421 9.39000E+01 4.87010E+01 0.00000E+00
 -1      1422 9.54000E+01 4.87010E+01 0.00000E+00
 -1      1423 9.31500E+01 4.74020E+01 0.00000E+00
 -1      1424 9.69000E+01 4.87010E+01 0.00000E+00
 -1      1425 9.84000E+01 4.87010E+01 0.00000E+00
 -1      1426 9.61500E+01 4.74020E+01 0.00000E+00
 -1      1427 9.99000E+01 4.87010E+01 0.00000E+00
 -1      1428 1.01400E+02 4.87010E+01 0.00000E+00
 -1      1429 9.91500E+01 4.74020E+01 0.00000E+00
 -1      1430 1.02900E+02 4.87010E+01 0.00000E+00
 -1      1431 1.04400E+02 4.87010E+01 0.00000E+00
 -1      1432 1.02150E+02 4.74020E+01 0.00000E+00
 -1      1433 1.05900E+02 4.87010E+01 0.00000E+00
 -1      1434 1.07400E+02 4.87010E+01 0.00000E+00
 -1      1435 1.05150E+02 4.74020E+01 0.00000E+00
 -1      1436 1.08900E+02 4.87010E+01 0.00000E+00
 -1      1437 1.10400E+02 4.87010E+01 0.00000E+00
 -1      1438 1.08150E+02 4.74020E+01 0.00000E+00
 -1      1439 1.11900E+02 4.87010E+01 0.00000E+00
 -1      1440 1.13400E+02 4.87010E+01 0.00000E+00
 -1      1441 1.11150E+02 4.74020E+01 0.00000E+00
 -1      1442 1.14900E+02 4.87010E+01 0.00000E+00
 -1      1443 1.16400E+02 4.87010E+01 0.00000E+00
 -1      1444 1.14150E+02 4.74020E+01 0.00000E+00
 -1      1445 1.17900E+02 4.87010E+01 0.00000E+00
 -1      1446 1.19400E+02 4.87010E+01 0.00000E+00
 -1      1447 1.17150E+02 4.74020E+01 0.00000E+00
 -1      1448 1.20900E+02 4.87010E+01 0.00000E+00
 -1      1449 1.22400E+02 4.87010E+01 0.00000E+00
 -1      1450 1.20150E+02 4.74020E+01 0.00000E+00
 -1      1451 1.23900E+02 4.87010E+01 0.00000E+00
 -1      1452 1.25400E+02 4.87010E+01 0.00000E+00
 -1      1453 1.23150E+02 4.74020E+01 0.00000E+00
 -1      1454 1.26900E+02 4.87010E+01 0.00000E+00
 -1      1455 1.28400E+02 4.87010E+01 0.00000E+00
 -1      1456 1.26150E+02 4.74020E+01 0.00000E+00
 -1      1457 1.29900E+02 4.87010E+01 0.00000E+00
 -1      1458 1.31400E+02 4.87010E+01 0.00000E+00
 -1      1459 1.29150E+02 4.74020E+01 0.00000E+00
 -1      1460 1.32900E+02 4.87010E+01 0.00000E+00
 -1      1461 1.34400E+02 4.87010E+01 0.00000E+00
 -1      1462 1.32150E+02 4.74020E+01 0.00000E+00
 -1      1463 1.35900E+02 4.87010E+01 0.00000E+00
 -1      1464 1.37400E+02 4.87010E+01 0.00000E+00
 -1      1465 1.35150E+02 4.74020E+01 0.00000E+00
 -1      1466 1.38900E+02 4.87010E+01 0.00000E+00
 -1      1467 1.40400E+02 4.87010E+01 0.00000E+00
 -1      1468 1.38150E+02 4.74020E+01 0.00000E+00
 -1      1469 1.41900E+02 4.87010E+01 0.00000E+00
 -1      1470 1.43400E+02 4.87010E+01 0.00000E+00
 -1      1471 1.41150E+02 4.74020E+01 0.00000E+00
 -1      1472 1.44900E+02 4.87010E+01 0.00000E+00
 -1      1473 1.46400E+02 4.87010E+01 0.00000E+00
 -1      1474 1.44150E+02 4.74020E+01 0.00000E+00
 -1      1475 1.48575E+02 4.85500E+01 0.00000E+00
 -1      1476 1.47825E+02 4.72510E+01 0.00000E+00
 -1      1477 6.01200E+00 1.09375E+00 0.00000E+00
 -1      1478 4.51200E+00 1.09375E+00 0.00000E+00
 -1      1479 4.37400E+00 2.18750E+00 0.00000E+00
 -1      1480 9.01200E+00 1.09375E+00 0.00000E+00
 -1      1481 7.51200E+00 1.09375E+00 0.00000E+00
 -1      1482 7.37400E+00 2.18750E+00 0.00000E+00
 -1      1483 1.20120E+01 1.09375E+00 0.00000E+00
 -1      1484 1.05120E+01 1.09375E+00 0.00000E+00
 -1      1485 1.03740E+01 2.18750E+00 0.00000E+00
 -1      1486 1.50120E+01 1.09375E+00 0.00000E+00
 -1      1487 1.35120E+01 1.09375E+00 0.00000E+00
 -1      1488 1.33740E+01 2.18750E+00 0.00000E+00
 -1      1489 1.80120E+01 1.09375E+00 0.00000E+00
 -1      1490 1.65120E+01 1.09375E+00 0.00000E+00
 -1      1491 1.63740E+01 2.18750E+00 0.00000E+00
 -1      1492 2.10120E+01 1.09375E+00 0.00000E+00
 -1      1493 1.95120E+01 1.09375E+00 0.00000E+00
 -1      1494 1.93740E+01 2.18750E+00 0.00000E+00
 -1      1495 2.40120E+01 1.09375E+00 0.00000E+00
 -1      1496 2.25120E+01 1.09375E+00 0.00000E+00
 -1      1497 2.23740E+01 2.18750E+00 0.00000E+00
 -1      1498 2.70120E+01 1.09375E+00 0.00000E+00
 -1      1499 2.55120E+01 1.09375E+00 0.00000E+00
 -1      1500 2.53740E+01 2.18750E+00 0.00000E+00
 -1      1501 3.00120E+01 1.09375E+00 0.00000E+00
 -1      1502 2.85120E+01 1.09375E+00 0.00000E+00
 -1      1503 2.83740E+01 2.18750E+00 0.00000E+00
 -1      1504 3.30120E+01 1.09375E+00 0.00000E+00
 -1      1505 3.15120E+01 1.09375E+00 0.00000E+00
 -1      1506 3.13740E+01 2.18750E+00 0.00000E+00
 -1      1507 3.60120E+01 1.09375E+00 0.00000E+00
 -1      1508 3.45120E+01 1.09375E+00 0.00000E+00
 -1      1509 3.43740E+01 2.18750E+00 0.00000E+00
 -1      1510 3.90120E+01 1.09375E+00 0.00000E+00
 -1      1511 3.75120E+01 1.09375E+00 0.00000E+00
 -1      1512 3.73740E+01 2.18750E+00 0.00000E+00
 -1      1513 4.20120E+01 1.09375E+00 0.00000E+00
 -1      1514 4.05120E+01 1.09375E+00 0.00000E+00
 -1      1515 4.03740E+01 2.18750E+00 0.00000E+00
 -1      1516 4.50120E+01 1.09375E+00 0.00000E+00
 -1      1517 4.35120E+01 1.09375E+00 0.00000E+00
 -1      1518 4.33740E+01 2.18750E+00 0.00000E+00
 -1      1519 4.80120E+01 1.09375E+00 0.00000E+00
 -1      1520 4.65120E+01 1.09375E+00 0.00000E+00
 -1      1521 4.63740E+01 2.18750E+00 0.00000E+00
 -1      1522 5.10120E+01 1.09375E+00 0.00000E+00
 -1      1523 4.95120E+01 1.09375E+00 0.00000E+00
 -1      1524 4.93740E+01 2.18750E+00 0.00000E+00
 -1      1525 5.40120E+01 1.09375E+00 0.00000E+00
 -1      1526 5.25120E+01 1.09375E+00 0.00000E+00
 -1      1527 5.23740E+01 2.18750E+00 0.00000E+00
 -1      1528 5.70120E+01 1.09375E+00 0.00000E+00
 -1      1529 5.55120E+01 1.09375E+00 0.00000E+00
 -1      1530 5.53740E+01 2.18750E+00 0.00000E+00
 -1      1531 6.00120E+01 1.09375E+00 0.00000E+00
 -1      1532 5.85120E+01 1.09375E+00 0.00000E+00
 -1      1533 5.83740E+01 2.18750E+00 0.00000E+00
 -1      1534 6.30120E+01 1.09375E+00 0.00000E+00
 -1      1535 6.15120E+01 1.09375E+00 0.00000E+00
 -1      1536 6.13740E+01 2.18750E+00 0.00000E+00
 -1      1537 6.60120E+01 1.09375E+00 0.00000E+00
 -1      1538 6.45120E+01 1.09375E+00 0.00000E+00
 -1      1539 6.43740E+01 2.18750E+00 0.00000E+00
 -1      1540 6.90120E+01 1.09375E+00 0.00000E+00
 -1      1541 6.75120E+01 1.09375E+00 0.00000E+00
 -1      1542 6.73740E+01 2.18750E+00 0.00000E+00
 -1      1543 7.20120E+01 1.09375E+00 0.00000E+00
 -1      1544 7.05120E+01 1.09375E+00 0.00000E+00
 -1      1545 7.03740E+01 2.18750E+00 0.00000E+00
 -1      1546 7.50120E+01 1.09375E+00 0.00000E+00
 -1      1547 7.35120E+01 1.09375E+00 0.00000E+00
 -1      1548 7.33740E+01 2.18750E+00 0.00000E+00
 -1      1549 7.80120E+01 1.09375E+00 0.00000E+00
 -1      1550 7.65120E+01 1.09375E+00 0.00000E+00
 -1      1551 7.63740E+01 2.18750E+00 0.00000E+00
 -1      1552 8.10120E+01 1.09375E+00 0.00000E+00
 -1      1553 7.95120E+01 1.09375E+00 0.00000E+00
 -1      1554 7.93740E+01 2.18750E+00 0.00000E+00
 -1      1555 8.40120E+01 1.09375E+00 0.00000E+00
 -1      1556 8.25120E+01 1.09375E+00 0.00000E+00
 -1      1557 8.23740E+01 2.18750E+00 0.00000E+00
 -1      1558 8.70120E+01 1.09375E+00 0.00000E+00
 -1      1559 8.55120E+01 1.09375E+00 0.00000E+00
 -1      1560 8.53740E+01 2.18750E+00 0.00000E+00
 -1      1561 9.00120E+01 1.09375E+00 0.00000E+00
 -1      1562 8.85120E+01 1.09375E+00 0.00000E+00
 -1      1563 8.83740E+01 2.18750E+00 0.00000E+00
 -1      1564 9.30120E+01 1.09375E+00 0.00000E+00
 -1      1565 9.15120E+01 1.09375E+00 0.00000E+00
 -1      1566 9.13740E+01 2.18750E+00 0.00000E+00
 -1      1567 9.60120E+01 1.09375E+00 0.00000E+00
 -1      1568 9.45120E+01 1.09375E+00 0.00000E+00
 -1      1569 9.43740E+01 2.18750E+00 0.00000E+00
 -1      1570 9.90120E+01 1.09375E+00 0.00000E+00
 -1      1571 9.75120E+01 1.09375E+00 0.00000E+00
 -1      1572 9.73740E+01 2.18750E+00 0.00000E+00
 -1      1573 1.02012E+02 1.09375E+00 0.00000E+00
 -1      1574 1.00512E+02 1.09375E+00 0.00000E+00
 -1      1575 1.00374E+02 2.18750E+00 0.00000E+00
 -1      1576 1.05012E+02 1.09375E+00 0.00000E+00
 -1      1577 1.03512E+02 1.09375E+00 0.00000E+00
 -1      1578 1.03374E+02 2.18750E+00 0.00000E+00
 -1      1579 1.08012E+02 1.09375E+00 0.00000E+00
 -1      1580 1.06512E+02 1.09375E+00 0.00000E+00
 -1      1581 1.06374E+02 2.18750E+00 0.00000E+00
 -1      1582 1.11012E+02 1.09375E+00 0.00000E+00
 -1      1583 1.09512E+02 1.09375E+00 0.00000E+00
 -1      1584 1.09374E+02 2.18750E+00 0.00000E+00
 -1      1585 1.14012E+02 1.09375E+00 0.00000E+00
 -1      1586 1.12512E+02 1.09375E+00 0.00000E+00
 -1      1587 1.12374E+02 2.18750E+00 0.00000E+00
 -1      1588 1.17012E+02 1.09375E+00 0.00000E+00
 -1      1589 1.15512E+02 1.09375E+00 0.00000E+00
 -1      1590 1.15374E+02 2.18750E+00 0.00000E+00
 -1      1591 1.20012E+02 1.09375E+00 0.00000E+00
 -1      1592 1.18512E+02 1.09375E+00 0.00000E+00
 -1      1593 1.18374E+02 2.18750E+00 0.00000E+00
 -1      1594 1.23012E+02 1.09375E+00 0.00000E+00
 -1      1595 1.21512E+02 1.09375E+00 0.00000E+00
 -1      1596 1.21374E+02 2.18750E+00 0.00000E+00
 -1      1597 1.26012E+02 1.09375E+00 0.00000E+00
 -1      1598 1.24512E+02 1.09375E+00 0.00000E+00
 -1      1599 1.24374E+02 2.18750E+00 0.00000E+00
 -1      1600 1.29012E+02 1.09375E+00 0.00000E+00
 -1      1601 1.27512E+02 1.09375E+00 0.00000E+00
 -1      1602 1.27374E+02 2.18750E+00 0.00000E+00
 -1      1603 1.32012E+02 1.09375E+00 0.00000E+00
 -1      1604 1.30512E+02 1.09375E+00 0.00000E+00
 -1      1605 1.30374E+02 2.18750E+00 0.00000E+00
 -1      1606 1.35012E+02 1.09375E+00 0.00000E+00
 -1      1607 1.33512E+02 1.09375E+00 0.00000E+00
 -1      1608 1.33374E+02 2.18750E+00 0.00000E+00
 -1      1609 1.38012E+02 1.09375E+00 0.00000E+00
 -1      1610 1.36512E+02 1.09375E+00 0.00000E+00
 -1      1611 1.36374E+02 2.18750E+00 0.00000E+00
 -1      1612 1.41012E+02 1.09375E+00 0.00000E+00
 -1      1613 1.39512E+02 1.09375E+00 0.00000E+00
 -1      1614 1.39374E+02 2.18750E+00 0.00000E+00
 -1      1615 1.44012E+02 1.09375E+00 0.00000E+00
 -1      1616 1.42512E+02 1.09375E+00 0.00000E+00
 -1      1617 1.42374E+02 2.18750E+00 0.00000E+00
 -1      1618 1.47012E+02 1.09375E+00 0.00000E+00
 -1      1619 1.45512E+02 1.09375E+00 0.00000E+00
 -1      1620 1.45374E+02 2.18750E+00 0.00000E+00
 -1      1621 1.48575E+02 1.47500E+00 0.00000E+00
 -1      1622 1.48701E+02 5.16250E+00 0.00000E+00
 -1      1623 1.48701E+02 3.68750E+00 0.00000E+00
 -1      1624 1.48701E+02 8.11250E+00 0.00000E+00
 -1      1625 1.48701E+02 6.63750E+00 0.00000E+00
 -1      1626 1.47402E+02 5.90000E+00 0.00000E+00
 -1      1627 1.48701E+02 1.10625E+01 0.00000E+00
 -1      1628 1.48701E+02 9.58750E+00 0.00000E+00
 -1      1629 1.47402E+02 8.85000E+00 0.00000E+00
 -1      1630 1.48701E+02 1.40125E+01 0.00000E+00
 -1      1631 1.48701E+02 1.25375E+01 0.00000E+00
 -1      1632 1.47402E+02 1.18000E+01 0.00000E+00
 -1      1633 1.48701E+02 1.69125E+01 0.00000E+00
 -1      1634 1.48701E+02 1.54625E+01 0.00000E+00
 -1      1635 1.47402E+02 1.47250E+01 0.00000E+00
 -1      1636 1.48701E+02 1.98625E+01 0.00000E+00
 -1      1637 1.48701E+02 1.83875E+01 0.00000E+00
 -1      1638 1.47402E+02 1.76500E+01 0.00000E+00
 -1      1639 1.48701E+02 2.28125E+01 0.00000E+00
 -1      1640 1.48701E+02 2.13375E+01 0.00000E+00
 -1      1641 1.47402E+02 2.06000E+01 0.00000E+00
 -1      1642 1.48701E+02 2.57625E+01 0.00000E+00
 -1      1643 1.48701E+02 2.42875E+01 0.00000E+00
 -1      1644 1.47402E+02 2.35500E+01 0.00000E+00
 -1      1645 1.48701E+02 2.87125E+01 0.00000E+00
 -1      1646 1.48701E+02 2.72375E+01 0.00000E+00
 -1      1647 1.47402E+02 2.65000E+01 0.00000E+00
 -1      1648 1.48701E+02 3.16625E+01 0.00000E+00
 -1      1649 1.48701E+02 3.01875E+01 0.00000E+00
 -1      1650 1.47402E+02 2.94500E+01 0.00000E+00
 -1      1651 1.48701E+02 3.45625E+01 0.00000E+00
 -1      1652 1.48701E+02 3.31125E+01 0.00000E+00
 -1      1653 1.47402E+02 3.23750E+01 0.00000E+00
 -1      1654 1.48701E+02 3.75125E+01 0.00000E+00
 -1      1655 1.48701E+02 3.60375E+01 0.00000E+00
 -1      1656 1.47402E+02 3.53000E+01 0.00000E+00
 -1      1657 1.48701E+02 4.04625E+01 0.00000E+00
 -1      1658 1.48701E+02 3.89875E+01 0.00000E+00
 -1      1659 1.47402E+02 3.82500E+01 0.00000E+00
 -1      1660 1.48701E+02 4.34125E+01 0.00000E+00
 -1      1661 1.48701E+02 4.19375E+01 0.00000E+00
 -1      1662 1.47402E+02 4.12000E+01 0.00000E+00
 -1      1663 1.48263E+02 4.60692E+01 0.00000E+00
 -1      1664 1.48263E+02 4.45942E+01 0.00000E+00
 -1      1665 1.46964E+02 4.38568E+01 0.00000E+00
 -1      1666 1.46088E+02 4.62202E+01 0.00000E+00
 -1      1667 1.06554E+02 2.51236E+01 0.00000E+00
 -1      1668 1.06639E+02 2.58870E+01 0.00000E+00
 -1      1669 1.06064E+02 2.35182E+01 0.00000E+00
 -1      1670 1.06316E+02 2.42502E+01 0.00000E+00
 -1      1671 1.05320E+02 2.19681E+01 0.00000E+00
 -1      1672 1.05741E+02 2.26460E+01 0.00000E+00
 -1      1673 1.04214E+02 2.08059E+01 0.00000E+00
 -1      1674 1.04710E+02 2.13156E+01 0.00000E+00
 -1      1675 1.02959E+02 1.98573E+01 0.00000E+00
 -1      1676 1.03566E+02 2.02664E+01 0.00000E+00
 -1      1677 1.01532E+02 1.91420E+01 0.00000E+00
 -1      1678 1.02216E+02 1.94168E+01 0.00000E+00
 -1      1679 9.98616E+01 1.87306E+01 0.00000E+00
 -1      1680 1.00660E+02 1.88601E+01 0.00000E+00
 -1      1681 9.81653E+01 1.88163E+01 0.00000E+00
 -1      1682 9.89302E+01 1.87667E+01 0.00000E+00
 -1      1683 9.65272E+01 1.91500E+01 0.00000E+00
 -1      1684 9.72689E+01 1.89327E+01 0.00000E+00
 -1      1685 9.49770E+01 1.99508E+01 0.00000E+00
 -1      1686 9.56867E+01 1.95517E+01 0.00000E+00
 -1      1687 9.36740E+01 2.09899E+01 0.00000E+00
 -1      1688 9.42327E+01 2.04831E+01 0.00000E+00
 -1      1689 9.24767E+01 2.23230E+01 0.00000E+00
 -1      1690 9.29588E+01 2.16252E+01 0.00000E+00
 -1      1691 9.18696E+01 2.38816E+01 0.00000E+00
 -1      1692 9.21395E+01 2.32031E+01 0.00000E+00
 -1      1693 9.15137E+01 2.54484E+01 0.00000E+00
 -1      1694 9.16380E+01 2.47121E+01 0.00000E+00
 -1      1695 9.14648E+01 2.71360E+01 0.00000E+00
 -1      1696 9.14230E+01 2.63464E+01 0.00000E+00
 -1      1697 9.18486E+01 2.87327E+01 0.00000E+00
 -1      1698 9.16488E+01 2.80173E+01 0.00000E+00
 -1      1699 9.24932E+01 3.02374E+01 0.00000E+00
 -1      1700 9.21375E+01 2.95663E+01 0.00000E+00
 -1      1701 9.35096E+01 3.15200E+01 0.00000E+00
 -1      1702 9.30241E+01 3.09477E+01 0.00000E+00
 -1      1703 9.47149E+01 3.26121E+01 0.00000E+00
 -1      1704 9.41190E+01 3.21567E+01 0.00000E+00
 -1      1705 9.61940E+01 3.34479E+01 0.00000E+00
 -1      1706 9.54763E+01 3.31169E+01 0.00000E+00
 -1      1707 9.77607E+01 3.38095E+01 0.00000E+00
 -1      1708 9.70613E+01 3.36557E+01 0.00000E+00
 -1      1709 9.94075E+01 3.39872E+01 0.00000E+00
 -1      1710 9.86284E+01 3.39853E+01 0.00000E+00
 -1      1711 1.00977E+02 3.36649E+01 0.00000E+00
 -1      1712 1.00277E+02 3.38155E+01 0.00000E+00
 -1      1713 1.02450E+02 3.31039E+01 0.00000E+00
 -1      1714 1.01782E+02 3.34017E+01 0.00000E+00
 -1      1715 1.03773E+02 3.22547E+01 0.00000E+00
 -1      1716 1.03187E+02 3.26796E+01 0.00000E+00
 -1      1717 1.04983E+02 3.11656E+01 0.00000E+00
 -1      1718 1.04476E+02 3.17301E+01 0.00000E+00
 -1      1719 1.05782E+02 2.97936E+01 0.00000E+00
 -1      1720 1.05426E+02 3.04139E+01 0.00000E+00
 -1      1721 1.06352E+02 2.83095E+01 0.00000E+00
 -1      1722 1.06124E+02 2.90152E+01 0.00000E+00
 -1      1723 1.06603E+02 2.67598E+01 0.00000E+00
 -1      1724 1.06529E+02 2.74752E+01 0.00000E+00
 -1      1725 1.04249E+02 2.00985E+01 0.00000E+00
 -1      1726 1.05507E+02 2.12905E+01 0.00000E+00
 -1      1727 1.48437E+02 2.56875E+00 0.00000E+00
 -1      1728 1.47138E+02 3.30625E+00 0.00000E+00
 -1      1729 1.07002E+02 2.45608E+01 0.00000E+00
 -1      1730 1.06440E+02 2.28152E+01 0.00000E+00
 -1      1731 1.07205E+02 2.63070E+01 0.00000E+00
 -1      1732 1.02858E+02 1.91185E+01 0.00000E+00
 -1      1733 1.01244E+02 1.83962E+01 0.00000E+00
 -1      1734 9.94399E+01 1.81504E+01 0.00000E+00
 -1      1735 9.76122E+01 1.83030E+01 0.00000E+00
 -1      1736 9.58753E+01 1.88211E+01 0.00000E+00
 -1      1737 9.42904E+01 1.97552E+01 0.00000E+00
 -1      1738 9.28308E+01 2.09228E+01 0.00000E+00
 -1      1739 9.17784E+01 2.24382E+01 0.00000E+00
 -1      1740 9.12097E+01 2.41488E+01 0.00000E+00
 -1      1741 9.08874E+01 2.58774E+01 0.00000E+00
 -1      1742 9.09808E+01 2.76567E+01 0.00000E+00
 -1      1743 9.14538E+01 2.93717E+01 0.00000E+00
 -1      1744 9.22736E+01 3.09157E+01 0.00000E+00
 -1      1745 9.34140E+01 3.22627E+01 0.00000E+00
 -1      1746 9.47848E+01 3.34042E+01 0.00000E+00
 -1      1747 9.64135E+01 3.41168E+01 0.00000E+00
 -1      1748 9.81485E+01 3.45005E+01 0.00000E+00
 -1      1749 9.98853E+01 3.45046E+01 0.00000E+00
 -1      1750 1.01558E+02 3.40697E+01 0.00000E+00
 -1      1751 1.03099E+02 3.33822E+01 0.00000E+00
 -1      1752 1.04539E+02 3.24333E+01 0.00000E+00
 -1      1753 1.05687E+02 3.11569E+01 0.00000E+00
 -1      1754 1.06473E+02 2.96268E+01 0.00000E+00
 -1      1755 1.06992E+02 2.80141E+01 0.00000E+00
 -1      1756 2.87400E+00 4.77875E+01 0.00000E+00
 -1      1757 3.89700E+00 4.04125E+01 0.00000E+00
 -1      1758 3.89700E+00 4.18875E+01 0.00000E+00
 -1      1759 3.89700E+00 4.33625E+01 0.00000E+00
 -1      1760 3.89700E+00 4.48375E+01 0.00000E+00
 -1      1761 5.19600E+00 4.26250E+01 0.00000E+00
 -1      1762 3.89700E+00 3.45500E+01 0.00000E+00
 -1      1763 3.89700E+00 3.60000E+01 0.00000E+00
 -1      1764 3.89700E+00 3.16000E+01 0.00000E+00
 -1      1765 3.89700E+00 3.30750E+01 0.00000E+00
 -1      1766 5.19600E+00 3.38000E+01 0.00000E+00
 -1      1767 3.89700E+00 2.86500E+01 0.00000E+00
 -1      1768 3.89700E+00 3.01250E+01 0.00000E+00
 -1      1769 5.19600E+00 3.08500E+01 0.00000E+00
 -1      1770 3.89700E+00 2.57000E+01 0.00000E+00
 -1      1771 3.89700E+00 2.71750E+01 0.00000E+00
 -1      1772 5.19600E+00 2.79000E+01 0.00000E+00
 -1      1773 3.89700E+00 2.27500E+01 0.00000E+00
 -1      1774 3.89700E+00 2.42250E+01 0.00000E+00
 -1      1775 5.19600E+00 2.49500E+01 0.00000E+00
 -1      1776 3.89700E+00 1.98000E+01 0.00000E+00
 -1      1777 3.89700E+00 2.12750E+01 0.00000E+00
 -1      1778 5.19600E+00 2.20000E+01 0.00000E+00
 -1      1779 3.89700E+00 1.69000E+01 0.00000E+00
 -1      1780 3.89700E+00 1.83500E+01 0.00000E+00
 -1      1781 5.19600E+00 1.90750E+01 0.00000E+00
 -1      1782 3.89700E+00 1.39500E+01 0.00000E+00
 -1      1783 3.89700E+00 1.54250E+01 0.00000E+00
 -1      1784 5.19600E+00 1.61500E+01 0.00000E+00
 -1      1785 3.89700E+00 1.10000E+01 0.00000E+00
 -1      1786 3.89700E+00 1.24750E+01 0.00000E+00
 -1      1787 5.19600E+00 1.32000E+01 0.00000E+00
 -1      1788 3.89700E+00 8.05000E+00 0.00000E+00
 -1      1789 3.89700E+00 9.52500E+00 0.00000E+00
 -1      1790 5.19600E+00 1.02500E+01 0.00000E+00
 -1      1791 3.89700E+00 5.10000E+00 0.00000E+00
 -1      1792 3.89700E+00 6.57500E+00 0.00000E+00
 -1      1793 5.19600E+00 7.30000E+00 0.00000E+00
 -1      1794 4.20450E+00 3.09687E+00 0.00000E+00
 -1      1795 4.06650E+00 4.19063E+00 0.00000E+00
 -1      1796 5.36550E+00 4.91563E+00 0.00000E+00
 -1      1797 5.70450E+00 3.09687E+00 0.00000E+00
 -1      1798 3.62400E+00 4.64885E+01 0.00000E+00
 -1      1799 8.70450E+00 3.09687E+00 0.00000E+00
 -1      1800 7.20450E+00 3.09687E+00 0.00000E+00
 -1      1801 7.03500E+00 4.00625E+00 0.00000E+00
 -1      1802 4.92300E+00 4.57510E+01 0.00000E+00
 -1      1803 8.40000E+00 4.61030E+01 0.00000E+00
 -1      1804 9.90000E+00 4.61030E+01 0.00000E+00
 -1      1805 1.14000E+01 4.61030E+01 0.00000E+00
 -1      1806 1.29000E+01 4.61030E+01 0.00000E+00
 -1      1807 1.06500E+01 4.48040E+01 0.00000E+00
 -1      1808 1.44000E+01 4.61030E+01 0.00000E+00
 -1      1809 1.59000E+01 4.61030E+01 0.00000E+00
 -1      1810 1.36500E+01 4.48040E+01 0.00000E+00
 -1      1811 1.74000E+01 4.61030E+01 0.00000E+00
 -1      1812 1.89000E+01 4.61030E+01 0.00000E+00
 -1      1813 1.66500E+01 4.48040E+01 0.00000E+00
 -1      1814 2.04000E+01 4.61030E+01 0.00000E+00
 -1      1815 2.19000E+01 4.61030E+01 0.00000E+00
 -1      1816 1.96500E+01 4.48040E+01 0.00000E+00
 -1      1817 2.34000E+01 4.61030E+01 0.00000E+00
 -1      1818 2.49000E+01 4.61030E+01 0.00000E+00
 -1      1819 2.26500E+01 4.48040E+01 0.00000E+00
 -1      1820 2.64000E+01 4.61030E+01 0.00000E+00
 -1      1821 2.79000E+01 4.61030E+01 0.00000E+00
 -1      1822 2.56500E+01 4.48040E+01 0.00000E+00
 -1      1823 2.94000E+01 4.61030E+01 0.00000E+00
 -1      1824 3.09000E+01 4.61030E+01 0.00000E+00
 -1      1825 2.86500E+01 4.48040E+01 0.00000E+00
 -1      1826 3.24000E+01 4.61030E+01 0.00000E+00
 -1      1827 3.39000E+01 4.61030E+01 0.00000E+00
 -1      1828 3.16500E+01 4.48040E+01 0.00000E+00
 -1      1829 3.54000E+01 4.61030E+01 0.00000E+00
 -1      1830 3.69000E+01 4.61030E+01 0.00000E+00
 -1      1831 3.46500E+01 4.48040E+01 0.00000E+00
 -1      1832 3.84000E+01 4.61030E+01 0.00000E+00
 -1      1833 3.99000E+01 4.61030E+01 0.00000E+00
 -1      1834 3.76500E+01 4.48040E+01 0.00000E+00
 -1      1835 4.14000E+01 4.61030E+01 0.00000E+00
 -1      1836 4.29000E+01 4.61030E+01 0.00000E+00
 -1      1837 4.06500E+01 4.48040E+01 0.00000E+00
 -1      1838 4.44000E+01 4.61030E+01 0.00000E+00
 -1      1839 4.59000E+01 4.61030E+01 0.00000E+00
 -1      1840 4.36500E+01 4.48040E+01 0.00000E+00
 -1      1841 4.74000E+01 4.61030E+01 0.00000E+00
 -1      1842 4.89000E+01 4.61030E+01 0.00000E+00
 -1      1843 4.66500E+01 4.48040E+01 0.00000E+00
 -1      1844 5.04000E+01 4.61030E+01 0.00000E+00
 -1      1845 5.19000E+01 4.61030E+01 0.00000E+00
 -1      1846 4.96500E+01 4.48040E+01 0.00000E+00
 -1      1847 5.34000E+01 4.61030E+01 0.00000E+00
 -1      1848 5.49000E+01 4.61030E+01 0.00000E+00
 -1      1849 5.26500E+01 4.48040E+01 0.00000E+00
 -1      1850 5.64000E+01 4.61030E+01 0.00000E+00
 -1      1851 5.79000E+01 4.61030E+01 0.00000E+00
 -1      1852 5.56500E+01 4.48040E+01 0.00000E+00
 -1      1853 5.94000E+01 4.61030E+01 0.00000E+00
 -1      1854 6.09000E+01 4.61030E+01 0.00000E+00
 -1      1855 5.86500E+01 4.48040E+01 0.00000E+00
 -1      1856 6.24000E+01 4.61030E+01 0.00000E+00
 -1      1857 6.39000E+01 4.61030E+01 0.00000E+00
 -1      1858 6.16500E+01 4.48040E+01 0.00000E+00
 -1      1859 6.54000E+01 4.61030E+01 0.00000E+00
 -1      1860 6.69000E+01 4.61030E+01 0.00000E+00
 -1      1861 6.46500E+01 4.48040E+01 0.00000E+00
 -1      1862 6.84000E+01 4.61030E+01 0.00000E+00
 -1      1863 6.99000E+01 4.61030E+01 0.00000E+00
 -1      1864 6.76500E+01 4.48040E+01 0.00000E+00
 -1      1865 7.14000E+01 4.61030E+01 0.00000E+00
 -1      1866 7.29000E+01 4.61030E+01 0.00000E+00
 -1      1867 7.06500E+01 4.48040E+01 0.00000E+00
 -1      1868 7.44000E+01 4.61030E+01 0.00000E+00
 -1      1869 7.59000E+01 4.61030E+01 0.00000E+00
 -1      1870 7.36500E+01 4.48040E+01 0.00000E+00
 -1      1871 7.74000E+01 4.61030E+01 0.00000E+00
 -1      1872 7.89000E+01 4.61030E+01 0.00000E+00
 -1      1873 7.66500E+01 4.48040E+01 0.00000E+00
 -1      1874 8.04000E+01 4.61030E+01 0.00000E+00
 -1      1875 8.19000E+01 4.61030E+01 0.00000E+00
 -1      1876 7.96500E+01 4.48040E+01 0.00000E+00
 -1      1877 8.34000E+01 4.61030E+01 0.00000E+00
 -1      1878 8.49000E+01 4.61030E+01 0.00000E+00
 -1      1879 8.26500E+01 4.48040E+01 0.00000E+00
 -1      1880 8.64000E+01 4.61030E+01 0.00000E+00
 -1      1881 8.79000E+01 4.61030E+01 0.00000E+00
 -1      1882 8.56500E+01 4.48040E+01 0.00000E+00
 -1      1883 8.94000E+01 4.61030E+01 0.00000E+00
 -1      1884 9.09000E+01 4.61030E+01 0.00000E+00
 -1      1885 8.86500E+01 4.48040E+01 0.00000E+00
 -1      1886 9.24000E+01 4.61030E+01 0.00000E+00
 -1      1887 9.39000E+01 4.61030E+01 0.00000E+00
 -1      1888 9.16500E+01 4.48040E+01 0.00000E+00
 -1      1889 9.54000E+01 4.61030E+01 0.00000E+00
 -1      1890 9.69000E+01 4.61030E+01 0.00000E+00
 -1      1891 9.46500E+01 4.48040E+01 0.00000E+00
 -1      1892 9.84000E+01 4.61030E+01 0.00000E+00
 -1      1893 9.99000E+01 4.61030E+01 0.00000E+00
 -1      1894 9.76500E+01 4.48040E+01 0.00000E+00
 -1      1895 1.01400E+02 4.61030E+01 0.00000E+00
 -1      1896 1.02900E+02 4.61030E+01 0.00000E+00
 -1      1897 1.00650E+02 4.48040E+01 0.00000E+00
 -1      1898 1.04400E+02 4.61030E+01 0.00000E+00
 -1      1899 1.05900E+02 4.61030E+01 0.00000E+00
 -1      1900 1.03650E+02 4.48040E+01 0.00000E+00
 -1      1901 1.07400E+02 4.61030E+01 0.00000E+00
 -1      1902 1.08900E+02 4.61030E+01 0.00000E+00
 -1      1903 1.06650E+02 4.48040E+01 0.00000E+00
 -1      1904 1.10400E+02 4.61030E+01 0.00000E+00
 -1      1905 1.11900E+02 4.61030E+01 0.00000E+00
 -1      1906 1.09650E+02 4.48040E+01 0.00000E+00
 -1      1907 1.13400E+02 4.61030E+01 0.00000E+00
 -1      1908 1.14900E+02 4.61030E+01 0.00000E+00
 -1      1909 1.12650E+02 4.48040E+01 0.00000E+00
 -1      1910 1.16400E+02 4.61030E+01 0.00000E+00
 -1      1911 1.17900E+02 4.61030E+01 0.00000E+00
 -1      1912 1.15650E+02 4.48040E+01 0.00000E+00
 -1      1913 1.19400E+02 4.61030E+01 0.00000E+00
 -1      1914 1.20900E+02 4.61030E+01 0.00000E+00
 -1      1915 1.18650E+02 4.48040E+01 0.00000E+00
 -1      1916 1.22400E+02 4.61030E+01 0.00000E+00
 -1      1917 1.23900E+02 4.61030E+01 0.00000E+00
 -1      1918 1.21650E+02 4.48040E+01 0.00000E+00
 -1      1919 1.25400E+02 4.61030E+01 0.00000E+00
 -1      1920 1.26900E+02 4.61030E+01 0.00000E+00
 -1      1921 1.24650E+02 4.48040E+01 0.00000E+00
 -1      1922 1.28400E+02 4.61030E+01 0.00000E+00
 -1      1923 1.29900E+02 4.61030E+01 0.00000E+00
 -1      1924 1.27650E+02 4.48040E+01 0.00000E+00
 -1      1925 1.31400E+02 4.61030E+01 0.00000E+00
 -1      1926 1.32900E+02 4.61030E+01 0.00000E+00
 -1      1927 1.30650E+02 4.48040E+01 0.00000E+00
 -1      1928 1.34400E+02 4.61030E+01 0.00000E+00
 -1      1929 1.35900E+02 4.61030E+01 0.00000E+00
 -1      1930 1.33650E+02 4.48040E+01 0.00000E+00
 -1      1931 1.37400E+02 4.61030E+01 0.00000E+00
 -1      1932 1.38900E+02 4.61030E+01 0.00000E+00
 -1      1933 1.36650E+02 4.48040E+01 0.00000E+00
 -1      1934 1.40400E+02 4.61030E+01 0.00000E+00
 -1      1935 1.41900E+02 4.61030E+01 0.00000E+00
 -1      1936 1.39650E+02 4.48040E+01 0.00000E+00
 -1      1937 1.43244E+02 4.61616E+01 0.00000E+00
 -1      1938 1.44744E+02 4.61616E+01 0.00000E+00
 -1      1939 1.45182E+02 4.49799E+01 0.00000E+00
 -1      1940 1.42494E+02 4.48626E+01 0.00000E+00
 -1      1941 1.17045E+01 3.09687E+00 0.00000E+00
 -1      1942 1.02045E+01 3.09687E+00 0.00000E+00
 -1      1943 1.00350E+01 4.00625E+00 0.00000E+00
 -1      1944 1.47045E+01 3.09687E+00 0.00000E+00
 -1      1945 1.32045E+01 3.09687E+00 0.00000E+00
 -1      1946 1.30350E+01 4.00625E+00 0.00000E+00
 -1      1947 1.77045E+01 3.09687E+00 0.00000E+00
 -1      1948 1.62045E+01 3.09687E+00 0.00000E+00
 -1      1949 1.60350E+01 4.00625E+00 0.00000E+00
 -1      1950 2.07045E+01 3.09687E+00 0.00000E+00
 -1      1951 1.92045E+01 3.09687E+00 0.00000E+00
 -1      1952 1.90350E+01 4.00625E+00 0.00000E+00
 -1      1953 2.37045E+01 3.09687E+00 0.00000E+00
 -1      1954 2.22045E+01 3.09687E+00 0.00000E+00
 -1      1955 2.20350E+01 4.00625E+00 0.00000E+00
 -1      1956 2.67045E+01 3.09687E+00 0.00000E+00
 -1      1957 2.52045E+01 3.09687E+00 0.00000E+00
 -1      1958 2.50350E+01 4.00625E+00 0.00000E+00
 -1      1959 2.97045E+01 3.09687E+00 0.00000E+00
 -1      1960 2.82045E+01 3.09687E+00 0.00000E+00
 -1      1961 2.80350E+01 4.00625E+00 0.00000E+00
 -1      1962 3.27045E+01 3.09687E+00 0.00000E+00
 -1      1963 3.12045E+01 3.09687E+00 0.00000E+00
 -1      1964 3.10350E+01 4.00625E+00 0.00000E+00
 -1      1965 3.57045E+01 3.09687E+00 0.00000E+00
 -1      1966 3.42045E+01 3.09687E+00 0.00000E+00
 -1      1967 3.40350E+01 4.00625E+00 0.00000E+00
 -1      1968 3.87045E+01 3.09687E+00 0.00000E+00
 -1      1969 3.72045E+01 3.09687E+00 0.00000E+00
 -1      1970 3.70350E+01 4.00625E+00 0.00000E+00
 -1      1971 4.17045E+01 3.09687E+00 0.00000E+00
 -1      1972 4.02045E+01 3.09687E+00 0.00000E+00
 -1      1973 4.00350E+01 4.00625E+00 0.00000E+00
 -1      1974 4.47045E+01 3.09687E+00 0.00000E+00
 -1      1975 4.32045E+01 3.09687E+00 0.00000E+00
 -1      1976 4.30350E+01 4.00625E+00 0.00000E+00
 -1      1977 4.77045E+01 3.09687E+00 0.00000E+00
 -1      1978 4.62045E+01 3.09687E+00 0.00000E+00
 -1      1979 4.60350E+01 4.00625E+00 0.00000E+00
 -1      1980 5.07045E+01 3.09687E+00 0.00000E+00
 -1      1981 4.92045E+01 3.09687E+00 0.00000E+00
 -1      1982 4.90350E+01 4.00625E+00 0.00000E+00
 -1      1983 5.37045E+01 3.09687E+00 0.00000E+00
 -1      1984 5.22045E+01 3.09687E+00 0.00000E+00
 -1      1985 5.20350E+01 4.00625E+00 0.00000E+00
 -1      1986 5.67045E+01 3.09687E+00 0.00000E+00
 -1      1987 5.52045E+01 3.09687E+00 0.00000E+00
 -1      1988 5.50350E+01 4.00625E+00 0.00000E+00
 -1      1989 5.97045E+01 3.09687E+00 0.00000E+00
 -1      1990 5.82045E+01 3.09687E+00 0.00000E+00
 -1      1991 5.80350E+01 4.00625E+00 0.00000E+00
 -1      1992 6.27045E+01 3.09687E+00 0.00000E+00
 -1      1993 6.12045E+01 3.09687E+00 0.00000E+00
 -1      1994 6.10350E+01 4.00625E+00 0.00000E+00
 -1      1995 6.57045E+01 3.09687E+00 0.00000E+00
 -1      1996 6.42045E+01 3.09687E+00 0.00000E+00
 -1      1997 6.40350E+01 4.00625E+00 0.00000E+00
 -1      1998 6.87045E+01 3.09687E+00 0.00000E+00
 -1      1999 6.72045E+01 3.09687E+00 0.00000E+00
 -1      2000 6.70350E+01 4.00625E+00 0.00000E+00
 -1      2001 7.17045E+01 3.09687E+00 0.00000E+00
 -1      2002 7.02045E+01 3.09687E+00 0.00000E+00
 -1      2003 7.00350E+01 4.00625E+00 0.00000E+00
 -1      2004 7.47045E+01 3.09687E+00 0.00000E+00
 -1      2005 7.32045E+01 3.09687E+00 0.00000E+00
 -1      2006 7.30350E+01 4.00625E+00 0.00000E+00
 -1      2007 7.77045E+01 3.09687E+00 0.00000E+00
 -1      2008 7.62045E+01 3.09687E+00 0.00000E+00
 -1      2009 7.60350E+01 4.00625E+00 0.00000E+00
 -1      2010 8.07045E+01 3.09687E+00 0.00000E+00
 -1      2011 7.92045E+01 3.09687E+00 0.00000E+00
 -1      2012 7.90350E+01 4.00625E+00 0.00000E+00
 -1      2013 8.37045E+01 3.09687E+00 0.00000E+00
 -1      2014 8.22045E+01 3.09687E+00 0.00000E+00
 -1      2015 8.20350E+01 4.00625E+00 0.00000E+00
 -1      2016 8.67045E+01 3.09687E+00 0.00000E+00
 -1      2017 8.52045E+01 3.09687E+00 0.00000E+00
 -1      2018 8.50350E+01 4.00625E+00 0.00000E+00
 -1      2019 8.97045E+01 3.09687E+00 0.00000E+00
 -1      2020 8.82045E+01 3.09687E+00 0.00000E+00
 -1      2021 8.80350E+01 4.00625E+00 0.00000E+00
 -1      2022 9.27045E+01 3.09687E+00 0.00000E+00
 -1      2023 9.12045E+01 3.09687E+00 0.00000E+00
 -1      2024 9.10350E+01 4.00625E+00 0.00000E+00
 -1      2025 9.57045E+01 3.09687E+00 0.00000E+00
 -1      2026 9.42045E+01 3.09687E+00 0.00000E+00
 -1      2027 9.40350E+01 4.00625E+00 0.00000E+00
 -1      2028 9.87045E+01 3.09687E+00 0.00000E+00
 -1      2029 9.72045E+01 3.09687E+00 0.00000E+00
 -1      2030 9.70350E+01 4.00625E+00 0.00000E+00
 -1      2031 1.01704E+02 3.09687E+00 0.00000E+00
 -1      2032 1.00204E+02 3.09687E+00 0.00000E+00
 -1      2033 1.00035E+02 4.00625E+00 0.00000E+00
 -1      2034 1.04704E+02 3.09687E+00 0.00000E+00
 -1      2035 1.03204E+02 3.09687E+00 0.00000E+00
 -1      2036 1.03035E+02 4.00625E+00 0.00000E+00
 -1      2037 1.07704E+02 3.09687E+00 0.00000E+00
 -1      2038 1.06204E+02 3.09687E+00 0.00000E+00
 -1      2039 1.06035E+02 4.00625E+00 0.00000E+00
 -1      2040 1.10704E+02 3.09687E+00 0.00000E+00
 -1      2041 1.09204E+02 3.09687E+00 0.00000E+00
 -1      2042 1.09035E+02 4.00625E+00 0.00000E+00
 -1      2043 1.13704E+02 3.09687E+00 0.00000E+00
 -1      2044 1.12204E+02 3.09687E+00 0.00000E+00
 -1      2045 1.12035E+02 4.00625E+00 0.00000E+00
 -1      2046 1.16704E+02 3.09687E+00 0.00000E+00
 -1      2047 1.15204E+02 3.09687E+00 0.00000E+00
 -1      2048 1.15035E+02 4.00625E+00 0.00000E+00
 -1      2049 1.19704E+02 3.09687E+00 0.00000E+00
 -1      2050 1.18204E+02 3.09687E+00 0.00000E+00
 -1      2051 1.18035E+02 4.00625E+00 0.00000E+00
 -1      2052 1.22704E+02 3.09687E+00 0.00000E+00
 -1      2053 1.21204E+02 3.09687E+00 0.00000E+00
 -1      2054 1.21035E+02 4.00625E+00 0.00000E+00
 -1      2055 1.25704E+02 3.09687E+00 0.00000E+00
 -1      2056 1.24204E+02 3.09687E+00 0.00000E+00
 -1      2057 1.24035E+02 4.00625E+00 0.00000E+00
 -1      2058 1.28704E+02 3.09687E+00 0.00000E+00
 -1      2059 1.27204E+02 3.09687E+00 0.00000E+00
 -1      2060 1.27035E+02 4.00625E+00 0.00000E+00
 -1      2061 1.31704E+02 3.09687E+00 0.00000E+00
 -1      2062 1.30204E+02 3.09687E+00 0.00000E+00
 -1      2063 1.30035E+02 4.00625E+00 0.00000E+00
 -1      2064 1.34704E+02 3.09687E+00 0.00000E+00
 -1      2065 1.33204E+02 3.09687E+00 0.00000E+00
 -1      2066 1.33035E+02 4.00625E+00 0.00000E+00
 -1      2067 1.37704E+02 3.09687E+00 0.00000E+00
 -1      2068 1.36204E+02 3.09687E+00 0.00000E+00
 -1      2069 1.36035E+02 4.00625E+00 0.00000E+00
 -1      2070 1.40704E+02 3.09687E+00 0.00000E+00
 -1      2071 1.39204E+02 3.09687E+00 0.00000E+00
 -1      2072 1.39035E+02 4.00625E+00 0.00000E+00
 -1      2073 1.43704E+02 3.09687E+00 0.00000E+00
 -1      2074 1.42204E+02 3.09687E+00 0.00000E+00
 -1      2075 1.42035E+02 4.00625E+00 0.00000E+00
 -1      2076 1.46171E+02 3.20156E+00 0.00000E+00
 -1      2077 1.44671E+02 3.20156E+00 0.00000E+00
 -1      2078 1.44502E+02 4.11094E+00 0.00000E+00
 -1      2079 1.46435E+02 4.32031E+00 0.00000E+00
 -1      2080 1.46103E+02 1.25375E+01 0.00000E+00
 -1      2081 1.46103E+02 1.10625E+01 0.00000E+00
 -1      2082 1.46103E+02 9.58750E+00 0.00000E+00
 -1      2083 1.46103E+02 8.11250E+00 0.00000E+00
 -1      2084 1.44804E+02 1.03250E+01 0.00000E+00
 -1      2085 1.46269E+02 6.95391E+00 0.00000E+00
 -1      2086 1.46269E+02 5.47891E+00 0.00000E+00
 -1      2087 1.45302E+02 5.37422E+00 0.00000E+00
 -1      2088 1.44970E+02 7.69141E+00 0.00000E+00
 -1      2089 1.46103E+02 1.54375E+01 0.00000E+00
 -1      2090 1.46103E+02 1.39875E+01 0.00000E+00
 -1      2091 1.44804E+02 1.32500E+01 0.00000E+00
 -1      2092 1.46103E+02 1.83875E+01 0.00000E+00
 -1      2093 1.46103E+02 1.69125E+01 0.00000E+00
 -1      2094 1.44804E+02 1.61750E+01 0.00000E+00
 -1      2095 1.46103E+02 2.13375E+01 0.00000E+00
 -1      2096 1.46103E+02 1.98625E+01 0.00000E+00
 -1      2097 1.44804E+02 1.91250E+01 0.00000E+00
 -1      2098 1.46103E+02 2.42875E+01 0.00000E+00
 -1      2099 1.46103E+02 2.28125E+01 0.00000E+00
 -1      2100 1.44804E+02 2.20750E+01 0.00000E+00
 -1      2101 1.46103E+02 2.72375E+01 0.00000E+00
 -1      2102 1.46103E+02 2.57625E+01 0.00000E+00
 -1      2103 1.44804E+02 2.50250E+01 0.00000E+00
 -1      2104 1.46103E+02 3.01875E+01 0.00000E+00
 -1      2105 1.46103E+02 2.87125E+01 0.00000E+00
 -1      2106 1.44804E+02 2.79750E+01 0.00000E+00
 -1      2107 1.46103E+02 3.30875E+01 0.00000E+00
 -1      2108 1.46103E+02 3.16375E+01 0.00000E+00
 -1      2109 1.44804E+02 3.09000E+01 0.00000E+00
 -1      2110 1.46103E+02 3.60375E+01 0.00000E+00
 -1      2111 1.46103E+02 3.45625E+01 0.00000E+00
 -1      2112 1.44804E+02 3.38250E+01 0.00000E+00
 -1      2113 1.46103E+02 3.89875E+01 0.00000E+00
 -1      2114 1.46103E+02 3.75125E+01 0.00000E+00
 -1      2115 1.44804E+02 3.67750E+01 0.00000E+00
 -1      2116 1.46103E+02 4.19375E+01 0.00000E+00
 -1      2117 1.46103E+02 4.04625E+01 0.00000E+00
 -1      2118 1.44804E+02 3.97250E+01 0.00000E+00
 -1      2119 1.07004E+02 2.21102E+01 0.00000E+00
 -1      2120 1.07327E+02 2.29823E+01 0.00000E+00
 -1      2121 1.07954E+02 2.59007E+01 0.00000E+00
 -1      2122 1.07918E+02 2.67735E+01 0.00000E+00
 -1      2123 1.07566E+02 2.38557E+01 0.00000E+00
 -1      2124 1.07805E+02 2.47291E+01 0.00000E+00
 -1      2125 1.08130E+02 2.31507E+01 0.00000E+00
 -1      2126 1.05736E+02 2.04644E+01 0.00000E+00
 -1      2127 1.06346E+02 2.11170E+01 0.00000E+00
 -1      2128 1.04366E+02 1.92985E+01 0.00000E+00
 -1      2129 1.05014E+02 1.98381E+01 0.00000E+00
 -1      2130 3.89700E+00 3.74688E+01 0.00000E+00
 -1      2131 3.89700E+00 3.89437E+01 0.00000E+00
 -1      2132 5.19600E+00 3.96813E+01 0.00000E+00
 -1      2133 5.19600E+00 3.67438E+01 0.00000E+00
 -1      2134 1.01020E+02 1.75987E+01 0.00000E+00
 -1      2135 1.01892E+02 1.78806E+01 0.00000E+00
 -1      2136 9.89426E+01 1.73534E+01 0.00000E+00
 -1      2137 9.98740E+01 1.73173E+01 0.00000E+00
 -1      2138 9.71499E+01 1.75863E+01 0.00000E+00
 -1      2139 9.80462E+01 1.74699E+01 0.00000E+00
 -1      2140 9.84803E+01 1.66367E+01 0.00000E+00
 -1      2141 9.51213E+01 1.83239E+01 0.00000E+00
 -1      2142 9.59619E+01 1.79221E+01 0.00000E+00
 -1      2143 9.34681E+01 1.93920E+01 0.00000E+00
 -1      2144 9.42124E+01 1.88596E+01 0.00000E+00
 -1      2145 9.20377E+01 2.06625E+01 0.00000E+00
 -1      2146 9.27529E+01 2.00273E+01 0.00000E+00
 -1      2147 9.26749E+01 1.91317E+01 0.00000E+00
 -1      2148 9.09655E+01 2.26314E+01 0.00000E+00
 -1      2149 9.13027E+01 2.17513E+01 0.00000E+00
 -1      2150 9.04697E+01 2.43900E+01 0.00000E+00
 -1      2151 9.07012E+01 2.35595E+01 0.00000E+00
 -1      2152 9.00722E+01 2.62486E+01 0.00000E+00
 -1      2153 9.01629E+01 2.53506E+01 0.00000E+00
 -1      2154 9.03154E+01 2.82556E+01 0.00000E+00
 -1      2155 9.01313E+01 2.73743E+01 0.00000E+00
 -1      2156 9.09463E+01 3.00145E+01 0.00000E+00
 -1      2157 9.06574E+01 2.91808E+01 0.00000E+00
 -1      2158 9.19193E+01 3.17341E+01 0.00000E+00
 -1      2159 9.13884E+01 3.10237E+01 0.00000E+00
 -1      2160 9.32505E+01 3.30291E+01 0.00000E+00
 -1      2161 9.26411E+01 3.23925E+01 0.00000E+00
 -1      2162 9.48073E+01 3.41967E+01 0.00000E+00
 -1      2163 9.40459E+01 3.36919E+01 0.00000E+00
 -1      2164 9.66863E+01 3.48918E+01 0.00000E+00
 -1      2165 9.58190E+01 3.46839E+01 0.00000E+00
 -1      2166 9.84218E+01 3.52433E+01 0.00000E+00
 -1      2167 9.75541E+01 3.50675E+01 0.00000E+00
 -1      2168 9.69596E+01 3.56346E+01 0.00000E+00
 -1      2169 1.00470E+02 3.51778E+01 0.00000E+00
 -1      2170 9.96008E+01 3.53495E+01 0.00000E+00
 -1      2171 1.02078E+02 3.46515E+01 0.00000E+00
 -1      2172 1.01274E+02 3.49147E+01 0.00000E+00
 -1      2173 1.00989E+02 3.57596E+01 0.00000E+00
 -1      2174 1.03833E+02 3.38042E+01 0.00000E+00
 -1      2175 1.03096E+02 3.42286E+01 0.00000E+00
 -1      2176 1.05279E+02 3.26906E+01 0.00000E+00
 -1      2177 1.04575E+02 3.32152E+01 0.00000E+00
 -1      2178 1.06647E+02 3.12167E+01 0.00000E+00
 -1      2179 1.06204E+02 3.19684E+01 0.00000E+00
 -1      2180 1.07332E+02 2.96600E+01 0.00000E+00
 -1      2181 1.06990E+02 3.04383E+01 0.00000E+00
 -1      2182 1.07506E+02 3.12498E+01 0.00000E+00
 -1      2183 1.07755E+02 2.77400E+01 0.00000E+00
 -1      2184 1.07578E+02 2.85743E+01 0.00000E+00
 -1      2185 1.02882E+02 1.82328E+01 0.00000E+00
 -1      2186 1.03624E+02 1.86732E+01 0.00000E+00
 -1      2187 1.04390E+02 1.84128E+01 0.00000E+00
 -1      2188 6.42300E+00 4.57510E+01 0.00000E+00
 -1      2189 1.02658E+02 1.74353E+01 0.00000E+00
 -1      2190 7.17300E+00 4.44520E+01 0.00000E+00
 -1      2191 1.08518E+02 2.51957E+01 0.00000E+00
 -1      2192 1.07234E+02 2.12841E+01 0.00000E+00
 -1      2193 1.45665E+02 4.31193E+01 0.00000E+00
 -1      2194 1.08505E+02 2.73337E+01 0.00000E+00
 -1      2195 1.05854E+02 1.96645E+01 0.00000E+00
 -1      2196 1.08095E+02 2.93858E+01 0.00000E+00
 -1      2197 1.06239E+02 3.27504E+01 0.00000E+00
 -1      2198 1.02812E+02 3.50735E+01 0.00000E+00
 -1      2199 9.90063E+01 3.59166E+01 0.00000E+00
 -1      2200 9.50802E+01 3.49716E+01 0.00000E+00
 -1      2201 9.32730E+01 3.38217E+01 0.00000E+00
 -1      2202 9.17558E+01 3.25005E+01 0.00000E+00
 -1      2203 9.05920E+01 3.08329E+01 0.00000E+00
 -1      2204 8.98079E+01 2.88983E+01 0.00000E+00
 -1      2205 8.94068E+01 2.68475E+01 0.00000E+00
 -1      2206 8.96544E+01 2.47613E+01 0.00000E+00
 -1      2207 9.12248E+01 2.08558E+01 0.00000E+00
 -1      2208 9.11468E+01 1.99602E+01 0.00000E+00
 -1      2209 9.04118E+01 2.10490E+01 0.00000E+00
 -1      2210 9.63959E+01 1.70890E+01 0.00000E+00
 -1      2211 1.00522E+02 1.68017E+01 0.00000E+00
 -1      2212 9.42991E+01 1.79606E+01 0.00000E+00
 -1      2213 9.02255E+01 2.28726E+01 0.00000E+00
 -1      2214 1.04572E+02 3.40615E+01 0.00000E+00
 -1      2215 1.07850E+01 5.30525E+00 0.00000E+00
 -1      2216 9.28500E+00 5.30525E+00 0.00000E+00
 -1      2217 6.49500E+00 3.01125E+01 0.00000E+00
 -1      2218 6.49500E+00 3.15875E+01 0.00000E+00
 -1      2219 6.49500E+00 3.30625E+01 0.00000E+00
 -1      2220 6.49500E+00 3.45375E+01 0.00000E+00
 -1      2221 7.79400E+00 3.23250E+01 0.00000E+00
 -1      2222 6.49500E+00 2.42125E+01 0.00000E+00
 -1      2223 6.49500E+00 2.56875E+01 0.00000E+00
 -1      2224 6.49500E+00 2.12625E+01 0.00000E+00
 -1      2225 6.49500E+00 2.27375E+01 0.00000E+00
 -1      2226 7.79400E+00 2.34750E+01 0.00000E+00
 -1      2227 6.49500E+00 1.83625E+01 0.00000E+00
 -1      2228 6.49500E+00 1.98125E+01 0.00000E+00
 -1      2229 7.79400E+00 2.05500E+01 0.00000E+00
 -1      2230 6.49500E+00 1.54125E+01 0.00000E+00
 -1      2231 6.49500E+00 1.68875E+01 0.00000E+00
 -1      2232 7.79400E+00 1.76250E+01 0.00000E+00
 -1      2233 6.49500E+00 1.24625E+01 0.00000E+00
 -1      2234 6.49500E+00 1.39375E+01 0.00000E+00
 -1      2235 7.79400E+00 1.46750E+01 0.00000E+00
 -1      2236 6.49500E+00 9.51250E+00 0.00000E+00
 -1      2237 6.49500E+00 1.09875E+01 0.00000E+00
 -1      2238 7.79400E+00 1.17250E+01 0.00000E+00
 -1      2239 1.37850E+01 5.30525E+00 0.00000E+00
 -1      2240 1.22850E+01 5.30525E+00 0.00000E+00
 -1      2241 1.15350E+01 6.60425E+00 0.00000E+00
 -1      2242 9.90000E+00 4.35050E+01 0.00000E+00
 -1      2243 1.14000E+01 4.35050E+01 0.00000E+00
 -1      2244 1.02394E+02 1.66091E+01 0.00000E+00
 -1      2245 1.03384E+02 1.69613E+01 0.00000E+00
 -1      2246 1.29000E+01 4.35050E+01 0.00000E+00
 -1      2247 1.44000E+01 4.35050E+01 0.00000E+00
 -1      2248 1.21500E+01 4.22060E+01 0.00000E+00
 -1      2249 1.59000E+01 4.35050E+01 0.00000E+00
 -1      2250 1.74000E+01 4.35050E+01 0.00000E+00
 -1      2251 1.51500E+01 4.22060E+01 0.00000E+00
 -1      2252 1.89000E+01 4.35050E+01 0.00000E+00
 -1      2253 2.04000E+01 4.35050E+01 0.00000E+00
 -1      2254 1.81500E+01 4.22060E+01 0.00000E+00
 -1      2255 2.19000E+01 4.35050E+01 0.00000E+00
 -1      2256 2.34000E+01 4.35050E+01 0.00000E+00
 -1      2257 2.11500E+01 4.22060E+01 0.00000E+00
 -1      2258 2.49000E+01 4.35050E+01 0.00000E+00
 -1      2259 2.64000E+01 4.35050E+01 0.00000E+00
 -1      2260 2.41500E+01 4.22060E+01 0.00000E+00
 -1      2261 2.79000E+01 4.35050E+01 0.00000E+00
 -1      2262 2.94000E+01 4.35050E+01 0.00000E+00
 -1      2263 2.71500E+01 4.22060E+01 0.00000E+00
 -1      2264 3.09000E+01 4.35050E+01 0.00000E+00
 -1      2265 3.24000E+01 4.35050E+01 0.00000E+00
 -1      2266 3.01500E+01 4.22060E+01 0.00000E+00
 -1      2267 3.39000E+01 4.35050E+01 0.00000E+00
 -1      2268 3.54000E+01 4.35050E+01 0.00000E+00
 -1      2269 3.31500E+01 4.22060E+01 0.00000E+00
 -1      2270 3.69000E+01 4.35050E+01 0.00000E+00
 -1      2271 3.84000E+01 4.35050E+01 0.00000E+00
 -1      2272 3.61500E+01 4.22060E+01 0.00000E+00
 -1      2273 3.99000E+01 4.35050E+01 0.00000E+00
 -1      2274 4.14000E+01 4.35050E+01 0.00000E+00
 -1      2275 3.91500E+01 4.22060E+01 0.00000E+00
 -1      2276 4.29000E+01 4.35050E+01 0.00000E+00
 -1      2277 4.44000E+01 4.35050E+01 0.00000E+00
 -1      2278 4.21500E+01 4.22060E+01 0.00000E+00
 -1      2279 4.59000E+01 4.35050E+01 0.00000E+00
 -1      2280 4.74000E+01 4.35050E+01 0.00000E+00
 -1      2281 4.51500E+01 4.22060E+01 0.00000E+00
 -1      2282 4.89000E+01 4.35050E+01 0.00000E+00
 -1      2283 5.04000E+01 4.35050E+01 0.00000E+00
 -1      2284 4.81500E+01 4.22060E+01 0.00000E+00
 -1      2285 5.19000E+01 4.35050E+01 0.00000E+00
 -1      2286 5.34000E+01 4.35050E+01 0.00000E+00
 -1      2287 5.11500E+01 4.22060E+01 0.00000E+00
 -1      2288 5.49000E+01 4.35050E+01 0.00000E+00
 -1      2289 5.64000E+01 4.35050E+01 0.00000E+00
 -1      2290 5.41500E+01 4.22060E+01 0.00000E+00
 -1      2291 5.79000E+01 4.35050E+01 0.00000E+00
 -1      2292 5.94000E+01 4.35050E+01 0.00000E+00
 -1      2293 5.71500E+01 4.22060E+01 0.00000E+00
 -1      2294 6.09000E+01 4.35050E+01 0.00000E+00
 -1      2295 6.24000E+01 4.35050E+01 0.00000E+00
 -1      2296 6.01500E+01 4.22060E+01 0.00000E+00
 -1      2297 6.39000E+01 4.35050E+01 0.00000E+00
 -1      2298 6.54000E+01 4.35050E+01 0.00000E+00
 -1      2299 6.31500E+01 4.22060E+01 0.00000E+00
 -1      2300 6.69000E+01 4.35050E+01 0.00000E+00
 -1      2301 6.84000E+01 4.35050E+01 0.00000E+00
 -1      2302 6.61500E+01 4.22060E+01 0.00000E+00
 -1      2303 6.99000E+01 4.35050E+01 0.00000E+00
 -1      2304 7.14000E+01 4.35050E+01 0.00000E+00
 -1      2305 6.91500E+01 4.22060E+01 0.00000E+00
 -1      2306 7.29000E+01 4.35050E+01 0.00000E+00
 -1      2307 7.44000E+01 4.35050E+01 0.00000E+00
 -1      2308 7.21500E+01 4.22060E+01 0.00000E+00
 -1      2309 7.59000E+01 4.35050E+01 0.00000E+00
 -1      2310 7.74000E+01 4.35050E+01 0.00000E+00
 -1      2311 7.51500E+01 4.22060E+01 0.00000E+00
 -1      2312 7.89000E+01 4.35050E+01 0.00000E+00
 -1      2313 8.04000E+01 4.35050E+01 0.00000E+00
 -1      2314 7.81500E+01 4.22060E+01 0.00000E+00
 -1      2315 8.19000E+01 4.35050E+01 0.00000E+00
 -1      2316 8.34000E+01 4.35050E+01 0.00000E+00
 -1      2317 8.11500E+01 4.22060E+01 0.00000E+00
 -1      2318 8.49000E+01 4.35050E+01 0.00000E+00
 -1      2319 8.64000E+01 4.35050E+01 0.00000E+00
 -1      2320 8.41500E+01 4.22060E+01 0.00000E+00
 -1      2321 8.79000E+01 4.35050E+01 0.00000E+00
 -1      2322 8.94000E+01 4.35050E+01 0.00000E+00
 -1      2323 8.71500E+01 4.22060E+01 0.00000E+00
 -1      2324 9.09000E+01 4.35050E+01 0.00000E+00
 -1      2325 9.24000E+01 4.35050E+01 0.00000E+00
 -1      2326 9.01500E+01 4.22060E+01 0.00000E+00
 -1      2327 9.39000E+01 4.35050E+01 0.00000E+00
 -1      2328 9.54000E+01 4.35050E+01 0.00000E+00
 -1      2329 9.31500E+01 4.22060E+01 0.00000E+00
 -1      2330 9.69000E+01 4.35050E+01 0.00000E+00
 -1      2331 9.84000E+01 4.35050E+01 0.00000E+00
 -1      2332 9.61500E+01 4.22060E+01 0.00000E+00
 -1      2333 9.99000E+01 4.35050E+01 0.00000E+00
 -1      2334 1.01400E+02 4.35050E+01 0.00000E+00
 -1      2335 9.91500E+01 4.22060E+01 0.00000E+00
 -1      2336 1.02900E+02 4.35050E+01 0.00000E+00
 -1      2337 1.04400E+02 4.35050E+01 0.00000E+00
 -1      2338 1.02150E+02 4.22060E+01 0.00000E+00
 -1      2339 1.05900E+02 4.35050E+01 0.00000E+00
 -1      2340 1.07400E+02 4.35050E+01 0.00000E+00
 -1      2341 1.05150E+02 4.22060E+01 0.00000E+00
 -1      2342 1.08900E+02 4.35050E+01 0.00000E+00
 -1      2343 1.10400E+02 4.35050E+01 0.00000E+00
 -1      2344 1.08150E+02 4.22060E+01 0.00000E+00
 -1      2345 1.11900E+02 4.35050E+01 0.00000E+00
 -1      2346 1.13400E+02 4.35050E+01 0.00000E+00
 -1      2347 1.11150E+02 4.22060E+01 0.00000E+00
 -1      2348 1.14900E+02 4.35050E+01 0.00000E+00
 -1      2349 1.16400E+02 4.35050E+01 0.00000E+00
 -1      2350 1.14150E+02 4.22060E+01 0.00000E+00
 -1      2351 1.17900E+02 4.35050E+01 0.00000E+00
 -1      2352 1.19400E+02 4.35050E+01 0.00000E+00
 -1      2353 1.17150E+02 4.22060E+01 0.00000E+00
 -1      2354 1.20900E+02 4.35050E+01 0.00000E+00
 -1      2355 1.22400E+02 4.35050E+01 0.00000E+00
 -1      2356 1.20150E+02 4.22060E+01 0.00000E+00
 -1      2357 1.23900E+02 4.35050E+01 0.00000E+00
 -1      2358 1.25400E+02 4.35050E+01 0.00000E+00
 -1      2359 1.23150E+02 4.22060E+01 0.00000E+00
 -1      2360 1.26900E+02 4.35050E+01 0.00000E+00
 -1      2361 1.28400E+02 4.35050E+01 0.00000E+00
 -1      2362 1.26150E+02 4.22060E+01 0.00000E+00
 -1      2363 1.29900E+02 4.35050E+01 0.00000E+00
 -1      2364 1.31400E+02 4.35050E+01 0.00000E+00
 -1      2365 1.29150E+02 4.22060E+01 0.00000E+00
 -1      2366 1.32900E+02 4.35050E+01 0.00000E+00
 -1      2367 1.34400E+02 4.35050E+01 0.00000E+00
 -1      2368 1.32150E+02 4.22060E+01 0.00000E+00
 -1      2369 1.35900E+02 4.35050E+01 0.00000E+00
 -1      2370 1.37400E+02 4.35050E+01 0.00000E+00
 -1      2371 1.35150E+02 4.22060E+01 0.00000E+00
 -1      2372 1.38900E+02 4.35050E+01 0.00000E+00
 -1      2373 1.40400E+02 4.35050E+01 0.00000E+00
 -1      2374 1.38150E+02 4.22060E+01 0.00000E+00
 -1      2375 1.08999E+02 2.24438E+01 0.00000E+00
 -1      2376 1.09238E+02 2.33172E+01 0.00000E+00
 -1      2377 1.97850E+01 5.30525E+00 0.00000E+00
 -1      2378 1.82850E+01 5.30525E+00 0.00000E+00
 -1      2379 2.27850E+01 5.30525E+00 0.00000E+00
 -1      2380 2.12850E+01 5.30525E+00 0.00000E+00
 -1      2381 2.05350E+01 6.60425E+00 0.00000E+00
 -1      2382 2.57850E+01 5.30525E+00 0.00000E+00
 -1      2383 2.42850E+01 5.30525E+00 0.00000E+00
 -1      2384 2.35350E+01 6.60425E+00 0.00000E+00
 -1      2385 2.87850E+01 5.30525E+00 0.00000E+00
 -1      2386 2.72850E+01 5.30525E+00 0.00000E+00
 -1      2387 2.65350E+01 6.60425E+00 0.00000E+00
 -1      2388 3.17850E+01 5.30525E+00 0.00000E+00
 -1      2389 3.02850E+01 5.30525E+00 0.00000E+00
 -1      2390 2.95350E+01 6.60425E+00 0.00000E+00
 -1      2391 3.47850E+01 5.30525E+00 0.00000E+00
 -1      2392 3.32850E+01 5.30525E+00 0.00000E+00
 -1      2393 3.25350E+01 6.60425E+00 0.00000E+00
 -1      2394 3.77850E+01 5.30525E+00 0.00000E+00
 -1      2395 3.62850E+01 5.30525E+00 0.00000E+00
 -1      2396 3.55350E+01 6.60425E+00 0.00000E+00
 -1      2397 4.07850E+01 5.30525E+00 0.00000E+00
 -1      2398 3.92850E+01 5.30525E+00 0.00000E+00
 -1      2399 3.85350E+01 6.60425E+00 0.00000E+00
 -1      2400 4.37850E+01 5.30525E+00 0.00000E+00
 -1      2401 4.22850E+01 5.30525E+00 0.00000E+00
 -1      2402 4.15350E+01 6.60425E+00 0.00000E+00
 -1      2403 4.67850E+01 5.30525E+00 0.00000E+00
 -1      2404 4.52850E+01 5.30525E+00 0.00000E+00
 -1      2405 4.45350E+01 6.60425E+00 0.00000E+00
 -1      2406 4.97850E+01 5.30525E+00 0.00000E+00
 -1      2407 4.82850E+01 5.30525E+00 0.00000E+00
 -1      2408 4.75350E+01 6.60425E+00 0.00000E+00
 -1      2409 5.27850E+01 5.30525E+00 0.00000E+00
 -1      2410 5.12850E+01 5.30525E+00 0.00000E+00
 -1      2411 5.05350E+01 6.60425E+00 0.00000E+00
 -1      2412 5.57850E+01 5.30525E+00 0.00000E+00
 -1      2413 5.42850E+01 5.30525E+00 0.00000E+00
 -1      2414 5.35350E+01 6.60425E+00 0.00000E+00
 -1      2415 5.87850E+01 5.30525E+00 0.00000E+00
 -1      2416 5.72850E+01 5.30525E+00 0.00000E+00
 -1      2417 5.65350E+01 6.60425E+00 0.00000E+00
 -1      2418 6.17850E+01 5.30525E+00 0.00000E+00
 -1      2419 6.02850E+01 5.30525E+00 0.00000E+00
 -1      2420 5.95350E+01 6.60425E+00 0.00000E+00
 -1      2421 6.47850E+01 5.30525E+00 0.00000E+00
 -1      2422 6.32850E+01 5.30525E+00 0.00000E+00
 -1      2423 6.25350E+01 6.60425E+00 0.00000E+00
 -1      2424 6.77850E+01 5.30525E+00 0.00000E+00
 -1      2425 6.62850E+01 5.30525E+00 0.00000E+00
 -1      2426 6.55350E+01 6.60425E+00 0.00000E+00
 -1      2427 7.07850E+01 5.30525E+00 0.00000E+00
 -1      2428 6.92850E+01 5.30525E+00 0.00000E+00
 -1      2429 6.85350E+01 6.60425E+00 0.00000E+00
 -1      2430 7.37850E+01 5.30525E+00 0.00000E+00
 -1      2431 7.22850E+01 5.30525E+00 0.00000E+00
 -1      2432 7.15350E+01 6.60425E+00 0.00000E+00
 -1      2433 7.67850E+01 5.30525E+00 0.00000E+00
 -1      2434 7.52850E+01 5.30525E+00 0.00000E+00
 -1      2435 7.45350E+01 6.60425E+00 0.00000E+00
 -1      2436 7.97850E+01 5.30525E+00 0.00000E+00
 -1      2437 7.82850E+01 5.30525E+00 0.00000E+00
 -1      2438 7.75350E+01 6.60425E+00 0.00000E+00
 -1      2439 8.27850E+01 5.30525E+00 0.00000E+00
 -1      2440 8.12850E+01 5.30525E+00 0.00000E+00
 -1      2441 8.05350E+01 6.60425E+00 0.00000E+00
 -1      2442 8.57850E+01 5.30525E+00 0.00000E+00
 -1      2443 8.42850E+01 5.30525E+00 0.00000E+00
 -1      2444 8.35350E+01 6.60425E+00 0.00000E+00
 -1      2445 8.87850E+01 5.30525E+00 0.00000E+00
 -1      2446 8.72850E+01 5.30525E+00 0.00000E+00
 -1      2447 8.65350E+01 6.60425E+00 0.00000E+00
 -1      2448 9.17850E+01 5.30525E+00 0.00000E+00
 -1      2449 9.02850E+01 5.30525E+00 0.00000E+00
 -1      2450 8.95350E+01 6.60425E+00 0.00000E+00
 -1      2451 9.47850E+01 5.30525E+00 0.00000E+00
 -1      2452 9.32850E+01 5.30525E+00 0.00000E+00
 -1      2453 9.25350E+01 6.60425E+00 0.00000E+00
 -1      2454 9.77850E+01 5.30525E+00 0.00000E+00
 -1      2455 9.62850E+01 5.30525E+00 0.00000E+00
 -1      2456 9.55350E+01 6.60425E+00 0.00000E+00
 -1      2457 1.00785E+02 5.30525E+00 0.00000E+00
 -1      2458 9.92850E+01 5.30525E+00 0.00000E+00
 -1      2459 9.85350E+01 6.60425E+00 0.00000E+00
 -1      2460 1.03785E+02 5.30525E+00 0.00000E+00
 -1      2461 1.02285E+02 5.30525E+00 0.00000E+00
 -1      2462 1.01535E+02 6.60425E+00 0.00000E+00
 -1      2463 1.06785E+02 5.30525E+00 0.00000E+00
 -1      2464 1.05285E+02 5.30525E+00 0.00000E+00
 -1      2465 1.04535E+02 6.60425E+00 0.00000E+00
 -1      2466 1.09785E+02 5.30525E+00 0.00000E+00
 -1      2467 1.08285E+02 5.30525E+00 0.00000E+00
 -1      2468 1.07535E+02 6.60425E+00 0.00000E+00
 -1      2469 1.12785E+02 5.30525E+00 0.00000E+00
 -1      2470 1.11285E+02 5.30525E+00 0.00000E+00
 -1      2471 1.10535E+02 6.60425E+00 0.00000E+00
 -1      2472 1.15785E+02 5.30525E+00 0.00000E+00
 -1      2473 1.14285E+02 5.30525E+00 0.00000E+00
 -1      2474 1.13535E+02 6.60425E+00 0.00000E+00
 -1      2475 1.18785E+02 5.30525E+00 0.00000E+00
 -1      2476 1.17285E+02 5.30525E+00 0.00000E+00
 -1      2477 1.16535E+02 6.60425E+00 0.00000E+00
 -1      2478 1.21785E+02 5.30525E+00 0.00000E+00
 -1      2479 1.20285E+02 5.30525E+00 0.00000E+00
 -1      2480 1.19535E+02 6.60425E+00 0.00000E+00
 -1      2481 1.24785E+02 5.30525E+00 0.00000E+00
 -1      2482 1.23285E+02 5.30525E+00 0.00000E+00
 -1      2483 1.22535E+02 6.60425E+00 0.00000E+00
 -1      2484 1.27785E+02 5.30525E+00 0.00000E+00
 -1      2485 1.26285E+02 5.30525E+00 0.00000E+00
 -1      2486 1.25535E+02 6.60425E+00 0.00000E+00
 -1      2487 1.30785E+02 5.30525E+00 0.00000E+00
 -1      2488 1.29285E+02 5.30525E+00 0.00000E+00
 -1      2489 1.28535E+02 6.60425E+00 0.00000E+00
 -1      2490 1.33785E+02 5.30525E+00 0.00000E+00
 -1      2491 1.32285E+02 5.30525E+00 0.00000E+00
 -1      2492 1.31535E+02 6.60425E+00 0.00000E+00
 -1      2493 1.36785E+02 5.30525E+00 0.00000E+00
 -1      2494 1.35285E+02 5.30525E+00 0.00000E+00
 -1      2495 1.34535E+02 6.60425E+00 0.00000E+00
 -1      2496 1.39785E+02 5.30525E+00 0.00000E+00
 -1      2497 1.38285E+02 5.30525E+00 0.00000E+00
 -1      2498 1.37535E+02 6.60425E+00 0.00000E+00
 -1      2499 1.42785E+02 5.30525E+00 0.00000E+00
 -1      2500 1.41285E+02 5.30525E+00 0.00000E+00
 -1      2501 1.40535E+02 6.60425E+00 0.00000E+00
 -1      2502 1.44336E+02 5.26953E+00 0.00000E+00
 -1      2503 1.43505E+02 1.69125E+01 0.00000E+00
 -1      2504 1.43505E+02 1.54375E+01 0.00000E+00
 -1      2505 1.43505E+02 1.98625E+01 0.00000E+00
 -1      2506 1.43505E+02 1.83875E+01 0.00000E+00
 -1      2507 1.42206E+02 1.76500E+01 0.00000E+00
 -1      2508 1.43505E+02 1.10625E+01 0.00000E+00
 -1      2509 1.43505E+02 9.58750E+00 0.00000E+00
 -1      2510 1.43505E+02 1.39750E+01 0.00000E+00
 -1      2511 1.43505E+02 1.25250E+01 0.00000E+00
 -1      2512 1.42206E+02 1.17875E+01 0.00000E+00
 -1      2513 1.42206E+02 1.47125E+01 0.00000E+00
 -1      2514 1.43505E+02 2.28125E+01 0.00000E+00
 -1      2515 1.43505E+02 2.13375E+01 0.00000E+00
 -1      2516 1.42206E+02 2.06000E+01 0.00000E+00
 -1      2517 1.43505E+02 2.57625E+01 0.00000E+00
 -1      2518 1.43505E+02 2.42875E+01 0.00000E+00
 -1      2519 1.42206E+02 2.35500E+01 0.00000E+00
 -1      2520 1.43505E+02 2.87125E+01 0.00000E+00
 -1      2521 1.43505E+02 2.72375E+01 0.00000E+00
 -1      2522 1.42206E+02 2.65000E+01 0.00000E+00
 -1      2523 1.43505E+02 3.16125E+01 0.00000E+00
 -1      2524 1.43505E+02 3.01625E+01 0.00000E+00
 -1      2525 1.42206E+02 2.94250E+01 0.00000E+00
 -1      2526 1.43505E+02 3.45625E+01 0.00000E+00
 -1      2527 1.43505E+02 3.30875E+01 0.00000E+00
 -1      2528 1.42206E+02 3.23500E+01 0.00000E+00
 -1      2529 1.43505E+02 3.75125E+01 0.00000E+00
 -1      2530 1.43505E+02 3.60375E+01 0.00000E+00
 -1      2531 1.42206E+02 3.53000E+01 0.00000E+00
 -1      2532 1.43505E+02 4.04625E+01 0.00000E+00
 -1      2533 1.43505E+02 3.89875E+01 0.00000E+00
 -1      2534 1.42206E+02 3.82500E+01 0.00000E+00
 -1      2535 1.44321E+02 4.30606E+01 0.00000E+00
 -1      2536 1.09432E+02 2.69929E+01 0.00000E+00
 -1      2537 1.09269E+02 2.79593E+01 0.00000E+00
 -1      2538 1.67850E+01 5.30525E+00 0.00000E+00
 -1      2539 1.52850E+01 5.30525E+00 0.00000E+00
 -1      2540 1.75350E+01 6.60425E+00 0.00000E+00
 -1      2541 1.07759E+02 2.02215E+01 0.00000E+00
 -1      2542 1.08417E+02 2.12147E+01 0.00000E+00
 -1      2543 1.09022E+02 2.90449E+01 0.00000E+00
 -1      2544 1.08776E+02 3.01306E+01 0.00000E+00
 -1      2545 1.09949E+02 2.87041E+01 0.00000E+00
 -1      2546 6.55950E+00 4.28890E+01 0.00000E+00
 -1      2547 8.53650E+00 4.32410E+01 0.00000E+00
 -1      2548 9.28650E+00 4.19420E+01 0.00000E+00
 -1      2549 6.55950E+00 4.14140E+01 0.00000E+00
 -1      2550 1.07229E+02 3.30652E+01 0.00000E+00
 -1      2551 1.06304E+02 3.37874E+01 0.00000E+00
 -1      2552 9.52503E+01 3.59124E+01 0.00000E+00
 -1      2553 9.42386E+01 3.54252E+01 0.00000E+00
 -1      2554 9.55686E+01 1.64317E+01 0.00000E+00
 -1      2555 9.67566E+01 1.60959E+01 0.00000E+00
 -1      2556 6.49500E+00 2.71625E+01 0.00000E+00
 -1      2557 6.49500E+00 2.86375E+01 0.00000E+00
 -1      2558 7.79400E+00 2.93750E+01 0.00000E+00
 -1      2559 7.79400E+00 2.64250E+01 0.00000E+00
 -1      2560 1.00154E+02 1.58282E+01 0.00000E+00
 -1      2561 1.01300E+02 1.61096E+01 0.00000E+00
 -1      2562 9.34091E+01 1.74898E+01 0.00000E+00
 -1      2563 9.43180E+01 1.69540E+01 0.00000E+00
 -1      2564 9.79271E+01 1.58861E+01 0.00000E+00
 -1      2565 9.88234E+01 1.57697E+01 0.00000E+00
 -1      2566 8.92686E+01 2.31018E+01 0.00000E+00
 -1      2567 8.95329E+01 2.21737E+01 0.00000E+00
 -1      2568 9.17478E+01 1.88082E+01 0.00000E+00
 -1      2569 9.24631E+01 1.81729E+01 0.00000E+00
 -1      2570 1.05562E+02 3.43764E+01 0.00000E+00
 -1      2571 1.04820E+02 3.49654E+01 0.00000E+00
 -1      2572 1.06552E+02 3.46912E+01 0.00000E+00
 -1      2573 8.86551E+01 2.50229E+01 0.00000E+00
 -1      2574 8.89618E+01 2.40623E+01 0.00000E+00
 -1      2575 8.82692E+01 2.33634E+01 0.00000E+00
 -1      2576 8.86637E+01 2.74509E+01 0.00000E+00
 -1      2577 8.86046E+01 2.63252E+01 0.00000E+00
 -1      2578 8.91745E+01 2.96583E+01 0.00000E+00
 -1      2579 8.88326E+01 2.87331E+01 0.00000E+00
 -1      2580 9.00587E+01 3.16768E+01 0.00000E+00
 -1      2581 8.96166E+01 3.06676E+01 0.00000E+00
 -1      2582 8.86413E+01 3.05023E+01 0.00000E+00
 -1      2583 9.16235E+01 3.33705E+01 0.00000E+00
 -1      2584 9.09017E+01 3.27121E+01 0.00000E+00
 -1      2585 9.32144E+01 3.46960E+01 0.00000E+00
 -1      2586 9.24189E+01 3.40332E+01 0.00000E+00
 -1      2587 9.15648E+01 3.42447E+01 0.00000E+00
 -1      2588 9.72565E+01 3.63987E+01 0.00000E+00
 -1      2589 9.63888E+01 3.62230E+01 0.00000E+00
 -1      2590 9.95188E+01 3.68238E+01 0.00000E+00
 -1      2591 9.83399E+01 3.67176E+01 0.00000E+00
 -1      2592 1.01684E+02 3.65227E+01 0.00000E+00
 -1      2593 1.00880E+02 3.67858E+01 0.00000E+00
 -1      2594 1.03720E+02 3.56768E+01 0.00000E+00
 -1      2595 1.02702E+02 3.60997E+01 0.00000E+00
 -1      2596 1.02593E+02 3.71259E+01 0.00000E+00
 -1      2597 1.08463E+02 3.12061E+01 0.00000E+00
 -1      2598 1.08120E+02 3.19844E+01 0.00000E+00
 -1      2599 1.06055E+02 1.87035E+01 0.00000E+00
 -1      2600 1.06777E+02 1.93299E+01 0.00000E+00
 -1      2601 1.09387E+02 2.44889E+01 0.00000E+00
 -1      2602 1.09537E+02 2.56605E+01 0.00000E+00
 -1      2603 1.10257E+02 2.37820E+01 0.00000E+00
 -1      2604 8.07525E+00 5.11044E+00 0.00000E+00
 -1      2605 6.57525E+00 5.11044E+00 0.00000E+00
 -1      2606 6.40575E+00 6.01981E+00 0.00000E+00
 -1      2607 8.82525E+00 6.40944E+00 0.00000E+00
 -1      2608 1.04571E+02 1.74529E+01 0.00000E+00
 -1      2609 1.05313E+02 1.80782E+01 0.00000E+00
 -1      2610 1.06236E+02 1.77436E+01 0.00000E+00
 -1      2611 1.02026E+02 1.56356E+01 0.00000E+00
 -1      2612 7.79400E+00 3.52687E+01 0.00000E+00
 -1      2613 6.49500E+00 3.60062E+01 0.00000E+00
 -1      2614 6.49500E+00 3.74750E+01 0.00000E+00
 -1      2615 1.45350E+01 6.60425E+00 0.00000E+00
 -1      2616 6.40575E+00 7.49481E+00 0.00000E+00
 -1      2617 1.04307E+02 1.66267E+01 0.00000E+00
 -1      2618 1.08185E+02 3.30215E+01 0.00000E+00
 -1      2619 1.09525E+02 2.13813E+01 0.00000E+00
 -1      2620 1.43586E+02 6.56853E+00 0.00000E+00
 -1      2621 1.43419E+02 7.72713E+00 0.00000E+00
 -1      2622 1.04711E+02 3.59916E+01 0.00000E+00
 -1      2623 1.42758E+02 4.35929E+01 0.00000E+00
 -1      2624 1.43241E+02 4.17323E+01 0.00000E+00
 -1      2625 1.41942E+02 4.09948E+01 0.00000E+00
 -1      2626 1.41414E+02 4.35342E+01 0.00000E+00
 -1      2627 1.00214E+02 3.75868E+01 0.00000E+00
 -1      2628 1.10301E+02 2.62860E+01 0.00000E+00
 -1      2629 7.70475E+00 8.23231E+00 0.00000E+00
 -1      2630 1.07960E+02 1.92606E+01 0.00000E+00
 -1      2631 9.33845E+01 3.56367E+01 0.00000E+00
 -1      2632 1.09390E+02 3.08652E+01 0.00000E+00
 -1      2633 8.99263E+01 3.25468E+01 0.00000E+00
 -1      2634 8.89510E+01 3.23815E+01 0.00000E+00
 -1      2635 8.97940E+01 3.34167E+01 0.00000E+00
 -1      2636 6.55950E+00 3.99453E+01 0.00000E+00
 -1      2637 9.55472E+01 3.66765E+01 0.00000E+00
 -1      2638 9.09349E+01 1.90014E+01 0.00000E+00
 -1      2639 9.07231E+01 1.80426E+01 0.00000E+00
 -1      2640 9.01220E+01 1.91946E+01 0.00000E+00
 -1      2641 8.79120E+01 2.56263E+01 0.00000E+00
 -1      2642 9.70998E+01 1.52288E+01 0.00000E+00
 -1      2643 9.46787E+01 1.59609E+01 0.00000E+00
 -1      2644 8.94549E+01 2.12781E+01 0.00000E+00
 -1      2645 8.93770E+01 2.03826E+01 0.00000E+00
 -1      2646 8.84980E+01 2.15073E+01 0.00000E+00
 -1      2647 9.24820E+01 1.71663E+01 0.00000E+00
 -1      2648 9.96008E+01 1.50775E+01 0.00000E+00
 -1      2649 8.80303E+01 2.82108E+01 0.00000E+00
 -1      2650 9.77691E+01 3.73059E+01 0.00000E+00
 -1      2651 1.42120E+02 8.46463E+00 0.00000E+00
 -1      2652 1.40664E+02 4.22352E+01 0.00000E+00
 -1      2653 9.09300E+00 1.98250E+01 0.00000E+00
 -1      2654 9.09300E+00 2.12750E+01 0.00000E+00
 -1      2655 9.09300E+00 2.27500E+01 0.00000E+00
 -1      2656 9.09300E+00 2.42250E+01 0.00000E+00
 -1      2657 1.03920E+01 2.20250E+01 0.00000E+00
 -1      2658 9.09300E+00 1.39375E+01 0.00000E+00
 -1      2659 9.09300E+00 1.54125E+01 0.00000E+00
 -1      2660 9.09300E+00 1.09875E+01 0.00000E+00
 -1      2661 9.09300E+00 1.24625E+01 0.00000E+00
 -1      2662 1.03920E+01 1.32000E+01 0.00000E+00
 -1      2663 1.22850E+01 7.90325E+00 0.00000E+00
 -1      2664 1.07850E+01 7.90325E+00 0.00000E+00
 -1      2665 1.08102E+02 1.81176E+01 0.00000E+00
 -1      2666 1.09084E+02 1.90093E+01 0.00000E+00
 -1      2667 1.52850E+01 7.90325E+00 0.00000E+00
 -1      2668 1.37850E+01 7.90325E+00 0.00000E+00
 -1      2669 1.30350E+01 9.20225E+00 0.00000E+00
 -1      2670 1.09357E+02 3.30798E+01 0.00000E+00
 -1      2671 1.08466E+02 3.41606E+01 0.00000E+00
 -1      2672 1.11116E+02 2.30771E+01 0.00000E+00
 -1      2673 1.11265E+02 2.42488E+01 0.00000E+00
 -1      2674 1.01869E+02 1.45295E+01 0.00000E+00
 -1      2675 1.02964E+02 1.50290E+01 0.00000E+00
 -1      2676 8.85168E+00 4.05347E+01 0.00000E+00
 -1      2677 1.02152E+01 4.07987E+01 0.00000E+00
 -1      2678 1.44000E+01 4.09070E+01 0.00000E+00
 -1      2679 1.59000E+01 4.09070E+01 0.00000E+00
 -1      2680 1.74000E+01 4.09070E+01 0.00000E+00
 -1      2681 1.89000E+01 4.09070E+01 0.00000E+00
 -1      2682 1.66500E+01 3.96080E+01 0.00000E+00
 -1      2683 2.04000E+01 4.09070E+01 0.00000E+00
 -1      2684 2.19000E+01 4.09070E+01 0.00000E+00
 -1      2685 1.96500E+01 3.96080E+01 0.00000E+00
 -1      2686 2.34000E+01 4.09070E+01 0.00000E+00
 -1      2687 2.49000E+01 4.09070E+01 0.00000E+00
 -1      2688 2.26500E+01 3.96080E+01 0.00000E+00
 -1      2689 2.64000E+01 4.09070E+01 0.00000E+00
 -1      2690 2.79000E+01 4.09070E+01 0.00000E+00
 -1      2691 2.56500E+01 3.96080E+01 0.00000E+00
 -1      2692 2.94000E+01 4.09070E+01 0.00000E+00
 -1      2693 3.09000E+01 4.09070E+01 0.00000E+00
 -1      2694 2.86500E+01 3.96080E+01 0.00000E+00
 -1      2695 3.24000E+01 4.09070E+01 0.00000E+00
 -1      2696 3.39000E+01 4.09070E+01 0.00000E+00
 -1      2697 3.16500E+01 3.96080E+01 0.00000E+00
 -1      2698 3.54000E+01 4.09070E+01 0.00000E+00
 -1      2699 3.69000E+01 4.09070E+01 0.00000E+00
 -1      2700 3.46500E+01 3.96080E+01 0.00000E+00
 -1      2701 3.84000E+01 4.09070E+01 0.00000E+00
 -1      2702 3.99000E+01 4.09070E+01 0.00000E+00
 -1      2703 3.76500E+01 3.96080E+01 0.00000E+00
 -1      2704 4.14000E+01 4.09070E+01 0.00000E+00
 -1      2705 4.29000E+01 4.09070E+01 0.00000E+00
 -1      2706 4.06500E+01 3.96080E+01 0.00000E+00
 -1      2707 4.44000E+01 4.09070E+01 0.00000E+00
 -1      2708 4.59000E+01 4.09070E+01 0.00000E+00
 -1      2709 4.36500E+01 3.96080E+01 0.00000E+00
 -1      2710 4.74000E+01 4.09070E+01 0.00000E+00
 -1      2711 4.89000E+01 4.09070E+01 0.00000E+00
 -1      2712 4.66500E+01 3.96080E+01 0.00000E+00
 -1      2713 5.04000E+01 4.09070E+01 0.00000E+00
 -1      2714 5.19000E+01 4.09070E+01 0.00000E+00
 -1      2715 4.96500E+01 3.96080E+01 0.00000E+00
 -1      2716 5.34000E+01 4.09070E+01 0.00000E+00
 -1      2717 5.49000E+01 4.09070E+01 0.00000E+00
 -1      2718 5.26500E+01 3.96080E+01 0.00000E+00
 -1      2719 5.64000E+01 4.09070E+01 0.00000E+00
 -1      2720 5.79000E+01 4.09070E+01 0.00000E+00
 -1      2721 5.56500E+01 3.96080E+01 0.00000E+00
 -1      2722 5.94000E+01 4.09070E+01 0.00000E+00
 -1      2723 6.09000E+01 4.09070E+01 0.00000E+00
 -1      2724 5.86500E+01 3.96080E+01 0.00000E+00
 -1      2725 6.24000E+01 4.09070E+01 0.00000E+00
 -1      2726 6.39000E+01 4.09070E+01 0.00000E+00
 -1      2727 6.16500E+01 3.96080E+01 0.00000E+00
 -1      2728 6.54000E+01 4.09070E+01 0.00000E+00
 -1      2729 6.69000E+01 4.09070E+01 0.00000E+00
 -1      2730 6.46500E+01 3.96080E+01 0.00000E+00
 -1      2731 6.84000E+01 4.09070E+01 0.00000E+00
 -1      2732 6.99000E+01 4.09070E+01 0.00000E+00
 -1      2733 6.76500E+01 3.96080E+01 0.00000E+00
 -1      2734 7.14000E+01 4.09070E+01 0.00000E+00
 -1      2735 7.29000E+01 4.09070E+01 0.00000E+00
 -1      2736 7.06500E+01 3.96080E+01 0.00000E+00
 -1      2737 7.44000E+01 4.09070E+01 0.00000E+00
 -1      2738 7.59000E+01 4.09070E+01 0.00000E+00
 -1      2739 7.36500E+01 3.96080E+01 0.00000E+00
 -1      2740 7.74000E+01 4.09070E+01 0.00000E+00
 -1      2741 7.89000E+01 4.09070E+01 0.00000E+00
 -1      2742 7.66500E+01 3.96080E+01 0.00000E+00
 -1      2743 8.04000E+01 4.09070E+01 0.00000E+00
 -1      2744 8.19000E+01 4.09070E+01 0.00000E+00
 -1      2745 7.96500E+01 3.96080E+01 0.00000E+00
 -1      2746 8.34000E+01 4.09070E+01 0.00000E+00
 -1      2747 8.49000E+01 4.09070E+01 0.00000E+00
 -1      2748 8.26500E+01 3.96080E+01 0.00000E+00
 -1      2749 8.64000E+01 4.09070E+01 0.00000E+00
 -1      2750 8.79000E+01 4.09070E+01 0.00000E+00
 -1      2751 8.56500E+01 3.96080E+01 0.00000E+00
 -1      2752 8.94000E+01 4.09070E+01 0.00000E+00
 -1      2753 9.09000E+01 4.09070E+01 0.00000E+00
 -1      2754 8.86500E+01 3.96080E+01 0.00000E+00
 -1      2755 9.24000E+01 4.09070E+01 0.00000E+00
 -1      2756 9.39000E+01 4.09070E+01 0.00000E+00
 -1      2757 9.16500E+01 3.96080E+01 0.00000E+00
 -1      2758 9.84000E+01 4.09070E+01 0.00000E+00
 -1      2759 9.99000E+01 4.09070E+01 0.00000E+00
 -1      2760 1.01112E+02 3.98775E+01 0.00000E+00
 -1      2761 1.02612E+02 3.98775E+01 0.00000E+00
 -1      2762 1.07400E+02 4.09070E+01 0.00000E+00
 -1      2763 1.08900E+02 4.09070E+01 0.00000E+00
 -1      2764 1.10400E+02 4.09070E+01 0.00000E+00
 -1      2765 1.11900E+02 4.09070E+01 0.00000E+00
 -1      2766 1.09650E+02 3.96080E+01 0.00000E+00
 -1      2767 1.13400E+02 4.09070E+01 0.00000E+00
 -1      2768 1.14900E+02 4.09070E+01 0.00000E+00
 -1      2769 1.12650E+02 3.96080E+01 0.00000E+00
 -1      2770 1.16400E+02 4.09070E+01 0.00000E+00
 -1      2771 1.17900E+02 4.09070E+01 0.00000E+00
 -1      2772 1.15650E+02 3.96080E+01 0.00000E+00
 -1      2773 1.19400E+02 4.09070E+01 0.00000E+00
 -1      2774 1.20900E+02 4.09070E+01 0.00000E+00
 -1      2775 1.18650E+02 3.96080E+01 0.00000E+00
 -1      2776 1.22400E+02 4.09070E+01 0.00000E+00
 -1      2777 1.23900E+02 4.09070E+01 0.00000E+00
 -1      2778 1.21650E+02 3.96080E+01 0.00000E+00
 -1      2779 1.25400E+02 4.09070E+01 0.00000E+00
 -1      2780 1.26900E+02 4.09070E+01 0.00000E+00
 -1      2781 1.24650E+02 3.96080E+01 0.00000E+00
 -1      2782 1.28400E+02 4.09070E+01 0.00000E+00
 -1      2783 1.29900E+02 4.09070E+01 0.00000E+00
 -1      2784 1.27650E+02 3.96080E+01 0.00000E+00
 -1      2785 1.31400E+02 4.09070E+01 0.00000E+00
 -1      2786 1.32900E+02 4.09070E+01 0.00000E+00
 -1      2787 1.30650E+02 3.96080E+01 0.00000E+00
 -1      2788 1.34400E+02 4.09070E+01 0.00000E+00
 -1      2789 1.35900E+02 4.09070E+01 0.00000E+00
 -1      2790 1.33650E+02 3.96080E+01 0.00000E+00
 -1      2791 1.37400E+02 4.09070E+01 0.00000E+00
 -1      2792 1.38900E+02 4.09070E+01 0.00000E+00
 -1      2793 1.36650E+02 3.96080E+01 0.00000E+00
 -1      2794 1.05772E+02 3.64263E+01 0.00000E+00
 -1      2795 1.04672E+02 3.71376E+01 0.00000E+00
 -1      2796 2.12850E+01 7.90325E+00 0.00000E+00
 -1      2797 1.97850E+01 7.90325E+00 0.00000E+00
 -1      2798 3.02850E+01 7.90325E+00 0.00000E+00
 -1      2799 2.87850E+01 7.90325E+00 0.00000E+00
 -1      2800 3.32850E+01 7.90325E+00 0.00000E+00
 -1      2801 3.17850E+01 7.90325E+00 0.00000E+00
 -1      2802 3.10350E+01 9.20225E+00 0.00000E+00
 -1      2803 3.62850E+01 7.90325E+00 0.00000E+00
 -1      2804 3.47850E+01 7.90325E+00 0.00000E+00
 -1      2805 3.40350E+01 9.20225E+00 0.00000E+00
 -1      2806 3.92850E+01 7.90325E+00 0.00000E+00
 -1      2807 3.77850E+01 7.90325E+00 0.00000E+00
 -1      2808 3.70350E+01 9.20225E+00 0.00000E+00
 -1      2809 4.22850E+01 7.90325E+00 0.00000E+00
 -1      2810 4.07850E+01 7.90325E+00 0.00000E+00
 -1      2811 4.00350E+01 9.20225E+00 0.00000E+00
 -1      2812 4.52850E+01 7.90325E+00 0.00000E+00
 -1      2813 4.37850E+01 7.90325E+00 0.00000E+00
 -1      2814 4.30350E+01 9.20225E+00 0.00000E+00
 -1      2815 4.82850E+01 7.90325E+00 0.00000E+00
 -1      2816 4.67850E+01 7.90325E+00 0.00000E+00
 -1      2817 4.60350E+01 9.20225E+00 0.00000E+00
 -1      2818 5.12850E+01 7.90325E+00 0.00000E+00
 -1      2819 4.97850E+01 7.90325E+00 0.00000E+00
 -1      2820 4.90350E+01 9.20225E+00 0.00000E+00
 -1      2821 5.42850E+01 7.90325E+00 0.00000E+00
 -1      2822 5.27850E+01 7.90325E+00 0.00000E+00
 -1      2823 5.20350E+01 9.20225E+00 0.00000E+00
 -1      2824 5.72850E+01 7.90325E+00 0.00000E+00
 -1      2825 5.57850E+01 7.90325E+00 0.00000E+00
 -1      2826 5.50350E+01 9.20225E+00 0.00000E+00
 -1      2827 6.02850E+01 7.90325E+00 0.00000E+00
 -1      2828 5.87850E+01 7.90325E+00 0.00000E+00
 -1      2829 5.80350E+01 9.20225E+00 0.00000E+00
 -1      2830 6.32850E+01 7.90325E+00 0.00000E+00
 -1      2831 6.17850E+01 7.90325E+00 0.00000E+00
 -1      2832 6.10350E+01 9.20225E+00 0.00000E+00
 -1      2833 6.62850E+01 7.90325E+00 0.00000E+00
 -1      2834 6.47850E+01 7.90325E+00 0.00000E+00
 -1      2835 6.40350E+01 9.20225E+00 0.00000E+00
 -1      2836 6.92850E+01 7.90325E+00 0.00000E+00
 -1      2837 6.77850E+01 7.90325E+00 0.00000E+00
 -1      2838 6.70350E+01 9.20225E+00 0.00000E+00
 -1      2839 7.22850E+01 7.90325E+00 0.00000E+00
 -1      2840 7.07850E+01 7.90325E+00 0.00000E+00
 -1      2841 7.00350E+01 9.20225E+00 0.00000E+00
 -1      2842 7.52850E+01 7.90325E+00 0.00000E+00
 -1      2843 7.37850E+01 7.90325E+00 0.00000E+00
 -1      2844 7.30350E+01 9.20225E+00 0.00000E+00
 -1      2845 7.82850E+01 7.90325E+00 0.00000E+00
 -1      2846 7.67850E+01 7.90325E+00 0.00000E+00
 -1      2847 7.60350E+01 9.20225E+00 0.00000E+00
 -1      2848 8.12850E+01 7.90325E+00 0.00000E+00
 -1      2849 7.97850E+01 7.90325E+00 0.00000E+00
 -1      2850 7.90350E+01 9.20225E+00 0.00000E+00
 -1      2851 8.42850E+01 7.90325E+00 0.00000E+00
 -1      2852 8.27850E+01 7.90325E+00 0.00000E+00
 -1      2853 8.20350E+01 9.20225E+00 0.00000E+00
 -1      2854 8.72850E+01 7.90325E+00 0.00000E+00
 -1      2855 8.57850E+01 7.90325E+00 0.00000E+00
 -1      2856 8.50350E+01 9.20225E+00 0.00000E+00
 -1      2857 9.02850E+01 7.90325E+00 0.00000E+00
 -1      2858 8.87850E+01 7.90325E+00 0.00000E+00
 -1      2859 8.80350E+01 9.20225E+00 0.00000E+00
 -1      2860 9.32850E+01 7.90325E+00 0.00000E+00
 -1      2861 9.17850E+01 7.90325E+00 0.00000E+00
 -1      2862 9.10350E+01 9.20225E+00 0.00000E+00
 -1      2863 9.62850E+01 7.90325E+00 0.00000E+00
 -1      2864 9.47850E+01 7.90325E+00 0.00000E+00
 -1      2865 9.40350E+01 9.20225E+00 0.00000E+00
 -1      2866 9.92850E+01 7.90325E+00 0.00000E+00
 -1      2867 9.77850E+01 7.90325E+00 0.00000E+00
 -1      2868 9.70350E+01 9.20225E+00 0.00000E+00
 -1      2869 1.02285E+02 7.90325E+00 0.00000E+00
 -1      2870 1.00785E+02 7.90325E+00 0.00000E+00
 -1      2871 1.00035E+02 9.20225E+00 0.00000E+00
 -1      2872 1.05285E+02 7.90325E+00 0.00000E+00
 -1      2873 1.03785E+02 7.90325E+00 0.00000E+00
 -1      2874 1.03035E+02 9.20225E+00 0.00000E+00
 -1      2875 1.08285E+02 7.90325E+00 0.00000E+00
 -1      2876 1.06785E+02 7.90325E+00 0.00000E+00
 -1      2877 1.06035E+02 9.20225E+00 0.00000E+00
 -1      2878 1.11285E+02 7.90325E+00 0.00000E+00
 -1      2879 1.09785E+02 7.90325E+00 0.00000E+00
 -1      2880 1.09035E+02 9.20225E+00 0.00000E+00
 -1      2881 1.14285E+02 7.90325E+00 0.00000E+00
 -1      2882 1.12785E+02 7.90325E+00 0.00000E+00
 -1      2883 1.12035E+02 9.20225E+00 0.00000E+00
 -1      2884 1.17285E+02 7.90325E+00 0.00000E+00
 -1      2885 1.15785E+02 7.90325E+00 0.00000E+00
 -1      2886 1.15035E+02 9.20225E+00 0.00000E+00
 -1      2887 1.20285E+02 7.90325E+00 0.00000E+00
 -1      2888 1.18785E+02 7.90325E+00 0.00000E+00
 -1      2889 1.18035E+02 9.20225E+00 0.00000E+00
 -1      2890 1.23285E+02 7.90325E+00 0.00000E+00
 -1      2891 1.21785E+02 7.90325E+00 0.00000E+00
 -1      2892 1.21035E+02 9.20225E+00 0.00000E+00
 -1      2893 1.26285E+02 7.90325E+00 0.00000E+00
 -1      2894 1.24785E+02 7.90325E+00 0.00000E+00
 -1      2895 1.24035E+02 9.20225E+00 0.00000E+00
 -1      2896 1.29285E+02 7.90325E+00 0.00000E+00
 -1      2897 1.27785E+02 7.90325E+00 0.00000E+00
 -1      2898 1.27035E+02 9.20225E+00 0.00000E+00
 -1      2899 1.32285E+02 7.90325E+00 0.00000E+00
 -1      2900 1.30785E+02 7.90325E+00 0.00000E+00
 -1      2901 1.30035E+02 9.20225E+00 0.00000E+00
 -1      2902 1.35285E+02 7.90325E+00 0.00000E+00
 -1      2903 1.33785E+02 7.90325E+00 0.00000E+00
 -1      2904 1.33035E+02 9.20225E+00 0.00000E+00
 -1      2905 1.38285E+02 7.90325E+00 0.00000E+00
 -1      2906 1.36785E+02 7.90325E+00 0.00000E+00
 -1      2907 1.36035E+02 9.20225E+00 0.00000E+00
 -1      2908 1.40953E+02 8.18394E+00 0.00000E+00
 -1      2909 1.39453E+02 8.18394E+00 0.00000E+00
 -1      2910 1.38703E+02 9.48294E+00 0.00000E+00
 -1      2911 1.41038E+02 1.00443E+01 0.00000E+00
 -1      2912 1.40907E+02 2.42875E+01 0.00000E+00
 -1      2913 1.40907E+02 2.28125E+01 0.00000E+00
 -1      2914 1.39914E+02 4.09362E+01 0.00000E+00
 -1      2915 1.40928E+02 4.09655E+01 0.00000E+00
 -1      2916 1.39164E+02 3.96372E+01 0.00000E+00
 -1      2917 1.40907E+02 1.83875E+01 0.00000E+00
 -1      2918 1.40907E+02 1.69125E+01 0.00000E+00
 -1      2919 1.40907E+02 2.72375E+01 0.00000E+00
 -1      2920 1.40907E+02 2.57625E+01 0.00000E+00
 -1      2921 1.39608E+02 2.50250E+01 0.00000E+00
 -1      2922 1.40907E+02 2.13375E+01 0.00000E+00
 -1      2923 1.40907E+02 1.98625E+01 0.00000E+00
 -1      2924 1.39608E+02 1.91250E+01 0.00000E+00
 -1      2925 1.39608E+02 2.20750E+01 0.00000E+00
 -1      2926 1.10827E+02 2.83325E+01 0.00000E+00
 -1      2927 1.10581E+02 2.94181E+01 0.00000E+00
 -1      2928 1.40907E+02 3.01375E+01 0.00000E+00
 -1      2929 1.40907E+02 2.86875E+01 0.00000E+00
 -1      2930 1.39608E+02 2.79500E+01 0.00000E+00
 -1      2931 1.40907E+02 3.30875E+01 0.00000E+00
 -1      2932 1.40907E+02 3.16125E+01 0.00000E+00
 -1      2933 1.39608E+02 3.08750E+01 0.00000E+00
 -1      2934 1.40907E+02 3.60375E+01 0.00000E+00
 -1      2935 1.40907E+02 3.45625E+01 0.00000E+00
 -1      2936 1.39608E+02 3.38250E+01 0.00000E+00
 -1      2937 1.82850E+01 7.90325E+00 0.00000E+00
 -1      2938 1.67850E+01 7.90325E+00 0.00000E+00
 -1      2939 1.60350E+01 9.20225E+00 0.00000E+00
 -1      2940 1.90350E+01 9.20225E+00 0.00000E+00
 -1      2941 1.10161E+02 2.03279E+01 0.00000E+00
 -1      2942 1.10743E+02 2.15570E+01 0.00000E+00
 -1      2943 7.48818E+00 3.88019E+01 0.00000E+00
 -1      2944 1.10329E+02 3.05556E+01 0.00000E+00
 -1      2945 1.10016E+02 3.16311E+01 0.00000E+00
 -1      2946 1.07256E+02 3.52483E+01 0.00000E+00
 -1      2947 1.06514E+02 3.58373E+01 0.00000E+00
 -1      2948 1.06476E+02 3.69833E+01 0.00000E+00
 -1      2949 9.36906E+01 1.53534E+01 0.00000E+00
 -1      2950 9.49413E+01 1.48311E+01 0.00000E+00
 -1      2951 2.72850E+01 7.90325E+00 0.00000E+00
 -1      2952 2.57850E+01 7.90325E+00 0.00000E+00
 -1      2953 2.80350E+01 9.20225E+00 0.00000E+00
 -1      2954 2.42850E+01 7.90325E+00 0.00000E+00
 -1      2955 2.27850E+01 7.90325E+00 0.00000E+00
 -1      2956 2.50350E+01 9.20225E+00 0.00000E+00
 -1      2957 1.15576E+01 4.08528E+01 0.00000E+00
 -1      2958 1.30576E+01 4.08528E+01 0.00000E+00
 -1      2959 1.38076E+01 3.95538E+01 0.00000E+00
 -1      2960 1.11228E+01 3.94455E+01 0.00000E+00
 -1      2961 8.73788E+01 2.36083E+01 0.00000E+00
 -1      2962 8.76855E+01 2.26477E+01 0.00000E+00
 -1      2963 9.59018E+01 3.76187E+01 0.00000E+00
 -1      2964 9.47633E+01 3.73081E+01 0.00000E+00
 -1      2965 9.09300E+00 1.68813E+01 0.00000E+00
 -1      2966 9.09300E+00 1.83563E+01 0.00000E+00
 -1      2967 1.03920E+01 1.90812E+01 0.00000E+00
 -1      2968 1.03920E+01 1.61437E+01 0.00000E+00
 -1      2969 9.13598E+01 1.66088E+01 0.00000E+00
 -1      2970 9.23059E+01 1.59257E+01 0.00000E+00
 -1      2971 9.09300E+00 3.15875E+01 0.00000E+00
 -1      2972 9.09300E+00 3.30625E+01 0.00000E+00
 -1      2973 9.89732E+01 1.41915E+01 0.00000E+00
 -1      2974 1.00304E+02 1.42501E+01 0.00000E+00
 -1      2975 1.41192E+02 3.96958E+01 0.00000E+00
 -1      2976 8.70984E+01 2.89858E+01 0.00000E+00
 -1      2977 8.69295E+01 2.77036E+01 0.00000E+00
 -1      2978 9.63485E+01 1.44071E+01 0.00000E+00
 -1      2979 9.75189E+01 1.41973E+01 0.00000E+00
 -1      2980 8.70298E+01 2.62442E+01 0.00000E+00
 -1      2981 8.70803E+01 2.49419E+01 0.00000E+00
 -1      2982 9.80686E+01 3.82880E+01 0.00000E+00
 -1      2983 9.69853E+01 3.79692E+01 0.00000E+00
 -1      2984 8.80768E+01 3.13510E+01 0.00000E+00
 -1      2985 8.76347E+01 3.03417E+01 0.00000E+00
 -1      2986 9.14404E+01 3.52028E+01 0.00000E+00
 -1      2987 9.06450E+01 3.45400E+01 0.00000E+00
 -1      2988 1.11376E+02 2.57006E+01 0.00000E+00
 -1      2989 1.11270E+02 2.70330E+01 0.00000E+00
 -1      2990 1.04151E+02 1.55206E+01 0.00000E+00
 -1      2991 1.05337E+02 1.60122E+01 0.00000E+00
 -1      2992 1.03994E+02 1.44145E+01 0.00000E+00
 -1      2993 1.06618E+02 1.68670E+01 0.00000E+00
 -1      2994 1.07360E+02 1.74923E+01 0.00000E+00
 -1      2995 1.08484E+02 1.72410E+01 0.00000E+00
 -1      2996 9.34479E+01 3.66317E+01 0.00000E+00
 -1      2997 9.24236E+01 3.59024E+01 0.00000E+00
 -1      2998 8.91450E+00 8.42712E+00 0.00000E+00
 -1      2999 9.09300E+00 3.45313E+01 0.00000E+00
 -1      3000 9.09300E+00 3.60000E+01 0.00000E+00
 -1      3001 1.03920E+01 3.37938E+01 0.00000E+00
 -1      3002 1.03920E+01 2.49750E+01 0.00000E+00
 -1      3003 9.09300E+00 2.57000E+01 0.00000E+00
 -1      3004 9.09300E+00 2.71750E+01 0.00000E+00
 -1      3005 1.08428E+02 3.53066E+01 0.00000E+00
 -1      3006 1.10443E+02 1.80420E+01 0.00000E+00
 -1      3007 1.10302E+02 1.91849E+01 0.00000E+00
 -1      3008 1.11519E+02 1.93606E+01 0.00000E+00
 -1      3009 1.12235E+02 2.49957E+01 0.00000E+00
 -1      3010 9.15038E+01 3.61977E+01 0.00000E+00
 -1      3011 8.79444E+01 3.22209E+01 0.00000E+00
 -1      3012 8.69379E+01 3.20603E+01 0.00000E+00
 -1      3013 8.78121E+01 3.30908E+01 0.00000E+00
 -1      3014 1.10297E+02 3.27703E+01 0.00000E+00
 -1      3015 1.10578E+02 3.39094E+01 0.00000E+00
 -1      3016 1.11237E+02 3.24607E+01 0.00000E+00
 -1      3017 9.90012E+01 3.86164E+01 0.00000E+00
 -1      3018 9.82174E+01 3.92796E+01 0.00000E+00
 -1      3019 9.25684E+01 1.47959E+01 0.00000E+00
 -1      3020 8.67171E+01 2.19971E+01 0.00000E+00
 -1      3021 8.76075E+01 2.17522E+01 0.00000E+00
 -1      3022 8.75296E+01 2.08566E+01 0.00000E+00
 -1      3023 9.41339E+01 3.89292E+01 0.00000E+00
 -1      3024 9.48839E+01 4.02282E+01 0.00000E+00
 -1      3025 9.74674E+01 4.05786E+01 0.00000E+00
 -1      3026 9.59674E+01 4.05786E+01 0.00000E+00
 -1      3027 1.03183E+02 3.82277E+01 0.00000E+00
 -1      3028 1.04221E+02 4.05563E+01 0.00000E+00
 -1      3029 1.39608E+02 1.61875E+01 0.00000E+00
 -1      3030 1.40907E+02 1.54500E+01 0.00000E+00
 -1      3031 1.40907E+02 1.39875E+01 0.00000E+00
 -1      3032 1.05721E+02 4.05563E+01 0.00000E+00
 -1      3033 1.05262E+02 3.82394E+01 0.00000E+00
 -1      3034 1.04201E+02 3.78048E+01 0.00000E+00
 -1      3035 9.53604E+01 1.37996E+01 0.00000E+00
 -1      3036 8.60979E+01 2.70192E+01 0.00000E+00
 -1      3037 1.00362E+02 3.85785E+01 0.00000E+00
 -1      3038 1.11751E+02 2.20237E+01 0.00000E+00
 -1      3039 2.20350E+01 9.20225E+00 0.00000E+00
 -1      3040 1.11902E+02 2.77470E+01 0.00000E+00
 -1      3041 1.40973E+02 1.27472E+01 0.00000E+00
 -1      3042 1.40973E+02 1.12847E+01 0.00000E+00
 -1      3043 1.39805E+02 1.10040E+01 0.00000E+00
 -1      3044 1.39674E+02 1.34847E+01 0.00000E+00
 -1      3045 9.82219E+01 1.33699E+01 0.00000E+00
 -1      3046 9.05469E+01 1.68020E+01 0.00000E+00
 -1      3047 9.03708E+01 1.55614E+01 0.00000E+00
 -1      3048 8.97340E+01 1.69952E+01 0.00000E+00
 -1      3049 1.41192E+02 3.82207E+01 0.00000E+00
 -1      3050 8.78718E+00 3.80644E+01 0.00000E+00
 -1      3051 8.96696E+01 3.43747E+01 0.00000E+00
 -1      3052 8.86942E+01 3.42094E+01 0.00000E+00
 -1      3053 8.95452E+01 3.53327E+01 0.00000E+00
 -1      3054 1.06471E+02 3.92573E+01 0.00000E+00
 -1      3055 8.91651E+01 1.94238E+01 0.00000E+00
 -1      3056 8.89532E+01 1.84650E+01 0.00000E+00
 -1      3057 8.82082E+01 1.96529E+01 0.00000E+00
 -1      3058 1.11207E+02 3.01841E+01 0.00000E+00
 -1      3059 8.64966E+01 2.42262E+01 0.00000E+00
 -1      3060 1.01242E+02 1.36435E+01 0.00000E+00
 -1      3061 9.62014E+01 3.86008E+01 0.00000E+00
 -1      3062 9.09300E+00 2.86437E+01 0.00000E+00
 -1      3063 9.09300E+00 3.01187E+01 0.00000E+00
 -1      3064 1.03920E+01 3.08563E+01 0.00000E+00
 -1      3065 1.03920E+01 2.79188E+01 0.00000E+00
 -1      3066 9.38024E+01 3.75739E+01 0.00000E+00
 -1      3067 8.65339E+01 2.98345E+01 0.00000E+00
 -1      3068 1.39529E+02 3.85602E+01 0.00000E+00
 -1      3069 1.40542E+02 3.71145E+01 0.00000E+00
 -1      3070 1.39243E+02 3.63770E+01 0.00000E+00
 -1      3071 1.38514E+02 3.85310E+01 0.00000E+00
 -1      3072 9.66450E+00 9.72612E+00 0.00000E+00
 -1      3073 1.09635E+01 1.04636E+01 0.00000E+00
 -1      3074 1.06461E+02 1.57609E+01 0.00000E+00
 -1      3075 1.03793E+02 1.32216E+01 0.00000E+00
 -1      3076 1.04980E+02 1.37132E+01 0.00000E+00
 -1      3077 1.16910E+01 1.24625E+01 0.00000E+00
 -1      3078 1.16910E+01 1.39375E+01 0.00000E+00
 -1      3079 1.12642E+02 2.09993E+01 0.00000E+00
 -1      3080 1.13015E+02 2.25194E+01 0.00000E+00
 -1      3081 9.14845E+01 1.41346E+01 0.00000E+00
 -1      3082 9.28693E+01 1.35623E+01 0.00000E+00
 -1      3083 9.14496E+01 3.73145E+01 0.00000E+00
 -1      3084 9.04664E+01 3.66148E+01 0.00000E+00
 -1      3085 1.08773E+02 1.61444E+01 0.00000E+00
 -1      3086 1.09515E+02 1.67698E+01 0.00000E+00
 -1      3087 9.28185E+01 3.82527E+01 0.00000E+00
 -1      3088 1.89000E+01 3.83090E+01 0.00000E+00
 -1      3089 2.04000E+01 3.83090E+01 0.00000E+00
 -1      3090 2.19000E+01 3.83090E+01 0.00000E+00
 -1      3091 2.34000E+01 3.83090E+01 0.00000E+00
 -1      3092 2.11500E+01 3.70100E+01 0.00000E+00
 -1      3093 2.49000E+01 3.83090E+01 0.00000E+00
 -1      3094 2.64000E+01 3.83090E+01 0.00000E+00
 -1      3095 2.41500E+01 3.70100E+01 0.00000E+00
 -1      3096 2.79000E+01 3.83090E+01 0.00000E+00
 -1      3097 2.94000E+01 3.83090E+01 0.00000E+00
 -1      3098 2.71500E+01 3.70100E+01 0.00000E+00
 -1      3099 3.09000E+01 3.83090E+01 0.00000E+00
 -1      3100 3.24000E+01 3.83090E+01 0.00000E+00
 -1      3101 3.01500E+01 3.70100E+01 0.00000E+00
 -1      3102 3.39000E+01 3.83090E+01 0.00000E+00
 -1      3103 3.54000E+01 3.83090E+01 0.00000E+00
 -1      3104 3.31500E+01 3.70100E+01 0.00000E+00
 -1      3105 3.69000E+01 3.83090E+01 0.00000E+00
 -1      3106 3.84000E+01 3.83090E+01 0.00000E+00
 -1      3107 3.61500E+01 3.70100E+01 0.00000E+00
 -1      3108 3.99000E+01 3.83090E+01 0.00000E+00
 -1      3109 4.14000E+01 3.83090E+01 0.00000E+00
 -1      3110 3.91500E+01 3.70100E+01 0.00000E+00
 -1      3111 4.29000E+01 3.83090E+01 0.00000E+00
 -1      3112 4.44000E+01 3.83090E+01 0.00000E+00
 -1      3113 4.21500E+01 3.70100E+01 0.00000E+00
 -1      3114 4.59000E+01 3.83090E+01 0.00000E+00
 -1      3115 4.74000E+01 3.83090E+01 0.00000E+00
 -1      3116 4.51500E+01 3.70100E+01 0.00000E+00
 -1      3117 4.89000E+01 3.83090E+01 0.00000E+00
 -1      3118 5.04000E+01 3.83090E+01 0.00000E+00
 -1      3119 4.81500E+01 3.70100E+01 0.00000E+00
 -1      3120 5.19000E+01 3.83090E+01 0.00000E+00
 -1      3121 5.34000E+01 3.83090E+01 0.00000E+00
 -1      3122 5.11500E+01 3.70100E+01 0.00000E+00
 -1      3123 5.49000E+01 3.83090E+01 0.00000E+00
 -1      3124 5.64000E+01 3.83090E+01 0.00000E+00
 -1      3125 5.41500E+01 3.70100E+01 0.00000E+00
 -1      3126 5.79000E+01 3.83090E+01 0.00000E+00
 -1      3127 5.94000E+01 3.83090E+01 0.00000E+00
 -1      3128 5.71500E+01 3.70100E+01 0.00000E+00
 -1      3129 6.09000E+01 3.83090E+01 0.00000E+00
 -1      3130 6.24000E+01 3.83090E+01 0.00000E+00
 -1      3131 6.01500E+01 3.70100E+01 0.00000E+00
 -1      3132 6.39000E+01 3.83090E+01 0.00000E+00
 -1      3133 6.54000E+01 3.83090E+01 0.00000E+00
 -1      3134 6.31500E+01 3.70100E+01 0.00000E+00
 -1      3135 6.69000E+01 3.83090E+01 0.00000E+00
 -1      3136 6.84000E+01 3.83090E+01 0.00000E+00
 -1      3137 6.61500E+01 3.70100E+01 0.00000E+00
 -1      3138 6.99000E+01 3.83090E+01 0.00000E+00
 -1      3139 7.14000E+01 3.83090E+01 0.00000E+00
 -1      3140 6.91500E+01 3.70100E+01 0.00000E+00
 -1      3141 7.29000E+01 3.83090E+01 0.00000E+00
 -1      3142 7.44000E+01 3.83090E+01 0.00000E+00
 -1      3143 7.21500E+01 3.70100E+01 0.00000E+00
 -1      3144 7.59000E+01 3.83090E+01 0.00000E+00
 -1      3145 7.74000E+01 3.83090E+01 0.00000E+00
 -1      3146 7.51500E+01 3.70100E+01 0.00000E+00
 -1      3147 7.89000E+01 3.83090E+01 0.00000E+00
 -1      3148 8.04000E+01 3.83090E+01 0.00000E+00
 -1      3149 7.81500E+01 3.70100E+01 0.00000E+00
 -1      3150 8.19000E+01 3.83090E+01 0.00000E+00
 -1      3151 8.34000E+01 3.83090E+01 0.00000E+00
 -1      3152 8.11500E+01 3.70100E+01 0.00000E+00
 -1      3153 8.49000E+01 3.83090E+01 0.00000E+00
 -1      3154 8.64000E+01 3.83090E+01 0.00000E+00
 -1      3155 8.41500E+01 3.70100E+01 0.00000E+00
 -1      3156 9.02811E+01 3.86698E+01 0.00000E+00
 -1      3157 9.17811E+01 3.86698E+01 0.00000E+00
 -1      3158 9.74910E+01 1.24314E+01 0.00000E+00
 -1      3159 9.89453E+01 1.24256E+01 0.00000E+00
 -1      3160 9.43127E+01 1.28696E+01 0.00000E+00
 -1      3161 9.57199E+01 1.24456E+01 0.00000E+00
 -1      3162 1.11900E+02 3.83090E+01 0.00000E+00
 -1      3163 1.13400E+02 3.83090E+01 0.00000E+00
 -1      3164 1.14900E+02 3.83090E+01 0.00000E+00
 -1      3165 1.16400E+02 3.83090E+01 0.00000E+00
 -1      3166 1.14150E+02 3.70100E+01 0.00000E+00
 -1      3167 1.17900E+02 3.83090E+01 0.00000E+00
 -1      3168 1.19400E+02 3.83090E+01 0.00000E+00
 -1      3169 1.17150E+02 3.70100E+01 0.00000E+00
 -1      3170 1.20900E+02 3.83090E+01 0.00000E+00
 -1      3171 1.22400E+02 3.83090E+01 0.00000E+00
 -1      3172 1.20150E+02 3.70100E+01 0.00000E+00
 -1      3173 1.23900E+02 3.83090E+01 0.00000E+00
 -1      3174 1.25400E+02 3.83090E+01 0.00000E+00
 -1      3175 1.23150E+02 3.70100E+01 0.00000E+00
 -1      3176 1.26900E+02 3.83090E+01 0.00000E+00
 -1      3177 1.28400E+02 3.83090E+01 0.00000E+00
 -1      3178 1.26150E+02 3.70100E+01 0.00000E+00
 -1      3179 1.29900E+02 3.83090E+01 0.00000E+00
 -1      3180 1.31400E+02 3.83090E+01 0.00000E+00
 -1      3181 1.29150E+02 3.70100E+01 0.00000E+00
 -1      3182 1.32900E+02 3.83090E+01 0.00000E+00
 -1      3183 1.34400E+02 3.83090E+01 0.00000E+00
 -1      3184 1.32150E+02 3.70100E+01 0.00000E+00
 -1      3185 1.35707E+02 3.84200E+01 0.00000E+00
 -1      3186 1.37207E+02 3.84200E+01 0.00000E+00
 -1      3187 1.37572E+02 3.73430E+01 0.00000E+00
 -1      3188 1.34957E+02 3.71210E+01 0.00000E+00
 -1      3189 3.17850E+01 1.05013E+01 0.00000E+00
 -1      3190 3.02850E+01 1.05013E+01 0.00000E+00
 -1      3191 4.07850E+01 1.05013E+01 0.00000E+00
 -1      3192 3.92850E+01 1.05013E+01 0.00000E+00
 -1      3193 4.37850E+01 1.05013E+01 0.00000E+00
 -1      3194 4.22850E+01 1.05013E+01 0.00000E+00
 -1      3195 4.15350E+01 1.18003E+01 0.00000E+00
 -1      3196 4.67850E+01 1.05013E+01 0.00000E+00
 -1      3197 4.52850E+01 1.05013E+01 0.00000E+00
 -1      3198 4.45350E+01 1.18003E+01 0.00000E+00
 -1      3199 4.97850E+01 1.05013E+01 0.00000E+00
 -1      3200 4.82850E+01 1.05013E+01 0.00000E+00
 -1      3201 4.75350E+01 1.18003E+01 0.00000E+00
 -1      3202 5.27850E+01 1.05013E+01 0.00000E+00
 -1      3203 5.12850E+01 1.05013E+01 0.00000E+00
 -1      3204 5.05350E+01 1.18003E+01 0.00000E+00
 -1      3205 5.57850E+01 1.05013E+01 0.00000E+00
 -1      3206 5.42850E+01 1.05013E+01 0.00000E+00
 -1      3207 5.35350E+01 1.18003E+01 0.00000E+00
 -1      3208 5.87850E+01 1.05013E+01 0.00000E+00
 -1      3209 5.72850E+01 1.05013E+01 0.00000E+00
 -1      3210 5.65350E+01 1.18003E+01 0.00000E+00
 -1      3211 6.17850E+01 1.05013E+01 0.00000E+00
 -1      3212 6.02850E+01 1.05013E+01 0.00000E+00
 -1      3213 5.95350E+01 1.18003E+01 0.00000E+00
 -1      3214 6.47850E+01 1.05013E+01 0.00000E+00
 -1      3215 6.32850E+01 1.05013E+01 0.00000E+00
 -1      3216 6.25350E+01 1.18003E+01 0.00000E+00
 -1      3217 6.77850E+01 1.05013E+01 0.00000E+00
 -1      3218 6.62850E+01 1.05013E+01 0.00000E+00
 -1      3219 6.55350E+01 1.18003E+01 0.00000E+00
 -1      3220 7.07850E+01 1.05013E+01 0.00000E+00
 -1      3221 6.92850E+01 1.05013E+01 0.00000E+00
 -1      3222 6.85350E+01 1.18003E+01 0.00000E+00
 -1      3223 7.37850E+01 1.05013E+01 0.00000E+00
 -1      3224 7.22850E+01 1.05013E+01 0.00000E+00
 -1      3225 7.15350E+01 1.18003E+01 0.00000E+00
 -1      3226 7.67850E+01 1.05013E+01 0.00000E+00
 -1      3227 7.52850E+01 1.05013E+01 0.00000E+00
 -1      3228 7.45350E+01 1.18003E+01 0.00000E+00
 -1      3229 7.97850E+01 1.05013E+01 0.00000E+00
 -1      3230 7.82850E+01 1.05013E+01 0.00000E+00
 -1      3231 7.75350E+01 1.18003E+01 0.00000E+00
 -1      3232 8.27850E+01 1.05013E+01 0.00000E+00
 -1      3233 8.12850E+01 1.05013E+01 0.00000E+00
 -1      3234 8.05350E+01 1.18003E+01 0.00000E+00
 -1      3235 8.57850E+01 1.05013E+01 0.00000E+00
 -1      3236 8.42850E+01 1.05013E+01 0.00000E+00
 -1      3237 8.35350E+01 1.18003E+01 0.00000E+00
 -1      3238 8.87850E+01 1.05013E+01 0.00000E+00
 -1      3239 8.72850E+01 1.05013E+01 0.00000E+00
 -1      3240 8.65350E+01 1.18003E+01 0.00000E+00
 -1      3241 9.21602E+01 1.10517E+01 0.00000E+00
 -1      3242 9.06602E+01 1.10517E+01 0.00000E+00
 -1      3243 9.51036E+01 1.03589E+01 0.00000E+00
 -1      3244 9.36036E+01 1.03589E+01 0.00000E+00
 -1      3245 9.83747E+01 1.03447E+01 0.00000E+00
 -1      3246 9.68747E+01 1.03447E+01 0.00000E+00
 -1      3247 9.98747E+01 1.03447E+01 0.00000E+00
 -1      3248 1.03785E+02 1.03949E+01 0.00000E+00
 -1      3249 1.02285E+02 1.03949E+01 0.00000E+00
 -1      3250 1.06157E+02 1.08613E+01 0.00000E+00
 -1      3251 1.04657E+02 1.08613E+01 0.00000E+00
 -1      3252 1.09785E+02 1.05013E+01 0.00000E+00
 -1      3253 1.08285E+02 1.05013E+01 0.00000E+00
 -1      3254 1.12785E+02 1.05013E+01 0.00000E+00
 -1      3255 1.11285E+02 1.05013E+01 0.00000E+00
 -1      3256 1.10535E+02 1.18003E+01 0.00000E+00
 -1      3257 1.15785E+02 1.05013E+01 0.00000E+00
 -1      3258 1.14285E+02 1.05013E+01 0.00000E+00
 -1      3259 1.13535E+02 1.18003E+01 0.00000E+00
 -1      3260 1.18785E+02 1.05013E+01 0.00000E+00
 -1      3261 1.17285E+02 1.05013E+01 0.00000E+00
 -1      3262 1.16535E+02 1.18003E+01 0.00000E+00
 -1      3263 1.21785E+02 1.05013E+01 0.00000E+00
 -1      3264 1.20285E+02 1.05013E+01 0.00000E+00
 -1      3265 1.19535E+02 1.18003E+01 0.00000E+00
 -1      3266 1.24785E+02 1.05013E+01 0.00000E+00
 -1      3267 1.23285E+02 1.05013E+01 0.00000E+00
 -1      3268 1.22535E+02 1.18003E+01 0.00000E+00
 -1      3269 1.27785E+02 1.05013E+01 0.00000E+00
 -1      3270 1.26285E+02 1.05013E+01 0.00000E+00
 -1      3271 1.25535E+02 1.18003E+01 0.00000E+00
 -1      3272 1.30785E+02 1.05013E+01 0.00000E+00
 -1      3273 1.29285E+02 1.05013E+01 0.00000E+00
 -1      3274 1.28535E+02 1.18003E+01 0.00000E+00
 -1      3275 1.33785E+02 1.05013E+01 0.00000E+00
 -1      3276 1.32285E+02 1.05013E+01 0.00000E+00
 -1      3277 1.31535E+02 1.18003E+01 0.00000E+00
 -1      3278 1.36785E+02 1.05013E+01 0.00000E+00
 -1      3279 1.35285E+02 1.05013E+01 0.00000E+00
 -1      3280 1.34535E+02 1.18003E+01 0.00000E+00
 -1      3281 1.38879E+02 1.08930E+01 0.00000E+00
 -1      3282 1.37711E+02 1.06123E+01 0.00000E+00
 -1      3283 1.36961E+02 1.19113E+01 0.00000E+00
 -1      3284 1.38813E+02 1.21333E+01 0.00000E+00
 -1      3285 1.26488E+01 1.02017E+01 0.00000E+00
 -1      3286 1.20772E+01 1.14631E+01 0.00000E+00
 -1      3287 1.33763E+01 1.22006E+01 0.00000E+00
 -1      3288 1.41488E+01 1.02017E+01 0.00000E+00
 -1      3289 8.51086E+01 2.76843E+01 0.00000E+00
 -1      3290 8.52089E+01 2.62249E+01 0.00000E+00
 -1      3291 1.16910E+01 2.12875E+01 0.00000E+00
 -1      3292 1.16910E+01 2.27625E+01 0.00000E+00
 -1      3293 1.38309E+02 2.57625E+01 0.00000E+00
 -1      3294 1.38309E+02 2.42875E+01 0.00000E+00
 -1      3295 1.38309E+02 3.45625E+01 0.00000E+00
 -1      3296 1.38309E+02 3.30875E+01 0.00000E+00
 -1      3297 1.38309E+02 2.86625E+01 0.00000E+00
 -1      3298 1.38309E+02 2.72125E+01 0.00000E+00
 -1      3299 1.37010E+02 2.64750E+01 0.00000E+00
 -1      3300 2.87850E+01 1.05013E+01 0.00000E+00
 -1      3301 2.72850E+01 1.05013E+01 0.00000E+00
 -1      3302 2.95350E+01 1.18003E+01 0.00000E+00
 -1      3303 1.38309E+02 3.16125E+01 0.00000E+00
 -1      3304 1.38309E+02 3.01375E+01 0.00000E+00
 -1      3305 1.37010E+02 2.94000E+01 0.00000E+00
 -1      3306 1.37010E+02 3.23500E+01 0.00000E+00
 -1      3307 3.77850E+01 1.05013E+01 0.00000E+00
 -1      3308 3.62850E+01 1.05013E+01 0.00000E+00
 -1      3309 3.85350E+01 1.18003E+01 0.00000E+00
 -1      3310 3.47850E+01 1.05013E+01 0.00000E+00
 -1      3311 3.32850E+01 1.05013E+01 0.00000E+00
 -1      3312 3.25350E+01 1.18003E+01 0.00000E+00
 -1      3313 3.55350E+01 1.18003E+01 0.00000E+00
 -1      3314 1.13014E+02 2.74011E+01 0.00000E+00
 -1      3315 1.12571E+02 2.87007E+01 0.00000E+00
 -1      3316 1.59000E+01 3.83090E+01 0.00000E+00
 -1      3317 1.74000E+01 3.83090E+01 0.00000E+00
 -1      3318 1.81500E+01 3.70100E+01 0.00000E+00
 -1      3319 1.09718E+02 3.55253E+01 0.00000E+00
 -1      3320 1.08508E+02 3.66129E+01 0.00000E+00
 -1      3321 2.57850E+01 1.05013E+01 0.00000E+00
 -1      3322 2.42850E+01 1.05013E+01 0.00000E+00
 -1      3323 2.65350E+01 1.18003E+01 0.00000E+00
 -1      3324 2.27850E+01 1.05013E+01 0.00000E+00
 -1      3325 2.12850E+01 1.05013E+01 0.00000E+00
 -1      3326 2.35350E+01 1.18003E+01 0.00000E+00
 -1      3327 1.12320E+02 2.98381E+01 0.00000E+00
 -1      3328 1.12068E+02 3.09756E+01 0.00000E+00
 -1      3329 1.13432E+02 2.94922E+01 0.00000E+00
 -1      3330 1.13118E+02 2.41985E+01 0.00000E+00
 -1      3331 1.13229E+02 2.56503E+01 0.00000E+00
 -1      3332 1.00862E+01 3.73269E+01 0.00000E+00
 -1      3333 1.06390E+02 1.44809E+01 0.00000E+00
 -1      3334 1.07671E+02 1.53357E+01 0.00000E+00
 -1      3335 8.55105E+01 2.47057E+01 0.00000E+00
 -1      3336 8.58089E+01 2.33721E+01 0.00000E+00
 -1      3337 8.58488E+01 3.08895E+01 0.00000E+00
 -1      3338 8.53125E+01 2.95336E+01 0.00000E+00
 -1      3339 1.16910E+01 2.42375E+01 0.00000E+00
 -1      3340 1.16910E+01 2.57125E+01 0.00000E+00
 -1      3341 1.29900E+01 2.35000E+01 0.00000E+00
 -1      3342 1.29900E+01 1.46687E+01 0.00000E+00
 -1      3343 1.16910E+01 1.54063E+01 0.00000E+00
 -1      3344 1.16910E+01 1.68750E+01 0.00000E+00
 -1      3345 1.02921E+02 1.27553E+01 0.00000E+00
 -1      3346 1.03907E+02 1.20540E+01 0.00000E+00
 -1      3347 1.14009E+02 2.31741E+01 0.00000E+00
 -1      3348 1.10733E+02 1.69454E+01 0.00000E+00
 -1      3349 8.45212E+01 2.53709E+01 0.00000E+00
 -1      3350 8.76877E+01 3.40488E+01 0.00000E+00
 -1      3351 8.66811E+01 3.38882E+01 0.00000E+00
 -1      3352 8.75633E+01 3.50069E+01 0.00000E+00
 -1      3353 1.12349E+02 3.21148E+01 0.00000E+00
 -1      3354 1.12630E+02 3.32539E+01 0.00000E+00
 -1      3355 1.13462E+02 3.17688E+01 0.00000E+00
 -1      3356 9.32288E+01 1.22084E+01 0.00000E+00
 -1      3357 8.94910E+01 3.64495E+01 0.00000E+00
 -1      3358 8.57310E+01 2.24766E+01 0.00000E+00
 -1      3359 8.56531E+01 2.15811E+01 0.00000E+00
 -1      3360 8.47449E+01 2.29561E+01 0.00000E+00
 -1      3361 8.73177E+01 1.98978E+01 0.00000E+00
 -1      3362 8.71058E+01 1.89390E+01 0.00000E+00
 -1      3363 8.64273E+01 2.01428E+01 0.00000E+00
 -1      3364 8.79000E+01 3.84991E+01 0.00000E+00
 -1      3365 8.94000E+01 3.84991E+01 0.00000E+00
 -1      3366 1.38309E+02 1.69188E+01 0.00000E+00
 -1      3367 1.38309E+02 1.54563E+01 0.00000E+00
 -1      3368 1.12783E+02 1.98563E+01 0.00000E+00
 -1      3369 1.14046E+02 2.03520E+01 0.00000E+00
 -1      3370 1.12924E+02 1.87134E+01 0.00000E+00
 -1      3371 9.64434E+01 1.15014E+01 0.00000E+00
 -1      3372 1.06942E+02 3.85901E+01 0.00000E+00
 -1      3373 8.99102E+01 1.23507E+01 0.00000E+00
 -1      3374 1.00625E+02 1.15374E+01 0.00000E+00
 -1      3375 1.06907E+02 1.21603E+01 0.00000E+00
 -1      3376 1.56488E+01 1.02017E+01 0.00000E+00
 -1      3377 1.52625E+01 1.12011E+01 0.00000E+00
 -1      3378 1.71488E+01 1.02017E+01 0.00000E+00
 -1      3379 1.38309E+02 1.98687E+01 0.00000E+00
 -1      3380 1.38309E+02 1.83937E+01 0.00000E+00
 -1      3381 1.37010E+02 1.76625E+01 0.00000E+00
 -1      3382 1.16910E+01 1.98188E+01 0.00000E+00
 -1      3383 1.29900E+01 2.05562E+01 0.00000E+00
 -1      3384 1.16910E+01 1.83500E+01 0.00000E+00
 -1      3385 8.78202E+01 1.74535E+01 0.00000E+00
 -1      3386 8.87771E+01 1.72244E+01 0.00000E+00
 -1      3387 8.86010E+01 1.59838E+01 0.00000E+00
 -1      3388 1.14781E+02 2.58068E+01 0.00000E+00
 -1      3389 1.13898E+02 2.66040E+01 0.00000E+00
 -1      3390 1.14567E+02 2.75576E+01 0.00000E+00
 -1      3391 1.38309E+02 2.28156E+01 0.00000E+00
 -1      3392 1.38309E+02 2.13406E+01 0.00000E+00
 -1      3393 1.37010E+02 2.06094E+01 0.00000E+00
 -1      3394 1.37010E+02 2.35531E+01 0.00000E+00
 -1      3395 1.06189E+02 1.32880E+01 0.00000E+00
 -1      3396 1.99669E+01 1.03515E+01 0.00000E+00
 -1      3397 1.84669E+01 1.03515E+01 0.00000E+00
 -1      3398 1.80806E+01 1.13509E+01 0.00000E+00
 -1      3399 2.07169E+01 1.16505E+01 0.00000E+00
 -1      3400 1.45576E+01 3.82548E+01 0.00000E+00
 -1      3401 1.53076E+01 3.69558E+01 0.00000E+00
 -1      3402 1.32152E+01 3.82007E+01 0.00000E+00
 -1      3403 1.08974E+02 3.82198E+01 0.00000E+00
 -1      3404 1.10474E+02 3.82198E+01 0.00000E+00
 -1      3405 1.07684E+02 3.80011E+01 0.00000E+00
 -1      3406 8.95311E+01 3.75609E+01 0.00000E+00
 -1      3407 8.57165E+01 3.17594E+01 0.00000E+00
 -1      3408 8.44950E+01 3.14585E+01 0.00000E+00
 -1      3409 8.55841E+01 3.26293E+01 0.00000E+00
 -1      3410 1.11224E+02 3.69208E+01 0.00000E+00
 -1      3411 1.10861E+02 3.47620E+01 0.00000E+00
 -1      3412 1.10941E+02 3.60682E+01 0.00000E+00
 -1      3413 1.12367E+02 3.61575E+01 0.00000E+00
 -1      3414 1.11801E+02 3.44524E+01 0.00000E+00
 -1      3415 1.14286E+01 3.73811E+01 0.00000E+00
 -1      3416 8.71500E+01 3.72001E+01 0.00000E+00
 -1      3417 1.01356E+02 1.24759E+01 0.00000E+00
 -1      3418 1.16910E+01 3.01219E+01 0.00000E+00
 -1      3419 1.16910E+01 3.15906E+01 0.00000E+00
 -1      3420 1.37758E+02 3.64912E+01 0.00000E+00
 -1      3421 1.38123E+02 3.54142E+01 0.00000E+00
 -1      3422 1.36824E+02 3.46768E+01 0.00000E+00
 -1      3423 1.36451E+02 3.63802E+01 0.00000E+00
 -1      3424 8.37384E+01 2.97944E+01 0.00000E+00
 -1      3425 8.44235E+01 2.87393E+01 0.00000E+00
 -1      3426 8.35345E+01 2.79451E+01 0.00000E+00
 -1      3427 1.08702E+02 1.48645E+01 0.00000E+00
 -1      3428 1.16910E+01 3.30594E+01 0.00000E+00
 -1      3429 1.16910E+01 3.45281E+01 0.00000E+00
 -1      3430 1.29900E+01 3.23250E+01 0.00000E+00
 -1      3431 1.15064E+02 2.22664E+01 0.00000E+00
 -1      3432 1.15167E+02 2.39454E+01 0.00000E+00
 -1      3433 8.34471E+01 2.59472E+01 0.00000E+00
 -1      3434 8.37487E+01 2.44279E+01 0.00000E+00
 -1      3435 8.96093E+01 1.35842E+01 0.00000E+00
 -1      3436 2.34000E+01 3.57110E+01 0.00000E+00
 -1      3437 2.49000E+01 3.57110E+01 0.00000E+00
 -1      3438 2.64000E+01 3.57110E+01 0.00000E+00
 -1      3439 2.79000E+01 3.57110E+01 0.00000E+00
 -1      3440 2.56500E+01 3.44120E+01 0.00000E+00
 -1      3441 2.94000E+01 3.57110E+01 0.00000E+00
 -1      3442 3.09000E+01 3.57110E+01 0.00000E+00
 -1      3443 2.86500E+01 3.44120E+01 0.00000E+00
 -1      3444 3.24000E+01 3.57110E+01 0.00000E+00
 -1      3445 3.39000E+01 3.57110E+01 0.00000E+00
 -1      3446 3.16500E+01 3.44120E+01 0.00000E+00
 -1      3447 3.54000E+01 3.57110E+01 0.00000E+00
 -1      3448 3.69000E+01 3.57110E+01 0.00000E+00
 -1      3449 3.46500E+01 3.44120E+01 0.00000E+00
 -1      3450 3.84000E+01 3.57110E+01 0.00000E+00
 -1      3451 3.99000E+01 3.57110E+01 0.00000E+00
 -1      3452 3.76500E+01 3.44120E+01 0.00000E+00
 -1      3453 4.14000E+01 3.57110E+01 0.00000E+00
 -1      3454 4.29000E+01 3.57110E+01 0.00000E+00
 -1      3455 4.06500E+01 3.44120E+01 0.00000E+00
 -1      3456 4.44000E+01 3.57110E+01 0.00000E+00
 -1      3457 4.59000E+01 3.57110E+01 0.00000E+00
 -1      3458 4.36500E+01 3.44120E+01 0.00000E+00
 -1      3459 4.74000E+01 3.57110E+01 0.00000E+00
 -1      3460 4.89000E+01 3.57110E+01 0.00000E+00
 -1      3461 4.66500E+01 3.44120E+01 0.00000E+00
 -1      3462 5.04000E+01 3.57110E+01 0.00000E+00
 -1      3463 5.19000E+01 3.57110E+01 0.00000E+00
 -1      3464 4.96500E+01 3.44120E+01 0.00000E+00
 -1      3465 5.34000E+01 3.57110E+01 0.00000E+00
 -1      3466 5.49000E+01 3.57110E+01 0.00000E+00
 -1      3467 5.26500E+01 3.44120E+01 0.00000E+00
 -1      3468 5.64000E+01 3.57110E+01 0.00000E+00
 -1      3469 5.79000E+01 3.57110E+01 0.00000E+00
 -1      3470 5.56500E+01 3.44120E+01 0.00000E+00
 -1      3471 5.94000E+01 3.57110E+01 0.00000E+00
 -1      3472 6.09000E+01 3.57110E+01 0.00000E+00
 -1      3473 5.86500E+01 3.44120E+01 0.00000E+00
 -1      3474 6.24000E+01 3.57110E+01 0.00000E+00
 -1      3475 6.39000E+01 3.57110E+01 0.00000E+00
 -1      3476 6.16500E+01 3.44120E+01 0.00000E+00
 -1      3477 6.54000E+01 3.57110E+01 0.00000E+00
 -1      3478 6.69000E+01 3.57110E+01 0.00000E+00
 -1      3479 6.46500E+01 3.44120E+01 0.00000E+00
 -1      3480 6.84000E+01 3.57110E+01 0.00000E+00
 -1      3481 6.99000E+01 3.57110E+01 0.00000E+00
 -1      3482 6.76500E+01 3.44120E+01 0.00000E+00
 -1      3483 7.14000E+01 3.57110E+01 0.00000E+00
 -1      3484 7.29000E+01 3.57110E+01 0.00000E+00
 -1      3485 7.06500E+01 3.44120E+01 0.00000E+00
 -1      3486 7.44000E+01 3.57110E+01 0.00000E+00
 -1      3487 7.59000E+01 3.57110E+01 0.00000E+00
 -1      3488 7.36500E+01 3.44120E+01 0.00000E+00
 -1      3489 7.74000E+01 3.57110E+01 0.00000E+00
 -1      3490 7.89000E+01 3.57110E+01 0.00000E+00
 -1      3491 7.66500E+01 3.44120E+01 0.00000E+00
 -1      3492 8.04000E+01 3.57110E+01 0.00000E+00
 -1      3493 8.19000E+01 3.57110E+01 0.00000E+00
 -1      3494 7.96500E+01 3.44120E+01 0.00000E+00
 -1      3495 8.35063E+01 3.46692E+01 0.00000E+00
 -1      3496 8.50063E+01 3.46692E+01 0.00000E+00
 -1      3497 1.16400E+02 3.57110E+01 0.00000E+00
 -1      3498 1.17900E+02 3.57110E+01 0.00000E+00
 -1      3499 1.19400E+02 3.57110E+01 0.00000E+00
 -1      3500 1.20900E+02 3.57110E+01 0.00000E+00
 -1      3501 1.18650E+02 3.44120E+01 0.00000E+00
 -1      3502 1.22400E+02 3.57110E+01 0.00000E+00
 -1      3503 1.23900E+02 3.57110E+01 0.00000E+00
 -1      3504 1.21650E+02 3.44120E+01 0.00000E+00
 -1      3505 1.25400E+02 3.57110E+01 0.00000E+00
 -1      3506 1.26900E+02 3.57110E+01 0.00000E+00
 -1      3507 1.24650E+02 3.44120E+01 0.00000E+00
 -1      3508 1.28400E+02 3.57110E+01 0.00000E+00
 -1      3509 1.29900E+02 3.57110E+01 0.00000E+00
 -1      3510 1.27650E+02 3.44120E+01 0.00000E+00
 -1      3511 1.31400E+02 3.57110E+01 0.00000E+00
 -1      3512 1.32900E+02 3.57110E+01 0.00000E+00
 -1      3513 1.30650E+02 3.44120E+01 0.00000E+00
 -1      3514 4.52850E+01 1.30992E+01 0.00000E+00
 -1      3515 4.37850E+01 1.30992E+01 0.00000E+00
 -1      3516 4.22850E+01 1.30992E+01 0.00000E+00
 -1      3517 4.07850E+01 1.30992E+01 0.00000E+00
 -1      3518 4.30350E+01 1.43982E+01 0.00000E+00
 -1      3519 5.12850E+01 1.30992E+01 0.00000E+00
 -1      3520 4.97850E+01 1.30992E+01 0.00000E+00
 -1      3521 5.42850E+01 1.30992E+01 0.00000E+00
 -1      3522 5.27850E+01 1.30992E+01 0.00000E+00
 -1      3523 5.20350E+01 1.43982E+01 0.00000E+00
 -1      3524 5.72850E+01 1.30992E+01 0.00000E+00
 -1      3525 5.57850E+01 1.30992E+01 0.00000E+00
 -1      3526 5.50350E+01 1.43982E+01 0.00000E+00
 -1      3527 6.02850E+01 1.30992E+01 0.00000E+00
 -1      3528 5.87850E+01 1.30992E+01 0.00000E+00
 -1      3529 5.80350E+01 1.43982E+01 0.00000E+00
 -1      3530 6.32850E+01 1.30992E+01 0.00000E+00
 -1      3531 6.17850E+01 1.30992E+01 0.00000E+00
 -1      3532 6.10350E+01 1.43982E+01 0.00000E+00
 -1      3533 6.62850E+01 1.30992E+01 0.00000E+00
 -1      3534 6.47850E+01 1.30992E+01 0.00000E+00
 -1      3535 6.40350E+01 1.43982E+01 0.00000E+00
 -1      3536 6.92850E+01 1.30992E+01 0.00000E+00
 -1      3537 6.77850E+01 1.30992E+01 0.00000E+00
 -1      3538 6.70350E+01 1.43982E+01 0.00000E+00
 -1      3539 7.22850E+01 1.30992E+01 0.00000E+00
 -1      3540 7.07850E+01 1.30992E+01 0.00000E+00
 -1      3541 7.00350E+01 1.43982E+01 0.00000E+00
 -1      3542 7.52850E+01 1.30992E+01 0.00000E+00
 -1      3543 7.37850E+01 1.30992E+01 0.00000E+00
 -1      3544 7.30350E+01 1.43982E+01 0.00000E+00
 -1      3545 7.82850E+01 1.30992E+01 0.00000E+00
 -1      3546 7.67850E+01 1.30992E+01 0.00000E+00
 -1      3547 7.60350E+01 1.43982E+01 0.00000E+00
 -1      3548 8.12850E+01 1.30992E+01 0.00000E+00
 -1      3549 7.97850E+01 1.30992E+01 0.00000E+00
 -1      3550 7.90350E+01 1.43982E+01 0.00000E+00
 -1      3551 8.42850E+01 1.30992E+01 0.00000E+00
 -1      3552 8.27850E+01 1.30992E+01 0.00000E+00
 -1      3553 8.20350E+01 1.43982E+01 0.00000E+00
 -1      3554 8.78395E+01 1.40066E+01 0.00000E+00
 -1      3555 8.63395E+01 1.40066E+01 0.00000E+00
 -1      3556 1.20285E+02 1.30992E+01 0.00000E+00
 -1      3557 1.18785E+02 1.30992E+01 0.00000E+00
 -1      3558 1.23285E+02 1.30992E+01 0.00000E+00
 -1      3559 1.21785E+02 1.30992E+01 0.00000E+00
 -1      3560 1.21035E+02 1.43982E+01 0.00000E+00
 -1      3561 1.26285E+02 1.30992E+01 0.00000E+00
 -1      3562 1.24785E+02 1.30992E+01 0.00000E+00
 -1      3563 1.24035E+02 1.43982E+01 0.00000E+00
 -1      3564 1.29285E+02 1.30992E+01 0.00000E+00
 -1      3565 1.27785E+02 1.30992E+01 0.00000E+00
 -1      3566 1.27035E+02 1.43982E+01 0.00000E+00
 -1      3567 1.32285E+02 1.30992E+01 0.00000E+00
 -1      3568 1.30785E+02 1.30992E+01 0.00000E+00
 -1      3569 1.30035E+02 1.43982E+01 0.00000E+00
 -1      3570 1.35285E+02 1.30992E+01 0.00000E+00
 -1      3571 1.33785E+02 1.30992E+01 0.00000E+00
 -1      3572 1.33035E+02 1.43982E+01 0.00000E+00
 -1      3573 1.08317E+02 1.29280E+01 0.00000E+00
 -1      3574 1.38528E+02 1.44149E+01 0.00000E+00
 -1      3575 1.38594E+02 1.31746E+01 0.00000E+00
 -1      3576 1.37668E+02 1.30636E+01 0.00000E+00
 -1      3577 1.37229E+02 1.51462E+01 0.00000E+00
 -1      3578 1.35711E+02 2.72000E+01 0.00000E+00
 -1      3579 1.35711E+02 2.57500E+01 0.00000E+00
 -1      3580 3.02850E+01 1.30992E+01 0.00000E+00
 -1      3581 2.87850E+01 1.30992E+01 0.00000E+00
 -1      3582 1.74000E+01 3.57110E+01 0.00000E+00
 -1      3583 1.89000E+01 3.57110E+01 0.00000E+00
 -1      3584 3.92850E+01 1.30992E+01 0.00000E+00
 -1      3585 3.77850E+01 1.30992E+01 0.00000E+00
 -1      3586 4.00350E+01 1.43982E+01 0.00000E+00
 -1      3587 1.14285E+02 1.30992E+01 0.00000E+00
 -1      3588 1.12785E+02 1.30992E+01 0.00000E+00
 -1      3589 2.72850E+01 1.30992E+01 0.00000E+00
 -1      3590 2.57850E+01 1.30992E+01 0.00000E+00
 -1      3591 2.80350E+01 1.43982E+01 0.00000E+00
 -1      3592 1.17285E+02 1.30992E+01 0.00000E+00
 -1      3593 1.15785E+02 1.30992E+01 0.00000E+00
 -1      3594 1.18035E+02 1.43982E+01 0.00000E+00
 -1      3595 2.42850E+01 1.30992E+01 0.00000E+00
 -1      3596 2.27850E+01 1.30992E+01 0.00000E+00
 -1      3597 2.50350E+01 1.43982E+01 0.00000E+00
 -1      3598 4.82850E+01 1.30992E+01 0.00000E+00
 -1      3599 4.67850E+01 1.30992E+01 0.00000E+00
 -1      3600 4.60350E+01 1.43982E+01 0.00000E+00
 -1      3601 4.90350E+01 1.43982E+01 0.00000E+00
 -1      3602 1.16910E+01 2.71844E+01 0.00000E+00
 -1      3603 1.16910E+01 2.86531E+01 0.00000E+00
 -1      3604 1.29900E+01 2.93875E+01 0.00000E+00
 -1      3605 1.13196E+02 3.49590E+01 0.00000E+00
 -1      3606 1.14696E+02 3.49590E+01 0.00000E+00
 -1      3607 1.14477E+02 2.91266E+01 0.00000E+00
 -1      3608 1.14226E+02 3.02641E+01 0.00000E+00
 -1      3609 1.11670E+02 1.50357E+01 0.00000E+00
 -1      3610 1.12598E+02 1.63080E+01 0.00000E+00
 -1      3611 1.48763E+01 1.22006E+01 0.00000E+00
 -1      3612 1.44900E+01 1.32000E+01 0.00000E+00
 -1      3613 1.63762E+01 1.22006E+01 0.00000E+00
 -1      3614 2.04000E+01 3.57110E+01 0.00000E+00
 -1      3615 2.19000E+01 3.57110E+01 0.00000E+00
 -1      3616 2.26500E+01 3.44120E+01 0.00000E+00
 -1      3617 1.21786E+01 3.60821E+01 0.00000E+00
 -1      3618 1.09420E+02 1.37367E+01 0.00000E+00
 -1      3619 1.10920E+02 1.37367E+01 0.00000E+00
 -1      3620 1.44900E+01 1.46687E+01 0.00000E+00
 -1      3621 1.16892E+02 2.39914E+01 0.00000E+00
 -1      3622 1.15836E+02 2.48991E+01 0.00000E+00
 -1      3623 1.16506E+02 2.58527E+01 0.00000E+00
 -1      3624 8.25967E+01 2.41087E+01 0.00000E+00
 -1      3625 8.36708E+01 2.35324E+01 0.00000E+00
 -1      3626 8.35928E+01 2.26369E+01 0.00000E+00
 -1      3627 1.14507E+02 3.14032E+01 0.00000E+00
 -1      3628 1.14788E+02 3.25424E+01 0.00000E+00
 -1      3629 1.15552E+02 3.10376E+01 0.00000E+00
 -1      3630 1.13861E+02 1.68037E+01 0.00000E+00
 -1      3631 1.42890E+01 1.98219E+01 0.00000E+00
 -1      3632 1.42890E+01 2.12906E+01 0.00000E+00
 -1      3633 8.87964E+01 1.37774E+01 0.00000E+00
 -1      3634 8.54412E+01 2.06223E+01 0.00000E+00
 -1      3635 8.52293E+01 1.96635E+01 0.00000E+00
 -1      3636 8.44551E+01 2.11018E+01 0.00000E+00
 -1      3637 1.34776E+01 3.53477E+01 0.00000E+00
 -1      3638 1.42890E+01 2.27656E+01 0.00000E+00
 -1      3639 1.42890E+01 2.42406E+01 0.00000E+00
 -1      3640 1.55880E+01 2.20313E+01 0.00000E+00
 -1      3641 8.27563E+01 3.33702E+01 0.00000E+00
 -1      3642 8.34737E+01 3.15342E+01 0.00000E+00
 -1      3643 8.36060E+01 3.06643E+01 0.00000E+00
 -1      3644 8.27170E+01 2.98700E+01 0.00000E+00
 -1      3645 1.34412E+02 2.50031E+01 0.00000E+00
 -1      3646 1.35711E+02 2.42781E+01 0.00000E+00
 -1      3647 1.35711E+02 2.28062E+01 0.00000E+00
 -1      3648 1.15346E+02 1.99805E+01 0.00000E+00
 -1      3649 1.15205E+02 2.11234E+01 0.00000E+00
 -1      3650 1.16364E+02 2.18948E+01 0.00000E+00
 -1      3651 8.20769E+01 2.80572E+01 0.00000E+00
 -1      3652 8.27620E+01 2.70022E+01 0.00000E+00
 -1      3653 8.19895E+01 2.60593E+01 0.00000E+00
 -1      3654 1.35711E+02 3.01500E+01 0.00000E+00
 -1      3655 1.35711E+02 2.86750E+01 0.00000E+00
 -1      3656 1.34412E+02 2.79500E+01 0.00000E+00
 -1      3657 1.29900E+01 2.64469E+01 0.00000E+00
 -1      3658 1.34022E+02 3.59901E+01 0.00000E+00
 -1      3659 1.35329E+02 3.61011E+01 0.00000E+00
 -1      3660 1.35515E+02 3.52494E+01 0.00000E+00
 -1      3661 1.33272E+02 3.46911E+01 0.00000E+00
 -1      3662 3.32850E+01 1.30992E+01 0.00000E+00
 -1      3663 3.17850E+01 1.30992E+01 0.00000E+00
 -1      3664 3.10350E+01 1.43982E+01 0.00000E+00
 -1      3665 8.55895E+01 1.53056E+01 0.00000E+00
 -1      3666 2.20350E+01 1.43983E+01 0.00000E+00
 -1      3667 2.12850E+01 1.30993E+01 0.00000E+00
 -1      3668 1.36742E+02 1.29526E+01 0.00000E+00
 -1      3669 1.47676E+01 3.55023E+01 0.00000E+00
 -1      3670 1.61100E+01 3.55564E+01 0.00000E+00
 -1      3671 1.68600E+01 3.42574E+01 0.00000E+00
 -1      3672 1.42800E+01 3.39483E+01 0.00000E+00
 -1      3673 1.29900E+01 1.76125E+01 0.00000E+00
 -1      3674 8.59418E+01 1.77868E+01 0.00000E+00
 -1      3675 8.57657E+01 1.65462E+01 0.00000E+00
 -1      3676 8.37111E+01 1.56388E+01 0.00000E+00
 -1      3677 1.35773E+02 1.52929E+01 0.00000E+00
 -1      3678 1.35992E+02 1.42516E+01 0.00000E+00
 -1      3679 1.15035E+02 1.43982E+01 0.00000E+00
 -1      3680 1.96500E+01 3.44120E+01 0.00000E+00
 -1      3681 1.15361E+02 2.83294E+01 0.00000E+00
 -1      3682 1.35773E+02 1.82429E+01 0.00000E+00
 -1      3683 1.35773E+02 1.67679E+01 0.00000E+00
 -1      3684 1.34535E+02 1.58733E+01 0.00000E+00
 -1      3685 1.99669E+01 1.29495E+01 0.00000E+00
 -1      3686 3.62850E+01 1.30992E+01 0.00000E+00
 -1      3687 3.47850E+01 1.30992E+01 0.00000E+00
 -1      3688 3.70350E+01 1.43982E+01 0.00000E+00
 -1      3689 1.42890E+01 2.86531E+01 0.00000E+00
 -1      3690 1.42890E+01 3.01219E+01 0.00000E+00
 -1      3691 8.86099E+01 3.62788E+01 0.00000E+00
 -1      3692 8.61034E+01 3.59281E+01 0.00000E+00
 -1      3693 8.76034E+01 3.61182E+01 0.00000E+00
 -1      3694 1.35702E+02 3.43976E+01 0.00000E+00
 -1      3695 1.42845E+01 3.13007E+01 0.00000E+00
 -1      3696 1.42845E+01 3.27695E+01 0.00000E+00
 -1      3697 1.55745E+01 3.29240E+01 0.00000E+00
 -1      3698 1.55835E+01 3.05663E+01 0.00000E+00
 -1      3699 1.34487E+02 3.38069E+01 0.00000E+00
 -1      3700 1.35795E+02 3.32342E+01 0.00000E+00
 -1      3701 1.35795E+02 3.17593E+01 0.00000E+00
 -1      3702 1.33365E+02 3.35277E+01 0.00000E+00
 -1      3703 1.42890E+01 1.83469E+01 0.00000E+00
 -1      3704 1.55880E+01 1.90812E+01 0.00000E+00
 -1      3705 1.42890E+01 1.68719E+01 0.00000E+00
 -1      3706 8.54597E+01 3.35873E+01 0.00000E+00
 -1      3707 1.24785E+02 1.56973E+01 0.00000E+00
 -1      3708 1.23285E+02 1.56973E+01 0.00000E+00
 -1      3709 2.79000E+01 3.31130E+01 0.00000E+00
 -1      3710 2.94000E+01 3.31130E+01 0.00000E+00
 -1      3711 3.09000E+01 3.31130E+01 0.00000E+00
 -1      3712 3.24000E+01 3.31130E+01 0.00000E+00
 -1      3713 3.01500E+01 3.18140E+01 0.00000E+00
 -1      3714 3.39000E+01 3.31130E+01 0.00000E+00
 -1      3715 3.54000E+01 3.31130E+01 0.00000E+00
 -1      3716 3.31500E+01 3.18140E+01 0.00000E+00
 -1      3717 3.69000E+01 3.31130E+01 0.00000E+00
 -1      3718 3.84000E+01 3.31130E+01 0.00000E+00
 -1      3719 3.61500E+01 3.18140E+01 0.00000E+00
 -1      3720 3.99000E+01 3.31130E+01 0.00000E+00
 -1      3721 4.14000E+01 3.31130E+01 0.00000E+00
 -1      3722 3.91500E+01 3.18140E+01 0.00000E+00
 -1      3723 4.29000E+01 3.31130E+01 0.00000E+00
 -1      3724 4.44000E+01 3.31130E+01 0.00000E+00
 -1      3725 4.21500E+01 3.18140E+01 0.00000E+00
 -1      3726 4.59000E+01 3.31130E+01 0.00000E+00
 -1      3727 4.74000E+01 3.31130E+01 0.00000E+00
 -1      3728 4.51500E+01 3.18140E+01 0.00000E+00
 -1      3729 4.89000E+01 3.31130E+01 0.00000E+00
 -1      3730 5.04000E+01 3.31130E+01 0.00000E+00
 -1      3731 4.81500E+01 3.18140E+01 0.00000E+00
 -1      3732 5.19000E+01 3.31130E+01 0.00000E+00
 -1      3733 5.34000E+01 3.31130E+01 0.00000E+00
 -1      3734 5.11500E+01 3.18140E+01 0.00000E+00
 -1      3735 5.49000E+01 3.31130E+01 0.00000E+00
 -1      3736 5.64000E+01 3.31130E+01 0.00000E+00
 -1      3737 5.41500E+01 3.18140E+01 0.00000E+00
 -1      3738 5.79000E+01 3.31130E+01 0.00000E+00
 -1      3739 5.94000E+01 3.31130E+01 0.00000E+00
 -1      3740 5.71500E+01 3.18140E+01 0.00000E+00
 -1      3741 6.09000E+01 3.31130E+01 0.00000E+00
 -1      3742 6.24000E+01 3.31130E+01 0.00000E+00
 -1      3743 6.01500E+01 3.18140E+01 0.00000E+00
 -1      3744 6.39000E+01 3.31130E+01 0.00000E+00
 -1      3745 6.54000E+01 3.31130E+01 0.00000E+00
 -1      3746 6.31500E+01 3.18140E+01 0.00000E+00
 -1      3747 6.69000E+01 3.31130E+01 0.00000E+00
 -1      3748 6.84000E+01 3.31130E+01 0.00000E+00
 -1      3749 6.61500E+01 3.18140E+01 0.00000E+00
 -1      3750 6.99000E+01 3.31130E+01 0.00000E+00
 -1      3751 7.14000E+01 3.31130E+01 0.00000E+00
 -1      3752 6.91500E+01 3.18140E+01 0.00000E+00
 -1      3753 7.29000E+01 3.31130E+01 0.00000E+00
 -1      3754 7.44000E+01 3.31130E+01 0.00000E+00
 -1      3755 7.21500E+01 3.18140E+01 0.00000E+00
 -1      3756 7.59000E+01 3.31130E+01 0.00000E+00
 -1      3757 7.74000E+01 3.31130E+01 0.00000E+00
 -1      3758 7.51500E+01 3.18140E+01 0.00000E+00
 -1      3759 7.89000E+01 3.31130E+01 0.00000E+00
 -1      3760 8.04000E+01 3.31130E+01 0.00000E+00
 -1      3761 7.81500E+01 3.18140E+01 0.00000E+00
 -1      3762 4.37850E+01 1.56973E+01 0.00000E+00
 -1      3763 4.22850E+01 1.56973E+01 0.00000E+00
 -1      3764 1.20900E+02 3.31130E+01 0.00000E+00
 -1      3765 1.22400E+02 3.31130E+01 0.00000E+00
 -1      3766 1.23900E+02 3.31130E+01 0.00000E+00
 -1      3767 1.25400E+02 3.31130E+01 0.00000E+00
 -1      3768 1.23150E+02 3.18140E+01 0.00000E+00
 -1      3769 1.26900E+02 3.31130E+01 0.00000E+00
 -1      3770 1.28400E+02 3.31130E+01 0.00000E+00
 -1      3771 1.26150E+02 3.18140E+01 0.00000E+00
 -1      3772 1.29900E+02 3.31130E+01 0.00000E+00
 -1      3773 1.31400E+02 3.31130E+01 0.00000E+00
 -1      3774 1.29150E+02 3.18140E+01 0.00000E+00
 -1      3775 5.57850E+01 1.56973E+01 0.00000E+00
 -1      3776 5.42850E+01 1.56973E+01 0.00000E+00
 -1      3777 5.27850E+01 1.56973E+01 0.00000E+00
 -1      3778 5.12850E+01 1.56973E+01 0.00000E+00
 -1      3779 5.35350E+01 1.69963E+01 0.00000E+00
 -1      3780 6.17850E+01 1.56973E+01 0.00000E+00
 -1      3781 6.02850E+01 1.56973E+01 0.00000E+00
 -1      3782 6.47850E+01 1.56973E+01 0.00000E+00
 -1      3783 6.32850E+01 1.56973E+01 0.00000E+00
 -1      3784 6.25350E+01 1.69963E+01 0.00000E+00
 -1      3785 6.77850E+01 1.56973E+01 0.00000E+00
 -1      3786 6.62850E+01 1.56973E+01 0.00000E+00
 -1      3787 6.55350E+01 1.69963E+01 0.00000E+00
 -1      3788 7.07850E+01 1.56973E+01 0.00000E+00
 -1      3789 6.92850E+01 1.56973E+01 0.00000E+00
 -1      3790 6.85350E+01 1.69963E+01 0.00000E+00
 -1      3791 7.37850E+01 1.56973E+01 0.00000E+00
 -1      3792 7.22850E+01 1.56973E+01 0.00000E+00
 -1      3793 7.15350E+01 1.69963E+01 0.00000E+00
 -1      3794 7.67850E+01 1.56973E+01 0.00000E+00
 -1      3795 7.52850E+01 1.56973E+01 0.00000E+00
 -1      3796 7.45350E+01 1.69963E+01 0.00000E+00
 -1      3797 7.97850E+01 1.56973E+01 0.00000E+00
 -1      3798 7.82850E+01 1.56973E+01 0.00000E+00
 -1      3799 7.75350E+01 1.69963E+01 0.00000E+00
 -1      3800 8.24981E+01 1.56680E+01 0.00000E+00
 -1      3801 8.09981E+01 1.56680E+01 0.00000E+00
 -1      3802 8.02481E+01 1.69670E+01 0.00000E+00
 -1      3803 8.26742E+01 1.69086E+01 0.00000E+00
 -1      3804 2.27850E+01 1.56973E+01 0.00000E+00
 -1      3805 2.12851E+01 1.56973E+01 0.00000E+00
 -1      3806 1.21785E+02 1.56973E+01 0.00000E+00
 -1      3807 1.20285E+02 1.56973E+01 0.00000E+00
 -1      3808 1.22535E+02 1.69963E+01 0.00000E+00
 -1      3809 1.30785E+02 1.56973E+01 0.00000E+00
 -1      3810 1.29285E+02 1.56973E+01 0.00000E+00
 -1      3811 1.33410E+02 1.57852E+01 0.00000E+00
 -1      3812 1.31910E+02 1.57852E+01 0.00000E+00
 -1      3813 1.31160E+02 1.70842E+01 0.00000E+00
 -1      3814 1.33410E+02 1.72603E+01 0.00000E+00
 -1      3815 1.42890E+01 2.57109E+01 0.00000E+00
 -1      3816 1.42890E+01 2.71828E+01 0.00000E+00
 -1      3817 1.55880E+01 2.79172E+01 0.00000E+00
 -1      3818 1.55880E+01 2.49766E+01 0.00000E+00
 -1      3819 1.15361E+02 1.68037E+01 0.00000E+00
 -1      3820 1.89000E+01 3.31130E+01 0.00000E+00
 -1      3821 2.04000E+01 3.31130E+01 0.00000E+00
 -1      3822 2.19000E+01 3.31130E+01 0.00000E+00
 -1      3823 2.34000E+01 3.31130E+01 0.00000E+00
 -1      3824 2.11500E+01 3.18140E+01 0.00000E+00
 -1      3825 1.15446E+02 3.36600E+01 0.00000E+00
 -1      3826 1.12913E+02 3.41065E+01 0.00000E+00
 -1      3827 1.57890E+01 1.54031E+01 0.00000E+00
 -1      3828 2.57850E+01 1.56973E+01 0.00000E+00
 -1      3829 2.42850E+01 1.56973E+01 0.00000E+00
 -1      3830 2.35351E+01 1.69963E+01 0.00000E+00
 -1      3831 4.07850E+01 1.56973E+01 0.00000E+00
 -1      3832 3.92850E+01 1.56973E+01 0.00000E+00
 -1      3833 4.15350E+01 1.69963E+01 0.00000E+00
 -1      3834 8.18673E+01 3.25760E+01 0.00000E+00
 -1      3835 1.27785E+02 1.56973E+01 0.00000E+00
 -1      3836 1.26285E+02 1.56973E+01 0.00000E+00
 -1      3837 1.25535E+02 1.69963E+01 0.00000E+00
 -1      3838 1.28535E+02 1.69963E+01 0.00000E+00
 -1      3839 5.87850E+01 1.56973E+01 0.00000E+00
 -1      3840 5.72850E+01 1.56973E+01 0.00000E+00
 -1      3841 5.95350E+01 1.69963E+01 0.00000E+00
 -1      3842 1.88306E+01 1.26499E+01 0.00000E+00
 -1      3843 1.75125E+01 1.25001E+01 0.00000E+00
 -1      3844 1.71263E+01 1.34996E+01 0.00000E+00
 -1      3845 1.93988E+01 1.40987E+01 0.00000E+00
 -1      3846 1.35711E+02 2.13344E+01 0.00000E+00
 -1      3847 1.35711E+02 1.98625E+01 0.00000E+00
 -1      3848 1.34412E+02 2.20594E+01 0.00000E+00
 -1      3849 2.87850E+01 1.56973E+01 0.00000E+00
 -1      3850 2.72850E+01 1.56973E+01 0.00000E+00
 -1      3851 2.65351E+01 1.69963E+01 0.00000E+00
 -1      3852 2.49000E+01 3.31130E+01 0.00000E+00
 -1      3853 2.64000E+01 3.31130E+01 0.00000E+00
 -1      3854 2.71500E+01 3.18140E+01 0.00000E+00
 -1      3855 2.41500E+01 3.18140E+01 0.00000E+00
 -1      3856 1.16429E+02 2.76037E+01 0.00000E+00
 -1      3857 1.16339E+02 2.91727E+01 0.00000E+00
 -1      3858 1.17277E+02 1.59867E+01 0.00000E+00
 -1      3859 1.16104E+02 1.83921E+01 0.00000E+00
 -1      3860 1.17262E+02 1.91635E+01 0.00000E+00
 -1      3861 1.18777E+02 1.59867E+01 0.00000E+00
 -1      3862 1.17602E+02 2.27812E+01 0.00000E+00
 -1      3863 1.18271E+02 2.37348E+01 0.00000E+00
 -1      3864 8.15309E+01 2.46526E+01 0.00000E+00
 -1      3865 8.14529E+01 2.37571E+01 0.00000E+00
 -1      3866 1.16620E+02 3.03118E+01 0.00000E+00
 -1      3867 1.16901E+02 3.14510E+01 0.00000E+00
 -1      3868 1.17688E+02 2.95861E+01 0.00000E+00
 -1      3869 1.34496E+02 3.10343E+01 0.00000E+00
 -1      3870 1.17484E+02 2.66959E+01 0.00000E+00
 -1      3871 8.33810E+01 2.16781E+01 0.00000E+00
 -1      3872 8.31691E+01 2.07193E+01 0.00000E+00
 -1      3873 8.23068E+01 2.22544E+01 0.00000E+00
 -1      3874 1.68870E+01 2.12938E+01 0.00000E+00
 -1      3875 1.68870E+01 2.27687E+01 0.00000E+00
 -1      3876 8.11173E+01 3.12770E+01 0.00000E+00
 -1      3877 4.52850E+01 1.56973E+01 0.00000E+00
 -1      3878 4.45350E+01 1.69963E+01 0.00000E+00
 -1      3879 4.67850E+01 1.56973E+01 0.00000E+00
 -1      3880 8.15309E+01 3.01020E+01 0.00000E+00
 -1      3881 8.16633E+01 2.92321E+01 0.00000E+00
 -1      3882 8.08908E+01 2.82892E+01 0.00000E+00
 -1      3883 8.00636E+01 3.06391E+01 0.00000E+00
 -1      3884 1.33113E+02 2.57391E+01 0.00000E+00
 -1      3885 1.33113E+02 2.42672E+01 0.00000E+00
 -1      3886 1.17743E+02 2.16383E+01 0.00000E+00
 -1      3887 1.17900E+02 3.31130E+01 0.00000E+00
 -1      3888 1.19400E+02 3.31130E+01 0.00000E+00
 -1      3889 1.33113E+02 2.72141E+01 0.00000E+00
 -1      3890 1.31814E+02 2.64781E+01 0.00000E+00
 -1      3891 1.33113E+02 2.86891E+01 0.00000E+00
 -1      3892 3.17850E+01 1.56973E+01 0.00000E+00
 -1      3893 3.02850E+01 1.56973E+01 0.00000E+00
 -1      3894 2.95351E+01 1.69963E+01 0.00000E+00
 -1      3895 1.32615E+02 3.22287E+01 0.00000E+00
 -1      3896 5.65350E+01 1.69963E+01 0.00000E+00
 -1      3897 1.68870E+01 1.83438E+01 0.00000E+00
 -1      3898 1.68870E+01 1.98188E+01 0.00000E+00
 -1      3899 1.81860E+01 2.05562E+01 0.00000E+00
 -1      3900 3.85350E+01 1.69963E+01 0.00000E+00
 -1      3901 3.77850E+01 1.56973E+01 0.00000E+00
 -1      3902 3.62850E+01 1.56973E+01 0.00000E+00
 -1      3903 8.40652E+01 1.85112E+01 0.00000E+00
 -1      3904 8.28522E+01 1.85404E+01 0.00000E+00
 -1      3905 1.19527E+02 1.72857E+01 0.00000E+00
 -1      3906 3.40350E+01 1.43982E+01 0.00000E+00
 -1      3907 1.34473E+02 1.89679E+01 0.00000E+00
 -1      3908 2.05351E+01 1.69963E+01 0.00000E+00
 -1      3909 1.97851E+01 1.56973E+01 0.00000E+00
 -1      3910 1.20150E+02 3.18140E+01 0.00000E+00
 -1      3911 1.86488E+01 1.53977E+01 0.00000E+00
 -1      3912 1.65923E+01 3.29412E+01 0.00000E+00
 -1      3913 1.78822E+01 3.30958E+01 0.00000E+00
 -1      3914 1.86322E+01 3.17968E+01 0.00000E+00
 -1      3915 1.65968E+01 3.17624E+01 0.00000E+00
 -1      3916 4.97850E+01 1.56973E+01 0.00000E+00
 -1      3917 4.82850E+01 1.56973E+01 0.00000E+00
 -1      3918 4.75350E+01 1.69963E+01 0.00000E+00
 -1      3919 1.68870E+01 2.71820E+01 0.00000E+00
 -1      3920 1.68870E+01 2.86523E+01 0.00000E+00
 -1      3921 1.16491E+02 3.32944E+01 0.00000E+00
 -1      3922 1.66012E+01 3.05835E+01 0.00000E+00
 -1      3923 8.08458E+01 2.57076E+01 0.00000E+00
 -1      3924 1.79002E+01 2.98484E+01 0.00000E+00
 -1      3925 5.05350E+01 1.69963E+01 0.00000E+00
 -1      3926 8.01753E+01 2.33422E+01 0.00000E+00
 -1      3927 8.12411E+01 2.27983E+01 0.00000E+00
 -1      3928 8.10292E+01 2.18395E+01 0.00000E+00
 -1      3929 6.02850E+01 1.82952E+01 0.00000E+00
 -1      3930 5.87850E+01 1.82952E+01 0.00000E+00
 -1      3931 1.31814E+02 2.35313E+01 0.00000E+00
 -1      3932 1.33113E+02 2.27953E+01 0.00000E+00
 -1      3933 1.33113E+02 2.13234E+01 0.00000E+00
 -1      3934 3.24000E+01 3.05150E+01 0.00000E+00
 -1      3935 3.39000E+01 3.05150E+01 0.00000E+00
 -1      3936 3.54000E+01 3.05150E+01 0.00000E+00
 -1      3937 3.69000E+01 3.05150E+01 0.00000E+00
 -1      3938 3.46500E+01 2.92160E+01 0.00000E+00
 -1      3939 3.84000E+01 3.05150E+01 0.00000E+00
 -1      3940 3.99000E+01 3.05150E+01 0.00000E+00
 -1      3941 3.76500E+01 2.92160E+01 0.00000E+00
 -1      3942 4.14000E+01 3.05150E+01 0.00000E+00
 -1      3943 4.29000E+01 3.05150E+01 0.00000E+00
 -1      3944 4.06500E+01 2.92160E+01 0.00000E+00
 -1      3945 4.44000E+01 3.05150E+01 0.00000E+00
 -1      3946 4.59000E+01 3.05150E+01 0.00000E+00
 -1      3947 4.36500E+01 2.92160E+01 0.00000E+00
 -1      3948 4.74000E+01 3.05150E+01 0.00000E+00
 -1      3949 4.89000E+01 3.05150E+01 0.00000E+00
 -1      3950 4.66500E+01 2.92160E+01 0.00000E+00
 -1      3951 5.04000E+01 3.05150E+01 0.00000E+00
 -1      3952 5.19000E+01 3.05150E+01 0.00000E+00
 -1      3953 4.96500E+01 2.92160E+01 0.00000E+00
 -1      3954 5.34000E+01 3.05150E+01 0.00000E+00
 -1      3955 5.49000E+01 3.05150E+01 0.00000E+00
 -1      3956 5.26500E+01 2.92160E+01 0.00000E+00
 -1      3957 5.64000E+01 3.05150E+01 0.00000E+00
 -1      3958 5.79000E+01 3.05150E+01 0.00000E+00
 -1      3959 5.56500E+01 2.92160E+01 0.00000E+00
 -1      3960 5.94000E+01 3.05150E+01 0.00000E+00
 -1      3961 6.09000E+01 3.05150E+01 0.00000E+00
 -1      3962 5.86500E+01 2.92160E+01 0.00000E+00
 -1      3963 6.24000E+01 3.05150E+01 0.00000E+00
 -1      3964 6.39000E+01 3.05150E+01 0.00000E+00
 -1      3965 6.16500E+01 2.92160E+01 0.00000E+00
 -1      3966 6.54000E+01 3.05150E+01 0.00000E+00
 -1      3967 6.69000E+01 3.05150E+01 0.00000E+00
 -1      3968 6.46500E+01 2.92160E+01 0.00000E+00
 -1      3969 6.84000E+01 3.05150E+01 0.00000E+00
 -1      3970 6.99000E+01 3.05150E+01 0.00000E+00
 -1      3971 6.76500E+01 2.92160E+01 0.00000E+00
 -1      3972 7.14000E+01 3.05150E+01 0.00000E+00
 -1      3973 7.29000E+01 3.05150E+01 0.00000E+00
 -1      3974 7.06500E+01 2.92160E+01 0.00000E+00
 -1      3975 7.44000E+01 3.05150E+01 0.00000E+00
 -1      3976 7.59000E+01 3.05150E+01 0.00000E+00
 -1      3977 7.36500E+01 2.92160E+01 0.00000E+00
 -1      3978 7.72318E+01 3.05770E+01 0.00000E+00
 -1      3979 7.87318E+01 3.05770E+01 0.00000E+00
 -1      3980 7.91454E+01 2.94021E+01 0.00000E+00
 -1      3981 7.64818E+01 2.92780E+01 0.00000E+00
 -1      3982 1.69253E+01 1.57027E+01 0.00000E+00
 -1      3983 1.17241E+02 3.19954E+01 0.00000E+00
 -1      3984 1.18820E+02 2.58773E+01 0.00000E+00
 -1      3985 1.18744E+02 2.76283E+01 0.00000E+00
 -1      3986 1.25400E+02 3.05150E+01 0.00000E+00
 -1      3987 1.26900E+02 3.05150E+01 0.00000E+00
 -1      3988 1.28400E+02 3.05150E+01 0.00000E+00
 -1      3989 1.29900E+02 3.05150E+01 0.00000E+00
 -1      3990 1.27650E+02 2.92160E+01 0.00000E+00
 -1      3991 6.62850E+01 1.82952E+01 0.00000E+00
 -1      3992 6.47850E+01 1.82952E+01 0.00000E+00
 -1      3993 6.32850E+01 1.82952E+01 0.00000E+00
 -1      3994 6.17850E+01 1.82952E+01 0.00000E+00
 -1      3995 6.40350E+01 1.95942E+01 0.00000E+00
 -1      3996 7.22850E+01 1.82952E+01 0.00000E+00
 -1      3997 7.07850E+01 1.82952E+01 0.00000E+00
 -1      3998 7.52850E+01 1.82952E+01 0.00000E+00
 -1      3999 7.37850E+01 1.82952E+01 0.00000E+00
 -1      4000 7.30350E+01 1.95942E+01 0.00000E+00
 -1      4001 7.82850E+01 1.82952E+01 0.00000E+00
 -1      4002 7.67850E+01 1.82952E+01 0.00000E+00
 -1      4003 7.60350E+01 1.95942E+01 0.00000E+00
 -1      4004 8.50513E+01 1.80317E+01 0.00000E+00
 -1      4005 1.20526E+02 1.84167E+01 0.00000E+00
 -1      4006 1.19019E+02 1.87061E+01 0.00000E+00
 -1      4007 1.23526E+02 1.84167E+01 0.00000E+00
 -1      4008 1.22026E+02 1.84167E+01 0.00000E+00
 -1      4009 1.21517E+02 1.98371E+01 0.00000E+00
 -1      4010 6.92850E+01 1.82952E+01 0.00000E+00
 -1      4011 6.77850E+01 1.82952E+01 0.00000E+00
 -1      4012 6.70350E+01 1.95942E+01 0.00000E+00
 -1      4013 1.68870E+01 2.42391E+01 0.00000E+00
 -1      4014 1.68870E+01 2.57094E+01 0.00000E+00
 -1      4015 1.81860E+01 2.35016E+01 0.00000E+00
 -1      4016 1.22400E+02 3.05150E+01 0.00000E+00
 -1      4017 1.23900E+02 3.05150E+01 0.00000E+00
 -1      4018 1.24650E+02 2.92160E+01 0.00000E+00
 -1      4019 5.42850E+01 1.82952E+01 0.00000E+00
 -1      4020 5.27850E+01 1.82952E+01 0.00000E+00
 -1      4021 8.00208E+01 2.67547E+01 0.00000E+00
 -1      4022 7.95622E+01 2.53480E+01 0.00000E+00
 -1      4023 8.24041E+01 1.96444E+01 0.00000E+00
 -1      4024 8.10131E+01 1.80419E+01 0.00000E+00
 -1      4025 7.98000E+01 1.80711E+01 0.00000E+00
 -1      4026 8.13300E+01 2.02207E+01 0.00000E+00
 -1      4027 2.42851E+01 1.82953E+01 0.00000E+00
 -1      4028 2.27851E+01 1.82953E+01 0.00000E+00
 -1      4029 5.12850E+01 1.82952E+01 0.00000E+00
 -1      4030 4.97850E+01 1.82952E+01 0.00000E+00
 -1      4031 5.20350E+01 1.95942E+01 0.00000E+00
 -1      4032 2.04000E+01 3.05150E+01 0.00000E+00
 -1      4033 2.19000E+01 3.05150E+01 0.00000E+00
 -1      4034 1.33231E+02 2.01017E+01 0.00000E+00
 -1      4035 1.33292E+02 1.84820E+01 0.00000E+00
 -1      4036 1.32167E+02 1.83940E+01 0.00000E+00
 -1      4037 1.31932E+02 2.08376E+01 0.00000E+00
 -1      4038 1.32531E+02 3.06195E+01 0.00000E+00
 -1      4039 2.72851E+01 1.82953E+01 0.00000E+00
 -1      4040 2.57851E+01 1.82953E+01 0.00000E+00
 -1      4041 2.50351E+01 1.95943E+01 0.00000E+00
 -1      4042 1.20241E+02 2.34570E+01 0.00000E+00
 -1      4043 1.19530E+02 2.46672E+01 0.00000E+00
 -1      4044 1.20790E+02 2.55995E+01 0.00000E+00
 -1      4045 4.22850E+01 1.82952E+01 0.00000E+00
 -1      4046 4.07850E+01 1.82952E+01 0.00000E+00
 -1      4047 1.81860E+01 2.64445E+01 0.00000E+00
 -1      4048 2.94000E+01 3.05150E+01 0.00000E+00
 -1      4049 3.09000E+01 3.05150E+01 0.00000E+00
 -1      4050 3.16500E+01 2.92160E+01 0.00000E+00
 -1      4051 3.47850E+01 1.56973E+01 0.00000E+00
 -1      4052 3.32850E+01 1.56973E+01 0.00000E+00
 -1      4053 3.25350E+01 1.69963E+01 0.00000E+00
 -1      4054 3.55350E+01 1.69963E+01 0.00000E+00
 -1      4055 5.72850E+01 1.82952E+01 0.00000E+00
 -1      4056 5.57850E+01 1.82952E+01 0.00000E+00
 -1      4057 5.80350E+01 1.95942E+01 0.00000E+00
 -1      4058 1.18261E+02 2.02945E+01 0.00000E+00
 -1      4059 6.10350E+01 1.95942E+01 0.00000E+00
 -1      4060 1.19499E+02 2.11809E+01 0.00000E+00
 -1      4061 5.50350E+01 1.95942E+01 0.00000E+00
 -1      4062 1.31232E+02 2.98836E+01 0.00000E+00
 -1      4063 1.30515E+02 2.42672E+01 0.00000E+00
 -1      4064 1.30515E+02 2.27953E+01 0.00000E+00
 -1      4065 1.26526E+02 1.84167E+01 0.00000E+00
 -1      4066 1.25026E+02 1.84167E+01 0.00000E+00
 -1      4067 1.24517E+02 1.98371E+01 0.00000E+00
 -1      4068 4.52850E+01 1.82952E+01 0.00000E+00
 -1      4069 4.37850E+01 1.82952E+01 0.00000E+00
 -1      4070 4.30350E+01 1.95942E+01 0.00000E+00
 -1      4071 4.00350E+01 1.95942E+01 0.00000E+00
 -1      4072 3.92850E+01 1.82952E+01 0.00000E+00
 -1      4073 3.77850E+01 1.82952E+01 0.00000E+00
 -1      4074 7.00350E+01 1.95942E+01 0.00000E+00
 -1      4075 1.30482E+02 2.85846E+01 0.00000E+00
 -1      4076 1.73116E+01 1.73013E+01 0.00000E+00
 -1      4077 1.86106E+01 1.80388E+01 0.00000E+00
 -1      4078 1.21138E+02 2.09751E+01 0.00000E+00
 -1      4079 1.20620E+02 2.23189E+01 0.00000E+00
 -1      4080 1.21879E+02 2.32513E+01 0.00000E+00
 -1      4081 1.22638E+02 2.09751E+01 0.00000E+00
 -1      4082 7.90500E+01 1.93701E+01 0.00000E+00
 -1      4083 1.94850E+01 2.27664E+01 0.00000E+00
 -1      4084 1.94850E+01 2.42367E+01 0.00000E+00
 -1      4085 1.31042E+02 1.83060E+01 0.00000E+00
 -1      4086 7.96072E+01 2.79296E+01 0.00000E+00
 -1      4087 2.12851E+01 1.82953E+01 0.00000E+00
 -1      4088 1.97851E+01 1.82953E+01 0.00000E+00
 -1      4089 1.19400E+02 3.05375E+01 0.00000E+00
 -1      4090 1.20900E+02 3.05375E+01 0.00000E+00
 -1      4091 7.93503E+01 2.43892E+01 0.00000E+00
 -1      4092 7.91384E+01 2.34305E+01 0.00000E+00
 -1      4093 7.85253E+01 2.54363E+01 0.00000E+00
 -1      4094 2.87851E+01 1.82953E+01 0.00000E+00
 -1      4095 2.80351E+01 1.95943E+01 0.00000E+00
 -1      4096 3.02851E+01 1.82953E+01 0.00000E+00
 -1      4097 1.93606E+01 1.93378E+01 0.00000E+00
 -1      4098 1.93606E+01 2.08128E+01 0.00000E+00
 -1      4099 2.64000E+01 3.05150E+01 0.00000E+00
 -1      4100 2.79000E+01 3.05150E+01 0.00000E+00
 -1      4101 2.86500E+01 2.92160E+01 0.00000E+00
 -1      4102 1.94850E+01 2.57094E+01 0.00000E+00
 -1      4103 1.94850E+01 2.71820E+01 0.00000E+00
 -1      4104 2.07840E+01 2.49742E+01 0.00000E+00
 -1      4105 1.20115E+02 2.80353E+01 0.00000E+00
 -1      4106 1.18779E+02 2.88540E+01 0.00000E+00
 -1      4107 1.18310E+02 3.12696E+01 0.00000E+00
 -1      4108 1.29534E+02 1.83613E+01 0.00000E+00
 -1      4109 1.28034E+02 1.83613E+01 0.00000E+00
 -1      4110 1.27525E+02 1.97818E+01 0.00000E+00
 -1      4111 1.30541E+02 1.96711E+01 0.00000E+00
 -1      4112 2.09670E+01 2.78314E+01 0.00000E+00
 -1      4113 1.96680E+01 2.85666E+01 0.00000E+00
 -1      4114 2.20351E+01 1.95943E+01 0.00000E+00
 -1      4115 1.89180E+01 2.98656E+01 0.00000E+00
 -1      4116 2.26500E+01 2.92160E+01 0.00000E+00
 -1      4117 2.34000E+01 3.05150E+01 0.00000E+00
 -1      4118 2.49000E+01 3.05150E+01 0.00000E+00
 -1      4119 2.06596E+01 2.15479E+01 0.00000E+00
 -1      4120 4.82850E+01 1.82952E+01 0.00000E+00
 -1      4121 4.67850E+01 1.82952E+01 0.00000E+00
 -1      4122 4.60350E+01 1.95942E+01 0.00000E+00
 -1      4123 1.21650E+02 2.92385E+01 0.00000E+00
 -1      4124 4.90350E+01 1.95942E+01 0.00000E+00
 -1      4125 2.22840E+01 2.64469E+01 0.00000E+00
 -1      4126 2.24670E+01 2.78314E+01 0.00000E+00
 -1      4127 2.39670E+01 2.78314E+01 0.00000E+00
 -1      4128 1.30524E+02 2.57654E+01 0.00000E+00
 -1      4129 1.29225E+02 2.50294E+01 0.00000E+00
 -1      4130 3.69000E+01 2.79170E+01 0.00000E+00
 -1      4131 3.84000E+01 2.79170E+01 0.00000E+00
 -1      4132 3.99000E+01 2.79170E+01 0.00000E+00
 -1      4133 4.14000E+01 2.79170E+01 0.00000E+00
 -1      4134 3.91500E+01 2.66180E+01 0.00000E+00
 -1      4135 4.29000E+01 2.79170E+01 0.00000E+00
 -1      4136 4.44000E+01 2.79170E+01 0.00000E+00
 -1      4137 4.21500E+01 2.66180E+01 0.00000E+00
 -1      4138 4.59000E+01 2.79170E+01 0.00000E+00
 -1      4139 4.74000E+01 2.79170E+01 0.00000E+00
 -1      4140 4.51500E+01 2.66180E+01 0.00000E+00
 -1      4141 4.89000E+01 2.79170E+01 0.00000E+00
 -1      4142 5.04000E+01 2.79170E+01 0.00000E+00
 -1      4143 4.81500E+01 2.66180E+01 0.00000E+00
 -1      4144 5.19000E+01 2.79170E+01 0.00000E+00
 -1      4145 5.34000E+01 2.79170E+01 0.00000E+00
 -1      4146 5.11500E+01 2.66180E+01 0.00000E+00
 -1      4147 5.49000E+01 2.79170E+01 0.00000E+00
 -1      4148 5.64000E+01 2.79170E+01 0.00000E+00
 -1      4149 5.41500E+01 2.66180E+01 0.00000E+00
 -1      4150 5.79000E+01 2.79170E+01 0.00000E+00
 -1      4151 5.94000E+01 2.79170E+01 0.00000E+00
 -1      4152 5.71500E+01 2.66180E+01 0.00000E+00
 -1      4153 6.09000E+01 2.79170E+01 0.00000E+00
 -1      4154 6.24000E+01 2.79170E+01 0.00000E+00
 -1      4155 6.01500E+01 2.66180E+01 0.00000E+00
 -1      4156 6.39000E+01 2.79170E+01 0.00000E+00
 -1      4157 6.54000E+01 2.79170E+01 0.00000E+00
 -1      4158 6.31500E+01 2.66180E+01 0.00000E+00
 -1      4159 6.69000E+01 2.79170E+01 0.00000E+00
 -1      4160 6.84000E+01 2.79170E+01 0.00000E+00
 -1      4161 6.61500E+01 2.66180E+01 0.00000E+00
 -1      4162 6.99000E+01 2.79170E+01 0.00000E+00
 -1      4163 7.14000E+01 2.79170E+01 0.00000E+00
 -1      4164 6.91500E+01 2.66180E+01 0.00000E+00
 -1      4165 7.29000E+01 2.79170E+01 0.00000E+00
 -1      4166 7.44000E+01 2.79170E+01 0.00000E+00
 -1      4167 7.21500E+01 2.66180E+01 0.00000E+00
 -1      4168 6.47850E+01 2.08932E+01 0.00000E+00
 -1      4169 6.32850E+01 2.08932E+01 0.00000E+00
 -1      4170 1.27692E+02 2.78718E+01 0.00000E+00
 -1      4171 1.29192E+02 2.78718E+01 0.00000E+00
 -1      4172 8.02642E+01 2.07647E+01 0.00000E+00
 -1      4173 5.57850E+01 2.08932E+01 0.00000E+00
 -1      4174 5.42850E+01 2.08932E+01 0.00000E+00
 -1      4175 1.30524E+02 2.72404E+01 0.00000E+00
 -1      4176 5.87850E+01 2.08932E+01 0.00000E+00
 -1      4177 5.72850E+01 2.08932E+01 0.00000E+00
 -1      4178 5.65350E+01 2.21922E+01 0.00000E+00
 -1      4179 7.07850E+01 2.08932E+01 0.00000E+00
 -1      4180 6.92850E+01 2.08932E+01 0.00000E+00
 -1      4181 7.67850E+01 2.08932E+01 0.00000E+00
 -1      4182 7.52850E+01 2.08932E+01 0.00000E+00
 -1      4183 7.37850E+01 2.08932E+01 0.00000E+00
 -1      4184 7.22850E+01 2.08932E+01 0.00000E+00
 -1      4185 7.15350E+01 2.21922E+01 0.00000E+00
 -1      4186 7.45350E+01 2.21922E+01 0.00000E+00
 -1      4187 6.77850E+01 2.08932E+01 0.00000E+00
 -1      4188 6.62850E+01 2.08932E+01 0.00000E+00
 -1      4189 6.85350E+01 2.21922E+01 0.00000E+00
 -1      4190 7.87492E+01 2.09888E+01 0.00000E+00
 -1      4191 4.97850E+01 2.08932E+01 0.00000E+00
 -1      4192 4.82850E+01 2.08932E+01 0.00000E+00
 -1      4193 1.30424E+02 2.08929E+01 0.00000E+00
 -1      4194 1.26068E+02 2.75647E+01 0.00000E+00
 -1      4195 1.27610E+02 2.62205E+01 0.00000E+00
 -1      4196 1.24568E+02 2.75647E+01 0.00000E+00
 -1      4197 1.19060E+02 2.99931E+01 0.00000E+00
 -1      4198 5.27850E+01 2.08932E+01 0.00000E+00
 -1      4199 5.12850E+01 2.08932E+01 0.00000E+00
 -1      4200 5.35350E+01 2.21922E+01 0.00000E+00
 -1      4201 1.21615E+02 2.80128E+01 0.00000E+00
 -1      4202 7.82754E+01 2.78676E+01 0.00000E+00
 -1      4203 2.22840E+01 2.49742E+01 0.00000E+00
 -1      4204 2.21595E+01 2.15479E+01 0.00000E+00
 -1      4205 1.27601E+02 2.47223E+01 0.00000E+00
 -1      4206 6.17850E+01 2.08932E+01 0.00000E+00
 -1      4207 6.02850E+01 2.08932E+01 0.00000E+00
 -1      4208 6.25350E+01 2.21922E+01 0.00000E+00
 -1      4209 3.09000E+01 2.79170E+01 0.00000E+00
 -1      4210 3.24000E+01 2.79170E+01 0.00000E+00
 -1      4211 2.43473E+01 2.13074E+01 0.00000E+00
 -1      4212 2.29718E+01 2.32611E+01 0.00000E+00
 -1      4213 2.44718E+01 2.47337E+01 0.00000E+00
 -1      4214 2.58473E+01 2.13074E+01 0.00000E+00
 -1      4215 3.39000E+01 2.79170E+01 0.00000E+00
 -1      4216 3.54000E+01 2.79170E+01 0.00000E+00
 -1      4217 3.31500E+01 2.66180E+01 0.00000E+00
 -1      4218 7.79992E+01 2.22878E+01 0.00000E+00
 -1      4219 1.23032E+02 2.63615E+01 0.00000E+00
 -1      4220 3.32850E+01 1.82953E+01 0.00000E+00
 -1      4221 3.17850E+01 1.82953E+01 0.00000E+00
 -1      4222 3.10350E+01 1.95943E+01 0.00000E+00
 -1      4223 1.25638E+02 2.09751E+01 0.00000E+00
 -1      4224 1.24138E+02 2.09751E+01 0.00000E+00
 -1      4225 1.23759E+02 2.21132E+01 0.00000E+00
 -1      4226 4.07850E+01 2.08932E+01 0.00000E+00
 -1      4227 3.92850E+01 2.08932E+01 0.00000E+00
 -1      4228 7.71742E+01 2.33349E+01 0.00000E+00
 -1      4229 6.55350E+01 2.21922E+01 0.00000E+00
 -1      4230 7.56718E+01 2.78613E+01 0.00000E+00
 -1      4231 7.70036E+01 2.79233E+01 0.00000E+00
 -1      4232 7.74654E+01 2.64508E+01 0.00000E+00
 -1      4233 7.49218E+01 2.65623E+01 0.00000E+00
 -1      4234 5.05350E+01 2.21922E+01 0.00000E+00
 -1      4235 1.29125E+02 2.16288E+01 0.00000E+00
 -1      4236 4.75350E+01 2.21922E+01 0.00000E+00
 -1      4237 4.67850E+01 2.08932E+01 0.00000E+00
 -1      4238 4.52850E+01 2.08932E+01 0.00000E+00
 -1      4239 5.95350E+01 2.21922E+01 0.00000E+00
 -1      4240 7.72535E+01 2.54920E+01 0.00000E+00
 -1      4241 4.37850E+01 2.08932E+01 0.00000E+00
 -1      4242 4.22850E+01 2.08932E+01 0.00000E+00
 -1      4243 4.45350E+01 2.21922E+01 0.00000E+00
 -1      4244 3.61500E+01 2.66180E+01 0.00000E+00
 -1      4245 4.15350E+01 2.21922E+01 0.00000E+00
 -1      4246 2.56500E+01 2.92160E+01 0.00000E+00
 -1      4247 2.88473E+01 2.13074E+01 0.00000E+00
 -1      4248 2.73473E+01 2.13074E+01 0.00000E+00
 -1      4249 2.66595E+01 2.30206E+01 0.00000E+00
 -1      4250 3.70350E+01 1.95943E+01 0.00000E+00
 -1      4251 3.62850E+01 1.82953E+01 0.00000E+00
 -1      4252 3.47850E+01 1.82953E+01 0.00000E+00
 -1      4253 1.27617E+02 2.16842E+01 0.00000E+00
 -1      4254 2.94000E+01 2.79170E+01 0.00000E+00
 -1      4255 3.01500E+01 2.66180E+01 0.00000E+00
 -1      4256 2.79000E+01 2.79170E+01 0.00000E+00
 -1      4257 5.68425E+01 2.44051E+01 0.00000E+00
 -1      4258 5.53425E+01 2.44051E+01 0.00000E+00
 -1      4259 5.08425E+01 2.44051E+01 0.00000E+00
 -1      4260 4.93425E+01 2.44051E+01 0.00000E+00
 -1      4261 2.51835E+01 2.78742E+01 0.00000E+00
 -1      4262 2.66835E+01 2.78742E+01 0.00000E+00
 -1      4263 2.74335E+01 2.65752E+01 0.00000E+00
 -1      4264 2.50005E+01 2.64897E+01 0.00000E+00
 -1      4265 7.64639E+01 2.44135E+01 0.00000E+00
 -1      4266 7.53246E+01 2.32708E+01 0.00000E+00
 -1      4267 7.38246E+01 2.32708E+01 0.00000E+00
 -1      4268 7.54039E+01 2.54280E+01 0.00000E+00
 -1      4269 3.24000E+01 2.53190E+01 0.00000E+00
 -1      4270 3.39000E+01 2.53190E+01 0.00000E+00
 -1      4271 4.18425E+01 2.44051E+01 0.00000E+00
 -1      4272 4.33425E+01 2.44051E+01 0.00000E+00
 -1      4273 4.48425E+01 2.44051E+01 0.00000E+00
 -1      4274 4.63425E+01 2.44051E+01 0.00000E+00
 -1      4275 4.78425E+01 2.44051E+01 0.00000E+00
 -1      4276 5.23425E+01 2.44051E+01 0.00000E+00
 -1      4277 5.38425E+01 2.44051E+01 0.00000E+00
 -1      4278 5.83425E+01 2.44051E+01 0.00000E+00
 -1      4279 5.98425E+01 2.44051E+01 0.00000E+00
 -1      4280 6.13425E+01 2.44051E+01 0.00000E+00
 -1      4281 6.28425E+01 2.44051E+01 0.00000E+00
 -1      4282 6.43425E+01 2.44051E+01 0.00000E+00
 -1      4283 6.58425E+01 2.44051E+01 0.00000E+00
 -1      4284 6.73425E+01 2.44051E+01 0.00000E+00
 -1      4285 6.88425E+01 2.44051E+01 0.00000E+00
 -1      4286 7.03425E+01 2.44051E+01 0.00000E+00
 -1      4287 7.41321E+01 2.54837E+01 0.00000E+00
 -1      4288 3.85350E+01 2.21923E+01 0.00000E+00
 -1      4289 3.77850E+01 2.08933E+01 0.00000E+00
 -1      4290 3.62850E+01 2.08933E+01 0.00000E+00
 -1      4291 1.23301E+02 2.30930E+01 0.00000E+00
 -1      4292 1.22922E+02 2.42310E+01 0.00000E+00
 -1      4293 1.23743E+02 2.51513E+01 0.00000E+00
 -1      4294 3.88425E+01 2.44051E+01 0.00000E+00
 -1      4295 4.03425E+01 2.44051E+01 0.00000E+00
 -1      4296 3.58425E+01 2.44051E+01 0.00000E+00
 -1      4297 3.73425E+01 2.44051E+01 0.00000E+00
 -1      4298 7.18425E+01 2.44051E+01 0.00000E+00
 -1      4299 1.24801E+02 2.30930E+01 0.00000E+00
 -1      4300 1.26001E+02 2.28752E+01 0.00000E+00
 -1      4301 2.56883E+01 2.47765E+01 0.00000E+00
 -1      4302 2.84048E+01 2.48193E+01 0.00000E+00
 -1      4303 2.99048E+01 2.48193E+01 0.00000E+00
 -1      4304 3.50925E+01 2.31061E+01 0.00000E+00
 -1      4305 7.33425E+01 2.44051E+01 0.00000E+00
 -1      4306 3.40350E+01 1.95943E+01 0.00000E+00
 -1      4307 3.06548E+01 2.35203E+01 0.00000E+00
 -1      4308 3.13425E+01 2.18071E+01 0.00000E+00
 -1      4309 2.71883E+01 2.47765E+01 0.00000E+00
 -1      4310 3.43425E+01 2.18071E+01 0.00000E+00
 -1      4311 3.28425E+01 2.18071E+01 0.00000E+00
 -1      4312 1.25165E+02 2.49930E+01 0.00000E+00
 -1      4313 1.25622E+02 2.40133E+01 0.00000E+00
 -3
    3C                          2075                                     1
 -1       164    8    0    1
 -2         6         7        23      1120      1283      1137
 -1       165    8    0    1
 -2         7         8       164      1121      1284      1285
 -1       166    8    0    1
 -2         8         9       165      1122      1286      1287
 -1       167    8    0    1
 -2         8       165       164      1287      1288      1284
 -1       168    8    0    1
 -2         9        10       166      1123      1289      1290
 -1       169    8    0    1
 -2         9       166       165      1290      1291      1286
 -1       170    8    0    1
 -2        10        11       167      1124      1292      1293
 -1       171    8    0    1
 -2        10       167       166      1293      1294      1289
 -1       172    8    0    1
 -2        11        12       168      1125      1295      1296
 -1       173    8    0    1
 -2        11       168       167      1296      1297      1292
 -1       174    8    0    1
 -2        12        13       169      1126      1298      1299
 -1       175    8    0    1
 -2        12       169       168      1299      1300      1295
 -1       176    8    0    1
 -2        13        14       170      1127      1301      1302
 -1       177    8    0    1
 -2        13       170       169      1302      1303      1298
 -1       178    8    0    1
 -2        14        15       171      1128      1304      1305
 -1       179    8    0    1
 -2        14       171       170      1305      1306      1301
 -1       180    8    0    1
 -2        15        16       172      1129      1307      1308
 -1       181    8    0    1
 -2        15       172       171      1308      1309      1304
 -1       182    8    0    1
 -2        16        17       173      1130      1310      1311
 -1       183    8    0    1
 -2        16       173       172      1311      1312      1307
 -1       184    8    0    1
 -2        17        18       174      1131      1313      1314
 -1       185    8    0    1
 -2        17       174       173      1314      1315      1310
 -1       186    8    0    1
 -2        18        19       175      1132      1316      1317
 -1       187    8    0    1
 -2        18       175       174      1317      1318      1313
 -1       188    8    0    1
 -2        19        20       176      1133      1319      1320
 -1       189    8    0    1
 -2        19       176       175      1320      1321      1316
 -1       190    8    0    1
 -2        20        21       177      1134      1322      1323
 -1       191    8    0    1
 -2        20       177       176      1323      1324      1319
 -1       192    8    0    1
 -2        21        22       178      1135      1325      1326
 -1       193    8    0    1
 -2        21       178       177      1326      1327      1322
 -1       194    8    0    1
 -2        22         5       179      1136      1328      1329
 -1       195    8    0    1
 -2       178        22       179      1325      1329      1330
 -1       196    8    0    1
 -2         5        72       179      1187      1331      1328
 -1       197    8    0    1
 -2        24        23       180      1138      1332      1333
 -1       198    8    0    1
 -2        25        24       181      1139      1334      1335
 -1       199    8    0    1
 -2        24       180       181      1333      1336      1334
 -1       200    8    0    1
 -2        26        25       182      1140      1337      1338
 -1       201    8    0    1
 -2        25       181       182      1335      1339      1337
 -1       202    8    0    1
 -2        27        26       183      1141      1340      1341
 -1       203    8    0    1
 -2        26       182       183      1338      1342      1340
 -1       204    8    0    1
 -2        28        27       184      1142      1343      1344
 -1       205    8    0    1
 -2        27       183       184      1341      1345      1343
 -1       206    8    0    1
 -2        29        28       185      1143      1346      1347
 -1       207    8    0    1
 -2        28       184       185      1344      1348      1346
 -1       208    8    0    1
 -2        30        29       186      1144      1349      1350
 -1       209    8    0    1
 -2        29       185       186      1347      1351      1349
 -1       210    8    0    1
 -2        31        30       187      1145      1352      1353
 -1       211    8    0    1
 -2        30       186       187      1350      1354      1352
 -1       212    8    0    1
 -2        32        31       188      1146      1355      1356
 -1       213    8    0    1
 -2        31       187       188      1353      1357      1355
 -1       214    8    0    1
 -2        33        32       189      1147      1358      1359
 -1       215    8    0    1
 -2        32       188       189      1356      1360      1358
 -1       216    8    0    1
 -2        34        33       190      1148      1361      1362
 -1       217    8    0    1
 -2        33       189       190      1359      1363      1361
 -1       218    8    0    1
 -2        35        34       191      1149      1364      1365
 -1       219    8    0    1
 -2        34       190       191      1362      1366      1364
 -1       220    8    0    1
 -2        36        35       192      1150      1367      1368
 -1       221    8    0    1
 -2        35       191       192      1365      1369      1367
 -1       222    8    0    1
 -2        37        36       193      1151      1370      1371
 -1       223    8    0    1
 -2        36       192       193      1368      1372      1370
 -1       224    8    0    1
 -2        38        37       194      1152      1373      1374
 -1       225    8    0    1
 -2        37       193       194      1371      1375      1373
 -1       226    8    0    1
 -2        39        38       195      1153      1376      1377
 -1       227    8    0    1
 -2        38       194       195      1374      1378      1376
 -1       228    8    0    1
 -2        40        39       196      1154      1379      1380
 -1       229    8    0    1
 -2        39       195       196      1377      1381      1379
 -1       230    8    0    1
 -2        41        40       197      1155      1382      1383
 -1       231    8    0    1
 -2        40       196       197      1380      1384      1382
 -1       232    8    0    1
 -2        42        41       198      1156      1385      1386
 -1       233    8    0    1
 -2        41       197       198      1383      1387      1385
 -1       234    8    0    1
 -2        43        42       199      1157      1388      1389
 -1       235    8    0    1
 -2        42       198       199      1386      1390      1388
 -1       236    8    0    1
 -2        44        43       200      1158      1391      1392
 -1       237    8    0    1
 -2        43       199       200      1389      1393      1391
 -1       238    8    0    1
 -2        45        44       201      1159      1394      1395
 -1       239    8    0    1
 -2        44       200       201      1392      1396      1394
 -1       240    8    0    1
 -2        46        45       202      1160      1397      1398
 -1       241    8    0    1
 -2        45       201       202      1395      1399      1397
 -1       242    8    0    1
 -2        47        46       203      1161      1400      1401
 -1       243    8    0    1
 -2        46       202       203      1398      1402      1400
 -1       244    8    0    1
 -2        48        47       204      1162      1403      1404
 -1       245    8    0    1
 -2        47       203       204      1401      1405      1403
 -1       246    8    0    1
 -2        49        48       205      1163      1406      1407
 -1       247    8    0    1
 -2        48       204       205      1404      1408      1406
 -1       248    8    0    1
 -2        50        49       206      1164      1409      1410
 -1       249    8    0    1
 -2        49       205       206      1407      1411      1409
 -1       250    8    0    1
 -2        51        50       207      1165      1412      1413
 -1       251    8    0    1
 -2        50       206       207      1410      1414      1412
 -1       252    8    0    1
 -2        52        51       208      1166      1415      1416
 -1       253    8    0    1
 -2        51       207       208      1413      1417      1415
 -1       254    8    0    1
 -2        53        52       209      1167      1418      1419
 -1       255    8    0    1
 -2        52       208       209      1416      1420      1418
 -1       256    8    0    1
 -2        54        53       210      1168      1421      1422
 -1       257    8    0    1
 -2        53       209       210      1419      1423      1421
 -1       258    8    0    1
 -2        55        54       211      1169      1424      1425
 -1       259    8    0    1
 -2        54       210       211      1422      1426      1424
 -1       260    8    0    1
 -2        56        55       212      1170      1427      1428
 -1       261    8    0    1
 -2        55       211       212      1425      1429      1427
 -1       262    8    0    1
 -2        57        56       213      1171      1430      1431
 -1       263    8    0    1
 -2        56       212       213      1428      1432      1430
 -1       264    8    0    1
 -2        58        57       214      1172      1433      1434
 -1       265    8    0    1
 -2        57       213       214      1431      1435      1433
 -1       266    8    0    1
 -2        59        58       215      1173      1436      1437
 -1       267    8    0    1
 -2        58       214       215      1434      1438      1436
 -1       268    8    0    1
 -2        60        59       216      1174      1439      1440
 -1       269    8    0    1
 -2        59       215       216      1437      1441      1439
 -1       270    8    0    1
 -2        61        60       217      1175      1442      1443
 -1       271    8    0    1
 -2        60       216       217      1440      1444      1442
 -1       272    8    0    1
 -2        62        61       218      1176      1445      1446
 -1       273    8    0    1
 -2        61       217       218      1443      1447      1445
 -1       274    8    0    1
 -2        63        62       219      1177      1448      1449
 -1       275    8    0    1
 -2        62       218       219      1446      1450      1448
 -1       276    8    0    1
 -2        64        63       220      1178      1451      1452
 -1       277    8    0    1
 -2        63       219       220      1449      1453      1451
 -1       278    8    0    1
 -2        65        64       221      1179      1454      1455
 -1       279    8    0    1
 -2        64       220       221      1452      1456      1454
 -1       280    8    0    1
 -2        66        65       222      1180      1457      1458
 -1       281    8    0    1
 -2        65       221       222      1455      1459      1457
 -1       282    8    0    1
 -2        67        66       223      1181      1460      1461
 -1       283    8    0    1
 -2        66       222       223      1458      1462      1460
 -1       284    8    0    1
 -2        68        67       224      1182      1463      1464
 -1       285    8    0    1
 -2        67       223       224      1461      1465      1463
 -1       286    8    0    1
 -2        69        68       225      1183      1466      1467
 -1       287    8    0    1
 -2        68       224       225      1464      1468      1466
 -1       288    8    0    1
 -2        70        69       226      1184      1469      1470
 -1       289    8    0    1
 -2        69       225       226      1467      1471      1469
 -1       290    8    0    1
 -2        71        70       227      1185      1472      1473
 -1       291    8    0    1
 -2        70       226       227      1470      1474      1472
 -1       292    8    0    1
 -2         4        71       136      1186      1475      1253
 -1       293    8    0    1
 -2       136        71       227      1475      1473      1476
 -1       294    8    0    1
 -2        72        73       228      1188      1477      1478
 -1       295    8    0    1
 -2        72       228       179      1478      1479      1331
 -1       296    8    0    1
 -2        73        74       229      1189      1480      1481
 -1       297    8    0    1
 -2        73       229       228      1481      1482      1477
 -1       298    8    0    1
 -2        74        75       230      1190      1483      1484
 -1       299    8    0    1
 -2        74       230       229      1484      1485      1480
 -1       300    8    0    1
 -2        75        76       231      1191      1486      1487
 -1       301    8    0    1
 -2        75       231       230      1487      1488      1483
 -1       302    8    0    1
 -2        76        77       232      1192      1489      1490
 -1       303    8    0    1
 -2        76       232       231      1490      1491      1486
 -1       304    8    0    1
 -2        77        78       233      1193      1492      1493
 -1       305    8    0    1
 -2        77       233       232      1493      1494      1489
 -1       306    8    0    1
 -2        78        79       234      1194      1495      1496
 -1       307    8    0    1
 -2        78       234       233      1496      1497      1492
 -1       308    8    0    1
 -2        79        80       235      1195      1498      1499
 -1       309    8    0    1
 -2        79       235       234      1499      1500      1495
 -1       310    8    0    1
 -2        80        81       236      1196      1501      1502
 -1       311    8    0    1
 -2        80       236       235      1502      1503      1498
 -1       312    8    0    1
 -2        81        82       237      1197      1504      1505
 -1       313    8    0    1
 -2        81       237       236      1505      1506      1501
 -1       314    8    0    1
 -2        82        83       238      1198      1507      1508
 -1       315    8    0    1
 -2        82       238       237      1508      1509      1504
 -1       316    8    0    1
 -2        83        84       239      1199      1510      1511
 -1       317    8    0    1
 -2        83       239       238      1511      1512      1507
 -1       318    8    0    1
 -2        84        85       240      1200      1513      1514
 -1       319    8    0    1
 -2        84       240       239      1514      1515      1510
 -1       320    8    0    1
 -2        85        86       241      1201      1516      1517
 -1       321    8    0    1
 -2        85       241       240      1517      1518      1513
 -1       322    8    0    1
 -2        86        87       242      1202      1519      1520
 -1       323    8    0    1
 -2        86       242       241      1520      1521      1516
 -1       324    8    0    1
 -2        87        88       243      1203      1522      1523
 -1       325    8    0    1
 -2        87       243       242      1523      1524      1519
 -1       326    8    0    1
 -2        88        89       244      1204      1525      1526
 -1       327    8    0    1
 -2        88       244       243      1526      1527      1522
 -1       328    8    0    1
 -2        89        90       245      1205      1528      1529
 -1       329    8    0    1
 -2        89       245       244      1529      1530      1525
 -1       330    8    0    1
 -2        90        91       246      1206      1531      1532
 -1       331    8    0    1
 -2        90       246       245      1532      1533      1528
 -1       332    8    0    1
 -2        91        92       247      1207      1534      1535
 -1       333    8    0    1
 -2        91       247       246      1535      1536      1531
 -1       334    8    0    1
 -2        92        93       248      1208      1537      1538
 -1       335    8    0    1
 -2        92       248       247      1538      1539      1534
 -1       336    8    0    1
 -2        93        94       249      1209      1540      1541
 -1       337    8    0    1
 -2        93       249       248      1541      1542      1537
 -1       338    8    0    1
 -2        94        95       250      1210      1543      1544
 -1       339    8    0    1
 -2        94       250       249      1544      1545      1540
 -1       340    8    0    1
 -2        95        96       251      1211      1546      1547
 -1       341    8    0    1
 -2        95       251       250      1547      1548      1543
 -1       342    8    0    1
 -2        96        97       252      1212      1549      1550
 -1       343    8    0    1
 -2        96       252       251      1550      1551      1546
 -1       344    8    0    1
 -2        97        98       253      1213      1552      1553
 -1       345    8    0    1
 -2        97       253       252      1553      1554      1549
 -1       346    8    0    1
 -2        98        99       254      1214      1555      1556
 -1       347    8    0    1
 -2        98       254       253      1556      1557      1552
 -1       348    8    0    1
 -2        99       100       255      1215      1558      1559
 -1       349    8    0    1
 -2        99       255       254      1559      1560      1555
 -1       350    8    0    1
 -2       100       101       256      1216      1561      1562
 -1       351    8    0    1
 -2       100       256       255      1562      1563      1558
 -1       352    8    0    1
 -2       101       102       257      1217      1564      1565
 -1       353    8    0    1
 -2       101       257       256      1565      1566      1561
 -1       354    8    0    1
 -2       102       103       258      1218      1567      1568
 -1       355    8    0    1
 -2       102       258       257      1568      1569      1564
 -1       356    8    0    1
 -2       103       104       259      1219      1570      1571
 -1       357    8    0    1
 -2       103       259       258      1571      1572      1567
 -1       358    8    0    1
 -2       104       105       260      1220      1573      1574
 -1       359    8    0    1
 -2       104       260       259      1574      1575      1570
 -1       360    8    0    1
 -2       105       106       261      1221      1576      1577
 -1       361    8    0    1
 -2       105       261       260      1577      1578      1573
 -1       362    8    0    1
 -2       106       107       262      1222      1579      1580
 -1       363    8    0    1
 -2       106       262       261      1580      1581      1576
 -1       364    8    0    1
 -2       107       108       263      1223      1582      1583
 -1       365    8    0    1
 -2       107       263       262      1583      1584      1579
 -1       366    8    0    1
 -2       108       109       264      1224      1585      1586
 -1       367    8    0    1
 -2       108       264       263      1586      1587      1582
 -1       368    8    0    1
 -2       109       110       265      1225      1588      1589
 -1       369    8    0    1
 -2       109       265       264      1589      1590      1585
 -1       370    8    0    1
 -2       110       111       266      1226      1591      1592
 -1       371    8    0    1
 -2       110       266       265      1592      1593      1588
 -1       372    8    0    1
 -2       111       112       267      1227      1594      1595
 -1       373    8    0    1
 -2       111       267       266      1595      1596      1591
 -1       374    8    0    1
 -2       112       113       268      1228      1597      1598
 -1       375    8    0    1
 -2       112       268       267      1598      1599      1594
 -1       376    8    0    1
 -2       113       114       269      1229      1600      1601
 -1       377    8    0    1
 -2       113       269       268      1601      1602      1597
 -1       378    8    0    1
 -2       114       115       270      1230      1603      1604
 -1       379    8    0    1
 -2       114       270       269      1604      1605      1600
 -1       380    8    0    1
 -2       115       116       271      1231      1606      1607
 -1       381    8    0    1
 -2       115       271       270      1607      1608      1603
 -1       382    8    0    1
 -2       116       117       272      1232      1609      1610
 -1       383    8    0    1
 -2       116       272       271      1610      1611      1606
 -1       384    8    0    1
 -2       117       118       273      1233      1612      1613
 -1       385    8    0    1
 -2       117       273       272      1613      1614      1609
 -1       386    8    0    1
 -2       118       119       274      1234      1615      1616
 -1       387    8    0    1
 -2       118       274       273      1616      1617      1612
 -1       388    8    0    1
 -2       119       120       275      1235      1618      1619
 -1       389    8    0    1
 -2       119       275       274      1619      1620      1615
 -1       390    8    0    1
 -2       120         3       121      1236      1237      1621
 -1       391    8    0    1
 -2       121       122       276      1238      1622      1623
 -1       392    8    0    1
 -2       122       123       277      1239      1624      1625
 -1       393    8    0    1
 -2       122       277       276      1625      1626      1622
 -1       394    8    0    1
 -2       123       124       278      1240      1627      1628
 -1       395    8    0    1
 -2       123       278       277      1628      1629      1624
 -1       396    8    0    1
 -2       124       125       279      1241      1630      1631
 -1       397    8    0    1
 -2       124       279       278      1631      1632      1627
 -1       398    8    0    1
 -2       125       126       280      1242      1633      1634
 -1       399    8    0    1
 -2       125       280       279      1634      1635      1630
 -1       400    8    0    1
 -2       126       127       281      1243      1636      1637
 -1       401    8    0    1
 -2       126       281       280      1637      1638      1633
 -1       402    8    0    1
 -2       127       128       282      1244      1639      1640
 -1       403    8    0    1
 -2       127       282       281      1640      1641      1636
 -1       404    8    0    1
 -2       128       129       283      1245      1642      1643
 -1       405    8    0    1
 -2       128       283       282      1643      1644      1639
 -1       406    8    0    1
 -2       129       130       284      1246      1645      1646
 -1       407    8    0    1
 -2       129       284       283      1646      1647      1642
 -1       408    8    0    1
 -2       130       131       285      1247      1648      1649
 -1       409    8    0    1
 -2       130       285       284      1649      1650      1645
 -1       410    8    0    1
 -2       131       132       286      1248      1651      1652
 -1       411    8    0    1
 -2       131       286       285      1652      1653      1648
 -1       412    8    0    1
 -2       132       133       287      1249      1654      1655
 -1       413    8    0    1
 -2       132       287       286      1655      1656      1651
 -1       414    8    0    1
 -2       133       134       288      1250      1657      1658
 -1       415    8    0    1
 -2       133       288       287      1658      1659      1654
 -1       416    8    0    1
 -2       134       135       289      1251      1660      1661
 -1       417    8    0    1
 -2       134       289       288      1661      1662      1657
 -1       418    8    0    1
 -2       135       136       290      1252      1663      1664
 -1       419    8    0    1
 -2       289       135       290      1660      1664      1665
 -1       420    8    0    1
 -2       136       227       290      1476      1666      1663
 -1       421    8    0    1
 -2         2       137       291      1254      1667      1668
 -1       422    8    0    1
 -2       137       138       292      1255      1669      1670
 -1       423    8    0    1
 -2       138       139       293      1256      1671      1672
 -1       424    8    0    1
 -2       139       140       294      1257      1673      1674
 -1       425    8    0    1
 -2       140       141       295      1258      1675      1676
 -1       426    8    0    1
 -2       141       142       296      1259      1677      1678
 -1       427    8    0    1
 -2       142       143       297      1260      1679      1680
 -1       428    8    0    1
 -2       143       144       298      1261      1681      1682
 -1       429    8    0    1
 -2       144       145       299      1262      1683      1684
 -1       430    8    0    1
 -2       145       146       300      1263      1685      1686
 -1       431    8    0    1
 -2       146       147       301      1264      1687      1688
 -1       432    8    0    1
 -2       147       148       302      1265      1689      1690
 -1       433    8    0    1
 -2       148       149       303      1266      1691      1692
 -1       434    8    0    1
 -2       149       150       304      1267      1693      1694
 -1       435    8    0    1
 -2       150       151       305      1268      1695      1696
 -1       436    8    0    1
 -2       151       152       306      1269      1697      1698
 -1       437    8    0    1
 -2       152       153       307      1270      1699      1700
 -1       438    8    0    1
 -2       153         1       308      1271      1701      1702
 -1       439    8    0    1
 -2         1       154       309      1272      1703      1704
 -1       440    8    0    1
 -2       154       155       310      1273      1705      1706
 -1       441    8    0    1
 -2       155       156       311      1274      1707      1708
 -1       442    8    0    1
 -2       156       157       312      1275      1709      1710
 -1       443    8    0    1
 -2       157       158       313      1276      1711      1712
 -1       444    8    0    1
 -2       158       159       314      1277      1713      1714
 -1       445    8    0    1
 -2       159       160       315      1278      1715      1716
 -1       446    8    0    1
 -2       160       161       316      1279      1717      1718
 -1       447    8    0    1
 -2       161       162       317      1280      1719      1720
 -1       448    8    0    1
 -2       162       163       318      1281      1721      1722
 -1       449    8    0    1
 -2       163         2       319      1282      1723      1724
 -1       450    8    0    1
 -2       294       140       295      1673      1676      1725
 -1       451    8    0    1
 -2       293       139       294      1671      1674      1726
 -1       452    8    0    1
 -2       120       121       275      1621      1727      1618
 -1       453    8    0    1
 -2       121       276       275      1623      1728      1727
 -1       454    8    0    1
 -2       291       137       292      1667      1670      1729
 -1       455    8    0    1
 -2       292       138       293      1669      1672      1730
 -1       456    8    0    1
 -2         2       291       319      1668      1731      1723
 -1       457    8    0    1
 -2       141       296       295      1678      1732      1675
 -1       458    8    0    1
 -2       142       297       296      1680      1733      1677
 -1       459    8    0    1
 -2       143       298       297      1682      1734      1679
 -1       460    8    0    1
 -2       144       299       298      1684      1735      1681
 -1       461    8    0    1
 -2       145       300       299      1686      1736      1683
 -1       462    8    0    1
 -2       146       301       300      1688      1737      1685
 -1       463    8    0    1
 -2       147       302       301      1690      1738      1687
 -1       464    8    0    1
 -2       148       303       302      1692      1739      1689
 -1       465    8    0    1
 -2       149       304       303      1694      1740      1691
 -1       466    8    0    1
 -2       150       305       304      1696      1741      1693
 -1       467    8    0    1
 -2       151       306       305      1698      1742      1695
 -1       468    8    0    1
 -2       152       307       306      1700      1743      1697
 -1       469    8    0    1
 -2       153       308       307      1702      1744      1699
 -1       470    8    0    1
 -2         1       309       308      1704      1745      1701
 -1       471    8    0    1
 -2       154       310       309      1706      1746      1703
 -1       472    8    0    1
 -2       155       311       310      1708      1747      1705
 -1       473    8    0    1
 -2       156       312       311      1710      1748      1707
 -1       474    8    0    1
 -2       157       313       312      1712      1749      1709
 -1       475    8    0    1
 -2       158       314       313      1714      1750      1711
 -1       476    8    0    1
 -2       159       315       314      1716      1751      1713
 -1       477    8    0    1
 -2       160       316       315      1718      1752      1715
 -1       478    8    0    1
 -2       161       317       316      1720      1753      1717
 -1       479    8    0    1
 -2       162       318       317      1722      1754      1719
 -1       480    8    0    1
 -2       163       319       318      1724      1755      1721
 -1       481    8    0    1
 -2        23         7       164      1283      1285      1756
 -1       482    8    0    1
 -2       165       166       320      1291      1757      1758
 -1       483    8    0    1
 -2       164       165       321      1288      1759      1760
 -1       484    8    0    1
 -2       165       320       321      1758      1761      1759
 -1       485    8    0    1
 -2       167       168       322      1297      1762      1763
 -1       486    8    0    1
 -2       168       169       323      1300      1764      1765
 -1       487    8    0    1
 -2       168       323       322      1765      1766      1762
 -1       488    8    0    1
 -2       169       170       324      1303      1767      1768
 -1       489    8    0    1
 -2       169       324       323      1768      1769      1764
 -1       490    8    0    1
 -2       170       171       325      1306      1770      1771
 -1       491    8    0    1
 -2       170       325       324      1771      1772      1767
 -1       492    8    0    1
 -2       171       172       326      1309      1773      1774
 -1       493    8    0    1
 -2       171       326       325      1774      1775      1770
 -1       494    8    0    1
 -2       172       173       327      1312      1776      1777
 -1       495    8    0    1
 -2       172       327       326      1777      1778      1773
 -1       496    8    0    1
 -2       173       174       328      1315      1779      1780
 -1       497    8    0    1
 -2       173       328       327      1780      1781      1776
 -1       498    8    0    1
 -2       174       175       329      1318      1782      1783
 -1       499    8    0    1
 -2       174       329       328      1783      1784      1779
 -1       500    8    0    1
 -2       175       176       330      1321      1785      1786
 -1       501    8    0    1
 -2       175       330       329      1786      1787      1782
 -1       502    8    0    1
 -2       176       177       331      1324      1788      1789
 -1       503    8    0    1
 -2       176       331       330      1789      1790      1785
 -1       504    8    0    1
 -2       177       178       332      1327      1791      1792
 -1       505    8    0    1
 -2       177       332       331      1792      1793      1788
 -1       506    8    0    1
 -2       178       179       333      1330      1794      1795
 -1       507    8    0    1
 -2       332       178       333      1791      1795      1796
 -1       508    8    0    1
 -2       179       228       333      1479      1797      1794
 -1       509    8    0    1
 -2       180        23       164      1332      1756      1798
 -1       510    8    0    1
 -2       228       229       334      1482      1799      1800
 -1       511    8    0    1
 -2       228       334       333      1800      1801      1797
 -1       512    8    0    1
 -2       180       164       321      1798      1760      1802
 -1       513    8    0    1
 -2       182       181       335      1339      1803      1804
 -1       514    8    0    1
 -2       183       182       336      1342      1805      1806
 -1       515    8    0    1
 -2       182       335       336      1804      1807      1805
 -1       516    8    0    1
 -2       184       183       337      1345      1808      1809
 -1       517    8    0    1
 -2       183       336       337      1806      1810      1808
 -1       518    8    0    1
 -2       185       184       338      1348      1811      1812
 -1       519    8    0    1
 -2       184       337       338      1809      1813      1811
 -1       520    8    0    1
 -2       186       185       339      1351      1814      1815
 -1       521    8    0    1
 -2       185       338       339      1812      1816      1814
 -1       522    8    0    1
 -2       187       186       340      1354      1817      1818
 -1       523    8    0    1
 -2       186       339       340      1815      1819      1817
 -1       524    8    0    1
 -2       188       187       341      1357      1820      1821
 -1       525    8    0    1
 -2       187       340       341      1818      1822      1820
 -1       526    8    0    1
 -2       189       188       342      1360      1823      1824
 -1       527    8    0    1
 -2       188       341       342      1821      1825      1823
 -1       528    8    0    1
 -2       190       189       343      1363      1826      1827
 -1       529    8    0    1
 -2       189       342       343      1824      1828      1826
 -1       530    8    0    1
 -2       191       190       344      1366      1829      1830
 -1       531    8    0    1
 -2       190       343       344      1827      1831      1829
 -1       532    8    0    1
 -2       192       191       345      1369      1832      1833
 -1       533    8    0    1
 -2       191       344       345      1830      1834      1832
 -1       534    8    0    1
 -2       193       192       346      1372      1835      1836
 -1       535    8    0    1
 -2       192       345       346      1833      1837      1835
 -1       536    8    0    1
 -2       194       193       347      1375      1838      1839
 -1       537    8    0    1
 -2       193       346       347      1836      1840      1838
 -1       538    8    0    1
 -2       195       194       348      1378      1841      1842
 -1       539    8    0    1
 -2       194       347       348      1839      1843      1841
 -1       540    8    0    1
 -2       196       195       349      1381      1844      1845
 -1       541    8    0    1
 -2       195       348       349      1842      1846      1844
 -1       542    8    0    1
 -2       197       196       350      1384      1847      1848
 -1       543    8    0    1
 -2       196       349       350      1845      1849      1847
 -1       544    8    0    1
 -2       198       197       351      1387      1850      1851
 -1       545    8    0    1
 -2       197       350       351      1848      1852      1850
 -1       546    8    0    1
 -2       199       198       352      1390      1853      1854
 -1       547    8    0    1
 -2       198       351       352      1851      1855      1853
 -1       548    8    0    1
 -2       200       199       353      1393      1856      1857
 -1       549    8    0    1
 -2       199       352       353      1854      1858      1856
 -1       550    8    0    1
 -2       201       200       354      1396      1859      1860
 -1       551    8    0    1
 -2       200       353       354      1857      1861      1859
 -1       552    8    0    1
 -2       202       201       355      1399      1862      1863
 -1       553    8    0    1
 -2       201       354       355      1860      1864      1862
 -1       554    8    0    1
 -2       203       202       356      1402      1865      1866
 -1       555    8    0    1
 -2       202       355       356      1863      1867      1865
 -1       556    8    0    1
 -2       204       203       357      1405      1868      1869
 -1       557    8    0    1
 -2       203       356       357      1866      1870      1868
 -1       558    8    0    1
 -2       205       204       358      1408      1871      1872
 -1       559    8    0    1
 -2       204       357       358      1869      1873      1871
 -1       560    8    0    1
 -2       206       205       359      1411      1874      1875
 -1       561    8    0    1
 -2       205       358       359      1872      1876      1874
 -1       562    8    0    1
 -2       207       206       360      1414      1877      1878
 -1       563    8    0    1
 -2       206       359       360      1875      1879      1877
 -1       564    8    0    1
 -2       208       207       361      1417      1880      1881
 -1       565    8    0    1
 -2       207       360       361      1878      1882      1880
 -1       566    8    0    1
 -2       209       208       362      1420      1883      1884
 -1       567    8    0    1
 -2       208       361       362      1881      1885      1883
 -1       568    8    0    1
 -2       210       209       363      1423      1886      1887
 -1       569    8    0    1
 -2       209       362       363      1884      1888      1886
 -1       570    8    0    1
 -2       211       210       364      1426      1889      1890
 -1       571    8    0    1
 -2       210       363       364      1887      1891      1889
 -1       572    8    0    1
 -2       212       211       365      1429      1892      1893
 -1       573    8    0    1
 -2       211       364       365      1890      1894      1892
 -1       574    8    0    1
 -2       213       212       366      1432      1895      1896
 -1       575    8    0    1
 -2       212       365       366      1893      1897      1895
 -1       576    8    0    1
 -2       214       213       367      1435      1898      1899
 -1       577    8    0    1
 -2       213       366       367      1896      1900      1898
 -1       578    8    0    1
 -2       215       214       368      1438      1901      1902
 -1       579    8    0    1
 -2       214       367       368      1899      1903      1901
 -1       580    8    0    1
 -2       216       215       369      1441      1904      1905
 -1       581    8    0    1
 -2       215       368       369      1902      1906      1904
 -1       582    8    0    1
 -2       217       216       370      1444      1907      1908
 -1       583    8    0    1
 -2       216       369       370      1905      1909      1907
 -1       584    8    0    1
 -2       218       217       371      1447      1910      1911
 -1       585    8    0    1
 -2       217       370       371      1908      1912      1910
 -1       586    8    0    1
 -2       219       218       372      1450      1913      1914
 -1       587    8    0    1
 -2       218       371       372      1911      1915      1913
 -1       588    8    0    1
 -2       220       219       373      1453      1916      1917
 -1       589    8    0    1
 -2       219       372       373      1914      1918      1916
 -1       590    8    0    1
 -2       221       220       374      1456      1919      1920
 -1       591    8    0    1
 -2       220       373       374      1917      1921      1919
 -1       592    8    0    1
 -2       222       221       375      1459      1922      1923
 -1       593    8    0    1
 -2       221       374       375      1920      1924      1922
 -1       594    8    0    1
 -2       223       222       376      1462      1925      1926
 -1       595    8    0    1
 -2       222       375       376      1923      1927      1925
 -1       596    8    0    1
 -2       224       223       377      1465      1928      1929
 -1       597    8    0    1
 -2       223       376       377      1926      1930      1928
 -1       598    8    0    1
 -2       225       224       378      1468      1931      1932
 -1       599    8    0    1
 -2       224       377       378      1929      1933      1931
 -1       600    8    0    1
 -2       226       225       379      1471      1934      1935
 -1       601    8    0    1
 -2       225       378       379      1932      1936      1934
 -1       602    8    0    1
 -2       227       226       380      1474      1937      1938
 -1       603    8    0    1
 -2       290       227       380      1666      1938      1939
 -1       604    8    0    1
 -2       226       379       380      1935      1940      1937
 -1       605    8    0    1
 -2       229       230       381      1485      1941      1942
 -1       606    8    0    1
 -2       229       381       334      1942      1943      1799
 -1       607    8    0    1
 -2       230       231       382      1488      1944      1945
 -1       608    8    0    1
 -2       230       382       381      1945      1946      1941
 -1       609    8    0    1
 -2       231       232       383      1491      1947      1948
 -1       610    8    0    1
 -2       231       383       382      1948      1949      1944
 -1       611    8    0    1
 -2       232       233       384      1494      1950      1951
 -1       612    8    0    1
 -2       232       384       383      1951      1952      1947
 -1       613    8    0    1
 -2       233       234       385      1497      1953      1954
 -1       614    8    0    1
 -2       233       385       384      1954      1955      1950
 -1       615    8    0    1
 -2       234       235       386      1500      1956      1957
 -1       616    8    0    1
 -2       234       386       385      1957      1958      1953
 -1       617    8    0    1
 -2       235       236       387      1503      1959      1960
 -1       618    8    0    1
 -2       235       387       386      1960      1961      1956
 -1       619    8    0    1
 -2       236       237       388      1506      1962      1963
 -1       620    8    0    1
 -2       236       388       387      1963      1964      1959
 -1       621    8    0    1
 -2       237       238       389      1509      1965      1966
 -1       622    8    0    1
 -2       237       389       388      1966      1967      1962
 -1       623    8    0    1
 -2       238       239       390      1512      1968      1969
 -1       624    8    0    1
 -2       238       390       389      1969      1970      1965
 -1       625    8    0    1
 -2       239       240       391      1515      1971      1972
 -1       626    8    0    1
 -2       239       391       390      1972      1973      1968
 -1       627    8    0    1
 -2       240       241       392      1518      1974      1975
 -1       628    8    0    1
 -2       240       392       391      1975      1976      1971
 -1       629    8    0    1
 -2       241       242       393      1521      1977      1978
 -1       630    8    0    1
 -2       241       393       392      1978      1979      1974
 -1       631    8    0    1
 -2       242       243       394      1524      1980      1981
 -1       632    8    0    1
 -2       242       394       393      1981      1982      1977
 -1       633    8    0    1
 -2       243       244       395      1527      1983      1984
 -1       634    8    0    1
 -2       243       395       394      1984      1985      1980
 -1       635    8    0    1
 -2       244       245       396      1530      1986      1987
 -1       636    8    0    1
 -2       244       396       395      1987      1988      1983
 -1       637    8    0    1
 -2       245       246       397      1533      1989      1990
 -1       638    8    0    1
 -2       245       397       396      1990      1991      1986
 -1       639    8    0    1
 -2       246       247       398      1536      1992      1993
 -1       640    8    0    1
 -2       246       398       397      1993      1994      1989
 -1       641    8    0    1
 -2       247       248       399      1539      1995      1996
 -1       642    8    0    1
 -2       247       399       398      1996      1997      1992
 -1       643    8    0    1
 -2       248       249       400      1542      1998      1999
 -1       644    8    0    1
 -2       248       400       399      1999      2000      1995
 -1       645    8    0    1
 -2       249       250       401      1545      2001      2002
 -1       646    8    0    1
 -2       249       401       400      2002      2003      1998
 -1       647    8    0    1
 -2       250       251       402      1548      2004      2005
 -1       648    8    0    1
 -2       250       402       401      2005      2006      2001
 -1       649    8    0    1
 -2       251       252       403      1551      2007      2008
 -1       650    8    0    1
 -2       251       403       402      2008      2009      2004
 -1       651    8    0    1
 -2       252       253       404      1554      2010      2011
 -1       652    8    0    1
 -2       252       404       403      2011      2012      2007
 -1       653    8    0    1
 -2       253       254       405      1557      2013      2014
 -1       654    8    0    1
 -2       253       405       404      2014      2015      2010
 -1       655    8    0    1
 -2       254       255       406      1560      2016      2017
 -1       656    8    0    1
 -2       254       406       405      2017      2018      2013
 -1       657    8    0    1
 -2       255       256       407      1563      2019      2020
 -1       658    8    0    1
 -2       255       407       406      2020      2021      2016
 -1       659    8    0    1
 -2       256       257       408      1566      2022      2023
 -1       660    8    0    1
 -2       256       408       407      2023      2024      2019
 -1       661    8    0    1
 -2       257       258       409      1569      2025      2026
 -1       662    8    0    1
 -2       257       409       408      2026      2027      2022
 -1       663    8    0    1
 -2       258       259       410      1572      2028      2029
 -1       664    8    0    1
 -2       258       410       409      2029      2030      2025
 -1       665    8    0    1
 -2       259       260       411      1575      2031      2032
 -1       666    8    0    1
 -2       259       411       410      2032      2033      2028
 -1       667    8    0    1
 -2       260       261       412      1578      2034      2035
 -1       668    8    0    1
 -2       260       412       411      2035      2036      2031
 -1       669    8    0    1
 -2       261       262       413      1581      2037      2038
 -1       670    8    0    1
 -2       261       413       412      2038      2039      2034
 -1       671    8    0    1
 -2       262       263       414      1584      2040      2041
 -1       672    8    0    1
 -2       262       414       413      2041      2042      2037
 -1       673    8    0    1
 -2       263       264       415      1587      2043      2044
 -1       674    8    0    1
 -2       263       415       414      2044      2045      2040
 -1       675    8    0    1
 -2       264       265       416      1590      2046      2047
 -1       676    8    0    1
 -2       264       416       415      2047      2048      2043
 -1       677    8    0    1
 -2       265       266       417      1593      2049      2050
 -1       678    8    0    1
 -2       265       417       416      2050      2051      2046
 -1       679    8    0    1
 -2       266       267       418      1596      2052      2053
 -1       680    8    0    1
 -2       266       418       417      2053      2054      2049
 -1       681    8    0    1
 -2       267       268       419      1599      2055      2056
 -1       682    8    0    1
 -2       267       419       418      2056      2057      2052
 -1       683    8    0    1
 -2       268       269       420      1602      2058      2059
 -1       684    8    0    1
 -2       268       420       419      2059      2060      2055
 -1       685    8    0    1
 -2       269       270       421      1605      2061      2062
 -1       686    8    0    1
 -2       269       421       420      2062      2063      2058
 -1       687    8    0    1
 -2       270       271       422      1608      2064      2065
 -1       688    8    0    1
 -2       270       422       421      2065      2066      2061
 -1       689    8    0    1
 -2       271       272       423      1611      2067      2068
 -1       690    8    0    1
 -2       271       423       422      2068      2069      2064
 -1       691    8    0    1
 -2       272       273       424      1614      2070      2071
 -1       692    8    0    1
 -2       272       424       423      2071      2072      2067
 -1       693    8    0    1
 -2       273       274       425      1617      2073      2074
 -1       694    8    0    1
 -2       273       425       424      2074      2075      2070
 -1       695    8    0    1
 -2       274       275       426      1620      2076      2077
 -1       696    8    0    1
 -2       425       274       426      2073      2077      2078
 -1       697    8    0    1
 -2       275       276       426      1728      2079      2076
 -1       698    8    0    1
 -2       278       279       427      1632      2080      2081
 -1       699    8    0    1
 -2       277       278       428      1629      2082      2083
 -1       700    8    0    1
 -2       278       427       428      2081      2084      2082
 -1       701    8    0    1
 -2       276       277       429      1626      2085      2086
 -1       702    8    0    1
 -2       426       276       429      2079      2086      2087
 -1       703    8    0    1
 -2       277       428       429      2083      2088      2085
 -1       704    8    0    1
 -2       279       280       430      1635      2089      2090
 -1       705    8    0    1
 -2       279       430       427      2090      2091      2080
 -1       706    8    0    1
 -2       280       281       431      1638      2092      2093
 -1       707    8    0    1
 -2       280       431       430      2093      2094      2089
 -1       708    8    0    1
 -2       281       282       432      1641      2095      2096
 -1       709    8    0    1
 -2       281       432       431      2096      2097      2092
 -1       710    8    0    1
 -2       282       283       433      1644      2098      2099
 -1       711    8    0    1
 -2       282       433       432      2099      2100      2095
 -1       712    8    0    1
 -2       283       284       434      1647      2101      2102
 -1       713    8    0    1
 -2       283       434       433      2102      2103      2098
 -1       714    8    0    1
 -2       284       285       435      1650      2104      2105
 -1       715    8    0    1
 -2       284       435       434      2105      2106      2101
 -1       716    8    0    1
 -2       285       286       436      1653      2107      2108
 -1       717    8    0    1
 -2       285       436       435      2108      2109      2104
 -1       718    8    0    1
 -2       286       287       437      1656      2110      2111
 -1       719    8    0    1
 -2       286       437       436      2111      2112      2107
 -1       720    8    0    1
 -2       287       288       438      1659      2113      2114
 -1       721    8    0    1
 -2       287       438       437      2114      2115      2110
 -1       722    8    0    1
 -2       288       289       439      1662      2116      2117
 -1       723    8    0    1
 -2       288       439       438      2117      2118      2113
 -1       724    8    0    1
 -2       292       293       440      1730      2119      2120
 -1       725    8    0    1
 -2       319       291       441      1731      2121      2122
 -1       726    8    0    1
 -2       291       292       442      1729      2123      2124
 -1       727    8    0    1
 -2       292       440       442      2120      2125      2123
 -1       728    8    0    1
 -2       293       294       443      1726      2126      2127
 -1       729    8    0    1
 -2       294       295       444      1725      2128      2129
 -1       730    8    0    1
 -2       166       167       445      1294      2130      2131
 -1       731    8    0    1
 -2       320       166       445      1757      2131      2132
 -1       732    8    0    1
 -2       167       322       445      1763      2133      2130
 -1       733    8    0    1
 -2       296       297       446      1733      2134      2135
 -1       734    8    0    1
 -2       297       298       447      1734      2136      2137
 -1       735    8    0    1
 -2       298       299       448      1735      2138      2139
 -1       736    8    0    1
 -2       298       448       447      2139      2140      2136
 -1       737    8    0    1
 -2       299       300       449      1736      2141      2142
 -1       738    8    0    1
 -2       300       301       450      1737      2143      2144
 -1       739    8    0    1
 -2       301       302       451      1738      2145      2146
 -1       740    8    0    1
 -2       301       451       450      2146      2147      2143
 -1       741    8    0    1
 -2       302       303       452      1739      2148      2149
 -1       742    8    0    1
 -2       303       304       453      1740      2150      2151
 -1       743    8    0    1
 -2       304       305       454      1741      2152      2153
 -1       744    8    0    1
 -2       305       306       455      1742      2154      2155
 -1       745    8    0    1
 -2       306       307       456      1743      2156      2157
 -1       746    8    0    1
 -2       307       308       457      1744      2158      2159
 -1       747    8    0    1
 -2       308       309       458      1745      2160      2161
 -1       748    8    0    1
 -2       309       310       459      1746      2162      2163
 -1       749    8    0    1
 -2       310       311       460      1747      2164      2165
 -1       750    8    0    1
 -2       311       312       461      1748      2166      2167
 -1       751    8    0    1
 -2       311       461       460      2167      2168      2164
 -1       752    8    0    1
 -2       312       313       462      1749      2169      2170
 -1       753    8    0    1
 -2       313       314       463      1750      2171      2172
 -1       754    8    0    1
 -2       313       463       462      2172      2173      2169
 -1       755    8    0    1
 -2       314       315       464      1751      2174      2175
 -1       756    8    0    1
 -2       315       316       465      1752      2176      2177
 -1       757    8    0    1
 -2       316       317       466      1753      2178      2179
 -1       758    8    0    1
 -2       317       318       467      1754      2180      2181
 -1       759    8    0    1
 -2       317       467       466      2181      2182      2178
 -1       760    8    0    1
 -2       318       319       468      1755      2183      2184
 -1       761    8    0    1
 -2       295       296       469      1732      2185      2186
 -1       762    8    0    1
 -2       444       295       469      2128      2186      2187
 -1       763    8    0    1
 -2       180       321       181      1802      2188      1336
 -1       764    8    0    1
 -2       296       446       469      2135      2189      2185
 -1       765    8    0    1
 -2       335       181       321      1803      2188      2190
 -1       766    8    0    1
 -2       441       291       442      2121      2124      2191
 -1       767    8    0    1
 -2       293       443       440      2127      2192      2119
 -1       768    8    0    1
 -2       439       289       290      2116      1665      2193
 -1       769    8    0    1
 -2       319       441       468      2122      2194      2183
 -1       770    8    0    1
 -2       443       294       444      2126      2129      2195
 -1       771    8    0    1
 -2       467       318       468      2180      2184      2196
 -1       772    8    0    1
 -2       465       316       466      2176      2179      2197
 -1       773    8    0    1
 -2       463       314       464      2171      2175      2198
 -1       774    8    0    1
 -2       461       312       462      2166      2170      2199
 -1       775    8    0    1
 -2       459       310       460      2162      2165      2200
 -1       776    8    0    1
 -2       458       309       459      2160      2163      2201
 -1       777    8    0    1
 -2       457       308       458      2158      2161      2202
 -1       778    8    0    1
 -2       456       307       457      2156      2159      2203
 -1       779    8    0    1
 -2       455       306       456      2154      2157      2204
 -1       780    8    0    1
 -2       454       305       455      2152      2155      2205
 -1       781    8    0    1
 -2       453       304       454      2150      2153      2206
 -1       782    8    0    1
 -2       451       302       470      2145      2207      2208
 -1       783    8    0    1
 -2       302       452       470      2149      2209      2207
 -1       784    8    0    1
 -2       448       299       449      2138      2142      2210
 -1       785    8    0    1
 -2       446       297       447      2134      2137      2211
 -1       786    8    0    1
 -2       449       300       450      2141      2144      2212
 -1       787    8    0    1
 -2       452       303       453      2148      2151      2213
 -1       788    8    0    1
 -2       464       315       465      2174      2177      2214
 -1       789    8    0    1
 -2       334       381       471      1943      2215      2216
 -1       790    8    0    1
 -2       323       324       472      1769      2217      2218
 -1       791    8    0    1
 -2       322       323       473      1766      2219      2220
 -1       792    8    0    1
 -2       323       472       473      2218      2221      2219
 -1       793    8    0    1
 -2       325       326       474      1775      2222      2223
 -1       794    8    0    1
 -2       326       327       475      1778      2224      2225
 -1       795    8    0    1
 -2       326       475       474      2225      2226      2222
 -1       796    8    0    1
 -2       327       328       476      1781      2227      2228
 -1       797    8    0    1
 -2       327       476       475      2228      2229      2224
 -1       798    8    0    1
 -2       328       329       477      1784      2230      2231
 -1       799    8    0    1
 -2       328       477       476      2231      2232      2227
 -1       800    8    0    1
 -2       329       330       478      1787      2233      2234
 -1       801    8    0    1
 -2       329       478       477      2234      2235      2230
 -1       802    8    0    1
 -2       330       331       479      1790      2236      2237
 -1       803    8    0    1
 -2       330       479       478      2237      2238      2233
 -1       804    8    0    1
 -2       381       382       480      1946      2239      2240
 -1       805    8    0    1
 -2       381       480       471      2240      2241      2215
 -1       806    8    0    1
 -2       336       335       481      1807      2242      2243
 -1       807    8    0    1
 -2       469       446       482      2189      2244      2245
 -1       808    8    0    1
 -2       337       336       483      1810      2246      2247
 -1       809    8    0    1
 -2       336       481       483      2243      2248      2246
 -1       810    8    0    1
 -2       338       337       484      1813      2249      2250
 -1       811    8    0    1
 -2       337       483       484      2247      2251      2249
 -1       812    8    0    1
 -2       339       338       485      1816      2252      2253
 -1       813    8    0    1
 -2       338       484       485      2250      2254      2252
 -1       814    8    0    1
 -2       340       339       486      1819      2255      2256
 -1       815    8    0    1
 -2       339       485       486      2253      2257      2255
 -1       816    8    0    1
 -2       341       340       487      1822      2258      2259
 -1       817    8    0    1
 -2       340       486       487      2256      2260      2258
 -1       818    8    0    1
 -2       342       341       488      1825      2261      2262
 -1       819    8    0    1
 -2       341       487       488      2259      2263      2261
 -1       820    8    0    1
 -2       343       342       489      1828      2264      2265
 -1       821    8    0    1
 -2       342       488       489      2262      2266      2264
 -1       822    8    0    1
 -2       344       343       490      1831      2267      2268
 -1       823    8    0    1
 -2       343       489       490      2265      2269      2267
 -1       824    8    0    1
 -2       345       344       491      1834      2270      2271
 -1       825    8    0    1
 -2       344       490       491      2268      2272      2270
 -1       826    8    0    1
 -2       346       345       492      1837      2273      2274
 -1       827    8    0    1
 -2       345       491       492      2271      2275      2273
 -1       828    8    0    1
 -2       347       346       493      1840      2276      2277
 -1       829    8    0    1
 -2       346       492       493      2274      2278      2276
 -1       830    8    0    1
 -2       348       347       494      1843      2279      2280
 -1       831    8    0    1
 -2       347       493       494      2277      2281      2279
 -1       832    8    0    1
 -2       349       348       495      1846      2282      2283
 -1       833    8    0    1
 -2       348       494       495      2280      2284      2282
 -1       834    8    0    1
 -2       350       349       496      1849      2285      2286
 -1       835    8    0    1
 -2       349       495       496      2283      2287      2285
 -1       836    8    0    1
 -2       351       350       497      1852      2288      2289
 -1       837    8    0    1
 -2       350       496       497      2286      2290      2288
 -1       838    8    0    1
 -2       352       351       498      1855      2291      2292
 -1       839    8    0    1
 -2       351       497       498      2289      2293      2291
 -1       840    8    0    1
 -2       353       352       499      1858      2294      2295
 -1       841    8    0    1
 -2       352       498       499      2292      2296      2294
 -1       842    8    0    1
 -2       354       353       500      1861      2297      2298
 -1       843    8    0    1
 -2       353       499       500      2295      2299      2297
 -1       844    8    0    1
 -2       355       354       501      1864      2300      2301
 -1       845    8    0    1
 -2       354       500       501      2298      2302      2300
 -1       846    8    0    1
 -2       356       355       502      1867      2303      2304
 -1       847    8    0    1
 -2       355       501       502      2301      2305      2303
 -1       848    8    0    1
 -2       357       356       503      1870      2306      2307
 -1       849    8    0    1
 -2       356       502       503      2304      2308      2306
 -1       850    8    0    1
 -2       358       357       504      1873      2309      2310
 -1       851    8    0    1
 -2       357       503       504      2307      2311      2309
 -1       852    8    0    1
 -2       359       358       505      1876      2312      2313
 -1       853    8    0    1
 -2       358       504       505      2310      2314      2312
 -1       854    8    0    1
 -2       360       359       506      1879      2315      2316
 -1       855    8    0    1
 -2       359       505       506      2313      2317      2315
 -1       856    8    0    1
 -2       361       360       507      1882      2318      2319
 -1       857    8    0    1
 -2       360       506       507      2316      2320      2318
 -1       858    8    0    1
 -2       362       361       508      1885      2321      2322
 -1       859    8    0    1
 -2       361       507       508      2319      2323      2321
 -1       860    8    0    1
 -2       363       362       509      1888      2324      2325
 -1       861    8    0    1
 -2       362       508       509      2322      2326      2324
 -1       862    8    0    1
 -2       364       363       510      1891      2327      2328
 -1       863    8    0    1
 -2       363       509       510      2325      2329      2327
 -1       864    8    0    1
 -2       365       364       511      1894      2330      2331
 -1       865    8    0    1
 -2       364       510       511      2328      2332      2330
 -1       866    8    0    1
 -2       366       365       512      1897      2333      2334
 -1       867    8    0    1
 -2       365       511       512      2331      2335      2333
 -1       868    8    0    1
 -2       367       366       513      1900      2336      2337
 -1       869    8    0    1
 -2       366       512       513      2334      2338      2336
 -1       870    8    0    1
 -2       368       367       514      1903      2339      2340
 -1       871    8    0    1
 -2       367       513       514      2337      2341      2339
 -1       872    8    0    1
 -2       369       368       515      1906      2342      2343
 -1       873    8    0    1
 -2       368       514       515      2340      2344      2342
 -1       874    8    0    1
 -2       370       369       516      1909      2345      2346
 -1       875    8    0    1
 -2       369       515       516      2343      2347      2345
 -1       876    8    0    1
 -2       371       370       517      1912      2348      2349
 -1       877    8    0    1
 -2       370       516       517      2346      2350      2348
 -1       878    8    0    1
 -2       372       371       518      1915      2351      2352
 -1       879    8    0    1
 -2       371       517       518      2349      2353      2351
 -1       880    8    0    1
 -2       373       372       519      1918      2354      2355
 -1       881    8    0    1
 -2       372       518       519      2352      2356      2354
 -1       882    8    0    1
 -2       374       373       520      1921      2357      2358
 -1       883    8    0    1
 -2       373       519       520      2355      2359      2357
 -1       884    8    0    1
 -2       375       374       521      1924      2360      2361
 -1       885    8    0    1
 -2       374       520       521      2358      2362      2360
 -1       886    8    0    1
 -2       376       375       522      1927      2363      2364
 -1       887    8    0    1
 -2       375       521       522      2361      2365      2363
 -1       888    8    0    1
 -2       377       376       523      1930      2366      2367
 -1       889    8    0    1
 -2       376       522       523      2364      2368      2366
 -1       890    8    0    1
 -2       378       377       524      1933      2369      2370
 -1       891    8    0    1
 -2       377       523       524      2367      2371      2369
 -1       892    8    0    1
 -2       379       378       525      1936      2372      2373
 -1       893    8    0    1
 -2       378       524       525      2370      2374      2372
 -1       894    8    0    1
 -2       442       440       526      2125      2375      2376
 -1       895    8    0    1
 -2       383       384       527      1952      2377      2378
 -1       896    8    0    1
 -2       384       385       528      1955      2379      2380
 -1       897    8    0    1
 -2       384       528       527      2380      2381      2377
 -1       898    8    0    1
 -2       385       386       529      1958      2382      2383
 -1       899    8    0    1
 -2       385       529       528      2383      2384      2379
 -1       900    8    0    1
 -2       386       387       530      1961      2385      2386
 -1       901    8    0    1
 -2       386       530       529      2386      2387      2382
 -1       902    8    0    1
 -2       387       388       531      1964      2388      2389
 -1       903    8    0    1
 -2       387       531       530      2389      2390      2385
 -1       904    8    0    1
 -2       388       389       532      1967      2391      2392
 -1       905    8    0    1
 -2       388       532       531      2392      2393      2388
 -1       906    8    0    1
 -2       389       390       533      1970      2394      2395
 -1       907    8    0    1
 -2       389       533       532      2395      2396      2391
 -1       908    8    0    1
 -2       390       391       534      1973      2397      2398
 -1       909    8    0    1
 -2       390       534       533      2398      2399      2394
 -1       910    8    0    1
 -2       391       392       535      1976      2400      2401
 -1       911    8    0    1
 -2       391       535       534      2401      2402      2397
 -1       912    8    0    1
 -2       392       393       536      1979      2403      2404
 -1       913    8    0    1
 -2       392       536       535      2404      2405      2400
 -1       914    8    0    1
 -2       393       394       537      1982      2406      2407
 -1       915    8    0    1
 -2       393       537       536      2407      2408      2403
 -1       916    8    0    1
 -2       394       395       538      1985      2409      2410
 -1       917    8    0    1
 -2       394       538       537      2410      2411      2406
 -1       918    8    0    1
 -2       395       396       539      1988      2412      2413
 -1       919    8    0    1
 -2       395       539       538      2413      2414      2409
 -1       920    8    0    1
 -2       396       397       540      1991      2415      2416
 -1       921    8    0    1
 -2       396       540       539      2416      2417      2412
 -1       922    8    0    1
 -2       397       398       541      1994      2418      2419
 -1       923    8    0    1
 -2       397       541       540      2419      2420      2415
 -1       924    8    0    1
 -2       398       399       542      1997      2421      2422
 -1       925    8    0    1
 -2       398       542       541      2422      2423      2418
 -1       926    8    0    1
 -2       399       400       543      2000      2424      2425
 -1       927    8    0    1
 -2       399       543       542      2425      2426      2421
 -1       928    8    0    1
 -2       400       401       544      2003      2427      2428
 -1       929    8    0    1
 -2       400       544       543      2428      2429      2424
 -1       930    8    0    1
 -2       401       402       545      2006      2430      2431
 -1       931    8    0    1
 -2       401       545       544      2431      2432      2427
 -1       932    8    0    1
 -2       402       403       546      2009      2433      2434
 -1       933    8    0    1
 -2       402       546       545      2434      2435      2430
 -1       934    8    0    1
 -2       403       404       547      2012      2436      2437
 -1       935    8    0    1
 -2       403       547       546      2437      2438      2433
 -1       936    8    0    1
 -2       404       405       548      2015      2439      2440
 -1       937    8    0    1
 -2       404       548       547      2440      2441      2436
 -1       938    8    0    1
 -2       405       406       549      2018      2442      2443
 -1       939    8    0    1
 -2       405       549       548      2443      2444      2439
 -1       940    8    0    1
 -2       406       407       550      2021      2445      2446
 -1       941    8    0    1
 -2       406       550       549      2446      2447      2442
 -1       942    8    0    1
 -2       407       408       551      2024      2448      2449
 -1       943    8    0    1
 -2       407       551       550      2449      2450      2445
 -1       944    8    0    1
 -2       408       409       552      2027      2451      2452
 -1       945    8    0    1
 -2       408       552       551      2452      2453      2448
 -1       946    8    0    1
 -2       409       410       553      2030      2454      2455
 -1       947    8    0    1
 -2       409       553       552      2455      2456      2451
 -1       948    8    0    1
 -2       410       411       554      2033      2457      2458
 -1       949    8    0    1
 -2       410       554       553      2458      2459      2454
 -1       950    8    0    1
 -2       411       412       555      2036      2460      2461
 -1       951    8    0    1
 -2       411       555       554      2461      2462      2457
 -1       952    8    0    1
 -2       412       413       556      2039      2463      2464
 -1       953    8    0    1
 -2       412       556       555      2464      2465      2460
 -1       954    8    0    1
 -2       413       414       557      2042      2466      2467
 -1       955    8    0    1
 -2       413       557       556      2467      2468      2463
 -1       956    8    0    1
 -2       414       415       558      2045      2469      2470
 -1       957    8    0    1
 -2       414       558       557      2470      2471      2466
 -1       958    8    0    1
 -2       415       416       559      2048      2472      2473
 -1       959    8    0    1
 -2       415       559       558      2473      2474      2469
 -1       960    8    0    1
 -2       416       417       560      2051      2475      2476
 -1       961    8    0    1
 -2       416       560       559      2476      2477      2472
 -1       962    8    0    1
 -2       417       418       561      2054      2478      2479
 -1       963    8    0    1
 -2       417       561       560      2479      2480      2475
 -1       964    8    0    1
 -2       418       419       562      2057      2481      2482
 -1       965    8    0    1
 -2       418       562       561      2482      2483      2478
 -1       966    8    0    1
 -2       419       420       563      2060      2484      2485
 -1       967    8    0    1
 -2       419       563       562      2485      2486      2481
 -1       968    8    0    1
 -2       420       421       564      2063      2487      2488
 -1       969    8    0    1
 -2       420       564       563      2488      2489      2484
 -1       970    8    0    1
 -2       421       422       565      2066      2490      2491
 -1       971    8    0    1
 -2       421       565       564      2491      2492      2487
 -1       972    8    0    1
 -2       422       423       566      2069      2493      2494
 -1       973    8    0    1
 -2       422       566       565      2494      2495      2490
 -1       974    8    0    1
 -2       423       424       567      2072      2496      2497
 -1       975    8    0    1
 -2       423       567       566      2497      2498      2493
 -1       976    8    0    1
 -2       424       425       568      2075      2499      2500
 -1       977    8    0    1
 -2       424       568       567      2500      2501      2496
 -1       978    8    0    1
 -2       425       426       429      2078      2087      2502
 -1       979    8    0    1
 -2       430       431       569      2094      2503      2504
 -1       980    8    0    1
 -2       431       432       570      2097      2505      2506
 -1       981    8    0    1
 -2       431       570       569      2506      2507      2503
 -1       982    8    0    1
 -2       428       427       571      2084      2508      2509
 -1       983    8    0    1
 -2       427       430       572      2091      2510      2511
 -1       984    8    0    1
 -2       571       427       572      2508      2511      2512
 -1       985    8    0    1
 -2       430       569       572      2504      2513      2510
 -1       986    8    0    1
 -2       432       433       573      2100      2514      2515
 -1       987    8    0    1
 -2       432       573       570      2515      2516      2505
 -1       988    8    0    1
 -2       433       434       574      2103      2517      2518
 -1       989    8    0    1
 -2       433       574       573      2518      2519      2514
 -1       990    8    0    1
 -2       434       435       575      2106      2520      2521
 -1       991    8    0    1
 -2       434       575       574      2521      2522      2517
 -1       992    8    0    1
 -2       435       436       576      2109      2523      2524
 -1       993    8    0    1
 -2       435       576       575      2524      2525      2520
 -1       994    8    0    1
 -2       436       437       577      2112      2526      2527
 -1       995    8    0    1
 -2       436       577       576      2527      2528      2523
 -1       996    8    0    1
 -2       437       438       578      2115      2529      2530
 -1       997    8    0    1
 -2       437       578       577      2530      2531      2526
 -1       998    8    0    1
 -2       438       439       579      2118      2532      2533
 -1       999    8    0    1
 -2       438       579       578      2533      2534      2529
 -1      1000    8    0    1
 -2       439       290       380      2193      1939      2535
 -1      1001    8    0    1
 -2       468       441       580      2194      2536      2537
 -1      1002    8    0    1
 -2       382       383       581      1949      2538      2539
 -1      1003    8    0    1
 -2       383       527       581      2378      2540      2538
 -1      1004    8    0    1
 -2       440       443       582      2192      2541      2542
 -1      1005    8    0    1
 -2       467       468       583      2196      2543      2544
 -1      1006    8    0    1
 -2       468       580       583      2537      2545      2543
 -1      1007    8    0    1
 -2       335       321       584      2190      2546      2547
 -1      1008    8    0    1
 -2       481       335       584      2242      2547      2548
 -1      1009    8    0    1
 -2       321       320       584      1761      2549      2546
 -1      1010    8    0    1
 -2       465       466       585      2197      2550      2551
 -1      1011    8    0    1
 -2       459       460       586      2200      2552      2553
 -1      1012    8    0    1
 -2       448       449       587      2210      2554      2555
 -1      1013    8    0    1
 -2       324       325       588      1772      2556      2557
 -1      1014    8    0    1
 -2       472       324       588      2217      2557      2558
 -1      1015    8    0    1
 -2       325       474       588      2223      2559      2556
 -1      1016    8    0    1
 -2       446       447       589      2211      2560      2561
 -1      1017    8    0    1
 -2       449       450       590      2212      2562      2563
 -1      1018    8    0    1
 -2       447       448       591      2140      2564      2565
 -1      1019    8    0    1
 -2       452       453       592      2213      2566      2567
 -1      1020    8    0    1
 -2       450       451       593      2147      2568      2569
 -1      1021    8    0    1
 -2       464       465       594      2214      2570      2571
 -1      1022    8    0    1
 -2       465       585       594      2551      2572      2570
 -1      1023    8    0    1
 -2       453       454       595      2206      2573      2574
 -1      1024    8    0    1
 -2       453       595       592      2574      2575      2566
 -1      1025    8    0    1
 -2       454       455       596      2205      2576      2577
 -1      1026    8    0    1
 -2       455       456       597      2204      2578      2579
 -1      1027    8    0    1
 -2       456       457       598      2203      2580      2581
 -1      1028    8    0    1
 -2       456       598       597      2581      2582      2578
 -1      1029    8    0    1
 -2       457       458       599      2202      2583      2584
 -1      1030    8    0    1
 -2       458       459       600      2201      2585      2586
 -1      1031    8    0    1
 -2       458       600       599      2586      2587      2583
 -1      1032    8    0    1
 -2       460       461       601      2168      2588      2589
 -1      1033    8    0    1
 -2       461       462       602      2199      2590      2591
 -1      1034    8    0    1
 -2       462       463       603      2173      2592      2593
 -1      1035    8    0    1
 -2       463       464       604      2198      2594      2595
 -1      1036    8    0    1
 -2       463       604       603      2595      2596      2592
 -1      1037    8    0    1
 -2       466       467       605      2182      2597      2598
 -1      1038    8    0    1
 -2       443       444       606      2195      2599      2600
 -1      1039    8    0    1
 -2       441       442       607      2191      2601      2602
 -1      1040    8    0    1
 -2       442       526       607      2376      2603      2601
 -1      1041    8    0    1
 -2       333       334       608      1801      2604      2605
 -1      1042    8    0    1
 -2       332       333       608      1796      2605      2606
 -1      1043    8    0    1
 -2       334       471       608      2216      2607      2604
 -1      1044    8    0    1
 -2       444       469       609      2187      2608      2609
 -1      1045    8    0    1
 -2       444       609       606      2609      2610      2599
 -1      1046    8    0    1
 -2       446       589       482      2561      2611      2244
 -1      1047    8    0    1
 -2       322       473       610      2220      2612      2613
 -1      1048    8    0    1
 -2       322       610       445      2613      2614      2133
 -1      1049    8    0    1
 -2       480       382       581      2239      2539      2615
 -1      1050    8    0    1
 -2       331       332       608      1793      2606      2616
 -1      1051    8    0    1
 -2       609       469       482      2608      2245      2617
 -1      1052    8    0    1
 -2       585       466       605      2550      2598      2618
 -1      1053    8    0    1
 -2       526       440       582      2375      2542      2619
 -1      1054    8    0    1
 -2       425       429       568      2502      2620      2499
 -1      1055    8    0    1
 -2       429       428       568      2088      2621      2620
 -1      1056    8    0    1
 -2       604       464       594      2594      2571      2622
 -1      1057    8    0    1
 -2       439       380       611      2535      2623      2624
 -1      1058    8    0    1
 -2       579       439       611      2532      2624      2625
 -1      1059    8    0    1
 -2       380       379       611      1940      2626      2623
 -1      1060    8    0    1
 -2       602       462       603      2590      2593      2627
 -1      1061    8    0    1
 -2       580       441       607      2536      2602      2628
 -1      1062    8    0    1
 -2       331       608       479      2616      2629      2236
 -1      1063    8    0    1
 -2       582       443       606      2541      2600      2630
 -1      1064    8    0    1
 -2       600       459       586      2585      2553      2631
 -1      1065    8    0    1
 -2       467       583       605      2544      2632      2597
 -1      1066    8    0    1
 -2       598       457       612      2580      2633      2634
 -1      1067    8    0    1
 -2       457       599       612      2584      2635      2633
 -1      1068    8    0    1
 -2       584       320       445      2549      2132      2636
 -1      1069    8    0    1
 -2       586       460       601      2552      2589      2637
 -1      1070    8    0    1
 -2       593       451       613      2568      2638      2639
 -1      1071    8    0    1
 -2       451       470       613      2208      2640      2638
 -1      1072    8    0    1
 -2       454       596       595      2577      2641      2573
 -1      1073    8    0    1
 -2       448       587       591      2555      2642      2564
 -1      1074    8    0    1
 -2       587       449       590      2554      2563      2643
 -1      1075    8    0    1
 -2       470       452       614      2209      2644      2645
 -1      1076    8    0    1
 -2       452       592       614      2567      2646      2644
 -1      1077    8    0    1
 -2       590       450       593      2562      2569      2647
 -1      1078    8    0    1
 -2       447       591       589      2565      2648      2560
 -1      1079    8    0    1
 -2       596       455       597      2576      2579      2649
 -1      1080    8    0    1
 -2       601       461       602      2588      2591      2650
 -1      1081    8    0    1
 -2       568       428       571      2621      2509      2651
 -1      1082    8    0    1
 -2       611       379       525      2626      2373      2652
 -1      1083    8    0    1
 -2       475       476       615      2229      2653      2654
 -1      1084    8    0    1
 -2       474       475       616      2226      2655      2656
 -1      1085    8    0    1
 -2       475       615       616      2654      2657      2655
 -1      1086    8    0    1
 -2       477       478       617      2235      2658      2659
 -1      1087    8    0    1
 -2       478       479       618      2238      2660      2661
 -1      1088    8    0    1
 -2       478       618       617      2661      2662      2658
 -1      1089    8    0    1
 -2       471       480       619      2241      2663      2664
 -1      1090    8    0    1
 -2       582       606       620      2630      2665      2666
 -1      1091    8    0    1
 -2       480       581       621      2615      2667      2668
 -1      1092    8    0    1
 -2       480       621       619      2668      2669      2663
 -1      1093    8    0    1
 -2       585       605       622      2618      2670      2671
 -1      1094    8    0    1
 -2       607       526       623      2603      2672      2673
 -1      1095    8    0    1
 -2       482       589       624      2611      2674      2675
 -1      1096    8    0    1
 -2       481       584       625      2548      2676      2677
 -1      1097    8    0    1
 -2       484       483       626      2251      2678      2679
 -1      1098    8    0    1
 -2       485       484       627      2254      2680      2681
 -1      1099    8    0    1
 -2       484       626       627      2679      2682      2680
 -1      1100    8    0    1
 -2       486       485       628      2257      2683      2684
 -1      1101    8    0    1
 -2       485       627       628      2681      2685      2683
 -1      1102    8    0    1
 -2       487       486       629      2260      2686      2687
 -1      1103    8    0    1
 -2       486       628       629      2684      2688      2686
 -1      1104    8    0    1
 -2       488       487       630      2263      2689      2690
 -1      1105    8    0    1
 -2       487       629       630      2687      2691      2689
 -1      1106    8    0    1
 -2       489       488       631      2266      2692      2693
 -1      1107    8    0    1
 -2       488       630       631      2690      2694      2692
 -1      1108    8    0    1
 -2       490       489       632      2269      2695      2696
 -1      1109    8    0    1
 -2       489       631       632      2693      2697      2695
 -1      1110    8    0    1
 -2       491       490       633      2272      2698      2699
 -1      1111    8    0    1
 -2       490       632       633      2696      2700      2698
 -1      1112    8    0    1
 -2       492       491       634      2275      2701      2702
 -1      1113    8    0    1
 -2       491       633       634      2699      2703      2701
 -1      1114    8    0    1
 -2       493       492       635      2278      2704      2705
 -1      1115    8    0    1
 -2       492       634       635      2702      2706      2704
 -1      1116    8    0    1
 -2       494       493       636      2281      2707      2708
 -1      1117    8    0    1
 -2       493       635       636      2705      2709      2707
 -1      1118    8    0    1
 -2       495       494       637      2284      2710      2711
 -1      1119    8    0    1
 -2       494       636       637      2708      2712      2710
 -1      1120    8    0    1
 -2       496       495       638      2287      2713      2714
 -1      1121    8    0    1
 -2       495       637       638      2711      2715      2713
 -1      1122    8    0    1
 -2       497       496       639      2290      2716      2717
 -1      1123    8    0    1
 -2       496       638       639      2714      2718      2716
 -1      1124    8    0    1
 -2       498       497       640      2293      2719      2720
 -1      1125    8    0    1
 -2       497       639       640      2717      2721      2719
 -1      1126    8    0    1
 -2       499       498       641      2296      2722      2723
 -1      1127    8    0    1
 -2       498       640       641      2720      2724      2722
 -1      1128    8    0    1
 -2       500       499       642      2299      2725      2726
 -1      1129    8    0    1
 -2       499       641       642      2723      2727      2725
 -1      1130    8    0    1
 -2       501       500       643      2302      2728      2729
 -1      1131    8    0    1
 -2       500       642       643      2726      2730      2728
 -1      1132    8    0    1
 -2       502       501       644      2305      2731      2732
 -1      1133    8    0    1
 -2       501       643       644      2729      2733      2731
 -1      1134    8    0    1
 -2       503       502       645      2308      2734      2735
 -1      1135    8    0    1
 -2       502       644       645      2732      2736      2734
 -1      1136    8    0    1
 -2       504       503       646      2311      2737      2738
 -1      1137    8    0    1
 -2       503       645       646      2735      2739      2737
 -1      1138    8    0    1
 -2       505       504       647      2314      2740      2741
 -1      1139    8    0    1
 -2       504       646       647      2738      2742      2740
 -1      1140    8    0    1
 -2       506       505       648      2317      2743      2744
 -1      1141    8    0    1
 -2       505       647       648      2741      2745      2743
 -1      1142    8    0    1
 -2       507       506       649      2320      2746      2747
 -1      1143    8    0    1
 -2       506       648       649      2744      2748      2746
 -1      1144    8    0    1
 -2       508       507       650      2323      2749      2750
 -1      1145    8    0    1
 -2       507       649       650      2747      2751      2749
 -1      1146    8    0    1
 -2       509       508       651      2326      2752      2753
 -1      1147    8    0    1
 -2       508       650       651      2750      2754      2752
 -1      1148    8    0    1
 -2       510       509       652      2329      2755      2756
 -1      1149    8    0    1
 -2       509       651       652      2753      2757      2755
 -1      1150    8    0    1
 -2       512       511       653      2335      2758      2759
 -1      1151    8    0    1
 -2       513       512       603      2338      2760      2761
 -1      1152    8    0    1
 -2       515       514       654      2344      2762      2763
 -1      1153    8    0    1
 -2       516       515       655      2347      2764      2765
 -1      1154    8    0    1
 -2       515       654       655      2763      2766      2764
 -1      1155    8    0    1
 -2       517       516       656      2350      2767      2768
 -1      1156    8    0    1
 -2       516       655       656      2765      2769      2767
 -1      1157    8    0    1
 -2       518       517       657      2353      2770      2771
 -1      1158    8    0    1
 -2       517       656       657      2768      2772      2770
 -1      1159    8    0    1
 -2       519       518       658      2356      2773      2774
 -1      1160    8    0    1
 -2       518       657       658      2771      2775      2773
 -1      1161    8    0    1
 -2       520       519       659      2359      2776      2777
 -1      1162    8    0    1
 -2       519       658       659      2774      2778      2776
 -1      1163    8    0    1
 -2       521       520       660      2362      2779      2780
 -1      1164    8    0    1
 -2       520       659       660      2777      2781      2779
 -1      1165    8    0    1
 -2       522       521       661      2365      2782      2783
 -1      1166    8    0    1
 -2       521       660       661      2780      2784      2782
 -1      1167    8    0    1
 -2       523       522       662      2368      2785      2786
 -1      1168    8    0    1
 -2       522       661       662      2783      2787      2785
 -1      1169    8    0    1
 -2       524       523       663      2371      2788      2789
 -1      1170    8    0    1
 -2       523       662       663      2786      2790      2788
 -1      1171    8    0    1
 -2       525       524       664      2374      2791      2792
 -1      1172    8    0    1
 -2       524       663       664      2789      2793      2791
 -1      1173    8    0    1
 -2       604       594       665      2622      2794      2795
 -1      1174    8    0    1
 -2       527       528       666      2381      2796      2797
 -1      1175    8    0    1
 -2       530       531       667      2390      2798      2799
 -1      1176    8    0    1
 -2       531       532       668      2393      2800      2801
 -1      1177    8    0    1
 -2       531       668       667      2801      2802      2798
 -1      1178    8    0    1
 -2       532       533       669      2396      2803      2804
 -1      1179    8    0    1
 -2       532       669       668      2804      2805      2800
 -1      1180    8    0    1
 -2       533       534       670      2399      2806      2807
 -1      1181    8    0    1
 -2       533       670       669      2807      2808      2803
 -1      1182    8    0    1
 -2       534       535       671      2402      2809      2810
 -1      1183    8    0    1
 -2       534       671       670      2810      2811      2806
 -1      1184    8    0    1
 -2       535       536       672      2405      2812      2813
 -1      1185    8    0    1
 -2       535       672       671      2813      2814      2809
 -1      1186    8    0    1
 -2       536       537       673      2408      2815      2816
 -1      1187    8    0    1
 -2       536       673       672      2816      2817      2812
 -1      1188    8    0    1
 -2       537       538       674      2411      2818      2819
 -1      1189    8    0    1
 -2       537       674       673      2819      2820      2815
 -1      1190    8    0    1
 -2       538       539       675      2414      2821      2822
 -1      1191    8    0    1
 -2       538       675       674      2822      2823      2818
 -1      1192    8    0    1
 -2       539       540       676      2417      2824      2825
 -1      1193    8    0    1
 -2       539       676       675      2825      2826      2821
 -1      1194    8    0    1
 -2       540       541       677      2420      2827      2828
 -1      1195    8    0    1
 -2       540       677       676      2828      2829      2824
 -1      1196    8    0    1
 -2       541       542       678      2423      2830      2831
 -1      1197    8    0    1
 -2       541       678       677      2831      2832      2827
 -1      1198    8    0    1
 -2       542       543       679      2426      2833      2834
 -1      1199    8    0    1
 -2       542       679       678      2834      2835      2830
 -1      1200    8    0    1
 -2       543       544       680      2429      2836      2837
 -1      1201    8    0    1
 -2       543       680       679      2837      2838      2833
 -1      1202    8    0    1
 -2       544       545       681      2432      2839      2840
 -1      1203    8    0    1
 -2       544       681       680      2840      2841      2836
 -1      1204    8    0    1
 -2       545       546       682      2435      2842      2843
 -1      1205    8    0    1
 -2       545       682       681      2843      2844      2839
 -1      1206    8    0    1
 -2       546       547       683      2438      2845      2846
 -1      1207    8    0    1
 -2       546       683       682      2846      2847      2842
 -1      1208    8    0    1
 -2       547       548       684      2441      2848      2849
 -1      1209    8    0    1
 -2       547       684       683      2849      2850      2845
 -1      1210    8    0    1
 -2       548       549       685      2444      2851      2852
 -1      1211    8    0    1
 -2       548       685       684      2852      2853      2848
 -1      1212    8    0    1
 -2       549       550       686      2447      2854      2855
 -1      1213    8    0    1
 -2       549       686       685      2855      2856      2851
 -1      1214    8    0    1
 -2       550       551       687      2450      2857      2858
 -1      1215    8    0    1
 -2       550       687       686      2858      2859      2854
 -1      1216    8    0    1
 -2       551       552       688      2453      2860      2861
 -1      1217    8    0    1
 -2       551       688       687      2861      2862      2857
 -1      1218    8    0    1
 -2       552       553       689      2456      2863      2864
 -1      1219    8    0    1
 -2       552       689       688      2864      2865      2860
 -1      1220    8    0    1
 -2       553       554       690      2459      2866      2867
 -1      1221    8    0    1
 -2       553       690       689      2867      2868      2863
 -1      1222    8    0    1
 -2       554       555       691      2462      2869      2870
 -1      1223    8    0    1
 -2       554       691       690      2870      2871      2866
 -1      1224    8    0    1
 -2       555       556       692      2465      2872      2873
 -1      1225    8    0    1
 -2       555       692       691      2873      2874      2869
 -1      1226    8    0    1
 -2       556       557       693      2468      2875      2876
 -1      1227    8    0    1
 -2       556       693       692      2876      2877      2872
 -1      1228    8    0    1
 -2       557       558       694      2471      2878      2879
 -1      1229    8    0    1
 -2       557       694       693      2879      2880      2875
 -1      1230    8    0    1
 -2       558       559       695      2474      2881      2882
 -1      1231    8    0    1
 -2       558       695       694      2882      2883      2878
 -1      1232    8    0    1
 -2       559       560       696      2477      2884      2885
 -1      1233    8    0    1
 -2       559       696       695      2885      2886      2881
 -1      1234    8    0    1
 -2       560       561       697      2480      2887      2888
 -1      1235    8    0    1
 -2       560       697       696      2888      2889      2884
 -1      1236    8    0    1
 -2       561       562       698      2483      2890      2891
 -1      1237    8    0    1
 -2       561       698       697      2891      2892      2887
 -1      1238    8    0    1
 -2       562       563       699      2486      2893      2894
 -1      1239    8    0    1
 -2       562       699       698      2894      2895      2890
 -1      1240    8    0    1
 -2       563       564       700      2489      2896      2897
 -1      1241    8    0    1
 -2       563       700       699      2897      2898      2893
 -1      1242    8    0    1
 -2       564       565       701      2492      2899      2900
 -1      1243    8    0    1
 -2       564       701       700      2900      2901      2896
 -1      1244    8    0    1
 -2       565       566       702      2495      2902      2903
 -1      1245    8    0    1
 -2       565       702       701      2903      2904      2899
 -1      1246    8    0    1
 -2       566       567       703      2498      2905      2906
 -1      1247    8    0    1
 -2       566       703       702      2906      2907      2902
 -1      1248    8    0    1
 -2       567       568       704      2501      2908      2909
 -1      1249    8    0    1
 -2       703       567       704      2905      2909      2910
 -1      1250    8    0    1
 -2       568       571       704      2651      2911      2908
 -1      1251    8    0    1
 -2       573       574       705      2519      2912      2913
 -1      1252    8    0    1
 -2       611       525       706      2652      2914      2915
 -1      1253    8    0    1
 -2       525       664       706      2792      2916      2914
 -1      1254    8    0    1
 -2       569       570       707      2507      2917      2918
 -1      1255    8    0    1
 -2       574       575       708      2522      2919      2920
 -1      1256    8    0    1
 -2       574       708       705      2920      2921      2912
 -1      1257    8    0    1
 -2       570       573       709      2516      2922      2923
 -1      1258    8    0    1
 -2       707       570       709      2917      2923      2924
 -1      1259    8    0    1
 -2       573       705       709      2913      2925      2922
 -1      1260    8    0    1
 -2       583       580       710      2545      2926      2927
 -1      1261    8    0    1
 -2       575       576       711      2525      2928      2929
 -1      1262    8    0    1
 -2       575       711       708      2929      2930      2919
 -1      1263    8    0    1
 -2       576       577       712      2528      2931      2932
 -1      1264    8    0    1
 -2       576       712       711      2932      2933      2928
 -1      1265    8    0    1
 -2       577       578       713      2531      2934      2935
 -1      1266    8    0    1
 -2       577       713       712      2935      2936      2931
 -1      1267    8    0    1
 -2       581       527       714      2540      2937      2938
 -1      1268    8    0    1
 -2       621       581       714      2667      2938      2939
 -1      1269    8    0    1
 -2       527       666       714      2797      2940      2937
 -1      1270    8    0    1
 -2       526       582       715      2619      2941      2942
 -1      1271    8    0    1
 -2       584       445       625      2636      2943      2676
 -1      1272    8    0    1
 -2       605       583       716      2632      2944      2945
 -1      1273    8    0    1
 -2       594       585       717      2572      2946      2947
 -1      1274    8    0    1
 -2       594       717       665      2947      2948      2794
 -1      1275    8    0    1
 -2       587       590       718      2643      2949      2950
 -1      1276    8    0    1
 -2       529       530       719      2387      2951      2952
 -1      1277    8    0    1
 -2       530       667       719      2799      2953      2951
 -1      1278    8    0    1
 -2       528       529       720      2384      2954      2955
 -1      1279    8    0    1
 -2       529       719       720      2952      2956      2954
 -1      1280    8    0    1
 -2       483       481       721      2248      2957      2958
 -1      1281    8    0    1
 -2       626       483       721      2678      2958      2959
 -1      1282    8    0    1
 -2       481       625       721      2677      2960      2957
 -1      1283    8    0    1
 -2       592       595       722      2575      2961      2962
 -1      1284    8    0    1
 -2       586       601       723      2637      2963      2964
 -1      1285    8    0    1
 -2       476       477       724      2232      2965      2966
 -1      1286    8    0    1
 -2       615       476       724      2653      2966      2967
 -1      1287    8    0    1
 -2       477       617       724      2659      2968      2965
 -1      1288    8    0    1
 -2       590       593       725      2647      2969      2970
 -1      1289    8    0    1
 -2       473       472       726      2221      2971      2972
 -1      1290    8    0    1
 -2       589       591       727      2648      2973      2974
 -1      1291    8    0    1
 -2       579       611       706      2625      2915      2975
 -1      1292    8    0    1
 -2       596       597       728      2649      2976      2977
 -1      1293    8    0    1
 -2       591       587       729      2642      2978      2979
 -1      1294    8    0    1
 -2       595       596       730      2641      2980      2981
 -1      1295    8    0    1
 -2       601       602       731      2650      2982      2983
 -1      1296    8    0    1
 -2       597       598       732      2582      2984      2985
 -1      1297    8    0    1
 -2       599       600       733      2587      2986      2987
 -1      1298    8    0    1
 -2       580       607       734      2628      2988      2989
 -1      1299    8    0    1
 -2       609       482       735      2617      2990      2991
 -1      1300    8    0    1
 -2       482       624       735      2675      2992      2990
 -1      1301    8    0    1
 -2       606       609       736      2610      2993      2994
 -1      1302    8    0    1
 -2       606       736       620      2994      2995      2665
 -1      1303    8    0    1
 -2       600       586       737      2631      2996      2997
 -1      1304    8    0    1
 -2       479       608       471      2629      2607      2998
 -1      1305    8    0    1
 -2       610       473       738      2612      2999      3000
 -1      1306    8    0    1
 -2       473       726       738      2972      3001      2999
 -1      1307    8    0    1
 -2       474       616       739      2656      3002      3003
 -1      1308    8    0    1
 -2       474       739       588      3003      3004      2559
 -1      1309    8    0    1
 -2       585       622       717      2671      3005      2946
 -1      1310    8    0    1
 -2       582       620       740      2666      3006      3007
 -1      1311    8    0    1
 -2       582       740       715      3007      3008      2941
 -1      1312    8    0    1
 -2       734       607       623      2988      2673      3009
 -1      1313    8    0    1
 -2       733       600       737      2986      2997      3010
 -1      1314    8    0    1
 -2       732       598       741      2984      3011      3012
 -1      1315    8    0    1
 -2       598       612       741      2634      3013      3011
 -1      1316    8    0    1
 -2       622       605       742      2670      3014      3015
 -1      1317    8    0    1
 -2       605       716       742      2945      3016      3014
 -1      1318    8    0    1
 -2       731       602       653      2982      3017      3018
 -1      1319    8    0    1
 -2       590       725       718      2970      3019      2949
 -1      1320    8    0    1
 -2       592       722       743      2962      3020      3021
 -1      1321    8    0    1
 -2       592       743       614      3021      3022      2646
 -1      1322    8    0    1
 -2       510       652       723      2756      3023      3024
 -1      1323    8    0    1
 -2       653       511       731      2758      3025      3018
 -1      1324    8    0    1
 -2       511       510       731      2332      3026      3025
 -1      1325    8    0    1
 -2       513       603       744      2761      3027      3028
 -1      1326    8    0    1
 -2       569       707       745      2918      3029      3030
 -1      1327    8    0    1
 -2       569       745       572      3030      3031      2513
 -1      1328    8    0    1
 -2       514       513       744      2341      3028      3032
 -1      1329    8    0    1
 -2       604       665       744      2795      3033      3034
 -1      1330    8    0    1
 -2       587       718       729      2950      3035      2978
 -1      1331    8    0    1
 -2       730       596       728      2980      2977      3036
 -1      1332    8    0    1
 -2       602       603       653      2627      3037      3017
 -1      1333    8    0    1
 -2       526       715       623      2942      3038      2672
 -1      1334    8    0    1
 -2       528       720       666      2955      3039      2796
 -1      1335    8    0    1
 -2       710       580       734      2926      2989      3040
 -1      1336    8    0    1
 -2       571       572       746      2512      3041      3042
 -1      1337    8    0    1
 -2       704       571       746      2911      3042      3043
 -1      1338    8    0    1
 -2       572       745       746      3031      3044      3041
 -1      1339    8    0    1
 -2       727       591       729      2973      2979      3045
 -1      1340    8    0    1
 -2       725       593       747      2969      3046      3047
 -1      1341    8    0    1
 -2       593       613       747      2639      3048      3046
 -1      1342    8    0    1
 -2       578       579       706      2534      2975      3049
 -1      1343    8    0    1
 -2       625       445       610      2943      2614      3050
 -1      1344    8    0    1
 -2       612       599       748      2635      3051      3052
 -1      1345    8    0    1
 -2       599       733       748      2987      3053      3051
 -1      1346    8    0    1
 -2       654       514       744      2762      3032      3054
 -1      1347    8    0    1
 -2       603       512       653      2760      2759      3037
 -1      1348    8    0    1
 -2       613       470       749      2640      3055      3056
 -1      1349    8    0    1
 -2       470       614       749      2645      3057      3055
 -1      1350    8    0    1
 -2       716       583       710      2944      2927      3058
 -1      1351    8    0    1
 -2       722       595       730      2961      2981      3059
 -1      1352    8    0    1
 -2       624       589       727      2674      2974      3060
 -1      1353    8    0    1
 -2       723       601       731      2963      2983      3061
 -1      1354    8    0    1
 -2       472       588       750      2558      3062      3063
 -1      1355    8    0    1
 -2       726       472       750      2971      3063      3064
 -1      1356    8    0    1
 -2       588       739       750      3004      3065      3062
 -1      1357    8    0    1
 -2       586       723       737      2964      3066      2996
 -1      1358    8    0    1
 -2       728       597       732      2976      2985      3067
 -1      1359    8    0    1
 -2       578       706       751      3049      3068      3069
 -1      1360    8    0    1
 -2       713       578       751      2934      3069      3070
 -1      1361    8    0    1
 -2       706       664       751      2916      3071      3068
 -1      1362    8    0    1
 -2       618       479       619      2660      3072      3073
 -1      1363    8    0    1
 -2       609       735       736      2991      3074      2993
 -1      1364    8    0    1
 -2       603       604       744      2596      3034      3027
 -1      1365    8    0    1
 -2       479       471       619      2998      2664      3072
 -1      1366    8    0    1
 -2       735       624       752      2992      3075      3076
 -1      1367    8    0    1
 -2       617       618       753      2662      3077      3078
 -1      1368    8    0    1
 -2       623       715       754      3038      3079      3080
 -1      1369    8    0    1
 -2       718       725       755      3019      3081      3082
 -1      1370    8    0    1
 -2       733       737       756      3010      3083      3084
 -1      1371    8    0    1
 -2       620       736       757      2995      3085      3086
 -1      1372    8    0    1
 -2       723       652       737      3023      3087      3066
 -1      1373    8    0    1
 -2       628       627       758      2685      3088      3089
 -1      1374    8    0    1
 -2       629       628       759      2688      3090      3091
 -1      1375    8    0    1
 -2       628       758       759      3089      3092      3090
 -1      1376    8    0    1
 -2       630       629       760      2691      3093      3094
 -1      1377    8    0    1
 -2       629       759       760      3091      3095      3093
 -1      1378    8    0    1
 -2       631       630       761      2694      3096      3097
 -1      1379    8    0    1
 -2       630       760       761      3094      3098      3096
 -1      1380    8    0    1
 -2       632       631       762      2697      3099      3100
 -1      1381    8    0    1
 -2       631       761       762      3097      3101      3099
 -1      1382    8    0    1
 -2       633       632       763      2700      3102      3103
 -1      1383    8    0    1
 -2       632       762       763      3100      3104      3102
 -1      1384    8    0    1
 -2       634       633       764      2703      3105      3106
 -1      1385    8    0    1
 -2       633       763       764      3103      3107      3105
 -1      1386    8    0    1
 -2       635       634       765      2706      3108      3109
 -1      1387    8    0    1
 -2       634       764       765      3106      3110      3108
 -1      1388    8    0    1
 -2       636       635       766      2709      3111      3112
 -1      1389    8    0    1
 -2       635       765       766      3109      3113      3111
 -1      1390    8    0    1
 -2       637       636       767      2712      3114      3115
 -1      1391    8    0    1
 -2       636       766       767      3112      3116      3114
 -1      1392    8    0    1
 -2       638       637       768      2715      3117      3118
 -1      1393    8    0    1
 -2       637       767       768      3115      3119      3117
 -1      1394    8    0    1
 -2       639       638       769      2718      3120      3121
 -1      1395    8    0    1
 -2       638       768       769      3118      3122      3120
 -1      1396    8    0    1
 -2       640       639       770      2721      3123      3124
 -1      1397    8    0    1
 -2       639       769       770      3121      3125      3123
 -1      1398    8    0    1
 -2       641       640       771      2724      3126      3127
 -1      1399    8    0    1
 -2       640       770       771      3124      3128      3126
 -1      1400    8    0    1
 -2       642       641       772      2727      3129      3130
 -1      1401    8    0    1
 -2       641       771       772      3127      3131      3129
 -1      1402    8    0    1
 -2       643       642       773      2730      3132      3133
 -1      1403    8    0    1
 -2       642       772       773      3130      3134      3132
 -1      1404    8    0    1
 -2       644       643       774      2733      3135      3136
 -1      1405    8    0    1
 -2       643       773       774      3133      3137      3135
 -1      1406    8    0    1
 -2       645       644       775      2736      3138      3139
 -1      1407    8    0    1
 -2       644       774       775      3136      3140      3138
 -1      1408    8    0    1
 -2       646       645       776      2739      3141      3142
 -1      1409    8    0    1
 -2       645       775       776      3139      3143      3141
 -1      1410    8    0    1
 -2       647       646       777      2742      3144      3145
 -1      1411    8    0    1
 -2       646       776       777      3142      3146      3144
 -1      1412    8    0    1
 -2       648       647       778      2745      3147      3148
 -1      1413    8    0    1
 -2       647       777       778      3145      3149      3147
 -1      1414    8    0    1
 -2       649       648       779      2748      3150      3151
 -1      1415    8    0    1
 -2       648       778       779      3148      3152      3150
 -1      1416    8    0    1
 -2       650       649       780      2751      3153      3154
 -1      1417    8    0    1
 -2       649       779       780      3151      3155      3153
 -1      1418    8    0    1
 -2       652       651       756      2757      3156      3157
 -1      1419    8    0    1
 -2       727       729       781      3045      3158      3159
 -1      1420    8    0    1
 -2       729       718       782      3035      3160      3161
 -1      1421    8    0    1
 -2       656       655       783      2769      3162      3163
 -1      1422    8    0    1
 -2       657       656       784      2772      3164      3165
 -1      1423    8    0    1
 -2       656       783       784      3163      3166      3164
 -1      1424    8    0    1
 -2       658       657       785      2775      3167      3168
 -1      1425    8    0    1
 -2       657       784       785      3165      3169      3167
 -1      1426    8    0    1
 -2       659       658       786      2778      3170      3171
 -1      1427    8    0    1
 -2       658       785       786      3168      3172      3170
 -1      1428    8    0    1
 -2       660       659       787      2781      3173      3174
 -1      1429    8    0    1
 -2       659       786       787      3171      3175      3173
 -1      1430    8    0    1
 -2       661       660       788      2784      3176      3177
 -1      1431    8    0    1
 -2       660       787       788      3174      3178      3176
 -1      1432    8    0    1
 -2       662       661       789      2787      3179      3180
 -1      1433    8    0    1
 -2       661       788       789      3177      3181      3179
 -1      1434    8    0    1
 -2       663       662       790      2790      3182      3183
 -1      1435    8    0    1
 -2       662       789       790      3180      3184      3182
 -1      1436    8    0    1
 -2       664       663       791      2793      3185      3186
 -1      1437    8    0    1
 -2       751       664       791      3071      3186      3187
 -1      1438    8    0    1
 -2       663       790       791      3183      3188      3185
 -1      1439    8    0    1
 -2       667       668       792      2802      3189      3190
 -1      1440    8    0    1
 -2       670       671       793      2811      3191      3192
 -1      1441    8    0    1
 -2       671       672       794      2814      3193      3194
 -1      1442    8    0    1
 -2       671       794       793      3194      3195      3191
 -1      1443    8    0    1
 -2       672       673       795      2817      3196      3197
 -1      1444    8    0    1
 -2       672       795       794      3197      3198      3193
 -1      1445    8    0    1
 -2       673       674       796      2820      3199      3200
 -1      1446    8    0    1
 -2       673       796       795      3200      3201      3196
 -1      1447    8    0    1
 -2       674       675       797      2823      3202      3203
 -1      1448    8    0    1
 -2       674       797       796      3203      3204      3199
 -1      1449    8    0    1
 -2       675       676       798      2826      3205      3206
 -1      1450    8    0    1
 -2       675       798       797      3206      3207      3202
 -1      1451    8    0    1
 -2       676       677       799      2829      3208      3209
 -1      1452    8    0    1
 -2       676       799       798      3209      3210      3205
 -1      1453    8    0    1
 -2       677       678       800      2832      3211      3212
 -1      1454    8    0    1
 -2       677       800       799      3212      3213      3208
 -1      1455    8    0    1
 -2       678       679       801      2835      3214      3215
 -1      1456    8    0    1
 -2       678       801       800      3215      3216      3211
 -1      1457    8    0    1
 -2       679       680       802      2838      3217      3218
 -1      1458    8    0    1
 -2       679       802       801      3218      3219      3214
 -1      1459    8    0    1
 -2       680       681       803      2841      3220      3221
 -1      1460    8    0    1
 -2       680       803       802      3221      3222      3217
 -1      1461    8    0    1
 -2       681       682       804      2844      3223      3224
 -1      1462    8    0    1
 -2       681       804       803      3224      3225      3220
 -1      1463    8    0    1
 -2       682       683       805      2847      3226      3227
 -1      1464    8    0    1
 -2       682       805       804      3227      3228      3223
 -1      1465    8    0    1
 -2       683       684       806      2850      3229      3230
 -1      1466    8    0    1
 -2       683       806       805      3230      3231      3226
 -1      1467    8    0    1
 -2       684       685       807      2853      3232      3233
 -1      1468    8    0    1
 -2       684       807       806      3233      3234      3229
 -1      1469    8    0    1
 -2       685       686       808      2856      3235      3236
 -1      1470    8    0    1
 -2       685       808       807      3236      3237      3232
 -1      1471    8    0    1
 -2       686       687       809      2859      3238      3239
 -1      1472    8    0    1
 -2       686       809       808      3239      3240      3235
 -1      1473    8    0    1
 -2       687       688       755      2862      3241      3242
 -1      1474    8    0    1
 -2       688       689       782      2865      3243      3244
 -1      1475    8    0    1
 -2       689       690       781      2868      3245      3246
 -1      1476    8    0    1
 -2       690       691       781      2871      3247      3245
 -1      1477    8    0    1
 -2       691       692       810      2874      3248      3249
 -1      1478    8    0    1
 -2       692       693       752      2877      3250      3251
 -1      1479    8    0    1
 -2       693       694       811      2880      3252      3253
 -1      1480    8    0    1
 -2       694       695       812      2883      3254      3255
 -1      1481    8    0    1
 -2       694       812       811      3255      3256      3252
 -1      1482    8    0    1
 -2       695       696       813      2886      3257      3258
 -1      1483    8    0    1
 -2       695       813       812      3258      3259      3254
 -1      1484    8    0    1
 -2       696       697       814      2889      3260      3261
 -1      1485    8    0    1
 -2       696       814       813      3261      3262      3257
 -1      1486    8    0    1
 -2       697       698       815      2892      3263      3264
 -1      1487    8    0    1
 -2       697       815       814      3264      3265      3260
 -1      1488    8    0    1
 -2       698       699       816      2895      3266      3267
 -1      1489    8    0    1
 -2       698       816       815      3267      3268      3263
 -1      1490    8    0    1
 -2       699       700       817      2898      3269      3270
 -1      1491    8    0    1
 -2       699       817       816      3270      3271      3266
 -1      1492    8    0    1
 -2       700       701       818      2901      3272      3273
 -1      1493    8    0    1
 -2       700       818       817      3273      3274      3269
 -1      1494    8    0    1
 -2       701       702       819      2904      3275      3276
 -1      1495    8    0    1
 -2       701       819       818      3276      3277      3272
 -1      1496    8    0    1
 -2       702       703       820      2907      3278      3279
 -1      1497    8    0    1
 -2       702       820       819      3279      3280      3275
 -1      1498    8    0    1
 -2       703       704       821      2910      3281      3282
 -1      1499    8    0    1
 -2       820       703       821      3278      3282      3283
 -1      1500    8    0    1
 -2       704       746       821      3043      3284      3281
 -1      1501    8    0    1
 -2       618       619       822      3073      3285      3286
 -1      1502    8    0    1
 -2       753       618       822      3077      3286      3287
 -1      1503    8    0    1
 -2       619       621       822      2669      3288      3285
 -1      1504    8    0    1
 -2       730       728       823      3036      3289      3290
 -1      1505    8    0    1
 -2       616       615       824      2657      3291      3292
 -1      1506    8    0    1
 -2       705       708       825      2921      3293      3294
 -1      1507    8    0    1
 -2       712       713       826      2936      3295      3296
 -1      1508    8    0    1
 -2       708       711       827      2930      3297      3298
 -1      1509    8    0    1
 -2       708       827       825      3298      3299      3293
 -1      1510    8    0    1
 -2       719       667       828      2953      3300      3301
 -1      1511    8    0    1
 -2       667       792       828      3190      3302      3300
 -1      1512    8    0    1
 -2       711       712       829      2933      3303      3304
 -1      1513    8    0    1
 -2       827       711       829      3297      3304      3305
 -1      1514    8    0    1
 -2       712       826       829      3296      3306      3303
 -1      1515    8    0    1
 -2       669       670       830      2808      3307      3308
 -1      1516    8    0    1
 -2       670       793       830      3192      3309      3307
 -1      1517    8    0    1
 -2       668       669       831      2805      3310      3311
 -1      1518    8    0    1
 -2       792       668       831      3189      3311      3312
 -1      1519    8    0    1
 -2       669       830       831      3308      3313      3310
 -1      1520    8    0    1
 -2       710       734       832      3040      3314      3315
 -1      1521    8    0    1
 -2       627       626       833      2682      3316      3317
 -1      1522    8    0    1
 -2       627       833       758      3317      3318      3088
 -1      1523    8    0    1
 -2       731       510       723      3026      3024      3061
 -1      1524    8    0    1
 -2       717       622       834      3005      3319      3320
 -1      1525    8    0    1
 -2       720       719       835      2956      3321      3322
 -1      1526    8    0    1
 -2       719       828       835      3301      3323      3321
 -1      1527    8    0    1
 -2       666       720       836      3039      3324      3325
 -1      1528    8    0    1
 -2       720       835       836      3322      3326      3324
 -1      1529    8    0    1
 -2       716       710       837      3058      3327      3328
 -1      1530    8    0    1
 -2       710       832       837      3315      3329      3327
 -1      1531    8    0    1
 -2       734       623       838      3009      3330      3331
 -1      1532    8    0    1
 -2       625       610       738      3050      3000      3332
 -1      1533    8    0    1
 -2       736       735       839      3074      3333      3334
 -1      1534    8    0    1
 -2       722       730       840      3059      3335      3336
 -1      1535    8    0    1
 -2       728       732       841      3067      3337      3338
 -1      1536    8    0    1
 -2       737       652       756      3087      3157      3083
 -1      1537    8    0    1
 -2       739       616       842      3002      3339      3340
 -1      1538    8    0    1
 -2       616       824       842      3292      3341      3339
 -1      1539    8    0    1
 -2       617       753       843      3078      3342      3343
 -1      1540    8    0    1
 -2       617       843       724      3343      3344      2968
 -1      1541    8    0    1
 -2       752       624       810      3075      3345      3346
 -1      1542    8    0    1
 -2       623       754       838      3080      3347      3330
 -1      1543    8    0    1
 -2       740       620       757      3006      3086      3348
 -1      1544    8    0    1
 -2       730       823       840      3290      3349      3335
 -1      1545    8    0    1
 -2       741       612       844      3013      3350      3351
 -1      1546    8    0    1
 -2       612       748       844      3052      3352      3350
 -1      1547    8    0    1
 -2       742       716       845      3016      3353      3354
 -1      1548    8    0    1
 -2       716       837       845      3328      3355      3353
 -1      1549    8    0    1
 -2       718       755       782      3082      3356      3160
 -1      1550    8    0    1
 -2       733       756       748      3084      3357      3053
 -1      1551    8    0    1
 -2       743       722       846      3020      3358      3359
 -1      1552    8    0    1
 -2       722       840       846      3336      3360      3358
 -1      1553    8    0    1
 -2       749       614       847      3057      3361      3362
 -1      1554    8    0    1
 -2       614       743       847      3022      3363      3361
 -1      1555    8    0    1
 -2       651       650       848      2754      3364      3365
 -1      1556    8    0    1
 -2       745       707       849      3029      3366      3367
 -1      1557    8    0    1
 -2       754       715       850      3079      3368      3369
 -1      1558    8    0    1
 -2       715       740       850      3008      3370      3368
 -1      1559    8    0    1
 -2       729       782       781      3161      3371      3158
 -1      1560    8    0    1
 -2       744       665       654      3033      3372      3054
 -1      1561    8    0    1
 -2       687       755       809      3242      3373      3238
 -1      1562    8    0    1
 -2       755       688       782      3241      3244      3356
 -1      1563    8    0    1
 -2       689       781       782      3246      3371      3243
 -1      1564    8    0    1
 -2       781       691       810      3247      3249      3374
 -1      1565    8    0    1
 -2       810       692       752      3248      3251      3346
 -1      1566    8    0    1
 -2       693       811       752      3253      3375      3250
 -1      1567    8    0    1
 -2       822       621       851      3288      3376      3377
 -1      1568    8    0    1
 -2       621       714       851      2939      3378      3376
 -1      1569    8    0    1
 -2       707       709       852      2924      3379      3380
 -1      1570    8    0    1
 -2       707       852       849      3380      3381      3366
 -1      1571    8    0    1
 -2       824       615       853      3291      3382      3383
 -1      1572    8    0    1
 -2       615       724       853      2967      3384      3382
 -1      1573    8    0    1
 -2       613       749       854      3056      3385      3386
 -1      1574    8    0    1
 -2       613       854       747      3386      3387      3048
 -1      1575    8    0    1
 -2       734       838       855      3331      3388      3389
 -1      1576    8    0    1
 -2       734       855       832      3389      3390      3314
 -1      1577    8    0    1
 -2       709       705       856      2925      3391      3392
 -1      1578    8    0    1
 -2       852       709       856      3379      3392      3393
 -1      1579    8    0    1
 -2       705       825       856      3294      3394      3391
 -1      1580    8    0    1
 -2       735       752       839      3076      3395      3333
 -1      1581    8    0    1
 -2       714       666       857      2940      3396      3397
 -1      1582    8    0    1
 -2       851       714       857      3378      3397      3398
 -1      1583    8    0    1
 -2       666       836       857      3325      3399      3396
 -1      1584    8    0    1
 -2       833       626       858      3316      3400      3401
 -1      1585    8    0    1
 -2       626       721       858      2959      3402      3400
 -1      1586    8    0    1
 -2       655       654       834      2766      3403      3404
 -1      1587    8    0    1
 -2       665       717       654      2948      3405      3372
 -1      1588    8    0    1
 -2       651       848       756      3365      3406      3156
 -1      1589    8    0    1
 -2       841       732       859      3337      3407      3408
 -1      1590    8    0    1
 -2       732       741       859      3012      3409      3407
 -1      1591    8    0    1
 -2       655       834       783      3404      3410      3162
 -1      1592    8    0    1
 -2       834       622       860      3319      3411      3412
 -1      1593    8    0    1
 -2       783       834       860      3410      3412      3413
 -1      1594    8    0    1
 -2       622       742       860      3015      3414      3411
 -1      1595    8    0    1
 -2       721       625       738      2960      3332      3415
 -1      1596    8    0    1
 -2       650       780       848      3154      3416      3364
 -1      1597    8    0    1
 -2       717       834       654      3320      3403      3405
 -1      1598    8    0    1
 -2       624       727       810      3060      3417      3345
 -1      1599    8    0    1
 -2       726       750       861      3064      3418      3419
 -1      1600    8    0    1
 -2       713       751       862      3070      3420      3421
 -1      1601    8    0    1
 -2       826       713       862      3295      3421      3422
 -1      1602    8    0    1
 -2       751       791       862      3187      3423      3420
 -1      1603    8    0    1
 -2       728       841       863      3338      3424      3425
 -1      1604    8    0    1
 -2       728       863       823      3425      3426      3289
 -1      1605    8    0    1
 -2       757       736       839      3085      3334      3427
 -1      1606    8    0    1
 -2       738       726       864      3001      3428      3429
 -1      1607    8    0    1
 -2       726       861       864      3419      3430      3428
 -1      1608    8    0    1
 -2       838       754       865      3347      3431      3432
 -1      1609    8    0    1
 -2       840       823       866      3349      3433      3434
 -1      1610    8    0    1
 -2       755       725       809      3081      3435      3373
 -1      1611    8    0    1
 -2       760       759       867      3095      3436      3437
 -1      1612    8    0    1
 -2       761       760       868      3098      3438      3439
 -1      1613    8    0    1
 -2       760       867       868      3437      3440      3438
 -1      1614    8    0    1
 -2       762       761       869      3101      3441      3442
 -1      1615    8    0    1
 -2       761       868       869      3439      3443      3441
 -1      1616    8    0    1
 -2       763       762       870      3104      3444      3445
 -1      1617    8    0    1
 -2       762       869       870      3442      3446      3444
 -1      1618    8    0    1
 -2       764       763       871      3107      3447      3448
 -1      1619    8    0    1
 -2       763       870       871      3445      3449      3447
 -1      1620    8    0    1
 -2       765       764       872      3110      3450      3451
 -1      1621    8    0    1
 -2       764       871       872      3448      3452      3450
 -1      1622    8    0    1
 -2       766       765       873      3113      3453      3454
 -1      1623    8    0    1
 -2       765       872       873      3451      3455      3453
 -1      1624    8    0    1
 -2       767       766       874      3116      3456      3457
 -1      1625    8    0    1
 -2       766       873       874      3454      3458      3456
 -1      1626    8    0    1
 -2       768       767       875      3119      3459      3460
 -1      1627    8    0    1
 -2       767       874       875      3457      3461      3459
 -1      1628    8    0    1
 -2       769       768       876      3122      3462      3463
 -1      1629    8    0    1
 -2       768       875       876      3460      3464      3462
 -1      1630    8    0    1
 -2       770       769       877      3125      3465      3466
 -1      1631    8    0    1
 -2       769       876       877      3463      3467      3465
 -1      1632    8    0    1
 -2       771       770       878      3128      3468      3469
 -1      1633    8    0    1
 -2       770       877       878      3466      3470      3468
 -1      1634    8    0    1
 -2       772       771       879      3131      3471      3472
 -1      1635    8    0    1
 -2       771       878       879      3469      3473      3471
 -1      1636    8    0    1
 -2       773       772       880      3134      3474      3475
 -1      1637    8    0    1
 -2       772       879       880      3472      3476      3474
 -1      1638    8    0    1
 -2       774       773       881      3137      3477      3478
 -1      1639    8    0    1
 -2       773       880       881      3475      3479      3477
 -1      1640    8    0    1
 -2       775       774       882      3140      3480      3481
 -1      1641    8    0    1
 -2       774       881       882      3478      3482      3480
 -1      1642    8    0    1
 -2       776       775       883      3143      3483      3484
 -1      1643    8    0    1
 -2       775       882       883      3481      3485      3483
 -1      1644    8    0    1
 -2       777       776       884      3146      3486      3487
 -1      1645    8    0    1
 -2       776       883       884      3484      3488      3486
 -1      1646    8    0    1
 -2       778       777       885      3149      3489      3490
 -1      1647    8    0    1
 -2       777       884       885      3487      3491      3489
 -1      1648    8    0    1
 -2       779       778       886      3152      3492      3493
 -1      1649    8    0    1
 -2       778       885       886      3490      3494      3492
 -1      1650    8    0    1
 -2       780       779       859      3155      3495      3496
 -1      1651    8    0    1
 -2       727       781       810      3159      3374      3417
 -1      1652    8    0    1
 -2       785       784       887      3169      3497      3498
 -1      1653    8    0    1
 -2       786       785       888      3172      3499      3500
 -1      1654    8    0    1
 -2       785       887       888      3498      3501      3499
 -1      1655    8    0    1
 -2       787       786       889      3175      3502      3503
 -1      1656    8    0    1
 -2       786       888       889      3500      3504      3502
 -1      1657    8    0    1
 -2       788       787       890      3178      3505      3506
 -1      1658    8    0    1
 -2       787       889       890      3503      3507      3505
 -1      1659    8    0    1
 -2       789       788       891      3181      3508      3509
 -1      1660    8    0    1
 -2       788       890       891      3506      3510      3508
 -1      1661    8    0    1
 -2       790       789       892      3184      3511      3512
 -1      1662    8    0    1
 -2       789       891       892      3509      3513      3511
 -1      1663    8    0    1
 -2       794       795       893      3198      3514      3515
 -1      1664    8    0    1
 -2       793       794       894      3195      3516      3517
 -1      1665    8    0    1
 -2       794       893       894      3515      3518      3516
 -1      1666    8    0    1
 -2       796       797       895      3204      3519      3520
 -1      1667    8    0    1
 -2       797       798       896      3207      3521      3522
 -1      1668    8    0    1
 -2       797       896       895      3522      3523      3519
 -1      1669    8    0    1
 -2       798       799       897      3210      3524      3525
 -1      1670    8    0    1
 -2       798       897       896      3525      3526      3521
 -1      1671    8    0    1
 -2       799       800       898      3213      3527      3528
 -1      1672    8    0    1
 -2       799       898       897      3528      3529      3524
 -1      1673    8    0    1
 -2       800       801       899      3216      3530      3531
 -1      1674    8    0    1
 -2       800       899       898      3531      3532      3527
 -1      1675    8    0    1
 -2       801       802       900      3219      3533      3534
 -1      1676    8    0    1
 -2       801       900       899      3534      3535      3530
 -1      1677    8    0    1
 -2       802       803       901      3222      3536      3537
 -1      1678    8    0    1
 -2       802       901       900      3537      3538      3533
 -1      1679    8    0    1
 -2       803       804       902      3225      3539      3540
 -1      1680    8    0    1
 -2       803       902       901      3540      3541      3536
 -1      1681    8    0    1
 -2       804       805       903      3228      3542      3543
 -1      1682    8    0    1
 -2       804       903       902      3543      3544      3539
 -1      1683    8    0    1
 -2       805       806       904      3231      3545      3546
 -1      1684    8    0    1
 -2       805       904       903      3546      3547      3542
 -1      1685    8    0    1
 -2       806       807       905      3234      3548      3549
 -1      1686    8    0    1
 -2       806       905       904      3549      3550      3545
 -1      1687    8    0    1
 -2       807       808       906      3237      3551      3552
 -1      1688    8    0    1
 -2       807       906       905      3552      3553      3548
 -1      1689    8    0    1
 -2       808       809       854      3240      3554      3555
 -1      1690    8    0    1
 -2       814       815       907      3265      3556      3557
 -1      1691    8    0    1
 -2       815       816       908      3268      3558      3559
 -1      1692    8    0    1
 -2       815       908       907      3559      3560      3556
 -1      1693    8    0    1
 -2       816       817       909      3271      3561      3562
 -1      1694    8    0    1
 -2       816       909       908      3562      3563      3558
 -1      1695    8    0    1
 -2       817       818       910      3274      3564      3565
 -1      1696    8    0    1
 -2       817       910       909      3565      3566      3561
 -1      1697    8    0    1
 -2       818       819       911      3277      3567      3568
 -1      1698    8    0    1
 -2       818       911       910      3568      3569      3564
 -1      1699    8    0    1
 -2       819       820       912      3280      3570      3571
 -1      1700    8    0    1
 -2       819       912       911      3571      3572      3567
 -1      1701    8    0    1
 -2       839       752       811      3395      3375      3573
 -1      1702    8    0    1
 -2       746       745       913      3044      3574      3575
 -1      1703    8    0    1
 -2       821       746       913      3284      3575      3576
 -1      1704    8    0    1
 -2       745       849       913      3367      3577      3574
 -1      1705    8    0    1
 -2       825       827       914      3299      3578      3579
 -1      1706    8    0    1
 -2       828       792       915      3302      3580      3581
 -1      1707    8    0    1
 -2       758       833       916      3318      3582      3583
 -1      1708    8    0    1
 -2       830       793       917      3309      3584      3585
 -1      1709    8    0    1
 -2       793       894       917      3517      3586      3584
 -1      1710    8    0    1
 -2       812       813       918      3259      3587      3588
 -1      1711    8    0    1
 -2       835       828       919      3323      3589      3590
 -1      1712    8    0    1
 -2       828       915       919      3581      3591      3589
 -1      1713    8    0    1
 -2       813       814       920      3262      3592      3593
 -1      1714    8    0    1
 -2       814       907       920      3557      3594      3592
 -1      1715    8    0    1
 -2       836       835       921      3326      3595      3596
 -1      1716    8    0    1
 -2       835       919       921      3590      3597      3595
 -1      1717    8    0    1
 -2       795       796       922      3201      3598      3599
 -1      1718    8    0    1
 -2       893       795       922      3514      3599      3600
 -1      1719    8    0    1
 -2       796       895       922      3520      3601      3598
 -1      1720    8    0    1
 -2       750       739       923      3065      3602      3603
 -1      1721    8    0    1
 -2       750       923       861      3603      3604      3418
 -1      1722    8    0    1
 -2       784       783       845      3166      3605      3606
 -1      1723    8    0    1
 -2       837       832       924      3329      3607      3608
 -1      1724    8    0    1
 -2       740       757       918      3348      3609      3610
 -1      1725    8    0    1
 -2       753       822       925      3287      3611      3612
 -1      1726    8    0    1
 -2       822       851       925      3377      3613      3611
 -1      1727    8    0    1
 -2       759       758       926      3092      3614      3615
 -1      1728    8    0    1
 -2       759       926       867      3615      3616      3436
 -1      1729    8    0    1
 -2       721       738       858      3415      3617      3402
 -1      1730    8    0    1
 -2       757       839       811      3427      3573      3618
 -1      1731    8    0    1
 -2       757       811       812      3618      3256      3619
 -1      1732    8    0    1
 -2       757       812       918      3619      3588      3609
 -1      1733    8    0    1
 -2       843       753       925      3342      3612      3620
 -1      1734    8    0    1
 -2       838       865       927      3432      3621      3622
 -1      1735    8    0    1
 -2       838       927       855      3622      3623      3388
 -1      1736    8    0    1
 -2       840       866       928      3434      3624      3625
 -1      1737    8    0    1
 -2       840       928       846      3625      3626      3360
 -1      1738    8    0    1
 -2       845       837       929      3355      3627      3628
 -1      1739    8    0    1
 -2       837       924       929      3608      3629      3627
 -1      1740    8    0    1
 -2       850       740       918      3370      3610      3630
 -1      1741    8    0    1
 -2       824       853       930      3383      3631      3632
 -1      1742    8    0    1
 -2       809       725       747      3435      3047      3633
 -1      1743    8    0    1
 -2       847       743       931      3363      3634      3635
 -1      1744    8    0    1
 -2       743       846       931      3359      3636      3634
 -1      1745    8    0    1
 -2       858       738       864      3617      3429      3637
 -1      1746    8    0    1
 -2       842       824       932      3341      3638      3639
 -1      1747    8    0    1
 -2       824       930       932      3632      3640      3638
 -1      1748    8    0    1
 -2       779       886       859      3493      3641      3495
 -1      1749    8    0    1
 -2       841       859       933      3408      3642      3643
 -1      1750    8    0    1
 -2       841       933       863      3643      3644      3424
 -1      1751    8    0    1
 -2       825       914       934      3579      3645      3646
 -1      1752    8    0    1
 -2       825       934       856      3646      3647      3394
 -1      1753    8    0    1
 -2       754       850       935      3369      3648      3649
 -1      1754    8    0    1
 -2       754       935       865      3649      3650      3431
 -1      1755    8    0    1
 -2       823       863       936      3426      3651      3652
 -1      1756    8    0    1
 -2       823       936       866      3652      3653      3433
 -1      1757    8    0    1
 -2       827       829       937      3305      3654      3655
 -1      1758    8    0    1
 -2       827       937       914      3655      3656      3578
 -1      1759    8    0    1
 -2       923       739       842      3602      3340      3657
 -1      1760    8    0    1
 -2       791       790       938      3188      3658      3659
 -1      1761    8    0    1
 -2       862       791       938      3423      3659      3660
 -1      1762    8    0    1
 -2       790       892       938      3512      3661      3658
 -1      1763    8    0    1
 -2       792       831       939      3312      3662      3663
 -1      1764    8    0    1
 -2       792       939       915      3663      3664      3580
 -1      1765    8    0    1
 -2       808       854       906      3555      3665      3551
 -1      1766    8    0    1
 -2       836       921       940      3596      3666      3667
 -1      1767    8    0    1
 -2       820       821       913      3283      3576      3668
 -1      1768    8    0    1
 -2       833       858       941      3401      3669      3670
 -1      1769    8    0    1
 -2       916       833       941      3582      3670      3671
 -1      1770    8    0    1
 -2       858       864       941      3637      3672      3669
 -1      1771    8    0    1
 -2       853       724       843      3384      3344      3673
 -1      1772    8    0    1
 -2       854       749       942      3385      3674      3675
 -1      1773    8    0    1
 -2       854       942       906      3675      3676      3665
 -1      1774    8    0    1
 -2       913       849       912      3577      3677      3678
 -1      1775    8    0    1
 -2       813       920       918      3593      3679      3587
 -1      1776    8    0    1
 -2       758       916       926      3583      3680      3614
 -1      1777    8    0    1
 -2       832       855       924      3390      3681      3607
 -1      1778    8    0    1
 -2       849       852       943      3381      3682      3683
 -1      1779    8    0    1
 -2       849       943       912      3683      3684      3677
 -1      1780    8    0    1
 -2       857       836       940      3399      3667      3685
 -1      1781    8    0    1
 -2       831       830       944      3313      3686      3687
 -1      1782    8    0    1
 -2       830       917       944      3585      3688      3686
 -1      1783    8    0    1
 -2       861       923       945      3604      3689      3690
 -1      1784    8    0    1
 -2       748       756       848      3357      3406      3691
 -1      1785    8    0    1
 -2       848       780       844      3416      3692      3693
 -1      1786    8    0    1
 -2       826       862       938      3422      3660      3694
 -1      1787    8    0    1
 -2       864       861       946      3430      3695      3696
 -1      1788    8    0    1
 -2       941       864       946      3672      3696      3697
 -1      1789    8    0    1
 -2       861       945       946      3690      3698      3695
 -1      1790    8    0    1
 -2       809       747       854      3633      3387      3554
 -1      1791    8    0    1
 -2       820       913       912      3668      3678      3570
 -1      1792    8    0    1
 -2       748       848       844      3691      3693      3352
 -1      1793    8    0    1
 -2       826       938       947      3694      3699      3700
 -1      1794    8    0    1
 -2       829       826       947      3306      3700      3701
 -1      1795    8    0    1
 -2       938       892       947      3661      3702      3699
 -1      1796    8    0    1
 -2       930       853       948      3631      3703      3704
 -1      1797    8    0    1
 -2       853       843       948      3673      3705      3703
 -1      1798    8    0    1
 -2       741       844       859      3351      3706      3409
 -1      1799    8    0    1
 -2       908       909       949      3563      3707      3708
 -1      1800    8    0    1
 -2       869       868       950      3443      3709      3710
 -1      1801    8    0    1
 -2       870       869       951      3446      3711      3712
 -1      1802    8    0    1
 -2       869       950       951      3710      3713      3711
 -1      1803    8    0    1
 -2       871       870       952      3449      3714      3715
 -1      1804    8    0    1
 -2       870       951       952      3712      3716      3714
 -1      1805    8    0    1
 -2       872       871       953      3452      3717      3718
 -1      1806    8    0    1
 -2       871       952       953      3715      3719      3717
 -1      1807    8    0    1
 -2       873       872       954      3455      3720      3721
 -1      1808    8    0    1
 -2       872       953       954      3718      3722      3720
 -1      1809    8    0    1
 -2       874       873       955      3458      3723      3724
 -1      1810    8    0    1
 -2       873       954       955      3721      3725      3723
 -1      1811    8    0    1
 -2       875       874       956      3461      3726      3727
 -1      1812    8    0    1
 -2       874       955       956      3724      3728      3726
 -1      1813    8    0    1
 -2       876       875       957      3464      3729      3730
 -1      1814    8    0    1
 -2       875       956       957      3727      3731      3729
 -1      1815    8    0    1
 -2       877       876       958      3467      3732      3733
 -1      1816    8    0    1
 -2       876       957       958      3730      3734      3732
 -1      1817    8    0    1
 -2       878       877       959      3470      3735      3736
 -1      1818    8    0    1
 -2       877       958       959      3733      3737      3735
 -1      1819    8    0    1
 -2       879       878       960      3473      3738      3739
 -1      1820    8    0    1
 -2       878       959       960      3736      3740      3738
 -1      1821    8    0    1
 -2       880       879       961      3476      3741      3742
 -1      1822    8    0    1
 -2       879       960       961      3739      3743      3741
 -1      1823    8    0    1
 -2       881       880       962      3479      3744      3745
 -1      1824    8    0    1
 -2       880       961       962      3742      3746      3744
 -1      1825    8    0    1
 -2       882       881       963      3482      3747      3748
 -1      1826    8    0    1
 -2       881       962       963      3745      3749      3747
 -1      1827    8    0    1
 -2       883       882       964      3485      3750      3751
 -1      1828    8    0    1
 -2       882       963       964      3748      3752      3750
 -1      1829    8    0    1
 -2       884       883       965      3488      3753      3754
 -1      1830    8    0    1
 -2       883       964       965      3751      3755      3753
 -1      1831    8    0    1
 -2       885       884       966      3491      3756      3757
 -1      1832    8    0    1
 -2       884       965       966      3754      3758      3756
 -1      1833    8    0    1
 -2       886       885       967      3494      3759      3760
 -1      1834    8    0    1
 -2       885       966       967      3757      3761      3759
 -1      1835    8    0    1
 -2       894       893       968      3518      3762      3763
 -1      1836    8    0    1
 -2       889       888       969      3504      3764      3765
 -1      1837    8    0    1
 -2       890       889       970      3507      3766      3767
 -1      1838    8    0    1
 -2       889       969       970      3765      3768      3766
 -1      1839    8    0    1
 -2       891       890       971      3510      3769      3770
 -1      1840    8    0    1
 -2       890       970       971      3767      3771      3769
 -1      1841    8    0    1
 -2       892       891       972      3513      3772      3773
 -1      1842    8    0    1
 -2       891       971       972      3770      3774      3772
 -1      1843    8    0    1
 -2       896       897       973      3526      3775      3776
 -1      1844    8    0    1
 -2       895       896       974      3523      3777      3778
 -1      1845    8    0    1
 -2       896       973       974      3776      3779      3777
 -1      1846    8    0    1
 -2       898       899       975      3532      3780      3781
 -1      1847    8    0    1
 -2       899       900       976      3535      3782      3783
 -1      1848    8    0    1
 -2       899       976       975      3783      3784      3780
 -1      1849    8    0    1
 -2       900       901       977      3538      3785      3786
 -1      1850    8    0    1
 -2       900       977       976      3786      3787      3782
 -1      1851    8    0    1
 -2       901       902       978      3541      3788      3789
 -1      1852    8    0    1
 -2       901       978       977      3789      3790      3785
 -1      1853    8    0    1
 -2       902       903       979      3544      3791      3792
 -1      1854    8    0    1
 -2       902       979       978      3792      3793      3788
 -1      1855    8    0    1
 -2       903       904       980      3547      3794      3795
 -1      1856    8    0    1
 -2       903       980       979      3795      3796      3791
 -1      1857    8    0    1
 -2       904       905       981      3550      3797      3798
 -1      1858    8    0    1
 -2       904       981       980      3798      3799      3794
 -1      1859    8    0    1
 -2       905       906       982      3553      3800      3801
 -1      1860    8    0    1
 -2       981       905       982      3797      3801      3802
 -1      1861    8    0    1
 -2       906       942       982      3676      3803      3800
 -1      1862    8    0    1
 -2       940       921       983      3666      3804      3805
 -1      1863    8    0    1
 -2       907       908       984      3560      3806      3807
 -1      1864    8    0    1
 -2       908       949       984      3708      3808      3806
 -1      1865    8    0    1
 -2       910       911       985      3569      3809      3810
 -1      1866    8    0    1
 -2       911       912       986      3572      3811      3812
 -1      1867    8    0    1
 -2       985       911       986      3809      3812      3813
 -1      1868    8    0    1
 -2       912       943       986      3684      3814      3811
 -1      1869    8    0    1
 -2       923       842       987      3657      3815      3816
 -1      1870    8    0    1
 -2       945       923       987      3689      3816      3817
 -1      1871    8    0    1
 -2       842       932       987      3639      3818      3815
 -1      1872    8    0    1
 -2       918       920       850      3679      3819      3630
 -1      1873    8    0    1
 -2       926       916       988      3680      3820      3821
 -1      1874    8    0    1
 -2       867       926       989      3616      3822      3823
 -1      1875    8    0    1
 -2       926       988       989      3821      3824      3822
 -1      1876    8    0    1
 -2       887       784       845      3497      3606      3825
 -1      1877    8    0    1
 -2       860       742       845      3414      3354      3826
 -1      1878    8    0    1
 -2       843       925       948      3620      3827      3705
 -1      1879    8    0    1
 -2       921       919       990      3597      3828      3829
 -1      1880    8    0    1
 -2       921       990       983      3829      3830      3804
 -1      1881    8    0    1
 -2       917       894       991      3586      3831      3832
 -1      1882    8    0    1
 -2       894       968       991      3763      3833      3831
 -1      1883    8    0    1
 -2       859       886       933      3641      3834      3642
 -1      1884    8    0    1
 -2       909       910       992      3566      3835      3836
 -1      1885    8    0    1
 -2       949       909       992      3707      3836      3837
 -1      1886    8    0    1
 -2       910       985       992      3810      3838      3835
 -1      1887    8    0    1
 -2       897       898       993      3529      3839      3840
 -1      1888    8    0    1
 -2       898       975       993      3781      3841      3839
 -1      1889    8    0    1
 -2       851       857       994      3398      3842      3843
 -1      1890    8    0    1
 -2       925       851       994      3613      3843      3844
 -1      1891    8    0    1
 -2       857       940       994      3685      3845      3842
 -1      1892    8    0    1
 -2       852       856       995      3393      3846      3847
 -1      1893    8    0    1
 -2       856       934       995      3647      3848      3846
 -1      1894    8    0    1
 -2       919       915       996      3591      3849      3850
 -1      1895    8    0    1
 -2       919       996       990      3850      3851      3828
 -1      1896    8    0    1
 -2       868       867       997      3440      3852      3853
 -1      1897    8    0    1
 -2       950       868       997      3709      3853      3854
 -1      1898    8    0    1
 -2       867       989       997      3823      3855      3852
 -1      1899    8    0    1
 -2       924       855       998      3681      3856      3857
 -1      1900    8    0    1
 -2       850       920       999      3819      3858      3859
 -1      1901    8    0    1
 -2       935       850       999      3648      3859      3860
 -1      1902    8    0    1
 -2       920       907       999      3594      3861      3858
 -1      1903    8    0    1
 -2       927       865      1000      3621      3862      3863
 -1      1904    8    0    1
 -2       928       866      1001      3624      3864      3865
 -1      1905    8    0    1
 -2       929       924      1002      3629      3866      3867
 -1      1906    8    0    1
 -2       924       998      1002      3857      3868      3866
 -1      1907    8    0    1
 -2       829       947       937      3701      3869      3654
 -1      1908    8    0    1
 -2       998       855       927      3856      3623      3870
 -1      1909    8    0    1
 -2       931       846      1003      3636      3871      3872
 -1      1910    8    0    1
 -2       846       928      1003      3626      3873      3871
 -1      1911    8    0    1
 -2       932       930      1004      3640      3874      3875
 -1      1912    8    0    1
 -2       933       886       967      3834      3760      3876
 -1      1913    8    0    1
 -2       968       893      1005      3762      3877      3878
 -1      1914    8    0    1
 -2       893       922      1005      3600      3879      3877
 -1      1915    8    0    1
 -2       863       933      1006      3644      3880      3881
 -1      1916    8    0    1
 -2       936       863      1006      3651      3881      3882
 -1      1917    8    0    1
 -2       933       967      1006      3876      3883      3880
 -1      1918    8    0    1
 -2       934       914      1007      3645      3884      3885
 -1      1919    8    0    1
 -2      1000       865       935      3862      3650      3886
 -1      1920    8    0    1
 -2       888       887      1008      3501      3887      3888
 -1      1921    8    0    1
 -2      1007       914      1009      3884      3889      3890
 -1      1922    8    0    1
 -2       914       937      1009      3656      3891      3889
 -1      1923    8    0    1
 -2       915       939      1010      3664      3892      3893
 -1      1924    8    0    1
 -2       915      1010       996      3893      3894      3849
 -1      1925    8    0    1
 -2       892       972       947      3773      3895      3702
 -1      1926    8    0    1
 -2       973       897       993      3775      3840      3896
 -1      1927    8    0    1
 -2       930       948      1011      3704      3897      3898
 -1      1928    8    0    1
 -2       930      1011      1004      3898      3899      3874
 -1      1929    8    0    1
 -2       917       991      1012      3832      3900      3901
 -1      1930    8    0    1
 -2       917      1012       944      3901      3902      3688
 -1      1931    8    0    1
 -2       982       942       931      3803      3903      3904
 -1      1932    8    0    1
 -2       907       984       999      3807      3905      3861
 -1      1933    8    0    1
 -2       831       944       939      3687      3906      3662
 -1      1934    8    0    1
 -2       852       995       943      3847      3907      3682
 -1      1935    8    0    1
 -2       940       983      1013      3805      3908      3909
 -1      1936    8    0    1
 -2       888      1008       969      3888      3910      3764
 -1      1937    8    0    1
 -2       940      1013       994      3909      3911      3845
 -1      1938    8    0    1
 -2       916       941      1014      3671      3912      3913
 -1      1939    8    0    1
 -2       988       916      1014      3820      3913      3914
 -1      1940    8    0    1
 -2       941       946      1014      3697      3915      3912
 -1      1941    8    0    1
 -2       922       895      1015      3601      3916      3917
 -1      1942    8    0    1
 -2       922      1015      1005      3917      3918      3879
 -1      1943    8    0    1
 -2       945       987      1016      3817      3919      3920
 -1      1944    8    0    1
 -2       887       845       929      3825      3628      3921
 -1      1945    8    0    1
 -2       844       780       859      3692      3496      3706
 -1      1946    8    0    1
 -2       946       945      1014      3698      3922      3915
 -1      1947    8    0    1
 -2       866       936      1001      3653      3923      3864
 -1      1948    8    0    1
 -2       945      1016      1014      3920      3924      3922
 -1      1949    8    0    1
 -2      1015       895       974      3916      3778      3925
 -1      1950    8    0    1
 -2       928      1001      1017      3865      3926      3927
 -1      1951    8    0    1
 -2       928      1017      1003      3927      3928      3873
 -1      1952    8    0    1
 -2       993       975      1018      3841      3929      3930
 -1      1953    8    0    1
 -2       934      1007      1019      3885      3931      3932
 -1      1954    8    0    1
 -2       934      1019       995      3932      3933      3848
 -1      1955    8    0    1
 -2       952       951      1020      3716      3934      3935
 -1      1956    8    0    1
 -2       953       952      1021      3719      3936      3937
 -1      1957    8    0    1
 -2       952      1020      1021      3935      3938      3936
 -1      1958    8    0    1
 -2       954       953      1022      3722      3939      3940
 -1      1959    8    0    1
 -2       953      1021      1022      3937      3941      3939
 -1      1960    8    0    1
 -2       955       954      1023      3725      3942      3943
 -1      1961    8    0    1
 -2       954      1022      1023      3940      3944      3942
 -1      1962    8    0    1
 -2       956       955      1024      3728      3945      3946
 -1      1963    8    0    1
 -2       955      1023      1024      3943      3947      3945
 -1      1964    8    0    1
 -2       957       956      1025      3731      3948      3949
 -1      1965    8    0    1
 -2       956      1024      1025      3946      3950      3948
 -1      1966    8    0    1
 -2       958       957      1026      3734      3951      3952
 -1      1967    8    0    1
 -2       957      1025      1026      3949      3953      3951
 -1      1968    8    0    1
 -2       959       958      1027      3737      3954      3955
 -1      1969    8    0    1
 -2       958      1026      1027      3952      3956      3954
 -1      1970    8    0    1
 -2       960       959      1028      3740      3957      3958
 -1      1971    8    0    1
 -2       959      1027      1028      3955      3959      3957
 -1      1972    8    0    1
 -2       961       960      1029      3743      3960      3961
 -1      1973    8    0    1
 -2       960      1028      1029      3958      3962      3960
 -1      1974    8    0    1
 -2       962       961      1030      3746      3963      3964
 -1      1975    8    0    1
 -2       961      1029      1030      3961      3965      3963
 -1      1976    8    0    1
 -2       963       962      1031      3749      3966      3967
 -1      1977    8    0    1
 -2       962      1030      1031      3964      3968      3966
 -1      1978    8    0    1
 -2       964       963      1032      3752      3969      3970
 -1      1979    8    0    1
 -2       963      1031      1032      3967      3971      3969
 -1      1980    8    0    1
 -2       965       964      1033      3755      3972      3973
 -1      1981    8    0    1
 -2       964      1032      1033      3970      3974      3972
 -1      1982    8    0    1
 -2       966       965      1034      3758      3975      3976
 -1      1983    8    0    1
 -2       965      1033      1034      3973      3977      3975
 -1      1984    8    0    1
 -2       967       966      1035      3761      3978      3979
 -1      1985    8    0    1
 -2      1006       967      1035      3883      3979      3980
 -1      1986    8    0    1
 -2       966      1034      1035      3976      3981      3978
 -1      1987    8    0    1
 -2       925       994       948      3844      3982      3827
 -1      1988    8    0    1
 -2      1008       887       929      3887      3921      3983
 -1      1989    8    0    1
 -2       998       927      1036      3870      3984      3985
 -1      1990    8    0    1
 -2       971       970      1037      3771      3986      3987
 -1      1991    8    0    1
 -2       972       971      1038      3774      3988      3989
 -1      1992    8    0    1
 -2       971      1037      1038      3987      3990      3988
 -1      1993    8    0    1
 -2       976       977      1039      3787      3991      3992
 -1      1994    8    0    1
 -2       975       976      1040      3784      3993      3994
 -1      1995    8    0    1
 -2       976      1039      1040      3992      3995      3993
 -1      1996    8    0    1
 -2       978       979      1041      3793      3996      3997
 -1      1997    8    0    1
 -2       979       980      1042      3796      3998      3999
 -1      1998    8    0    1
 -2       979      1042      1041      3999      4000      3996
 -1      1999    8    0    1
 -2       980       981      1043      3799      4001      4002
 -1      2000    8    0    1
 -2       980      1043      1042      4002      4003      3998
 -1      2001    8    0    1
 -2       931       942       847      3903      4004      3635
 -1      2002    8    0    1
 -2       999       984      1044      3905      4005      4006
 -1      2003    8    0    1
 -2       984       949      1045      3808      4007      4008
 -1      2004    8    0    1
 -2       984      1045      1044      4008      4009      4005
 -1      2005    8    0    1
 -2       977       978      1046      3790      4010      4011
 -1      2006    8    0    1
 -2       977      1046      1039      4011      4012      3991
 -1      2007    8    0    1
 -2       987       932      1047      3818      4013      4014
 -1      2008    8    0    1
 -2       932      1004      1047      3875      4015      4013
 -1      2009    8    0    1
 -2       970       969      1048      3768      4016      4017
 -1      2010    8    0    1
 -2       970      1048      1037      4017      4018      3986
 -1      2011    8    0    1
 -2       942       749       847      3674      3362      4004
 -1      2012    8    0    1
 -2       974       973      1049      3779      4019      4020
 -1      2013    8    0    1
 -2      1001       936      1050      3923      4021      4022
 -1      2014    8    0    1
 -2       982       931      1051      3904      4023      4024
 -1      2015    8    0    1
 -2       981       982      1051      3802      4024      4025
 -1      2016    8    0    1
 -2       931      1003      1051      3872      4026      4023
 -1      2017    8    0    1
 -2       983       990      1052      3830      4027      4028
 -1      2018    8    0    1
 -2      1015       974      1053      3925      4029      4030
 -1      2019    8    0    1
 -2       974      1049      1053      4020      4031      4029
 -1      2020    8    0    1
 -2       989       988      1054      3824      4032      4033
 -1      2021    8    0    1
 -2       943       995      1055      3907      4034      4035
 -1      2022    8    0    1
 -2       986       943      1055      3814      4035      4036
 -1      2023    8    0    1
 -2       995      1019      1055      3933      4037      4034
 -1      2024    8    0    1
 -2       937       947       972      3869      3895      4038
 -1      2025    8    0    1
 -2       990       996      1056      3851      4039      4040
 -1      2026    8    0    1
 -2       990      1056      1052      4040      4041      4027
 -1      2027    8    0    1
 -2       927      1000      1057      3863      4042      4043
 -1      2028    8    0    1
 -2       927      1057      1036      4043      4044      3984
 -1      2029    8    0    1
 -2       991       968      1058      3833      4045      4046
 -1      2030    8    0    1
 -2      1016       987      1047      3919      4014      4047
 -1      2031    8    0    1
 -2       845       783       860      3605      3413      3826
 -1      2032    8    0    1
 -2       951       950      1059      3713      4048      4049
 -1      2033    8    0    1
 -2       951      1059      1020      4049      4050      3934
 -1      2034    8    0    1
 -2       939       944      1060      3906      4051      4052
 -1      2035    8    0    1
 -2      1010       939      1060      3892      4052      4053
 -1      2036    8    0    1
 -2       944      1012      1060      3902      4054      4051
 -1      2037    8    0    1
 -2       973       993      1061      3896      4055      4056
 -1      2038    8    0    1
 -2       993      1018      1061      3930      4057      4055
 -1      2039    8    0    1
 -2       935       999      1044      3860      4006      4058
 -1      2040    8    0    1
 -2      1018       975      1040      3929      3994      4059
 -1      2041    8    0    1
 -2       935      1044      1000      4058      4060      3886
 -1      2042    8    0    1
 -2       973      1061      1049      4056      4061      4019
 -1      2043    8    0    1
 -2       937       972      1009      4038      4062      3891
 -1      2044    8    0    1
 -2      1019      1007      1062      3931      4063      4064
 -1      2045    8    0    1
 -2       949       992      1063      3837      4065      4066
 -1      2046    8    0    1
 -2       949      1063      1045      4066      4067      4007
 -1      2047    8    0    1
 -2       968      1005      1064      3878      4068      4069
 -1      2048    8    0    1
 -2       968      1064      1058      4069      4070      4045
 -1      2049    8    0    1
 -2       991      1058      1065      4046      4071      4072
 -1      2050    8    0    1
 -2       991      1065      1012      4072      4073      3900
 -1      2051    8    0    1
 -2       978      1041      1046      3997      4074      4010
 -1      2052    8    0    1
 -2       972      1038      1009      3989      4075      4062
 -1      2053    8    0    1
 -2      1011       948      1013      3897      4076      4077
 -1      2054    8    0    1
 -2      1000      1044      1066      4060      4078      4079
 -1      2055    8    0    1
 -2      1057      1000      1066      4042      4079      4080
 -1      2056    8    0    1
 -2      1044      1045      1066      4009      4081      4078
 -1      2057    8    0    1
 -2      1043       981      1051      4001      4025      4082
 -1      2058    8    0    1
 -2      1047      1004      1067      4015      4083      4084
 -1      2059    8    0    1
 -2       985       986      1055      3813      4036      4085
 -1      2060    8    0    1
 -2      1050       936      1006      4021      3882      4086
 -1      2061    8    0    1
 -2      1013       983      1068      3908      4087      4088
 -1      2062    8    0    1
 -2       969      1008      1069      3910      4089      4090
 -1      2063    8    0    1
 -2      1017      1001      1070      3926      4091      4092
 -1      2064    8    0    1
 -2      1001      1050      1070      4022      4093      4091
 -1      2065    8    0    1
 -2       994      1013       948      3911      4076      3982
 -1      2066    8    0    1
 -2      1056       996      1071      4039      4094      4095
 -1      2067    8    0    1
 -2       996      1010      1071      3894      4096      4094
 -1      2068    8    0    1
 -2      1013      1068      1011      4088      4097      4077
 -1      2069    8    0    1
 -2      1004      1011      1068      3899      4097      4098
 -1      2070    8    0    1
 -2       950       997      1072      3854      4099      4100
 -1      2071    8    0    1
 -2       950      1072      1059      4100      4101      4048
 -1      2072    8    0    1
 -2      1016      1047      1073      4047      4102      4103
 -1      2073    8    0    1
 -2      1047      1067      1073      4084      4104      4102
 -1      2074    8    0    1
 -2       998      1036      1069      3985      4105      4106
 -1      2075    8    0    1
 -2      1008       929      1002      3983      3867      4107
 -1      2076    8    0    1
 -2       992       985      1074      3838      4108      4109
 -1      2077    8    0    1
 -2      1063       992      1074      4065      4109      4110
 -1      2078    8    0    1
 -2       985      1055      1074      4085      4111      4108
 -1      2079    8    0    1
 -2      1016      1073      1054      4103      4112      4113
 -1      2080    8    0    1
 -2       983      1052      1068      4028      4114      4087
 -1      2081    8    0    1
 -2       988      1014      1016      3914      3924      4115
 -1      2082    8    0    1
 -2       989      1054      1075      4033      4116      4117
 -1      2083    8    0    1
 -2       989      1075       997      4117      4118      3855
 -1      2084    8    0    1
 -2      1004      1068      1067      4098      4119      4083
 -1      2085    8    0    1
 -2      1005      1015      1076      3918      4120      4121
 -1      2086    8    0    1
 -2      1005      1076      1064      4121      4122      4068
 -1      2087    8    0    1
 -2       988      1016      1054      4115      4113      4032
 -1      2088    8    0    1
 -2       969      1069      1048      4090      4123      4016
 -1      2089    8    0    1
 -2      1076      1015      1053      4120      4030      4124
 -1      2090    8    0    1
 -2      1054      1073      1077      4112      4125      4126
 -1      2091    8    0    1
 -2      1054      1077      1075      4126      4127      4116
 -1      2092    8    0    1
 -2      1062      1007      1078      4063      4128      4129
 -1      2093    8    0    1
 -2      1022      1021      1079      3941      4130      4131
 -1      2094    8    0    1
 -2      1023      1022      1080      3944      4132      4133
 -1      2095    8    0    1
 -2      1022      1079      1080      4131      4134      4132
 -1      2096    8    0    1
 -2      1024      1023      1081      3947      4135      4136
 -1      2097    8    0    1
 -2      1023      1080      1081      4133      4137      4135
 -1      2098    8    0    1
 -2      1025      1024      1082      3950      4138      4139
 -1      2099    8    0    1
 -2      1024      1081      1082      4136      4140      4138
 -1      2100    8    0    1
 -2      1026      1025      1083      3953      4141      4142
 -1      2101    8    0    1
 -2      1025      1082      1083      4139      4143      4141
 -1      2102    8    0    1
 -2      1027      1026      1084      3956      4144      4145
 -1      2103    8    0    1
 -2      1026      1083      1084      4142      4146      4144
 -1      2104    8    0    1
 -2      1028      1027      1085      3959      4147      4148
 -1      2105    8    0    1
 -2      1027      1084      1085      4145      4149      4147
 -1      2106    8    0    1
 -2      1029      1028      1086      3962      4150      4151
 -1      2107    8    0    1
 -2      1028      1085      1086      4148      4152      4150
 -1      2108    8    0    1
 -2      1030      1029      1087      3965      4153      4154
 -1      2109    8    0    1
 -2      1029      1086      1087      4151      4155      4153
 -1      2110    8    0    1
 -2      1031      1030      1088      3968      4156      4157
 -1      2111    8    0    1
 -2      1030      1087      1088      4154      4158      4156
 -1      2112    8    0    1
 -2      1032      1031      1089      3971      4159      4160
 -1      2113    8    0    1
 -2      1031      1088      1089      4157      4161      4159
 -1      2114    8    0    1
 -2      1033      1032      1090      3974      4162      4163
 -1      2115    8    0    1
 -2      1032      1089      1090      4160      4164      4162
 -1      2116    8    0    1
 -2      1034      1033      1091      3977      4165      4166
 -1      2117    8    0    1
 -2      1033      1090      1091      4163      4167      4165
 -1      2118    8    0    1
 -2      1040      1039      1092      3995      4168      4169
 -1      2119    8    0    1
 -2      1038      1037      1078      3990      4170      4171
 -1      2120    8    0    1
 -2      1051      1003      1017      4026      3928      4172
 -1      2121    8    0    1
 -2      1049      1061      1093      4061      4173      4174
 -1      2122    8    0    1
 -2      1007      1009      1078      3890      4175      4128
 -1      2123    8    0    1
 -2      1061      1018      1094      4057      4176      4177
 -1      2124    8    0    1
 -2      1061      1094      1093      4177      4178      4173
 -1      2125    8    0    1
 -2      1046      1041      1095      4074      4179      4180
 -1      2126    8    0    1
 -2      1042      1043      1096      4003      4181      4182
 -1      2127    8    0    1
 -2      1041      1042      1097      4000      4183      4184
 -1      2128    8    0    1
 -2      1095      1041      1097      4179      4184      4185
 -1      2129    8    0    1
 -2      1042      1096      1097      4182      4186      4183
 -1      2130    8    0    1
 -2      1039      1046      1098      4012      4187      4188
 -1      2131    8    0    1
 -2      1046      1095      1098      4180      4189      4187
 -1      2132    8    0    1
 -2      1043      1051      1017      4082      4172      4190
 -1      2133    8    0    1
 -2      1009      1038      1078      4075      4171      4175
 -1      2134    8    0    1
 -2      1076      1053      1099      4124      4191      4192
 -1      2135    8    0    1
 -2      1055      1019      1074      4037      4193      4111
 -1      2136    8    0    1
 -2      1078      1037      1100      4170      4194      4195
 -1      2137    8    0    1
 -2      1037      1048      1100      4018      4196      4194
 -1      2138    8    0    1
 -2       998      1069      1002      4106      4197      3868
 -1      2139    8    0    1
 -2      1053      1049      1101      4031      4198      4199
 -1      2140    8    0    1
 -2      1049      1093      1101      4174      4200      4198
 -1      2141    8    0    1
 -2      1048      1069      1036      4123      4105      4201
 -1      2142    8    0    1
 -2      1050      1006      1035      4086      3980      4202
 -1      2143    8    0    1
 -2      1073      1067      1077      4104      4203      4125
 -1      2144    8    0    1
 -2      1068      1052      1067      4114      4204      4119
 -1      2145    8    0    1
 -2      1062      1078      1100      4129      4195      4205
 -1      2146    8    0    1
 -2      1018      1040      1102      4059      4206      4207
 -1      2147    8    0    1
 -2      1040      1092      1102      4169      4208      4206
 -1      2148    8    0    1
 -2      1020      1059      1103      4050      4209      4210
 -1      2149    8    0    1
 -2      1067      1052      1104      4204      4211      4212
 -1      2150    8    0    1
 -2      1077      1067      1104      4203      4212      4213
 -1      2151    8    0    1
 -2      1052      1056      1104      4041      4214      4211
 -1      2152    8    0    1
 -2      1021      1020      1105      3938      4215      4216
 -1      2153    8    0    1
 -2      1020      1103      1105      4210      4217      4215
 -1      2154    8    0    1
 -2      1043      1017      1096      4190      4218      4181
 -1      2155    8    0    1
 -2      1048      1036      1100      4201      4219      4196
 -1      2156    8    0    1
 -2      1010      1060      1106      4053      4220      4221
 -1      2157    8    0    1
 -2      1010      1106      1071      4221      4222      4096
 -1      2158    8    0    1
 -2      1045      1063      1107      4067      4223      4224
 -1      2159    8    0    1
 -2      1045      1107      1066      4224      4225      4081
 -1      2160    8    0    1
 -2      1065      1058      1108      4071      4226      4227
 -1      2161    8    0    1
 -2      1096      1017      1070      4218      4092      4228
 -1      2162    8    0    1
 -2      1092      1039      1098      4168      4188      4229
 -1      2163    8    0    1
 -2      1035      1034      1109      3981      4230      4231
 -1      2164    8    0    1
 -2      1050      1035      1109      4202      4231      4232
 -1      2165    8    0    1
 -2      1034      1091      1109      4166      4233      4230
 -1      2166    8    0    1
 -2      1099      1053      1101      4191      4199      4234
 -1      2167    8    0    1
 -2      1019      1062      1074      4064      4235      4193
 -1      2168    8    0    1
 -2      1076      1099      1110      4192      4236      4237
 -1      2169    8    0    1
 -2      1076      1110      1064      4237      4238      4122
 -1      2170    8    0    1
 -2      1094      1018      1102      4176      4207      4239
 -1      2171    8    0    1
 -2      1050      1109      1070      4232      4240      4093
 -1      2172    8    0    1
 -2      1058      1064      1111      4070      4241      4242
 -1      2173    8    0    1
 -2      1064      1110      1111      4238      4243      4241
 -1      2174    8    0    1
 -2      1069      1008      1002      4089      4107      4197
 -1      2175    8    0    1
 -2      1079      1021      1105      4130      4216      4244
 -1      2176    8    0    1
 -2      1058      1111      1108      4242      4245      4226
 -1      2177    8    0    1
 -2      1072       997      1075      4099      4118      4246
 -1      2178    8    0    1
 -2      1056      1071      1112      4095      4247      4248
 -1      2179    8    0    1
 -2      1056      1112      1104      4248      4249      4214
 -1      2180    8    0    1
 -2      1012      1065      1113      4073      4250      4251
 -1      2181    8    0    1
 -2      1012      1113      1060      4251      4252      4054
 -1      2182    8    0    1
 -2      1074      1062      1063      4235      4253      4110
 -1      2183    8    0    1
 -2      1103      1059      1114      4209      4254      4255
 -1      2184    8    0    1
 -2      1059      1072      1114      4101      4256      4254
 -1      2185    8    0    1
 -2      1093      1094      1085      4178      4257      4258
 -1      2186    8    0    1
 -2      1099      1101      1083      4234      4259      4260
 -1      2187    8    0    1
 -2      1072      1075      1115      4246      4261      4262
 -1      2188    8    0    1
 -2      1114      1072      1115      4256      4262      4263
 -1      2189    8    0    1
 -2      1075      1077      1115      4127      4264      4261
 -1      2190    8    0    1
 -2      1096      1070      1116      4228      4265      4266
 -1      2191    8    0    1
 -2      1097      1096      1116      4186      4266      4267
 -1      2192    8    0    1
 -2      1070      1109      1116      4240      4268      4265
 -1      2193    8    0    1
 -2      1105      1103      1117      4217      4269      4270
 -1      2194    8    0    1
 -2      1081      1080      1111      4137      4271      4272
 -1      2195    8    0    1
 -2      1082      1081      1110      4140      4273      4274
 -1      2196    8    0    1
 -2      1083      1082      1099      4143      4275      4260
 -1      2197    8    0    1
 -2      1084      1083      1101      4146      4259      4276
 -1      2198    8    0    1
 -2      1085      1084      1093      4149      4277      4258
 -1      2199    8    0    1
 -2      1086      1085      1094      4152      4257      4278
 -1      2200    8    0    1
 -2      1087      1086      1102      4155      4279      4280
 -1      2201    8    0    1
 -2      1088      1087      1092      4158      4281      4282
 -1      2202    8    0    1
 -2      1089      1088      1098      4161      4283      4284
 -1      2203    8    0    1
 -2      1090      1089      1095      4164      4285      4286
 -1      2204    8    0    1
 -2      1109      1091      1116      4233      4287      4268
 -1      2205    8    0    1
 -2      1098      1095      1089      4189      4285      4284
 -1      2206    8    0    1
 -2      1065      1108      1118      4227      4288      4289
 -1      2207    8    0    1
 -2      1065      1118      1113      4289      4290      4250
 -1      2208    8    0    1
 -2      1057      1066      1119      4080      4291      4292
 -1      2209    8    0    1
 -2      1094      1102      1086      4239      4279      4278
 -1      2210    8    0    1
 -2      1036      1057      1100      4044      4293      4219
 -1      2211    8    0    1
 -2      1080      1079      1108      4134      4294      4295
 -1      2212    8    0    1
 -2      1079      1105      1118      4244      4296      4297
 -1      2213    8    0    1
 -2      1092      1098      1088      4229      4283      4282
 -1      2214    8    0    1
 -2      1101      1093      1084      4200      4277      4276
 -1      2215    8    0    1
 -2      1080      1108      1111      4295      4245      4271
 -1      2216    8    0    1
 -2      1081      1111      1110      4272      4243      4273
 -1      2217    8    0    1
 -2      1099      1082      1110      4275      4274      4236
 -1      2218    8    0    1
 -2      1092      1087      1102      4281      4280      4208
 -1      2219    8    0    1
 -2      1090      1095      1097      4286      4185      4298
 -1      2220    8    0    1
 -2      1119      1066      1107      4291      4225      4299
 -1      2221    8    0    1
 -2      1108      1079      1118      4294      4297      4288
 -1      2222    8    0    1
 -2      1063      1062      1100      4253      4205      4300
 -1      2223    8    0    1
 -2      1077      1104      1115      4213      4301      4264
 -1      2224    8    0    1
 -2      1103      1114      1112      4255      4302      4303
 -1      2225    8    0    1
 -2      1118      1105      1117      4296      4270      4304
 -1      2226    8    0    1
 -2      1091      1090      1097      4167      4298      4305
 -1      2227    8    0    1
 -2      1106      1060      1113      4220      4252      4306
 -1      2228    8    0    1
 -2      1103      1112      1117      4303      4307      4269
 -1      2229    8    0    1
 -2      1112      1071      1117      4247      4308      4307
 -1      2230    8    0    1
 -2      1115      1104      1112      4301      4249      4309
 -1      2231    8    0    1
 -2      1118      1117      1113      4304      4310      4290
 -1      2232    8    0    1
 -2      1114      1115      1112      4263      4309      4302
 -1      2233    8    0    1
 -2      1071      1106      1117      4222      4311      4308
 -1      2234    8    0    1
 -2      1057      1119      1100      4292      4312      4293
 -1      2235    8    0    1
 -2      1106      1113      1117      4306      4310      4311
 -1      2236    8    0    1
 -2      1100      1119      1107      4312      4299      4313
 -1      2237    8    0    1
 -2      1116      1091      1097      4287      4305      4267
 -1      2238    8    0    1
 -2      1063      1100      1107      4300      4313      4223
 -3
    1PSTEP                         1           1           1          
  100CL  101 1.000000000        4313                     0    1           1
 -4  DISP        4    1
 -5  D1          1    2    1    0
 -5  D2          1    2    2    0
 -5  D3          1    2    3    0
 -5  ALL         1    2    0    0    1ALL
 -1         1 7.72792E-03-2.32985E-04-3.77838E-14
 -1         2 1.15179E-02 4.94865E-04-4.73570E-14
 -1         3 1.51981E-02 2.16659E-03-8.71860E-14
 -1         4 1.41054E-02 8.99373E-04-8.50264E-14
 -1         5 0.00000E+00 0.00000E+00 0.00000E+00
 -1         6 0.00000E+00 0.00000E+00 0.00000E+00
 -1         7 0.00000E+00 0.00000E+00 0.00000E+00
 -1         8 0.00000E+00 0.00000E+00 0.00000E+00
 -1         9 0.00000E+00 0.00000E+00 0.00000E+00
 -1        10 0.00000E+00 0.00000E+00 0.00000E+00
 -1        11 0.00000E+00 0.00000E+00 0.00000E+00
 -1        12 0.00000E+00 0.00000E+00 0.00000E+00
 -1        13 0.00000E+00 0.00000E+00 0.00000E+00
 -1        14 0.00000E+00 0.00000E+00 0.00000E+00
 -1        15 0.00000E+00 0.00000E+00 0.00000E+00
 -1        16 0.00000E+00 0.00000E+00 0.00000E+00
 -1        17 0.00000E+00 0.00000E+00 0.00000E+00
 -1        18 0.00000E+00 0.00000E+00 0.00000E+00
 -1        19 0.00000E+00 0.00000E+00 0.00000E+00
 -1        20 0.00000E+00 0.00000E+00 0.00000E+00
 -1        21 0.00000E+00 0.00000E+00 0.00000E+00
 -1        22 0.00000E+00 0.00000E+00 0.00000E+00
 -1        23 4.11214E-04-2.60712E-04 3.82012E-17
 -1        24 7.03011E-04-4.00934E-04-1.70728E-17
 -1        25 9.72860E-04-4.98232E-04-1.65781E-16
 -1        26 1.23710E-03-5.66821E-04-4.08710E-16
 -1        27 1.50034E-03-6.15822E-04-7.43681E-16
 -1        28 1.76470E-03-6.50590E-04-1.17063E-15
 -1        29 2.03112E-03-6.74802E-04-1.68779E-15
 -1        30 2.29999E-03-6.91112E-04-2.29194E-15
 -1        31 2.57138E-03-7.01489E-04-2.98252E-15
 -1        32 2.84520E-03-7.07399E-04-3.75710E-15
 -1        33 3.12129E-03-7.09927E-04-4.60996E-15
 -1        34 3.39948E-03-7.09863E-04-5.53570E-15
 -1        35 3.67961E-03-7.07769E-04-6.53545E-15
 -1        36 3.96164E-03-7.04038E-04-7.60926E-15
 -1        37 4.24560E-03-6.98946E-04-8.75510E-15
 -1        38 4.53167E-03-6.92704E-04-9.97407E-15
 -1        39 4.82016E-03-6.85516E-04-1.12604E-14
 -1        40 5.11161E-03-6.77641E-04-1.26154E-14
 -1        41 5.40675E-03-6.69475E-04-1.40340E-14
 -1        42 5.70655E-03-6.61647E-04-1.55125E-14
 -1        43 5.81138E-03-5.32356E-04-1.68165E-14
 -1        44 5.99311E-03-4.60931E-04-1.81396E-14
 -1        45 6.20928E-03-4.19236E-04-1.95522E-14
 -1        46 6.51470E-03-4.02932E-04-2.11865E-14
 -1        47 7.32206E-03-6.84141E-04-2.39243E-14
 -1        48 6.84182E-03-8.78919E-04-2.49310E-14
 -1        49 7.02948E-03-8.39623E-04-2.69977E-14
 -1        50 7.28659E-03-8.42338E-04-2.92123E-14
 -1        51 7.58720E-03-8.50686E-04-3.15010E-14
 -1        52 7.90531E-03-8.70909E-04-3.38385E-14
 -1        53 8.21454E-03-8.94329E-04-3.62102E-14
 -1        54 8.50193E-03-8.97987E-04-3.86179E-14
 -1        55 8.77122E-03-8.57422E-04-4.10490E-14
 -1        56 9.03871E-03-7.60532E-04-4.35023E-14
 -1        57 9.32282E-03-6.14292E-04-4.59852E-14
 -1        58 9.63384E-03-4.39960E-04-4.84792E-14
 -1        59 9.97061E-03-2.61656E-04-5.09815E-14
 -1        60 1.03242E-02-9.71030E-05-5.34856E-14
 -1        61 1.06835E-02 4.52951E-05-5.60095E-14
 -1        62 1.10398E-02 1.64612E-04-5.85729E-14
 -1        63 1.13875E-02 2.64115E-04-6.11659E-14
 -1        64 1.17243E-02 3.48589E-04-6.37665E-14
 -1        65 1.20498E-02 4.22795E-04-6.63756E-14
 -1        66 1.23647E-02 4.90811E-04-6.90093E-14
 -1        67 1.26704E-02 5.55899E-04-7.16729E-14
 -1        68 1.29686E-02 6.20589E-04-7.43534E-14
 -1        69 1.32607E-02 6.86806E-04-7.70362E-14
 -1        70 1.35486E-02 7.55902E-04-7.97145E-14
 -1        71 1.38343E-02 8.28371E-04-8.24214E-14
 -1        72 4.13662E-04 2.61416E-04 2.68509E-17
 -1        73 7.02836E-04 4.03639E-04-4.74847E-17
 -1        74 9.73397E-04 5.00004E-04-2.18728E-16
 -1        75 1.23793E-03 5.68531E-04-4.86793E-16
 -1        76 1.50131E-03 6.17579E-04-8.50380E-16
 -1        77 1.76573E-03 6.52438E-04-1.30620E-15
 -1        78 2.03219E-03 6.76762E-04-1.84966E-15
 -1        79 2.30109E-03 6.93196E-04-2.47999E-15
 -1        80 2.57250E-03 7.03704E-04-3.19665E-15
 -1        81 2.84635E-03 7.09753E-04-3.99786E-15
 -1        82 3.12246E-03 7.12429E-04-4.88258E-15
 -1        83 3.40067E-03 7.12526E-04-5.84773E-15
 -1        84 3.68083E-03 7.10614E-04-6.89152E-15
 -1        85 3.96289E-03 7.07097E-04-8.02140E-15
 -1        86 4.24688E-03 7.02268E-04-9.23601E-15
 -1        87 4.53295E-03 6.96362E-04-1.05267E-14
 -1        88 4.82141E-03 6.89615E-04-1.18855E-14
 -1        89 5.11272E-03 6.82328E-04-1.33137E-14
 -1        90 5.40753E-03 6.74941E-04-1.48126E-14
 -1        91 5.70664E-03 6.68124E-04-1.63836E-14
 -1        92 6.01102E-03 6.62884E-04-1.80178E-14
 -1        93 6.32168E-03 6.60672E-04-1.97062E-14
 -1        94 6.63959E-03 6.63497E-04-2.14616E-14
 -1        95 6.96536E-03 6.73970E-04-2.32797E-14
 -1        96 7.29891E-03 6.95230E-04-2.51600E-14
 -1        97 7.63889E-03 7.30595E-04-2.71047E-14
 -1        98 7.98210E-03 7.82764E-04-2.91020E-14
 -1        99 8.32311E-03 8.52430E-04-3.11499E-14
 -1       100 8.72970E-03 1.02052E-03-3.32410E-14
 -1       101 9.08278E-03 1.18393E-03-3.53976E-14
 -1       102 9.40247E-03 1.33788E-03-3.76119E-14
 -1       103 9.69460E-03 1.46719E-03-3.98856E-14
 -1       104 9.96963E-03 1.55839E-03-4.22048E-14
 -1       105 1.02418E-02 1.60657E-03-4.45668E-14
 -1       106 1.05246E-02 1.61775E-03-4.69905E-14
 -1       107 1.08259E-02 1.60609E-03-4.94758E-14
 -1       108 1.11463E-02 1.58789E-03-5.19987E-14
 -1       109 1.14807E-02 1.57631E-03-5.45592E-14
 -1       110 1.18219E-02 1.57894E-03-5.71614E-14
 -1       111 1.21632E-02 1.59815E-03-5.97906E-14
 -1       112 1.24997E-02 1.63282E-03-6.24513E-14
 -1       113 1.28287E-02 1.68001E-03-6.51575E-14
 -1       114 1.31490E-02 1.73627E-03-6.78871E-14
 -1       115 1.34608E-02 1.79828E-03-7.06297E-14
 -1       116 1.37647E-02 1.86322E-03-7.33827E-14
 -1       117 1.40618E-02 1.92872E-03-7.61393E-14
 -1       118 1.43535E-02 1.99295E-03-7.89184E-14
 -1       119 1.46413E-02 2.05456E-03-8.17213E-14
 -1       120 1.49269E-02 2.11302E-03-8.45304E-14
 -1       121 1.51431E-02 2.08201E-03-8.71003E-14
 -1       122 1.50901E-02 1.99773E-03-8.70170E-14
 -1       123 1.50400E-02 1.91551E-03-8.69288E-14
 -1       124 1.49917E-02 1.83684E-03-8.68340E-14
 -1       125 1.49436E-02 1.76244E-03-8.67146E-14
 -1       126 1.48945E-02 1.69345E-03-8.65792E-14
 -1       127 1.48409E-02 1.62688E-03-8.64171E-14
 -1       128 1.47825E-02 1.56278E-03-8.62346E-14
 -1       129 1.47182E-02 1.49965E-03-8.60564E-14
 -1       130 1.46481E-02 1.43583E-03-8.58850E-14
 -1       131 1.45729E-02 1.36972E-03-8.57449E-14
 -1       132 1.44952E-02 1.30126E-03-8.56512E-14
 -1       133 1.44142E-02 1.22732E-03-8.55360E-14
 -1       134 1.43332E-02 1.14894E-03-8.54148E-14
 -1       135 1.42542E-02 1.06677E-03-8.52920E-14
 -1       136 1.41780E-02 9.82578E-04-8.51664E-14
 -1       137 1.15065E-02 6.57680E-04-4.72547E-14
 -1       138 1.13919E-02 8.07507E-04-4.68790E-14
 -1       139 1.11715E-02 9.38125E-04-4.62274E-14
 -1       140 1.08971E-02 1.03028E-03-4.54509E-14
 -1       141 1.05497E-02 1.09571E-03-4.44945E-14
 -1       142 1.01510E-02 1.12778E-03-4.34204E-14
 -1       143 9.67969E-03 1.12165E-03-4.21637E-14
 -1       144 9.22154E-03 1.07656E-03-4.09619E-14
 -1       145 8.77585E-03 9.97110E-04-3.97917E-14
 -1       146 8.34417E-03 8.84399E-04-3.86684E-14
 -1       147 7.99795E-03 7.61413E-04-3.77778E-14
 -1       148 7.68416E-03 6.11343E-04-3.69947E-14
 -1       149 7.48635E-03 4.76190E-04-3.65442E-14
 -1       150 7.35839E-03 3.35266E-04-3.63085E-14
 -1       151 7.31040E-03 1.84525E-04-3.63148E-14
 -1       152 7.35376E-03 4.09120E-05-3.65653E-14
 -1       153 7.49356E-03-1.02353E-04-3.70665E-14
 -1       154 8.05078E-03-3.39838E-04-3.86867E-14
 -1       155 8.46792E-03-4.15014E-04-3.98009E-14
 -1       156 8.89584E-03-4.41810E-04-4.09080E-14
 -1       157 9.38373E-03-4.23374E-04-4.21591E-14
 -1       158 9.83443E-03-3.64237E-04-4.32964E-14
 -1       159 1.02711E-02-2.67213E-04-4.43899E-14
 -1       160 1.06607E-02-1.42315E-04-4.53582E-14
 -1       161 1.10053E-02 1.01286E-05-4.62091E-14
 -1       162 1.12579E-02 1.66466E-04-4.68161E-14
 -1       163 1.14351E-02 3.33872E-04-4.72044E-14
 -1       164 2.40316E-04-1.25556E-04-1.14451E-17
 -1       165 2.25225E-04-9.46719E-05-2.71898E-17
 -1       166 2.19504E-04-7.28357E-05-3.62462E-17
 -1       167 2.16740E-04-5.51567E-05-4.16063E-17
 -1       168 2.15273E-04-4.00093E-05-4.46454E-17
 -1       169 2.14458E-04-2.59464E-05-4.63632E-17
 -1       170 2.14052E-04-1.26600E-05-4.73424E-17
 -1       171 2.13934E-04 2.72986E-07-4.80132E-17
 -1       172 2.14071E-04 1.32182E-05-4.81454E-17
 -1       173 2.14499E-04 2.65441E-05-4.76778E-17
 -1       174 2.15322E-04 4.04371E-05-4.64953E-17
 -1       175 2.16842E-04 5.59675E-05-4.42354E-17
 -1       176 2.19663E-04 7.38744E-05-4.00477E-17
 -1       177 2.25395E-04 9.60711E-05-3.26921E-17
 -1       178 2.39244E-04 1.27631E-04-1.88075E-17
 -1       179 2.97577E-04 1.85511E-04-4.42151E-18
 -1       180 4.68411E-04-2.63567E-04-3.24481E-17
 -1       181 7.66395E-04-3.82113E-04-1.56511E-16
 -1       182 1.05007E-03-4.64884E-04-3.69618E-16
 -1       183 1.32727E-03-5.23460E-04-6.72324E-16
 -1       184 1.60167E-03-5.64834E-04-1.06442E-15
 -1       185 1.87536E-03-5.93663E-04-1.54517E-15
 -1       186 2.14948E-03-6.13210E-04-2.11261E-15
 -1       187 2.42465E-03-6.25849E-04-2.76569E-15
 -1       188 2.70116E-03-6.33332E-04-3.50250E-15
 -1       189 2.97914E-03-6.36947E-04-4.31924E-15
 -1       190 3.25862E-03-6.37632E-04-5.21123E-15
 -1       191 3.53960E-03-6.36050E-04-6.17596E-15
 -1       192 3.82209E-03-6.32658E-04-7.21515E-15
 -1       193 4.10615E-03-6.27763E-04-8.32580E-15
 -1       194 4.39191E-03-6.21572E-04-9.51066E-15
 -1       195 4.67961E-03-6.14251E-04-1.07661E-14
 -1       196 4.96961E-03-6.05981E-04-1.20891E-14
 -1       197 5.26239E-03-5.97033E-04-1.34781E-14
 -1       198 5.55859E-03-5.87853E-04-1.49289E-14
 -1       199 5.76827E-03-5.30898E-04-1.63184E-14
 -1       200 5.93340E-03-4.46907E-04-1.76437E-14
 -1       201 6.09899E-03-3.89163E-04-1.89931E-14
 -1       202 6.27583E-03-3.63244E-04-2.04575E-14
 -1       203 6.40172E-03-4.67399E-04-2.20705E-14
 -1       204 6.60597E-03-7.17090E-04-2.37949E-14
 -1       205 6.86545E-03-7.60297E-04-2.59092E-14
 -1       206 7.10426E-03-7.64573E-04-2.81308E-14
 -1       207 7.40146E-03-7.62269E-04-3.04310E-14
 -1       208 7.72507E-03-7.73831E-04-3.27684E-14
 -1       209 8.05265E-03-8.00404E-04-3.51343E-14
 -1       210 8.37211E-03-8.22562E-04-3.75252E-14
 -1       211 8.68025E-03-8.11109E-04-3.99397E-14
 -1       212 8.98255E-03-7.43186E-04-4.23789E-14
 -1       213 9.28899E-03-6.15701E-04-4.48377E-14
 -1       214 9.60744E-03-4.46216E-04-4.73193E-14
 -1       215 9.93951E-03-2.61731E-04-4.98177E-14
 -1       216 1.02814E-02-8.55539E-05-5.23222E-14
 -1       217 1.06270E-02 6.91020E-05-5.48404E-14
 -1       218 1.09707E-02 1.98592E-04-5.73871E-14
 -1       219 1.13088E-02 3.05265E-04-5.99640E-14
 -1       220 1.16391E-02 3.94035E-04-6.25625E-14
 -1       221 1.19611E-02 4.70207E-04-6.51713E-14
 -1       222 1.22750E-02 5.38461E-04-6.77959E-14
 -1       223 1.25815E-02 6.02566E-04-7.04462E-14
 -1       224 1.28817E-02 6.65437E-04-7.31195E-14
 -1       225 1.31767E-02 7.29296E-04-7.58027E-14
 -1       226 1.34676E-02 7.95805E-04-7.84907E-14
 -1       227 1.37556E-02 8.65992E-04-8.11881E-14
 -1       228 6.04276E-04 3.31033E-04-9.02937E-17
 -1       229 8.93196E-04 4.32579E-04-2.67103E-16
 -1       230 1.17189E-03 5.04178E-04-5.36694E-16
 -1       231 1.44603E-03 5.55018E-04-8.98644E-16
 -1       232 1.71863E-03 5.90894E-04-1.35033E-15
 -1       233 1.99131E-03 6.15748E-04-1.88997E-15
 -1       234 2.26494E-03 6.32411E-04-2.51638E-15
 -1       235 2.53995E-03 6.42961E-04-3.22841E-15
 -1       236 2.81651E-03 6.48939E-04-4.02299E-15
 -1       237 3.09469E-03 6.51476E-04-4.89957E-15
 -1       238 3.37445E-03 6.51393E-04-5.85555E-15
 -1       239 3.65580E-03 6.49270E-04-6.89167E-15
 -1       240 3.93873E-03 6.45509E-04-8.00972E-15
 -1       241 4.22333E-03 6.40391E-04-9.21031E-15
 -1       242 4.50974E-03 6.34130E-04-1.04877E-14
 -1       243 4.79824E-03 6.26931E-04-1.18359E-14
 -1       244 5.08919E-03 6.19051E-04-1.32552E-14
 -1       245 5.38311E-03 6.10883E-04-1.47438E-14
 -1       246 5.68059E-03 6.03040E-04-1.63008E-14
 -1       247 5.98236E-03 5.96469E-04-1.79246E-14
 -1       248 6.28914E-03 5.92573E-04-1.96055E-14
 -1       249 6.60162E-03 5.93333E-04-2.13488E-14
 -1       250 6.92022E-03 6.01390E-04-2.31510E-14
 -1       251 7.24490E-03 6.20008E-04-2.50166E-14
 -1       252 7.57479E-03 6.52789E-04-2.69465E-14
 -1       253 7.90790E-03 7.02920E-04-2.89314E-14
 -1       254 8.24085E-03 7.71795E-04-3.09648E-14
 -1       255 8.60158E-03 9.26794E-04-3.30547E-14
 -1       256 8.95231E-03 1.09515E-03-3.52055E-14
 -1       257 9.28263E-03 1.25638E-03-3.74157E-14
 -1       258 9.59422E-03 1.39317E-03-3.96776E-14
 -1       259 9.89335E-03 1.49043E-03-4.19906E-14
 -1       260 1.01888E-02 1.54178E-03-4.43535E-14
 -1       261 1.04893E-02 1.55293E-03-4.67732E-14
 -1       262 1.07999E-02 1.53897E-03-4.92486E-14
 -1       263 1.11213E-02 1.51760E-03-5.17617E-14
 -1       264 1.14506E-02 1.50317E-03-5.43118E-14
 -1       265 1.17835E-02 1.50387E-03-5.68977E-14
 -1       266 1.21156E-02 1.52222E-03-5.95171E-14
 -1       267 1.24438E-02 1.55691E-03-6.21738E-14
 -1       268 1.27660E-02 1.60476E-03-6.48700E-14
 -1       269 1.30816E-02 1.66206E-03-6.75915E-14
 -1       270 1.33905E-02 1.72532E-03-7.03295E-14
 -1       271 1.36932E-02 1.79155E-03-7.30792E-14
 -1       272 1.39903E-02 1.85832E-03-7.58337E-14
 -1       273 1.42830E-02 1.92371E-03-7.86123E-14
 -1       274 1.45723E-02 1.98627E-03-8.14063E-14
 -1       275 1.48593E-02 2.04531E-03-8.42065E-14
 -1       276 1.48688E-02 1.99191E-03-8.46378E-14
 -1       277 1.48179E-02 1.90973E-03-8.45504E-14
 -1       278 1.47698E-02 1.83000E-03-8.44517E-14
 -1       279 1.47228E-02 1.75328E-03-8.43445E-14
 -1       280 1.46759E-02 1.68094E-03-8.42233E-14
 -1       281 1.46252E-02 1.61022E-03-8.40844E-14
 -1       282 1.45699E-02 1.54173E-03-8.39381E-14
 -1       283 1.45088E-02 1.47450E-03-8.37853E-14
 -1       284 1.44415E-02 1.40738E-03-8.36306E-14
 -1       285 1.43681E-02 1.33920E-03-8.34869E-14
 -1       286 1.42913E-02 1.27011E-03-8.33613E-14
 -1       287 1.42100E-02 1.19700E-03-8.32395E-14
 -1       288 1.41277E-02 1.12064E-03-8.31125E-14
 -1       289 1.40465E-02 1.04116E-03-8.29864E-14
 -1       290 1.39001E-02 9.54029E-04-8.20883E-14
 -1       291 1.15494E-02 5.68650E-04-4.83877E-14
 -1       292 1.14521E-02 6.59451E-04-4.80284E-14
 -1       293 1.12232E-02 7.64463E-04-4.75335E-14
 -1       294 1.09285E-02 9.00453E-04-4.65645E-14
 -1       295 1.05996E-02 1.02814E-03-4.55401E-14
 -1       296 1.02455E-02 1.13691E-03-4.43684E-14
 -1       297 9.87703E-03 1.19872E-03-4.29964E-14
 -1       298 9.50017E-03 1.17030E-03-4.15307E-14
 -1       299 9.12698E-03 1.06993E-03-4.01325E-14
 -1       300 8.71735E-03 9.04976E-04-3.88197E-14
 -1       301 8.31871E-03 7.20805E-04-3.76618E-14
 -1       302 7.95174E-03 5.26930E-04-3.65560E-14
 -1       303 7.62189E-03 4.09243E-04-3.59882E-14
 -1       304 7.41040E-03 3.13272E-04-3.55840E-14
 -1       305 7.29832E-03 2.32644E-04-3.53788E-14
 -1       306 7.31264E-03 1.55933E-04-3.55748E-14
 -1       307 7.44917E-03 6.13346E-05-3.59403E-14
 -1       308 7.69141E-03-7.30914E-05-3.66942E-14
 -1       309 8.01439E-03-2.26271E-04-3.75906E-14
 -1       310 8.38468E-03-3.83737E-04-3.87471E-14
 -1       311 8.74757E-03-4.87942E-04-4.01074E-14
 -1       312 9.11781E-03-5.20039E-04-4.14852E-14
 -1       313 9.50382E-03-4.48060E-04-4.28962E-14
 -1       314 9.89098E-03-3.10005E-04-4.42144E-14
 -1       315 1.02917E-02-1.26154E-04-4.54360E-14
 -1       316 1.06800E-02 8.26650E-05-4.66143E-14
 -1       317 1.10533E-02 2.43533E-04-4.73726E-14
 -1       318 1.13333E-02 3.79259E-04-4.79688E-14
 -1       319 1.15052E-02 4.82560E-04-4.82917E-14
 -1       320 4.55330E-04-1.64876E-04-1.23562E-16
 -1       321 4.74113E-04-2.13035E-04-9.67142E-17
 -1       322 4.40527E-04-9.40789E-05-1.51737E-16
 -1       323 4.37619E-04-6.49594E-05-1.58449E-16
 -1       324 4.36032E-04-3.79341E-05-1.62576E-16
 -1       325 4.35339E-04-1.20266E-05-1.65232E-16
 -1       326 4.35369E-04 1.35460E-05-1.66256E-16
 -1       327 4.36129E-04 3.95103E-05-1.65632E-16
 -1       328 4.37760E-04 6.61836E-05-1.63098E-16
 -1       329 4.40766E-04 9.54729E-05-1.58226E-16
 -1       330 4.46086E-04 1.28393E-04-1.50047E-16
 -1       331 4.55838E-04 1.67371E-04-1.36420E-16
 -1       332 4.75741E-04 2.17095E-04-1.13465E-16
 -1       333 5.31798E-04 2.69999E-04-1.06797E-16
 -1       334 8.24143E-04 3.73471E-04-2.85393E-16
 -1       335 8.62959E-04-3.57359E-04-3.16441E-16
 -1       336 1.14920E-03-4.25967E-04-5.89684E-16
 -1       337 1.43187E-03-4.74884E-04-9.49958E-16
 -1       338 1.71248E-03-5.09232E-04-1.39641E-15
 -1       339 1.99217E-03-5.32774E-04-1.92909E-15
 -1       340 2.27171E-03-5.48284E-04-2.54623E-15
 -1       341 2.55160E-03-5.57820E-04-3.24601E-15
 -1       342 2.83214E-03-5.62903E-04-4.02626E-15
 -1       343 3.11349E-03-5.64643E-04-4.88455E-15
 -1       344 3.39576E-03-5.63830E-04-5.81616E-15
 -1       345 3.67902E-03-5.61013E-04-6.82094E-15
 -1       346 3.96335E-03-5.56554E-04-7.89914E-15
 -1       347 4.24885E-03-5.50687E-04-9.04844E-15
 -1       348 4.53568E-03-5.43571E-04-1.02713E-14
 -1       349 4.82404E-03-5.35346E-04-1.15620E-14
 -1       350 5.11424E-03-5.26196E-04-1.29201E-14
 -1       351 5.40666E-03-5.16428E-04-1.43417E-14
 -1       352 5.70178E-03-5.06574E-04-1.58269E-14
 -1       353 5.86477E-03-4.33456E-04-1.71626E-14
 -1       354 6.00211E-03-3.81468E-04-1.84728E-14
 -1       355 6.12086E-03-3.55555E-04-1.98341E-14
 -1       356 6.21687E-03-3.85823E-04-2.12971E-14
 -1       357 6.33779E-03-4.99091E-04-2.29018E-14
 -1       358 6.51325E-03-5.92644E-04-2.46936E-14
 -1       359 6.79310E-03-6.74819E-04-2.69661E-14
 -1       360 7.15188E-03-6.60129E-04-2.93338E-14
 -1       361 7.51509E-03-6.60789E-04-3.16902E-14
 -1       362 7.87606E-03-6.86547E-04-3.40538E-14
 -1       363 8.22812E-03-7.24848E-04-3.64347E-14
 -1       364 8.56647E-03-7.45449E-04-3.88346E-14
 -1       365 8.89311E-03-7.13612E-04-4.12571E-14
 -1       366 9.21747E-03-6.11841E-04-4.37019E-14
 -1       367 9.54916E-03-4.51379E-04-4.61667E-14
 -1       368 9.89060E-03-2.62870E-04-4.86509E-14
 -1       369 1.02371E-02-7.64316E-05-5.11509E-14
 -1       370 1.05821E-02 8.95314E-05-5.36692E-14
 -1       371 1.09213E-02 2.28806E-04-5.62025E-14
 -1       372 1.12527E-02 3.42867E-04-5.87657E-14
 -1       373 1.15762E-02 4.36594E-04-6.13563E-14
 -1       374 1.18922E-02 5.15611E-04-6.39648E-14
 -1       375 1.22016E-02 5.85010E-04-6.65886E-14
 -1       376 1.25054E-02 6.48947E-04-6.92266E-14
 -1       377 1.28042E-02 7.10645E-04-7.18902E-14
 -1       378 1.30990E-02 7.72568E-04-7.45690E-14
 -1       379 1.33904E-02 8.36589E-04-7.72546E-14
 -1       380 1.36460E-02 8.93573E-04-7.96648E-14
 -1       381 1.10948E-03 4.47654E-04-5.53709E-16
 -1       382 1.39008E-03 5.00483E-04-9.11851E-16
 -1       383 1.66825E-03 5.37738E-04-1.35848E-15
 -1       384 1.94551E-03 5.63503E-04-1.89212E-15
 -1       385 2.22283E-03 5.80743E-04-2.51170E-15
 -1       386 2.50076E-03 5.91642E-04-3.21667E-15
 -1       387 2.77961E-03 5.97811E-04-4.00374E-15
 -1       388 3.05956E-03 6.00437E-04-4.87136E-15
 -1       389 3.34067E-03 6.00373E-04-5.81755E-15
 -1       390 3.62299E-03 5.98221E-04-6.84246E-15
 -1       391 3.90658E-03 5.94391E-04-7.94818E-15
 -1       392 4.19152E-03 5.89164E-04-9.13606E-15
 -1       393 4.47797E-03 5.82743E-04-1.04007E-14
 -1       394 4.76612E-03 5.75311E-04-1.17379E-14
 -1       395 5.05630E-03 5.67097E-04-1.31456E-14
 -1       396 5.34888E-03 5.58448E-04-1.46229E-14
 -1       397 5.64434E-03 5.49924E-04-1.61683E-14
 -1       398 5.94325E-03 5.42402E-04-1.77801E-14
 -1       399 6.24620E-03 5.37205E-04-1.94524E-14
 -1       400 6.55380E-03 5.36233E-04-2.11824E-14
 -1       401 6.86653E-03 5.42060E-04-2.29722E-14
 -1       402 7.18465E-03 5.57941E-04-2.48242E-14
 -1       403 7.50798E-03 5.87598E-04-2.67392E-14
 -1       404 7.83563E-03 6.34581E-04-2.87110E-14
 -1       405 8.16571E-03 7.01001E-04-3.07316E-14
 -1       406 8.50822E-03 8.47281E-04-3.28179E-14
 -1       407 8.85265E-03 1.01531E-03-3.49624E-14
 -1       408 9.18717E-03 1.18162E-03-3.71643E-14
 -1       409 9.50847E-03 1.32597E-03-3.94203E-14
 -1       410 9.81943E-03 1.43049E-03-4.17278E-14
 -1       411 1.01267E-02 1.48639E-03-4.40827E-14
 -1       412 1.04373E-02 1.49852E-03-4.64969E-14
 -1       413 1.07553E-02 1.48292E-03-4.89604E-14
 -1       414 1.10808E-02 1.45893E-03-5.14680E-14
 -1       415 1.14106E-02 1.44207E-03-5.40086E-14
 -1       416 1.17409E-02 1.44107E-03-5.65816E-14
 -1       417 1.20688E-02 1.45849E-03-5.91926E-14
 -1       418 1.23920E-02 1.49291E-03-6.18437E-14
 -1       419 1.27096E-02 1.54095E-03-6.45288E-14
 -1       420 1.30213E-02 1.59877E-03-6.72460E-14
 -1       421 1.33273E-02 1.66276E-03-6.99775E-14
 -1       422 1.36281E-02 1.72985E-03-7.27225E-14
 -1       423 1.39244E-02 1.79756E-03-7.54763E-14
 -1       424 1.42170E-02 1.86392E-03-7.82501E-14
 -1       425 1.45064E-02 1.92742E-03-8.10391E-14
 -1       426 1.46880E-02 1.96046E-03-8.28382E-14
 -1       427 1.45006E-02 1.74020E-03-8.19770E-14
 -1       428 1.45467E-02 1.81875E-03-8.20781E-14
 -1       429 1.46162E-02 1.88897E-03-8.24611E-14
 -1       430 1.44555E-02 1.66569E-03-8.18698E-14
 -1       431 1.44075E-02 1.59250E-03-8.17490E-14
 -1       432 1.43556E-02 1.52152E-03-8.16201E-14
 -1       433 1.42979E-02 1.45206E-03-8.14862E-14
 -1       434 1.42338E-02 1.38321E-03-8.13527E-14
 -1       435 1.41630E-02 1.31399E-03-8.12138E-14
 -1       436 1.40876E-02 1.24466E-03-8.10837E-14
 -1       437 1.40066E-02 1.17203E-03-8.09537E-14
 -1       438 1.39233E-02 1.09675E-03-8.08211E-14
 -1       439 1.38401E-02 1.01859E-03-8.06950E-14
 -1       440 1.13653E-02 6.76861E-04-4.89906E-14
 -1       441 1.15608E-02 5.61526E-04-4.95598E-14
 -1       442 1.15206E-02 6.15171E-04-4.93555E-14
 -1       443 1.10385E-02 8.06616E-04-4.79450E-14
 -1       444 1.07237E-02 9.44436E-04-4.67909E-14
 -1       445 4.45699E-04-1.26488E-04-1.40526E-16
 -1       446 1.00531E-02 1.19818E-03-4.40448E-14
 -1       447 9.69207E-03 1.22961E-03-4.22481E-14
 -1       448 9.41101E-03 1.16470E-03-4.08475E-14
 -1       449 8.99832E-03 9.74208E-04-3.90114E-14
 -1       450 8.61257E-03 7.61710E-04-3.76170E-14
 -1       451 8.25261E-03 5.71726E-04-3.65197E-14
 -1       452 7.78814E-03 3.69756E-04-3.53694E-14
 -1       453 7.51591E-03 2.85554E-04-3.49122E-14
 -1       454 7.33334E-03 2.21575E-04-3.43885E-14
 -1       455 7.27278E-03 1.84323E-04-3.43673E-14
 -1       456 7.35486E-03 1.34680E-04-3.47788E-14
 -1       457 7.57742E-03 2.79634E-05-3.53465E-14
 -1       458 7.86547E-03-1.18422E-04-3.63899E-14
 -1       459 8.21898E-03-3.01538E-04-3.75718E-14
 -1       460 8.60452E-03-4.74224E-04-3.91266E-14
 -1       461 8.89764E-03-5.46176E-04-4.04951E-14
 -1       462 9.27767E-03-5.20282E-04-4.23854E-14
 -1       463 9.57264E-03-4.10345E-04-4.37058E-14
 -1       464 9.99068E-03-1.88249E-04-4.53918E-14
 -1       465 1.03830E-02 2.72594E-05-4.66402E-14
 -1       466 1.08363E-02 2.81194E-04-4.81978E-14
 -1       467 1.11388E-02 4.02477E-04-4.87997E-14
 -1       468 1.14350E-02 5.02814E-04-4.92533E-14
 -1       469 1.03949E-02 1.08594E-03-4.56150E-14
 -1       470 8.03645E-03 4.26614E-04-3.53277E-14
 -1       471 9.30998E-04 3.45969E-04-4.60579E-16
 -1       472 6.66086E-04-7.51552E-05-3.42083E-16
 -1       473 6.69984E-04-1.15926E-04-3.31600E-16
 -1       474 6.63467E-04 1.10514E-06-3.51861E-16
 -1       475 6.64172E-04 3.87777E-05-3.52230E-16
 -1       476 6.66270E-04 7.68418E-05-3.49394E-16
 -1       477 6.70293E-04 1.17763E-04-3.42737E-16
 -1       478 6.77208E-04 1.62387E-04-3.31258E-16
 -1       479 6.88999E-04 2.12750E-04-3.12880E-16
 -1       480 1.21680E-03 4.06277E-04-7.84891E-16
 -1       481 9.76109E-04-3.28544E-04-4.97893E-16
 -1       482 1.02291E-02 1.16883E-03-4.52225E-14
 -1       483 1.26197E-03-3.83233E-04-8.27670E-16
 -1       484 1.54695E-03-4.22672E-04-1.24222E-15
 -1       485 1.83105E-03-4.50272E-04-1.74147E-15
 -1       486 2.11458E-03-4.68891E-04-2.32388E-15
 -1       487 2.39788E-03-4.80767E-04-2.98782E-15
 -1       488 2.68121E-03-4.87603E-04-3.73278E-15
 -1       489 2.96477E-03-4.90668E-04-4.55584E-15
 -1       490 3.24869E-03-4.90884E-04-5.45409E-15
 -1       491 3.53305E-03-4.88896E-04-6.42626E-15
 -1       492 3.81793E-03-4.85140E-04-7.47142E-15
 -1       493 4.10341E-03-4.79895E-04-8.58676E-15
 -1       494 4.38956E-03-4.73339E-04-9.77498E-15
 -1       495 4.67651E-03-4.65596E-04-1.10336E-14
 -1       496 4.96438E-03-4.56801E-04-1.23604E-14
 -1       497 5.25336E-03-4.47158E-04-1.37533E-14
 -1       498 5.54368E-03-4.37028E-04-1.52105E-14
 -1       499 5.83563E-03-4.27026E-04-1.67325E-14
 -1       500 5.93193E-03-3.76839E-04-1.79851E-14
 -1       501 6.03184E-03-3.53259E-04-1.93049E-14
 -1       502 6.11484E-03-3.57706E-04-2.06893E-14
 -1       503 6.19254E-03-4.02999E-04-2.21785E-14
 -1       504 6.26583E-03-4.75235E-04-2.38144E-14
 -1       505 6.27633E-03-5.25847E-04-2.56709E-14
 -1       506 6.84212E-03-5.06616E-04-2.82197E-14
 -1       507 7.25891E-03-5.16459E-04-3.06138E-14
 -1       508 7.66388E-03-5.41288E-04-3.29829E-14
 -1       509 8.05507E-03-5.93927E-04-3.53526E-14
 -1       510 8.42943E-03-6.52165E-04-3.77350E-14
 -1       511 8.78407E-03-6.70503E-04-4.01399E-14
 -1       512 9.12697E-03-6.07355E-04-4.25690E-14
 -1       513 9.47271E-03-4.59776E-04-4.50181E-14
 -1       514 9.82977E-03-2.63931E-04-4.74884E-14
 -1       515 1.01906E-02-6.42404E-05-4.99804E-14
 -1       516 1.05449E-02 1.13047E-04-5.24917E-14
 -1       517 1.08865E-02 2.60279E-04-5.50188E-14
 -1       518 1.12148E-02 3.79740E-04-5.75692E-14
 -1       519 1.15321E-02 4.77130E-04-6.01480E-14
 -1       520 1.18410E-02 5.58527E-04-6.27520E-14
 -1       521 1.21438E-02 6.29229E-04-6.53718E-14
 -1       522 1.24420E-02 6.93505E-04-6.80083E-14
 -1       523 1.27367E-02 7.54668E-04-7.06651E-14
 -1       524 1.30287E-02 8.15262E-04-7.33372E-14
 -1       525 1.33185E-02 8.77245E-04-7.60150E-14
 -1       526 1.15141E-02 6.67751E-04-5.08320E-14
 -1       527 1.78352E-03 4.80121E-04-1.69281E-15
 -1       528 2.06547E-03 5.00859E-04-2.27494E-15
 -1       529 2.34722E-03 5.14327E-04-2.94102E-15
 -1       530 2.62912E-03 5.22376E-04-3.68971E-15
 -1       531 2.91142E-03 5.26379E-04-4.51789E-15
 -1       532 3.19427E-03 5.27338E-04-5.42492E-15
 -1       533 3.47777E-03 5.25965E-04-6.40894E-15
 -1       534 3.76201E-03 5.22747E-04-7.47139E-15
 -1       535 4.04707E-03 5.18012E-04-8.61443E-15
 -1       536 4.33303E-03 5.11979E-04-9.83685E-15
 -1       537 4.62004E-03 5.04812E-04-1.11322E-14
 -1       538 4.90828E-03 4.96684E-04-1.24999E-14
 -1       539 5.19797E-03 4.87840E-04-1.39367E-14
 -1       540 5.48942E-03 4.78677E-04-1.54440E-14
 -1       541 5.78300E-03 4.69842E-04-1.70184E-14
 -1       542 6.07916E-03 4.62342E-04-1.86558E-14
 -1       543 6.37846E-03 4.57674E-04-2.03496E-14
 -1       544 6.68155E-03 4.57950E-04-2.21037E-14
 -1       545 6.98921E-03 4.65993E-04-2.39168E-14
 -1       546 7.30230E-03 4.85323E-04-2.57910E-14
 -1       547 7.62159E-03 5.19907E-04-2.77250E-14
 -1       548 7.94746E-03 5.73462E-04-2.97136E-14
 -1       549 8.27484E-03 6.90304E-04-3.17674E-14
 -1       550 8.61131E-03 8.44772E-04-3.38811E-14
 -1       551 8.95034E-03 1.01641E-03-3.60544E-14
 -1       552 9.28358E-03 1.18148E-03-3.82809E-14
 -1       553 9.60746E-03 1.31453E-03-4.05608E-14
 -1       554 9.92529E-03 1.39613E-03-4.28922E-14
 -1       555 1.02446E-02 1.42301E-03-4.52724E-14
 -1       556 1.05709E-02 1.41012E-03-4.77073E-14
 -1       557 1.09042E-02 1.38110E-03-5.01898E-14
 -1       558 1.12397E-02 1.35625E-03-5.27081E-14
 -1       559 1.15726E-02 1.34738E-03-5.52569E-14
 -1       560 1.18997E-02 1.35831E-03-5.78447E-14
 -1       561 1.22200E-02 1.38790E-03-6.04730E-14
 -1       562 1.25336E-02 1.43271E-03-6.31369E-14
 -1       563 1.28412E-02 1.48870E-03-6.58289E-14
 -1       564 1.31438E-02 1.55204E-03-6.85496E-14
 -1       565 1.34422E-02 1.61950E-03-7.12836E-14
 -1       566 1.37369E-02 1.68841E-03-7.40260E-14
 -1       567 1.40288E-02 1.75668E-03-7.67868E-14
 -1       568 1.43181E-02 1.82262E-03-7.95702E-14
 -1       569 1.41883E-02 1.57309E-03-7.94053E-14
 -1       570 1.41400E-02 1.50061E-03-7.92939E-14
 -1       571 1.42767E-02 1.72440E-03-7.96131E-14
 -1       572 1.42330E-02 1.64739E-03-7.95134E-14
 -1       573 1.40862E-02 1.43003E-03-7.91753E-14
 -1       574 1.40258E-02 1.36056E-03-7.90565E-14
 -1       575 1.39581E-02 1.29128E-03-7.89284E-14
 -1       576 1.38847E-02 1.22239E-03-7.88005E-14
 -1       577 1.38044E-02 1.15063E-03-7.86715E-14
 -1       578 1.37203E-02 1.07646E-03-7.85420E-14
 -1       579 1.36349E-02 9.99438E-04-7.84114E-14
 -1       580 1.15369E-02 5.82437E-04-5.08145E-14
 -1       581 1.50084E-03 4.49662E-04-1.19587E-15
 -1       582 1.12519E-02 7.56762E-04-4.99034E-14
 -1       583 1.13310E-02 5.20525E-04-5.03577E-14
 -1       584 7.12532E-04-2.51757E-04-2.78809E-16
 -1       585 1.05393E-02 1.80326E-04-4.82575E-14
 -1       586 8.38264E-03-4.15683E-04-3.77683E-14
 -1       587 9.24458E-03 1.08226E-03-3.96090E-14
 -1       588 6.64063E-04-3.65318E-05-3.48541E-16
 -1       589 9.91500E-03 1.24887E-03-4.34981E-14
 -1       590 8.83772E-03 8.45715E-04-3.77029E-14
 -1       591 9.56866E-03 1.21658E-03-4.14174E-14
 -1       592 7.62355E-03 2.56027E-04-3.39893E-14
 -1       593 8.45934E-03 6.22544E-04-3.62740E-14
 -1       594 1.01968E-02-1.66677E-05-4.70035E-14
 -1       595 7.40924E-03 1.99604E-04-3.34723E-14
 -1       596 7.25990E-03 1.73194E-04-3.32716E-14
 -1       597 7.26655E-03 1.44891E-04-3.33727E-14
 -1       598 7.40033E-03 8.53866E-05-3.39066E-14
 -1       599 7.70449E-03-5.86065E-05-3.50670E-14
 -1       600 8.00665E-03-2.15653E-04-3.62298E-14
 -1       601 8.73077E-03-5.43374E-04-3.95468E-14
 -1       602 9.03012E-03-5.77691E-04-4.12598E-14
 -1       603 9.40393E-03-4.71777E-04-4.34678E-14
 -1       604 9.74382E-03-2.89802E-04-4.51564E-14
 -1       605 1.10221E-02 4.13536E-04-4.97853E-14
 -1       606 1.08892E-02 8.92219E-04-4.83133E-14
 -1       607 1.16081E-02 6.24196E-04-5.10398E-14
 -1       608 7.03604E-04 2.90911E-04-2.57329E-16
 -1       609 1.06054E-02 1.01945E-03-4.71227E-14
 -1       610 6.76683E-04-1.60163E-04-3.15581E-16
 -1       611 1.35117E-02 9.19122E-04-7.78320E-14
 -1       612 7.47277E-03 6.25120E-06-3.36087E-14
 -1       613 8.22860E-03 4.85861E-04-3.50844E-14
 -1       614 7.81952E-03 3.04322E-04-3.39463E-14
 -1       615 9.00148E-04 7.40965E-05-6.02169E-16
 -1       616 8.98095E-04 2.51734E-05-6.04033E-16
 -1       617 9.12038E-04 1.78198E-04-5.81915E-16
 -1       618 9.24255E-04 2.36758E-04-5.60627E-16
 -1       619 1.04878E-03 3.13810E-04-6.54831E-16
 -1       620 1.11190E-02 8.70166E-04-5.01803E-14
 -1       621 1.33449E-03 3.61213E-04-1.03154E-15
 -1       622 1.07996E-02 3.31777E-04-5.01981E-14
 -1       623 1.16554E-02 6.85873E-04-5.25043E-14
 -1       624 1.01521E-02 1.23925E-03-4.50105E-14
 -1       625 8.72340E-04-2.47137E-04-4.59017E-16
 -1       626 1.38327E-03-3.36682E-04-1.08393E-15
 -1       627 1.66948E-03-3.67235E-04-1.55028E-15
 -1       628 1.95571E-03-3.88493E-04-2.09919E-15
 -1       629 2.24178E-03-4.02561E-04-2.72845E-15
 -1       630 2.52768E-03-4.11172E-04-3.43789E-15
 -1       631 2.81345E-03-4.15674E-04-4.22616E-15
 -1       632 3.09916E-03-4.17079E-04-5.09081E-15
 -1       633 3.38486E-03-4.16117E-04-6.02972E-15
 -1       634 3.67057E-03-4.13291E-04-7.04286E-15
 -1       635 3.95635E-03-4.08934E-04-8.12560E-15
 -1       636 4.24221E-03-4.03253E-04-9.27884E-15
 -1       637 4.52816E-03-3.96382E-04-1.05041E-14
 -1       638 4.81423E-03-3.88431E-04-1.17990E-14
 -1       639 5.10044E-03-3.79536E-04-1.31619E-14
 -1       640 5.38681E-03-3.69932E-04-1.45913E-14
 -1       641 5.67341E-03-3.60020E-04-1.60848E-14
 -1       642 5.85586E-03-3.54258E-04-1.74803E-14
 -1       643 5.97096E-03-3.45637E-04-1.88116E-14
 -1       644 6.06003E-03-3.43856E-04-2.01741E-14
 -1       645 6.13752E-03-3.55482E-04-2.16150E-14
 -1       646 6.21671E-03-3.72364E-04-2.31835E-14
 -1       647 6.35044E-03-3.71902E-04-2.49850E-14
 -1       648 6.44481E-03-3.34327E-04-2.71304E-14
 -1       649 6.98696E-03-3.42706E-04-2.95675E-14
 -1       650 7.42094E-03-3.63429E-04-3.19345E-14
 -1       651 7.83963E-03-4.20394E-04-3.42876E-14
 -1       652 8.25083E-03-5.11579E-04-3.66496E-14
 -1       653 9.01995E-03-6.01644E-04-4.14367E-14
 -1       654 1.01517E-02-4.85041E-05-4.88110E-14
 -1       655 1.05213E-02 1.43943E-04-5.13104E-14
 -1       656 1.08689E-02 2.97731E-04-5.38323E-14
 -1       657 1.11954E-02 4.19286E-04-5.63723E-14
 -1       658 1.15060E-02 5.17394E-04-5.89414E-14
 -1       659 1.18062E-02 5.99340E-04-6.15357E-14
 -1       660 1.21001E-02 6.70584E-04-6.41498E-14
 -1       661 1.23904E-02 7.35198E-04-6.67845E-14
 -1       662 1.26787E-02 7.96274E-04-6.94380E-14
 -1       663 1.29659E-02 8.56186E-04-7.21053E-14
 -1       664 1.32522E-02 9.16800E-04-7.47801E-14
 -1       665 9.97276E-03-1.38743E-04-4.68745E-14
 -1       666 1.90553E-03 4.19515E-04-2.03813E-15
 -1       667 2.76011E-03 4.51198E-04-4.16770E-15
 -1       668 3.04493E-03 4.53393E-04-5.03617E-15
 -1       669 3.32990E-03 4.53026E-04-5.98068E-15
 -1       670 3.61509E-03 4.50666E-04-7.00186E-15
 -1       671 3.90055E-03 4.46694E-04-8.10221E-15
 -1       672 4.18634E-03 4.41360E-04-9.28126E-15
 -1       673 4.47253E-03 4.34831E-04-1.05360E-14
 -1       674 4.75919E-03 4.27246E-04-1.18620E-14
 -1       675 5.04643E-03 4.18772E-04-1.32590E-14
 -1       676 5.33439E-03 4.09671E-04-1.47262E-14
 -1       677 5.62329E-03 4.00378E-04-1.62620E-14
 -1       678 5.91341E-03 3.91589E-04-1.78639E-14
 -1       679 6.20519E-03 3.84373E-04-1.95249E-14
 -1       680 6.49930E-03 3.80291E-04-2.12426E-14
 -1       681 6.79670E-03 3.81518E-04-2.30202E-14
 -1       682 7.09880E-03 3.90963E-04-2.48549E-14
 -1       683 7.40751E-03 4.12319E-04-2.67512E-14
 -1       684 7.72505E-03 4.49967E-04-2.87048E-14
 -1       685 8.04132E-03 5.43196E-04-3.07259E-14
 -1       686 8.37018E-03 6.76313E-04-3.28085E-14
 -1       687 8.70998E-03 8.42252E-04-3.49499E-14
 -1       688 9.05278E-03 1.02281E-03-3.71468E-14
 -1       689 9.38977E-03 1.18860E-03-3.94002E-14
 -1       690 9.71755E-03 1.30479E-03-4.17050E-14
 -1       691 1.00437E-02 1.35322E-03-4.40587E-14
 -1       692 1.03782E-02 1.34211E-03-4.64632E-14
 -1       693 1.07225E-02 1.30358E-03-4.89180E-14
 -1       694 1.10691E-02 1.26738E-03-5.14125E-14
 -1       695 1.14102E-02 1.24992E-03-5.39380E-14
 -1       696 1.17408E-02 1.25548E-03-5.65038E-14
 -1       697 1.20604E-02 1.28190E-03-5.91109E-14
 -1       698 1.23706E-02 1.32486E-03-6.17524E-14
 -1       699 1.26736E-02 1.37982E-03-6.44218E-14
 -1       700 1.29714E-02 1.44278E-03-6.71218E-14
 -1       701 1.32654E-02 1.51046E-03-6.98434E-14
 -1       702 1.35568E-02 1.58023E-03-7.25761E-14
 -1       703 1.38462E-02 1.64998E-03-7.53309E-14
 -1       704 1.40623E-02 1.68789E-03-7.74660E-14
 -1       705 1.38179E-02 1.33768E-03-7.67517E-14
 -1       706 1.34436E-02 9.57396E-04-7.65920E-14
 -1       707 1.39230E-02 1.47834E-03-7.69630E-14
 -1       708 1.37540E-02 1.26904E-03-7.66370E-14
 -1       709 1.38738E-02 1.40713E-03-7.68597E-14
 -1       710 1.14872E-02 5.93325E-04-5.18402E-14
 -1       711 1.36833E-02 1.20128E-03-7.65171E-14
 -1       712 1.36041E-02 1.13100E-03-7.63923E-14
 -1       713 1.35194E-02 1.05843E-03-7.62675E-14
 -1       714 1.62018E-03 3.95533E-04-1.49261E-15
 -1       715 1.14850E-02 7.54064E-04-5.19311E-14
 -1       716 1.12452E-02 5.18025E-04-5.13688E-14
 -1       717 1.02718E-02 4.47575E-05-4.81332E-14
 -1       718 9.05009E-03 9.66189E-04-3.81434E-14
 -1       719 2.47536E-03 4.45631E-04-3.37722E-15
 -1       720 2.19054E-03 4.35569E-04-2.66717E-15
 -1       721 1.12691E-03-2.96957E-04-7.38643E-16
 -1       722 7.48830E-03 1.89350E-04-3.27152E-14
 -1       723 8.51612E-03-5.25949E-04-3.82585E-14
 -1       724 9.04521E-04 1.24593E-04-5.95308E-16
 -1       725 8.63390E-03 7.09961E-04-3.60748E-14
 -1       726 9.04154E-04-1.22181E-04-5.80465E-16
 -1       727 9.77394E-03 1.26669E-03-4.25420E-14
 -1       728 7.18401E-03 1.26381E-04-3.18566E-14
 -1       729 9.42806E-03 1.16898E-03-4.02893E-14
 -1       730 7.27936E-03 1.47152E-04-3.21712E-14
 -1       731 8.79973E-03-5.98846E-04-3.99584E-14
 -1       732 7.25202E-03 9.38569E-05-3.24435E-14
 -1       733 7.78838E-03-1.70972E-04-3.47832E-14
 -1       734 1.16604E-02 6.51957E-04-5.26339E-14
 -1       735 1.04715E-02 1.13313E-03-4.69090E-14
 -1       736 1.08710E-02 9.65482E-04-4.89749E-14
 -1       737 8.11918E-03-3.42852E-04-3.62441E-14
 -1       738 9.11436E-04-1.75560E-04-5.60780E-16
 -1       739 8.98033E-04-2.31513E-05-6.01136E-16
 -1       740 1.13964E-02 8.50053E-04-5.22077E-14
 -1       741 7.27249E-03 3.11058E-05-3.21258E-14
 -1       742 1.10586E-02 4.49876E-04-5.17826E-14
 -1       743 7.64254E-03 2.25111E-04-3.26761E-14
 -1       744 9.76041E-03-2.72057E-04-4.60588E-14
 -1       745 1.39668E-02 1.55141E-03-7.70664E-14
 -1       746 1.40145E-02 1.61860E-03-7.72662E-14
 -1       747 8.40953E-03 5.80502E-04-3.48882E-14
 -1       748 7.52480E-03-9.96998E-05-3.33055E-14
 -1       749 7.98572E-03 3.60237E-04-3.37048E-14
 -1       750 8.99943E-04-7.18096E-05-5.93513E-16
 -1       751 1.33868E-02 9.88420E-04-7.55227E-14
 -1       752 1.03916E-02 1.23382E-03-4.66211E-14
 -1       753 1.16173E-03 2.43499E-04-8.76571E-16
 -1       754 1.17141E-02 7.72631E-04-5.40431E-14
 -1       755 8.84338E-03 8.53088E-04-3.65560E-14
 -1       756 7.84612E-03-3.11992E-04-3.45863E-14
 -1       757 1.10828E-02 9.78761E-04-5.07020E-14
 -1       758 1.79754E-03-3.08607E-04-1.87318E-15
 -1       759 2.08523E-03-3.24123E-04-2.46847E-15
 -1       760 2.37303E-03-3.34120E-04-3.14399E-15
 -1       761 2.66070E-03-3.39891E-04-3.89768E-15
 -1       762 2.94812E-03-3.42457E-04-4.72806E-15
 -1       763 3.23523E-03-3.42582E-04-5.63456E-15
 -1       764 3.52199E-03-3.40814E-04-6.61363E-15
 -1       765 3.80836E-03-3.37525E-04-7.66491E-15
 -1       766 4.09431E-03-3.32955E-04-8.78532E-15
 -1       767 4.37978E-03-3.27255E-04-9.97675E-15
 -1       768 4.66470E-03-3.20529E-04-1.12392E-14
 -1       769 4.94897E-03-3.12878E-04-1.25705E-14
 -1       770 5.23246E-03-3.04452E-04-1.39713E-14
 -1       771 5.51503E-03-2.95500E-04-1.54375E-14
 -1       772 5.79653E-03-2.86439E-04-1.69692E-14
 -1       773 5.90819E-03-3.18508E-04-1.83021E-14
 -1       774 6.02273E-03-3.25357E-04-1.96863E-14
 -1       775 6.12217E-03-3.29499E-04-2.11259E-14
 -1       776 6.21127E-03-3.22907E-04-2.26578E-14
 -1       777 6.31004E-03-2.89654E-04-2.43393E-14
 -1       778 6.24012E-03-1.73956E-04-2.61342E-14
 -1       779 6.79985E-03-1.79654E-04-2.86054E-14
 -1       780 7.18912E-03-1.78811E-04-3.09385E-14
 -1       781 9.63898E-03 1.25665E-03-4.14330E-14
 -1       782 9.23525E-03 1.08706E-03-3.87242E-14
 -1       783 1.08795E-02 3.44016E-04-5.26402E-14
 -1       784 1.12004E-02 4.63620E-04-5.51743E-14
 -1       785 1.14995E-02 5.58507E-04-5.77340E-14
 -1       786 1.17872E-02 6.38323E-04-6.03162E-14
 -1       787 1.20694E-02 7.08714E-04-6.29252E-14
 -1       788 1.23493E-02 7.73256E-04-6.55567E-14
 -1       789 1.26290E-02 8.34481E-04-6.82061E-14
 -1       790 1.29094E-02 8.94323E-04-7.08732E-14
 -1       791 1.31475E-02 9.40884E-04-7.31948E-14
 -1       792 2.89362E-03 3.78552E-04-4.65168E-15
 -1       793 3.75266E-03 3.74961E-04-7.59831E-15
 -1       794 4.03863E-03 3.70585E-04-8.73457E-15
 -1       795 4.32441E-03 3.65012E-04-9.94749E-15
 -1       796 4.61000E-03 3.58366E-04-1.12334E-14
 -1       797 4.89540E-03 3.50763E-04-1.25900E-14
 -1       798 5.18062E-03 3.42361E-04-1.40169E-14
 -1       799 5.46570E-03 3.33420E-04-1.55141E-14
 -1       800 5.75077E-03 3.24371E-04-1.70775E-14
 -1       801 6.03605E-03 3.15888E-04-1.87045E-14
 -1       802 6.32202E-03 3.08988E-04-2.03886E-14
 -1       803 6.60952E-03 3.05130E-04-2.21313E-14
 -1       804 6.89994E-03 3.06360E-04-2.39316E-14
 -1       805 7.19549E-03 3.15500E-04-2.57891E-14
 -1       806 7.49939E-03 3.36432E-04-2.77082E-14
 -1       807 7.79881E-03 4.04953E-04-2.96957E-14
 -1       808 8.11370E-03 5.11755E-04-3.17451E-14
 -1       809 8.44805E-03 6.59056E-04-3.38541E-14
 -1       810 1.01854E-02 1.29228E-03-4.52274E-14
 -1       811 1.09056E-02 1.17573E-03-5.01265E-14
 -1       812 1.12588E-02 1.14638E-03-5.26306E-14
 -1       813 1.15950E-02 1.14707E-03-5.51747E-14
 -1       814 1.19144E-02 1.17255E-03-5.77568E-14
 -1       815 1.22206E-02 1.21597E-03-6.03759E-14
 -1       816 1.25177E-02 1.27156E-03-6.30244E-14
 -1       817 1.28091E-02 1.33505E-03-6.57027E-14
 -1       818 1.30973E-02 1.40324E-03-6.84075E-14
 -1       819 1.33836E-02 1.47371E-03-7.11343E-14
 -1       820 1.36691E-02 1.54457E-03-7.38734E-14
 -1       821 1.38420E-02 1.58193E-03-7.55663E-14
 -1       822 1.24626E-03 3.00590E-04-9.56090E-16
 -1       823 7.16329E-03 9.98476E-05-3.07181E-14
 -1       824 1.13877E-03 5.90038E-05-9.17923E-16
 -1       825 1.35510E-02 1.24586E-03-7.43412E-14
 -1       826 1.33217E-02 1.04116E-03-7.39995E-14
 -1       827 1.34839E-02 1.17973E-03-7.42349E-14
 -1       828 2.60688E-03 3.75089E-04-3.82110E-15
 -1       829 1.34066E-02 1.11153E-03-7.41201E-14
 -1       830 3.46650E-03 3.77960E-04-6.53938E-15
 -1       831 3.18016E-03 3.79300E-04-5.55762E-15
 -1       832 1.16445E-02 6.59881E-04-5.37213E-14
 -1       833 1.51042E-03-2.86045E-04-1.35740E-15
 -1       834 1.05627E-02 2.02381E-04-5.02603E-14
 -1       835 2.31995E-03 3.68042E-04-3.06810E-15
 -1       836 2.03289E-03 3.56257E-04-2.39473E-15
 -1       837 1.14646E-02 6.03455E-04-5.32500E-14
 -1       838 1.17674E-02 7.14635E-04-5.41547E-14
 -1       839 1.07634E-02 1.09996E-03-4.89037E-14
 -1       840 7.33070E-03 1.31831E-04-3.13038E-14
 -1       841 7.10598E-03 7.64309E-05-3.07242E-14
 -1       842 1.13742E-03 1.19687E-06-9.17032E-16
 -1       843 1.15010E-03 1.78959E-04-8.98922E-16
 -1       844 7.28102E-03-5.93023E-05-3.17979E-14
 -1       845 1.13239E-02 5.52560E-04-5.36695E-14
 -1       846 7.44447E-03 1.54406E-04-3.12757E-14
 -1       847 7.78172E-03 2.71563E-04-3.24419E-14
 -1       848 7.59421E-03-2.43355E-04-3.32347E-14
 -1       849 1.37036E-02 1.45445E-03-7.46330E-14
 -1       850 1.16702E-02 8.46247E-04-5.43264E-14
 -1       851 1.53232E-03 3.34989E-04-1.40069E-15
 -1       852 1.36600E-02 1.38253E-03-7.45401E-14
 -1       853 1.14281E-03 1.17710E-04-9.12200E-16
 -1       854 8.15971E-03 4.51142E-04-3.35148E-14
 -1       855 1.18051E-02 7.22626E-04-5.52508E-14
 -1       856 1.36098E-02 1.31337E-03-7.44424E-14
 -1       857 1.78238E-03 3.48913E-04-1.86519E-15
 -1       858 1.25407E-03-2.55991E-04-9.66695E-16
 -1       859 7.07322E-03 3.44374E-05-3.03796E-14
 -1       860 1.09584E-02 3.97448E-04-5.22117E-14
 -1       861 1.14248E-03-1.15097E-04-8.95958E-16
 -1       862 1.32355E-02 9.91564E-04-7.35976E-14
 -1       863 7.05179E-03 5.95523E-05-2.96141E-14
 -1       864 1.14957E-03-1.75992E-04-8.74219E-16
 -1       865 1.18948E-02 7.96904E-04-5.59885E-14
 -1       866 7.18041E-03 7.91389E-05-2.97830E-14
 -1       867 2.21876E-03-2.57317E-04-2.85094E-15
 -1       868 2.50775E-03-2.63838E-04-3.57096E-15
 -1       869 2.79658E-03-2.67275E-04-4.36775E-15
 -1       870 3.08500E-03-2.68356E-04-5.24051E-15
 -1       871 3.37285E-03-2.67622E-04-6.18700E-15
 -1       872 3.66003E-03-2.65457E-04-7.20367E-15
 -1       873 3.94642E-03-2.62118E-04-8.29282E-15
 -1       874 4.23190E-03-2.57771E-04-9.45154E-15
 -1       875 4.51632E-03-2.52521E-04-1.06813E-14
 -1       876 4.79951E-03-2.46454E-04-1.19810E-14
 -1       877 5.08123E-03-2.39671E-04-1.33495E-14
 -1       878 5.36119E-03-2.32328E-04-1.47875E-14
 -1       879 5.63906E-03-2.24676E-04-1.62912E-14
 -1       880 5.81837E-03-2.66436E-04-1.77370E-14
 -1       881 5.97705E-03-2.86425E-04-1.91726E-14
 -1       882 6.11804E-03-2.97492E-04-2.06491E-14
 -1       883 6.24299E-03-2.96780E-04-2.21993E-14
 -1       884 6.33906E-03-2.48013E-04-2.38258E-14
 -1       885 6.50752E-03-1.72840E-04-2.56249E-14
 -1       886 6.74854E-03-7.96956E-05-2.77892E-14
 -1       887 1.15164E-02 5.99446E-04-5.65219E-14
 -1       888 1.17846E-02 6.74529E-04-5.90996E-14
 -1       889 1.20502E-02 7.42753E-04-6.16999E-14
 -1       890 1.23167E-02 8.06811E-04-6.43259E-14
 -1       891 1.25857E-02 8.68397E-04-6.69730E-14
 -1       892 1.28577E-02 9.28792E-04-6.96385E-14
 -1       893 4.17630E-03 2.94965E-04-9.36872E-15
 -1       894 3.89050E-03 2.99356E-04-8.19822E-15
 -1       895 4.74562E-03 2.83227E-04-1.19300E-14
 -1       896 5.02895E-03 2.76053E-04-1.33170E-14
 -1       897 5.31126E-03 2.68172E-04-1.47753E-14
 -1       898 5.59248E-03 2.59812E-04-1.63012E-14
 -1       899 5.87261E-03 2.51337E-04-1.78914E-14
 -1       900 6.15182E-03 2.43309E-04-1.95433E-14
 -1       901 6.43056E-03 2.36550E-04-2.12512E-14
 -1       902 6.70977E-03 2.32239E-04-2.30182E-14
 -1       903 6.99114E-03 2.32080E-04-2.48428E-14
 -1       904 7.27758E-03 2.38629E-04-2.67241E-14
 -1       905 7.55285E-03 2.81748E-04-2.86746E-14
 -1       906 7.84235E-03 3.58494E-04-3.06891E-14
 -1       907 1.20859E-02 1.10522E-03-5.90094E-14
 -1       908 1.23740E-02 1.16370E-03-6.16390E-14
 -1       909 1.26567E-02 1.22904E-03-6.42970E-14
 -1       910 1.29368E-02 1.29833E-03-6.69826E-14
 -1       911 1.32164E-02 1.36953E-03-6.96973E-14
 -1       912 1.34964E-02 1.44111E-03-7.24264E-14
 -1       913 1.37729E-02 1.51738E-03-7.51000E-14
 -1       914 1.32862E-02 1.15601E-03-7.19479E-14
 -1       915 2.74141E-03 3.03063E-04-4.27133E-15
 -1       916 1.64201E-03-2.31185E-04-1.64754E-15
 -1       917 3.60404E-03 3.02613E-04-7.10271E-15
 -1       918 1.14705E-02 1.03101E-03-5.38538E-14
 -1       919 2.45306E-03 2.98565E-04-3.47832E-15
 -1       920 1.17875E-02 1.05847E-03-5.64133E-14
 -1       921 2.16457E-03 2.90500E-04-2.76241E-15
 -1       922 4.46137E-03 2.89561E-04-1.06137E-14
 -1       923 1.13860E-03-5.64644E-05-9.09947E-16
 -1       924 1.16541E-02 6.69417E-04-5.50294E-14
 -1       925 1.44686E-03 2.76482E-04-1.30469E-15
 -1       926 1.92999E-03-2.46792E-04-2.20955E-15
 -1       927 1.19720E-02 7.98869E-04-5.70996E-14
 -1       928 7.25985E-03 9.52182E-05-2.97716E-14
 -1       929 1.15507E-02 6.29838E-04-5.54546E-14
 -1       930 1.38475E-03 9.98142E-05-1.29102E-15
 -1       931 7.55479E-03 1.87916E-04-3.10544E-14
 -1       932 1.38163E-03 3.39148E-05-1.29392E-15
 -1       933 6.99401E-03 3.67482E-05-2.92663E-14
 -1       934 1.33491E-02 1.22129E-03-7.20419E-14
 -1       935 1.18937E-02 8.52721E-04-5.62752E-14
 -1       936 7.04594E-03 3.51925E-05-2.87255E-14
 -1       937 1.32119E-02 1.09031E-03-7.18452E-14
 -1       938 1.30451E-02 9.60180E-04-7.16169E-14
 -1       939 3.02942E-03 3.04842E-04-5.14015E-15
 -1       940 1.87627E-03 2.77793E-04-2.12628E-15
 -1       941 1.39456E-03-2.05467E-04-1.23142E-15
 -1       942 7.74188E-03 2.80461E-04-3.08924E-14
 -1       943 1.34596E-02 1.36747E-03-7.23429E-14
 -1       944 3.31699E-03 3.04543E-04-6.08375E-15
 -1       945 1.38446E-03-9.69238E-05-1.27523E-15
 -1       946 1.38832E-03-1.50509E-04-1.25668E-15
 -1       947 1.31347E-02 1.01984E-03-7.18768E-14
 -1       948 1.39121E-03 1.67205E-04-1.27952E-15
 -1       949 1.25135E-02 1.12544E-03-6.29030E-14
 -1       950 2.64548E-03-1.92001E-04-4.00954E-15
 -1       951 2.93496E-03-1.93677E-04-4.84792E-15
 -1       952 3.22384E-03-1.93772E-04-5.76105E-15
 -1       953 3.51190E-03-1.92635E-04-6.74539E-15
 -1       954 3.79895E-03-1.90511E-04-7.80043E-15
 -1       955 4.08483E-03-1.87562E-04-8.92690E-15
 -1       956 4.36934E-03-1.83895E-04-1.01260E-14
 -1       957 4.65222E-03-1.79587E-04-1.13931E-14
 -1       958 4.93320E-03-1.74714E-04-1.27300E-14
 -1       959 5.21189E-03-1.69378E-04-1.41374E-14
 -1       960 5.48787E-03-1.63736E-04-1.56119E-14
 -1       961 5.71166E-03-1.86586E-04-1.71091E-14
 -1       962 5.91016E-03-2.18756E-04-1.86017E-14
 -1       963 6.09446E-03-2.39652E-04-2.01239E-14
 -1       964 6.27424E-03-2.49670E-04-2.17178E-14
 -1       965 6.46409E-03-2.47177E-04-2.34348E-14
 -1       966 6.62955E-03-1.33289E-04-2.52143E-14
 -1       967 6.77389E-03-3.37957E-05-2.71080E-14
 -1       968 4.02864E-03 2.24348E-04-8.79993E-15
 -1       969 1.20398E-02 7.70798E-04-6.04709E-14
 -1       970 1.22895E-02 8.34648E-04-6.30864E-14
 -1       971 1.25459E-02 8.97128E-04-6.57326E-14
 -1       972 1.28082E-02 9.58791E-04-6.83982E-14
 -1       973 5.16042E-03 2.03718E-04-1.40442E-14
 -1       974 4.87980E-03 2.09997E-04-1.26260E-14
 -1       975 5.71572E-03 1.89449E-04-1.70848E-14
 -1       976 5.99003E-03 1.81853E-04-1.87024E-14
 -1       977 6.26205E-03 1.74386E-04-2.03786E-14
 -1       978 6.53203E-03 1.67556E-04-2.21116E-14
 -1       979 6.80071E-03 1.62100E-04-2.39027E-14
 -1       980 7.06966E-03 1.59180E-04-2.57526E-14
 -1       981 7.31685E-03 1.80073E-04-2.76629E-14
 -1       982 7.52373E-03 2.20203E-04-2.92568E-14
 -1       983 2.01066E-03 2.14200E-04-2.46185E-15
 -1       984 1.22436E-02 1.05686E-03-6.02632E-14
 -1       985 1.30538E-02 1.26834E-03-6.82706E-14
 -1       986 1.32563E-02 1.31808E-03-7.03005E-14
 -1       987 1.38155E-03-3.12647E-05-1.28831E-15
 -1       988 1.77733E-03-1.72114E-04-1.95258E-15
 -1       989 2.06611E-03-1.81879E-04-2.55973E-15
 -1       990 2.29992E-03 2.22426E-04-3.14031E-15
 -1       991 3.74246E-03 2.27451E-04-7.66994E-15
 -1       992 1.27829E-02 1.19639E-03-6.55743E-14
 -1       993 5.43913E-03 1.96818E-04-1.55313E-14
 -1       994 1.66114E-03 2.79862E-04-1.69163E-15
 -1       995 1.34013E-02 1.28796E-03-7.21322E-14
 -1       996 2.58936E-03 2.27411E-04-3.89632E-15
 -1       997 2.35572E-03-1.88271E-04-3.24629E-15
 -1       998 1.18671E-02 7.42671E-04-5.68882E-14
 -1       999 1.19761E-02 9.74888E-04-5.76346E-14
 -1      1000 1.20895E-02 8.75851E-04-5.83743E-14
 -1      1001 7.10305E-03 4.40572E-05-2.83081E-14
 -1      1002 1.18011E-02 7.13261E-04-5.73158E-14
 -1      1003 7.33937E-03 1.19330E-04-2.95679E-14
 -1      1004 1.62991E-03 7.29856E-05-1.72896E-15
 -1      1005 4.31371E-03 2.20362E-04-1.00034E-14
 -1      1006 6.93715E-03 1.04924E-06-2.79666E-14
 -1      1007 1.30909E-02 1.13040E-03-6.96567E-14
 -1      1008 1.17970E-02 7.04731E-04-5.78754E-14
 -1      1009 1.30217E-02 1.06742E-03-6.95665E-14
 -1      1010 2.87858E-03 2.29895E-04-4.72833E-15
 -1      1011 1.63504E-03 1.45447E-04-1.72098E-15
 -1      1012 3.45530E-03 2.29557E-04-6.61535E-15
 -1      1013 1.72220E-03 2.01852E-04-1.86348E-15
 -1      1014 1.58224E-03-1.62329E-04-1.58654E-15
 -1      1015 4.59749E-03 2.15563E-04-1.12790E-14
 -1      1016 1.62973E-03-6.99543E-05-1.71525E-15
 -1      1017 7.15756E-03 6.66512E-05-2.81249E-14
 -1      1018 5.56544E-03 1.28766E-04-1.62857E-14
 -1      1019 1.31464E-02 1.19414E-03-6.97417E-14
 -1      1020 3.07555E-03-1.19470E-04-5.33763E-15
 -1      1021 3.36445E-03-1.19101E-04-6.28901E-15
 -1      1022 3.65227E-03-1.18031E-04-7.31111E-15
 -1      1023 3.93880E-03-1.16390E-04-8.40433E-15
 -1      1024 4.22380E-03-1.14270E-04-9.57015E-15
 -1      1025 4.50701E-03-1.11736E-04-1.08075E-14
 -1      1026 4.78810E-03-1.08848E-04-1.21125E-14
 -1      1027 5.06668E-03-1.05679E-04-1.34880E-14
 -1      1028 5.34227E-03-1.02330E-04-1.49326E-14
 -1      1029 5.61428E-03-9.89511E-05-1.64459E-14
 -1      1030 5.83236E-03-1.32295E-04-1.79708E-14
 -1      1031 6.04259E-03-1.60631E-04-1.95279E-14
 -1      1032 6.25209E-03-1.72115E-04-2.11452E-14
 -1      1033 6.47002E-03-1.58844E-04-2.28582E-14
 -1      1034 6.70720E-03-1.10975E-04-2.47332E-14
 -1      1035 6.84782E-03-8.34553E-05-2.63032E-14
 -1      1036 1.21051E-02 8.29541E-04-5.92336E-14
 -1      1037 1.25049E-02 9.19916E-04-6.44838E-14
 -1      1038 1.27573E-02 9.83796E-04-6.71459E-14
 -1      1039 6.10483E-03 1.16420E-04-1.95112E-14
 -1      1040 5.83695E-03 1.22802E-04-1.78673E-14
 -1      1041 6.62840E-03 1.02838E-04-2.29732E-14
 -1      1042 6.88390E-03 9.59927E-05-2.47914E-14
 -1      1043 7.10455E-03 1.00058E-04-2.66571E-14
 -1      1044 1.21680E-02 9.59421E-04-5.93221E-14
 -1      1045 1.24182E-02 1.03212E-03-6.19441E-14
 -1      1046 6.36873E-03 1.09723E-04-2.12128E-14
 -1      1047 1.62820E-03 1.56453E-06-1.72657E-15
 -1      1048 1.22621E-02 8.55514E-04-6.18458E-14
 -1      1049 5.01318E-03 1.39147E-04-1.33222E-14
 -1      1050 6.95175E-03-1.40253E-05-2.71162E-14
 -1      1051 7.34480E-03 1.43177E-04-2.86193E-14
 -1      1052 2.14850E-03 1.47658E-04-2.80827E-15
 -1      1053 4.73320E-03 1.43486E-04-1.19447E-14
 -1      1054 1.91597E-03-1.09025E-04-2.27252E-15
 -1      1055 1.32042E-02 1.25465E-03-7.00198E-14
 -1      1056 2.43844E-03 1.52279E-04-3.52657E-15
 -1      1057 1.22589E-02 9.03772E-04-6.05206E-14
 -1      1058 3.88177E-03 1.52913E-04-8.23958E-15
 -1      1059 2.78585E-03-1.18940E-04-4.45858E-15
 -1      1060 3.16729E-03 2.30470E-04-5.63489E-15
 -1      1061 5.29072E-03 1.34231E-04-1.47686E-14
 -1      1062 1.28964E-02 1.10219E-03-6.73716E-14
 -1      1063 1.26731E-02 1.10474E-03-6.46016E-14
 -1      1064 4.16722E-03 1.50386E-04-9.40278E-15
 -1      1065 3.59496E-03 1.54764E-04-7.15088E-15
 -1      1066 1.23434E-02 9.64908E-04-6.12293E-14
 -1      1067 1.87785E-03 3.96753E-05-2.22429E-15
 -1      1068 1.85928E-03 1.40520E-04-2.16843E-15
 -1      1069 1.20296E-02 7.89155E-04-5.92351E-14
 -1      1070 6.98675E-03 9.82506E-06-2.69686E-14
 -1      1071 2.72845E-03 1.54895E-04-4.32224E-15
 -1      1072 2.49567E-03-1.17266E-04-3.65383E-15
 -1      1073 1.87777E-03-3.64420E-05-2.21581E-15
 -1      1074 1.29359E-02 1.18007E-03-6.73035E-14
 -1      1075 2.20550E-03-1.14098E-04-2.92411E-15
 -1      1076 4.45112E-03 1.47235E-04-1.06381E-14
 -1      1077 2.16723E-03-3.82425E-05-2.86151E-15
 -1      1078 1.28355E-02 1.04092E-03-6.73005E-14
 -1      1079 3.50666E-03-4.47196E-05-6.82372E-15
 -1      1080 3.79393E-03-4.41646E-05-7.88423E-15
 -1      1081 4.07968E-03-4.34221E-05-9.01513E-15
 -1      1082 4.36362E-03-4.25329E-05-1.02209E-14
 -1      1083 4.64545E-03-4.15377E-05-1.14969E-14
 -1      1084 4.92479E-03-4.04856E-05-1.28410E-14
 -1      1085 5.20116E-03-3.94451E-05-1.42541E-14
 -1      1086 5.47401E-03-3.85137E-05-1.57373E-14
 -1      1087 5.74264E-03-3.78268E-05-1.72883E-14
 -1      1088 5.97006E-03-7.29789E-05-1.88636E-14
 -1      1089 6.19652E-03-9.05873E-05-2.04926E-14
 -1      1090 6.42489E-03-9.04934E-05-2.21971E-14
 -1      1091 6.63954E-03-6.54453E-05-2.39816E-14
 -1      1092 5.95824E-03 6.01241E-05-1.86481E-14
 -1      1093 5.14671E-03 7.09759E-05-1.40170E-14
 -1      1094 5.42112E-03 6.78603E-05-1.54952E-14
 -1      1095 6.47503E-03 4.98773E-05-2.20470E-14
 -1      1096 6.92237E-03 3.55030E-05-2.56506E-14
 -1      1097 6.72332E-03 4.34091E-05-2.38332E-14
 -1      1098 6.21960E-03 5.53665E-05-2.03193E-14
 -1      1099 4.58896E-03 7.59326E-05-1.12740E-14
 -1      1100 1.25804E-02 9.80345E-04-6.44230E-14
 -1      1101 4.86917E-03 7.36547E-05-1.26110E-14
 -1      1102 5.69184E-03 6.42624E-05-1.70395E-14
 -1      1103 2.92855E-03-4.50454E-05-4.91711E-15
 -1      1104 2.30068E-03 5.56689E-05-3.19511E-15
 -1      1105 3.21810E-03-4.50347E-05-5.83420E-15
 -1      1106 3.01809E-03 1.55965E-04-5.19123E-15
 -1      1107 1.25865E-02 1.03779E-03-6.38727E-14
 -1      1108 3.73591E-03 8.05500E-05-7.68797E-15
 -1      1109 6.80471E-03-4.98652E-05-2.55284E-14
 -1      1110 4.30646E-03 7.78358E-05-1.00071E-14
 -1      1111 4.02202E-03 7.93770E-05-8.81076E-15
 -1      1112 2.59113E-03 5.70245E-05-3.95541E-15
 -1      1113 3.30700E-03 1.55839E-04-6.13447E-15
 -1      1114 2.63830E-03-4.46724E-05-4.07227E-15
 -1      1115 2.40268E-03-4.16101E-05-3.44266E-15
 -1      1116 6.77751E-03-1.04330E-05-2.47089E-14
 -1      1117 3.07325E-03 2.92772E-05-5.38237E-15
 -1      1118 3.44838E-03 8.13209E-05-6.63859E-15
 -1      1119 1.24843E-02 9.77302E-04-6.30165E-14
 -1      1120 0.00000E+00 0.00000E+00 0.00000E+00
 -1      1121 0.00000E+00 0.00000E+00 0.00000E+00
 -1      1122 0.00000E+00 0.00000E+00 0.00000E+00
 -1      1123 0.00000E+00 0.00000E+00 0.00000E+00
 -1      1124 0.00000E+00 0.00000E+00 0.00000E+00
 -1      1125 0.00000E+00 0.00000E+00 0.00000E+00
 -1      1126 0.00000E+00 0.00000E+00 0.00000E+00
 -1      1127 0.00000E+00 0.00000E+00 0.00000E+00
 -1      1128 0.00000E+00 0.00000E+00 0.00000E+00
 -1      1129 0.00000E+00 0.00000E+00 0.00000E+00
 -1      1130 0.00000E+00 0.00000E+00 0.00000E+00
 -1      1131 0.00000E+00 0.00000E+00 0.00000E+00
 -1      1132 0.00000E+00 0.00000E+00 0.00000E+00
 -1      1133 0.00000E+00 0.00000E+00 0.00000E+00
 -1      1134 0.00000E+00 0.00000E+00 0.00000E+00
 -1      1135 0.00000E+00 0.00000E+00 0.00000E+00
 -1      1136 0.00000E+00 0.00000E+00 0.00000E+00
 -1      1137 2.11585E-04-1.48316E-04 1.73201E-17
 -1      1138 5.51367E-04-3.37488E-04-1.78893E-18
 -1      1139 8.32977E-04-4.58930E-04-1.02281E-16
 -1      1140 1.10231E-03-5.40495E-04-2.98942E-16
 -1      1141 1.36746E-03-5.97540E-04-5.88518E-16
 -1      1142 1.63197E-03-6.37933E-04-9.69588E-16
 -1      1143 1.89772E-03-6.66292E-04-1.44231E-15
 -1      1144 2.16555E-03-6.85700E-04-2.00226E-15
 -1      1145 2.43578E-03-6.98395E-04-2.64910E-15
 -1      1146 2.70844E-03-7.06046E-04-3.38007E-15
 -1      1147 2.98343E-03-7.09893E-04-4.19342E-15
 -1      1148 3.26059E-03-7.10847E-04-5.08423E-15
 -1      1149 3.53977E-03-7.09562E-04-6.04657E-15
 -1      1150 3.82087E-03-7.06494E-04-7.08399E-15
 -1      1151 4.10389E-03-7.01956E-04-8.19393E-15
 -1      1152 4.38895E-03-6.96171E-04-9.37520E-15
 -1      1153 4.67628E-03-6.89323E-04-1.06269E-14
 -1      1154 4.96633E-03-6.81615E-04-1.19472E-14
 -1      1155 5.25971E-03-6.73339E-04-1.33334E-14
 -1      1156 5.55727E-03-6.64967E-04-1.47836E-14
 -1      1157 5.74658E-03-5.80764E-04-1.61720E-14
 -1      1158 5.90110E-03-4.88022E-04-1.74862E-14
 -1      1159 6.10456E-03-4.19711E-04-1.88621E-14
 -1      1160 6.35448E-03-3.63124E-04-2.03803E-14
 -1      1161 6.84234E-03-4.42940E-04-2.23086E-14
 -1      1162 6.94245E-03-9.65996E-04-2.41233E-14
 -1      1163 6.90437E-03-9.64294E-04-2.59661E-14
 -1      1164 7.15929E-03-8.82459E-04-2.81000E-14
 -1      1165 7.44324E-03-8.55879E-04-3.03612E-14
 -1      1166 7.75069E-03-8.63187E-04-3.26743E-14
 -1      1167 8.06273E-03-8.88305E-04-3.50265E-14
 -1      1168 8.36007E-03-9.08441E-04-3.74170E-14
 -1      1169 8.63743E-03-8.95132E-04-3.98348E-14
 -1      1170 8.90483E-03-8.27015E-04-4.22770E-14
 -1      1171 9.18008E-03-7.01126E-04-4.47463E-14
 -1      1172 9.47771E-03-5.33717E-04-4.72350E-14
 -1      1173 9.80199E-03-3.50450E-04-4.97317E-14
 -1      1174 1.01474E-02-1.74220E-04-5.22371E-14
 -1      1175 1.05038E-02-1.85552E-05-5.47507E-14
 -1      1176 1.08614E-02 1.12451E-04-5.72929E-14
 -1      1177 1.12131E-02 2.20834E-04-5.98702E-14
 -1      1178 1.15552E-02 3.11330E-04-6.24673E-14
 -1      1179 1.18862E-02 3.89147E-04-6.50765E-14
 -1      1180 1.22064E-02 4.58909E-04-6.77001E-14
 -1      1181 1.25168E-02 5.24350E-04-7.03483E-14
 -1      1182 1.28188E-02 5.88368E-04-7.30158E-14
 -1      1183 1.31141E-02 6.53187E-04-7.56967E-14
 -1      1184 1.34042E-02 7.20477E-04-7.83776E-14
 -1      1185 1.36910E-02 7.91259E-04-8.10689E-14
 -1      1186 1.39693E-02 8.63305E-04-8.37269E-14
 -1      1187 2.28339E-04 1.60691E-04 1.42030E-17
 -1      1188 5.53540E-04 3.42120E-04-2.17518E-17
 -1      1189 8.33907E-04 4.61098E-04-1.44633E-16
 -1      1190 1.10321E-03 5.42182E-04-3.65024E-16
 -1      1191 1.36836E-03 5.99219E-04-6.81082E-16
 -1      1192 1.63293E-03 6.39700E-04-1.09143E-15
 -1      1193 1.89873E-03 6.68165E-04-1.59173E-15
 -1      1194 2.16660E-03 6.87693E-04-2.17719E-15
 -1      1195 2.43687E-03 7.00519E-04-2.85045E-15
 -1      1196 2.70956E-03 7.08308E-04-3.60892E-15
 -1      1197 2.98457E-03 7.12300E-04-4.45130E-15
 -1      1198 3.26176E-03 7.13411E-04-5.37672E-15
 -1      1199 3.54096E-03 7.12297E-04-6.38167E-15
 -1      1200 3.82210E-03 7.09426E-04-7.46889E-15
 -1      1201 4.10515E-03 7.05123E-04-8.64052E-15
 -1      1202 4.39021E-03 6.99632E-04-9.89341E-15
 -1      1203 4.67752E-03 6.93166E-04-1.12174E-14
 -1      1204 4.96746E-03 6.85965E-04-1.26093E-14
 -1      1205 5.26059E-03 6.78369E-04-1.40721E-14
 -1      1206 5.55761E-03 6.70901E-04-1.56082E-14
 -1      1207 5.85942E-03 6.64363E-04-1.72107E-14
 -1      1208 6.16698E-03 6.59956E-04-1.88704E-14
 -1      1209 6.48127E-03 6.59399E-04-2.05886E-14
 -1      1210 6.80304E-03 6.65034E-04-2.23779E-14
 -1      1211 7.13256E-03 6.79850E-04-2.42287E-14
 -1      1212 7.46911E-03 7.07310E-04-2.61422E-14
 -1      1213 7.81045E-03 7.50813E-04-2.81110E-14
 -1      1214 8.15237E-03 8.12575E-04-3.01323E-14
 -1      1215 8.53351E-03 9.37998E-04-3.22017E-14
 -1      1216 8.90707E-03 1.10178E-03-3.43290E-14
 -1      1217 9.24212E-03 1.26588E-03-3.65130E-14
 -1      1218 9.54792E-03 1.41316E-03-3.87580E-14
 -1      1219 9.83156E-03 1.52672E-03-4.10558E-14
 -1      1220 1.01052E-02 1.59635E-03-4.33950E-14
 -1      1221 1.03827E-02 1.62279E-03-4.57847E-14
 -1      1222 1.06750E-02 1.61753E-03-4.82360E-14
 -1      1223 1.09860E-02 1.59760E-03-5.07393E-14
 -1      1224 1.13135E-02 1.57900E-03-5.32843E-14
 -1      1225 1.16513E-02 1.57253E-03-5.58649E-14
 -1      1226 1.19924E-02 1.58296E-03-5.84825E-14
 -1      1227 1.23311E-02 1.61040E-03-6.11228E-14
 -1      1228 1.26636E-02 1.65233E-03-6.38068E-14
 -1      1229 1.29882E-02 1.70520E-03-6.65269E-14
 -1      1230 1.33042E-02 1.76544E-03-6.92638E-14
 -1      1231 1.36121E-02 1.82988E-03-7.20056E-14
 -1      1232 1.39127E-02 1.89588E-03-7.47570E-14
 -1      1233 1.42072E-02 1.96134E-03-7.75288E-14
 -1      1234 1.44970E-02 2.02460E-03-8.03200E-14
 -1      1235 1.47837E-02 2.08466E-03-8.31286E-14
 -1      1236 1.50620E-02 2.14035E-03-8.58637E-14
 -1      1237 1.51700E-02 2.12476E-03-8.71395E-14
 -1      1238 1.51158E-02 2.04021E-03-8.70577E-14
 -1      1239 1.50644E-02 1.95690E-03-8.69713E-14
 -1      1240 1.50156E-02 1.87646E-03-8.68808E-14
 -1      1241 1.49680E-02 1.79993E-03-8.67777E-14
 -1      1242 1.49200E-02 1.72823E-03-8.66469E-14
 -1      1243 1.48692E-02 1.66038E-03-8.65047E-14
 -1      1244 1.48136E-02 1.59495E-03-8.63312E-14
 -1      1245 1.47524E-02 1.53123E-03-8.61459E-14
 -1      1246 1.46851E-02 1.46764E-03-8.59719E-14
 -1      1247 1.46121E-02 1.40258E-03-8.58084E-14
 -1      1248 1.45351E-02 1.33522E-03-8.57002E-14
 -1      1249 1.44551E-02 1.26400E-03-8.55991E-14
 -1      1250 1.43734E-02 1.18784E-03-8.54735E-14
 -1      1251 1.42929E-02 1.10757E-03-8.53491E-14
 -1      1252 1.42153E-02 1.02432E-03-8.52293E-14
 -1      1253 1.41411E-02 9.40475E-04-8.51056E-14
 -1      1254 1.15622E-02 5.65147E-04-4.73352E-14
 -1      1255 1.14835E-02 7.01339E-04-4.71011E-14
 -1      1256 1.12901E-02 8.35662E-04-4.65911E-14
 -1      1257 1.10162E-02 9.56887E-04-4.58717E-14
 -1      1258 1.06922E-02 1.05735E-03-4.50060E-14
 -1      1259 1.03197E-02 1.13043E-03-4.39846E-14
 -1      1260 9.90009E-03 1.16203E-03-4.28129E-14
 -1      1261 9.45768E-03 1.13985E-03-4.15788E-14
 -1      1262 9.02467E-03 1.06389E-03-4.03896E-14
 -1      1263 8.59229E-03 9.43837E-04-3.92293E-14
 -1      1264 8.19582E-03 8.01369E-04-3.82105E-14
 -1      1265 7.84277E-03 6.50336E-04-3.73538E-14
 -1      1266 7.56475E-03 5.08672E-04-3.67411E-14
 -1      1267 7.38354E-03 3.85598E-04-3.63991E-14
 -1      1268 7.28776E-03 2.63396E-04-3.62840E-14
 -1      1269 7.29377E-03 1.39273E-04-3.64192E-14
 -1      1270 7.40448E-03 8.51354E-06-3.67994E-14
 -1      1271 7.61653E-03-1.31631E-04-3.74165E-14
 -1      1272 7.91537E-03-2.68962E-04-3.82330E-14
 -1      1273 8.29140E-03-3.88281E-04-3.92470E-14
 -1      1274 8.70518E-03-4.63338E-04-4.03631E-14
 -1      1275 9.14116E-03-4.78064E-04-4.15455E-14
 -1      1276 9.58785E-03-4.32104E-04-4.27461E-14
 -1      1277 1.00182E-02-3.33103E-04-4.38655E-14
 -1      1278 1.04326E-02-1.95210E-04-4.48952E-14
 -1      1279 1.08170E-02-3.45568E-05-4.58075E-14
 -1      1280 1.11405E-02 1.28836E-04-4.65417E-14
 -1      1281 1.13810E-02 2.83482E-04-4.70389E-14
 -1      1282 1.15255E-02 4.27939E-04-4.73024E-14
 -1      1283 1.66624E-04-1.10346E-04 3.14419E-18
 -1      1284 1.12502E-04-5.70075E-05-1.52737E-17
 -1      1285 1.17574E-04-6.76072E-05-1.02864E-17
 -1      1286 1.08403E-04-4.35328E-05-2.38389E-17
 -1      1287 1.10256E-04-4.96446E-05-2.11284E-17
 -1      1288 2.26260E-04-1.07685E-04-4.93990E-17
 -1      1289 1.06841E-04-3.36560E-05-2.88804E-17
 -1      1290 1.07677E-04-3.83779E-05-2.74032E-17
 -1      1291 2.19075E-04-8.25304E-05-6.50928E-17
 -1      1292 1.06079E-04-2.53904E-05-3.20382E-17
 -1      1293 1.06502E-04-2.94258E-05-3.12250E-17
 -1      1294 2.15878E-04-6.33503E-05-7.49184E-17
 -1      1295 1.05688E-04-1.81225E-05-3.39897E-17
 -1      1296 1.05913E-04-2.16937E-05-3.35290E-17
 -1      1297 2.14251E-04-4.72501E-05-8.10983E-17
 -1      1298 1.05478E-04-1.12602E-05-3.52637E-17
 -1      1299 1.05597E-04-1.46498E-05-3.49926E-17
 -1      1300 2.13359E-04-3.28018E-05-8.50557E-17
 -1      1301 1.05383E-04-4.69854E-06-3.60226E-17
 -1      1302 1.05434E-04-7.95687E-06-3.58871E-17
 -1      1303 2.12881E-04-1.92205E-05-8.75358E-17
 -1      1304 1.05373E-04 1.74565E-06-3.64563E-17
 -1      1305 1.05371E-04-1.47290E-06-3.63885E-17
 -1      1306 2.12675E-04-6.17048E-06-8.91214E-17
 -1      1307 1.05442E-04 8.23932E-06-3.64021E-17
 -1      1308 1.05388E-04 4.97452E-06-3.64427E-17
 -1      1309 2.12683E-04 6.71903E-06-8.96635E-17
 -1      1310 1.05612E-04 1.49577E-05-3.60226E-17
 -1      1311 1.05489E-04 1.15532E-05-3.61717E-17
 -1      1312 2.12906E-04 1.97948E-05-8.92976E-17
 -1      1313 1.05935E-04 2.19860E-05-3.48707E-17
 -1      1314 1.05706E-04 1.83911E-05-3.52095E-17
 -1      1315 2.13400E-04 3.33153E-05-8.77120E-17
 -1      1316 1.06544E-04 2.98599E-05-3.32037E-17
 -1      1317 1.06112E-04 2.57805E-05-3.38136E-17
 -1      1318 2.14317E-04 4.78583E-05-8.48253E-17
 -1      1319 1.07716E-04 3.89614E-05-3.00731E-17
 -1      1320 1.06874E-04 3.41675E-05-3.11844E-17
 -1      1321 2.15988E-04 6.42811E-05-8.00548E-17
 -1      1322 1.10236E-04 5.03839E-05-2.48011E-17
 -1      1323 1.08408E-04 4.42034E-05-2.70644E-17
 -1      1324 2.19176E-04 8.37801E-05-7.19504E-17
 -1      1325 1.16889E-04 6.76421E-05-1.55176E-17
 -1      1326 1.12148E-04 5.78061E-05-1.99900E-17
 -1      1327 2.26246E-04 1.09503E-04-5.87638E-17
 -1      1328 1.57509E-04 1.09858E-04-1.35525E-20
 -1      1329 1.35600E-04 8.61052E-05-1.00289E-17
 -1      1330 2.55925E-04 1.52126E-04-4.23652E-17
 -1      1331 3.34927E-04 2.20736E-04-1.75505E-17
 -1      1332 4.21334E-04-2.61740E-04-1.82824E-17
 -1      1333 5.74341E-04-3.36789E-04-5.05645E-17
 -1      1334 7.21436E-04-3.97367E-04-1.07472E-16
 -1      1335 8.64505E-04-4.46623E-04-1.87459E-16
 -1      1336 6.11770E-04-3.30895E-04-1.07458E-16
 -1      1337 1.00442E-03-4.87639E-04-2.89523E-16
 -1      1338 1.14216E-03-5.21550E-04-4.14789E-16
 -1      1339 9.04835E-04-4.31517E-04-2.76011E-16
 -1      1340 1.27854E-03-5.50223E-04-5.62755E-16
 -1      1341 1.41407E-03-5.74133E-04-7.33680E-16
 -1      1342 1.18708E-03-5.00785E-04-5.34024E-16
 -1      1343 1.54919E-03-5.94340E-04-9.26857E-16
 -1      1344 1.68415E-03-6.11176E-04-1.14279E-15
 -1      1345 1.46382E-03-5.49304E-04-8.81592E-16
 -1      1346 1.81921E-03-6.25263E-04-1.38107E-15
 -1      1347 1.95447E-03-6.36890E-04-1.64122E-15
 -1      1348 1.73831E-03-5.83224E-04-1.31809E-15
 -1      1349 2.09006E-03-6.46453E-04-1.92291E-15
 -1      1350 2.22602E-03-6.54197E-04-2.22649E-15
 -1      1351 2.01243E-03-6.06492E-04-1.84240E-15
 -1      1352 2.36242E-03-6.60388E-04-2.55120E-15
 -1      1353 2.49926E-03-6.65226E-04-2.89672E-15
 -1      1354 2.28718E-03-6.21874E-04-2.45211E-15
 -1      1355 2.63657E-03-6.68895E-04-3.26375E-15
 -1      1356 2.77434E-03-6.71554E-04-3.65085E-15
 -1      1357 2.56308E-03-6.31388E-04-3.14622E-15
 -1      1358 2.91259E-03-6.73330E-04-4.05755E-15
 -1      1359 3.05129E-03-6.74346E-04-4.48465E-15
 -1      1360 2.84036E-03-6.36520E-04-3.92203E-15
 -1      1361 3.19045E-03-6.74685E-04-4.92957E-15
 -1      1362 3.33005E-03-6.74443E-04-5.39382E-15
 -1      1363 3.11911E-03-6.38355E-04-4.77560E-15
 -1      1364 3.47009E-03-6.73670E-04-5.87646E-15
 -1      1365 3.61056E-03-6.72440E-04-6.37633E-15
 -1      1366 3.39935E-03-6.37670E-04-5.70441E-15
 -1      1367 3.75147E-03-6.70780E-04-6.89565E-15
 -1      1368 3.89281E-03-6.68746E-04-7.43299E-15
 -1      1369 3.68109E-03-6.35006E-04-6.70747E-15
 -1      1370 4.03460E-03-6.66348E-04-7.98829E-15
 -1      1371 4.17686E-03-6.63633E-04-8.56165E-15
 -1      1372 3.96439E-03-6.30723E-04-7.78280E-15
 -1      1373 4.31960E-03-6.60600E-04-9.15319E-15
 -1      1374 4.46286E-03-6.57293E-04-9.76183E-15
 -1      1375 4.24933E-03-6.25059E-04-8.92988E-15
 -1      1376 4.60669E-03-6.53706E-04-1.03881E-14
 -1      1377 4.75111E-03-6.49889E-04-1.10319E-14
 -1      1378 4.53612E-03-6.18179E-04-1.01494E-14
 -1      1379 4.89621E-03-6.45837E-04-1.16919E-14
 -1      1380 5.04204E-03-6.41617E-04-1.23694E-14
 -1      1381 4.82503E-03-6.10231E-04-1.14366E-14
 -1      1382 5.18870E-03-6.37234E-04-1.30632E-14
 -1      1383 5.33626E-03-6.32780E-04-1.37723E-14
 -1      1384 5.11651E-03-6.01410E-04-1.27921E-14
 -1      1385 5.48484E-03-6.28284E-04-1.44976E-14
 -1      1386 5.63455E-03-6.23881E-04-1.52399E-14
 -1      1387 5.41110E-03-5.92037E-04-1.42125E-14
 -1      1388 5.72274E-03-5.96029E-04-1.59084E-14
 -1      1389 5.79636E-03-5.35289E-04-1.65629E-14
 -1      1390 5.66480E-03-5.71621E-04-1.56396E-14
 -1      1391 5.88021E-03-4.86074E-04-1.72355E-14
 -1      1392 5.96871E-03-4.45635E-04-1.79090E-14
 -1      1393 5.84656E-03-4.83828E-04-1.69825E-14
 -1      1394 6.06272E-03-4.11716E-04-1.85973E-14
 -1      1395 6.16394E-03-3.80600E-04-1.93109E-14
 -1      1396 6.01675E-03-4.05093E-04-1.83344E-14
 -1      1397 6.26631E-03-3.55069E-04-2.00673E-14
 -1      1398 6.38300E-03-3.26488E-04-2.08718E-14
 -1      1399 6.18434E-03-3.48176E-04-1.97556E-14
 -1      1400 6.46833E-03-3.37467E-04-2.17992E-14
 -1      1401 6.57158E-03-4.75536E-04-2.27769E-14
 -1      1402 6.30279E-03-3.40660E-04-2.13515E-14
 -1      1403 6.44012E-03-9.24739E-04-2.32641E-14
 -1      1404 6.56490E-03-1.00914E-03-2.43262E-14
 -1      1405 6.24232E-03-6.86269E-04-2.29048E-14
 -1      1406 6.80758E-03-9.41278E-04-2.54651E-14
 -1      1407 6.92990E-03-8.75677E-04-2.64992E-14
 -1      1408 6.53831E-03-8.67794E-04-2.47751E-14
 -1      1409 7.08009E-03-8.48372E-04-2.75702E-14
 -1      1410 7.21477E-03-8.24042E-04-2.86936E-14
 -1      1411 6.94338E-03-8.20243E-04-2.70415E-14
 -1      1412 7.35930E-03-8.16056E-04-2.98303E-14
 -1      1413 7.50811E-03-8.12582E-04-3.09809E-14
 -1      1414 7.25441E-03-7.79603E-04-2.92902E-14
 -1      1415 7.66266E-03-8.16560E-04-3.21435E-14
 -1      1416 7.81970E-03-8.26538E-04-3.33138E-14
 -1      1417 7.56835E-03-7.71432E-04-3.16076E-14
 -1      1418 7.97750E-03-8.39989E-04-3.44925E-14
 -1      1419 8.13376E-03-8.54914E-04-3.56800E-14
 -1      1420 7.89185E-03-7.90314E-04-3.39567E-14
 -1      1421 8.28734E-03-8.66737E-04-3.68753E-14
 -1      1422 8.43757E-03-8.72294E-04-3.80779E-14
 -1      1423 8.21406E-03-8.20583E-04-3.63335E-14
 -1      1424 8.58461E-03-8.67119E-04-3.92853E-14
 -1      1425 8.72938E-03-8.48651E-04-4.04983E-14
 -1      1426 8.52714E-03-8.32832E-04-3.87356E-14
 -1      1427 8.87306E-03-8.14693E-04-4.17183E-14
 -1      1428 9.01750E-03-7.65041E-04-4.29453E-14
 -1      1429 8.83167E-03-7.96516E-04-4.11620E-14
 -1      1430 9.16407E-03-7.00686E-04-4.41781E-14
 -1      1431 9.31418E-03-6.23904E-04-4.54154E-14
 -1      1432 9.13559E-03-6.96525E-04-4.36112E-14
 -1      1433 9.46859E-03-5.38061E-04-4.66570E-14
 -1      1434 9.62772E-03-4.46538E-04-4.79024E-14
 -1      1435 9.44812E-03-5.41376E-04-4.60821E-14
 -1      1436 9.79142E-03-3.52977E-04-4.91505E-14
 -1      1437 9.95912E-03-2.60346E-04-5.03997E-14
 -1      1438 9.77374E-03-3.56598E-04-4.85692E-14
 -1      1439 1.01301E-02-1.71089E-04-5.16532E-14
 -1      1440 1.03033E-02-8.69329E-05-5.29115E-14
 -1      1441 1.01109E-02-1.70150E-04-5.10707E-14
 -1      1442 1.04779E-02-8.77453E-06-5.41707E-14
 -1      1443 1.06528E-02 6.28119E-05-5.54322E-14
 -1      1444 1.04545E-02-1.39999E-06-5.35848E-14
 -1      1445 1.08274E-02 1.28049E-04-5.67061E-14
 -1      1446 1.10010E-02 1.87090E-04-5.79877E-14
 -1      1447 1.07988E-02 1.41567E-04-5.61180E-14
 -1      1448 1.11730E-02 2.40681E-04-5.92750E-14
 -1      1449 1.13431E-02 2.89312E-04-6.05686E-14
 -1      1450 1.11393E-02 2.58998E-04-5.86798E-14
 -1      1451 1.15110E-02 3.33824E-04-6.18666E-14
 -1      1452 1.16766E-02 3.74796E-04-6.31677E-14
 -1      1453 1.14731E-02 3.55350E-04-6.12668E-14
 -1      1454 1.18399E-02 4.12958E-04-6.44726E-14
 -1      1455 1.20008E-02 4.48855E-04-6.57825E-14
 -1      1456 1.17991E-02 4.36279E-04-6.38707E-14
 -1      1457 1.21594E-02 4.83046E-04-6.70952E-14
 -1      1458 1.23158E-02 5.15998E-04-6.84123E-14
 -1      1459 1.21170E-02 5.07063E-04-6.64889E-14
 -1      1460 1.24702E-02 5.48117E-04-6.97373E-14
 -1      1461 1.26227E-02 5.79784E-04-7.10672E-14
 -1      1462 1.24273E-02 5.72033E-04-6.91275E-14
 -1      1463 1.27735E-02 6.11289E-04-7.24024E-14
 -1      1464 1.29227E-02 6.42939E-04-7.37390E-14
 -1      1465 1.27308E-02 6.34548E-04-7.17881E-14
 -1      1466 1.30705E-02 6.74946E-04-7.50783E-14
 -1      1467 1.32170E-02 7.07549E-04-7.64211E-14
 -1      1468 1.30285E-02 6.97164E-04-7.44640E-14
 -1      1469 1.33625E-02 7.40894E-04-7.77640E-14
 -1      1470 1.35071E-02 7.75155E-04-7.91073E-14
 -1      1471 1.33216E-02 7.61824E-04-7.71471E-14
 -1      1472 1.36509E-02 8.10372E-04-8.04574E-14
 -1      1473 1.37943E-02 8.46599E-04-8.18126E-14
 -1      1474 1.36112E-02 8.29918E-04-7.98402E-14
 -1      1475 1.40054E-02 9.04716E-04-8.37983E-14
 -1      1476 1.39665E-02 9.23036E-04-8.31765E-14
 -1      1477 6.42741E-04 3.71991E-04-9.50981E-17
 -1      1478 4.92707E-04 3.03684E-04-4.39102E-17
 -1      1479 4.44666E-04 2.65907E-04-6.23958E-17
 -1      1480 9.28125E-04 4.71878E-04-2.69831E-16
 -1      1481 7.87365E-04 4.26434E-04-1.70653E-16
 -1      1482 7.44357E-04 3.90687E-04-1.91768E-16
 -1      1483 1.20279E-03 5.41145E-04-5.38848E-16
 -1      1484 1.06624E-03 5.09553E-04-3.92413E-16
 -1      1485 1.03022E-03 4.76020E-04-4.15249E-16
 -1      1486 1.47309E-03 5.90090E-04-9.00864E-16
 -1      1487 1.33817E-03 5.67771E-04-7.08214E-16
 -1      1488 1.30793E-03 5.35651E-04-7.31118E-16
 -1      1489 1.74236E-03 6.24606E-04-1.35462E-15
 -1      1490 1.60769E-03 6.08912E-04-1.11632E-15
 -1      1491 1.58195E-03 5.77635E-04-1.13797E-15
 -1      1492 2.01230E-03 6.48527E-04-1.89582E-15
 -1      1493 1.87716E-03 6.37721E-04-1.61430E-15
 -1      1494 1.85490E-03 6.06915E-04-1.63350E-15
 -1      1495 2.28373E-03 6.64556E-04-2.52291E-15
 -1      1496 2.14779E-03 6.57400E-04-2.19899E-15
 -1      1497 2.12821E-03 6.26836E-04-2.21630E-15
 -1      1498 2.55700E-03 6.74683E-04-3.23705E-15
 -1      1499 2.42012E-03 6.70260E-04-2.86899E-15
 -1      1500 2.40260E-03 6.39797E-04-2.88499E-15
 -1      1501 2.83221E-03 6.80384E-04-4.03415E-15
 -1      1502 2.69436E-03 6.78013E-04-3.62515E-15
 -1      1503 2.67843E-03 6.47566E-04-3.63762E-15
 -1      1504 3.10933E-03 6.82752E-04-4.91420E-15
 -1      1505 2.97053E-03 6.81930E-04-4.46423E-15
 -1      1506 2.95582E-03 6.51447E-04-4.47330E-15
 -1      1507 3.38830E-03 6.82576E-04-5.87498E-15
 -1      1508 3.24859E-03 6.82942E-04-5.38447E-15
 -1      1509 3.23480E-03 6.52391E-04-5.38964E-15
 -1      1510 3.66906E-03 6.80417E-04-6.91644E-15
 -1      1511 3.52846E-03 6.81714E-04-6.38541E-15
 -1      1512 3.51537E-03 6.51074E-04-6.38571E-15
 -1      1513 3.95158E-03 6.76661E-04-8.03989E-15
 -1      1514 3.81010E-03 6.78715E-04-7.46777E-15
 -1      1515 3.79752E-03 6.47968E-04-7.46309E-15
 -1      1516 4.23594E-03 6.71582E-04-9.24576E-15
 -1      1517 4.09353E-03 6.74267E-04-8.63270E-15
 -1      1518 4.08131E-03 6.43394E-04-8.62178E-15
 -1      1519 4.52230E-03 6.65389E-04-1.05283E-14
 -1      1520 4.37886E-03 6.68604E-04-9.87789E-15
 -1      1521 4.36685E-03 6.37579E-04-9.86047E-15
 -1      1522 4.81094E-03 6.58282E-04-1.18818E-14
 -1      1523 4.66631E-03 6.61924E-04-1.11968E-14
 -1      1524 4.65435E-03 6.30709E-04-1.11733E-14
 -1      1525 5.10228E-03 6.50524E-04-1.33040E-14
 -1      1526 4.95624E-03 6.54449E-04-1.25840E-14
 -1      1527 4.94414E-03 6.22989E-04-1.25560E-14
 -1      1528 5.39690E-03 6.42507E-04-1.47986E-14
 -1      1529 5.24915E-03 6.46497E-04-1.40421E-14
 -1      1530 5.23665E-03 6.14717E-04-1.40094E-14
 -1      1531 5.69549E-03 6.34852E-04-1.63619E-14
 -1      1532 5.54565E-03 6.38562E-04-1.55715E-14
 -1      1533 5.53243E-03 6.06362E-04-1.55326E-14
 -1      1534 5.99885E-03 6.28515E-04-1.79877E-14
 -1      1535 5.84652E-03 6.31419E-04-1.71669E-14
 -1      1536 5.83214E-03 5.98672E-04-1.71218E-14
 -1      1537 6.30780E-03 6.24916E-04-1.96723E-14
 -1      1538 6.15257E-03 6.26242E-04-1.88229E-14
 -1      1539 6.13648E-03 5.92793E-04-1.87729E-14
 -1      1540 6.62309E-03 6.26063E-04-2.14201E-14
 -1      1541 6.46461E-03 6.24731E-04-2.05384E-14
 -1      1542 6.44614E-03 5.90404E-04-2.04838E-14
 -1      1543 6.94512E-03 6.34637E-04-2.32332E-14
 -1      1544 6.78324E-03 6.29230E-04-2.23190E-14
 -1      1545 6.76164E-03 5.93840E-04-2.22583E-14
 -1      1546 7.27369E-03 6.53968E-04-2.51086E-14
 -1      1547 7.10861E-03 6.42762E-04-2.41624E-14
 -1      1548 7.08313E-03 6.06149E-04-2.40936E-14
 -1      1549 7.60761E-03 6.87730E-04-2.70414E-14
 -1      1550 7.44009E-03 6.68891E-04-2.60676E-14
 -1      1551 7.41015E-03 6.30969E-04-2.59918E-14
 -1      1552 7.94426E-03 7.39168E-04-2.90315E-14
 -1      1553 7.77580E-03 7.11207E-04-2.80299E-14
 -1      1554 7.74129E-03 6.72047E-04-2.79472E-14
 -1      1555 8.27942E-03 8.09651E-04-3.10690E-14
 -1      1556 8.11235E-03 7.72228E-04-3.00450E-14
 -1      1557 8.07394E-03 7.32172E-04-2.99552E-14
 -1      1558 8.65772E-03 9.69861E-04-3.31692E-14
 -1      1559 8.46896E-03 8.85744E-04-3.21115E-14
 -1      1560 8.41947E-03 8.41341E-04-3.20194E-14
 -1      1561 9.00930E-03 1.14017E-03-3.53194E-14
 -1      1562 8.83685E-03 1.05537E-03-3.42367E-14
 -1      1563 8.77701E-03 1.00951E-03-3.41425E-14
 -1      1564 9.33542E-03 1.30217E-03-3.75302E-14
 -1      1565 9.17543E-03 1.22318E-03-3.64171E-14
 -1      1566 9.11629E-03 1.18007E-03-3.63200E-14
 -1      1567 9.64002E-03 1.43842E-03-3.97978E-14
 -1      1568 9.49007E-03 1.37442E-03-3.86579E-14
 -1      1569 9.43717E-03 1.33477E-03-3.85560E-14
 -1      1570 9.93058E-03 1.53389E-03-4.21155E-14
 -1      1571 9.78641E-03 1.49168E-03-4.09505E-14
 -1      1572 9.74295E-03 1.45552E-03-4.08462E-14
 -1      1573 1.02176E-02 1.58275E-03-4.44789E-14
 -1      1574 1.00738E-02 1.56384E-03-4.32906E-14
 -1      1575 1.00407E-02 1.53025E-03-4.31832E-14
 -1      1576 1.05111E-02 1.59128E-03-4.68954E-14
 -1      1577 1.03629E-02 1.59112E-03-4.56794E-14
 -1      1578 1.03390E-02 1.55856E-03-4.55719E-14
 -1      1579 1.08172E-02 1.57515E-03-4.93701E-14
 -1      1580 1.06624E-02 1.58514E-03-4.81268E-14
 -1      1581 1.06449E-02 1.55219E-03-4.80146E-14
 -1      1582 1.11370E-02 1.55234E-03-5.18893E-14
 -1      1583 1.09755E-02 1.56360E-03-5.06243E-14
 -1      1584 1.09611E-02 1.52941E-03-5.05077E-14
 -1      1585 1.14671E-02 1.53724E-03-5.44454E-14
 -1      1586 1.13011E-02 1.54324E-03-5.31634E-14
 -1      1587 1.12864E-02 1.50763E-03-5.30414E-14
 -1      1588 1.18024E-02 1.53787E-03-5.70390E-14
 -1      1589 1.16345E-02 1.53540E-03-5.57373E-14
 -1      1590 1.16173E-02 1.49861E-03-5.56085E-14
 -1      1591 1.21377E-02 1.55651E-03-5.96644E-14
 -1      1592 1.19703E-02 1.54502E-03-5.83485E-14
 -1      1593 1.19494E-02 1.50752E-03-5.82133E-14
 -1      1594 1.24692E-02 1.59160E-03-6.23235E-14
 -1      1595 1.23041E-02 1.57221E-03-6.09896E-14
 -1      1596 1.22792E-02 1.53444E-03-6.08521E-14
 -1      1597 1.27944E-02 1.63981E-03-6.50208E-14
 -1      1598 1.26327E-02 1.61431E-03-6.36676E-14
 -1      1599 1.26042E-02 1.57665E-03-6.35281E-14
 -1      1600 1.31124E-02 1.69735E-03-6.77454E-14
 -1      1601 1.29543E-02 1.66764E-03-6.63790E-14
 -1      1602 1.29230E-02 1.63035E-03-6.62342E-14
 -1      1603 1.34229E-02 1.76071E-03-7.04841E-14
 -1      1604 1.32685E-02 1.72850E-03-6.91140E-14
 -1      1605 1.32352E-02 1.69172E-03-6.89629E-14
 -1      1606 1.37265E-02 1.82691E-03-7.32293E-14
 -1      1607 1.35755E-02 1.79361E-03-7.18569E-14
 -1      1608 1.35411E-02 1.75743E-03-7.17058E-14
 -1      1609 1.40242E-02 1.89355E-03-7.59908E-14
 -1      1610 1.38760E-02 1.86030E-03-7.46077E-14
 -1      1611 1.38411E-02 1.82473E-03-7.44561E-14
 -1      1612 1.43169E-02 1.95870E-03-7.87702E-14
 -1      1613 1.41710E-02 1.92640E-03-7.73770E-14
 -1      1614 1.41362E-02 1.89142E-03-7.72246E-14
 -1      1615 1.46059E-02 2.02094E-03-8.15641E-14
 -1      1616 1.44617E-02 1.99023E-03-8.01644E-14
 -1      1617 1.44273E-02 1.95579E-03-8.00092E-14
 -1      1618 1.48925E-02 2.07964E-03-8.43697E-14
 -1      1619 1.47494E-02 2.05071E-03-8.29677E-14
 -1      1620 1.47155E-02 2.01671E-03-8.28067E-14
 -1      1621 1.50343E-02 2.09822E-03-8.58148E-14
 -1      1622 1.49790E-02 1.99583E-03-8.58248E-14
 -1      1623 1.50054E-02 2.03751E-03-8.58669E-14
 -1      1624 1.49286E-02 1.91396E-03-8.57340E-14
 -1      1625 1.49534E-02 1.95460E-03-8.57803E-14
 -1      1626 1.48425E-02 1.95112E-03-8.45901E-14
 -1      1627 1.48808E-02 1.83488E-03-8.56397E-14
 -1      1628 1.49045E-02 1.87402E-03-8.56875E-14
 -1      1629 1.47933E-02 1.87019E-03-8.44971E-14
 -1      1630 1.48337E-02 1.75921E-03-8.55287E-14
 -1      1631 1.48573E-02 1.79660E-03-8.55889E-14
 -1      1632 1.47463E-02 1.79199E-03-8.43994E-14
 -1      1633 1.47861E-02 1.68824E-03-8.54010E-14
 -1      1634 1.48102E-02 1.72331E-03-8.54665E-14
 -1      1635 1.47000E-02 1.71747E-03-8.42868E-14
 -1      1636 1.47344E-02 1.61912E-03-8.52557E-14
 -1      1637 1.47608E-02 1.65333E-03-8.53305E-14
 -1      1638 1.46518E-02 1.64588E-03-8.41580E-14
 -1      1639 1.46777E-02 1.55226E-03-8.50895E-14
 -1      1640 1.47068E-02 1.58547E-03-8.51737E-14
 -1      1641 1.45993E-02 1.57618E-03-8.40124E-14
 -1      1642 1.46151E-02 1.48650E-03-8.49248E-14
 -1      1643 1.46472E-02 1.51932E-03-8.50078E-14
 -1      1644 1.45413E-02 1.50819E-03-8.38614E-14
 -1      1645 1.45461E-02 1.42051E-03-8.47600E-14
 -1      1646 1.45814E-02 1.45361E-03-8.48418E-14
 -1      1647 1.44771E-02 1.44088E-03-8.37059E-14
 -1      1648 1.44715E-02 1.35300E-03-8.46160E-14
 -1      1649 1.45095E-02 1.38702E-03-8.46825E-14
 -1      1650 1.44066E-02 1.37310E-03-8.35524E-14
 -1      1651 1.43938E-02 1.28405E-03-8.45018E-14
 -1      1652 1.44331E-02 1.31890E-03-8.45577E-14
 -1      1653 1.43310E-02 1.30436E-03-8.34181E-14
 -1      1654 1.43121E-02 1.21058E-03-8.43869E-14
 -1      1655 1.43532E-02 1.24777E-03-8.44474E-14
 -1      1656 1.42514E-02 1.23321E-03-8.32990E-14
 -1      1657 1.42300E-02 1.13348E-03-8.42623E-14
 -1      1658 1.42710E-02 1.17248E-03-8.43269E-14
 -1      1659 1.41689E-02 1.15847E-03-8.31785E-14
 -1      1660 1.41497E-02 1.05308E-03-8.41385E-14
 -1      1661 1.41895E-02 1.09365E-03-8.42007E-14
 -1      1662 1.40866E-02 1.08057E-03-8.30525E-14
 -1      1663 1.40384E-02 9.67497E-04-8.36291E-14
 -1      1664 1.40767E-02 1.00902E-03-8.36909E-14
 -1      1665 1.39726E-02 9.97106E-04-8.25425E-14
 -1      1666 1.38270E-02 9.09581E-04-8.16453E-14
 -1      1667 1.15659E-02 5.76268E-04-4.78177E-14
 -1      1668 1.15798E-02 5.35682E-04-4.78681E-14
 -1      1669 1.14354E-02 6.77407E-04-4.74564E-14
 -1      1670 1.15126E-02 6.29125E-04-4.76436E-14
 -1      1671 1.11759E-02 7.94256E-04-4.68881E-14
 -1      1672 1.13081E-02 7.34257E-04-4.72148E-14
 -1      1673 1.08712E-02 9.32312E-04-4.60204E-14
 -1      1674 1.10164E-02 8.71991E-04-4.64069E-14
 -1      1675 1.05287E-02 1.06085E-03-4.50323E-14
 -1      1676 1.06912E-02 1.00239E-03-4.55108E-14
 -1      1677 1.01668E-02 1.16175E-03-4.39082E-14
 -1      1678 1.03319E-02 1.11995E-03-4.44479E-14
 -1      1679 9.78209E-03 1.20768E-03-4.25951E-14
 -1      1680 9.96103E-03 1.19604E-03-4.32222E-14
 -1      1681 9.39753E-03 1.16483E-03-4.12649E-14
 -1      1682 9.57312E-03 1.19324E-03-4.18635E-14
 -1      1683 9.01220E-03 1.04986E-03-3.99852E-14
 -1      1684 9.19231E-03 1.11211E-03-4.05652E-14
 -1      1685 8.59119E-03 8.79093E-04-3.87611E-14
 -1      1686 8.78622E-03 9.63607E-04-3.93225E-14
 -1      1687 8.20000E-03 7.01333E-04-3.77276E-14
 -1      1688 8.37515E-03 7.81411E-04-3.81729E-14
 -1      1689 7.82940E-03 5.17755E-04-3.67778E-14
 -1      1690 8.00418E-03 5.94895E-04-3.71667E-14
 -1      1691 7.53434E-03 4.06107E-04-3.62670E-14
 -1      1692 7.65092E-03 4.57028E-04-3.64898E-14
 -1      1693 7.34679E-03 3.13573E-04-3.59484E-14
 -1      1694 7.42172E-03 3.53463E-04-3.60671E-14
 -1      1695 7.26515E-03 2.31450E-04-3.58523E-14
 -1      1696 7.28772E-03 2.67512E-04-3.58495E-14
 -1      1697 7.31015E-03 1.46726E-04-3.60787E-14
 -1      1698 7.27422E-03 1.87078E-04-3.59553E-14
 -1      1699 7.47791E-03 3.98829E-05-3.65167E-14
 -1      1700 7.38569E-03 9.44052E-05-3.62688E-14
 -1      1701 7.74365E-03-1.05927E-04-3.72536E-14
 -1      1702 7.60924E-03-3.62391E-05-3.68979E-14
 -1      1703 8.08315E-03-2.65163E-04-3.81555E-14
 -1      1704 7.92237E-03-1.88999E-04-3.77044E-14
 -1      1705 8.46898E-03-4.19776E-04-3.92928E-14
 -1      1706 8.28944E-03-3.50922E-04-3.87377E-14
 -1      1707 8.83529E-03-5.10393E-04-4.05223E-14
 -1      1708 8.66756E-03-4.78074E-04-3.99729E-14
 -1      1709 9.22325E-03-5.21671E-04-4.18352E-14
 -1      1710 9.04232E-03-5.29616E-04-4.12098E-14
 -1      1711 9.61459E-03-4.38016E-04-4.31110E-14
 -1      1712 9.43814E-03-4.84534E-04-4.25401E-14
 -1      1713 1.00139E-02-2.88553E-04-4.43117E-14
 -1      1714 9.82698E-03-3.65149E-04-4.37654E-14
 -1      1715 1.04188E-02-1.03290E-04-4.53997E-14
 -1      1716 1.02325E-02-1.91432E-04-4.49162E-14
 -1      1717 1.08102E-02 9.97948E-05-4.64119E-14
 -1      1718 1.06264E-02 1.00864E-05-4.59858E-14
 -1      1719 1.11606E-02 2.55075E-04-4.70979E-14
 -1      1720 1.10141E-02 1.84152E-04-4.67912E-14
 -1      1721 1.14180E-02 3.86060E-04-4.75845E-14
 -1      1722 1.13105E-02 3.29343E-04-4.73914E-14
 -1      1723 1.15576E-02 4.86430E-04-4.78168E-14
 -1      1724 1.15092E-02 4.43509E-04-4.77418E-14
 -1      1725 1.07326E-02 9.42152E-04-4.60646E-14
 -1      1726 1.10660E-02 7.92141E-04-4.70590E-14
 -1      1727 1.50008E-02 2.06443E-03-8.56550E-14
 -1      1728 1.48634E-02 2.01903E-03-8.44213E-14
 -1      1729 1.15439E-02 5.86804E-04-4.82075E-14
 -1      1730 1.13574E-02 6.71107E-04-4.77873E-14
 -1      1731 1.15785E-02 5.26846E-04-4.83337E-14
 -1      1732 1.03830E-02 1.08572E-03-4.49673E-14
 -1      1733 1.00314E-02 1.19604E-03-4.36949E-14
 -1      1734 9.68675E-03 1.22640E-03-4.22773E-14
 -1      1735 9.33101E-03 1.15582E-03-4.08486E-14
 -1      1736 8.95819E-03 1.00101E-03-3.94926E-14
 -1      1737 8.55177E-03 8.00115E-04-3.82513E-14
 -1      1738 8.15133E-03 5.89674E-04-3.71112E-14
 -1      1739 7.77890E-03 4.28466E-04-3.62722E-14
 -1      1740 7.48631E-03 3.30726E-04-3.57872E-14
 -1      1741 7.31065E-03 2.62880E-04-3.54860E-14
 -1      1742 7.26192E-03 2.12429E-04-3.54842E-14
 -1      1743 7.35210E-03 1.46269E-04-3.57691E-14
 -1      1744 7.56652E-03 4.00469E-05-3.63303E-14
 -1      1745 7.87554E-03-1.15617E-04-3.71564E-14
 -1      1746 8.23829E-03-2.96738E-04-3.81843E-14
 -1      1747 8.59881E-03-4.58846E-04-3.94434E-14
 -1      1748 8.95242E-03-5.46067E-04-4.08098E-14
 -1      1749 9.29620E-03-5.27733E-04-4.22036E-14
 -1      1750 9.66492E-03-4.06829E-04-4.35664E-14
 -1      1751 1.00515E-02-2.18888E-04-4.48300E-14
 -1      1752 1.04566E-02 3.76384E-06-4.60250E-14
 -1      1753 1.08588E-02 2.05335E-04-4.69943E-14
 -1      1754 1.12138E-02 3.53733E-04-4.76701E-14
 -1      1755 1.14619E-02 4.57124E-04-4.81246E-14
 -1      1756 2.85105E-04-1.76250E-04-2.09115E-17
 -1      1757 3.32142E-04-1.16853E-04-1.05235E-16
 -1      1758 3.36261E-04-1.33096E-04-9.61958E-17
 -1      1759 3.42118E-04-1.52075E-04-8.54622E-17
 -1      1760 3.51637E-04-1.74065E-04-7.11914E-17
 -1      1761 4.58225E-04-1.88155E-04-1.38886E-16
 -1      1762 3.24632E-04-6.54451E-05-1.26011E-16
 -1      1763 3.25756E-04-7.67412E-05-1.22352E-16
 -1      1764 3.23184E-04-4.39348E-05-1.31094E-16
 -1      1765 3.23819E-04-5.44329E-05-1.28776E-16
 -1      1766 4.36620E-04-7.93516E-05-1.88312E-16
 -1      1767 3.22426E-04-2.37969E-05-1.34333E-16
 -1      1768 3.22746E-04-3.37202E-05-1.32788E-16
 -1      1769 4.34676E-04-5.13570E-05-1.94601E-16
 -1      1770 3.22143E-04-4.34200E-06-1.36149E-16
 -1      1771 3.22236E-04-1.40045E-05-1.35363E-16
 -1      1772 4.33685E-04-2.49430E-05-1.98653E-16
 -1      1773 3.22261E-04 1.49963E-05-1.36637E-16
 -1      1774 3.22151E-04 5.32384E-06-1.36650E-16
 -1      1775 4.33397E-04 7.57758E-07-2.00835E-16
 -1      1776 3.22809E-04 3.47647E-05-1.35688E-16
 -1      1777 3.22468E-04 2.48093E-05-1.36366E-16
 -1      1778 4.33742E-04 2.64870E-05-2.00998E-16
 -1      1779 3.23906E-04 5.52189E-05-1.33018E-16
 -1      1780 3.23260E-04 4.48483E-05-1.34753E-16
 -1      1781 4.34789E-04 5.27603E-05-1.99114E-16
 -1      1782 3.25918E-04 7.78834E-05-1.28383E-16
 -1      1783 3.24744E-04 6.62965E-05-1.31012E-16
 -1      1784 4.36797E-04 8.06551E-05-1.94912E-16
 -1      1785 3.29550E-04 1.03728E-04-1.20130E-16
 -1      1786 3.27432E-04 9.03756E-05-1.24819E-16
 -1      1787 4.40380E-04 1.11636E-04-1.87215E-16
 -1      1788 3.36518E-04 1.35181E-04-1.07092E-16
 -1      1789 3.32370E-04 1.18687E-04-1.14641E-16
 -1      1790 4.46769E-04 1.47408E-04-1.74882E-16
 -1      1791 3.52173E-04 1.77654E-04-8.52183E-17
 -1      1792 3.42713E-04 1.54821E-04-9.75782E-17
 -1      1793 4.59209E-04 1.91518E-04-1.54905E-16
 -1      1794 4.07511E-04 2.33710E-04-7.16251E-17
 -1      1795 3.77933E-04 2.02702E-04-8.13965E-17
 -1      1796 4.95666E-04 2.44034E-04-1.37585E-16
 -1      1797 5.58283E-04 3.02514E-04-1.24941E-16
 -1      1798 3.39870E-04-1.90945E-04-4.61735E-17
 -1      1799 8.53149E-04 4.07055E-04-3.03035E-16
 -1      1800 7.06824E-04 3.59359E-04-2.02529E-16
 -1      1801 6.73107E-04 3.28809E-04-2.10728E-16
 -1      1802 4.58763E-04-2.36755E-04-9.07477E-17
 -1      1803 8.06870E-04-3.74075E-04-2.58758E-16
 -1      1804 9.52066E-04-4.15201E-04-3.69550E-16
 -1      1805 1.09483E-03-4.49810E-04-5.02189E-16
 -1      1806 1.23643E-03-4.78603E-04-6.57148E-16
 -1      1807 1.00356E-03-3.97798E-04-4.67671E-16
 -1      1808 1.37676E-03-5.02957E-04-8.33806E-16
 -1      1809 1.51637E-03-5.23168E-04-1.03268E-15
 -1      1810 1.28913E-03-4.55558E-04-7.83946E-16
 -1      1811 1.65546E-03-5.40149E-04-1.25353E-15
 -1      1812 1.79423E-03-5.54137E-04-1.49605E-15
 -1      1813 1.57143E-03-4.96179E-04-1.18709E-15
 -1      1814 1.93289E-03-5.65733E-04-1.75982E-15
 -1      1815 2.07149E-03-5.75136E-04-2.04535E-15
 -1      1816 1.85195E-03-5.24249E-04-1.67634E-15
 -1      1817 2.21019E-03-5.82756E-04-2.35242E-15
 -1      1818 2.34900E-03-5.88758E-04-2.67963E-15
 -1      1819 2.13179E-03-5.43062E-04-2.25098E-15
 -1      1820 2.48802E-03-5.93428E-04-3.02761E-15
 -1      1821 2.62725E-03-5.96900E-04-3.39655E-15
 -1      1822 2.41164E-03-5.55017E-04-2.90890E-15
 -1      1823 2.76675E-03-5.99373E-04-3.78576E-15
 -1      1824 2.90650E-03-6.00955E-04-4.19403E-15
 -1      1825 2.69194E-03-5.61882E-04-3.64848E-15
 -1      1826 3.04656E-03-6.01780E-04-4.62167E-15
 -1      1827 3.18689E-03-6.01932E-04-5.06763E-15
 -1      1828 2.97294E-03-5.64949E-04-4.46739E-15
 -1      1829 3.32755E-03-6.01501E-04-5.53266E-15
 -1      1830 3.46849E-03-6.00547E-04-6.01683E-15
 -1      1831 3.25479E-03-5.65149E-04-5.36120E-15
 -1      1832 3.60977E-03-5.99126E-04-6.51896E-15
 -1      1833 3.75136E-03-5.97286E-04-7.03914E-15
 -1      1834 3.53758E-03-5.63132E-04-6.33016E-15
 -1      1835 3.89329E-03-5.95054E-04-7.57710E-15
 -1      1836 4.03556E-03-5.92468E-04-8.13351E-15
 -1      1837 3.82141E-03-5.59335E-04-7.37192E-15
 -1      1838 4.17820E-03-5.89539E-04-8.70811E-15
 -1      1839 4.32124E-03-5.86300E-04-9.30054E-15
 -1      1840 4.10636E-03-5.54037E-04-8.48556E-15
 -1      1841 4.46468E-03-5.82750E-04-9.91016E-15
 -1      1842 4.60857E-03-5.78923E-04-1.05372E-14
 -1      1843 4.39256E-03-5.47417E-04-9.67125E-15
 -1      1844 4.75294E-03-5.74819E-04-1.11823E-14
 -1      1845 4.89786E-03-5.70478E-04-1.18435E-14
 -1      1846 4.68021E-03-5.39600E-04-1.09269E-14
 -1      1847 5.04334E-03-5.65909E-04-1.25211E-14
 -1      1848 5.18949E-03-5.61167E-04-1.32153E-14
 -1      1849 4.96955E-03-5.30723E-04-1.22501E-14
 -1      1850 5.33632E-03-5.56283E-04-1.39267E-14
 -1      1851 5.48396E-03-5.51338E-04-1.46533E-14
 -1      1852 5.26093E-03-5.21000E-04-1.36402E-14
 -1      1853 5.63242E-03-5.46402E-04-1.53953E-14
 -1      1854 5.72340E-03-5.16358E-04-1.60719E-14
 -1      1855 5.55477E-03-5.10814E-04-1.50952E-14
 -1      1856 5.80650E-03-4.77825E-04-1.67289E-14
 -1      1857 5.89236E-03-4.38273E-04-1.74015E-14
 -1      1858 5.78202E-03-4.67451E-04-1.65091E-14
 -1      1859 5.97176E-03-4.03729E-04-1.80773E-14
 -1      1860 6.04763E-03-3.73064E-04-1.87583E-14
 -1      1861 5.93031E-03-4.00386E-04-1.78228E-14
 -1      1862 6.11897E-03-3.51424E-04-1.94614E-14
 -1      1863 6.18094E-03-3.33630E-04-2.01896E-14
 -1      1864 6.06131E-03-3.52915E-04-1.91833E-14
 -1      1865 6.23350E-03-3.42760E-04-2.09555E-14
 -1      1866 6.24578E-03-3.90957E-04-2.17742E-14
 -1      1867 6.16039E-03-3.43743E-04-2.06236E-14
 -1      1868 6.27025E-03-5.14461E-04-2.26284E-14
 -1      1869 6.24098E-03-6.85500E-04-2.33255E-14
 -1      1870 6.21127E-03-4.55368E-04-2.22027E-14
 -1      1871 6.28218E-03-7.62799E-04-2.41544E-14
 -1      1872 6.55158E-03-7.81948E-04-2.53147E-14
 -1      1873 6.24495E-03-6.12248E-04-2.38259E-14
 -1      1874 6.77651E-03-7.75719E-04-2.64574E-14
 -1      1875 6.94988E-03-7.48233E-04-2.75797E-14
 -1      1876 6.48740E-03-7.25790E-04-2.57700E-14
 -1      1877 7.12541E-03-7.35913E-04-2.87358E-14
 -1      1878 7.29015E-03-7.23311E-04-2.98989E-14
 -1      1879 6.94593E-03-6.80889E-04-2.81680E-14
 -1      1880 7.46111E-03-7.20659E-04-3.10674E-14
 -1      1881 7.62929E-03-7.24313E-04-3.22406E-14
 -1      1882 7.33321E-03-6.63898E-04-3.05240E-14
 -1      1883 7.80092E-03-7.35305E-04-3.34191E-14
 -1      1884 7.96990E-03-7.51194E-04-3.46020E-14
 -1      1885 7.69911E-03-6.74917E-04-3.28805E-14
 -1      1886 8.13856E-03-7.69033E-04-3.57911E-14
 -1      1887 8.30398E-03-7.84755E-04-3.69866E-14
 -1      1888 8.05648E-03-7.11190E-04-3.52502E-14
 -1      1889 8.46652E-03-7.93878E-04-3.81871E-14
 -1      1890 8.62668E-03-7.91898E-04-3.93930E-14
 -1      1891 8.40148E-03-7.48526E-04-3.76388E-14
 -1      1892 8.78372E-03-7.75395E-04-4.06042E-14
 -1      1893 8.94097E-03-7.41876E-04-4.18226E-14
 -1      1894 8.73189E-03-7.49492E-04-4.00485E-14
 -1      1895 9.09731E-03-6.90772E-04-4.30464E-14
 -1      1896 9.25645E-03-6.23985E-04-4.42749E-14
 -1      1897 9.05425E-03-6.83146E-04-4.24823E-14
 -1      1898 9.41719E-03-5.43977E-04-4.55093E-14
 -1      1899 9.58134E-03-4.54618E-04-4.67469E-14
 -1      1900 9.38031E-03-5.46157E-04-4.49365E-14
 -1      1901 9.74818E-03-3.59828E-04-4.79901E-14
 -1      1902 9.91717E-03-2.63610E-04-4.92365E-14
 -1      1903 9.71709E-03-3.63118E-04-4.74113E-14
 -1      1904 1.00883E-02-1.69177E-04-5.04865E-14
 -1      1905 1.02597E-02-7.88695E-05-5.17416E-14
 -1      1906 1.00624E-02-1.68173E-04-4.99046E-14
 -1      1907 1.04320E-02 5.57217E-06-5.29992E-14
 -1      1908 1.06032E-02 8.34368E-05-5.42610E-14
 -1      1909 1.04093E-02 1.24789E-05-5.24127E-14
 -1      1910 1.07740E-02 1.54336E-04-5.55306E-14
 -1      1911 1.09431E-02 2.18516E-04-5.68045E-14
 -1      1912 1.07518E-02 1.66738E-04-5.49404E-14
 -1      1913 1.11110E-02 2.76423E-04-5.80859E-14
 -1      1914 1.12769E-02 3.28668E-04-5.93726E-14
 -1      1915 1.10871E-02 2.93206E-04-5.74908E-14
 -1      1916 1.14412E-02 3.76040E-04-6.06655E-14
 -1      1917 1.16035E-02 4.19194E-04-6.19634E-14
 -1      1918 1.14143E-02 3.95972E-04-6.00653E-14
 -1      1919 1.17640E-02 4.58946E-04-6.32668E-14
 -1      1920 1.19226E-02 4.95868E-04-6.45747E-14
 -1      1921 1.17338E-02 4.80900E-04-6.26631E-14
 -1      1922 1.20795E-02 5.30657E-04-6.58837E-14
 -1      1923 1.22347E-02 5.63771E-04-6.71984E-14
 -1      1924 1.20463E-02 5.53685E-04-6.52793E-14
 -1      1925 1.23882E-02 5.95754E-04-6.85208E-14
 -1      1926 1.25403E-02 6.26964E-04-6.98462E-14
 -1      1927 1.23529E-02 6.19100E-04-6.79112E-14
 -1      1928 1.26910E-02 6.57806E-04-7.11750E-14
 -1      1929 1.28405E-02 6.88560E-04-7.25092E-14
 -1      1930 1.26542E-02 6.80880E-04-7.05645E-14
 -1      1931 1.29887E-02 7.19522E-04-7.38471E-14
 -1      1932 1.31360E-02 7.50920E-04-7.51865E-14
 -1      1933 1.29511E-02 7.41862E-04-7.32309E-14
 -1      1934 1.32822E-02 7.82959E-04-7.65317E-14
 -1      1935 1.34276E-02 8.15831E-04-7.78764E-14
 -1      1936 1.32443E-02 8.04200E-04-7.59145E-14
 -1      1937 1.35557E-02 8.44404E-04-7.90802E-14
 -1      1938 1.36999E-02 8.79197E-04-8.04326E-14
 -1      1939 1.37727E-02 9.22877E-04-8.08792E-14
 -1      1940 1.35178E-02 8.64374E-04-7.84632E-14
 -1      1941 1.13803E-03 4.79871E-04-5.71849E-16
 -1      1942 9.96349E-04 4.46704E-04-4.25820E-16
 -1      1943 9.64037E-04 4.17272E-04-4.33857E-16
 -1      1944 1.41698E-03 5.31106E-04-9.31221E-16
 -1      1945 1.27791E-03 5.07794E-04-7.40239E-16
 -1      1946 1.24837E-03 4.79686E-04-7.46853E-16
 -1      1947 1.69318E-03 5.67029E-04-1.38026E-15
 -1      1948 1.55524E-03 5.50738E-04-1.14477E-15
 -1      1949 1.52849E-03 5.23603E-04-1.14908E-15
 -1      1950 1.96858E-03 5.91781E-04-1.91642E-15
 -1      1951 1.83088E-03 5.80633E-04-1.63736E-15
 -1      1952 1.80660E-03 5.54145E-04-1.63908E-15
 -1      1953 2.24427E-03 6.08273E-04-2.53904E-15
 -1      1954 2.10634E-03 6.00937E-04-2.21704E-15
 -1      1955 2.08410E-03 5.74865E-04-2.21547E-15
 -1      1956 2.52085E-03 6.18627E-04-3.24632E-15
 -1      1957 2.38243E-03 6.14127E-04-2.88223E-15
 -1      1958 2.36184E-03 5.88314E-04-2.87736E-15
 -1      1959 2.79861E-03 6.24407E-04-4.03678E-15
 -1      1960 2.65958E-03 6.22022E-04-3.63124E-15
 -1      1961 2.64031E-03 5.96364E-04-3.62264E-15
 -1      1962 3.07769E-03 6.26756E-04-4.90805E-15
 -1      1963 2.93799E-03 6.25961E-04-4.46195E-15
 -1      1964 2.91975E-03 6.00387E-04-4.44928E-15
 -1      1965 3.35814E-03 6.26500E-04-5.85901E-15
 -1      1966 3.21774E-03 6.26919E-04-5.37393E-15
 -1      1967 3.20030E-03 6.01382E-04-5.35586E-15
 -1      1968 3.63998E-03 6.24214E-04-6.89089E-15
 -1      1969 3.49889E-03 6.25586E-04-6.36493E-15
 -1      1970 3.48204E-03 6.00055E-04-6.34216E-15
 -1      1971 3.92328E-03 6.20295E-04-8.00251E-15
 -1      1972 3.78145E-03 6.22441E-04-7.43638E-15
 -1      1973 3.76502E-03 5.96894E-04-7.40773E-15
 -1      1974 4.20810E-03 6.15008E-04-9.19550E-15
 -1      1975 4.06549E-03 6.17808E-04-8.58894E-15
 -1      1976 4.04931E-03 5.92225E-04-8.55403E-15
 -1      1977 4.49462E-03 6.08547E-04-1.04650E-14
 -1      1978 4.35113E-03 6.11910E-04-9.82111E-15
 -1      1979 4.33504E-03 5.86269E-04-9.78036E-15
 -1      1980 4.78306E-03 6.01090E-04-1.18083E-14
 -1      1981 4.63858E-03 6.04925E-04-1.11279E-14
 -1      1982 4.62238E-03 5.79200E-04-1.10810E-14
 -1      1983 5.07378E-03 5.92862E-04-1.32206E-14
 -1      1984 4.92811E-03 5.97047E-04-1.25059E-14
 -1      1985 4.91160E-03 5.71197E-04-1.24535E-14
 -1      1986 5.36721E-03 5.84216E-04-1.47027E-14
 -1      1987 5.22012E-03 5.88555E-04-1.39522E-14
 -1      1988 5.20304E-03 5.62523E-04-1.38949E-14
 -1      1989 5.66388E-03 5.75718E-04-1.62541E-14
 -1      1990 5.51509E-03 5.79894E-04-1.54704E-14
 -1      1991 5.49712E-03 5.53600E-04-1.54059E-14
 -1      1992 5.96441E-03 5.68267E-04-1.78684E-14
 -1      1993 5.81361E-03 5.71784E-04-1.70533E-14
 -1      1994 5.79437E-03 5.45115E-04-1.69837E-14
 -1      1995 6.26943E-03 5.63220E-04-1.95449E-14
 -1      1996 6.11630E-03 5.65335E-04-1.86996E-14
 -1      1997 6.09533E-03 5.38141E-04-1.86245E-14
 -1      1998 6.57952E-03 5.62534E-04-2.12814E-14
 -1      1999 6.42379E-03 5.62190E-04-2.04056E-14
 -1      2000 6.40060E-03 5.34275E-04-2.03254E-14
 -1      2001 6.89507E-03 5.68872E-04-2.30795E-14
 -1      2002 6.73658E-03 5.64650E-04-2.21731E-14
 -1      2003 6.71069E-03 5.35770E-04-2.20872E-14
 -1      2004 7.21613E-03 5.85609E-04-2.49407E-14
 -1      2005 7.05493E-03 5.75743E-04-2.40012E-14
 -1      2006 7.02596E-03 5.45621E-04-2.39087E-14
 -1      2007 7.54212E-03 6.16592E-04-2.68589E-14
 -1      2008 7.37860E-03 5.99133E-04-2.58924E-14
 -1      2009 7.34646E-03 5.67496E-04-2.57922E-14
 -1      2010 7.87163E-03 6.65454E-04-2.88369E-14
 -1      2011 7.70663E-03 6.38679E-04-2.78417E-14
 -1      2012 7.67168E-03 6.05350E-04-2.77344E-14
 -1      2013 8.20215E-03 7.34227E-04-3.08610E-14
 -1      2014 8.03708E-03 6.97429E-04-2.98427E-14
 -1      2015 8.00036E-03 6.62495E-04-2.97306E-14
 -1      2016 8.55287E-03 8.83469E-04-3.29585E-14
 -1      2017 8.37689E-03 8.03782E-04-3.19025E-14
 -1      2018 8.33624E-03 7.67478E-04-3.17855E-14
 -1      2019 8.89804E-03 1.05535E-03-3.51031E-14
 -1      2020 8.72714E-03 9.68824E-04-3.40235E-14
 -1      2021 8.68060E-03 9.28803E-04-3.39034E-14
 -1      2022 9.23056E-03 1.22317E-03-3.73070E-14
 -1      2023 9.06633E-03 1.14092E-03-3.61977E-14
 -1      2024 9.01968E-03 1.10189E-03-3.60746E-14
 -1      2025 9.54844E-03 1.36677E-03-3.95654E-14
 -1      2026 9.39114E-03 1.29900E-03-3.84292E-14
 -1      2027 9.34764E-03 1.26314E-03-3.83028E-14
 -1      2028 9.85529E-03 1.46896E-03-4.18767E-14
 -1      2029 9.70261E-03 1.42359E-03-4.07151E-14
 -1      2030 9.66366E-03 1.39167E-03-4.05840E-14
 -1      2031 1.01583E-02 1.52200E-03-4.42371E-14
 -1      2032 1.00065E-02 1.50140E-03-4.30503E-14
 -1      2033 9.97230E-03 1.47265E-03-4.29156E-14
 -1      2034 1.04650E-02 1.53147E-03-4.66491E-14
 -1      2035 1.03106E-02 1.53125E-03-4.54366E-14
 -1      2036 1.02809E-02 1.50393E-03-4.52996E-14
 -1      2037 1.07796E-02 1.51382E-03-4.91139E-14
 -1      2038 1.06211E-02 1.52487E-03-4.78759E-14
 -1      2039 1.05954E-02 1.49731E-03-4.77349E-14
 -1      2040 1.11026E-02 1.48840E-03-5.16232E-14
 -1      2041 1.09402E-02 1.50111E-03-5.03626E-14
 -1      2042 1.09176E-02 1.47243E-03-5.02183E-14
 -1      2043 1.14313E-02 1.47074E-03-5.41681E-14
 -1      2044 1.12666E-02 1.47805E-03-5.28912E-14
 -1      2045 1.12456E-02 1.44810E-03-5.27412E-14
 -1      2046 1.17619E-02 1.46948E-03-5.67500E-14
 -1      2047 1.15967E-02 1.46790E-03-5.54552E-14
 -1      2048 1.15759E-02 1.43695E-03-5.52994E-14
 -1      2049 1.20909E-02 1.48706E-03-5.93670E-14
 -1      2050 1.19268E-02 1.47601E-03-5.80542E-14
 -1      2051 1.19049E-02 1.44445E-03-5.78953E-14
 -1      2052 1.24160E-02 1.52185E-03-6.20208E-14
 -1      2053 1.22541E-02 1.50252E-03-6.06889E-14
 -1      2054 1.22302E-02 1.47067E-03-6.05260E-14
 -1      2055 1.27356E-02 1.57033E-03-6.47072E-14
 -1      2056 1.25766E-02 1.54462E-03-6.33594E-14
 -1      2057 1.25504E-02 1.51274E-03-6.31920E-14
 -1      2058 1.30492E-02 1.62855E-03-6.74236E-14
 -1      2059 1.28932E-02 1.59844E-03-6.60626E-14
 -1      2060 1.28649E-02 1.56672E-03-6.58900E-14
 -1      2061 1.33568E-02 1.69282E-03-7.01559E-14
 -1      2062 1.32037E-02 1.66011E-03-6.87868E-14
 -1      2063 1.31737E-02 1.62867E-03-6.86126E-14
 -1      2064 1.36588E-02 1.76007E-03-7.29002E-14
 -1      2065 1.35084E-02 1.72622E-03-7.15292E-14
 -1      2066 1.34771E-02 1.69515E-03-7.13496E-14
 -1      2067 1.39559E-02 1.82779E-03-7.56605E-14
 -1      2068 1.38079E-02 1.79398E-03-7.42779E-14
 -1      2069 1.37757E-02 1.76334E-03-7.40991E-14
 -1      2070 1.42488E-02 1.89401E-03-7.84361E-14
 -1      2071 1.41028E-02 1.86117E-03-7.70461E-14
 -1      2072 1.40702E-02 1.83100E-03-7.68656E-14
 -1      2073 1.45385E-02 1.95724E-03-8.12211E-14
 -1      2074 1.43940E-02 1.92605E-03-7.98277E-14
 -1      2075 1.43613E-02 1.89637E-03-7.96455E-14
 -1      2076 1.47730E-02 2.00341E-03-8.35233E-14
 -1      2077 1.46294E-02 1.97384E-03-8.21210E-14
 -1      2078 1.45968E-02 1.94456E-03-8.19377E-14
 -1      2079 1.47780E-02 1.97687E-03-8.37359E-14
 -1      2080 1.46121E-02 1.74777E-03-8.31629E-14
 -1      2081 1.46351E-02 1.78621E-03-8.32133E-14
 -1      2082 1.46583E-02 1.82539E-03-8.32632E-14
 -1      2083 1.46819E-02 1.86521E-03-8.33102E-14
 -1      2084 1.45234E-02 1.77960E-03-8.20290E-14
 -1      2085 1.47168E-02 1.90022E-03-8.35009E-14
 -1      2086 1.47418E-02 1.94112E-03-8.35462E-14
 -1      2087 1.46513E-02 1.92504E-03-8.26483E-14
 -1      2088 1.45809E-02 1.85415E-03-8.22674E-14
 -1      2089 1.45664E-02 1.67422E-03-8.30482E-14
 -1      2090 1.45894E-02 1.71066E-03-8.31065E-14
 -1      2091 1.44784E-02 1.70308E-03-8.19269E-14
 -1      2092 1.45174E-02 1.60202E-03-8.29203E-14
 -1      2093 1.45423E-02 1.63783E-03-8.29849E-14
 -1      2094 1.44324E-02 1.62921E-03-8.18113E-14
 -1      2095 1.44640E-02 1.53193E-03-8.27817E-14
 -1      2096 1.44913E-02 1.56677E-03-8.28530E-14
 -1      2097 1.43830E-02 1.55710E-03-8.16875E-14
 -1      2098 1.44047E-02 1.46318E-03-8.26417E-14
 -1      2099 1.44351E-02 1.49747E-03-8.27107E-14
 -1      2100 1.43285E-02 1.48684E-03-8.15557E-14
 -1      2101 1.43388E-02 1.39479E-03-8.24908E-14
 -1      2102 1.43726E-02 1.42903E-03-8.25664E-14
 -1      2103 1.42678E-02 1.41763E-03-8.14187E-14
 -1      2104 1.42665E-02 1.32575E-03-8.23503E-14
 -1      2105 1.43034E-02 1.36044E-03-8.24214E-14
 -1      2106 1.42002E-02 1.34855E-03-8.12806E-14
 -1      2107 1.41901E-02 1.25631E-03-8.22214E-14
 -1      2108 1.42289E-02 1.29130E-03-8.22838E-14
 -1      2109 1.41268E-02 1.27923E-03-8.11480E-14
 -1      2110 1.41085E-02 1.18335E-03-8.20966E-14
 -1      2111 1.41497E-02 1.22017E-03-8.21583E-14
 -1      2112 1.40481E-02 1.20824E-03-8.10186E-14
 -1      2113 1.40253E-02 1.10757E-03-8.19718E-14
 -1      2114 1.40670E-02 1.14582E-03-8.20346E-14
 -1      2115 1.39653E-02 1.13428E-03-8.08919E-14
 -1      2116 1.39428E-02 1.02887E-03-8.18434E-14
 -1      2117 1.39838E-02 1.06856E-03-8.19076E-14
 -1      2118 1.38814E-02 1.05756E-03-8.07644E-14
 -1      2119 1.12939E-02 6.68695E-04-4.82718E-14
 -1      2120 1.14181E-02 6.27697E-04-4.85183E-14
 -1      2121 1.15918E-02 5.51422E-04-4.89703E-14
 -1      2122 1.15694E-02 5.36744E-04-4.89214E-14
 -1      2123 1.15078E-02 5.96055E-04-4.86950E-14
 -1      2124 1.15680E-02 5.75417E-04-4.88725E-14
 -1      2125 1.14677E-02 6.12794E-04-4.91810E-14
 -1      2126 1.09541E-02 8.09266E-04-4.72659E-14
 -1      2127 1.11107E-02 7.40796E-04-4.77512E-14
 -1      2128 1.06205E-02 9.65207E-04-4.61788E-14
 -1      2129 1.07809E-02 8.88926E-04-4.66917E-14
 -1      2130 3.27200E-04-8.90402E-05-1.17758E-16
 -1      2131 3.29255E-04-1.02213E-04-1.11917E-16
 -1      2132 4.46273E-04-1.45178E-04-1.62468E-16
 -1      2133 4.40056E-04-1.10007E-04-1.77931E-16
 -1      2134 9.94789E-03 1.22765E-03-4.35342E-14
 -1      2135 1.00996E-02 1.18444E-03-4.42212E-14
 -1      2136 9.61137E-03 1.23875E-03-4.19056E-14
 -1      2137 9.75773E-03 1.24928E-03-4.26356E-14
 -1      2138 9.31182E-03 1.14498E-03-4.05098E-14
 -1      2139 9.46122E-03 1.20394E-03-4.12055E-14
 -1      2140 9.55929E-03 1.23274E-03-4.15612E-14
 -1      2141 8.91627E-03 9.40543E-04-3.89345E-14
 -1      2142 9.09262E-03 1.03959E-03-3.95874E-14
 -1      2143 8.51848E-03 7.15785E-04-3.76510E-14
 -1      2144 8.70646E-03 8.23342E-04-3.82297E-14
 -1      2145 8.13012E-03 5.10449E-04-3.65440E-14
 -1      2146 8.32148E-03 6.11865E-04-3.70966E-14
 -1      2147 8.46139E-03 6.44190E-04-3.70753E-14
 -1      2148 7.70577E-03 3.47997E-04-3.56808E-14
 -1      2149 7.87703E-03 4.02497E-04-3.59621E-14
 -1      2150 7.44088E-03 2.74528E-04-3.52509E-14
 -1      2151 7.55511E-03 3.04922E-04-3.54516E-14
 -1      2152 7.28355E-03 2.28903E-04-3.48887E-14
 -1      2153 7.34292E-03 2.42356E-04-3.49916E-14
 -1      2154 7.26588E-03 2.01317E-04-3.49779E-14
 -1      2155 7.25345E-03 2.12852E-04-3.48819E-14
 -1      2156 7.39243E-03 1.46285E-04-3.53703E-14
 -1      2157 7.31463E-03 1.76275E-04-3.51890E-14
 -1      2158 7.65361E-03 2.94477E-05-3.60323E-14
 -1      2159 7.52110E-03 9.08914E-05-3.56596E-14
 -1      2160 7.97658E-03-1.38736E-04-3.70038E-14
 -1      2161 7.81339E-03-5.33568E-05-3.65580E-14
 -1      2162 8.34390E-03-3.37487E-04-3.81740E-14
 -1      2163 8.17104E-03-2.42518E-04-3.75959E-14
 -1      2164 8.70599E-03-5.06012E-04-3.96322E-14
 -1      2165 8.54975E-03-4.38241E-04-3.89538E-14
 -1      2166 9.00796E-03-5.71816E-04-4.10036E-14
 -1      2167 8.86105E-03-5.49909E-04-4.03171E-14
 -1      2168 8.77710E-03-5.39881E-04-3.98238E-14
 -1      2169 9.35634E-03-5.19823E-04-4.26545E-14
 -1      2170 9.20509E-03-5.60219E-04-4.19470E-14
 -1      2171 9.67567E-03-3.76778E-04-4.39712E-14
 -1      2172 9.51384E-03-4.59604E-04-4.33129E-14
 -1      2173 9.40209E-03-4.97880E-04-4.30566E-14
 -1      2174 1.00816E-02-1.43956E-04-4.54163E-14
 -1      2175 9.89909E-03-2.53158E-04-4.48072E-14
 -1      2176 1.04897E-02 9.01264E-05-4.66275E-14
 -1      2177 1.02949E-02-2.51312E-05-4.60385E-14
 -1      2178 1.09243E-02 3.12509E-04-4.77862E-14
 -1      2179 1.07339E-02 2.30774E-04-4.74037E-14
 -1      2180 1.12468E-02 4.31584E-04-4.83843E-14
 -1      2181 1.10932E-02 3.76811E-04-4.80860E-14
 -1      2182 1.09887E-02 3.81736E-04-4.84972E-14
 -1      2183 1.15030E-02 5.09057E-04-4.87669E-14
 -1      2184 1.14088E-02 4.81302E-04-4.86072E-14
 -1      2185 1.02820E-02 1.11762E-03-4.50052E-14
 -1      2186 1.04382E-02 1.04653E-03-4.55925E-14
 -1      2187 1.05218E-02 1.00539E-03-4.62163E-14
 -1      2188 6.07621E-04-2.98143E-04-1.52913E-16
 -1      2189 1.01910E-02 1.15766E-03-4.48421E-14
 -1      2190 6.63367E-04-2.92427E-04-2.15756E-16
 -1      2191 1.15914E-02 5.73683E-04-4.94584E-14
 -1      2192 1.12082E-02 6.99265E-04-4.84787E-14
 -1      2193 1.38688E-02 9.86075E-04-8.13973E-14
 -1      2194 1.15426E-02 5.46135E-04-4.94026E-14
 -1      2195 1.08592E-02 8.44442E-04-4.73802E-14
 -1      2196 1.13186E-02 4.86852E-04-4.90244E-14
 -1      2197 1.05946E-02 1.90628E-04-4.74166E-14
 -1      2198 9.74581E-03-3.15928E-04-4.45538E-14
 -1      2199 9.09346E-03-5.79642E-04-4.14509E-14
 -1      2200 8.44985E-03-3.96016E-04-3.83589E-14
 -1      2201 8.07392E-03-1.87974E-04-3.69909E-14
 -1      2202 7.73135E-03-4.59728E-06-3.58773E-14
 -1      2203 7.44993E-03 1.23628E-04-3.50713E-14
 -1      2204 7.28074E-03 1.88217E-04-3.45806E-14
 -1      2205 7.25946E-03 2.06958E-04-3.43859E-14
 -1      2206 7.39021E-03 2.31217E-04-3.46559E-14
 -1      2207 8.02380E-03 4.29101E-04-3.59465E-14
 -1      2208 8.16028E-03 4.64684E-04-3.59278E-14
 -1      2209 7.92374E-03 3.63119E-04-3.53535E-14
 -1      2210 9.23176E-03 1.09770E-03-3.99414E-14
 -1      2211 9.85293E-03 1.25120E-03-4.31573E-14
 -1      2212 8.84138E-03 8.67972E-04-3.83245E-14
 -1      2213 7.63626E-03 2.92892E-04-3.51433E-14
 -1      2214 1.01497E-02-6.82272E-05-4.60164E-14
 -1      2215 1.01621E-03 3.99691E-04-5.34064E-16
 -1      2216 8.71803E-04 3.63378E-04-3.96832E-16
 -1      2217 5.48004E-04-5.53332E-05-2.78017E-16
 -1      2218 5.49019E-04-7.20602E-05-2.74615E-16
 -1      2219 5.50411E-04-8.93930E-05-2.70292E-16
 -1      2220 5.52238E-04-1.07388E-04-2.64871E-16
 -1      2221 6.65514E-04-9.55219E-05-3.69455E-16
 -1      2222 5.46654E-04 8.86172E-06-2.84955E-16
 -1      2223 5.46635E-04-6.98542E-06-2.84169E-16
 -1      2224 5.47392E-04 4.08918E-05-2.84427E-16
 -1      2225 5.46903E-04 2.48079E-05-2.85050E-16
 -1      2226 6.61642E-04 1.99372E-05-3.85678E-16
 -1      2227 5.49180E-04 7.35310E-05-2.81391E-16
 -1      2228 5.48139E-04 5.70303E-05-2.83302E-16
 -1      2229 6.62941E-04 5.78051E-05-3.84350E-16
 -1      2230 5.52511E-04 1.09018E-04-2.74791E-16
 -1      2231 5.50620E-04 9.09366E-05-2.78559E-16
 -1      2232 6.65749E-04 9.72853E-05-3.79335E-16
 -1      2233 5.58309E-04 1.48362E-04-2.63298E-16
 -1      2234 5.55034E-04 1.28133E-04-2.69858E-16
 -1      2235 6.70761E-04 1.40064E-04-3.69605E-16
 -1      2236 5.68534E-04 1.93959E-04-2.45477E-16
 -1      2237 5.62749E-04 1.70243E-04-2.55397E-16
 -1      2238 6.79305E-04 1.87613E-04-3.53626E-16
 -1      2239 1.30156E-03 4.56418E-04-8.74314E-16
 -1      2240 1.15929E-03 4.30596E-04-6.93063E-16
 -1      2241 1.07147E-03 3.81183E-04-6.38067E-16
 -1      2242 9.14916E-04-3.46309E-04-4.30713E-16
 -1      2243 1.05897E-03-3.79552E-04-5.70629E-16
 -1      2244 1.01161E-02 1.19781E-03-4.46475E-14
 -1      2245 1.02703E-02 1.13306E-03-4.54339E-14
 -1      2246 1.20218E-03-4.07841E-04-7.32148E-16
 -1      2247 1.34495E-03-4.31583E-04-9.15094E-16
 -1      2248 1.11674E-03-3.60342E-04-6.78494E-16
 -1      2249 1.48709E-03-4.51636E-04-1.11922E-15
 -1      2250 1.62884E-03-4.68276E-04-1.34516E-15
 -1      2251 1.40303E-03-4.06843E-04-1.05023E-15
 -1      2252 1.77023E-03-4.82167E-04-1.59177E-15
 -1      2253 1.91138E-03-4.93522E-04-1.85977E-15
 -1      2254 1.68812E-03-4.39683E-04-1.50623E-15
 -1      2255 2.05239E-03-5.02826E-04-2.14883E-15
 -1      2256 2.19331E-03-5.10250E-04-2.45904E-15
 -1      2257 1.97229E-03-4.62163E-04-2.04623E-15
 -1      2258 2.33421E-03-5.16145E-04-2.78956E-15
 -1      2259 2.47512E-03-5.20648E-04-3.14007E-15
 -1      2260 2.25594E-03-4.76873E-04-2.66898E-15
 -1      2261 2.61611E-03-5.24010E-04-3.51080E-15
 -1      2262 2.75717E-03-5.26340E-04-3.90183E-15
 -1      2263 2.53942E-03-4.85789E-04-3.37312E-15
 -1      2264 2.89837E-03-5.27814E-04-4.31217E-15
 -1      2265 3.03969E-03-5.28516E-04-4.74131E-15
 -1      2266 2.82297E-03-4.90387E-04-4.15630E-15
 -1      2267 3.18117E-03-5.28566E-04-5.18932E-15
 -1      2268 3.32281E-03-5.28026E-04-5.65594E-15
 -1      2269 3.10679E-03-4.91750E-04-5.01690E-15
 -1      2270 3.46463E-03-5.26975E-04-6.14100E-15
 -1      2271 3.60663E-03-5.25458E-04-6.64497E-15
 -1      2272 3.39098E-03-4.90646E-04-5.95192E-15
 -1      2273 3.74884E-03-5.23522E-04-7.16590E-15
 -1      2274 3.89125E-03-5.21201E-04-7.70544E-15
 -1      2275 3.67565E-03-4.87601E-04-6.96037E-15
 -1      2276 4.03388E-03-5.18518E-04-8.26279E-15
 -1      2277 4.17675E-03-5.15498E-04-8.83858E-15
 -1      2278 3.96087E-03-4.82957E-04-8.04025E-15
 -1      2279 4.31987E-03-5.12152E-04-9.43290E-15
 -1      2280 4.46327E-03-5.08502E-04-1.00434E-14
 -1      2281 4.24673E-03-4.76923E-04-9.19261E-15
 -1      2282 4.60695E-03-5.04553E-04-1.06707E-14
 -1      2283 4.75096E-03-5.00329E-04-1.13167E-14
 -1      2284 4.53333E-03-4.69634E-04-1.04156E-14
 -1      2285 4.89529E-03-4.95839E-04-1.19798E-14
 -1      2286 5.04003E-03-4.91115E-04-1.26582E-14
 -1      2287 4.82078E-03-4.61196E-04-1.17072E-14
 -1      2288 5.18516E-03-4.86184E-04-1.33535E-14
 -1      2289 5.33077E-03-4.81094E-04-1.40660E-14
 -1      2290 5.10925E-03-4.51753E-04-1.30672E-14
 -1      2291 5.47684E-03-4.75901E-04-1.47935E-14
 -1      2292 5.62350E-03-4.70683E-04-1.55375E-14
 -1      2293 5.39894E-03-4.41557E-04-1.44917E-14
 -1      2294 5.77072E-03-4.65545E-04-1.62986E-14
 -1      2295 5.83737E-03-4.24256E-04-1.69409E-14
 -1      2296 5.69009E-03-4.31062E-04-1.59821E-14
 -1      2297 5.89738E-03-3.97237E-04-1.75748E-14
 -1      2298 5.96019E-03-3.74124E-04-1.82406E-14
 -1      2299 5.87968E-03-3.94295E-04-1.73559E-14
 -1      2300 6.01707E-03-3.56513E-04-1.89177E-14
 -1      2301 6.06785E-03-3.43697E-04-1.96074E-14
 -1      2302 5.97881E-03-3.57712E-04-1.86588E-14
 -1      2303 6.11292E-03-3.43082E-04-2.03202E-14
 -1      2304 6.14494E-03-3.57004E-04-2.10583E-14
 -1      2305 6.07068E-03-3.43882E-04-2.00410E-14
 -1      2306 6.18131E-03-3.94892E-04-2.18275E-14
 -1      2307 6.19191E-03-4.64347E-04-2.26487E-14
 -1      2308 6.14284E-03-3.74327E-04-2.15094E-14
 -1      2309 6.24301E-03-5.19775E-04-2.35195E-14
 -1      2310 6.19407E-03-5.82478E-04-2.42697E-14
 -1      2311 6.21913E-03-4.52451E-04-2.31323E-14
 -1      2312 6.20208E-03-6.32321E-04-2.50197E-14
 -1      2313 6.53182E-03-6.30929E-04-2.63613E-14
 -1      2314 6.26705E-03-5.33902E-04-2.48217E-14
 -1      2315 6.76466E-03-6.08424E-04-2.75870E-14
 -1      2316 6.99648E-03-5.96413E-04-2.87896E-14
 -1      2317 6.58579E-03-5.03009E-04-2.70073E-14
 -1      2318 7.19622E-03-5.96463E-04-2.99781E-14
 -1      2319 7.39428E-03-5.96114E-04-3.11614E-14
 -1      2320 7.05298E-03-5.16684E-04-2.94349E-14
 -1      2321 7.58796E-03-6.04932E-04-3.23443E-14
 -1      2322 7.77827E-03-6.20811E-04-3.35266E-14
 -1      2323 7.46621E-03-5.26397E-04-3.18100E-14
 -1      2324 7.96685E-03-6.44065E-04-3.47121E-14
 -1      2325 8.15075E-03-6.69918E-04-3.59002E-14
 -1      2326 7.86625E-03-5.67319E-04-3.41767E-14
 -1      2327 8.33084E-03-6.95397E-04-3.70922E-14
 -1      2328 8.50597E-03-7.13365E-04-3.82910E-14
 -1      2329 8.25113E-03-6.31500E-04-3.65501E-14
 -1      2330 8.67540E-03-7.19905E-04-3.94941E-14
 -1      2331 8.84260E-03-7.08031E-04-4.07028E-14
 -1      2332 8.61374E-03-6.81589E-04-3.89408E-14
 -1      2333 9.00673E-03-6.75683E-04-4.19190E-14
 -1      2334 9.17236E-03-6.22251E-04-4.31406E-14
 -1      2335 8.95657E-03-6.65346E-04-4.13570E-14
 -1      2336 9.33782E-03-5.49516E-04-4.43659E-14
 -1      2337 9.50818E-03-4.62990E-04-4.55970E-14
 -1      2338 9.29440E-03-5.55141E-04-4.37960E-14
 -1      2339 9.68160E-03-3.66357E-04-4.68346E-14
 -1      2340 9.85719E-03-2.66116E-04-4.80760E-14
 -1      2341 9.64369E-03-3.71548E-04-4.62572E-14
 -1      2342 1.00345E-02-1.65835E-04-4.93207E-14
 -1      2343 1.02111E-02-6.94546E-05-5.05710E-14
 -1      2344 1.00052E-02-1.63724E-04-4.87390E-14
 -1      2345 1.03873E-02 2.09656E-05-5.18247E-14
 -1      2346 1.05608E-02 1.04419E-04-5.30846E-14
 -1      2347 1.03658E-02 3.06068E-05-5.12379E-14
 -1      2348 1.07326E-02 1.80155E-04-5.43488E-14
 -1      2349 1.09011E-02 2.48739E-04-5.56184E-14
 -1      2350 1.07156E-02 1.94813E-04-5.37568E-14
 -1      2351 1.10673E-02 3.10255E-04-5.68962E-14
 -1      2352 1.12307E-02 3.65700E-04-5.81792E-14
 -1      2353 1.10513E-02 3.27929E-04-5.62988E-14
 -1      2354 1.13920E-02 4.15599E-04-5.94659E-14
 -1      2355 1.15510E-02 4.60893E-04-6.07589E-14
 -1      2356 1.13741E-02 4.35186E-04-5.88663E-14
 -1      2357 1.17081E-02 5.02254E-04-6.20593E-14
 -1      2358 1.18635E-02 5.40425E-04-6.33644E-14
 -1      2359 1.16869E-02 5.23129E-04-6.14547E-14
 -1      2360 1.20174E-02 5.76053E-04-6.46730E-14
 -1      2361 1.21698E-02 6.09686E-04-6.59857E-14
 -1      2362 1.19924E-02 5.97761E-04-6.40653E-14
 -1      2363 1.23210E-02 6.41872E-04-6.73022E-14
 -1      2364 1.24711E-02 6.73011E-04-6.86263E-14
 -1      2365 1.22927E-02 6.63992E-04-6.66939E-14
 -1      2366 1.26202E-02 7.03533E-04-6.99538E-14
 -1      2367 1.27683E-02 7.33736E-04-7.12828E-14
 -1      2368 1.25890E-02 7.25652E-04-6.93395E-14
 -1      2369 1.29156E-02 7.63947E-04-7.26171E-14
 -1      2370 1.30622E-02 7.94397E-04-7.39541E-14
 -1      2371 1.28824E-02 7.85662E-04-7.20034E-14
 -1      2372 1.32080E-02 8.25327E-04-7.52959E-14
 -1      2373 1.33532E-02 8.56929E-04-7.66408E-14
 -1      2374 1.31734E-02 8.46254E-04-7.46785E-14
 -1      2375 1.14510E-02 6.35120E-04-4.99191E-14
 -1      2376 1.15295E-02 6.15738E-04-5.00987E-14
 -1      2377 1.86452E-03 5.24089E-04-1.81741E-15
 -1      2378 1.72434E-03 5.11612E-04-1.54937E-15
 -1      2379 2.14452E-03 5.42662E-04-2.41796E-15
 -1      2380 2.00456E-03 5.34380E-04-2.10712E-15
 -1      2381 1.92404E-03 4.93339E-04-1.99855E-15
 -1      2382 2.42455E-03 5.54479E-04-3.10209E-15
 -1      2383 2.28452E-03 5.49312E-04-2.74954E-15
 -1      2384 2.20612E-03 5.09836E-04-2.62216E-15
 -1      2385 2.70502E-03 5.61280E-04-3.86937E-15
 -1      2386 2.56473E-03 5.58428E-04-3.47567E-15
 -1      2387 2.48809E-03 5.20103E-04-3.32887E-15
 -1      2388 2.98618E-03 5.64339E-04-4.71625E-15
 -1      2389 2.84551E-03 5.63218E-04-4.28276E-15
 -1      2390 2.77028E-03 5.25738E-04-4.11665E-15
 -1      2391 3.26816E-03 5.64576E-04-5.64204E-15
 -1      2392 3.12706E-03 5.64767E-04-5.16937E-15
 -1      2393 3.05293E-03 5.27913E-04-4.98379E-15
 -1      2394 3.55107E-03 5.62637E-04-6.64760E-15
 -1      2395 3.40950E-03 5.63847E-04-6.13503E-15
 -1      2396 3.33615E-03 5.27468E-04-5.92923E-15
 -1      2397 3.83498E-03 5.58959E-04-7.73199E-15
 -1      2398 3.69290E-03 5.60993E-04-7.17991E-15
 -1      2399 3.62006E-03 5.24986E-04-6.95297E-15
 -1      2400 4.11999E-03 5.53833E-04-8.89629E-15
 -1      2401 3.97734E-03 5.56561E-04-8.30388E-15
 -1      2402 3.90474E-03 5.20857E-04-8.05602E-15
 -1      2403 4.40622E-03 5.47453E-04-1.01383E-14
 -1      2404 4.26294E-03 5.50786E-04-9.50788E-15
 -1      2405 4.19029E-03 5.15337E-04-9.23786E-15
 -1      2406 4.69385E-03 5.39979E-04-1.14544E-14
 -1      2407 4.54985E-03 5.43839E-04-1.07869E-14
 -1      2408 4.47681E-03 5.08598E-04-1.04956E-14
 -1      2409 4.98311E-03 5.31592E-04-1.28415E-14
 -1      2410 4.83825E-03 5.35881E-04-1.21394E-14
 -1      2411 4.76447E-03 5.00788E-04-1.18268E-14
 -1      2412 5.27431E-03 5.22569E-04-1.42983E-14
 -1      2413 5.12843E-03 5.27133E-04-1.35621E-14
 -1      2414 5.05348E-03 4.92092E-04-1.32294E-14
 -1      2415 5.56782E-03 5.13369E-04-1.58241E-14
 -1      2416 5.42074E-03 5.17951E-04-1.50519E-14
 -1      2417 5.34408E-03 4.82807E-04-1.47013E-14
 -1      2418 5.86410E-03 5.04738E-04-1.74143E-14
 -1      2419 5.71557E-03 5.08922E-04-1.66115E-14
 -1      2420 5.63662E-03 4.73425E-04-1.62403E-14
 -1      2421 6.16365E-03 4.97835E-04-1.90684E-14
 -1      2422 6.01341E-03 5.00983E-04-1.82339E-14
 -1      2423 5.93148E-03 4.64746E-04-1.78452E-14
 -1      2424 6.46702E-03 4.94371E-04-2.07811E-14
 -1      2425 6.31480E-03 4.95551E-04-1.99177E-14
 -1      2426 6.22917E-03 4.58003E-04-1.95113E-14
 -1      2427 6.77478E-03 4.96739E-04-2.25534E-14
 -1      2428 6.62032E-03 4.94661E-04-2.16593E-14
 -1      2429 6.53026E-03 4.54997E-04-2.12353E-14
 -1      2430 7.08747E-03 5.08088E-04-2.43883E-14
 -1      2431 6.93051E-03 5.01081E-04-2.34631E-14
 -1      2432 6.83547E-03 4.58227E-04-2.30198E-14
 -1      2433 7.40547E-03 5.32233E-04-2.62802E-14
 -1      2434 7.24585E-03 5.18318E-04-2.53276E-14
 -1      2435 7.14564E-03 4.70959E-04-2.48647E-14
 -1      2436 7.72884E-03 5.73225E-04-2.82333E-14
 -1      2437 7.56661E-03 5.50385E-04-2.72494E-14
 -1      2438 7.46166E-03 4.97133E-04-2.67684E-14
 -1      2439 8.05694E-03 6.34341E-04-3.02340E-14
 -1      2440 7.89255E-03 6.01124E-04-2.92279E-14
 -1      2441 7.78424E-03 5.40933E-04-2.87287E-14
 -1      2442 8.39172E-03 7.63967E-04-3.23136E-14
 -1      2443 8.22294E-03 6.92908E-04-3.12668E-14
 -1      2444 8.11155E-03 6.22907E-04-3.07510E-14
 -1      2445 8.73062E-03 9.28967E-04-3.44405E-14
 -1      2446 8.56117E-03 8.43666E-04-3.33695E-14
 -1      2447 8.44425E-03 7.61289E-04-3.28379E-14
 -1      2448 9.06773E-03 1.10292E-03-3.66258E-14
 -1      2449 8.90011E-03 1.01634E-03-3.55259E-14
 -1      2450 8.78239E-03 9.29870E-04-3.49795E-14
 -1      2451 9.39583E-03 1.26143E-03-3.88655E-14
 -1      2452 9.23300E-03 1.18564E-03-3.77388E-14
 -1      2453 9.11910E-03 1.10507E-03-3.71774E-14
 -1      2454 9.71365E-03 1.38187E-03-4.11595E-14
 -1      2455 9.55546E-03 1.32771E-03-4.00057E-14
 -1      2456 9.44727E-03 1.26049E-03-3.94295E-14
 -1      2457 1.00262E-02 1.44987E-03-4.35038E-14
 -1      2458 9.86959E-03 1.42272E-03-4.23254E-14
 -1      2459 9.76621E-03 1.37111E-03-4.17358E-14
 -1      2460 1.03413E-02 1.46698E-03-4.58985E-14
 -1      2461 1.01827E-02 1.46395E-03-4.46957E-14
 -1      2462 1.00825E-02 1.42397E-03-4.40923E-14
 -1      2463 1.06636E-02 1.44994E-03-4.83468E-14
 -1      2464 1.05013E-02 1.46134E-03-4.71171E-14
 -1      2465 1.04044E-02 1.42592E-03-4.65002E-14
 -1      2466 1.09927E-02 1.42078E-03-5.08363E-14
 -1      2467 1.08276E-02 1.43556E-03-4.95854E-14
 -1      2468 1.07347E-02 1.39896E-03-4.89566E-14
 -1      2469 1.13248E-02 1.39788E-03-5.33636E-14
 -1      2470 1.11588E-02 1.40772E-03-5.20955E-14
 -1      2471 1.10704E-02 1.36716E-03-5.14534E-14
 -1      2472 1.16556E-02 1.39168E-03-5.59291E-14
 -1      2473 1.14907E-02 1.39238E-03-5.46422E-14
 -1      2474 1.14056E-02 1.34745E-03-5.39861E-14
 -1      2475 1.19823E-02 1.40531E-03-5.85316E-14
 -1      2476 1.18197E-02 1.39604E-03-5.72253E-14
 -1      2477 1.17362E-02 1.34742E-03-5.65571E-14
 -1      2478 1.23035E-02 1.43732E-03-6.11681E-14
 -1      2479 1.21437E-02 1.41921E-03-5.98434E-14
 -1      2480 1.20601E-02 1.36780E-03-5.91666E-14
 -1      2481 1.26189E-02 1.48412E-03-6.38402E-14
 -1      2482 1.24620E-02 1.45911E-03-6.25016E-14
 -1      2483 1.23769E-02 1.40574E-03-6.18100E-14
 -1      2484 1.29286E-02 1.54158E-03-6.65415E-14
 -1      2485 1.27744E-02 1.51175E-03-6.51866E-14
 -1      2486 1.26873E-02 1.45714E-03-6.44880E-14
 -1      2487 1.32331E-02 1.60587E-03-6.92638E-14
 -1      2488 1.30814E-02 1.57308E-03-6.79011E-14
 -1      2489 1.29923E-02 1.51784E-03-6.71906E-14
 -1      2490 1.35330E-02 1.67375E-03-7.20033E-14
 -1      2491 1.33835E-02 1.63953E-03-7.06331E-14
 -1      2492 1.32927E-02 1.58419E-03-6.99164E-14
 -1      2493 1.38289E-02 1.74260E-03-7.47558E-14
 -1      2494 1.36814E-02 1.70819E-03-7.33763E-14
 -1      2495 1.35892E-02 1.65319E-03-7.26555E-14
 -1      2496 1.41215E-02 1.81033E-03-7.75253E-14
 -1      2497 1.39756E-02 1.77671E-03-7.61381E-14
 -1      2498 1.38825E-02 1.72247E-03-7.54111E-14
 -1      2499 1.44112E-02 1.87534E-03-8.03051E-14
 -1      2500 1.42666E-02 1.84327E-03-7.89141E-14
 -1      2501 1.41732E-02 1.79011E-03-7.81818E-14
 -1      2502 1.45606E-02 1.90851E-03-8.17481E-14
 -1      2503 1.42988E-02 1.58330E-03-8.05796E-14
 -1      2504 1.43222E-02 1.62007E-03-8.06385E-14
 -1      2505 1.42488E-02 1.51141E-03-8.04602E-14
 -1      2506 1.42744E-02 1.54712E-03-8.05204E-14
 -1      2507 1.41653E-02 1.53672E-03-7.93541E-14
 -1      2508 1.43889E-02 1.73291E-03-8.07963E-14
 -1      2509 1.44114E-02 1.77229E-03-8.08443E-14
 -1      2510 1.43448E-02 1.65713E-03-8.06943E-14
 -1      2511 1.43668E-02 1.69452E-03-8.07453E-14
 -1      2512 1.42549E-02 1.68575E-03-7.95660E-14
 -1      2513 1.42113E-02 1.61010E-03-7.94633E-14
 -1      2514 1.41932E-02 1.44118E-03-8.03325E-14
 -1      2515 1.42218E-02 1.47616E-03-8.03964E-14
 -1      2516 1.41147E-02 1.46523E-03-7.92367E-14
 -1      2517 1.41309E-02 1.37179E-03-8.02031E-14
 -1      2518 1.41629E-02 1.40647E-03-8.02701E-14
 -1      2519 1.40579E-02 1.39525E-03-7.91174E-14
 -1      2520 1.40614E-02 1.30232E-03-8.00730E-14
 -1      2521 1.40970E-02 1.33715E-03-8.01361E-14
 -1      2522 1.39939E-02 1.32594E-03-7.89929E-14
 -1      2523 1.39868E-02 1.23303E-03-7.99433E-14
 -1      2524 1.40248E-02 1.26787E-03-8.00089E-14
 -1      2525 1.39231E-02 1.25691E-03-7.88660E-14
 -1      2526 1.39058E-02 1.16071E-03-7.98157E-14
 -1      2527 1.39468E-02 1.19716E-03-7.98789E-14
 -1      2528 1.38459E-02 1.18665E-03-7.87396E-14
 -1      2529 1.38217E-02 1.08591E-03-7.96884E-14
 -1      2530 1.38640E-02 1.12365E-03-7.97522E-14
 -1      2531 1.37631E-02 1.11372E-03-7.86137E-14
 -1      2532 1.37371E-02 1.00829E-03-7.95584E-14
 -1      2533 1.37793E-02 1.04746E-03-7.96215E-14
 -1      2534 1.36776E-02 1.03813E-03-7.84833E-14
 -1      2535 1.37421E-02 9.56156E-04-8.01843E-14
 -1      2536 1.15780E-02 5.75836E-04-5.01864E-14
 -1      2537 1.15119E-02 5.64188E-04-5.00312E-14
 -1      2538 1.58387E-03 4.96408E-04-1.30272E-15
 -1      2539 1.44299E-03 4.78269E-04-1.07759E-15
 -1      2540 1.64137E-03 4.68465E-04-1.45893E-15
 -1      2541 1.11354E-02 7.39710E-04-4.89326E-14
 -1      2542 1.13008E-02 6.81783E-04-4.94583E-14
 -1      2543 1.13996E-02 5.36746E-04-4.98039E-14
 -1      2544 1.12492E-02 4.99822E-04-4.95783E-14
 -1      2545 1.14673E-02 5.72521E-04-5.05867E-14
 -1      2546 5.88329E-04-2.38026E-04-2.03898E-16
 -1      2547 7.81087E-04-3.04790E-04-3.26901E-16
 -1      2548 8.40566E-04-2.93581E-04-4.07497E-16
 -1      2549 5.78874E-04-2.10263E-04-2.21340E-16
 -1      2550 1.06620E-02 2.62835E-04-4.82284E-14
 -1      2551 1.04326E-02 1.35172E-04-4.74487E-14
 -1      2552 8.52365E-03-4.52300E-04-3.84590E-14
 -1      2553 8.34787E-03-3.55696E-04-3.76817E-14
 -1      2554 9.16195E-03 1.04284E-03-3.93276E-14
 -1      2555 9.34155E-03 1.14649E-03-4.02427E-14
 -1      2556 5.46843E-04-2.29149E-05-2.82787E-16
 -1      2557 5.47290E-04-3.89656E-05-2.80673E-16
 -1      2558 6.62795E-04-5.58337E-05-3.78441E-16
 -1      2559 6.61591E-04-1.77110E-05-3.83740E-16
 -1      2560 9.80086E-03 1.26764E-03-4.28870E-14
 -1      2561 9.95254E-03 1.24686E-03-4.37863E-14
 -1      2562 8.77046E-03 7.96097E-04-3.76733E-14
 -1      2563 8.94779E-03 9.11077E-04-3.83690E-14
 -1      2564 9.50768E-03 1.21779E-03-4.11486E-14
 -1      2565 9.62581E-03 1.25202E-03-4.18464E-14
 -1      2566 7.56361E-03 2.41474E-04-3.44538E-14
 -1      2567 7.70026E-03 2.75088E-04-3.46798E-14
 -1      2568 8.39251E-03 5.72859E-04-3.64073E-14
 -1      2569 8.56584E-03 6.72322E-04-3.69529E-14
 -1      2570 1.02463E-02 2.53193E-05-4.68222E-14
 -1      2571 1.00616E-02-9.08881E-05-4.61979E-14
 -1      2572 1.03449E-02 1.01430E-04-4.76310E-14
 -1      2573 7.34992E-03 1.98534E-04-3.39349E-14
 -1      2574 7.44492E-03 2.14073E-04-3.41946E-14
 -1      2575 7.49578E-03 2.03656E-04-3.37357E-14
 -1      2576 7.24002E-03 1.91278E-04-3.38238E-14
 -1      2577 7.27012E-03 1.91010E-04-3.38373E-14
 -1      2578 7.29540E-03 1.72407E-04-3.40809E-14
 -1      2579 7.25037E-03 1.82492E-04-3.38790E-14
 -1      2580 7.48722E-03 9.84908E-05-3.46337E-14
 -1      2581 7.37552E-03 1.43876E-04-3.43552E-14
 -1      2582 7.31231E-03 1.47126E-04-3.36441E-14
 -1      2583 7.80858E-03-5.20251E-05-3.57389E-14
 -1      2584 7.65906E-03 2.06186E-05-3.52185E-14
 -1      2585 8.14573E-03-2.40062E-04-3.69101E-14
 -1      2586 7.97469E-03-1.40663E-04-3.63212E-14
 -1      2587 7.87391E-03-1.09748E-04-3.56536E-14
 -1      2588 8.83018E-03-5.70471E-04-4.00344E-14
 -1      2589 8.70341E-03-5.28595E-04-3.93502E-14
 -1      2590 9.14137E-03-5.81891E-04-4.18349E-14
 -1      2591 8.98359E-03-5.94516E-04-4.08904E-14
 -1      2592 9.45578E-03-4.62934E-04-4.35964E-14
 -1      2593 9.33171E-03-5.23566E-04-4.29351E-14
 -1      2594 9.81990E-03-2.43104E-04-4.52776E-14
 -1      2595 9.63310E-03-3.64673E-04-4.44372E-14
 -1      2596 9.54867E-03-4.02855E-04-4.43159E-14
 -1      2597 1.10751E-02 4.43890E-04-4.92949E-14
 -1      2598 1.09240E-02 3.86857E-04-4.89919E-14
 -1      2599 1.07775E-02 8.89890E-04-4.75647E-14
 -1      2600 1.09339E-02 8.18903E-04-4.81426E-14
 -1      2601 1.15910E-02 5.96361E-04-5.02000E-14
 -1      2602 1.16136E-02 5.90500E-04-5.03000E-14
 -1      2603 1.15933E-02 6.26538E-04-5.09407E-14
 -1      2604 7.57597E-04 3.34213E-04-2.99308E-16
 -1      2605 6.11241E-04 2.84887E-04-2.02366E-16
 -1      2606 5.84561E-04 2.58131E-04-2.05239E-16
 -1      2607 8.13470E-04 3.22875E-04-3.78522E-16
 -1      2608 1.04687E-02 1.04356E-03-4.63821E-14
 -1      2609 1.06207E-02 9.64624E-04-4.69722E-14
 -1      2610 1.07226E-02 9.39118E-04-4.77310E-14
 -1      2611 1.00459E-02 1.23376E-03-4.43722E-14
 -1      2612 6.70348E-04-1.38019E-04-3.55347E-16
 -1      2613 5.54652E-04-1.26306E-04-2.58013E-16
 -1      2614 5.57798E-04-1.46309E-04-2.49461E-16
 -1      2615 1.35741E-03 4.32347E-04-1.00539E-15
 -1      2616 5.72122E-04 2.27948E-04-2.22343E-16
 -1      2617 1.03880E-02 1.09719E-03-4.61843E-14
 -1      2618 1.07787E-02 3.31915E-04-4.90243E-14
 -1      2619 1.14012E-02 6.79277E-04-5.03757E-14
 -1      2620 1.44669E-02 1.85670E-03-8.10130E-14
 -1      2621 1.44323E-02 1.82118E-03-8.08243E-14
 -1      2622 9.93794E-03-1.55797E-04-4.60816E-14
 -1      2623 1.35778E-02 9.05933E-04-7.87532E-14
 -1      2624 1.36759E-02 9.68025E-04-7.92669E-14
 -1      2625 1.35729E-02 9.59371E-04-7.81267E-14
 -1      2626 1.34501E-02 8.77935E-04-7.75485E-14
 -1      2627 9.21120E-03-5.64660E-04-4.23709E-14
 -1      2628 1.16186E-02 6.04121E-04-5.09291E-14
 -1      2629 6.89414E-04 2.51277E-04-3.16533E-16
 -1      2630 1.10661E-02 7.91593E-04-4.91177E-14
 -1      2631 8.22690E-03-3.10729E-04-3.70049E-14
 -1      2632 1.11916E-02 4.98717E-04-5.00740E-14
 -1      2633 7.54451E-03 5.68694E-05-3.44910E-14
 -1      2634 7.43996E-03 7.62248E-05-3.37674E-14
 -1      2635 7.59359E-03 7.44230E-06-3.43442E-14
 -1      2636 5.71700E-04-1.85390E-04-2.35448E-16
 -1      2637 8.58466E-03-4.98957E-04-3.86658E-14
 -1      2638 8.27165E-03 4.96530E-04-3.58090E-14
 -1      2639 8.36081E-03 5.32586E-04-3.56855E-14
 -1      2640 8.15513E-03 4.30126E-04-3.52149E-14
 -1      2641 7.29828E-03 1.78482E-04-3.33792E-14
 -1      2642 9.42138E-03 1.17911E-03-4.05243E-14
 -1      2643 9.06914E-03 9.77967E-04-3.86647E-14
 -1      2644 7.81706E-03 3.00167E-04-3.46607E-14
 -1      2645 7.93098E-03 3.32376E-04-3.46399E-14
 -1      2646 7.72029E-03 2.53135E-04-3.39734E-14
 -1      2647 8.67599E-03 7.24937E-04-3.69965E-14
 -1      2648 9.73698E-03 1.26953E-03-4.24678E-14
 -1      2649 7.22735E-03 1.74932E-04-3.33288E-14
 -1      2650 8.89692E-03-5.95789E-04-4.04135E-14
 -1      2651 1.42966E-02 1.77319E-03-7.95946E-14
 -1      2652 1.34148E-02 8.97936E-04-7.69283E-14
 -1      2653 7.80515E-04 7.73403E-05-4.99749E-16
 -1      2654 7.79278E-04 5.54767E-05-5.01538E-16
 -1      2655 7.78448E-04 3.35628E-05-5.02446E-16
 -1      2656 7.78033E-04 1.18972E-05-5.02338E-16
 -1      2657 8.96904E-04 4.96699E-05-6.34841E-16
 -1      2658 7.91681E-04 1.73144E-04-4.78553E-16
 -1      2659 7.87730E-04 1.47727E-04-4.86197E-16
 -1      2660 8.03405E-04 2.28341E-04-4.57330E-16
 -1      2661 7.96858E-04 1.99953E-04-4.69378E-16
 -1      2662 9.14974E-04 2.07797E-04-6.01841E-16
 -1      2663 1.12958E-03 3.61784E-04-7.46731E-16
 -1      2664 9.86010E-04 3.32809E-04-5.82366E-16
 -1      2665 1.09901E-02 8.54960E-04-4.92574E-14
 -1      2666 1.11717E-02 7.90305E-04-5.00535E-14
 -1      2667 1.41578E-03 4.07417E-04-1.13984E-15
 -1      2668 1.27275E-03 3.86529E-04-9.32373E-16
 -1      2669 1.18953E-03 3.41284E-04-8.59583E-16
 -1      2670 1.08983E-02 3.97870E-04-4.99981E-14
 -1      2671 1.06590E-02 2.84264E-04-4.92315E-14
 -1      2672 1.16034E-02 6.56916E-04-5.16761E-14
 -1      2673 1.16484E-02 6.43933E-04-5.17777E-14
 -1      2674 1.00211E-02 1.26157E-03-4.42687E-14
 -1      2675 1.01611E-02 1.21684E-03-4.51336E-14
 -1      2676 7.88775E-04-2.52519E-04-3.92115E-16
 -1      2677 9.19933E-04-2.88248E-04-5.07678E-16
 -1      2678 1.31999E-03-3.62441E-04-9.79563E-16
 -1      2679 1.46321E-03-3.81267E-04-1.18925E-15
 -1      2680 1.60625E-03-3.97155E-04-1.41984E-15
 -1      2681 1.74918E-03-4.10334E-04-1.67086E-15
 -1      2682 1.52495E-03-3.54867E-04-1.33235E-15
 -1      2683 1.89195E-03-4.21264E-04-1.94297E-15
 -1      2684 2.03461E-03-4.30129E-04-2.23561E-15
 -1      2685 1.81165E-03-3.80319E-04-1.83911E-15
 -1      2686 2.17718E-03-4.37295E-04-2.54878E-15
 -1      2687 2.31966E-03-4.42910E-04-2.88200E-15
 -1      2688 2.09814E-03-3.97533E-04-2.42794E-15
 -1      2689 2.46211E-03-4.47252E-04-3.23516E-15
 -1      2690 2.60452E-03-4.50436E-04-3.60813E-15
 -1      2691 2.38436E-03-4.08474E-04-3.09701E-15
 -1      2692 2.74693E-03-4.52667E-04-4.00099E-15
 -1      2693 2.88933E-03-4.54033E-04-4.41306E-15
 -1      2694 2.67036E-03-4.14694E-04-3.84550E-15
 -1      2695 3.03177E-03-4.54680E-04-4.84416E-15
 -1      2696 3.17423E-03-4.54674E-04-5.29402E-15
 -1      2697 2.95623E-03-4.17374E-04-4.67145E-15
 -1      2698 3.31675E-03-4.54113E-04-5.76259E-15
 -1      2699 3.45931E-03-4.53045E-04-6.24965E-15
 -1      2700 3.24203E-03-4.17375E-04-5.57318E-15
 -1      2701 3.60195E-03-4.51534E-04-6.75379E-15
 -1      2702 3.74464E-03-4.49611E-04-7.27693E-15
 -1      2703 3.52781E-03-4.15304E-04-6.54794E-15
 -1      2704 3.88742E-03-4.47316E-04-7.81805E-15
 -1      2705 4.03028E-03-4.44669E-04-8.37626E-15
 -1      2706 3.81361E-03-4.11565E-04-7.59541E-15
 -1      2707 4.17324E-03-4.41692E-04-8.95307E-15
 -1      2708 4.31629E-03-4.38400E-04-9.54790E-15
 -1      2709 4.09948E-03-4.06415E-04-8.71379E-15
 -1      2710 4.45945E-03-4.34806E-04-1.01600E-14
 -1      2711 4.60274E-03-4.30922E-04-1.07882E-14
 -1      2712 4.38543E-03-4.00008E-04-9.90362E-15
 -1      2713 4.74613E-03-4.26760E-04-1.14353E-14
 -1      2714 4.88968E-03-4.22337E-04-1.20991E-14
 -1      2715 4.67148E-03-3.92448E-04-1.11634E-14
 -1      2716 5.03336E-03-4.17674E-04-1.27795E-14
 -1      2717 5.17723E-03-4.12797E-04-1.34766E-14
 -1      2718 4.95765E-03-3.83838E-04-1.24918E-14
 -1      2719 5.32125E-03-4.07750E-04-1.41896E-14
 -1      2720 5.46549E-03-4.02576E-04-1.49191E-14
 -1      2721 5.24396E-03-3.74340E-04-1.38871E-14
 -1      2722 5.60992E-03-3.97354E-04-1.56652E-14
 -1      2723 5.75463E-03-3.92156E-04-1.64284E-14
 -1      2724 5.53043E-03-3.64245E-04-1.53489E-14
 -1      2725 5.82870E-03-3.89330E-04-1.70888E-14
 -1      2726 5.88711E-03-3.69725E-04-1.77332E-14
 -1      2727 5.76601E-03-3.56623E-04-1.68039E-14
 -1      2728 5.94437E-03-3.57135E-04-1.84054E-14
 -1      2729 5.99425E-03-3.47601E-04-1.90851E-14
 -1      2730 5.90666E-03-3.49502E-04-1.81470E-14
 -1      2731 6.03914E-03-3.44107E-04-1.97751E-14
 -1      2732 6.07786E-03-3.45820E-04-2.04849E-14
 -1      2733 6.01084E-03-3.42409E-04-1.95202E-14
 -1      2734 6.11409E-03-3.56076E-04-2.12185E-14
 -1      2735 6.14701E-03-3.77640E-04-2.19817E-14
 -1      2736 6.09303E-03-3.48149E-04-2.09492E-14
 -1      2737 6.18687E-03-3.96996E-04-2.27793E-14
 -1      2738 6.23179E-03-4.35489E-04-2.36475E-14
 -1      2739 6.16911E-03-3.65358E-04-2.24839E-14
 -1      2740 6.29612E-03-4.63017E-04-2.45559E-14
 -1      2741 6.37157E-03-4.59453E-04-2.54415E-14
 -1      2742 6.27736E-03-3.79352E-04-2.41908E-14
 -1      2743 6.48850E-03-3.83565E-04-2.64803E-14
 -1      2744 6.68146E-03-4.26225E-04-2.76889E-14
 -1      2745 6.42785E-03-3.52401E-04-2.61041E-14
 -1      2746 6.90161E-03-4.31827E-04-2.88981E-14
 -1      2747 7.12160E-03-4.31394E-04-3.00932E-14
 -1      2748 6.72758E-03-3.37191E-04-2.83829E-14
 -1      2749 7.33763E-03-4.38383E-04-3.12822E-14
 -1      2750 7.54752E-03-4.53369E-04-3.24651E-14
 -1      2751 7.20664E-03-3.44522E-04-3.07641E-14
 -1      2752 7.75630E-03-4.78990E-04-3.36462E-14
 -1      2753 7.96019E-03-5.12753E-04-3.48278E-14
 -1      2754 7.63633E-03-3.82733E-04-3.31223E-14
 -1      2755 8.16228E-03-5.54390E-04-3.60103E-14
 -1      2756 8.35758E-03-5.95606E-04-3.71970E-14
 -1      2757 8.05744E-03-4.63309E-04-3.54764E-14
 -1      2758 8.90086E-03-6.53199E-04-4.07963E-14
 -1      2759 9.07478E-03-6.22788E-04-4.20091E-14
 -1      2760 9.24319E-03-5.58070E-04-4.30260E-14
 -1      2761 9.42551E-03-4.73311E-04-4.42488E-14
 -1      2762 9.97600E-03-1.60327E-04-4.81569E-14
 -1      2763 1.01621E-02-5.48736E-05-4.94008E-14
 -1      2764 1.03471E-02 4.29623E-05-5.06513E-14
 -1      2765 1.05268E-02 1.32179E-04-5.19060E-14
 -1      2766 1.03314E-02 5.67283E-05-5.00636E-14
 -1      2767 1.07029E-02 2.11877E-04-5.31657E-14
 -1      2768 1.08734E-02 2.83514E-04-5.44296E-14
 -1      2769 1.06943E-02 2.31396E-04-5.25738E-14
 -1      2770 1.10399E-02 3.46978E-04-5.57022E-14
 -1      2771 1.12020E-02 4.04110E-04-5.69825E-14
 -1      2772 1.10332E-02 3.67846E-04-5.51058E-14
 -1      2773 1.13608E-02 4.55143E-04-5.82650E-14
 -1      2774 1.15165E-02 5.01520E-04-5.95524E-14
 -1      2775 1.13521E-02 4.75851E-04-5.76633E-14
 -1      2776 1.16699E-02 5.43676E-04-6.08487E-14
 -1      2777 1.18213E-02 5.82603E-04-6.21495E-14
 -1      2778 1.16572E-02 5.64119E-04-6.02418E-14
 -1      2779 1.19712E-02 6.18782E-04-6.34573E-14
 -1      2780 1.21199E-02 6.52870E-04-6.47675E-14
 -1      2781 1.19538E-02 6.39204E-04-6.28479E-14
 -1      2782 1.22675E-02 6.85326E-04-6.60813E-14
 -1      2783 1.24144E-02 7.16587E-04-6.74025E-14
 -1      2784 1.22456E-02 7.05866E-04-6.54710E-14
 -1      2785 1.25605E-02 7.47049E-04-6.87268E-14
 -1      2786 1.27062E-02 7.77014E-04-7.00562E-14
 -1      2787 1.25346E-02 7.67662E-04-6.81133E-14
 -1      2788 1.28513E-02 8.06805E-04-7.13896E-14
 -1      2789 1.29960E-02 8.36645E-04-7.27234E-14
 -1      2790 1.28222E-02 8.27292E-04-7.07735E-14
 -1      2791 1.31404E-02 8.66790E-04-7.40597E-14
 -1      2792 1.32844E-02 8.97412E-04-7.54018E-14
 -1      2793 1.31089E-02 8.86852E-04-7.34447E-14
 -1      2794 1.00490E-02-7.33715E-05-4.69410E-14
 -1      2795 9.83693E-03-2.14966E-04-4.60177E-14
 -1      2796 1.98510E-03 4.61856E-04-2.18217E-15
 -1      2797 1.84306E-03 4.51913E-04-1.88968E-15
 -1      2798 2.83610E-03 4.89743E-04-4.36534E-15
 -1      2799 2.69426E-03 4.87927E-04-3.95139E-15
 -1      2800 3.12002E-03 4.91126E-04-5.25156E-15
 -1      2801 2.97803E-03 4.90785E-04-4.79860E-15
 -1      2802 2.90247E-03 4.53398E-04-4.61489E-15
 -1      2803 3.40429E-03 4.90085E-04-6.21653E-15
 -1      2804 3.26211E-03 4.90875E-04-5.72438E-15
 -1      2805 3.18745E-03 4.54067E-04-5.52077E-15
 -1      2806 3.68903E-03 4.87143E-04-7.25917E-15
 -1      2807 3.54660E-03 4.88829E-04-6.72798E-15
 -1      2808 3.47259E-03 4.52508E-04-6.50441E-15
 -1      2809 3.97429E-03 4.82644E-04-8.38071E-15
 -1      2810 3.83159E-03 4.85073E-04-7.81020E-15
 -1      2811 3.75797E-03 4.49183E-04-7.56568E-15
 -1      2812 4.26018E-03 4.76811E-04-9.57962E-15
 -1      2813 4.11715E-03 4.79884E-04-8.97049E-15
 -1      2814 4.04364E-03 4.44392E-04-8.70536E-15
 -1      2815 4.54678E-03 4.69797E-04-1.08533E-14
 -1      2816 4.40338E-03 4.73443E-04-1.02073E-14
 -1      2817 4.32966E-03 4.38328E-04-9.92140E-15
 -1      2818 4.83423E-03 4.61742E-04-1.22001E-14
 -1      2819 4.69038E-03 4.65889E-04-1.15178E-14
 -1      2820 4.61612E-03 4.31125E-04-1.12112E-14
 -1      2821 5.12268E-03 4.52835E-04-1.36169E-14
 -1      2822 4.97831E-03 4.57379E-04-1.28992E-14
 -1      2823 4.90309E-03 4.22917E-04-1.25721E-14
 -1      2824 5.41236E-03 4.43389E-04-1.51030E-14
 -1      2825 5.26734E-03 4.48154E-04-1.43519E-14
 -1      2826 5.19071E-03 4.13898E-04-1.40034E-14
 -1      2827 5.70355E-03 4.33926E-04-1.66572E-14
 -1      2828 5.55773E-03 4.38619E-04-1.58720E-14
 -1      2829 5.47913E-03 4.04392E-04-1.55045E-14
 -1      2830 5.99660E-03 4.25285E-04-1.82741E-14
 -1      2831 5.84980E-03 4.29439E-04-1.74577E-14
 -1      2832 5.76860E-03 3.94939E-04-1.70723E-14
 -1      2833 6.29203E-03 4.18747E-04-1.99526E-14
 -1      2834 6.14397E-03 4.21658E-04-1.91052E-14
 -1      2835 6.05947E-03 3.86401E-04-1.87022E-14
 -1      2836 6.59049E-03 4.16166E-04-2.16878E-14
 -1      2837 6.44082E-03 4.16824E-04-2.08135E-14
 -1      2838 6.35227E-03 3.80075E-04-2.03920E-14
 -1      2839 6.89294E-03 4.20098E-04-2.34851E-14
 -1      2840 6.74116E-03 4.17126E-04-2.25789E-14
 -1      2841 6.64782E-03 3.77825E-04-2.21406E-14
 -1      2842 7.20058E-03 4.33880E-04-2.53389E-14
 -1      2843 7.04605E-03 4.25504E-04-2.44046E-14
 -1      2844 6.94731E-03 3.82217E-04-2.39473E-14
 -1      2845 7.51494E-03 4.61568E-04-2.72543E-14
 -1      2846 7.35690E-03 4.45673E-04-2.62890E-14
 -1      2847 7.25249E-03 3.96623E-04-2.58129E-14
 -1      2848 7.83753E-03 5.07569E-04-2.92217E-14
 -1      2849 7.67526E-03 4.81947E-04-2.82316E-14
 -1      2850 7.56558E-03 4.25253E-04-2.77374E-14
 -1      2851 8.16183E-03 6.11558E-04-3.12674E-14
 -1      2852 7.99847E-03 5.54157E-04-3.02363E-14
 -1      2853 7.88358E-03 4.87374E-04-2.97260E-14
 -1      2854 8.49444E-03 7.57476E-04-3.33638E-14
 -1      2855 8.32728E-03 6.80035E-04-3.23088E-14
 -1      2856 8.20733E-03 6.00543E-04-3.17807E-14
 -1      2857 8.83437E-03 9.31045E-04-3.55177E-14
 -1      2858 8.66431E-03 8.42145E-04-3.44330E-14
 -1      2859 8.54292E-03 7.53770E-04-3.38900E-14
 -1      2860 9.17282E-03 1.10889E-03-3.77304E-14
 -1      2861 9.00453E-03 1.02129E-03-3.66183E-14
 -1      2862 8.88623E-03 9.33639E-04-3.60585E-14
 -1      2863 9.50167E-03 1.26157E-03-3.99942E-14
 -1      2864 9.33834E-03 1.19067E-03-3.88551E-14
 -1      2865 9.22674E-03 1.11547E-03-3.82832E-14
 -1      2866 9.82157E-03 1.36110E-03-4.23130E-14
 -1      2867 9.66164E-03 1.31957E-03-4.11470E-14
 -1      2868 9.55625E-03 1.26458E-03-4.05602E-14
 -1      2869 1.01418E-02 1.39538E-03-4.46803E-14
 -1      2870 9.98040E-03 1.38550E-03-4.34899E-14
 -1      2871 9.87857E-03 1.34834E-03-4.28887E-14
 -1      2872 1.04711E-02 1.38035E-03-4.70988E-14
 -1      2873 1.03048E-02 1.39224E-03-4.58834E-14
 -1      2874 1.02050E-02 1.36108E-03-4.52685E-14
 -1      2875 1.08100E-02 1.34365E-03-4.95638E-14
 -1      2876 1.06398E-02 1.36263E-03-4.83275E-14
 -1      2877 1.05440E-02 1.32825E-03-4.76982E-14
 -1      2878 1.11517E-02 1.31103E-03-5.20667E-14
 -1      2879 1.09812E-02 1.32564E-03-5.08118E-14
 -1      2880 1.08916E-02 1.28431E-03-5.01727E-14
 -1      2881 1.14890E-02 1.29652E-03-5.46084E-14
 -1      2882 1.13214E-02 1.30112E-03-5.33327E-14
 -1      2883 1.12380E-02 1.25377E-03-5.26814E-14
 -1      2884 1.18181E-02 1.30409E-03-5.71874E-14
 -1      2885 1.16549E-02 1.29765E-03-5.58926E-14
 -1      2886 1.15753E-02 1.24665E-03-5.52301E-14
 -1      2887 1.21380E-02 1.33193E-03-5.98008E-14
 -1      2888 1.19793E-02 1.31576E-03-5.84891E-14
 -1      2889 1.19011E-02 1.26287E-03-5.78147E-14
 -1      2890 1.24500E-02 1.37600E-03-6.24526E-14
 -1      2891 1.22950E-02 1.35225E-03-6.11222E-14
 -1      2892 1.22161E-02 1.29841E-03-6.04367E-14
 -1      2893 1.27554E-02 1.43188E-03-6.51332E-14
 -1      2894 1.26034E-02 1.40274E-03-6.37906E-14
 -1      2895 1.25225E-02 1.34841E-03-6.30928E-14
 -1      2896 1.30557E-02 1.49555E-03-6.78382E-14
 -1      2897 1.29061E-02 1.46296E-03-6.64822E-14
 -1      2898 1.28227E-02 1.40841E-03-6.57756E-14
 -1      2899 1.33521E-02 1.56367E-03-7.05647E-14
 -1      2900 1.32043E-02 1.52923E-03-6.91992E-14
 -1      2901 1.31184E-02 1.47467E-03-6.84845E-14
 -1      2902 1.36455E-02 1.63354E-03-7.33074E-14
 -1      2903 1.34991E-02 1.59852E-03-7.19352E-14
 -1      2904 1.34111E-02 1.54422E-03-7.12142E-14
 -1      2905 1.39364E-02 1.70302E-03-7.60648E-14
 -1      2906 1.37912E-02 1.66844E-03-7.46825E-14
 -1      2907 1.37014E-02 1.61468E-03-7.39578E-14
 -1      2908 1.41890E-02 1.75533E-03-7.85208E-14
 -1      2909 1.40448E-02 1.72179E-03-7.71353E-14
 -1      2910 1.39542E-02 1.66889E-03-7.64028E-14
 -1      2911 1.41695E-02 1.70645E-03-7.85417E-14
 -1      2912 1.39229E-02 1.34923E-03-7.79042E-14
 -1      2913 1.39529E-02 1.38389E-03-7.79627E-14
 -1      2914 1.33807E-02 9.17690E-04-7.63116E-14
 -1      2915 1.34768E-02 9.38333E-04-7.72190E-14
 -1      2916 1.33478E-02 9.37128E-04-7.56927E-14
 -1      2917 1.40324E-02 1.48968E-03-7.81318E-14
 -1      2918 1.40560E-02 1.52594E-03-7.81860E-14
 -1      2919 1.38569E-02 1.28019E-03-7.77830E-14
 -1      2920 1.38909E-02 1.31474E-03-7.78450E-14
 -1      2921 1.37880E-02 1.30333E-03-7.66951E-14
 -1      2922 1.39811E-02 1.41875E-03-7.80212E-14
 -1      2923 1.40075E-02 1.45400E-03-7.80773E-14
 -1      2924 1.38999E-02 1.44240E-03-7.69141E-14
 -1      2925 1.38478E-02 1.37220E-03-7.68081E-14
 -1      2926 1.15316E-02 6.00769E-04-5.13312E-14
 -1      2927 1.14272E-02 5.79065E-04-5.11018E-14
 -1      2928 1.37846E-02 1.21178E-03-7.76617E-14
 -1      2929 1.38217E-02 1.24614E-03-7.77234E-14
 -1      2930 1.37206E-02 1.23531E-03-7.65803E-14
 -1      2931 1.37046E-02 1.14068E-03-7.75355E-14
 -1      2932 1.37453E-02 1.17650E-03-7.75982E-14
 -1      2933 1.36453E-02 1.16646E-03-7.64584E-14
 -1      2934 1.36198E-02 1.06723E-03-7.74103E-14
 -1      2935 1.36626E-02 1.10431E-03-7.74720E-14
 -1      2936 1.35629E-02 1.09516E-03-7.63344E-14
 -1      2937 1.70087E-03 4.39716E-04-1.61833E-15
 -1      2938 1.55843E-03 4.25057E-04-1.36866E-15
 -1      2939 1.47596E-03 3.81702E-04-1.27785E-15
 -1      2940 1.76196E-03 4.10298E-04-1.78105E-15
 -1      2941 1.13737E-02 7.26714E-04-5.09267E-14
 -1      2942 1.15032E-02 6.89009E-04-5.13915E-14
 -1      2943 6.52875E-04-1.88456E-04-3.06775E-16
 -1      2944 1.12936E-02 5.43099E-04-5.08655E-14
 -1      2945 1.11415E-02 4.95024E-04-5.05803E-14
 -1      2946 1.03764E-02 1.28733E-04-4.81985E-14
 -1      2947 1.02096E-02 2.77137E-05-4.75692E-14
 -1      2948 1.01009E-02-4.16451E-05-4.75061E-14
 -1      2949 8.97684E-03 9.10992E-04-3.79380E-14
 -1      2950 9.16458E-03 1.03376E-03-3.88888E-14
 -1      2951 2.55244E-03 4.85178E-04-3.55717E-15
 -1      2952 2.41066E-03 4.81399E-04-3.18249E-15
 -1      2953 2.61757E-03 4.49823E-04-3.78660E-15
 -1      2954 2.26885E-03 4.76366E-04-2.82778E-15
 -1      2955 2.12702E-03 4.69954E-04-2.49463E-15
 -1      2956 2.33262E-03 4.42387E-04-3.03638E-15
 -1      2957 1.04813E-03-3.15746E-04-6.40953E-16
 -1      2958 1.19139E-03-3.41292E-04-8.11051E-16
 -1      2959 1.25302E-03-3.19677E-04-9.29514E-16
 -1      2960 9.96720E-04-2.74782E-04-6.18131E-16
 -1      2961 7.43786E-03 1.77378E-04-3.30991E-14
 -1      2962 7.54560E-03 1.98376E-04-3.33552E-14
 -1      2963 8.64169E-03-5.49087E-04-3.89138E-14
 -1      2964 8.48077E-03-4.81382E-04-3.80231E-14
 -1      2965 7.84631E-04 1.23471E-04-4.92160E-16
 -1      2966 7.82286E-04 1.00033E-04-4.96619E-16
 -1      2967 8.99961E-04 9.94299E-05-6.30206E-16
 -1      2968 9.05603E-04 1.51562E-04-6.19500E-16
 -1      2969 8.58006E-03 6.56101E-04-3.61870E-14
 -1      2970 8.75758E-03 7.69307E-04-3.68980E-14
 -1      2971 7.82023E-04-9.79748E-05-4.85533E-16
 -1      2972 7.84295E-04-1.21328E-04-4.78553E-16
 -1      2973 9.67634E-03 1.26563E-03-4.19935E-14
 -1      2974 9.83079E-03 1.28098E-03-4.30337E-14
 -1      2975 1.35391E-02 9.78127E-04-7.75088E-14
 -1      2976 7.20563E-03 1.54576E-04-3.26138E-14
 -1      2977 7.20540E-03 1.55773E-04-3.25713E-14
 -1      2978 9.35771E-03 1.14403E-03-3.99649E-14
 -1      2979 9.50319E-03 1.21419E-03-4.08667E-14
 -1      2980 7.25030E-03 1.59555E-04-3.27246E-14
 -1      2981 7.32423E-03 1.60535E-04-3.28264E-14
 -1      2982 8.91850E-03-6.13240E-04-4.06204E-14
 -1      2983 8.78636E-03-5.92597E-04-3.97641E-14
 -1      2984 7.31761E-03 1.19380E-04-3.31789E-14
 -1      2985 7.25208E-03 1.41998E-04-3.29169E-14
 -1      2986 7.91945E-03-1.70498E-04-3.55152E-14
 -1      2987 7.77002E-03-9.04576E-05-3.49356E-14
 -1      2988 1.16592E-02 6.32810E-04-5.18421E-14
 -1      2989 1.16214E-02 6.24170E-04-5.17277E-14
 -1      2990 1.03277E-02 1.15226E-03-4.60776E-14
 -1      2991 1.05047E-02 1.07402E-03-4.70314E-14
 -1      2992 1.02901E-02 1.19812E-03-4.59724E-14
 -1      2993 1.07181E-02 9.75709E-04-4.80585E-14
 -1      2994 1.08545E-02 9.11221E-04-4.86556E-14
 -1      2995 1.09829E-02 8.99605E-04-4.95881E-14
 -1      2996 8.27552E-03-3.74527E-04-3.70139E-14
 -1      2997 8.09675E-03-2.68360E-04-3.62438E-14
 -1      2998 8.02951E-04 2.78243E-04-4.14599E-16
 -1      2999 7.87299E-04-1.45469E-04-4.69839E-16
 -1      3000 7.91105E-04-1.70625E-04-4.59092E-16
 -1      3001 9.05139E-04-1.49027E-04-6.01434E-16
 -1      3002 8.95898E-04 1.01067E-06-6.34434E-16
 -1      3003 7.78004E-04-9.72128E-06-5.01064E-16
 -1      3004 7.78360E-04-3.13703E-05-4.98869E-16
 -1      3005 1.05249E-02 2.11351E-04-4.91696E-14
 -1      3006 1.12566E-02 8.38499E-04-5.12048E-14
 -1      3007 1.13108E-02 7.79511E-04-5.10654E-14
 -1      3008 1.14394E-02 7.84047E-04-5.20822E-14
 -1      3009 1.16930E-02 6.61087E-04-5.25793E-14
 -1      3010 7.97267E-03-2.43025E-04-3.55173E-14
 -1      3011 7.34468E-03 8.63262E-05-3.30281E-14
 -1      3012 7.25866E-03 8.62811E-05-3.22929E-14
 -1      3013 7.36880E-03 4.63707E-05-3.28729E-14
 -1      3014 1.10299E-02 4.57486E-04-5.07884E-14
 -1      3015 1.09292E-02 4.13283E-04-5.09967E-14
 -1      3016 1.11516E-02 5.04739E-04-5.15823E-14
 -1      3017 9.02790E-03-6.11863E-04-4.13591E-14
 -1      3018 8.91698E-03-6.26466E-04-4.07050E-14
 -1      3019 8.86180E-03 8.39558E-04-3.71157E-14
 -1      3020 7.55888E-03 1.87522E-04-3.27043E-14
 -1      3021 7.63573E-03 2.16097E-04-3.33367E-14
 -1      3022 7.72739E-03 2.39841E-04-3.33156E-14
 -1      3023 8.39871E-03-5.23248E-04-3.74629E-14
 -1      3024 8.49040E-03-5.98385E-04-3.80074E-14
 -1      3025 8.80105E-03-6.50543E-04-4.00579E-14
 -1      3026 8.61951E-03-6.35140E-04-3.88574E-14
 -1      3027 9.57000E-03-3.87344E-04-4.47679E-14
 -1      3028 9.59521E-03-3.79304E-04-4.55452E-14
 -1      3029 1.39459E-02 1.51445E-03-7.70170E-14
 -1      3030 1.40783E-02 1.56247E-03-7.82374E-14
 -1      3031 1.40999E-02 1.59969E-03-7.82874E-14
 -1      3032 9.78189E-03-2.69817E-04-4.67805E-14
 -1      3033 9.84495E-03-2.09315E-04-4.64713E-14
 -1      3034 9.72710E-03-2.85498E-04-4.56135E-14
 -1      3035 9.25642E-03 1.08828E-03-3.92247E-14
 -1      3036 7.20335E-03 1.39754E-04-3.20236E-14
 -1      3037 9.19529E-03-5.70573E-04-4.24584E-14
 -1      3038 1.15944E-02 6.97600E-04-5.22296E-14
 -1      3039 2.04747E-03 4.29784E-04-2.36755E-15
 -1      3040 1.16080E-02 6.32953E-04-5.22448E-14
 -1      3041 1.41241E-02 1.63326E-03-7.83935E-14
 -1      3042 1.41452E-02 1.67176E-03-7.84414E-14
 -1      3043 1.40382E-02 1.65292E-03-7.73727E-14
 -1      3044 1.39910E-02 1.58466E-03-7.71695E-14
 -1      3045 9.60417E-03 1.24889E-03-4.14241E-14
 -1      3046 8.46136E-03 5.84251E-04-3.55924E-14
 -1      3047 8.53577E-03 6.35060E-04-3.54919E-14
 -1      3048 8.34417E-03 5.18518E-04-3.49998E-14
 -1      3049 1.35825E-02 1.01708E-03-7.75742E-14
 -1      3050 7.70034E-04-2.02423E-04-4.14612E-16
 -1      3051 7.63584E-03-5.02197E-05-3.41988E-14
 -1      3052 7.50873E-03-2.24173E-05-3.34669E-14
 -1      3053 7.66503E-03-1.12752E-04-3.40518E-14
 -1      3054 9.94522E-03-1.57399E-04-4.74379E-14
 -1      3055 8.02987E-03 3.63390E-04-3.45227E-14
 -1      3056 8.11425E-03 3.99191E-04-3.44012E-14
 -1      3057 7.91251E-03 3.09601E-04-3.38353E-14
 -1      3058 1.13868E-02 5.77519E-04-5.16105E-14
 -1      3059 7.35863E-03 1.53026E-04-3.24528E-14
 -1      3060 9.94942E-03 1.28361E-03-4.37850E-14
 -1      3061 8.67564E-03-5.85487E-04-3.91163E-14
 -1      3062 7.79124E-04-5.31567E-05-4.95548E-16
 -1      3063 7.80318E-04-7.53474E-05-4.91076E-16
 -1      3064 8.99683E-04-9.70771E-05-6.18361E-16
 -1      3065 8.96776E-04-4.75163E-05-6.29013E-16
 -1      3066 8.34393E-03-4.43815E-04-3.72545E-14
 -1      3067 7.19200E-03 1.34009E-04-3.21528E-14
 -1      3068 1.34149E-02 9.73208E-04-7.60643E-14
 -1      3069 1.35538E-02 1.03201E-03-7.70362E-14
 -1      3070 1.34536E-02 1.02378E-03-7.58990E-14
 -1      3071 1.33196E-02 9.53107E-04-7.51543E-14
 -1      3072 8.64783E-04 2.66542E-04-4.97310E-16
 -1      3073 9.82918E-04 2.75722E-04-6.36549E-16
 -1      3074 1.06491E-02 1.04294E-03-4.79511E-14
 -1      3075 1.02587E-02 1.24326E-03-4.58291E-14
 -1      3076 1.04087E-02 1.18901E-03-4.67797E-14
 -1      3077 1.04039E-03 2.43189E-04-7.38721E-16
 -1      3078 1.03386E-03 2.11468E-04-7.51311E-16
 -1      3079 1.16120E-02 7.44765E-04-5.29964E-14
 -1      3080 1.16927E-02 7.16682E-04-5.32835E-14
 -1      3081 8.76154E-03 7.81411E-04-3.63295E-14
 -1      3082 8.96114E-03 9.09886E-04-3.73613E-14
 -1      3083 7.99962E-03-3.16065E-04-3.54239E-14
 -1      3084 7.83768E-03-2.28704E-04-3.46950E-14
 -1      3085 1.09646E-02 9.57464E-04-4.98490E-14
 -1      3086 1.10854E-02 9.10956E-04-5.04544E-14
 -1      3087 8.21272E-03-4.31247E-04-3.64520E-14
 -1      3088 1.73179E-03-3.39643E-04-1.73510E-15
 -1      3089 1.87548E-03-3.49593E-04-2.01076E-15
 -1      3090 2.01915E-03-3.57777E-04-2.30686E-15
 -1      3091 2.16281E-03-3.64344E-04-2.62309E-15
 -1      3092 1.94043E-03-3.18197E-04-2.18579E-15
 -1      3093 2.30643E-03-3.69562E-04-2.95896E-15
 -1      3094 2.44999E-03-3.73551E-04-3.31456E-15
 -1      3095 2.22849E-03-3.30633E-04-2.82090E-15
 -1      3096 2.59350E-03-3.76523E-04-3.69027E-15
 -1      3097 2.73694E-03-3.78569E-04-4.08515E-15
 -1      3098 2.51646E-03-3.38225E-04-3.53519E-15
 -1      3099 2.88033E-03-3.79848E-04-4.49882E-15
 -1      3100 3.02366E-03-3.80429E-04-4.93201E-15
 -1      3101 2.80418E-03-3.42144E-04-4.32701E-15
 -1      3102 3.16694E-03-3.80426E-04-5.38381E-15
 -1      3103 3.31016E-03-3.79886E-04-5.85438E-15
 -1      3104 3.09158E-03-3.43281E-04-5.19487E-15
 -1      3105 3.45334E-03-3.78891E-04-6.34230E-15
 -1      3106 3.59646E-03-3.77469E-04-6.84816E-15
 -1      3107 3.37861E-03-3.42289E-04-6.13686E-15
 -1      3108 3.73953E-03-3.75674E-04-7.37252E-15
 -1      3109 3.88256E-03-3.73524E-04-7.91508E-15
 -1      3110 3.66526E-03-3.39619E-04-7.15048E-15
 -1      3111 4.02554E-03-3.71053E-04-8.47490E-15
 -1      3112 4.16847E-03-3.68270E-04-9.05282E-15
 -1      3113 3.95148E-03-3.35565E-04-8.23666E-15
 -1      3114 4.31134E-03-3.65198E-04-9.64903E-15
 -1      3115 4.45416E-03-3.61839E-04-1.02619E-14
 -1      3116 4.23725E-03-3.30312E-04-9.39358E-15
 -1      3117 4.59690E-03-3.58215E-04-1.08910E-14
 -1      3118 4.73960E-03-3.54326E-04-1.15387E-14
 -1      3119 4.52248E-03-3.23973E-04-1.06206E-14
 -1      3120 4.88220E-03-3.50197E-04-1.22051E-14
 -1      3121 5.02474E-03-3.45833E-04-1.28869E-14
 -1      3122 4.80711E-03-3.16633E-04-1.19170E-14
 -1      3123 5.16717E-03-3.41275E-04-1.35847E-14
 -1      3124 5.30953E-03-3.36533E-04-1.43000E-14
 -1      3125 5.09099E-03-3.08401E-04-1.32830E-14
 -1      3126 5.45175E-03-3.31676E-04-1.50319E-14
 -1      3127 5.59390E-03-3.26730E-04-1.57803E-14
 -1      3128 5.37400E-03-2.99456E-04-1.47149E-14
 -1      3129 5.73589E-03-3.21799E-04-1.65459E-14
 -1      3130 5.81142E-03-3.21340E-04-1.72196E-14
 -1      3131 5.65597E-03-2.90108E-04-1.62144E-14
 -1      3132 5.87213E-03-3.33456E-04-1.78827E-14
 -1      3133 5.93291E-03-3.36018E-04-1.85723E-14
 -1      3134 5.84718E-03-3.10848E-04-1.76369E-14
 -1      3135 5.98653E-03-3.36781E-04-1.92655E-14
 -1      3136 6.03550E-03-3.37377E-04-1.99707E-14
 -1      3137 5.96042E-03-3.25520E-04-1.90064E-14
 -1      3138 6.08011E-03-3.40739E-04-2.06907E-14
 -1      3139 6.12071E-03-3.44887E-04-2.14369E-14
 -1      3140 6.06921E-03-3.32224E-04-2.04413E-14
 -1      3141 6.16024E-03-3.46833E-04-2.22077E-14
 -1      3142 6.20288E-03-3.45715E-04-2.30153E-14
 -1      3143 6.16180E-03-3.34277E-04-2.19516E-14
 -1      3144 6.24578E-03-3.25466E-04-2.38795E-14
 -1      3145 6.30742E-03-3.02048E-04-2.47941E-14
 -1      3146 6.24802E-03-2.98929E-04-2.35911E-14
 -1      3147 6.36649E-03-2.59750E-04-2.56831E-14
 -1      3148 6.47983E-03-3.04367E-04-2.66977E-14
 -1      3149 6.29529E-03-2.45184E-04-2.53239E-14
 -1      3150 6.65728E-03-2.49667E-04-2.78940E-14
 -1      3151 6.87215E-03-2.43086E-04-2.90843E-14
 -1      3152 6.55119E-03-1.87478E-04-2.74299E-14
 -1      3153 7.08826E-03-2.48837E-04-3.02639E-14
 -1      3154 7.30040E-03-2.59828E-04-3.14387E-14
 -1      3155 6.99135E-03-1.61285E-04-2.97876E-14
 -1      3156 7.85565E-03-3.61421E-04-3.44479E-14
 -1      3157 8.06843E-03-4.13389E-04-3.56214E-14
 -1      3158 9.54231E-03 1.23169E-03-4.08744E-14
 -1      3159 9.70334E-03 1.28060E-03-4.20001E-14
 -1      3160 9.16288E-03 1.03690E-03-3.84491E-14
 -1      3161 9.33978E-03 1.14027E-03-3.95184E-14
 -1      3162 1.06939E-02 2.54113E-04-5.19823E-14
 -1      3163 1.08670E-02 3.27457E-04-5.32420E-14
 -1      3164 1.10336E-02 3.90670E-04-5.45068E-14
 -1      3165 1.11937E-02 4.47329E-04-5.57824E-14
 -1      3166 1.10414E-02 4.16241E-04-5.39116E-14
 -1      3167 1.13491E-02 4.97277E-04-5.70615E-14
 -1      3168 1.15005E-02 5.42907E-04-5.83456E-14
 -1      3169 1.13521E-02 5.19884E-04-5.64573E-14
 -1      3170 1.16489E-02 5.84366E-04-5.96360E-14
 -1      3171 1.17953E-02 6.22946E-04-6.09320E-14
 -1      3172 1.16453E-02 6.04676E-04-5.90297E-14
 -1      3173 1.19399E-02 6.58904E-04-6.22356E-14
 -1      3174 1.20836E-02 6.92971E-04-6.35448E-14
 -1      3175 1.19297E-02 6.77991E-04-6.16245E-14
 -1      3176 1.22265E-02 7.25464E-04-6.48580E-14
 -1      3177 1.23689E-02 7.56809E-04-6.61749E-14
 -1      3178 1.22102E-02 7.44133E-04-6.42436E-14
 -1      3179 1.25111E-02 7.87325E-04-6.74994E-14
 -1      3180 1.26531E-02 8.17276E-04-6.88271E-14
 -1      3181 1.24897E-02 8.05993E-04-6.68839E-14
 -1      3182 1.27950E-02 8.46949E-04-7.01585E-14
 -1      3183 1.29370E-02 8.76528E-04-7.14919E-14
 -1      3184 1.27695E-02 8.65706E-04-6.95428E-14
 -1      3185 1.30571E-02 8.99524E-04-7.26538E-14
 -1      3186 1.31992E-02 9.29511E-04-7.39921E-14
 -1      3187 1.32671E-02 9.64882E-04-7.43632E-14
 -1      3188 1.30285E-02 9.18308E-04-7.20374E-14
 -1      3189 2.96938E-03 4.16716E-04-4.86518E-15
 -1      3190 2.82643E-03 4.15761E-04-4.43187E-15
 -1      3191 3.82689E-03 4.11160E-04-7.87303E-15
 -1      3192 3.68397E-03 4.13156E-04-7.32328E-15
 -1      3193 4.11277E-03 4.06170E-04-9.02985E-15
 -1      3194 3.96982E-03 4.08827E-04-8.44206E-15
 -1      3195 3.89578E-03 3.73151E-04-8.18064E-15
 -1      3196 4.39875E-03 3.99971E-04-1.02615E-14
 -1      3197 4.25574E-03 4.03215E-04-9.63638E-15
 -1      3198 4.18170E-03 3.68052E-04-9.35393E-15
 -1      3199 4.68484E-03 3.92682E-04-1.15676E-14
 -1      3200 4.54177E-03 3.96457E-04-1.09057E-14
 -1      3201 4.46743E-03 3.61816E-04-1.06024E-14
 -1      3202 4.97110E-03 3.84431E-04-1.29436E-14
 -1      3203 4.82794E-03 3.88670E-04-1.22469E-14
 -1      3204 4.75294E-03 3.54544E-04-1.19232E-14
 -1      3205 5.25760E-03 3.75412E-04-1.43902E-14
 -1      3206 5.11431E-03 3.80004E-04-1.36581E-14
 -1      3207 5.03826E-03 3.46357E-04-1.33150E-14
 -1      3208 5.54447E-03 3.65952E-04-1.59066E-14
 -1      3209 5.40097E-03 3.70713E-04-1.51403E-14
 -1      3210 5.32339E-03 3.37446E-04-1.47776E-14
 -1      3211 5.83190E-03 3.56599E-04-1.74872E-14
 -1      3212 5.68808E-03 3.61223E-04-1.66888E-14
 -1      3213 5.60840E-03 3.28133E-04-1.63077E-14
 -1      3214 6.12023E-03 3.48208E-04-1.91296E-14
 -1      3215 5.97590E-03 3.52219E-04-1.83006E-14
 -1      3216 5.89347E-03 3.18950E-04-1.79015E-14
 -1      3217 6.41005E-03 3.42055E-04-2.08315E-14
 -1      3218 6.26489E-03 3.44754E-04-1.99730E-14
 -1      3219 6.17893E-03 3.10720E-04-1.95566E-14
 -1      3220 6.70232E-03 3.39967E-04-2.25916E-14
 -1      3221 6.55579E-03 3.40358E-04-2.17035E-14
 -1      3222 6.46542E-03 3.04657E-04-2.12695E-14
 -1      3223 6.99856E-03 3.44461E-04-2.44092E-14
 -1      3224 6.84982E-03 3.41179E-04-2.34936E-14
 -1      3225 6.75406E-03 3.02493E-04-2.30416E-14
 -1      3226 7.30103E-03 3.58910E-04-2.62864E-14
 -1      3227 7.14886E-03 3.50136E-04-2.53401E-14
 -1      3228 7.04669E-03 3.06640E-04-2.48707E-14
 -1      3229 7.61276E-03 3.87703E-04-2.82209E-14
 -1      3230 7.45558E-03 3.71093E-04-2.72472E-14
 -1      3231 7.34617E-03 3.20444E-04-2.67591E-14
 -1      3232 7.92360E-03 4.66923E-04-3.02308E-14
 -1      3233 7.76653E-03 4.22377E-04-2.92179E-14
 -1      3234 7.64862E-03 3.60917E-04-2.87136E-14
 -1      3235 8.24787E-03 5.88103E-04-3.22943E-14
 -1      3236 8.08406E-03 5.22262E-04-3.12541E-14
 -1      3237 7.95700E-03 4.46781E-04-3.07320E-14
 -1      3238 8.58827E-03 7.48858E-04-3.44165E-14
 -1      3239 8.41697E-03 6.63851E-04-3.33492E-14
 -1      3240 8.28371E-03 5.74687E-04-3.28087E-14
 -1      3241 8.96528E-03 9.43580E-04-3.68699E-14
 -1      3242 8.78936E-03 8.45131E-04-3.57677E-14
 -1      3243 9.32095E-03 1.14754E-03-3.90765E-14
 -1      3244 9.15103E-03 1.05898E-03-3.79493E-14
 -1      3245 9.67943E-03 1.29261E-03-4.15834E-14
 -1      3246 9.51585E-03 1.23680E-03-4.04264E-14
 -1      3247 9.84275E-03 1.32540E-03-4.27521E-14
 -1      3248 1.02744E-02 1.32376E-03-4.58598E-14
 -1      3249 1.01046E-02 1.33644E-03-4.46571E-14
 -1      3250 1.05481E-02 1.26757E-03-4.77793E-14
 -1      3251 1.03710E-02 1.29551E-03-4.65581E-14
 -1      3252 1.09802E-02 1.22001E-03-5.07776E-14
 -1      3253 1.08026E-02 1.24214E-03-4.95336E-14
 -1      3254 1.13296E-02 1.19549E-03-5.32977E-14
 -1      3255 1.11570E-02 1.20449E-03-5.20347E-14
 -1      3256 1.10783E-02 1.15379E-03-5.13869E-14
 -1      3257 1.16644E-02 1.19809E-03-5.58533E-14
 -1      3258 1.14991E-02 1.19367E-03-5.45695E-14
 -1      3259 1.14263E-02 1.13877E-03-5.39134E-14
 -1      3260 1.19849E-02 1.22400E-03-5.84427E-14
 -1      3261 1.18265E-02 1.20864E-03-5.71429E-14
 -1      3262 1.17555E-02 1.15279E-03-5.64742E-14
 -1      3263 1.22937E-02 1.26742E-03-6.10723E-14
 -1      3264 1.21406E-02 1.24396E-03-5.97529E-14
 -1      3265 1.20687E-02 1.18861E-03-5.90718E-14
 -1      3266 1.25941E-02 1.32308E-03-6.37306E-14
 -1      3267 1.24448E-02 1.29405E-03-6.23978E-14
 -1      3268 1.23702E-02 1.23946E-03-6.17061E-14
 -1      3269 1.28889E-02 1.38678E-03-6.64197E-14
 -1      3270 1.27421E-02 1.35417E-03-6.50738E-14
 -1      3271 1.26642E-02 1.30015E-03-6.43702E-14
 -1      3272 1.31802E-02 1.45523E-03-6.91302E-14
 -1      3273 1.30349E-02 1.42059E-03-6.77716E-14
 -1      3274 1.29537E-02 1.36696E-03-6.70632E-14
 -1      3275 1.34693E-02 1.52585E-03-7.18618E-14
 -1      3276 1.33250E-02 1.49040E-03-7.04917E-14
 -1      3277 1.32407E-02 1.43710E-03-6.97763E-14
 -1      3278 1.37569E-02 1.59664E-03-7.46063E-14
 -1      3279 1.36132E-02 1.56133E-03-7.32326E-14
 -1      3280 1.35265E-02 1.50844E-03-7.25070E-14
 -1      3281 1.39516E-02 1.63472E-03-7.65211E-14
 -1      3282 1.38440E-02 1.61527E-03-7.54540E-14
 -1      3283 1.37557E-02 1.56291E-03-7.47253E-14
 -1      3284 1.39284E-02 1.60018E-03-7.64222E-14
 -1      3285 1.14496E-03 3.10401E-04-8.26569E-16
 -1      3286 1.08240E-03 2.71517E-04-7.73605E-16
 -1      3287 1.20154E-03 2.72850E-04-9.44083E-16
 -1      3288 1.28812E-03 3.32253E-04-1.02099E-15
 -1      3289 7.15813E-03 1.19765E-04-3.12883E-14
 -1      3290 7.20793E-03 1.21226E-04-3.14503E-14
 -1      3291 1.01701E-03 6.81695E-05-7.82645E-16
 -1      3292 1.01586E-03 4.12018E-05-7.83865E-16
 -1      3293 1.36535E-02 1.25764E-03-7.54911E-14
 -1      3294 1.36853E-02 1.29162E-03-7.55448E-14
 -1      3295 1.34206E-02 1.05004E-03-7.51364E-14
 -1      3296 1.34639E-02 1.08615E-03-7.51975E-14
 -1      3297 1.35843E-02 1.19075E-03-7.53791E-14
 -1      3298 1.36199E-02 1.22429E-03-7.54349E-14
 -1      3299 1.35197E-02 1.21290E-03-7.42897E-14
 -1      3300 2.68345E-03 4.14039E-04-4.01720E-15
 -1      3301 2.54044E-03 4.11472E-04-3.62216E-15
 -1      3302 2.75003E-03 3.77916E-04-4.24956E-15
 -1      3303 1.35058E-02 1.12153E-03-7.52597E-14
 -1      3304 1.35460E-02 1.15638E-03-7.53203E-14
 -1      3305 1.34473E-02 1.14605E-03-7.41804E-14
 -1      3306 1.33657E-02 1.07703E-03-7.40635E-14
 -1      3307 3.54105E-03 4.14777E-04-6.79258E-15
 -1      3308 3.39814E-03 4.15999E-04-6.28191E-15
 -1      3309 3.60966E-03 3.76972E-04-7.08228E-15
 -1      3310 3.25523E-03 4.16763E-04-5.79093E-15
 -1      3311 3.11232E-03 4.17032E-04-5.31827E-15
 -1      3312 3.03680E-03 3.79786E-04-5.11747E-15
 -1      3313 3.32334E-03 3.79299E-04-6.06149E-15
 -1      3314 1.16720E-02 6.60407E-04-5.31874E-14
 -1      3315 1.15808E-02 6.37742E-04-5.27888E-14
 -1      3316 1.44468E-03-3.13315E-04-1.24476E-15
 -1      3317 1.58819E-03-3.27611E-04-1.47979E-15
 -1      3318 1.65260E-03-2.99470E-04-1.63078E-15
 -1      3319 1.06633E-02 2.81961E-04-5.02381E-14
 -1      3320 1.04065E-02 1.40128E-04-4.92006E-14
 -1      3321 2.39738E-03 4.07883E-04-3.24660E-15
 -1      3322 2.25427E-03 4.03170E-04-2.89062E-15
 -1      3323 2.46303E-03 3.72947E-04-3.45832E-15
 -1      3324 2.11110E-03 3.97094E-04-2.55523E-15
 -1      3325 1.96786E-03 3.89519E-04-2.24065E-15
 -1      3326 2.17579E-03 3.63865E-04-2.74612E-15
 -1      3327 1.14843E-02 6.12905E-04-5.25516E-14
 -1      3328 1.13669E-02 5.80399E-04-5.23139E-14
 -1      3329 1.15740E-02 6.43736E-04-5.34954E-14
 -1      3330 1.17295E-02 6.91807E-04-5.33404E-14
 -1      3331 1.17311E-02 6.81288E-04-5.34035E-14
 -1      3332 8.87992E-04-2.11803E-04-5.39933E-16
 -1      3333 1.06025E-02 1.11049E-03-4.79155E-14
 -1      3334 1.07932E-02 1.02680E-03-4.89500E-14
 -1      3335 7.29358E-03 1.31031E-04-3.17437E-14
 -1      3336 7.39673E-03 1.45441E-04-3.20145E-14
 -1      3337 7.16766E-03 1.06449E-04-3.15837E-14
 -1      3338 7.13868E-03 1.15117E-04-3.13013E-14
 -1      3339 1.01527E-03 1.44409E-05-7.83526E-16
 -1      3340 1.01524E-03-1.22207E-05-7.81778E-16
 -1      3341 1.13601E-03 3.01387E-05-9.47932E-16
 -1      3342 1.15335E-03 2.11678E-04-9.17330E-16
 -1      3343 1.02858E-03 1.81079E-04-7.61517E-16
 -1      3344 1.02446E-03 1.51766E-04-7.69743E-16
 -1      3345 1.01539E-02 1.27657E-03-4.51364E-14
 -1      3346 1.02755E-02 1.27400E-03-4.59364E-14
 -1      3347 1.17650E-02 7.31487E-04-5.41135E-14
 -1      3348 1.12366E-02 8.96049E-04-5.14664E-14
 -1      3349 7.22638E-03 1.09434E-04-3.10253E-14
 -1      3350 7.38914E-03-2.47599E-06-3.27172E-14
 -1      3351 7.27805E-03 8.15407E-06-3.19719E-14
 -1      3352 7.40311E-03-5.82989E-05-3.25590E-14
 -1      3353 1.12810E-02 5.52855E-04-5.25232E-14
 -1      3354 1.11973E-02 5.18910E-04-5.27319E-14
 -1      3355 1.14005E-02 5.92309E-04-5.34673E-14
 -1      3356 9.05426E-03 9.79771E-04-3.76471E-14
 -1      3357 7.69474E-03-1.88453E-04-3.39484E-14
 -1      3358 7.46349E-03 1.55948E-04-3.19997E-14
 -1      3359 7.53454E-03 1.71133E-04-3.19816E-14
 -1      3360 7.37890E-03 1.30527E-04-3.13006E-14
 -1      3361 7.81007E-03 2.64965E-04-3.32000E-14
 -1      3362 7.88482E-03 2.95378E-04-3.30817E-14
 -1      3363 7.71484E-03 2.29142E-04-3.25703E-14
 -1      3364 7.51465E-03-2.93724E-04-3.25968E-14
 -1      3365 7.72676E-03-3.25516E-04-3.37677E-14
 -1      3366 1.38142E-02 1.46632E-03-7.58020E-14
 -1      3367 1.38353E-02 1.50280E-03-7.58486E-14
 -1      3368 1.15755E-02 7.84875E-04-5.31360E-14
 -1      3369 1.16982E-02 7.96861E-04-5.41964E-14
 -1      3370 1.15398E-02 8.31478E-04-5.32761E-14
 -1      3371 9.44417E-03 1.19581E-03-4.00828E-14
 -1      3372 1.00465E-02-8.76060E-05-4.78442E-14
 -1      3373 8.65283E-03 7.46862E-04-3.52095E-14
 -1      3374 9.90533E-03 1.31424E-03-4.33271E-14
 -1      3375 1.06406E-02 1.20058E-03-4.83751E-14
 -1      3376 1.43137E-03 3.50910E-04-1.23688E-15
 -1      3377 1.38752E-03 3.20632E-04-1.19474E-15
 -1      3378 1.57472E-03 3.66669E-04-1.47377E-15
 -1      3379 1.37680E-02 1.39485E-03-7.57012E-14
 -1      3380 1.37919E-02 1.43028E-03-7.57516E-14
 -1      3381 1.36832E-02 1.41780E-03-7.45881E-14
 -1      3382 1.01878E-03 9.54177E-05-7.79989E-16
 -1      3383 1.13862E-03 8.84820E-05-9.45316E-16
 -1      3384 1.02121E-03 1.23176E-04-7.75679E-16
 -1      3385 8.08834E-03 3.89972E-04-3.36233E-14
 -1      3386 8.21406E-03 4.49364E-04-3.43074E-14
 -1      3387 8.29329E-03 5.01202E-04-3.42106E-14
 -1      3388 1.18035E-02 7.17573E-04-5.47166E-14
 -1      3389 1.17416E-02 6.88690E-04-5.39486E-14
 -1      3390 1.17410E-02 6.95094E-04-5.44963E-14
 -1      3391 1.37149E-02 1.32564E-03-7.55982E-14
 -1      3392 1.37425E-02 1.36009E-03-7.56509E-14
 -1      3393 1.36368E-02 1.34747E-03-7.44920E-14
 -1      3394 1.35826E-02 1.27941E-03-7.43932E-14
 -1      3395 1.05598E-02 1.17011E-03-4.77701E-14
 -1      3396 1.84291E-03 3.85506E-04-1.97818E-15
 -1      3397 1.69960E-03 3.74358E-04-1.70189E-15
 -1      3398 1.65607E-03 3.44250E-04-1.65155E-15
 -1      3399 1.90668E-03 3.54515E-04-2.14782E-15
 -1      3400 1.31617E-03-2.96998E-04-1.05272E-15
 -1      3401 1.38039E-03-2.73090E-04-1.18060E-15
 -1      3402 1.18791E-03-2.78577E-04-8.77228E-16
 -1      3403 1.03396E-02 8.33658E-05-4.95427E-14
 -1      3404 1.05277E-02 1.79950E-04-5.07925E-14
 -1      3405 1.01859E-02 2.37731E-06-4.84761E-14
 -1      3406 7.72901E-03-2.65688E-04-3.39193E-14
 -1      3407 7.16320E-03 8.52572E-05-3.14207E-14
 -1      3408 7.08395E-03 7.45074E-05-3.05615E-14
 -1      3409 7.16076E-03 5.67148E-05-3.12542E-14
 -1      3410 1.07185E-02 2.88353E-04-5.14559E-14
 -1      3411 1.08723E-02 3.83343E-04-5.12108E-14
 -1      3412 1.07588E-02 3.17598E-04-5.12425E-14
 -1      3413 1.09143E-02 3.81328E-04-5.24342E-14
 -1      3414 1.10043E-02 4.38622E-04-5.20050E-14
 -1      3415 1.01437E-03-2.34319E-04-6.78534E-16
 -1      3416 7.39246E-03-1.93624E-04-3.20961E-14
 -1      3417 9.97542E-03 1.30197E-03-4.38915E-14
 -1      3418 1.01852E-03-9.29423E-05-7.67561E-16
 -1      3419 1.02086E-03-1.20644E-04-7.59619E-16
 -1      3420 1.33109E-02 9.90450E-04-7.45634E-14
 -1      3421 1.33778E-02 1.02505E-03-7.49341E-14
 -1      3422 1.32794E-02 1.01693E-03-7.38013E-14
 -1      3423 1.31920E-02 9.66904E-04-7.34003E-14
 -1      3424 7.06912E-03 8.12889E-05-3.01689E-14
 -1      3425 7.11440E-03 1.01878E-04-3.07334E-14
 -1      3426 7.10117E-03 8.41762E-05-3.01772E-14
 -1      3427 1.09112E-02 1.02976E-03-4.98127E-14
 -1      3428 1.02400E-03-1.49036E-04-7.49997E-16
 -1      3429 1.02798E-03-1.78263E-04-7.37840E-16
 -1      3430 1.14367E-03-1.45779E-04-9.14592E-16
 -1      3431 1.18181E-02 7.74937E-04-5.50256E-14
 -1      3432 1.18397E-02 7.50116E-04-5.50819E-14
 -1      3433 7.16333E-03 8.69768E-05-3.02557E-14
 -1      3434 7.24578E-03 9.84604E-05-3.05488E-14
 -1      3435 8.56142E-03 6.74596E-04-3.49748E-14
 -1      3436 2.15078E-03-2.91854E-04-2.68310E-15
 -1      3437 2.29513E-03-2.96388E-04-3.02185E-15
 -1      3438 2.43946E-03-2.99906E-04-3.38003E-15
 -1      3439 2.58374E-03-3.02497E-04-3.75820E-15
 -1      3440 2.36262E-03-2.61664E-04-3.22569E-15
 -1      3441 2.72795E-03-3.04318E-04-4.15500E-15
 -1      3442 2.87207E-03-3.05434E-04-4.57100E-15
 -1      3443 2.65175E-03-2.66435E-04-3.98345E-15
 -1      3444 3.01609E-03-3.05966E-04-5.00586E-15
 -1      3445 3.15998E-03-3.05958E-04-5.45954E-15
 -1      3446 2.94055E-03-2.68514E-04-4.81729E-15
 -1      3447 3.30375E-03-3.05501E-04-5.93171E-15
 -1      3448 3.44739E-03-3.04622E-04-6.42113E-15
 -1      3449 3.22883E-03-2.68536E-04-5.72632E-15
 -1      3450 3.59088E-03-3.03385E-04-6.92930E-15
 -1      3451 3.73421E-03-3.01804E-04-7.45483E-15
 -1      3452 3.51645E-03-2.66960E-04-6.70784E-15
 -1      3453 3.87739E-03-2.99925E-04-7.99752E-15
 -1      3454 4.02040E-03-2.97751E-04-8.55918E-15
 -1      3455 3.80331E-03-2.64098E-04-7.76007E-15
 -1      3456 4.16322E-03-2.95316E-04-9.13858E-15
 -1      3457 4.30586E-03-2.92615E-04-9.73572E-15
 -1      3458 4.08931E-03-2.60153E-04-8.88398E-15
 -1      3459 4.44827E-03-2.89678E-04-1.03496E-14
 -1      3460 4.59047E-03-2.86495E-04-1.09802E-14
 -1      3461 4.37431E-03-2.55251E-04-1.00785E-14
 -1      3462 4.73241E-03-2.83096E-04-1.16296E-14
 -1      3463 4.87409E-03-2.79471E-04-1.22973E-14
 -1      3464 4.65815E-03-2.49476E-04-1.13437E-14
 -1      3465 5.01546E-03-2.75660E-04-1.29803E-14
 -1      3466 5.15653E-03-2.71654E-04-1.36801E-14
 -1      3467 4.94061E-03-2.42907E-04-1.26776E-14
 -1      3468 5.29722E-03-2.67512E-04-1.43976E-14
 -1      3469 5.43754E-03-2.63230E-04-1.51316E-14
 -1      3470 5.22142E-03-2.35659E-04-1.40797E-14
 -1      3471 5.57743E-03-2.58893E-04-1.58822E-14
 -1      3472 5.71689E-03-2.54507E-04-1.66500E-14
 -1      3473 5.50028E-03-2.27918E-04-1.55506E-14
 -1      3474 5.78973E-03-2.84155E-04-1.73445E-14
 -1      3475 5.85851E-03-2.99502E-04-1.80301E-14
 -1      3476 5.72452E-03-2.48760E-04-1.70276E-14
 -1      3477 5.92957E-03-3.07715E-04-1.87392E-14
 -1      3478 5.99602E-03-3.13254E-04-1.94599E-14
 -1      3479 5.89087E-03-2.81775E-04-1.84606E-14
 -1      3480 6.05817E-03-3.18414E-04-2.01878E-14
 -1      3481 6.11577E-03-3.22469E-04-2.09369E-14
 -1      3482 6.04322E-03-2.98686E-04-1.99301E-14
 -1      3483 6.16774E-03-3.26906E-04-2.17033E-14
 -1      3484 6.21651E-03-3.20350E-04-2.24968E-14
 -1      3485 6.17654E-03-3.11850E-04-2.14599E-14
 -1      3486 6.24518E-03-2.97516E-04-2.33320E-14
 -1      3487 6.29566E-03-2.53666E-04-2.42017E-14
 -1      3488 6.26939E-03-2.98343E-04-2.30940E-14
 -1      3489 6.29156E-03-1.88648E-04-2.49900E-14
 -1      3490 6.37110E-03-1.63477E-04-2.58921E-14
 -1      3491 6.28585E-03-1.54402E-04-2.46932E-14
 -1      3492 6.55675E-03-9.70273E-05-2.70402E-14
 -1      3493 6.73082E-03-9.82200E-05-2.81935E-14
 -1      3494 6.51928E-03-6.86283E-05-2.66542E-14
 -1      3495 6.95254E-03-4.13590E-05-2.95237E-14
 -1      3496 7.10926E-03-3.31617E-05-3.06498E-14
 -1      3497 1.13629E-02 5.42584E-04-5.58567E-14
 -1      3498 1.15066E-02 5.85284E-04-5.71374E-14
 -1      3499 1.16469E-02 6.24386E-04-5.84226E-14
 -1      3500 1.17856E-02 6.61274E-04-5.97161E-14
 -1      3501 1.16538E-02 6.43719E-04-5.78156E-14
 -1      3502 1.19229E-02 6.96062E-04-6.10139E-14
 -1      3503 1.20599E-02 7.29451E-04-6.23181E-14
 -1      3504 1.19197E-02 7.13184E-04-6.04033E-14
 -1      3505 1.21964E-02 7.61617E-04-6.36309E-14
 -1      3506 1.23332E-02 7.92883E-04-6.49487E-14
 -1      3507 1.21850E-02 7.77901E-04-6.30156E-14
 -1      3508 1.24701E-02 8.23481E-04-6.62679E-14
 -1      3509 1.26075E-02 8.53575E-04-6.75952E-14
 -1      3510 1.24522E-02 8.39737E-04-6.56529E-14
 -1      3511 1.27453E-02 8.83411E-04-6.89259E-14
 -1      3512 1.28836E-02 9.13069E-04-7.02595E-14
 -1      3513 1.27223E-02 8.99974E-04-6.83077E-14
 -1      3514 4.25045E-03 3.30111E-04-9.67814E-15
 -1      3515 4.10762E-03 3.32804E-04-9.07423E-15
 -1      3516 3.96467E-03 3.35213E-04-8.48853E-15
 -1      3517 3.82161E-03 3.37337E-04-7.92134E-15
 -1      3518 4.03354E-03 2.97422E-04-8.79644E-15
 -1      3519 4.82049E-03 3.16806E-04-1.22796E-14
 -1      3520 4.67818E-03 3.20496E-04-1.16029E-14
 -1      3521 5.10464E-03 3.08802E-04-1.36865E-14
 -1      3522 4.96263E-03 3.12908E-04-1.29741E-14
 -1      3523 4.88750E-03 2.79537E-04-1.26355E-14
 -1      3524 5.38817E-03 3.00115E-04-1.51638E-14
 -1      3525 5.24647E-03 3.04534E-04-1.44160E-14
 -1      3526 5.17030E-03 2.71831E-04-1.40574E-14
 -1      3527 5.67108E-03 2.91050E-04-1.67072E-14
 -1      3528 5.52968E-03 2.95611E-04-1.59277E-14
 -1      3529 5.45200E-03 2.63478E-04-1.55492E-14
 -1      3530 5.95350E-03 2.82107E-04-1.83136E-14
 -1      3531 5.81232E-03 2.86530E-04-1.75027E-14
 -1      3532 5.73256E-03 2.54755E-04-1.71059E-14
 -1      3533 6.23575E-03 2.74044E-04-1.99816E-14
 -1      3534 6.09459E-03 2.77911E-04-1.91400E-14
 -1      3535 6.01206E-03 2.46103E-04-1.87266E-14
 -1      3536 6.51851E-03 2.67973E-04-2.17071E-14
 -1      3537 6.37698E-03 2.70672E-04-2.08379E-14
 -1      3538 6.29077E-03 2.38186E-04-2.04069E-14
 -1      3539 6.80303E-03 2.65478E-04-2.34913E-14
 -1      3540 6.66042E-03 2.66140E-04-2.25918E-14
 -1      3541 6.56939E-03 2.31965E-04-2.21452E-14
 -1      3542 7.09144E-03 2.68808E-04-2.53325E-14
 -1      3543 6.94655E-03 2.66191E-04-2.44045E-14
 -1      3544 6.84924E-03 2.28815E-04-2.39404E-14
 -1      3545 7.38712E-03 2.81238E-04-2.72309E-14
 -1      3546 7.23808E-03 2.73517E-04-2.62739E-14
 -1      3547 7.13267E-03 2.30751E-04-2.57932E-14
 -1      3548 7.67685E-03 3.33830E-04-2.92040E-14
 -1      3549 7.53028E-03 3.02954E-04-2.82098E-14
 -1      3550 7.41382E-03 2.50263E-04-2.77092E-14
 -1      3551 7.98298E-03 4.25447E-04-3.12332E-14
 -1      3552 7.82761E-03 3.74514E-04-3.02105E-14
 -1      3553 7.69693E-03 3.07620E-04-2.96917E-14
 -1      3554 8.32868E-03 5.49346E-04-3.37032E-14
 -1      3555 8.16067E-03 4.73363E-04-3.26464E-14
 -1      3556 1.21514E-02 1.15699E-03-5.97028E-14
 -1      3557 1.20011E-02 1.13242E-03-5.83958E-14
 -1      3558 1.24448E-02 1.21463E-03-6.23409E-14
 -1      3559 1.22991E-02 1.18474E-03-6.10177E-14
 -1      3560 1.22316E-02 1.12968E-03-6.03337E-14
 -1      3561 1.27322E-02 1.27962E-03-6.50103E-14
 -1      3562 1.25890E-02 1.24646E-03-6.36708E-14
 -1      3563 1.25166E-02 1.19300E-03-6.29765E-14
 -1      3564 1.30165E-02 1.34890E-03-6.77033E-14
 -1      3565 1.28746E-02 1.31388E-03-6.63544E-14
 -1      3566 1.27976E-02 1.26136E-03-6.56479E-14
 -1      3567 1.32996E-02 1.42023E-03-7.04196E-14
 -1      3568 1.31582E-02 1.38443E-03-6.90580E-14
 -1      3569 1.30772E-02 1.33241E-03-6.83446E-14
 -1      3570 1.35824E-02 1.49193E-03-7.31534E-14
 -1      3571 1.34410E-02 1.45612E-03-7.17848E-14
 -1      3572 1.33568E-02 1.40443E-03-7.10652E-14
 -1      3573 1.08215E-02 1.13421E-03-4.95243E-14
 -1      3574 1.38703E-02 1.53431E-03-7.60834E-14
 -1      3575 1.38935E-02 1.56783E-03-7.61858E-14
 -1      3576 1.38076E-02 1.54915E-03-7.53366E-14
 -1      3577 1.37388E-02 1.48537E-03-7.48683E-14
 -1      3578 1.33859E-02 1.16825E-03-7.30935E-14
 -1      3579 1.34196E-02 1.20077E-03-7.31436E-14
 -1      3580 2.81730E-03 3.41466E-04-4.48337E-15
 -1      3581 2.67346E-03 3.39919E-04-4.06858E-15
 -1      3582 1.57434E-03-2.60165E-04-1.52661E-15
 -1      3583 1.71817E-03-2.70447E-04-1.78575E-15
 -1      3584 3.67843E-03 3.39140E-04-7.37295E-15
 -1      3585 3.53516E-03 3.40614E-04-6.84313E-15
 -1      3586 3.74735E-03 3.01356E-04-7.66387E-15
 -1      3587 1.15271E-02 1.08434E-03-5.45273E-14
 -1      3588 1.13592E-02 1.08123E-03-5.32574E-14
 -1      3589 2.52954E-03 3.37574E-04-3.67276E-15
 -1      3590 2.38556E-03 3.34354E-04-3.29619E-15
 -1      3591 2.59682E-03 3.01837E-04-3.88878E-15
 -1      3592 1.18475E-02 1.11121E-03-5.70967E-14
 -1      3593 1.16899E-02 1.09518E-03-5.58076E-14
 -1      3594 1.19384E-02 1.07500E-03-5.77215E-14
 -1      3595 2.24153E-03 3.30081E-04-2.93945E-15
 -1      3596 2.09747E-03 3.24650E-04-2.60241E-15
 -1      3597 2.30817E-03 2.95798E-04-3.13500E-15
 -1      3598 4.53574E-03 3.23945E-04-1.09434E-14
 -1      3599 4.39316E-03 3.27159E-04-1.03018E-14
 -1      3600 4.31902E-03 2.92417E-04-1.00038E-14
 -1      3601 4.60371E-03 2.86431E-04-1.12841E-14
 -1      3602 1.01576E-03-3.89120E-05-7.78647E-16
 -1      3603 1.01683E-03-6.57374E-05-7.74012E-16
 -1      3604 1.13837E-03-8.59042E-05-9.32888E-16
 -1      3605 1.11030E-02 4.67127E-04-5.31634E-14
 -1      3606 1.12517E-02 5.18432E-04-5.44292E-14
 -1      3607 1.16591E-02 6.72147E-04-5.43880E-14
 -1      3608 1.15704E-02 6.47268E-04-5.41494E-14
 -1      3609 1.12733E-02 9.90716E-04-5.22861E-14
 -1      3610 1.14187E-02 9.31374E-04-5.30445E-14
 -1      3611 1.34444E-03 2.91093E-04-1.15152E-15
 -1      3612 1.30216E-03 2.62284E-04-1.10784E-15
 -1      3613 1.48779E-03 3.06738E-04-1.38008E-15
 -1      3614 1.86223E-03-2.79048E-04-2.06467E-15
 -1      3615 2.00647E-03-2.86112E-04-2.36386E-15
 -1      3616 2.07344E-03-2.53367E-04-2.54511E-15
 -1      3617 1.07935E-03-2.16671E-04-7.79216E-16
 -1      3618 1.09729E-02 1.07455E-03-5.04264E-14
 -1      3619 1.11538E-02 1.05728E-03-5.16797E-14
 -1      3620 1.29549E-03 2.27441E-04-1.12214E-15
 -1      3621 1.19459E-02 7.94084E-04-5.65543E-14
 -1      3622 1.18751E-02 7.54424E-04-5.56330E-14
 -1      3623 1.18999E-02 7.59810E-04-5.61844E-14
 -1      3624 7.21297E-03 8.00810E-05-2.97873E-14
 -1      3625 7.29177E-03 1.04083E-04-3.05406E-14
 -1      3626 7.34286E-03 1.12980E-04-3.05287E-14
 -1      3627 1.15086E-02 6.27771E-04-5.43604E-14
 -1      3628 1.14448E-02 6.03023E-04-5.45706E-14
 -1      3629 1.16108E-02 6.59175E-04-5.52581E-14
 -1      3630 1.15666E-02 9.23191E-04-5.41044E-14
 -1      3631 1.26164E-03 1.10416E-04-1.12283E-15
 -1      3632 1.25947E-03 7.89681E-05-1.12627E-15
 -1      3633 8.45354E-03 6.14244E-04-3.43893E-14
 -1      3634 7.60088E-03 1.89000E-04-3.18695E-14
 -1      3635 7.66392E-03 2.11607E-04-3.17555E-14
 -1      3636 7.49733E-03 1.56701E-04-3.11763E-14
 -1      3637 1.19902E-03-2.15763E-04-9.49327E-16
 -1      3638 1.25803E-03 4.77250E-05-1.12760E-15
 -1      3639 1.25731E-03 1.66997E-05-1.12706E-15
 -1      3640 1.38123E-03 6.69809E-05-1.32190E-15
 -1      3641 6.90585E-03 1.04728E-06-2.91164E-14
 -1      3642 7.02154E-03 5.60382E-05-2.98218E-14
 -1      3643 7.04748E-03 7.11283E-05-2.99985E-14
 -1      3644 7.02233E-03 5.89882E-05-2.94504E-14
 -1      3645 1.33203E-02 1.18855E-03-7.19969E-14
 -1      3646 1.34512E-02 1.23375E-03-7.31931E-14
 -1      3647 1.34802E-02 1.26701E-03-7.32415E-14
 -1      3648 1.17922E-02 8.37895E-04-5.53092E-14
 -1      3649 1.18075E-02 8.03852E-04-5.51675E-14
 -1      3650 1.19037E-02 8.17182E-04-5.61427E-14
 -1      3651 7.04424E-03 5.15517E-05-2.91740E-14
 -1      3652 7.10023E-03 6.98192E-05-2.97191E-14
 -1      3653 7.10468E-03 5.62018E-05-2.92651E-14
 -1      3654 1.33098E-02 1.10148E-03-7.29837E-14
 -1      3655 1.33491E-02 1.13506E-03-7.30372E-14
 -1      3656 1.32516E-02 1.12354E-03-7.18968E-14
 -1      3657 1.13593E-03-2.76712E-05-9.43825E-16
 -1      3658 1.29782E-02 9.28354E-04-7.12469E-14
 -1      3659 1.30961E-02 9.51516E-04-7.24095E-14
 -1      3660 1.31405E-02 9.76468E-04-7.26092E-14
 -1      3661 1.29517E-02 9.45417E-04-7.06300E-14
 -1      3662 3.10472E-03 3.42632E-04-5.37099E-15
 -1      3663 2.96106E-03 3.42352E-04-4.91762E-15
 -1      3664 2.88518E-03 3.04766E-04-4.71921E-15
 -1      3665 8.00744E-03 3.87426E-04-3.21046E-14
 -1      3666 2.01948E-03 2.85675E-04-2.45997E-15
 -1      3667 1.95344E-03 3.17838E-04-2.28562E-15
 -1      3668 1.37217E-02 1.53029E-03-7.44901E-14
 -1      3669 1.32206E-03-2.32519E-04-1.12373E-15
 -1      3670 1.45028E-03-2.46003E-04-1.32244E-15
 -1      3671 1.51660E-03-2.19635E-04-1.45888E-15
 -1      3672 1.26992E-03-1.91944E-04-1.07337E-15
 -1      3673 1.14413E-03 1.48578E-04-9.35572E-16
 -1      3674 7.87404E-03 2.98548E-04-3.22995E-14
 -1      3675 7.94674E-03 3.43422E-04-3.22041E-14
 -1      3676 7.79819E-03 3.09416E-04-3.08072E-14
 -1      3677 1.36012E-02 1.44720E-03-7.35326E-14
 -1      3678 1.36348E-02 1.47889E-03-7.37632E-14
 -1      3679 1.16301E-02 1.03515E-03-5.51429E-14
 -1      3680 1.78469E-03-2.40517E-04-1.94414E-15
 -1      3681 1.17518E-02 7.02592E-04-5.51555E-14
 -1      3682 1.35612E-02 1.37465E-03-7.34424E-14
 -1      3683 1.35818E-02 1.41051E-03-7.34886E-14
 -1      3684 1.34791E-02 1.40318E-03-7.23880E-14
 -1      3685 1.82767E-03 3.14666E-04-2.02225E-15
 -1      3686 3.39178E-03 3.41709E-04-6.33364E-15
 -1      3687 3.24830E-03 3.42406E-04-5.84304E-15
 -1      3688 3.46052E-03 3.04072E-04-6.60695E-15
 -1      3689 1.25925E-03-7.62361E-05-1.11430E-15
 -1      3690 1.26132E-03-1.07648E-04-1.10602E-15
 -1      3691 7.57015E-03-1.55430E-04-3.32786E-14
 -1      3692 7.24063E-03-1.01760E-04-3.13819E-14
 -1      3693 7.43320E-03-1.29396E-04-3.25164E-14
 -1      3694 1.31843E-02 1.00114E-03-7.28097E-14
 -1      3695 1.26316E-03-1.33169E-04-1.09732E-15
 -1      3696 1.26674E-03-1.65524E-04-1.08531E-15
 -1      3697 1.38951E-03-1.78483E-04-1.27245E-15
 -1      3698 1.38452E-03-1.24035E-04-1.29443E-15
 -1      3699 1.30912E-02 9.90980E-04-7.17468E-14
 -1      3700 1.32284E-02 1.03109E-03-7.29381E-14
 -1      3701 1.32720E-02 1.06600E-03-7.29979E-14
 -1      3702 1.29978E-02 9.75141E-04-7.07573E-14
 -1      3703 1.26465E-03 1.42486E-04-1.11746E-15
 -1      3704 1.38594E-03 1.33766E-04-1.31477E-15
 -1      3705 1.26854E-03 1.75177E-04-1.10982E-15
 -1      3706 7.15494E-03 1.83080E-05-3.10829E-14
 -1      3707 1.25852E-02 1.17444E-03-6.36115E-14
 -1      3708 1.24471E-02 1.14011E-03-6.22829E-14
 -1      3709 2.57574E-03-2.28587E-04-3.81295E-15
 -1      3710 2.72047E-03-2.30055E-04-4.21192E-15
 -1      3711 2.86511E-03-2.30982E-04-4.62962E-15
 -1      3712 3.00961E-03-2.31408E-04-5.06644E-15
 -1      3713 2.78983E-03-1.93420E-04-4.44267E-15
 -1      3714 3.15395E-03-2.31422E-04-5.52130E-15
 -1      3715 3.29811E-03-2.31047E-04-5.99491E-15
 -1      3716 3.07918E-03-1.94185E-04-5.31725E-15
 -1      3717 3.44207E-03-2.30351E-04-6.48644E-15
 -1      3718 3.58581E-03-2.29344E-04-6.99546E-15
 -1      3719 3.36779E-03-1.93561E-04-6.26543E-15
 -1      3720 3.72932E-03-2.28077E-04-7.52280E-15
 -1      3721 3.87258E-03-2.26550E-04-8.06644E-15
 -1      3722 3.65545E-03-1.91842E-04-7.28501E-15
 -1      3723 4.01556E-03-2.24803E-04-8.62942E-15
 -1      3724 4.15826E-03-2.22828E-04-9.21088E-15
 -1      3725 3.94200E-03-1.89225E-04-8.37613E-15
 -1      3726 4.30063E-03-2.20659E-04-9.80866E-15
 -1      3727 4.44268E-03-2.18282E-04-1.04241E-14
 -1      3728 4.22725E-03-1.85839E-04-9.53888E-15
 -1      3729 4.58434E-03-2.15730E-04-1.10573E-14
 -1      3730 4.72561E-03-2.12984E-04-1.17080E-14
 -1      3731 4.51098E-03-1.81767E-04-1.07715E-14
 -1      3732 4.86644E-03-2.10087E-04-1.23764E-14
 -1      3733 5.00680E-03-2.07016E-04-1.30610E-14
 -1      3734 4.79293E-03-1.77077E-04-1.20744E-14
 -1      3735 5.14662E-03-2.03825E-04-1.37627E-14
 -1      3736 5.28588E-03-2.00492E-04-1.44821E-14
 -1      3737 5.07275E-03-1.71848E-04-1.34465E-14
 -1      3738 5.42450E-03-1.97091E-04-1.52183E-14
 -1      3739 5.56246E-03-1.93599E-04-1.59712E-14
 -1      3740 5.35003E-03-1.66198E-04-1.48860E-14
 -1      3741 5.66023E-03-2.11137E-04-1.67023E-14
 -1      3742 5.75286E-03-2.30602E-04-1.74261E-14
 -1      3743 5.59755E-03-1.71405E-04-1.63705E-14
 -1      3744 5.84791E-03-2.47578E-04-1.81640E-14
 -1      3745 5.93830E-03-2.60914E-04-1.89090E-14
 -1      3746 5.80378E-03-2.07317E-04-1.78577E-14
 -1      3747 6.02441E-03-2.71275E-04-1.96561E-14
 -1      3748 6.10586E-03-2.79183E-04-2.04211E-14
 -1      3749 5.99830E-03-2.36878E-04-1.93701E-14
 -1      3750 6.18750E-03-2.86879E-04-2.12028E-14
 -1      3751 6.26158E-03-2.92949E-04-2.20118E-14
 -1      3752 6.18500E-03-2.55686E-04-2.09324E-14
 -1      3753 6.34402E-03-3.05475E-04-2.28251E-14
 -1      3754 6.38568E-03-2.83342E-04-2.36998E-14
 -1      3755 6.38253E-03-2.75273E-04-2.25749E-14
 -1      3756 6.44485E-03-1.67152E-04-2.45809E-14
 -1      3757 6.39782E-03-2.46975E-05-2.52489E-14
 -1      3758 6.59745E-03-2.02603E-04-2.43900E-14
 -1      3759 6.52545E-03-2.47273E-05-2.63201E-14
 -1      3760 6.73051E-03-2.70172E-05-2.74435E-14
 -1      3761 6.71618E-03-4.63908E-06-2.61569E-14
 -1      3762 4.10242E-03 2.59834E-04-9.10479E-15
 -1      3763 3.95953E-03 2.61882E-04-8.52117E-15
 -1      3764 1.19193E-02 7.28554E-04-5.97911E-14
 -1      3765 1.20469E-02 7.60864E-04-6.10910E-14
 -1      3766 1.21752E-02 7.92569E-04-6.24004E-14
 -1      3767 1.23047E-02 8.23720E-04-6.37153E-14
 -1      3768 1.21668E-02 8.05568E-04-6.17832E-14
 -1      3769 1.24353E-02 8.54535E-04-6.50358E-14
 -1      3770 1.25671E-02 8.84982E-04-6.63602E-14
 -1      3771 1.24191E-02 8.67799E-04-6.44155E-14
 -1      3772 1.26999E-02 9.15284E-04-6.76876E-14
 -1      3773 1.28339E-02 9.45391E-04-6.90222E-14
 -1      3774 1.26779E-02 9.29246E-04-6.70679E-14
 -1      3775 5.23536E-03 2.35533E-04-1.44285E-14
 -1      3776 5.09490E-03 2.39271E-04-1.37015E-14
 -1      3777 4.95408E-03 2.42818E-04-1.29919E-14
 -1      3778 4.81290E-03 2.46189E-04-1.22994E-14
 -1      3779 5.02029E-03 2.06709E-04-1.33477E-14
 -1      3780 5.79308E-03 2.19346E-04-1.75048E-14
 -1      3781 5.65427E-03 2.23527E-04-1.67119E-14
 -1      3782 6.06940E-03 2.11047E-04-1.91380E-14
 -1      3783 5.93142E-03 2.15179E-04-1.83137E-14
 -1      3784 5.85273E-03 1.84864E-04-1.79030E-14
 -1      3785 6.34424E-03 2.03277E-04-2.08311E-14
 -1      3786 6.20695E-03 2.07062E-04-1.99773E-14
 -1      3787 6.12564E-03 1.76971E-04-1.95492E-14
 -1      3788 6.61824E-03 1.96813E-04-2.25812E-14
 -1      3789 6.48125E-03 1.99821E-04-2.16984E-14
 -1      3790 6.39629E-03 1.69333E-04-2.12543E-14
 -1      3791 6.89268E-03 1.92781E-04-2.43893E-14
 -1      3792 6.75523E-03 1.94384E-04-2.34780E-14
 -1      3793 6.66514E-03 1.62504E-04-2.30174E-14
 -1      3794 7.16999E-03 1.92898E-04-2.62535E-14
 -1      3795 7.03068E-03 1.92110E-04-2.53146E-14
 -1      3796 6.93334E-03 1.57297E-04-2.48380E-14
 -1      3797 7.43204E-03 2.20015E-04-2.81852E-14
 -1      3798 7.29995E-03 2.02297E-04-2.72100E-14
 -1      3799 7.19126E-03 1.59965E-04-2.67158E-14
 -1      3800 7.68099E-03 2.75381E-04-2.99849E-14
 -1      3801 7.54240E-03 2.41827E-04-2.89843E-14
 -1      3802 7.41838E-03 1.88747E-04-2.84689E-14
 -1      3803 7.63189E-03 2.37244E-04-3.00830E-14
 -1      3804 2.08650E-03 2.52843E-04-2.63686E-15
 -1      3805 1.94200E-03 2.47165E-04-2.31888E-15
 -1      3806 1.23085E-02 1.10665E-03-6.09629E-14
 -1      3807 1.21683E-02 1.07478E-03-5.96503E-14
 -1      3808 1.23805E-02 1.08774E-03-6.15941E-14
 -1      3809 1.31354E-02 1.31735E-03-6.89886E-14
 -1      3810 1.29976E-02 1.28120E-03-6.76364E-14
 -1      3811 1.33763E-02 1.37840E-03-7.13673E-14
 -1      3812 1.32380E-02 1.34228E-03-7.00036E-14
 -1      3813 1.31559E-02 1.29223E-03-6.92903E-14
 -1      3814 1.33587E-02 1.34213E-03-7.13252E-14
 -1      3815 1.25727E-03-1.41632E-05-1.12470E-15
 -1      3816 1.25791E-03-4.51130E-05-1.12059E-15
 -1      3817 1.38105E-03-6.42062E-05-1.31104E-15
 -1      3818 1.37966E-03 1.32636E-06-1.32042E-15
 -1      3819 1.17153E-02 9.44106E-04-5.53805E-14
 -1      3820 1.70798E-03-2.02866E-04-1.82454E-15
 -1      3821 1.85217E-03-2.09706E-04-2.10643E-15
 -1      3822 1.99665E-03-2.15371E-04-2.40780E-15
 -1      3823 2.14133E-03-2.19966E-04-2.72999E-15
 -1      3824 1.92050E-03-1.78016E-04-2.27193E-15
 -1      3825 1.14188E-02 5.85677E-04-5.50993E-14
 -1      3826 1.11472E-02 4.93327E-04-5.29483E-14
 -1      3827 1.41612E-03 2.21618E-04-1.32296E-15
 -1      3828 2.37571E-03 2.61019E-04-3.33273E-15
 -1      3829 2.23108E-03 2.57430E-04-2.97481E-15
 -1      3830 2.15439E-03 2.19375E-04-2.81634E-15
 -1      3831 3.81642E-03 2.63668E-04-7.95590E-15
 -1      3832 3.67309E-03 2.65196E-04-7.40890E-15
 -1      3833 3.88564E-03 2.26146E-04-8.24780E-15
 -1      3834 6.86909E-03 4.20886E-06-2.85680E-14
 -1      3835 1.28601E-02 1.24522E-03-6.62881E-14
 -1      3836 1.27226E-02 1.20959E-03-6.49452E-14
 -1      3837 1.26496E-02 1.15862E-03-6.42468E-14
 -1      3838 1.29193E-02 1.23087E-03-6.69292E-14
 -1      3839 5.51506E-03 2.27630E-04-1.59344E-14
 -1      3840 5.37541E-03 2.31656E-04-1.51728E-14
 -1      3841 5.57745E-03 1.92620E-04-1.63187E-14
 -1      3842 1.72030E-03 3.15282E-04-1.80512E-15
 -1      3843 1.59482E-03 3.09145E-04-1.57119E-15
 -1      3844 1.55245E-03 2.80004E-04-1.51901E-15
 -1      3845 1.76744E-03 2.80418E-04-1.92947E-15
 -1      3846 1.35068E-02 1.30061E-03-7.32911E-14
 -1      3847 1.35311E-02 1.33481E-03-7.33375E-14
 -1      3848 1.33776E-02 1.25409E-03-7.20916E-14
 -1      3849 2.66486E-03 2.65745E-04-4.10629E-15
 -1      3850 2.52031E-03 2.63766E-04-3.70990E-15
 -1      3851 2.44402E-03 2.25796E-04-3.53240E-15
 -1      3852 2.28611E-03-2.23639E-04-3.07201E-15
 -1      3853 2.43094E-03-2.26468E-04-3.43279E-15
 -1      3854 2.49999E-03-1.90856E-04-3.64288E-15
 -1      3855 2.21004E-03-1.85947E-04-2.91825E-15
 -1      3856 1.18458E-02 7.35824E-04-5.60810E-14
 -1      3857 1.17723E-02 7.11880E-04-5.59708E-14
 -1      3858 1.18853E-02 1.00693E-03-5.70377E-14
 -1      3859 1.18213E-02 9.02760E-04-5.59876E-14
 -1      3860 1.19363E-02 9.06200E-04-5.69662E-14
 -1      3861 1.20290E-02 1.03506E-03-5.83333E-14
 -1      3862 1.19962E-02 8.32295E-04-5.71884E-14
 -1      3863 1.20397E-02 8.33853E-04-5.77466E-14
 -1      3864 7.14038E-03 5.54610E-05-2.90476E-14
 -1      3865 7.17590E-03 6.24411E-05-2.90440E-14
 -1      3866 1.17315E-02 6.97633E-04-5.61834E-14
 -1      3867 1.16858E-02 6.79829E-04-5.63965E-14
 -1      3868 1.18437E-02 7.33340E-04-5.71154E-14
 -1      3869 1.31756E-02 1.05603E-03-7.18595E-14
 -1      3870 1.19392E-02 7.72054E-04-5.70062E-14
 -1      3871 7.39156E-03 1.24244E-04-3.04250E-14
 -1      3872 7.44033E-03 1.39745E-04-3.03165E-14
 -1      3873 7.29563E-03 9.68356E-05-2.96802E-14
 -1      3874 1.50549E-03 8.76622E-05-1.53088E-15
 -1      3875 1.50386E-03 5.29938E-05-1.53228E-15
 -1      3876 6.88852E-03 2.90610E-05-2.81874E-14
 -1      3877 4.24507E-03 2.57556E-04-9.70784E-15
 -1      3878 4.17132E-03 2.22516E-04-9.41395E-15
 -1      3879 4.38746E-03 2.55037E-04-1.03287E-14
 -1      3880 6.96797E-03 3.56141E-05-2.86123E-14
 -1      3881 7.00098E-03 4.17835E-05-2.87897E-14
 -1      3882 6.99750E-03 2.66611E-05-2.83617E-14
 -1      3883 6.87433E-03 1.60398E-05-2.75547E-14
 -1      3884 1.31898E-02 1.14357E-03-7.08051E-14
 -1      3885 1.32211E-02 1.17549E-03-7.08503E-14
 -1      3886 1.20020E-02 8.57914E-04-5.73321E-14
 -1      3887 1.16662E-02 6.61205E-04-5.72076E-14
 -1      3888 1.17928E-02 6.95398E-04-5.84964E-14
 -1      3889 1.31553E-02 1.11170E-03-7.07571E-14
 -1      3890 1.30596E-02 1.09910E-03-6.96151E-14
 -1      3891 1.31177E-02 1.07957E-03-7.07058E-14
 -1      3892 2.95367E-03 2.67835E-04-4.95643E-15
 -1      3893 2.80932E-03 2.67083E-04-4.52190E-15
 -1      3894 2.73358E-03 2.29363E-04-4.32618E-15
 -1      3895 1.29711E-02 9.90264E-04-7.01363E-14
 -1      3896 5.29990E-03 1.99962E-04-1.47990E-14
 -1      3897 1.51131E-03 1.57976E-04-1.52054E-15
 -1      3898 1.50797E-03 1.22619E-04-1.52695E-15
 -1      3899 1.63069E-03 1.09437E-04-1.75391E-15
 -1      3900 3.59889E-03 2.28842E-04-7.15607E-15
 -1      3901 3.52956E-03 2.66425E-04-6.88062E-15
 -1      3902 3.38584E-03 2.67351E-04-6.37140E-15
 -1      3903 7.65365E-03 2.19037E-04-3.09900E-14
 -1      3904 7.55233E-03 1.89887E-04-3.01677E-14
 -1      3905 1.21116E-02 1.01118E-03-5.89582E-14
 -1      3906 3.17311E-03 3.05331E-04-5.62575E-15
 -1      3907 1.34325E-02 1.32673E-03-7.22415E-14
 -1      3908 1.86518E-03 2.09278E-04-2.17926E-15
 -1      3909 1.79770E-03 2.40216E-04-2.02084E-15
 -1      3910 1.19217E-02 7.42067E-04-5.91776E-14
 -1      3911 1.68975E-03 2.41805E-04-1.80551E-15
 -1      3912 1.48650E-03-1.85605E-04-1.43177E-15
 -1      3913 1.61034E-03-1.97065E-04-1.64465E-15
 -1      3914 1.67835E-03-1.68028E-04-1.79192E-15
 -1      3915 1.48359E-03-1.57248E-04-1.44441E-15
 -1      3916 4.67139E-03 2.49346E-04-1.16245E-14
 -1      3917 4.52957E-03 2.52305E-04-1.09678E-14
 -1      3918 4.45578E-03 2.18036E-04-1.06540E-14
 -1      3919 1.50373E-03-5.01406E-05-1.52315E-15
 -1      3920 1.50525E-03-8.46803E-05-1.51565E-15
 -1      3921 1.15354E-02 6.22902E-04-5.60008E-14
 -1      3922 1.48131E-03-1.29227E-04-1.45531E-15
 -1      3923 7.06989E-03 3.44133E-05-2.85311E-14
 -1      3924 1.60385E-03-1.16664E-04-1.68008E-15
 -1      3925 4.73884E-03 2.12754E-04-1.19652E-14
 -1      3926 7.12754E-03 4.68845E-05-2.82275E-14
 -1      3927 7.20854E-03 7.09278E-05-2.89496E-14
 -1      3928 7.24296E-03 8.26790E-05-2.88506E-14
 -1      3929 5.63942E-03 1.58515E-04-1.67028E-14
 -1      3930 5.50210E-03 1.61926E-04-1.59281E-14
 -1      3931 1.31218E-02 1.16178E-03-6.97051E-14
 -1      3932 1.32492E-02 1.20767E-03-7.08954E-14
 -1      3933 1.32746E-02 1.24042E-03-7.09411E-14
 -1      3934 3.00464E-03-1.56875E-04-5.11441E-15
 -1      3935 3.14927E-03-1.56875E-04-5.57064E-15
 -1      3936 3.29369E-03-1.56618E-04-6.04520E-15
 -1      3937 3.43787E-03-1.56111E-04-6.53819E-15
 -1      3938 3.21983E-03-1.19541E-04-5.82624E-15
 -1      3939 3.58177E-03-1.55403E-04-7.04852E-15
 -1      3940 3.72538E-03-1.54491E-04-7.57651E-15
 -1      3941 3.50831E-03-1.18760E-04-6.81264E-15
 -1      3942 3.86867E-03-1.53415E-04-8.12294E-15
 -1      3943 4.01162E-03-1.52164E-04-8.68695E-15
 -1      3944 3.79559E-03-1.17351E-04-7.87025E-15
 -1      3945 4.15418E-03-1.50773E-04-9.26890E-15
 -1      3946 4.29635E-03-1.49226E-04-9.86915E-15
 -1      3947 4.08143E-03-1.15419E-04-8.99931E-15
 -1      3948 4.43807E-03-1.47558E-04-1.04858E-14
 -1      3949 4.57932E-03-1.45748E-04-1.11204E-14
 -1      3950 4.36558E-03-1.13039E-04-1.02007E-14
 -1      3951 4.72005E-03-1.43834E-04-1.17726E-14
 -1      3952 4.86022E-03-1.41792E-04-1.24427E-14
 -1      3953 4.64775E-03-1.10267E-04-1.14718E-14
 -1      3954 4.99977E-03-1.39670E-04-1.31295E-14
 -1      3955 5.13865E-03-1.37438E-04-1.38331E-14
 -1      3956 4.92758E-03-1.07165E-04-1.28122E-14
 -1      3957 5.27678E-03-1.35162E-04-1.45547E-14
 -1      3958 5.41412E-03-1.32805E-04-1.52923E-14
 -1      3959 5.20463E-03-1.03813E-04-1.42222E-14
 -1      3960 5.55056E-03-1.30456E-04-1.60468E-14
 -1      3961 5.65617E-03-1.43399E-04-1.67891E-14
 -1      3962 5.47833E-03-1.00330E-04-1.57004E-14
 -1      3963 5.75989E-03-1.63665E-04-1.75341E-14
 -1      3964 5.86486E-03-1.82011E-04-1.82977E-14
 -1      3965 5.72118E-03-1.16773E-04-1.72153E-14
 -1      3966 5.96780E-03-1.97185E-04-1.90670E-14
 -1      3967 6.06913E-03-2.09261E-04-1.98478E-14
 -1      3968 5.93346E-03-1.54501E-04-1.87477E-14
 -1      3969 6.17395E-03-2.16802E-04-2.06433E-14
 -1      3970 6.27732E-03-2.22682E-04-2.14635E-14
 -1      3971 6.15117E-03-1.76927E-04-2.03374E-14
 -1      3972 6.40580E-03-2.20820E-04-2.22986E-14
 -1      3973 6.53007E-03-2.28285E-04-2.31676E-14
 -1      3974 6.39451E-03-1.79708E-04-2.19930E-14
 -1      3975 6.76979E-03-2.06028E-04-2.42340E-14
 -1      3976 6.96263E-03-1.12743E-04-2.53702E-14
 -1      3977 6.75122E-03-1.47194E-04-2.38912E-14
 -1      3978 6.85618E-03-5.98884E-05-2.58593E-14
 -1      3979 6.85260E-03-1.85670E-05-2.67031E-14
 -1      3980 6.93126E-03-2.00919E-05-2.71214E-14
 -1      3981 6.95845E-03-1.14607E-04-2.56558E-14
 -1      3982 1.52343E-03 2.22839E-04-1.50864E-15
 -1      3983 1.16797E-02 6.74721E-04-5.66729E-14
 -1      3984 1.20465E-02 8.14499E-04-5.81733E-14
 -1      3985 1.19940E-02 7.87805E-04-5.80681E-14
 -1      3986 1.24026E-02 8.79318E-04-6.37931E-14
 -1      3987 1.25281E-02 9.10548E-04-6.51161E-14
 -1      3988 1.26555E-02 9.41791E-04-6.64446E-14
 -1      3989 1.27848E-02 9.72810E-04-6.77759E-14
 -1      3990 1.26323E-02 9.52861E-04-6.58168E-14
 -1      3991 6.18116E-03 1.43984E-04-1.99602E-14
 -1      3992 6.04687E-03 1.47727E-04-1.91224E-14
 -1      3993 5.91184E-03 1.51391E-04-1.83010E-14
 -1      3994 5.77599E-03 1.55016E-04-1.74944E-14
 -1      3995 5.97057E-03 1.18959E-04-1.86985E-14
 -1      3996 6.71047E-03 1.29346E-04-2.34546E-14
 -1      3997 6.57916E-03 1.32890E-04-2.25594E-14
 -1      3998 6.97151E-03 1.22938E-04-2.52871E-14
 -1      3999 6.84108E-03 1.26006E-04-2.43641E-14
 -1      4000 6.75444E-03 9.73692E-05-2.38916E-14
 -1      4001 7.20447E-03 1.29393E-04-2.71719E-14
 -1      4002 7.08809E-03 1.22122E-04-2.62199E-14
 -1      4003 6.99216E-03 8.87136E-05-2.57286E-14
 -1      4004 7.77273E-03 2.60819E-04-3.16783E-14
 -1      4005 1.22081E-02 1.00336E-03-5.98046E-14
 -1      4006 1.20800E-02 9.59998E-04-5.84893E-14
 -1      4007 1.24681E-02 1.07542E-03-6.24366E-14
 -1      4008 1.23378E-02 1.03923E-03-6.11173E-14
 -1      4009 1.22959E-02 9.92739E-04-6.06417E-14
 -1      4010 6.44729E-03 1.36529E-04-2.16786E-14
 -1      4011 6.31458E-03 1.40262E-04-2.08127E-14
 -1      4012 6.23614E-03 1.12120E-04-2.03713E-14
 -1      4013 1.50304E-03 1.86104E-05-1.53137E-15
 -1      4014 1.50299E-03-1.57118E-05-1.52822E-15
 -1      4015 1.62730E-03 3.73459E-05-1.75688E-15
 -1      4016 1.21585E-02 8.16440E-04-6.11629E-14
 -1      4017 1.22795E-02 8.47884E-04-6.24753E-14
 -1      4018 1.23853E-02 8.89037E-04-6.31677E-14
 -1      4019 5.08626E-03 1.71268E-04-1.37029E-14
 -1      4020 4.94646E-03 1.74081E-04-1.29960E-14
 -1      4021 7.00093E-03 6.25136E-06-2.79193E-14
 -1      4022 7.02406E-03 9.58123E-06-2.77208E-14
 -1      4023 7.45203E-03 1.51041E-04-2.98367E-14
 -1      4024 7.43153E-03 1.70192E-04-2.89514E-14
 -1      4025 7.33278E-03 1.51539E-04-2.81549E-14
 -1      4026 7.34367E-03 1.19966E-04-2.91051E-14
 -1      4027 2.22313E-03 1.85287E-04-2.99842E-15
 -1      4028 2.07824E-03 1.81806E-04-2.65971E-15
 -1      4029 4.80614E-03 1.76709E-04-1.23058E-14
 -1      4030 4.66533E-03 1.79182E-04-1.16337E-14
 -1      4031 4.87337E-03 1.41262E-04-1.26465E-14
 -1      4032 1.84511E-03-1.41501E-04-2.13748E-15
 -1      4033 1.98968E-03-1.45485E-04-2.44157E-15
 -1      4034 1.33040E-02 1.27089E-03-7.10819E-14
 -1      4035 1.33323E-02 1.31009E-03-7.11835E-14
 -1      4036 1.32319E-02 1.28521E-03-7.01663E-14
 -1      4037 1.31776E-02 1.22348E-03-6.98874E-14
 -1      4038 1.30123E-02 1.02492E-03-7.01185E-14
 -1      4039 2.51311E-03 1.90147E-04-3.73468E-15
 -1      4040 2.36811E-03 1.88050E-04-3.35703E-15
 -1      4041 2.29264E-03 1.50625E-04-3.18300E-15
 -1      4042 1.21820E-02 8.87790E-04-5.94548E-14
 -1      4043 1.21172E-02 8.50270E-04-5.88149E-14
 -1      4044 1.21900E-02 8.66016E-04-5.98837E-14
 -1      4045 3.95504E-03 1.88834E-04-8.54049E-15
 -1      4046 3.81192E-03 1.90206E-04-7.97696E-15
 -1      4047 1.62720E-03-3.42634E-05-1.75005E-15
 -1      4048 2.71485E-03-1.55907E-04-4.25637E-15
 -1      4049 2.85982E-03-1.56557E-04-4.67577E-15
 -1      4050 2.93037E-03-1.19532E-04-4.91160E-15
 -1      4051 3.24195E-03 2.67915E-04-5.88138E-15
 -1      4052 3.09789E-03 2.68102E-04-5.40950E-15
 -1      4053 3.02271E-03 2.30745E-04-5.19505E-15
 -1      4054 3.31120E-03 2.30456E-04-6.13778E-15
 -1      4055 5.36412E-03 1.65180E-04-1.51696E-14
 -1      4056 5.22549E-03 1.68312E-04-1.44279E-14
 -1      4057 5.42814E-03 1.31228E-04-1.55398E-14
 -1      4058 1.20322E-02 9.00996E-04-5.78053E-14
 -1      4059 5.70110E-03 1.25350E-04-1.70871E-14
 -1      4060 1.21344E-02 9.12775E-04-5.88586E-14
 -1      4061 5.15209E-03 1.36541E-04-1.40584E-14
 -1      4062 1.29195E-02 1.01408E-03-6.89847E-14
 -1      4063 1.29954E-02 1.11639E-03-6.85152E-14
 -1      4064 1.30224E-02 1.14744E-03-6.85569E-14
 -1      4065 1.27301E-02 1.14816E-03-6.50963E-14
 -1      4066 1.25986E-02 1.11172E-03-6.37609E-14
 -1      4067 1.25476E-02 1.06661E-03-6.32779E-14
 -1      4068 4.24029E-03 1.85517E-04-9.72394E-15
 -1      4069 4.09783E-03 1.87276E-04-9.12313E-15
 -1      4070 4.02461E-03 1.51792E-04-8.83439E-15
 -1      4071 3.73840E-03 1.54041E-04-7.70778E-15
 -1      4072 3.66851E-03 1.91359E-04-7.43185E-15
 -1      4073 3.52482E-03 1.92300E-04-6.90480E-15
 -1      4074 6.49747E-03 1.04900E-04-2.21027E-14
 -1      4075 1.28912E-02 1.02601E-03-6.83563E-14
 -1      4076 1.55486E-03 1.85738E-04-1.58596E-15
 -1      4077 1.67706E-03 1.73923E-04-1.81958E-15
 -1      4078 1.22638E-02 9.58210E-04-6.02877E-14
 -1      4079 1.22187E-02 9.18046E-04-5.98093E-14
 -1      4080 1.23072E-02 9.32254E-04-6.08851E-14
 -1      4081 1.23850E-02 9.95644E-04-6.15995E-14
 -1      4082 7.22035E-03 1.09700E-04-2.76393E-14
 -1      4083 1.75233E-03 5.72020E-05-1.99710E-15
 -1      4084 1.75145E-03 2.01361E-05-1.99575E-15
 -1      4085 1.31319E-02 1.26020E-03-6.91532E-14
 -1      4086 6.95805E-03-7.78724E-06-2.75578E-14
 -1      4087 1.93355E-03 1.77482E-04-2.34055E-15
 -1      4088 1.78915E-03 1.72244E-04-2.04144E-15
 -1      4089 1.19239E-02 7.52344E-04-5.85626E-14
 -1      4090 1.20394E-02 7.84047E-04-5.98587E-14
 -1      4091 7.04554E-03 1.73079E-05-2.76403E-14
 -1      4092 7.06843E-03 2.78988E-05-2.75537E-14
 -1      4093 6.96994E-03-1.19099E-05-2.70532E-14
 -1      4094 2.65807E-03 1.91685E-04-4.13161E-15
 -1      4095 2.58288E-03 1.54124E-04-3.93914E-15
 -1      4096 2.80295E-03 1.92712E-04-4.54778E-15
 -1      4097 1.74575E-03 1.43863E-04-1.96560E-15
 -1      4098 1.74287E-03 1.06353E-04-1.97085E-15
 -1      4099 2.42466E-03-1.53353E-04-3.47284E-15
 -1      4100 2.56978E-03-1.54849E-04-3.85507E-15
 -1      4101 2.64022E-03-1.18507E-04-4.07009E-15
 -1      4102 1.75141E-03-1.69380E-05-1.99214E-15
 -1      4103 1.75218E-03-5.40620E-05-1.98593E-15
 -1      4104 1.87625E-03 1.61759E-06-2.24897E-15
 -1      4105 1.20766E-02 8.11659E-04-5.92414E-14
 -1      4106 1.19522E-02 7.69268E-04-5.80695E-14
 -1      4107 1.18043E-02 7.14114E-04-5.76069E-14
 -1      4108 1.29965E-02 1.22249E-03-6.77933E-14
 -1      4109 1.28633E-02 1.18611E-03-6.64473E-14
 -1      4110 1.28057E-02 1.14127E-03-6.59580E-14
 -1      4111 1.30709E-02 1.21657E-03-6.86662E-14
 -1      4112 1.89537E-03-7.27650E-05-2.27275E-15
 -1      4113 1.77128E-03-8.94507E-05-2.01224E-15
 -1      4114 2.00272E-03 1.44841E-04-2.50474E-15
 -1      4115 1.70138E-03-1.20407E-04-1.86187E-15
 -1      4116 2.05964E-03-1.12131E-04-2.61443E-15
 -1      4117 2.13453E-03-1.48740E-04-2.76535E-15
 -1      4118 2.27955E-03-1.51335E-04-3.10995E-15
 -1      4119 1.86667E-03 9.03521E-05-2.22593E-15
 -1      4120 4.52406E-03 1.81466E-04-1.09791E-14
 -1      4121 4.38237E-03 1.83588E-04-1.03422E-14
 -1      4122 4.30933E-03 1.48895E-04-1.00335E-14
 -1      4123 1.21488E-02 8.24609E-04-6.05435E-14
 -1      4124 4.59234E-03 1.45381E-04-1.13044E-14
 -1      4125 2.02129E-03-3.75366E-05-2.55571E-15
 -1      4126 2.04009E-03-7.46931E-05-2.58640E-15
 -1      4127 2.18511E-03-7.62517E-05-2.91992E-15
 -1      4128 1.29648E-02 1.08548E-03-6.84827E-14
 -1      4129 1.28701E-02 1.07130E-03-6.73399E-14
 -1      4130 3.43514E-03-8.19399E-05-6.57680E-15
 -1      4131 3.57913E-03-8.15395E-05-7.08842E-15
 -1      4132 3.72279E-03-8.10461E-05-7.61767E-15
 -1      4133 3.86609E-03-8.04491E-05-8.16502E-15
 -1      4134 3.65029E-03-4.44963E-05-7.36593E-15
 -1      4135 4.00900E-03-7.97774E-05-8.73154E-15
 -1      4136 4.15148E-03-7.90166E-05-9.31467E-15
 -1      4137 3.93689E-03-4.38281E-05-8.46269E-15
 -1      4138 4.29350E-03-7.81956E-05-9.91546E-15
 -1      4139 4.43502E-03-7.72960E-05-1.05347E-14
 -1      4140 4.22179E-03-4.29922E-05-9.63100E-15
 -1      4141 4.57600E-03-7.63504E-05-1.11711E-14
 -1      4142 4.71639E-03-7.53364E-05-1.18256E-14
 -1      4143 4.50472E-03-4.20276E-05-1.08710E-14
 -1      4144 4.85613E-03-7.42939E-05-1.24969E-14
 -1      4145 4.99518E-03-7.31959E-05-1.31849E-14
 -1      4146 4.78530E-03-4.09771E-05-1.21810E-14
 -1      4147 5.13346E-03-7.20944E-05-1.38907E-14
 -1      4148 5.27092E-03-7.09562E-05-1.46141E-14
 -1      4149 5.06313E-03-3.98978E-05-1.35600E-14
 -1      4150 5.40744E-03-6.98506E-05-1.53545E-14
 -1      4151 5.54298E-03-6.87354E-05-1.61116E-14
 -1      4152 5.33767E-03-3.88709E-05-1.50084E-14
 -1      4153 5.67741E-03-6.77035E-05-1.68847E-14
 -1      4154 5.78650E-03-8.85905E-05-1.76447E-14
 -1      4155 5.60828E-03-3.80120E-05-1.65243E-14
 -1      4156 5.89419E-03-1.10126E-04-1.84134E-14
 -1      4157 6.00536E-03-1.25006E-04-1.92066E-14
 -1      4158 5.85463E-03-6.14016E-05-1.80776E-14
 -1      4159 6.11760E-03-1.34605E-04-2.00127E-14
 -1      4160 6.23356E-03-1.40210E-04-2.08359E-14
 -1      4161 6.08153E-03-9.17530E-05-1.96703E-14
 -1      4162 6.35180E-03-1.38915E-04-2.16763E-14
 -1      4163 6.48637E-03-1.32349E-04-2.25342E-14
 -1      4164 6.32126E-03-9.86239E-05-2.13355E-14
 -1      4165 6.61577E-03-1.03136E-04-2.34379E-14
 -1      4166 6.82860E-03-7.67638E-05-2.44775E-14
 -1      4167 6.57439E-03-7.19473E-05-2.30952E-14
 -1      4168 6.02935E-03 8.76144E-05-1.90958E-14
 -1      4169 5.89662E-03 9.04763E-05-1.82761E-14
 -1      4170 1.26743E-02 9.80696E-04-6.58937E-14
 -1      4171 1.28002E-02 1.01306E-03-6.72287E-14
 -1      4172 7.24531E-03 9.28693E-05-2.83880E-14
 -1      4173 5.21797E-03 1.02554E-04-1.44137E-14
 -1      4174 5.07966E-03 1.04574E-04-1.36915E-14
 -1      4175 1.29300E-02 1.05488E-03-6.84368E-14
 -1      4176 5.49219E-03 9.81310E-05-1.59090E-14
 -1      4177 5.35548E-03 1.00423E-04-1.51529E-14
 -1      4178 5.28401E-03 6.93414E-05-1.47687E-14
 -1      4179 6.54749E-03 7.46369E-05-2.25267E-14
 -1      4180 6.41996E-03 7.81775E-05-2.16469E-14
 -1      4181 7.00541E-03 5.81586E-05-2.61616E-14
 -1      4182 6.90289E-03 5.78015E-05-2.52364E-14
 -1      4183 6.79782E-03 6.69740E-05-2.43276E-14
 -1      4184 6.67334E-03 7.09445E-05-2.34195E-14
 -1      4185 6.59774E-03 4.58360E-05-2.29489E-14
 -1      4186 6.82094E-03 2.97394E-05-2.47462E-14
 -1      4187 6.29112E-03 8.14692E-05-2.07823E-14
 -1      4188 6.16083E-03 8.46423E-05-1.99311E-14
 -1      4189 6.34642E-03 5.20842E-05-2.11925E-14
 -1      4190 7.13488E-03 7.06611E-05-2.74018E-14
 -1      4191 4.66072E-03 1.09812E-04-1.16297E-14
 -1      4192 4.51987E-03 1.11316E-04-1.09772E-14
 -1      4193 1.30443E-02 1.18636E-03-6.85286E-14
 -1      4194 1.25489E-02 9.51077E-04-6.44630E-14
 -1      4195 1.27090E-02 1.01112E-03-6.58678E-14
 -1      4196 1.24285E-02 9.18130E-04-6.31395E-14
 -1      4197 1.19235E-02 7.55555E-04-5.82834E-14
 -1      4198 4.94066E-03 1.06442E-04-1.29864E-14
 -1      4199 4.80099E-03 1.08199E-04-1.22993E-14
 -1      4200 5.00810E-03 7.22852E-05-1.33270E-14
 -1      4201 1.21876E-02 8.45036E-04-6.05433E-14
 -1      4202 6.92745E-03-4.61742E-05-2.67234E-14
 -1      4203 2.02093E-03 1.68275E-06-2.56156E-15
 -1      4204 2.01131E-03 9.28666E-05-2.53724E-15
 -1      4205 1.27402E-02 1.04029E-03-6.58985E-14
 -1      4206 5.76284E-03 9.31572E-05-1.74711E-14
 -1      4207 5.62798E-03 9.57290E-05-1.66821E-14
 -1      4208 5.82483E-03 6.19671E-05-1.78551E-14
 -1      4209 2.85647E-03-8.22217E-05-4.70934E-15
 -1      4210 3.00147E-03-8.23759E-05-5.14911E-15
 -1      4211 2.22313E-03 1.02360E-04-3.02637E-15
 -1      4212 2.08802E-03 4.78248E-05-2.71506E-15
 -1      4213 2.23253E-03 8.33734E-06-3.05435E-15
 -1      4214 2.36832E-03 1.03924E-04-3.38611E-15
 -1      4215 3.14627E-03-8.23758E-05-5.60732E-15
 -1      4216 3.29084E-03-8.22160E-05-6.08297E-15
 -1      4217 3.07306E-03-4.51554E-05-5.38854E-15
 -1      4218 7.03865E-03 3.75944E-05-2.68784E-14
 -1      4219 1.23404E-02 9.05194E-04-6.18220E-14
 -1      4220 3.09229E-03 1.93529E-04-5.43474E-15
 -1      4221 2.94770E-03 1.93315E-04-4.98171E-15
 -1      4222 2.87292E-03 1.55845E-04-4.77033E-15
 -1      4223 1.26333E-02 1.06942E-03-6.42487E-14
 -1      4224 1.25081E-02 1.03257E-03-6.29209E-14
 -1      4225 1.24670E-02 9.99895E-04-6.25595E-14
 -1      4226 3.80858E-03 1.16922E-04-7.98447E-15
 -1      4227 3.66513E-03 1.17661E-04-7.44081E-15
 -1      4228 6.95628E-03 9.67876E-06-2.63174E-14
 -1      4229 6.08843E-03 5.73948E-05-1.94936E-14
 -1      4230 6.89030E-03-9.72939E-05-2.52442E-14
 -1      4231 6.87029E-03-8.64108E-05-2.59299E-14
 -1      4232 6.89426E-03-5.59746E-05-2.63180E-14
 -1      4233 6.76630E-03-5.82046E-05-2.47653E-14
 -1      4234 4.72924E-03 7.47996E-05-1.19547E-14
 -1      4235 1.29212E-02 1.13947E-03-6.73427E-14
 -1      4236 4.44788E-03 7.69201E-05-1.06531E-14
 -1      4237 4.37852E-03 1.12681E-04-1.03430E-14
 -1      4238 4.23667E-03 1.13937E-04-9.72662E-15
 -1      4239 5.55645E-03 6.59220E-05-1.62794E-14
 -1      4240 6.90812E-03-4.07086E-05-2.62481E-14
 -1      4241 4.09438E-03 1.15055E-04-9.12779E-15
 -1      4242 3.95167E-03 1.16060E-04-8.54733E-15
 -1      4243 4.16437E-03 7.86693E-05-9.42124E-15
 -1      4244 3.36226E-03-4.49534E-05-6.34167E-15
 -1      4245 3.87903E-03 8.00535E-05-8.26182E-15
 -1      4246 2.34980E-03-1.16170E-04-3.30396E-15
 -1      4247 2.65881E-03 1.06029E-04-4.16294E-15
 -1      4248 2.51358E-03 1.05144E-04-3.76488E-15
 -1      4249 2.44517E-03 5.65628E-05-3.59024E-15
 -1      4250 3.45092E-03 1.55570E-04-6.65597E-15
 -1      4251 3.38087E-03 1.92985E-04-6.39625E-15
 -1      4252 3.23669E-03 1.93414E-04-5.90668E-15
 -1      4253 1.27916E-02 1.10219E-03-6.59918E-14
 -1      4254 2.71130E-03-8.18642E-05-4.28798E-15
 -1      4255 2.78296E-03-4.49798E-05-4.50773E-15
 -1      4256 2.56605E-03-8.13113E-05-3.88483E-15
 -1      4257 5.30940E-03 1.48682E-05-1.48932E-14
 -1      4258 5.17239E-03 1.54390E-05-1.41625E-14
 -1      4259 4.75639E-03 1.66613E-05-1.20723E-14
 -1      4260 4.61629E-03 1.69877E-05-1.14111E-14
 -1      4261 2.30290E-03-7.84670E-05-3.20432E-15
 -1      4262 2.44818E-03-7.94762E-05-3.57289E-15
 -1      4263 2.51983E-03-4.32644E-05-3.77438E-15
 -1      4264 2.28408E-03-4.00672E-05-3.17102E-15
 -1      4265 6.88695E-03-1.57044E-05-2.58262E-14
 -1      4266 6.84922E-03 3.11872E-06-2.51842E-14
 -1      4267 6.75808E-03 7.27265E-06-2.42930E-14
 -1      4268 6.80450E-03-4.90295E-05-2.51205E-14
 -1      4269 3.00026E-03-7.93672E-06-5.17056E-15
 -1      4270 3.14513E-03-7.89833E-06-5.62968E-15
 -1      4271 3.90736E-03 1.79870E-05-8.36630E-15
 -1      4272 4.05013E-03 1.78565E-05-8.94041E-15
 -1      4273 4.19244E-03 1.76750E-05-9.53141E-15
 -1      4274 4.33427E-03 1.74880E-05-1.01398E-14
 -1      4275 4.47556E-03 1.72421E-05-1.07668E-14
 -1      4276 4.89581E-03 1.63217E-05-1.27515E-14
 -1      4277 5.03450E-03 1.58905E-05-1.34485E-14
 -1      4278 5.44547E-03 1.42672E-05-1.56415E-14
 -1      4279 5.58049E-03 1.35085E-05-1.64068E-14
 -1      4280 5.71439E-03 1.27066E-05-1.71870E-14
 -1      4281 5.84704E-03 1.16944E-05-1.79844E-14
 -1      4282 5.96510E-03-1.01060E-05-1.87788E-14
 -1      4283 6.08576E-03-1.81615E-05-1.95972E-14
 -1      4284 6.21105E-03-2.25264E-05-2.04338E-14
 -1      4285 6.33335E-03-2.48720E-05-2.12848E-14
 -1      4286 6.46398E-03-2.41403E-05-2.21538E-14
 -1      4287 6.74694E-03-2.72822E-05-2.43748E-14
 -1      4288 3.59212E-03 8.10564E-05-7.17566E-15
 -1      4289 3.52134E-03 1.18241E-04-6.91530E-15
 -1      4290 3.37725E-03 1.18680E-04-6.40776E-15
 -1      4291 1.24195E-02 9.69686E-04-6.21364E-14
 -1      4292 1.23740E-02 9.39742E-04-6.17774E-14
 -1      4293 1.24212E-02 9.42633E-04-6.24726E-14
 -1      4294 3.62060E-03 1.81914E-05-7.27585E-15
 -1      4295 3.76417E-03 1.81130E-05-7.81200E-15
 -1      4296 3.33242E-03 1.82900E-05-6.25625E-15
 -1      4297 3.47667E-03 1.82652E-05-6.75675E-15
 -1      4298 6.58578E-03-2.22664E-05-2.30466E-14
 -1      4299 1.25391E-02 1.00609E-03-6.34603E-14
 -1      4300 1.26400E-02 1.03936E-03-6.45240E-14
 -1      4301 2.35034E-03 7.28204E-06-3.34503E-15
 -1      4302 2.61356E-03 6.24297E-06-4.03963E-15
 -1      4303 2.75884E-03 6.32772E-06-4.45043E-15
 -1      4304 3.26065E-03 5.54997E-05-6.01675E-15
 -1      4305 6.72891E-03-7.01287E-07-2.39877E-14
 -1      4306 3.16235E-03 1.56243E-04-5.67607E-15
 -1      4307 2.83182E-03 4.34730E-05-4.66668E-15
 -1      4308 2.89966E-03 9.25952E-05-4.86639E-15
 -1      4309 2.49569E-03 7.38217E-06-3.72113E-15
 -1      4310 3.18931E-03 9.27608E-05-5.77910E-15
 -1      4311 3.04459E-03 9.27792E-05-5.31289E-15
 -1      4312 1.25365E-02 9.78686E-04-6.37333E-14
 -1      4313 1.25909E-02 1.00787E-03-6.41621E-14
 -3
    1PSTEP                         2           1           1          
  100CL  101 1.000000000        4313                     0    1           1
 -4  STRESS      6    1
 -5  SXX         1    4    1    1
 -5  SYY         1    4    2    2
 -5  SZZ         1    4    3    3
 -5  SXY         1    4    1    2
 -5  SYZ         1    4    2    3
 -5  SZX         1    4    3    1
 -1         1 9.64120E+00 7.03951E+00-5.24511E-01 8.34643E+00-1.26726E-12-1.32117E-12
 -1         2-6.78972E-01-2.30879E+01-3.31008E+00-7.74879E-02 3.24341E-13 1.50054E-14
 -1         3 1.99921E+01-8.34023E-03 2.36777E-02-8.35058E-03-4.91313E-13-4.74994E-13
 -1         4 1.99920E+01-8.13651E-03 2.60226E-02 8.30714E-03 1.38941E-13 1.16445E-13
 -1         5 3.27555E+01 6.14021E+00 2.74188E+00 6.22311E+00-2.61804E-14 1.78205E-12
 -1         6 3.57396E+01 1.22593E+01 5.12447E+00-8.64503E+00-1.02085E-13 2.07534E-12
 -1         7 2.08091E+01 6.09700E+00-1.29003E-01-4.72635E+00-1.51545E-14 5.28667E-13
 -1         8 1.96657E+01 5.93316E+00 5.08501E-02-3.27688E+00-2.43625E-14 9.28381E-15
 -1         9 1.91343E+01 5.77109E+00 4.90928E-02-2.52911E+00-2.35124E-14-3.00124E-13
 -1        10 1.88960E+01 5.69231E+00 5.11297E-02-1.95391E+00-1.83464E-14-4.54710E-13
 -1        11 1.87774E+01 5.65227E+00 5.03730E-02-1.45830E+00-1.40643E-14-5.32644E-13
 -1        12 1.87159E+01 5.63128E+00 4.88780E-02-1.01685E+00-8.44008E-15-5.78235E-13
 -1        13 1.86839E+01 5.62031E+00 4.75675E-02-5.96426E-01-7.55786E-15-5.98409E-13
 -1        14 1.86705E+01 5.61570E+00 4.68543E-02-1.91564E-01-1.37718E-15-6.09263E-13
 -1        15 1.86710E+01 5.61586E+00 4.68955E-02 2.08576E-01 4.09828E-16-6.18915E-13
 -1        16 1.86854E+01 5.62079E+00 4.77095E-02 6.14265E-01 3.84913E-15-6.18099E-13
 -1        17 1.87186E+01 5.63204E+00 4.92114E-02 1.03669E+00 4.10262E-15-6.05147E-13
 -1        18 1.87813E+01 5.65341E+00 5.09382E-02 1.48130E+00 1.01742E-14-5.67943E-13
 -1        19 1.89016E+01 5.69394E+00 5.16044E-02 1.98279E+00 1.39281E-14-5.10200E-13
 -1        20 1.91397E+01 5.77366E+00 4.87813E-02 2.56642E+00 2.10578E-14-3.93702E-13
 -1        21 1.96611E+01 5.94774E+00 4.57976E-02 3.31093E+00 2.38629E-14-1.41430E-13
 -1        22 2.11921E+01 6.37881E+00 1.39432E-01 4.52389E+00 6.75848E-15 4.13695E-13
 -1        23 2.30162E+01-1.37850E+00-9.38026E-01-7.11544E-01-5.77455E-14 1.72090E-12
 -1        24 1.93515E+01-9.94817E-02-3.09823E-01 6.30922E-02-1.96961E-14 1.39201E-12
 -1        25 1.86610E+01-5.63309E-02-6.87769E-02 6.06174E-02 9.99201E-16 1.03035E-12
 -1        26 1.84563E+01-2.21090E-02-6.46366E-03 3.28385E-02-1.33092E-14 7.54532E-13
 -1        27 1.84655E+01-1.18460E-02 1.58725E-03 2.24450E-02-7.11790E-15 5.69831E-13
 -1        28 1.85779E+01-6.31848E-03 1.77219E-03 1.61055E-02-3.20848E-15 4.63916E-13
 -1        29 1.87366E+01-3.21799E-03 1.66780E-03 1.19096E-02-6.42832E-15 3.93741E-13
 -1        30 1.89112E+01-1.44086E-03 1.78211E-03 8.90671E-03-3.33682E-15 2.87393E-13
 -1        31 1.90848E+01-4.53793E-04 1.84391E-03 6.64278E-03 2.65865E-14 2.25085E-13
 -1        32 1.92491E+01 2.60006E-05 1.73517E-03 4.89157E-03-6.82833E-14 1.49108E-14
 -1        33 1.94013E+01 1.58528E-04 1.45033E-03 3.53266E-03 2.37361E-14-5.72643E-14
 -1        34 1.95424E+01 3.86143E-05 1.01168E-03 2.49837E-03-6.52516E-15-2.08035E-14
 -1        35 1.96763E+01-2.76562E-04 4.36039E-04 1.75206E-03-1.68991E-14-1.56998E-14
 -1        36 1.98090E+01-7.52868E-04-2.72475E-04 1.28014E-03 1.54832E-14 4.84512E-14
 -1        37 1.99490E+01-1.36989E-03-1.12149E-03 1.09065E-03-3.69623E-14 6.35253E-14
 -1        38 2.01064E+01-2.11303E-03-2.12670E-03 1.21509E-03-3.69749E-14 1.02474E-14
 -1        39 2.02934E+01-2.96458E-03-3.30540E-03 1.71229E-03-2.66760E-14-9.34251E-14
 -1        40 2.05241E+01-3.89114E-03-4.66461E-03 2.67272E-03 1.30653E-14-1.83613E-13
 -1        41 2.08142E+01-4.82473E-03-6.17823E-03 4.22077E-03 2.61864E-14-1.92292E-13
 -1        42 9.71341E+00-4.13063E+00-4.23193E+00 2.94530E+00-1.41817E-12 3.07615E-12
 -1        43 1.12963E+01 6.67858E-01 1.81941E-01-1.39008E-01 8.98818E-14 4.23685E-12
 -1        44 1.38415E+01 1.49743E-02-2.20751E-02-4.49683E-02 4.44670E-14 4.59087E-12
 -1        45 1.68855E+01-3.14878E-01-9.15028E-01 1.34722E-01 5.48953E-15 3.92514E-12
 -1        46 2.87421E+01 7.08392E-01 1.02578E-01 3.98290E+00 2.54207E-12 1.29219E-12
 -1        47-3.60113E+00 7.27824E-01-8.10739E+00 3.13117E+01-6.00661E-11 1.62661E-11
 -1        48 7.98803E+00-2.53595E+00 5.08472E+00 5.85295E+00 4.10666E-12 5.53030E-12
 -1        49 1.75333E+01 6.64433E-01 4.32039E+00-2.39423E-01-1.64119E-13 3.29914E-12
 -1        50 2.00030E+01 9.70104E-02 1.16640E+00 9.11725E-02 4.33386E-14 1.52811E-12
 -1        51 2.19659E+01 8.25639E-02 3.20243E-01 1.97100E-02 2.62032E-14 1.16741E-12
 -1        52 2.21384E+01 6.42067E-02 1.21704E-01-8.77261E-02-1.21058E-14 8.30117E-13
 -1        53 2.09100E+01 1.86662E-02 1.17318E-02-1.35600E-01-9.39895E-15 3.81035E-13
 -1        54 1.93563E+01-2.76195E-02-8.92889E-02-1.05784E-01 4.82795E-14 1.67363E-13
 -1        55 1.85816E+01-5.18471E-02-1.40671E-01-1.37503E-02-1.03494E-13 8.68680E-14
 -1        56 1.91457E+01-4.40209E-02-1.10866E-01 8.30940E-02-5.65329E-14-1.21535E-13
 -1        57 2.07896E+01-1.43052E-02-3.06048E-02 1.29397E-01 1.07787E-14-3.99125E-14
 -1        58 2.27393E+01 1.64054E-02 4.33313E-02 1.14841E-01 6.47364E-14-1.16990E-14
 -1        59 2.42701E+01 3.30663E-02 7.55157E-02 6.81677E-02-6.55196E-14-9.71688E-14
 -1        60 2.50486E+01 3.41312E-02 6.98875E-02 2.18454E-02-2.32813E-14 1.75051E-14
 -1        61 2.51102E+01 2.58148E-02 4.69159E-02-8.53941E-03 4.28056E-14-8.18095E-14
 -1        62 2.46708E+01 1.50263E-02 2.33565E-02-2.25347E-02-5.41278E-14-3.41878E-13
 -1        63 2.39654E+01 5.83565E-03 6.41332E-03-2.56334E-02 2.33662E-14-7.64853E-13
 -1        64 2.31725E+01-4.62885E-04-3.27627E-03-2.33242E-02-3.69409E-14-5.48502E-13
 -1        65 2.24021E+01-4.13244E-03-7.68566E-03-1.92121E-02-5.54224E-14-8.95690E-14
 -1        66 2.17111E+01-5.97882E-03-9.10780E-03-1.51140E-02 8.85489E-14 8.31453E-15
 -1        67 2.11229E+01-6.81912E-03-9.38309E-03-1.16522E-02-4.91388E-14 3.45540E-13
 -1        68 2.06457E+01-7.27723E-03-9.86569E-03-8.68945E-03 1.09840E-13 4.51416E-13
 -1        69 2.02852E+01-7.62487E-03-1.12901E-02-5.41126E-03 2.36706E-14 7.75955E-13
 -1        70 2.00546E+01-6.71544E-03-1.18463E-02 5.76256E-04-4.43957E-14 1.00133E-12
 -1        71 1.99746E+01 1.25069E-03-9.99180E-04 8.75996E-03-9.36478E-14 6.06037E-13
 -1        72 2.10292E+01-4.04729E-01-9.80140E-01-3.11224E-01 3.98674E-14 1.54944E-12
 -1        73 1.93159E+01-6.58803E-02-2.91122E-01-5.37333E-02 1.15927E-14 1.06329E-12
 -1        74 1.86704E+01-2.05153E-02-6.42715E-02-2.02596E-02 1.45020E-14 6.97949E-13
 -1        75 1.84654E+01-9.90101E-03-9.30408E-03-1.53331E-02 3.42803E-15 4.39508E-13
 -1        76 1.84746E+01-5.20824E-03 6.76563E-04-1.22207E-02 1.78085E-14 2.31716E-13
 -1        77 1.85861E+01-2.68803E-03 1.71237E-03-9.89395E-03-1.66065E-15 1.48765E-13
 -1        78 1.87439E+01-1.26306E-03 1.80230E-03-8.08335E-03-2.54131E-14 2.56051E-13
 -1        79 1.89175E+01-4.61590E-04 1.92208E-03-6.56318E-03 1.69660E-14 1.91503E-13
 -1        80 1.90903E+01-4.72665E-05 1.95537E-03-5.22942E-03-3.77481E-14 3.66022E-14
 -1        81 1.92539E+01 1.10254E-04 1.81680E-03-4.04048E-03 2.25960E-14-3.68991E-14
 -1        82 1.94056E+01 8.71255E-05 1.50417E-03-2.98115E-03 2.69388E-14-1.59096E-13
 -1        83 1.95462E+01-6.99805E-05 1.04094E-03-2.04663E-03 7.56727E-15-2.77606E-13
 -1        84 1.96797E+01-3.31412E-04 4.47105E-04-1.23854E-03-6.10435E-15-3.35841E-13
 -1        85 1.98119E+01-6.76763E-04-2.66963E-04-5.65868E-04 3.64765E-14-3.89946E-13
 -1        86 1.99507E+01-1.08877E-03-1.09796E-03-4.85615E-05 2.31261E-15-4.43416E-13
 -1        87 2.01056E+01-1.54701E-03-2.04315E-03 2.76682E-04-3.51388E-14-3.40962E-13
 -1        88 2.02876E+01-2.02007E-03-3.09016E-03 3.49262E-04-6.40129E-15-2.37336E-13
 -1        89 2.05085E+01-2.45506E-03-4.20041E-03 7.65099E-05 2.24811E-14-4.40276E-13
 -1        90 2.07806E+01-2.76362E-03-5.28244E-03-6.73704E-04 4.14128E-14-6.32378E-13
 -1        91 2.11153E+01-2.80477E-03-6.14948E-03-2.07472E-03-1.49479E-14-5.96877E-13
 -1        92 2.15206E+01-2.36835E-03-6.45692E-03-4.32583E-03-3.86600E-14-2.75015E-13
 -1        93 2.19972E+01-1.17027E-03-5.62351E-03-7.59726E-03 6.43582E-14-2.53291E-13
 -1        94 2.25323E+01 1.11485E-03-2.76678E-03-1.18955E-02-3.27062E-15-8.47336E-13
 -1        95 2.30904E+01 4.73754E-03 3.25426E-03-1.67955E-02 1.03090E-14-8.90661E-13
 -1        96 2.36032E+01 9.61344E-03 1.34883E-02-2.10066E-02 1.90257E-14-8.65148E-13
 -1        97 2.39607E+01 1.48944E-02 2.79364E-02-2.18675E-02 2.68192E-14-8.55881E-13
 -1        98 2.40145E+01 1.85477E-02 4.38500E-02-1.52450E-02-5.10015E-14-7.50469E-13
 -1        99 2.84200E+01 1.38835E+00 1.73486E+00 1.25123E+00 4.44089E-16-5.60912E-13
 -1       100 2.59005E+01-1.16372E-01 3.12928E-02-8.25562E-03-1.69489E-14-5.30187E-13
 -1       101 2.34136E+01-2.94338E-02-6.92004E-02 7.05273E-02 3.86696E-14-4.26999E-13
 -1       102 2.12693E+01-2.90882E-02-7.68924E-02 9.18451E-02-5.56727E-14-5.66259E-13
 -1       103 1.96691E+01-3.33345E-02-9.52061E-02 7.78598E-02 3.63340E-14-3.59140E-13
 -1       104 1.89788E+01-2.84555E-02-1.00812E-01 3.35925E-02-1.32023E-14 3.91591E-13
 -1       105 1.93217E+01-1.52324E-02-7.33213E-02-2.23033E-02 2.04444E-14 5.39523E-13
 -1       106 2.04415E+01-1.72185E-04-2.38917E-02-6.28617E-02 3.51846E-14 4.71949E-13
 -1       107 2.18359E+01 1.10080E-02 2.25740E-02-7.40569E-02-2.37687E-14 7.63174E-14
 -1       108 2.30277E+01 1.57802E-02 4.76288E-02-6.08590E-02 1.48242E-14-1.79846E-13
 -1       109 2.37489E+01 1.50983E-02 5.00241E-02-3.71590E-02 1.02897E-13 1.21639E-14
 -1       110 2.39593E+01 1.13758E-02 3.87451E-02-1.47227E-02-2.01636E-14-1.80826E-13
 -1       111 2.37613E+01 6.85728E-03 2.35919E-02 1.10778E-03 5.57568E-14 2.37263E-13
 -1       112 2.33035E+01 2.90937E-03 1.05297E-02 9.96981E-03 3.17671E-17-1.13159E-13
 -1       113 2.27203E+01 2.84072E-05 1.57374E-03 1.36585E-02 9.47397E-14-6.56007E-13
 -1       114 2.21089E+01-1.83655E-03-3.59503E-03 1.42727E-02-1.11703E-13-4.41226E-13
 -1       115 2.15297E+01-2.97268E-03-6.18193E-03 1.34370E-02 2.71675E-14 2.25740E-14
 -1       116 2.10165E+01-3.70151E-03-7.52098E-03 1.21365E-02 3.86413E-14-1.83728E-13
 -1       117 2.05878E+01-4.28307E-03-8.81642E-03 1.07629E-02 3.76899E-14-7.41842E-13
 -1       118 2.02580E+01-4.75523E-03-1.07748E-02 9.06681E-03 2.73967E-14-1.05233E-12
 -1       119 2.00464E+01-4.21416E-03-1.15394E-02 5.00572E-03-3.61111E-14-1.44361E-12
 -1       120 1.99781E+01 4.40530E-03 2.48875E-04-5.40317E-03 2.33955E-13-1.26257E-12
 -1       121 1.99997E+01-1.64423E-02-5.82748E-04-8.89980E-03-9.96796E-13 2.34402E-13
 -1       122 1.99944E+01 5.62479E-02-1.10198E-02 1.76433E-03-4.16725E-13 1.03622E-14
 -1       123 1.99959E+01 2.63110E-01-7.92190E-03 7.93627E-03-2.04346E-13 5.99082E-14
 -1       124 1.99985E+01 5.48254E-01-2.74432E-03 1.04292E-02-2.80565E-13 1.64761E-13
 -1       125 2.00013E+01 8.57888E-01 1.96904E-03 1.04466E-02 6.24232E-13-5.01818E-14
 -1       126 2.00039E+01 1.13917E+00 5.74256E-03 8.92234E-03 5.28970E-13 8.99973E-14
 -1       127 2.00058E+01 1.36017E+00 8.49110E-03 6.08650E-03 1.37162E-12 1.78575E-13
 -1       128 2.00069E+01 1.48477E+00 1.00939E-02 2.40151E-03 1.44920E-12-1.49481E-13
 -1       129 2.00070E+01 1.49483E+00 1.03652E-02-1.67138E-03 1.12804E-12 3.56648E-14
 -1       130 2.00062E+01 1.38746E+00 9.21865E-03-5.61390E-03 7.63760E-13-2.05937E-13
 -1       131 2.00044E+01 1.17604E+00 6.62839E-03-8.98579E-03-1.05112E-12-1.30040E-13
 -1       132 2.00019E+01 8.94497E-01 2.80215E-03-1.08953E-02-1.31739E-12 3.65335E-13
 -1       133 1.99989E+01 5.75659E-01-2.32829E-03-1.11498E-02-5.67429E-13 1.70309E-13
 -1       134 1.99952E+01 2.75839E-01-8.67683E-03-9.50423E-03-4.97870E-13-1.43050E-13
 -1       135 1.99952E+01 6.16256E-02-1.02925E-02-2.97244E-03-5.87385E-13 2.19383E-14
 -1       136 1.99951E+01-1.46025E-02-2.25915E-04 1.65568E-02-6.32430E-13-4.59215E-14
 -1       137-1.35569E+00-1.83847E+01-3.00248E+00-3.60745E+00 9.50906E-13 1.43153E-13
 -1       138-1.29468E+00-6.66738E+00-2.10770E+00-2.39120E+00 8.79241E-13 3.65985E-13
 -1       139 4.46557E+00 5.10863E+00-8.04559E-01 4.98639E+00 5.33795E-13 3.98459E-13
 -1       140 1.68687E+01 1.06056E+01 5.65731E-01 1.32596E+01 1.96343E-13 2.26263E-13
 -1       141 3.51185E+01 9.43762E+00 1.88488E+00 1.76556E+01-6.13398E-14 9.93650E-15
 -1       142 5.27601E+01 4.60644E+00 2.88344E+00 1.41737E+01-1.01683E-13-2.76668E-13
 -1       143 6.24811E+01 9.32790E-01 3.32025E+00 2.92708E+00 8.86860E-14-8.19948E-13
 -1       144 5.79892E+01 2.36829E+00 3.00529E+00-9.88143E+00 3.34425E-13-1.70805E-12
 -1       145 4.23320E+01 7.34425E+00 2.11600E+00-1.69033E+01 1.00853E-12-2.35262E-12
 -1       146 2.20654E+01 1.08097E+01 7.95070E-01-1.53167E+01 1.65967E-12-2.29949E-12
 -1       147 7.56943E+00 7.98409E+00-4.38513E-01-7.91381E+00 2.15383E-12-1.70397E-12
 -1       148-1.27923E-01-1.51592E+00-1.52283E+00 1.10364E-01 1.12799E-12-8.22009E-13
 -1       149-1.11507E+00-1.18924E+01-2.21314E+00 2.88457E+00-3.14415E-13 1.29244E-13
 -1       150-5.84327E-01-1.91199E+01-2.67232E+00 8.91305E-01-9.98368E-13 8.49893E-14
 -1       151-1.08036E+00-1.94923E+01-2.89643E+00-3.04556E+00-1.36480E-12-2.10397E-13
 -1       152-2.22509E+00-1.25035E+01-2.72398E+00-4.46778E+00-1.83786E-12-7.39811E-13
 -1       153-1.08082E-01-1.71149E+00-1.95433E+00-2.15888E-01-1.95027E-12-1.31617E-12
 -1       154 2.78259E+01 9.21536E+00 1.20074E+00 1.56485E+01-6.14342E-13-9.31699E-13
 -1       155 4.94542E+01 5.66439E+00 2.74618E+00 1.56238E+01-1.57110E-13-5.98632E-13
 -1       156 6.35340E+01 1.57612E+00 3.60245E+00 6.66921E+00-1.32915E-14-1.29702E-13
 -1       157 6.47607E+01 1.55928E+00 3.66494E+00-6.59266E+00-7.28237E-14 1.47132E-13
 -1       158 5.28638E+01 5.85156E+00 2.98181E+00-1.65069E+01-1.95649E-13 7.94753E-13
 -1       159 3.35848E+01 1.06393E+01 1.77973E+00-1.84660E+01-7.21978E-13 1.10700E-12
 -1       160 1.52172E+01 1.07070E+01 3.14486E-01-1.26968E+01-8.56981E-13 9.24760E-13
 -1       161 2.94148E+00 3.62113E+00-1.13944E+00-3.56376E+00-3.89633E-13 2.32758E-13
 -1       162-1.39811E+00-7.83713E+00-2.29792E+00 2.73110E+00-1.39572E-12 4.90274E-13
 -1       163-1.28258E+00-1.88088E+01-3.06469E+00 3.52923E+00-9.01751E-13 3.78780E-13
 -1       164 2.10047E+01 3.69341E+00-5.73811E-02-3.61204E+00-2.75380E-13 2.20379E-13
 -1       165 1.99863E+01 4.20674E+00-4.57952E-02-2.81120E+00-2.79057E-13-1.03098E-13
 -1       166 1.95059E+01 4.47766E+00-3.17134E-02-2.19717E+00-2.46440E-13-3.05181E-13
 -1       167 1.92706E+01 4.61465E+00-2.38152E-02-1.67663E+00-2.01822E-13-4.13882E-13
 -1       168 1.91422E+01 4.69777E+00-1.95805E-02-1.22056E+00-1.47409E-13-4.58549E-13
 -1       169 1.90704E+01 4.74892E+00-1.74461E-02-7.93210E-01-1.07130E-13-4.92108E-13
 -1       170 1.90345E+01 4.77701E+00-1.64245E-02-3.87446E-01-5.40827E-14-5.02111E-13
 -1       171 1.90240E+01 4.78564E+00-1.61309E-02 8.27727E-03-1.53843E-14-5.09359E-13
 -1       172 1.90362E+01 4.77574E+00-1.64632E-02 4.04326E-01 2.95139E-14-5.13408E-13
 -1       173 1.90741E+01 4.74593E+00-1.75157E-02 8.11109E-01 6.42896E-14-5.19246E-13
 -1       174 1.91467E+01 4.69310E+00-1.96816E-02 1.23307E+00 1.07031E-13-4.89173E-13
 -1       175 1.92795E+01 4.60547E+00-2.39986E-02 1.70015E+00 1.76731E-13-4.46509E-13
 -1       176 1.95229E+01 4.45923E+00-3.28411E-02 2.22872E+00 2.34329E-13-3.71888E-13
 -1       177 2.00085E+01 4.18322E+00-4.72061E-02 2.84888E+00 2.82264E-13-2.09516E-13
 -1       178 2.11262E+01 3.46309E+00-5.97904E-02 3.53833E+00 2.97548E-13 1.14062E-13
 -1       179 2.24077E+01 1.14351E+00-3.36409E-01 3.01598E+00 2.44328E-13 5.62841E-13
 -1       180 2.19599E+01 8.58328E-01 6.01204E-04-1.96029E+00-2.28470E-13 6.00010E-13
 -1       181 2.04349E+01 1.90082E-01-9.98871E-03-7.65669E-01-2.15508E-13 4.74729E-13
 -1       182 1.96582E+01 1.01674E-01 1.35759E-02-2.87246E-01-1.75796E-13 3.54765E-13
 -1       183 1.93176E+01 4.72835E-02 1.00245E-02-6.93294E-02-1.22430E-13 2.31516E-13
 -1       184 1.91875E+01 2.27347E-02 5.19381E-03 3.83724E-02-7.25349E-14 1.88237E-13
 -1       185 1.91745E+01 9.85845E-03 2.47254E-03 9.17628E-02-6.11085E-14 1.61325E-13
 -1       186 1.92250E+01 2.72796E-03 1.18664E-03 1.15519E-01-5.24467E-14 1.42549E-13
 -1       187 1.93082E+01-1.12546E-03 5.78653E-04 1.22699E-01-5.52108E-14 1.14324E-13
 -1       188 1.94065E+01-2.90222E-03 2.79095E-04 1.21061E-01-9.40244E-14 8.02274E-14
 -1       189 1.95104E+01-3.26215E-03 1.39277E-04 1.15645E-01-7.45119E-14 5.79682E-14
 -1       190 1.96154E+01-2.59421E-03 9.81937E-05 1.09956E-01-7.20371E-14-1.18317E-13
 -1       191 1.97209E+01-1.12985E-03 1.26649E-04 1.06584E-01-2.39717E-14-1.97379E-13
 -1       192 1.98291E+01 1.00157E-03 2.08056E-04 1.07578E-01 1.58859E-14-1.67894E-13
 -1       193 1.99441E+01 3.73940E-03 3.31598E-04 1.14686E-01 1.78427E-15-7.47265E-14
 -1       194 2.00722E+01 7.06515E-03 4.88746E-04 1.29509E-01-2.73655E-14 2.43564E-14
 -1       195 2.02210E+01 1.09736E-02 6.70194E-04 1.53565E-01-8.75950E-14-4.70284E-15
 -1       196 2.03993E+01 1.54319E-02 8.62129E-04 1.88276E-01-7.45910E-14-5.19346E-14
 -1       197 2.06173E+01 2.03133E-02 1.04113E-03 2.34803E-01-7.55922E-14-2.00311E-13
 -1       198 1.88547E+01-8.41958E-01-8.58956E-01 2.67581E-01-1.26612E-13-1.63897E-14
 -1       199 1.17126E+01-2.64690E+00-9.39930E-01 2.60942E+00 5.37480E-13 3.54602E-12
 -1       200 1.11644E+01-2.43258E-01-4.86361E-02 1.76222E+00 3.13416E-13 4.46509E-12
 -1       201 1.22171E+01 6.22849E-01-8.05907E-02 2.18871E+00-2.90081E-13 4.73149E-12
 -1       202 1.24803E+01 2.53383E+00-5.10733E-01 4.35661E+00-1.65677E-12 4.69830E-12
 -1       203-4.00133E-01 6.65963E+00-3.75420E+00-3.49924E+00-1.90618E-12 1.12214E-11
 -1       204 2.48735E+01-2.15015E+01-2.38360E+00-1.22250E+00 8.13571E-12 3.11173E-12
 -1       205 1.58511E+01-1.20149E+00 3.04493E+00 4.34840E+00-3.34577E-12 6.15064E-13
 -1       206 1.93831E+01-1.50941E-01 1.07596E+00 3.21066E+00-7.85788E-13 4.27047E-13
 -1       207 2.18662E+01-6.05757E-01 1.94511E-01 1.69468E+00-1.52947E-13 2.79816E-13
 -1       208 2.27320E+01-5.47315E-01-4.54911E-03 2.09496E-01-1.55124E-13 4.18452E-13
 -1       209 2.26062E+01-2.73218E-01-1.98982E-02-7.93763E-01-2.27536E-13 3.55719E-13
 -1       210 2.19644E+01 7.95165E-02-1.23287E-02-1.04181E+00-1.77315E-13 2.70714E-13
 -1       211 2.13844E+01 3.56301E-01-7.31656E-03-5.23566E-01-9.84022E-14 7.99629E-14
 -1       212 2.13343E+01 3.98268E-01-4.94708E-03 3.86816E-01-7.77902E-14 2.48135E-14
 -1       213 2.18981E+01 2.12407E-01-1.91578E-03 1.11994E+00 1.77493E-14 6.82388E-14
 -1       214 2.27802E+01-3.84608E-02 9.85893E-04 1.31807E+00-2.55725E-14-1.45287E-13
 -1       215 2.35772E+01-1.98894E-01-3.42197E-05 1.02067E+00-1.34290E-13-2.71683E-13
 -1       216 2.40345E+01-2.30870E-01-2.50601E-03 4.96547E-01 5.21792E-14-3.97505E-13
 -1       217 2.40979E+01-1.81540E-01-4.14580E-03-3.29419E-03 6.22852E-15-8.20535E-14
 -1       218 2.38415E+01-1.09104E-01-4.17607E-03-3.55810E-01-9.98802E-14-1.48889E-13
 -1       219 2.33819E+01-4.70536E-02-3.08250E-03-5.46085E-01-2.65207E-13-2.89927E-14
 -1       220 2.28266E+01-5.47455E-03-1.62133E-03-6.10396E-01-5.14519E-14-3.13671E-13
 -1       221 2.22550E+01 1.77316E-02-3.10972E-04-5.94865E-01 2.19918E-13-5.42427E-13
 -1       222 2.17169E+01 2.84446E-02 6.44886E-04-5.36612E-01 1.67993E-13-2.67435E-13
 -1       223 2.12396E+01 3.23300E-02 1.24154E-03-4.59286E-01 2.69857E-13-2.47418E-13
 -1       224 2.08361E+01 3.37562E-02 1.52782E-03-3.74682E-01 2.13100E-13 1.60136E-13
 -1       225 2.05116E+01 3.58703E-02 1.50364E-03-2.85743E-01 9.79115E-14 1.05388E-13
 -1       226 2.02687E+01 4.06095E-02 1.36158E-03-1.90119E-01 8.89849E-14-1.18452E-13
 -1       227 2.01011E+01 4.62420E-02 9.85594E-04-8.67835E-02-1.62437E-13 8.50009E-14
 -1       228 2.09509E+01 2.77054E-01-5.13393E-02 1.16619E+00 2.21056E-13 4.58006E-13
 -1       229 1.98549E+01 1.26843E-01 8.30985E-03 4.44480E-01 1.91583E-13 2.88877E-13
 -1       230 1.93475E+01 5.80701E-02 1.27427E-02 1.51391E-01 1.35092E-13 1.47968E-13
 -1       231 1.91369E+01 2.77796E-02 7.64397E-03 1.19524E-02 1.07817E-13 6.32289E-14
 -1       232 1.90867E+01 1.32268E-02 3.84696E-03-5.76055E-02 1.96425E-14 3.63986E-14
 -1       233 1.91232E+01 5.42242E-03 1.94221E-03-9.08583E-02-4.20875E-14-8.02049E-15
 -1       234 1.92047E+01 1.09625E-03 1.05448E-03-1.04032E-01 5.39811E-14-1.51184E-14
 -1       235 1.93073E+01-1.18502E-03 6.12799E-04-1.06103E-01 7.56730E-14-5.05959E-14
 -1       236 1.94179E+01-2.14230E-03 3.73653E-04-1.02587E-01 5.79439E-14-1.45252E-13
 -1       237 1.95296E+01-2.18296E-03 2.42753E-04-9.71568E-02 4.06197E-14-1.18800E-13
 -1       238 1.96402E+01-1.55197E-03 1.80147E-04-9.24015E-02 8.41170E-14-9.71621E-14
 -1       239 1.97506E+01-3.99806E-04 1.64370E-04-9.02532E-02 6.35025E-14-1.55664E-13
 -1       240 1.98640E+01 1.18150E-03 1.80864E-04-9.22329E-02 3.58068E-14-2.11223E-13
 -1       241 1.99856E+01 3.13351E-03 2.17691E-04-9.95972E-02-4.96634E-15-2.21852E-13
 -1       242 2.01219E+01 5.40768E-03 2.63176E-04-1.13406E-01-4.49576E-14-2.13219E-13
 -1       243 2.02808E+01 7.93650E-03 3.03871E-04-1.34504E-01-2.01596E-14-2.43421E-13
 -1       244 2.04705E+01 1.05938E-02 3.22678E-04-1.63399E-01 1.19956E-13-2.52627E-13
 -1       245 2.06994E+01 1.31362E-02 2.97571E-04-1.99984E-01 1.10916E-13-3.17526E-13
 -1       246 2.09749E+01 1.51183E-02 2.02234E-04-2.43055E-01-8.76115E-14-2.86053E-13
 -1       247 2.13014E+01 1.57757E-02 1.13907E-05-2.89536E-01-1.59496E-13-1.91603E-13
 -1       248 2.16774E+01 1.38883E-02-2.84834E-04-3.33353E-01 1.05549E-13-2.19036E-13
 -1       249 2.20923E+01 7.67866E-03-6.52989E-04-3.64013E-01 2.18895E-13-2.40520E-13
 -1       250 2.25203E+01-5.10248E-03-9.76357E-04-3.65238E-01 5.04729E-14-4.65047E-13
 -1       251 2.29161E+01-2.65778E-02-1.02427E-03-3.14695E-01-4.42477E-14-3.61939E-13
 -1       252 2.32106E+01-5.71238E-02-4.93828E-04-1.86995E-01-6.59152E-14-2.24687E-13
 -1       253 2.33154E+01-9.22652E-02 7.99839E-04 3.66561E-02-5.27746E-14-1.93690E-13
 -1       254 2.44837E+01 7.79288E-01 5.96464E-01 1.13031E+00 2.75847E-14-3.11862E-13
 -1       255 2.52201E+01 2.48330E-01 3.95131E-02 1.86849E+00-1.09903E-13-2.87822E-13
 -1       256 2.38423E+01 4.52286E-02-2.57135E-02 1.51846E+00-5.67905E-14-1.74756E-13
 -1       257 2.24170E+01 9.97535E-02-1.40205E-02 1.26973E+00-1.82831E-14-1.73295E-13
 -1       258 2.13272E+01 1.83869E-01-7.41679E-03 8.42246E-01-1.86911E-13-6.71273E-14
 -1       259 2.07770E+01 2.26164E-01-6.03395E-03 2.30521E-01-3.17123E-13 5.67734E-14
 -1       260 2.08497E+01 1.84813E-01-2.86542E-03-3.75780E-01-3.08482E-14 3.36504E-13
 -1       261 2.14082E+01 7.95713E-02 1.65486E-03-7.56197E-01-4.90137E-14 4.88854E-13
 -1       262 2.21604E+01-2.89542E-02 4.84707E-03-8.16565E-01 2.43811E-13 4.16180E-13
 -1       263 2.28177E+01-9.51155E-02 4.72118E-03-6.21867E-01 1.01728E-13 2.60994E-13
 -1       264 2.32077E+01-1.10391E-01 2.50271E-03-3.12971E-01-5.66474E-14 2.14102E-13
 -1       265 2.32902E+01-9.17061E-02 1.48148E-04-1.40554E-02 4.83402E-14 2.28010E-13
 -1       266 2.31138E+01-6.05194E-02-1.26591E-03 2.08835E-01-1.02022E-13 1.05925E-13
 -1       267 2.27622E+01-3.10145E-02-1.63674E-03 3.41473E-01 2.05060E-13 2.43364E-13
 -1       268 2.23184E+01-9.01250E-03-1.33000E-03 3.98029E-01 1.74190E-13 2.28979E-13
 -1       269 2.18476E+01 5.01033E-03-7.49647E-04 4.01378E-01-1.44521E-13 1.79495E-13
 -1       270 2.13941E+01 1.29532E-02-1.67916E-04 3.72148E-01 1.74043E-14 5.24447E-14
 -1       271 2.09856E+01 1.72921E-02 2.58501E-04 3.24595E-01 2.62071E-13-8.62754E-14
 -1       272 2.06383E+01 2.02741E-02 3.90137E-04 2.66165E-01 3.06438E-13-2.70901E-13
 -1       273 2.03628E+01 2.37452E-02 1.00588E-04 1.98739E-01 2.38861E-13-5.97908E-13
 -1       274 2.01664E+01 2.94242E-02 1.85603E-04 1.20518E-01 1.76895E-13-5.55981E-13
 -1       275 2.00481E+01 2.83658E-02 1.41355E-03 3.64739E-02-1.41346E-13-3.94470E-13
 -1       276 2.00416E+01 9.83269E-02 9.29689E-04 8.50196E-02-3.72331E-13 2.70871E-13
 -1       277 2.00315E+01 2.41834E-01 3.76354E-04 1.68676E-01-4.00974E-14 2.84079E-13
 -1       278 2.00150E+01 4.34085E-01 1.79726E-04 2.23829E-01-2.32179E-14 2.87308E-15
 -1       279 1.99993E+01 6.51209E-01-8.55845E-05 2.40839E-01 3.19341E-15 6.02307E-13
 -1       280 1.99855E+01 8.60731E-01-5.37352E-04 2.21937E-01-5.02684E-14 1.89432E-14
 -1       281 1.99741E+01 1.04137E+00-9.49851E-04 1.71333E-01 2.14755E-13 4.46793E-13
 -1       282 1.99663E+01 1.16436E+00-1.25077E-03 9.66432E-02 1.99911E-13 1.07424E-13
 -1       283 1.99630E+01 1.21265E+00-1.36987E-03 7.95635E-03 4.84341E-13-1.56370E-13
 -1       284 1.99646E+01 1.17891E+00-1.29048E-03-8.29052E-02 2.78529E-13-3.48105E-13
 -1       285 1.99712E+01 1.06683E+00-1.01875E-03-1.63461E-01 3.92356E-14-9.45260E-13
 -1       286 1.99822E+01 8.94576E-01-5.91247E-04-2.20999E-01-7.04652E-14-2.54644E-13
 -1       287 1.99970E+01 6.79775E-01-1.57763E-04-2.47313E-01-2.04833E-13 2.80290E-13
 -1       288 2.00143E+01 4.55658E-01 1.56649E-04-2.33867E-01-2.16849E-13 1.72108E-13
 -1       289 2.00338E+01 2.56324E-01 9.25414E-04-1.77169E-01-3.53416E-13-6.50720E-14
 -1       290 2.00706E+01 1.42552E-01 1.07471E-03-1.48863E-01-1.37497E-13-9.37382E-14
 -1       291-6.78490E-01-9.43154E+00-9.05985E-01 1.21651E+00-4.62685E-14 2.45998E-13
 -1       292 2.83389E+00-7.67232E+00-7.85124E-01 3.41050E+00 1.21569E-14-3.11695E-14
 -1       293 1.06630E+01-4.20319E+00-3.80720E-01 6.00841E+00 9.55902E-14-1.69448E-14
 -1       294 1.91056E+01-1.33468E-01-4.26766E-02 7.22236E+00 1.33865E-13-2.67841E-13
 -1       295 2.88192E+01 2.97465E+00 3.78687E-01 7.54788E+00-9.33420E-14-2.57461E-13
 -1       296 3.72531E+01 4.95680E+00 6.59701E-01 5.71462E+00-3.07566E-14-8.07382E-13
 -1       297 4.22136E+01 6.41727E+00 7.99050E-01 2.59402E+00-2.52576E-15-1.07153E-12
 -1       298 4.45870E+01 6.23892E+00 9.59339E-01-9.37072E-01 3.50900E-13-7.90333E-13
 -1       299 3.99270E+01 5.59640E+00 7.22235E-01-4.31395E+00 7.07462E-13-9.19542E-13
 -1       300 3.18311E+01 4.19185E+00 4.44648E-01-7.26449E+00 8.10102E-13-1.31345E-12
 -1       301 2.14193E+01 1.87886E+00 3.80634E-02-7.59511E+00 8.25673E-13-1.04497E-12
 -1       302 1.27373E+01-1.91406E+00-2.23576E-01-6.52379E+00 3.22881E-13-9.17516E-13
 -1       303 4.18930E+00-4.75873E+00-5.64876E-01-4.20907E+00 6.18949E-14-8.81657E-13
 -1       304 1.43008E-01-7.63640E+00-7.44953E-01-2.37078E+00-3.16122E-13-3.13763E-13
 -1       305-1.21221E+00-8.49306E+00-7.81594E-01-7.62835E-01-6.83217E-13-2.51729E-13
 -1       306 4.65211E-01-8.30757E+00-8.67417E-01 1.07874E+00-8.25146E-13-4.89733E-13
 -1       307 6.08241E+00-6.12372E+00-6.77538E-01 3.55676E+00-8.77881E-13-6.80454E-13
 -1       308 1.45090E+01-3.21013E+00-4.08826E-01 5.37882E+00-9.36196E-13-5.25802E-13
 -1       309 2.56265E+01-2.57222E-01 7.68045E-02 5.98108E+00-7.60780E-13-4.23717E-13
 -1       310 3.56937E+01 2.85085E+00 4.99496E-01 4.46481E+00-3.89813E-13-5.30798E-13
 -1       311 4.36549E+01 5.44194E+00 9.58443E-01 2.93401E+00-3.57783E-13-2.19741E-13
 -1       312 4.51450E+01 6.90364E+00 9.47693E-01-5.93376E-01-2.52715E-13 6.37546E-14
 -1       313 4.46642E+01 6.25466E+00 1.01154E+00-4.12652E+00-4.34083E-13 3.50636E-13
 -1       314 3.81380E+01 5.05202E+00 7.47222E-01-6.82483E+00-4.95941E-13 6.30662E-13
 -1       315 2.85713E+01 2.68605E+00 3.09881E-01-7.95808E+00-3.66707E-13 6.26832E-13
 -1       316 1.89400E+01-1.32154E+00-1.23975E-01-7.25996E+00-2.80720E-13 7.74381E-13
 -1       317 9.11850E+00-4.38715E+00-5.17263E-01-5.70830E+00-8.07465E-13-6.22280E-14
 -1       318 2.51580E+00-7.79962E+00-8.39695E-01-3.37926E+00-3.44086E-13 4.38392E-13
 -1       319-7.25738E-01-9.90933E+00-9.82503E-01-1.10637E+00-2.45567E-13 5.90777E-13
 -1       320 2.01432E+01 3.01479E+00-1.77970E-02-2.11222E+00-2.97648E-13-1.35011E-13
 -1       321 2.07479E+01 2.20976E+00-1.78530E-02-2.36544E+00-2.97394E-13 5.68781E-14
 -1       322 1.95869E+01 3.69250E+00-1.56094E-02-1.31993E+00-1.99837E-13-3.20036E-13
 -1       323 1.94671E+01 3.84908E+00-1.37019E-02-9.24841E-01-1.58253E-13-3.82259E-13
 -1       324 1.93997E+01 3.94047E+00-1.27162E-02-5.44446E-01-9.11803E-14-3.70987E-13
 -1       325 1.93699E+01 3.98203E+00-1.23031E-02-1.73416E-01-3.53129E-14-4.00734E-13
 -1       326 1.93712E+01 3.98043E+00-1.23224E-02 1.94606E-01 1.00482E-14-3.90538E-13
 -1       327 1.94037E+01 3.93535E+00-1.27680E-02 5.65968E-01 5.47654E-14-4.07996E-13
 -1       328 1.94729E+01 3.84175E+00-1.37756E-02 9.40289E-01 1.12591E-13-3.86723E-13
 -1       329 1.95975E+01 3.67907E+00-1.56596E-02 1.33470E+00 1.81217E-13-3.36970E-13
 -1       330 1.98098E+01 3.41002E+00-1.88321E-02 1.74039E+00 2.56115E-13-3.03961E-13
 -1       331 2.01764E+01 2.95507E+00-2.29327E-02 2.12918E+00 3.04867E-13-2.13688E-13
 -1       332 2.07418E+01 2.12931E+00-3.04626E-02 2.32413E+00 3.20710E-13-1.94185E-14
 -1       333 2.10856E+01 1.18771E+00-2.49231E-02 1.92372E+00 2.96612E-13 1.77155E-13
 -1       334 2.03814E+01 4.89309E-01 8.33673E-03 9.29180E-01 2.58440E-13 9.89139E-14
 -1       335 2.04503E+01 6.75188E-01 1.25617E-02-1.02781E+00-2.33569E-13 9.48869E-14
 -1       336 2.00281E+01 3.37510E-01 7.19001E-03-4.59716E-01-1.93930E-13 8.85941E-14
 -1       337 1.97744E+01 1.77211E-01 4.17697E-03-1.49859E-01-1.30994E-13 7.38192E-14
 -1       338 1.96400E+01 9.17715E-02 1.92301E-03 2.25953E-02-8.21124E-14 2.64361E-14
 -1       339 1.95867E+01 4.36236E-02 8.21141E-04 1.16014E-01-6.14764E-14 5.73776E-15
 -1       340 1.95852E+01 1.60603E-02 3.18657E-04 1.62832E-01-7.90497E-14 3.60344E-15
 -1       341 1.96154E+01 1.01918E-03 8.48705E-05 1.82482E-01-6.04646E-14-1.58295E-14
 -1       342 1.96646E+01-5.80697E-03-1.77114E-05 1.87396E-01-1.18721E-13-1.92029E-14
 -1       343 1.97249E+01-6.90587E-03-4.28486E-05 1.86011E-01-1.44637E-13-5.72299E-14
 -1       344 1.97925E+01-3.77708E-03-1.42678E-05 1.84354E-01-1.03033E-13-8.65621E-14
 -1       345 1.98663E+01 2.67617E-03 5.55548E-05 1.86967E-01-9.30910E-15-9.53790E-14
 -1       346 1.99473E+01 1.19345E-02 1.59393E-04 1.97475E-01 6.95456E-14-3.86407E-14
 -1       347 2.00379E+01 2.37204E-02 2.92783E-04 2.18954E-01 2.42767E-14-1.67247E-15
 -1       348 2.01422E+01 3.78735E-02 4.52125E-04 2.54136E-01-8.50602E-14-8.66986E-14
 -1       349 2.02650E+01 5.42043E-02 6.32391E-04 3.05459E-01-1.23070E-13-1.45651E-13
 -1       350 2.04119E+01 7.22840E-02 8.23827E-04 3.74933E-01-1.39514E-13-1.91808E-13
 -1       351 2.05890E+01 9.11151E-02 1.00695E-03 4.63735E-01-1.25780E-13-1.90580E-13
 -1       352 1.57839E+01-7.95772E-01-1.62400E+00 4.98468E-01 1.15491E-12 1.72889E-12
 -1       353 1.00736E+01-1.33637E+00-6.23724E-01 1.18493E+00 1.24052E-12 4.96890E-12
 -1       354 9.05877E+00 7.37116E-01 6.93573E-03 1.73477E+00 3.53745E-13 5.18973E-12
 -1       355 7.98025E+00 2.06933E+00-1.26246E-01 2.13489E+00-8.35755E-14 5.79530E-12
 -1       356 5.71178E+00 1.64840E+00-1.04023E+00 4.42392E-01-7.35856E-13 7.21859E-12
 -1       357 6.88985E+00-7.64313E+00-4.04675E+00 1.59668E+00-1.39389E-12 8.51819E-12
 -1       358 1.05193E+01-7.32965E+00-2.88525E+00 7.87325E+00-1.06272E-11 9.83880E-12
 -1       359 2.43320E+01-1.29543E+00 1.97492E+00 8.64822E+00-1.35800E-12-8.84959E-13
 -1       360 2.49560E+01-2.58939E+00 4.52773E-01 3.92431E+00-1.11595E-13-1.26982E-13
 -1       361 2.47701E+01-2.26777E+00 2.38386E-02 1.31380E+00 3.14093E-14 9.39457E-14
 -1       362 2.45765E+01-1.52964E+00-2.80452E-02-5.72341E-01-1.16763E-13 1.64650E-13
 -1       363 2.40635E+01-3.91650E-01-2.17975E-02-1.56460E+00-2.89598E-13 3.59413E-13
 -1       364 2.34004E+01 8.19403E-01-1.40832E-02-1.35554E+00-2.46424E-13 2.35569E-13
 -1       365 2.30245E+01 1.44737E+00-6.08217E-03-1.47846E-01-2.14929E-13 5.59402E-14
 -1       366 2.31824E+01 1.13365E+00-1.17968E-02 1.20718E+00-1.15082E-13-1.40088E-13
 -1       367 2.36648E+01 2.53773E-01-5.56780E-03 1.87092E+00-1.38106E-13-1.93151E-13
 -1       368 2.40190E+01-5.07991E-01-4.31268E-03 1.64337E+00-6.12843E-14-1.58165E-13
 -1       369 2.40341E+01-8.21705E-01-5.96148E-03 9.03609E-01-1.11537E-13-9.69490E-14
 -1       370 2.37553E+01-7.53472E-01-6.78769E-03 1.00453E-01 2.29186E-13-3.68618E-15
 -1       371 2.33181E+01-5.16746E-01-5.80998E-03-5.13834E-01-3.23259E-14-8.65663E-14
 -1       372 2.28277E+01-2.70941E-01-3.89861E-03-8.79089E-01-6.93898E-14 2.08464E-13
 -1       373 2.23422E+01-8.48402E-02-1.96207E-03-1.03341E+00-2.47520E-13 3.49766E-13
 -1       374 2.18890E+01 3.15097E-02-4.57659E-04-1.04316E+00-1.75211E-13 4.13651E-13
 -1       375 2.14802E+01 9.32559E-02 5.26966E-04-9.68125E-01 1.98092E-13 7.66511E-14
 -1       376 2.11210E+01 1.20527E-01 1.09023E-03-8.50463E-01 3.28246E-13 8.04295E-14
 -1       377 2.08127E+01 1.30511E-01 1.37529E-03-7.14958E-01 4.48858E-13 1.82590E-13
 -1       378 2.05548E+01 1.35734E-01 1.50027E-03-5.72981E-01-5.35714E-14 1.35346E-13
 -1       379 2.03458E+01 1.44304E-01 1.82006E-03-4.27092E-01-5.61227E-14-6.40896E-14
 -1       380 2.01960E+01 1.45803E-01 1.45398E-03-2.87201E-01 7.03219E-14-1.22211E-13
 -1       381 1.98793E+01 2.28564E-01 1.07976E-02 4.00412E-01 2.05393E-13 5.68256E-14
 -1       382 1.95905E+01 1.15626E-01 6.18028E-03 1.21363E-01 1.47162E-13-6.38161E-16
 -1       383 1.94564E+01 5.82865E-02 2.82030E-03-2.83062E-02 4.76496E-14-3.65036E-14
 -1       384 1.94180E+01 2.69148E-02 1.20636E-03-1.06709E-01-6.79030E-15-6.94314E-14
 -1       385 1.94369E+01 9.23315E-03 4.97487E-04-1.44431E-01 4.11976E-14-1.27990E-13
 -1       386 1.94884E+01-3.92668E-04 1.73231E-04-1.58856E-01 1.06634E-13-1.45936E-13
 -1       387 1.95577E+01-4.84100E-03 2.39465E-05-1.60709E-01 8.52504E-14-8.94210E-14
 -1       388 1.96362E+01-5.74170E-03-2.94785E-05-1.57089E-01 2.06491E-14-6.77125E-14
 -1       389 1.97197E+01-4.07473E-03-1.92385E-05-1.52969E-01 1.11237E-13-1.06357E-13
 -1       390 1.98072E+01-4.49504E-04 3.76847E-05-1.52003E-01 7.06276E-14-1.05021E-13
 -1       391 1.99000E+01 4.74856E-03 1.30297E-04-1.57009E-01 8.00727E-14-1.33649E-13
 -1       392 2.00013E+01 1.12607E-02 2.50110E-04-1.70243E-01 4.24523E-15-9.82829E-14
 -1       393 2.01155E+01 1.88663E-02 3.88931E-04-1.93538E-01-2.61513E-14-2.17087E-13
 -1       394 2.02479E+01 2.72816E-02 5.36233E-04-2.28291E-01 8.95890E-15-2.70320E-13
 -1       395 2.04047E+01 3.60258E-02 6.75967E-04-2.75279E-01 9.94758E-14-2.32794E-13
 -1       396 2.05918E+01 4.42318E-02 7.82593E-04-3.34259E-01 1.63610E-13-2.27300E-13
 -1       397 2.08146E+01 5.03819E-02 8.16707E-04-4.03244E-01-6.90230E-14-1.80101E-13
 -1       398 2.10768E+01 5.19601E-02 7.21822E-04-4.77395E-01-1.22505E-13-2.79848E-13
 -1       399 2.13786E+01 4.50692E-02 4.25928E-04-5.47439E-01 3.16505E-14-2.56669E-13
 -1       400 2.17149E+01 2.41930E-02-1.45825E-04-5.97724E-01 2.55174E-13-2.44919E-13
 -1       401 2.20722E+01-1.74354E-02-1.03752E-03-6.04399E-01 1.15106E-13-1.91701E-13
 -1       402 2.24260E+01-8.59319E-02-2.20090E-03-5.35086E-01-1.85353E-13-1.79998E-13
 -1       403 2.27376E+01-1.81922E-01-3.41305E-03-3.52845E-01-6.76575E-14-1.27707E-13
 -1       404 2.29523E+01-2.91667E-01-4.23924E-03-2.88482E-02-5.85127E-14-8.22935E-14
 -1       405 2.36393E+01 5.36972E-01 4.08908E-01 1.10410E+00-6.89275E-14-1.53037E-13
 -1       406 2.44052E+01 6.78610E-01 9.57505E-02 2.28064E+00-1.55700E-13-7.42843E-14
 -1       407 2.38918E+01 2.08835E-01-2.14383E-02 2.23072E+00-3.09652E-14 3.47517E-14
 -1       408 2.30368E+01 3.12112E-01-9.45380E-03 1.97392E+00-3.30248E-15 2.79193E-13
 -1       409 2.22308E+01 5.76167E-01 2.01257E-03 1.37737E+00-2.15762E-13 9.22439E-14
 -1       410 2.17505E+01 7.22917E-01 5.22415E-03 4.68058E-01-2.86306E-13-4.69960E-14
 -1       411 2.17276E+01 6.06666E-01 5.78773E-03-4.66022E-01-3.05876E-13 2.21092E-13
 -1       412 2.20733E+01 2.76280E-01 4.31430E-03-1.07263E+00-1.35369E-14 3.20583E-13
 -1       413 2.25424E+01-7.65092E-02 2.24191E-03-1.18866E+00 2.33198E-13 3.91577E-13
 -1       414 2.29054E+01-2.99181E-01-1.18525E-03-9.07064E-01 2.18248E-13 3.99307E-13
 -1       415 2.30514E+01-3.57774E-01-3.85087E-03-4.42798E-01 4.72510E-14 4.02856E-13
 -1       416 2.29781E+01-3.02949E-01-4.71347E-03 1.27197E-02 1.57983E-13 1.76910E-13
 -1       417 2.27389E+01-2.03557E-01-4.11436E-03 3.56654E-01-2.03056E-13 2.15512E-13
 -1       418 2.23979E+01-1.06678E-01-2.81806E-03 5.64723E-01 4.94724E-14 3.05832E-13
 -1       419 2.20102E+01-3.27268E-02-1.45009E-03 6.55936E-01 1.62427E-13 3.74454E-13
 -1       420 2.16166E+01 1.55407E-02-3.30926E-04 6.63523E-01 1.33334E-13 3.30594E-13
 -1       421 2.12440E+01 4.35916E-02 4.63811E-04 6.18464E-01 6.61154E-14-1.98520E-14
 -1       422 2.09091E+01 5.90930E-02 9.72601E-04 5.43039E-01 4.24113E-13-2.27182E-14
 -1       423 2.06214E+01 6.91017E-02 1.24698E-03 4.49948E-01 2.72332E-13-1.64777E-13
 -1       424 2.03857E+01 7.86699E-02 1.26000E-03 3.44355E-01 4.25466E-13 1.81317E-14
 -1       425 2.02027E+01 8.93442E-02 1.11463E-03 2.27815E-01 2.69353E-14 7.81076E-14
 -1       426 2.01126E+01 9.95514E-02 8.71593E-04 1.57352E-01-3.08988E-13 1.47440E-13
 -1       427 2.00244E+01 5.14553E-01 3.03817E-04 4.10651E-01 2.09492E-14 2.22196E-13
 -1       428 2.00824E+01 3.37688E-01 9.67391E-04 3.59780E-01-2.08437E-13 3.08499E-13
 -1       429 2.01088E+01 2.10093E-01 1.25766E-03 2.66823E-01-1.75549E-13 4.47174E-13
 -1       430 1.99685E+01 6.88868E-01-2.73260E-04 4.03811E-01-4.00496E-14-1.77099E-13
 -1       431 1.99187E+01 8.48171E-01-7.50758E-04 3.41730E-01-1.40449E-13 5.81155E-13
 -1       432 1.98807E+01 9.70503E-01-1.12622E-03 2.32966E-01-4.51301E-14 4.13851E-13
 -1       433 1.98584E+01 1.04044E+00-1.34148E-03 9.18032E-02-2.52458E-13 4.57873E-14
 -1       434 1.98549E+01 1.04843E+00-1.36871E-03-6.33501E-02-3.42872E-14-2.57450E-13
 -1       435 1.98712E+01 9.92604E-01-1.19662E-03-2.11803E-01-4.66919E-14-7.41941E-13
 -1       436 1.99055E+01 8.81819E-01-8.41312E-04-3.31184E-01 2.19044E-13-5.76273E-13
 -1       437 1.99562E+01 7.25622E-01-3.72431E-04-4.07697E-01 2.17956E-13 2.78147E-13
 -1       438 2.00179E+01 5.44385E-01 2.07805E-04-4.25586E-01 1.43305E-13 6.51692E-14
 -1       439 2.00844E+01 3.58192E-01 9.88343E-04-3.80223E-01 1.63230E-14-1.91526E-13
 -1       440 1.06743E+01-4.86396E+00-2.32004E-02 6.87557E+00-1.74291E-13 2.39364E-13
 -1       441 1.38216E+00-3.57960E+00-5.17265E-02-1.16914E-01-1.79102E-13 3.97710E-13
 -1       442 4.48632E+00-4.15664E+00-2.92339E-02 4.78086E+00-3.46737E-13-6.74877E-14
 -1       443 1.98678E+01-4.66628E+00 5.16314E-03 6.36799E+00 1.32061E-13-4.68736E-13
 -1       444 2.64092E+01-2.30762E+00 1.29388E-02 4.36830E+00-5.04319E-14-6.23446E-13
 -1       445 1.98042E+01 3.43118E+00-1.76700E-02-1.73984E+00-2.61054E-13-2.67631E-13
 -1       446 3.37193E+01 5.36193E+00 4.39868E-02 3.77825E-01-9.93650E-15-8.74148E-13
 -1       447 3.35939E+01 7.80213E+00 5.45014E-03 2.06938E-01-3.24185E-14-6.77245E-13
 -1       448 3.39291E+01 7.00889E+00 2.96379E-02 5.06373E-01 4.03164E-13-5.68837E-13
 -1       449 3.18425E+01 3.23268E+00-7.48270E-03-5.80958E-01 4.26825E-13-2.89754E-13
 -1       450 2.76353E+01-4.67828E-01-1.33025E-02-3.05153E+00 1.79440E-13-4.14432E-13
 -1       451 2.15984E+01-2.67891E+00-1.28456E-02-5.38312E+00 4.98351E-14-5.19355E-13
 -1       452 1.14415E+01-3.39949E+00-1.38831E-02-6.74800E+00-1.75082E-13-1.00658E-12
 -1       453 4.63850E+00-3.39468E+00-5.86929E-02-5.39027E+00-8.67639E-14-7.99860E-13
 -1       454 1.24689E+00-2.55539E+00 7.02632E-03-2.64959E+00-3.16080E-13-5.68046E-13
 -1       455 1.86625E+00-3.05228E+00-8.41585E-03 1.38217E+00-4.15272E-13-3.24768E-13
 -1       456 6.59513E+00-4.64387E+00-7.46408E-02 4.18393E+00-4.39038E-13-6.58626E-13
 -1       457 1.61159E+01-5.84979E+00-2.82036E-02 5.15241E+00-4.38760E-13-1.21809E-13
 -1       458 2.38259E+01-4.99058E+00-5.77068E-02 3.94527E+00-5.39915E-13 4.24383E-14
 -1       459 3.09553E+01-1.72039E+00 1.32379E-02 1.28158E+00-3.47233E-13-3.64514E-13
 -1       460 3.48538E+01 3.47527E+00 9.20621E-02-8.68584E-01-4.72844E-13-3.15289E-13
 -1       461 3.60824E+01 6.74650E+00 1.01914E-01-1.06398E+00-4.67876E-13-1.09884E-13
 -1       462 3.51514E+01 7.48875E+00 4.92135E-02-3.07012E-01-5.12174E-13 5.32699E-14
 -1       463 3.52291E+01 5.26857E+00 8.35964E-02-4.45762E-01-3.58782E-13 9.99062E-14
 -1       464 3.20225E+01 7.06210E-01 1.97853E-02-2.13930E+00-2.15539E-13 9.43967E-14
 -1       465 2.67212E+01-2.71075E+00 3.81324E-03-4.79761E+00-1.71543E-13 2.73809E-13
 -1       466 1.86272E+01-5.14798E+00-2.48293E-02-6.87697E+00-2.00950E-13 2.45186E-13
 -1       467 1.14256E+01-4.73942E+00 1.36742E-02-7.12224E+00 4.79200E-14 3.26475E-14
 -1       468 3.62608E+00-4.25991E+00-7.65937E-02-4.29177E+00-1.43260E-13 3.50248E-13
 -1       469 3.09836E+01 1.14144E+00 1.52627E-02 1.62948E+00-1.77674E-13-1.05049E-12
 -1       470 1.83525E+01-3.69078E+00 3.98218E-02-5.85316E+00-3.75762E-13-3.24295E-13
 -1       471 2.03673E+01 8.32215E-01 4.02632E-03 9.73838E-01 2.43341E-13-7.51702E-14
 -1       472 1.97409E+01 3.10567E+00-5.34144E-03-6.34230E-01-1.16037E-13-3.49536E-13
 -1       473 1.98356E+01 2.93146E+00-5.72236E-03-9.50425E-01-1.57804E-13-3.15305E-13
 -1       474 1.96747E+01 3.22883E+00-5.02732E-03 8.84246E-03-2.03004E-14-3.62608E-13
 -1       475 1.96928E+01 3.19568E+00-5.10858E-03 3.30655E-01 2.61015E-14-3.74381E-13
 -1       476 1.97454E+01 3.09852E+00-5.42095E-03 6.46348E-01 8.14131E-14-3.68500E-13
 -1       477 1.98418E+01 2.92024E+00-5.97650E-03 9.62196E-01 1.51795E-13-3.15633E-13
 -1       478 1.99946E+01 2.63450E+00-6.53105E-03 1.25797E+00 1.98028E-13-2.70479E-13
 -1       479 2.02329E+01 2.18816E+00-5.69288E-03 1.50323E+00 2.59726E-13-2.47579E-13
 -1       480 2.01060E+01 4.54223E-01 5.06826E-03 4.65462E-01 1.95225E-13-7.19031E-14
 -1       481 2.03401E+01 9.73344E-01 2.78357E-03-9.41780E-01-2.19560E-13-8.55580E-14
 -1       482 2.99696E+01 2.47106E+00-1.05533E-01-9.22027E-01-1.30625E-13-7.12062E-13
 -1       483 2.01686E+01 5.46651E-01 2.34137E-03-4.68714E-01-1.71035E-13-8.07755E-14
 -1       484 2.00221E+01 3.06062E-01 1.12014E-03-1.65936E-01-1.13576E-13-5.91348E-14
 -1       485 1.99232E+01 1.65816E-01 4.76071E-04 1.81571E-02-9.60005E-14-6.43296E-14
 -1       486 1.98673E+01 8.21307E-02 1.75789E-04 1.24950E-01-9.13792E-14-1.28101E-13
 -1       487 1.98443E+01 3.30335E-02 4.56123E-05 1.82687E-01-1.02395E-13-1.45227E-13
 -1       488 1.98446E+01 6.45256E-03-1.16475E-05 2.10715E-01-7.31338E-14-1.45623E-13
 -1       489 1.98611E+01-4.67502E-03-3.11562E-05 2.22561E-01-1.40272E-13-9.98190E-14
 -1       490 1.98889E+01-4.67659E-03-2.58559E-05 2.27944E-01-1.29738E-13-4.71772E-14
 -1       491 1.99251E+01 3.74879E-03-1.75587E-06 2.34074E-01-4.78434E-14-5.50724E-15
 -1       492 1.99686E+01 1.89389E-02 3.76882E-05 2.46520E-01 4.86184E-14 4.73808E-14
 -1       493 2.00194E+01 3.99016E-02 9.04268E-05 2.69781E-01 4.58078E-14 2.37302E-15
 -1       494 2.00785E+01 6.60345E-02 1.55178E-04 3.07658E-01-8.50020E-14 7.24025E-14
 -1       495 2.01476E+01 9.68479E-02 2.30655E-04 3.63435E-01-1.72899E-13 8.16883E-14
 -1       496 2.02288E+01 1.31619E-01 3.14493E-04 4.39876E-01-1.81643E-13 5.20520E-14
 -1       497 2.03249E+01 1.68891E-01 4.01590E-04 5.38987E-01-2.10067E-13 6.23714E-15
 -1       498 2.04388E+01 2.05715E-01 4.81504E-04 6.61460E-01-6.86697E-14 1.78519E-14
 -1       499 1.04484E+01-2.10381E+00-3.31599E+00 1.57055E+00 1.09509E-13 5.29654E-12
 -1       500 7.25679E+00 4.92459E-01-2.81717E-01 1.21629E+00 4.12149E-13 5.68694E-12
 -1       501 6.74504E+00 1.52035E+00 7.05575E-02 1.09481E+00 4.94291E-13 5.73482E-12
 -1       502 5.45991E+00 1.40514E+00-1.20327E-01 4.08337E-01 6.14057E-13 6.41699E-12
 -1       503 4.49706E+00-1.67781E+00-9.58071E-01-4.09529E-01 9.22540E-13 7.85902E-12
 -1       504 2.06028E-01-5.26163E+00-3.30941E+00-2.21997E+00 3.26617E-12 1.21889E-11
 -1       505 2.37204E+01-1.19546E+01-2.99918E+00-1.40242E+00 7.46669E-12 2.98084E-12
 -1       506 2.81381E+01-4.75065E+00 2.42544E-01 1.43402E+00-1.24172E-13-4.91076E-13
 -1       507 2.77037E+01-4.43861E+00 4.32769E-02 1.92929E+00 1.22144E-13-9.30402E-14
 -1       508 2.68609E+01-3.64120E+00-4.31674E-02-9.72465E-02 8.72733E-14 3.20265E-14
 -1       509 2.63367E+01-1.98708E+00-3.76935E-02-1.72460E+00-5.80197E-14 1.90734E-13
 -1       510 2.55365E+01 4.02078E-01-4.61197E-02-2.32611E+00-3.01330E-13 3.53368E-13
 -1       511 2.47903E+01 2.46320E+00-5.60575E-02-1.25107E+00-3.98046E-13 1.20756E-13
 -1       512 2.45233E+01 2.78791E+00-6.16452E-02 7.57927E-01-3.30512E-13-1.38530E-13
 -1       513 2.49042E+01 1.24740E+00-3.15995E-02 2.05898E+00-1.65313E-13-1.18466E-13
 -1       514 2.51404E+01-5.60351E-01-1.31392E-02 1.97777E+00 9.42280E-15 5.96597E-14
 -1       515 2.47422E+01-1.52949E+00-7.75881E-03 1.04538E+00 9.11516E-15 2.75631E-13
 -1       516 2.39501E+01-1.59193E+00-4.81156E-03-3.35143E-03 1.57481E-13 2.40489E-13
 -1       517 2.30976E+01-1.18402E+00-3.35034E-03-7.78848E-01-7.98101E-14-1.04488E-13
 -1       518 2.23677E+01-6.84563E-01-2.27107E-03-1.22210E+00 5.75670E-14 2.57622E-14
 -1       519 2.18034E+01-2.74736E-01-1.26141E-03-1.40179E+00-1.59238E-13 1.68343E-13
 -1       520 2.13816E+01-1.13545E-03-4.45412E-04-1.40721E+00-2.16299E-13 1.31954E-13
 -1       521 2.10621E+01 1.55312E-01 1.04289E-04-1.31158E+00-2.11817E-13 2.57474E-13
 -1       522 2.08124E+01 2.31301E-01 4.21209E-04-1.16457E+00 2.10896E-13 2.44797E-13
 -1       523 2.06108E+01 2.61218E-01 5.89786E-04-9.96309E-01 3.70368E-13 2.37783E-13
 -1       524 2.04438E+01 2.71043E-01 6.49669E-04-8.22445E-01 2.03985E-13 2.91056E-14
 -1       525 2.03038E+01 2.78621E-01 7.58373E-04-6.48613E-01-1.87390E-13 2.36748E-14
 -1       526 1.07693E+01-2.48653E+00 1.44911E-01 5.92945E+00-2.14433E-13 3.16913E-13
 -1       527 1.98060E+01 1.31819E-01 1.03320E-03-2.14173E-02 8.04101E-14-1.36459E-13
 -1       528 1.97508E+01 6.40122E-02 3.89874E-04-1.23262E-01 4.90248E-14-1.93838E-13
 -1       529 1.97363E+01 2.47373E-02 1.19345E-04-1.76607E-01 4.94448E-14-1.70908E-13
 -1       530 1.97489E+01 3.39738E-03 1.05825E-07-2.00990E-01 2.81179E-14-1.15449E-13
 -1       531 1.97791E+01-5.93299E-03-4.64349E-05-2.09586E-01 3.78559E-14-1.76118E-14
 -1       532 1.98209E+01-6.78573E-03-4.90305E-05-2.11597E-01 7.92439E-14-7.11817E-14
 -1       533 1.98709E+01-1.37654E-03-2.05093E-05-2.13701E-01 1.18291E-13-9.01740E-14
 -1       534 1.99279E+01 8.86665E-03 3.16435E-05-2.20905E-01 3.13299E-14-6.22247E-14
 -1       535 1.99924E+01 2.29911E-02 1.01979E-04-2.37095E-01-6.55796E-15-4.56147E-14
 -1       536 2.00659E+01 4.02750E-02 1.86135E-04-2.65345E-01 1.69645E-14-4.34220E-14
 -1       537 2.01509E+01 5.99851E-02 2.79137E-04-3.08034E-01 6.34968E-14-5.52345E-14
 -1       538 2.02507E+01 8.10912E-02 3.73830E-04-3.66757E-01 6.24715E-14-1.57843E-13
 -1       539 2.03688E+01 1.01889E-01 4.58664E-04-4.41991E-01 1.32045E-13-4.33784E-14
 -1       540 2.05091E+01 1.19487E-01 5.14923E-04-5.32458E-01 5.38260E-14-8.13785E-15
 -1       541 2.06755E+01 1.29129E-01 5.13658E-04-6.34086E-01-5.69917E-14-1.40792E-13
 -1       542 2.08719E+01 1.23392E-01 4.13324E-04-7.38497E-01-2.53984E-14-2.56857E-13
 -1       543 2.11023E+01 9.14928E-02 1.60418E-04-8.30996E-01 7.37192E-14-2.94571E-13
 -1       544 2.13706E+01 1.93238E-02-3.03557E-04-8.88257E-01 1.33394E-13-7.78599E-14
 -1       545 2.16800E+01-1.08384E-01-1.01597E-03-8.76409E-01-7.20088E-14-1.69614E-14
 -1       546 2.20308E+01-3.01287E-01-1.93286E-03-7.51260E-01-4.88840E-14-6.85348E-14
 -1       547 2.24140E+01-5.48864E-01-2.82300E-03-4.64427E-01-7.38524E-14-1.05842E-13
 -1       548 2.28447E+01-9.90434E-02 1.99772E-01 3.76145E-01-1.42247E-13-2.70242E-13
 -1       549 2.34201E+01 4.70895E-01 8.92834E-02 1.80155E+00-2.74902E-13-4.31251E-13
 -1       550 2.38057E+01 1.75136E-01-8.75931E-03 2.45102E+00-2.49317E-13-2.19764E-13
 -1       551 2.37305E+01 3.77172E-01-1.27207E-02 2.64754E+00-1.46928E-13-7.17083E-14
 -1       552 2.32941E+01 1.01500E+00-7.00091E-03 2.28935E+00-4.03455E-14 9.47434E-14
 -1       553 2.28338E+01 1.61410E+00-1.44482E-03 1.29717E+00-2.04123E-13 1.06105E-13
 -1       554 2.26631E+01 1.66481E+00-2.35108E-03-2.51374E-02-3.92159E-13 1.73814E-13
 -1       555 2.28555E+01 1.04719E+00-4.28501E-03-1.10796E+00-3.08101E-13 1.57296E-13
 -1       556 2.31763E+01 1.49460E-01-9.32209E-04-1.50569E+00 1.48500E-13 3.41862E-13
 -1       557 2.33272E+01-5.42577E-01-9.29841E-04-1.24859E+00 1.62012E-13 4.80832E-13
 -1       558 2.32117E+01-8.33660E-01-2.66541E-03-6.48425E-01 2.11748E-13 3.46222E-13
 -1       559 2.28955E+01-7.90576E-01-3.46165E-03-1.31764E-02 2.02774E-13 1.27400E-13
 -1       560 2.24889E+01-5.81372E-01-3.14468E-03 4.84397E-01 5.10816E-14 2.65897E-13
 -1       561 2.20730E+01-3.42022E-01-2.21645E-03 7.97910E-01-1.77586E-13-6.27613E-14
 -1       562 2.16874E+01-1.42181E-01-1.21118E-03 9.47489E-01 6.68501E-14 1.69152E-15
 -1       563 2.13456E+01-2.20122E-03-3.97392E-04 9.76258E-01 4.17770E-14-2.89094E-14
 -1       564 2.10486E+01 8.43171E-02 1.77359E-04 9.26593E-01 1.21370E-13 7.64821E-14
 -1       565 2.07934E+01 1.33230E-01 5.44011E-04 8.30780E-01 2.94212E-13 1.66337E-13
 -1       566 2.05762E+01 1.61029E-01 8.17519E-04 7.09668E-01 3.95755E-13 7.91658E-14
 -1       567 2.03939E+01 1.81407E-01 1.21832E-03 5.74905E-01 2.58436E-13 1.56078E-13
 -1       568 2.02398E+01 2.00420E-01 1.25169E-03 4.30031E-01 1.21648E-13 5.43949E-13
 -1       569 1.98770E+01 7.19561E-01-2.51016E-04 5.12482E-01 1.35929E-13 1.08479E-13
 -1       570 1.97850E+01 8.49836E-01-4.26087E-04 3.94997E-01-9.72500E-14 6.03990E-13
 -1       571 2.01020E+01 4.01275E-01 1.67790E-04 5.43637E-01 1.18018E-13 3.63105E-13
 -1       572 1.99865E+01 5.65350E-01-6.50006E-05 5.63383E-01 1.86003E-14 3.26093E-13
 -1       573 1.97210E+01 9.40157E-01-5.62833E-04 2.24756E-01-2.33541E-13-2.90291E-14
 -1       574 1.96931E+01 9.79048E-01-6.20013E-04 2.28301E-02-7.95015E-14 1.40483E-13
 -1       575 1.97062E+01 9.60619E-01-5.79799E-04-1.84739E-01-1.04038E-14-3.30127E-13
 -1       576 1.97587E+01 8.87941E-01-4.54410E-04-3.67409E-01 1.30187E-13-6.53498E-13
 -1       577 1.98479E+01 7.66260E-01-3.20890E-04-5.06121E-01 1.72033E-13-2.50361E-13
 -1       578 1.99624E+01 6.09790E-01-1.87492E-04-5.77812E-01 1.97296E-13 1.01946E-13
 -1       579 2.00926E+01 4.36239E-01 3.76063E-04-5.69101E-01-1.00554E-13-2.23784E-13
 -1       580 5.56680E+00-1.07015E+00 1.69319E-01-2.66243E+00-5.34642E-15 1.56292E-13
 -1       581 1.99194E+01 2.47918E-01 2.47281E-03 1.59018E-01 1.08674E-13-9.84212E-14
 -1       582 1.83322E+01-4.70880E+00 8.95501E-02 6.30671E+00-1.38521E-13-5.62128E-13
 -1       583 9.98008E+00-2.72321E+00 1.35091E-01-6.04008E+00 7.73132E-14 1.37182E-14
 -1       584 2.03939E+01 1.75580E+00-5.96355E-03-1.53896E+00-2.64292E-13-1.03504E-13
 -1       585 2.48828E+01-4.86357E+00 2.70774E-02-4.25538E+00 1.21965E-13 8.09908E-14
 -1       586 3.11667E+01-4.90851E-01-9.49331E-02-2.07501E+00-3.87104E-13-2.58946E-13
 -1       587 2.91406E+01 4.57202E+00-1.38776E-01 1.94209E+00 2.36547E-13-4.98421E-14
 -1       588 1.96900E+01 3.20009E+00-5.10381E-03-3.13033E-01-6.41116E-14-3.51455E-13
 -1       589 2.91371E+01 6.05539E+00-1.51464E-01-9.20839E-01-1.19585E-13-5.60926E-13
 -1       590 2.82206E+01 1.40213E-01-9.13690E-02 6.05000E-01-5.06852E-14 1.27814E-14
 -1       591 2.89554E+01 6.89213E+00-1.68727E-01 9.17854E-01 2.97817E-14-4.45042E-13
 -1       592 1.01588E+01-2.12327E+00 1.30788E-01-6.24862E+00-2.16493E-13-6.67140E-13
 -1       593 2.50510E+01-2.80885E+00-4.63298E-02-2.25665E+00-2.68469E-13-1.74895E-13
 -1       594 2.85692E+01-3.05312E+00-7.10238E-02-1.48908E+00-2.91052E-14-2.67661E-13
 -1       595 5.47070E+00-6.83205E-01 1.62388E-01-4.57850E+00-1.25296E-13-8.36983E-13
 -1       596 3.28486E+00-1.95359E-01 1.62743E-01-6.99068E-01-9.14227E-14-4.46546E-13
 -1       597 7.19221E+00-1.74725E+00 1.60534E-01 2.95877E+00-4.41314E-14-3.21493E-13
 -1       598 1.39060E+01-4.25662E+00 1.29367E-01 4.30687E+00 1.04750E-13 2.16147E-14
 -1       599 2.28302E+01-6.20253E+00 1.59718E-02 3.26217E+00-1.58484E-13 7.88779E-14
 -1       600 2.82873E+01-4.94820E+00-4.39000E-02 8.38523E-01-2.81990E-13-2.33903E-13
 -1       601 3.15274E+01 4.42352E+00-1.25215E-01-2.38359E+00-5.93345E-13-3.51316E-14
 -1       602 3.02589E+01 6.59874E+00-1.70510E-01-8.85793E-01-5.74069E-13 1.18199E-13
 -1       603 2.97355E+01 5.05598E+00-1.57048E-01 1.42371E+00-3.21312E-13 1.12951E-13
 -1       604 3.04377E+01 1.39564E+00-1.46042E-01 1.21399E+00 6.79318E-15-1.59567E-13
 -1       605 1.71329E+01-4.50310E+00 9.05402E-02-6.68088E+00 2.57808E-13-2.26867E-14
 -1       606 2.47545E+01-4.58300E+00 5.29914E-03 3.81792E+00 5.39360E-14-7.50365E-13
 -1       607 5.93497E+00-8.63459E-01 1.84892E-01 2.66399E+00-3.96731E-13 4.17721E-15
 -1       608 2.05784E+01 1.30528E+00-9.95542E-04 1.54992E+00 2.88000E-13-5.22219E-14
 -1       609 2.79491E+01-2.31998E+00-7.43052E-02 1.09411E+00 6.09478E-14-8.11275E-13
 -1       610 1.99760E+01 2.64990E+00-9.82751E-03-1.24031E+00-2.06131E-13-2.65777E-13
 -1       611 2.02217E+01 2.83983E-01 9.00396E-04-5.28355E-01-1.50917E-13 2.37822E-13
 -1       612 1.97745E+01-5.27467E+00 8.43557E-02 3.10279E+00 1.92381E-13 3.04999E-13
 -1       613 2.22732E+01-3.54893E+00 2.06502E-02-3.43604E+00-6.54348E-13-2.92053E-13
 -1       614 1.54195E+01-2.89293E+00 8.46374E-02-5.82527E+00-5.44113E-13-1.55452E-13
 -1       615 1.99691E+01 2.45285E+00-1.58536E-03 3.94133E-01 6.51102E-14-3.21283E-13
 -1       616 1.99380E+01 2.52815E+00-1.51571E-03 1.35731E-01 4.84678E-15-3.14558E-13
 -1       617 2.01258E+01 2.04786E+00-1.56951E-03 8.50262E-01 1.63644E-13-2.57267E-13
 -1       618 2.02405E+01 1.67715E+00-2.25432E-03 9.93424E-01 1.99028E-13-2.18808E-13
 -1       619 2.03176E+01 1.03776E+00 2.93315E-03 8.32663E-01 1.90691E-13-1.80303E-13
 -1       620 2.26046E+01-4.43748E+00 1.94904E-02 3.96326E+00 6.73715E-14-5.18481E-13
 -1       621 2.02046E+01 6.16059E-01 1.07316E-03 4.20051E-01 1.55219E-13-1.70519E-13
 -1       622 2.20826E+01-4.57509E+00 1.42691E-02-4.56068E+00 1.62918E-13 4.44670E-14
 -1       623 1.04122E+01-4.73987E-01 1.14838E-01 3.84662E+00-3.50428E-13 1.93463E-13
 -1       624 2.71470E+01 2.98200E+00-1.40141E-01-1.80978E+00-5.98688E-14-2.44860E-13
 -1       625 2.02809E+01 1.67972E+00 7.53245E-05-1.14201E+00-2.28516E-13-1.72603E-13
 -1       626 2.02407E+01 6.78139E-01 5.84157E-04-3.93955E-01-1.32291E-13-1.19680E-13
 -1       627 2.01699E+01 3.97457E-01 2.04986E-04-1.36825E-01-1.25765E-13-1.30552E-13
 -1       628 2.01063E+01 2.21685E-01 6.69255E-05 2.91222E-02-1.01072E-13-1.51621E-13
 -1       629 2.00585E+01 1.12572E-01 1.15496E-05 1.30298E-01-1.06735E-13-1.74072E-13
 -1       630 2.00268E+01 4.79038E-02-7.05126E-06 1.88153E-01-7.90441E-14-1.37518E-13
 -1       631 2.00088E+01 1.39727E-02-1.36132E-05 2.19225E-01-8.35033E-14-1.68856E-13
 -1       632 2.00017E+01 2.05085E-03-1.35192E-05 2.36020E-01-7.59824E-14-9.06778E-14
 -1       633 2.00029E+01 6.48823E-03-7.88592E-06 2.47995E-01-3.49379E-14 3.42782E-14
 -1       634 2.00106E+01 2.36419E-02 2.59881E-06 2.62416E-01-2.72876E-14 5.13981E-14
 -1       635 2.00234E+01 5.12068E-02 1.73595E-05 2.85019E-01 1.80978E-14-1.29732E-14
 -1       636 2.00406E+01 8.77321E-02 3.60852E-05 3.20487E-01 8.71771E-15-4.31501E-14
 -1       637 2.00614E+01 1.32201E-01 5.85897E-05 3.72754E-01-1.15267E-13-2.79513E-14
 -1       638 2.00854E+01 1.83573E-01 8.46690E-05 4.45146E-01-1.97992E-13 2.43097E-16
 -1       639 2.01124E+01 2.40191E-01 1.13812E-04 5.40354E-01-2.01880E-13 7.58189E-14
 -1       640 2.01425E+01 2.98943E-01 1.44688E-04 6.60219E-01-1.60596E-13 8.55510E-14
 -1       641 1.79452E+01-6.00890E-01-9.51617E-01 7.64426E-01-4.72120E-14 4.59383E-13
 -1       642 9.07202E+00-2.19009E+00-1.00252E+00 6.79261E-01 6.10779E-14 5.04385E-12
 -1       643 6.93844E+00 6.87188E-01-1.02824E-02 4.94439E-01 4.89310E-13 5.35305E-12
 -1       644 5.94587E+00 1.12712E+00 9.69305E-02-1.16418E-01 1.14044E-12 5.62464E-12
 -1       645 4.97094E+00-2.79915E-01-1.23613E-01-7.51466E-01 1.79296E-12 6.59631E-12
 -1       646 4.58028E+00-4.42614E+00-9.14342E-01-9.06350E-01 2.50351E-12 7.53157E-12
 -1       647 1.17336E+01-1.23255E+01-1.50396E+00 7.80870E-01 3.04103E-12 4.77532E-12
 -1       648 1.68508E+01-1.19806E+00-1.61546E+00 6.91669E-01 1.29577E-12 1.25133E-12
 -1       649 3.03489E+01-6.41785E+00 1.16738E-01 8.47039E-01 4.98870E-13-1.31825E-13
 -1       650 2.81215E+01-5.53482E+00-3.74847E-02 1.50001E-01 3.60259E-13 6.25125E-14
 -1       651 2.80029E+01-4.27637E+00-2.19527E-02-1.22622E+00 6.50513E-14 2.83378E-13
 -1       652 2.80287E+01-1.50577E+00-6.64038E-02-2.64581E+00-1.34660E-13 3.76590E-13
 -1       653 2.68189E+01 4.83443E+00-1.87810E-01-5.42260E-01-5.65561E-13 2.04625E-13
 -1       654 2.59542E+01-2.26662E+00-2.98862E-02 8.70228E-01 3.88838E-15 3.87451E-13
 -1       655 2.44771E+01-2.61701E+00-1.11096E-03-5.10406E-01-1.97332E-13 8.32262E-14
 -1       656 2.29910E+01-2.02443E+00 5.13054E-04-1.37979E+00-1.34020E-13-3.02201E-13
 -1       657 2.18902E+01-1.22187E+00 4.69004E-04-1.75791E+00 5.17111E-14-3.41607E-13
 -1       658 2.11645E+01-5.36014E-01-1.83197E-04-1.83452E+00 2.89119E-14-2.38433E-13
 -1       659 2.07328E+01-6.83478E-02-1.03562E-04-1.74958E+00-3.12930E-13-2.56833E-13
 -1       660 2.04844E+01 2.09108E-01 5.32207E-05-1.58933E+00-1.52858E-13-1.65010E-13
 -1       661 2.03418E+01 3.51025E-01 1.58127E-04-1.39798E+00-3.61434E-15-5.24170E-14
 -1       662 2.02556E+01 4.09857E-01 2.03451E-04-1.19907E+00 2.39508E-13-3.02781E-13
 -1       663 2.01975E+01 4.26662E-01 2.46628E-04-1.00379E+00 1.53046E-13-4.06996E-13
 -1       664 2.01512E+01 4.30046E-01 2.83071E-04-8.15880E-01 1.35417E-13-4.27552E-13
 -1       665 2.81131E+01-1.46215E+00-6.66078E-02 9.63293E-01 1.77497E-13-3.81847E-14
 -1       666 2.00285E+01 1.97163E-01 2.52042E-04-2.61476E-02 7.89552E-14-1.62614E-13
 -1       667 1.99403E+01 9.98426E-03-8.65980E-06-2.17780E-01 9.49731E-15-1.02442E-13
 -1       668 1.99434E+01-1.97472E-03-1.50378E-05-2.32270E-01 8.85047E-14-1.01719E-13
 -1       669 1.99564E+01-1.87139E-04-1.01718E-05-2.41063E-01 7.57627E-14-9.77563E-14
 -1       670 1.99770E+01 1.19727E-02 3.79578E-06-2.51343E-01 1.63436E-14-3.19338E-14
 -1       671 2.00040E+01 3.22459E-02 2.46642E-05-2.68605E-01 2.18333E-15 1.99029E-14
 -1       672 2.00372E+01 5.90282E-02 5.15494E-05-2.97155E-01 1.42370E-14 1.88032E-14
 -1       673 2.00769E+01 9.09495E-02 8.30290E-05-3.40380E-01 3.29189E-14-3.16305E-14
 -1       674 2.01240E+01 1.26439E-01 1.17375E-04-4.00814E-01 9.33675E-14 1.73218E-14
 -1       675 2.01800E+01 1.63198E-01 1.51851E-04-4.80002E-01 1.25672E-14-7.52885E-15
 -1       676 2.02471E+01 1.97503E-01 1.81921E-04-5.78118E-01 5.64371E-14 5.13300E-14
 -1       677 2.03285E+01 2.23299E-01 2.00161E-04-6.93290E-01 1.10804E-13 4.92201E-14
 -1       678 2.04293E+01 2.31052E-01 1.94937E-04-8.20565E-01 4.47515E-14-4.43456E-14
 -1       679 2.05575E+01 2.06521E-01 1.48776E-04-9.50420E-01 1.98798E-14-5.77635E-14
 -1       680 2.07259E+01 1.29922E-01 3.57132E-05-1.06674E+00 7.04601E-14-1.17638E-13
 -1       681 2.09543E+01-2.32935E-02-1.85979E-04-1.14421E+00-1.79029E-14-6.33943E-14
 -1       682 2.12700E+01-2.77479E-01-5.54048E-04-1.14519E+00-8.86778E-14 5.08639E-14
 -1       683 2.17041E+01-6.43015E-01-1.02603E-03-1.01708E+00-1.42786E-14 2.54403E-14
 -1       684 2.20202E+01-6.05482E-01 5.98391E-02-4.30264E-01-1.83451E-13-1.40835E-13
 -1       685 2.25099E+01-2.51695E-01 4.31123E-02 6.80074E-01-2.61044E-13-3.73184E-13
 -1       686 2.33623E+01-4.18831E-01-5.95835E-03 1.65977E+00-3.53315E-13-1.08742E-13
 -1       687 2.40046E+01-1.68912E-01-9.58958E-03 2.47759E+00-2.67168E-13 8.80741E-15
 -1       688 2.41012E+01 8.64791E-01-2.50972E-02 2.81080E+00-1.74243E-13 2.19794E-14
 -1       689 2.38259E+01 2.27134E+00-2.30831E-02 2.23466E+00-2.93103E-13 2.17832E-13
 -1       690 2.36044E+01 2.98069E+00-2.78001E-02 7.55038E-01-2.42179E-13 3.34100E-13
 -1       691 2.36842E+01 2.52667E+00-2.60883E-02-8.69033E-01-3.12417E-13 7.55090E-14
 -1       692 2.40151E+01 8.93084E-01-1.89256E-02-1.67236E+00-1.59593E-13-6.13800E-14
 -1       693 2.41383E+01-6.30735E-01-4.72791E-03-1.45144E+00 6.94321E-14 5.51852E-14
 -1       694 2.37933E+01-1.37633E+00-1.92995E-03-6.93644E-01 2.42254E-13 1.31006E-13
 -1       695 2.31359E+01-1.44237E+00-1.66373E-03 1.22604E-01 3.12922E-13 1.85625E-13
 -1       696 2.24277E+01-1.12479E+00-1.37649E-03 7.27409E-01 1.60367E-16 2.20018E-13
 -1       697 2.18142E+01-7.06949E-01-9.56717E-04 1.08302E+00 8.21396E-14 2.72013E-13
 -1       698 2.13372E+01-3.35448E-01-5.15329E-04 1.23686E+00 2.77228E-14 1.61792E-13
 -1       699 2.09869E+01-6.40560E-02-2.22050E-04 1.25189E+00 2.00828E-13 2.61349E-14
 -1       700 2.07327E+01 1.10283E-01-1.33128E-06 1.18177E+00 1.72521E-13-1.32577E-13
 -1       701 2.05453E+01 2.11293E-01 1.32164E-04 1.06368E+00 1.94092E-13-4.24195E-13
 -1       702 2.04025E+01 2.66296E-01 2.40188E-04 9.21361E-01 3.34692E-13-2.08840E-13
 -1       703 2.02888E+01 2.99170E-01 4.27904E-04 7.67602E-01 9.46379E-14 2.67839E-13
 -1       704 2.01827E+01 3.49324E-01 4.02886E-04 6.59891E-01 1.05207E-13 3.96186E-13
 -1       705 1.95019E+01 9.49098E-01-2.10047E-04 1.62517E-01 3.35996E-14 3.05871E-13
 -1       706 2.01231E+01 4.31079E-01 3.39148E-04-6.92163E-01 6.44311E-14-4.65507E-13
 -1       707 1.97116E+01 7.62557E-01-1.33973E-04 5.76920E-01 1.26938E-13 3.49232E-14
 -1       708 1.94882E+01 9.64101E-01-1.98928E-04-9.64871E-02 4.42348E-15-8.66937E-14
 -1       709 1.95804E+01 8.78401E-01-1.70782E-04 3.96652E-01-3.25063E-13 1.79624E-13
 -1       710 9.85445E+00-8.16801E-01 1.34710E-01-4.19257E+00 7.19477E-14 1.45460E-13
 -1       711 1.95418E+01 9.21273E-01-1.34938E-04-3.42394E-01 4.13421E-14-7.09316E-13
 -1       712 1.96598E+01 8.23446E-01-1.55034E-04-5.50534E-01-5.81085E-15-3.27227E-13
 -1       713 1.98309E+01 6.81937E-01-1.97216E-04-6.87110E-01 2.69506E-13-6.15562E-14
 -1       714 2.01047E+01 3.57709E-01 6.56918E-04 1.47113E-01 1.25177E-13-1.83264E-13
 -1       715 1.62017E+01-2.74400E+00 8.73711E-02 5.56102E+00-3.11839E-13-3.27075E-13
 -1       716 1.48377E+01-2.64328E+00 1.05803E-01-5.84279E+00-3.02883E-14-1.35416E-13
 -1       717 2.71742E+01-3.66146E+00-3.04231E-02-1.03150E+00 7.68699E-16-4.00475E-13
 -1       718 2.68781E+01 1.68142E+00-9.88851E-02 2.47373E+00-1.38615E-13 7.99187E-14
 -1       719 1.99503E+01 4.08153E-02 1.36178E-05-1.88026E-01 2.15767E-14-1.25640E-13
 -1       720 1.99782E+01 9.84912E-02 5.67752E-05-1.30059E-01 4.72396E-14-1.42943E-13
 -1       721 2.02915E+01 1.07811E+00-1.41431E-04-7.23921E-01-1.75762E-13-1.41851E-13
 -1       722 9.45512E+00-6.28227E-01 1.30699E-01-5.09171E+00-2.08163E-13-7.00860E-13
 -1       723 2.92342E+01 1.19051E+00-1.26726E-01-3.04635E+00-4.96537E-13 2.02866E-13
 -1       724 2.00315E+01 2.29750E+00-1.66241E-03 6.38305E-01 1.01817E-13-2.72846E-13
 -1       725 2.56931E+01-1.77126E+00-5.03696E-02 5.91500E-01-4.15380E-13 2.92535E-13
 -1       726 2.00260E+01 2.30821E+00-1.56675E-03-6.29618E-01-1.26611E-13-2.88838E-13
 -1       727 2.63730E+01 5.86284E+00-1.21771E-01-1.36054E-01-1.43115E-13-2.13119E-13
 -1       728 7.05500E+00 6.94399E-01 1.45829E-01 6.58745E-01 1.87838E-13-1.81050E-13
 -1       729 2.63584E+01 4.87888E+00-1.30194E-01 2.03995E+00-1.19772E-13-1.05756E-13
 -1       730 5.81642E+00 9.08535E-01 1.39645E-01-2.51211E+00-3.73807E-14-5.57422E-13
 -1       731 2.79580E+01 4.22546E+00-1.46822E-01-2.14888E+00-6.02268E-13 1.40752E-13
 -1       732 1.26023E+01-2.09900E+00 1.55241E-01 2.66406E+00 4.33986E-13 1.61475E-13
 -1       733 2.65655E+01-5.91772E+00-1.67728E-02 7.80598E-01 7.34725E-14-9.71966E-15
 -1       734 8.44975E+00 5.23604E-01 1.46451E-01-2.33771E-01-2.73085E-13-3.56243E-14
 -1       735 2.75177E+01-6.08844E-01-6.93373E-02-1.08798E+00 1.24161E-13-3.38302E-13
 -1       736 2.55616E+01-3.99487E+00-2.73886E-02 1.91328E+00 3.81082E-13-5.05809E-13
 -1       737 2.93825E+01-3.68743E+00-8.31601E-02-1.58773E+00-6.93213E-14-9.90666E-14
 -1       738 2.01242E+01 2.06530E+00-1.18333E-03-8.54727E-01-1.65195E-13-2.49854E-13
 -1       739 1.99371E+01 2.52983E+00-1.50575E-03-1.26505E-01-4.67632E-14-3.34287E-13
 -1       740 2.01924E+01-3.43866E+00 1.76610E-02 4.31375E+00-1.73965E-13-3.84257E-13
 -1       741 1.74830E+01-3.41605E+00 1.07149E-01 1.96501E+00 5.27613E-13 3.14802E-13
 -1       742 1.94483E+01-3.27808E+00 4.00182E-02-4.84641E+00 4.85983E-14 9.99444E-14
 -1       743 1.34913E+01-1.61651E+00 8.12246E-02-5.19852E+00-4.27028E-13-1.33175E-14
 -1       744 2.73752E+01 1.55239E-01-9.33521E-02 2.05454E+00 2.01193E-13 3.40384E-13
 -1       745 1.98787E+01 6.17134E-01-2.24847E-04 6.82214E-01-6.27280E-14 1.41274E-13
 -1       746 2.00340E+01 4.84660E-01 3.54392E-05 7.00264E-01-9.21747E-14 4.92850E-14
 -1       747 2.41384E+01-2.61374E+00-3.77018E-03-6.13625E-01-5.71047E-13 2.21212E-13
 -1       748 2.42871E+01-5.87542E+00 3.07935E-02 1.34211E+00 3.17763E-13 1.69934E-13
 -1       749 1.92911E+01-3.16257E+00 3.16526E-02-4.16556E+00-6.18262E-13-1.44825E-13
 -1       750 1.99661E+01 2.45856E+00-1.54166E-03-3.84263E-01-7.59237E-14-3.03913E-13
 -1       751 1.99690E+01 5.60977E-01-1.09637E-05-7.75528E-01 1.49267E-13-2.43815E-13
 -1       752 2.58812E+01 5.79967E-01-4.68380E-02-1.80980E+00-2.41161E-14-2.74672E-13
 -1       753 2.02698E+01 1.31217E+00 8.10957E-04 6.32875E-01 1.54647E-13-2.11252E-13
 -1       754 1.46665E+01-7.90489E-01 5.92405E-02 4.10688E+00-3.24614E-13 1.16157E-13
 -1       755 2.52956E+01-1.31738E-01-5.36215E-02 2.28030E+00-3.01679E-13 7.05311E-14
 -1       756 2.82735E+01-5.19993E+00-4.20519E-02-8.71896E-01 7.75760E-14 8.62895E-14
 -1       757 2.41499E+01-3.72511E+00 1.07978E-02 2.04742E+00 4.79599E-14-8.26252E-13
 -1       758 2.02676E+01 4.43756E-01-4.22304E-05-8.78316E-02-1.22905E-13-1.99940E-13
 -1       759 2.02285E+01 2.51337E-01-1.71171E-05 4.69908E-02-1.25057E-13-1.78551E-13
 -1       760 2.01878E+01 1.29492E-01-1.26354E-05 1.32031E-01-8.83207E-14-1.83779E-13
 -1       761 2.01509E+01 5.79693E-02-8.15195E-06 1.82852E-01-5.11568E-14-1.41004E-13
 -1       762 2.01192E+01 2.29475E-02-6.21584E-06 2.12573E-01 1.18663E-14-1.02761E-13
 -1       763 2.00925E+01 1.49949E-02-4.76427E-06 2.31706E-01 2.26454E-14 1.52515E-14
 -1       764 2.00700E+01 2.77350E-02-2.64741E-06 2.48510E-01-2.77483E-14 3.14820E-14
 -1       765 2.00503E+01 5.69430E-02 3.73254E-07 2.69503E-01-2.58359E-14 1.64641E-14
 -1       766 2.00315E+01 9.98576E-02 4.39771E-06 2.99920E-01 4.58919E-15-8.10397E-14
 -1       767 2.00119E+01 1.54621E-01 9.40905E-06 3.44056E-01-1.00260E-13-1.00033E-13
 -1       768 1.99891E+01 2.19733E-01 1.55106E-05 4.05503E-01-1.61469E-13-7.10889E-14
 -1       769 1.99607E+01 2.93418E-01 2.30151E-05 4.87278E-01-1.48124E-13-1.07772E-14
 -1       770 1.99243E+01 3.72814E-01 3.24126E-05 5.91859E-01-1.67294E-13 6.49949E-14
 -1       771 1.98775E+01 4.52843E-01 4.44453E-05 7.21174E-01-1.31003E-13 6.95160E-14
 -1       772 1.10003E+01-1.61098E+00-2.91418E+00-7.54657E-02-2.95319E-14 4.18610E-12
 -1       773 8.14614E+00-3.01909E-03-2.54135E-01 1.07359E-01 1.13839E-13 4.61063E-12
 -1       774 7.57100E+00 4.67038E-01 9.98030E-02-6.20660E-01 1.03638E-12 4.68000E-12
 -1       775 6.42514E+00 2.34472E-01 6.64699E-02-1.35196E+00 2.31984E-12 5.40545E-12
 -1       776 5.44920E+00-1.73829E+00-4.00908E-01-1.20651E+00 2.98674E-12 6.60255E-12
 -1       777 3.95127E+00-4.65584E+00-1.87137E+00-1.84678E+00 2.75979E-12 6.82752E-12
 -1       778 1.60047E+01-7.47256E+00-3.25211E+00-7.19638E-01 3.06427E-12 5.24480E-12
 -1       779 2.56760E+01-4.36268E+00 1.82977E-01-5.17410E-01 1.61604E-12-5.67220E-13
 -1       780 2.61741E+01-5.36726E+00 6.52452E-02-4.10430E-01 7.17176E-13-1.13149E-13
 -1       781 2.46839E+01 4.52553E+00-7.26330E-02 1.00729E+00-1.82455E-13-3.77519E-14
 -1       782 2.49829E+01 2.39973E+00-6.23382E-02 2.73057E+00-2.21188E-13 1.19319E-13
 -1       783 2.26210E+01-2.95033E+00 1.91422E-02-2.57881E+00-2.31352E-13 1.85481E-14
 -1       784 2.10930E+01-1.75773E+00-2.47832E-03-2.62444E+00 5.22056E-14 1.79029E-13
 -1       785 2.02405E+01-7.60520E-01 1.80408E-03-2.40216E+00-2.47343E-14 6.24327E-15
 -1       786 1.98582E+01-1.07811E-01 3.80980E-04-2.10451E+00-1.44062E-14 5.66911E-14
 -1       787 1.97215E+01 2.83264E-01 1.04415E-04-1.81245E+00-1.91731E-13 1.81753E-13
 -1       788 1.97139E+01 4.86949E-01 1.02228E-04-1.54644E+00-4.52447E-14-2.76391E-14
 -1       789 1.97635E+01 5.72674E-01 9.00002E-05-1.30886E+00 4.50003E-14-8.12454E-14
 -1       790 1.98322E+01 5.94031E-01 4.79395E-05-1.09655E+00 1.26816E-13-3.02217E-13
 -1       791 1.99150E+01 5.77655E-01 1.86942E-04-9.30633E-01 1.85796E-13-2.28064E-13
 -1       792 2.00734E+01 1.80665E-02-7.76622E-06-2.17819E-01 3.91045E-14-1.42232E-13
 -1       793 2.00371E+01 3.80062E-02 3.16604E-06-2.68196E-01-5.51163E-14-1.50287E-13
 -1       794 2.00338E+01 7.13830E-02 9.51440E-06-2.94634E-01-2.87952E-14-9.16523E-14
 -1       795 2.00330E+01 1.13695E-01 1.76093E-05-3.33892E-01 4.86838E-14 7.75303E-15
 -1       796 2.00339E+01 1.62800E-01 2.72571E-05-3.89318E-01 8.42470E-14-6.89209E-14
 -1       797 2.00362E+01 2.16036E-01 3.80942E-05-4.63440E-01 8.00717E-14-2.17116E-14
 -1       798 2.00401E+01 2.69445E-01 4.96955E-05-5.57873E-01 4.31543E-14-9.54889E-14
 -1       799 2.00472E+01 3.16770E-01 6.13978E-05-6.73051E-01-3.60034E-14-2.04166E-14
 -1       800 2.00609E+01 3.48179E-01 7.21458E-05-8.07792E-01 5.20388E-14 1.67280E-13
 -1       801 2.00888E+01 3.48715E-01 7.99668E-05-9.58614E-01 6.82848E-14 1.75052E-13
 -1       802 2.01446E+01 2.96704E-01 7.93176E-05-1.11869E+00 2.87981E-14 9.64781E-14
 -1       803 2.02522E+01 1.62772E-01 5.05203E-05-1.27602E+00 1.49623E-14 1.20669E-13
 -1       804 2.04498E+01-8.89104E-02-7.64408E-05-1.41016E+00-1.38888E-13 7.49897E-14
 -1       805 2.07932E+01-4.93656E-01-3.55041E-04-1.48577E+00-9.26858E-14-3.08354E-14
 -1       806 2.08607E+01-7.80751E-01-5.86099E-02-1.26230E+00-1.10256E-13-6.69100E-14
 -1       807 2.12335E+01-8.31142E-01-3.54791E-03-5.48894E-01-2.75820E-13-1.49265E-13
 -1       808 2.24187E+01-1.19883E+00-6.76358E-03 2.79479E-01-4.99759E-13-1.04825E-13
 -1       809 2.37226E+01-1.24016E+00-1.12208E-02 1.33116E+00-4.07613E-13-9.02655E-14
 -1       810 2.51237E+01 2.40362E+00-7.21310E-02-1.72728E+00-9.90128E-14-1.62165E-13
 -1       811 2.46868E+01-1.95810E+00-1.71612E-02-5.75870E-01 3.05138E-14-2.01184E-13
 -1       812 2.35847E+01-2.24402E+00-2.42100E-03 5.05210E-01 1.54854E-13-6.52798E-14
 -1       813 2.24241E+01-1.79152E+00 8.02099E-04 1.21791E+00 1.34063E-13 2.21106E-13
 -1       814 2.15257E+01-1.15675E+00 3.82853E-04 1.53420E+00-8.54630E-15 2.08643E-14
 -1       815 2.09043E+01-5.75194E-01 1.91592E-04 1.60605E+00 1.45556E-13-1.62288E-13
 -1       816 2.05219E+01-1.48421E-01 1.06933E-04 1.53961E+00 1.61428E-13-3.60260E-13
 -1       817 2.03007E+01 1.29218E-01 7.29899E-05 1.40764E+00 1.00707E-13-1.86364E-13
 -1       818 2.01799E+01 2.92529E-01 8.08864E-05 1.24643E+00 2.76559E-13 2.83006E-14
 -1       819 2.01175E+01 3.79145E-01 5.12483E-05 1.07586E+00 1.16530E-13-1.21394E-13
 -1       820 2.00845E+01 4.24318E-01 4.89578E-05 9.05423E-01 7.20710E-14-2.05822E-13
 -1       821 2.00541E+01 4.54709E-01-2.43031E-04 8.02203E-01-6.51180E-14-2.81390E-13
 -1       822 2.02796E+01 9.43894E-01-7.53939E-05 5.51694E-01 1.64966E-13-1.99122E-13
 -1       823 7.40500E+00 1.56205E+00 7.42265E-02-1.03076E+00 1.28022E-13-1.96169E-13
 -1       824 2.01482E+01 1.89545E+00-3.10025E-04 1.98774E-01 2.92569E-14-2.70115E-13
 -1       825 1.92336E+01 9.87522E-01-6.07605E-05 5.02093E-02-2.43348E-13 1.01397E-13
 -1       826 1.96035E+01 7.70090E-01-2.09748E-04-7.55953E-01 7.44709E-14 5.01566E-14
 -1       827 1.92610E+01 9.76905E-01-6.13413E-06-2.58737E-01-4.20633E-14-2.81299E-13
 -1       828 2.00989E+01 5.29488E-02-7.68558E-06-1.87563E-01-1.16806E-14-1.51797E-13
 -1       829 1.93879E+01 9.01242E-01-8.16976E-05-5.42704E-01 7.28807E-14-5.82044E-13
 -1       830 2.00439E+01 1.58207E-02-8.56770E-07-2.50356E-01 6.12568E-15-1.14122E-13
 -1       831 2.00556E+01 7.75513E-03-5.26225E-06-2.35815E-01 4.19702E-14-1.22105E-13
 -1       832 1.12898E+01 4.24410E-01 7.91944E-02-2.40482E+00-2.23672E-13-7.90999E-14
 -1       833 2.02937E+01 7.37664E-01-2.79099E-05-2.88921E-01-1.30434E-13-1.99230E-13
 -1       834 2.46669E+01-3.83819E+00-3.12371E-03-1.97319E+00-1.27260E-13-1.74768E-13
 -1       835 2.01331E+01 1.21520E-01-1.92441E-06-1.33695E-01 2.40781E-14-1.49050E-13
 -1       836 2.01763E+01 2.37662E-01-7.62537E-05-4.13914E-02 4.81275E-14-1.37593E-13
 -1       837 1.39813E+01-8.51658E-01 7.72592E-02-4.32465E+00-7.30874E-14 2.70471E-13
 -1       838 1.12071E+01 7.03190E-01 6.67665E-02 1.62173E+00-7.78401E-14 1.01634E-13
 -1       839 2.59069E+01-2.44127E+00-2.90792E-02-2.49496E-01 1.40135E-13-6.58439E-13
 -1       840 8.88883E+00 6.64028E-01 9.15578E-02-3.45912E+00-2.64030E-13-5.94223E-13
 -1       841 1.12281E+01 9.49313E-02 1.26523E-01 6.53277E-01 6.91258E-13 5.28102E-13
 -1       842 2.01368E+01 1.93393E+00-3.14924E-04 3.31632E-03-2.71033E-14-2.80387E-13
 -1       843 2.02295E+01 1.58453E+00-4.55225E-05 5.34902E-01 1.12853E-13-2.35902E-13
 -1       844 2.23576E+01-4.72337E+00 1.06647E-01 8.00194E-01 5.23824E-13 1.77740E-13
 -1       845 1.76763E+01-1.87033E+00 9.35476E-03-4.35979E+00-7.88753E-14-1.01873E-13
 -1       846 1.16929E+01-2.54233E-01 6.67207E-02-4.10541E+00-3.93467E-13-2.55004E-13
 -1       847 1.70649E+01-2.20720E+00 4.70850E-02-4.16227E+00-4.30742E-13-4.11051E-14
 -1       848 2.72268E+01-5.83275E+00-2.42362E-02-4.16338E-02 3.49209E-13-3.18998E-14
 -1       849 1.96893E+01 6.79364E-01 2.38697E-04 7.71711E-01-2.60825E-13 4.11737E-13
 -1       850 1.79426E+01-1.81958E+00 2.13061E-02 4.06495E+00-1.36175E-13-3.35149E-13
 -1       851 2.02346E+01 5.78249E-01-1.19157E-05 2.56593E-01 1.20574E-13-2.00604E-13
 -1       852 1.94651E+01 8.25430E-01-7.12351E-05 6.02251E-01-8.31008E-14 1.43494E-13
 -1       853 2.01797E+01 1.78164E+00-2.67113E-04 3.80529E-01 8.89743E-14-2.78550E-13
 -1       854 2.20565E+01-2.78592E+00 1.13644E-02-1.77695E+00-5.24463E-13 3.30670E-14
 -1       855 1.22120E+01 1.04930E+00 4.04491E-02-4.73109E-01-1.70437E-15-1.13382E-14
 -1       856 1.93057E+01 9.34141E-01-5.97286E-05 3.51677E-01-8.67493E-14 3.32144E-13
 -1       857 2.02036E+01 3.79540E-01 1.17042E-04 8.00978E-02 6.82590E-14-1.68810E-13
 -1       858 2.02922E+01 1.12832E+00 2.55725E-04-5.35250E-01-1.45021E-13-2.07434E-13
 -1       859 1.51651E+01-1.18463E+00 2.07231E-01 5.48161E-02 1.04212E-12 5.48631E-13
 -1       860 2.16000E+01-3.24248E+00 7.32632E-02-3.61530E+00-2.13258E-14 3.27194E-13
 -1       861 2.01764E+01 1.78763E+00-4.89054E-04-3.74402E-01-9.24982E-14-2.78118E-13
 -1       862 1.97475E+01 6.78670E-01 5.72950E-04-8.59010E-01 3.93200E-14 8.36503E-14
 -1       863 9.12778E+00 1.43627E+00-6.30210E-03-3.43293E-01 6.45510E-13 5.55164E-13
 -1       864 2.02210E+01 1.59612E+00-1.01926E-03-5.27096E-01-1.19774E-13-2.31098E-13
 -1       865 1.41249E+01 4.88449E-01 2.41204E-02 2.34446E+00-1.60230E-13-1.29660E-13
 -1       866 9.10395E+00 1.18853E+00 2.51399E-02-1.96919E+00-2.97548E-14-2.77776E-13
 -1       867 2.03101E+01 2.55165E-01-1.35997E-05 6.19311E-02-7.46081E-14-1.60877E-13
 -1       868 2.02717E+01 1.32618E-01-7.02286E-06 1.26391E-01-4.58186E-14-1.19299E-13
 -1       869 2.02286E+01 6.31422E-02-3.47837E-06 1.66382E-01-2.24945E-14-8.27250E-14
 -1       870 2.01843E+01 3.35262E-02-2.59351E-06 1.91747E-01 2.79936E-14-1.47614E-13
 -1       871 2.01400E+01 3.42488E-02-3.27205E-06 2.10638E-01 2.56749E-14-1.89608E-13
 -1       872 2.00953E+01 5.87342E-02-3.44445E-06 2.29601E-01-1.81725E-14-1.33003E-13
 -1       873 2.00487E+01 1.02505E-01-3.10715E-06 2.53913E-01-7.23700E-14-1.39262E-13
 -1       874 1.99980E+01 1.62521E-01-2.65296E-06 2.87834E-01-2.91579E-14-1.61315E-13
 -1       875 1.99399E+01 2.36584E-01-2.29426E-06 3.34853E-01-5.62730E-14-5.16970E-14
 -1       876 1.98706E+01 3.22678E-01-1.79731E-06 3.97888E-01-1.40724E-13 1.67314E-14
 -1       877 1.97859E+01 4.18224E-01-8.11643E-07 4.79432E-01-8.70080E-14 9.84999E-14
 -1       878 1.96808E+01 5.19143E-01 1.26220E-06 5.81740E-01-2.13887E-13 1.43905E-13
 -1       879 1.59412E+01 2.13728E-01-1.10395E+00 6.36459E-01-6.19838E-13 9.65117E-13
 -1       880 1.15151E+01-1.40988E+00-4.92549E-01-9.24382E-02-5.79689E-13 2.90643E-12
 -1       881 1.02039E+01-6.20778E-01 5.03937E-02-9.07527E-01 7.34737E-13 3.28109E-12
 -1       882 9.25028E+00-3.31967E-01 1.43017E-01-2.06873E+00 2.23944E-12 3.67665E-12
 -1       883 7.56337E+00-2.41031E-01-4.11748E-02-2.92650E+00 4.08178E-12 4.48629E-12
 -1       884 3.35885E+00-2.60232E+00-2.76522E+00 2.21287E-01 4.16782E-12 9.70546E-12
 -1       885 1.83301E+01-1.03908E+01-2.52215E+00 6.12076E-01-4.82503E-13 2.35167E-12
 -1       886 1.65634E+01 4.91731E-01 9.00846E-01-1.86693E+00 3.08640E-12 2.16271E-13
 -1       887 1.87764E+01-8.00696E-01 1.00248E-02-3.06543E+00-1.55760E-13 1.21609E-13
 -1       888 1.86034E+01-2.52628E-02-7.95048E-04-2.42784E+00 5.42335E-14 2.97041E-14
 -1       889 1.87138E+01 4.27543E-01-4.08613E-04-1.94561E+00-1.35371E-13-1.28317E-13
 -1       890 1.89187E+01 6.59274E-01-7.73495E-05-1.58373E+00-9.99891E-14-7.92640E-15
 -1       891 1.91469E+01 7.53190E-01 9.90567E-05-1.30541E+00-6.05067E-15 1.53136E-13
 -1       892 1.93637E+01 7.70357E-01-5.98342E-05-1.08116E+00 9.96881E-14 1.99667E-13
 -1       893 2.00200E+01 1.25620E-01 3.45494E-06-2.96577E-01-2.48378E-14-1.77854E-13
 -1       894 2.00542E+01 7.68471E-02 2.76039E-06-2.63824E-01-2.77724E-15-6.59924E-14
 -1       895 1.99419E+01 2.52789E-01 7.71052E-06-4.05522E-01 2.52511E-14-1.78002E-13
 -1       896 1.98946E+01 3.24426E-01 1.12254E-05-4.87449E-01 4.03285E-15-6.25794E-14
 -1       897 1.98403E+01 3.94467E-01 1.61943E-05-5.90633E-01-2.55319E-14 4.12850E-14
 -1       898 1.97798E+01 4.54151E-01 2.36418E-05-7.16702E-01-1.55769E-14-9.06609E-14
 -1       899 1.97169E+01 4.90133E-01 3.57830E-05-8.66880E-01 2.18889E-14-1.01573E-13
 -1       900 1.96606E+01 4.82657E-01 5.63271E-05-1.04205E+00 7.45307E-14 2.17376E-14
 -1       901 1.96288E+01 4.03561E-01 8.49546E-05-1.24254E+00 8.15298E-14 2.94031E-14
 -1       902 1.96537E+01 2.14753E-01 8.75769E-05-1.46694E+00-3.70363E-14 6.57946E-14
 -1       903 1.97897E+01-1.31566E-01-1.10615E-04-1.70841E+00-4.21121E-14 3.36726E-14
 -1       904 1.94046E+01-6.47485E-01-1.88067E-01-1.87564E+00-2.97148E-13-2.01807E-13
 -1       905 1.93919E+01-9.73833E-01-4.94519E-02-1.62504E+00-3.80061E-13-5.60337E-14
 -1       906 2.05535E+01-1.54687E+00 1.09527E-02-1.38003E+00-3.67769E-13 1.43128E-13
 -1       907 2.02444E+01-7.84623E-01 4.37894E-05 2.10141E+00 2.08765E-13-1.31709E-13
 -1       908 1.98724E+01-2.02366E-01 8.48814E-04 1.86337E+00 2.60310E-13-1.17095E-13
 -1       909 1.97179E+01 1.71168E-01 3.06347E-04 1.61355E+00 1.14253E-14 1.11933E-15
 -1       910 1.96882E+01 3.91159E-01 1.01425E-04 1.37885E+00-2.12798E-14 2.06909E-13
 -1       911 1.97252E+01 5.05321E-01 2.69537E-04 1.16664E+00 1.80508E-13 5.14898E-14
 -1       912 1.97884E+01 5.58364E-01 2.24502E-04 9.75615E-01 2.54506E-14 3.04432E-13
 -1       913 1.98793E+01 5.67054E-01 1.27418E-04 8.11508E-01-2.25783E-13 3.79904E-13
 -1       914 1.89287E+01 1.04012E+00-7.92502E-05-1.13685E-01-3.07933E-13 2.04887E-13
 -1       915 2.01964E+01 6.00850E-02-6.52964E-06-1.76271E-01 2.28726E-14-2.20116E-13
 -1       916 2.03400E+01 7.39102E-01-9.40655E-06-1.84364E-01-1.39940E-13-1.36122E-13
 -1       917 2.00876E+01 4.17671E-02 2.73781E-06-2.40683E-01-2.79260E-14-6.63454E-14
 -1       918 2.23235E+01-2.56922E+00 1.34260E-02 2.12094E+00-7.76608E-14-6.34477E-13
 -1       919 2.02364E+01 1.30557E-01-8.13856E-06-1.31654E-01 4.83522E-15-1.61373E-13
 -1       920 2.10162E+01-1.62560E+00-7.28791E-03 2.24378E+00 1.75576E-14-4.24143E-13
 -1       921 2.02753E+01 2.52479E-01 2.34964E-05-5.84968E-02 3.38810E-14-1.59820E-13
 -1       922 1.99832E+01 1.85246E-01 5.17651E-06-3.42762E-01 6.53674E-14-2.35811E-13
 -1       923 2.01468E+01 1.89848E+00-3.19672E-04-1.92297E-01-4.85148E-14-2.90808E-13
 -1       924 1.40251E+01 2.23867E-01 4.51198E-02-2.97110E+00-3.28773E-15 3.19189E-14
 -1       925 2.03010E+01 8.31074E-01-4.59797E-04 3.44686E-01 1.27323E-13-1.83898E-13
 -1       926 2.03368E+01 4.48850E-01-5.45359E-05-3.81723E-02-1.24664E-13-1.71184E-13
 -1       927 1.40416E+01 1.09386E+00 1.88253E-02 8.69672E-01 3.34261E-14 6.03337E-15
 -1       928 1.08251E+01 5.69535E-01 3.09893E-02-2.76023E+00-1.61404E-13-3.42468E-13
 -1       929 1.66572E+01-5.63108E-01 1.54977E-02-3.44576E+00 8.91403E-14 1.53291E-13
 -1       930 2.02940E+01 1.34824E+00 4.41263E-05 1.95748E-01 5.88857E-14-2.20875E-13
 -1       931 1.47942E+01-1.07566E+00 4.50481E-02-3.88184E+00-3.15414E-13 6.34111E-14
 -1       932 2.02842E+01 1.41743E+00-3.90762E-06 6.89563E-02-1.07639E-15-2.23641E-13
 -1       933 1.12283E+01 7.31449E-01 5.93095E-02-6.82522E-01 1.06998E-12 9.50247E-13
 -1       934 1.89655E+01 1.00875E+00 1.06508E-04 2.61668E-01-2.39135E-13 7.36368E-14
 -1       935 1.61966E+01-2.76100E-01 1.66626E-02 3.11293E+00-1.90641E-13 1.70761E-13
 -1       936 8.76831E+00 1.38639E+00-1.31685E-01-6.34902E-01 3.52496E-13 2.98790E-13
 -1       937 1.90335E+01 9.94822E-01 4.09351E-05-4.79980E-01-7.76890E-14-4.74867E-13
 -1       938 1.95808E+01 7.24172E-01 2.71684E-04-9.67644E-01 3.03702E-13 1.81590E-13
 -1       939 2.01580E+01 2.75850E-02-3.35536E-06-2.03423E-01 3.53994E-14-1.68366E-13
 -1       940 2.03062E+01 4.46056E-01-1.55813E-04 5.61673E-02 5.21241E-14-1.63289E-13
 -1       941 2.03097E+01 1.11036E+00 2.15264E-04-3.45872E-01-1.15521E-13-1.78923E-13
 -1       942 1.87282E+01-1.73113E+00 1.57927E-02-2.57212E+00-3.47319E-13-1.53342E-13
 -1       943 1.94523E+01 7.33852E-01-2.55760E-04 8.52464E-01 3.06318E-14 1.48304E-13
 -1       944 2.01218E+01 2.38043E-02 6.24960E-06-2.22455E-01-3.12885E-14-1.26771E-13
 -1       945 2.02933E+01 1.35274E+00 2.37093E-04-1.92140E-01-7.02797E-14-2.61857E-13
 -1       946 2.03019E+01 1.25480E+00 8.17081E-04-2.79092E-01-7.36936E-14-2.64883E-13
 -1       947 1.93230E+01 8.55402E-01-3.74088E-04-7.98063E-01 1.72687E-13-6.24528E-14
 -1       948 2.03118E+01 1.20807E+00-4.79537E-05 3.03634E-01 9.16377E-14-2.37661E-13
 -1       949 1.89176E+01 2.83147E-01 2.22764E-04 1.77704E+00 9.48907E-14 1.15724E-13
 -1       950 2.03195E+01 1.24595E-01-3.06501E-06 1.09519E-01 2.63908E-15-1.26430E-13
 -1       951 2.02686E+01 6.49210E-02 4.79034E-06 1.37276E-01 8.98673E-15-8.35263E-14
 -1       952 2.02119E+01 4.61873E-02-1.84868E-06 1.56516E-01-9.72496E-15-5.44684E-14
 -1       953 2.01510E+01 5.92713E-02-5.80415E-06 1.72748E-01 6.55749E-14-3.00903E-14
 -1       954 2.00856E+01 9.77914E-02-8.39076E-06 1.90666E-01-1.43161E-14-2.90416E-14
 -1       955 2.00136E+01 1.57242E-01-1.08498E-05 2.14011E-01-6.20145E-14-7.63841E-14
 -1       956 1.99320E+01 2.34464E-01-1.48016E-05 2.45764E-01-2.19328E-14-1.36460E-13
 -1       957 1.98362E+01 3.26973E-01-2.02132E-05 2.88345E-01-5.57088E-14-1.49888E-13
 -1       958 1.97210E+01 4.32251E-01-2.72142E-05 3.43752E-01-6.12545E-14-5.00099E-14
 -1       959 1.95800E+01 5.46963E-01-3.62207E-05 4.13753E-01-1.10490E-13-6.90037E-14
 -1       960 1.82143E+01 1.53345E-01-5.17511E-01 4.08331E-01-1.03023E-13 9.44522E-14
 -1       961 1.39304E+01-1.77728E+00-6.29652E-01-1.11265E+00-1.13011E-13 1.32298E-12
 -1       962 1.29115E+01-1.52249E+00 1.37922E-02-1.42950E+00 4.53573E-13 1.97316E-12
 -1       963 1.23341E+01-1.34613E+00 2.24558E-01-2.06745E+00 1.59701E-12 2.15355E-12
 -1       964 1.25842E+01-1.57054E+00 5.17390E-01-3.34477E+00 3.28368E-12 1.82845E-12
 -1       965 1.44005E+01-1.63109E+00 9.94809E-01-7.19700E+00 8.43670E-12-2.87312E-13
 -1       966 2.87884E-01-1.61366E+00-5.97060E+00-1.05950E+01 2.22469E-11 1.45055E-11
 -1       967 1.34856E+01 1.90074E-01 1.01978E-01-5.64612E+00 3.69910E-12 2.75215E-12
 -1       968 2.00342E+01 1.26785E-01 3.15698E-06-2.36917E-01 2.40681E-14-2.13799E-13
 -1       969 1.74159E+01 6.81823E-01-6.93729E-04-1.86783E+00-1.13197E-13 2.06903E-13
 -1       970 1.79600E+01 8.81443E-01-2.88507E-04-1.44378E+00-3.74420E-14 1.35542E-13
 -1       971 1.84300E+01 9.49738E-01-4.99757E-05-1.14898E+00-1.08096E-13 8.72312E-14
 -1       972 1.88199E+01 9.49869E-01-4.58425E-05-9.35738E-01-8.97575E-16-9.39611E-14
 -1       973 1.97108E+01 4.45494E-01-7.98779E-06-4.65399E-01-1.36112E-14-9.93661E-14
 -1       974 1.98107E+01 3.55720E-01-5.27057E-06-3.83074E-01-2.13856E-14-7.61023E-14
 -1       975 1.94589E+01 6.04384E-01-1.24238E-05-6.98806E-01-5.59405E-15-8.37876E-14
 -1       976 1.93078E+01 6.47343E-01-1.08227E-05-8.58589E-01 7.11949E-14-1.56178E-13
 -1       977 1.91477E+01 6.38288E-01 1.08386E-06-1.05641E+00-2.16444E-15-1.25021E-13
 -1       978 1.89946E+01 5.45266E-01 3.30713E-05-1.30365E+00-4.15720E-14-5.79355E-14
 -1       979 1.88801E+01 3.24346E-01-3.97346E-06-1.61567E+00-1.03394E-13-1.20634E-14
 -1       980 1.78665E+01-3.76908E-01-3.55792E-01-2.09816E+00-1.25573E-13 1.28890E-13
 -1       981 1.71619E+01-7.61221E-01-1.12551E-01-2.22290E+00-4.09818E-13-2.24907E-14
 -1       982 1.77613E+01-1.13167E+00-1.58901E-02-2.38106E+00-5.15108E-13-3.46745E-14
 -1       983 2.03653E+01 4.30142E-01-7.60250E-05 1.29090E-02 5.47361E-14-1.96061E-13
 -1       984 1.89140E+01-1.59263E-01-7.76619E-05 2.20514E+00 5.23907E-14-1.48586E-13
 -1       985 1.92182E+01 6.55136E-01-1.56153E-04 1.17694E+00-8.53159E-14 3.34040E-13
 -1       986 1.93368E+01 7.05125E-01-1.35081E-05 1.00306E+00-4.82151E-14 4.45690E-13
 -1       987 2.02840E+01 1.41865E+00 2.23154E-05-6.46296E-02-4.60143E-14-2.63173E-13
 -1       988 2.03817E+01 6.94162E-01-9.28605E-05-9.74714E-02-1.45378E-13-1.93433E-13
 -1       989 2.03853E+01 4.20094E-01-2.85654E-05-2.10194E-04-9.99191E-14-1.85801E-13
 -1       990 2.03397E+01 2.44092E-01-1.29155E-05-6.75785E-02 1.12582E-14-2.26859E-13
 -1       991 2.00933E+01 7.68424E-02 6.85350E-06-2.11851E-01-2.17083E-14-2.16596E-13
 -1       992 1.90443E+01 5.31081E-01-3.80877E-04 1.44366E+00-2.63540E-13 1.86635E-13
 -1       993 1.95938E+01 5.31908E-01-1.06040E-05-5.69428E-01 3.21106E-14-1.17485E-13
 -1       994 2.03066E+01 6.15002E-01-4.90183E-04 1.79809E-01 8.25075E-14-1.71686E-13
 -1       995 1.91369E+01 9.04614E-01-2.55815E-04 5.94628E-01-6.86944E-14 4.01217E-13
 -1       996 2.03000E+01 1.27211E-01-1.90005E-05-1.19900E-01 4.83197E-14-2.25226E-13
 -1       997 2.03608E+01 2.37705E-01-1.96730E-05 6.62013E-02-4.23824E-14-1.86985E-13
 -1       998 1.42392E+01 9.73348E-01 1.78904E-02-1.45985E+00-2.86631E-15 5.26315E-14
 -1       999 1.88260E+01-7.63450E-01 5.72100E-03 2.80617E+00-1.85167E-13-5.15305E-13
 -1      1000 1.57131E+01 7.36934E-01 1.18475E-02 1.82340E+00-3.01078E-13-1.19627E-14
 -1      1001 1.07107E+01 5.52092E-01-8.27632E-02-1.72811E+00 1.39776E-13-1.75179E-13
 -1      1002 1.58783E+01 4.52600E-01 6.40058E-03-2.38097E+00-1.87555E-13 1.41409E-13
 -1      1003 1.30940E+01-1.61773E-01 1.25982E-02-3.07875E+00-2.85036E-13 3.89589E-14
 -1      1004 2.03762E+01 9.86641E-01 2.65684E-04 7.78845E-02 5.40942E-14-1.58623E-13
 -1      1005 1.99694E+01 1.92152E-01 1.56444E-07-2.71701E-01 5.00075E-14-1.84053E-13
 -1      1006 8.48557E+00 1.81543E+00-3.73272E-01-7.25956E-01 1.16417E-12 1.54554E-12
 -1      1007 1.85625E+01 1.09212E+00 3.55162E-04 1.09960E-01-3.54317E-13 1.07103E-13
 -1      1008 1.67944E+01 2.81937E-01 3.77972E-03-2.50774E+00-1.98095E-13 1.19146E-13
 -1      1009 1.86021E+01 1.08918E+00 2.46914E-04-3.46425E-01-3.24168E-13 1.79911E-13
 -1      1010 2.02529E+01 6.27200E-02-6.80109E-05-1.53009E-01-3.98938E-15-2.35258E-13
 -1      1011 2.03680E+01 8.99650E-01-3.71065E-04 1.40034E-01 7.52075E-14-2.20472E-13
 -1      1012 2.01486E+01 4.60429E-02 1.01700E-05-1.92725E-01-7.76545E-14-1.80696E-13
 -1      1013 2.03653E+01 7.11441E-01 8.54113E-04 1.32905E-01 7.02468E-14-2.22413E-13
 -1      1014 2.03545E+01 9.45184E-01-1.43331E-04-1.82486E-01-1.00974E-13-2.36502E-13
 -1      1015 1.98959E+01 2.69665E-01-2.56568E-06-3.19447E-01-1.28021E-14-1.10775E-13
 -1      1016 2.03760E+01 9.89344E-01-7.18824E-05-7.71672E-02-5.77907E-14-2.26697E-13
 -1      1017 1.23802E+01 6.54207E-02-5.28945E-02-2.27218E+00-1.04850E-13 8.38402E-14
 -1      1018 1.93192E+01 6.74208E-01-7.30829E-05-4.85550E-01 1.89565E-14-9.27610E-14
 -1      1019 1.87105E+01 1.00268E+00 2.38539E-04 5.37666E-01-3.28898E-13 1.86245E-14
 -1      1020 2.02771E+01 6.53852E-02 2.73443E-05 9.47740E-02 3.53141E-14-4.51903E-14
 -1      1021 2.02089E+01 6.10383E-02-2.46024E-05 1.06838E-01 8.97101E-15-4.65499E-14
 -1      1022 2.01334E+01 8.86313E-02-3.13687E-05 1.18209E-01 5.34625E-14-1.39086E-13
 -1      1023 2.00499E+01 1.41842E-01-3.48578E-05 1.31603E-01-2.53173E-14-4.38511E-14
 -1      1024 1.99556E+01 2.16367E-01-4.33315E-05 1.49080E-01-1.55908E-13-6.72884E-14
 -1      1025 1.98465E+01 3.09038E-01-5.59748E-05 1.72228E-01-3.79320E-14-1.18594E-13
 -1      1026 1.97170E+01 4.17110E-01-7.25632E-05 2.02227E-01-3.63577E-14-1.32947E-13
 -1      1027 1.95603E+01 5.37559E-01-9.38262E-05 2.39936E-01-5.88725E-14-6.58669E-14
 -1      1028 1.93683E+01 6.66365E-01-1.21824E-04 2.86053E-01-9.71788E-14-1.93332E-14
 -1      1029 1.66247E+01-8.49375E-01-1.15421E+00-4.59681E-01 2.31024E-13 4.52055E-13
 -1      1030 1.42051E+01-1.79948E+00-3.77765E-01-1.82697E+00 4.66838E-13 1.05380E-12
 -1      1031 1.42040E+01-1.71800E+00 1.56187E-01-1.88731E+00 1.00531E-12 1.04361E-12
 -1      1032 1.46668E+01-1.86503E+00 5.98564E-01-2.00701E+00 1.77048E-12 6.77763E-13
 -1      1033 1.66503E+01-2.01545E+00 1.82317E+00-1.20629E+00 2.69186E-12-5.99965E-13
 -1      1034 1.85466E+01-1.90168E+00 8.22487E-01 3.12171E+00-3.46635E-12-4.66849E-12
 -1      1035 4.59843E+00-3.63292E-02-2.70218E+00 2.73826E+00 1.19288E-12 4.27192E-12
 -1      1036 1.53467E+01 1.23322E+00 1.19509E-03-2.99370E-01-4.99046E-14 1.29779E-13
 -1      1037 1.76803E+01 1.13832E+00 1.57548E-03-7.77171E-01-1.77357E-13-3.21428E-14
 -1      1038 1.82661E+01 1.10042E+00-9.00656E-04-6.36705E-01-3.28917E-13 4.39720E-14
 -1      1039 1.88507E+01 8.16895E-01-1.22779E-04-7.64190E-01-1.36324E-14-1.17578E-13
 -1      1040 1.91035E+01 7.61177E-01-9.35656E-05-6.07010E-01 4.10698E-14-1.07363E-13
 -1      1041 1.82329E+01 7.37357E-01-1.13710E-04-1.25420E+00-8.81402E-14-1.33532E-13
 -1      1042 1.64957E+01-2.26564E-01-5.86804E-01-1.94364E+00-1.73452E-13 6.21725E-15
 -1      1043 1.49734E+01-5.27827E-01-2.05067E-01-2.25235E+00-3.27070E-13 3.27111E-13
 -1      1044 1.74019E+01 2.25163E-01 1.64400E-04 2.26813E+00-3.51968E-13 2.41818E-14
 -1      1045 1.78263E+01 5.88556E-01-4.75723E-04 1.69690E+00 5.13136E-14 9.02520E-14
 -1      1046 1.85591E+01 8.19656E-01-1.92431E-04-9.71886E-01 5.36805E-15-1.91007E-13
 -1      1047 2.03762E+01 1.01589E+00 4.39450E-05 1.23967E-03 6.22888E-15-2.09125E-13
 -1      1048 1.69113E+01 1.12286E+00-1.87636E-03-1.01315E+00-2.45815E-13 1.73208E-13
 -1      1049 1.96543E+01 4.64708E-01-4.58798E-05-3.17198E-01 1.31438E-14-8.34426E-14
 -1      1050 1.02263E+01-1.75370E-01-5.32442E-01-3.85387E-01 6.79852E-13 4.81934E-13
 -1      1051 1.54693E+01-6.11429E-01-3.77484E-03-2.67371E+00-4.38070E-13 1.51434E-13
 -1      1052 2.04044E+01 3.86878E-01-2.09829E-04-1.28750E-02 3.37700E-14-1.69720E-13
 -1      1053 1.97828E+01 3.61145E-01-3.52184E-05-2.60549E-01-9.44386E-14-1.53812E-13
 -1      1054 2.04155E+01 6.12538E-01 1.16469E-05-3.42424E-02-8.54830E-14-1.48304E-13
 -1      1055 1.89939E+01 8.61979E-01-6.38447E-04 8.18226E-01-1.10308E-13-3.49609E-14
 -1      1056 2.03764E+01 2.18971E-01 8.64418E-05-6.31230E-02 1.06741E-14-1.80249E-13
 -1      1057 1.61106E+01 1.16934E+00 3.80254E-03 6.91441E-01-2.14870E-13-3.55265E-13
 -1      1058 2.00685E+01 1.19017E-01-1.06250E-05-1.63482E-01-2.08467E-15-9.83472E-14
 -1      1059 2.03372E+01 1.09135E-01-4.20887E-05 7.87555E-02 3.09120E-14-8.94897E-14
 -1      1060 2.02017E+01 3.91125E-02-6.37975E-06-1.74799E-01-4.20236E-14-2.12730E-13
 -1      1061 1.95013E+01 5.71660E-01-5.80745E-05-3.90864E-01 4.66361E-14-4.47165E-14
 -1      1062 1.81757E+01 1.10495E+00-1.18951E-03 4.26162E-01 1.30048E-13 3.23626E-14
 -1      1063 1.82113E+01 8.08561E-01 3.57595E-03 1.31060E+00-2.92281E-13 1.70117E-13
 -1      1064 1.99857E+01 1.84542E-01-1.74681E-05-1.86341E-01 2.01011E-14-1.25819E-13
 -1      1065 2.01433E+01 7.36232E-02 5.29145E-06-1.46511E-01-6.36322E-14-1.49979E-13
 -1      1066 1.68996E+01 8.93956E-01-3.43226E-04 1.33093E+00-1.74510E-13 1.51759E-13
 -1      1067 2.04260E+01 6.87114E-01-4.08822E-05 1.72320E-02 4.56023E-14-1.27984E-13
 -1      1068 2.04005E+01 6.47242E-01 1.64549E-05 5.94114E-02 4.58462E-14-2.08434E-13
 -1      1069 1.59347E+01 1.01007E+00 8.13445E-03-1.39098E+00-4.81172E-14 3.60287E-13
 -1      1070 1.13978E+01-3.06597E-01-3.75056E-01-1.56520E+00 3.22090E-13 1.75013E-13
 -1      1071 2.03328E+01 1.13970E-01-4.43977E-05-9.63060E-02 1.76076E-14-1.47446E-13
 -1      1072 2.03848E+01 2.05854E-01 8.66036E-06 5.49921E-02-3.98920E-15-7.35310E-14
 -1      1073 2.04225E+01 6.92918E-01 4.72806E-04-1.59759E-02-2.43518E-15-1.52441E-13
 -1      1074 1.86489E+01 8.54286E-01 1.26477E-03 1.01724E+00-2.07755E-13-4.08118E-14
 -1      1075 2.04144E+01 3.67955E-01 1.43326E-04 1.90625E-02-5.20594E-14-1.15385E-13
 -1      1076 1.98918E+01 2.66413E-01-2.57307E-05-2.17826E-01 2.90645E-14-1.42212E-13
 -1      1077 2.04357E+01 4.19048E-01-4.21656E-04 3.13579E-03 5.96308E-16-8.20562E-14
 -1      1078 1.81076E+01 1.16974E+00 5.60942E-04-1.21642E-01-3.58205E-14-1.97551E-14
 -1      1079 2.01830E+01 7.89635E-02 7.03914E-05 4.41895E-02-2.47476E-14-1.32860E-13
 -1      1080 2.00960E+01 1.21145E-01 6.46597E-05 4.88140E-02 2.05763E-14-2.04413E-13
 -1      1081 1.99983E+01 1.87891E-01 6.38295E-05 5.42380E-02-4.60420E-14-2.40107E-13
 -1      1082 1.98864E+01 2.75207E-01 6.46436E-05 6.09672E-02-5.04645E-14-1.06198E-13
 -1      1083 1.97553E+01 3.79896E-01 6.81634E-05 6.91710E-02-5.13777E-15-6.73736E-14
 -1      1084 1.95986E+01 4.98875E-01 7.46294E-05 7.86845E-02-6.89464E-14-9.21747E-14
 -1      1085 1.94085E+01 6.28503E-01 8.36725E-05 8.89872E-02-2.34655E-14-9.28303E-14
 -1      1086 1.91754E+01 7.63959E-01 9.40144E-05 9.91950E-02-2.77548E-14-8.71213E-15
 -1      1087 1.68144E+01-8.26827E-01-1.04958E+00-7.41756E-01 1.41775E-13 4.45532E-13
 -1      1088 1.50667E+01-1.74916E+00-3.06683E-01-1.64492E+00 4.65229E-13 5.33761E-13
 -1      1089 1.56694E+01-1.90041E+00 2.29479E-01-1.67100E+00 1.01704E-12 4.08423E-14
 -1      1090 1.58514E+01-1.53993E+00 6.56223E-01-1.79556E+00 1.92497E-12-5.35488E-13
 -1      1091 1.35589E+01-1.29697E+00-4.85747E-02-1.80788E+00 3.38135E-12 5.58831E-13
 -1      1092 1.83062E+01 2.31919E-01-3.38692E-01-6.27019E-01 1.38847E-14 8.70519E-14
 -1      1093 1.94874E+01 5.72603E-01-7.30213E-05-2.04518E-01-6.75637E-15-1.75431E-13
 -1      1094 1.92827E+01 6.94926E-01-9.39624E-05-2.58590E-01 4.33788E-14-1.34339E-13
 -1      1095 1.74447E+01-5.45694E-01-5.39315E-01-1.16748E+00 4.24369E-13 1.08672E-13
 -1      1096 1.30108E+01-6.14227E-01-4.99766E-01-1.95869E+00-1.17691E-13 6.98318E-13
 -1      1097 1.55909E+01-6.66583E-01-1.14223E+00-1.52840E+00-4.16733E-13 2.03254E-13
 -1      1098 1.77465E+01-7.01491E-01-5.96430E-01-9.34009E-01 2.85869E-13 5.50647E-14
 -1      1099 1.97986E+01 3.43440E-01-4.34324E-05-1.33856E-01-5.74130E-14-2.24267E-13
 -1      1100 1.73706E+01 1.23909E+00-2.57697E-03 3.84782E-02-3.10572E-13-2.57886E-13
 -1      1101 1.96570E+01 4.53564E-01-5.63281E-05-1.63974E-01-6.81975E-14-2.29270E-13
 -1      1102 1.90345E+01 8.12770E-01-1.21059E-04-3.30625E-01-4.27964E-14 4.00018E-15
 -1      1103 2.03295E+01 8.93744E-02-1.79533E-04 3.30996E-02 3.94628E-14-1.45099E-13
 -1      1104 2.04272E+01 3.26222E-01 2.73503E-04-1.38478E-02-2.66704E-15-1.58091E-13
 -1      1105 2.02608E+01 6.59616E-02 7.17553E-05 3.97694E-02 1.62991E-14-1.57741E-13
 -1      1106 2.02734E+01 6.61035E-02-5.01181E-05-1.16156E-01-4.75282E-15-1.18330E-13
 -1      1107 1.75964E+01 9.92394E-01-3.08576E-03 9.68888E-01-2.08681E-13 5.01106E-13
 -1      1108 2.01138E+01 1.05852E-01-2.29814E-05-8.42867E-02-4.22838E-14-2.63411E-13
 -1      1109 1.17772E+01-2.04274E+00-1.21336E+00-1.79801E+00 1.00203E-12 9.45299E-13
 -1      1110 1.99186E+01 2.46425E-01-3.39313E-05-1.11818E-01 2.28785E-14-2.52405E-13
 -1      1111 2.00223E+01 1.66037E-01-2.75219E-05-9.59020E-02 5.68687E-14-3.20780E-13
 -1      1112 2.03931E+01 1.79340E-01 7.93431E-05-3.10624E-02-8.10179E-15-7.42537E-14
 -1      1113 2.02126E+01 5.29186E-02-2.67049E-05-1.32416E-01-8.55771E-14-1.81113E-13
 -1      1114 2.03829E+01 1.67214E-01-5.64071E-05 2.66061E-02-1.37825E-14-8.11839E-14
 -1      1115 2.04182E+01 2.70391E-01 1.16263E-05 1.65272E-02-1.05708E-14-5.63019E-14
 -1      1116 1.11313E+01-9.92712E-01-1.46066E+00-2.22437E+00 8.96692E-13 1.83004E-12
 -1      1117 2.03009E+01 7.24845E-02 1.81652E-04-2.38466E-02-4.53070E-15-1.11414E-13
 -1      1118 2.01960E+01 7.01136E-02 1.69170E-05-7.46109E-02-2.87573E-14-1.93464E-13
 -1      1119 1.70353E+01 1.15538E+00-9.09656E-03 5.68519E-01-4.64953E-13-1.36657E-13
 -1      1120 2.79521E+01 9.08306E+00 2.32460E+00-6.69784E+00-2.60902E-14 1.28100E-12
 -1      1121 2.05396E+01 6.22474E+00 2.09446E-01-3.90574E+00-1.74860E-14 3.21021E-13
 -1      1122 1.94299E+01 5.85154E+00 7.52048E-02-2.89047E+00-1.43496E-14-1.36200E-13
 -1      1123 1.90250E+01 5.72565E+00 6.04326E-02-2.23788E+00-1.07275E-14-3.67571E-13
 -1      1124 1.88418E+01 5.66985E+00 5.76553E-02-1.70408E+00-7.88779E-15-4.82878E-13
 -1      1125 1.87508E+01 5.64193E+00 5.56684E-02-1.23620E+00-5.15213E-15-5.46264E-13
 -1      1126 1.87036E+01 5.62725E+00 5.39245E-02-8.05808E-01-3.96731E-15-5.78041E-13
 -1      1127 1.86807E+01 5.62003E+00 5.27150E-02-3.93604E-01-2.82652E-15-5.91843E-13
 -1      1128 1.86742E+01 5.61798E+00 5.23277E-02 8.48588E-03-5.78747E-16-6.04268E-13
 -1      1129 1.86817E+01 5.62038E+00 5.28356E-02 4.10982E-01 7.52436E-16-6.08238E-13
 -1      1130 1.87057E+01 5.62798E+00 5.42107E-02 8.24544E-01 1.25507E-15-6.03204E-13
 -1      1131 1.87545E+01 5.64327E+00 5.63935E-02 1.25759E+00 4.83381E-15-5.73971E-13
 -1      1132 1.88471E+01 5.67172E+00 5.85589E-02 1.72987E+00 6.46705E-15-5.30353E-13
 -1      1133 1.90305E+01 5.72727E+00 6.04329E-02 2.27115E+00 8.95117E-15-4.38103E-13
 -1      1134 1.94266E+01 5.84872E+00 6.91194E-02 2.93110E+00 1.41137E-14-2.57752E-13
 -1      1135 2.04457E+01 6.17961E+00 1.52986E-01 3.88026E+00 1.79301E-14 1.38899E-13
 -1      1136 2.52065E+01 7.99092E+00 1.42978E+00 5.84637E+00 4.24105E-14 1.03473E-12
 -1      1137 2.88003E+01 3.61559E+00 1.27126E+00-4.21670E+00-1.16906E-13 1.91125E-12
 -1      1138 2.02136E+01-1.77690E-01-6.16204E-01-1.10144E-01-3.52912E-14 1.64629E-12
 -1      1139 1.88171E+01-9.63533E-02-2.36341E-01 6.24115E-02-8.18269E-15 1.21538E-12
 -1      1140 1.84809E+01-4.80809E-02-5.95893E-02 4.03874E-02-1.67011E-14 8.91197E-13
 -1      1141 1.84236E+01-2.46734E-02-1.52212E-02 2.66473E-02-8.73867E-15 6.65887E-13
 -1      1142 1.85033E+01-1.31500E-02-5.03288E-03 1.88902E-02-9.40090E-15 5.25933E-13
 -1      1143 1.86487E+01-6.78112E-03-1.60096E-03 1.39040E-02-4.39481E-15 4.17250E-13
 -1      1144 1.88208E+01-3.12029E-03 3.20540E-04 1.04307E-02-9.61958E-15 3.60762E-13
 -1      1145 1.89978E+01-1.04113E-03 1.47182E-03 7.85421E-03 9.35177E-15 2.73502E-13
 -1      1146 1.91682E+01 4.23766E-05 1.98334E-03 5.87108E-03-1.81766E-14 1.15729E-13
 -1      1147 1.93269E+01 4.57125E-04 1.97080E-03 4.32575E-03-6.86959E-15-5.03634E-14
 -1      1148 1.94732E+01 3.95696E-04 1.54433E-03 3.13340E-03-7.89933E-15-3.28036E-14
 -1      1149 1.96098E+01-2.56040E-05 7.83666E-04 2.24713E-03-8.14416E-15-1.05280E-14
 -1      1150 1.97418E+01-7.37363E-04-2.65626E-04 1.64519E-03-6.53190E-15 1.04287E-14
 -1      1151 1.98764E+01-1.69982E-03-1.58606E-03 1.32713E-03-1.53597E-14 6.41264E-14
 -1      1152 2.00229E+01-2.89002E-03-3.17918E-03 1.31437E-03-2.55029E-14-9.05396E-15
 -1      1153 2.01926E+01-4.28898E-03-5.05362E-03 1.65297E-03-9.47647E-15-4.68462E-15
 -1      1154 2.03986E+01-5.86502E-03-7.20694E-03 2.41735E-03-1.94961E-14-1.45878E-13
 -1      1155 2.06559E+01-7.54898E-03-9.59445E-03 3.71265E-03 1.04333E-14-2.02859E-13
 -1      1156 2.09810E+01-9.19524E-03-1.20739E-02 5.67128E-03-1.43281E-14-2.13897E-13
 -1      1157 6.18071E+00-1.07704E+00-2.71026E+00 2.28304E+00-6.53866E-13 4.82414E-12
 -1      1158 1.27956E+01 4.43405E-02 2.23706E-02 4.61196E-02-3.88994E-14 4.48808E-12
 -1      1159 1.49829E+01-8.52182E-02-5.10900E-01 1.05799E-01-8.77944E-14 4.42113E-12
 -1      1160 2.12077E+01 3.47501E-01-7.74940E-01 1.55994E+00-3.86871E-13 2.59082E-12
 -1      1161 6.20668E+01 6.63262E+00 1.19281E+01 1.58354E+01-1.54693E-11-2.25430E-11
 -1      1162-3.93409E+01-4.20560E+00-1.37951E+01 2.18833E+01-2.44510E-11 3.24127E-11
 -1      1163 1.48753E+01-8.24548E-01 5.51714E+00 1.37375E+00-9.15934E-14 5.72387E-12
 -1      1164 1.88754E+01 9.19674E-02 2.59622E+00 5.29870E-02-6.87506E-14 2.14051E-12
 -1      1165 2.13042E+01 1.88953E-01 8.16132E-01 6.43167E-02-1.92624E-14 1.39186E-12
 -1      1166 2.23727E+01 1.62660E-01 3.16721E-01-3.44190E-02-3.58030E-14 9.87196E-13
 -1      1167 2.16876E+01 8.49536E-02 1.17614E-01-1.10557E-01-2.63478E-14 6.41404E-13
 -1      1168 2.00939E+01-1.84494E-02-5.02363E-02-1.19911E-01 2.42039E-14 1.55959E-13
 -1      1169 1.87750E+01-1.00359E-01-1.75429E-01-5.91254E-02-1.38448E-14 1.14950E-13
 -1      1170 1.86422E+01-1.14510E-01-1.94491E-01 3.56289E-02-8.69478E-14 3.52704E-14
 -1      1171 1.98435E+01-6.15892E-02-1.07744E-01 1.07371E-01 2.12079E-14-1.67533E-13
 -1      1172 2.17792E+01 1.19200E-02 1.31380E-02 1.23014E-01-1.76139E-15 3.01148E-15
 -1      1173 2.36149E+01 5.95950E-02 9.46223E-02 9.23391E-02-2.40433E-14-8.60007E-14
 -1      1174 2.47946E+01 7.03933E-02 1.14132E-01 4.59708E-02-5.73413E-15-4.85723E-15
 -1      1175 2.51904E+01 5.68253E-02 9.16026E-02 7.67851E-03 4.82687E-15 4.99947E-15
 -1      1176 2.49602E+01 3.53574E-02 5.55973E-02-1.47043E-02-1.42646E-14-1.95066E-13
 -1      1177 2.43501E+01 1.60385E-02 2.40611E-02-2.36087E-02-4.73907E-14-5.88987E-13
 -1      1178 2.35745E+01 2.41536E-03 2.90688E-03-2.43583E-02 4.20551E-14-6.88741E-13
 -1      1179 2.27774E+01-5.67905E-03-8.72076E-03-2.14027E-02-4.05928E-14-3.14252E-13
 -1      1180 2.20392E+01-9.77709E-03-1.39007E-02-1.74331E-02-1.65508E-14 9.57741E-14
 -1      1181 2.13964E+01-1.15267E-02-1.56792E-02-1.36888E-02 4.34280E-14 1.64859E-13
 -1      1182 2.08624E+01-1.22496E-02-1.64295E-02-1.04451E-02-2.44520E-14 3.89258E-13
 -1      1183 2.04422E+01-1.28356E-02-1.77307E-02-7.27757E-03 5.87013E-14 4.90209E-13
 -1      1184 2.01442E+01-1.33935E-02-1.94420E-02-2.91663E-03 2.89092E-15 1.01104E-12
 -1      1185 1.99900E+01-1.46977E-02-1.55405E-02 5.28669E-03-6.56122E-14 7.37233E-13
 -1      1186 1.99812E+01 6.52806E-03 1.37654E-02 6.60761E-03 3.11345E-14 4.11635E-13
 -1      1187 2.77804E+01 5.25617E-01 3.77325E-01 1.96639E+00-1.69587E-14 1.79207E-12
 -1      1188 2.00711E+01-6.62100E-02-5.73518E-01 1.29563E-01 1.20563E-14 1.32497E-12
 -1      1189 1.88917E+01-4.05939E-02-1.93214E-01 1.94826E-02 1.12922E-14 8.99092E-13
 -1      1190 1.85098E+01-2.14227E-02-5.05483E-02 1.53685E-03 8.27897E-15 5.69517E-13
 -1      1191 1.84364E+01-1.24376E-02-1.34106E-02-3.96814E-03 1.40920E-14 3.55566E-13
 -1      1192 1.85099E+01-7.47331E-03-4.70171E-03-5.37571E-03 1.17760E-14 1.63404E-13
 -1      1193 1.86523E+01-4.45665E-03-2.03441E-03-5.49925E-03-9.33308E-15 2.08462E-13
 -1      1194 1.88228E+01-2.57570E-03-5.47177E-04-5.13364E-03-1.26478E-14 2.64597E-13
 -1      1195 1.89990E+01-1.43135E-03 4.22134E-04-4.52844E-03-6.82305E-15 9.06497E-14
 -1      1196 1.91691E+01-8.02658E-04 9.20108E-04-3.79589E-03 1.10756E-14 3.99333E-15
 -1      1197 1.93279E+01-5.55720E-04 9.92389E-04-3.00150E-03 1.04290E-14-9.88584E-14
 -1      1198 1.94744E+01-6.06887E-04 7.04012E-04-2.18781E-03 9.61066E-15-2.47349E-13
 -1      1199 1.96114E+01-9.03946E-04 1.09324E-04-1.38414E-03 8.97419E-15-2.70622E-13
 -1      1200 1.97436E+01-1.41461E-03-7.57805E-04-6.13598E-04-5.37314E-15-3.58783E-13
 -1      1201 1.98780E+01-2.11730E-03-1.88044E-03 1.00256E-04 2.38397E-14-4.49163E-13
 -1      1202 2.00234E+01-2.99132E-03-3.24905E-03 7.25916E-04-4.59062E-15-4.09574E-13
 -1      1203 2.01900E+01-4.00425E-03-4.84668E-03 1.21482E-03-2.69900E-14-3.05942E-13
 -1      1204 2.03891E+01-5.09378E-03-6.62622E-03 1.49017E-03 2.70690E-14-3.18143E-13
 -1      1205 2.06331E+01-6.14105E-03-8.47422E-03 1.43362E-03 1.48223E-14-5.44215E-13
 -1      1206 2.09339E+01-6.93291E-03-1.01544E-02 8.71422E-04 2.29004E-14-6.40165E-13
 -1      1207 2.13019E+01-7.11319E-03-1.12239E-02-4.33963E-04-8.21619E-15-4.46393E-13
 -1      1208 2.17422E+01-6.13320E-03-1.09249E-02-2.77209E-03-1.79531E-14-1.93380E-13
 -1      1209 2.22501E+01-3.23359E-03-8.07932E-03-6.42151E-03 3.36000E-14-5.84664E-13
 -1      1210 2.28035E+01 2.46626E-03-1.08487E-03-1.14820E-02-1.45043E-15-9.22002E-13
 -1      1211 2.33527E+01 1.16356E-02 1.17697E-02-1.75333E-02-3.21054E-15-8.83935E-13
 -1      1212 2.38103E+01 2.39864E-02 3.13093E-02-2.30933E-02 4.08859E-14-9.11288E-13
 -1      1213 2.40460E+01 3.70929E-02 5.54840E-02-2.50581E-02-1.57192E-14-7.92267E-13
 -1      1214 2.38999E+01 4.54123E-02 7.68710E-02-1.88181E-02-3.08469E-14-7.16135E-13
 -1      1215 2.88664E+01 2.44394E-01 1.13290E+00 6.24319E-01 1.63411E-15-4.89969E-13
 -1      1216 2.47100E+01 8.26902E-04 2.09301E-02 9.00933E-02 3.96211E-15-4.94632E-13
 -1      1217 2.23495E+01-2.96648E-02-7.27287E-02 8.16119E-02 9.46639E-15-4.83363E-13
 -1      1218 2.04100E+01-5.61100E-02-1.07105E-01 8.72083E-02 4.24296E-14-5.17281E-13
 -1      1219 1.92041E+01-6.56254E-02-1.34669E-01 7.03901E-02-2.33919E-14-3.48332E-14
 -1      1220 1.90115E+01-5.06936E-02-1.25196E-01 3.00954E-02-3.48332E-14 5.42771E-13
 -1      1221 1.97747E+01-2.14464E-02-7.46869E-02-1.72648E-02-2.81407E-14 4.97984E-13
 -1      1222 2.10911E+01 5.90685E-03-9.55050E-03-5.07068E-02 4.98848E-14 2.68036E-13
 -1      1223 2.24387E+01 2.16529E-02 3.99980E-02-6.07939E-02 3.22830E-14-3.31332E-14
 -1      1224 2.34271E+01 2.54609E-02 6.06299E-02-5.15803E-02-1.12271E-14-9.99478E-14
 -1      1225 2.39017E+01 2.17604E-02 5.72467E-02-3.34800E-02 5.93531E-14-1.36616E-13
 -1      1226 2.39021E+01 1.52210E-02 4.18649E-02-1.54208E-02 1.40738E-14-1.42798E-14
 -1      1227 2.35628E+01 8.78435E-03 2.45725E-02-1.84109E-03 3.86605E-15 1.77780E-13
 -1      1228 2.30308E+01 3.70508E-03 1.05865E-02 6.49286E-03 6.10410E-14-3.92087E-13
 -1      1229 2.24244E+01 1.58872E-04 1.20110E-03 1.06348E-02 1.08185E-14-6.66068E-13
 -1      1230 2.18226E+01-2.20124E-03-4.35293E-03 1.20923E-02-2.10119E-14-2.12563E-13
 -1      1231 2.12718E+01-3.89833E-03-7.56296E-03 1.21535E-02 1.72152E-14-9.61037E-16
 -1      1232 2.07969E+01-5.44320E-03-9.98275E-03 1.16599E-02-1.43012E-14-4.62151E-13
 -1      1233 2.04133E+01-7.25727E-03-1.28805E-02 1.09204E-02 3.08429E-14-8.92813E-13
 -1      1234 2.01366E+01-9.01488E-03-1.59340E-02 9.19106E-03 1.70567E-15-1.20062E-12
 -1      1235 1.99907E+01-7.06422E-03-1.25151E-02 3.51139E-03 8.48852E-14-1.39773E-12
 -1      1236 1.99847E+01 5.39656E-03 1.32055E-02-5.53442E-03-1.55908E-16-9.45200E-13
 -1      1237 2.00051E+01-1.60615E-02 1.22603E-02-5.35512E-03-9.35036E-13 1.20771E-14
 -1      1238 1.99900E+01-5.58512E-03-1.35966E-02-4.24773E-03-5.87560E-13 1.04261E-13
 -1      1239 1.99906E+01 1.41317E-01-1.50024E-02 4.95616E-03-3.38682E-13-8.57400E-14
 -1      1240 1.99950E+01 3.96282E-01-8.13353E-03 9.16597E-03-2.86394E-13 1.75373E-14
 -1      1241 2.00002E+01 7.03442E-01-1.80017E-04 1.03828E-02 2.83841E-13 7.69824E-14
 -1      1242 2.00050E+01 1.00755E+00 6.79974E-03 9.55607E-03 4.25599E-13-1.55056E-14
 -1      1243 2.00090E+01 1.26575E+00 1.22431E-02 7.47217E-03 1.01876E-12 1.84696E-13
 -1      1244 2.00118E+01 1.44348E+00 1.59910E-02 4.21753E-03 1.52353E-12-8.63780E-14
 -1      1245 2.00130E+01 1.51290E+00 1.75915E-02 3.55601E-04 1.30718E-12-1.01931E-13
 -1      1246 2.00124E+01 1.46320E+00 1.68238E-02-3.63921E-03 1.05890E-12-6.17177E-14
 -1      1247 2.00100E+01 1.29959E+00 1.36180E-02-7.23572E-03-5.56803E-14-2.35580E-13
 -1      1248 2.00062E+01 1.04600E+00 8.24825E-03-9.90138E-03-1.52699E-12 6.35259E-14
 -1      1249 2.00010E+01 7.36795E-01 8.91667E-04-1.09807E-02-8.22785E-13 1.55066E-13
 -1      1250 1.99952E+01 4.16967E-01-8.02154E-03-1.00557E-02-4.74744E-13 8.36828E-14
 -1      1251 1.99901E+01 1.44109E-01-1.68480E-02-6.63870E-03-5.33593E-13 1.53243E-14
 -1      1252 1.99868E+01-3.77075E-04-1.30600E-02 8.80084E-03-6.76817E-13-5.74561E-14
 -1      1253 2.00063E+01-1.92383E-02 1.32344E-02 6.50536E-03-2.64662E-13-3.23085E-14
 -1      1254-1.05598E+00-2.23662E+01-3.59837E+00-2.10907E+00 6.52867E-13 7.02424E-14
 -1      1255-1.56162E+00-1.36162E+01-2.90277E+00-3.73070E+00 9.72666E-13 3.14193E-13
 -1      1256 1.00687E+00-8.13237E-01-1.61291E+00 8.21104E-01 7.52065E-13 3.38840E-13
 -1      1257 1.02835E+01 8.39929E+00-7.78901E-02 9.17267E+00 3.98792E-13 4.90941E-13
 -1      1258 2.63151E+01 1.07865E+01 1.53344E+00 1.60725E+01 3.24185E-14 5.06262E-14
 -1      1259 4.52792E+01 7.62932E+00 2.93502E+00 1.67489E+01-1.65423E-14-2.48690E-14
 -1      1260 5.98043E+01 2.99612E+00 3.75559E+00 9.06523E+00-4.00235E-14-6.72351E-13
 -1      1261 6.26546E+01 1.60701E+00 3.81820E+00-3.72595E+00 1.85570E-13-1.21325E-12
 -1      1262 5.17254E+01 5.24043E+00 3.09862E+00-1.40660E+01 6.86423E-13-2.01816E-12
 -1      1263 3.27387E+01 9.71100E+00 1.77926E+00-1.68889E+01 1.33682E-12-2.45537E-12
 -1      1264 1.45076E+01 9.99362E+00 2.55965E-01-1.17823E+01 1.98264E-12-2.13451E-12
 -1      1265 3.19971E+00 3.36572E+00-1.07008E+00-3.53305E+00 1.78235E-12-1.34215E-12
 -1      1266-8.84182E-01-7.31961E+00-2.09660E+00 2.07155E+00 3.20188E-13-2.48912E-13
 -1      1267-8.96551E-01-1.66554E+01-2.76463E+00 2.27146E+00-6.61249E-13 8.23785E-14
 -1      1268-7.96071E-01-2.07390E+01-3.14878E+00-1.13629E+00-1.24263E-12-1.03771E-13
 -1      1269-1.78621E+00-1.73438E+01-3.20886E+00-4.31163E+00-1.63447E-12-4.51361E-13
 -1      1270-1.70302E+00-7.78286E+00-2.65814E+00-3.03049E+00-1.95333E-12-1.08613E-12
 -1      1271 4.06837E+00 2.81968E+00-1.37856E+00 3.69404E+00-1.69953E-12-1.39133E-12
 -1      1272 1.85976E+01 8.88997E+00 5.28162E-01 1.23584E+01-9.40359E-13-1.14486E-12
 -1      1273 3.95870E+01 8.15038E+00 2.42462E+00 1.64806E+01-3.93241E-13-7.94698E-13
 -1      1274 5.87518E+01 3.87145E+00 3.87817E+00 1.19006E+01-5.82312E-14-3.50164E-13
 -1      1275 6.66291E+01 1.76551E+00 4.36249E+00 7.44151E-02-2.71450E-14 5.54001E-14
 -1      1276 6.10124E+01 3.94818E+00 4.00831E+00-1.22050E+01-1.15172E-13 3.93685E-13
 -1      1277 4.43469E+01 8.83656E+00 2.85541E+00-1.83176E+01-4.59854E-13 1.05427E-12
 -1      1278 2.45216E+01 1.14333E+01 1.29053E+00-1.61219E+01-8.15126E-13 1.11955E-12
 -1      1279 8.59890E+00 7.66187E+00-3.99092E-01-8.05377E+00-5.87086E-13 6.71685E-13
 -1      1280 2.56829E-01-2.31296E+00-1.90482E+00 1.54563E-01-7.64722E-13 1.57430E-13
 -1      1281-1.59478E+00-1.43847E+01-3.02965E+00 3.75872E+00-1.54865E-12 5.38403E-13
 -1      1282-9.93465E-01-2.26104E+01-3.64319E+00 1.99153E+00-1.12577E-13 1.25483E-13
 -1      1283 2.22554E+01 1.83759E+00-7.25777E-01-2.79127E+00-3.91631E-14 1.10362E-12
 -1      1284 2.03521E+01 4.68911E+00-4.86421E-02-3.30902E+00-1.46050E-13 1.03660E-13
 -1      1285 2.08576E+01 4.80918E+00-1.13511E-01-4.16272E+00-1.80467E-13 3.40269E-13
 -1      1286 1.95278E+01 4.99251E+00-1.96652E-02-2.65689E+00-1.56063E-13-2.39836E-13
 -1      1287 1.98243E+01 5.08890E+00 1.76314E-04-3.04778E+00-1.74361E-13-8.59313E-14
 -1      1288 2.05194E+01 3.95203E+00-2.59316E-02-3.07699E+00-2.59896E-13 8.32390E-14
 -1      1289 1.91839E+01 5.08432E+00-3.50082E-03-2.07326E+00-1.35787E-13-4.19234E-13
 -1      1290 1.93308E+01 5.13900E+00 1.05354E-02-2.36609E+00-1.53523E-13-3.36980E-13
 -1      1291 1.97504E+01 4.36536E+00-2.45192E-02-2.49149E+00-2.51549E-13-1.98681E-13
 -1      1292 1.90123E+01 5.13136E+00 3.33313E-03-1.56680E+00-1.11734E-13-5.14477E-13
 -1      1293 1.90884E+01 5.16050E+00 1.25614E-02-1.81702E+00-1.23613E-13-4.71803E-13
 -1      1294 1.93924E+01 4.55477E+00-2.00313E-02-1.93409E+00-2.10392E-13-3.55011E-13
 -1      1295 1.89210E+01 5.16183E+00 6.57362E-03-1.11874E+00-7.95280E-14-5.61981E-13
 -1      1296 1.89623E+01 5.17781E+00 1.27087E-02-1.34041E+00-9.11059E-14-5.31838E-13
 -1      1297 1.92097E+01 4.66196E+00-1.60996E-02-1.44628E+00-1.67254E-13-4.28043E-13
 -1      1298 1.88713E+01 5.18198E+00 8.24099E-03-6.94987E-01-5.75119E-14-5.85721E-13
 -1      1299 1.88935E+01 5.19058E+00 1.20043E-02-9.05489E-01-6.44736E-14-5.76287E-13
 -1      1300 1.91089E+01 4.72775E+00-1.40102E-02-1.00566E+00-1.21275E-13-4.77392E-13
 -1      1301 1.88484E+01 5.19412E+00 9.34105E-03-2.89668E-01-2.64481E-14-5.98840E-13
 -1      1302 1.88579E+01 5.19783E+00 1.11106E-02-4.92091E-01-3.77936E-14-5.88489E-13
 -1      1303 1.90549E+01 4.76694E+00-1.29037E-02-5.89651E-01-7.85138E-14-4.89116E-13
 -1      1304 1.88449E+01 5.19911E+00 1.02724E-02 1.08380E-01-5.65260E-15-6.05179E-13
 -1      1305 1.88445E+01 5.19898E+00 1.02014E-02-9.16016E-02-1.36688E-14-6.00789E-13
 -1      1306 1.90316E+01 4.78514E+00-1.24452E-02-1.89380E-01-3.20082E-14-5.02334E-13
 -1      1307 1.88596E+01 5.19747E+00 1.12077E-02 5.09449E-01 2.16498E-14-6.09448E-13
 -1      1308 1.88494E+01 5.19349E+00 9.27925E-03 3.06607E-01 1.07660E-14-6.08564E-13
 -1      1309 1.90324E+01 4.78451E+00-1.24614E-02 2.06063E-01 4.65104E-15-5.06567E-13
 -1      1310 1.88968E+01 5.18943E+00 1.21364E-02 9.24317E-01 3.99455E-14-6.03488E-13
 -1      1311 1.88738E+01 5.18064E+00 8.18837E-03 7.12856E-01 3.38382E-14-6.10656E-13
 -1      1312 1.90575E+01 4.76489E+00-1.29491E-02 6.06999E-01 4.63323E-14-5.12812E-13
 -1      1313 1.89665E+01 5.17591E+00 1.29325E-02 1.35805E+00 6.73836E-14-5.71092E-13
 -1      1314 1.89244E+01 5.15951E+00 6.50247E-03 1.13492E+00 5.67888E-14-5.90807E-13
 -1      1315 1.91133E+01 4.72412E+00-1.39734E-02 1.02082E+00 8.17612E-14-5.01755E-13
 -1      1316 1.90964E+01 5.15679E+00 1.28409E-02 1.84310E+00 1.06659E-13-5.21250E-13
 -1      1317 1.90184E+01 5.12689E+00 3.19581E-03 1.59014E+00 9.45589E-14-5.49567E-13
 -1      1318 1.92164E+01 4.65528E+00-1.61240E-02 1.46437E+00 1.35500E-13-4.62328E-13
 -1      1319 1.93416E+01 5.13284E+00 1.01520E-02 2.40034E+00 1.48402E-13-4.18506E-13
 -1      1320 1.91933E+01 5.07624E+00-4.33170E-03 2.10305E+00 1.25379E-13-4.80296E-13
 -1      1321 1.94060E+01 4.54236E+00-1.99707E-02 1.96037E+00 1.90637E-13-4.05505E-13
 -1      1322 1.98495E+01 5.09817E+00 5.97992E-03 3.08619E+00 1.76095E-13-2.14176E-13
 -1      1323 1.95394E+01 4.98371E+00-2.05154E-02 2.69903E+00 1.55445E-13-3.40641E-13
 -1      1324 1.97716E+01 4.34593E+00-2.45615E-02 2.53031E+00 2.50173E-13-2.83495E-13
 -1      1325 2.10937E+01 4.90548E+00 8.20098E-03 4.05537E+00 1.67727E-13 2.17881E-13
 -1      1326 2.03265E+01 4.73271E+00-4.79786E-02 3.41831E+00 1.62967E-13-5.06678E-14
 -1      1327 2.05574E+01 3.91524E+00-2.24439E-02 3.18040E+00 2.80803E-13-4.25493E-14
 -1      1328 2.71903E+01 3.20444E+00 9.28847E-01 4.58236E+00 9.73804E-14 1.10778E-12
 -1      1329 2.20092E+01 3.52123E+00-1.81981E-01 3.88601E+00 9.64784E-14 4.78784E-13
 -1      1330 2.21016E+01 2.56133E+00-3.26347E-02 3.45810E+00 2.78043E-13 3.56493E-13
 -1      1331 2.14142E+01 3.59678E-01-7.63398E-01 1.18482E+00 1.67623E-13 1.03456E-12
 -1      1332 2.19882E+01 1.31505E-01-4.00848E-01-1.28659E+00-1.30534E-13 1.14225E-12
 -1      1333 2.06645E+01 3.06745E-01-1.64862E-01-8.06551E-01-1.34136E-13 9.87620E-13
 -1      1334 2.00664E+01 1.53472E-01-7.35223E-02-4.02985E-01-1.13604E-13 9.04384E-13
 -1      1335 1.95955E+01 9.11840E-02-1.49327E-02-3.30816E-01-1.06082E-13 7.48651E-13
 -1      1336 2.09600E+01 3.69079E-01-1.04288E-01-1.27540E+00-2.37560E-13 5.50636E-13
 -1      1337 1.92375E+01 6.44995E-02 3.04938E-03-1.36207E-01-8.59382E-14 6.77944E-13
 -1      1338 1.90820E+01 4.12938E-02 1.32322E-02-1.18407E-01-9.46552E-14 5.48950E-13
 -1      1339 1.99082E+01 1.33904E-01-3.51458E-02-5.05590E-01-1.96551E-13 4.29419E-13
 -1      1340 1.89211E+01 3.15608E-02 1.32662E-02-2.88135E-02-6.91448E-14 4.76820E-13
 -1      1341 1.89007E+01 1.94553E-02 1.10824E-02-1.94130E-02-6.61671E-14 3.80236E-13
 -1      1342 1.94299E+01 5.54756E-02-8.53054E-03-1.71557E-01-1.52513E-13 3.03195E-13
 -1      1343 1.88443E+01 1.60786E-02 8.81592E-03 2.43959E-02-4.05494E-14 3.64531E-13
 -1      1344 1.88858E+01 9.19508E-03 6.47746E-03 2.90623E-02-3.83730E-14 3.17121E-13
 -1      1345 1.92202E+01 2.44936E-02-3.52365E-03-1.24236E-02-9.93485E-14 2.07394E-13
 -1      1346 1.88859E+01 7.99233E-03 4.72455E-03 5.05315E-02-3.46789E-14 3.03481E-13
 -1      1347 1.89558E+01 3.71991E-03 3.69693E-03 5.24988E-02-3.27478E-14 2.64740E-13
 -1      1348 1.91632E+01 1.03597E-02-2.26205E-03 6.68250E-02-6.73303E-14 1.85144E-13
 -1      1349 1.89860E+01 3.44121E-03 2.50825E-03 6.18477E-02-2.02692E-14 2.72006E-13
 -1      1350 1.90669E+01 6.94025E-04 2.28553E-03 6.22574E-02-2.45479E-14 2.10018E-13
 -1      1351 1.91902E+01 3.10303E-03-1.40464E-03 1.04701E-01-5.03574E-14 1.56020E-13
 -1      1352 1.91123E+01 8.66912E-04 1.41491E-03 6.48563E-02-2.91275E-14 1.86276E-13
 -1      1353 1.91947E+01-8.95412E-04 1.53964E-03 6.44088E-02-1.10116E-14 1.54689E-13
 -1      1354 1.92618E+01-7.33732E-04-6.90479E-04 1.19752E-01-6.20377E-14 1.39580E-13
 -1      1355 1.92467E+01-4.79178E-04 8.50056E-04 6.34437E-02-2.74141E-14 1.34893E-13
 -1      1356 1.93260E+01-1.55843E-03 1.10389E-03 6.26074E-02-8.29238E-14 5.00372E-14
 -1      1357 1.93553E+01-2.59029E-03-1.99626E-04 1.22246E-01-6.60981E-14 8.13212E-14
 -1      1358 1.93800E+01-1.00143E-03 5.36236E-04 6.01455E-02-7.89237E-14 3.69093E-14
 -1      1359 1.94543E+01-1.58318E-03 8.33385E-04 5.92509E-02-1.46199E-14-5.36442E-15
 -1      1360 1.94578E+01-3.17120E-03 6.12794E-05 1.18525E-01-1.03543E-13 7.38189E-14
 -1      1361 1.95083E+01-9.35301E-04 3.56403E-04 5.67281E-02-2.05350E-14-8.02138E-14
 -1      1362 1.95778E+01-1.14215E-03 6.67714E-04 5.60197E-02-3.44152E-14-8.12568E-14
 -1      1363 1.95627E+01-2.86346E-03 1.30480E-04 1.12828E-01-6.03199E-14-4.27304E-14
 -1      1364 1.96317E+01-4.21427E-04 2.56284E-04 5.44980E-02-1.52055E-14-9.67262E-14
 -1      1365 1.96982E+01-3.38614E-04 5.76680E-04 5.41676E-02-1.87297E-14-1.07849E-13
 -1      1366 1.96678E+01-1.89071E-03 4.92414E-05 1.08185E-01-5.65359E-14-1.54437E-13
 -1      1367 1.97532E+01 4.58956E-04 2.04864E-04 5.44891E-02 9.92113E-15-8.04884E-14
 -1      1368 1.98196E+01 7.69189E-04 5.41137E-04 5.46990E-02 1.97118E-14-4.42118E-14
 -1      1369 1.97740E+01-3.78632E-04-1.51842E-04 1.06905E-01 1.58325E-15-1.98939E-13
 -1      1370 1.98778E+01 1.66410E-03 1.79944E-04 5.75841E-02-2.47984E-16-1.68447E-14
 -1      1371 1.99481E+01 2.15237E-03 5.45912E-04 5.84838E-02-4.10343E-14-4.93128E-15
 -1      1372 1.98846E+01 1.61162E-03-4.53426E-04 1.10879E-01 1.95137E-15-1.20002E-13
 -1      1373 2.00128E+01 3.17752E-03 1.62077E-04 6.45941E-02-4.35439E-14 4.02712E-14
 -1      1374 2.00920E+01 3.79786E-03 5.76031E-04 6.63304E-02-4.81671E-14-1.04190E-14
 -1      1375 2.00047E+01 4.06123E-03-8.44503E-04 1.21778E-01-1.19428E-14-1.37211E-14
 -1      1376 2.01670E+01 4.99420E-03 1.30961E-04 7.62984E-02-6.20838E-14-3.84024E-16
 -1      1377 2.02611E+01 5.69279E-03 6.13495E-04 7.90200E-02-6.36060E-14-7.78598E-14
 -1      1378 2.01414E+01 6.97272E-03-1.31882E-03 1.41159E-01-5.77728E-14 7.67829E-15
 -1      1379 2.03512E+01 7.10236E-03 6.25663E-05 9.34402E-02-5.90231E-14-9.84790E-14
 -1      1380 2.04669E+01 7.80188E-03 6.33841E-04 9.72920E-02-3.58852E-14-1.25670E-13
 -1      1381 2.03030E+01 1.03427E-02-1.87069E-03 1.70497E-01-7.09344E-14-4.26555E-14
 -1      1382 2.05772E+01 9.45519E-03-7.30637E-05 1.16653E-01-1.79708E-14-1.87166E-13
 -1      1383 2.07221E+01 1.00315E-02 6.02736E-04 1.21755E-01-1.76428E-14-2.04707E-13
 -1      1384 2.04991E+01 1.41183E-02-2.48916E-03 2.11096E-01-7.69287E-14-1.05560E-13
 -1      1385 2.08582E+01 1.19236E-02-3.12020E-04 1.46275E-01-3.20200E-14-2.87271E-13
 -1      1386 1.60849E+01-2.57125E+00-2.15800E+00 1.23647E+00-8.89788E-13 9.95204E-13
 -1      1387 2.07400E+01 1.81241E-02-3.14900E-03 2.63816E-01-1.01160E-13-2.81020E-13
 -1      1388 8.13897E+00-4.41466E+00-3.48163E+00 3.61959E+00-7.31387E-13 4.11782E-12
 -1      1389 1.15246E+01-5.65431E-01-2.12183E-01 1.31492E+00 2.35922E-13 3.78179E-12
 -1      1390 1.31229E+01-3.04044E+00-1.85983E+00 1.49278E+00 1.97689E-13 2.25175E-12
 -1      1391 1.10276E+01-2.05148E-01-2.12244E-01 1.00817E+00 2.12670E-13 4.32433E-12
 -1      1392 1.25008E+01 1.18632E-02-9.73247E-03 8.50982E-01 1.06248E-13 4.48838E-12
 -1      1393 1.11001E+01-1.21569E+00-5.53018E-01 2.17708E+00 4.22705E-13 4.03723E-12
 -1      1394 1.31463E+01 1.83888E-01-8.74240E-02 1.04017E+00-1.80940E-14 4.59294E-12
 -1      1395 1.48004E+01 3.31861E-01-3.21446E-01 1.27562E+00-2.94507E-13 4.21069E-12
 -1      1396 1.16527E+01 1.73974E-01-9.20801E-02 1.85409E+00 3.28730E-14 4.68514E-12
 -1      1397 1.50073E+01 7.99961E-01-7.32097E-01 2.04717E+00-5.78065E-13 4.22173E-12
 -1      1398 1.88770E+01 1.16139E+00-7.05102E-01 4.19724E+00-7.38798E-13 1.64846E-12
 -1      1399 1.25937E+01 1.31190E+00-2.88757E-01 3.04858E+00-9.09543E-13 4.78328E-12
 -1      1400 9.28722E+00 3.19040E+00-3.50342E+00 3.24640E+00-5.95329E-13 8.54117E-12
 -1      1401 1.16840E+01 8.99927E+00-6.09454E-01 1.12161E+01-2.91199E-11 3.98742E-12
 -1      1402 9.53819E+00 5.22511E+00-9.49301E-01 3.40083E+00-4.06319E-12 6.43130E-12
 -1      1403-5.49071E+00-1.87222E+01-1.26634E+01 1.27951E+01-2.28619E-11 2.46194E-11
 -1      1404 2.65729E+01-8.60660E+00 5.47225E+00 5.45199E+00 4.54925E-12-2.86082E-12
 -1      1405 6.77769E+00-1.22732E+01-6.59013E+00-9.76305E+00 1.07530E-11 1.32339E-11
 -1      1406 1.43093E+01-1.34186E+00 4.50597E+00 4.55159E+00-1.45262E-12 4.66738E-12
 -1      1407 1.63061E+01-2.40037E-01 3.27055E+00 1.80432E+00-1.54243E-12 2.33991E-12
 -1      1408 1.78345E+01-8.93597E+00 1.20975E+00 4.27031E+00-3.40261E-12 3.71259E-13
 -1      1409 1.80938E+01-6.25995E-02 2.30297E+00 1.68026E+00-5.70877E-13 1.89393E-12
 -1      1410 1.94234E+01-2.17956E-01 9.75106E-01 1.52220E+00-3.51941E-13 1.03773E-12
 -1      1411 1.77957E+01-1.83375E-01 2.05836E+00 3.68631E+00-1.91447E-12 6.99885E-13
 -1      1412 2.07259E+01-2.48213E-01 5.82660E-01 9.50259E-01-1.00385E-13 9.60454E-13
 -1      1413 2.17135E+01-3.05100E-01 1.97225E-01 7.88495E-01-4.03566E-14 7.33462E-13
 -1      1414 2.09735E+01-2.83887E-01 7.34383E-01 2.46380E+00-5.05762E-13 3.50886E-13
 -1      1415 2.21670E+01-2.65705E-01 9.41870E-02 1.68397E-01-9.21416E-14 7.39387E-13
 -1      1416 2.23204E+01-2.26104E-01 2.62591E-02 2.20650E-02-1.01287E-13 6.06723E-13
 -1      1417 2.25249E+01-4.92576E-01 1.82390E-01 9.37619E-01-1.69260E-13 3.37202E-13
 -1      1418 2.22374E+01-1.63584E-01 4.15451E-03-3.97927E-01-1.14202E-13 5.57519E-13
 -1      1419 2.17467E+01-8.29429E-02-5.99132E-03-4.70131E-01-1.18542E-13 3.86413E-13
 -1      1420 2.28182E+01-3.43132E-01 4.83540E-02-3.25663E-01-2.02026E-13 4.28789E-13
 -1      1421 2.13871E+01-8.66437E-03-1.83149E-02-5.72601E-01-9.29088E-14 3.23436E-13
 -1      1422 2.07365E+01 7.50192E-02-2.38783E-02-5.48203E-01-6.49424E-14 2.55261E-13
 -1      1423 2.23311E+01-7.71376E-02 1.79891E-03-9.61771E-01-2.08699E-13 2.92988E-13
 -1      1424 2.04153E+01 1.33774E-01-3.39904E-02-3.31397E-01-2.97921E-14 1.49200E-13
 -1      1425 2.00915E+01 1.76148E-01-3.62729E-02-2.30261E-01-9.19230E-14 5.31814E-14
 -1      1426 2.16140E+01 1.80927E-01-3.71686E-02-8.17721E-01-1.44515E-13 1.97030E-13
 -1      1427 2.00631E+01 1.85036E-01-3.74309E-02 1.49388E-01-8.25590E-14 7.59861E-14
 -1      1428 2.03151E+01 1.64459E-01-3.13472E-02 2.60811E-01-6.71928E-14-4.42806E-14
 -1      1429 2.12427E+01 3.11539E-01-5.65939E-02-7.31214E-02-6.88616E-14 5.26757E-14
 -1      1430 2.06240E+01 1.25805E-01-2.31352E-02 5.68332E-01-2.72681E-14 4.44089E-14
 -1      1431 2.13500E+01 6.38710E-02-1.13739E-02 6.25410E-01 2.30059E-14 2.75058E-14
 -1      1432 2.15210E+01 2.54179E-01-4.40640E-02 7.78124E-01-5.40713E-14 7.81510E-14
 -1      1433 2.18336E+01 1.49888E-02-2.63131E-03 7.11570E-01-2.64006E-14-5.17641E-14
 -1      1434 2.27077E+01-4.55778E-02 9.47252E-03 6.97884E-01 3.80646E-14-6.82857E-14
 -1      1435 2.23154E+01 8.02898E-02-8.75454E-03 1.25192E+00-2.70131E-14-5.86337E-14
 -1      1436 2.31456E+01-7.14226E-02 1.04038E-02 5.76066E-01 1.32030E-14-1.57839E-13
 -1      1437 2.38482E+01-1.03906E-01 1.82230E-02 5.19734E-01-7.85257E-14-1.39846E-13
 -1      1438 2.32218E+01-9.20142E-02 1.96421E-02 1.19027E+00-5.09323E-14-2.71262E-13
 -1      1439 2.41026E+01-1.01925E-01 1.23315E-02 3.00744E-01 3.24289E-14-2.54255E-13
 -1      1440 2.44738E+01-1.05781E-01 1.57817E-02 2.38386E-01 2.29088E-14-2.17482E-13
 -1      1441 2.38808E+01-1.76679E-01 2.95700E-02 7.63224E-01-6.09946E-14-2.88058E-13
 -1      1442 2.45163E+01-8.91823E-02 8.10418E-03 2.78774E-02-2.44700E-14-5.08985E-14
 -1      1443 2.45586E+01-7.70087E-02 8.84069E-03-1.91697E-02 2.66870E-14-9.82244E-14
 -1      1444 2.41394E+01-1.73025E-01 2.54477E-02 2.41165E-01 8.98587E-16-2.56668E-13
 -1      1445 2.44302E+01-5.90393E-02 3.14395E-03-1.68360E-01-9.44991E-15-1.61945E-13
 -1      1446 2.42338E+01-4.26802E-02 2.70085E-03-1.95330E-01-7.72169E-14-2.60399E-13
 -1      1447 2.40234E+01-1.23339E-01 1.61482E-02-1.87950E-01-2.80418E-15-1.56411E-13
 -1      1448 2.39977E+01-2.96395E-02 6.15264E-06-2.76238E-01-1.52119E-13-2.38688E-13
 -1      1449 2.36686E+01-1.54171E-02-8.31251E-04-2.86944E-01-1.52314E-13-4.63274E-13
 -1      1450 2.36422E+01-6.70558E-02 7.41073E-03-4.58312E-01-1.84386E-13-3.31219E-14
 -1      1451 2.33824E+01-8.23221E-03-1.13394E-03-3.14640E-01-7.82626E-15-5.42080E-13
 -1      1452 2.30050E+01 1.96324E-03-2.09391E-03-3.14938E-01 2.13404E-15-5.31389E-13
 -1      1453 2.31154E+01-2.34039E-02 1.29636E-03-5.83357E-01-2.13855E-13-1.41357E-13
 -1      1454 2.27106E+01 4.68567E-03-1.02308E-03-3.08866E-01 8.98366E-14-5.23205E-13
 -1      1455 2.23392E+01 1.12089E-02-2.03164E-03-3.03639E-01 6.62360E-14-4.00220E-13
 -1      1456 2.25387E+01 3.88697E-03-2.21434E-03-6.05683E-01 1.27083E-13-4.55639E-13
 -1      1457 2.20627E+01 1.12767E-02-4.18851E-04-2.79500E-01 6.43266E-14-1.42554E-13
 -1      1458 2.17266E+01 1.52062E-02-1.44227E-03-2.71908E-01 1.02027E-13-1.01395E-13
 -1      1459 2.19760E+01 1.81068E-02-3.87588E-03-5.67352E-01 2.10707E-13-3.96343E-13
 -1      1460 2.14818E+01 1.40863E-02 1.87514E-04-2.39710E-01 1.80249E-13-1.78250E-13
 -1      1461 2.11943E+01 1.65047E-02-8.31292E-04-2.31402E-01 1.30641E-13 1.26401E-14
 -1      1462 2.14642E+01 2.41728E-02-4.47254E-03-4.98739E-01 1.74285E-13-2.92143E-13
 -1      1463 2.09877E+01 1.52294E-02 5.02502E-04-1.96117E-01 8.67594E-14 1.79805E-13
 -1      1464 2.07539E+01 1.69944E-02-5.19898E-04-1.87625E-01 1.69473E-13 3.42931E-13
 -1      1465 2.10219E+01 2.63742E-02-4.61527E-03-4.17428E-01 2.44343E-13-1.12234E-13
 -1      1466 2.05883E+01 1.62756E-02 2.85456E-04-1.50460E-01 9.54488E-14 3.10316E-13
 -1      1467 2.04116E+01 1.79065E-02-7.10966E-04-1.41494E-01 2.10955E-14 4.08773E-13
 -1      1468 2.06571E+01 2.79608E-02-4.72751E-03-3.30670E-01 1.43051E-13 1.83078E-13
 -1      1469 2.02881E+01 1.81184E-02-5.79316E-04-1.01497E-01 9.91596E-14 3.55450E-13
 -1      1470 2.01739E+01 1.95155E-02-9.79662E-04-9.11554E-02 3.69106E-14 4.53599E-13
 -1      1471 2.03733E+01 3.11151E-02-4.88964E-03-2.38528E-01 6.27944E-14-2.86700E-14
 -1      1472 2.00909E+01 2.22990E-02-8.24901E-04-4.71599E-02-1.07566E-13 5.66141E-13
 -1      1473 2.00444E+01 1.89055E-02 1.12164E-03-3.53192E-02-1.49454E-13 3.72031E-13
 -1      1474 2.01701E+01 3.64154E-02-4.65920E-03-1.39459E-01 7.34200E-15 5.47151E-14
 -1      1475 1.99957E+01 2.66602E-03 3.59446E-03 6.27556E-03-3.33627E-13 3.03798E-13
 -1      1476 2.00346E+01 2.52844E-02-1.15259E-03-3.13722E-02-3.58759E-13 3.45479E-14
 -1      1477 2.02450E+01 7.54929E-02-1.52114E-01 4.84647E-01 1.25094E-13 7.47721E-13
 -1      1478 2.15164E+01 2.16081E-01-2.29280E-01 7.21658E-01 1.13021E-13 9.63618E-13
 -1      1479 2.17162E+01 8.81818E-01-8.54058E-02 2.06615E+00 2.33355E-13 5.73541E-13
 -1      1480 1.93149E+01 3.23837E-02-2.13454E-02 1.86783E-01 1.04746E-13 4.87443E-13
 -1      1481 1.97367E+01 1.13594E-01-6.27149E-02 2.38779E-01 9.65061E-14 6.48636E-13
 -1      1482 2.02897E+01 1.87721E-01-5.51678E-02 7.87589E-01 2.03400E-13 3.83719E-13
 -1      1483 1.89313E+01 1.51131E-02 5.66467E-03 5.42655E-02 6.65162E-14 2.77889E-13
 -1      1484 1.90710E+01 5.16088E-02 9.72129E-04 8.05527E-02 7.73808E-14 4.01065E-13
 -1      1485 1.95434E+01 7.18549E-02-1.21394E-02 3.00377E-01 1.67966E-13 2.36759E-13
 -1      1486 1.88192E+01 7.15229E-03 6.97586E-03-8.30171E-03 6.35911E-14 1.47375E-13
 -1      1487 1.88348E+01 2.58646E-02 1.10940E-02 6.07950E-03 5.21588E-14 2.42160E-13
 -1      1488 1.92068E+01 3.10693E-02-2.44862E-03 8.47896E-02 1.13990E-13 1.10589E-13
 -1      1489 1.88440E+01 3.27835E-03 4.77776E-03-3.87550E-02 9.85084E-15 8.66373E-14
 -1      1490 1.88011E+01 1.38589E-02 8.53319E-03-3.06302E-02 1.95722E-14 1.24907E-13
 -1      1491 1.90894E+01 1.33558E-02-1.61010E-03-2.04704E-02 6.83871E-14 5.27174E-14
 -1      1492 1.89378E+01 1.17803E-03 3.28194E-03-5.25841E-02-3.34034E-14 1.19198E-13
 -1      1493 1.88678E+01 7.40233E-03 5.38876E-03-4.80659E-02-2.68074E-14 7.77694E-14
 -1      1494 1.90905E+01 4.72494E-03-1.63608E-03-7.25562E-02-1.23131E-14 1.81474E-14
 -1      1495 1.90634E+01 1.53047E-05 2.48551E-03-5.72299E-02 3.56524E-14 9.73718E-14
 -1      1496 1.89830E+01 3.68059E-03 3.46272E-03-5.49040E-02 1.60716E-14 1.17741E-13
 -1      1497 1.91545E+01 2.10510E-04-1.40159E-03-9.62660E-02 4.67183E-15-4.02412E-15
 -1      1498 1.91999E+01-5.72194E-04 1.99913E-03-5.68618E-02 1.07382E-14-1.17627E-14
 -1      1499 1.91182E+01 1.51476E-03 2.37288E-03-5.58547E-02 3.96919E-14 5.06487E-14
 -1      1500 1.92498E+01-2.10136E-03-1.06019E-03-1.04228E-01 6.35571E-14-3.17611E-14
 -1      1501 1.93364E+01-7.71488E-04 1.62527E-03-5.40788E-02 4.69684E-14-8.69044E-14
 -1      1502 1.92579E+01 3.40980E-04 1.71083E-03-5.38040E-02 1.38523E-14-5.66973E-14
 -1      1503 1.93585E+01-3.08581E-03-7.69082E-04-1.03728E-01 6.33398E-14-1.02993E-13
 -1      1504 1.94679E+01-6.92694E-04 1.29459E-03-5.06286E-02 4.07920E-14-1.27328E-13
 -1      1505 1.93943E+01-1.46472E-04 1.27169E-03-5.06671E-02 3.37843E-14-7.66379E-14
 -1      1506 1.94709E+01-3.20217E-03-5.79299E-04-9.93863E-02 5.61316E-14-1.34260E-13
 -1      1507 1.95935E+01-4.03933E-04 9.86166E-04-4.77560E-02 6.44586E-14-1.95665E-13
 -1      1508 1.95247E+01-1.28317E-04 9.66260E-04-4.77902E-02 5.92900E-14-1.19120E-13
 -1      1509 1.95827E+01-2.71778E-03-4.94703E-04-9.43525E-02 4.75793E-14-9.16319E-14
 -1      1510 1.97156E+01 5.23008E-05 6.92009E-04-4.63984E-02 3.51678E-14-2.47489E-13
 -1      1511 1.96499E+01 2.85297E-04 7.53049E-04-4.61720E-02 3.26296E-14-2.23246E-13
 -1      1512 1.96933E+01-1.79466E-03-5.08410E-04-9.08985E-02 8.09044E-14-1.31059E-13
 -1      1513 1.98389E+01 6.49673E-04 4.06313E-04-4.73027E-02 1.97120E-14-3.00196E-13
 -1      1514 1.97733E+01 1.02743E-03 6.08367E-04-4.65949E-02-1.27161E-15-2.79490E-13
 -1      1515 1.98050E+01-5.32262E-04-6.15315E-04-9.07570E-02 5.04086E-14-1.73688E-13
 -1      1516 1.99696E+01 1.37029E-03 1.22898E-04-5.10959E-02-1.67525E-14-3.18952E-13
 -1      1517 1.99006E+01 2.05741E-03 5.15487E-04-4.97043E-02 3.16959E-14-2.92372E-13
 -1      1518 1.99219E+01 1.00788E-03-8.14118E-04-9.53209E-02 3.44806E-14-2.16235E-13
 -1      1519 2.01160E+01 2.19634E-03-1.64487E-04-5.83155E-02-4.52474E-14-2.78537E-13
 -1      1520 2.00388E+01 3.34626E-03 4.60286E-04-5.60482E-02-1.73363E-14-3.00117E-13
 -1      1521 2.00499E+01 2.78267E-03-1.10597E-03-1.05752E-01-3.11863E-14-2.27798E-13
 -1      1522 2.02873E+01 3.09924E-03-4.60569E-04-6.93977E-02-2.14140E-14-2.38333E-13
 -1      1523 2.01967E+01 4.85998E-03 4.28925E-04-6.60748E-02-2.90251E-14-2.68128E-13
 -1      1524 2.01962E+01 4.74656E-03-1.49156E-03-1.23009E-01-3.17825E-14-2.39447E-13
 -1      1525 2.04934E+01 4.02425E-03-7.65176E-04-8.46085E-02 8.31672E-14-3.53896E-13
 -1      1526 2.03838E+01 6.53680E-03 4.06221E-04-8.00793E-02 7.49793E-14-2.51834E-13
 -1      1527 2.03690E+01 6.82462E-03-1.96616E-03-1.47779E-01 4.12445E-14-2.70327E-13
 -1      1528 2.07449E+01 4.86790E-03-1.06664E-03-1.03896E-01 7.26091E-14-4.72980E-13
 -1      1529 2.06102E+01 8.25374E-03 3.74839E-04-9.80781E-02 6.08958E-14-3.94573E-13
 -1      1530 2.05767E+01 8.87432E-03-2.51120E-03-1.80285E-01 1.14023E-13-2.69660E-13
 -1      1531 2.10506E+01 5.44584E-03-1.32937E-03-1.26627E-01-5.35453E-14-4.49687E-13
 -1      1532 2.08858E+01 9.77707E-03 3.16410E-04-1.19580E-01-1.47788E-14-4.33919E-13
 -1      1533 2.08273E+01 1.06297E-02-3.08020E-03-2.19917E-01 2.28281E-14-2.81016E-13
 -1      1534 2.14167E+01 5.45062E-03-1.47210E-03-1.51162E-01-9.33167E-14-2.02719E-13
 -1      1535 2.12181E+01 1.06927E-02 2.17038E-04-1.43217E-01-1.02774E-13-3.69149E-13
 -1      1536 2.11270E+01 1.16220E-02-3.57620E-03-2.64607E-01-1.43417E-13-2.67224E-13
 -1      1537 2.18424E+01 4.40685E-03-1.33427E-03-1.74238E-01 1.03624E-13-2.33997E-13
 -1      1538 2.16102E+01 1.03199E-02 8.11766E-05-1.66194E-01 1.44930E-14-2.22150E-13
 -1      1539 2.14780E+01 1.10783E-02-3.81902E-03-3.09901E-01-3.45045E-14-1.50223E-13
 -1      1540 2.23151E+01 1.65010E-03-6.35569E-04-1.90179E-01 1.04965E-13-5.12361E-13
 -1      1541 2.20563E+01 7.63451E-03-4.19112E-05-1.83574E-01 1.46697E-13-2.85902E-13
 -1      1542 2.18749E+01 7.82178E-03-3.50572E-03-3.47686E-01 1.87780E-13-2.52753E-13
 -1      1543 2.28037E+01-3.60480E-03 1.04308E-03-1.90128E-01 4.80205E-14-6.66932E-13
 -1      1544 2.25362E+01 1.27817E-03-2.03757E-05-1.87541E-01 4.27081E-14-6.12050E-13
 -1      1545 2.23007E+01 2.51817E-04-2.18360E-03-3.64784E-01 1.41002E-13-3.18997E-13
 -1      1546 2.32507E+01-1.19789E-02 4.17963E-03-1.61884E-01-2.43210E-14-6.16226E-13
 -1      1547 2.30080E+01-1.01765E-02 3.88455E-04-1.67101E-01-3.63258E-14-6.38205E-13
 -1      1548 2.27211E+01-1.34106E-02 7.10727E-04-3.42068E-01-1.55969E-14-4.76077E-13
 -1      1549 2.35669E+01-2.32508E-02 8.99176E-03-9.15650E-02-2.55082E-14-5.57833E-13
 -1      1550 2.34014E+01-2.74268E-02 1.49352E-03-1.09223E-01-4.10436E-15-5.50009E-13
 -1      1551 2.30797E+01-3.42720E-02 5.64280E-03-2.55654E-01-3.57544E-14-2.69950E-13
 -1      1552 2.36357E+01-3.51864E-02 1.47479E-02 3.09546E-02-6.99015E-14-4.55142E-13
 -1      1553 2.36165E+01-4.88273E-02 3.44690E-03-3.08314E-03-3.86141E-14-4.97411E-13
 -1      1554 2.32971E+01-6.09029E-02 1.24731E-02-8.29432E-02-8.12891E-14-2.18833E-13
 -1      1555 2.55365E+01 1.18457E+00 9.81332E-01 1.12468E+00-1.00128E-14-4.52360E-13
 -1      1556 2.35351E+01-6.82403E-02 5.76312E-03 1.50935E-01-1.28933E-14-4.83467E-13
 -1      1557 2.32798E+01-8.64420E-02 1.96863E-02 1.83195E-01 2.28741E-14-1.84891E-13
 -1      1558 2.54275E+01 8.05308E-02-1.81333E-03 9.20877E-01-4.18797E-14-4.27991E-13
 -1      1559 2.78287E+01 9.83644E-01 1.13534E+00 1.84457E+00-2.54970E-14-4.31960E-13
 -1      1560 2.56936E+01 8.93192E-01 5.74780E-01 1.90061E+00-4.48357E-14-3.53134E-13
 -1      1561 2.36386E+01 1.54648E-02-4.65955E-02 7.89781E-01-1.70758E-14-2.46109E-13
 -1      1562 2.49017E+01 5.82556E-03 4.77060E-02 8.29507E-01-5.72736E-14-3.33511E-13
 -1      1563 2.46298E+01 2.38968E-01 9.05920E-02 1.67284E+00-1.04285E-13-2.13170E-13
 -1      1564 2.18693E+01 4.07121E-02-4.33647E-02 6.69082E-01-7.61544E-14-3.31644E-13
 -1      1565 2.28955E+01 3.58291E-02-3.03577E-02 6.82461E-01 2.45151E-14-3.07879E-13
 -1      1566 2.31409E+01 7.89089E-02-1.06146E-02 1.39142E+00 1.95902E-14-2.15640E-13
 -1      1567 2.05437E+01 6.91733E-02-4.51099E-02 4.34416E-01-6.49411E-14-1.98782E-13
 -1      1568 2.12963E+01 8.00728E-02-2.72287E-02 4.85150E-01-9.39838E-14-3.27890E-13
 -1      1569 2.18524E+01 1.28959E-01-1.96198E-02 1.06568E+00-1.08007E-13-1.22478E-13
 -1      1570 1.99332E+01 7.72437E-02-4.52987E-02 1.00363E-01-1.65841E-13 2.21037E-13
 -1      1571 2.02606E+01 1.16046E-01-2.39454E-02 1.83332E-01-2.14235E-13-3.48471E-14
 -1      1572 2.09982E+01 1.86442E-01-2.61603E-02 5.46878E-01-3.02418E-13 4.81126E-14
 -1      1573 2.01322E+01 5.61003E-02-3.08757E-02-2.25725E-01 3.42842E-14 4.15345E-13
 -1      1574 1.99838E+01 1.13395E-01-1.85010E-02-1.40081E-01-3.58047E-15 3.44440E-13
 -1      1575 2.07441E+01 1.88722E-01-2.66328E-02-6.73728E-02-1.48406E-13 1.04512E-13
 -1      1576 2.09488E+01 1.72768E-02-6.20595E-03-4.24176E-01-1.68836E-14 4.25590E-13
 -1      1577 2.04420E+01 7.07576E-02-6.99656E-03-3.68182E-01-2.73748E-14 5.04499E-13
 -1      1578 2.10684E+01 1.20648E-01-1.86322E-02-5.67088E-01-6.53661E-14 5.29271E-13
 -1      1579 2.19978E+01-1.76415E-02 1.61897E-02-4.47321E-01 9.38470E-14 2.69958E-13
 -1      1580 2.13599E+01 1.32889E-02 5.85615E-03-4.33760E-01 1.66808E-13 4.55767E-13
 -1      1581 2.17471E+01 1.87535E-02-7.11822E-03-7.90095E-01 1.57414E-13 4.06692E-13
 -1      1582 2.29059E+01-3.59046E-02 2.67238E-02-3.34614E-01 1.15016E-13 4.36665E-14
 -1      1583 2.23556E+01-3.14028E-02 1.40247E-02-3.54712E-01 8.47811E-14 1.55258E-13
 -1      1584 2.24775E+01-6.45789E-02 2.05989E-03-7.22267E-01 1.85490E-13 3.31218E-13
 -1      1585 2.34553E+01-3.73750E-02 2.54992E-02-1.64568E-01 2.03674E-14 8.57075E-14
 -1      1586 2.31186E+01-5.14358E-02 1.50796E-02-2.00008E-01-8.15971E-14 4.85723E-16
 -1      1587 2.30203E+01-1.01932E-01 6.54394E-03-4.68737E-01-3.17871E-14 2.60083E-13
 -1      1588 2.36034E+01-2.90160E-02 1.79504E-02-3.99733E-03-2.09741E-14 1.67908E-14
 -1      1589 2.35032E+01-5.04232E-02 1.12439E-02-3.91891E-02 8.50413E-14 1.27323E-13
 -1      1590 2.32667E+01-9.77820E-02 7.26314E-03-1.63681E-01 7.88744E-14 2.59228E-13
 -1      1591 2.34217E+01-1.79331E-02 9.42543E-03 1.13211E-01-1.15112E-14 1.48665E-13
 -1      1592 2.35139E+01-3.83196E-02 5.96718E-03 8.63241E-02-6.19626E-14-2.98693E-14
 -1      1593 2.32221E+01-7.16847E-02 6.04959E-03 9.75315E-02-5.71886E-14 1.00678E-13
 -1      1594 2.30232E+01-8.27200E-03 2.81020E-03 1.81234E-01 1.34115E-13 8.67847E-14
 -1      1595 2.32403E+01-2.36924E-02 1.60067E-03 1.64397E-01 1.60869E-13 2.67765E-13
 -1      1596 2.29558E+01-4.14032E-02 4.29715E-03 2.75179E-01 4.65196E-14 2.21128E-13
 -1      1597 2.25149E+01-1.43702E-03-1.22687E-03 2.08887E-01 1.13629E-13-1.89569E-13
 -1      1598 2.27940E+01-1.12021E-02-1.04690E-03 2.00541E-01 8.92704E-14 6.62664E-16
 -1      1599 2.25536E+01-1.64775E-02 2.72964E-03 3.69599E-01 2.14750E-13 1.74717E-13
 -1      1600 2.19776E+01 2.73776E-03-3.16136E-03 2.08950E-01-1.63737E-13-2.29591E-13
 -1      1601 2.22721E+01-2.29931E-03-2.16426E-03 2.06580E-01-3.03006E-14-2.87504E-13
 -1      1602 2.20915E+01 4.14852E-04 1.56444E-03 3.99479E-01 2.39135E-14 2.20134E-13
 -1      1603 2.14638E+01 5.02918E-03-3.78548E-03 1.92511E-01 1.08655E-14-3.06647E-14
 -1      1604 2.17441E+01 3.35976E-03-2.29333E-03 1.93897E-01-6.10460E-14-1.54866E-13
 -1      1605 2.16252E+01 1.02743E-02 7.49641E-04 3.86609E-01-7.67154E-14 1.25244E-13
 -1      1606 2.10046E+01 6.29986E-03-3.84168E-03 1.66992E-01 1.44874E-13-1.10589E-13
 -1      1607 2.12539E+01 6.83162E-03-1.96352E-03 1.70677E-01 1.08610E-13 3.01278E-14
 -1      1608 2.11908E+01 1.53801E-02 1.16141E-04 3.48423E-01 1.42987E-13 3.95127E-15
 -1      1609 2.06181E+01 7.27704E-03-3.94689E-03 1.36071E-01 2.01776E-13-4.56422E-13
 -1      1610 2.08266E+01 9.29592E-03-1.60411E-03 1.41442E-01 1.59280E-13-2.05946E-13
 -1      1611 2.08100E+01 1.80600E-02-5.67736E-04 2.95779E-01 2.33314E-13-1.90357E-13
 -1      1612 2.03170E+01 8.51729E-03-4.43601E-03 1.00387E-01 9.83042E-14-8.44502E-13
 -1      1613 2.04774E+01 1.18016E-02-1.54450E-03 1.07612E-01 1.37986E-13-7.00286E-13
 -1      1614 2.04958E+01 2.02490E-02-1.54615E-03 2.33348E-01 3.07320E-13-4.44468E-13
 -1      1615 2.01139E+01 1.02683E-02-4.39010E-03 5.83762E-02 6.10000E-14-9.98303E-13
 -1      1616 2.02175E+01 1.50756E-02-1.70613E-03 6.85923E-02 1.23971E-13-8.10614E-13
 -1      1617 2.02567E+01 2.36610E-02-2.63801E-03 1.61363E-01 1.79386E-13-5.42978E-13
 -1      1618 2.00191E+01 1.09775E-02 1.18909E-03 1.38632E-02-4.52597E-14-8.44787E-13
 -1      1619 2.00564E+01 1.65682E-02-7.86539E-04 2.53646E-02-6.20751E-14-1.05603E-12
 -1      1620 2.00967E+01 2.62464E-02-2.81487E-03 7.94351E-02 6.69656E-14-5.22760E-13
 -1      1621 1.99983E+01 2.93355E-03 3.71032E-03-3.76600E-03-4.53151E-13-4.65308E-13
 -1      1622 2.00172E+01 8.64890E-02-2.37937E-03 4.65081E-02-3.45082E-13 1.44218E-13
 -1      1623 2.00182E+01 4.35162E-02 1.23467E-03 3.49131E-02-5.74752E-13 2.67748E-13
 -1      1624 2.00120E+01 2.58428E-01-1.66085E-03 9.02762E-02-9.49592E-14 1.85464E-13
 -1      1625 2.00157E+01 1.59467E-01-1.61744E-03 8.24286E-02-2.42218E-13 9.48352E-14
 -1      1626 2.00328E+01 1.59488E-01-3.20795E-03 1.27332E-01-2.32363E-13 1.66806E-13
 -1      1627 2.00046E+01 4.91710E-01-6.39586E-04 1.17263E-01-1.66585E-13 1.34326E-14
 -1      1628 2.00091E+01 3.56919E-01-1.19435E-03 1.13422E-01-1.13916E-13 9.63028E-14
 -1      1629 2.00191E+01 3.30136E-01-2.89505E-03 1.98131E-01 1.41304E-14 1.55531E-13
 -1      1630 1.99973E+01 7.50385E-01 4.27620E-07 1.24347E-01 3.05036E-13 2.98268E-13
 -1      1631 2.00017E+01 6.03863E-01-5.16753E-04 1.24563E-01-1.47334E-13 4.79398E-13
 -1      1632 2.00061E+01 5.40229E-01-8.84061E-04 2.34298E-01-2.86880E-14 2.58403E-13
 -1      1633 1.99911E+01 9.91963E-01 2.43993E-04 1.12910E-01 2.70714E-13 6.80511E-14
 -1      1634 1.99949E+01 8.58712E-01-1.35380E-04 1.16526E-01 2.80194E-13-4.10827E-14
 -1      1635 1.99941E+01 7.59926E-01 1.21047E-03 2.33073E-01-7.72702E-14 1.78789E-13
 -1      1636 1.99862E+01 1.19033E+00 3.33730E-04 8.53099E-02 7.37391E-13 2.95421E-13
 -1      1637 1.99891E+01 1.08558E+00 9.86239E-05 9.18591E-02 4.36324E-13 3.23485E-13
 -1      1638 1.99841E+01 9.60792E-01 2.98497E-03 1.98111E-01 1.54234E-13 3.51858E-13
 -1      1639 1.99831E+01 1.31304E+00 3.44213E-04 4.57043E-02 7.61725E-13-6.25632E-14
 -1      1640 1.99848E+01 1.25404E+00 2.25534E-04 5.42120E-02 7.15207E-13 1.13868E-13
 -1      1641 1.99765E+01 1.11709E+00 4.36306E-03 1.34988E-01 1.79764E-13 2.19169E-13
 -1      1642 1.99823E+01 1.34270E+00 3.25047E-04-5.82314E-04 7.86115E-13-4.96053E-14
 -1      1643 1.99825E+01 1.33806E+00 3.28419E-04 8.77776E-03 9.10064E-13-7.13238E-14
 -1      1644 1.99721E+01 1.20537E+00 5.17131E-03 5.27254E-02 3.38720E-13 1.55344E-14
 -1      1645 1.99838E+01 1.27417E+00 2.69544E-04-4.73784E-02 4.24421E-13-2.86199E-13
 -1      1646 1.99825E+01 1.32521E+00 4.06668E-04-3.84128E-02 6.48748E-13-1.59358E-13
 -1      1647 1.99714E+01 1.21304E+00 5.30904E-03-3.76913E-02 4.36091E-13-3.34843E-13
 -1      1648 1.99876E+01 1.11582E+00 1.52542E-04-8.82135E-02-4.23700E-13-5.92115E-13
 -1      1649 1.99850E+01 1.21610E+00 4.56425E-04-8.09128E-02 3.78339E-13-5.40916E-13
 -1      1650 1.99746E+01 1.13818E+00 4.72353E-03-1.24043E-01 1.89345E-13-5.43962E-13
 -1      1651 1.99934E+01 8.93369E-01-3.62299E-05-1.16604E-01-7.33439E-13 1.36124E-13
 -1      1652 1.99895E+01 1.02653E+00 3.63229E-04-1.12181E-01-5.61067E-13-3.27577E-13
 -1      1653 1.99818E+01 9.91690E-01 3.50811E-03-1.93621E-01-6.52824E-14-8.70298E-13
 -1      1654 2.00009E+01 6.31509E-01-4.78255E-04-1.28291E-01-4.18054E-13 1.19392E-13
 -1      1655 1.99961E+01 7.82077E-01 5.89562E-05-1.27474E-01-6.84732E-13 4.20690E-13
 -1      1656 1.99919E+01 7.92454E-01 1.65507E-03-2.36039E-01-2.28585E-13 3.78507E-13
 -1      1657 2.00089E+01 3.74688E-01-1.34512E-03-1.19029E-01-4.13944E-13-1.25505E-14
 -1      1658 2.00040E+01 5.15727E-01-6.53735E-04-1.22493E-01-4.17778E-13 2.86412E-13
 -1      1659 2.00050E+01 5.66134E-01-6.12975E-04-2.42797E-01-1.66428E-13 1.64869E-13
 -1      1660 2.00181E+01 1.70153E-01-5.25105E-04-8.75508E-02-4.80514E-13 4.74703E-14
 -1      1661 2.00117E+01 2.72530E-01-1.82563E-03-9.59504E-02-4.27762E-13-1.23797E-13
 -1      1662 2.00192E+01 3.47919E-01-2.82295E-03-2.08027E-01-3.03569E-13-5.71884E-14
 -1      1663 2.00311E+01 6.78465E-02 2.35813E-03-5.87761E-02-3.64915E-13-1.20709E-13
 -1      1664 2.00290E+01 1.15679E-01-1.57851E-03-7.66037E-02-3.22718E-13-8.88180E-14
 -1      1665 2.00485E+01 1.92708E-01-2.33587E-03-1.63237E-01-2.58312E-13 2.42944E-14
 -1      1666 2.00881E+01 9.33411E-02 1.04747E-03-1.18758E-01-1.57660E-13-1.45170E-13
 -1      1667-4.97195E-01-1.34319E+01-1.63712E+00-8.45012E-01 4.20719E-13 7.25253E-14
 -1      1668-5.00552E-01-1.54734E+01-1.82317E+00 2.98687E-01 1.48687E-13 1.13243E-13
 -1      1669 1.34099E+00-6.99309E+00-1.18297E+00 5.60274E-01 4.23661E-13 1.24178E-13
 -1      1670 5.60152E-01-1.22661E+01-1.73577E+00-1.77387E-01 5.07816E-13 1.25913E-13
 -1      1671 8.05862E+00 3.69153E-01-4.14010E-01 5.26287E+00 3.21743E-13 9.86988E-14
 -1      1672 4.55044E+00-4.95583E+00-1.19127E+00 2.19362E+00 4.79283E-13 1.43330E-13
 -1      1673 1.79043E+01 5.37089E+00 3.20198E-01 9.85784E+00 1.50657E-13-1.50990E-14
 -1      1674 1.16337E+01 2.48799E+00-5.17624E-01 6.46982E+00 3.23963E-13 7.06102E-14
 -1      1675 3.12424E+01 6.37171E+00 1.00537E+00 1.23123E+01-6.73905E-14-1.37446E-13
 -1      1676 2.27088E+01 6.26127E+00 2.28979E-01 1.06126E+01 8.38218E-14-5.81757E-14
 -1      1677 4.38287E+01 4.83845E+00 1.46812E+00 9.90981E+00-7.71744E-14-5.17697E-13
 -1      1678 3.59311E+01 6.35083E+00 9.03360E-01 1.15020E+01-5.30131E-14-3.58491E-13
 -1      1679 5.12161E+01 3.54764E+00 1.69033E+00 3.14458E+00 5.17919E-14-9.78162E-13
 -1      1680 4.68929E+01 4.75173E+00 1.40734E+00 7.91647E+00-2.06779E-14-7.16205E-13
 -1      1681 5.06213E+01 3.77106E+00 1.60576E+00-4.99581E+00 3.69510E-13-1.23607E-12
 -1      1682 5.25775E+01 3.23079E+00 1.74386E+00 5.28271E-01 2.51799E-13-8.20424E-13
 -1      1683 4.08713E+01 5.61721E+00 1.05310E+00-1.03160E+01 8.37566E-13-1.59051E-12
 -1      1684 4.78560E+01 3.98636E+00 1.56153E+00-7.25167E+00 5.39124E-13-1.30462E-12
 -1      1685 2.68152E+01 6.88170E+00 3.50812E-01-1.14427E+01 1.19971E-12-1.78080E-12
 -1      1686 3.62397E+01 5.97828E+00 1.12642E+00-1.19605E+01 9.49130E-13-1.79878E-12
 -1      1687 1.42974E+01 4.82955E+00-3.32524E-01-8.08911E+00 1.45117E-12-1.39322E-12
 -1      1688 2.15131E+01 6.59681E+00 4.68125E-01-1.11032E+01 1.26077E-12-1.63514E-12
 -1      1689 6.14572E+00-1.35693E+00-8.56791E-01-3.62617E+00 7.08544E-13-9.32365E-13
 -1      1690 1.04459E+01 2.95595E+00-1.98511E-01-6.86712E+00 1.20548E-12-1.19360E-12
 -1      1691 1.30997E+00-7.77417E+00-1.31571E+00-7.21730E-01-1.09579E-13-3.53328E-13
 -1      1692 2.50351E+00-3.03436E+00-8.37092E-01-2.01174E+00 5.60996E-13-8.03524E-13
 -1      1693-2.04238E-01-1.27035E+01-1.51611E+00-5.40774E-01-6.00242E-13-6.88061E-14
 -1      1694-8.42072E-03-9.48748E+00-1.23275E+00 8.41662E-02-3.00759E-13-1.06012E-13
 -1      1695-7.89271E-01-1.34437E+01-1.56135E+00-1.58106E+00-9.89778E-13-2.31898E-13
 -1      1696-6.30865E-01-1.32762E+01-1.47864E+00-2.19953E-01-8.33472E-13-1.10190E-13
 -1      1697-2.75181E-01-1.00642E+01-1.49085E+00-1.48466E+00-1.30762E-12-5.79113E-13
 -1      1698-3.50902E-01-1.31723E+01-1.68731E+00-1.12885E+00-1.06698E-12-3.27294E-13
 -1      1699 3.67425E+00-3.82600E+00-1.03776E+00 1.66196E+00-1.36602E-12-9.40859E-13
 -1      1700 1.77696E+00-8.63138E+00-1.57113E+00-2.38526E-01-1.31573E-12-7.07878E-13
 -1      1701 1.22419E+01 2.02416E+00-3.36221E-01 6.52849E+00-1.12199E-12-9.01501E-13
 -1      1702 6.99526E+00-2.11367E+00-1.18115E+00 2.94815E+00-1.40321E-12-9.17932E-13
 -1      1703 2.61961E+01 4.54630E+00 5.57796E-01 1.03666E+01-7.05658E-13-7.14540E-13
 -1      1704 1.76335E+01 3.04722E+00-3.78897E-01 7.51733E+00-9.98202E-13-8.45102E-13
 -1      1705 4.14971E+01 4.39987E+00 1.38858E+00 9.78828E+00-3.08809E-13-6.24611E-13
 -1      1706 3.17857E+01 5.19411E+00 5.47588E-01 1.00210E+01-4.82336E-13-7.30527E-13
 -1      1707 5.23418E+01 3.46065E+00 1.90798E+00 5.05743E+00-2.05488E-13-1.77081E-13
 -1      1708 4.60136E+01 4.78420E+00 1.42869E+00 8.94538E+00-2.33237E-13-3.81029E-13
 -1      1709 5.39148E+01 3.79829E+00 1.85857E+00-3.04676E+00-1.51879E-13 1.02043E-13
 -1      1710 5.33633E+01 3.72528E+00 1.81292E+00 2.51876E+00-1.03972E-13-5.61773E-14
 -1      1711 4.82246E+01 5.34467E+00 1.59700E+00-9.95479E+00-2.68785E-13 5.04596E-13
 -1      1712 5.34556E+01 3.77323E+00 1.93378E+00-5.66993E+00-2.44221E-13 2.04170E-13
 -1      1713 3.56656E+01 7.02545E+00 9.19792E-01-1.25818E+01-5.67213E-13 8.20011E-13
 -1      1714 4.44515E+01 5.55700E+00 1.61592E+00-1.16028E+01-3.71203E-13 7.12319E-13
 -1      1715 2.17753E+01 6.26677E+00 1.00453E-01-1.06014E+01-5.78204E-13 8.13571E-13
 -1      1716 3.04954E+01 6.87827E+00 9.77967E-01-1.28763E+01-5.59996E-13 9.09051E-13
 -1      1717 1.09430E+01 1.10246E+00-7.06563E-01-5.87027E+00-3.66596E-13 5.99409E-13
 -1      1718 1.71896E+01 4.60515E+00 1.60040E-01-9.51078E+00-5.71432E-13 7.68829E-13
 -1      1719 3.53410E+00-5.61453E+00-1.38677E+00-1.67440E+00-9.49685E-13 1.77969E-13
 -1      1720 6.41323E+00-2.91141E-01-6.36261E-01-4.42155E+00-6.15064E-13 7.40519E-14
 -1      1721 5.15791E-01-1.25502E+01-1.77533E+00 1.20411E-01-6.93667E-13 4.27051E-13
 -1      1722 1.20530E+00-7.62848E+00-1.28125E+00-4.43424E-01-8.82516E-13 4.08201E-13
 -1      1723-5.33518E-01-1.57306E+01-1.87014E+00-3.05317E-01 1.28508E-14 2.18631E-13
 -1      1724-5.34654E-01-1.38660E+01-1.72004E+00 9.02672E-01-4.93772E-13 4.21496E-13
 -1      1725 2.42504E+01 1.68015E+00 3.22657E-01 7.51510E+00 2.61458E-14-2.37477E-13
 -1      1726 1.47718E+01-2.37461E+00-2.79640E-01 6.48495E+00 1.64535E-13-1.20237E-13
 -1      1727 2.00173E+01 1.26023E-02-3.32378E-04 1.21600E-02-5.60561E-13-5.53416E-14
 -1      1728 2.00429E+01 6.14218E-02-4.12393E-04 5.95069E-02-2.98090E-13 1.95689E-13
 -1      1729 6.14821E-01-9.39880E+00-1.18478E+00 2.18955E+00 2.41474E-14 1.71030E-13
 -1      1730 6.43792E+00-6.25789E+00-7.55023E-01 4.74782E+00 7.36078E-14-4.77812E-14
 -1      1731-1.17072E+00-1.05434E+01-1.30433E+00 5.09616E-02-7.78266E-14 4.17055E-13
 -1      1732 3.38704E+01 4.47592E+00 8.92743E-01 6.81751E+00-9.50073E-14-4.72289E-13
 -1      1733 4.09492E+01 6.27621E+00 1.22394E+00 4.28985E+00 6.32827E-15-9.51517E-13
 -1      1734 4.46944E+01 7.05300E+00 1.43293E+00 8.95169E-01 1.27898E-13-9.92345E-13
 -1      1735 4.34640E+01 6.55546E+00 1.35228E+00-2.69739E+00 5.39957E-13-8.03801E-13
 -1      1736 3.68878E+01 5.40143E+00 9.96858E-01-5.98461E+00 8.08471E-13-1.13609E-12
 -1      1737 2.70247E+01 3.33361E+00 4.36288E-01-7.59355E+00 8.38329E-13-1.25100E-12
 -1      1738 1.68397E+01-1.95248E-01-1.74804E-01-6.86740E+00 6.20504E-13-9.60454E-13
 -1      1739 8.21816E+00-3.32385E+00-4.55999E-01-5.47835E+00 1.88516E-13-1.02909E-12
 -1      1740 1.84367E+00-6.74981E+00-8.84139E-01-3.18466E+00-1.48215E-13-5.81896E-13
 -1      1741-9.18205E-01-8.82827E+00-1.06521E+00-1.56768E+00-5.16143E-13-2.81664E-13
 -1      1742-8.14977E-01-9.19233E+00-1.14902E+00 7.53944E-02-7.60170E-13-3.77920E-13
 -1      1743 2.82313E+00-7.78925E+00-1.04705E+00 2.21609E+00-8.95506E-13-5.99312E-13
 -1      1744 9.97451E+00-5.08423E+00-7.29083E-01 4.35802E+00-9.26925E-13-6.16701E-13
 -1      1745 2.01894E+01-1.67614E+00-1.15939E-01 5.80777E+00-8.96505E-13-4.38982E-13
 -1      1746 3.13478E+01 1.61079E+00 5.60681E-01 5.37693E+00-5.76206E-13-4.86722E-13
 -1      1747 4.05213E+01 4.78488E+00 1.15186E+00 3.78896E+00-3.85969E-13-4.05898E-13
 -1      1748 4.58291E+01 6.82977E+00 1.52167E+00 1.20992E+00-3.14249E-13-8.38218E-14
 -1      1749 4.62829E+01 7.31226E+00 1.56175E+00-2.37493E+00-3.48666E-13 2.24598E-13
 -1      1750 4.25765E+01 6.26272E+00 1.37500E+00-5.62598E+00-4.97880E-13 5.29576E-13
 -1      1751 3.40403E+01 4.32255E+00 8.46838E-01-7.57269E+00-4.50140E-13 6.65801E-13
 -1      1752 2.38553E+01 8.02935E-01 1.73849E-01-7.57191E+00-3.20854E-13 6.39266E-13
 -1      1753 1.40009E+01-2.87385E+00-3.39596E-01-6.61821E+00-5.75207E-13 5.06539E-13
 -1      1754 5.43840E+00-6.59559E+00-9.08103E-01-4.41039E+00-5.54667E-13 7.01175E-14
 -1      1755 4.60202E-01-9.67493E+00-1.24425E+00-2.14852E+00-3.69205E-13 6.40654E-13
 -1      1756 2.28483E+01 1.98467E+00-2.35998E-02-2.72347E+00-1.66880E-13 9.08745E-13
 -1      1757 1.98216E+01 3.71418E+00-3.55327E-02-2.15416E+00-2.68829E-13-1.93446E-13
 -1      1758 2.00547E+01 3.56177E+00-4.02649E-02-2.44713E+00-2.92547E-13-9.08718E-14
 -1      1759 2.03581E+01 3.18148E+00-4.56845E-02-2.58703E+00-2.83078E-13 2.40918E-14
 -1      1760 2.05759E+01 2.80967E+00-1.42547E-01-2.85528E+00-2.86691E-13 1.73354E-13
 -1      1761 2.04189E+01 2.69324E+00-4.44527E-03-2.22805E+00-2.97898E-13-2.96325E-14
 -1      1762 1.93590E+01 4.18999E+00-2.02072E-02-1.27227E+00-1.76812E-13-3.52263E-13
 -1      1763 1.94309E+01 4.14942E+00-1.75162E-02-1.49668E+00-2.03918E-13-3.29374E-13
 -1      1764 1.92650E+01 4.29551E+00-1.68085E-02-8.60803E-01-1.33741E-13-3.95827E-13
 -1      1765 1.93067E+01 4.27157E+00-1.43488E-02-1.07174E+00-1.57792E-13-3.79046E-13
 -1      1766 1.95321E+01 3.78349E+00-9.20328E-03-1.12143E+00-1.81137E-13-3.50935E-13
 -1      1767 1.92149E+01 4.35622E+00-1.48217E-02-4.67354E-01-7.14993E-14-3.94892E-13
 -1      1768 1.92363E+01 4.34329E+00-1.33271E-02-6.67873E-01-1.01824E-13-3.89806E-13
 -1      1769 1.94371E+01 3.90418E+00-9.18308E-03-7.34027E-01-1.23763E-13-3.80569E-13
 -1      1770 1.91961E+01 4.38199E+00-1.36870E-02-8.37279E-02-2.31433E-14-4.15388E-13
 -1      1771 1.92023E+01 4.37802E+00-1.32337E-02-2.79389E-01-4.55525E-14-4.10401E-13
 -1      1772 1.93879E+01 3.96903E+00-9.13836E-03-3.58641E-01-5.85342E-14-3.84965E-13
 -1      1773 1.92040E+01 4.37666E+00-1.31871E-02 2.98470E-01 2.05426E-14-4.08840E-13
 -1      1774 1.91966E+01 4.38117E+00-1.37695E-02 1.02652E-01-2.13981E-15-4.10045E-13
 -1      1775 1.93735E+01 3.98856E+00-9.12545E-03 1.05828E-02-1.21937E-14-3.97803E-13
 -1      1776 1.92403E+01 4.33926E+00-1.33446E-02 6.87647E-01 6.17882E-14-4.23293E-13
 -1      1777 1.92176E+01 4.35308E+00-1.49313E-02 4.86638E-01 4.39079E-14-4.19928E-13
 -1      1778 1.93906E+01 3.96576E+00-9.16960E-03 3.79990E-01 3.23892E-14-3.99260E-13
 -1      1779 1.93120E+01 4.26551E+00-1.44218E-02 1.08571E+00 1.10825E-13-3.95248E-13
 -1      1780 1.92696E+01 4.29018E+00-1.69832E-02 8.77561E-01 8.66111E-14-4.12427E-13
 -1      1781 1.94422E+01 3.89801E+00-9.17970E-03 7.52522E-01 8.23813E-14-3.99155E-13
 -1      1782 1.94412E+01 4.13787E+00-1.74120E-02 1.51609E+00 1.84000E-13-3.47958E-13
 -1      1783 1.93661E+01 4.18069E+00-2.05050E-02 1.28640E+00 1.42794E-13-3.70981E-13
 -1      1784 1.95399E+01 3.77373E+00-9.22791E-03 1.13663E+00 1.43432E-13-3.65241E-13
 -1      1785 1.96672E+01 3.92094E+00-2.52028E-02 1.98146E+00 2.44853E-13-3.01047E-13
 -1      1786 1.95361E+01 3.99794E+00-2.68911E-02 1.72403E+00 2.12217E-13-3.31825E-13
 -1      1787 1.97106E+01 3.56623E+00-8.70017E-03 1.53673E+00 2.13814E-13-3.18842E-13
 -1      1788 2.00721E+01 3.52240E+00-4.51913E-02 2.47397E+00 2.97255E-13-1.77452E-13
 -1      1789 1.98340E+01 3.68304E+00-3.96959E-02 2.18490E+00 2.68959E-13-2.53506E-13
 -1      1790 2.00036E+01 3.22283E+00-5.26918E-03 1.93636E+00 2.80461E-13-2.56763E-13
 -1      1791 2.09134E+01 2.68149E+00-5.76516E-02 2.85945E+00 3.11826E-13 7.42531E-14
 -1      1792 2.04080E+01 3.09663E+00-5.03982E-02 2.61786E+00 2.95894E-13-7.80556E-14
 -1      1793 2.05128E+01 2.60977E+00 3.18628E-03 2.24644E+00 3.08980E-13-1.16754E-13
 -1      1794 2.17211E+01 1.21295E+00-1.22077E-01 2.33123E+00 2.70360E-13 4.01956E-13
 -1      1795 2.12660E+01 2.26281E+00 1.26073E-04 2.74200E+00 2.89820E-13 1.87364E-13
 -1      1796 2.09295E+01 1.68494E+00-2.29717E-02 2.14197E+00 3.11536E-13 7.39894E-14
 -1      1797 2.09419E+01 7.78672E-01-6.24691E-02 1.52566E+00 2.64393E-13 3.23967E-13
 -1      1798 2.17875E+01 2.45801E+00 9.08727E-02-3.04963E+00-2.37291E-13 4.42216E-13
 -1      1799 2.00903E+01 2.97965E-01-8.92757E-03 6.58503E-01 2.26687E-13 1.96508E-13
 -1      1800 2.06430E+01 4.40432E-01-1.24649E-02 1.03551E+00 2.29074E-13 2.74961E-13
 -1      1801 2.07355E+01 8.45144E-01 2.25920E-03 1.41683E+00 2.76619E-13 1.40847E-13
 -1      1802 2.14985E+01 1.74265E+00 7.94439E-02-2.33877E+00-2.55473E-13 3.24907E-13
 -1      1803 2.05117E+01 5.00492E-01 3.25395E-02-9.23282E-01-2.17194E-13 2.90395E-13
 -1      1804 2.00792E+01 3.51922E-01 7.58348E-03-6.31469E-01-2.04061E-13 2.24945E-13
 -1      1805 1.98846E+01 2.57510E-01 2.74348E-02-3.92982E-01-1.90339E-13 2.19121E-13
 -1      1806 1.96932E+01 1.78359E-01 1.04311E-02-2.54993E-01-1.55386E-13 1.69652E-13
 -1      1807 2.01915E+01 4.83977E-01-5.74080E-03-7.24829E-01-2.22225E-13 9.60664E-14
 -1      1808 1.95714E+01 1.33087E-01 1.67126E-02-1.21126E-01-1.23096E-13 1.59461E-13
 -1      1809 1.94931E+01 9.35359E-02 7.02945E-03-5.00966E-02-9.36876E-14 1.29902E-13
 -1      1810 1.98654E+01 2.44546E-01-5.73881E-03-2.97076E-01-1.65975E-13 8.22528E-14
 -1      1811 1.94287E+01 6.90230E-02 8.74125E-03 2.39136E-02-7.86764E-14 1.29707E-13
 -1      1812 1.94144E+01 4.75766E-02 4.20081E-03 6.05442E-02-6.80597E-14 1.01352E-13
 -1      1813 1.96834E+01 1.26046E-01-4.66433E-03-5.93610E-02-1.10391E-13 5.70173E-14
 -1      1814 1.93893E+01 3.35137E-02 4.30544E-03 1.00137E-01-7.03967E-14 9.36287E-14
 -1      1815 1.94100E+01 2.14558E-02 2.57090E-03 1.17716E-01-6.65202E-14 6.89366E-14
 -1      1816 1.95982E+01 6.24310E-02-3.53107E-03 7.18051E-02-7.35582E-14 1.35753E-14
 -1      1817 1.94100E+01 1.32190E-02 1.95151E-03 1.37102E-01-6.85426E-14 7.26654E-14
 -1      1818 1.94491E+01 6.58844E-03 1.66001E-03 1.43850E-01-5.45292E-14 7.91387E-14
 -1      1819 1.95766E+01 2.66277E-02-2.44991E-03 1.40906E-01-7.74488E-14 3.90345E-15
 -1      1820 1.94645E+01 1.95240E-03 6.89807E-04 1.51524E-01-6.19147E-14 5.94890E-14
 -1      1821 1.95124E+01-1.26644E-03 1.14791E-03 1.52357E-01-6.53272E-14 3.68844E-14
 -1      1822 1.95946E+01 6.64300E-03-1.59960E-03 1.73507E-01-7.31429E-14-4.05166E-15
 -1      1823 1.95368E+01-3.50113E-03 1.94825E-05 1.53747E-01-1.23775E-13 4.37417E-14
 -1      1824 1.95883E+01-4.42706E-03 8.87919E-04 1.51861E-01-1.06223E-13 3.55293E-14
 -1      1825 1.96366E+01-3.48318E-03-1.01692E-03 1.85367E-01-8.59368E-14-2.79861E-14
 -1      1826 1.96182E+01-4.96496E-03-3.02644E-04 1.50646E-01-1.09560E-13-1.19216E-15
 -1      1827 1.96709E+01-4.25498E-03 8.13645E-04 1.48263E-01-1.06753E-13-8.60945E-14
 -1      1828 1.96926E+01-7.00283E-03-6.64303E-04 1.86834E-01-1.39244E-13-3.08253E-14
 -1      1829 1.97042E+01-3.52988E-03-4.04510E-04 1.47073E-01-9.92875E-14-9.06172E-14
 -1      1830 1.97576E+01-1.57492E-03 8.91295E-04 1.45827E-01-5.30718E-14-1.38026E-13
 -1      1831 1.97572E+01-5.81256E-03-4.90733E-04 1.85093E-01-1.16989E-13-8.46181E-14
 -1      1832 1.97939E+01 1.44826E-04-3.61481E-04 1.46647E-01-1.84958E-14-1.37293E-13
 -1      1833 1.98489E+01 3.12144E-03 1.10205E-03 1.47822E-01-3.50307E-15-1.28102E-13
 -1      1834 1.98279E+01-1.04782E-03-4.53226E-04 1.85398E-01-4.71889E-14-1.05411E-13
 -1      1835 1.98887E+01 5.67491E-03-2.22113E-04 1.52241E-01 4.98516E-14-1.34488E-13
 -1      1836 1.99475E+01 9.55900E-03 1.43499E-03 1.56915E-01 6.40844E-14-5.06865E-14
 -1      1837 1.99049E+01 6.62532E-03-5.19629E-04 1.91816E-01 2.20057E-14-8.17343E-14
 -1      1838 1.99920E+01 1.28531E-02-1.99444E-05 1.66291E-01 3.06594E-14-3.97052E-14
 -1      1839 2.00576E+01 1.75954E-02 1.88241E-03 1.75431E-01 2.51928E-14 3.00514E-14
 -1      1840 1.99900E+01 1.68403E-02-6.66144E-04 2.07686E-01 4.26453E-14-1.15888E-14
 -1      1841 2.01088E+01 2.15690E-02 2.19750E-04 1.90978E-01-4.83978E-14-2.48699E-14
 -1      1842 2.01849E+01 2.71403E-02 2.43434E-03 2.05482E-01-7.42298E-14-6.48174E-15
 -1      1843 2.00865E+01 2.94024E-02-8.74200E-04 2.35905E-01-3.18181E-14-4.80181E-14
 -1      1844 2.02452E+01 3.17218E-02 4.75134E-04 2.28296E-01-9.95458E-14-3.52440E-14
 -1      1845 2.03364E+01 3.80528E-02 3.07061E-03 2.48979E-01-9.05040E-14-9.20778E-14
 -1      1846 2.01989E+01 4.41585E-02-1.12775E-03 2.79059E-01-1.01179E-13-1.15442E-13
 -1      1847 2.04086E+01 4.30988E-02 7.23831E-04 2.79978E-01-1.10246E-13-1.18280E-13
 -1      1848 2.05198E+01 4.99890E-02 3.74867E-03 3.07478E-01-1.07790E-13-1.91255E-13
 -1      1849 2.03325E+01 6.08249E-02-1.41112E-03 3.39385E-01-1.25656E-13-2.00191E-13
 -1      1850 2.06069E+01 5.51879E-02 9.39603E-04 3.47214E-01-1.25278E-13-2.23596E-13
 -1      1851 2.07432E+01 6.21577E-02 4.38510E-03 3.81764E-01-1.26851E-13-2.55904E-13
 -1      1852 2.04933E+01 7.87238E-02-1.70781E-03 4.18500E-01-1.45939E-13-1.93063E-13
 -1      1853 1.68374E+01-1.06227E+00-1.46851E+00 5.55671E-02 6.55087E-13 9.69780E-13
 -1      1854 1.12428E+01-2.57875E+00-2.18324E+00 1.43204E+00 1.35181E-12 3.59057E-12
 -1      1855 2.06875E+01 9.63633E-02-2.00089E-03 5.16800E-01-5.82912E-14-1.71253E-13
 -1      1856 1.09774E+01-1.71672E+00-7.90152E-01 1.67511E+00 1.06498E-12 4.22515E-12
 -1      1857 1.07925E+01-7.07494E-01-2.82019E-01 1.56214E+00 6.97570E-13 4.60327E-12
 -1      1858 1.02471E+01-1.68650E+00-1.94151E+00 9.28331E-01 1.78291E-12 4.46954E-12
 -1      1859 1.01899E+01 1.06644E-01-6.95600E-02 1.71736E+00 3.92797E-13 4.81121E-12
 -1      1860 1.06051E+01 7.63140E-01-1.70711E-02 1.95741E+00 3.64275E-14 4.95137E-12
 -1      1861 9.47624E+00-2.80377E-01-3.52035E-01 1.41475E+00 7.85504E-13 5.07126E-12
 -1      1862 9.87464E+00 1.33273E+00-2.07907E-01 2.22620E+00-1.78288E-13 5.36982E-12
 -1      1863 9.82534E+00 2.06419E+00-4.39134E-01 2.90626E+00-7.78376E-13 5.47445E-12
 -1      1864 8.75147E+00 1.46740E+00 9.46327E-04 1.96886E+00 8.87901E-14 5.45573E-12
 -1      1865 9.05014E+00 3.13937E+00-5.45174E-01 2.79920E+00-1.40155E-12 6.11744E-12
 -1      1866 6.01241E+00 2.41225E+00-1.79540E+00-7.87686E-01-1.56342E-12 7.83951E-12
 -1      1867 7.15366E+00 2.28492E+00-3.99346E-01 1.62931E+00-4.54581E-13 6.37546E-12
 -1      1868 4.87428E+00-5.78581E+00-4.92129E+00-2.19529E+00-1.20615E-12 8.35332E-12
 -1      1869 1.22796E+01-1.19255E+01-3.99072E+00 1.02715E+00 5.04041E-13 8.90310E-12
 -1      1870 6.18357E+00-3.42067E+00-2.51608E+00 1.65360E-01-8.10796E-13 7.74203E-12
 -1      1871 1.55505E+01-1.10753E+01-1.63825E+00 3.73936E+00-3.26161E-12 4.46931E-12
 -1      1872 1.64531E+01-4.10010E+00 1.85588E+00 5.14852E+00-6.04405E-12 1.81899E-12
 -1      1873 7.31828E+00-8.36606E+00-4.26481E+00 4.92085E+00-4.34142E-12 9.64562E-12
 -1      1874 1.97928E+01-3.40501E-01 2.75461E+00 6.61866E+00-2.84173E-12-3.58380E-13
 -1      1875 2.13337E+01-1.00880E+00 1.41072E+00 5.48843E+00-1.17888E-12-1.88516E-13
 -1      1876 2.11082E+01-1.55709E+00 1.65790E+00 8.98750E+00-7.62612E-12 1.31095E-12
 -1      1877 2.17421E+01-1.45925E+00 6.37028E-01 3.69001E+00-4.35540E-13 1.16018E-13
 -1      1878 2.31332E+01-1.53137E+00 3.05440E-01 2.79066E+00-9.58122E-14 1.56541E-14
 -1      1879 2.49810E+01-2.54300E+00 1.05568E+00 6.01861E+00-9.37750E-13-2.83107E-13
 -1      1880 2.31767E+01-1.52454E+00 5.35571E-02 1.55789E+00-5.18127E-14 2.16036E-13
 -1      1881 2.36820E+01-1.35836E+00 1.53342E-02 7.41593E-01-3.39520E-14 2.40352E-13
 -1      1882 2.48136E+01-2.39698E+00 2.26207E-01 2.57724E+00-4.97727E-14 8.60423E-15
 -1      1883 2.35743E+01-1.14077E+00-5.70040E-02-1.37288E-01-1.13919E-13 3.37910E-13
 -1      1884 2.35748E+01-8.08238E-01-7.16196E-03-6.94465E-01-1.88748E-13 2.91385E-13
 -1      1885 2.47122E+01-1.87507E+00 1.83022E-02 3.41843E-01-5.43975E-14 1.65843E-13
 -1      1886 2.32783E+01-4.58010E-01-5.88147E-02-1.14505E+00-2.44815E-13 3.32852E-13
 -1      1887 2.30386E+01-3.30003E-02 1.35628E-02-1.29176E+00-2.24404E-13 2.90247E-13
 -1      1888 2.43600E+01-9.34766E-01-5.00585E-03-1.12220E+00-2.10321E-13 2.33142E-13
 -1      1889 2.26619E+01 3.40946E-01-3.83879E-02-1.19104E+00-2.02829E-13 2.03969E-13
 -1      1890 2.24382E+01 6.77687E-01 2.00652E-02-9.07977E-01-1.69734E-13 1.38308E-13
 -1      1891 2.37379E+01 2.16018E-01-1.82419E-02-1.52618E+00-2.69573E-13 3.11274E-13
 -1      1892 2.22259E+01 8.71862E-01-6.59408E-03-3.58608E-01-1.86550E-13 7.90583E-14
 -1      1893 2.22119E+01 9.25083E-01 5.12210E-03 1.48435E-01-1.62736E-13-5.96224E-15
 -1      1894 2.31764E+01 1.10952E+00-3.20813E-02-7.86517E-01-2.28997E-13 1.96748E-13
 -1      1895 2.23038E+01 8.25533E-01 1.42671E-02 7.65545E-01-1.03959E-13-6.91656E-14
 -1      1896 2.25413E+01 6.02433E-01-1.65605E-02 1.16863E+00-2.27700E-14-8.96956E-14
 -1      1897 2.30628E+01 1.26398E+00-3.28530E-02 5.51963E-01-1.67746E-13-4.68033E-14
 -1      1898 2.28147E+01 3.26961E-01 1.80577E-02 1.47947E+00-5.08647E-14-1.37343E-13
 -1      1899 2.31994E+01 2.65455E-02-1.86172E-02 1.57781E+00-8.78186E-14-1.26611E-13
 -1      1900 2.34184E+01 6.92963E-01-1.29063E-02 1.59212E+00-1.35126E-13-2.33991E-13
 -1      1901 2.34020E+01-2.13043E-01 2.62297E-03 1.48522E+00-4.54120E-14-1.70192E-13
 -1      1902 2.37694E+01-4.01236E-01-1.17944E-02 1.31151E+00-1.16078E-13-1.66006E-13
 -1      1903 2.38733E+01-1.08068E-01 9.86976E-03 1.79600E+00-7.03845E-14-1.62163E-13
 -1      1904 2.37836E+01-5.01065E-01-1.54229E-02 9.78097E-01-1.85647E-13-1.85602E-13
 -1      1905 2.40117E+01-5.34721E-01-4.66160E-03 6.85172E-01-8.13551E-14-2.24479E-13
 -1      1906 2.40665E+01-6.44619E-01 1.36270E-02 1.28548E+00-9.48720E-14-8.34038E-14
 -1      1907 2.38643E+01-5.15721E-01-2.34970E-02 3.15885E-01 1.60330E-13-2.22097E-13
 -1      1908 2.39125E+01-4.53021E-01-1.02632E-03 4.01957E-02 1.40664E-13-5.88874E-14
 -1      1909 2.39246E+01-7.74739E-01 6.99087E-03 4.95638E-01 5.53949E-14-6.57222E-14
 -1      1910 2.36810E+01-3.81632E-01-2.15254E-02-2.44761E-01 1.61095E-14-2.29803E-14
 -1      1911 2.35728E+01-2.92056E-01 8.79212E-06-4.38499E-01-4.66936E-14-6.42763E-14
 -1      1912 2.35538E+01-6.28189E-01 8.54983E-04-2.19080E-01 9.65512E-14-4.91710E-14
 -1      1913 2.33163E+01-2.17495E-01-1.47281E-02-6.08735E-01-8.04157E-14 1.15991E-13
 -1      1914 2.31029E+01-1.40647E-01 1.31329E-04-7.13220E-01-1.46553E-13 2.01911E-13
 -1      1915 2.30803E+01-3.91066E-01-2.22548E-03-7.07987E-01-2.97757E-14 1.34860E-14
 -1      1916 2.28526E+01-8.40003E-02-7.39978E-03-7.85750E-01-2.97032E-13 1.45491E-13
 -1      1917 2.25859E+01-3.20481E-02 2.45227E-04-8.20655E-01-1.87892E-13 1.13264E-13
 -1      1918 2.25855E+01-1.78027E-01-3.21495E-03-9.64602E-01-2.11444E-13 2.62603E-13
 -1      1919 2.23556E+01 3.62601E-03-1.60873E-03-8.26303E-01-1.32015E-13 5.87135E-14
 -1      1920 2.20758E+01 3.29580E-02 5.65955E-04-8.16649E-01 3.00302E-14-5.21935E-14
 -1      1921 2.21115E+01-2.87635E-02-3.26926E-03-1.04342E+00-1.69349E-13 4.70654E-13
 -1      1922 2.18702E+01 5.22309E-02 2.16232E-03-7.83291E-01 2.74374E-13-2.07224E-13
 -1      1923 2.16037E+01 6.59040E-02 1.03127E-03-7.49386E-01 2.60732E-13-5.80584E-14
 -1      1924 2.16773E+01 5.89913E-02-3.08459E-03-1.00838E+00 1.01899E-15 1.98076E-13
 -1      1925 2.14243E+01 7.48176E-02 4.20693E-03-6.96590E-01 2.35289E-13 3.61191E-15
 -1      1926 2.11862E+01 7.96935E-02 1.55979E-03-6.51568E-01 3.05120E-13 8.42248E-14
 -1      1927 2.12913E+01 1.02752E-01-2.88938E-03-9.10543E-01 2.99088E-13 9.92382E-14
 -1      1928 2.10329E+01 8.33942E-02 5.01442E-03-5.90739E-01 3.53422E-13 6.07443E-14
 -1      1929 2.08308E+01 8.47940E-02 2.10541E-03-5.41336E-01 3.21491E-13 2.11329E-13
 -1      1930 2.09565E+01 1.21020E-01-2.71995E-03-7.83196E-01 3.40562E-13 8.42577E-14
 -1      1931 2.07026E+01 8.70533E-02 4.98838E-03-4.77586E-01 9.88571E-14 1.43502E-13
 -1      1932 2.05397E+01 8.86603E-02 2.59602E-03-4.25808E-01 3.85100E-14 3.15140E-14
 -1      1933 2.06731E+01 1.28536E-01-2.54221E-03-6.44198E-01 2.66571E-13 1.90324E-13
 -1      1934 2.04345E+01 9.17867E-02 4.33637E-03-3.60166E-01 2.93550E-14-9.45460E-14
 -1      1935 2.03124E+01 9.50811E-02 2.88706E-03-3.05167E-01 2.53573E-15-1.67255E-13
 -1      1936 2.04395E+01 1.35447E-01-2.18851E-03-5.00325E-01-1.40714E-13 1.17282E-14
 -1      1937 2.02370E+01 9.63503E-02 3.52130E-03-2.40881E-01 1.14289E-13-1.26058E-13
 -1      1938 2.01529E+01 9.90616E-02 3.29002E-03-1.84317E-01-1.67160E-14-8.27204E-14
 -1      1939 2.01299E+01 1.36851E-01-1.87341E-03-2.17926E-01-8.09451E-14-6.32325E-14
 -1      1940 2.02598E+01 1.40615E-01-2.86124E-03-3.56387E-01 1.06884E-13-7.54708E-14
 -1      1941 1.96069E+01 1.42106E-01 7.88022E-03 2.60777E-01 1.74742E-13 1.08177E-13
 -1      1942 1.98795E+01 2.04139E-01 1.64413E-02 4.33782E-01 1.95708E-13 1.76383E-13
 -1      1943 2.00927E+01 3.50619E-01-1.53054E-03 6.56606E-01 2.28295E-13 8.23785E-14
 -1      1944 1.93641E+01 7.21323E-02 6.95781E-03 5.75066E-02 1.29787E-13 2.12746E-14
 -1      1945 1.94795E+01 1.01947E-01 1.42131E-02 1.46114E-01 1.36394E-13 7.68699E-14
 -1      1946 1.96997E+01 1.65378E-01-1.95487E-03 2.57600E-01 1.78696E-13 3.86028E-14
 -1      1947 1.92738E+01 3.66151E-02 4.45542E-03-4.86304E-02 2.85418E-14-6.88902E-15
 -1      1948 1.93040E+01 5.23246E-02 8.37013E-03-1.16736E-03 7.48115E-14 7.37561E-15
 -1      1949 1.94996E+01 8.11332E-02-2.85015E-03 4.49873E-02 1.03292E-13-2.54094E-14
 -1      1950 1.92733E+01 1.70379E-02 2.91247E-03-1.02361E-01-2.17769E-14-4.49612E-14
 -1      1951 1.92576E+01 2.57520E-02 4.40994E-03-7.72377E-02 2.93212E-15-7.95371E-15
 -1      1952 1.94215E+01 3.83405E-02-2.88354E-03-6.81427E-02 1.71438E-14-5.35795E-14
 -1      1953 1.93233E+01 5.94076E-03 2.07295E-03-1.26501E-01 4.51465E-14-8.04980E-14
 -1      1954 1.92837E+01 1.07590E-02 2.23708E-03-1.14207E-01 2.43452E-15-6.14122E-14
 -1      1955 1.94172E+01 1.51375E-02-2.36655E-03-1.25768E-01 1.79730E-14-8.39060E-14
 -1      1956 1.94002E+01-1.01206E-04 1.57756E-03-1.33923E-01 9.18050E-14-9.20394E-14
 -1      1957 1.93491E+01 2.35564E-03 1.08123E-03-1.29033E-01 6.97635E-14-7.64554E-14
 -1      1958 1.94560E+01 2.43674E-03-1.77586E-03-1.51608E-01 7.68738E-14-1.55942E-13
 -1      1959 1.94899E+01-2.85845E-03 1.26167E-03-1.32586E-01 5.94538E-14-1.25530E-13
 -1      1960 1.94343E+01-1.91813E-03 4.64519E-04-1.31691E-01 7.69766E-14-8.15640E-14
 -1      1961 1.95187E+01-3.95290E-03-1.29330E-03-1.59605E-01 9.58180E-14-1.25675E-13
 -1      1962 1.95848E+01-3.34201E-03 1.06464E-03-1.27783E-01 2.66972E-14-1.11443E-13
 -1      1963 1.95283E+01-3.41041E-03 1.54622E-04-1.28574E-01 4.46202E-14-1.17223E-13
 -1      1964 1.95940E+01-6.22558E-03-9.52963E-04-1.58623E-01 5.47624E-14-6.48798E-14
 -1      1965 1.96818E+01-2.16400E-03 9.64137E-04-1.23240E-01 8.05171E-14-1.08523E-13
 -1      1966 1.96256E+01-2.92139E-03 3.86439E-05-1.24056E-01 5.90387E-14-1.00555E-13
 -1      1967 1.96757E+01-5.63614E-03-7.39932E-04-1.54672E-01 6.51422E-14-6.27321E-14
 -1      1968 1.97807E+01 2.93633E-04 9.49445E-04-1.21716E-01 7.22940E-14-1.08920E-13
 -1      1969 1.97245E+01-9.44558E-04 5.58065E-05-1.21294E-01 6.74174E-14-1.16216E-13
 -1      1970 1.97615E+01-2.94066E-03-6.31280E-04-1.52050E-01 8.85008E-14-1.28340E-13
 -1      1971 1.98839E+01 3.78878E-03 1.01354E-03-1.25358E-01 7.84271E-14-1.74008E-13
 -1      1972 1.98262E+01 2.20969E-03 1.68530E-04-1.22684E-01 9.09667E-14-1.23397E-13
 -1      1973 1.98515E+01 1.39163E-03-6.08084E-04-1.53984E-01 8.93965E-14-1.03408E-13
 -1      1974 1.99956E+01 8.15675E-03 1.14950E-03-1.35908E-01 1.46481E-15-1.73290E-13
 -1      1975 1.99337E+01 6.33935E-03 3.50739E-04-1.30131E-01 3.38862E-14-1.55036E-13
 -1      1976 1.99482E+01 7.05869E-03-6.56701E-04-1.63005E-01 3.31778E-14-1.37100E-13
 -1      1977 2.01212E+01 1.32516E-02 1.34740E-03-1.54801E-01-3.53338E-14-2.27886E-13
 -1      1978 2.00518E+01 1.12898E-02 5.81571E-04-1.45187E-01-2.83955E-14-2.34506E-13
 -1      1979 2.00552E+01 1.38365E-02-7.67131E-04-1.81156E-01-4.32965E-15-1.55858E-13
 -1      1980 2.02673E+01 1.88774E-02 1.58977E-03-1.83144E-01-4.85907E-15-2.57211E-13
 -1      1981 2.01867E+01 1.68886E-02 8.40401E-04-1.69091E-01-2.70573E-14-2.43285E-13
 -1      1982 2.01776E+01 2.14880E-02-9.31234E-04-2.10057E-01-1.28824E-14-2.84314E-13
 -1      1983 2.04410E+01 2.46957E-02 1.84510E-03-2.21555E-01 8.53168E-14-2.58714E-13
 -1      1984 2.03450E+01 2.28622E-02 1.10184E-03-2.02670E-01 2.42796E-14-2.49725E-13
 -1      1985 2.03212E+01 2.96503E-02-1.14100E-03-2.50808E-01 5.12844E-14-2.36715E-13
 -1      1986 2.06496E+01 3.00948E-02 2.05891E-03-2.69817E-01 1.43001E-13-2.87703E-13
 -1      1987 2.05341E+01 2.87205E-02 1.33021E-03-2.46082E-01 1.37927E-13-2.30902E-13
 -1      1988 2.04921E+01 3.76792E-02-1.38649E-03-3.03702E-01 1.32433E-13-2.09819E-13
 -1      1989 2.08992E+01 3.40064E-02 2.14305E-03-3.26261E-01-8.84726E-14-2.48266E-13
 -1      1990 2.07607E+01 3.35937E-02 1.47369E-03-2.98336E-01 2.54584E-14-2.55563E-13
 -1      1991 2.06961E+01 4.44314E-02-1.65302E-03-3.67671E-01 6.27649E-14-2.23735E-13
 -1      1992 2.11935E+01 3.46683E-02 1.96648E-03-3.86804E-01-1.25952E-13-3.08134E-13
 -1      1993 2.10302E+01 3.60111E-02 1.45939E-03-3.56504E-01-1.09060E-13-2.82176E-13
 -1      1994 2.09381E+01 4.79686E-02-1.91651E-03-4.39378E-01-9.25565E-14-2.11919E-13
 -1      1995 2.15317E+01 2.93701E-02 1.35607E-03-4.43578E-01 7.33810E-14-2.44820E-13
 -1      1996 2.13447E+01 3.36398E-02 1.19296E-03-4.14573E-01-5.93690E-14-2.56868E-13
 -1      1997 2.12202E+01 4.52072E-02-2.13511E-03-5.11880E-01-8.01901E-14-3.20486E-13
 -1      1998 2.19053E+01 1.43199E-02 1.24484E-04-4.83231E-01 2.18484E-13-2.84298E-13
 -1      1999 2.17007E+01 2.30678E-02 5.68559E-04-4.61924E-01 1.66190E-13-2.57590E-13
 -1      2000 2.15405E+01 3.16210E-02-2.23453E-03-5.72868E-01 1.67941E-13-2.09642E-13
 -1      2001 2.22944E+01-1.50296E-02-1.84769E-03-4.85346E-01 8.31958E-14-3.40888E-13
 -1      2002 2.20856E+01-1.27744E-04-5.01652E-04-4.81738E-01 1.84356E-13-2.26438E-13
 -1      2003 2.18902E+01 1.31507E-03-2.08429E-03-6.02749E-01 1.86649E-13-2.35556E-13
 -1      2004 2.26637E+01-6.25343E-02-4.44924E-03-4.22222E-01-9.77783E-14-2.82449E-13
 -1      2005 2.24737E+01-4.05052E-02-2.03198E-03-4.50116E-01-1.08840E-13-3.61656E-13
 -1      2006 2.22509E+01-5.18523E-02-1.46717E-03-5.73498E-01-6.61240E-14-2.20312E-13
 -1      2007 2.29599E+01-1.27839E-01-7.11176E-03-2.62567E-01-7.44491E-14-1.74648E-13
 -1      2008 2.28224E+01-1.00207E-01-3.88649E-03-3.37821E-01-5.08872E-14-1.98303E-13
 -1      2009 2.25911E+01-1.30966E-01-6.48138E-05-4.50275E-01-1.12155E-13-1.08836E-13
 -1      2010 2.31136E+01-2.00185E-01-8.64895E-03 1.69410E-02-5.18995E-14-1.69184E-13
 -1      2011 2.30701E+01-1.73818E-01-5.72370E-03-1.17815E-01-6.32281E-14-1.50432E-13
 -1      2012 2.28639E+01-2.29367E-01 2.46822E-03-1.99434E-01-5.87169E-14-1.25638E-13
 -1      2013 2.40114E+01 5.33448E-01 4.73211E-01 1.17670E+00 1.39194E-14-2.38171E-13
 -1      2014 2.31400E+01-2.40901E-01-6.97933E-03 2.17555E-01 3.62644E-15-8.36271E-14
 -1      2015 2.30070E+01-3.20956E-01 6.24015E-03 1.92568E-01-1.20060E-14-1.66489E-14
 -1      2016 2.48666E+01 5.09508E-01 1.27663E-01 2.15692E+00-1.38712E-13-1.68400E-13
 -1      2017 2.50625E+01 1.22179E+00 5.89584E-01 2.07532E+00-5.56777E-14-2.74364E-13
 -1      2018 2.44118E+01 1.01140E+00 4.19500E-01 2.05723E+00-1.54855E-13-2.42306E-13
 -1      2019 2.38332E+01 1.47568E-01-2.86348E-02 1.88706E+00-4.40598E-14-1.05117E-13
 -1      2020 2.45125E+01 2.13004E-01 3.76503E-02 1.96984E+00-1.08894E-13-8.96158E-14
 -1      2021 2.42522E+01 4.45244E-01 8.25781E-02 2.26144E+00-1.17156E-13-6.17562E-15
 -1      2022 2.27204E+01 2.20491E-01-1.51970E-02 1.61732E+00 1.26531E-14-4.42008E-15
 -1      2023 2.34123E+01 1.64780E-01-1.05226E-02 1.72552E+00-4.00287E-15-2.49384E-14
 -1      2024 2.34997E+01 2.80756E-01 6.93619E-03 2.11474E+00-4.22730E-15 1.54095E-13
 -1      2025 2.17852E+01 3.89626E-01-4.01333E-03 1.09369E+00-2.28501E-13-3.17801E-14
 -1      2026 2.23251E+01 3.27099E-01 2.03645E-03 1.32736E+00-1.44844E-13-3.74561E-14
 -1      2027 2.26251E+01 4.40698E-01-5.28958E-03 1.69395E+00-1.22933E-13 1.85851E-13
 -1      2028 2.12658E+01 4.69415E-01-5.66389E-03 3.26904E-01-3.06644E-13-7.88349E-14
 -1      2029 2.15570E+01 4.65479E-01 1.20086E-02 6.73124E-01-2.83518E-13-7.43641E-14
 -1      2030 2.19560E+01 6.28875E-01-1.08693E-02 9.33736E-01-2.61709E-13-3.91267E-15
 -1      2031 2.12821E+01 3.77798E-01-7.49529E-03-4.40735E-01-1.59423E-13 2.84132E-13
 -1      2032 2.12801E+01 4.51592E-01 1.51730E-02-9.66526E-02-2.11362E-13 5.15161E-14
 -1      2033 2.16982E+01 6.40843E-01-1.15340E-02-4.40679E-03-2.77028E-13 7.52072E-14
 -1      2034 2.17330E+01 1.58117E-01-4.08085E-03-9.26077E-01-1.03473E-13 4.54007E-13
 -1      2035 2.14888E+01 2.72179E-01 1.19706E-02-7.10400E-01-1.13050E-13 4.09525E-13
 -1      2036 2.18727E+01 4.29303E-01-5.00598E-03-7.87790E-01-1.75684E-13 3.19890E-13
 -1      2037 2.23508E+01-6.46182E-02 2.87806E-03-1.00604E+00 2.34541E-13 4.29958E-13
 -1      2038 2.19933E+01 3.01811E-02 4.64360E-03-9.67169E-01 1.13590E-13 4.30595E-13
 -1      2039 2.22993E+01 1.03212E-01 2.85117E-03-1.14867E+00 1.09389E-13 3.30586E-13
 -1      2040 2.28697E+01-1.99141E-01 7.30923E-03-7.61910E-01 1.08030E-13 3.28805E-13
 -1      2041 2.25398E+01-1.55319E-01-2.96139E-03-8.61605E-01 2.14438E-13 3.34127E-13
 -1      2042 2.27287E+01-1.77874E-01 5.21705E-03-1.05696E+00 2.49383E-13 3.55188E-13
 -1      2043 2.31419E+01-2.29622E-01 7.62454E-03-3.72209E-01-1.67028E-14 2.57734E-13
 -1      2044 2.29331E+01-2.33168E-01-7.98382E-03-5.34018E-01-1.04396E-14 3.33538E-13
 -1      2045 2.29889E+01-3.19085E-01 3.03335E-03-6.75001E-01 9.92288E-14 5.00298E-13
 -1      2046 2.31454E+01-1.90854E-01 5.27453E-03 5.82172E-03 1.32850E-13 2.90240E-13
 -1      2047 2.30871E+01-2.20330E-01-9.41332E-03-1.52348E-01 5.16453E-14 2.45753E-13
 -1      2048 2.30261E+01-3.24393E-01 1.39650E-04-2.10247E-01 8.92116E-14 2.21779E-13
 -1      2049 2.29336E+01-1.26338E-01 2.33123E-03 2.88512E-01-1.11213E-13 1.87563E-13
 -1      2050 2.30074E+01-1.61497E-01-8.15400E-03 1.68809E-01-5.67463E-14 2.28068E-13
 -1      2051 2.28685E+01-2.50312E-01-1.38716E-03 1.90391E-01-3.28305E-14 1.97350E-13
 -1      2052 2.25830E+01-6.48713E-02 7.17546E-05 4.57385E-01 8.25785E-14 2.73761E-13
 -1      2053 2.27493E+01-9.43865E-02-5.64830E-03 3.84236E-01-4.59658E-14 2.06924E-13
 -1      2054 2.25760E+01-1.54108E-01-1.60242E-03 4.65298E-01-8.82835E-14 2.18656E-13
 -1      2055 2.21639E+01-1.84988E-02-1.16883E-03 5.29647E-01 2.19890E-13 3.38441E-13
 -1      2056 2.23810E+01-3.88143E-02-2.98591E-03 4.96398E-01 2.09027E-13 3.27416E-13
 -1      2057 2.22089E+01-6.98027E-02-1.21988E-03 6.13322E-01 1.24211E-13 3.65597E-13
 -1      2058 2.17297E+01 1.15633E-02-1.55464E-03 5.33685E-01 4.21395E-15 3.17747E-13
 -1      2059 2.19637E+01-3.55546E-04-7.51098E-04 5.28938E-01 8.92751E-14 3.42483E-13
 -1      2060 2.18155E+01-9.32400E-03-7.62565E-04 6.61329E-01 9.85334E-14 2.73885E-13
 -1      2061 2.13160E+01 2.90312E-02-1.37643E-03 4.95406E-01 8.48455E-14-4.61276E-14
 -1      2062 2.15433E+01 2.30615E-02 8.72249E-04 5.08686E-01-3.78481E-14 1.29645E-13
 -1      2063 2.14299E+01 2.84191E-02-4.61603E-04 6.41674E-01 8.45180E-14 1.90387E-13
 -1      2064 2.09445E+01 3.88698E-02-8.89601E-04 4.33033E-01 3.95778E-13-1.69226E-13
 -1      2065 2.11503E+01 3.62511E-02 1.92572E-03 4.57014E-01 2.78388E-13-1.39897E-14
 -1      2066 2.10741E+01 4.98587E-02-3.49123E-04 5.80983E-01 3.02404E-13-1.94834E-14
 -1      2067 2.06280E+01 4.55837E-02-3.23541E-04 3.56506E-01 2.49981E-13-2.66164E-13
 -1      2068 2.08032E+01 4.42034E-02 2.51451E-03 3.87383E-01 2.27863E-13-1.93098E-13
 -1      2069 2.07611E+01 6.22905E-02-4.00192E-04 4.96670E-01 2.81046E-13-6.58813E-14
 -1      2070 2.03736E+01 5.24285E-02 8.62170E-05 2.69312E-01 3.05236E-13-2.90056E-13
 -1      2071 2.05129E+01 5.08266E-02 2.66491E-03 3.06110E-01 3.43826E-13-1.63852E-13
 -1      2072 2.04981E+01 7.16022E-02-6.56987E-04 3.97508E-01 3.78145E-13-1.00952E-13
 -1      2073 2.01864E+01 6.09056E-02 1.02720E-03 1.71876E-01 1.01235E-13-3.33832E-13
 -1      2074 2.02846E+01 5.79951E-02 2.24882E-03 2.14915E-01 2.35291E-13-2.69440E-13
 -1      2075 2.02881E+01 8.17424E-02-8.90774E-04 2.86751E-01 2.79265E-13 2.80790E-14
 -1      2076 2.00813E+01 6.54479E-02 2.10638E-03 9.42505E-02-1.95033E-13 5.98588E-16
 -1      2077 2.01432E+01 6.62737E-02 1.69972E-03 1.39625E-01-8.51948E-14-1.60429E-13
 -1      2078 2.01533E+01 9.23800E-02-1.01653E-03 1.92389E-01-1.88368E-13 5.73218E-15
 -1      2079 2.00766E+01 9.75437E-02 3.84022E-06 1.20496E-01-3.48707E-13 2.59147E-13
 -1      2080 2.00063E+01 5.81132E-01-1.00047E-03 3.25054E-01 7.06739E-14 3.64270E-13
 -1      2081 2.00258E+01 4.77079E-01 1.72412E-03 3.15780E-01 1.78856E-14 1.39653E-13
 -1      2082 2.00445E+01 3.85861E-01-4.17215E-05 2.92785E-01-1.04673E-13 1.02222E-13
 -1      2083 2.00626E+01 2.92899E-01 2.23008E-03 2.61306E-01-9.46414E-14 3.49114E-13
 -1      2084 2.00525E+01 4.24001E-01-3.17975E-04 3.88588E-01-9.14510E-14 1.95890E-13
 -1      2085 2.00683E+01 2.27798E-01 6.08523E-04 2.18025E-01-1.42558E-13 4.04066E-13
 -1      2086 2.00791E+01 1.54502E-01 2.02057E-03 1.72097E-01-2.64534E-13 2.39861E-13
 -1      2087 2.01129E+01 1.54031E-01 1.34316E-03 2.11124E-01-2.28209E-13 2.38441E-13
 -1      2088 2.00913E+01 2.71905E-01-8.01017E-04 3.13107E-01-1.98887E-13 4.68008E-13
 -1      2089 1.99710E+01 7.70830E-01-2.12423E-03 3.10851E-01-1.50204E-13-9.27188E-14
 -1      2090 1.99887E+01 6.70351E-01 3.73111E-04 3.22161E-01-3.35151E-14 2.75223E-13
 -1      2091 1.99969E+01 6.03267E-01 5.48848E-04 4.09891E-01-6.32451E-14 6.86543E-14
 -1      2092 1.99405E+01 9.38815E-01-3.14585E-03 2.53381E-01 4.13735E-14 4.72121E-13
 -1      2093 1.99554E+01 8.52365E-01-1.01441E-03 2.83173E-01-1.49356E-13 4.57036E-13
 -1      2094 1.99459E+01 7.74042E-01 1.59515E-03 3.75240E-01-7.03373E-14 2.74122E-13
 -1      2095 1.99184E+01 1.06023E+00-3.80401E-03 1.60911E-01 7.10141E-14 1.91655E-13
 -1      2096 1.99287E+01 1.00141E+00-2.29063E-03 2.04755E-01-1.52873E-17 4.66423E-13
 -1      2097 1.99037E+01 9.18479E-01 2.59865E-03 2.89243E-01-7.68900E-14 4.60071E-13
 -1      2098 1.99071E+01 1.11903E+00-3.96825E-03 4.57433E-02 9.67231E-14-7.87152E-14
 -1      2099 1.99115E+01 1.09606E+00-3.25297E-03 9.77917E-02 2.14771E-14 1.68048E-13
 -1      2100 1.98748E+01 1.01725E+00 3.33563E-03 1.63502E-01-6.65565E-14 1.27521E-13
 -1      2101 1.99081E+01 1.10685E+00-3.58899E-03-7.69521E-02 2.12415E-13-3.00820E-13
 -1      2102 1.99060E+01 1.12321E+00-3.77997E-03-2.36269E-02 2.48893E-13-2.34420E-13
 -1      2103 1.98624E+01 1.05739E+00 3.67779E-03 1.44070E-02-1.93642E-13-1.16966E-13
 -1      2104 1.99218E+01 1.02454E+00-2.70799E-03-1.90577E-01-4.53697E-14-7.66438E-13
 -1      2105 1.99132E+01 1.07842E+00-3.78592E-03-1.43327E-01 1.89871E-13-4.37413E-13
 -1      2106 1.98685E+01 1.03297E+00 3.54357E-03-1.38392E-01 2.11475E-14-4.96109E-13
 -1      2107 1.99468E+01 8.85370E-01-1.36481E-03-2.77745E-01 1.40726E-13-5.78447E-13
 -1      2108 1.99325E+01 9.67917E-01-3.33148E-03-2.43913E-01 1.22445E-13-7.60167E-13
 -1      2109 1.98931E+01 9.47366E-01 3.01138E-03-2.73181E-01 1.39581E-14-6.15671E-13
 -1      2110 1.99819E+01 7.02671E-01 2.22061E-04-3.27633E-01-1.62817E-14 3.15095E-13
 -1      2111 1.99627E+01 8.05417E-01-2.47259E-03-3.11883E-01 1.53971E-13 1.51588E-13
 -1      2112 1.99338E+01 8.10549E-01 2.02420E-03-3.71922E-01 2.42968E-13-2.18035E-13
 -1      2113 2.00230E+01 5.02467E-01 1.74475E-03-3.28352E-01-2.75573E-14 9.86541E-14
 -1      2114 2.00011E+01 6.09687E-01-1.40511E-03-3.35334E-01 7.66399E-14 1.49348E-13
 -1      2115 1.99880E+01 6.37588E-01 8.45018E-04-4.19571E-01 2.03007E-13 2.50817E-13
 -1      2116 2.00643E+01 3.05422E-01 9.88546E-04-2.76498E-01-1.43264E-13-1.69166E-13
 -1      2117 2.00430E+01 4.06680E-01-4.95270E-04-3.06947E-01-7.54336E-14-6.55912E-14
 -1      2118 2.00495E+01 4.50632E-01-4.16452E-05-4.05176E-01-2.07408E-15-1.24211E-13
 -1      2119 1.07436E+01-4.46348E+00-1.10988E-01 6.54632E+00-8.69305E-14 9.56180E-14
 -1      2120 6.78067E+00-6.04923E+00-3.94114E-01 5.15319E+00-1.80356E-13 1.12965E-14
 -1      2121 4.59918E-01-6.19264E+00-3.67707E-01 7.69817E-01-1.50172E-13 3.63376E-13
 -1      2122 4.74422E-01-6.44980E+00-4.09677E-01-8.52437E-01-2.31773E-13 5.53002E-13
 -1      2123 3.95274E+00-5.75098E+00-2.76018E-01 4.33412E+00-1.58540E-13-8.67084E-14
 -1      2124 1.85092E+00-6.44325E+00-4.03259E-01 2.86828E+00-2.11831E-13 1.85907E-13
 -1      2125 7.50875E+00-4.74261E+00-1.15398E-01 5.86093E+00-2.75502E-13 4.44922E-14
 -1      2126 1.96365E+01-2.43907E+00 5.62056E-02 6.79327E+00 1.52267E-13-3.33400E-13
 -1      2127 1.52345E+01-4.36836E+00-2.38805E-01 6.16463E+00 6.88893E-14-1.70530E-13
 -1      2128 2.73938E+01 3.27392E-01 1.80647E-01 5.89561E+00-1.06415E-13-4.48419E-13
 -1      2129 2.27069E+01-1.42892E+00-1.42700E-01 5.76259E+00 4.13003E-14-4.34430E-13
 -1      2130 1.95258E+01 4.01768E+00-2.49751E-02-1.70166E+00-2.27590E-13-3.02685E-13
 -1      2131 1.96481E+01 3.94369E+00-2.46668E-02-1.95809E+00-2.61488E-13-2.45352E-13
 -1      2132 1.99633E+01 3.23734E+00-1.87360E-02-1.92756E+00-2.75066E-13-2.03653E-13
 -1      2133 1.96979E+01 3.58975E+00-6.67004E-03-1.52172E+00-2.16320E-13-2.97594E-13
 -1      2134 3.73923E+01 5.84583E+00 2.78352E-01 1.68608E+00-2.45914E-14-9.21541E-13
 -1      2135 3.52697E+01 4.87908E+00 1.97733E-01 2.74507E+00-9.40914E-15-9.14380E-13
 -1      2136 3.85117E+01 6.89939E+00 3.09182E-01-1.07758E-02 9.83102E-14-7.73395E-13
 -1      2137 3.74130E+01 6.89865E+00 1.98483E-01 1.03242E+00-3.70814E-14-8.97893E-13
 -1      2138 3.65675E+01 6.08735E+00 1.79900E-01-1.51710E+00 5.40124E-13-6.93667E-13
 -1      2139 3.85940E+01 6.49584E+00 3.06861E-01-4.29704E-01 3.70870E-13-6.38600E-13
 -1      2140 3.43041E+01 7.81850E+00 2.97978E-01 3.75300E-01 1.37557E-13-6.58529E-13
 -1      2141 3.17425E+01 3.29381E+00 4.25347E-02-3.59414E+00 5.50150E-13-7.53730E-13
 -1      2142 3.52859E+01 4.39980E+00 2.26879E-01-2.54461E+00 5.90972E-13-5.41345E-13
 -1      2143 2.45542E+01 3.80929E-01-1.32063E-01-5.26087E+00 5.01044E-13-7.07601E-13
 -1      2144 2.94027E+01 1.81763E+00 1.68526E-01-5.06202E+00 4.77229E-13-8.51208E-13
 -1      2145 1.72288E+01-2.09049E+00-1.01880E-01-6.10658E+00 2.49301E-13-7.09821E-13
 -1      2146 2.16058E+01-3.40665E-01 1.04465E-01-6.52293E+00 4.19331E-13-7.69496E-13
 -1      2147 2.47833E+01-1.58172E+00 3.29176E-02-4.28302E+00 1.22402E-13-4.92606E-13
 -1      2148 7.75057E+00-4.09749E+00-3.54510E-01-5.42563E+00-8.90399E-14-9.69693E-13
 -1      2149 1.19275E+01-2.78296E+00-1.58715E-01-6.54609E+00 7.48845E-14-9.96314E-13
 -1      2150 2.33559E+00-5.26474E+00-3.76559E-01-3.78697E+00-1.90181E-13-5.61301E-13
 -1      2151 4.59923E+00-3.99184E+00-2.13917E-01-4.91334E+00-3.71925E-15-7.82679E-13
 -1      2152 1.12769E-01-5.16477E+00-2.82203E-01-1.54750E+00-5.26267E-13-3.68705E-13
 -1      2153 8.47512E-01-4.85759E+00-2.62085E-01-2.75743E+00-3.23852E-13-4.63407E-13
 -1      2154 1.44395E+00-5.45614E+00-3.02405E-01 1.47895E+00-6.21586E-13-4.30433E-13
 -1      2155 3.13731E-01-5.39724E+00-3.11946E-01 1.90604E-01-5.45453E-13-2.86882E-13
 -1      2156 6.54755E+00-5.23146E+00-2.51027E-01 4.00009E+00-6.86451E-13-6.54449E-13
 -1      2157 3.44028E+00-6.20112E+00-4.55174E-01 2.57870E+00-6.59139E-13-5.65770E-13
 -1      2158 1.55530E+01-4.59716E+00-1.18976E-01 5.32887E+00-6.89671E-13-3.32345E-13
 -1      2159 1.10575E+01-5.78746E+00-3.63167E-01 4.40572E+00-6.98441E-13-4.71047E-13
 -1      2160 2.45674E+01-2.60832E+00 2.03212E-02 4.98950E+00-6.36047E-13-1.60483E-13
 -1      2161 1.91679E+01-4.15742E+00-3.01662E-01 4.65520E+00-7.12153E-13-2.63622E-13
 -1      2162 3.29444E+01 5.55900E-01 1.98698E-01 3.00084E+00-3.72979E-13-3.94906E-13
 -1      2163 2.83034E+01-1.19270E+00-5.23800E-02 3.46496E+00-4.94438E-13-3.52274E-13
 -1      2164 3.87958E+01 4.42448E+00 4.38542E-01 1.16389E+00-4.45061E-13-2.94931E-13
 -1      2165 3.50948E+01 2.92439E+00 1.35994E-01 1.54328E+00-4.01318E-13-4.01235E-13
 -1      2166 4.00769E+01 6.70414E+00 3.51831E-01-5.45212E-01-3.54383E-13-1.41692E-14
 -1      2167 3.95875E+01 5.82282E+00 3.77464E-01 5.73865E-01-3.83582E-13-1.33837E-13
 -1      2168 3.59477E+01 5.46548E+00 3.36177E-01-9.87658E-01-4.91496E-13-1.62426E-13
 -1      2169 3.95193E+01 6.60409E+00 3.56243E-01-1.79428E+00-5.12757E-13 1.45051E-13
 -1      2170 3.95874E+01 7.04493E+00 3.07138E-01-7.62123E-01-4.13614E-13 4.02733E-14
 -1      2171 3.65254E+01 4.82089E+00 2.20318E-01-3.30565E+00-4.32154E-13 4.10227E-13
 -1      2172 3.93338E+01 5.65071E+00 3.78877E-01-2.41645E+00-4.28324E-13 2.92322E-13
 -1      2173 3.58001E+01 6.75305E+00 3.54463E-01-3.72183E-01-4.55747E-13 5.79536E-14
 -1      2174 3.02828E+01 1.29483E+00-3.76182E-03-4.88265E+00-2.78888E-13 3.31402E-13
 -1      2175 3.46549E+01 2.88864E+00 3.17196E-01-4.49437E+00-3.19491E-13 4.12670E-13
 -1      2176 2.26458E+01-2.03264E+00-1.66372E-01-5.98419E+00-2.71116E-13 4.95048E-13
 -1      2177 2.75692E+01 3.55723E-02 1.89232E-01-6.36758E+00-2.78555E-13 3.32956E-13
 -1      2178 1.40471E+01-4.80351E+00-3.04856E-01-6.40467E+00-4.96880E-13 1.16684E-13
 -1      2179 1.88123E+01-3.27795E+00-1.10931E-02-7.09623E+00-1.66755E-13 5.68739E-13
 -1      2180 6.94527E+00-5.96606E+00-3.90444E-01-5.31814E+00-1.13853E-13 2.17298E-13
 -1      2181 1.05831E+01-4.51499E+00-1.29287E-01-6.56197E+00-3.83360E-13-1.07504E-13
 -1      2182 1.51189E+01-5.04362E+00-2.29133E-02-7.03668E+00-1.22125E-13 6.64503E-14
 -1      2183 1.45216E+00-6.74760E+00-4.62351E-01-2.54903E+00-2.28456E-13 5.13034E-13
 -1      2184 3.26192E+00-5.83717E+00-3.34722E-01-4.04906E+00-2.37699E-13 4.00180E-13
 -1      2185 3.36183E+01 2.99325E+00 2.35989E-01 3.66397E+00-6.56281E-14-9.77440E-13
 -1      2186 2.99122E+01 1.63193E+00 3.67448E-02 4.33053E+00-1.73667E-13-6.93001E-13
 -1      2187 2.91642E+01-4.20464E-01 1.72914E-01 3.08441E+00-1.71155E-13-8.39384E-13
 -1      2188 2.07260E+01 1.10846E+00-2.09043E-02-1.61742E+00-2.50071E-13 2.57450E-13
 -1      2189 3.28450E+01 3.51114E+00 2.32990E-01 1.00064E+00-9.55902E-14-9.95037E-13
 -1      2190 2.06196E+01 1.33216E+00-1.78560E-02-1.67935E+00-2.63772E-13 8.22103E-14
 -1      2191 2.58782E+00-4.23311E+00-1.70465E-01 2.35688E+00-2.18270E-13 1.95233E-13
 -1      2192 1.52920E+01-5.00848E+00-3.23109E-02 6.70297E+00-1.46549E-14-5.35336E-15
 -1      2193 2.00847E+01 2.48206E-01 1.51331E-03-2.65234E-01-5.83373E-14-3.76772E-14
 -1      2194 2.27831E+00-4.26322E+00-1.97939E-01-2.19013E+00-2.05225E-13 4.76064E-13
 -1      2195 2.32660E+01-3.51422E+00 4.47257E-02 5.34162E+00 1.02640E-13-5.40012E-13
 -1      2196 7.28432E+00-4.75564E+00-1.34862E-01-5.81041E+00-3.45279E-14 1.82437E-13
 -1      2197 2.27367E+01-4.08716E+00 1.28541E-02-5.79375E+00-1.74694E-13 3.85164E-13
 -1      2198 3.42642E+01 3.27396E+00 2.72436E-01-1.31028E+00-2.99150E-13 9.91429E-14
 -1      2199 3.63466E+01 7.50757E+00 3.18769E-01-6.88765E-01-4.63962E-13-2.66107E-14
 -1      2200 3.34367E+01 1.02653E+00 2.09053E-01 1.87747E-01-4.17735E-13-3.58158E-13
 -1      2201 2.77318E+01-3.33656E+00 7.58284E-02 2.69291E+00-4.38122E-13-1.46383E-13
 -1      2202 1.99063E+01-5.63047E+00-8.73580E-02 4.50890E+00-4.81115E-13-7.01661E-14
 -1      2203 1.12141E+01-5.39392E+00-1.04085E-01 4.79024E+00-4.72233E-13-4.28532E-13
 -1      2204 4.03263E+00-4.13671E+00-1.53530E-01 2.73868E+00-4.49918E-13-4.94382E-13
 -1      2205 1.31212E+00-3.10194E+00-1.07204E-01-6.54476E-01-3.70357E-13-4.21330E-13
 -1      2206 2.75069E+00-3.31262E+00-1.43157E-01-4.00734E+00-2.04836E-13-7.09155E-13
 -1      2207 1.59708E+01-2.92171E+00-3.59436E-02-6.24494E+00 9.82547E-15-6.64802E-13
 -1      2208 1.96401E+01-3.50955E+00-1.48304E-01-5.53860E+00-1.27370E-13-4.65780E-13
 -1      2209 1.52380E+01-3.32970E+00 1.44227E-01-6.45798E+00-2.19574E-13-7.27796E-13
 -1      2210 3.35730E+01 5.44316E+00 2.39980E-01-2.64356E-02 4.99351E-13-3.79363E-13
 -1      2211 3.43401E+01 6.93381E+00 2.59891E-01 2.81386E-01 8.54872E-15-7.61363E-13
 -1      2212 3.02406E+01 1.57652E+00 1.82279E-01-1.85236E+00 2.67576E-13-3.87579E-13
 -1      2213 7.96447E+00-3.51022E+00-6.96247E-02-6.12440E+00-1.46994E-13-9.01196E-13
 -1      2214 2.97614E+01-8.64325E-01 1.43340E-01-3.56713E+00-1.61593E-13 1.71363E-13
 -1      2215 2.01397E+01 5.06665E-01 3.74941E-03 6.79688E-01 2.20979E-13-1.17675E-14
 -1      2216 2.04078E+01 7.00109E-01 2.08000E-02 9.71388E-01 2.50048E-13 1.82844E-14
 -1      2217 1.95680E+01 3.51735E+00-1.11348E-02-5.91998E-01-1.08618E-13-3.62961E-13
 -1      2218 1.96028E+01 3.47115E+00-1.05208E-02-7.76624E-01-1.37689E-13-3.73887E-13
 -1      2219 1.96487E+01 3.38238E+00-1.28090E-02-9.41107E-01-1.55479E-13-3.54207E-13
 -1      2220 1.97084E+01 3.30158E+00-1.27795E-02-1.13119E+00-1.83896E-13-3.14573E-13
 -1      2221 1.97939E+01 3.03480E+00 3.35493E-04-7.92512E-01-1.33936E-13-3.37706E-13
 -1      2222 1.95218E+01 3.60030E+00-9.64007E-03 9.95508E-02-1.11208E-15-3.77586E-13
 -1      2223 1.95212E+01 3.60111E+00-9.64790E-03-8.01006E-02-3.17126E-14-3.84161E-13
 -1      2224 1.95473E+01 3.56074E+00-9.73805E-03 4.45975E-01 4.22804E-14-3.91640E-13
 -1      2225 1.95303E+01 3.58339E+00-1.01629E-02 2.64961E-01 1.64603E-14-3.86025E-13
 -1      2226 1.96880E+01 3.22357E+00-8.70496E-04 1.69735E-01 5.76508E-15-3.69993E-13
 -1      2227 1.96078E+01 3.46389E+00-1.06275E-02 7.90362E-01 1.01040E-13-3.81166E-13
 -1      2228 1.95723E+01 3.51104E+00-1.12317E-02 6.08735E-01 6.84138E-14-3.94038E-13
 -1      2229 1.97241E+01 3.15979E+00-4.77309E-04 4.88486E-01 5.32246E-14-3.75063E-13
 -1      2230 1.97164E+01 3.28974E+00-1.29581E-02 1.14409E+00 1.69350E-13-3.31532E-13
 -1      2231 1.96548E+01 3.37326E+00-1.29009E-02 9.54650E-01 1.30419E-13-3.56260E-13
 -1      2232 1.97995E+01 3.02572E+00 2.75852E-04 8.04530E-01 1.13100E-13-3.42793E-13
 -1      2233 1.98927E+01 3.00368E+00-1.81777E-02 1.49165E+00 2.32512E-13-2.92150E-13
 -1      2234 1.97947E+01 3.14513E+00-1.51923E-02 1.30102E+00 1.85283E-13-3.05546E-13
 -1      2235 1.99264E+01 2.79999E+00 1.92952E-03 1.11116E+00 1.72731E-13-2.91739E-13
 -1      2236 2.01673E+01 2.54392E+00-2.84060E-02 1.79638E+00 2.89615E-13-2.31967E-13
 -1      2237 2.00181E+01 2.78340E+00-1.70776E-02 1.62179E+00 2.58502E-13-2.74137E-13
 -1      2238 2.01180E+01 2.44894E+00 5.86823E-03 1.37754E+00 2.27826E-13-2.56573E-13
 -1      2239 1.98628E+01 2.68791E-01 4.76891E-03 2.86692E-01 1.73139E-13-3.71888E-14
 -1      2240 2.00235E+01 3.68322E-01 2.01730E-02 4.44073E-01 2.03525E-13-4.20193E-15
 -1      2241 2.02048E+01 6.35053E-01-2.25788E-03 7.06415E-01 2.24388E-13-6.81222E-14
 -1      2242 2.03958E+01 8.55870E-01 1.35330E-02-1.00144E+00-2.19536E-13 4.85896E-15
 -1      2243 2.01833E+01 6.27393E-01-4.65295E-03-6.93430E-01-1.99084E-13 4.84205E-15
 -1      2244 3.15587E+01 3.77131E+00-1.19666E-01-1.47306E-01-9.15379E-14-7.81097E-13
 -1      2245 3.04916E+01 1.90179E+00-3.42430E-02 2.44212E-01-1.72418E-13-7.95253E-13
 -1      2246 2.01184E+01 4.70526E-01 1.62095E-02-4.76194E-01-1.80256E-13 7.15823E-15
 -1      2247 1.99779E+01 3.45489E-01 1.37746E-04-3.04389E-01-1.50815E-13-4.60352E-16
 -1      2248 2.02414E+01 7.50156E-01-7.01673E-04-6.95287E-01-2.03319E-13-7.81353E-14
 -1      2249 1.99149E+01 2.60894E-01 1.08918E-02-1.66436E-01-1.30005E-13 1.23471E-14
 -1      2250 1.98367E+01 1.89963E-01 8.10010E-04-6.85032E-02-9.85776E-14-1.02587E-14
 -1      2251 2.00776E+01 4.17802E-01-3.67566E-03-3.10804E-01-1.37785E-13-7.73233E-14
 -1      2252 1.97932E+01 1.41081E-01 6.42165E-03 1.46992E-02-8.31177E-14-1.10692E-14
 -1      2253 1.97592E+01 9.95548E-02 8.49773E-04 6.92341E-02-6.41882E-14-2.30522E-14
 -1      2254 1.99580E+01 2.30305E-01-3.67951E-03-6.98011E-02-1.03118E-13-4.50228E-14
 -1      2255 1.97346E+01 7.05394E-02 3.60074E-03 1.16786E-01-6.38368E-14-6.74326E-14
 -1      2256 1.97293E+01 4.61726E-02 8.08822E-04 1.45317E-01-8.67048E-14-6.55149E-14
 -1      2257 1.98844E+01 1.19994E-01-3.01647E-03 7.41395E-02-9.80778E-14-1.08528E-13
 -1      2258 1.97196E+01 2.91611E-02 1.88203E-03 1.70404E-01-9.77085E-14-6.68426E-14
 -1      2259 1.97321E+01 1.55286E-02 7.71717E-04 1.83534E-01-7.86455E-14-6.21736E-14
 -1      2260 1.98482E+01 5.48481E-02-2.24764E-03 1.55422E-01-9.97660E-14-1.27379E-13
 -1      2261 1.97330E+01 6.30670E-03 8.26627E-04 1.95133E-01-7.48988E-14-9.46677E-14
 -1      2262 1.97562E+01-1.91695E-04 7.67415E-04 1.99722E-01-8.46114E-14-9.76290E-14
 -1      2263 1.98392E+01 1.78916E-02-1.60391E-03 1.97631E-01-8.84975E-14-1.60492E-13
 -1      2264 1.97646E+01-4.06084E-03 1.83694E-04 2.04085E-01-1.24886E-13-6.89495E-14
 -1      2265 1.97944E+01-5.56552E-03 8.15490E-04 2.04817E-01-1.47893E-13-6.45802E-14
 -1      2266 1.98492E+01-3.74934E-04-1.13708E-03 2.17091E-01-9.57845E-14-1.18019E-13
 -1      2267 1.98079E+01-5.56998E-03-1.92713E-04 2.06429E-01-1.34494E-13-5.38196E-14
 -1      2268 1.98420E+01-3.39555E-03 9.27959E-04 2.06659E-01-1.09806E-13-5.63511E-14
 -1      2269 1.98724E+01-5.58232E-03-8.31355E-04 2.25357E-01-1.47222E-13-7.84860E-14
 -1      2270 1.98594E+01-4.64145E-04-3.94445E-04 2.08847E-01-7.70650E-14-5.19207E-14
 -1      2271 1.98972E+01 4.58342E-03 1.11161E-03 2.11098E-01-7.73219E-15-5.03296E-14
 -1      2272 1.99049E+01-1.19050E-03-6.55424E-04 2.30850E-01-8.60629E-14-3.81929E-14
 -1      2273 1.99179E+01 9.87719E-03-4.83267E-04 2.16437E-01 1.67420E-14-2.52050E-14
 -1      2274 1.99596E+01 1.73212E-02 1.37030E-03 2.22711E-01 4.34389E-14 2.41078E-14
 -1      2275 1.99449E+01 1.06619E-02-5.79235E-04 2.39928E-01-6.16771E-15 7.80218E-15
 -1      2276 1.99837E+01 2.46335E-02-5.02236E-04 2.33294E-01 4.41587E-14-6.57765E-16
 -1      2277 2.00308E+01 3.42050E-02 1.70547E-03 2.45272E-01 3.80076E-14 7.70376E-15
 -1      2278 1.99920E+01 2.86809E-02-5.77260E-04 2.57608E-01 4.65662E-14 3.01689E-14
 -1      2279 2.00587E+01 4.33249E-02-4.81732E-04 2.62879E-01-3.16476E-14 3.30872E-14
 -1      2280 2.01129E+01 5.48572E-02 2.11464E-03 2.82029E-01-8.18362E-14 8.37251E-15
 -1      2281 2.00467E+01 5.20963E-02-6.27931E-04 2.88028E-01-1.24616E-14 6.81393E-15
 -1      2282 2.01456E+01 6.56096E-02-4.42644E-04 3.08216E-01-1.37839E-13-2.65106E-14
 -1      2283 2.02094E+01 7.89194E-02 2.58768E-03 3.35827E-01-1.42329E-13-4.24432E-14
 -1      2284 2.01104E+01 8.03862E-02-7.12761E-04 3.34726E-01-1.38261E-13 9.20237E-14
 -1      2285 2.02479E+01 9.10415E-02-3.97301E-04 3.71923E-01-1.36198E-13-6.29261E-14
 -1      2286 2.03240E+01 1.05765E-01 3.10055E-03 4.09027E-01-1.38667E-13-3.78819E-14
 -1      2287 2.01851E+01 1.12966E-01-8.16221E-04 4.00731E-01-1.72977E-13 5.82843E-14
 -1      2288 2.03697E+01 1.18725E-01-3.47902E-04 4.56018E-01-1.75367E-13-9.83347E-14
 -1      2289 2.04611E+01 1.34070E-01 3.60580E-03 5.03185E-01-1.38837E-13-6.15729E-14
 -1      2290 2.02733E+01 1.48770E-01-9.27575E-04 4.88444E-01-2.13568E-13 8.08766E-15
 -1      2291 2.05155E+01 1.46787E-01-2.81466E-04 5.61442E-01-8.74738E-14-6.73725E-14
 -1      2292 2.06250E+01 1.61146E-01 4.01886E-03 6.18362E-01-2.26219E-14-7.52744E-14
 -1      2293 2.03778E+01 1.85613E-01-1.04647E-03 5.99247E-01-1.19608E-13 6.84980E-15
 -1      2294 1.47494E+01-6.75690E-01-1.91244E+00 5.56750E-01 1.62448E-12 2.60481E-12
 -1      2295 7.85258E+00-1.80610E+00-2.51902E+00 7.68226E-01 2.21811E-12 6.54898E-12
 -1      2296 2.05020E+01 2.19230E-01-1.19480E-03 7.32735E-01-5.92903E-14-7.60278E-15
 -1      2297 8.58507E+00-4.04646E-01-4.88716E-01 1.03675E+00 7.38423E-13 5.31392E-12
 -1      2298 8.09420E+00 5.29662E-01-2.27032E-01 1.41581E+00 3.90096E-13 5.52990E-12
 -1      2299 5.66215E+00-9.84425E-01-2.43710E+00 1.64597E+00 3.08184E-13 7.37121E-12
 -1      2300 7.77605E+00 1.16546E+00-7.13088E-03 1.46417E+00 4.02959E-13 5.52381E-12
 -1      2301 7.27469E+00 1.64875E+00-8.15188E-02 1.52265E+00 2.56807E-13 5.75630E-12
 -1      2302 7.27953E+00 9.63482E-01-8.60393E-02 1.19184E+00 4.74013E-13 5.63200E-12
 -1      2303 6.67616E+00 1.87276E+00-1.16879E-01 1.34807E+00 2.70846E-13 6.12337E-12
 -1      2304 5.63811E+00 1.49782E+00-5.40263E-01 4.89305E-01 1.63203E-14 6.81044E-12
 -1      2305 6.26824E+00 1.56699E+00 1.76048E-02 8.21785E-01 5.35259E-13 5.96365E-12
 -1      2306 4.58936E+00-6.87616E-01-1.38084E+00-2.46876E-01 1.36002E-13 7.69990E-12
 -1      2307 5.31922E+00-3.89524E+00-2.21359E+00 5.20896E-01-2.72227E-13 8.36997E-12
 -1      2308 5.16870E+00-1.89175E-01-5.24463E-01-6.07925E-02 7.77434E-13 7.06549E-12
 -1      2309 1.69639E+00-6.32718E+00-4.33670E+00 7.13458E-01 1.74083E-13 1.10949E-11
 -1      2310-5.02424E-01-7.06104E+00-5.51801E+00 3.04213E+00-2.47713E-12 1.62217E-11
 -1      2311 3.60913E+00-3.39950E+00-1.78756E+00-8.26314E-01 1.39755E-12 9.28313E-12
 -1      2312 1.15265E+01-8.81045E+00-5.31263E+00 7.04324E+00-3.49509E-12 1.04077E-11
 -1      2313 3.59874E+01-1.89551E+00 3.99372E+00 9.25249E+00-4.23606E-13-3.39351E-12
 -1      2314-5.63544E+00-1.20781E+01-9.08047E+00-4.07707E+00 9.01634E-12 1.43947E-11
 -1      2315 2.70224E+01-5.00467E+00 5.53082E-01 4.94107E+00-4.72372E-13-2.17604E-14
 -1      2316 2.79430E+01-3.91248E+00 6.93725E-01 3.22217E+00-1.71016E-13-3.01925E-13
 -1      2317 3.85778E+01-6.64516E+00 2.91883E+00 1.95331E-01 7.28861E-13-2.72870E-12
 -1      2318 2.66015E+01-3.41855E+00 3.21349E-01 2.88988E+00 8.62088E-14-6.68354E-14
 -1      2319 2.63519E+01-3.30590E+00 1.02106E-01 1.60471E+00 6.16417E-14-4.66779E-14
 -1      2320 2.79798E+01-4.27244E+00 2.51927E-01 2.44597E+00-5.87308E-14-1.79468E-13
 -1      2321 2.58352E+01-3.00627E+00-2.15907E-02 6.01044E-01 1.13367E-13 3.13924E-14
 -1      2322 2.57621E+01-2.49183E+00 7.25827E-04-3.23194E-01 5.95270E-15 7.79064E-14
 -1      2323 2.71055E+01-4.13011E+00-5.29188E-02 8.79044E-01 1.04843E-13-1.72085E-14
 -1      2324 2.54266E+01-1.86538E+00-6.34180E-02-1.12441E+00-4.19812E-14 1.41265E-13
 -1      2325 2.52346E+01-1.03439E+00 1.15108E-02-1.63460E+00-1.50427E-13 2.84918E-13
 -1      2326 2.65334E+01-2.83200E+00-5.24031E-02-9.37033E-01-5.87117E-15 1.42761E-13
 -1      2327 2.47719E+01-1.48676E-01-8.14351E-02-1.88632E+00-3.01670E-13 3.55775E-13
 -1      2328 2.45292E+01 7.88224E-01 1.47662E-02-1.79866E+00-3.07004E-13 3.36381E-13
 -1      2329 2.59611E+01-7.78739E-01-4.13468E-02-2.09205E+00-1.69805E-13 2.95387E-13
 -1      2330 2.40927E+01 1.53749E+00-5.82727E-02-1.28091E+00-3.11185E-13 1.85632E-13
 -1      2331 2.39456E+01 2.02721E+00-4.88733E-03-6.77840E-01-2.62734E-13 1.11612E-13
 -1      2332 2.52198E+01 1.44592E+00-4.02357E-02-1.83654E+00-3.60607E-13 2.85827E-13
 -1      2333 2.38501E+01 2.13672E+00-1.32619E-02 2.60237E-01-2.43167E-13-6.64434E-14
 -1      2334 2.38557E+01 1.86292E+00-6.14146E-02 9.30376E-01-2.30913E-13-7.60954E-14
 -1      2335 2.47705E+01 2.69690E+00-3.61460E-02-2.55684E-01-3.56021E-13-3.26709E-14
 -1      2336 2.40902E+01 1.34769E+00 4.81514E-03 1.61661E+00-1.58103E-13-1.42375E-13
 -1      2337 2.42565E+01 6.30623E-01-6.20584E-02 1.92508E+00-1.53785E-13-1.59393E-13
 -1      2338 2.47707E+01 2.03937E+00-2.59887E-02 1.48559E+00-2.72150E-13-1.34986E-13
 -1      2339 2.44121E+01-3.31126E-02 8.64757E-03 1.92040E+00-1.04349E-13-8.88704E-14
 -1      2340 2.45329E+01-6.03550E-01-3.26714E-02 1.77944E+00-2.87040E-14-1.04833E-13
 -1      2341 2.51025E+01 3.66246E-01-1.02755E-02 2.09724E+00-6.36539E-14-5.73916E-14
 -1      2342 2.43697E+01-9.79442E-01-1.11356E-02 1.35162E+00-6.44057E-14 2.06680E-14
 -1      2343 2.43749E+01-1.18328E+00-5.39551E-03 9.66121E-01-5.59791E-14 6.41362E-14
 -1      2344 2.49667E+01-1.02398E+00 3.60725E-03 1.53499E+00 1.39506E-14 1.85804E-13
 -1      2345 2.39766E+01-1.22438E+00-2.22578E-02 4.54371E-01 6.89761E-14 8.47398E-14
 -1      2346 2.38625E+01-1.14384E+00 8.59507E-03 5.40283E-02 1.50336E-13 1.89626E-13
 -1      2347 2.43375E+01-1.56953E+00-5.48411E-03 5.09039E-01 8.80714E-14 2.09819E-13
 -1      2348 2.34154E+01-1.00401E+00-2.09337E-02-3.37270E-01 6.21517E-14-2.01334E-14
 -1      2349 2.32247E+01-8.13607E-01 1.14613E-02-6.37296E-01-5.13146E-14-7.59425E-14
 -1      2350 2.34950E+01-1.40320E+00-1.30459E-02-4.08625E-01 2.56881E-14 1.19466E-13
 -1      2351 2.28371E+01-6.32822E-01-1.44746E-02-8.66971E-01 3.92446E-14-8.32548E-14
 -1      2352 2.26130E+01-4.46885E-01 9.19887E-03-1.04281E+00 1.34220E-14 9.83426E-14
 -1      2353 2.27019E+01-9.47510E-01-1.38696E-02-1.01483E+00-4.76832E-16-8.42539E-14
 -1      2354 2.23136E+01-2.95559E-01-7.68049E-03-1.14004E+00-1.19343E-13 1.40731E-13
 -1      2355 2.20840E+01-1.58552E-01 5.89811E-03-1.21201E+00-1.66036E-13 2.41843E-13
 -1      2356 2.20616E+01-4.89000E-01-1.10444E-02-1.32185E+00-8.24784E-14 1.60351E-13
 -1      2357 2.18626E+01-5.62241E-02-2.37971E-03-1.22047E+00-1.83294E-13 2.25096E-13
 -1      2358 2.16428E+01 2.80629E-02 3.28652E-03-1.22130E+00-1.69470E-13 3.49026E-13
 -1      2359 2.15762E+01-1.43835E-01-7.43983E-03-1.41039E+00-1.82410E-13 1.46097E-13
 -1      2360 2.14780E+01 8.72572E-02 1.07922E-03-1.17819E+00-1.98811E-13 3.20800E-13
 -1      2361 2.12764E+01 1.31352E-01 1.69596E-03-1.13696E+00-6.95199E-14 1.87035E-13
 -1      2362 2.12110E+01 7.31192E-02-4.71452E-03-1.36258E+00-2.16769E-13 2.51717E-13
 -1      2363 2.11500E+01 1.60662E-01 3.02364E-03-1.06775E+00 1.72395E-13 1.37344E-13
 -1      2364 2.09707E+01 1.79539E-01 9.47780E-04-1.00512E+00 3.13323E-13 7.04094E-14
 -1      2365 2.09294E+01 1.90280E-01-3.02989E-03-1.23955E+00-1.33828E-15 2.19202E-13
 -1      2366 2.08701E+01 1.91695E-01 3.86447E-03-9.25179E-01 3.47834E-13 3.69318E-14
 -1      2367 2.07152E+01 1.97826E-01 7.75539E-04-8.53457E-01 4.30483E-13 1.98764E-13
 -1      2368 2.07051E+01 2.43633E-01-2.09312E-03-1.08096E+00 2.80572E-13 2.11262E-13
 -1      2369 2.06326E+01 2.02566E-01 3.94727E-03-7.70631E-01 3.98950E-13 9.80131E-14
 -1      2370 2.05025E+01 2.04915E-01 9.51987E-04-6.95686E-01 1.19992E-13 1.00459E-13
 -1      2371 2.05215E+01 2.63714E-01-1.57847E-03-9.09437E-01 3.04105E-13 1.73442E-13
 -1      2372 2.04324E+01 2.08767E-01 3.51442E-03-6.12731E-01-1.92042E-13 9.96836E-14
 -1      2373 2.03283E+01 2.12822E-01 1.68253E-03-5.36124E-01-2.26767E-13 1.92073E-14
 -1      2374 2.03679E+01 2.72616E-01-1.18855E-03-7.35563E-01 1.25817E-14-5.21815E-14
 -1      2375 1.05893E+01-3.65419E+00 3.30941E-02 6.48345E+00-1.33449E-13 2.45998E-13
 -1      2376 7.83500E+00-3.15385E+00 1.00486E-01 5.29072E+00-2.80193E-13 7.14984E-14
 -1      2377 1.96175E+01 7.47432E-02 2.18528E-03-6.76847E-02 2.83902E-14-1.09609E-13
 -1      2378 1.96440E+01 1.05932E-01 6.92894E-03-2.05756E-02 6.69872E-14-7.25495E-14
 -1      2379 1.95970E+01 3.42000E-02 1.50644E-03-1.36365E-01 3.96897E-14-1.67709E-13
 -1      2380 1.95922E+01 5.23429E-02 3.72682E-03-1.12365E-01 2.30841E-14-1.38291E-13
 -1      2381 1.97659E+01 9.33727E-02-3.24033E-03-7.48983E-02 6.29725E-14-1.78727E-13
 -1      2382 1.96141E+01 1.10531E-02 1.11697E-03-1.69492E-01 8.51519E-14-1.64390E-13
 -1      2383 1.95911E+01 2.12477E-02 1.88393E-03-1.58948E-01 5.00121E-14-1.61196E-13
 -1      2384 1.97351E+01 4.14098E-02-2.40623E-03-1.51497E-01 5.48616E-14-1.86196E-13
 -1      2385 1.96543E+01-9.98806E-04 9.01356E-04-1.82124E-01 5.40395E-14-9.58749E-14
 -1      2386 1.96211E+01 4.00904E-03 8.10965E-04-1.79024E-01 6.60860E-14-1.23577E-13
 -1      2387 1.97371E+01 1.21581E-02-1.68418E-03-1.89701E-01 4.14791E-14-1.50584E-13
 -1      2388 1.97083E+01-5.51025E-03 8.14408E-04-1.84336E-01 4.28483E-14-3.85318E-14
 -1      2389 1.96696E+01-4.07195E-03 1.92032E-04-1.84666E-01 8.41934E-14-3.44059E-14
 -1      2390 1.97604E+01-2.50387E-03-1.16338E-03-2.05744E-01 3.09988E-14-5.98680E-14
 -1      2391 1.97709E+01-4.62985E-03 8.37127E-04-1.83173E-01 9.92310E-14-7.87005E-14
 -1      2392 1.97291E+01-5.77292E-03-1.42189E-04-1.84106E-01 5.50646E-14-5.59530E-14
 -1      2393 1.97975E+01-7.20111E-03-8.29233E-04-2.10725E-01 6.42675E-14-3.99107E-14
 -1      2394 1.98398E+01 2.89609E-04 9.57500E-04-1.83769E-01 8.36599E-14-1.11606E-13
 -1      2395 1.97956E+01-2.81090E-03-2.88513E-04-1.83219E-01 1.18897E-13-1.09096E-13
 -1      2396 1.98439E+01-4.73980E-03-6.44739E-04-2.12543E-01 1.07659E-13-9.49103E-14
 -1      2397 1.99151E+01 8.37521E-03 1.16598E-03-1.90014E-01 4.75914E-14-9.55793E-14
 -1      2398 1.98679E+01 3.71874E-03-3.09057E-04-1.86377E-01 6.92575E-14-1.14775E-13
 -1      2399 1.98976E+01 3.11044E-03-5.74695E-04-2.17014E-01 7.33633E-14-9.55048E-14
 -1      2400 1.99985E+01 1.90354E-02 1.45246E-03-2.04961E-01-6.62338E-15-7.99577E-14
 -1      2401 1.99468E+01 1.30982E-02-2.46083E-04-1.96954E-01 1.87686E-14-8.23828E-14
 -1      2402 1.99581E+01 1.51978E-02-5.91309E-04-2.28566E-01 4.54292E-15-2.47120E-14
 -1      2403 2.00929E+01 3.17941E-02 1.80303E-03-2.31046E-01 1.49610E-14-1.13057E-13
 -1      2404 2.00345E+01 2.48108E-02-1.29044E-04-2.17637E-01 2.01323E-14-6.31204E-14
 -1      2405 2.00267E+01 3.07149E-02-6.72763E-04-2.50671E-01 1.07121E-14-6.42375E-14
 -1      2406 2.02022E+01 4.61143E-02 2.19472E-03-2.70135E-01 3.96471E-14-1.70175E-13
 -1      2407 2.01346E+01 3.83743E-02 2.10032E-05-2.50546E-01 2.67942E-14-1.25356E-13
 -1      2408 2.01054E+01 4.89602E-02-8.01173E-04-2.86055E-01 4.87694E-14-2.67571E-14
 -1      2409 2.03310E+01 6.11814E-02 2.58840E-03-3.23381E-01 8.05038E-14-1.91351E-13
 -1      2410 2.02512E+01 5.31501E-02 1.88587E-04-2.97188E-01 3.70889E-14-1.81690E-13
 -1      2411 2.01972E+01 6.90771E-02-9.61575E-04-3.36715E-01 6.15043E-14-1.23453E-13
 -1      2412 2.04839E+01 7.56086E-02 2.91897E-03-3.90851E-01 1.46476E-13-1.28435E-13
 -1      2413 2.03892E+01 6.80927E-02 3.62457E-04-3.58202E-01 1.45752E-13-1.18545E-13
 -1      2414 2.03055E+01 8.97249E-02-1.14188E-03-4.03706E-01 9.85067E-14-1.08981E-13
 -1      2415 2.06655E+01 8.70340E-02 3.08325E-03-4.70834E-01-9.55009E-15-9.75712E-14
 -1      2416 2.05533E+01 8.14086E-02 5.35607E-04-4.32831E-01 1.04477E-13-1.13116E-13
 -1      2417 2.04341E+01 1.08636E-01-1.33444E-03-4.86663E-01 8.71796E-14-2.95433E-14
 -1      2418 2.08793E+01 9.15974E-02 2.92731E-03-5.58760E-01-9.13338E-14-1.86586E-13
 -1      2419 2.07482E+01 9.00941E-02 7.06989E-04-5.18044E-01-6.32388E-14-1.40740E-13
 -1      2420 2.05870E+01 1.22020E-01-1.53952E-03-5.82967E-01-1.05063E-14-9.23429E-14
 -1      2421 2.11273E+01 8.33516E-02 2.23877E-03-6.45642E-01-3.51796E-14-2.84212E-13
 -1      2422 2.09775E+01 8.93673E-02 8.84893E-04-6.07219E-01-9.77818E-14-2.30557E-13
 -1      2423 2.07681E+01 1.23820E-01-1.77030E-03-6.86469E-01-2.44079E-14-1.83623E-13
 -1      2424 2.14086E+01 5.38390E-02 7.55865E-04-7.16106E-01 2.03386E-13-2.35566E-13
 -1      2425 2.12434E+01 7.21117E-02 1.09008E-03-6.88335E-01 9.12070E-14-2.46399E-13
 -1      2426 2.09816E+01 1.04962E-01-2.05589E-03-7.85733E-01 1.65106E-14-3.27228E-13
 -1      2427 2.17184E+01-7.57101E-03-1.78360E-03-7.46346E-01 1.11884E-13-1.12813E-13
 -1      2428 2.15449E+01 2.87073E-02 1.35148E-03-7.41844E-01 2.09627E-13-1.55946E-13
 -1      2429 2.12312E+01 5.30134E-02-2.43355E-03-8.61856E-01 1.18809E-13-2.02920E-13
 -1      2430 2.20459E+01-1.11345E-01-5.51207E-03-7.03061E-01-1.43136E-13-1.11010E-13
 -1      2431 2.18771E+01-5.18862E-02 1.68067E-03-7.38815E-01-1.33016E-14-1.25569E-13
 -1      2432 2.15206E+01-4.67127E-02-2.90803E-03-8.86313E-01 1.85289E-14-5.00953E-14
 -1      2433 2.23724E+01-2.61419E-01-1.01648E-02-5.45687E-01-7.90496E-14-7.57994E-14
 -1      2434 2.22277E+01-1.78163E-01 2.00021E-03-6.40970E-01-1.42450E-13-6.50064E-14
 -1      2435 2.18518E+01-2.06640E-01-3.33690E-03-8.20003E-01-8.31634E-14-4.95176E-14
 -1      2436 2.26669E+01-4.42745E-01-1.46865E-02-2.36014E-01-1.00300E-13-1.00777E-13
 -1      2437 2.25722E+01-3.46949E-01 2.01123E-03-4.05896E-01-5.81757E-14-1.31295E-13
 -1      2438 2.22209E+01-4.26120E-01-3.22369E-03-6.16210E-01-3.30554E-14-7.74186E-14
 -1      2439 2.32018E+01 3.19630E-01 3.34428E-01 7.06533E-01-1.36835E-13-2.02227E-13
 -1      2440 2.28673E+01-5.27881E-01 1.00408E-03-2.73409E-03-5.15196E-14-6.72882E-14
 -1      2441 2.26091E+01-6.72342E-01-1.56271E-03-2.32417E-01-6.69367E-14-1.07999E-13
 -1      2442 2.38840E+01 5.89720E-01 9.94368E-02 2.06481E+00-2.30458E-13-2.59730E-13
 -1      2443 2.38291E+01 1.08468E+00 4.59365E-01 1.76248E+00-2.48690E-13-3.97876E-13
 -1      2444 2.31660E+01 5.41632E-01 2.40645E-01 1.26150E+00-2.59369E-13-4.79478E-13
 -1      2445 2.38427E+01 2.23278E-01-1.87516E-02 2.36863E+00-1.38823E-13-6.68146E-14
 -1      2446 2.40583E+01 3.53204E-01 3.87242E-02 2.34277E+00-1.85171E-13-1.08398E-13
 -1      2447 2.36709E+01 3.50582E-01 7.01549E-02 2.14357E+00-2.73691E-13-3.45792E-13
 -1      2448 2.34023E+01 3.95751E-01-6.37244E-03 2.31325E+00-1.06962E-13 1.96045E-13
 -1      2449 2.37882E+01 2.45435E-01-2.38667E-02 2.43116E+00-1.19352E-13 4.67959E-14
 -1      2450 2.38236E+01 3.02015E-01 1.57483E-02 2.57024E+00-2.22926E-13-1.13630E-13
 -1      2451 2.28018E+01 8.49670E-01 1.25949E-02 1.81675E+00-1.00489E-13 1.47076E-13
 -1      2452 2.31664E+01 6.07470E-01-1.70274E-02 2.12441E+00-1.00198E-14 2.41055E-13
 -1      2453 2.35380E+01 7.06270E-01 1.12780E-03 2.50130E+00-7.35969E-14 1.33686E-14
 -1      2454 2.23292E+01 1.18359E+00 1.21653E-02 8.61043E-01-1.79636E-13 2.21867E-14
 -1      2455 2.25548E+01 1.05754E+00-9.98969E-04 1.33922E+00-1.50179E-13 1.27469E-13
 -1      2456 2.30545E+01 1.30468E+00-1.20744E-02 1.82240E+00-1.38519E-13 1.41099E-13
 -1      2457 2.22123E+01 1.09433E+00-2.08795E-03-2.58133E-01-4.09086E-13 1.89993E-13
 -1      2458 2.22454E+01 1.20281E+00 1.39010E-02 2.31524E-01-3.19793E-13 9.97711E-14
 -1      2459 2.27209E+01 1.62865E+00-1.61284E-02 6.40332E-01-2.85967E-13 7.84800E-14
 -1      2460 2.24541E+01 5.88402E-01-1.50082E-02-1.08370E+00-8.96444E-14 2.24373E-13
 -1      2461 2.23311E+01 8.80998E-01 2.18715E-02-7.74753E-01-3.21066E-13 1.96205E-13
 -1      2462 2.27392E+01 1.33907E+00-1.75707E-02-5.93687E-01-3.65974E-13 1.60297E-13
 -1      2463 2.28330E+01-2.46386E-02-1.42385E-02-1.33223E+00 1.31912E-13 3.01316E-13
 -1      2464 2.26434E+01 2.75639E-01 1.71661E-02-1.28362E+00 1.06889E-13 2.86146E-13
 -1      2465 2.30253E+01 6.02888E-01 5.35377E-04-1.34510E+00-5.48832E-14 2.61689E-13
 -1      2466 2.30888E+01-4.48794E-01-8.03736E-03-1.06649E+00 2.00899E-13 4.15423E-13
 -1      2467 2.29282E+01-2.69176E-01 3.60885E-03-1.21975E+00 1.86656E-13 4.10391E-13
 -1      2468 2.32771E+01-1.81681E-01 1.16375E-02-1.40206E+00 1.35178E-13 3.87995E-13
 -1      2469 2.31121E+01-5.94081E-01-2.10534E-03-5.41177E-01 1.45337E-13 4.01976E-13
 -1      2470 2.30370E+01-5.55120E-01-8.95052E-03-7.82288E-01 1.82120E-13 4.24489E-13
 -1      2471 2.32923E+01-6.75603E-01 1.00823E-02-9.55405E-01 1.73475E-13 4.60533E-13
 -1      2472 2.29260E+01-5.29421E-01 1.21649E-03-5.46620E-04 1.96758E-13 1.39917E-13
 -1      2473 2.29489E+01-5.82344E-01-1.44766E-02-2.32734E-01 1.78513E-13 3.04138E-13
 -1      2474 2.30656E+01-8.07280E-01 3.15947E-03-3.26240E-01 2.55653E-13 1.79169E-13
 -1      2475 2.26100E+01-3.71821E-01 2.20773E-03 4.18462E-01-1.03616E-13 1.94410E-13
 -1      2476 2.27137E+01-4.57899E-01-1.37033E-02 2.44668E-01 1.38959E-13 1.96180E-13
 -1      2477 2.26946E+01-6.85481E-01-1.80462E-03 2.44109E-01 1.06067E-13 2.65350E-13
 -1      2478 2.22360E+01-2.06809E-01 2.05313E-03 6.79146E-01-4.90651E-14 1.24981E-13
 -1      2479 2.23932E+01-2.88447E-01-9.91754E-03 5.74597E-01-2.59610E-13 8.60822E-14
 -1      2480 2.22784E+01-4.63100E-01-3.72482E-03 6.49341E-01-9.98351E-14 8.32846E-14
 -1      2481 2.18522E+01-7.49685E-02 1.59230E-03 7.99947E-01 4.07023E-14 2.14722E-13
 -1      2482 2.20366E+01-1.36672E-01-5.59818E-03 7.54721E-01 7.67385E-14 1.44857E-13
 -1      2483 2.18755E+01-2.44286E-01-3.84818E-03 8.79046E-01-1.72383E-14-1.12680E-13
 -1      2484 2.14861E+01 1.45723E-02 1.24364E-03 8.18461E-01 1.16501E-13 1.41593E-13
 -1      2485 2.16771E+01-2.56141E-02-1.97203E-03 8.15832E-01 5.80292E-14 1.56182E-13
 -1      2486 2.15110E+01-7.46263E-02-3.26826E-03 9.66146E-01 4.76614E-14 9.81726E-14
 -1      2487 2.11522E+01 6.86104E-02 1.14019E-03 7.71199E-01 8.69182E-14 1.12896E-13
 -1      2488 2.13354E+01 4.52119E-02 5.80476E-04 7.95656E-01 1.92559E-13 2.35252E-13
 -1      2489 2.11912E+01 3.84538E-02-2.64911E-03 9.54038E-01 7.40507E-14-3.45546E-14
 -1      2490 2.08576E+01 9.89507E-02 1.26354E-03 6.85465E-01 3.24673E-13 1.12311E-13
 -1      2491 2.10236E+01 8.60637E-02 2.12933E-03 7.25788E-01 1.50826E-13 7.80678E-14
 -1      2492 2.09147E+01 1.06027E-01-2.18495E-03 8.80172E-01 1.92290E-13 5.07376E-14
 -1      2493 2.06052E+01 1.17163E-01 1.58547E-03 5.78086E-01 3.24322E-13-2.01217E-14
 -1      2494 2.07486E+01 1.09089E-01 2.89499E-03 6.27773E-01 3.39607E-13 1.47045E-13
 -1      2495 2.06782E+01 1.44279E-01-1.85465E-03 7.71031E-01 3.37823E-13 2.37999E-13
 -1      2496 2.03949E+01 1.31818E-01 1.81301E-03 4.56883E-01 3.79186E-13 1.04847E-13
 -1      2497 2.05131E+01 1.24841E-01 3.09245E-03 5.13323E-01 3.23942E-13 3.61612E-14
 -1      2498 2.04775E+01 1.68021E-01-1.72676E-03 6.42757E-01 3.19177E-13 8.35673E-14
 -1      2499 2.02251E+01 1.46703E-01 1.99110E-03 3.25996E-01-2.92657E-14 3.80057E-13
 -1      2500 2.03181E+01 1.39151E-01 2.86324E-03 3.87477E-01 3.31458E-13 2.54833E-13
 -1      2501 2.03092E+01 1.87058E-01-2.07336E-03 5.02068E-01 2.71965E-13 3.57780E-13
 -1      2502 2.01595E+01 1.49387E-01 2.15375E-03 2.48494E-01-1.29220E-13 3.07147E-13
 -1      2503 1.98899E+01 7.78759E-01-3.41209E-03 4.24522E-01-2.02486E-15 3.41782E-13
 -1      2504 1.99293E+01 7.04747E-01 9.93331E-04 4.57919E-01 1.67359E-13-9.02427E-14
 -1      2505 1.98259E+01 9.04288E-01-3.75170E-03 3.10912E-01-2.90121E-14 5.23540E-13
 -1      2506 1.98564E+01 8.47699E-01-1.84826E-04 3.69165E-01-1.04712E-13 5.36092E-13
 -1      2507 1.98334E+01 7.90317E-01 1.90451E-03 4.56560E-01-5.59221E-14 3.84434E-13
 -1      2508 2.00544E+01 4.55772E-01-1.89356E-03 4.75318E-01 7.30125E-14 2.38747E-13
 -1      2509 2.00992E+01 3.72349E-01 2.86940E-03 4.51472E-01-6.05881E-14 3.40470E-13
 -1      2510 1.99691E+01 6.23402E-01-2.69603E-03 4.81682E-01 1.06761E-14-2.07935E-14
 -1      2511 2.00128E+01 5.41817E-01 2.02181E-03 4.86115E-01-4.27965E-14 2.66014E-13
 -1      2512 2.00452E+01 4.84927E-01 8.54922E-04 5.55880E-01 4.85962E-14 2.96059E-13
 -1      2513 1.99325E+01 6.45671E-01 1.01730E-03 5.40969E-01 1.61104E-13 1.48337E-13
 -1      2514 1.97848E+01 9.84345E-01-3.62839E-03 1.55092E-01-2.11001E-13-7.32991E-14
 -1      2515 1.98028E+01 9.52161E-01-1.43430E-03 2.30680E-01-9.89919E-14 2.35280E-13
 -1      2516 1.97565E+01 9.02940E-01 2.72738E-03 3.11864E-01-1.46526E-13 3.63164E-13
 -1      2517 1.97718E+01 1.00846E+00-3.02007E-03-2.31503E-02-7.40517E-14-3.33058E-14
 -1      2518 1.97748E+01 1.00501E+00-2.53718E-03 5.99599E-02-2.77620E-13 1.84669E-13
 -1      2519 1.97113E+01 9.69087E-01 3.27214E-03 1.24678E-01-2.12420E-13-3.98645E-14
 -1      2520 1.97895E+01 9.72687E-01-2.01267E-03-2.00439E-01-4.01478E-14-5.71341E-13
 -1      2521 1.97767E+01 9.98807E-01-3.31698E-03-1.20912E-01-6.11919E-14-2.73199E-13
 -1      2522 1.97040E+01 9.79708E-01 3.40875E-03-8.13388E-02 5.80131E-14-9.99677E-14
 -1      2523 1.98360E+01 8.82816E-01-6.64797E-04-3.50476E-01 1.24367E-13-4.53598E-13
 -1      2524 1.98087E+01 9.34193E-01-3.71415E-03-2.86412E-01 6.82192E-14-7.01791E-13
 -1      2525 1.97367E+01 9.33107E-01 3.16511E-03-2.77637E-01 8.74231E-14-5.64869E-13
 -1      2526 1.99085E+01 7.45952E-01 7.32221E-04-4.56912E-01 1.95555E-13-6.55978E-14
 -1      2527 1.98686E+01 8.18426E-01-3.66255E-03-4.15695E-01 1.66101E-13-4.45119E-13
 -1      2528 1.98063E+01 8.34115E-01 2.43470E-03-4.39500E-01 1.07351E-13-4.69513E-13
 -1      2529 1.99992E+01 5.78467E-01 1.87827E-03-5.00223E-01 1.98481E-13 1.35713E-13
 -1      2530 1.99514E+01 6.63483E-01-3.02788E-03-4.90331E-01 1.58507E-13 2.83651E-13
 -1      2531 1.99068E+01 6.92525E-01 1.25951E-03-5.45262E-01 1.36269E-13 2.05340E-14
 -1      2532 2.00958E+01 3.99205E-01 2.61785E-03-4.71866E-01-7.77777E-14-1.74834E-13
 -1      2533 2.00473E+01 4.87915E-01-1.84437E-03-4.96382E-01-1.24187E-14-1.03114E-13
 -1      2534 2.00250E+01 5.24202E-01-2.14443E-04-5.76374E-01 1.37351E-13-7.68052E-14
 -1      2535 2.01418E+01 2.51146E-01 2.06303E-03-3.38084E-01 3.05302E-14-8.06718E-14
 -1      2536 3.46778E+00-2.20754E+00 5.90066E-02-1.34007E+00-1.40256E-13 2.73004E-13
 -1      2537 4.62805E+00-2.60028E+00 5.59700E-02-3.57004E+00-6.75571E-14 2.17659E-13
 -1      2538 1.96970E+01 1.44570E-01 3.34663E-03 6.02900E-02 8.56934E-14-5.94750E-14
 -1      2539 1.97752E+01 1.99003E-01 1.23848E-02 1.47042E-01 1.27181E-13-4.51429E-14
 -1      2540 1.98449E+01 1.83160E-01-3.85987E-03 6.47516E-02 9.86101E-14-1.14159E-13
 -1      2541 1.88935E+01-4.82605E+00-6.50560E-04 6.44707E+00-2.27041E-14-4.83745E-13
 -1      2542 1.46916E+01-4.61290E+00 7.96350E-02 6.57527E+00-1.27898E-13-1.58207E-14
 -1      2543 6.92047E+00-3.37014E+00 5.45646E-02-5.12687E+00-1.65701E-14 1.32755E-13
 -1      2544 1.04932E+01-3.79150E+00 2.78923E-02-6.61078E+00 7.59948E-14 4.65739E-14
 -1      2545 7.74189E+00-1.96031E+00 1.52508E-01-4.39318E+00 7.64389E-14 2.57017E-14
 -1      2546 2.05422E+01 1.95508E+00-1.37160E-02-1.89767E+00-2.74839E-13-2.99309E-14
 -1      2547 2.04035E+01 1.20913E+00-8.80971E-03-1.29134E+00-2.45489E-13-1.53077E-14
 -1      2548 2.03785E+01 1.38524E+00 9.17222E-03-1.24008E+00-2.39817E-13-9.28437E-14
 -1      2549 2.02920E+01 2.39752E+00 7.02851E-04-1.83788E+00-2.81893E-13-1.07941E-13
 -1      2550 2.18659E+01-4.86846E+00 2.55099E-02-5.52217E+00-5.44287E-14 1.59789E-13
 -1      2551 2.56144E+01-3.98095E+00-4.33935E-02-4.55738E+00-2.63123E-14 2.58182E-13
 -1      2552 3.26651E+01 1.27267E+00-1.15042E-01-1.35731E+00-4.33986E-13-2.77778E-13
 -1      2553 3.12152E+01-9.94654E-01 6.27775E-05-5.95648E-01-3.32102E-13-3.38451E-13
 -1      2554 3.05054E+01 3.97294E+00-7.35878E-02 8.62579E-01 3.46556E-13-1.87794E-13
 -1      2555 3.12355E+01 5.64844E+00-1.48060E-01 1.08173E+00 3.32540E-13-3.10141E-13
 -1      2556 1.95283E+01 3.58641E+00-1.01171E-02-2.45503E-01-4.91572E-14-3.78845E-13
 -1      2557 1.95440E+01 3.56560E+00-9.68550E-03-4.26408E-01-8.14230E-14-3.61603E-13
 -1      2558 1.97202E+01 3.16553E+00-5.34416E-04-4.73640E-01-9.23637E-14-3.45158E-13
 -1      2559 1.96866E+01 3.22568E+00-8.85520E-04-1.52088E-01-4.46618E-14-3.65242E-13
 -1      2560 3.11470E+01 6.83706E+00-1.43922E-01-2.51366E-01-8.51541E-14-5.68282E-13
 -1      2561 3.13864E+01 5.70001E+00-6.49664E-02-4.63096E-01-5.42899E-14-7.26252E-13
 -1      2562 2.79862E+01-1.30705E-01-5.43351E-02-1.08763E+00 2.10040E-14-2.56656E-13
 -1      2563 2.96984E+01 1.50165E+00-1.48272E-01-9.46331E-02 1.59331E-13-2.51438E-13
 -1      2564 3.12669E+01 6.90582E+00-1.00021E-01 8.58043E-01 1.90570E-13-5.29771E-13
 -1      2565 3.10355E+01 7.24239E+00-1.52019E-01 4.36267E-01 2.74780E-14-5.03207E-13
 -1      2566 7.48724E+00-2.68606E+00 4.41188E-02-5.79975E+00-1.50713E-13-7.24004E-13
 -1      2567 1.06492E+01-2.83467E+00 2.48826E-02-6.50761E+00-2.14995E-13-7.81181E-13
 -1      2568 2.34164E+01-2.68865E+00-2.24904E-02-3.78557E+00-1.07719E-13-3.30513E-13
 -1      2569 2.61348E+01-1.71206E+00-6.44889E-02-2.76455E+00-5.17641E-14-3.07754E-13
 -1      2570 2.76892E+01-2.89464E+00-4.97007E-02-2.98430E+00-1.00878E-13 6.10068E-14
 -1      2571 2.99435E+01-1.34635E+00-1.13791E-01-1.87397E+00-1.72612E-13-3.40283E-14
 -1      2572 2.69075E+01-3.87805E+00 5.86544E-02-2.81264E+00 4.29101E-14-1.80689E-14
 -1      2573 3.41298E+00-1.50002E+00 1.02057E-01-3.58854E+00-2.02838E-13-7.11209E-13
 -1      2574 5.09019E+00-2.01358E+00 5.97511E-02-5.07781E+00-1.18100E-13-8.23092E-13
 -1      2575 7.82196E+00-1.50774E+00 1.39029E-01-5.43721E+00-1.86295E-13-7.75574E-13
 -1      2576 2.60572E+00-1.59450E+00 8.09721E-02 3.87582E-01-2.68924E-13-3.45612E-13
 -1      2577 2.22879E+00-1.33874E+00 7.35902E-02-1.72457E+00-1.90861E-13-5.03042E-13
 -1      2578 6.97859E+00-3.17716E+00 5.92921E-02 3.64610E+00-2.48718E-13-4.93550E-13
 -1      2579 4.53894E+00-2.31621E+00 6.98666E-02 2.15997E+00-2.54283E-13-3.30957E-13
 -1      2580 1.48180E+01-5.11689E+00 1.28665E-02 4.72307E+00-1.78302E-13-6.38378E-16
 -1      2581 1.03073E+01-4.40553E+00 2.06697E-02 4.23117E+00-1.33504E-13-3.68067E-13
 -1      2582 1.05513E+01-3.08777E+00 1.50608E-01 3.65639E+00 4.62963E-14-1.67200E-13
 -1      2583 2.32196E+01-5.68139E+00-3.84273E-02 3.72592E+00-3.69371E-13 4.50473E-14
 -1      2584 1.95719E+01-5.85598E+00 2.58949E-02 4.22007E+00-2.26791E-13-3.89029E-14
 -1      2585 2.92785E+01-3.55674E+00-1.31832E-01 1.16737E+00-3.31124E-13-3.66984E-13
 -1      2586 2.62024E+01-4.84923E+00-1.51274E-02 2.28782E+00-4.35568E-13-1.04527E-13
 -1      2587 2.56967E+01-5.65564E+00 1.91797E-02 2.09728E+00-2.74392E-13-4.03844E-14
 -1      2588 3.35074E+01 5.44480E+00-9.86110E-02-1.59843E+00-5.55223E-13-3.28904E-14
 -1      2589 3.30733E+01 3.98919E+00-4.15306E-02-1.78375E+00-5.29826E-13-1.41193E-13
 -1      2590 3.25205E+01 7.05962E+00-1.09680E-01-4.44162E-01-5.29077E-13 9.82686E-14
 -1      2591 3.30058E+01 6.62281E+00-8.94655E-02-1.15442E+00-5.29521E-13-5.10980E-14
 -1      2592 3.23493E+01 5.03188E+00-1.10329E-01 6.36649E-01-3.18467E-13 1.17961E-14
 -1      2593 3.20806E+01 6.08155E+00-1.96801E-01 3.84850E-01-3.82527E-13 6.91114E-14
 -1      2594 3.12481E+01 1.09544E+00-8.42363E-02-2.44047E-01-1.46327E-13-9.99201E-14
 -1      2595 3.24305E+01 3.27848E+00-1.18320E-01 2.77823E-01-1.84852E-13-1.11022E-16
 -1      2596 3.04500E+01 3.44977E+00-1.96081E-02 1.24958E+00-2.10110E-13 1.60705E-14
 -1      2597 1.44557E+01-4.53453E+00 8.90028E-02-6.75286E+00 1.99230E-13 9.56318E-14
 -1      2598 1.76155E+01-4.87349E+00-3.23781E-02-6.86985E+00-5.19307E-14 6.91044E-14
 -1      2599 2.54204E+01-3.56710E+00-3.61651E-02 4.14440E+00 1.46272E-14-6.93667E-13
 -1      2600 2.23863E+01-4.52793E+00 2.06278E-03 4.98557E+00 1.16157E-13-6.80678E-13
 -1      2601 5.13472E+00-2.47023E+00 6.72817E-02 3.79440E+00-3.89383E-13-7.15539E-14
 -1      2602 3.68817E+00-2.07081E+00 9.55664E-02 1.23380E+00-2.68605E-13 1.70197E-13
 -1      2603 8.36337E+00-1.74314E+00 1.68557E-01 4.38415E+00-3.00704E-13 1.19404E-13
 -1      2604 2.04818E+01 8.74994E-01-7.30564E-03 1.22868E+00 2.73101E-13 2.20258E-14
 -1      2605 2.08326E+01 1.25693E+00-6.04637E-03 1.72936E+00 2.87010E-13 5.51503E-14
 -1      2606 2.06398E+01 1.71559E+00-1.57918E-02 1.92360E+00 3.05121E-13-3.94199E-14
 -1      2607 2.04427E+01 1.05815E+00-9.40735E-03 1.24347E+00 2.71473E-13-5.35521E-14
 -1      2608 2.91732E+01-7.63896E-01-1.18724E-01 1.45341E+00-8.87537E-14-8.93674E-13
 -1      2609 2.72924E+01-2.30182E+00-2.78709E-02 2.61173E+00-2.36755E-14-7.49262E-13
 -1      2610 2.65143E+01-3.45383E+00 5.91911E-03 2.50939E+00 3.82055E-14-8.06799E-13
 -1      2611 2.98181E+01 4.38612E+00-5.51157E-02-9.46837E-01-8.55704E-14-7.36189E-13
 -1      2612 1.99178E+01 2.81151E+00 1.14463E-03-1.09845E+00-1.77272E-13-2.86613E-13
 -1      2613 1.97839E+01 3.15679E+00-1.61894E-02-1.28845E+00-1.95741E-13-2.97626E-13
 -1      2614 1.98852E+01 3.01315E+00-1.85459E-02-1.47856E+00-2.32771E-13-2.73712E-13
 -1      2615 1.99894E+01 3.41395E-01-3.54277E-03 3.05507E-01 1.58366E-13-8.69591E-14
 -1      2616 2.04177E+01 2.11575E+00-1.27608E-02 1.87661E+00 2.90855E-13-1.41238E-13
 -1      2617 2.92382E+01 9.59931E-02-1.56688E-02 1.80923E-02-9.14546E-14-6.51895E-13
 -1      2618 2.10784E+01-4.89646E+00 5.10070E-02-5.61318E+00 1.21042E-13-6.36297E-15
 -1      2619 1.45936E+01-3.66203E+00 1.44689E-01 6.23821E+00-2.00617E-13-7.50788E-14
 -1      2620 2.01710E+01 2.05149E-01 6.73420E-04 3.47975E-01-8.20696E-14 5.03273E-13
 -1      2621 2.01537E+01 2.67362E-01 5.29316E-06 3.95714E-01-5.95597E-14 4.45334E-13
 -1      2622 2.99033E+01-7.36289E-01-1.01121E-02-1.08137E-01-8.52443E-15-2.61735E-13
 -1      2623 2.02154E+01 2.17211E-01 2.91760E-03-4.06388E-01-4.41281E-15 9.63807E-15
 -1      2624 2.01432E+01 3.18627E-01-1.56419E-03-4.54120E-01-5.64239E-14 7.77309E-15
 -1      2625 2.01584E+01 3.60361E-01 1.20321E-03-5.50738E-01-1.63409E-13 4.78380E-14
 -1      2626 2.02908E+01 2.16163E-01 3.84987E-03-4.78521E-01-8.31468E-14 1.22942E-13
 -1      2627 3.03213E+01 6.16228E+00-6.61119E-02 3.63761E-01-4.76008E-13 1.36960E-13
 -1      2628 5.57748E+00-1.00608E+00 1.69523E-01 2.53056E-02-2.61390E-13 1.99923E-13
 -1      2629 2.04329E+01 1.80823E+00 1.25505E-02 1.56426E+00 2.73928E-13-1.54443E-13
 -1      2630 2.15837E+01-4.83369E+00 4.46971E-02 5.11228E+00-2.74780E-15-6.64337E-13
 -1      2631 3.00928E+01-2.75724E+00-4.64520E-03-6.13401E-01-2.86375E-13-2.63262E-13
 -1      2632 1.35547E+01-3.61321E+00 1.33247E-01-6.47381E+00 2.32814E-13 3.55549E-14
 -1      2633 1.81502E+01-5.56547E+00 5.49456E-02 4.08749E+00-7.84650E-14 1.39442E-13
 -1      2634 1.70165E+01-4.71817E+00 1.52288E-01 3.78695E+00 1.87461E-13 1.96329E-13
 -1      2635 2.11098E+01-5.83412E+00-3.09185E-03 3.14268E+00 3.81639E-14 1.64545E-13
 -1      2636 2.01178E+01 2.61307E+00-9.98243E-03-1.67805E+00-2.66960E-13-1.84150E-13
 -1      2637 3.15731E+01 2.07786E+00-3.23598E-02-2.30761E+00-5.40595E-13-1.60927E-13
 -1      2638 2.20742E+01-3.26033E+00 1.78939E-02-4.35355E+00-3.05284E-13-3.72591E-13
 -1      2639 2.35518E+01-3.26826E+00-4.96222E-02-2.82164E+00-4.43451E-13-2.66176E-13
 -1      2640 2.04180E+01-3.43275E+00 9.25906E-02-4.72051E+00-4.71109E-13-2.33029E-13
 -1      2641 4.24151E+00-4.71161E-01 1.62141E-01-2.68752E+00-1.00350E-13-6.63664E-13
 -1      2642 2.92775E+01 5.86912E+00-6.94478E-02 1.44757E+00 1.36946E-13-2.75890E-13
 -1      2643 2.90162E+01 2.43424E+00-3.23238E-02 1.34382E+00 1.03320E-13 3.55271E-14
 -1      2644 1.37142E+01-3.15151E+00 8.12819E-02-6.32716E+00-3.73285E-13-5.97765E-13
 -1      2645 1.65762E+01-3.44852E+00-4.11412E-02-5.74872E+00-5.26038E-13-2.28817E-13
 -1      2646 1.29311E+01-2.47791E+00 1.48097E-01-6.13074E+00-3.72397E-13-4.46143E-13
 -1      2647 2.69078E+01-1.37537E+00-6.81652E-03-8.71167E-01-1.37345E-13-6.89726E-14
 -1      2648 2.92696E+01 6.65831E+00-8.99950E-02 2.60089E-03-6.31162E-14-4.51621E-13
 -1      2649 5.16189E+00-9.92791E-01 1.77262E-01 1.17913E+00-7.45237E-14-3.85275E-13
 -1      2650 3.11476E+01 5.71993E+00-5.01715E-02-1.68128E+00-5.36904E-13 4.58938E-14
 -1      2651 2.01740E+01 3.00765E-01 1.35727E-03 4.91577E-01 1.00536E-13 4.49704E-13
 -1      2652 2.02572E+01 2.77474E-01-1.95994E-03-5.87155E-01-1.93730E-13 1.09331E-13
 -1      2653 1.98535E+01 2.76756E+00-6.30276E-03 5.16499E-01 7.21247E-14-3.39562E-13
 -1      2654 1.98292E+01 2.81746E+00-5.72591E-03 3.65536E-01 4.25917E-14-3.43544E-13
 -1      2655 1.98127E+01 2.85519E+00-5.63086E-03 2.29948E-01 1.49684E-14-3.49272E-13
 -1      2656 1.98043E+01 2.87215E+00-5.45645E-03 7.52741E-02-6.93048E-15-3.35042E-13
 -1      2657 1.99591E+01 2.50489E+00 3.68971E-03 2.65209E-01 3.27354E-14-3.25945E-13
 -1      2658 2.00481E+01 2.32506E+00-1.07379E-02 1.04678E+00 1.86850E-13-2.65769E-13
 -1      2659 1.99850E+01 2.47443E+00-6.36822E-03 9.10844E-01 1.56914E-13-2.82036E-13
 -1      2660 2.02173E+01 1.90930E+00-1.19654E-02 1.22889E+00 2.23655E-13-2.38518E-13
 -1      2661 2.01270E+01 2.14728E+00-4.79971E-03 1.13541E+00 1.95109E-13-2.46161E-13
 -1      2662 2.01934E+01 1.88819E+00 6.50420E-03 9.27400E-01 1.87364E-13-2.38266E-13
 -1      2663 2.02092E+01 7.27829E-01-3.41312E-03 6.44095E-01 1.88542E-13-1.26291E-13
 -1      2664 2.03509E+01 9.52304E-01 9.17478E-03 9.08137E-01 2.13627E-13-1.29335E-13
 -1      2665 2.35319E+01-4.59471E+00-1.86072E-02 3.97734E+00 8.45435E-14-6.11233E-13
 -1      2666 2.06075E+01-4.49826E+00 7.38016E-02 5.12727E+00-1.83464E-14-6.09287E-13
 -1      2667 2.00678E+01 4.17646E-01-1.31885E-03 2.88323E-01 1.38761E-13-1.27678E-13
 -1      2668 2.01678E+01 5.54768E-01 1.02631E-02 4.51339E-01 1.75411E-13-1.09327E-13
 -1      2669 2.02526E+01 8.24048E-01 9.92739E-04 6.17985E-01 1.77136E-13-1.69906E-13
 -1      2670 1.98165E+01-4.41614E+00 1.05755E-01-5.58333E+00 1.05388E-13 5.93137E-14
 -1      2671 2.32384E+01-4.88982E+00-6.00355E-02-4.52724E+00 1.32103E-13-7.61717E-15
 -1      2672 1.03199E+01-1.58812E+00 2.24171E-02 4.88806E+00-3.03549E-13 3.23741E-13
 -1      2673 8.36000E+00-6.35910E-01 1.76553E-01 3.19212E+00-3.53814E-13 3.16414E-14
 -1      2674 2.79978E+01 4.42166E+00-1.94234E-01-1.29430E+00-9.17877E-14-4.51000E-13
 -1      2675 2.85680E+01 2.82862E+00-8.99852E-02-1.47547E+00-3.02813E-14-5.64826E-13
 -1      2676 2.03184E+01 1.71013E+00-9.82446E-03-1.33348E+00-2.43879E-13-1.43344E-13
 -1      2677 2.02855E+01 1.32882E+00-7.02733E-03-1.03622E+00-2.30831E-13-1.42623E-13
 -1      2678 2.02144E+01 6.29268E-01 7.81252E-03-4.37646E-01-1.43636E-13-9.47556E-14
 -1      2679 2.01320E+01 4.78923E-01-3.03642E-03-2.77701E-01-1.14699E-13-1.05366E-13
 -1      2680 2.01064E+01 3.66416E-01 6.60471E-03-1.56937E-01-1.18376E-13-1.04162E-13
 -1      2681 2.00483E+01 2.73001E-01-1.63650E-03-5.78018E-02-1.13880E-13-1.20066E-13
 -1      2682 2.01974E+01 5.33130E-01-1.55519E-03-2.60294E-01-1.30504E-13-1.26225E-13
 -1      2683 2.00230E+01 2.04179E-01 4.50811E-03 1.94443E-02-9.98512E-14-1.27527E-13
 -1      2684 1.99888E+01 1.46458E-01-6.72927E-04 7.82919E-02-9.99008E-14-1.31858E-13
 -1      2685 2.01297E+01 3.06222E-01-2.11980E-03-5.04793E-02-1.07768E-13-1.43145E-13
 -1      2686 1.99689E+01 1.04325E-01 2.85137E-03 1.24624E-01-9.71882E-14-1.39190E-13
 -1      2687 1.99533E+01 6.95816E-02-7.28075E-05 1.57495E-01-9.82487E-14-1.51570E-13
 -1      2688 2.00753E+01 1.64431E-01-1.97093E-03 8.19735E-02-1.14382E-13-1.64347E-13
 -1      2689 1.99397E+01 4.48635E-02 1.66091E-03 1.83346E-01-9.75892E-14-1.37262E-13
 -1      2690 1.99374E+01 2.55343E-02 3.08834E-04 2.00241E-01-7.30253E-14-1.27887E-13
 -1      2691 2.00371E+01 7.81660E-02-1.61763E-03 1.60675E-01-9.69272E-14-1.30489E-13
 -1      2692 1.99295E+01 1.27179E-02 8.22351E-04 2.13575E-01-6.92170E-14-1.35541E-13
 -1      2693 1.99365E+01 4.15373E-03 5.72588E-04 2.21575E-01-1.02519E-13-1.39386E-13
 -1      2694 2.00136E+01 2.93794E-02-1.26001E-03 2.04528E-01-7.07466E-14-1.56368E-13
 -1      2695 1.99331E+01-1.87896E-04 2.39146E-04 2.28375E-01-1.16295E-13-1.05254E-13
 -1      2696 1.99467E+01-9.36123E-04 7.82901E-04 2.32603E-01-1.05841E-13-7.27100E-14
 -1      2697 2.00020E+01 6.84051E-03-9.64432E-04 2.28005E-01-8.84265E-14-1.46778E-13
 -1      2698 1.99469E+01 1.01061E-03-1.65469E-04 2.37381E-01-9.91731E-14-2.03949E-14
 -1      2699 1.99655E+01 6.19204E-03 9.79493E-04 2.41649E-01-5.51799E-14 1.21236E-14
 -1      2700 1.99998E+01 3.37293E-03-7.41291E-04 2.42043E-01-4.97159E-14-3.37208E-14
 -1      2701 1.99684E+01 1.30310E-02-4.51251E-04 2.47872E-01-4.05247E-14 4.58063E-14
 -1      2702 1.99911E+01 2.29532E-02 1.18664E-03 2.55117E-01 1.58344E-14 3.84853E-14
 -1      2703 2.00048E+01 1.43520E-02-5.81358E-04 2.54972E-01-3.12895E-14 5.65574E-14
 -1      2704 1.99962E+01 3.38082E-02-6.63813E-04 2.65529E-01 2.67211E-14 1.91505E-14
 -1      2705 2.00231E+01 4.77410E-02 1.41877E-03 2.78116E-01 1.87042E-14-4.45976E-15
 -1      2706 2.00154E+01 3.68262E-02-4.69956E-04 2.73267E-01-1.33530E-14 5.62002E-15
 -1      2707 2.00300E+01 6.20651E-02-8.37042E-04 2.94971E-01 2.17718E-14-4.26005E-14
 -1      2708 2.00614E+01 7.95499E-02 1.68318E-03 3.14873E-01-3.74149E-14-2.49278E-14
 -1      2709 2.00306E+01 6.89401E-02-3.90956E-04 3.02123E-01 1.95890E-14-1.95074E-14
 -1      2710 2.00698E+01 9.69592E-02-9.94636E-04 3.40084E-01-1.12644E-13 3.51981E-14
 -1      2711 2.01066E+01 1.17627E-01 1.98040E-03 3.68984E-01-1.56737E-13 5.63785E-14
 -1      2712 2.00497E+01 1.09481E-01-3.28909E-04 3.45839E-01-4.92214E-14-6.18587E-14
 -1      2713 2.01162E+01 1.37717E-01-1.14987E-03 4.04188E-01-1.85928E-13 5.61938E-14
 -1      2714 2.01595E+01 1.61068E-01 2.30344E-03 4.43474E-01-1.90224E-13 3.16712E-14
 -1      2715 2.00723E+01 1.57440E-01-2.70840E-04 4.08042E-01-1.76246E-13-1.67195E-14
 -1      2716 2.01703E+01 1.83170E-01-1.30308E-03 4.90020E-01-2.10196E-13 5.77893E-14
 -1      2717 2.02212E+01 2.08267E-01 2.63640E-03 5.40675E-01-2.26201E-13 4.20356E-14
 -1      2718 2.00980E+01 2.11485E-01-2.09360E-04 4.91746E-01-1.87693E-13 2.37177E-14
 -1      2719 2.02333E+01 2.31095E-01-1.43572E-03 5.99501E-01-1.85514E-13 8.30050E-14
 -1      2720 2.02933E+01 2.56107E-01 2.95295E-03 6.61835E-01-1.03701E-13 5.54740E-15
 -1      2721 2.01267E+01 2.69240E-01-1.49384E-04 5.99231E-01-1.80181E-13 1.30900E-13
 -1      2722 2.03072E+01 2.77230E-01-1.49938E-03 7.33236E-01-8.76178E-14 5.75305E-15
 -1      2723 1.52694E+01-1.77233E+00-2.05113E+00 1.61420E+00-1.23623E-12 1.95799E-12
 -1      2724 2.01589E+01 3.26229E-01-1.21221E-04 7.31717E-01-1.10102E-13-2.13487E-14
 -1      2725 7.32296E+00-3.49856E+00-3.13192E+00 2.23315E+00-1.27764E-12 6.36291E-12
 -1      2726 8.17067E+00-5.51968E-01-5.39297E-01 1.19349E+00 2.31801E-13 5.21203E-12
 -1      2727 1.12545E+01-2.72427E+00-1.97718E+00 6.45158E-01 6.19782E-14 3.52374E-12
 -1      2728 7.07771E+00 4.95174E-01-2.30109E-01 9.72975E-01 4.89452E-13 5.59385E-12
 -1      2729 6.77406E+00 1.05827E+00-7.73492E-03 7.38171E-01 5.41511E-13 5.57530E-12
 -1      2730 7.79543E+00-5.02949E-01-5.35559E-01 6.34997E-01 2.40735E-13 5.20913E-12
 -1      2731 6.29213E+00 1.34461E+00 6.78030E-02 5.37348E-01 7.98736E-13 5.72966E-12
 -1      2732 5.65875E+00 1.22430E+00-3.08362E-02 1.25191E-01 8.93771E-13 6.05079E-12
 -1      2733 6.57108E+00 9.97552E-01 7.31065E-02 2.05045E-01 7.97085E-13 5.40253E-12
 -1      2734 5.12617E+00 4.82006E-01-1.77199E-01-1.78366E-01 1.17361E-12 6.56137E-12
 -1      2735 4.80643E+00-9.58460E-01-5.00408E-01-5.53346E-01 1.40143E-12 7.29050E-12
 -1      2736 5.54447E+00 4.59679E-01-1.20861E-02-4.43977E-01 1.47150E-12 6.00735E-12
 -1      2737 4.79388E+00-2.90039E+00-8.20413E-01-5.22061E-01 1.66467E-12 7.57271E-12
 -1      2738 3.67478E+00-5.39683E+00-1.88114E+00-1.54215E+00 2.55895E-12 8.99755E-12
 -1      2739 4.75398E+00-2.15940E+00-5.20097E-01-8.47497E-01 2.15776E-12 7.11806E-12
 -1      2740 7.26067E+00-8.76617E+00-1.94691E+00-1.54856E+00 4.04599E-12 7.93771E-12
 -1      2741 1.02229E+01-1.39812E+01-4.46132E+00-3.74847E+00 7.37299E-12 6.60694E-12
 -1      2742 6.26652E+00-8.81210E+00-2.02230E+00-2.08190E-01 2.83151E-12 6.78999E-12
 -1      2743 1.90635E+01-8.74437E+00-2.77877E+00 1.03372E+00 2.94142E-12 4.71179E-13
 -1      2744 2.64905E+01-3.03780E+00 3.98926E-01 4.41858E+00-1.01158E-12-1.74971E-13
 -1      2745 2.73448E+00-7.47430E+00-4.83297E+00 9.02507E-01 2.12219E-12 3.83515E-12
 -1      2746 2.77414E+01-5.34040E+00-2.30609E-01 1.84522E+00 3.91659E-13-5.17447E-13
 -1      2747 2.88264E+01-5.42169E+00 5.46060E-02 1.70533E+00 2.59750E-13-2.79402E-13
 -1      2748 3.81317E+01-2.95319E+00 3.41734E+00 6.46234E-01 8.99544E-13-3.71453E-13
 -1      2749 2.80487E+01-4.91294E+00 5.55487E-02 9.03376E-01 2.61496E-13-8.93938E-14
 -1      2750 2.76020E+01-4.57308E+00-1.33317E-02 7.30355E-02 1.75118E-13 7.35523E-15
 -1      2751 2.86794E+01-5.78496E+00 7.40222E-04 5.06575E-01 4.15515E-13-1.21514E-13
 -1      2752 2.75049E+01-3.95846E+00-9.07684E-03-7.06194E-01 8.78224E-14 1.28307E-13
 -1      2753 2.72132E+01-3.07654E+00-2.04578E-02-1.45668E+00-2.47059E-14 1.90247E-13
 -1      2754 2.78243E+01-4.99853E+00-9.17068E-02-5.13500E-01 2.33803E-13 2.25771E-13
 -1      2755 2.71685E+01-1.84775E+00-5.93364E-02-2.16365E+00-8.65315E-14 2.56689E-13
 -1      2756 2.68562E+01-3.93298E-01-1.11438E-02-2.43216E+00-2.18152E-13 3.24628E-13
 -1      2757 2.78835E+01-3.02731E+00-9.52680E-02-1.93207E+00-8.31973E-15 3.14476E-13
 -1      2758 2.57169E+01 3.65425E+00-1.15459E-01-8.52033E-01-5.34461E-13 1.26483E-13
 -1      2759 2.55147E+01 3.85306E+00-1.35107E-01 1.28368E-01-4.67570E-13-1.51910E-14
 -1      2760 2.68454E+01 3.95894E+00-1.12653E-01 1.11246E+00-3.27419E-13 5.31658E-14
 -1      2761 2.69504E+01 2.81409E+00-1.34250E-01 1.74898E+00-2.21156E-13 3.46979E-14
 -1      2762 2.55658E+01-1.33607E+00-1.22565E-02 1.40671E+00 4.75149E-14 3.44210E-13
 -1      2763 2.53583E+01-1.88446E+00-9.12362E-03 9.39067E-01 2.82560E-14 3.79932E-13
 -1      2764 2.45995E+01-2.09333E+00-2.35053E-02 2.54407E-01-7.77377E-14 2.38118E-13
 -1      2765 2.42407E+01-2.04443E+00 2.34010E-02-2.36829E-01-3.22787E-14 6.77427E-14
 -1      2766 2.51479E+01-2.48275E+00-3.90179E-02 1.49750E-01-1.04265E-13 2.90817E-13
 -1      2767 2.34795E+01-1.85335E+00-1.70085E-02-7.03348E-01 3.26254E-14-4.87744E-14
 -1      2768 2.30896E+01-1.54724E+00 2.63561E-02-1.05331E+00-1.02964E-13-2.24431E-13
 -1      2769 2.36355E+01-2.36892E+00-3.21036E-02-9.78031E-01-1.56217E-13-1.37910E-13
 -1      2770 2.25066E+01-1.23476E+00-7.52768E-03-1.27879E+00-1.69994E-14-3.03718E-13
 -1      2771 2.21635E+01-9.09775E-01 1.92458E-02-1.47141E+00 2.84033E-14-2.07519E-13
 -1      2772 2.23592E+01-1.65822E+00-2.85398E-02-1.58438E+00-1.50132E-14-3.67496E-13
 -1      2773 2.17788E+01-6.30787E-01-1.93694E-03-1.53537E+00 3.46528E-14-9.75019E-14
 -1      2774 2.15076E+01-3.79428E-01 1.12602E-02-1.60672E+00-6.99568E-14-6.42961E-14
 -1      2775 2.14688E+01-8.99806E-01-2.11130E-02-1.80667E+00 1.94967E-14-2.53806E-13
 -1      2776 2.12774E+01-1.82123E-01 1.24653E-03-1.57950E+00-2.14712E-13-4.71485E-14
 -1      2777 2.10706E+01-2.05196E-02 5.54431E-03-1.57217E+00-2.18597E-13-1.39287E-13
 -1      2778 2.09151E+01-3.13505E-01-1.30094E-02-1.79644E+00-1.50268E-13-2.05831E-13
 -1      2779 2.09392E+01 9.92852E-02 2.63041E-03-1.50032E+00-2.08032E-13-8.76790E-14
 -1      2780 2.07802E+01 1.89134E-01 2.08977E-03-1.44721E+00-1.90374E-13 3.47834E-14
 -1      2781 2.05908E+01 6.46126E-02-7.22236E-03-1.67150E+00-2.17408E-13-2.73217E-13
 -1      2782 2.07063E+01 2.51989E-01 3.19537E-03-1.35602E+00-1.06842E-13 8.77367E-14
 -1      2783 2.05805E+01 2.93909E-01 2.48807E-04-1.27955E+00 8.71299E-14 9.03823E-14
 -1      2784 2.04044E+01 2.77336E-01-3.64989E-03-1.49438E+00-8.31191E-14-5.44557E-14
 -1      2785 2.05374E+01 3.21314E-01 3.28611E-03-1.18277E+00 2.45128E-13 6.78168E-14
 -1      2786 2.04349E+01 3.36191E-01-5.40330E-04-1.09667E+00 2.90818E-13 2.18803E-14
 -1      2787 2.02946E+01 3.79155E-01-1.68772E-03-1.29858E+00 1.48836E-13-1.89162E-13
 -1      2788 2.04066E+01 3.45632E-01 3.13135E-03-1.00097E+00 2.40414E-13-3.50070E-14
 -1      2789 2.03214E+01 3.48780E-01-6.40990E-04-9.12290E-01 1.56809E-13-1.09189E-13
 -1      2790 2.02243E+01 4.17722E-01-6.36796E-04-1.10119E+00 1.64271E-13-3.49907E-13
 -1      2791 2.02985E+01 3.52254E-01 2.58615E-03-8.20469E-01 1.16591E-13-1.00191E-13
 -1      2792 2.02286E+01 3.54814E-01 4.28752E-06-7.31999E-01 1.97228E-14-1.40360E-13
 -1      2793 2.01718E+01 4.27358E-01-6.36853E-04-9.09395E-01 1.93849E-13-3.19861E-13
 -1      2794 2.84465E+01-2.12384E+00-4.66645E-02-1.47152E-01 1.09870E-13-3.19939E-13
 -1      2795 2.91013E+01-1.62078E-01-1.56240E-01 1.09264E+00 1.39486E-13-1.39250E-13
 -1      2796 1.98930E+01 1.24585E-01-9.75171E-05-7.64454E-02 6.19470E-14-1.61973E-13
 -1      2797 1.99263E+01 1.74885E-01 4.94951E-03-1.93530E-02 8.57610E-14-1.48863E-13
 -1      2798 1.98613E+01 1.54043E-03 6.45440E-04-2.14351E-01-1.34232E-15-6.68232E-14
 -1      2799 1.98474E+01 9.29513E-03 8.38029E-04-2.07955E-01 2.71494E-14-9.72490E-14
 -1      2800 1.98836E+01-4.05387E-03 7.90215E-04-2.22512E-01 8.32521E-14-6.75660E-14
 -1      2801 1.98630E+01-2.73360E-03 2.34010E-04-2.20019E-01 4.80753E-14-5.73329E-14
 -1      2802 1.99384E+01 2.78855E-03-1.03997E-03-2.25445E-01 3.60752E-14-1.00889E-13
 -1      2803 1.99150E+01 1.86105E-04 9.47381E-04-2.27947E-01 1.00328E-13-8.81019E-14
 -1      2804 1.98897E+01-3.25645E-03-1.54697E-04-2.25757E-01 8.32394E-14-1.05897E-13
 -1      2805 1.99473E+01-1.99124E-03-7.85287E-04-2.36739E-01 9.59524E-14-1.10141E-13
 -1      2806 1.99539E+01 1.19234E-02 1.13250E-03-2.36735E-01 8.55675E-15-2.94769E-14
 -1      2807 1.99245E+01 4.81424E-03-3.97911E-04-2.32147E-01 7.19264E-14-3.48768E-14
 -1      2808 1.99646E+01 5.15996E-03-6.25103E-04-2.46014E-01 5.54541E-14-5.45293E-14
 -1      2809 1.99999E+01 2.95894E-02 1.35257E-03-2.53550E-01-1.48030E-14-1.26111E-14
 -1      2810 1.99663E+01 1.95526E-02-5.46032E-04-2.44479E-01 5.95631E-15-2.45384E-15
 -1      2811 1.99887E+01 2.14575E-02-5.38260E-04-2.59581E-01-3.23486E-15-2.64841E-14
 -1      2812 2.00534E+01 5.20342E-02 1.60756E-03-2.82067E-01-4.00453E-15-4.12981E-14
 -1      2813 2.00150E+01 3.96281E-02-6.33645E-04-2.66874E-01 8.64419E-15-2.03109E-14
 -1      2814 2.00189E+01 4.49933E-02-5.07329E-04-2.82326E-01 1.72482E-14 3.31056E-14
 -1      2815 2.01161E+01 7.81953E-02 1.88900E-03-3.25152E-01 3.92142E-14-6.29290E-14
 -1      2816 2.00716E+01 6.39713E-02-6.82236E-04-3.02584E-01 8.37489E-15-4.98729E-14
 -1      2817 2.00553E+01 7.43018E-02-5.17440E-04-3.18088E-01 2.18152E-14-2.13371E-14
 -1      2818 2.01898E+01 1.06735E-01 2.17788E-03-3.84851E-01 8.71787E-14-7.94040E-14
 -1      2819 2.01378E+01 9.14346E-02-7.01430E-04-3.54077E-01 7.00006E-14-3.97893E-14
 -1      2820 2.00985E+01 1.07930E-01-5.58201E-04-3.69830E-01 5.94766E-14-2.99442E-15
 -1      2821 2.02771E+01 1.35581E-01 2.44069E-03-4.62154E-01 6.19815E-14-4.07185E-14
 -1      2822 2.02158E+01 1.20390E-01-6.87369E-04-4.22932E-01 4.64110E-14-8.16122E-14
 -1      2823 2.01499E+01 1.43957E-01-6.25878E-04-4.39603E-01 4.48608E-14 5.36111E-15
 -1      2824 2.03809E+01 1.61315E-01 2.62439E-03-5.56482E-01 5.98021E-14 3.83590E-14
 -1      2825 2.03086E+01 1.48202E-01-6.18801E-04-5.09472E-01 9.43415E-14 2.67546E-14
 -1      2826 2.02112E+01 1.79375E-01-7.27740E-04-5.28286E-01 4.43238E-14 1.30147E-14
 -1      2827 2.05048E+01 1.78368E-01 2.65029E-03-6.64845E-01 2.66491E-14-4.04598E-14
 -1      2828 2.04198E+01 1.70529E-01-4.50405E-04-6.12107E-01 8.45456E-14 2.81712E-14
 -1      2829 2.02851E+01 2.09287E-01-8.89746E-04-6.35069E-01 7.02588E-14 3.59877E-14
 -1      2830 2.06533E+01 1.78046E-01 2.40754E-03-7.80563E-01 2.57248E-14-1.34369E-13
 -1      2831 2.05540E+01 1.80426E-01-1.03694E-04-7.26288E-01 6.10460E-15-1.04258E-13
 -1      2832 2.03757E+01 2.25862E-01-1.16813E-03-7.56591E-01 8.68615E-14-8.13709E-15
 -1      2833 2.08322E+01 1.47563E-01 1.74664E-03-8.91542E-01 1.62805E-14-1.59767E-13
 -1      2834 2.07173E+01 1.67336E-01 5.41670E-04-8.42992E-01 1.30145E-14-1.46961E-13
 -1      2835 2.04892E+01 2.17133E-01-1.66319E-03-8.85690E-01 1.79424E-14-6.33216E-14
 -1      2836 2.10501E+01 6.96756E-02 4.72545E-04-9.78110E-01 1.03050E-13-1.14965E-13
 -1      2837 2.09183E+01 1.16316E-01 1.64707E-03-9.46702E-01 5.45601E-14-1.73216E-13
 -1      2838 2.06357E+01 1.65944E-01-2.52787E-03-1.00965E+00 7.04662E-14-6.11968E-14
 -1      2839 2.13182E+01-7.57675E-02-1.65483E-03-1.01075E+00-3.25187E-14-3.28481E-14
 -1      2840 2.11691E+01 8.37207E-03 3.38154E-03-1.01294E+00 4.83432E-14-8.20644E-14
 -1      2841 2.08311E+01 4.99135E-02-3.95376E-03-1.10788E+00 2.31553E-14-1.50153E-13
 -1      2842 2.16502E+01-3.05716E-01-4.86380E-03-9.48599E-01-3.82060E-14-3.83554E-14
 -1      2843 2.14851E+01-1.76196E-01 5.82615E-03-1.00585E+00-6.05040E-14 3.02519E-14
 -1      2844 2.10982E+01-1.55669E-01-6.08222E-03-1.14906E+00-5.79665E-14 1.12915E-14
 -1      2845 2.20567E+01-6.19084E-01-9.10448E-03-7.41035E-01-5.25192E-14-6.60230E-14
 -1      2846 2.18814E+01-4.48081E-01 8.75129E-03-8.77187E-01-3.46338E-15-3.23949E-14
 -1      2847 2.14668E+01-4.68305E-01-8.71923E-03-1.08821E+00-5.87096E-14 6.13875E-14
 -1      2848 2.24315E+01-3.79526E-01 1.24475E-01-2.29883E-02-1.48905E-13-1.78552E-13
 -1      2849 2.23619E+01-7.88445E-01 1.12166E-02-5.70953E-01-4.13942E-14 6.48787E-16
 -1      2850 2.19647E+01-8.76511E-01-1.08129E-02-8.66102E-01-2.18793E-14 3.75869E-14
 -1      2851 2.29591E+01 1.21456E-01 7.57456E-02 1.23222E+00-2.23668E-13-3.65997E-13
 -1      2852 2.27113E+01 2.10181E-01 2.19614E-01 7.12893E-01-2.14561E-13-3.87898E-13
 -1      2853 2.21168E+01-1.98895E-01 7.59222E-02 2.36723E-01-2.86781E-13-3.70773E-13
 -1      2854 2.35695E+01-8.56504E-02-8.66357E-03 2.06613E+00-3.23439E-13-2.57466E-13
 -1      2855 2.33627E+01-8.61908E-03 3.41447E-02 1.70727E+00-3.00687E-13-2.60124E-13
 -1      2856 2.29272E+01-3.42719E-01 1.85190E-02 1.17058E+00-2.94558E-13-2.65434E-13
 -1      2857 2.38590E+01 1.75033E-01-9.70950E-03 2.56616E+00-1.94027E-13-1.59875E-13
 -1      2858 2.38609E+01-4.35429E-02-2.74078E-02 2.43420E+00-2.83839E-13-1.39343E-13
 -1      2859 2.37120E+01-2.68935E-01 7.18127E-03 2.08339E+00-3.36670E-13-1.11196E-14
 -1      2860 2.37262E+01 1.02718E+00 4.69360E-03 2.53315E+00-1.08113E-13 3.42330E-14
 -1      2861 2.38777E+01 5.29426E-01-4.38193E-02 2.69116E+00-1.11043E-13-9.75105E-14
 -1      2862 2.41135E+01 3.69534E-01 8.96315E-03 2.69482E+00-2.14580E-13-3.02831E-14
 -1      2863 2.33372E+01 2.01340E+00 3.62457E-03 1.74885E+00-2.79762E-13 2.12874E-13
 -1      2864 2.35296E+01 1.54839E+00-3.86046E-02 2.24611E+00-1.58261E-13 1.37914E-13
 -1      2865 2.40381E+01 1.53779E+00-1.15025E-02 2.56178E+00-2.21028E-13 1.21045E-13
 -1      2866 2.31282E+01 2.33554E+00-9.41902E-03 3.66785E-01-2.80717E-13 2.58887E-13
 -1      2867 2.32025E+01 2.28424E+00-1.48235E-02 1.02644E+00-2.61259E-13 2.11278E-13
 -1      2868 2.37036E+01 2.64410E+00-3.31462E-02 1.49666E+00-2.76824E-13 2.74472E-13
 -1      2869 2.32460E+01 1.67181E+00-3.92705E-02-9.74993E-01-3.54508E-13 1.59272E-13
 -1      2870 2.31726E+01 2.12927E+00-1.85268E-03-4.26902E-01-3.45311E-13 1.77183E-13
 -1      2871 2.36347E+01 2.80493E+00-2.90842E-02-4.54973E-02-2.65406E-13 1.96414E-13
 -1      2872 2.35637E+01 4.19055E-01-3.99694E-02-1.56427E+00-6.82017E-15 1.20588E-13
 -1      2873 2.34695E+01 1.07270E+00 1.63286E-02-1.37626E+00-2.32252E-13 4.77314E-14
 -1      2874 2.39125E+01 1.69935E+00-1.07441E-02-1.32035E+00-2.41931E-13 2.84824E-14
 -1      2875 2.37001E+01-6.25392E-01-2.19658E-02-1.32988E+00 1.19916E-13 2.76689E-13
 -1      2876 2.36760E+01-1.51225E-01 1.19562E-02-1.47776E+00 1.40397E-13 2.91593E-13
 -1      2877 2.41321E+01 1.00277E-01 9.87469E-04-1.60933E+00-6.66086E-14-2.55178E-14
 -1      2878 2.34935E+01-1.10745E+00-1.50345E-03-6.66112E-01 2.80285E-13 2.68776E-13
 -1      2879 2.35535E+01-9.33214E-01-4.69745E-03-9.76819E-01 2.40722E-13 3.69485E-13
 -1      2880 2.39870E+01-9.68907E-01 9.83010E-03-1.09235E+00 1.51795E-13 9.10643E-14
 -1      2881 2.30249E+01-1.09286E+00 8.50644E-03 4.93718E-02 2.86316E-13 6.50827E-14
 -1      2882 2.31630E+01-1.15026E+00-1.40575E-02-2.65145E-01 3.43738E-13 2.46902E-13
 -1      2883 2.34577E+01-1.41561E+00-9.26915E-04-2.76113E-01 2.94236E-13 1.70820E-13
 -1      2884 2.24737E+01-8.24169E-01 1.06696E-02 5.97470E-01 4.93110E-14 2.31253E-13
 -1      2885 2.26553E+01-9.81830E-01-1.33895E-02 3.56886E-01 9.39450E-14 2.00662E-13
 -1      2886 2.27581E+01-1.29570E+00-8.81345E-03 4.38140E-01 1.32140E-13 1.74693E-13
 -1      2887 2.19581E+01-4.99437E-01 9.02698E-03 9.32899E-01-8.17098E-15 1.13850E-13
 -1      2888 2.21491E+01-6.66564E-01-9.33328E-03 7.84138E-01 6.30453E-14 2.60478E-13
 -1      2889 2.20942E+01-9.27787E-01-1.07593E-02 9.15744E-01 4.93625E-14 2.25201E-13
 -1      2890 2.15235E+01-2.20804E-01 6.28005E-03 1.08651E+00 4.28808E-14-5.31801E-16
 -1      2891 2.17052E+01-3.55510E-01-5.10738E-03 1.01806E+00-9.25094E-14 1.99461E-15
 -1      2892 2.15531E+01-5.30439E-01-9.37138E-03 1.16761E+00 5.96819E-14 2.15166E-13
 -1      2893 2.11740E+01-2.15401E-02 3.79750E-03 1.11015E+00 1.13983E-13-2.34828E-14
 -1      2894 2.13387E+01-1.13786E-01-1.79548E-03 1.10035E+00 1.16454E-13 3.92654E-14
 -1      2895 2.11459E+01-2.05927E-01-6.81659E-03 1.24913E+00 9.47229E-14 1.42030E-13
 -1      2896 2.08959E+01 1.04186E-01 2.07330E-03 1.05142E+00 1.17658E-13-1.05014E-13
 -1      2897 2.10414E+01 4.81361E-02 3.79125E-04 1.07979E+00 1.09980E-13-1.10696E-13
 -1      2898 2.08489E+01 1.90348E-02-4.59342E-03 1.21961E+00 1.98809E-13-2.44569E-14
 -1      2899 2.06730E+01 1.76153E-01 1.07290E-03 9.45179E-01 2.67910E-13-2.30661E-13
 -1      2900 2.07996E+01 1.45147E-01 1.64821E-03 9.96095E-01 1.94762E-13-1.98600E-13
 -1      2901 2.06316E+01 1.57953E-01-3.02645E-03 1.12421E+00 2.20408E-13-3.33159E-13
 -1      2902 2.04923E+01 2.16067E-01 7.67892E-04 8.13829E-01 4.31037E-13-1.26415E-13
 -1      2903 2.06007E+01 1.99009E-01 2.24271E-03 8.77119E-01 3.46887E-13 3.40006E-14
 -1      2904 2.04685E+01 2.36680E-01-1.99309E-03 9.93209E-01 2.08747E-13-3.31284E-13
 -1      2905 2.03457E+01 2.41749E-01 1.55369E-03 6.69378E-01 1.15062E-13 2.02757E-13
 -1      2906 2.04352E+01 2.29935E-01 2.48225E-03 7.39157E-01 2.51475E-13 7.37472E-14
 -1      2907 2.03406E+01 2.80869E-01-1.49264E-03 8.44780E-01 2.50381E-13-1.05491E-14
 -1      2908 2.02193E+01 2.77066E-01 1.99881E-03 5.44295E-01 1.38945E-13 4.97856E-13
 -1      2909 2.02924E+01 2.66122E-01 2.72192E-03 6.20250E-01 1.49485E-13 2.69935E-13
 -1      2910 2.02262E+01 3.20155E-01-2.93437E-03 7.13027E-01 1.05599E-13 3.80644E-13
 -1      2911 2.01348E+01 3.70947E-01-2.99546E-03 6.00989E-01 1.00369E-13 3.61408E-13
 -1      2912 1.95939E+01 9.59206E-01-2.78218E-03 9.01077E-02-3.69980E-14 1.40671E-13
 -1      2913 1.96133E+01 9.42074E-01-8.24331E-04 1.95126E-01-7.98142E-14 1.23127E-13
 -1      2914 2.02178E+01 3.57486E-01 2.51949E-03-6.71561E-01-1.41028E-14-1.04861E-13
 -1      2915 2.01756E+01 3.58567E-01 5.79951E-04-6.10755E-01-7.04742E-14-3.89160E-14
 -1      2916 2.01349E+01 4.29062E-01-9.47627E-04-7.53228E-01 5.41678E-14-5.40572E-13
 -1      2917 1.97395E+01 8.00644E-01-3.81806E-03 4.83240E-01-5.78814E-14 2.74308E-13
 -1      2918 1.98019E+01 7.42067E-01 1.59837E-03 5.44199E-01 1.26346E-13 1.21143E-13
 -1      2919 1.95973E+01 9.58838E-01-1.61099E-03-1.42528E-01 3.20982E-14-2.19438E-13
 -1      2920 1.95888E+01 9.67356E-01-2.12393E-03-3.45074E-02 2.53013E-14 5.35238E-14
 -1      2921 1.94987E+01 9.64693E-01 3.37376E-03 3.33951E-02-3.83080E-15 1.78616E-13
 -1      2922 1.96440E+01 9.03699E-01-3.55616E-03 3.07869E-01-3.12776E-13 1.17053E-13
 -1      2923 1.96879E+01 8.63464E-01 5.31133E-04 3.96320E-01-2.16265E-13 4.02677E-13
 -1      2924 1.96483E+01 8.25618E-01 2.12660E-03 4.89801E-01-1.59116E-13 1.41780E-13
 -1      2925 1.95444E+01 9.20795E-01 2.94792E-03 2.81421E-01-1.44155E-13 2.88591E-13
 -1      2926 7.72074E+00-9.57194E-01 1.30264E-01-3.39514E+00 5.20139E-14 1.20515E-13
 -1      2927 9.77559E+00-1.83716E+00 7.78464E-02-5.12857E+00 1.05860E-13 2.76723E-14
 -1      2928 1.96541E+01 9.02929E-01-1.56968E-04-3.55910E-01 8.46655E-14-7.07225E-13
 -1      2929 1.96186E+01 9.35465E-01-3.18676E-03-2.60775E-01 2.97372E-14-4.59005E-13
 -1      2930 1.95189E+01 9.50492E-01 3.39557E-03-2.20573E-01 1.97517E-14-4.44859E-13
 -1      2931 1.97609E+01 7.95146E-01 1.15416E-03-5.28309E-01 6.99130E-14-2.63644E-13
 -1      2932 1.97008E+01 8.49823E-01-3.85604E-03-4.55977E-01 7.52537E-14-5.32994E-13
 -1      2933 1.96038E+01 8.79124E-01 2.84772E-03-4.49162E-01 1.94279E-14-5.76473E-13
 -1      2934 1.99032E+01 6.46598E-01 9.54056E-04-6.30494E-01 1.86134E-13-7.14071E-14
 -1      2935 1.98296E+01 7.19176E-01-3.57812E-03-5.94825E-01 2.75871E-13-1.22437E-13
 -1      2936 1.97454E+01 7.58092E-01 1.67317E-03-6.23451E-01 1.19886E-13-1.52937E-13
 -1      2937 1.99603E+01 2.34922E-01-5.22315E-04 6.10099E-02 1.02504E-13-1.50321E-13
 -1      2938 2.00239E+01 3.17310E-01 7.49390E-03 1.59395E-01 1.12779E-13-1.33690E-13
 -1      2939 2.01464E+01 4.81952E-01-1.27868E-03 2.79530E-01 1.42637E-13-1.82790E-13
 -1      2940 2.00579E+01 2.72687E-01-2.15707E-03 5.75020E-02 1.03606E-13-1.81584E-13
 -1      2941 1.69800E+01-3.78143E+00 1.12896E-02 5.92652E+00-2.25292E-13-5.20486E-13
 -1      2942 1.37075E+01-2.57907E+00 1.63458E-01 5.70392E+00-2.96554E-13 6.37546E-14
 -1      2943 2.00860E+01 2.52708E+00-2.12275E-03-1.45921E+00-2.47534E-13-2.12304E-13
 -1      2944 1.25973E+01-2.62890E+00 1.65913E-01-5.90068E+00 4.57689E-14-1.73334E-14
 -1      2945 1.56776E+01-3.61357E+00 2.16221E-02-6.24131E+00 1.74208E-13-1.88918E-13
 -1      2946 2.61930E+01-4.09522E+00 4.71742E-02-2.52149E+00 1.00621E-13-1.67880E-13
 -1      2947 2.76314E+01-3.45562E+00-1.39442E-01-1.37167E+00 4.71428E-14-4.34763E-13
 -1      2948 2.77879E+01-2.50989E+00-9.06864E-03 4.25275E-02 8.17194E-14-2.80276E-13
 -1      2949 2.76331E+01 1.09252E+00-3.79006E-02 1.64349E+00-8.01026E-14 1.08497E-13
 -1      2950 2.77904E+01 2.91705E+00-2.09059E-01 2.11520E+00 6.89448E-14 5.74540E-14
 -1      2951 1.98515E+01 2.05372E-02 4.85269E-04-1.95363E-01 3.26719E-14-1.22862E-13
 -1      2952 1.98478E+01 3.73298E-02 1.75908E-03-1.80113E-01 3.56265E-14-1.38700E-13
 -1      2953 1.99406E+01 2.37134E-02-1.40792E-03-2.03788E-01 2.19726E-14-1.07784E-13
 -1      2954 1.98596E+01 5.85278E-02 2.60110E-04-1.54488E-01 3.98821E-14-1.41753E-13
 -1      2955 1.98711E+01 8.85375E-02 3.12169E-03-1.23356E-01 4.96736E-14-1.41432E-13
 -1      2956 1.99578E+01 6.73244E-02-1.88908E-03-1.60564E-01 3.24524E-14-1.31339E-13
 -1      2957 2.03172E+01 1.03695E+00 5.04574E-03-8.34846E-01-1.96944E-13-1.20004E-13
 -1      2958 2.02238E+01 8.00413E-01-5.11971E-03-5.94073E-01-1.72144E-13-1.10433E-13
 -1      2959 2.02625E+01 8.81109E-01 2.12930E-03-5.54233E-01-1.55804E-13-1.15981E-13
 -1      2960 2.02799E+01 1.38732E+00 1.90547E-03-9.20913E-01-2.06918E-13-1.56277E-13
 -1      2961 7.53846E+00-6.57755E-01 1.48935E-01-4.79575E+00-1.94927E-13-7.83595E-13
 -1      2962 9.71364E+00-1.43275E+00 9.10702E-02-5.68050E+00-1.96843E-13-6.84369E-13
 -1      2963 3.01723E+01 2.65872E+00-1.98002E-01-2.59258E+00-5.76178E-13 5.26801E-14
 -1      2964 3.03082E+01 5.86959E-01-3.80211E-02-2.67043E+00-4.66641E-13-6.47815E-14
 -1      2965 1.99300E+01 2.59796E+00-7.93087E-03 7.95052E-01 1.29050E-13-2.93524E-13
 -1      2966 1.98873E+01 2.69027E+00-6.16155E-03 6.45929E-01 9.00543E-14-3.14839E-13
 -1      2967 2.00066E+01 2.39177E+00 4.38503E-03 5.16892E-01 8.35760E-14-3.04135E-13
 -1      2968 2.00863E+01 2.19335E+00 5.73894E-03 7.46033E-01 1.26615E-13-2.64228E-13
 -1      2969 2.54599E+01-2.18725E+00-2.87524E-02-7.76350E-01-3.36226E-13 1.00975E-13
 -1      2970 2.67315E+01-1.00024E+00-1.46937E-01 4.90416E-01-2.20509E-13 1.87586E-13
 -1      2971 1.98825E+01 2.69922E+00-6.00759E-03-6.35588E-01-1.17456E-13-3.23431E-13
 -1      2972 1.99245E+01 2.60938E+00-7.56491E-03-7.84777E-01-1.48527E-13-3.03667E-13
 -1      2973 2.76171E+01 6.38264E+00-1.43943E-01 4.44913E-01-8.32390E-14-3.26499E-13
 -1      2974 2.76998E+01 5.99026E+00-1.32817E-01-5.80537E-01-1.37529E-13-3.72632E-13
 -1      2975 2.01076E+01 4.33694E-01 4.56686E-04-6.30633E-01 2.80315E-15-3.87718E-13
 -1      2976 7.01736E+00-5.09882E-01 1.27617E-01 1.79559E+00 1.07907E-13-2.19824E-13
 -1      2977 5.19417E+00 2.92553E-01 1.49238E-01 6.91695E-03 7.75109E-14-3.12250E-13
 -1      2978 2.77403E+01 4.83446E+00-9.66713E-02 2.06854E+00 4.35763E-14-1.12785E-13
 -1      2979 2.75197E+01 5.78263E+00-1.91160E-01 1.41624E+00-5.60663E-14-3.16604E-13
 -1      2980 4.53489E+00 3.44346E-01 1.18092E-01-1.60297E+00-7.96602E-14-5.19390E-13
 -1      2981 5.54582E+00 8.00243E-02 1.13303E-01-3.54824E+00-5.44079E-14-6.90115E-13
 -1      2982 2.89958E+01 5.38515E+00-1.93443E-01-1.52351E+00-5.73486E-13 1.29341E-13
 -1      2983 2.97390E+01 4.39553E+00-1.25149E-01-2.35370E+00-5.54057E-13 3.30846E-14
 -1      2984 1.31865E+01-3.24547E+00 1.13108E-01 3.49401E+00 2.31523E-13 6.01325E-14
 -1      2985 9.89411E+00-1.95441E+00 1.32054E-01 2.78691E+00 2.37477E-13-8.65974E-14
 -1      2986 2.71695E+01-5.61477E+00-1.18490E-01 9.44482E-01-1.11189E-13-7.53286E-14
 -1      2987 2.47700E+01-5.95695E+00 2.12307E-02 2.00957E+00-7.43849E-14 1.03653E-13
 -1      2988 7.02357E+00-1.84729E-01 1.09018E-01 1.18085E+00-2.85091E-13-1.14908E-14
 -1      2989 7.01532E+00-2.32232E-01 1.60283E-01-1.44192E+00-1.22652E-13 5.76206E-14
 -1      2990 2.84848E+01 7.19039E-01-1.72842E-01-9.30200E-01 7.14706E-15-5.46035E-13
 -1      2991 2.78719E+01-1.27001E+00-3.62805E-03-1.01609E-01 1.08205E-13-5.45897E-13
 -1      2992 2.74489E+01 1.22888E+00-7.30615E-02-1.50057E+00 5.17225E-14-3.10432E-13
 -1      2993 2.65102E+01-3.34556E+00-1.35600E-01 1.62074E+00 2.19838E-13-6.50979E-13
 -1      2994 2.51938E+01-4.12705E+00 3.24409E-02 2.76114E+00 1.70600E-13-5.88307E-13
 -1      2995 2.42000E+01-4.23699E+00 3.52484E-02 2.95150E+00 2.69375E-13-5.45720E-13
 -1      2996 2.99551E+01-2.36581E+00-2.26193E-01-1.70411E+00-2.47399E-13-2.05586E-13
 -1      2997 2.90395E+01-4.11975E+00 2.62392E-02-4.92950E-01-1.57235E-13-1.92457E-13
 -1      2998 2.03347E+01 1.50064E+00-1.87308E-03 1.26888E+00 2.48922E-13-1.71062E-13
 -1      2999 1.99778E+01 2.49116E+00-5.46117E-03-9.02426E-01-1.57186E-13-2.78908E-13
 -1      3000 2.00374E+01 2.36136E+00-6.76641E-03-1.03691E+00-1.85890E-13-2.50537E-13
 -1      3001 2.00793E+01 2.20757E+00 5.91899E-03-7.39845E-01-1.51431E-13-2.68540E-13
 -1      3002 1.99428E+01 2.54263E+00 3.47884E-03 4.62268E-03-1.62427E-14-3.11143E-13
 -1      3003 1.98037E+01 2.87298E+00-5.50653E-03-6.18850E-02-3.39614E-14-3.45037E-13
 -1      3004 1.98110E+01 2.85829E+00-5.55668E-03-2.16641E-01-5.61422E-14-3.49684E-13
 -1      3005 2.48333E+01-4.29448E+00 1.79404E-02-2.91264E+00 9.02195E-14-1.95052E-13
 -1      3006 2.11885E+01-4.04699E+00-5.78642E-02 4.13986E+00-1.30704E-13-4.05499E-13
 -1      3007 1.94077E+01-3.97238E+00 8.12899E-02 5.19430E+00-1.65402E-13-5.14283E-13
 -1      3008 1.82300E+01-3.06441E+00 5.12557E-02 5.00178E+00-1.80252E-13-4.64573E-13
 -1      3009 9.32333E+00 9.06838E-02 1.61657E-01 1.85615E+00-2.68448E-13 2.49245E-14
 -1      3010 2.82689E+01-4.87705E+00 2.31435E-02-3.91379E-01-4.27783E-15-7.60642E-14
 -1      3011 1.58752E+01-3.81693E+00 1.37549E-01 3.09838E+00 3.05519E-13 1.60490E-13
 -1      3012 1.51740E+01-2.79862E+00 1.43232E-01 2.37487E+00 4.45907E-13 2.17527E-13
 -1      3013 1.84831E+01-4.37793E+00 5.54341E-02 2.47568E+00 3.67720E-13 3.39673E-13
 -1      3014 1.85091E+01-3.85194E+00 9.44706E-02-5.70246E+00 1.40332E-13 2.96915E-14
 -1      3015 2.06604E+01-3.87789E+00 2.35356E-02-4.62433E+00 1.16143E-13 8.81933E-14
 -1      3016 1.72692E+01-2.98186E+00 7.80096E-02-5.44144E+00-2.04003E-15-2.35992E-14
 -1      3017 2.85394E+01 5.54846E+00-2.07623E-01-7.63029E-01-5.32213E-13 2.22013E-13
 -1      3018 2.75095E+01 4.57720E+00-1.38030E-01-1.26114E+00-5.92082E-13 1.74204E-13
 -1      3019 2.65140E+01-1.04843E-01-3.62387E-02 1.57258E+00-2.96749E-13 1.61454E-13
 -1      3020 1.15387E+01-1.17140E+00 1.02945E-01-5.20565E+00-3.17829E-13-3.44877E-13
 -1      3021 1.20144E+01-1.83678E+00 1.35596E-01-5.69441E+00-3.34552E-13-3.17413E-13
 -1      3022 1.42752E+01-2.31295E+00 2.65482E-02-5.47515E+00-4.64899E-13-7.78197E-14
 -1      3023 2.84249E+01-2.68077E-01-1.59251E-01-2.83059E+00-3.52184E-13 2.94230E-13
 -1      3024 2.72355E+01 7.82310E-01-8.95489E-02-2.74701E+00-3.44391E-13 2.89872E-13
 -1      3025 2.62832E+01 3.31933E+00-9.72601E-02-1.71190E+00-5.44509E-13 1.47785E-13
 -1      3026 2.65519E+01 2.12003E+00-1.29840E-01-2.26772E+00-4.42299E-13 2.56968E-13
 -1      3027 2.85323E+01 2.46235E+00-1.28367E-01 1.87854E+00-3.60129E-14 1.77108E-13
 -1      3028 2.60920E+01 8.91716E-01-3.90231E-02 2.03673E+00 1.88113E-14 1.15402E-13
 -1      3029 1.97950E+01 6.93248E-01 1.03488E-03 6.33512E-01 1.35829E-13 6.56398E-14
 -1      3030 1.98679E+01 6.63861E-01-3.46568E-03 5.95459E-01 3.02344E-14 5.35243E-14
 -1      3031 1.99400E+01 5.92815E-01 1.76851E-03 6.21444E-01-3.30289E-14 2.99332E-13
 -1      3032 2.62139E+01-3.30014E-01-7.34170E-02 1.95431E+00 1.16844E-13 2.23809E-13
 -1      3033 2.78169E+01-5.57941E-01-3.53401E-02 1.41164E+00 1.75054E-13 3.00163E-13
 -1      3034 2.88385E+01 6.16108E-01-1.56168E-01 1.70694E+00 1.33074E-13 1.36335E-13
 -1      3035 2.67607E+01 3.30903E+00-9.27508E-02 2.31036E+00-1.18419E-13 9.87405E-15
 -1      3036 6.35622E+00 8.54250E-01 1.78209E-01-8.82730E-01 5.15074E-14-4.17388E-13
 -1      3037 2.84064E+01 5.21792E+00-1.35309E-01 4.33629E-01-4.45172E-13 1.87701E-13
 -1      3038 1.33611E+01-1.62781E+00 1.41246E-01 4.83862E+00-3.78898E-13 1.09066E-13
 -1      3039 1.99954E+01 1.43928E-01-2.36782E-03-8.04395E-02 6.38334E-14-1.59590E-13
 -1      3040 9.04532E+00-1.05710E-01 1.64545E-01-2.21669E+00-1.63199E-13 9.30644E-14
 -1      3041 2.00016E+01 5.21263E-01-2.89019E-03 6.30160E-01-3.01548E-14 1.91048E-13
 -1      3042 2.00753E+01 4.44659E-01 1.82679E-03 6.20008E-01 2.32586E-15 2.10333E-13
 -1      3043 2.01134E+01 4.19968E-01 2.60985E-03 6.81890E-01-1.97835E-14 2.27737E-13
 -1      3044 1.99586E+01 5.53632E-01 1.50032E-03 6.93794E-01-6.21896E-14 1.76058E-13
 -1      3045 2.64412E+01 5.38768E+00-1.28077E-01 9.92164E-01-1.10106E-13-1.46827E-13
 -1      3046 2.46092E+01-2.76452E+00-2.31509E-02-1.45814E+00-4.37213E-13 1.82007E-14
 -1      3047 2.49230E+01-2.20715E+00-1.75424E-02-4.18984E-03-4.83178E-13 3.21264E-13
 -1      3048 2.32190E+01-3.01790E+00 2.31364E-03-2.06371E+00-6.26159E-13-5.94594E-14
 -1      3049 2.00366E+01 5.19374E-01 8.32470E-05-6.36023E-01 2.29941E-13-2.18448E-13
 -1      3050 2.01461E+01 2.17388E+00 5.22634E-04-1.20812E+00-2.17890E-13-2.14276E-13
 -1      3051 2.35831E+01-6.05528E+00 3.48353E-02 2.24985E+00 7.29833E-14 1.66746E-13
 -1      3052 2.19973E+01-5.44451E+00 7.83671E-02 2.26605E+00 2.27290E-13 2.61329E-13
 -1      3053 2.52240E+01-6.06975E+00-8.53908E-02 1.11773E+00 1.98820E-13 8.54794E-14
 -1      3054 2.66798E+01-1.15336E+00-4.77915E-02 1.45115E+00 9.39943E-14 3.72983E-13
 -1      3055 1.89050E+01-3.39980E+00 6.59300E-02-4.98571E+00-5.73097E-13-1.64931E-13
 -1      3056 2.06196E+01-3.45763E+00-3.03604E-02-3.74264E+00-6.35644E-13-2.49634E-13
 -1      3057 1.74410E+01-2.93971E+00 9.53254E-02-5.07281E+00-6.18339E-13-8.41341E-14
 -1      3058 1.23930E+01-1.74656E+00 1.54337E-01-5.12792E+00 8.68888E-14 4.63518E-14
 -1      3059 7.55529E+00 1.50472E-01 1.55906E-01-3.86635E+00-1.26288E-13-6.52894E-13
 -1      3060 2.68399E+01 4.53839E+00-1.16773E-01-9.80489E-01-1.22041E-13-2.37317E-13
 -1      3061 2.86941E+01 2.77805E+00-1.03114E-01-2.60416E+00-5.26246E-13 1.94858E-13
 -1      3062 1.98262E+01 2.82263E+00-5.70438E-03-3.51850E-01-6.74363E-14-3.21856E-13
 -1      3063 1.98498E+01 2.77418E+00-6.16946E-03-5.05524E-01-9.65295E-14-3.24740E-13
 -1      3064 2.00024E+01 2.39948E+00 4.32890E-03-5.07749E-01-9.66132E-14-3.04293E-13
 -1      3065 1.99571E+01 2.50843E+00 3.68833E-03-2.55672E-01-6.37633E-14-3.26249E-13
 -1      3066 2.95787E+01-1.19725E+00-5.66751E-02-2.41410E+00-2.76820E-13 1.97620E-14
 -1      3067 9.66414E+00-6.88876E-01 1.65058E-01 1.72749E+00 3.64736E-13 4.78229E-14
 -1      3068 2.00442E+01 4.95970E-01-6.00298E-04-7.32704E-01 9.58999E-14-4.07418E-13
 -1      3069 1.99611E+01 5.83939E-01-8.89821E-04-6.75602E-01 2.35467E-13-1.40591E-13
 -1      3070 1.99026E+01 6.22619E-01 1.54835E-03-7.32343E-01 2.15192E-13-5.61017E-14
 -1      3071 2.00631E+01 4.97900E-01 2.11088E-03-7.95461E-01 1.12722E-13-4.72835E-13
 -1      3072 2.02892E+01 1.58838E+00-1.20403E-03 1.16743E+00 2.26226E-13-2.08783E-13
 -1      3073 2.02795E+01 1.36785E+00 2.12568E-03 9.20879E-01 1.93623E-13-2.03112E-13
 -1      3074 2.67680E+01-2.38012E+00-2.21322E-02 3.95225E-01 2.46250E-13-4.03871E-13
 -1      3075 2.63758E+01 1.71591E+00-1.31859E-01-1.74383E+00 1.19349E-15-2.17631E-13
 -1      3076 2.67498E+01 2.04860E-01-5.00903E-03-1.52700E+00 8.10185E-14-2.75072E-13
 -1      3077 2.02430E+01 1.48366E+00-6.15046E-03 8.04420E-01 1.79499E-13-2.11147E-13
 -1      3078 2.02071E+01 1.67227E+00-1.99789E-05 7.47845E-01 1.54177E-13-2.31665E-13
 -1      3079 1.52103E+01-1.82947E+00 6.41202E-03 4.82354E+00-3.69444E-13-3.49443E-14
 -1      3080 1.27457E+01-5.83714E-01 1.35271E-01 3.99131E+00-3.73604E-13 2.12698E-13
 -1      3081 2.55892E+01-8.49998E-01-1.41230E-02 1.43695E+00-3.55112E-13 1.34896E-13
 -1      3082 2.59656E+01 5.94860E-01-1.41489E-01 2.28140E+00-2.56267E-13 3.80945E-14
 -1      3083 2.85092E+01-4.65413E+00-1.77741E-01-1.11109E+00 9.63292E-15 3.82472E-14
 -1      3084 2.76929E+01-5.37410E+00 8.25384E-02-1.67270E-01 8.23959E-14-4.71602E-14
 -1      3085 2.46280E+01-3.97912E+00-9.26133E-02 2.08374E+00 2.76102E-13-6.31134E-13
 -1      3086 2.35250E+01-3.99564E+00 7.15314E-02 2.96167E+00 9.69988E-14-5.20146E-13
 -1      3087 2.88114E+01-2.35594E+00-1.80994E-02-2.26704E+00-9.85184E-14 1.91305E-13
 -1      3088 2.02251E+01 4.31019E-01 4.00846E-03-1.15779E-01-1.28005E-13-1.45312E-13
 -1      3089 2.01869E+01 3.25530E-01-2.19262E-03-2.88181E-02-1.13251E-13-1.72755E-13
 -1      3090 2.01729E+01 2.44527E-01 3.09088E-03 3.51646E-02-1.27197E-13-1.67762E-13
 -1      3091 2.01442E+01 1.77148E-01-1.14484E-03 8.92893E-02-1.25826E-13-1.86491E-13
 -1      3092 2.02436E+01 3.45745E-01-8.97897E-04-1.78607E-02-1.25653E-13-1.87453E-13
 -1      3093 2.01275E+01 1.26647E-01 2.11431E-03 1.28930E-01-9.19856E-14-1.76081E-13
 -1      3094 2.01084E+01 8.58007E-02-4.06866E-04 1.60757E-01-7.48440E-14-1.65480E-13
 -1      3095 2.02038E+01 1.88736E-01-1.04610E-03 9.12953E-02-1.01269E-13-1.71729E-13
 -1      3096 2.00920E+01 5.65499E-02 1.29366E-03 1.83858E-01-6.09020E-14-1.69663E-13
 -1      3097 2.00811E+01 3.45381E-02 1.01091E-04 2.01683E-01-6.70005E-14-1.51747E-13
 -1      3098 2.01655E+01 9.22795E-02-9.93145E-04 1.58597E-01-7.30748E-14-1.70988E-13
 -1      3099 2.00662E+01 2.04891E-02 6.42500E-04 2.14739E-01-5.13373E-14-1.16773E-13
 -1      3100 2.00617E+01 1.21770E-02 4.56878E-04 2.24914E-01-3.44654E-14-9.20689E-14
 -1      3101 2.01318E+01 3.92676E-02-8.54629E-04 1.98363E-01-3.00447E-14-1.11190E-13
 -1      3102 2.00485E+01 9.31939E-03 1.36006E-04 2.33086E-01-3.37997E-14-1.94621E-14
 -1      3103 2.00490E+01 1.12715E-02 7.19577E-04 2.40444E-01 3.93451E-15 3.72517E-14
 -1      3104 2.01033E+01 1.80264E-02-6.91834E-04 2.22396E-01 2.45728E-14-5.89692E-14
 -1      3105 2.00372E+01 1.69439E-02-2.62973E-04 2.47775E-01-1.86879E-14 4.45112E-14
 -1      3106 2.00416E+01 2.68896E-02 9.30310E-04 2.56038E-01-3.38236E-14 3.06599E-14
 -1      3107 2.00793E+01 2.06452E-02-5.25056E-04 2.40057E-01-2.25472E-15 3.49615E-14
 -1      3108 2.00306E+01 3.93524E-02-5.91543E-04 2.65720E-01-4.56598E-14 1.98045E-14
 -1      3109 2.00382E+01 5.58220E-02 1.11598E-03 2.77821E-01 9.25959E-16 1.04078E-15
 -1      3110 2.00587E+01 4.18239E-02-3.60087E-04 2.58712E-01-3.43790E-14 3.05170E-14
 -1      3111 2.00273E+01 7.39522E-02-8.81185E-04 2.92426E-01 2.67407E-14-2.62896E-14
 -1      3112 2.00374E+01 9.59985E-02 1.29350E-03 3.10746E-01 1.31171E-15-2.86864E-14
 -1      3113 2.00400E+01 7.80802E-02-1.93182E-04 2.84220E-01-4.36265E-15-3.35026E-14
 -1      3114 2.00256E+01 1.19046E-01-1.15674E-03 3.32400E-01-4.02936E-14-6.32655E-14
 -1      3115 2.00380E+01 1.46000E-01 1.47250E-03 3.58915E-01-8.59114E-14-6.96558E-14
 -1      3116 2.00214E+01 1.27119E-01-1.61951E-05 3.21333E-01-4.89448E-14-1.15145E-13
 -1      3117 2.00242E+01 1.73350E-01-1.43530E-03 3.89423E-01-1.24578E-13-4.86220E-14
 -1      3118 2.00385E+01 2.04558E-01 1.65747E-03 4.25778E-01-1.76689E-13-5.65508E-14
 -1      3119 2.00007E+01 1.87277E-01 1.79628E-04 3.73988E-01-1.28934E-13-6.34520E-14
 -1      3120 2.00216E+01 2.35450E-01-1.72441E-03 4.66676E-01-1.78279E-13-3.74096E-14
 -1      3121 2.00378E+01 2.69947E-01 1.85065E-03 5.14176E-01-1.67124E-13 6.04693E-16
 -1      3122 1.99758E+01 2.56930E-01 4.00573E-04 4.45486E-01-1.58228E-13-9.46310E-14
 -1      3123 2.00165E+01 3.03101E-01-2.01897E-03 5.66747E-01-1.65926E-13 5.76225E-14
 -1      3124 2.00345E+01 3.39157E-01 2.05706E-03 6.26263E-01-1.63749E-13 7.71660E-14
 -1      3125 1.99442E+01 3.33768E-01 6.44912E-04 5.38576E-01-1.49963E-13 4.57504E-14
 -1      3126 2.00078E+01 3.72248E-01-2.29524E-03 6.91510E-01-1.64808E-13 5.82401E-14
 -1      3127 2.00280E+01 4.06728E-01 2.29323E-03 7.63291E-01-8.99196E-14-5.82657E-16
 -1      3128 1.99034E+01 4.13816E-01 8.92955E-04 6.55463E-01-1.64878E-13 5.57334E-14
 -1      3129 1.51611E+01-1.78962E+00-2.03117E+00-5.90621E-02 9.82714E-13 1.70408E-12
 -1      3130 7.71961E+00-3.35558E+00-2.96337E+00-8.06972E-01 1.09107E-12 5.72076E-12
 -1      3131 1.98518E+01 4.90056E-01 1.08954E-03 7.97799E-01-6.25540E-14 1.01182E-13
 -1      3132 8.57326E+00-6.75098E-01-5.15033E-01 1.86706E-01 7.49331E-14 4.73870E-12
 -1      3133 7.48043E+00 1.66647E-01-2.36149E-01 1.79824E-01 2.88020E-13 5.05236E-12
 -1      3134 6.81831E+00-9.87145E-01-2.13994E+00-2.71150E-01 5.05151E-15 5.84510E-12
 -1      3135 7.21134E+00 6.03385E-01 2.64869E-02-2.91390E-02 7.15476E-13 5.02044E-12
 -1      3136 6.70876E+00 7.82637E-01 8.07171E-02-4.11028E-01 1.08669E-12 5.17058E-12
 -1      3137 8.06970E+00 1.73856E-01-7.09648E-02-2.64285E-01 5.70960E-13 4.56061E-12
 -1      3138 6.13304E+00 6.08259E-01 4.30117E-02-7.07793E-01 1.67981E-12 5.54581E-12
 -1      3139 5.71109E+00 2.73653E-02-1.34618E-02-1.05406E+00 2.04637E-12 5.94318E-12
 -1      3140 7.11510E+00 3.92966E-01 1.03546E-01-1.01164E+00 1.69248E-12 4.97879E-12
 -1      3141 5.19098E+00-1.07050E+00-2.81267E-01-1.01602E+00 2.38984E-12 6.62580E-12
 -1      3142 4.92503E+00-2.98932E+00-6.98836E-01-9.72425E-01 2.64823E-12 7.07437E-12
 -1      3143 5.98636E+00-6.45633E-01-1.49540E-01-1.38141E+00 2.69649E-12 5.96805E-12
 -1      3144 4.21964E+00-5.03137E+00-1.57341E+00-7.96841E-01 2.93199E-12 7.46597E-12
 -1      3145 8.72796E+00-6.26050E+00-6.80468E-01 1.68830E-01 2.79293E-12 5.82351E-12
 -1      3146 5.21296E+00-4.16876E+00-1.34414E+00-1.12988E+00 2.78511E-12 6.73073E-12
 -1      3147 6.23887E+00-1.46778E+01-5.81957E+00 7.13854E+00-2.36611E-12 7.83484E-12
 -1      3148 1.87285E+01-7.74242E+00-2.59777E+00 1.21538E+00-1.64091E-13 5.85754E-13
 -1      3149-9.54273E+00-7.27622E+00-8.25115E+00-2.78565E-01 3.05023E-12 1.19571E-11
 -1      3150 2.53010E+01-1.45854E+00 7.13633E-01-3.18816E+00 3.08187E-12-1.76525E-14
 -1      3151 2.67156E+01-5.59791E+00-3.60480E-01-3.18905E-01 7.98028E-13-4.17919E-13
 -1      3152 3.90485E+01-4.61151E+00 3.99696E+00-9.23142E-01 2.42656E-12-3.24504E-12
 -1      3153 2.83206E+01-5.64017E+00 1.94778E-01-2.27558E-01 6.43697E-13-2.20921E-13
 -1      3154 2.72424E+01-5.59018E+00-1.22750E-02-2.82098E-02 5.43045E-13 3.64223E-14
 -1      3155 2.60540E+01-4.39896E+00 3.01821E-01-1.08026E+00 1.19943E-12-3.50671E-13
 -1      3156 2.83215E+01-4.55567E+00 6.96223E-02-1.13868E+00 7.41564E-14 2.33667E-13
 -1      3157 2.83201E+01-3.35154E+00-2.79263E-02-1.83882E+00 2.04784E-14 2.71845E-13
 -1      3158 2.55219E+01 4.78176E+00-7.35881E-02 1.57152E+00-1.51615E-13-4.84196E-14
 -1      3159 2.54922E+01 5.13403E+00-1.16647E-01 3.96199E-01-1.42303E-13-8.53198E-14
 -1      3160 2.59788E+01 2.24730E+00-1.50363E-02 2.66792E+00-1.83992E-13 9.63118E-14
 -1      3161 2.55561E+01 3.47712E+00-1.48181E-01 2.33632E+00-1.47576E-13-2.81164E-14
 -1      3162 2.35922E+01-2.84029E+00-3.35625E-03-1.52778E+00-2.47408E-13-2.74561E-14
 -1      3163 2.29010E+01-2.40049E+00 5.27631E-02-1.89086E+00-2.48501E-13-2.06599E-13
 -1      3164 2.20942E+01-1.91955E+00 1.07725E-02-2.03484E+00-4.71168E-14-1.01759E-13
 -1      3165 2.15425E+01-1.43406E+00 2.88642E-02-2.16439E+00 4.13390E-14-1.58734E-13
 -1      3166 2.17376E+01-2.43682E+00-4.66419E-02-2.62633E+00-5.55441E-14 1.80519E-13
 -1      3167 2.11035E+01-1.00229E+00 1.15377E-02-2.09715E+00 5.55849E-15-1.25620E-13
 -1      3168 2.07392E+01-6.25663E-01 1.41574E-02-2.10158E+00-2.33509E-14-1.08106E-13
 -1      3169 2.05515E+01-1.28080E+00-3.22294E-02-2.51924E+00 4.69167E-14-2.58994E-14
 -1      3170 2.05331E+01-3.22598E-01 9.06763E-03-1.97795E+00-4.91026E-14-1.16874E-13
 -1      3171 2.03131E+01-7.85543E-02 5.30447E-03-1.91926E+00-2.32169E-13-1.18166E-13
 -1      3172 2.00036E+01-4.50178E-01-1.67803E-02-2.25275E+00-3.39230E-14 6.63944E-14
 -1      3173 2.02394E+01 1.09496E-01 6.88803E-03-1.78508E+00-3.36315E-13-1.33196E-14
 -1      3174 2.01104E+01 2.48778E-01 9.22284E-04-1.69780E+00-1.67116E-13 3.02468E-14
 -1      3175 1.97683E+01 8.15723E-02-8.45612E-03-1.95739E+00-1.40568E-13 1.51392E-13
 -1      3176 2.01056E+01 3.50701E-01 5.12297E-03-1.56953E+00-8.27507E-14-3.45621E-14
 -1      3177 2.00300E+01 4.18391E-01-1.12668E-03-1.47143E+00-3.91749E-14-1.14086E-13
 -1      3178 1.97101E+01 3.83380E-01-3.42015E-03-1.67816E+00-6.17727E-14 5.66344E-14
 -1      3179 2.00559E+01 4.64438E-01 3.79905E-03-1.35396E+00-3.45068E-14-8.79679E-14
 -1      3180 2.00092E+01 4.89390E-01-1.94712E-03-1.25421E+00 1.06258E-13-2.91785E-13
 -1      3181 1.97378E+01 5.30236E-01-7.11842E-04-1.42655E+00-4.28926E-14-1.39769E-13
 -1      3182 2.00444E+01 5.04458E-01 2.81488E-03-1.14805E+00 1.67367E-13-3.46175E-13
 -1      3183 2.00141E+01 5.08499E-01-1.73510E-03-1.05067E+00 1.10396E-13-4.54153E-13
 -1      3184 1.97992E+01 5.85265E-01 7.76901E-04-1.20188E+00 1.31662E-13-1.92632E-13
 -1      3185 2.00574E+01 5.04224E-01 2.27670E-03-9.67365E-01 1.79301E-13-4.06905E-13
 -1      3186 2.00336E+01 5.02820E-01-1.00599E-03-8.72704E-01 1.74698E-13-3.86252E-13
 -1      3187 1.99417E+01 5.67843E-01-7.23142E-04-8.52145E-01 1.19045E-13-2.50253E-13
 -1      3188 1.98754E+01 5.85780E-01 4.12232E-04-1.01316E+00 1.66767E-13-2.78736E-13
 -1      3189 2.00098E+01 7.63498E-03 5.04892E-04-2.25686E-01 4.95948E-14-1.25086E-13
 -1      3190 2.00093E+01 1.62757E-02 7.31132E-04-2.16537E-01 1.45442E-14-1.32420E-13
 -1      3191 2.00220E+01 3.67913E-02 1.13963E-03-2.69005E-01-3.62693E-14-7.86476E-14
 -1      3192 2.00074E+01 2.42264E-02-4.95688E-04-2.59455E-01-2.07514E-14-1.06833E-13
 -1      3193 2.00370E+01 6.73208E-02 1.32774E-03-2.96520E-01 4.90370E-15-9.61978E-15
 -1      3194 2.00189E+01 5.04723E-02-7.31492E-04-2.81461E-01 2.56821E-15-1.43840E-14
 -1      3195 2.00341E+01 5.42139E-02-3.60716E-04-2.80958E-01-5.26608E-14-1.33264E-13
 -1      3196 2.00565E+01 1.04806E-01 1.52261E-03-3.37786E-01 5.05183E-14 8.33318E-16
 -1      3197 2.00348E+01 8.45682E-02-9.26983E-04-3.15476E-01 4.90743E-14 3.65500E-14
 -1      3198 2.00324E+01 9.21733E-02-2.61162E-04-3.13648E-01 1.82652E-14-3.42250E-14
 -1      3199 2.00807E+01 1.47383E-01 1.72371E-03-3.95735E-01 9.20580E-14-7.77958E-15
 -1      3200 2.00550E+01 1.24743E-01-1.09356E-03-3.64877E-01 5.52828E-14-5.92845E-15
 -1      3201 2.00327E+01 1.37979E-01-1.79159E-04-3.60867E-01 5.76973E-14-2.89945E-14
 -1      3202 2.01099E+01 1.92543E-01 1.92434E-03-4.72395E-01 4.33351E-14 9.41514E-15
 -1      3203 2.00795E+01 1.68894E-01-1.22921E-03-4.32202E-01 9.01315E-14 4.50049E-14
 -1      3204 2.00346E+01 1.89232E-01-1.17163E-04-4.25555E-01 7.16546E-14-3.37031E-14
 -1      3205 2.01455E+01 2.36396E-01 2.11262E-03-5.68657E-01 3.65837E-14-3.36518E-14
 -1      3206 2.01095E+01 2.13936E-01-1.31452E-03-5.19021E-01 4.50105E-14-2.12624E-14
 -1      3207 2.00379E+01 2.42620E-01-8.92697E-05-5.09789E-01 7.67777E-14-5.79711E-14
 -1      3208 2.01898E+01 2.72712E-01 2.27274E-03-6.83813E-01 2.02775E-14 2.40455E-14
 -1      3209 2.01466E+01 2.54967E-01-1.30601E-03-6.25616E-01 1.07808E-15-2.46464E-15
 -1      3210 2.00434E+01 2.93010E-01-1.29752E-04-6.14611E-01-6.85849E-15-9.84598E-14
 -1      3211 2.02473E+01 2.91711E-01 2.38559E-03-8.14826E-01 5.81114E-14 6.98225E-14
 -1      3212 2.01946E+01 2.84181E-01-1.12587E-03-7.50406E-01 9.72832E-14 1.04726E-13
 -1      3213 2.00535E+01 3.32303E-01-3.06530E-04-7.39668E-01 1.46009E-15 9.56871E-14
 -1      3214 2.03258E+01 2.78661E-01 2.42446E-03-9.55269E-01 3.43182E-14 2.72067E-14
 -1      3215 2.02599E+01 2.89552E-01-6.47464E-04-8.89076E-01 4.89480E-14 8.36678E-14
 -1      3216 2.00734E+01 3.47996E-01-7.40500E-04-8.82661E-01 5.08633E-14 1.77143E-13
 -1      3217 2.04388E+01 2.12632E-01 2.33605E-03-1.09380E+00 6.12875E-14-2.92216E-14
 -1      3218 2.03537E+01 2.53451E-01 3.21405E-04-1.03328E+00 5.50608E-14-3.74077E-15
 -1      3219 2.01132E+01 3.21577E-01-1.62943E-03-1.03849E+00 8.19817E-14 1.24331E-13
 -1      3220 2.06083E+01 6.63318E-02 1.98155E-03-1.21194E+00 7.55147E-17 3.57519E-14
 -1      3221 2.04949E+01 1.51782E-01 2.04836E-03-1.16870E+00 4.60926E-14 1.37902E-14
 -1      3222 2.01909E+01 2.27212E-01-3.26883E-03-1.19783E+00 2.15408E-14 9.28403E-14
 -1      3223 2.08670E+01-1.90924E-01 1.01878E-03-1.28086E+00-1.36392E-13 6.21891E-14
 -1      3224 2.07130E+01-4.49515E-02 4.85144E-03-1.27210E+00-8.08132E-14 3.62756E-14
 -1      3225 2.03364E+01 3.18616E-02-6.05841E-03-1.34464E+00-4.64404E-14 1.04217E-13
 -1      3226 2.12580E+01-5.82869E-01-1.20180E-03-1.25664E+00-1.99233E-14 1.48486E-14
 -1      3227 2.10499E+01-3.65746E-01 9.03855E-03-1.30661E+00-5.75026E-14 4.28458E-14
 -1      3228 2.05955E+01-3.00655E-01-1.04034E-02-1.45142E+00-1.26473E-13 2.95514E-14
 -1      3229 2.14508E+01-7.13553E-01-2.08289E-03-8.51993E-01-1.80222E-13-1.23092E-13
 -1      3230 2.15564E+01-8.22655E-01 1.46259E-02-1.21502E+00-1.26832E-14 3.05073E-14
 -1      3231 2.10319E+01-7.95670E-01-1.61506E-02-1.47039E+00-7.14890E-14 6.20814E-15
 -1      3232 2.18835E+01-5.70634E-01 1.63885E-02 4.98400E-02-3.00688E-13-2.83992E-13
 -1      3233 2.15295E+01-4.35372E-01 6.94791E-02-3.40982E-01-2.91326E-13-3.13798E-13
 -1      3234 2.07445E+01-6.86897E-01-7.21233E-02-8.28026E-01-2.19855E-13-1.79270E-13
 -1      3235 2.28910E+01-8.01971E-01-5.76423E-03 9.30321E-01-4.15442E-13-1.13204E-13
 -1      3236 2.24669E+01-6.89209E-01 3.38738E-02 4.76072E-01-3.79819E-13-2.40094E-13
 -1      3237 2.17268E+01-1.05400E+00-3.71802E-02-1.51848E-01-4.00282E-13-9.58643E-14
 -1      3238 2.38674E+01-6.82809E-01-1.12240E-02 1.87377E+00-3.44971E-13 1.17155E-13
 -1      3239 2.35662E+01-8.27375E-01 1.01682E-03 1.47016E+00-4.00178E-13 3.13881E-14
 -1      3240 2.30448E+01-1.24013E+00-2.82450E-02 8.01920E-01-4.80014E-13-9.67199E-14
 -1      3241 2.47263E+01 5.23066E-01-1.23487E-02 2.60613E+00-2.63463E-13 7.16829E-14
 -1      3242 2.45758E+01-2.46874E-01-4.14618E-02 2.36126E+00-2.41663E-13 8.32385E-14
 -1      3243 2.44023E+01 2.42931E+00-1.50101E-02 2.48363E+00-2.82933E-13 1.64473E-13
 -1      3244 2.44368E+01 1.49242E+00-8.97305E-02 2.71674E+00-2.05766E-13 1.25102E-13
 -1      3245 2.41374E+01 3.70824E+00-3.51356E-02 8.62473E-01-2.21372E-13 1.40289E-13
 -1      3246 2.42080E+01 3.32388E+00-5.54901E-02 1.68438E+00-2.69965E-13 4.70214E-14
 -1      3247 2.41440E+01 3.54946E+00-6.55615E-02-1.18341E-02-2.11928E-13 1.54217E-15
 -1      3248 2.45110E+01 1.50786E+00-7.50326E-02-1.61903E+00-1.01408E-13-1.35550E-13
 -1      3249 2.43916E+01 2.55622E+00-3.89574E-02-1.31022E+00-1.75797E-13-1.34358E-13
 -1      3250 2.49328E+01-1.87282E-01-4.34887E-02-1.59341E+00-4.52624E-14-1.98594E-13
 -1      3251 2.48995E+01 8.59839E-01-1.35123E-02-1.72552E+00-8.20420E-14-1.76921E-13
 -1      3252 2.42503E+01-1.67886E+00-6.18341E-03-6.21820E-01 1.38656E-13 2.40838E-14
 -1      3253 2.44126E+01-1.25566E+00-4.87406E-03-1.01490E+00 7.61769E-14 5.97526E-15
 -1      3254 2.33735E+01-1.79138E+00 1.88330E-02 3.10141E-01 2.13746E-13 1.68360E-13
 -1      3255 2.36773E+01-1.82146E+00-1.37527E-02-7.29007E-02 2.10432E-13 3.79779E-14
 -1      3256 2.41193E+01-2.09596E+00-1.05073E-02-2.39187E-02 1.39218E-13-2.13817E-13
 -1      3257 2.24597E+01-1.41348E+00 2.10528E-02 9.53686E-01 2.18579E-14 1.99825E-13
 -1      3258 2.27837E+01-1.65092E+00-1.23381E-02 6.78894E-01 1.51748E-13 2.19402E-13
 -1      3259 2.29209E+01-2.05476E+00-2.71737E-02 8.88028E-01 1.30001E-13 1.50179E-13
 -1      3260 2.16974E+01-8.96607E-01 1.59818E-02 1.29381E+00 3.44841E-14 1.18162E-13
 -1      3261 2.19850E+01-1.16447E+00-5.63392E-03 1.13899E+00-5.34438E-14 1.21050E-13
 -1      3262 2.19126E+01-1.50331E+00-2.21763E-02 1.38829E+00 1.69677E-14 1.53040E-13
 -1      3263 2.11411E+01-4.33480E-01 1.02011E-02 1.41133E+00 9.98584E-14 2.63632E-14
 -1      3264 2.13696E+01-6.57001E-01-1.15310E-03 1.35088E+00 1.01637E-13 5.96535E-14
 -1      3265 2.11665E+01-8.83932E-01-1.72676E-02 1.57909E+00 1.26687E-13-8.54130E-14
 -1      3266 2.07670E+01-9.37126E-02 5.57125E-03 1.38980E+00 2.04234E-13-1.13509E-13
 -1      3267 2.09380E+01-2.50227E-01 1.35747E-03 1.39215E+00 1.08411E-13-5.43904E-15
 -1      3268 2.06830E+01-3.72495E-01-1.13601E-02 1.57663E+00 1.43678E-13-2.68526E-13
 -1      3269 2.05238E+01 1.26459E-01 2.54371E-03 1.29134E+00 1.00353E-13-4.70816E-14
 -1      3270 2.06498E+01 2.87265E-02 2.21352E-03 1.33206E+00 1.52470E-13-6.88359E-14
 -1      3271 2.03939E+01-1.57157E-02-6.90823E-03 1.47540E+00 1.33674E-13-3.08133E-13
 -1      3272 2.03663E+01 2.55042E-01 7.30840E-04 1.15319E+00 2.43706E-13-1.38352E-13
 -1      3273 2.04604E+01 2.00109E-01 2.45061E-03 1.21548E+00 3.05973E-13-1.12745E-13
 -1      3274 2.02307E+01 2.07581E-01-3.93517E-03 1.32779E+00 2.33071E-13-3.12542E-14
 -1      3275 2.02618E+01 3.24087E-01-1.39647E-04 9.97637E-01 1.92186E-13-1.72894E-13
 -1      3276 2.03342E+01 2.95400E-01 2.35757E-03 1.07062E+00 1.02069E-13-2.18671E-13
 -1      3277 2.01437E+01 3.34169E-01-2.08329E-03 1.16120E+00 1.79077E-13-3.45188E-14
 -1      3278 2.01901E+01 3.62981E-01 4.50365E-04 8.36548E-01 9.53938E-14 8.65947E-14
 -1      3279 2.02455E+01 3.45756E-01 2.04408E-03 9.13958E-01 1.70824E-13-1.20345E-13
 -1      3280 2.00984E+01 4.01291E-01-9.29292E-04 9.90688E-01 1.01010E-13-1.72861E-13
 -1      3281 2.01241E+01 4.03147E-01 1.11297E-03 7.30053E-01 7.11055E-14 1.08735E-13
 -1      3282 2.01759E+01 3.78592E-01 2.05816E-03 7.87341E-01 7.47563E-14 9.13959E-14
 -1      3283 2.00662E+01 4.38559E-01-9.19094E-04 8.53384E-01 3.83719E-15-2.69891E-13
 -1      3284 2.00384E+01 4.66526E-01-2.69087E-03 7.49628E-01-1.16575E-13-1.74447E-13
 -1      3285 2.02908E+01 9.90275E-01-7.47670E-04 6.90620E-01 1.78840E-13-1.96247E-13
 -1      3286 2.02687E+01 1.30938E+00 2.99499E-03 7.71642E-01 1.83450E-13-2.01520E-13
 -1      3287 2.02730E+01 1.13112E+00 2.49285E-04 5.92918E-01 1.60581E-13-2.06261E-13
 -1      3288 2.02323E+01 7.78059E-01-3.68692E-03 4.84196E-01 1.55512E-13-1.94668E-13
 -1      3289 7.09147E+00 1.10454E+00 5.63984E-02-2.65581E-01 1.68390E-13-1.84686E-13
 -1      3290 6.66580E+00 1.27523E+00 1.25545E-01-1.73417E+00 7.66076E-14-3.61267E-13
 -1      3291 2.00541E+01 2.16566E+00-4.29644E-03 2.92414E-01 5.45444E-14-2.97810E-13
 -1      3292 2.00412E+01 2.20464E+00-3.34418E-03 1.70737E-01 1.02082E-14-2.96625E-13
 -1      3293 1.93591E+01 9.72050E-01-1.96566E-03-2.51401E-02-1.55718E-13-1.07669E-14
 -1      3294 1.93686E+01 9.65772E-01-8.78825E-04 1.07847E-01-8.32682E-14 2.09506E-13
 -1      3295 1.97242E+01 7.26784E-01 9.72688E-04-7.20834E-01 1.32291E-13 1.31872E-14
 -1      3296 1.96220E+01 7.90879E-01-4.01312E-03-6.51889E-01 6.03549E-14-1.03955E-13
 -1      3297 1.94045E+01 9.47367E-01-1.71158E-04-3.01683E-01-2.54751E-14-5.13054E-13
 -1      3298 1.93709E+01 9.65857E-01-2.48862E-03-1.75312E-01-9.45573E-16-1.86788E-13
 -1      3299 1.92511E+01 9.89279E-01 3.60108E-03-1.04578E-01-1.50153E-13-4.01827E-14
 -1      3300 2.00210E+01 2.99244E-02 1.81411E-04-2.03381E-01-1.25584E-15-1.38183E-13
 -1      3301 2.00282E+01 5.08393E-02 1.45496E-03-1.85970E-01 1.40854E-14-1.58969E-13
 -1      3302 2.00825E+01 3.41599E-02-1.02709E-03-2.03428E-01 2.60417E-15-1.42718E-13
 -1      3303 1.95315E+01 8.63082E-01 1.50779E-03-5.46471E-01 4.44436E-14-4.75417E-13
 -1      3304 1.94572E+01 9.05232E-01-3.78972E-03-4.39561E-01 7.04577E-14-6.74950E-13
 -1      3305 1.93284E+01 9.45369E-01 3.32315E-03-4.03264E-01-1.98504E-14-5.03220E-13
 -1      3306 1.94949E+01 8.40246E-01 1.43578E-03-6.54808E-01 1.55930E-13-2.76209E-13
 -1      3307 2.00119E+01 1.50185E-02 9.52232E-04-2.51446E-01 2.15686E-14-9.03365E-14
 -1      3308 2.00010E+01 7.79736E-03-1.97990E-04-2.45174E-01 3.78272E-14-1.00751E-13
 -1      3309 2.00388E+01 2.62889E-02-4.81829E-04-2.59017E-01-1.57853E-14-1.39289E-13
 -1      3310 2.00074E+01 4.23453E-03 7.49173E-04-2.39047E-01 5.57763E-14-1.13653E-13
 -1      3311 2.00011E+01 3.84648E-03 1.96113E-04-2.33202E-01 7.67868E-14-1.34441E-13
 -1      3312 2.00617E+01 1.18679E-02-8.11071E-04-2.27130E-01 5.16268E-14-1.37307E-13
 -1      3313 2.00476E+01 1.09763E-02-6.31547E-04-2.43075E-01 2.21679E-14-1.08696E-13
 -1      3314 9.83379E+00 4.53988E-01 8.99947E-02-1.41658E+00-2.99830E-13-4.03427E-14
 -1      3315 1.05492E+01-1.72107E-01 9.88082E-02-3.26042E+00-9.31547E-14 6.24084E-14
 -1      3316 2.02713E+01 7.17766E-01 3.59413E-03-3.44636E-01-1.36485E-13-1.61111E-13
 -1      3317 2.02303E+01 5.57725E-01-3.40899E-03-2.12225E-01-1.26132E-13-1.64643E-13
 -1      3318 2.02776E+01 5.88082E-01-3.42462E-04-1.84786E-01-1.22452E-13-2.01275E-13
 -1      3319 2.35657E+01-4.13725E+00 5.13972E-02-3.20557E+00 4.90510E-14-3.46979E-14
 -1      3320 2.57418E+01-3.90267E+00-7.98608E-02-1.55254E+00-7.44006E-14-2.70124E-13
 -1      3321 2.00431E+01 7.81114E-02-2.79883E-04-1.61669E-01 1.77446E-14-1.51076E-13
 -1      3322 2.00607E+01 1.16180E-01 2.41117E-03-1.29316E-01 3.41052E-14-1.46862E-13
 -1      3323 2.01114E+01 8.55201E-02-1.25152E-03-1.61926E-01 1.57143E-14-1.77614E-13
 -1      3324 2.00783E+01 1.63216E-01-9.18750E-04-8.67912E-02 5.02168E-14-1.57666E-13
 -1      3325 2.01081E+01 2.25838E-01 3.15647E-03-3.01370E-02 7.05594E-14-1.38525E-13
 -1      3326 2.01491E+01 1.77390E-01-1.46645E-03-8.98453E-02 2.84337E-14-1.52236E-13
 -1      3327 1.20231E+01-8.14820E-01 1.17241E-01-4.26406E+00 1.37668E-14 2.04364E-13
 -1      3328 1.42125E+01-1.80429E+00 3.21455E-02-5.06316E+00-8.92481E-14 4.16750E-14
 -1      3329 1.27003E+01-1.97492E-01 1.21906E-01-3.38707E+00-1.35243E-13 1.50248E-13
 -1      3330 1.06126E+01 6.12154E-02 2.70402E-02 2.71311E+00-2.01412E-13 3.13360E-14
 -1      3331 9.85955E+00 5.96030E-01 1.00990E-01 7.31151E-01-1.92891E-13 2.72282E-14
 -1      3332 2.01996E+01 1.89263E+00 1.09843E-03-1.00787E+00-1.87538E-13-2.19011E-13
 -1      3333 2.65372E+01-1.70875E+00-1.24399E-01-5.77435E-01 1.19505E-13-4.08770E-13
 -1      3334 2.58527E+01-3.04284E+00 2.57693E-02 7.36182E-01 2.77757E-13-5.62848E-13
 -1      3335 7.31226E+00 7.61966E-01 8.67842E-02-3.01905E+00-1.62415E-13-5.61412E-13
 -1      3336 9.11649E+00-2.73861E-03 9.32602E-02-4.27501E+00-2.19144E-13-6.49245E-13
 -1      3337 1.19113E+01-9.79798E-01 1.48822E-01 1.62310E+00 5.60340E-13 3.12216E-13
 -1      3338 9.12711E+00 3.25826E-01 9.81993E-02 7.56959E-01 3.86502E-13 1.75485E-13
 -1      3339 2.00343E+01 2.22355E+00-3.69673E-03 6.59623E-02-7.19483E-15-2.85229E-13
 -1      3340 2.00339E+01 2.22444E+00-3.64726E-03-5.80096E-02-3.96079E-14-2.98231E-13
 -1      3341 2.01482E+01 1.92942E+00 5.03599E-03 1.01310E-01-1.94811E-15-2.76061E-13
 -1      3342 2.02633E+01 1.46453E+00 7.70483E-03 5.88250E-01 1.35358E-13-2.16340E-13
 -1      3343 2.01633E+01 1.80266E+00-7.89160E-03 6.83517E-01 1.35446E-13-2.46448E-13
 -1      3344 2.01289E+01 1.93442E+00-2.96783E-03 5.89997E-01 1.03742E-13-2.50739E-13
 -1      3345 2.61233E+01 2.66281E+00-8.97354E-02-1.78559E+00-9.97119E-14-1.57922E-13
 -1      3346 2.55753E+01 1.49081E+00-3.83395E-02-1.70645E+00-5.20348E-14-1.96466E-13
 -1      3347 1.28842E+01-1.11917E-02 8.94838E-02 2.97916E+00-1.93706E-13 8.92550E-14
 -1      3348 2.23377E+01-3.65858E+00 5.83433E-02 3.26146E+00-5.86267E-14-4.74412E-13
 -1      3349 8.03076E+00 1.13864E+00 1.00426E-01-2.23978E+00-7.52861E-14-4.04884E-13
 -1      3350 2.10696E+01-4.94125E+00 1.02723E-01 1.86099E+00 3.70204E-13 2.94714E-13
 -1      3351 1.98899E+01-3.95793E+00 1.32657E-01 1.35865E+00 5.30208E-13 2.86788E-13
 -1      3352 2.30053E+01-5.48548E+00-7.02139E-02 1.14274E+00 4.14280E-13 2.55096E-13
 -1      3353 1.64629E+01-2.15052E+00 1.12043E-01-5.00813E+00-1.53599E-13-1.37966E-13
 -1      3354 1.83370E+01-2.62482E+00-3.34809E-02-4.61377E+00-1.19453E-14-6.85493E-14
 -1      3355 1.58854E+01-1.30186E+00 7.12096E-02-4.37746E+00-1.12462E-13 1.91513E-14
 -1      3356 2.53159E+01 1.15444E+00-3.41982E-02 2.58004E+00-2.94306E-13 1.19363E-13
 -1      3357 2.65445E+01-5.56329E+00 3.93766E-02 2.39349E-01 1.93498E-13-3.18669E-15
 -1      3358 1.07235E+01-3.98814E-01 1.28498E-01-4.55104E+00-3.12951E-13-4.53450E-13
 -1      3359 1.24735E+01-9.44290E-01 5.22767E-02-4.63463E+00-3.82777E-13-1.06581E-13
 -1      3360 1.03095E+01 1.31410E-01 6.08409E-02-3.85193E+00-3.38549E-13-4.56038E-13
 -1      3361 1.63513E+01-2.51624E+00 8.92916E-02-4.97438E+00-5.08968E-13-1.02696E-14
 -1      3362 1.80992E+01-2.73874E+00 9.00066E-03-4.11770E+00-5.37174E-13-8.39693E-14
 -1      3363 1.52882E+01-1.92673E+00 5.78043E-02-4.75254E+00-4.41522E-13-1.75970E-14
 -1      3364 2.78580E+01-5.48682E+00 8.52557E-02-4.92744E-02 4.17163E-13 9.87196E-14
 -1      3365 2.76713E+01-5.14090E+00-4.83409E-02-6.00271E-01 1.96131E-13 1.93833E-13
 -1      3366 1.96906E+01 7.15567E-01-3.76924E-03 6.72963E-01-6.72166E-14 9.90256E-14
 -1      3367 1.97923E+01 6.49732E-01 1.85901E-03 7.25251E-01-1.44046E-13 3.16848E-13
 -1      3368 1.72248E+01-2.19746E+00 1.07310E-01 4.71482E+00-1.84106E-13-3.60153E-13
 -1      3369 1.62373E+01-1.32285E+00 1.93354E-02 4.11499E+00-1.85289E-13-6.54789E-14
 -1      3370 1.88184E+01-2.70450E+00-5.52783E-02 4.23049E+00-1.31554E-13-3.64882E-13
 -1      3371 2.48765E+01 3.47479E+00-6.62272E-02 1.96306E+00-2.13066E-13-5.11813E-14
 -1      3372 2.68601E+01-2.04735E+00-1.09349E-01 8.62486E-01 7.00412E-14 1.92305E-13
 -1      3373 2.44477E+01-7.63615E-01-2.08349E-02 1.80774E+00-3.21262E-13 2.04376E-14
 -1      3374 2.49081E+01 3.71923E+00-7.17928E-02-4.87319E-01-1.30791E-13-2.47458E-14
 -1      3375 2.53038E+01-8.66537E-01-3.23390E-02-1.23174E+00-7.64840E-14-2.81695E-13
 -1      3376 2.02213E+01 6.03034E-01 2.77558E-03 3.39406E-01 1.32332E-13-2.03247E-13
 -1      3377 2.02573E+01 7.62143E-01 1.72674E-03 4.01892E-01 1.47436E-13-1.97657E-13
 -1      3378 2.01655E+01 4.63255E-01-2.56300E-03 1.99968E-01 1.22064E-13-1.97600E-13
 -1      3379 1.95138E+01 8.46185E-01-4.04785E-03 4.96810E-01-1.52384E-13 1.06399E-13
 -1      3380 1.95971E+01 7.95929E-01 2.21024E-03 5.88682E-01 1.32433E-14 1.28190E-13
 -1      3381 1.95761E+01 7.54195E-01 6.30075E-04 6.92198E-01-1.77027E-13 1.89394E-13
 -1      3382 2.00739E+01 2.10979E+00-3.09567E-03 3.90929E-01 7.41292E-14-2.97024E-13
 -1      3383 2.01701E+01 1.85414E+00 5.38404E-03 2.90534E-01 6.04123E-14-2.76309E-13
 -1      3384 2.00987E+01 2.02906E+00-5.37547E-03 5.04249E-01 1.02233E-13-2.77362E-13
 -1      3385 2.06927E+01-2.93399E+00 2.78299E-02-3.04056E+00-5.31998E-13-5.87082E-14
 -1      3386 2.22251E+01-3.14892E+00 3.84157E-02-2.61611E+00-6.75938E-13-1.33261E-13
 -1      3387 2.30410E+01-2.75549E+00-3.05604E-02-1.18080E+00-5.97595E-13 8.81101E-14
 -1      3388 1.17535E+01 8.85175E-01 6.23107E-02 4.59138E-01-5.97673E-14 6.18186E-14
 -1      3389 1.05926E+01 7.71147E-01 1.05834E-01-3.36899E-01-1.81945E-13-7.28723E-14
 -1      3390 1.16362E+01 7.15327E-01 1.84731E-02-1.38320E+00-1.33198E-13-9.25093E-14
 -1      3391 1.93978E+01 9.36465E-01-3.28281E-03 2.54579E-01-9.29165E-14 3.07877E-13
 -1      3392 1.94484E+01 9.06000E-01 8.17410E-04 3.74582E-01-1.93723E-13 2.70874E-13
 -1      3393 1.93880E+01 8.84575E-01 2.43067E-03 4.80256E-01-4.47209E-14 1.98673E-13
 -1      3394 1.92727E+01 9.67465E-01 3.25107E-03 2.02444E-01-1.78738E-13 2.00688E-13
 -1      3395 2.59816E+01-9.87879E-01-4.76457E-02-1.04632E+00 6.14855E-14-3.84207E-13
 -1      3396 2.01156E+01 2.82655E-01-1.57977E-03 2.54923E-02 7.74495E-14-1.63615E-13
 -1      3397 2.01583E+01 3.77008E-01 3.38207E-03 1.16634E-01 1.01644E-13-1.75556E-13
 -1      3398 2.02142E+01 4.79140E-01-6.00728E-04 1.66281E-01 9.12961E-14-1.85041E-13
 -1      3399 2.01840E+01 3.06501E-01-1.70702E-03 1.68394E-02 6.70275E-14-1.43773E-13
 -1      3400 2.02584E+01 8.96336E-01-4.69513E-03-4.62869E-01-1.42169E-13-1.72303E-13
 -1      3401 2.02915E+01 9.35338E-01 1.62682E-03-4.07550E-01-1.43916E-13-1.98976E-13
 -1      3402 2.02890E+01 1.10663E+00-2.72781E-04-6.31925E-01-1.54289E-13-1.84352E-13
 -1      3403 2.55016E+01-3.08128E+00-9.30280E-03-5.40762E-01-6.91695E-14 3.71803E-14
 -1      3404 2.47095E+01-3.12740E+00 5.24378E-02-1.17572E+00-1.77781E-13-2.82534E-14
 -1      3405 2.66414E+01-2.76471E+00 3.00850E-02 6.42553E-02-2.71311E-14-2.66384E-14
 -1      3406 2.74273E+01-5.71959E+00-1.78033E-01-3.62379E-01 1.98619E-13 3.19467E-14
 -1      3407 1.39911E+01-1.58510E+00 1.85048E-01 1.32798E+00 7.09745E-13 3.39576E-13
 -1      3408 1.31782E+01-5.44451E-01 1.68682E-01 4.28978E-01 8.52922E-13 4.23148E-13
 -1      3409 1.62004E+01-2.36799E+00 1.02448E-01 1.04724E+00 8.13342E-13 4.52222E-13
 -1      3410 2.33999E+01-3.44023E+00-4.97353E-02-2.33746E+00-2.13652E-13-8.57821E-14
 -1      3411 2.17645E+01-3.95826E+00 4.52846E-03-4.08664E+00 9.93719E-14 1.71340E-13
 -1      3412 2.31854E+01-3.58284E+00 5.21832E-02-2.82735E+00-5.26124E-14 9.58764E-14
 -1      3413 2.22421E+01-3.01442E+00 1.07587E-01-3.10694E+00-9.92036E-14 2.41012E-13
 -1      3414 2.04372E+01-3.19824E+00 5.31850E-02-4.19785E+00 1.00545E-14 1.77620E-13
 -1      3415 2.02202E+01 1.57004E+00-2.08977E-03-8.08213E-01-1.70768E-13-2.05159E-13
 -1      3416 2.63298E+01-5.73409E+00-8.55705E-02-9.00011E-02 5.48790E-13 9.40220E-15
 -1      3417 2.56836E+01 4.16833E+00-9.81519E-02-1.00625E+00-1.22805E-13-1.43406E-13
 -1      3418 2.00715E+01 2.11582E+00-2.96798E-03-3.83112E-01-8.03474E-14-2.91413E-13
 -1      3419 2.00950E+01 2.03775E+00-5.16516E-03-4.97983E-01-1.08124E-13-2.76375E-13
 -1      3420 1.98594E+01 6.18459E-01-1.02032E-03-8.16825E-01 7.95803E-14-7.24774E-14
 -1      3421 1.97854E+01 6.77333E-01-1.80827E-03-7.72167E-01 1.35650E-13 1.82686E-14
 -1      3422 1.96762E+01 7.25299E-01 1.09709E-03-8.08465E-01-3.63854E-15 1.43494E-13
 -1      3423 1.98327E+01 6.29981E-01 1.56442E-03-8.94499E-01 1.22993E-13-3.82108E-14
 -1      3424 1.00910E+01 7.91570E-01 4.63772E-02 8.19145E-02 6.70280E-13 6.49869E-13
 -1      3425 8.45299E+00 1.07708E+00 1.15044E-01 1.14829E-01 3.96407E-13 1.26538E-13
 -1      3426 8.22785E+00 1.44248E+00-3.54687E-03-5.55468E-01 3.43375E-13 1.28439E-13
 -1      3427 2.51387E+01-3.04709E+00 2.80759E-02 8.42974E-01 1.14520E-13-8.75196E-13
 -1      3428 2.01271E+01 1.94380E+00-2.52171E-03-5.83537E-01-1.22641E-13-2.58161E-13
 -1      3429 2.01630E+01 1.81393E+00-6.75121E-03-6.82700E-01-1.45923E-13-2.49351E-13
 -1      3430 2.02045E+01 1.70739E+00 4.55426E-03-4.52028E-01-1.15819E-13-2.49626E-13
 -1      3431 1.42483E+01-1.74903E-01 5.47413E-03 3.20606E+00-2.15039E-13-8.19206E-14
 -1      3432 1.27484E+01 6.15290E-01 6.24370E-02 2.04227E+00-7.88996E-14 4.69763E-14
 -1      3433 8.19421E+00 1.38030E+00 3.90437E-02-1.57631E+00 6.86690E-14-2.28678E-13
 -1      3434 9.01202E+00 9.80168E-01 7.59529E-02-2.67758E+00-1.33348E-13-3.77760E-13
 -1      3435 2.45722E+01-1.59430E+00-4.47522E-02 9.26895E-01-4.08331E-13-4.74239E-14
 -1      3436 2.02728E+01 2.58996E-01 2.01406E-03 5.25692E-02-9.80420E-14-1.81226E-13
 -1      3437 2.02490E+01 1.88538E-01-1.13839E-03 9.72775E-02-8.87121E-14-1.70200E-13
 -1      3438 2.02327E+01 1.35163E-01 1.42561E-03 1.27640E-01-7.16560E-14-1.53143E-13
 -1      3439 2.02118E+01 9.30318E-02-4.59737E-04 1.55061E-01-4.17963E-14-1.20326E-13
 -1      3440 2.02883E+01 1.92914E-01-3.90837E-04 9.54398E-02-6.04919E-14-1.25078E-13
 -1      3441 2.01920E+01 6.31903E-02 8.67774E-04 1.73406E-01-3.82781E-14-1.10952E-13
 -1      3442 2.01748E+01 4.20092E-02 2.89326E-05 1.89978E-01-1.04921E-15-9.92422E-14
 -1      3443 2.02476E+01 9.69278E-02-5.03512E-04 1.47209E-01-3.42571E-14-1.08952E-13
 -1      3444 2.01533E+01 2.96269E-02 3.76522E-04 2.01288E-01 2.64939E-14-1.52712E-13
 -1      3445 2.01394E+01 2.41691E-02 3.72169E-04 2.12238E-01 3.81723E-14-9.86676E-14
 -1      3446 2.02042E+01 4.74950E-02-4.92325E-04 1.79497E-01-5.90253E-16-9.74215E-14
 -1      3447 2.01172E+01 2.49935E-02-4.42650E-05 2.20608E-01 3.39918E-14-9.79758E-14
 -1      3448 2.01061E+01 3.16237E-02 6.13746E-04 2.30058E-01 4.45031E-16-5.10312E-14
 -1      3449 2.01604E+01 3.32210E-02-3.99632E-04 2.01318E-01 3.39587E-14-1.82524E-13
 -1      3450 2.00830E+01 4.27639E-02-4.12927E-04 2.38770E-01-3.34298E-14-5.73072E-14
 -1      3451 2.00738E+01 5.90247E-02 7.87678E-04 2.49982E-01-2.54829E-14-3.65849E-14
 -1      3452 2.01164E+01 4.60407E-02-2.48375E-04 2.19997E-01-1.17449E-14-1.48742E-13
 -1      3453 2.00492E+01 7.85422E-02-7.50348E-04 2.61682E-01-4.91285E-14-5.82753E-14
 -1      3454 2.00410E+01 1.02793E-01 9.16975E-04 2.77263E-01-3.74226E-14-1.07356E-13
 -1      3455 2.00714E+01 8.04161E-02-5.20126E-05 2.41437E-01-4.20554E-14-1.03640E-13
 -1      3456 2.00139E+01 1.29388E-01-1.07743E-03 2.94104E-01-1.46106E-14-1.40145E-13
 -1      3457 2.00056E+01 1.60510E-01 1.01727E-03 3.16177E-01-7.54167E-14-1.16620E-13
 -1      3458 2.00235E+01 1.32596E-01 1.88230E-04 2.70393E-01-5.06925E-14-1.69507E-13
 -1      3459 1.99745E+01 1.93238E-01-1.41230E-03 3.39943E-01-8.93887E-14-7.18287E-14
 -1      3460 1.99649E+01 2.30341E-01 1.09927E-03 3.70255E-01-1.24578E-13-2.44950E-14
 -1      3461 1.99699E+01 1.99969E-01 4.74351E-04 3.10731E-01-2.44571E-14-1.18221E-13
 -1      3462 1.99279E+01 2.68313E-01-1.76831E-03 4.02466E-01-1.55570E-13-4.35448E-14
 -1      3463 1.99158E+01 3.10403E-01 1.17249E-03 4.42458E-01-1.29113E-13 1.30154E-14
 -1      3464 1.99073E+01 2.80439E-01 8.10964E-04 3.65649E-01-1.13061E-13-2.71694E-14
 -1      3465 1.98707E+01 3.52418E-01-2.15393E-03 4.84437E-01-1.25678E-13 7.05601E-14
 -1      3466 1.98549E+01 3.97988E-01 1.25164E-03 5.35267E-01-1.60165E-13 1.07708E-13
 -1      3467 1.98315E+01 3.71721E-01 1.20157E-03 4.37845E-01-1.03287E-13 5.00928E-14
 -1      3468 1.97992E+01 4.42065E-01-2.57262E-03 5.88228E-01-2.11764E-13 1.00144E-13
 -1      3469 1.97785E+01 4.88554E-01 1.36784E-03 6.50779E-01-1.69897E-13 8.41731E-14
 -1      3470 1.97380E+01 4.70494E-01 1.64320E-03 5.29685E-01-1.64690E-13 1.42417E-13
 -1      3471 1.97101E+01 5.31288E-01-3.02214E-03 7.15970E-01-9.62201E-14 7.58318E-14
 -1      3472 1.49657E+01 1.38786E-01-1.44962E+00 7.70171E-01-1.10045E-12 1.76159E-12
 -1      3473 1.96219E+01 5.71310E-01 2.11780E-03 6.43454E-01-1.41324E-13 1.45893E-13
 -1      3474 9.35200E+00-1.31099E+00-2.03883E+00 3.83217E-01-1.46927E-12 4.48608E-12
 -1      3475 9.79334E+00-7.98994E-01-4.13626E-01 1.49337E-01-2.04808E-13 3.74327E-12
 -1      3476 1.17770E+01-9.30529E-01-1.37768E+00 1.28325E-01-8.33889E-13 2.48446E-12
 -1      3477 9.17807E+00-3.21518E-01-1.56697E-01-3.78776E-01 4.19952E-13 3.99700E-12
 -1      3478 8.80034E+00-1.08969E-01 3.28838E-02-7.81876E-01 8.78145E-13 4.03656E-12
 -1      3479 1.07672E+01-9.92132E-01-2.54581E-01-4.31952E-01 4.11177E-14 3.10634E-12
 -1      3480 8.33309E+00 2.05387E-02 8.20096E-02-1.31063E+00 1.63218E-12 4.25020E-12
 -1      3481 7.77001E+00 1.55684E-02 9.69665E-02-1.74131E+00 2.32982E-12 4.59523E-12
 -1      3482 9.76957E+00-4.79952E-01 9.77761E-02-1.47736E+00 1.50112E-12 3.45024E-12
 -1      3483 6.98270E+00-2.24223E-01-6.13081E-02-2.00801E+00 3.17416E-12 5.07336E-12
 -1      3484 6.60358E+00-7.34531E-01-1.61853E-01-2.07947E+00 3.66523E-12 5.47715E-12
 -1      3485 8.66584E+00-3.19004E-01 1.03549E-01-2.52097E+00 3.24141E-12 4.01836E-12
 -1      3486 5.38914E+00-2.25554E+00-1.21501E+00-7.55521E-01 3.58391E-12 7.28684E-12
 -1      3487 4.44843E+00-5.41632E+00-2.89235E+00-4.93525E-01 2.46925E-12 8.10507E-12
 -1      3488 6.03963E+00-5.66430E-01-8.57970E-01-2.08734E+00 4.72926E-12 6.20726E-12
 -1      3489 1.07631E+01-7.23374E+00-2.00867E+00-2.49806E+00 1.97220E-12 5.36948E-12
 -1      3490 8.88145E+00-5.76201E+00-3.61665E+00-5.93636E+00 7.77545E-12 5.81135E-12
 -1      3491 6.30327E+00-9.47772E+00-5.37565E+00 1.50638E+00-1.23901E-12 9.66516E-12
 -1      3492 2.44894E+01 3.63595E+00 3.23803E+00-8.76599E+00 7.34435E-12-3.93019E-13
 -1      3493 1.96713E+01-3.87925E+00-5.53966E-01-1.99240E+00 2.13757E-12 2.97873E-13
 -1      3494 1.69398E+01-3.56384E+00 1.62726E-01 4.81634E-01 3.51230E-12 6.88338E-14
 -1      3495 2.13383E+01-2.64811E+00 5.26762E-01-1.15618E+00 1.38831E-12-1.57679E-13
 -1      3496 2.09366E+01-3.31304E+00 2.04441E-01-2.10192E-01 8.62942E-13 2.04087E-13
 -1      3497 2.00019E+01-1.25887E+00 2.97128E-02-2.84157E+00-8.83291E-14 1.37725E-13
 -1      3498 1.95361E+01-7.77700E-01 1.17730E-02-2.70694E+00-6.49018E-14 4.02308E-14
 -1      3499 1.94528E+01-3.78246E-01 1.79027E-02-2.42574E+00-8.43726E-16 3.47472E-14
 -1      3500 1.92469E+01-7.06711E-02-1.96273E-04-2.26046E+00 7.86194E-14 1.31611E-13
 -1      3501 1.86420E+01-4.27765E-01-1.06847E-02-2.74043E+00 7.91034E-15 8.42989E-14
 -1      3502 1.93026E+01 1.73360E-01 1.22921E-02-2.03002E+00-7.89707E-14 4.01913E-14
 -1      3503 1.92211E+01 3.47845E-01-3.57943E-03-1.87849E+00-1.71384E-13 1.22837E-13
 -1      3504 1.86460E+01 2.00629E-01-5.73670E-03-2.18031E+00-6.79972E-14-2.06734E-14
 -1      3505 1.93272E+01 4.80491E-01 7.61827E-03-1.69947E+00-1.01491E-13 9.51238E-14
 -1      3506 1.93142E+01 5.65754E-01-4.29369E-03-1.56650E+00-6.40061E-14 1.24248E-13
 -1      3507 1.88178E+01 5.45430E-01-6.32563E-04-1.76041E+00-8.11696E-14-9.22848E-14
 -1      3508 1.94326E+01 6.26003E-01 4.69904E-03-1.42556E+00-7.25987E-14 6.47770E-14
 -1      3509 1.94512E+01 6.57124E-01-3.97995E-03-1.30923E+00 5.28224E-14 5.34980E-14
 -1      3510 1.90397E+01 7.09679E-01 1.82010E-03-1.44160E+00-8.78259E-14 6.34877E-14
 -1      3511 1.95623E+01 6.74061E-01 2.27840E-03-1.19429E+00 8.68800E-14 1.29396E-13
 -1      3512 1.95968E+01 6.77609E-01-2.64867E-03-1.09168E+00 1.06682E-13 1.86290E-15
 -1      3513 1.92630E+01 7.66708E-01 2.96933E-03-1.19175E+00 5.78489E-14 1.91698E-13
 -1      3514 2.00276E+01 1.21716E-01 1.17216E-03-3.15651E-01-3.68019E-15-1.14252E-13
 -1      3515 2.00265E+01 9.68750E-02-9.27842E-04-2.95669E-01-3.20166E-14-1.36752E-13
 -1      3516 2.00451E+01 7.57924E-02 1.02830E-03-2.79697E-01-3.74875E-14-1.19027E-13
 -1      3517 2.00457E+01 5.63919E-02-6.43554E-04-2.65867E-01-3.86402E-14-1.12545E-13
 -1      3518 2.00366E+01 1.01071E-01-5.52417E-05-2.79712E-01-1.11712E-14-1.12138E-13
 -1      3519 1.99901E+01 2.36996E-01 1.45799E-03-4.34755E-01 3.26794E-14-1.08333E-13
 -1      3520 1.99867E+01 2.05264E-01-1.43889E-03-3.97839E-01 5.12859E-14-1.40054E-13
 -1      3521 1.99683E+01 2.99668E-01 1.62187E-03-5.22848E-01 4.54807E-14-6.16761E-14
 -1      3522 1.99639E+01 2.67384E-01-1.66378E-03-4.76014E-01 6.16616E-14-8.14132E-14
 -1      3523 1.99195E+01 2.89132E-01 4.79585E-04-4.45642E-01 2.75132E-16-1.33945E-13
 -1      3524 1.99447E+01 3.58426E-01 1.82355E-03-6.31955E-01-5.79669E-14-4.01801E-15
 -1      3525 1.99385E+01 3.28919E-01-1.84324E-03-5.74935E-01-1.29981E-14-5.18482E-14
 -1      3526 1.98692E+01 3.60187E-01 6.11226E-04-5.38125E-01 2.91110E-15 1.62455E-14
 -1      3527 1.99215E+01 4.03977E-01 2.09896E-03-7.62343E-01-1.79403E-14 5.96820E-14
 -1      3528 1.99117E+01 3.82414E-01-1.93232E-03-6.95594E-01-3.90694E-14-3.86056E-14
 -1      3529 1.98122E+01 4.25204E-01 6.48286E-04-6.52699E-01-2.44422E-14-2.99723E-14
 -1      3530 1.99046E+01 4.22188E-01 2.50742E-03-9.12972E-01 3.70436E-14 6.91523E-14
 -1      3531 1.98875E+01 4.16380E-01-1.85166E-03-8.37933E-01 4.71791E-14 3.67756E-14
 -1      3532 1.97503E+01 4.73044E-01 4.93335E-04-7.90785E-01-7.42474E-15-1.10723E-13
 -1      3533 1.99056E+01 3.92337E-01 3.12721E-03-1.08102E+00 3.30555E-14 1.23349E-13
 -1      3534 1.98744E+01 4.13639E-01-1.46533E-03-1.00051E+00 7.49109E-14 9.63468E-14
 -1      3535 1.96897E+01 4.87000E-01-2.11162E-05-9.53429E-01 4.74736E-14-8.17780E-14
 -1      3536 1.99460E+01 2.85544E-01 4.02123E-03-1.26090E+00 3.81860E-14 4.17219E-14
 -1      3537 1.98887E+01 3.49613E-01-5.45436E-04-1.17982E+00 4.55173E-14 5.83522E-14
 -1      3538 1.96429E+01 4.42833E-01-1.17501E-03-1.14125E+00 7.98870E-14 4.72085E-14
 -1      3539 2.00613E+01 6.44241E-02 5.11409E-03-1.44202E+00-7.27113E-14 4.74656E-14
 -1      3540 1.99594E+01 1.91228E-01 1.27497E-03-1.36875E+00-2.58229E-14 5.24029E-14
 -1      3541 1.96337E+01 3.06971E-01-3.41463E-03-1.35377E+00 1.31403E-14 6.40435E-14
 -1      3542 2.03073E+01-3.13873E-01 5.92340E-03-1.60373E+00-1.25490E-13-3.16566E-14
 -1      3543 2.01338E+01-1.02022E-01 4.54969E-03-1.55297E+00-1.03412E-13 2.29439E-14
 -1      3544 1.97035E+01 3.58576E-02-7.45733E-03-1.58706E+00-3.75426E-14 2.56847E-14
 -1      3545 2.01580E+01-7.13693E-01-1.17159E-01-1.58158E+00-1.77733E-13-1.61655E-13
 -1      3546 2.04850E+01-5.71639E-01 1.02888E-02-1.70219E+00-1.82481E-13-6.81162E-14
 -1      3547 1.99201E+01-4.21956E-01-1.42865E-02-1.82693E+00-1.39238E-13 9.46920E-15
 -1      3548 2.03526E+01-9.16182E-01-2.16662E-02-1.10208E+00-3.02511E-13-3.99403E-14
 -1      3549 1.99163E+01-7.14557E-01-7.23158E-02-1.33532E+00-2.45314E-13-8.92030E-14
 -1      3550 1.89665E+01-8.13822E-01-2.21632E-01-1.71882E+00-3.85122E-13-2.22961E-13
 -1      3551 2.15841E+01-1.40309E+00 1.52876E-02-5.40447E-01-4.16715E-13 2.02841E-14
 -1      3552 2.09681E+01-1.15015E+00 2.81794E-02-9.25340E-01-3.35395E-13 4.56961E-14
 -1      3553 1.98788E+01-1.28960E+00-5.24033E-02-1.50971E+00-4.01984E-13 5.78821E-14
 -1      3554 2.30880E+01-2.00880E+00-3.59633E-03-1.43260E-01-4.42691E-13-6.99015E-14
 -1      3555 2.23109E+01-1.94147E+00 1.76203E-02-6.28331E-01-4.85110E-13-3.54387E-14
 -1      3556 2.06033E+01-6.58622E-01 1.22139E-02 1.84069E+00 1.52081E-13-1.50119E-13
 -1      3557 2.09155E+01-9.81660E-01 8.16689E-03 1.83424E+00 1.00800E-13-1.26621E-13
 -1      3558 2.02132E+01-1.66362E-01 5.62222E-03 1.69381E+00 2.07533E-13-2.58749E-13
 -1      3559 2.04069E+01-3.90389E-01 7.48653E-03 1.74223E+00 1.89036E-13-2.01337E-13
 -1      3560 2.00152E+01-5.06527E-01-1.50623E-02 1.98242E+00 2.24579E-13-7.74459E-14
 -1      3561 2.00172E+01 1.53417E-01 1.74159E-03 1.50700E+00 1.60470E-14-1.81502E-13
 -1      3562 2.01312E+01 1.28711E-02 5.91553E-03 1.58079E+00 6.38330E-14-2.19615E-13
 -1      3563 1.97739E+01-2.27509E-02-7.99416E-03 1.73761E+00 1.75737E-13-4.56495E-14
 -1      3564 1.99372E+01 3.41968E-01-2.87816E-04 1.31123E+00 1.52526E-13 1.18023E-13
 -1      3565 2.00011E+01 2.62383E-01 4.48044E-03 1.39542E+00 1.25070E-13-6.45043E-14
 -1      3566 1.96933E+01 2.78397E-01-3.94458E-03 1.49525E+00-5.80168E-14 8.23431E-14
 -1      3567 1.99211E+01 4.41223E-01-1.22009E-03 1.12022E+00 1.56835E-13-5.40569E-14
 -1      3568 1.99555E+01 4.01720E-01 3.48418E-03 1.20715E+00 2.03726E-13-3.98362E-15
 -1      3569 1.97028E+01 4.48024E-01-1.42742E-03 1.27156E+00 1.27292E-13 1.54916E-13
 -1      3570 1.99370E+01 4.90658E-01-8.49285E-04 9.41114E-01 7.23085E-14-5.13332E-14
 -1      3571 1.99540E+01 4.70188E-01 2.30132E-03 1.02618E+00 1.03658E-13 6.08085E-14
 -1      3572 1.97543E+01 5.30319E-01-1.39156E-03 1.07012E+00 8.70588E-14 1.55769E-13
 -1      3573 2.52700E+01-2.21376E+00-3.07926E-02-4.04635E-01 5.46616E-14-5.30642E-13
 -1      3574 1.98728E+01 5.88575E-01-2.85046E-03 7.44976E-01-1.90702E-13 2.04923E-13
 -1      3575 1.99619E+01 5.25916E-01 5.29960E-04 7.54477E-01-1.40815E-13 2.59628E-13
 -1      3576 1.99678E+01 5.12206E-01 7.81239E-04 8.07004E-01-1.38884E-13 7.96066E-14
 -1      3577 1.97832E+01 6.24548E-01 1.50973E-04 7.93567E-01-2.52433E-13 4.28985E-13
 -1      3578 1.90961E+01 1.00635E+00-8.41307E-04-1.87609E-01-1.46907E-13 6.56716E-15
 -1      3579 1.90801E+01 1.01066E+00-1.58368E-03-2.99409E-02-2.79857E-13 1.72144E-13
 -1      3580 2.01359E+01 3.78550E-02 5.57316E-05-1.97600E-01 3.01990E-14-1.66475E-13
 -1      3581 2.01503E+01 5.95666E-02 1.04849E-03-1.80521E-01 4.16462E-15-1.44216E-13
 -1      3582 2.03184E+01 7.43771E-01 1.39993E-03-2.38610E-01-1.27517E-13-1.77631E-13
 -1      3583 2.03021E+01 5.84251E-01-2.80402E-03-1.36204E-01-1.22885E-13-1.86900E-13
 -1      3584 2.00635E+01 4.10860E-02 8.67961E-04-2.54947E-01-2.36698E-14-1.04359E-13
 -1      3585 2.00663E+01 2.84756E-02-3.24133E-04-2.45139E-01-9.77039E-15-7.36359E-14
 -1      3586 2.00699E+01 5.89308E-02-2.26385E-04-2.51941E-01-1.03449E-14-7.55606E-14
 -1      3587 2.24234E+01-2.09846E+00 4.71577E-02 1.61597E+00 8.98348E-14-2.42456E-13
 -1      3588 2.29622E+01-2.44598E+00 4.49968E-04 1.31372E+00 2.16372E-14-3.11896E-13
 -1      3589 2.01684E+01 8.92223E-02-4.41755E-04-1.60135E-01-1.28593E-14-1.51788E-13
 -1      3590 2.01883E+01 1.30767E-01 1.71007E-03-1.30857E-01 9.77617E-15-1.53980E-13
 -1      3591 2.02133E+01 9.41669E-02-7.08469E-04-1.54919E-01 1.97263E-14-1.91478E-13
 -1      3592 2.12989E+01-1.33363E+00 2.41614E-02 1.87182E+00 6.43357E-14-1.82245E-13
 -1      3593 2.17522E+01-1.72371E+00 8.64436E-03 1.76543E+00 1.52514E-13-8.50327E-14
 -1      3594 2.05152E+01-1.23391E+00-3.60602E-02 2.17846E+00 1.03082E-13-3.14138E-13
 -1      3595 2.02045E+01 1.82823E-01-1.10634E-03-9.65491E-02 2.75987E-14-1.46107E-13
 -1      3596 2.02303E+01 2.51266E-01 2.40007E-03-4.79869E-02 3.15574E-14-1.49836E-13
 -1      3597 2.02525E+01 1.90230E-01-6.51072E-04-9.65950E-02 2.29970E-14-1.56160E-13
 -1      3598 2.00096E+01 1.76381E-01 1.31206E-03-3.66392E-01 8.25520E-14-1.71517E-13
 -1      3599 2.00072E+01 1.47349E-01-1.19128E-03-3.38576E-01 4.70188E-14-1.22749E-13
 -1      3600 2.00017E+01 1.55493E-01 1.24913E-04-3.19038E-01 9.17499E-15-2.11574E-13
 -1      3601 1.99633E+01 2.19309E-01 3.07893E-04-3.73393E-01 6.31156E-14-2.05512E-13
 -1      3602 2.00400E+01 2.20696E+00-3.37146E-03-1.62779E-01-4.88746E-14-3.12022E-13
 -1      3603 2.00519E+01 2.17010E+00-4.27546E-03-2.84300E-01-6.92255E-14-2.93758E-13
 -1      3604 2.01677E+01 1.85859E+00 5.17537E-03-2.84125E-01-7.05397E-14-2.81552E-13
 -1      3605 2.03198E+01-2.49688E+00 3.77599E-02-3.59717E+00-4.56440E-14 1.49257E-13
 -1      3606 1.96122E+01-1.80415E+00 3.56112E-02-3.45876E+00-2.61778E-14 2.26062E-13
 -1      3607 1.27372E+01 3.38757E-01 8.63538E-02-2.70204E+00-1.55391E-13-5.19723E-14
 -1      3608 1.38953E+01-3.57644E-01 1.85784E-02-3.62186E+00-4.64542E-14 2.21025E-13
 -1      3609 2.29451E+01-3.19600E+00-5.49677E-02 2.13717E+00-6.47251E-14-6.93157E-13
 -1      3610 2.15093E+01-2.88542E+00 9.34430E-02 3.14409E+00-1.11070E-13-5.10287E-13
 -1      3611 2.02883E+01 8.88857E-01-1.26930E-04 4.44255E-01 1.43429E-13-1.94918E-13
 -1      3612 2.02803E+01 1.06283E+00-2.35775E-03 4.83953E-01 1.46378E-13-1.98787E-13
 -1      3613 2.02642E+01 7.03803E-01-1.72148E-03 2.97845E-01 1.23411E-13-1.95157E-13
 -1      3614 2.03059E+01 4.53340E-01 2.37444E-03-6.50934E-02-1.21262E-13-1.93180E-13
 -1      3615 2.02818E+01 3.44552E-01-2.02774E-03 4.46195E-03-1.19295E-13-1.81310E-13
 -1      3616 2.03213E+01 3.51223E-01-6.71953E-05 1.37424E-02-1.03216E-13-1.74723E-13
 -1      3617 2.02230E+01 1.58464E+00 1.53532E-03-6.99394E-01-1.54003E-13-2.21131E-13
 -1      3618 2.45499E+01-2.78866E+00-1.64467E-03 6.55787E-01 4.91482E-14-6.71009E-13
 -1      3619 2.38768E+01-2.89825E+00 1.54233E-02 1.16823E+00 3.51559E-14-6.19663E-13
 -1      3620 2.02774E+01 1.20120E+00 8.04914E-04 4.50890E-01 1.20422E-13-2.01974E-13
 -1      3621 1.40985E+01 7.82829E-01 2.41423E-02 1.56198E+00-1.14218E-13-6.04794E-14
 -1      3622 1.27664E+01 9.12664E-01 5.37154E-02 1.24024E+00-2.48755E-14 3.56833E-14
 -1      3623 1.30490E+01 1.03909E+00-3.81253E-03 2.40721E-01 9.17825E-14 3.07428E-14
 -1      3624 9.98464E+00 8.16766E-01 1.69203E-02-2.39746E+00-1.05246E-13-2.74862E-13
 -1      3625 9.96075E+00 6.58338E-01 7.98116E-02-3.07680E+00-2.19003E-13-4.35537E-13
 -1      3626 1.11821E+01 1.73089E-01 3.52563E-02-3.41500E+00-2.86204E-13-3.39572E-13
 -1      3627 1.54857E+01-6.81532E-01 7.53672E-02-3.86099E+00 4.77569E-14 1.36783E-13
 -1      3628 1.70479E+01-1.16413E+00 1.61270E-03-3.82109E+00 7.31950E-15-9.40879E-14
 -1      3629 1.54066E+01-2.08160E-01 3.19234E-02-3.26742E+00 5.35353E-14 4.30177E-14
 -1      3630 2.03570E+01-2.28435E+00 3.74701E-02 3.18210E+00-1.69101E-13-4.32212E-13
 -1      3631 2.02306E+01 1.55570E+00-4.15705E-03 2.83903E-01 7.20818E-14-2.62464E-13
 -1      3632 2.02203E+01 1.61497E+00-2.08866E-03 2.00683E-01 4.18942E-14-2.50838E-13
 -1      3633 2.39994E+01-1.82921E+00 3.03429E-02 4.20438E-01-4.62191E-13-7.53659E-14
 -1      3634 1.42112E+01-1.27946E+00 9.72315E-02-4.52602E+00-3.66592E-13 6.22696E-14
 -1      3635 1.57893E+01-1.67214E+00 1.04554E-02-4.04569E+00-3.44407E-13-2.06848E-14
 -1      3636 1.31835E+01-7.08958E-01 2.88383E-02-4.04724E+00-3.53655E-13-2.72629E-14
 -1      3637 2.02618E+01 1.37069E+00 2.28719E-03-5.37698E-01-1.30833E-13-2.16589E-13
 -1      3638 2.02120E+01 1.64848E+00-3.33851E-03 1.29953E-01 8.44355E-15-2.45893E-13
 -1      3639 2.02081E+01 1.66841E+00-2.68480E-03 3.96751E-02-1.06783E-14-2.62900E-13
 -1      3640 2.02948E+01 1.39717E+00 5.17398E-03 1.32923E-01 1.92483E-14-2.18616E-13
 -1      3641 1.66158E+01-8.87369E-01 4.30251E-01-1.38380E+00 2.25421E-12 7.15206E-13
 -1      3642 1.31612E+01-6.48618E-02 1.75857E-01-3.46301E-01 9.76969E-13 7.07517E-13
 -1      3643 1.13522E+01 4.96743E-01 1.44854E-01-3.21037E-02 9.70168E-13 7.60628E-13
 -1      3644 1.00965E+01 1.02215E+00-4.28796E-03-4.17907E-01 8.60312E-13 7.86968E-13
 -1      3645 1.89506E+01 1.03121E+00 3.84966E-03 7.48884E-02-2.89554E-13 1.61392E-13
 -1      3646 1.90948E+01 9.93512E-01-2.92089E-03 1.53475E-01-2.43946E-13 1.19919E-13
 -1      3647 1.91404E+01 9.70878E-01 6.78876E-04 3.06995E-01-1.61627E-13 1.78533E-13
 -1      3648 1.69270E+01-9.95439E-01 1.53413E-02 3.55776E+00-1.29943E-13-5.33983E-14
 -1      3649 1.55833E+01-4.71959E-01 8.65953E-02 3.55735E+00-2.12686E-13 1.32980E-13
 -1      3650 1.50939E+01 6.69101E-02-4.19193E-03 2.79671E+00-1.87026E-13-2.98372E-16
 -1      3651 8.78816E+00 1.44729E+00-9.70036E-02-5.41179E-01 5.08918E-13 4.21344E-13
 -1      3652 8.36031E+00 1.54880E+00 3.59990E-02-8.76898E-01 2.26087E-13 9.10730E-15
 -1      3653 8.92725E+00 1.27314E+00-5.92603E-02-1.26368E+00 1.92601E-13-4.04364E-14
 -1      3654 1.92210E+01 9.50487E-01 2.75537E-03-5.11890E-01-5.17453E-14-5.80025E-13
 -1      3655 1.91415E+01 9.79106E-01-3.73596E-03-3.66489E-01-5.71114E-14-4.80248E-13
 -1      3656 1.89873E+01 1.02258E+00 3.91449E-03-2.98645E-01-1.59312E-13-9.90142E-14
 -1      3657 2.01476E+01 1.93088E+00 5.02601E-03-9.46664E-02-4.00653E-14-2.95772E-13
 -1      3658 1.97064E+01 6.60408E-01 9.35305E-04-1.03094E+00 1.86711E-13-2.34733E-14
 -1      3659 1.97486E+01 6.49012E-01-1.42876E-03-9.50283E-01 2.40297E-13 3.28023E-14
 -1      3660 1.96670E+01 7.00881E-01 7.04444E-04-9.11247E-01 1.82596E-13 1.21508E-13
 -1      3661 1.94808E+01 7.49970E-01 2.92342E-03-1.02331E+00 1.91132E-13 2.04442E-13
 -1      3662 2.01079E+01 1.74882E-02 4.16068E-04-2.20179E-01 3.38471E-14-1.30294E-13
 -1      3663 2.01175E+01 2.44934E-02 4.94296E-04-2.09636E-01 4.76059E-14-1.36049E-13
 -1      3664 2.01746E+01 4.28628E-02-6.38448E-04-1.90381E-01 2.22492E-14-2.07620E-13
 -1      3665 2.11359E+01-2.16245E+00-6.25039E-03-1.56506E+00-3.83903E-13 9.39786E-14
 -1      3666 2.02873E+01 3.47450E-01-5.54823E-04-3.53217E-03 4.60269E-14-1.65938E-13
 -1      3667 2.02420E+01 3.36847E-01-1.37492E-03 8.01354E-03 4.83412E-14-1.47878E-13
 -1      3668 1.99803E+01 4.96152E-01 8.86058E-04 8.58047E-01-1.45105E-14 5.77693E-14
 -1      3669 2.02978E+01 1.12002E+00-1.14986E-03-4.41142E-01-1.38531E-13-1.95482E-13
 -1      3670 2.02999E+01 9.20220E-01-2.60753E-03-3.19422E-01-1.30955E-13-1.92346E-13
 -1      3671 2.03269E+01 9.24527E-01 1.44418E-03-2.64171E-01-1.23730E-13-1.45161E-13
 -1      3672 2.02674E+01 1.35635E+00 1.75517E-03-4.38050E-01-1.12937E-13-2.02031E-13
 -1      3673 2.02104E+01 1.70300E+00 6.63870E-03 4.59872E-01 1.07272E-13-2.59820E-13
 -1      3674 1.89697E+01-2.38647E+00 3.28958E-02-3.33239E+00-4.35083E-13-1.51346E-13
 -1      3675 2.02645E+01-2.27321E+00 1.58526E-02-2.21820E+00-3.95275E-13-6.30073E-14
 -1      3676 1.96015E+01-1.63313E+00 8.00752E-03-1.95726E+00-3.65773E-13 1.90483E-14
 -1      3677 1.97286E+01 6.16946E-01-1.89976E-03 8.70411E-01-1.11959E-13 4.58650E-13
 -1      3678 1.98360E+01 5.63901E-01 1.06198E-03 8.91795E-01-9.67756E-14 2.49702E-13
 -1      3679 2.15298E+01-2.19328E+00-5.88479E-02 2.20584E+00-4.51158E-14-5.62998E-13
 -1      3680 2.03379E+01 5.91903E-01 3.19798E-04-1.08682E-01-1.36469E-13-1.49029E-13
 -1      3681 1.30316E+01 6.83321E-01 6.49331E-02-1.75646E+00-3.72688E-14-1.24206E-15
 -1      3682 1.94442E+01 7.75993E-01-4.41761E-03 7.24466E-01-6.80051E-14 1.75150E-13
 -1      3683 1.95800E+01 7.10778E-01 3.50323E-03 8.10798E-01-1.66404E-13 3.55509E-13
 -1      3684 1.96234E+01 6.46872E-01 1.49721E-03 9.17713E-01-5.29825E-14 3.74160E-13
 -1      3685 2.02600E+01 4.21026E-01 2.74913E-03 7.16219E-02 5.81898E-14-1.70060E-13
 -1      3686 2.00841E+01 2.04083E-02 6.75693E-04-2.36949E-01-1.74551E-14-1.12709E-13
 -1      3687 2.00898E+01 1.63307E-02 4.40780E-05-2.28472E-01 5.47490E-15-1.13751E-13
 -1      3688 2.01031E+01 3.21991E-02-3.86102E-04-2.31479E-01-4.43779E-14-8.39527E-14
 -1      3689 2.02189E+01 1.61831E+00-2.19412E-03-1.96031E-01-5.52181E-14-2.75803E-13
 -1      3690 2.02286E+01 1.56120E+00-3.90831E-03-2.78575E-01-7.99816E-14-2.73773E-13
 -1      3691 2.60931E+01-5.62443E+00 1.43780E-01 5.38870E-01 3.34469E-13-6.14057E-14
 -1      3692 2.44249E+01-4.84390E+00 2.01987E-01 1.95429E-01 5.99534E-13-7.68465E-14
 -1      3693 2.49546E+01-5.38589E+00 5.36035E-02 4.59451E-01 3.77295E-13 3.52639E-14
 -1      3694 1.95831E+01 7.44299E-01-2.67315E-03-8.59057E-01 1.84800E-13 7.15501E-14
 -1      3695 2.02416E+01 1.51409E+00-6.84878E-04-3.29271E-01-8.26891E-14-2.77200E-13
 -1      3696 2.02555E+01 1.41857E+00-3.31485E-03-3.96838E-01-9.67789E-14-2.46929E-13
 -1      3697 2.03031E+01 1.18841E+00 1.03798E-03-3.11482E-01-9.07005E-14-2.24666E-13
 -1      3698 2.03024E+01 1.31328E+00 4.24829E-03-2.37308E-01-7.09442E-14-2.64212E-13
 -1      3699 1.94471E+01 7.90743E-01-2.24730E-04-8.85941E-01 2.59935E-13 6.91566E-14
 -1      3700 1.94730E+01 8.16425E-01 2.99762E-03-7.75957E-01 1.70872E-13-2.10863E-14
 -1      3701 1.93419E+01 8.71203E-01-5.29966E-03-6.69648E-01 1.37944E-13-2.88533E-13
 -1      3702 1.93337E+01 8.12267E-01-2.57460E-03-9.34047E-01 1.50388E-13 6.42719E-14
 -1      3703 2.02449E+01 1.48924E+00-1.42059E-03 3.43828E-01 9.14114E-14-2.64952E-13
 -1      3704 2.03067E+01 1.29438E+00 5.34384E-03 2.49413E-01 8.29719E-14-2.29652E-13
 -1      3705 2.02595E+01 1.38505E+00-6.15961E-03 4.13272E-01 1.01360E-13-2.48730E-13
 -1      3706 1.86618E+01-3.04886E+00 1.13351E-01 5.18142E-01 8.60575E-13 3.37994E-13
 -1      3707 1.93241E+01 2.19539E-01-2.59569E-03 1.69304E+00 1.24486E-13 1.50624E-13
 -1      3708 1.94149E+01 4.96454E-02 1.10015E-02 1.82273E+00 2.20496E-13 5.39206E-14
 -1      3709 2.02975E+01 1.31326E-01 8.31700E-04 1.16895E-01-2.46654E-14-1.28072E-13
 -1      3710 2.02744E+01 9.23377E-02-3.80992E-04 1.38246E-01-5.72144E-15-1.04192E-13
 -1      3711 2.02501E+01 6.57051E-02 4.68160E-04 1.50999E-01-1.23239E-14-6.14997E-14
 -1      3712 2.02271E+01 4.86194E-02 1.87438E-05 1.64904E-01 8.89326E-15-8.39492E-14
 -1      3713 2.02925E+01 9.41734E-02-1.55913E-04 1.23898E-01 1.59093E-14-9.31322E-14
 -1      3714 2.01991E+01 4.06290E-02 1.14720E-04 1.73537E-01 3.56859E-15-8.46585E-14
 -1      3715 2.01766E+01 4.03162E-02 2.85032E-04 1.83959E-01 4.72955E-15-1.30031E-13
 -1      3716 2.02387E+01 5.50065E-02-2.05366E-04 1.47135E-01-5.55846E-15-6.03373E-14
 -1      3717 2.01459E+01 4.67440E-02-2.22642E-04 1.91361E-01 3.24445E-14-1.22644E-13
 -1      3718 2.01238E+01 5.96264E-02 4.56516E-04 2.01498E-01 2.44464E-14-8.31639E-14
 -1      3719 2.01804E+01 5.23550E-02-1.21599E-04 1.64653E-01 2.04632E-14-6.60558E-14
 -1      3720 2.00903E+01 7.75609E-02-5.48290E-04 2.10069E-01-3.68221E-15-6.88746E-14
 -1      3721 2.00677E+01 1.01147E-01 5.55191E-04 2.22499E-01-3.85948E-14-9.81166E-14
 -1      3722 2.01179E+01 7.83852E-02 4.31729E-05 1.81550E-01 1.92929E-14 7.89047E-15
 -1      3723 2.00304E+01 1.28565E-01-8.72332E-04 2.34181E-01-7.26498E-14-1.20994E-13
 -1      3724 2.00060E+01 1.61134E-01 5.98417E-04 2.50967E-01-6.17647E-14-1.28609E-13
 -1      3725 2.00500E+01 1.27682E-01 2.90078E-04 2.02043E-01-3.02647E-14-5.03529E-14
 -1      3726 1.99636E+01 1.96627E-01-1.21073E-03 2.67326E-01-3.67225E-15-1.25832E-13
 -1      3727 1.99358E+01 2.36930E-01 5.98775E-04 2.90135E-01-1.51621E-14-8.15219E-14
 -1      3728 1.99742E+01 1.96402E-01 6.09360E-04 2.29481E-01-4.55703E-14-1.20942E-13
 -1      3729 1.98859E+01 2.79377E-01-1.57689E-03 3.12468E-01-6.66164E-14-8.14419E-14
 -1      3730 1.98528E+01 3.26303E-01 5.66397E-04 3.42664E-01-1.14539E-13-5.16997E-14
 -1      3731 1.98866E+01 2.81728E-01 1.00099E-03 2.66559E-01-3.72137E-14-1.58345E-13
 -1      3732 1.97929E+01 3.74521E-01-1.98477E-03 3.72078E-01-1.18315E-13 3.27806E-15
 -1      3733 1.97522E+01 4.26724E-01 5.13211E-04 4.10794E-01-6.61400E-14 1.77510E-14
 -1      3734 1.97826E+01 3.81174E-01 1.47028E-03 3.15479E-01-7.45254E-14-1.02776E-13
 -1      3735 1.96791E+01 4.79067E-01-2.45229E-03 4.48303E-01-7.57949E-14-1.18091E-15
 -1      3736 1.96284E+01 5.34528E-01 4.61371E-04 4.96531E-01-1.49488E-13 2.05416E-14
 -1      3737 1.96562E+01 4.91829E-01 2.02557E-03 3.78116E-01-7.72615E-14-4.10796E-14
 -1      3738 1.95385E+01 5.88381E-01-3.00713E-03 5.43221E-01-1.80777E-13 6.78794E-14
 -1      3739 1.68723E+01 2.10531E-01-8.67530E-01 6.88357E-01-4.19303E-13 5.57721E-13
 -1      3740 1.95007E+01 6.09522E-01 2.67723E-03 4.56271E-01-1.06972E-13-3.01419E-14
 -1      3741 1.31286E+01-1.22882E+00-1.43981E+00-2.49679E-01-6.47649E-13 1.53089E-12
 -1      3742 1.28204E+01-1.46279E+00-5.58116E-01-5.40875E-01-4.36075E-13 2.12225E-12
 -1      3743 1.48323E+01-1.41027E+00-1.11383E+00-5.21594E-01-8.40508E-14 7.89924E-13
 -1      3744 1.22730E+01-1.36849E+00-2.21682E-01-8.03138E-01-2.31924E-14 2.34419E-12
 -1      3745 1.16138E+01-1.13297E+00 1.71809E-02-1.13701E+00 5.71581E-13 2.61378E-12
 -1      3746 1.33308E+01-1.62741E+00-3.32264E-01-1.25249E+00 1.66865E-13 1.66857E-12
 -1      3747 1.13024E+01-9.47076E-01 1.44947E-01-1.51328E+00 1.20832E-12 2.71765E-12
 -1      3748 1.07783E+01-8.82519E-01 1.60378E-01-2.05371E+00 1.86708E-12 2.87260E-12
 -1      3749 1.25138E+01-1.47063E+00 6.85401E-02-1.71443E+00 1.03104E-12 2.14327E-12
 -1      3750 1.07091E+01-9.02226E-01 2.68814E-01-2.71470E+00 2.77008E-12 2.76909E-12
 -1      3751 9.75330E+00-9.66637E-01 1.21141E-01-3.16908E+00 3.65641E-12 3.35071E-12
 -1      3752 1.22758E+01-1.49570E+00 2.96704E-01-2.65171E+00 2.42316E-12 1.99256E-12
 -1      3753 9.37856E+00-7.19522E-01 5.17039E-02-4.68431E+00 5.85820E-12 3.09464E-12
 -1      3754 6.79199E+00-6.94033E-01-1.09470E+00-4.00455E+00 7.55318E-12 5.37059E-12
 -1      3755 1.30265E+01-1.93057E+00 5.27755E-01-4.77142E+00 5.11946E-12 1.29741E-12
 -1      3756 2.22891E-02-3.24096E+00-5.32062E+00-3.23610E+00 1.12238E-11 1.40474E-11
 -1      3757 9.41407E+00-6.55971E+00-5.64134E+00-4.42210E+00 7.64144E-12 1.02276E-11
 -1      3758 1.12099E+01-1.14610E+00-8.89862E-01-9.56509E+00 1.78703E-11 3.21804E-12
 -1      3759 2.10262E+01-3.11912E+00 6.69688E-01-3.18219E+00 2.80087E-12 3.26628E-13
 -1      3760 1.73316E+01-6.57510E-01 1.02052E+00-3.21066E+00 3.77409E-12 1.31273E-12
 -1      3761 9.83216E+00 2.09547E+00-1.36044E+00-9.34909E+00 1.14138E-11 6.72140E-12
 -1      3762 2.00278E+01 1.27717E-01 8.17056E-04-2.66985E-01-3.75791E-16-1.77662E-13
 -1      3763 2.00438E+01 1.00550E-01-7.90501E-04-2.50454E-01 2.34230E-14-1.01399E-13
 -1      3764 1.80184E+01 3.55192E-01 1.48914E-02-2.15117E+00-6.82715E-14 4.36773E-14
 -1      3765 1.80544E+01 5.31262E-01-1.24663E-02-1.91398E+00-9.62681E-14-4.25018E-15
 -1      3766 1.83384E+01 6.69518E-01 8.11530E-03-1.69330E+00-1.06568E-13-6.52328E-14
 -1      3767 1.84277E+01 7.53380E-01-9.74834E-03-1.51918E+00-1.00826E-13-5.18406E-14
 -1      3768 1.77146E+01 7.91070E-01 7.36792E-03-1.64895E+00-7.00498E-14 2.94039E-13
 -1      3769 1.86721E+01 8.13714E-01 4.55180E-03-1.36358E+00-9.12875E-14-9.08991E-15
 -1      3770 1.87782E+01 8.40038E-01-7.15126E-03-1.23187E+00-2.13710E-14 1.00125E-13
 -1      3771 1.82174E+01 9.25305E-01 7.20435E-03-1.29145E+00-7.46905E-14 7.36394E-14
 -1      3772 1.89821E+01 8.53196E-01 1.83995E-03-1.11856E+00 2.12553E-14 8.08468E-14
 -1      3773 1.90911E+01 8.53290E-01-3.57493E-03-1.01460E+00 9.97186E-14-3.06127E-15
 -1      3774 1.86450E+01 9.54407E-01 5.49889E-03-1.04057E+00-7.80599E-14 2.79100E-14
 -1      3775 1.97754E+01 4.22427E-01 1.24448E-03-5.27629E-01-2.00997E-14-6.27681E-15
 -1      3776 1.98001E+01 3.81621E-01-2.06363E-03-4.77553E-01-4.60558E-14-6.35921E-14
 -1      3777 1.98527E+01 3.42306E-01 1.09080E-03-4.35045E-01-3.48180E-14-8.85504E-14
 -1      3778 1.98742E+01 3.01391E-01-1.73691E-03-3.95163E-01-1.90335E-15-1.28602E-13
 -1      3779 1.97641E+01 4.01948E-01 1.18123E-03-4.23405E-01-2.23612E-14-8.04973E-14
 -1      3780 1.95879E+01 5.50476E-01 1.95446E-03-7.82289E-01-1.37411E-14-9.39404E-14
 -1      3781 1.96159E+01 5.24989E-01-2.68918E-03-7.09319E-01 1.96514E-14-7.49421E-14
 -1      3782 1.94851E+01 5.69055E-01 2.74826E-03-9.49959E-01 6.93258E-14-9.33854E-14
 -1      3783 1.95090E+01 5.63977E-01-2.92919E-03-8.64360E-01 5.22585E-14-1.15745E-13
 -1      3784 1.93889E+01 6.28175E-01 1.65302E-03-7.77323E-01 2.84609E-14-1.29069E-13
 -1      3785 1.93911E+01 5.26339E-01 4.08317E-03-1.14975E+00 4.09071E-14-2.14542E-14
 -1      3786 1.94014E+01 5.55276E-01-3.01462E-03-1.05063E+00 6.00975E-14-6.07821E-14
 -1      3787 1.92330E+01 6.45103E-01 1.33512E-03-9.55723E-01 2.80553E-14-1.39355E-13
 -1      3788 1.93308E+01 3.87374E-01 6.18218E-03-1.38699E+00-9.53643E-15 4.31645E-14
 -1      3789 1.93110E+01 4.69091E-01-2.73750E-03-1.27371E+00 3.05902E-14 9.70301E-15
 -1      3790 1.90742E+01 5.93475E-01 3.71644E-04-1.17766E+00-2.84618E-14-8.31297E-14
 -1      3791 1.93482E+01 1.06037E-01 9.14470E-03-1.66643E+00-3.14540E-14 1.45712E-14
 -1      3792 1.92708E+01 2.65112E-01-1.69449E-03-1.54005E+00-3.53912E-14 4.88878E-14
 -1      3793 1.89350E+01 4.34841E-01-1.77755E-03-1.45648E+00-5.37882E-14-1.11748E-14
 -1      3794 1.86629E+01-4.88929E-01-2.61481E-01-2.00126E+00-2.07126E-13 1.13659E-14
 -1      3795 1.93391E+01-1.07726E-01 9.30997E-04-1.85435E+00-5.98997E-14 1.58128E-13
 -1      3796 1.88571E+01 1.17392E-01-6.28092E-03-1.80890E+00-1.26360E-13 4.49586E-14
 -1      3797 1.83237E+01-8.50589E-01-6.97334E-02-1.95026E+00-4.15366E-13-1.05643E-13
 -1      3798 1.79489E+01-6.97157E-01-2.40108E-01-2.00307E+00-4.13336E-13-1.31076E-13
 -1      3799 1.69626E+01-7.33072E-01-4.04359E-01-2.19235E+00-2.78277E-13 6.80012E-14
 -1      3800 1.91855E+01-1.31988E+00 1.59531E-02-1.93860E+00-4.57903E-13 6.61875E-14
 -1      3801 1.86154E+01-1.03147E+00-1.89619E-02-1.99393E+00-4.60550E-13-6.04486E-14
 -1      3802 1.73722E+01-9.83360E-01-1.01029E-01-2.29783E+00-4.79731E-13-4.73042E-14
 -1      3803 1.81579E+01-1.50251E+00-4.87083E-02-2.47488E+00-4.39277E-13-5.06999E-14
 -1      3804 2.03195E+01 3.36919E-01-1.69423E-03-2.25911E-02 3.51760E-14-1.83719E-13
 -1      3805 2.03392E+01 4.43224E-01 1.94131E-03 3.52929E-02 5.28337E-14-1.77646E-13
 -1      3806 1.94096E+01-1.84942E-01 6.83914E-04 2.02540E+00 2.08076E-13-4.19388E-14
 -1      3807 1.96184E+01-4.59657E-01 1.65051E-02 2.15105E+00 1.90514E-13-5.12471E-14
 -1      3808 1.89069E+01 6.72635E-02-1.57612E-03 1.98599E+00 1.07133E-13 4.32600E-14
 -1      3809 1.94723E+01 5.74716E-01-2.57208E-03 1.17311E+00 1.02827E-13 2.82936E-13
 -1      3810 1.94587E+01 5.28211E-01 4.49172E-03 1.27683E+00-7.53191E-14 3.05890E-13
 -1      3811 1.95678E+01 6.31464E-01-4.35449E-04 9.90247E-01-5.25984E-15 4.22281E-13
 -1      3812 1.95353E+01 6.09306E-01 3.55477E-03 1.08505E+00 1.03756E-13 3.20815E-13
 -1      3813 1.92788E+01 6.83162E-01 1.31778E-03 1.08802E+00-2.09984E-14 5.03389E-13
 -1      3814 1.93907E+01 7.13632E-01-3.68093E-03 9.27954E-01-6.64480E-15 1.76804E-13
 -1      3815 2.02079E+01 1.66894E+00-2.72074E-03-3.42779E-02-3.17598E-14-2.72100E-13
 -1      3816 2.02115E+01 1.65064E+00-3.23158E-03-1.24531E-01-4.38681E-14-2.85754E-13
 -1      3817 2.02946E+01 1.39930E+00 5.16394E-03-1.29052E-01-6.27434E-14-2.61509E-13
 -1      3818 2.02897E+01 1.43214E+00 5.09940E-03 2.11913E-03-1.34860E-14-2.40715E-13
 -1      3819 1.97306E+01-1.71564E+00 3.50834E-02 3.12676E+00-1.77718E-13-4.69770E-13
 -1      3820 2.03618E+01 7.19837E-01 7.82701E-04-1.41151E-01-1.42671E-13-1.51625E-13
 -1      3821 2.03575E+01 5.66525E-01-2.03775E-03-6.81734E-02-1.36886E-13-1.62077E-13
 -1      3822 2.03632E+01 4.39196E-01 1.37580E-03-2.02445E-02-1.10379E-13-1.70530E-13
 -1      3823 2.03467E+01 3.33724E-01-1.61482E-03 3.07033E-02-8.65884E-14-1.74809E-13
 -1      3824 2.03841E+01 5.56560E-01 1.07728E-03-4.70344E-02-1.25159E-13-1.75165E-13
 -1      3825 1.82279E+01-1.32747E+00-6.13105E-03-3.64634E+00-1.81636E-13-1.79492E-14
 -1      3826 1.94320E+01-2.66922E+00-2.80025E-02-4.11619E+00 1.16296E-14 1.39534E-13
 -1      3827 2.03162E+01 1.04095E+00 5.45323E-03 3.35417E-01 1.02571E-13-2.02205E-13
 -1      3828 2.02879E+01 1.84235E-01-1.01530E-03-9.97988E-02 8.11227E-15-1.88200E-13
 -1      3829 2.03102E+01 2.52938E-01 1.54972E-03-6.15992E-02 2.00130E-14-1.90216E-13
 -1      3830 2.03509E+01 3.36807E-01 1.46119E-04-2.87670E-02 2.79907E-14-2.15314E-13
 -1      3831 2.00745E+01 7.79918E-02 7.09421E-04-2.38177E-01 2.22814E-15-1.26727E-13
 -1      3832 2.00905E+01 5.86884E-02-4.71437E-04-2.26095E-01-3.70060E-14-1.40273E-13
 -1      3833 2.00636E+01 1.01765E-01 9.16832E-05-2.24053E-01 4.61181E-15-2.28392E-13
 -1      3834 1.50525E+01-1.71080E-01 4.80559E-01-1.45829E+00 2.24241E-12 7.97473E-13
 -1      3835 1.93673E+01 4.53902E-01-3.60773E-03 1.41119E+00-2.12697E-13 2.10458E-13
 -1      3836 1.93926E+01 3.58038E-01 7.24494E-03 1.52871E+00-9.67278E-14 1.41533E-13
 -1      3837 1.89836E+01 4.11664E-01 9.50484E-04 1.60537E+00-5.69646E-14 1.30124E-13
 -1      3838 1.91375E+01 5.99231E-01 2.09224E-03 1.30610E+00-2.27262E-13 2.45010E-13
 -1      3839 1.96866E+01 4.95767E-01 1.50215E-03-6.42543E-01 3.48416E-14-1.11191E-13
 -1      3840 1.97140E+01 4.59381E-01-2.38733E-03-5.81405E-01 2.92904E-14-5.49396E-14
 -1      3841 1.95315E+01 5.70228E-01 1.63697E-03-6.32991E-01 1.90420E-14-6.78713E-14
 -1      3842 2.02537E+01 4.95539E-01-1.09337E-03 1.30192E-01 6.96589E-14-1.76655E-13
 -1      3843 2.02745E+01 6.06286E-01 2.90729E-03 2.21369E-01 1.02263E-13-1.88586E-13
 -1      3844 2.02976E+01 7.19241E-01-3.18887E-03 2.57353E-01 1.09779E-13-1.84688E-13
 -1      3845 2.02980E+01 5.30858E-01-2.12575E-03 1.13193E-01 6.32864E-14-1.66564E-13
 -1      3846 1.92108E+01 9.14439E-01-4.40152E-03 4.69845E-01-3.16131E-14 3.86956E-13
 -1      3847 1.93108E+01 8.67725E-01 2.71306E-03 5.98012E-01-1.10029E-13 2.49833E-13
 -1      3848 1.90525E+01 9.62121E-01 2.72871E-03 4.30712E-01-1.44371E-13 1.77201E-13
 -1      3849 2.02486E+01 9.18836E-02-4.07649E-04-1.48448E-01 4.13548E-14-2.40698E-13
 -1      3850 2.02705E+01 1.32233E-01 1.07857E-03-1.24535E-01 4.27738E-14-2.03328E-13
 -1      3851 2.03178E+01 1.85005E-01-1.87215E-04-9.47536E-02 2.46165E-14-2.26824E-13
 -1      3852 2.03375E+01 2.50227E-01 1.15842E-03 6.28641E-02-5.18753E-14-1.58564E-13
 -1      3853 2.03160E+01 1.82499E-01-9.26787E-04 9.64224E-02-4.88943E-14-1.43433E-13
 -1      3854 2.03387E+01 1.80534E-01-2.97630E-05 8.86638E-02-2.91724E-14-1.60082E-13
 -1      3855 2.03721E+01 3.28564E-01 3.25904E-04 3.40922E-02-6.85148E-14-1.97790E-13
 -1      3856 1.32384E+01 1.02393E+00 4.17278E-02-9.93391E-01 6.88252E-16-2.52055E-14
 -1      3857 1.40392E+01 5.69284E-01 2.49248E-04-2.19449E+00 2.57702E-14 1.98452E-15
 -1      3858 2.00154E+01-1.18563E+00 2.78122E-02 2.52118E+00-1.21179E-13-3.80854E-13
 -1      3859 1.83512E+01-1.27618E+00-6.22584E-03 3.39343E+00-1.81195E-13-4.98544E-13
 -1      3860 1.74708E+01-5.71054E-01-2.40201E-02 2.98711E+00-2.54934E-13-2.52761E-13
 -1      3861 1.95812E+01-7.78253E-01 1.11933E-02 2.43487E+00 5.91573E-14-2.58496E-13
 -1      3862 1.50377E+01 6.79139E-01 6.52958E-02 2.07251E+00-2.13577E-13-8.30759E-14
 -1      3863 1.48562E+01 8.66567E-01-3.34547E-03 1.39905E+00-2.01757E-13 4.35129E-14
 -1      3864 9.99172E+00 8.95740E-01-5.20831E-03-1.83042E+00 2.92362E-14-2.68750E-13
 -1      3865 1.07362E+01 5.64225E-01-3.87655E-02-2.23864E+00 1.44815E-14-1.97571E-13
 -1      3866 1.50821E+01 3.69720E-01 5.59317E-02-2.64438E+00-4.06801E-14 5.12281E-14
 -1      3867 1.62097E+01-4.92122E-02 6.12638E-03-2.89327E+00-9.30011E-14 1.40622E-13
 -1      3868 1.50795E+01 6.90062E-01 1.04306E-02-1.97720E+00-3.39399E-14 1.72275E-13
 -1      3869 1.91748E+01 9.28879E-01 5.92945E-04-6.47084E-01 1.35395E-15-2.97358E-13
 -1      3870 1.40438E+01 1.09645E+00 3.51590E-02-2.99577E-01 6.97229E-14 2.58994E-14
 -1      3871 1.24862E+01-1.47018E-01 7.26496E-02-3.56332E+00-3.44901E-13-8.83391E-14
 -1      3872 1.38849E+01-5.66196E-01 3.79505E-02-3.44933E+00-3.07778E-13 8.61707E-14
 -1      3873 1.19346E+01 1.56779E-01 3.09205E-03-2.96615E+00-2.28913E-13-1.85723E-13
 -1      3874 2.03297E+01 1.15945E+00-3.29616E-03 1.32668E-01 5.36917E-14-1.84345E-13
 -1      3875 2.03281E+01 1.19525E+00-2.02699E-03 7.66371E-02 1.97595E-14-1.89756E-13
 -1      3876 1.20937E+01 2.09776E-01-4.03796E-02-2.59509E+00 2.26963E-12 1.70928E-12
 -1      3877 1.99937E+01 1.57045E-01-1.10188E-03-2.84479E-01 3.46451E-14-1.92780E-13
 -1      3878 2.00024E+01 1.59717E-01 3.26637E-04-2.53833E-01 4.15574E-14-1.98075E-13
 -1      3879 1.99768E+01 1.90499E-01 9.03775E-04-3.07339E-01 5.67947E-14-2.39056E-13
 -1      3880 9.74224E+00 1.13316E+00-2.02799E-01-7.40948E-01 1.12568E-12 1.31689E-12
 -1      3881 9.14701E+00 1.53127E+00-1.23622E-01-6.37106E-01 9.95537E-13 1.07503E-12
 -1      3882 8.65780E+00 1.45050E+00-2.89617E-01-5.09734E-01 7.58921E-13 1.00608E-12
 -1      3883 9.28749E+00 1.23589E+00-5.50021E-01-2.86884E+00 2.26197E-12 2.25722E-12
 -1      3884 1.87434E+01 1.06170E+00-2.34879E-03-3.77689E-03-3.51409E-13 1.50827E-13
 -1      3885 1.87678E+01 1.04926E+00 2.81732E-04 1.86933E-01-2.83452E-13 1.08729E-13
 -1      3886 1.58711E+01 2.33948E-01 3.01409E-04 2.44262E+00-1.98977E-13 5.49699E-14
 -1      3887 1.77671E+01-2.29642E-01 2.22143E-02-2.82123E+00-1.38902E-13 1.69279E-13
 -1      3888 1.76958E+01 1.02712E-01-1.25527E-02-2.47899E+00-6.91493E-14 5.24707E-14
 -1      3889 1.87615E+01 1.05882E+00-3.43449E-03-2.28808E-01-3.55610E-13 1.59590E-13
 -1      3890 1.85873E+01 1.09716E+00 4.60432E-03-1.19423E-01-3.53168E-13 1.29169E-13
 -1      3891 1.88220E+01 1.04011E+00 8.05424E-05-4.13203E-01-2.13675E-13-1.06232E-13
 -1      3892 2.02062E+01 4.44461E-02 3.09105E-05-1.78627E-01 4.23041E-15-2.19667E-13
 -1      3893 2.02264E+01 6.35764E-02 6.15168E-04-1.63695E-01 3.04012E-15-2.39957E-13
 -1      3894 2.02743E+01 9.43067E-02-3.74150E-04-1.37077E-01 2.53495E-14-2.25316E-13
 -1      3895 1.90932E+01 9.04912E-01 3.49191E-03-8.61937E-01 9.97037E-14-9.70740E-14
 -1      3896 1.96566E+01 4.90434E-01 1.44920E-03-5.16454E-01 1.38978E-14-1.13556E-13
 -1      3897 2.03353E+01 1.04627E+00-2.58688E-03 2.15815E-01 8.09016E-14-2.27078E-13
 -1      3898 2.03331E+01 1.11822E+00-8.91223E-04 1.71992E-01 6.57919E-14-2.07510E-13
 -1      3899 2.03775E+01 9.54380E-01 3.95569E-03 1.10785E-01 6.33824E-14-1.78866E-13
 -1      3900 2.01201E+01 6.11490E-02-1.00967E-04-2.02120E-01-5.31542E-14-2.03081E-13
 -1      3901 2.01190E+01 4.45830E-02 5.60620E-04-2.17101E-01-6.62977E-14-1.45375E-13
 -1      3902 2.01359E+01 3.50886E-02-1.24848E-04-2.07147E-01-5.90504E-14-1.46860E-13
 -1      3903 1.68935E+01-1.48023E+00 3.31200E-02-3.28247E+00-3.26347E-13-1.12249E-13
 -1      3904 1.64126E+01-1.09820E+00 3.11487E-02-3.08142E+00-3.95373E-13-5.56829E-14
 -1      3905 1.88581E+01-4.65387E-01-2.70240E-04 2.49030E+00-7.52684E-14-3.36057E-13
 -1      3906 2.01378E+01 2.48900E-02-5.32296E-04-2.13107E-01 1.87109E-14-1.61981E-13
 -1      3907 1.92935E+01 8.23074E-01 1.32645E-03 7.28770E-01 2.31676E-14 2.31842E-13
 -1      3908 2.03645E+01 5.68034E-01 2.66979E-04 7.05700E-02 6.55070E-14-2.12117E-13
 -1      3909 2.03369E+01 5.72888E-01-1.48224E-03 9.53792E-02 5.53411E-14-1.86303E-13
 -1      3910 1.71292E+01 4.82531E-01 3.24200E-03-2.17772E+00-1.57221E-13 1.41840E-13
 -1      3911 2.03417E+01 6.70223E-01 2.70191E-03 1.59156E-01 7.13780E-14-1.84320E-13
 -1      3912 2.03308E+01 1.02600E+00-5.15183E-04-2.60331E-01-8.95044E-14-2.05017E-13
 -1      3913 2.03438E+01 8.42980E-01-1.33839E-03-1.82870E-01-1.15642E-13-1.73508E-13
 -1      3914 2.03670E+01 8.24813E-01 1.16975E-03-1.38733E-01-1.28142E-13-2.08377E-13
 -1      3915 2.03277E+01 1.09668E+00-3.05939E-04-2.30448E-01-8.50130E-14-2.49558E-13
 -1      3916 1.99192E+01 2.63257E-01 9.87862E-04-3.62439E-01 2.56687E-14-1.50061E-13
 -1      3917 1.99380E+01 2.25088E-01-1.41578E-03-3.31704E-01 3.15263E-14-1.93023E-13
 -1      3918 1.99340E+01 2.31492E-01 5.95527E-04-2.94973E-01 9.60486E-15-1.61176E-13
 -1      3919 2.03280E+01 1.19729E+00-1.90153E-03-7.34532E-02-5.80166E-14-2.43913E-13
 -1      3920 2.03307E+01 1.16625E+00-2.06505E-03-1.29897E-01-7.30297E-14-2.41454E-13
 -1      3921 1.76788E+01-6.96576E-01-6.50619E-03-3.26373E+00-4.54602E-14 1.57296E-13
 -1      3922 2.03249E+01 1.14478E+00-1.13033E-03-1.91468E-01-8.87427E-14-2.60218E-13
 -1      3923 9.71139E+00 8.79042E-01-1.23728E-01-1.19316E+00 2.85201E-13-3.14332E-15
 -1      3924 2.03670E+01 9.78115E-01 1.90358E-03-1.32314E-01-8.84124E-14-2.41583E-13
 -1      3925 1.98556E+01 3.13643E-01 8.86389E-04-3.50544E-01-8.50057E-15-7.32698E-14
 -1      3926 1.14632E+01 2.34136E-01-1.27951E-01-2.01011E+00 4.11372E-14-2.00395E-14
 -1      3927 1.16848E+01 3.51628E-01 4.72328E-03-2.47845E+00-1.19210E-13-1.27698E-13
 -1      3928 1.26793E+01-6.42951E-02-4.83089E-02-2.68288E+00-1.88814E-13 4.82843E-14
 -1      3929 1.93873E+01 6.41705E-01 9.68823E-04-5.90852E-01-9.12156E-15-9.36179E-14
 -1      3930 1.94518E+01 5.98268E-01-3.02723E-03-5.29625E-01 2.11172E-14-7.94946E-14
 -1      3931 1.86442E+01 1.05067E+00 4.43250E-03 3.28624E-01-3.15525E-13 7.43222E-14
 -1      3932 1.88324E+01 9.98150E-01-3.99953E-03 3.97136E-01-2.32514E-13 4.03812E-14
 -1      3933 1.89351E+01 9.55744E-01 2.64460E-03 5.63640E-01-2.09437E-13 1.69886E-13
 -1      3934 2.02736E+01 6.60733E-02 1.72088E-04 1.15476E-01 3.35568E-14-1.03581E-13
 -1      3935 2.02449E+01 5.55523E-02 1.79758E-05 1.25940E-01 2.34023E-14-5.64510E-14
 -1      3936 2.02108E+01 5.39488E-02-8.39447E-05 1.31352E-01-4.43267E-15-5.57224E-14
 -1      3937 2.01803E+01 6.03807E-02 1.72070E-04 1.40034E-01 4.42080E-14-4.89604E-14
 -1      3938 2.02421E+01 6.29574E-02 2.06975E-06 1.00918E-01 8.52410E-15-2.40000E-14
 -1      3939 2.01422E+01 7.37092E-02-3.53778E-04 1.45356E-01 5.98140E-14-6.35631E-14
 -1      3940 2.01097E+01 9.37203E-02 2.42049E-04 1.54551E-01 1.12402E-14-7.09567E-14
 -1      3941 2.01707E+01 7.46593E-02 4.63103E-05 1.12460E-01 3.51182E-14-9.52423E-14
 -1      3942 2.00672E+01 1.19054E-01-6.28226E-04 1.61278E-01-2.13893E-14-5.42004E-14
 -1      3943 2.00317E+01 1.50194E-01 2.36983E-04 1.72735E-01-3.76185E-14-4.26818E-14
 -1      3944 2.00919E+01 1.15368E-01 2.69156E-04 1.24745E-01 2.83159E-14-1.01886E-13
 -1      3945 1.99834E+01 1.85549E-01-9.29115E-04 1.81994E-01-9.50966E-14-9.85446E-14
 -1      3946 1.99433E+01 2.26103E-01 1.69412E-04 1.97102E-01-1.03666E-13-1.13913E-13
 -1      3947 2.00041E+01 1.79631E-01 5.88909E-04 1.40104E-01-8.79665E-14-2.83124E-14
 -1      3948 1.98873E+01 2.70011E-01-1.26381E-03 2.09795E-01-4.39180E-14-1.60631E-13
 -1      3949 1.98402E+01 3.18630E-01 4.71043E-05 2.29648E-01-2.53899E-14-1.43993E-13
 -1      3950 1.99036E+01 2.63719E-01 9.96625E-04 1.60359E-01-1.04464E-13-1.14732E-13
 -1      3951 1.97739E+01 3.69805E-01-1.64309E-03 2.46490E-01-5.42523E-14-1.80697E-13
 -1      3952 1.97171E+01 4.25154E-01-1.25037E-04 2.71955E-01-6.17890E-14-1.45300E-13
 -1      3953 1.97858E+01 3.64684E-01 1.49667E-03 1.86889E-01-2.92951E-14-1.29974E-13
 -1      3954 1.96369E+01 4.82126E-01-2.08483E-03 2.93525E-01-5.08656E-14-9.47476E-14
 -1      3955 1.95674E+01 5.42514E-01-3.41268E-04 3.25323E-01-1.04087E-13-9.06658E-14
 -1      3956 1.96446E+01 4.79660E-01 2.10162E-03 2.20711E-01-4.34669E-14-9.75169E-14
 -1      3957 1.94692E+01 6.03235E-01-2.62118E-03 3.52158E-01-1.09249E-13-5.37302E-14
 -1      3958 1.93832E+01 6.66220E-01-5.89033E-04 3.91019E-01-7.86232E-14-1.67529E-14
 -1      3959 1.94725E+01 6.05155E-01 2.83487E-03 2.62594E-01-9.00732E-14-4.11947E-14
 -1      3960 1.69839E+01-6.53103E-01-1.06765E+00-1.71004E-01 1.04999E-13 2.73115E-13
 -1      3961 1.40534E+01-1.98055E+00-1.38811E+00-1.23295E+00 2.12164E-13 1.13620E-12
 -1      3962 1.92607E+01 7.36345E-01 3.73757E-03 3.13307E-01-7.00143E-14-2.98392E-14
 -1      3963 1.40483E+01-1.80980E+00-5.23869E-01-1.49145E+00 2.19217E-13 1.16625E-12
 -1      3964 1.36312E+01-1.64904E+00-1.80705E-01-1.59965E+00 4.13961E-13 1.47828E-12
 -1      3965 1.42112E+01-2.10266E+00-1.26149E+00-1.61297E+00 4.91052E-13 9.83713E-13
 -1      3966 1.36030E+01-1.57657E+00 9.64417E-02-1.68494E+00 7.56633E-13 1.50319E-12
 -1      3967 1.33669E+01-1.54406E+00 2.06862E-01-1.96220E+00 1.24971E-12 1.59397E-12
 -1      3968 1.41772E+01-1.76968E+00-1.37112E-01-1.82411E+00 7.47201E-13 1.06641E-12
 -1      3969 1.36088E+01-1.59142E+00 4.26184E-01-2.07639E+00 1.75387E-12 1.38375E-12
 -1      3970 1.40405E+01-1.67731E+00 6.85778E-01-2.65269E+00 2.44713E-12 1.12799E-12
 -1      3971 1.42959E+01-1.82502E+00 2.97580E-01-1.94003E+00 1.40758E-12 8.91370E-13
 -1      3972 1.51670E+01-1.90507E+00 1.16920E+00-2.46987E+00 3.14929E-12 5.01266E-13
 -1      3973 1.80163E+01-1.92192E+00 2.13911E+00-3.89419E+00 4.87266E-12-1.09335E-12
 -1      3974 1.52767E+01-2.03890E+00 9.60620E-01-1.71061E+00 2.29325E-12 2.64899E-13
 -1      3975 2.35231E+01-2.00393E+00 3.01693E+00-2.23581E+00 4.13636E-12-7.67120E-12
 -1      3976 1.00921E+01-2.95185E+00-2.82776E+00-3.07380E+00 9.38705E-12 2.98339E-12
 -1      3977 1.79939E+01-2.19944E+00 1.86518E+00 5.67765E-01 2.14295E-12-2.74891E-12
 -1      3978-2.22508E+00-8.99884E-01-5.45505E+00-3.05341E+00 9.44733E-12 1.13585E-11
 -1      3979 6.48944E+00 1.60640E+00-1.54346E+00-2.24733E+00 2.95924E-12 4.02389E-12
 -1      3980 7.05148E+00 1.64490E+00-1.11045E+00 3.25162E-01 1.54327E-12 2.54929E-12
 -1      3981 7.33736E+00-2.73811E+00-3.11765E+00 4.06413E+00-4.31798E-12 3.31202E-12
 -1      3982 2.03201E+01 9.06867E-01 3.84425E-04 2.51890E-01 8.73292E-14-1.97971E-13
 -1      3983 1.66983E+01-1.23677E-01 9.72271E-03-2.96263E+00-9.52276E-14 2.21920E-13
 -1      3984 1.46379E+01 1.15645E+00-2.40444E-03 2.41779E-01 3.36673E-14 5.01543E-14
 -1      3985 1.47472E+01 1.10898E+00 5.22307E-04-8.43289E-01-2.34799E-14 9.10001E-14
 -1      3986 1.78064E+01 1.02057E+00 2.02284E-03-1.10347E+00-5.67750E-14 1.65582E-14
 -1      3987 1.80365E+01 1.02733E+00-1.01161E-02-9.73688E-01-1.61297E-13 6.68672E-14
 -1      3988 1.83382E+01 1.03082E+00 3.14696E-05-8.85864E-01-2.19081E-13 4.95700E-14
 -1      3989 1.85296E+01 1.01986E+00-5.84397E-03-7.91141E-01-1.76969E-13-5.67260E-14
 -1      3990 1.80030E+01 1.12431E+00 7.80528E-03-7.02770E-01-2.35063E-13 4.64338E-14
 -1      3991 1.89982E+01 7.32639E-01 2.55947E-03-9.08813E-01-3.22008E-14-1.12019E-13
 -1      3992 1.90728E+01 7.24454E-01-4.54296E-03-8.14413E-01 2.84070E-14-1.52467E-13
 -1      3993 1.92039E+01 7.07593E-01 1.51341E-03-7.31304E-01 5.93229E-14-1.33467E-13
 -1      3994 1.92756E+01 6.76796E-01-3.69699E-03-6.55486E-01 2.34255E-14-1.21832E-13
 -1      3995 1.89884E+01 7.93567E-01 3.59751E-03-6.83778E-01 9.68579E-15-9.94576E-14
 -1      3996 1.85610E+01 5.43196E-01 7.51001E-03-1.43510E+00-1.17743E-13-1.06408E-13
 -1      3997 1.86066E+01 6.28502E-01-6.77214E-03-1.28230E+00-6.43291E-14-1.51405E-13
 -1      3998 1.71988E+01-2.62414E-01-4.66755E-01-2.03123E+00-1.65715E-13 6.80567E-14
 -1      3999 1.83774E+01 4.10094E-01-7.60996E-03-1.63276E+00-2.17380E-13-1.17819E-13
 -1      4000 1.80723E+01 6.38403E-01 3.76616E-03-1.44283E+00-1.55450E-13-1.62271E-13
 -1      4001 1.60980E+01-6.00796E-01-1.50715E-01-2.26102E+00-3.41446E-13 1.62786E-13
 -1      4002 1.59186E+01-6.44302E-01-4.65661E-01-2.22089E+00-2.36630E-13 1.77858E-13
 -1      4003 1.50080E+01-7.65984E-01-6.66795E-01-2.22520E+00-2.49134E-13 2.51965E-13
 -1      4004 1.79954E+01-1.87787E+00 7.28844E-02-3.35597E+00-3.50918E-13-1.47027E-13
 -1      4005 1.81226E+01-8.31018E-03-2.25149E-02 2.24750E+00-1.80992E-13-1.36810E-13
 -1      4006 1.80814E+01-2.36664E-01 1.25960E-02 2.54102E+00-2.81517E-13-2.78424E-13
 -1      4007 1.83562E+01 4.14111E-01-1.14326E-02 1.74918E+00 2.37551E-14 5.50040E-14
 -1      4008 1.83564E+01 2.39751E-01 9.37440E-03 1.96297E+00 1.39632E-14-1.28721E-13
 -1      4009 1.76434E+01 4.28735E-01 1.37505E-02 1.96707E+00-1.49370E-13 4.17470E-14
 -1      4010 1.87777E+01 6.90339E-01 4.41644E-03-1.13673E+00-3.23870E-14-1.49023E-13
 -1      4011 1.88464E+01 7.18907E-01-5.60535E-03-1.01755E+00 2.54834E-15-1.69845E-13
 -1      4012 1.87183E+01 8.23677E-01 4.07452E-03-8.65335E-01 1.59074E-14-1.47862E-13
 -1      4013 2.03272E+01 1.20966E+00-2.56798E-03 3.15325E-02 1.02988E-14-2.10341E-13
 -1      4014 2.03271E+01 1.21026E+00-2.57286E-03-2.82874E-02-2.68116E-14-2.39620E-13
 -1      4015 2.03813E+01 1.01372E+00 4.67997E-03 3.97762E-02 3.51037E-14-1.85893E-13
 -1      4016 1.71509E+01 9.07907E-01 2.74098E-03-1.43526E+00-1.86987E-13 2.66919E-13
 -1      4017 1.74066E+01 9.71928E-01-1.76673E-02-1.24734E+00-1.13391E-13 2.24718E-13
 -1      4018 1.73393E+01 1.15929E+00 1.87543E-02-8.84790E-01-2.38004E-13 7.39122E-15
 -1      4019 1.96814E+01 4.56753E-01 5.76336E-04-3.90501E-01 3.07766E-14-1.08567E-13
 -1      4020 1.97295E+01 4.07053E-01-2.01146E-03-3.51459E-01-9.45020E-15-9.02011E-14
 -1      4021 9.46458E+00 7.43287E-01-2.99898E-01-5.07293E-01 4.47503E-13 4.42701E-13
 -1      4022 1.04464E+01 2.81647E-01-2.80356E-01-1.15720E+00 3.98112E-13 1.27093E-13
 -1      4023 1.50972E+01-8.30681E-01 2.09531E-03-3.22499E+00-3.63602E-13 7.91398E-14
 -1      4024 1.66815E+01-8.46415E-01 1.19803E-02-2.51776E+00-4.39905E-13 1.75901E-14
 -1      4025 1.63457E+01-6.92594E-01-5.70757E-02-2.42453E+00-3.92592E-13 7.98068E-14
 -1      4026 1.42740E+01-4.09093E-01-8.68671E-03-2.87671E+00-3.60611E-13 9.71410E-14
 -1      4027 2.03700E+01 3.13149E-01-1.45241E-03-4.04062E-02 2.67401E-14-2.03445E-13
 -1      4028 2.03871E+01 4.13239E-01 1.51687E-03 9.98396E-04 4.78834E-14-1.87544E-13
 -1      4029 1.97961E+01 3.59917E-01 5.30163E-04-3.21283E-01-5.23841E-14-1.11181E-13
 -1      4030 1.98371E+01 3.12877E-01-1.60239E-03-2.90959E-01-5.66847E-14-1.29568E-13
 -1      4031 1.97229E+01 4.14651E-01 1.54220E-03-2.88215E-01-6.01983E-14-1.21991E-13
 -1      4032 2.03975E+01 6.53994E-01-6.13190E-04-6.69238E-02-1.06590E-13-1.98725E-13
 -1      4033 2.03990E+01 5.13953E-01-1.33297E-03-1.74241E-02-8.90949E-14-1.72836E-13
 -1      4034 1.90573E+01 8.76384E-01-5.10536E-03 7.07170E-01-9.05469E-14 2.08614E-13
 -1      4035 1.92331E+01 7.98986E-01 9.73074E-04 8.34630E-01 9.53549E-14 3.11204E-15
 -1      4036 1.91629E+01 7.82467E-01-6.55672E-04 9.12163E-01-7.21753E-14 1.06352E-13
 -1      4037 1.88438E+01 9.32612E-01-1.96019E-03 6.84503E-01-2.96026E-13 5.82508E-14
 -1      4038 1.89102E+01 9.73521E-01-3.34653E-03-6.99079E-01-1.15161E-15-2.08795E-13
 -1      4039 2.03378E+01 1.70982E-01-6.46162E-04-9.17794E-02 2.03193E-14-2.07457E-13
 -1      4040 2.03594E+01 2.34411E-01 9.50260E-04-6.43557E-02 2.32980E-14-1.91242E-13
 -1      4041 2.03884E+01 3.04510E-01 5.42384E-04-3.92820E-02 2.62892E-14-1.51953E-13
 -1      4042 1.58630E+01 9.44531E-01-6.61797E-03 1.22854E+00-2.54828E-13-1.14588E-13
 -1      4043 1.51883E+01 1.14263E+00 3.20049E-02 7.62372E-01-7.92285E-14-9.95649E-14
 -1      4044 1.57532E+01 1.20016E+00 8.84609E-03 2.44998E-01-1.09310E-13-3.54020E-14
 -1      4045 2.00516E+01 1.23873E-01 4.70727E-04-2.00301E-01 1.41024E-14-1.76727E-13
 -1      4046 2.00805E+01 9.71281E-02-5.90484E-04-1.87713E-01-8.28541E-15-1.57747E-13
 -1      4047 2.03806E+01 1.01458E+00 4.42082E-03-3.75606E-02-3.27794E-14-2.09896E-13
 -1      4048 2.03295E+01 1.18434E-01 3.56873E-04 9.34606E-02 8.67809E-15-1.01991E-13
 -1      4049 2.03031E+01 8.62706E-02-2.61049E-04 1.08220E-01 2.16349E-14-1.03836E-13
 -1      4050 2.03061E+01 8.70163E-02 3.12271E-05 8.70125E-02 3.65826E-14-6.92493E-14
 -1      4051 2.01626E+01 3.15598E-02 3.53331E-04-1.99056E-01-3.30959E-14-1.65953E-13
 -1      4052 2.01810E+01 3.43574E-02 2.11156E-04-1.88366E-01 1.71540E-15-2.01276E-13
 -1      4053 2.02254E+01 4.99358E-02-4.80122E-04-1.64137E-01-2.19029E-14-2.34783E-13
 -1      4054 2.01737E+01 4.20930E-02-2.69708E-04-1.83826E-01-6.05657E-14-1.73658E-13
 -1      4055 1.95461E+01 5.53703E-01 6.98158E-04-4.79071E-01 3.88263E-14-1.07051E-13
 -1      4056 1.96023E+01 5.04687E-01-2.47838E-03-4.29848E-01 5.29691E-14-1.10371E-13
 -1      4057 1.94178E+01 6.25940E-01 2.53324E-03-4.37192E-01 3.74362E-14-5.81451E-14
 -1      4058 1.68770E+01-2.88572E-04 2.58847E-02 2.66208E+00-2.87711E-13 9.87209E-14
 -1      4059 1.92207E+01 7.21435E-01 3.06608E-03-5.44955E-01 2.31484E-14-1.37007E-13
 -1      4060 1.65136E+01 4.31179E-01-2.13893E-02 2.07982E+00-3.35852E-13-2.85483E-14
 -1      4061 1.95836E+01 5.20516E-01 2.02055E-03-3.53223E-01 5.69977E-14-6.26598E-14
 -1      4062 1.86933E+01 1.02841E+00 1.48832E-03-6.45296E-01-1.75954E-13-1.04668E-14
 -1      4063 1.83692E+01 1.08792E+00-5.29410E-03 2.63532E-01-1.79359E-13 6.96641E-14
 -1      4064 1.84630E+01 1.06442E+00 6.76175E-03 4.81245E-01-1.91308E-13 3.05168E-14
 -1      4065 1.86252E+01 6.32143E-01-1.32503E-02 1.37749E+00-2.79780E-13 4.33530E-14
 -1      4066 1.85640E+01 5.43684E-01 2.28105E-03 1.53392E+00-9.30069E-14-9.32498E-14
 -1      4067 1.80526E+01 7.06531E-01 8.19017E-03 1.49079E+00-8.87534E-14 5.93085E-14
 -1      4068 1.99775E+01 1.89530E-01 5.02686E-04-2.28949E-01 8.19515E-15-1.51622E-13
 -1      4069 2.00090E+01 1.54285E-01-9.01218E-04-2.11954E-01 1.49427E-14-1.71407E-13
 -1      4070 2.00278E+01 1.52090E-01 3.97296E-04-1.74602E-01 1.26093E-14-1.01501E-13
 -1      4071 2.01057E+01 9.62778E-02 1.34916E-04-1.54810E-01-3.95107E-14-1.18493E-13
 -1      4072 2.01187E+01 7.59111E-02 4.00016E-04-1.79412E-01-3.28074E-14-1.75439E-13
 -1      4073 2.01462E+01 5.96699E-02-2.71930E-04-1.69399E-01-6.16408E-14-1.69153E-13
 -1      4074 1.84103E+01 7.84903E-01 4.24284E-03-1.10914E+00-4.99115E-14-1.69479E-13
 -1      4075 1.84307E+01 1.09046E+00-2.68817E-03-4.92329E-01-2.85941E-13 1.53388E-13
 -1      4076 2.03367E+01 9.48835E-01-1.52406E-03 2.14887E-01 8.41395E-14-2.27232E-13
 -1      4077 2.03630E+01 8.06750E-01-4.46740E-04 1.34963E-01 7.74049E-14-2.34438E-13
 -1      4078 1.71181E+01 5.78618E-01 2.18883E-03 1.79272E+00-2.43585E-13 1.27369E-13
 -1      4079 1.63786E+01 8.43358E-01 2.79002E-02 1.55892E+00-2.91911E-13 8.47803E-14
 -1      4080 1.64635E+01 1.00426E+00-1.25660E-02 1.03787E+00-2.53638E-13-1.54358E-13
 -1      4081 1.73235E+01 7.10651E-01-2.01617E-02 1.52318E+00 2.79204E-15 1.54995E-13
 -1      4082 1.51762E+01-5.82925E-01-1.23695E-01-2.45480E+00-4.08153E-13 2.77367E-13
 -1      4083 2.03965E+01 8.33231E-01-2.14869E-03 4.34616E-02 5.52503E-14-1.41311E-13
 -1      4084 2.03971E+01 8.46781E-01-2.15850E-03 1.19287E-02 2.73016E-14-1.75107E-13
 -1      4085 1.90969E+01 7.63148E-01 2.98101E-04 9.95305E-01-1.23729E-13 4.71910E-14
 -1      4086 9.42431E+00 1.06689E+00-3.66007E-01-4.38480E-01 9.80410E-13 9.94649E-13
 -1      4087 2.03799E+01 5.34227E-01-2.28324E-03 3.52773E-02 5.38611E-14-2.10461E-13
 -1      4088 2.03834E+01 6.83425E-01 1.44624E-03 9.57727E-02 5.67140E-14-2.15656E-13
 -1      4089 1.63175E+01 6.75372E-01 1.09912E-02-1.94889E+00-1.05087E-13 2.41113E-13
 -1      4090 1.66386E+01 8.22728E-01-1.44855E-02-1.64695E+00-9.51461E-14 2.63603E-13
 -1      4091 1.11308E+01 2.60466E-01-1.74755E-01-1.60317E+00 2.37643E-13 2.25098E-14
 -1      4092 1.18544E+01-5.42649E-02-1.97281E-01-1.89482E+00 1.26094E-13 1.52892E-13
 -1      4093 1.06424E+01-3.44694E-01-5.55924E-01-9.94766E-01 5.23914E-13 2.92572E-13
 -1      4094 2.03166E+01 1.23433E-01 5.52362E-04-1.06996E-01 3.47788E-14-1.77698E-13
 -1      4095 2.03517E+01 1.67168E-01 3.88015E-05-7.98160E-02 1.25466E-14-1.92805E-13
 -1      4096 2.02935E+01 8.81604E-02 1.91616E-04-1.25245E-01 1.94249E-14-1.92858E-13
 -1      4097 2.03819E+01 7.72779E-01-7.23665E-04 9.75504E-02 6.24338E-14-2.19811E-13
 -1      4098 2.03892E+01 8.12953E-01-9.00204E-04 7.30593E-02 5.12958E-14-1.82214E-13
 -1      4099 2.03736E+01 2.23628E-01 3.77310E-04 5.97020E-02-2.57501E-14-1.37177E-13
 -1      4100 2.03521E+01 1.63527E-01-5.94916E-04 8.24386E-02-1.04273E-14-1.15760E-13
 -1      4101 2.03601E+01 1.56375E-01-2.77585E-05 6.74555E-02 1.59543E-14-8.18665E-14
 -1      4102 2.03987E+01 8.47557E-01-1.61564E-03-1.03055E-02 1.55323E-15-1.77687E-13
 -1      4103 2.03967E+01 8.32615E-01-2.27799E-03-4.28785E-02-2.91727E-14-1.85578E-13
 -1      4104 2.04263E+01 7.00087E-01 3.10329E-03-1.44642E-03 2.15427E-14-1.48474E-13
 -1      4105 1.56595E+01 1.12531E+00 1.77058E-02-8.55685E-01-2.32481E-14 2.32905E-13
 -1      4106 1.51705E+01 9.91685E-01 2.32987E-02-1.39742E+00-3.85902E-14 2.63480E-13
 -1      4107 1.63031E+01 3.51750E-01-6.35745E-03-2.42645E+00-2.37445E-13 7.03517E-14
 -1      4108 1.89241E+01 7.43122E-01-6.36395E-03 1.10024E+00-2.12028E-13 6.57974E-14
 -1      4109 1.88382E+01 7.04925E-01 3.29832E-03 1.22666E+00-2.69336E-13 4.05748E-14
 -1      4110 1.84734E+01 8.42064E-01 1.39950E-02 1.14930E+00-3.03359E-13 4.61163E-14
 -1      4111 1.88409E+01 8.63843E-01 6.08129E-03 9.12325E-01-1.85128E-13 2.57318E-14
 -1      4112 2.04203E+01 6.58673E-01 1.86082E-03-2.45812E-02-4.58430E-14-1.40377E-13
 -1      4113 2.03965E+01 7.98171E-01 1.92498E-04-5.84368E-02-6.13023E-14-1.89770E-13
 -1      4114 2.04019E+01 5.14944E-01-1.65691E-04 1.99162E-02 4.08317E-14-1.92596E-13
 -1      4115 2.03806E+01 8.44254E-01-3.49986E-04-9.17822E-02-9.91076E-14-2.24158E-13
 -1      4116 2.04150E+01 4.88829E-01 4.62063E-04-6.82520E-03-7.98340E-14-1.14307E-13
 -1      4117 2.03999E+01 3.96227E-01 2.96745E-04 8.16786E-03-8.60658E-14-1.74503E-13
 -1      4118 2.03872E+01 3.00560E-01-8.64481E-04 4.23915E-02-5.01888E-14-1.82042E-13
 -1      4119 2.04166E+01 6.78879E-01 2.75630E-03 4.15013E-02 4.83958E-14-1.54414E-13
 -1      4120 1.98935E+01 2.69382E-01 5.15222E-04-2.68353E-01 1.20196E-14-1.29455E-13
 -1      4121 1.99290E+01 2.27338E-01-1.23596E-03-2.45393E-01 3.87407E-14-1.35884E-13
 -1      4122 1.99405E+01 2.26192E-01 7.24139E-04-2.01659E-01 2.14141E-14-1.41624E-13
 -1      4123 1.64702E+01 1.05274E+00 8.12059E-03-1.20447E+00-1.48364E-13 2.70147E-13
 -1      4124 1.98402E+01 3.14965E-01 1.10778E-03-2.38651E-01-2.16835E-14-1.69204E-13
 -1      4125 2.04290E+01 5.52446E-01-3.65876E-04-5.46721E-03-1.50277E-16-1.24966E-13
 -1      4126 2.04265E+01 5.13840E-01-6.11168E-04-1.12507E-02-4.74718E-14-1.06525E-13
 -1      4127 2.04243E+01 3.98033E-01 3.72308E-04 1.23553E-02-2.05771E-14-7.60778E-14
 -1      4128 1.83411E+01 1.12398E+00-6.00519E-04-6.04253E-03-2.09440E-13 6.34256E-14
 -1      4129 1.81724E+01 1.13500E+00 7.49759E-03 1.49307E-01 1.04393E-13 1.17441E-14
 -1      4130 2.01955E+01 6.96851E-02-2.44868E-04 7.49347E-02-1.27762E-14-8.77479E-14
 -1      4131 2.01583E+01 8.38686E-02 1.91030E-04 8.13240E-02 7.00225E-15-1.14552E-13
 -1      4132 2.01142E+01 1.04133E-01-4.45368E-04 8.31432E-02 5.59780E-14-1.78981E-13
 -1      4133 2.00730E+01 1.31482E-01 1.06269E-04 8.99939E-02 1.32217E-14-1.51706E-13
 -1      4134 2.01396E+01 9.97848E-02 3.19845E-04 4.61754E-02 9.83529E-15-1.49550E-13
 -1      4135 2.00234E+01 1.63598E-01-7.00195E-04 9.28164E-02-3.96835E-14-1.71865E-13
 -1      4136 1.99768E+01 2.01873E-01-5.08891E-05 1.01021E-01-1.01711E-13-1.53062E-13
 -1      4137 2.00490E+01 1.55046E-01 9.25389E-04 5.13111E-02-1.67185E-14-2.46608E-13
 -1      4138 1.99200E+01 2.43940E-01-1.00511E-03 1.05226E-01-1.24784E-13-9.78461E-14
 -1      4139 1.98660E+01 2.91473E-01-2.76813E-04 1.15439E-01-6.17135E-14-9.55341E-14
 -1      4140 1.99464E+01 2.33062E-01 1.72155E-03 5.75230E-02-5.33371E-14-1.93626E-13
 -1      4141 1.97996E+01 3.41964E-01-1.36259E-03 1.21266E-01-2.51495E-14-7.60507E-14
 -1      4142 1.97354E+01 3.97303E-01-5.77324E-04 1.33908E-01-5.10025E-15-7.47017E-14
 -1      4143 1.98276E+01 3.30248E-01 2.71077E-03 6.51667E-02-2.50077E-14-9.68981E-14
 -1      4144 1.96561E+01 4.54734E-01-1.78162E-03 1.41463E-01-2.53486E-14-5.76743E-14
 -1      4145 1.95782E+01 5.16293E-01-9.65278E-04 1.56751E-01-3.06334E-14-4.07091E-14
 -1      4146 1.96871E+01 4.43510E-01 3.92410E-03 7.42653E-02-4.64996E-14-1.04608E-13
 -1      4147 1.94823E+01 5.78871E-01-2.28328E-03 1.66019E-01-3.43719E-14-5.02180E-14
 -1      4148 1.93866E+01 6.44585E-01-1.46140E-03 1.84019E-01-5.26709E-14-4.65536E-14
 -1      4149 1.95178E+01 5.69568E-01 5.41997E-03 8.45009E-02-4.07528E-14-9.19744E-14
 -1      4150 1.92692E+01 7.09862E-01-2.91161E-03 1.94886E-01-6.19179E-14 3.52493E-14
 -1      4151 1.91507E+01 7.76872E-01-2.09802E-03 2.15642E-01-3.36924E-14 4.04313E-14
 -1      4152 1.93114E+01 7.04313E-01 7.29910E-03 9.52016E-02-2.02420E-14-5.54119E-14
 -1      4153 1.66973E+01-9.29762E-01-1.17324E+00-5.73587E-01 1.93123E-13 4.79727E-13
 -1      4154 1.44711E+01-2.08863E+00-1.17471E+00-1.72859E+00 3.97848E-13 1.04894E-12
 -1      4155 1.90576E+01 8.42299E-01 9.73239E-03 1.05357E-01-5.45221E-14-3.37891E-14
 -1      4156 1.46178E+01-1.77965E+00-3.84003E-01-1.74860E+00 5.03576E-13 8.58535E-13
 -1      4157 1.46574E+01-1.72989E+00-9.34165E-02-1.76689E+00 7.38819E-13 7.77475E-13
 -1      4158 1.49068E+01-2.12352E+00-1.16135E+00-1.65217E+00 4.35096E-13 7.96918E-13
 -1      4159 1.48994E+01-1.75812E+00 1.59506E-01-1.79477E+00 1.02310E-12 5.32713E-13
 -1      4160 1.50933E+01-1.80469E+00 3.72902E-01-1.79551E+00 1.33503E-12 3.38229E-13
 -1      4161 1.53326E+01-1.82343E+00-6.45387E-02-1.65254E+00 7.36990E-13 2.94834E-13
 -1      4162 1.51448E+01-1.73670E+00 5.88301E-01-1.84540E+00 1.79674E-12 1.75804E-13
 -1      4163 1.57293E+01-1.52837E+00 1.09555E+00-1.31534E+00 2.31244E-12-4.04121E-13
 -1      4164 1.56376E+01-1.87388E+00 3.32501E-01-1.77941E+00 1.39534E-12-1.26010E-13
 -1      4165 1.54097E+01-1.49456E+00 1.31172E+00-9.66855E-01 2.56573E-12-2.77556E-13
 -1      4166 1.53490E+01-3.49467E-01 9.77237E-01 3.19658E-01 7.82263E-13-1.03340E-12
 -1      4167 1.51112E+01-1.22175E+00 5.09894E-01-1.72479E+00 2.90956E-12-4.00124E-13
 -1      4168 1.87930E+01 8.66494E-01 2.28474E-04-5.91137E-01 3.33807E-14-1.26688E-14
 -1      4169 1.89143E+01 8.27529E-01-5.60168E-03-5.21825E-01 5.29807E-14-3.95452E-15
 -1      4170 1.78664E+01 1.14850E+00-7.11692E-03-4.42144E-01-9.55400E-14-6.38911E-14
 -1      4171 1.81746E+01 1.13705E+00-1.42322E-03-3.86345E-01-2.52500E-13-2.50903E-15
 -1      4172 1.39053E+01-2.42019E-01-1.58457E-02-2.53402E+00-3.14120E-13 1.51577E-13
 -1      4173 1.94940E+01 5.71840E-01-2.26115E-04-2.95853E-01 3.32571E-14-7.11797E-14
 -1      4174 1.95688E+01 5.13975E-01-2.46250E-03-2.63045E-01 3.03858E-14-1.00443E-13
 -1      4175 1.83608E+01 1.12861E+00 4.86400E-04-2.34893E-01-1.66867E-13 1.60934E-13
 -1      4176 1.93008E+01 6.84196E-01-2.32801E-04-3.69526E-01 5.05768E-14-8.52676E-14
 -1      4177 1.93895E+01 6.27158E-01-3.21956E-03-3.27625E-01 4.81479E-14-5.81141E-14
 -1      4178 1.94009E+01 6.40512E-01 5.76320E-03-2.30266E-01 6.44734E-15-1.76117E-13
 -1      4179 1.80779E+01 8.83943E-01 3.09096E-03-9.90431E-01-5.39651E-14 1.68929E-14
 -1      4180 1.82289E+01 8.98802E-01-1.05282E-02-8.64653E-01-2.36950E-14-7.18772E-15
 -1      4181 1.40390E+01-5.29047E-01-3.35369E-01-2.10715E+00-2.33823E-13 4.53353E-13
 -1      4182 1.40417E+01-8.88565E-01-8.47492E-01-2.10522E+00-1.29868E-13 4.52860E-13
 -1      4183 1.59518E+01-2.76862E-01-7.69633E-01-1.77434E+00-1.41831E-14 1.71529E-13
 -1      4184 1.77800E+01 8.27486E-01-1.55763E-02-1.14550E+00-8.18717E-14 2.26561E-14
 -1      4185 1.71092E+01-3.31184E-01-5.51790E-01-1.26820E+00 2.50244E-13 1.43282E-13
 -1      4186 1.31794E+01-1.25191E+00-1.21054E+00-1.95853E+00-1.81070E-13 7.23088E-13
 -1      4187 1.84646E+01 9.06237E-01 9.18428E-04-7.59246E-01-4.97096E-15-2.48539E-14
 -1      4188 1.86029E+01 8.88447E-01-7.60959E-03-6.67422E-01 8.61439E-15-4.27963E-14
 -1      4189 1.74683E+01-6.99459E-01-6.58553E-01-1.09422E+00 3.97293E-13 1.95002E-13
 -1      4190 1.37184E+01-2.51703E-01-1.20230E-01-2.29282E+00-2.20357E-13 2.29972E-13
 -1      4191 1.97904E+01 3.52361E-01-4.74039E-05-1.96387E-01-6.39342E-14-1.70854E-13
 -1      4192 1.98440E+01 3.02312E-01-1.37380E-03-1.76859E-01-1.16080E-14-1.88939E-13
 -1      4193 1.86556E+01 9.22698E-01-6.37017E-03 7.78662E-01-2.60357E-13-8.63887E-15
 -1      4194 1.74829E+01 1.17409E+00-1.09968E-02-3.88712E-01-2.83187E-13-2.22910E-13
 -1      4195 1.77500E+01 1.20195E+00-1.41930E-04-4.05878E-02-6.73953E-14-2.06416E-13
 -1      4196 1.71382E+01 1.19281E+00-2.17961E-05-4.58139E-01-3.10788E-13-6.48826E-14
 -1      4197 1.58544E+01 7.27173E-01-5.08487E-03-1.88025E+00-1.19208E-13 3.35020E-13
 -1      4198 1.96552E+01 4.59014E-01-1.50753E-04-2.39312E-01-2.80628E-14-1.30486E-13
 -1      4199 1.97183E+01 4.03811E-01-1.86403E-03-2.13826E-01-7.54732E-14-1.47132E-13
 -1      4200 1.95838E+01 5.17933E-01 4.25095E-03-1.83396E-01-3.24400E-14-2.09721E-13
 -1      4201 1.61261E+01 1.17422E+00-8.04120E-03-6.88699E-01-1.71291E-13 1.29027E-13
 -1      4202 8.72926E+00-5.63555E-01-1.34012E+00 9.49624E-01 9.73874E-13 1.79545E-12
 -1      4203 2.04322E+01 5.48309E-01-8.36598E-04 5.11639E-03 2.47707E-14-1.20752E-13
 -1      4204 2.04179E+01 5.33235E-01-9.92074E-04 7.31394E-03 3.50574E-14-1.39082E-13
 -1      4205 1.77916E+01 1.18144E+00 7.40827E-03 2.49563E-01 1.15491E-13-7.81437E-14
 -1      4206 1.90693E+01 7.86719E-01-1.10448E-04-4.65375E-01-3.86561E-15-5.88286E-14
 -1      4207 1.91737E+01 7.35391E-01-4.21859E-03-4.11801E-01 6.02819E-15-4.50023E-14
 -1      4208 1.89119E+01 8.76428E-01 1.00899E-02-3.76190E-01-2.14946E-14 4.37250E-14
 -1      4209 2.03347E+01 1.01075E-01 4.71298E-04 5.53150E-02 4.46532E-14-1.05252E-13
 -1      4210 2.03028E+01 7.83080E-02-1.18912E-04 6.42447E-02 4.15484E-14-8.26316E-14
 -1      4211 2.04169E+01 3.58612E-01 3.61540E-04-1.28266E-02 1.46663E-14-1.64666E-13
 -1      4212 2.04285E+01 4.98165E-01 2.26910E-04 1.76032E-03 1.88121E-14-1.49925E-13
 -1      4213 2.04318E+01 3.75453E-01 3.19344E-04-5.69059E-03 2.81042E-15-1.15156E-13
 -1      4214 2.04015E+01 2.71401E-01-9.12372E-04-3.92951E-02 2.17606E-16-1.63475E-13
 -1      4215 2.02690E+01 6.63762E-02 6.94399E-05 6.69970E-02 1.25980E-14-8.58849E-14
 -1      4216 2.02351E+01 6.36029E-02 1.07709E-04 7.36858E-02 1.05723E-14-1.03935E-13
 -1      4217 2.02929E+01 7.93415E-02 1.62635E-04 3.67928E-02 2.50017E-14-1.60654E-13
 -1      4218 1.28003E+01-2.35330E-01-2.38327E-01-2.11355E+00-1.36162E-13 3.38049E-13
 -1      4219 1.64919E+01 1.24945E+00 1.67619E-02-1.27229E-01-3.46744E-13-7.64601E-15
 -1      4220 2.02384E+01 5.16791E-02 7.69788E-05-1.46064E-01-2.00706E-14-1.92366E-13
 -1      4221 2.02641E+01 6.43921E-02-2.08207E-05-1.33234E-01 7.15744E-15-1.69036E-13
 -1      4222 2.03021E+01 8.75565E-02-6.70940E-04-1.05444E-01 2.89883E-15-1.08359E-13
 -1      4223 1.79101E+01 9.15054E-01 8.11067E-03 1.16327E+00-2.47201E-13 5.07906E-13
 -1      4224 1.77195E+01 8.05778E-01 5.87208E-03 1.32129E+00-6.97106E-14 2.98007E-13
 -1      4225 1.72965E+01 9.59349E-01 1.27724E-02 1.13655E+00-1.63775E-13 2.72324E-13
 -1      4226 2.00910E+01 1.12775E-01 1.75747E-04-1.24062E-01-1.69187E-14-1.93838E-13
 -1      4227 2.01284E+01 8.92575E-02-2.66244E-04-1.15219E-01-5.87689E-14-1.91793E-13
 -1      4228 1.22156E+01-4.53099E-01-4.36758E-01-1.87097E+00 1.45051E-13 4.45741E-13
 -1      4229 1.79875E+01-4.58271E-01-5.55622E-01-7.50134E-01 1.71696E-13 5.00667E-14
 -1      4230 1.19339E+01-1.78824E+00-1.22920E+00-7.59381E-01-2.74003E-13 8.88623E-13
 -1      4231 9.18264E+00-2.63479E+00-2.27186E+00 7.14680E-01 7.48845E-13 2.15050E-12
 -1      4232 1.10290E+01-1.43135E+00-9.35244E-01-8.84977E-01 8.88845E-13 7.09766E-13
 -1      4233 1.24172E+01-1.48699E+00-6.45959E-01-2.03750E+00 1.95519E-12 8.44880E-13
 -1      4234 1.97359E+01 4.01813E-01 3.01087E-03-1.48395E-01-7.82516E-14-2.16601E-13
 -1      4235 1.83751E+01 9.76945E-01-7.77812E-03 7.37090E-01-7.14635E-14 8.91122E-15
 -1      4236 1.98638E+01 2.96981E-01 1.98223E-03-1.22582E-01-1.77536E-14-2.52680E-13
 -1      4237 1.99049E+01 2.56653E-01 5.56120E-05-1.64386E-01-1.05021E-15-1.94567E-13
 -1      4238 1.99513E+01 2.13663E-01-9.59804E-04-1.49623E-01 3.13526E-14-2.15472E-13
 -1      4239 1.91799E+01 7.62986E-01 7.65176E-03-2.92709E-01 3.50658E-15-5.86926E-14
 -1      4240 1.15158E+01-1.19718E+00-7.66089E-01-1.58448E+00 7.07323E-13 5.49560E-13
 -1      4241 2.00038E+01 1.75625E-01 1.36437E-04-1.41010E-01 5.13411E-14-2.19255E-13
 -1      4242 2.00449E+01 1.41408E-01-6.00403E-04-1.29830E-01 2.57337E-14-1.96090E-13
 -1      4243 1.99732E+01 2.07241E-01 1.13171E-03-1.03840E-01 5.13197E-14-3.16398E-13
 -1      4244 2.02210E+01 7.20405E-02 8.98722E-07 4.13694E-02-6.31162E-15-1.52394E-13
 -1      4245 2.00688E+01 1.36109E-01 4.46791E-04-9.03001E-02 6.19517E-16-3.23203E-13
 -1      4246 2.03993E+01 2.85564E-01 2.91683E-04 3.73488E-02-1.94091E-14-9.88774E-14
 -1      4247 2.03644E+01 1.46880E-01 1.91300E-04-6.41624E-02 5.43635E-15-1.28140E-13
 -1      4248 2.03858E+01 2.00922E-01 9.31692E-05-4.58287E-02 6.24720E-15-1.36513E-13
 -1      4249 2.04081E+01 2.52908E-01 9.97386E-05-2.26225E-02 2.28109E-15-9.93327E-14
 -1      4250 2.01765E+01 6.31497E-02-1.25862E-04-1.39493E-01-6.54892E-14-1.86343E-13
 -1      4251 2.01807E+01 5.00389E-02 2.78710E-04-1.62701E-01-8.60650E-14-1.86810E-13
 -1      4252 2.02079E+01 4.68777E-02 1.80686E-04-1.52779E-01-6.66930E-14-1.95089E-13
 -1      4253 1.81360E+01 9.61998E-01-8.33184E-03 8.62533E-01-7.40794E-14 1.76721E-13
 -1      4254 2.03601E+01 1.36404E-01-5.79383E-04 5.34132E-02 2.06620E-14-9.44697E-14
 -1      4255 2.03559E+01 1.25346E-01-6.01511E-04 3.11120E-02 1.31649E-14-1.13194E-13
 -1      4256 2.03845E+01 1.86455E-01-1.80056E-04 4.02266E-02-7.05609E-15-6.70608E-14
 -1      4257 1.93265E+01 6.59939E-01-4.58352E-03-8.20307E-02-2.26281E-14-1.08955E-13
 -1      4258 1.94317E+01 5.98961E-01-3.83504E-03-6.03366E-02-5.01467E-14-1.47513E-13
 -1      4259 1.96966E+01 4.15621E-01-2.49988E-03-4.54701E-02-4.40134E-14-1.72490E-13
 -1      4260 1.97691E+01 3.61522E-01-1.85466E-03-3.34193E-02-3.42549E-14-1.39135E-13
 -1      4261 2.04163E+01 3.18037E-01-4.03960E-04 1.86126E-02-6.12334E-15-7.12281E-14
 -1      4262 2.04016E+01 2.38978E-01 1.25716E-04 3.61711E-02 1.74177E-15-4.80305E-14
 -1      4263 2.03999E+01 2.19052E-01 2.13656E-04 2.04008E-02-1.19800E-14-5.67097E-14
 -1      4264 2.04247E+01 3.48381E-01 4.89025E-04 8.92151E-03-7.68311E-15-6.50488E-14
 -1      4265 1.16416E+01-6.78285E-01-7.52761E-01-1.93481E+00 5.66713E-13 8.11351E-13
 -1      4266 1.21335E+01-8.05444E-01-9.38251E-01-1.99215E+00 3.53814E-13 1.23440E-12
 -1      4267 1.17623E+01-1.55954E+00-2.05620E+00-1.99903E+00-1.40998E-13 1.74971E-12
 -1      4268 1.13283E+01-1.16026E+00-1.20705E+00-2.22487E+00 1.07214E-12 1.48004E-12
 -1      4269 2.03153E+01 8.16636E-02 4.31850E-04 4.23941E-03 5.65837E-15-1.72880E-13
 -1      4270 2.02801E+01 6.94793E-02-1.47323E-05 9.32406E-03 1.82907E-14-1.59877E-13
 -1      4271 2.00580E+01 1.43198E-01-6.06682E-04-2.26145E-02 1.47418E-14-2.44646E-13
 -1      4272 2.00081E+01 1.77726E-01-5.83849E-04-2.09685E-02 1.27647E-14-2.24441E-13
 -1      4273 1.99551E+01 2.16582E-01-1.10138E-03-2.76055E-02 6.53245E-16-2.09018E-13
 -1      4274 1.98978E+01 2.61155E-01-1.15222E-03-2.59869E-02 9.44634E-15-1.27189E-13
 -1      4275 1.98363E+01 3.08503E-01-1.73089E-03-3.49141E-02-4.10125E-14-1.62703E-13
 -1      4276 1.96162E+01 4.75458E-01-2.72830E-03-4.43712E-02-8.79991E-14-2.04896E-13
 -1      4277 1.95292E+01 5.34310E-01-3.43344E-03-6.05623E-02-6.72799E-14-1.33555E-13
 -1      4278 1.92068E+01 7.26706E-01-5.27497E-03-8.33982E-02-1.65400E-15-1.08550E-13
 -1      4279 1.90789E+01 7.86210E-01-6.04522E-03-1.12554E-01-4.62728E-14-3.41514E-14
 -1      4280 1.89308E+01 8.51440E-01-7.21033E-03-1.16522E-01-7.50596E-14-4.21294E-14
 -1      4281 1.72994E+01-5.11303E-01-8.39412E-01-8.38780E-01 3.99958E-14 2.56128E-13
 -1      4282 1.61893E+01-1.46103E+00-6.62125E-01-1.33307E+00 1.92901E-13 2.95014E-13
 -1      4283 1.61115E+01-2.06030E+00-6.90060E-01-1.45051E+00 4.98157E-13 1.79745E-13
 -1      4284 1.65007E+01-2.07672E+00-3.70031E-01-1.45339E+00 7.85871E-13-5.82173E-15
 -1      4285 1.64813E+01-2.01069E+00-3.02919E-01-1.63497E+00 1.00941E-12 4.24660E-15
 -1      4286 1.66695E+01-1.75123E+00-1.15773E-01-1.69812E+00 1.29763E-12-3.80695E-13
 -1      4287 1.13206E+01-1.51417E+00-1.41494E+00-2.44767E+00 2.45071E-12 1.85030E-12
 -1      4288 2.01542E+01 8.75555E-02-5.98277E-05-8.00645E-02-3.33445E-14-2.12780E-13
 -1      4289 2.01697E+01 7.19619E-02 1.43750E-04-1.11247E-01-5.67696E-14-1.74077E-13
 -1      4290 2.02051E+01 6.10190E-02 1.13857E-06-1.03298E-01-6.16035E-14-1.61323E-13
 -1      4291 1.69485E+01 1.02711E+00-7.41620E-03 9.39743E-01-3.32440E-13-5.04553E-14
 -1      4292 1.66005E+01 1.16488E+00 4.31123E-03 6.16505E-01-4.10113E-13-3.45215E-13
 -1      4293 1.67676E+01 1.18916E+00-7.76672E-03 3.31309E-01-4.15458E-13-2.82834E-13
 -1      4294 2.01490E+01 9.20866E-02-2.81158E-04-1.92598E-02-2.55542E-14-1.94718E-13
 -1      4295 2.01047E+01 1.14683E-01-1.36143E-04-1.74961E-02-2.63747E-14-2.16388E-13
 -1      4296 2.02296E+01 6.80712E-02-4.88354E-05-1.72158E-02 8.10093E-15-1.79358E-13
 -1      4297 2.01906E+01 7.63123E-02 1.76459E-04-1.47845E-02-1.77094E-14-1.86476E-13
 -1      4298 1.70863E+01-9.34040E-01 1.59090E-01-1.62904E+00 9.25621E-13-1.02172E-12
 -1      4299 1.72871E+01 1.05791E+00-1.81691E-02 7.77339E-01-3.00860E-13 1.86768E-13
 -1      4300 1.77020E+01 1.04268E+00-1.71930E-03 7.11734E-01-1.99097E-13 1.81258E-13
 -1      4301 2.04237E+01 3.00193E-01 1.22400E-04 2.12486E-03-2.00196E-14-1.09896E-13
 -1      4302 2.03899E+01 1.78035E-01 1.05112E-03-2.83932E-03-1.00111E-14-8.92949E-14
 -1      4303 2.03616E+01 1.31200E-01-6.39756E-04-7.24949E-04-3.54155E-16-1.02034E-13
 -1      4304 2.02457E+01 6.99664E-02-3.39720E-04-4.75160E-02 8.94301E-15-1.52862E-13
 -1      4305 1.41578E+01-1.24431E+00-1.19935E+00-1.96992E+00 1.76281E-12 5.30576E-13
 -1      4306 2.02422E+01 5.87697E-02-2.50999E-04-1.25392E-01-4.89598E-14-1.61160E-13
 -1      4307 2.03454E+01 1.19855E-01-2.73963E-04-2.86455E-02-4.51614E-14-9.52718E-14
 -1      4308 2.03198E+01 9.16993E-02-1.97003E-04-6.20974E-02-1.98060E-14-9.40551E-14
 -1      4309 2.04060E+01 2.24516E-01-5.87913E-04-5.75957E-03-1.32098E-14-7.41072E-14
 -1      4310 2.02574E+01 6.26933E-02-2.27346E-04-7.74107E-02-2.94414E-14-1.16123E-13
 -1      4311 2.02905E+01 7.34068E-02 9.24195E-04-7.14863E-02-1.18178E-14-7.60212E-14
 -1      4312 1.72214E+01 1.19857E+00 8.39746E-04 2.99607E-01-4.10571E-13-1.46699E-13
 -1      4313 1.74004E+01 1.10550E+00-1.79188E-02 5.09169E-01-2.19770E-13 1.22558E-13
 -3
    1PSTEP                         3           1           1          
  100CL  101 1.000000000        4313                     0    1           1
 -4  TOSTRAIN    6    1
 -5  EXX         1    4    1    1
 -5  EYY         1    4    2    2
 -5  EZZ         1    4    3    3
 -5  EXY         1    4    1    2
 -5  EYZ         1    4    2    3
 -5  EZX         1    4    3    1
 -1         1 3.66033E-05 2.04976E-05-2.63273E-05 5.16684E-05-7.84522E-18-8.17556E-18
 -1         2 3.44783E-05-1.04244E-04 1.81905E-05-4.79687E-07 2.00772E-18 9.29619E-20
 -1         3 9.51784E-05-2.86336E-05-2.84354E-05-5.16940E-08-3.04147E-18-2.94044E-18
 -1         4 9.51744E-05-2.86359E-05-2.84244E-05 5.14252E-08 8.60107E-19 7.20853E-19
 -1         5 1.43290E-04-2.14714E-05-4.25087E-05 3.85240E-05-1.61995E-19 1.10317E-17
 -1         6 1.45355E-04 2.57424E-10-4.41677E-05-5.35168E-05-6.31463E-19 1.28478E-17
 -1         7 9.05653E-05-5.09663E-07-3.90516E-05-2.92584E-05-9.39148E-20 3.27286E-18
 -1         8 8.50977E-05 8.66045E-08-3.63277E-05-2.02854E-05-1.50878E-19 5.74742E-20
 -1         9 8.28014E-05 7.64726E-08-3.53454E-05-1.56564E-05-1.45491E-19-1.85791E-18
 -1        10 8.17760E-05 3.89317E-08-3.48827E-05-1.20956E-05-1.13588E-19-2.81487E-18
 -1        11 8.12694E-05 1.88307E-08-3.46596E-05-9.02759E-06-8.70823E-20-3.29732E-18
 -1        12 8.10088E-05 8.79452E-09-3.45489E-05-6.29481E-06-5.22398E-20-3.57954E-18
 -1        13 8.08738E-05 4.20173E-09-3.44937E-05-3.69216E-06-4.67886E-20-3.70443E-18
 -1        14 8.08180E-05 2.30509E-09-3.44715E-05-1.18588E-06-8.52554E-21-3.77163E-18
 -1        15 8.08200E-05 2.28999E-09-3.44723E-05 1.29118E-06 2.53655E-21-3.83138E-18
 -1        16 8.08802E-05 4.09748E-09-3.44959E-05 3.80260E-06 2.38302E-20-3.82632E-18
 -1        17 8.10202E-05 8.02039E-09-3.45523E-05 6.41758E-06 2.53944E-20-3.74613E-18
 -1        18 8.12855E-05 1.78455E-08-3.46641E-05 9.16998E-06 6.29749E-20-3.51584E-18
 -1        19 8.17997E-05 3.79785E-08-3.48907E-05 1.22744E-05 8.62187E-20-3.15838E-18
 -1        20 8.28237E-05 8.14993E-08-3.53583E-05 1.58874E-05 1.30417E-19-2.43721E-18
 -1        21 8.50623E-05 1.69810E-07-3.63660E-05 2.04962E-05 1.47701E-19-8.75508E-19
 -1        22 9.16032E-05-9.84010E-08-3.87231E-05 2.80050E-05 4.18223E-20 2.56092E-18
 -1        23 1.12910E-04-3.81045E-05-3.53778E-05-4.40479E-06-3.57474E-19 1.06532E-17
 -1        24 9.27347E-05-2.76761E-05-2.89782E-05 3.90571E-07-1.21956E-19 8.61716E-18
 -1        25 8.90406E-05-2.68286E-05-2.69056E-05 3.75251E-07 6.18235E-21 6.37834E-18
 -1        26 8.79280E-05-2.64622E-05-2.63654E-05 2.03286E-07-8.23922E-20 4.67088E-18
 -1        27 8.79458E-05-2.64380E-05-2.63549E-05 1.38945E-07-4.40635E-20 3.52752E-18
 -1        28 8.84726E-05-2.65725E-05-2.65224E-05 9.97004E-08-1.98608E-20 2.87187E-18
 -1        29 8.92243E-05-2.67843E-05-2.67541E-05 7.37260E-08-3.97947E-20 2.43746E-18
 -1        30 9.00527E-05-2.70254E-05-2.70054E-05 5.51368E-08-2.06563E-20 1.77911E-18
 -1        31 9.08778E-05-2.72687E-05-2.72545E-05 4.11219E-08 1.64583E-19 1.39337E-18
 -1        32 9.16599E-05-2.75011E-05-2.74905E-05 3.02812E-08-4.22706E-19 9.23067E-20
 -1        33 9.23850E-05-2.77175E-05-2.77095E-05 2.18689E-08 1.46938E-19-3.54489E-19
 -1        34 9.30576E-05-2.79190E-05-2.79130E-05 1.54661E-08-4.03939E-20-1.28780E-19
 -1        35 9.36962E-05-2.81109E-05-2.81065E-05 1.08461E-08-1.04613E-19-9.71888E-20
 -1        36 9.43302E-05-2.83018E-05-2.82989E-05 7.92469E-09 9.58483E-20 2.99934E-19
 -1        37 9.49989E-05-2.85035E-05-2.85020E-05 6.75165E-09-2.28814E-19 3.93252E-19
 -1        38 9.57510E-05-2.87305E-05-2.87306E-05 7.52201E-09-2.28892E-19 6.34369E-20
 -1        39 9.66442E-05-2.90000E-05-2.90021E-05 1.05999E-08-1.65137E-19-5.78345E-19
 -1        40 9.77458E-05-2.93319E-05-2.93367E-05 1.65454E-08 8.08811E-20-1.13665E-18
 -1        41 9.91307E-05-2.97487E-05-2.97570E-05 2.61286E-08 1.62106E-19-1.19037E-18
 -1        42 5.82008E-05-2.75003E-05-2.81274E-05 1.82328E-05-8.77928E-18 1.90421E-17
 -1        43 5.25777E-05-1.32171E-05-1.62252E-05-8.60525E-07 5.56336E-19 2.62281E-17
 -1        44 6.59219E-05-1.96707E-05-1.99001E-05-2.78375E-07 2.75266E-19 2.84198E-17
 -1        45 8.21643E-05-2.43144E-05-2.80296E-05 8.33993E-07 3.39409E-20 2.42990E-17
 -1        46 1.35708E-04-3.78333E-05-4.15836E-05 2.46561E-05 1.57367E-17 7.99959E-18
 -1        47-6.60602E-06 2.01923E-05-3.45019E-05 1.93834E-04-3.71840E-16 1.00693E-16
 -1        48 3.43971E-05-3.07513E-05 1.64243E-05 3.62325E-05 2.54186E-17 3.42350E-17
 -1        49 7.63708E-05-2.80556E-05-5.42348E-06-1.48214E-06-1.01559E-18 2.04207E-17
 -1        50 9.34473E-05-2.97800E-05-2.31600E-05 5.64401E-07 2.68351E-19 9.45998E-18
 -1        51 1.04024E-04-3.14442E-05-2.99729E-05 1.22014E-07 1.62223E-19 7.22691E-18
 -1        52 1.05155E-04-3.14944E-05-3.11384E-05-5.43066E-07-7.49492E-20 5.13876E-18
 -1        53 9.95278E-05-2.97992E-05-2.98422E-05-8.39430E-07-5.81764E-20 2.35880E-18
 -1        54 9.23397E-05-2.76558E-05-2.80375E-05-6.54854E-07 2.98879E-19 1.03597E-18
 -1        55 8.87588E-05-2.65911E-05-2.71409E-05-8.51206E-08-6.40655E-19 5.37740E-19
 -1        56 9.13914E-05-2.74023E-05-2.78161E-05 5.14391E-07-3.49954E-19-7.52430E-19
 -1        57 9.90624E-05-2.97239E-05-2.98248E-05 8.01029E-07 6.67291E-20-2.47095E-19
 -1        58 1.08197E-04-3.24684E-05-3.23017E-05 7.10918E-07 4.00752E-19-7.22890E-20
 -1        59 1.15417E-04-3.46220E-05-3.43592E-05 4.21990E-07-4.05595E-19-6.01499E-19
 -1        60 1.19130E-04-3.57210E-05-3.54996E-05 1.35233E-07-1.44118E-19 1.08387E-19
 -1        61 1.19468E-04-3.58158E-05-3.56851E-05-5.28630E-08 2.64986E-19-5.06437E-19
 -1        62 1.17425E-04-3.52059E-05-3.51543E-05-1.39500E-07-3.35083E-19-2.11641E-18
 -1        63 1.14103E-04-3.42177E-05-3.42141E-05-1.58683E-07 1.44648E-19-4.73480E-18
 -1        64 1.10350E-04-3.31010E-05-3.31184E-05-1.44388E-07-2.28682E-19-3.39546E-18
 -1        65 1.06694E-04-3.20118E-05-3.20338E-05-1.18932E-07-3.43090E-19-5.54476E-19
 -1        66 1.03408E-04-3.10313E-05-3.10507E-05-9.35631E-08 5.48161E-19 5.14870E-20
 -1        67 1.00608E-04-3.01947E-05-3.02105E-05-7.21324E-08-3.04192E-19 2.13907E-18
 -1        68 9.83374E-05-2.95144E-05-2.95305E-05-5.37918E-08 6.79966E-19 2.79448E-18
 -1        69 9.66233E-05-2.89991E-05-2.90218E-05-3.34982E-08 1.46533E-19 4.80354E-18
 -1        70 9.55244E-05-2.86644E-05-2.86962E-05 3.56730E-09-2.74831E-19 6.19869E-18
 -1        71 9.51168E-05-2.85278E-05-2.85417E-05 5.42284E-08-5.79724E-19 3.75166E-18
 -1        72 1.02117E-04-3.05688E-05-3.41308E-05-1.92663E-06 2.46831E-19 9.59180E-18
 -1        73 9.24905E-05-2.74920E-05-2.88863E-05-3.32635E-07 7.17596E-20 6.58225E-18
 -1        74 8.90276E-05-2.66778E-05-2.69487E-05-1.25417E-07 8.97706E-20 4.32063E-18
 -1        75 8.79580E-05-2.64130E-05-2.64093E-05-9.49193E-08 2.12213E-20 2.72080E-18
 -1        76 8.79807E-05-2.64180E-05-2.63816E-05-7.56518E-08 1.10244E-19 1.43442E-18
 -1        77 8.85067E-05-2.65668E-05-2.65396E-05-6.12482E-08-1.02810E-20 9.20910E-19
 -1        78 8.92559E-05-2.67856E-05-2.67666E-05-5.00398E-08-1.57320E-19 1.58509E-18
 -1        79 9.00812E-05-2.70299E-05-2.70152E-05-4.06292E-08 1.05028E-19 1.18550E-18
 -1        80 9.09033E-05-2.72748E-05-2.72624E-05-3.23726E-08-2.33678E-19 2.26580E-19
 -1        81 9.16825E-05-2.75077E-05-2.74971E-05-2.50125E-08 1.39880E-19-2.28421E-19
 -1        82 9.24052E-05-2.77240E-05-2.77152E-05-1.84548E-08 1.66764E-19-9.84883E-19
 -1        83 9.30759E-05-2.79250E-05-2.79181E-05-1.26696E-08 4.68450E-20-1.71851E-18
 -1        84 9.37125E-05-2.81160E-05-2.81112E-05-7.66718E-09-3.77889E-20-2.07901E-18
 -1        85 9.43435E-05-2.83055E-05-2.83029E-05-3.50299E-09 2.25807E-19-2.41395E-18
 -1        86 9.50064E-05-2.85046E-05-2.85047E-05-3.00619E-10 1.43160E-20-2.74495E-18
 -1        87 9.57463E-05-2.87268E-05-2.87299E-05 1.71279E-09-2.17526E-19-2.11072E-18
 -1        88 9.66149E-05-2.89875E-05-2.89941E-05 2.16210E-09-3.96276E-20-1.46922E-18
 -1        89 9.76689E-05-2.93035E-05-2.93143E-05 4.73633E-10 1.39168E-19-2.72552E-18
 -1        90 9.89667E-05-2.96922E-05-2.97078E-05-4.17055E-09 2.56365E-19-3.91472E-18
 -1        91 1.00562E-04-3.01693E-05-3.01900E-05-1.28435E-08-9.25359E-20-3.69495E-18
 -1        92 1.02492E-04-3.07458E-05-3.07711E-05-2.67790E-08-2.39325E-19-1.70248E-18
 -1        93 1.04758E-04-3.14222E-05-3.14497E-05-4.70307E-08 3.98407E-19-1.56800E-18
 -1        94 1.07299E-04-3.21797E-05-3.22038E-05-7.36388E-08-2.02465E-20-5.24542E-18
 -1        95 1.09943E-04-3.29684E-05-3.29776E-05-1.03972E-07 6.38170E-20-5.51361E-18
 -1        96 1.12363E-04-3.36923E-05-3.36683E-05-1.30041E-07 1.17778E-19-5.35570E-18
 -1        97 1.14037E-04-3.41985E-05-3.41178E-05-1.35370E-07 1.66020E-19-5.29831E-18
 -1        98 1.14265E-04-3.42807E-05-3.41241E-05-9.43740E-08-3.15731E-19-4.64576E-18
 -1        99 1.30872E-04-3.64672E-05-3.43221E-05 7.74568E-06 2.72639E-21-3.47104E-18
 -1       100 1.23457E-04-3.75996E-05-3.66855E-05-5.11062E-08-1.04916E-19-3.28209E-18
 -1       101 1.11634E-04-3.34893E-05-3.37355E-05 4.36597E-07 2.39393E-19-2.64319E-18
 -1       102 1.01434E-04-3.04134E-05-3.07093E-05 5.68565E-07-3.44638E-19-3.50550E-18
 -1       103 9.38458E-05-2.81214E-05-2.85044E-05 4.81989E-07 2.24924E-19-2.22328E-18
 -1       104 9.05599E-05-2.71040E-05-2.75520E-05 2.07953E-07-8.17337E-20 2.42413E-18
 -1       105 9.21347E-05-2.75702E-05-2.79298E-05-1.38068E-07 1.26560E-19 3.33989E-18
 -1       106 9.73748E-05-2.91688E-05-2.93156E-05-3.89144E-07 2.17810E-19 2.92168E-18
 -1       107 1.03933E-04-3.11740E-05-3.11024E-05-4.58448E-07-1.47141E-19 4.72380E-19
 -1       108 1.09565E-04-3.28896E-05-3.26925E-05-3.76746E-07 9.17658E-20-1.11336E-18
 -1       109 1.12997E-04-3.39266E-05-3.37104E-05-2.30032E-07 6.36984E-19 7.52668E-20
 -1       110 1.14020E-04-3.42288E-05-3.40593E-05-9.11402E-08-1.24820E-19-1.11940E-18
 -1       111 1.13105E-04-3.39457E-05-3.38421E-05 6.85770E-09 3.45162E-19 1.46877E-18
 -1       112 1.10950E-04-3.32919E-05-3.32447E-05 6.17178E-08 1.97076E-22-7.00496E-19
 -1       113 1.08189E-04-3.24596E-05-3.24501E-05 8.45526E-08 5.86484E-19-4.06099E-18
 -1       114 1.05288E-04-3.15877E-05-3.15986E-05 8.83546E-08-6.91492E-19-2.73140E-18
 -1       115 1.02536E-04-3.07621E-05-3.07819E-05 8.31813E-08 1.68180E-19 1.39727E-19
 -1       116 1.00094E-04-3.00304E-05-3.00540E-05 7.51307E-08 2.39209E-19-1.13737E-18
 -1       117 9.80557E-05-2.94189E-05-2.94470E-05 6.66274E-08 2.33319E-19-4.59236E-18
 -1       118 9.64887E-05-2.89472E-05-2.89845E-05 5.61279E-08 1.69600E-19-6.51440E-18
 -1       119 9.54816E-05-2.86413E-05-2.86866E-05 3.09878E-08-2.23546E-19-8.93666E-18
 -1       120 9.51272E-05-2.85195E-05-2.85453E-05-3.34482E-08 1.44829E-18-7.81593E-18
 -1       121 9.52612E-05-2.86485E-05-2.85503E-05-5.50940E-08-6.17064E-18 1.45106E-18
 -1       122 9.51467E-05-2.82798E-05-2.86962E-05 1.09221E-08-2.57972E-18 6.41474E-20
 -1       123 9.48540E-05-2.73013E-05-2.89792E-05 4.91293E-08-1.26500E-18 3.70860E-19
 -1       124 9.44517E-05-2.59547E-05-2.93656E-05 6.45614E-08-1.73682E-18 1.01995E-18
 -1       125 9.40159E-05-2.44909E-05-2.97895E-05 6.46692E-08 3.86429E-18-3.10649E-19
 -1       126 9.36211E-05-2.31606E-05-3.01770E-05 5.52335E-08 3.27458E-18 5.57125E-19
 -1       127 9.33103E-05-2.21148E-05-3.04823E-05 3.76783E-08 8.49101E-18 1.10546E-18
 -1       128 9.31353E-05-2.15253E-05-3.06543E-05 1.48665E-08 8.97124E-18-9.25355E-19
 -1       129 9.31213E-05-2.14780E-05-3.06676E-05-1.03466E-08 6.98311E-18 2.20783E-19
 -1       130 9.32724E-05-2.19865E-05-3.05185E-05-3.47527E-08 4.72804E-18-1.27485E-18
 -1       131 9.35694E-05-2.29869E-05-3.02262E-05-5.56263E-08-6.50697E-18-8.05011E-19
 -1       132 9.39652E-05-2.43186E-05-2.98386E-05-6.74473E-08-8.15528E-18 2.26160E-18
 -1       133 9.44137E-05-2.58253E-05-2.94033E-05-6.90223E-08-3.51266E-18 1.05429E-18
 -1       134 9.48335E-05-2.72386E-05-2.89999E-05-5.88357E-08-3.08205E-18-8.85545E-19
 -1       135 9.51419E-05-2.82564E-05-2.87016E-05-1.84008E-08-3.63619E-18 1.35809E-19
 -1       136 9.52361E-05-2.86337E-05-2.85447E-05 1.02494E-07-3.91504E-18-2.84275E-19
 -1       137 2.40974E-05-8.13202E-05 1.39030E-05-2.23319E-05 5.88667E-18 8.86102E-19
 -1       138 6.37069E-06-2.68889E-05 1.33771E-06-1.48027E-05 5.44346E-18 2.26539E-18
 -1       139 1.51159E-05 1.90968E-05-1.75087E-05 3.08681E-05 3.30597E-18 2.46698E-18
 -1       140 6.43682E-05 2.55966E-05-3.65551E-05 8.20832E-05 1.21422E-18 1.40099E-18
 -1       141 1.51056E-04-7.92084E-06-5.46759E-05 1.09297E-04-3.80106E-19 6.35275E-20
 -1       142 2.40539E-04-5.75553E-05-6.82215E-05 8.77422E-05-6.29504E-19-1.71291E-18
 -1       143 2.91453E-04-8.95601E-05-7.47806E-05 1.81200E-05 5.49274E-19-5.07595E-18
 -1       144 2.68463E-04-7.58574E-05-7.19141E-05-6.11708E-05 2.07028E-18-1.05739E-17
 -1       145 1.88066E-04-2.85245E-05-6.08898E-05-1.04639E-04 6.24274E-18-1.45635E-17
 -1       146 8.84950E-05 1.88171E-05-4.31784E-05-9.48178E-05 1.02737E-17-1.42340E-17
 -1       147 2.52655E-05 2.78325E-05-2.43075E-05-4.89902E-05 1.33331E-17-1.05477E-17
 -1       148 3.73192E-06-4.86045E-06-4.90323E-06 6.83208E-07 6.98336E-18-5.08855E-18
 -1       149 1.48410E-05-5.18761E-05 8.04341E-06 1.78569E-05-1.94585E-18 8.00023E-19
 -1       150 2.83492E-05-8.63946E-05 1.54235E-05 5.51760E-06-6.18048E-18 5.26047E-19
 -1       151 2.68394E-05-8.71394E-05 1.55970E-05-1.88535E-05-8.44862E-18-1.30251E-18
 -1       152 1.11579E-05-5.24705E-05 8.06952E-06-2.76577E-05-1.13773E-17-4.58022E-18
 -1       153 4.72221E-06-5.20362E-06-6.70697E-06-1.33645E-06-1.20732E-17-8.14782E-18
 -1       154 1.17624E-04 2.41604E-06-4.71983E-05 9.68717E-05-3.80275E-18-5.76872E-18
 -1       155 2.23481E-04-4.75986E-05-6.56638E-05 9.67185E-05-9.73029E-19-3.70662E-18
 -1       156 2.95145E-04-8.84038E-05-7.58599E-05 4.12856E-05-8.21423E-20-8.02987E-19
 -1       157 3.00921E-04-9.03258E-05-7.72908E-05-4.08117E-05-4.50860E-19 9.10455E-19
 -1       158 2.39113E-04-5.19148E-05-6.96799E-05-1.02186E-04-1.21168E-18 4.91830E-18
 -1       159 1.42186E-04 1.42438E-07-5.47024E-05-1.14313E-04-4.46958E-18 6.85207E-18
 -1       160 5.67177E-05 2.87978E-05-3.55370E-05-7.85990E-05-5.30285E-18 5.72552E-18
 -1       161 1.04618E-05 1.46691E-05-1.48010E-05-2.20614E-05-2.41362E-18 1.44165E-18
 -1       162 7.82095E-06-3.20396E-05 2.25073E-06 1.69068E-05-8.63847E-18 3.03534E-18
 -1       163 2.51402E-05-8.33551E-05 1.41082E-05 2.18476E-05-5.58174E-18 2.34475E-18
 -1       164 9.48281E-05-1.23371E-05-3.55563E-05-2.23603E-05-1.70475E-18 1.36428E-18
 -1       165 8.92287E-05-8.45433E-06-3.47796E-05-1.74027E-05-1.72750E-18-6.38186E-19
 -1       166 8.65341E-05-6.49813E-06-3.44133E-05-1.36015E-05-1.52558E-18-1.88920E-18
 -1       167 8.52064E-05-5.52086E-06-3.42352E-05-1.03791E-05-1.24938E-18-2.56215E-18
 -1       168 8.44700E-05-4.94765E-06-3.41503E-05-7.55586E-06-9.12537E-19-2.83863E-18
 -1       169 8.40524E-05-4.60468E-06-3.41107E-05-4.91035E-06-6.63190E-19-3.04639E-18
 -1       170 8.38396E-05-4.42100E-06-3.40946E-05-2.39847E-06-3.34798E-19-3.10830E-18
 -1       171 8.37769E-05-4.36534E-06-3.40906E-05 5.12403E-08-9.52362E-20-3.15317E-18
 -1       172 8.38494E-05-4.42935E-06-3.40954E-05 2.50297E-06 1.82705E-19-3.17825E-18
 -1       173 8.40742E-05-4.62402E-06-3.41120E-05 5.02115E-06 3.97983E-19-3.21440E-18
 -1       174 8.44984E-05-4.97619E-06-3.41506E-05 7.63327E-06 6.62568E-19-3.02818E-18
 -1       175 8.52622E-05-5.57705E-06-3.42357E-05 1.05247E-05 1.09405E-18-2.76412E-18
 -1       176 8.66429E-05-6.60854E-06-3.44166E-05 1.37969E-05 1.45062E-18-2.30220E-18
 -1       177 8.93701E-05-8.59607E-06-3.47844E-05 1.76359E-05 1.74732E-18-1.29695E-18
 -1       178 9.57391E-05-1.36039E-05-3.54123E-05 2.19040E-05 1.84198E-18 7.06108E-19
 -1       179 1.05550E-04-2.60851E-05-3.52465E-05 1.86703E-05 1.51250E-18 3.48422E-18
 -1       180 1.03344E-04-2.72849E-05-3.25946E-05-1.21351E-05-1.41433E-18 3.71435E-18
 -1       181 9.70516E-05-2.82733E-05-2.95118E-05-4.73986E-06-1.33410E-18 2.93880E-18
 -1       182 9.34458E-05-2.76184E-05-2.81637E-05-1.77819E-06-1.08826E-18 2.19616E-18
 -1       183 9.19066E-05-2.73857E-05-2.76163E-05-4.29182E-07-7.57899E-19 1.43319E-18
 -1       184 9.13292E-05-2.73099E-05-2.74185E-05 2.37543E-07-4.49027E-19 1.16528E-18
 -1       185 9.12896E-05-2.73487E-05-2.73945E-05 5.68055E-07-3.78291E-19 9.98678E-19
 -1       186 9.15419E-05-2.74529E-05-2.74625E-05 7.15120E-07-3.24670E-19 8.82446E-19
 -1       187 9.19445E-05-2.75893E-05-2.75787E-05 7.59564E-07-3.41781E-19 7.07717E-19
 -1       188 9.24157E-05-2.77378E-05-2.77181E-05 7.49423E-07-5.82056E-19 4.96646E-19
 -1       189 9.29109E-05-2.78877E-05-2.78666E-05 7.15900E-07-4.61264E-19 3.58850E-19
 -1       190 9.34101E-05-2.80344E-05-2.80178E-05 6.80680E-07-4.45944E-19-7.32441E-19
 -1       191 9.39105E-05-2.81783E-05-2.81705E-05 6.59803E-07-1.48396E-19-1.22187E-18
 -1       192 9.44224E-05-2.83228E-05-2.83277E-05 6.65956E-07 9.83415E-20-1.03934E-18
 -1       193 9.49663E-05-2.84743E-05-2.84954E-05 7.09964E-07 1.10455E-20-4.62593E-19
 -1       194 9.55712E-05-2.86417E-05-2.86824E-05 8.01720E-07-1.69405E-19 1.50778E-19
 -1       195 9.62736E-05-2.88358E-05-2.88996E-05 9.50639E-07-5.42255E-19-2.91125E-20
 -1       196 9.71163E-05-2.90696E-05-2.91598E-05 1.16552E-06-4.61754E-19-3.21500E-19
 -1       197 9.81472E-05-2.93581E-05-2.94774E-05 1.45354E-06-4.67951E-19-1.24002E-18
 -1       198 9.22144E-05-2.97176E-05-2.98228E-05 1.65645E-06-7.83495E-19-1.01856E-19
 -1       199 6.08986E-05-2.79939E-05-1.74269E-05 1.61535E-05 3.32725E-18 2.19515E-17
 -1       200 5.35806E-05-1.70380E-05-1.58332E-05 1.09090E-05 1.94016E-18 2.76410E-17
 -1       201 5.74022E-05-1.43720E-05-1.87266E-05 1.35491E-05-1.79572E-18 2.92901E-17
 -1       202 5.65399E-05-5.03354E-06-2.38808E-05 2.69695E-05-1.02562E-17 2.90837E-17
 -1       203-6.05601E-06 3.76473E-05-2.68193E-05-2.16620E-05-1.18002E-17 6.94652E-17
 -1       204 1.52567E-04-1.34516E-04-1.61677E-05-7.56785E-06 5.03646E-17 1.92615E-17
 -1       205 7.28478E-05-3.27157E-05-6.42830E-06 2.69187E-05-2.07125E-17 3.80995E-18
 -1       206 9.09790E-05-2.99460E-05-2.23509E-05 1.98755E-05-4.86440E-18 2.64423E-18
 -1       207 1.04712E-04-3.43999E-05-2.94459E-05 1.04909E-05-9.46798E-19 1.73225E-18
 -1       208 1.09036E-04-3.50741E-05-3.17141E-05 1.29688E-06-9.60284E-19 2.59044E-18
 -1       209 1.08067E-04-3.35671E-05-3.19990E-05-4.91377E-06-1.40857E-18 2.20210E-18
 -1       210 1.04496E-04-3.09815E-05-3.15500E-05-6.44927E-06-1.09767E-18 1.67588E-18
 -1       211 1.01332E-04-2.88420E-05-3.10929E-05-3.24112E-06-6.09156E-19 4.95015E-19
 -1       212 1.01030E-04-2.85740E-05-3.10701E-05 2.39457E-06-4.81578E-19 1.53614E-19
 -1       213 1.03976E-04-3.02689E-05-3.15956E-05 6.93293E-06 1.09869E-19 4.22444E-19
 -1       214 1.08531E-04-3.27277E-05-3.24835E-05 8.15949E-06-1.58306E-19-8.99390E-19
 -1       215 1.12557E-04-3.46288E-05-3.33978E-05 6.31841E-06-8.31317E-19-1.68183E-18
 -1       216 1.14783E-04-3.54308E-05-3.40171E-05 3.07386E-06 3.23007E-19-2.46074E-18
 -1       217 1.15017E-04-3.52841E-05-3.41859E-05-2.03926E-08 3.85499E-20-5.07952E-19
 -1       218 1.13693E-04-3.45729E-05-3.39233E-05-2.20263E-06-6.18308E-19-9.21691E-19
 -1       219 1.11414E-04-3.36223E-05-3.33501E-05-3.38053E-06-1.64176E-18-1.79477E-19
 -1       220 1.08708E-04-3.26332E-05-3.26093E-05-3.77864E-06-3.18511E-19-1.94178E-18
 -1       221 1.05951E-04-3.17080E-05-3.18197E-05-3.68250E-06 1.36139E-18-3.35788E-18
 -1       222 1.03372E-04-3.08897E-05-3.10618E-05-3.32189E-06 1.03996E-18-1.65555E-18
 -1       223 1.01093E-04-3.01902E-05-3.03826E-05-2.84320E-06 1.67055E-18-1.53164E-18
 -1       224 9.91691E-05-2.96073E-05-2.98068E-05-2.31946E-06 1.31918E-18 9.91318E-19
 -1       225 9.76211E-05-2.91337E-05-2.93464E-05-1.76889E-06 6.06119E-19 6.52400E-19
 -1       226 9.64576E-05-2.87638E-05-2.90068E-05-1.17693E-06 5.50858E-19-7.33276E-19
 -1       227 9.56522E-05-2.84971E-05-2.87773E-05-5.37231E-07-1.00556E-18 5.26196E-19
 -1       228 9.94436E-05-2.85372E-05-3.05701E-05 7.21926E-06 1.36839E-18 2.83531E-18
 -1       229 9.43543E-05-2.77721E-05-2.85058E-05 2.75154E-06 1.18598E-18 1.78829E-18
 -1       230 9.20296E-05-2.73809E-05-2.76615E-05 9.37181E-07 8.36286E-19 9.15990E-19
 -1       231 9.10774E-05-2.72170E-05-2.73417E-05 7.39909E-08 6.67442E-19 3.91407E-19
 -1       232 9.08648E-05-2.72093E-05-2.72673E-05-3.56605E-07 1.21595E-19 2.25324E-19
 -1       233 9.10524E-05-2.72958E-05-2.73174E-05-5.62456E-07-2.60541E-19-4.96515E-20
 -1       234 9.14478E-05-2.74315E-05-2.74318E-05-6.44009E-07 3.34169E-19-9.35868E-20
 -1       235 9.19406E-05-2.75884E-05-2.75773E-05-6.56826E-07 4.68452E-19-3.13213E-19
 -1       236 9.24687E-05-2.77506E-05-2.77350E-05-6.35065E-07 3.58701E-19-8.99179E-19
 -1       237 9.30010E-05-2.79102E-05-2.78952E-05-6.01447E-07 2.51455E-19-7.35431E-19
 -1       238 9.35268E-05-2.80651E-05-2.80544E-05-5.72009E-07 5.20725E-19-6.01480E-19
 -1       239 9.40507E-05-2.82172E-05-2.82138E-05-5.58711E-07 3.93111E-19-9.63631E-19
 -1       240 9.45885E-05-2.83718E-05-2.83780E-05-5.70965E-07 2.21661E-19-1.30757E-18
 -1       241 9.51646E-05-2.85362E-05-2.85543E-05-6.16554E-07-3.07435E-20-1.37337E-18
 -1       242 9.58106E-05-2.87202E-05-2.87521E-05-7.02037E-07-2.78308E-19-1.31993E-18
 -1       243 9.65633E-05-2.89352E-05-2.89824E-05-8.32647E-07-1.24797E-19-1.50689E-18
 -1       244 9.74628E-05-2.91935E-05-2.92571E-05-1.01152E-06 7.42586E-19-1.56388E-18
 -1       245 9.85495E-05-2.95085E-05-2.95880E-05-1.23800E-06 6.86626E-19-1.96564E-18
 -1       246 9.98588E-05-2.98925E-05-2.99848E-05-1.50463E-06-5.42355E-19-1.77081E-18
 -1       247 1.01413E-04-3.03554E-05-3.04530E-05-1.79237E-06-9.87357E-19-1.18611E-18
 -1       248 1.03206E-04-3.09012E-05-3.09890E-05-2.06361E-06 6.53399E-19-1.35594E-18
 -1       249 1.05191E-04-3.15229E-05-3.15745E-05-2.25341E-06 1.35507E-18-1.48893E-18
 -1       250 1.07248E-04-3.21948E-05-3.21693E-05-2.26100E-06 3.12452E-19-2.87886E-18
 -1       251 1.09164E-04-3.28624E-05-3.27042E-05-1.94811E-06-2.73913E-19-2.24057E-18
 -1       252 1.10609E-04-3.34293E-05-3.30788E-05-1.15759E-06-4.08042E-19-1.39092E-18
 -1       253 1.11156E-04-3.37482E-05-3.31721E-05 2.26919E-07-3.26693E-19-1.19903E-18
 -1       254 1.14624E-04-3.21179E-05-3.32496E-05 6.99716E-06 1.70776E-19-1.93092E-18
 -1       255 1.19685E-04-3.49026E-05-3.61953E-05 1.15669E-05-6.80340E-19-1.78173E-18
 -1       256 1.13507E-04-3.38083E-05-3.42475E-05 9.40000E-06-3.51568E-19-1.08189E-18
 -1       257 1.06625E-04-3.15293E-05-3.22336E-05 7.86026E-06-1.13195E-19-1.07277E-18
 -1       258 1.01306E-04-2.95813E-05-3.07655E-05 5.21390E-06-1.15706E-18-4.15552E-19
 -1       259 9.86235E-05-2.85958E-05-3.00332E-05 1.42704E-06-1.96314E-18 3.51454E-19
 -1       260 9.90246E-05-2.89012E-05-3.00630E-05-2.32626E-06-1.90960E-19 2.08314E-18
 -1       261 1.01828E-04-3.02067E-05-3.06890E-05-4.68122E-06-3.03420E-19 3.02620E-18
 -1       262 1.05560E-04-3.18025E-05-3.15932E-05-5.05492E-06 1.50931E-18 2.57635E-18
 -1       263 1.08785E-04-3.30564E-05-3.24384E-05-3.84965E-06 6.29736E-19 1.61567E-18
 -1       264 1.10667E-04-3.36831E-05-3.29843E-05-1.93744E-06-3.50675E-19 1.32539E-18
 -1       265 1.11037E-04-3.37086E-05-3.31400E-05-8.70096E-08 2.99246E-19 1.41149E-18
 -1       266 1.10154E-04-3.33060E-05-3.29392E-05 1.29279E-06-6.31569E-19 6.55731E-19
 -1       267 1.08438E-04-3.26628E-05-3.24810E-05 2.11388E-06 1.26942E-18 1.50653E-18
 -1       268 1.06293E-04-3.19245E-05-3.18769E-05 2.46399E-06 1.07832E-18 1.41749E-18
 -1       269 1.04030E-04-3.11859E-05-3.12215E-05 2.48472E-06-8.94655E-19 1.11116E-18
 -1       270 1.01858E-04-3.05010E-05-3.05823E-05 2.30377E-06 1.07741E-19 3.24657E-19
 -1       271 9.99062E-05-2.98974E-05-3.00028E-05 2.00940E-06 1.62234E-18-5.34084E-19
 -1       272 9.82483E-05-2.93874E-05-2.95104E-05 1.64769E-06 1.89700E-18-1.67700E-18
 -1       273 9.69315E-05-2.89768E-05-2.91231E-05 1.23029E-06 1.47866E-18-3.70133E-18
 -1       274 9.59883E-05-2.86693E-05-2.88503E-05 7.46065E-07 1.09507E-18-3.44179E-18
 -1       275 9.54246E-05-2.85071E-05-2.86739E-05 2.25791E-07-8.75001E-19-2.44196E-18
 -1       276 9.52943E-05-2.81639E-05-2.87669E-05 5.26312E-07-2.30491E-18 1.67682E-18
 -1       277 9.50423E-05-2.74654E-05-2.89602E-05 1.04418E-06-2.48221E-19 1.75858E-18
 -1       278 9.46891E-05-2.65260E-05-2.92121E-05 1.38561E-06-1.43728E-19 1.77860E-20
 -1       279 9.43044E-05-2.54693E-05-2.95011E-05 1.49091E-06 1.97696E-20 3.72857E-18
 -1       280 9.39401E-05-2.44512E-05-2.97829E-05 1.37390E-06-3.11185E-19 1.17268E-19
 -1       281 9.36285E-05-2.35742E-05-3.00266E-05 1.06063E-06 1.32943E-18 2.76586E-18
 -1       282 9.34162E-05-2.29770E-05-3.01927E-05 5.98267E-07 1.23754E-18 6.65004E-19
 -1       283 9.33315E-05-2.27421E-05-3.02575E-05 4.92536E-08 2.99830E-18-9.68003E-19
 -1       284 9.33872E-05-2.29052E-05-3.02112E-05-5.13223E-07 1.72423E-18-2.15493E-18
 -1       285 9.35784E-05-2.34487E-05-3.00592E-05-1.01190E-06 2.42886E-19-5.85161E-18
 -1       286 9.38760E-05-2.42852E-05-2.98267E-05-1.36809E-06-4.36214E-19-1.57637E-18
 -1       287 9.42531E-05-2.53299E-05-2.95391E-05-1.53098E-06-1.26801E-18 1.73513E-18
 -1       288 9.46551E-05-2.64223E-05-2.92421E-05-1.44775E-06-1.34240E-18 1.06543E-18
 -1       289 9.50314E-05-2.74004E-05-2.89815E-05-1.09676E-06-2.18781E-18-4.02825E-19
 -1       290 9.53689E-05-2.79950E-05-2.88708E-05-9.21533E-07-8.51175E-19-5.80284E-19
 -1       291 1.15370E-05-4.26485E-05 1.01287E-05 7.53075E-06-2.86668E-19 1.52297E-18
 -1       292 2.55768E-05-3.94617E-05 3.17336E-06 2.11126E-05 7.47507E-20-1.92859E-19
 -1       293 5.73249E-05-3.47042E-05-1.10413E-05 3.71949E-05 5.91441E-19-1.04714E-19
 -1       294 9.12308E-05-2.78683E-05-2.73063E-05 4.47099E-05 8.29033E-19-1.65828E-18
 -1       295 1.32444E-04-2.75463E-05-4.36166E-05 4.67249E-05-5.77676E-19-1.59433E-18
 -1       296 1.69372E-04-3.05574E-05-5.71584E-05 3.53762E-05-1.90384E-19-4.99707E-18
 -1       297 1.90708E-04-3.08882E-05-6.56676E-05 1.60582E-05-1.55642E-20-6.63333E-18
 -1       298 2.02036E-04-3.53571E-05-6.80402E-05-5.80092E-06 2.17264E-18-4.89230E-18
 -1       299 1.81102E-04-3.14208E-05-6.15942E-05-2.67054E-05 4.37964E-18-5.69206E-18
 -1       300 1.44953E-04-2.61471E-05-4.93440E-05-4.49707E-05 5.01486E-18-8.13067E-18
 -1       301 9.92582E-05-2.17064E-05-3.31018E-05-4.70174E-05 5.11100E-18-6.46900E-18
 -1       302 6.37074E-05-2.69913E-05-1.65264E-05-4.03854E-05 1.99836E-18-5.67967E-18
 -1       303 2.75542E-05-2.78384E-05-1.87642E-06-2.60562E-05 3.83071E-19-5.45793E-18
 -1       304 1.26544E-05-3.55039E-05 7.15745E-06-1.46763E-05-1.95665E-18-1.94246E-18
 -1       305 7.47709E-06-3.75949E-05 1.01428E-05-4.72231E-06-4.22940E-18-1.55833E-18
 -1       306 1.53224E-05-3.89853E-05 7.07281E-06 6.67791E-06-5.10803E-18-3.03174E-18
 -1       307 3.86799E-05-3.68818E-05-3.16736E-06 2.20181E-05-5.43456E-18-4.21237E-18
 -1       308 7.42604E-05-3.54295E-05-1.80880E-05 3.32975E-05-5.79540E-18-3.25504E-18
 -1       309 1.22289E-04-3.79439E-05-3.58761E-05 3.70258E-05-4.70971E-18-2.62241E-18
 -1       310 1.65184E-04-3.81291E-05-5.26851E-05 2.76393E-05-2.41330E-18-3.28606E-18
 -1       311 1.98737E-04-3.78193E-05-6.55743E-05 1.81629E-05-2.21441E-18-1.36033E-18
 -1       312 2.03760E-04-3.29722E-05-6.98423E-05-3.67328E-06-1.56447E-18 3.94678E-19
 -1       313 2.02306E-04-3.54670E-05-6.79243E-05-2.55452E-05-2.68711E-18 2.17020E-18
 -1       314 1.73325E-04-3.14931E-05-5.81418E-05-4.22490E-05-3.07011E-18 3.90355E-18
 -1       315 1.31774E-04-2.84681E-05-4.31777E-05-4.92643E-05-2.27015E-18 3.88047E-18
 -1       316 9.22553E-05-3.31730E-05-2.57595E-05-4.49426E-05-1.73769E-18 4.79315E-18
 -1       317 5.04278E-05-3.31787E-05-9.22223E-06-3.53371E-05-4.99813E-18-3.85347E-19
 -1       318 2.43219E-05-3.95355E-05 3.54977E-06-2.09193E-05-2.13029E-18 2.71389E-18
 -1       319 1.21039E-05-4.47470E-05 1.05144E-05-6.84896E-06-1.52021E-18 3.65728E-18
 -1       320 9.16385E-05-1.43944E-05-3.31676E-05-1.30756E-05-1.84258E-18-8.35763E-19
 -1       321 9.56682E-05-1.90917E-05-3.28816E-05-1.46432E-05-1.84102E-18 3.52114E-19
 -1       322 8.80180E-05-1.03756E-05-3.33306E-05-8.17099E-06-1.23709E-18-1.98118E-18
 -1       323 8.72214E-05-9.46162E-06-3.33741E-05-5.72520E-06-9.79663E-19-2.36636E-18
 -1       324 8.67683E-05-8.93153E-06-3.34036E-05-3.37038E-06-5.64450E-19-2.29658E-18
 -1       325 8.65666E-05-8.69165E-06-3.34185E-05-1.07353E-06-2.18604E-19-2.48074E-18
 -1       326 8.65750E-05-8.70108E-06-3.34181E-05 1.20471E-06 6.22033E-20-2.41761E-18
 -1       327 8.67951E-05-8.96164E-06-3.34024E-05 3.50361E-06 3.39024E-19-2.52570E-18
 -1       328 8.72597E-05-9.50472E-06-3.33723E-05 5.82084E-06 6.96991E-19-2.39400E-18
 -1       329 8.80877E-05-1.04546E-05-3.33267E-05 8.26244E-06 1.12182E-18-2.08601E-18
 -1       330 8.94877E-05-1.20346E-05-3.32608E-05 1.07739E-05 1.58547E-18-1.88168E-18
 -1       331 9.18893E-05-1.47189E-05-3.31541E-05 1.31807E-05 1.88727E-18-1.32285E-18
 -1       332 9.57720E-05-1.94480E-05-3.28181E-05 1.43875E-05 1.98536E-18-1.20199E-19
 -1       333 9.87463E-05-2.44308E-05-3.19376E-05 1.19087E-05 1.83622E-18 1.09670E-18
 -1       334 9.63432E-05-2.67981E-05-2.97755E-05 5.75207E-06 1.59988E-18 6.12312E-19
 -1       335 9.63997E-05-2.60174E-05-3.01194E-05-6.36264E-06-1.44590E-18 5.87394E-19
 -1       336 9.48793E-05-2.70146E-05-2.90594E-05-2.84586E-06-1.20053E-18 5.48440E-19
 -1       337 9.39048E-05-2.74113E-05-2.84825E-05-9.27698E-07-8.10914E-19 4.56978E-19
 -1       338 9.33900E-05-2.76229E-05-2.81791E-05 1.39876E-07-5.08316E-19 1.63652E-19
 -1       339 9.32066E-05-2.77745E-05-2.80394E-05 7.18185E-07-3.80567E-19 3.55191E-20
 -1       340 9.32395E-05-2.79028E-05-2.80003E-05 1.00801E-06-4.89355E-19 2.23069E-20
 -1       341 9.34053E-05-2.80173E-05-2.80231E-05 1.12965E-06-3.74305E-19-9.79921E-20
 -1       342 9.36491E-05-2.81199E-05-2.80840E-05 1.16007E-06-7.34943E-19-1.18875E-19
 -1       343 9.39380E-05-2.82112E-05-2.81688E-05 1.15150E-06-8.95374E-19-3.54280E-19
 -1       344 9.42555E-05-2.82930E-05-2.82697E-05 1.14124E-06-6.37823E-19-5.35861E-19
 -1       345 9.45977E-05-2.83678E-05-2.83840E-05 1.15741E-06-5.76278E-20-5.90441E-19
 -1       346 9.49697E-05-2.84395E-05-2.85124E-05 1.22246E-06 4.30520E-19-2.39204E-19
 -1       347 9.53844E-05-2.85131E-05-2.86581E-05 1.35543E-06 1.50284E-19-1.03535E-20
 -1       348 9.58605E-05-2.85949E-05-2.88265E-05 1.57322E-06-5.26563E-19-5.36706E-19
 -1       349 9.64216E-05-2.86928E-05-2.90244E-05 1.89093E-06-7.61861E-19-9.01651E-19
 -1       350 9.70952E-05-2.88168E-05-2.92592E-05 2.32102E-06-8.63658E-19-1.18738E-18
 -1       351 9.79114E-05-2.89805E-05-2.95383E-05 2.87074E-06-7.78641E-19-1.17978E-18
 -1       352 7.86182E-05-2.40178E-05-2.91449E-05 3.08575E-06 7.14991E-18 1.07033E-17
 -1       353 5.07697E-05-1.98635E-05-1.54519E-05 7.33527E-06 7.67928E-18 3.07598E-17
 -1       354 4.20741E-05-9.44094E-06-1.39611E-05 1.07391E-05 2.18985E-18 3.21268E-17
 -1       355 3.52253E-05-1.36604E-06-1.49577E-05 1.32160E-05-5.17378E-19 3.58757E-17
 -1       356 2.63301E-05 1.17590E-06-1.54680E-05 2.73862E-06-4.55508E-18 4.46865E-17
 -1       357 4.95086E-05-4.04574E-05-1.81941E-05 9.88419E-06-8.62703E-18 5.27320E-17
 -1       358 6.46847E-05-4.58089E-05-1.82959E-05 4.87391E-05-6.57861E-17 6.09051E-17
 -1       359 1.14896E-04-4.37501E-05-2.35050E-05 5.35366E-05-8.40680E-18-5.47776E-18
 -1       360 1.21890E-04-4.86287E-05-2.97962E-05 2.42933E-05-6.90782E-19-7.85729E-19
 -1       361 1.21158E-04-4.62188E-05-3.20327E-05 8.13306E-06 1.94437E-19 5.81548E-19
 -1       362 1.19256E-04-4.23532E-05-3.30576E-05-3.54306E-06-7.22817E-19 1.01925E-18
 -1       363 1.15179E-04-3.62103E-05-3.39208E-05-9.68561E-06-1.79276E-18 2.22494E-18
 -1       364 1.10280E-04-2.95071E-05-3.46667E-05-8.39142E-06-1.52547E-18 1.45829E-18
 -1       365 1.07581E-04-2.59912E-05-3.49887E-05-9.15239E-07-1.33052E-18 3.46296E-19
 -1       366 1.08790E-04-2.77025E-05-3.47934E-05 7.47302E-06-7.12434E-19-8.67210E-19
 -1       367 1.12335E-04-3.25904E-05-3.41959E-05 1.15819E-05-8.54941E-19-1.19570E-18
 -1       368 1.15108E-04-3.67258E-05-3.36078E-05 1.01733E-05-3.79374E-19-9.79117E-19
 -1       369 1.15630E-04-3.82387E-05-3.31889E-05 5.59377E-06-6.90466E-19-6.00161E-19
 -1       370 1.14207E-04-3.75144E-05-3.28921E-05 6.21853E-07 1.41877E-18-2.28194E-20
 -1       371 1.11785E-04-3.57639E-05-3.26010E-05-3.18088E-06-2.00112E-19-5.35886E-19
 -1       372 1.09096E-04-3.38956E-05-3.22425E-05-5.44198E-06-4.29556E-19 1.29049E-18
 -1       373 1.06515E-04-3.23186E-05-3.18055E-05-6.39731E-06-1.53227E-18 2.16522E-18
 -1       374 1.04189E-04-3.11193E-05-3.13172E-05-6.45765E-06-1.08464E-18 2.56070E-18
 -1       375 1.02153E-04-3.02427E-05-3.08167E-05-5.99315E-06 1.22628E-18 4.74508E-19
 -1       376 1.00402E-04-2.96004E-05-3.03398E-05-5.26477E-06 2.03200E-18 4.97897E-19
 -1       377 9.89199E-05-2.91130E-05-2.99124E-05-4.42593E-06 2.77865E-18 1.13032E-18
 -1       378 9.76842E-05-2.87199E-05-2.95508E-05-3.54703E-06-3.31632E-19 8.37858E-19
 -1       379 9.66760E-05-2.83809E-05-2.92629E-05-2.64390E-06-3.47426E-19-3.96745E-19
 -1       380 9.59611E-05-2.81592E-05-2.90528E-05-1.77791E-06 4.35327E-19-7.56545E-19
 -1       381 9.43215E-05-2.73260E-05-2.86741E-05 2.47874E-06 1.27148E-18 3.51772E-19
 -1       382 9.31143E-05-2.74447E-05-2.81222E-05 7.51295E-07 9.11012E-19-3.95144E-21
 -1       383 9.25620E-05-2.75213E-05-2.78646E-05-1.75229E-07 2.94974E-19-2.25975E-19
 -1       384 9.24266E-05-2.76136E-05-2.77727E-05-6.60579E-07-4.20355E-20-4.29813E-19
 -1       385 9.25426E-05-2.77237E-05-2.77778E-05-8.94095E-07 2.55033E-19-7.92319E-19
 -1       386 9.28023E-05-2.78427E-05-2.78392E-05-9.83396E-07 6.60113E-19-9.03414E-19
 -1       387 9.31388E-05-2.79627E-05-2.79326E-05-9.94862E-07 5.27741E-19-5.53558E-19
 -1       388 9.35139E-05-2.80790E-05-2.80436E-05-9.72457E-07 1.27828E-19-4.19173E-19
 -1       389 9.39091E-05-2.81904E-05-2.81653E-05-9.46950E-07 6.88611E-19-6.58402E-19
 -1       390 9.43206E-05-2.82982E-05-2.82952E-05-9.40973E-07 4.37218E-19-6.50133E-19
 -1       391 9.47551E-05-2.84062E-05-2.84348E-05-9.71960E-07 4.95688E-19-8.27349E-19
 -1       392 9.52279E-05-2.85200E-05-2.85882E-05-1.05389E-06 2.62799E-20-6.08418E-19
 -1       393 9.57604E-05-2.86471E-05-2.87615E-05-1.19809E-06-1.61889E-19-1.34387E-18
 -1       394 9.63789E-05-2.87965E-05-2.89620E-05-1.41323E-06 5.54596E-20-1.67341E-18
 -1       395 9.71126E-05-2.89789E-05-2.91978E-05-1.70411E-06 6.15801E-19-1.44111E-18
 -1       396 9.79917E-05-2.92073E-05-2.94763E-05-2.06922E-06 1.01282E-18-1.40709E-18
 -1       397 9.90440E-05-2.94964E-05-2.98032E-05-2.49627E-06-4.27283E-19-1.11491E-18
 -1       398 1.00290E-04-2.98633E-05-3.01805E-05-2.95530E-06-7.58362E-19-1.73239E-18
 -1       399 1.01738E-04-3.03269E-05-3.06032E-05-3.38891E-06 1.95931E-19-1.58890E-18
 -1       400 1.03370E-04-3.09058E-05-3.10565E-05-3.70020E-06 1.57965E-18-1.51617E-18
 -1       401 1.05132E-04-3.16133E-05-3.15118E-05-3.74152E-06 7.12558E-19-1.18672E-18
 -1       402 1.06917E-04-3.24433E-05-3.19249E-05-3.31244E-06-1.14743E-18-1.11427E-18
 -1       403 1.08539E-04-3.33437E-05-3.22386E-05-2.18428E-06-4.18831E-19-7.90566E-19
 -1       404 1.09720E-04-3.41719E-05-3.23926E-05-1.78584E-07-3.62224E-19-5.09435E-19
 -1       405 1.11217E-04-3.17976E-05-3.25904E-05 6.83487E-06-4.26825E-19-9.47565E-19
 -1       406 1.15109E-04-3.17699E-05-3.53780E-05 1.41182E-05-9.63831E-19-4.59859E-19
 -1       407 1.13503E-04-3.31061E-05-3.45316E-05 1.38092E-05-1.91694E-19 2.15093E-19
 -1       408 1.09267E-04-3.14100E-05-3.34006E-05 1.22195E-05-2.04463E-20 1.72832E-18
 -1       409 1.05035E-04-2.90175E-05-3.25718E-05 8.52659E-06-1.33568E-18 5.71026E-19
 -1       410 1.02534E-04-2.76372E-05-3.20800E-05 2.89750E-06-1.77237E-18-2.90929E-19
 -1       411 1.02590E-04-2.81589E-05-3.18786E-05-2.88490E-06-1.89353E-18 1.36866E-18
 -1       412 1.04710E-04-3.02238E-05-3.19074E-05-6.64006E-06-8.38033E-20 1.98456E-18
 -1       413 1.07451E-04-3.25710E-05-3.20835E-05-7.35839E-06 1.44361E-18 2.42404E-18
 -1       414 1.09502E-04-3.41450E-05-3.23003E-05-5.61516E-06 1.35106E-18 2.47190E-18
 -1       415 1.10285E-04-3.46288E-05-3.24378E-05-2.74113E-06 2.92499E-19 2.49387E-18
 -1       416 1.09859E-04-3.42618E-05-3.24156E-05 7.87407E-08 9.77989E-19 1.09516E-18
 -1       417 1.08577E-04-3.34476E-05-3.22129E-05 2.20786E-06-1.25701E-18 1.33412E-18
 -1       418 1.06813E-04-3.25009E-05-3.18580E-05 3.49590E-06 3.06259E-19 1.89324E-18
 -1       419 1.04859E-04-3.15970E-05-3.14033E-05 4.06056E-06 1.00550E-18 2.31805E-18
 -1       420 1.02914E-04-3.08064E-05-3.09046E-05 4.10753E-06 8.25401E-19 2.04653E-18
 -1       421 1.01099E-04-3.01417E-05-3.04086E-05 3.82859E-06 4.09286E-19-1.22893E-19
 -1       422 9.94815E-05-2.95902E-05-2.99500E-05 3.36167E-06 2.62546E-18-1.40637E-19
 -1       423 9.80967E-05-2.91319E-05-2.95520E-05 2.78539E-06 1.68586E-18-1.02005E-18
 -1       424 9.69605E-05-2.87496E-05-2.92288E-05 2.13172E-06 2.63384E-18 1.12244E-19
 -1       425 9.60741E-05-2.84372E-05-2.89833E-05 1.41028E-06 1.66742E-19 4.83523E-19
 -1       426 9.56309E-05-2.82595E-05-2.88704E-05 9.74084E-07-1.91278E-18 9.12722E-19
 -1       427 9.46189E-05-2.61565E-05-2.93400E-05 2.54212E-06 1.29685E-19 1.37550E-18
 -1       428 9.51469E-05-2.70825E-05-2.91670E-05 2.22721E-06-1.29032E-18 1.90975E-18
 -1       429 9.54544E-05-2.77283E-05-2.90211E-05 1.65176E-06-1.08673E-18 2.76822E-18
 -1       430 9.41043E-05-2.52457E-05-2.95118E-05 2.49978E-06-2.47927E-19-1.09633E-18
 -1       431 9.36403E-05-2.44153E-05-2.96705E-05 2.11547E-06-8.69443E-19 3.59763E-18
 -1       432 9.32850E-05-2.37779E-05-2.97927E-05 1.44217E-06-2.79377E-19 2.56194E-18
 -1       433 9.30794E-05-2.34127E-05-2.98619E-05 5.68306E-07-1.56283E-18 2.83444E-19
 -1       434 9.30512E-05-2.33696E-05-2.98684E-05-3.92167E-07-2.12254E-19-1.59374E-18
 -1       435 9.32084E-05-2.36590E-05-2.98111E-05-1.31116E-06-2.89045E-19-4.59297E-18
 -1       436 9.35297E-05-2.42361E-05-2.97002E-05-2.05019E-06 1.35598E-18-3.56740E-18
 -1       437 9.39937E-05-2.50531E-05-2.95473E-05-2.52384E-06 1.34925E-18 1.72186E-18
 -1       438 9.45455E-05-2.60050E-05-2.93738E-05-2.63458E-06 8.87126E-19 4.03428E-19
 -1       439 9.51266E-05-2.69877E-05-2.91989E-05-2.35376E-06 1.01047E-19-1.18564E-18
 -1       440 5.78118E-05-3.83776E-05-8.41101E-06 4.25631E-05-1.07870E-18 1.48167E-18
 -1       441 1.17693E-05-1.89463E-05 2.89289E-06-7.23753E-07-1.10872E-18 2.46169E-18
 -1       442 2.73432E-05-2.61608E-05-6.10184E-07 2.95958E-05-2.14628E-18-4.17481E-19
 -1       443 1.01267E-04-5.06104E-05-2.16919E-05 3.94209E-05 8.17704E-19-2.90178E-18
 -1       444 1.29036E-04-4.87346E-05-3.43693E-05 2.70419E-05-3.12026E-19-3.85961E-18
 -1       445 8.94291E-05-1.19275E-05-3.32775E-05-1.07704E-05-1.61605E-18-1.65676E-18
 -1       446 1.52846E-04-2.27003E-05-5.56209E-05 2.33892E-06-6.16216E-20-5.41148E-18
 -1       447 1.48817E-04-1.08460E-05-5.91112E-05 1.28105E-06-2.01170E-19-4.19254E-18
 -1       448 1.51512E-04-1.51368E-05-5.83417E-05 3.13469E-06 2.49621E-18-3.52127E-18
 -1       449 1.47024E-04-3.00849E-05-5.01430E-05-3.59641E-06 2.64227E-18-1.79380E-18
 -1       450 1.32284E-04-4.16877E-05-3.88740E-05-1.88904E-05 1.11086E-18-2.56556E-18
 -1       451 1.06695E-04-4.35932E-05-2.70890E-05-3.33241E-05 3.08638E-19-3.21502E-18
 -1       452 5.93596E-05-3.25132E-05-1.15547E-05-4.17733E-05-1.08378E-18-6.23128E-18
 -1       453 2.70215E-05-2.27077E-05-2.05638E-06-3.33683E-05-5.37231E-19-4.95144E-18
 -1       454 9.57807E-06-1.39598E-05 1.90276E-06-1.64022E-05-1.95667E-18-3.51677E-18
 -1       455 1.32593E-05-1.71887E-05 1.65426E-06 8.55631E-06-2.57074E-18-2.01022E-18
 -1       456 3.81461E-05-3.14287E-05-3.14294E-06 2.59005E-05-2.71781E-18-4.07735E-18
 -1       457 8.51396E-05-5.08386E-05-1.48002E-05 3.18959E-05-2.71559E-18-7.54005E-19
 -1       458 1.20668E-04-5.77192E-05-2.71823E-05 2.44231E-05-3.34282E-18 2.62580E-19
 -1       459 1.49845E-04-5.24331E-05-4.17011E-05 7.93361E-06-2.14948E-18-2.25713E-18
 -1       460 1.60874E-04-3.33738E-05-5.43174E-05-5.37695E-06-2.92703E-18-1.95178E-18
 -1       461 1.62038E-04-1.95657E-05-6.06989E-05-6.58657E-06-2.89654E-18-6.80167E-19
 -1       462 1.56619E-04-1.46259E-05-6.06801E-05-1.90055E-06-3.17023E-18 3.29708E-19
 -1       463 1.60112E-04-2.53583E-05-5.74558E-05-2.75948E-06-2.22124E-18 6.18440E-19
 -1       464 1.51451E-04-4.24117E-05-4.66610E-05-1.32433E-05-1.33421E-18 5.84347E-19
 -1       465 1.31111E-04-5.10870E-05-3.42825E-05-2.96995E-05-1.06207E-18 1.69502E-18
 -1       466 9.60908E-05-5.10890E-05-1.93743E-05-4.25717E-05-1.24429E-18 1.51776E-18
 -1       467 6.11587E-05-3.89105E-05-9.48658E-06-4.40901E-05 2.96462E-19 2.02044E-19
 -1       468 2.34620E-05-2.53560E-05 5.40741E-07-2.65681E-05-8.86843E-19 2.16787E-18
 -1       469 1.45889E-04-3.88487E-05-4.58202E-05 1.00873E-05-1.09983E-18-6.50288E-18
 -1       470 9.26084E-05-4.38499E-05-2.07556E-05-3.62339E-05-2.32632E-18-2.00759E-18
 -1       471 9.57924E-05-2.51389E-05-3.02658E-05 6.02852E-06 1.50639E-18-4.65336E-19
 -1       472 8.95752E-05-1.34047E-05-3.26634E-05-3.92619E-06-7.18321E-19-2.16379E-18
 -1       473 9.02755E-05-1.43690E-05-3.25516E-05-5.88358E-06-9.76885E-19-1.95189E-18
 -1       474 8.90837E-05-1.27242E-05-3.27433E-05 5.47390E-08-1.25669E-19-2.24472E-18
 -1       475 8.92172E-05-1.29077E-05-3.27221E-05 2.04691E-06 1.61581E-19-2.31760E-18
 -1       476 8.96068E-05-1.34450E-05-3.26599E-05 4.00120E-06 5.03986E-19-2.28119E-18
 -1       477 9.03215E-05-1.44310E-05-3.25456E-05 5.95645E-06 9.39685E-19-1.95392E-18
 -1       478 9.14584E-05-1.60092E-05-3.23584E-05 7.78745E-06 1.22589E-18-1.67438E-18
 -1       479 9.32292E-05-1.84762E-05-3.20571E-05 9.30571E-06 1.60783E-18-1.53263E-18
 -1       480 9.50867E-05-2.65671E-05-2.93476E-05 2.88143E-06 1.20853E-18-4.45117E-19
 -1       481 9.54631E-05-2.44263E-05-3.04345E-05-5.83007E-06-1.35918E-18-5.29644E-19
 -1       482 1.39333E-04-3.08960E-05-4.68464E-05-5.70779E-06-8.08599E-19-4.40801E-18
 -1       483 9.52565E-05-2.62125E-05-2.95820E-05-2.90157E-06-1.05879E-18-5.00040E-19
 -1       484 9.49047E-05-2.71472E-05-2.90349E-05-1.02722E-06-7.03089E-19-3.66072E-19
 -1       485 9.46348E-05-2.76728E-05-2.86963E-05 1.12401E-07-5.94288E-19-3.98231E-19
 -1       486 9.44885E-05-2.79910E-05-2.84983E-05 7.73500E-07-5.65681E-19-7.93007E-19
 -1       487 9.44493E-05-2.81917E-05-2.83959E-05 1.13092E-06-6.33877E-19-8.99025E-19
 -1       488 9.44890E-05-2.83187E-05-2.83587E-05 1.30442E-06-4.52733E-19-9.01474E-19
 -1       489 9.45834E-05-2.83952E-05-2.83665E-05 1.37776E-06-8.68350E-19-6.17927E-19
 -1       490 9.47156E-05-2.84349E-05-2.84061E-05 1.41108E-06-8.03141E-19-2.92049E-19
 -1       491 9.48760E-05-2.84466E-05-2.84698E-05 1.44903E-06-2.96173E-19-3.40925E-20
 -1       492 9.50614E-05-2.84364E-05-2.85534E-05 1.52608E-06 3.00971E-19 2.93310E-19
 -1       493 9.52732E-05-2.84092E-05-2.86557E-05 1.67007E-06 2.83572E-19 1.46901E-20
 -1       494 9.55172E-05-2.83693E-05-2.87771E-05 1.90455E-06-5.26202E-19 4.48206E-19
 -1       495 9.58021E-05-2.83214E-05-2.89195E-05 2.24984E-06-1.07033E-18 5.05690E-19
 -1       496 9.61393E-05-2.82720E-05-2.90849E-05 2.72304E-06-1.12446E-18 3.22227E-19
 -1       497 9.65434E-05-2.82319E-05-2.92749E-05 3.33658E-06-1.30042E-18 3.86109E-20
 -1       498 9.70329E-05-2.82193E-05-2.94898E-05 4.09475E-06-4.25099E-19 1.10512E-19
 -1       499 5.74970E-05-2.02073E-05-2.77113E-05 9.72244E-06 6.78083E-19 3.27891E-17
 -1       500 3.42551E-05-7.61935E-06-1.24119E-05 7.52944E-06 2.55134E-18 3.52047E-17
 -1       501 2.98465E-05-2.49679E-06-1.14717E-05 6.77738E-06 3.05987E-18 3.55013E-17
 -1       502 2.41641E-05-9.36807E-07-1.03802E-05 2.52780E-06 3.80133E-18 3.97241E-17
 -1       503 2.51801E-05-1.30453E-05-8.58973E-06-2.53518E-06 5.71154E-18 4.86511E-17
 -1       504 1.32254E-05-2.06220E-05-8.53679E-06-1.37427E-05 2.02208E-17 7.54538E-17
 -1       505 1.34317E-04-8.65282E-05-3.10902E-05-8.68165E-06 4.62256E-17 1.84526E-17
 -1       506 1.40431E-04-6.31659E-05-3.22556E-05 8.87727E-06-7.68682E-19-3.04000E-18
 -1       507 1.38201E-04-6.07747E-05-3.30297E-05 1.19432E-05 7.56142E-19-5.75903E-19
 -1       508 1.33173E-04-5.56501E-05-3.33766E-05-6.02002E-07 5.40263E-19 1.98285E-19
 -1       509 1.28305E-04-4.70322E-05-3.49646E-05-1.06761E-05-3.59174E-19 1.18073E-18
 -1       510 1.21094E-04-3.45001E-05-3.72747E-05-1.43997E-05-1.86540E-18 2.18751E-18
 -1       511 1.14610E-04-2.36051E-05-3.92005E-05-7.74473E-06-2.46409E-18 7.47543E-19
 -1       512 1.12883E-04-2.16695E-05-3.93096E-05 4.69193E-06-2.04605E-18-8.57568E-19
 -1       513 1.16854E-04-2.95922E-05-3.75099E-05 1.27461E-05-1.02342E-18-7.33408E-19
 -1       514 1.20535E-04-3.85644E-05-3.51769E-05 1.22433E-05 5.83419E-20 3.69318E-19
 -1       515 1.20016E-04-4.26182E-05-3.31980E-05 6.47139E-06 5.64274E-20 1.70628E-18
 -1       516 1.16329E-04-4.17882E-05-3.19632E-05-2.07469E-08 9.74880E-19 1.48874E-18
 -1       517 1.11685E-04-3.86301E-05-3.13211E-05-4.82144E-06-4.94063E-19-6.46826E-19
 -1       518 1.07494E-04-3.52104E-05-3.09867E-05-7.56538E-06 3.56367E-19 1.59478E-19
 -1       519 1.04220E-04-3.24542E-05-3.07613E-05-8.67772E-06-9.85760E-19 1.04212E-18
 -1       520 1.01819E-04-3.05499E-05-3.05456E-05-8.71130E-06-1.33899E-18 8.16856E-19
 -1       521 1.00074E-04-2.93493E-05-3.03101E-05-8.11933E-06-1.31125E-18 1.59389E-18
 -1       522 9.87758E-05-2.86312E-05-3.00605E-05-7.20923E-06 1.30555E-18 1.51541E-18
 -1       523 9.77726E-05-2.82009E-05-2.98143E-05-6.16763E-06 2.29275E-18 1.47199E-18
 -1       524 9.69632E-05-2.79157E-05-2.95895E-05-5.09133E-06 1.26277E-18 1.80178E-19
 -1       525 9.62856E-05-2.76797E-05-2.93998E-05-4.01523E-06-1.16003E-18 1.46558E-19
 -1       526 5.46278E-05-2.74324E-05-1.11425E-05 3.67061E-05-1.32751E-18 1.96183E-18
 -1       527 9.41243E-05-2.76680E-05-2.84776E-05-1.32584E-07 4.97777E-19-8.44747E-19
 -1       528 9.39593E-05-2.79111E-05-2.83050E-05-7.63052E-07 3.03487E-19-1.19995E-18
 -1       529 9.39469E-05-2.80771E-05-2.82295E-05-1.09328E-06 3.06087E-19-1.05800E-18
 -1       530 9.40376E-05-2.81966E-05-2.82176E-05-1.24422E-06 1.74063E-19-7.14684E-19
 -1       531 9.41949E-05-2.82841E-05-2.82477E-05-1.29744E-06 2.34346E-19-1.09025E-19
 -1       532 9.43950E-05-2.83478E-05-2.83061E-05-1.30989E-06 4.90557E-19-4.40649E-19
 -1       533 9.46252E-05-2.83935E-05-2.83851E-05-1.32291E-06 7.32276E-19-5.58220E-19
 -1       534 9.48821E-05-2.84263E-05-2.84809E-05-1.36751E-06 1.93947E-19-3.85201E-19
 -1       535 9.51687E-05-2.84512E-05-2.85929E-05-1.46773E-06-4.05969E-20-2.82377E-19
 -1       536 9.54939E-05-2.84740E-05-2.87222E-05-1.64261E-06 1.05018E-19-2.68803E-19
 -1       537 9.58706E-05-2.85018E-05-2.88714E-05-1.90688E-06 3.93075E-19-3.41928E-19
 -1       538 9.63155E-05-2.85440E-05-2.90436E-05-2.27040E-06 3.86728E-19-9.77121E-19
 -1       539 9.68481E-05-2.86138E-05-2.92417E-05-2.73614E-06 8.17423E-19-2.68533E-19
 -1       540 9.74909E-05-2.87305E-05-2.94669E-05-3.29617E-06 3.33209E-19-5.03770E-20
 -1       541 9.82695E-05-2.89222E-05-2.97184E-05-3.92530E-06-3.52806E-19-8.71570E-19
 -1       542 9.92132E-05-2.92300E-05-2.99913E-05-4.57165E-06-1.57228E-19-1.59007E-18
 -1       543 1.00356E-04-2.97107E-05-3.02761E-05-5.14426E-06 4.56357E-19-1.82353E-18
 -1       544 1.01737E-04-3.04369E-05-3.05584E-05-5.49874E-06 8.25773E-19-4.81990E-19
 -1       545 1.03394E-04-3.14860E-05-3.08214E-05-5.42539E-06-4.45769E-19-1.05000E-19
 -1       546 1.05342E-04-3.29046E-05-3.10514E-05-4.65066E-06-3.02614E-19-4.24263E-19
 -1       547 1.07521E-04-3.46296E-05-3.12494E-05-2.87502E-06-4.57181E-19-6.55211E-19
 -1       548 1.08640E-04-3.33923E-05-3.15425E-05 2.32851E-06-8.80623E-19-1.67289E-18
 -1       549 1.10724E-04-3.13424E-05-3.37048E-05 1.11524E-05-1.70178E-18-2.66966E-18
 -1       550 1.13123E-04-3.31616E-05-3.43000E-05 1.51730E-05-1.54337E-18-1.36044E-18
 -1       551 1.12482E-04-3.20864E-05-3.45000E-05 1.63895E-05-9.09561E-19-4.43925E-19
 -1       552 1.09484E-04-2.84339E-05-3.47606E-05 1.41722E-05-2.49757E-19 5.86502E-19
 -1       553 1.06429E-04-2.49315E-05-3.49325E-05 8.03011E-06-1.26362E-18 6.56836E-19
 -1       554 1.05545E-04-2.44449E-05-3.47654E-05-1.55612E-07-2.42765E-18 1.07598E-18
 -1       555 1.07346E-04-2.76580E-05-3.41672E-05-6.85878E-06-1.90729E-18 9.73732E-19
 -1       556 1.10151E-04-3.23960E-05-3.33270E-05-9.32095E-06 9.19290E-19 2.11629E-18
 -1       557 1.11858E-04-3.59070E-05-3.25539E-05-7.72935E-06 1.00293E-18 2.97658E-18
 -1       558 1.11727E-04-3.71256E-05-3.19813E-05-4.01406E-06 1.31082E-18 2.14328E-18
 -1       559 1.10161E-04-3.64676E-05-3.15950E-05-8.15682E-08 1.25527E-18 7.88668E-19
 -1       560 1.07925E-04-3.48910E-05-3.13115E-05 2.99865E-06 3.16220E-19 1.64603E-18
 -1       561 1.05601E-04-3.31583E-05-3.10548E-05 4.93944E-06-1.09934E-18-3.88522E-19
 -1       562 1.03478E-04-3.16573E-05-3.07846E-05 5.86541E-06 4.13834E-19 1.04715E-20
 -1       563 1.01649E-04-3.05036E-05-3.04925E-05 6.04350E-06 2.58620E-19-1.78963E-19
 -1       564 1.00111E-04-2.96682E-05-3.01890E-05 5.73605E-06 7.51337E-19 4.73461E-19
 -1       565 9.88249E-05-2.90711E-05-2.98925E-05 5.14292E-06 1.82131E-18 1.02970E-18
 -1       566 9.77508E-05-2.86290E-05-2.96208E-05 4.39319E-06 2.44991E-18 4.90074E-19
 -1       567 9.68527E-05-2.82720E-05-2.93874E-05 3.55894E-06 1.59984E-18 9.66195E-19
 -1       568 9.60920E-05-2.79614E-05-2.91944E-05 2.66209E-06 7.53059E-19 3.36730E-18
 -1       569 9.36250E-05-2.49689E-05-2.94249E-05 3.17251E-06 8.41466E-19 6.71536E-19
 -1       570 9.30007E-05-2.42168E-05-2.94803E-05 2.44522E-06-6.02024E-19 3.73898E-18
 -1       571 9.51505E-05-2.68066E-05-2.92896E-05 3.36537E-06 7.30588E-19 2.24779E-18
 -1       572 9.43663E-05-2.58599E-05-2.93601E-05 3.48761E-06 1.15145E-19 2.01867E-18
 -1       573 9.25671E-05-2.36951E-05-2.95186E-05 1.39134E-06-1.44573E-18-1.79704E-19
 -1       574 9.23791E-05-2.34700E-05-2.95346E-05 1.41329E-07-4.92152E-19 8.69656E-19
 -1       575 9.24676E-05-2.35765E-05-2.95268E-05-1.14362E-06-6.44048E-20-2.04364E-18
 -1       576 9.28213E-05-2.39978E-05-2.94974E-05-2.27444E-06 8.05917E-19-4.04547E-18
 -1       577 9.34196E-05-2.47048E-05-2.94503E-05-3.13313E-06 1.06497E-18-1.54985E-18
 -1       578 9.41880E-05-2.56136E-05-2.93897E-05-3.57693E-06 1.22136E-18 6.31095E-19
 -1       579 9.50553E-05-2.66269E-05-2.93251E-05-3.52301E-06-6.22478E-19-1.38533E-18
 -1       580 2.77955E-05-1.32904E-05-5.61751E-06-1.64817E-05-3.30872E-20 9.67629E-19
 -1       581 9.44964E-05-2.72792E-05-2.87986E-05 9.84399E-07 6.72745E-19-6.09275E-19
 -1       582 9.38953E-05-4.87397E-05-1.90356E-05 3.90415E-05-8.57409E-19-3.47984E-18
 -1       583 5.12215E-05-2.74179E-05-9.72367E-06-3.73910E-05 4.78732E-19 8.47562E-20
 -1       584 9.46139E-05-2.07646E-05-3.16708E-05-9.52687E-06-1.63609E-18-6.40741E-19
 -1       585 1.25399E-04-5.87454E-05-2.84699E-05-2.63428E-05 7.54971E-19 5.01523E-19
 -1       586 1.49250E-04-4.67256E-05-4.42747E-05-1.28453E-05-2.39639E-18-1.60306E-18
 -1       587 1.32432E-04-1.96597E-05-4.88217E-05 1.20225E-05 1.46410E-18-3.08691E-19
 -1       588 8.91974E-05-1.28827E-05-3.27244E-05-1.93782E-06-3.96881E-19-2.17568E-18
 -1       589 1.30314E-04-1.25728E-05-5.09962E-05-5.70043E-06-7.39989E-19-3.47228E-18
 -1       590 1.34314E-04-3.95170E-05-4.09506E-05 3.74524E-06-3.13786E-19 7.90388E-20
 -1       591 1.28278E-04-8.30415E-06-5.20142E-05 5.68195E-06 1.84388E-19-2.75505E-18
 -1       592 5.12218E-05-2.48103E-05-1.08566E-05-3.86819E-05-1.34011E-18-4.12997E-18
 -1       593 1.23369E-04-4.90965E-05-3.19952E-05-1.39697E-05-1.66189E-18-1.08269E-18
 -1       594 1.40507E-04-5.52504E-05-3.67898E-05-9.21812E-06-1.80226E-19-1.65701E-18
 -1       595 2.67950E-05-1.13006E-05-6.06601E-06-2.83431E-05-7.75591E-19-5.18125E-18
 -1       596 1.56888E-05-5.85543E-06-3.63861E-06-4.32756E-06-5.65962E-19-2.76450E-18
 -1       597 3.65153E-05-1.88241E-05-7.01407E-06 1.83162E-05-2.73089E-19-1.99021E-18
 -1       598 7.21152E-05-4.03202E-05-1.31688E-05 2.66616E-05 6.48404E-19 1.33831E-19
 -1       599 1.17553E-04-6.21733E-05-2.36778E-05 2.01944E-05-9.81182E-19 4.88328E-19
 -1       600 1.41833E-04-6.39105E-05-3.35506E-05 5.19086E-06-1.74563E-18-1.44769E-18
 -1       601 1.43990E-04-2.37959E-05-5.19547E-05-1.47556E-05-3.67348E-18-2.17476E-19
 -1       602 1.34907E-04-1.15608E-05-5.34657E-05-5.48348E-06-3.55341E-18 7.31711E-19
 -1       603 1.34599E-04-1.81789E-05-5.04500E-05 8.81345E-06-1.98905E-18 6.99305E-19
 -1       604 1.43156E-04-3.66279E-05-4.61717E-05 7.51516E-06 4.20869E-20-9.87693E-19
 -1       605 8.78890E-05-4.60483E-05-1.76115E-05-4.13578E-05 1.59597E-18-1.40396E-19
 -1       606 1.24418E-04-5.71949E-05-2.87912E-05 2.36347E-05 3.33837E-19-4.64505E-18
 -1       607 2.92311E-05-1.28544E-05-6.36457E-06 1.64914E-05-2.45597E-18 2.59404E-20
 -1       608 9.61291E-05-2.31807E-05-3.12671E-05 9.59471E-06 1.78286E-18-3.23277E-19
 -1       609 1.36511E-04-5.08686E-05-3.69668E-05 6.77304E-06 3.77307E-19-5.02195E-18
 -1       610 9.13522E-05-1.59045E-05-3.23695E-05-7.67808E-06-1.27605E-18-1.64528E-18
 -1       611 9.58867E-05-2.75371E-05-2.92895E-05-3.27077E-06-9.34249E-19 1.47223E-18
 -1       612 1.01579E-04-5.34873E-05-2.03124E-05 1.92077E-05 1.19093E-18 1.88810E-18
 -1       613 1.11103E-04-4.87480E-05-2.66506E-05-2.12707E-05-4.05074E-18-1.80798E-18
 -1       614 7.74380E-05-3.59246E-05-1.74920E-05-3.60612E-05-3.36820E-18-9.62335E-19
 -1       615 9.15893E-05-1.68449E-05-3.20390E-05 2.43987E-06 4.03063E-19-1.98890E-18
 -1       616 9.13333E-05-1.64419E-05-3.21017E-05 8.40239E-07 3.00038E-20-1.94727E-18
 -1       617 9.29141E-05-1.89972E-05-3.16842E-05 5.26352E-06 1.01303E-18-1.59260E-18
 -1       618 9.39908E-05-2.09254E-05-3.13217E-05 6.14977E-06 1.23208E-18-1.35452E-18
 -1       619 9.52640E-05-2.40877E-05-3.04938E-05 5.15458E-06 1.18047E-18-1.11616E-18
 -1       620 1.13952E-04-5.34510E-05-2.58602E-05 2.45345E-05 4.17071E-19-3.20963E-18
 -1       621 9.53308E-05-2.59316E-05-2.97387E-05 2.60031E-06 9.60880E-19-1.05560E-18
 -1       622 1.11671E-04-5.33531E-05-2.49428E-05-2.82328E-05 1.00855E-18 2.75279E-19
 -1       623 5.00952E-05-1.72958E-05-1.36507E-05 2.38124E-05-2.16930E-18 1.19776E-18
 -1       624 1.25212E-04-2.43813E-05-4.37088E-05-1.12034E-05-3.70630E-19-1.51577E-18
 -1       625 9.41761E-05-2.09742E-05-3.13720E-05-7.06960E-06-1.41462E-18-1.06850E-18
 -1       626 9.54148E-05-2.56869E-05-2.98813E-05-2.43877E-06-8.18943E-19-7.40878E-19
 -1       627 9.54789E-05-2.69217E-05-2.93809E-05-8.47014E-07-7.78548E-19-8.08181E-19
 -1       628 9.54275E-05-2.76677E-05-2.90397E-05 1.80280E-07-6.25686E-19-9.38606E-19
 -1       629 9.53559E-05-2.81190E-05-2.88158E-05 8.06604E-07-6.60739E-19-1.07759E-18
 -1       630 9.52975E-05-2.83816E-05-2.86782E-05 1.16476E-06-4.89321E-19-8.51300E-19
 -1       631 9.52603E-05-2.85175E-05-2.86041E-05 1.35711E-06-5.16925E-19-1.04530E-18
 -1       632 9.52432E-05-2.85641E-05-2.85768E-05 1.46108E-06-4.70367E-19-5.61339E-19
 -1       633 9.52426E-05-2.85447E-05-2.85849E-05 1.53521E-06-2.16283E-19 2.12199E-19
 -1       634 9.52547E-05-2.84740E-05-2.86203E-05 1.62448E-06-1.68923E-19 3.18179E-19
 -1       635 9.52765E-05-2.83611E-05-2.86780E-05 1.76440E-06 1.12034E-19-8.03101E-20
 -1       636 9.53059E-05-2.82117E-05-2.87545E-05 1.98396E-06 5.39667E-20-2.67120E-19
 -1       637 9.53413E-05-2.80296E-05-2.88477E-05 2.30752E-06-7.13559E-19-1.73032E-19
 -1       638 9.53824E-05-2.78194E-05-2.89553E-05 2.75566E-06-1.22566E-18 1.50480E-21
 -1       639 9.54301E-05-2.75884E-05-2.90746E-05 3.34505E-06-1.24973E-18 4.69355E-19
 -1       640 9.54893E-05-2.73516E-05-2.92013E-05 4.08707E-06-9.94167E-19 5.29602E-19
 -1       641 8.76714E-05-2.71380E-05-2.93091E-05 4.73216E-06-2.92083E-19 2.84349E-18
 -1       642 4.77610E-05-2.19568E-05-1.46053E-05 4.20495E-06 3.77896E-19 3.12238E-17
 -1       643 3.20732E-05-6.62505E-06-1.09427E-05 3.06082E-06 3.02906E-18 3.31379E-17
 -1       644 2.65650E-05-3.26532E-06-9.64270E-06-7.20683E-07 7.05985E-18 3.48192E-17
 -1       645 2.42476E-05-8.25768E-06-7.29010E-06-4.65193E-06 1.10992E-17 4.08343E-17
 -1       646 2.94401E-05-2.63139E-05-4.57420E-06-5.61074E-06 1.54981E-17 4.66239E-17
 -1       647 7.56305E-05-7.33068E-05-6.31600E-06 4.83396E-06 1.88253E-17 2.95620E-17
 -1       648 8.42612E-05-2.74698E-05-3.00537E-05 4.28176E-06 8.02169E-18 7.74527E-18
 -1       649 1.53520E-04-7.40835E-05-3.36313E-05 5.24357E-06 3.08831E-18-8.16169E-19
 -1       650 1.41872E-04-6.64764E-05-3.24452E-05 9.28576E-07 2.23015E-18 3.86962E-19
 -1       651 1.39488E-04-6.03365E-05-3.39996E-05-7.59090E-06 4.02701E-19 1.75425E-18
 -1       652 1.35716E-04-4.71165E-05-3.82061E-05-1.63788E-05-8.33573E-19 2.33127E-18
 -1       653 1.21071E-04-1.50234E-05-4.61134E-05-3.35684E-06-3.50116E-18 1.26668E-18
 -1       654 1.26872E-04-4.78283E-05-3.39818E-05 5.38713E-06 2.40577E-20 2.39852E-18
 -1       655 1.20298E-04-4.74276E-05-3.12340E-05-3.15965E-06-1.22158E-18 5.15208E-19
 -1       656 1.12372E-04-4.24851E-05-2.99497E-05-8.54153E-06-8.29642E-19-1.87077E-18
 -1       657 1.05984E-04-3.70909E-05-2.95240E-05-1.08823E-05 3.20116E-19-2.11471E-18
 -1       658 1.01549E-04-3.27871E-05-2.94701E-05-1.13566E-05 1.78980E-19-1.47602E-18
 -1       659 9.88253E-05-2.99436E-05-2.95211E-05-1.08307E-05-1.93718E-18-1.58992E-18
 -1       660 9.72459E-05-2.82677E-05-2.95619E-05-9.83874E-06-9.46263E-19-1.02149E-18
 -1       661 9.63641E-05-2.73884E-05-2.95605E-05-8.65416E-06-2.23746E-20-3.24486E-19
 -1       662 9.58696E-05-2.69852E-05-2.95212E-05-7.42283E-06 1.48267E-18-1.87436E-18
 -1       663 9.55689E-05-2.68223E-05-2.94620E-05-6.21394E-06 9.47428E-19-2.51950E-18
 -1       664 9.53432E-05-2.67400E-05-2.94004E-05-5.05068E-06 8.38294E-19-2.64675E-18
 -1       665 1.36056E-04-4.70290E-05-3.83899E-05 5.96324E-06 1.09873E-18-2.36375E-19
 -1       666 9.50916E-05-2.76736E-05-2.88925E-05-1.61866E-07 4.88770E-19-1.00666E-18
 -1       667 9.49395E-05-2.84386E-05-2.85004E-05-1.34816E-06 5.87929E-20-6.34167E-19
 -1       668 9.49716E-05-2.85000E-05-2.84879E-05-1.43786E-06 5.47886E-19-6.29686E-19
 -1       669 9.50308E-05-2.85100E-05-2.85089E-05-1.49230E-06 4.69007E-19-6.05158E-19
 -1       670 9.51113E-05-2.84815E-05-2.85556E-05-1.55593E-06 1.01175E-19-1.97685E-19
 -1       671 9.52111E-05-2.84236E-05-2.86231E-05-1.66279E-06 1.35159E-20 1.23208E-19
 -1       672 9.53308E-05-2.83435E-05-2.87086E-05-1.83953E-06 8.81338E-20 1.16401E-19
 -1       673 9.54741E-05-2.82483E-05-2.88108E-05-2.10711E-06 2.03784E-19-1.95808E-19
 -1       674 9.56476E-05-2.81466E-05-2.89286E-05-2.48123E-06 5.77989E-19 1.07230E-19
 -1       675 9.58618E-05-2.80516E-05-2.90610E-05-2.97144E-06 7.77972E-20-4.66071E-20
 -1       676 9.61323E-05-2.79842E-05-2.92057E-05-3.57883E-06 3.49373E-19 3.17757E-19
 -1       677 9.64831E-05-2.79777E-05-2.93588E-05-4.29180E-06 6.85931E-19 3.04696E-19
 -1       678 9.69519E-05-2.80847E-05-2.95138E-05-5.07969E-06 2.77033E-19-2.74521E-19
 -1       679 9.75975E-05-2.83846E-05-2.96621E-05-5.88355E-06 1.23065E-19-3.57583E-19
 -1       680 9.85093E-05-2.89899E-05-2.97939E-05-6.60364E-06 4.36181E-19-7.28238E-19
 -1       681 9.98161E-05-3.00454E-05-2.99024E-05-7.08321E-06-1.10828E-19-3.92441E-19
 -1       682 1.01683E-04-3.17062E-05-2.99919E-05-7.08928E-06-5.48957E-19 3.14872E-19
 -1       683 1.04273E-04-3.40664E-05-3.00922E-05-6.29620E-06-8.83920E-20 1.57489E-19
 -1       684 1.05637E-04-3.44261E-05-3.03074E-05-2.66354E-06-1.13565E-18-8.71901E-19
 -1       685 1.07488E-04-3.34172E-05-3.15922E-05 4.20998E-06-1.61599E-18-2.31019E-18
 -1       686 1.11856E-04-3.53606E-05-3.28048E-05 1.02748E-05-2.18720E-18-6.73167E-19
 -1       687 1.14562E-04-3.50829E-05-3.40966E-05 1.53375E-05-1.65390E-18 5.45265E-20
 -1       688 1.13568E-04-3.02764E-05-3.57852E-05 1.74002E-05-1.07866E-18 1.36067E-19
 -1       689 1.10245E-04-2.31881E-05-3.73917E-05 1.38336E-05-1.81444E-18 1.34848E-18
 -1       690 1.08183E-04-1.94870E-05-3.81110E-05 4.67404E-06-1.49921E-18 2.06823E-18
 -1       691 1.09210E-04-2.17655E-05-3.75683E-05-5.37973E-06-1.93401E-18 4.67443E-19
 -1       692 1.13109E-04-3.00274E-05-3.56732E-05-1.03527E-05-9.87968E-19-3.79967E-19
 -1       693 1.15852E-04-3.74801E-05-3.36048E-05-8.98510E-06 4.29813E-19 3.41623E-19
 -1       694 1.15271E-04-4.05417E-05-3.20335E-05-4.29399E-06 1.49967E-18 8.10993E-19
 -1       695 1.12234E-04-3.99174E-05-3.09987E-05 7.58976E-07 1.93714E-18 1.14911E-18
 -1       696 1.08407E-04-3.73938E-05-3.04393E-05 4.50301E-06 9.92875E-22 1.36201E-18
 -1       697 1.04889E-04-3.45283E-05-3.01578E-05 6.70438E-06 5.08484E-19 1.68389E-18
 -1       698 1.02086E-04-3.20784E-05-3.00050E-05 7.65677E-06 1.71618E-19 1.00157E-18
 -1       699 1.00030E-04-3.02861E-05-2.98909E-05 7.74979E-06 1.24322E-18 1.61787E-19
 -1       700 9.85697E-05-2.90930E-05-2.97757E-05 7.31571E-06 1.06799E-18-8.20715E-19
 -1       701 9.75328E-05-2.83445E-05-2.96517E-05 6.58468E-06 1.20152E-18-2.62597E-18
 -1       702 9.67738E-05-2.78786E-05-2.95257E-05 5.70366E-06 2.07190E-18-1.29282E-18
 -1       703 9.61853E-05-2.75600E-05-2.94093E-05 4.75182E-06 5.85854E-19 1.65805E-18
 -1       704 9.56084E-05-2.71695E-05-2.93295E-05 4.08504E-06 6.51279E-19 2.45258E-18
 -1       705 9.15107E-05-2.33401E-05-2.92167E-05 1.00606E-06 2.07998E-19 1.89349E-18
 -1       706 9.52079E-05-2.66950E-05-2.93615E-05-4.28482E-06 3.98859E-19-2.88171E-18
 -1       707 9.27758E-05-2.45281E-05-2.92495E-05 3.57141E-06 7.85809E-19 2.16192E-19
 -1       708 9.14239E-05-2.32490E-05-2.92185E-05-5.97301E-07 2.73834E-20-5.36675E-19
 -1       709 9.19856E-05-2.37890E-05-2.92277E-05 2.45546E-06-2.01229E-18 1.11196E-18
 -1       710 4.79004E-05-1.81598E-05-1.22695E-05-2.59540E-05 4.45381E-19 9.00343E-19
 -1       711 9.17402E-05-2.35296E-05-2.92336E-05-2.11958E-06 2.55927E-19-4.39100E-18
 -1       712 9.24420E-05-2.41640E-05-2.92625E-05-3.40807E-06-3.59717E-20-2.02569E-18
 -1       713 9.34588E-05-2.50822E-05-2.93050E-05-4.25354E-06 1.66837E-18-3.81062E-19
 -1       714 9.52245E-05-2.70185E-05-2.92288E-05 9.10701E-07 7.74905E-19-1.13449E-18
 -1       715 8.09461E-05-3.63367E-05-1.88092E-05 3.44254E-05-1.93040E-18-2.02479E-18
 -1       716 7.42809E-05-3.39350E-05-1.69168E-05-3.61696E-05-1.87406E-19-8.38298E-19
 -1       717 1.34675E-04-5.62124E-05-3.37345E-05-6.38549E-06 4.73147E-21-2.47913E-18
 -1       718 1.25730E-04-3.02493E-05-4.12703E-05 1.53136E-05-8.58044E-19 4.94720E-19
 -1       719 9.49433E-05-2.83061E-05-2.85587E-05-1.16397E-06 1.33570E-19-7.77769E-19
 -1       720 9.49936E-05-2.80714E-05-2.86808E-05-8.05130E-07 2.92436E-19-8.84884E-19
 -1       721 9.50864E-05-2.38539E-05-3.05287E-05-4.48142E-06-1.08805E-18-8.78123E-19
 -1       722 4.57351E-05-1.66856E-05-1.19875E-05-3.15201E-05-1.28863E-18-4.33871E-18
 -1       723 1.37691E-04-3.59130E-05-4.40673E-05-1.88583E-05-3.07383E-18 1.25607E-18
 -1       724 9.21082E-05-1.76736E-05-3.19065E-05 3.95141E-06 6.30296E-19-1.68905E-18
 -1       725 1.24951E-04-4.50671E-05-3.44140E-05 3.66167E-06-2.57140E-18 1.81090E-18
 -1       726 9.20666E-05-1.76148E-05-3.19134E-05-3.89763E-06-7.83785E-19-1.78804E-18
 -1       727 1.17384E-04-9.58353E-06-4.66311E-05-8.42237E-07-8.85785E-19-1.31931E-18
 -1       728 3.23949E-05-6.98023E-06-1.03761E-05 4.07795E-06 1.16281E-18-1.12078E-18
 -1       729 1.18732E-04-1.42361E-05-4.52446E-05 1.26283E-05-7.41445E-19-6.54704E-19
 -1       730 2.61998E-05-4.18231E-06-8.94210E-06-1.55512E-05-2.31425E-19-3.45071E-18
 -1       731 1.27306E-04-1.96089E-05-4.66755E-05-1.33026E-05-3.72827E-18 8.71345E-19
 -1       732 6.27876E-05-2.82202E-05-1.42654E-05 1.64918E-05 2.68659E-18 9.99578E-19
 -1       733 1.34980E-04-6.61063E-05-2.95767E-05 4.83228E-06 4.54830E-19-6.01658E-20
 -1       734 3.92797E-05-9.78694E-06-1.21217E-05-1.44715E-06-1.69052E-18-2.20520E-19
 -1       735 1.32006E-04-4.21112E-05-3.87714E-05-6.73511E-06 7.68656E-19-2.09424E-18
 -1       736 1.27468E-04-5.55007E-05-3.09401E-05 1.18441E-05 2.35905E-18-3.13116E-18
 -1       737 1.45303E-04-5.94153E-05-3.71032E-05-9.82883E-06-4.29141E-19-6.13331E-19
 -1       738 9.28806E-05-1.89124E-05-3.17049E-05-5.29117E-06-1.02264E-18-1.54671E-18
 -1       739 9.13265E-05-1.64326E-05-3.21027E-05-7.83128E-07-2.89487E-19-2.06940E-18
 -1       740 1.01041E-04-4.52461E-05-2.38498E-05 2.67042E-05-1.07694E-18-2.37875E-18
 -1       741 8.79794E-05-4.13957E-05-1.95854E-05 1.21643E-05 3.26612E-18 1.94878E-18
 -1       742 9.72369E-05-4.34504E-05-2.29098E-05-3.00016E-05 3.00849E-19 6.18718E-19
 -1       743 6.64374E-05-2.70869E-05-1.65772E-05-3.21813E-05-2.64350E-18-8.24137E-20
 -1       744 1.30270E-04-3.82349E-05-3.97738E-05 1.27186E-05 1.24546E-18 2.10717E-18
 -1       745 9.37789E-05-2.54590E-05-2.92808E-05 4.22323E-06-3.88316E-19 8.74552E-19
 -1       746 9.47075E-05-2.63121E-05-2.93122E-05 4.33497E-06-5.70605E-19 3.05098E-19
 -1       747 1.18684E-04-4.69245E-05-3.07675E-05-3.79863E-06-3.53503E-18 1.36937E-18
 -1       748 1.24003E-04-6.27181E-05-2.61558E-05 8.30833E-06 1.96713E-18 1.05197E-18
 -1       749 9.63351E-05-4.26638E-05-2.28900E-05-2.57868E-05-3.82736E-18-8.96518E-19
 -1       750 9.15668E-05-1.68134E-05-3.20426E-05-2.37877E-06-4.70004E-19-1.88137E-18
 -1       751 9.42889E-05-2.58557E-05-2.93285E-05-4.80089E-06 9.24036E-19-1.50933E-18
 -1       752 1.22482E-04-3.41446E-05-3.80248E-05-1.12035E-05-1.49276E-19-1.70037E-18
 -1       753 9.46473E-05-2.27096E-05-3.08276E-05 3.91780E-06 9.57340E-19-1.30775E-18
 -1       754 7.08849E-05-2.48009E-05-1.95407E-05 2.54235E-05-2.00950E-18 7.19091E-19
 -1       755 1.20720E-04-3.66873E-05-3.62038E-05 1.41161E-05-1.86754E-18 4.36636E-19
 -1       756 1.42124E-04-6.50923E-05-3.31625E-05-5.39745E-06 4.80221E-19 5.34154E-19
 -1       757 1.20306E-04-5.22540E-05-2.91269E-05 1.26745E-05 2.96892E-19-5.11490E-18
 -1       758 9.58786E-05-2.68406E-05-2.95879E-05-5.43719E-07-7.60843E-19-1.23772E-18
 -1       759 9.59670E-05-2.77009E-05-2.92569E-05 2.90895E-07-7.74160E-19-1.10531E-18
 -1       760 9.59476E-05-2.82231E-05-2.90248E-05 8.17335E-07-5.46747E-19-1.13768E-18
 -1       761 9.58738E-05-2.85109E-05-2.88698E-05 1.13194E-06-3.16685E-19-8.72884E-19
 -1       762 9.57727E-05-2.86324E-05-2.87745E-05 1.31593E-06 7.34577E-20-6.36138E-19
 -1       763 9.56573E-05-2.86322E-05-2.87250E-05 1.43437E-06 1.40186E-19 9.44141E-20
 -1       764 9.55320E-05-2.85394E-05-2.87111E-05 1.53839E-06-1.71775E-19 1.94888E-19
 -1       765 9.53961E-05-2.83721E-05-2.87246E-05 1.66835E-06-1.59937E-19 1.01920E-19
 -1       766 9.52456E-05-2.81410E-05-2.87591E-05 1.85665E-06 2.84093E-20-5.01674E-19
 -1       767 9.50737E-05-2.78521E-05-2.88092E-05 2.12987E-06-6.20658E-19-6.19252E-19
 -1       768 9.48722E-05-2.75095E-05-2.88697E-05 2.51026E-06-9.99571E-19-4.40074E-19
 -1       769 9.46319E-05-2.71181E-05-2.89344E-05 3.01648E-06-9.16960E-19-6.67160E-20
 -1       770 9.43449E-05-2.66880E-05-2.89957E-05 3.66389E-06-1.03563E-18 4.02350E-19
 -1       771 9.40080E-05-2.62402E-05-2.90432E-05 4.46441E-06-8.10970E-19 4.30337E-19
 -1       772 5.88469E-05-1.92229E-05-2.72903E-05-4.67169E-07-1.82694E-19 2.59141E-17
 -1       773 3.91585E-05-1.12887E-05-1.28432E-05 6.64601E-07 7.04652E-19 2.85420E-17
 -1       774 3.52426E-05-8.73431E-06-1.10077E-05-3.84218E-06 6.41565E-18 2.89715E-17
 -1       775 3.01660E-05-8.15720E-06-9.19721E-06-8.36928E-06 1.43609E-17 3.34623E-17
 -1       776 2.90046E-05-1.54894E-05-7.21038E-06-7.46889E-06 1.84896E-17 4.08728E-17
 -1       777 2.81401E-05-2.51419E-05-7.90477E-06-1.14325E-05 1.70842E-17 4.22655E-17
 -1       778 9.15337E-05-5.38016E-05-2.76750E-05-4.45490E-06 1.89697E-17 3.24659E-17
 -1       779 1.28238E-04-5.77160E-05-2.95762E-05-3.20301E-06 1.00041E-17-3.51135E-18
 -1       780 1.32213E-04-6.30431E-05-2.94133E-05-2.54075E-06 4.43962E-18-7.00496E-19
 -1       781 1.11181E-04-1.36089E-05-4.20737E-05 6.23562E-06-1.12945E-18-2.33693E-19
 -1       782 1.15627E-04-2.41735E-05-3.94148E-05 1.69035E-05-1.36927E-18 7.38626E-19
 -1       783 1.11907E-04-4.63923E-05-2.80099E-05-1.59641E-05-1.43218E-18 1.14824E-19
 -1       784 1.02958E-04-3.84995E-05-2.76337E-05-1.62465E-05 3.23180E-19 1.10828E-18
 -1       785 9.74671E-05-3.25391E-05-2.78199E-05-1.48705E-05-1.53115E-19 3.86492E-20
 -1       786 9.47165E-05-2.88828E-05-2.82131E-05-1.30279E-05-8.91794E-20 3.50947E-19
 -1       787 9.35073E-05-2.68249E-05-2.85778E-05-1.12199E-05-1.18691E-18 1.12514E-18
 -1       788 9.31800E-05-2.58441E-05-2.88579E-05-9.57319E-06-2.80087E-19-1.71099E-19
 -1       789 9.32936E-05-2.55067E-05-2.90512E-05-8.10246E-06 2.78574E-19-5.02947E-19
 -1       790 9.35904E-05-2.55031E-05-2.91801E-05-6.78818E-06 7.85054E-19-1.87087E-18
 -1       791 9.40080E-05-2.56996E-05-2.92744E-05-5.76106E-06 1.15016E-18-1.41183E-18
 -1       792 9.55620E-05-2.85903E-05-2.87022E-05-1.34840E-06 2.42076E-19-8.80482E-19
 -1       793 9.53604E-05-2.84434E-05-2.86787E-05-1.66026E-06-3.41196E-19-9.30346E-19
 -1       794 9.52969E-05-2.82798E-05-2.87216E-05-1.82392E-06-1.78256E-19-5.67372E-19
 -1       795 9.52326E-05-2.80771E-05-2.87809E-05-2.06695E-06 3.01376E-19 4.79950E-20
 -1       796 9.51669E-05-2.78447E-05-2.88523E-05-2.41006E-06 5.21529E-19-4.26653E-19
 -1       797 9.51019E-05-2.75945E-05-2.89316E-05-2.86892E-06 4.95682E-19-1.34405E-19
 -1       798 9.50443E-05-2.73458E-05-2.90135E-05-3.45350E-06 2.67146E-19-5.91122E-19
 -1       799 9.50101E-05-2.71305E-05-2.90910E-05-4.16651E-06-2.22878E-19-1.26388E-19
 -1       800 9.50305E-05-2.70005E-05-2.91555E-05-5.00062E-06 3.22145E-19 1.03554E-18
 -1       801 9.51625E-05-2.70378E-05-2.91960E-05-5.93428E-06 4.22715E-19 1.08366E-18
 -1       802 9.55027E-05-2.73652E-05-2.92015E-05-6.92520E-06 1.78274E-19 5.97245E-19
 -1       803 9.62066E-05-2.81567E-05-2.91640E-05-7.89918E-06 9.26238E-20 7.47000E-19
 -1       804 9.75069E-05-2.96372E-05-2.90873E-05-8.72957E-06-8.59782E-19 4.64222E-19
 -1       805 9.97212E-05-3.20549E-05-2.90011E-05-9.19763E-06-5.73770E-19-1.90886E-19
 -1       806 1.00536E-04-3.34351E-05-2.89647E-05-7.81422E-06-6.82517E-19-4.14199E-19
 -1       807 1.02304E-04-3.42863E-05-2.91631E-05-3.39792E-06-1.70746E-18-9.24018E-19
 -1       808 1.08478E-04-3.77258E-05-3.03463E-05 1.73011E-06-3.09374E-18-6.48917E-19
 -1       809 1.14752E-04-3.97789E-05-3.21711E-05 8.24051E-06-2.52332E-18-5.58787E-19
 -1       810 1.16306E-04-2.43421E-05-3.96682E-05-1.06927E-05-6.12908E-19-1.00389E-18
 -1       811 1.20378E-04-4.45667E-05-3.25513E-05-3.56491E-06 1.88892E-19-1.24542E-18
 -1       812 1.15517E-04-4.43748E-05-3.04983E-05 3.12749E-06 9.58621E-19-4.04112E-19
 -1       813 1.09340E-04-4.05667E-05-2.94714E-05 7.53946E-06 8.29921E-19 1.36875E-18
 -1       814 1.04155E-04-3.62598E-05-2.90966E-05 9.49741E-06-5.29042E-20 1.29160E-19
 -1       815 1.00366E-04-3.26026E-05-2.90407E-05 9.94220E-06 9.01059E-19-1.00464E-18
 -1       816 9.79353E-05-3.00239E-05-2.91045E-05 9.53095E-06 9.99313E-19-2.23018E-18
 -1       817 9.64854E-05-2.83858E-05-2.91853E-05 8.71394E-06 6.23422E-19-1.15368E-18
 -1       818 9.56767E-05-2.74355E-05-2.92459E-05 7.71601E-06 1.71203E-18 1.75194E-19
 -1       819 9.52558E-05-2.69339E-05-2.92806E-05 6.66009E-06 7.21376E-19-7.51484E-19
 -1       820 9.50341E-05-2.66716E-05-2.92980E-05 5.60500E-06 4.46154E-19-1.27414E-18
 -1       821 9.48467E-05-2.64832E-05-2.92995E-05 4.96602E-06-4.03111E-19-1.74194E-18
 -1       822 9.52213E-05-2.44760E-05-3.03197E-05 3.41525E-06 1.02122E-18-1.23266E-18
 -1       823 3.29244E-05-3.24626E-06-1.24566E-05-6.38092E-06 7.92525E-19-1.21430E-18
 -1       824 9.32363E-05-1.97567E-05-3.14924E-05 1.23050E-06 1.81114E-19-1.67214E-18
 -1       825 9.01778E-05-2.27740E-05-2.88876E-05 3.10820E-07-1.50644E-18 6.27693E-19
 -1       826 9.22502E-05-2.43376E-05-2.91061E-05-4.67971E-06 4.61010E-19 3.10494E-19
 -1       827 9.03233E-05-2.28637E-05-2.89113E-05-1.60170E-06-2.60392E-19-1.74138E-18
 -1       828 9.56333E-05-2.84605E-05-2.87884E-05-1.16110E-06-7.23084E-20-9.39693E-19
 -1       829 9.10360E-05-2.34053E-05-2.89849E-05-3.35960E-06 4.51166E-19-3.60313E-18
 -1       830 9.54248E-05-2.85589E-05-2.86568E-05-1.54982E-06 3.79208E-20-7.06471E-19
 -1       831 9.54918E-05-2.86139E-05-2.86620E-05-1.45981E-06 2.59816E-19-7.55887E-19
 -1       832 5.30414E-05-1.42204E-05-1.63574E-05-1.48870E-05-1.38461E-18-4.89664E-19
 -1       833 9.55829E-05-2.54783E-05-3.00449E-05-1.78856E-06-8.07450E-19-1.23333E-18
 -1       834 1.22949E-04-5.35110E-05-2.97702E-05-1.22150E-05-7.87800E-19-1.08190E-18
 -1       835 9.56985E-05-2.81830E-05-2.89352E-05-8.27636E-07 1.49055E-19-9.22688E-19
 -1       836 9.57383E-05-2.76915E-05-2.91632E-05-2.56232E-07 2.97932E-19-8.51764E-19
 -1       837 6.76841E-05-2.41392E-05-1.83888E-05-2.67716E-05-4.52421E-19 1.67436E-18
 -1       838 5.22671E-05-1.27570E-05-1.66967E-05 1.00393E-05-4.81872E-19 6.29147E-19
 -1       839 1.26895E-04-4.85934E-05-3.36608E-05-1.54450E-06 8.67497E-19-4.07611E-18
 -1       840 4.12483E-05-9.66708E-06-1.32109E-05-2.14136E-05-1.63450E-18-3.67852E-18
 -1       841 5.31510E-05-1.57689E-05-1.55733E-05 4.04409E-06 4.27924E-18 3.26920E-18
 -1       842 9.31272E-05-1.95572E-05-3.15311E-05 2.05296E-08-1.67782E-19-1.73573E-18
 -1       843 9.40676E-05-2.13539E-05-3.11632E-05 3.31130E-06 6.98613E-19-1.46034E-18
 -1       844 1.13060E-04-5.45840E-05-2.46839E-05 4.95358E-06 3.24276E-18 1.10029E-18
 -1       845 8.68316E-05-3.41716E-05-2.25355E-05-2.69892E-05-4.88301E-19-6.30649E-19
 -1       846 5.59485E-05-1.80101E-05-1.60233E-05-2.54145E-05-2.43574E-18-1.57862E-18
 -1       847 8.43471E-05-3.49561E-05-2.10010E-05-2.57664E-05-2.66650E-18-2.54464E-19
 -1       848 1.38019E-04-6.66359E-05-3.06784E-05-2.57733E-07 2.16177E-18-1.97484E-19
 -1       849 9.27879E-05-2.48929E-05-2.90970E-05 4.77726E-06-1.61463E-18 2.54885E-18
 -1       850 8.80098E-05-3.43273E-05-2.29314E-05 2.51639E-05-8.42970E-19-2.07473E-18
 -1       851 9.55294E-05-2.61531E-05-2.97328E-05 1.58844E-06 7.46409E-19-1.24184E-18
 -1       852 9.15119E-05-2.38766E-05-2.89868E-05 3.72822E-06-5.14433E-19 8.88299E-19
 -1       853 9.35488E-05-2.03437E-05-3.13746E-05 2.35565E-06 5.50793E-19-1.72436E-18
 -1       854 1.08995E-04-4.47919E-05-2.74753E-05-1.10001E-05-3.24667E-18 2.04700E-19
 -1       855 5.65955E-05-1.25068E-05-1.87521E-05-2.92877E-06-1.05490E-20-7.01582E-20
 -1       856 9.05973E-05-2.31311E-05-2.89143E-05 2.17705E-06-5.37020E-19 2.05613E-18
 -1       857 9.56654E-05-2.70552E-05-2.94040E-05 4.95844E-07 4.22556E-19-1.04501E-18
 -1       858 9.50173E-05-2.36163E-05-3.05995E-05-3.31345E-06-8.97752E-19-1.28411E-18
 -1       859 7.36111E-05-2.76016E-05-1.89853E-05 3.39337E-07 6.45117E-18 3.39644E-18
 -1       860 1.07385E-04-4.64022E-05-2.58761E-05-2.23804E-05-1.32038E-19 2.02548E-18
 -1       861 9.35249E-05-2.03102E-05-3.13795E-05-2.31772E-06-5.72608E-19-1.72168E-18
 -1       862 9.30653E-05-2.49798E-05-2.91775E-05-5.31768E-06 2.43409E-19 5.17835E-19
 -1       863 4.14228E-05-6.19130E-06-1.51215E-05-2.12515E-06 3.99602E-18 3.43676E-18
 -1       864 9.40120E-05-2.12852E-05-3.11722E-05-3.26297E-06-7.41455E-19-1.43061E-18
 -1       865 6.65290E-05-1.78869E-05-2.07613E-05 1.45133E-05-9.91890E-19-8.02683E-19
 -1       866 4.16183E-05-7.38190E-06-1.45838E-05-1.21902E-05-1.84213E-19-1.71958E-18
 -1       867 9.63500E-05-2.77993E-05-2.93789E-05 3.83383E-07-4.61860E-19-9.95904E-19
 -1       868 9.63424E-05-2.83280E-05-2.91490E-05 7.82422E-07-2.83639E-19-7.38516E-19
 -1       869 9.62367E-05-2.85974E-05-2.89883E-05 1.02998E-06-1.39252E-19-5.12107E-19
 -1       870 9.60680E-05-2.86751E-05-2.88827E-05 1.18700E-06 1.73294E-19-9.13800E-19
 -1       871 9.58559E-05-2.86083E-05-2.88204E-05 1.30395E-06 1.58940E-19-1.17376E-18
 -1       872 9.56079E-05-2.84279E-05-2.87915E-05 1.42134E-06-1.12496E-19-8.23352E-19
 -1       873 9.53237E-05-2.81529E-05-2.87875E-05 1.57184E-06-4.48005E-19-8.62100E-19
 -1       874 9.49962E-05-2.77946E-05-2.88007E-05 1.78183E-06-1.80502E-19-9.98617E-19
 -1       875 9.46138E-05-2.73589E-05-2.88235E-05 2.07290E-06-3.48357E-19-3.20029E-19
 -1       876 9.41611E-05-2.68501E-05-2.88476E-05 2.46312E-06-8.71146E-19 1.03575E-19
 -1       877 9.36211E-05-2.62740E-05-2.88630E-05 2.96791E-06-5.38621E-19 6.09761E-19
 -1       878 9.29767E-05-2.56434E-05-2.88571E-05 3.60125E-06-1.32406E-18 8.90838E-19
 -1       879 7.71823E-05-2.01783E-05-2.83354E-05 3.93999E-06-3.83695E-18 5.97539E-18
 -1       880 5.75517E-05-2.24603E-05-1.67816E-05-5.72237E-07-3.58845E-18 1.79922E-17
 -1       881 4.94048E-05-1.76051E-05-1.34502E-05-5.61802E-06 4.54836E-18 2.03115E-17
 -1       882 4.43189E-05-1.49998E-05-1.20594E-05-1.28064E-05 1.38632E-17 2.27602E-17
 -1       883 3.64192E-05-1.18938E-05-1.06566E-05-1.81164E-05 2.52682E-17 2.77721E-17
 -1       884 2.36624E-05-1.32401E-05-1.42485E-05 1.36987E-06 2.58007E-17 6.00826E-17
 -1       885 1.05733E-04-7.20629E-05-2.33520E-05 3.78904E-06-2.98325E-18 1.45563E-17
 -1       886 7.68840E-05-2.26074E-05-2.00748E-05-1.15572E-05 1.91058E-17 1.33874E-18
 -1       887 9.05409E-05-3.06506E-05-2.56318E-05-1.89765E-05-9.64231E-19 7.52830E-19
 -1       888 8.86247E-05-2.66954E-05-2.65439E-05-1.50295E-05 3.35730E-19 1.83884E-19
 -1       889 8.85030E-05-2.46975E-05-2.73467E-05-1.20443E-05-8.38012E-19-7.94346E-19
 -1       890 8.91472E-05-2.38872E-05-2.79689E-05-9.80402E-06-6.18981E-19-4.90684E-20
 -1       891 9.00996E-05-2.37663E-05-2.84282E-05-8.08113E-06-3.74567E-20 9.47986E-19
 -1       892 9.11077E-05-2.39940E-05-2.87632E-05-6.69289E-06 6.17117E-19 1.23603E-18
 -1       893 9.51540E-05-2.80018E-05-2.87795E-05-1.83596E-06-1.53758E-19-1.10100E-18
 -1       894 9.53865E-05-2.82829E-05-2.87586E-05-1.63319E-06-1.71925E-20-4.08524E-19
 -1       895 9.46004E-05-2.72847E-05-2.88496E-05-2.51038E-06 1.56316E-19-1.10191E-18
 -1       896 9.42726E-05-2.68759E-05-2.88842E-05-3.01754E-06 2.49653E-20-3.87397E-19
 -1       897 9.39139E-05-2.64649E-05-2.89067E-05-3.65630E-06-1.58055E-19 2.55574E-19
 -1       898 9.35407E-05-2.60943E-05-2.89055E-05-4.43673E-06-9.64284E-20-5.61234E-19
 -1       899 9.31897E-05-2.58331E-05-2.88670E-05-5.36640E-06 1.35503E-19-6.28785E-19
 -1       900 9.29322E-05-2.57882E-05-2.87758E-05-6.45078E-06 4.61381E-19 1.34566E-19
 -1       901 9.28937E-05-2.61195E-05-2.86172E-05-7.69190E-06 5.04708E-19 1.82019E-19
 -1       902 9.32823E-05-2.70543E-05-2.83831E-05-9.08105E-06-2.29272E-19 4.07301E-19
 -1       903 9.44249E-05-2.88974E-05-2.80836E-05-1.05758E-05-2.60694E-19 2.08449E-19
 -1       904 9.35964E-05-3.05354E-05-2.76914E-05-1.16111E-05-1.83950E-18-1.24932E-18
 -1       905 9.38043E-05-3.22694E-05-2.65470E-05-1.00598E-05-2.35276E-18-3.46872E-19
 -1       906 1.00068E-04-3.67438E-05-2.71001E-05-8.54302E-06-2.27665E-18 8.86025E-19
 -1       907 9.75229E-05-3.26570E-05-2.77995E-05 1.30087E-05 1.29236E-18-8.15342E-19
 -1       908 9.49184E-05-2.93540E-05-2.80960E-05 1.15351E-05 1.61144E-18-7.24873E-19
 -1       909 9.36500E-05-2.73538E-05-2.84116E-05 9.98864E-06 7.07279E-20 6.92909E-21
 -1       910 9.31942E-05-2.62634E-05-2.86843E-05 8.53575E-06-1.31732E-19 1.28087E-18
 -1       911 9.32070E-05-2.57729E-05-2.88994E-05 7.22206E-06 1.11743E-18 3.18746E-19
 -1       912 9.34326E-05-2.56106E-05-2.90658E-05 6.03952E-06 1.57551E-19 1.88458E-18
 -1       913 9.38531E-05-2.56989E-05-2.92085E-05 5.02362E-06-1.39771E-18 2.35179E-18
 -1       914 8.86509E-05-2.20879E-05-2.85273E-05-7.03761E-07-1.90625E-18 1.26835E-18
 -1       915 9.60876E-05-2.85659E-05-2.89379E-05-1.09120E-06 1.41592E-19-1.36262E-18
 -1       916 9.58014E-05-2.55376E-05-3.01131E-05-1.14130E-06-8.66293E-19-8.42657E-19
 -1       917 9.55957E-05-2.84977E-05-2.87563E-05-1.48994E-06-1.72875E-19-4.10709E-19
 -1       918 1.09954E-04-4.41443E-05-2.81565E-05 1.31296E-05-4.80764E-19-3.92770E-18
 -1       919 9.61772E-05-2.82874E-05-2.90957E-05-8.14999E-07 2.99323E-20-9.98975E-19
 -1       920 1.02410E-04-3.77537E-05-2.77356E-05 1.38901E-05 1.08687E-19-2.62565E-18
 -1       921 9.61882E-05-2.77624E-05-2.93253E-05-3.62123E-07 2.09740E-19-9.89363E-19
 -1       922 9.48935E-05-2.76653E-05-2.88121E-05-2.12186E-06 4.04655E-19-1.45979E-18
 -1       923 9.32256E-05-1.97403E-05-3.14948E-05-1.19041E-06-3.00330E-19-1.80024E-18
 -1       924 6.64020E-05-1.90343E-05-2.01408E-05-1.83925E-05-2.03486E-20 1.97584E-19
 -1       925 9.54850E-05-2.50433E-05-3.01909E-05 2.13377E-06 7.88189E-19-1.13841E-18
 -1       926 9.62007E-05-2.69151E-05-2.96940E-05-2.36304E-07-7.71728E-19-1.05971E-18
 -1       927 6.52751E-05-1.48774E-05-2.15324E-05 5.38368E-06 2.06930E-19 3.73489E-20
 -1       928 5.06901E-05-1.27966E-05-1.61304E-05-1.70871E-05-9.99175E-19-2.12004E-18
 -1       929 8.01024E-05-2.64996E-05-2.29178E-05-2.13309E-05 5.51823E-19 9.48935E-19
 -1       930 9.47121E-05-2.25713E-05-3.09173E-05 1.21177E-06 3.64530E-19-1.36732E-18
 -1       931 7.19208E-05-2.63211E-05-1.93834E-05-2.40304E-05-1.95255E-18 3.92560E-19
 -1       932 9.45665E-05-2.22277E-05-3.10023E-05 4.26872E-07-6.66319E-21-1.38444E-18
 -1       933 5.23383E-05-1.26420E-05-1.68029E-05-4.22514E-06 6.62374E-18 5.88241E-18
 -1       934 8.88707E-05-2.22901E-05-2.85342E-05 1.61985E-06-1.48036E-18 4.55847E-19
 -1       935 7.74973E-05-2.44766E-05-2.26642E-05 1.92705E-05-1.18016E-18 1.05711E-18
 -1       936 3.99614E-05-5.73619E-06-1.51338E-05-3.93035E-06 2.18214E-18 1.84968E-18
 -1       937 8.92145E-05-2.24535E-05-2.86117E-05-2.97130E-06-4.80932E-19-2.93966E-18
 -1       938 9.22072E-05-2.45246E-05-2.90059E-05-5.99018E-06 1.88006E-18 1.12413E-18
 -1       939 9.59511E-05-2.86658E-05-2.88366E-05-1.25928E-06 2.19139E-19-1.04226E-18
 -1       940 9.60591E-05-2.68845E-05-2.96468E-05 3.47703E-07 3.22673E-19-1.01084E-18
 -1       941 9.51264E-05-2.37268E-05-3.05991E-05-2.14111E-06-7.15129E-19-1.10762E-18
 -1       942 9.16324E-05-3.50206E-05-2.42063E-05-1.59226E-05-2.15008E-18-9.49249E-19
 -1       943 9.15819E-05-2.42941E-05-2.88385E-05 5.27716E-06 1.89625E-19 9.18073E-19
 -1       944 9.57842E-05-2.86321E-05-2.87794E-05-1.37711E-06-1.93691E-19-7.84770E-19
 -1       945 9.47018E-05-2.25491E-05-3.09217E-05-1.18944E-06-4.35065E-19-1.62102E-18
 -1       946 9.48822E-05-2.30287E-05-3.07915E-05-1.72771E-06-4.56198E-19-1.63975E-18
 -1       947 9.07930E-05-2.35305E-05-2.88281E-05-4.94039E-06 1.06901E-18-3.86613E-19
 -1       948 9.49970E-05-2.32640E-05-3.07429E-05 1.87964E-06 5.67281E-19-1.47123E-18
 -1       949 8.96792E-05-2.56772E-05-2.74286E-05 1.10007E-05 5.87420E-19 7.16389E-19
 -1       950 9.65817E-05-2.84346E-05-2.92059E-05 6.77978E-07 1.63372E-20-7.82665E-19
 -1       951 9.64242E-05-2.86460E-05-2.90478E-05 8.49804E-07 5.56321E-20-5.17068E-19
 -1       952 9.61810E-05-2.86542E-05-2.89401E-05 9.68908E-07-6.02022E-20-3.37186E-19
 -1       953 9.58726E-05-2.85049E-05-2.88719E-05 1.06939E-06 4.05940E-19-1.86273E-19
 -1       954 9.55059E-05-2.82280E-05-2.88334E-05 1.18032E-06-8.86234E-20-1.79781E-19
 -1       955 9.50784E-05-2.78421E-05-2.88156E-05 1.32483E-06-3.83899E-19-4.72854E-19
 -1       956 9.45791E-05-2.73577E-05-2.88092E-05 1.52140E-06-1.35774E-19-8.44751E-19
 -1       957 9.39910E-05-2.67804E-05-2.88046E-05 1.78499E-06-3.44864E-19-9.27881E-19
 -1       958 9.32920E-05-2.61144E-05-2.87905E-05 2.12799E-06-3.79195E-19-3.09585E-19
 -1       959 9.24566E-05-2.53667E-05-2.87529E-05 2.56133E-06-6.83983E-19-4.27166E-19
 -1       960 8.72551E-05-2.45509E-05-2.87039E-05 2.52776E-06-6.37903E-19 5.84982E-19
 -1       961 6.97736E-05-2.74643E-05-2.03599E-05-6.88786E-06-6.99643E-19 8.18991E-18
 -1       962 6.36385E-05-2.57146E-05-1.62043E-05-8.84928E-06 2.80782E-18 1.22148E-17
 -1       963 6.03359E-05-2.43510E-05-1.46277E-05-1.27985E-05 9.88630E-18 1.33316E-17
 -1       964 6.14294E-05-2.61954E-05-1.32701E-05-2.07057E-05 2.03275E-17 1.13192E-17
 -1       965 6.94830E-05-2.97605E-05-1.35049E-05-4.45529E-05 5.22272E-17-1.77856E-18
 -1       966 1.22055E-05 4.34073E-07-2.65375E-05-6.55884E-05 1.37720E-16 8.97978E-17
 -1       967 6.37998E-05-1.85057E-05-1.90510E-05-3.49522E-05 2.28995E-17 1.70378E-17
 -1       968 9.52199E-05-2.80166E-05-2.88014E-05-1.46663E-06 1.48993E-19-1.32351E-18
 -1       969 8.19600E-05-2.16321E-05-2.58572E-05-1.15628E-05-7.00742E-19 1.28083E-18
 -1       970 8.42649E-05-2.14594E-05-2.69177E-05-8.93768E-06-2.31784E-19 8.39067E-19
 -1       971 8.64050E-05-2.18059E-05-2.76855E-05-7.11273E-06-6.69163E-19 5.40003E-19
 -1       972 8.82617E-05-2.23623E-05-2.82427E-05-5.79266E-06-5.55655E-21-5.81664E-19
 -1       973 9.32245E-05-2.60369E-05-2.87947E-05-2.88104E-06-8.42599E-20-6.15123E-19
 -1       974 9.38284E-05-2.66071E-05-2.88092E-05-2.37141E-06-1.32387E-19-4.71109E-19
 -1       975 9.17978E-05-2.49203E-05-2.86618E-05-4.32594E-06-3.46299E-20-5.18685E-19
 -1       976 9.10173E-05-2.45000E-05-2.85075E-05-5.31508E-06 4.40730E-19-9.66819E-19
 -1       977 9.02678E-05-2.43144E-05-2.82657E-05-6.53968E-06-1.33986E-20-7.73941E-19
 -1       978 8.96715E-05-2.45387E-05-2.79139E-05-8.07024E-06-2.57350E-19-3.58648E-19
 -1       979 8.94417E-05-2.54270E-05-2.74349E-05-1.00018E-05-6.40060E-19-7.46784E-20
 -1       980 8.61251E-05-2.68100E-05-2.66793E-05-1.29886E-05-7.77338E-19 7.97852E-19
 -1       981 8.29714E-05-2.79810E-05-2.39655E-05-1.37608E-05-2.53695E-18-1.39198E-19
 -1       982 8.62171E-05-3.07395E-05-2.38323E-05-1.47399E-05-3.18879E-18-2.14650E-19
 -1       983 9.63630E-05-2.70448E-05-2.97081E-05 7.99130E-08 3.38842E-19-1.21371E-18
 -1       984 9.02943E-05-2.77783E-05-2.67928E-05 1.36509E-05 3.24324E-19-9.19817E-19
 -1       985 9.05794E-05-2.43346E-05-2.83912E-05 7.28585E-06-5.28146E-19 2.06786E-18
 -1       986 9.10725E-05-2.42662E-05-2.86313E-05 6.20939E-06-2.98474E-19 2.75903E-18
 -1       987 9.45639E-05-2.22217E-05-3.10037E-05-4.00088E-07-2.84850E-19-1.62916E-18
 -1       988 9.60644E-05-2.58111E-05-3.01089E-05-6.03395E-07-8.99959E-19-1.19744E-18
 -1       989 9.64727E-05-2.71214E-05-2.97221E-05-1.30120E-09-6.18547E-19-1.15019E-18
 -1       990 9.65069E-05-2.78943E-05-2.94054E-05-4.18343E-07 6.96936E-20-1.40436E-18
 -1       991 9.55724E-05-2.83387E-05-2.88144E-05-1.31146E-06-1.34385E-19-1.34083E-18
 -1       992 8.99289E-05-2.46766E-05-2.79666E-05 8.93696E-06-1.63144E-18 1.15536E-18
 -1       993 9.25440E-05-2.54582E-05-2.87511E-05-3.52503E-06 1.98780E-19-7.27289E-19
 -1       994 9.58200E-05-2.60801E-05-2.98903E-05 1.11310E-06 5.10761E-19-1.06282E-18
 -1       995 8.98363E-05-2.30304E-05-2.86320E-05 3.68103E-06-4.25251E-19 2.48372E-18
 -1       996 9.64848E-05-2.83942E-05-2.91818E-05-7.42238E-07 2.99122E-19-1.39426E-18
 -1       997 9.66164E-05-2.79548E-05-2.94265E-05 4.09818E-07-2.62367E-19-1.15753E-18
 -1       998 6.63894E-05-1.57322E-05-2.16469E-05-9.03717E-06-1.77455E-20 3.25810E-19
 -1       999 9.07301E-05-3.05380E-05-2.57764E-05 1.73716E-05-1.14626E-18-3.18998E-18
 -1      1000 7.37547E-05-1.89550E-05-2.34437E-05 1.12877E-05-1.86382E-18-7.40575E-20
 -1      1001 5.03327E-05-1.25537E-05-1.64838E-05-1.06978E-05 8.65317E-19-1.08443E-18
 -1      1002 7.49554E-05-2.05373E-05-2.32994E-05-1.47393E-05-1.16105E-18 8.75392E-19
 -1      1003 6.25656E-05-1.94941E-05-1.84146E-05-1.90589E-05-1.76451E-18 2.41166E-19
 -1      1004 9.56198E-05-2.44110E-05-3.05171E-05 4.82142E-07 3.34869E-19-9.81950E-19
 -1      1005 9.48177E-05-2.76126E-05-2.88022E-05-1.68196E-06 3.09570E-19-1.13938E-18
 -1      1006 3.83472E-05-2.94408E-06-1.64932E-05-4.49401E-06 7.20666E-18 9.56745E-18
 -1      1007 8.68322E-05-2.13178E-05-2.80764E-05 6.80706E-07-2.19339E-18 6.63018E-19
 -1      1008 7.95652E-05-2.26549E-05-2.43768E-05-1.55241E-05-1.22630E-18 7.37567E-19
 -1      1009 8.70251E-05-2.13882E-05-2.81292E-05-2.14454E-06-2.00676E-18 1.11373E-18
 -1      1010 9.63527E-05-2.86339E-05-2.90226E-05-9.47198E-07-2.46963E-20-1.45636E-18
 -1      1011 9.57058E-05-2.48126E-05-3.03841E-05 8.66875E-07 4.65570E-19-1.36483E-18
 -1      1012 9.58802E-05-2.85645E-05-2.88495E-05-1.19306E-06-4.80718E-19-1.11859E-18
 -1      1013 9.59601E-05-2.57067E-05-3.01056E-05 8.22743E-07 4.34862E-19-1.37684E-18
 -1      1014 9.55759E-05-2.45767E-05-3.04287E-05-1.12968E-06-6.25080E-19-1.46406E-18
 -1      1015 9.43570E-05-2.71386E-05-2.88079E-05-1.97753E-06-7.92514E-20-6.85753E-19
 -1      1016 9.56151E-05-2.43972E-05-3.05222E-05-4.77702E-07-3.57752E-19-1.40336E-18
 -1      1017 5.89352E-05-1.72989E-05-1.80313E-05-1.40659E-05-6.49052E-19 5.19002E-19
 -1      1018 9.10330E-05-2.43882E-05-2.85623E-05-3.00578E-06 1.17349E-19-5.74235E-19
 -1      1019 8.76650E-05-2.19550E-05-2.81606E-05 3.32841E-06-2.03604E-18 1.15294E-19
 -1      1020 9.64642E-05-2.86560E-05-2.90606E-05 5.86696E-07 2.18611E-19-2.79750E-19
 -1      1021 9.61455E-05-2.85791E-05-2.89571E-05 6.61379E-07 5.55349E-20-2.88166E-19
 -1      1022 9.57467E-05-2.83399E-05-2.88887E-05 7.31773E-07 3.30958E-19-8.61008E-19
 -1      1023 9.52730E-05-2.79672E-05-2.88455E-05 8.14684E-07-1.56726E-19-2.71459E-19
 -1      1024 9.47178E-05-2.74777E-05-2.88173E-05 9.22875E-07-9.65146E-19-4.16547E-19
 -1      1025 9.40657E-05-2.68804E-05-2.87939E-05 1.06618E-06-2.34817E-19-7.34154E-19
 -1      1026 9.32946E-05-2.61808E-05-2.87633E-05 1.25188E-06-2.25072E-19-8.23006E-19
 -1      1027 9.23764E-05-2.53833E-05-2.87116E-05 1.48532E-06-3.64449E-19-4.07747E-19
 -1      1028 9.12780E-05-2.44956E-05-2.86215E-05 1.77080E-06-6.01583E-19-1.19682E-19
 -1      1029 8.20273E-05-2.61453E-05-2.80324E-05-2.84564E-06 1.43022E-18 2.79849E-18
 -1      1030 7.07537E-05-2.83223E-05-1.95212E-05-1.13098E-05 2.88998E-18 6.52340E-18
 -1      1031 6.98691E-05-2.86954E-05-1.70934E-05-1.16833E-05 6.22334E-18 6.46044E-18
 -1      1032 7.16512E-05-3.06888E-05-1.54380E-05-1.24244E-05 1.09601E-17 4.19599E-18
 -1      1033 7.95616E-05-3.59880E-05-1.22251E-05-7.46752E-06 1.66638E-17-3.71509E-18
 -1      1034 8.98591E-05-3.67258E-05-1.98619E-05 1.93249E-05-2.14587E-17-2.89042E-17
 -1      1035 2.58094E-05-2.88192E-06-1.93848E-05 1.69511E-05 7.38443E-18 2.64469E-17
 -1      1036 7.13159E-05-1.60530E-05-2.36799E-05-1.85324E-06-3.08933E-19 8.03383E-19
 -1      1037 8.25633E-05-1.98392E-05-2.68762E-05-4.81106E-06-1.09792E-18-1.98980E-19
 -1      1038 8.54106E-05-2.08530E-05-2.76707E-05-3.94151E-06-2.03615E-18 2.72209E-19
 -1      1039 8.85986E-05-2.30395E-05-2.80972E-05-4.73070E-06-8.43912E-20-7.27864E-19
 -1      1040 8.98816E-05-2.36659E-05-2.83785E-05-3.75768E-06 2.54242E-19-6.64628E-19
 -1      1041 8.57702E-05-2.25356E-05-2.71009E-05-7.76411E-06-5.45630E-19-8.26626E-19
 -1      1042 7.97131E-05-2.38059E-05-2.60360E-05-1.20320E-05-1.07372E-18 3.83282E-20
 -1      1043 7.23489E-05-2.36111E-05-2.16131E-05-1.39431E-05-2.02475E-18 2.02494E-18
 -1      1044 8.25441E-05-2.37878E-05-2.51807E-05 1.40408E-05-2.17885E-18 1.49697E-19
 -1      1045 8.40471E-05-2.26628E-05-2.63092E-05 1.05046E-05 3.17656E-19 5.58703E-19
 -1      1046 8.72060E-05-2.26096E-05-2.76848E-05-6.01643E-06 3.32311E-20-1.18242E-18
 -1      1047 9.55784E-05-2.42714E-05-3.05600E-05 7.67416E-09 3.85600E-20-1.29458E-18
 -1      1048 7.89287E-05-1.88094E-05-2.57721E-05-6.27190E-06-1.52172E-18 1.07224E-18
 -1      1049 9.29281E-05-2.58646E-05-2.87416E-05-1.96361E-06 8.13665E-20-5.16550E-19
 -1      1050 4.97078E-05-1.46835E-05-1.68939E-05-2.38573E-06 4.20875E-18 2.98362E-18
 -1      1051 7.45424E-05-2.50052E-05-2.12436E-05-1.65515E-05-2.71186E-18 9.37440E-19
 -1      1052 9.66116E-05-2.73066E-05-2.97029E-05-7.97026E-08 2.09052E-19-1.05065E-18
 -1      1053 9.36881E-05-2.65414E-05-2.87773E-05-1.61292E-06-5.84620E-19-9.52173E-19
 -1      1054 9.63416E-05-2.62482E-05-3.00400E-05-2.11977E-07-5.29181E-19-9.18070E-19
 -1      1055 8.92168E-05-2.30286E-05-2.83686E-05 5.06521E-06-6.82859E-19-2.16425E-19
 -1      1056 9.67176E-05-2.80666E-05-2.94216E-05-3.90762E-07 6.60781E-20-1.11583E-18
 -1      1057 7.50414E-05-1.74523E-05-2.46676E-05 4.28035E-06-1.33015E-18-2.19926E-18
 -1      1058 9.53941E-05-2.81025E-05-2.88393E-05-1.01203E-06-1.29051E-20-6.08816E-19
 -1      1059 9.66880E-05-2.85334E-05-2.92093E-05 4.87534E-07 1.91360E-19-5.53984E-19
 -1      1060 9.61429E-05-2.86734E-05-2.89155E-05-1.08209E-06-2.60146E-19-1.31690E-18
 -1      1061 9.20469E-05-2.51368E-05-2.86760E-05-2.41964E-06 2.88700E-19-2.76816E-19
 -1      1062 8.49742E-05-2.07019E-05-2.75495E-05 2.63815E-06 8.05057E-19 2.00341E-19
 -1      1063 8.55605E-05-2.21710E-05-2.71543E-05 8.11323E-06-1.80936E-18 1.05311E-18
 -1      1064 9.49062E-05-2.76722E-05-2.88147E-05-1.15354E-06 1.24436E-19-7.78881E-19
 -1      1065 9.58152E-05-2.84255E-05-2.88813E-05-9.06975E-07-3.93914E-19-9.28441E-19
 -1      1066 7.91975E-05-1.98848E-05-2.54210E-05 8.23907E-06-1.08030E-18 9.39462E-19
 -1      1067 9.62851E-05-2.59079E-05-3.01618E-05 1.06674E-07 2.82300E-19-7.92284E-19
 -1      1068 9.62208E-05-2.60616E-05-3.00682E-05 3.67785E-07 2.83810E-19-1.29030E-18
 -1      1069 7.44247E-05-1.79656E-05-2.41680E-05-8.61084E-06-2.97867E-19 2.23035E-18
 -1      1070 5.52490E-05-1.72068E-05-1.76305E-05-9.68932E-06 1.99381E-18 1.08325E-18
 -1      1071 9.66599E-05-2.85040E-05-2.92098E-05-5.96180E-07 1.08999E-19-9.12761E-19
 -1      1072 9.67765E-05-2.81409E-05-2.94152E-05 3.40428E-07-2.46951E-20-4.55192E-19
 -1      1073 9.62597E-05-2.58761E-05-3.01627E-05-9.88986E-08-1.50748E-20-9.43683E-19
 -1      1074 8.75822E-05-2.25751E-05-2.78557E-05 6.29722E-06-1.28610E-18-2.52646E-19
 -1      1075 9.66857E-05-2.74115E-05-2.96884E-05 1.18006E-07-3.22273E-19-7.14286E-19
 -1      1076 9.43422E-05-2.71481E-05-2.87975E-05-1.34845E-06 1.79923E-19-8.80357E-19
 -1      1077 9.67150E-05-2.71979E-05-2.97946E-05 1.94121E-08 3.69147E-21-5.07967E-19
 -1      1078 8.45547E-05-2.02986E-05-2.75364E-05-7.53020E-07-2.21745E-19-1.22294E-19
 -1      1079 9.59965E-05-2.84569E-05-2.89453E-05 2.73554E-07-1.53200E-19-8.22465E-19
 -1      1080 9.55222E-05-2.81318E-05-2.88814E-05 3.02182E-07 1.27377E-19-1.26542E-18
 -1      1081 9.49616E-05-2.76744E-05-2.88371E-05 3.35759E-07-2.85022E-19-1.48637E-18
 -1      1082 9.43039E-05-2.70987E-05-2.88020E-05 3.77416E-07-3.12399E-19-6.57418E-19
 -1      1083 9.35301E-05-2.64129E-05-2.87642E-05 4.28201E-07-3.18049E-20-4.17075E-19
 -1      1084 9.26139E-05-2.56225E-05-2.87103E-05 4.87094E-07-4.26811E-19-5.70605E-19
 -1      1085 9.15235E-05-2.47337E-05-2.86239E-05 5.50873E-07-1.45262E-19-5.74664E-19
 -1      1086 9.02199E-05-2.37557E-05-2.84843E-05 6.14064E-07-1.71815E-19-5.39320E-20
 -1      1087 8.27490E-05-2.64584E-05-2.78374E-05-4.59182E-06 8.77844E-19 2.75805E-18
 -1      1088 7.46830E-05-2.94150E-05-2.04854E-05-1.01828E-05 2.88002E-18 3.30412E-18
 -1      1089 7.70032E-05-3.17622E-05-1.85772E-05-1.03443E-05 6.29598E-18 2.52733E-19
 -1      1090 7.67453E-05-3.09153E-05-1.73201E-05-1.11154E-05 1.19163E-17-3.31423E-18
 -1      1091 6.64882E-05-2.54764E-05-1.77483E-05-1.11917E-05 2.09319E-17 3.46055E-18
 -1      1092 8.73250E-05-2.45635E-05-2.80959E-05-3.88154E-06 8.61591E-20 5.39031E-19
 -1      1093 9.19792E-05-2.51124E-05-2.86575E-05-1.26606E-06-4.18252E-20-1.08600E-18
 -1      1094 9.08298E-05-2.42374E-05-2.85399E-05-1.60079E-06 2.68535E-19-8.31621E-19
 -1      1095 8.46200E-05-2.67491E-05-2.67096E-05-7.22727E-06 2.62718E-18 6.72729E-19
 -1      1096 6.35477E-05-2.07978E-05-2.00893E-05-1.21252E-05-7.28462E-19 4.32294E-18
 -1      1097 7.68263E-05-2.38151E-05-2.67596E-05-9.46154E-06-2.57945E-18 1.25853E-18
 -1      1098 8.63613E-05-2.78405E-05-2.71901E-05-5.78196E-06 1.76945E-18 3.40864E-19
 -1      1099 9.37885E-05-2.66482E-05-2.87746E-05-8.28635E-07-3.55414E-19-1.38832E-18
 -1      1100 8.09506E-05-1.89110E-05-2.65975E-05 2.38198E-07-1.92258E-18-1.59644E-18
 -1      1101 9.29567E-05-2.59215E-05-2.87296E-05-1.01508E-06-4.22175E-19-1.41929E-18
 -1      1102 8.94797E-05-2.33217E-05-2.83539E-05-2.04673E-06-2.64930E-19 2.47637E-20
 -1      1103 9.66797E-05-2.86163E-05-2.91707E-05 2.04902E-07 2.44294E-19-8.98233E-19
 -1      1104 9.68058E-05-2.76286E-05-2.96464E-05-8.57244E-08-1.65101E-20-9.78658E-19
 -1      1105 9.63857E-05-2.86300E-05-2.90379E-05 2.46191E-07 1.00899E-19-9.76491E-19
 -1      1106 9.64458E-05-2.86472E-05-2.90567E-05-7.19061E-07-2.94222E-20-7.32517E-19
 -1      1107 8.23789E-05-2.04076E-05-2.65701E-05 5.99788E-06-1.29183E-18 3.10209E-18
 -1      1108 9.56289E-05-2.82299E-05-2.88853E-05-5.21775E-07-2.61757E-19-1.63064E-18
 -1      1109 6.07336E-05-2.48186E-05-1.96843E-05-1.11306E-05 6.20219E-18 5.85109E-18
 -1      1110 9.44985E-05-2.72817E-05-2.88074E-05-6.92208E-07 1.41629E-19-1.56251E-18
 -1      1111 9.51070E-05-2.78126E-05-2.88406E-05-5.93679E-07 3.52045E-19-1.98578E-18
 -1      1112 9.68537E-05-2.82791E-05-2.93888E-05-1.92291E-07-5.01539E-20-4.59666E-19
 -1      1113 9.61749E-05-2.86231E-05-2.89509E-05-8.19719E-07-5.29763E-19-1.12117E-18
 -1      1114 9.68224E-05-2.83220E-05-2.93575E-05 1.64705E-07-8.53202E-20-5.02567E-19
 -1      1115 9.68434E-05-2.78813E-05-2.95551E-05 1.02312E-07-6.54385E-20-3.48536E-19
 -1      1116 5.65108E-05-1.85423E-05-2.14392E-05-1.37699E-05 5.55108E-18 1.13286E-17
 -1      1117 9.65673E-05-2.86564E-05-2.91040E-05-1.47622E-07-2.80472E-20-6.89704E-19
 -1      1118 9.60714E-05-2.85176E-05-2.89516E-05-4.61877E-07-1.78022E-19-1.19764E-18
 -1      1119 7.94829E-05-1.88213E-05-2.60300E-05 3.51940E-06-2.87828E-18-8.45974E-19
 -1      1120 1.16808E-04 2.57424E-10-4.18378E-05-4.14628E-05-1.61360E-19 7.93035E-18
 -1      1121 8.86161E-05 7.18629E-11-3.72375E-05-2.41784E-05-1.08208E-19 1.98735E-18
 -1      1122 8.40566E-05 4.14358E-11-3.57582E-05-1.78934E-05-8.87267E-20-8.43115E-19
 -1      1123 8.23296E-05 3.20129E-11-3.50704E-05-1.38536E-05-6.64127E-20-2.27542E-18
 -1      1124 8.15408E-05 2.73587E-11-3.47421E-05-1.05491E-05-4.88500E-20-2.98925E-18
 -1      1125 8.11499E-05 2.46289E-11-3.45816E-05-7.65268E-06-3.18961E-20-3.38161E-18
 -1      1126 8.09486E-05 2.29805E-11-3.45015E-05-4.98834E-06-2.45606E-20-3.57835E-18
 -1      1127 8.08518E-05 2.20904E-11-3.44643E-05-2.43660E-06-1.74965E-20-3.66379E-18
 -1      1128 8.08245E-05 2.18207E-11-3.44540E-05 5.25317E-08-3.58335E-21-3.74071E-18
 -1      1129 8.08561E-05 2.21342E-11-3.44657E-05 2.54417E-06 4.65868E-21-3.76530E-18
 -1      1130 8.09574E-05 2.30815E-11-3.45043E-05 5.10432E-06 7.76888E-21-3.73411E-18
 -1      1131 8.11648E-05 2.47929E-11-3.45854E-05 7.78510E-06 2.99307E-20-3.55314E-18
 -1      1132 8.15622E-05 2.76571E-11-3.47481E-05 1.07087E-05 4.00223E-20-3.28311E-18
 -1      1133 8.23530E-05 3.25008E-11-3.50804E-05 1.40595E-05 5.54277E-20-2.71209E-18
 -1      1134 8.40536E-05 4.19020E-11-3.57785E-05 1.81449E-05 8.74032E-20-1.59560E-18
 -1      1135 8.83137E-05 6.66847E-11-3.73076E-05 2.40207E-05 1.10961E-19 8.59871E-19
 -1      1136 1.06573E-04 1.63810E-10-4.06164E-05 3.61918E-05 2.62580E-19 6.40547E-18
 -1      1137 1.30163E-04-2.57422E-05-4.02547E-05-2.61034E-05-7.23578E-19 1.18314E-17
 -1      1138 9.73895E-05-2.88425E-05-3.15571E-05-6.81845E-07-2.18429E-19 1.01910E-17
 -1      1139 9.00805E-05-2.70028E-05-2.78693E-05 3.86357E-07-5.06632E-20 7.52380E-18
 -1      1140 8.81582E-05-2.65451E-05-2.66164E-05 2.50017E-07-1.03388E-19 5.51683E-18
 -1      1141 8.77883E-05-2.64151E-05-2.63566E-05 1.64960E-07-5.40943E-20 4.12217E-18
 -1      1142 8.81371E-05-2.64888E-05-2.64385E-05 1.16940E-07-5.81955E-20 3.25578E-18
 -1      1143 8.88154E-05-2.66710E-05-2.66390E-05 8.60725E-08-2.72060E-20 2.58297E-18
 -1      1144 8.96267E-05-2.69021E-05-2.68808E-05 6.45712E-08-5.95498E-20 2.23330E-18
 -1      1145 9.04650E-05-2.71468E-05-2.71312E-05 4.86213E-08 5.78917E-20 1.69310E-18
 -1      1146 9.12742E-05-2.73858E-05-2.73737E-05 3.63448E-08-1.12522E-19 7.16418E-19
 -1      1147 9.20293E-05-2.76105E-05-2.76011E-05 2.67785E-08-4.25261E-20-3.11774E-19
 -1      1148 9.27268E-05-2.78192E-05-2.78121E-05 1.93972E-08-4.89006E-20-2.03063E-19
 -1      1149 9.33789E-05-2.80152E-05-2.80102E-05 1.39108E-08-5.04162E-20-6.51703E-20
 -1      1150 9.40098E-05-2.82057E-05-2.82027E-05 1.01845E-08-4.04355E-20 6.45598E-20
 -1      1151 9.46542E-05-2.84007E-05-2.84000E-05 8.21557E-09-9.50840E-20 3.96972E-19
 -1      1152 9.53560E-05-2.86134E-05-2.86152E-05 8.13656E-09-1.57875E-19-5.60498E-20
 -1      1153 9.61687E-05-2.88598E-05-2.88645E-05 1.02327E-08-5.86645E-20-2.89976E-20
 -1      1154 9.71548E-05-2.91585E-05-2.91668E-05 1.49645E-08-1.20690E-19-9.03058E-19
 -1      1155 9.83858E-05-2.95306E-05-2.95433E-05 2.29831E-08 6.45867E-20-1.25580E-18
 -1      1156 9.99400E-05-2.99994E-05-3.00172E-05 3.51079E-08-8.86969E-20-1.32413E-18
 -1      1157 3.48424E-05-1.00865E-05-2.01970E-05 1.41331E-05-4.04712E-18 2.98655E-17
 -1      1158 6.08363E-05-1.81003E-05-1.82363E-05 2.85503E-07-2.40822E-19 2.77837E-17
 -1      1159 7.21988E-05-2.10801E-05-2.37153E-05 6.54943E-07-5.43557E-19 2.73693E-17
 -1      1160 1.01600E-04-2.75349E-05-3.44833E-05 9.65677E-06-2.39509E-18 1.60386E-17
 -1      1161 2.69041E-04-7.41232E-05-4.13415E-05 9.80288E-05-9.57622E-17-1.39549E-16
 -1      1162-1.61622E-04 5.58818E-05-3.48170E-06 1.35468E-04-1.51367E-16 2.00649E-16
 -1      1163 6.41313E-05-3.30585E-05 6.19952E-06 8.50416E-06-5.67512E-19 3.54331E-17
 -1      1164 8.60427E-05-3.02358E-05-1.47333E-05 3.28015E-07-4.25105E-19 1.32518E-17
 -1      1165 1.00013E-04-3.07007E-05-2.68182E-05 3.98151E-07-1.19286E-19 8.61644E-18
 -1      1166 1.05852E-04-3.16389E-05-3.06852E-05-2.13070E-07-2.21645E-19 6.11113E-18
 -1      1167 1.02985E-04-3.07458E-05-3.05436E-05-6.84398E-07-1.63094E-19 3.97068E-18
 -1      1168 9.57835E-05-2.87217E-05-2.89185E-05-7.42303E-07 1.49829E-19 9.65406E-19
 -1      1169 8.97985E-05-2.70486E-05-2.75134E-05-3.66014E-07-8.56827E-20 7.11508E-19
 -1      1170 8.92140E-05-2.68992E-05-2.73943E-05 2.20560E-07-5.38250E-19 2.18376E-19
 -1      1171 9.47348E-05-2.84872E-05-2.87730E-05 6.64681E-07 1.31287E-19-1.03709E-18
 -1      1172 1.03675E-04-3.10751E-05-3.10676E-05 7.61513E-07-1.09035E-20 1.88465E-20
 -1      1173 1.12232E-04-3.35869E-05-3.33701E-05 5.71623E-07-1.48846E-19-5.32572E-19
 -1      1174 1.17806E-04-3.52487E-05-3.49780E-05 2.84581E-07-3.54960E-20-3.00167E-20
 -1      1175 1.19742E-04-3.58466E-05-3.56313E-05 4.75336E-08 2.98811E-20 3.09829E-20
 -1      1176 1.18728E-04-3.55685E-05-3.54432E-05-9.10268E-08-8.83131E-20-1.20756E-18
 -1      1177 1.15896E-04-3.47439E-05-3.46942E-05-1.46149E-07-2.93373E-19-3.64611E-18
 -1      1178 1.12252E-04-3.36705E-05-3.36675E-05-1.50789E-07 2.60341E-19-4.26359E-18
 -1      1179 1.08485E-04-3.25538E-05-3.25726E-05-1.32493E-07-2.51290E-19-1.94534E-18
 -1      1180 1.04982E-04-3.15112E-05-3.15367E-05-1.07919E-07-1.02457E-19 5.92897E-19
 -1      1181 1.01927E-04-3.05988E-05-3.06245E-05-8.47404E-08 2.68840E-19 1.02057E-18
 -1      1182 9.93858E-05-2.98383E-05-2.98642E-05-6.46604E-08-1.51368E-19 2.40971E-18
 -1      1183 9.73874E-05-2.92389E-05-2.92692E-05-4.50516E-08 3.63389E-19 3.03463E-18
 -1      1184 9.59715E-05-2.88134E-05-2.88508E-05-1.80553E-08 1.78977E-20 6.25880E-18
 -1      1185 9.52337E-05-2.86049E-05-2.86102E-05 3.27271E-08-4.06171E-19 4.56382E-18
 -1      1186 9.51194E-05-2.85331E-05-2.84883E-05 4.09042E-08 1.92738E-19 2.54822E-18
 -1      1187 1.30998E-04-3.77223E-05-3.86403E-05 1.21729E-05-1.04820E-19 1.10936E-17
 -1      1188 9.64906E-05-2.81690E-05-3.13095E-05 8.02058E-07 7.46183E-20 8.20224E-18
 -1      1189 9.02943E-05-2.69054E-05-2.78502E-05 1.20606E-07 6.99001E-20 5.56580E-18
 -1      1190 8.82449E-05-2.64724E-05-2.66527E-05 9.51383E-09 5.12488E-20 3.52562E-18
 -1      1191 8.78294E-05-2.63778E-05-2.63838E-05-2.45647E-08 8.72394E-20 2.20112E-18
 -1      1192 8.81598E-05-2.64716E-05-2.64544E-05-3.32782E-08 7.28994E-20 1.01152E-18
 -1      1193 8.88295E-05-2.66644E-05-2.66494E-05-3.40430E-08-5.77761E-20 1.29048E-18
 -1      1194 8.96366E-05-2.69011E-05-2.68886E-05-3.17797E-08-7.82962E-20 1.63800E-18
 -1      1195 9.04729E-05-2.71489E-05-2.71374E-05-2.80332E-08-4.22376E-20 5.61159E-19
 -1      1196 9.12814E-05-2.73896E-05-2.73789E-05-2.34984E-08 6.85632E-20 2.47228E-20
 -1      1197 9.20368E-05-2.76153E-05-2.76057E-05-1.85807E-08 6.45609E-20-6.11988E-19
 -1      1198 9.27353E-05-2.78245E-05-2.78164E-05-1.35436E-08 5.94946E-20-1.53121E-18
 -1      1199 9.33885E-05-2.80207E-05-2.80144E-05-8.56846E-09 5.55544E-20-1.67528E-18
 -1      1200 9.40200E-05-2.82107E-05-2.82067E-05-3.79846E-09-3.32624E-20-2.22104E-18
 -1      1201 9.46630E-05-2.84046E-05-2.84031E-05 6.20632E-10 1.47579E-19-2.78053E-18
 -1      1202 9.53586E-05-2.86145E-05-2.86161E-05 4.49376E-09-2.84180E-20-2.53546E-18
 -1      1203 9.61554E-05-2.88550E-05-2.88602E-05 7.52030E-09-1.67081E-19-1.89393E-18
 -1      1204 9.71077E-05-2.91421E-05-2.91516E-05 9.22486E-09 1.67569E-19-1.96946E-18
 -1      1205 9.82736E-05-2.94929E-05-2.95074E-05 8.87477E-09 9.17567E-20-3.36895E-18
 -1      1206 9.97098E-05-2.99241E-05-2.99441E-05 5.39452E-09 1.41764E-19-3.96293E-18
 -1      1207 1.01464E-04-3.04491E-05-3.04745E-05-2.68644E-09-5.08633E-20-2.76341E-18
 -1      1208 1.03559E-04-3.10739E-05-3.11035E-05-1.71606E-08-1.11139E-19-1.19712E-18
 -1      1209 1.05969E-04-3.17897E-05-3.18197E-05-3.97522E-08 2.07999E-19-3.61933E-18
 -1      1210 1.08586E-04-3.25631E-05-3.25851E-05-7.10790E-08-8.97861E-21-5.70768E-18
 -1      1211 1.11170E-04-3.33224E-05-3.33216E-05-1.08540E-07-1.98747E-20-5.47197E-18
 -1      1212 1.13303E-04-3.39452E-05-3.38999E-05-1.42959E-07 2.53099E-19-5.64132E-18
 -1      1213 1.14373E-04-3.42541E-05-3.41402E-05-1.55122E-07-9.73161E-20-4.90451E-18
 -1      1214 1.13634E-04-3.40363E-05-3.38416E-05-1.16493E-07-1.90963E-19-4.43324E-18
 -1      1215 1.35492E-04-4.16924E-05-3.61921E-05 3.86483E-06 1.00850E-20-3.03238E-18
 -1      1216 1.17635E-04-3.53259E-05-3.52015E-05 5.57720E-07 2.45309E-20-3.06202E-18
 -1      1217 1.06573E-04-3.19653E-05-3.22318E-05 5.05217E-07 5.86041E-20-2.99225E-18
 -1      1218 9.74238E-05-2.92714E-05-2.95871E-05 5.39861E-07 2.62656E-19-3.20231E-18
 -1      1219 9.17340E-05-2.75545E-05-2.79819E-05 4.35748E-07-1.44810E-19-2.15649E-19
 -1      1220 9.07824E-05-2.72219E-05-2.76831E-05 1.86305E-07-2.15636E-19 3.35999E-18
 -1      1221 9.43028E-05-2.82451E-05-2.85747E-05-1.06877E-07-1.74201E-19 3.08278E-18
 -1      1222 1.00439E-04-3.00884E-05-3.01841E-05-3.13899E-07 3.08810E-19 1.65939E-18
 -1      1223 1.06763E-04-3.20093E-05-3.18958E-05-3.76343E-07 1.99847E-19-2.05141E-19
 -1      1224 1.11435E-04-3.34326E-05-3.32149E-05-3.19307E-07-6.94997E-20-6.18758E-19
 -1      1225 1.13705E-04-3.41234E-05-3.39037E-05-2.07257E-07 3.67424E-19-8.45736E-19
 -1      1226 1.13738E-04-3.41332E-05-3.39682E-05-9.54618E-08 8.71203E-20-8.83958E-20
 -1      1227 1.12156E-04-3.36544E-05-3.35566E-05-1.13972E-08 2.39320E-20 1.10053E-18
 -1      1228 1.09650E-04-3.28987E-05-3.28561E-05 4.01939E-08 3.77873E-19-2.42720E-18
 -1      1229 1.06781E-04-3.20358E-05-3.20294E-05 6.58343E-08 6.69717E-20-4.12328E-18
 -1      1230 1.03926E-04-3.11794E-05-3.11927E-05 7.48573E-08-1.30074E-19-1.31588E-18
 -1      1231 1.01310E-04-3.03960E-05-3.04187E-05 7.52360E-08 1.06570E-19-5.95570E-21
 -1      1232 9.90550E-05-2.97215E-05-2.97496E-05 7.21805E-08-8.85302E-20-2.86093E-18
 -1      1233 9.72350E-05-2.91780E-05-2.92128E-05 6.76024E-08 1.90934E-19-5.52694E-18
 -1      1234 9.59240E-05-2.87867E-05-2.88295E-05 5.68970E-08 1.05590E-20-7.43240E-18
 -1      1235 9.52219E-05-2.85739E-05-2.86077E-05 2.17371E-08 5.25480E-19-8.65258E-18
 -1      1236 9.51386E-05-2.85427E-05-2.84944E-05-3.42607E-08-9.66974E-22-5.85123E-18
 -1      1237 9.52676E-05-2.86727E-05-2.84973E-05-3.31508E-08-5.78832E-18 7.47631E-20
 -1      1238 9.52181E-05-2.85644E-05-2.86140E-05-2.62955E-08-3.63728E-18 6.45426E-19
 -1      1239 9.50128E-05-2.78636E-05-2.88313E-05 3.06810E-08-2.09660E-18-5.30773E-19
 -1      1240 9.46597E-05-2.66656E-05-2.91691E-05 5.67417E-08-1.77293E-18 1.08564E-19
 -1      1241 9.42344E-05-2.52217E-05-2.95775E-05 6.42742E-08 1.75712E-18 4.76558E-19
 -1      1242 9.38130E-05-2.37905E-05-2.99856E-05 5.91566E-08 2.63466E-18-9.59873E-20
 -1      1243 9.34554E-05-2.25744E-05-3.03342E-05 4.62563E-08 6.30664E-18 1.14336E-18
 -1      1244 9.32094E-05-2.17374E-05-3.05743E-05 2.61085E-08 9.43137E-18-5.34719E-19
 -1      1245 9.31136E-05-2.14109E-05-3.06675E-05 2.20134E-09 8.09208E-18-6.31001E-19
 -1      1246 9.31829E-05-2.16456E-05-3.05993E-05-2.25284E-08 6.55507E-18-3.82062E-19
 -1      1247 9.34095E-05-2.24166E-05-3.03774E-05-4.47926E-08-3.44689E-19-1.45835E-18
 -1      1248 9.37617E-05-2.36112E-05-3.00354E-05-6.12943E-08-9.45281E-18 3.93254E-19
 -1      1249 9.41891E-05-2.50656E-05-2.96212E-05-6.79760E-08-5.09344E-18 9.59932E-19
 -1      1250 9.46311E-05-2.65676E-05-2.91985E-05-6.22498E-08-2.93890E-18 5.18037E-19
 -1      1251 9.50093E-05-2.78470E-05-2.88434E-05-4.10967E-08-3.30318E-18 9.48660E-20
 -1      1252 9.51944E-05-2.85357E-05-2.86142E-05 5.44814E-08-4.18982E-18-3.55679E-19
 -1      1253 9.52764E-05-2.86909E-05-2.84899E-05 4.02712E-08-1.63839E-18-2.00002E-19
 -1      1254 3.20637E-05-9.98565E-05 1.63251E-05-1.30561E-05 4.04162E-18 4.34898E-19
 -1      1255 1.61623E-05-5.84614E-05 7.85988E-06-2.30948E-05 6.02325E-18 1.94521E-18
 -1      1256 8.26056E-06-3.00679E-06-7.95715E-06 5.08303E-06 4.65699E-18 2.09810E-18
 -1      1257 3.70815E-05 2.54171E-05-2.70607E-05 5.67832E-05 2.46910E-18 3.04085E-18
 -1      1258 1.07710E-04 1.15807E-05-4.57002E-05 9.94965E-05 1.98206E-19 3.13402E-19
 -1      1259 2.00523E-04-3.25473E-05-6.16073E-05 1.03683E-04-1.02067E-19-1.52466E-19
 -1      1260 2.75137E-04-7.65326E-05-7.18312E-05 5.61181E-05-2.47863E-19-4.16232E-18
 -1      1261 2.90605E-04-8.73087E-05-7.36204E-05-2.30654E-05 1.14879E-18-7.51022E-18
 -1      1262 2.34399E-04-5.33656E-05-6.66245E-05-8.70754E-05 4.24956E-18-1.24937E-17
 -1      1263 1.39484E-04-3.06854E-06-5.21698E-05-1.04550E-04 8.27297E-18-1.51992E-17
 -1      1264 5.44416E-05 2.64978E-05-3.37829E-05-7.29382E-05 1.22735E-17-1.32137E-17
 -1      1265 1.19572E-05 1.29849E-05-1.44748E-05-2.18713E-05 1.10326E-17-8.30855E-18
 -1      1266 9.24134E-06-3.05970E-05 1.73587E-06 1.28239E-05 1.98206E-18-1.54160E-18
 -1      1267 2.34736E-05-7.40811E-05 1.19093E-05 1.40614E-05-4.09286E-18 5.09914E-19
 -1      1268 3.03346E-05-9.31218E-05 1.57703E-05-7.03415E-06-7.69275E-18-6.42369E-19
 -1      1269 2.08552E-05-7.54539E-05 1.20484E-05-2.66910E-05-1.01161E-17-2.79447E-18
 -1      1270 6.80612E-06-3.08310E-05 8.93438E-07-1.87602E-05-1.20922E-17-6.72459E-18
 -1      1271 1.73145E-05 9.58446E-06-1.64047E-05 2.28678E-05-1.05235E-17-8.61263E-18
 -1      1272 7.51054E-05 1.50107E-05-3.67529E-05 7.65041E-05-5.82250E-18-7.08458E-18
 -1      1273 1.73402E-04-2.12052E-05-5.66504E-05 1.02023E-04-2.43437E-18-4.91957E-18
 -1      1274 2.68699E-04-7.10359E-05-7.09942E-05 7.36701E-05-3.60413E-19-2.17095E-18
 -1      1275 3.08527E-04-9.30093E-05-7.69328E-05 4.60665E-07-1.67977E-19 3.42837E-19
 -1      1276 2.79169E-04-7.40858E-05-7.37136E-05-7.55550E-05-7.13096E-19 2.43522E-18
 -1      1277 1.94473E-04-2.53531E-05-6.23792E-05-1.13394E-04-2.84688E-18 6.52724E-18
 -1      1278 9.85925E-05 1.75696E-05-4.52187E-05-9.98025E-05-5.04578E-18 6.93042E-18
 -1      1279 3.05717E-05 2.47711E-05-2.51301E-05-4.98567E-05-3.63208E-18 4.15808E-18
 -1      1280 7.24839E-06-8.65981E-06-6.13324E-06 9.56820E-07-4.73491E-18 9.75782E-19
 -1      1281 1.72834E-05-6.18921E-05 8.40090E-06 2.32682E-05-9.58418E-18 3.33307E-18
 -1      1282 3.27743E-05-1.01045E-04 1.63712E-05 1.23285E-05-6.96685E-19 7.76729E-19
 -1      1283 1.04390E-04-2.20061E-05-3.78746E-05-1.72793E-05-2.42463E-19 6.83196E-18
 -1      1284 9.02855E-05-6.67584E-06-3.60048E-05-2.04844E-05-9.04049E-19 6.41627E-19
 -1      1285 9.26139E-05-6.73358E-06-3.72074E-05-2.57692E-05-1.11724E-18 2.10652E-18
 -1      1286 8.58855E-05-4.09493E-06-3.51227E-05-1.64474E-05-9.66015E-19-1.48472E-18
 -1      1287 8.71312E-05-4.08781E-06-3.55894E-05-1.88672E-05-1.07928E-18-5.31963E-19
 -1      1288 9.21026E-05-1.04572E-05-3.50826E-05-1.90480E-05-1.60894E-18 5.15314E-19
 -1      1289 8.40938E-05-3.18957E-06-3.46856E-05-1.28345E-05-8.40588E-19-2.59528E-18
 -1      1290 8.46949E-05-3.15903E-06-3.49067E-05-1.46472E-05-9.50344E-19-2.08608E-18
 -1      1291 8.78482E-05-7.39237E-06-3.45678E-05-1.54235E-05-1.55720E-18-1.22992E-18
 -1      1292 8.31993E-05-2.73008E-06-3.44750E-05-9.69926E-06-6.91682E-19-3.18487E-18
 -1      1293 8.35073E-05-2.71336E-06-3.45815E-05-1.12482E-05-7.65215E-19-2.92069E-18
 -1      1294 8.58666E-05-5.98543E-06-3.43056E-05-1.19729E-05-1.30243E-18-2.19771E-18
 -1      1295 8.27164E-05-2.45922E-06-3.43727E-05-6.92554E-06-4.92315E-19-3.47895E-18
 -1      1296 8.28815E-05-2.45088E-06-3.44253E-05-8.29775E-06-5.64005E-19-3.29232E-18
 -1      1297 8.48377E-05-5.21960E-06-3.41790E-05-8.95317E-06-1.03539E-18-2.64978E-18
 -1      1298 8.24489E-05-2.29473E-06-3.43226E-05-4.30230E-06-3.56032E-19-3.62588E-18
 -1      1299 8.25366E-05-2.29076E-06-3.43486E-05-5.60541E-06-3.99125E-19-3.56748E-18
 -1      1300 8.42610E-05-4.76537E-06-3.41191E-05-6.22554E-06-7.50749E-19-2.95525E-18
 -1      1301 8.23208E-05-2.20573E-06-3.43020E-05-1.79318E-06-1.63727E-19-3.70707E-18
 -1      1302 8.23581E-05-2.20412E-06-3.43124E-05-3.04628E-06-2.33960E-19-3.64304E-18
 -1      1303 8.39462E-05-4.50316E-06-3.40927E-05-3.65022E-06-4.86037E-19-3.02789E-18
 -1      1304 8.22956E-05-2.17827E-06-3.42997E-05 6.70926E-07-3.49930E-20-3.74635E-18
 -1      1305 8.22942E-05-2.17831E-06-3.42993E-05-5.67057E-07-8.46181E-20-3.71916E-18
 -1      1306 8.38085E-05-4.38384E-06-3.40832E-05-1.17235E-06-1.98147E-19-3.10967E-18
 -1      1307 8.23666E-05-2.20841E-06-3.43139E-05 3.15373E-06 1.34023E-19-3.77279E-18
 -1      1308 8.23264E-05-2.21006E-06-3.43028E-05 1.89805E-06 6.66457E-20-3.76730E-18
 -1      1309 8.38133E-05-4.38799E-06-3.40835E-05 1.27563E-06 2.87921E-20-3.13586E-18
 -1      1310 8.25537E-05-2.30115E-06-3.43510E-05 5.72196E-06 2.47284E-19-3.73588E-18
 -1      1311 8.24626E-05-2.30455E-06-3.43245E-05 4.41292E-06 2.09474E-19-3.78024E-18
 -1      1312 8.39617E-05-4.51660E-06-3.40937E-05 3.75761E-06 2.86820E-19-3.17453E-18
 -1      1313 8.29042E-05-2.46633E-06-3.44276E-05 8.40699E-06 4.17131E-19-3.53532E-18
 -1      1314 8.27363E-05-2.47507E-06-3.43746E-05 7.02572E-06 3.51539E-19-3.65736E-18
 -1      1315 8.42871E-05-4.78901E-06-3.41200E-05 6.31936E-06 5.06140E-19-3.10612E-18
 -1      1316 8.35499E-05-2.74272E-06-3.45862E-05 1.14097E-05 6.60262E-19-3.22680E-18
 -1      1317 8.32350E-05-2.75992E-06-3.44780E-05 9.84373E-06 5.85353E-19-3.40208E-18
 -1      1318 8.48795E-05-5.26099E-06-3.41792E-05 9.06516E-06 8.38807E-19-2.86202E-18
 -1      1319 8.47559E-05-3.20333E-06-3.49152E-05 1.48593E-05 9.18660E-19-2.59078E-18
 -1      1320 8.41511E-05-3.24024E-06-3.46914E-05 1.30189E-05 7.76147E-19-2.97330E-18
 -1      1321 8.59488E-05-6.06401E-06-3.43070E-05 1.21356E-05 1.18014E-18-2.51029E-18
 -1      1322 8.72298E-05-4.08798E-06-3.56110E-05 1.91050E-05 1.09013E-18-1.32579E-18
 -1      1323 8.59545E-05-4.15217E-06-3.51307E-05 1.67083E-05 9.62335E-19-2.10871E-18
 -1      1324 8.79772E-05-7.51515E-06-3.45706E-05 1.56638E-05 1.54869E-18-1.75500E-18
 -1      1325 9.34267E-05-6.78617E-06-3.71027E-05 2.51047E-05 1.03814E-18 1.34885E-18
 -1      1326 9.01001E-05-6.43251E-06-3.60273E-05 2.11609E-05 1.00892E-18-3.13614E-19
 -1      1327 9.23311E-05-1.06916E-05-3.50677E-05 1.96882E-05 1.73827E-18-2.63374E-19
 -1      1328 1.23573E-04-2.49110E-05-3.89980E-05 2.83670E-05 6.02876E-19 6.85800E-18
 -1      1329 1.00036E-04-1.44140E-05-3.73387E-05 2.40563E-05 5.97264E-19 2.96387E-18
 -1      1330 1.01633E-04-1.93303E-05-3.53882E-05 2.14073E-05 1.72121E-18 2.20694E-18
 -1      1331 1.02549E-04-2.77884E-05-3.47407E-05 7.33463E-06 1.03769E-18 6.40442E-18
 -1      1332 1.05090E-04-3.02128E-05-3.35084E-05-7.96462E-06-8.08069E-19 7.07103E-18
 -1      1333 9.81997E-05-2.78245E-05-3.07440E-05-4.99293E-06-8.30304E-19 6.11378E-18
 -1      1334 9.54401E-05-2.78305E-05-2.92357E-05-2.49467E-06-7.03249E-19 5.59855E-18
 -1      1335 9.32028E-05-2.75380E-05-2.81949E-05-2.04791E-06-6.56689E-19 4.63451E-18
 -1      1336 9.94313E-05-2.80364E-05-3.09667E-05-7.89533E-06-1.47066E-18 3.40867E-18
 -1      1337 9.15105E-05-2.71793E-05-2.75597E-05-8.43186E-07-5.32003E-19 4.19676E-18
 -1      1338 9.07889E-05-2.70823E-05-2.72560E-05-7.32995E-07-5.85962E-19 3.39824E-18
 -1      1339 9.46599E-05-2.77525E-05-2.87990E-05-3.12985E-06-1.21674E-18 2.65829E-18
 -1      1340 9.00366E-05-2.68989E-05-2.70121E-05-1.78369E-07-4.28043E-19 2.95172E-18
 -1      1341 8.99595E-05-2.69241E-05-2.69760E-05-1.20176E-07-4.09613E-19 2.35383E-18
 -1      1342 9.24560E-05-2.74806E-05-2.78768E-05-1.06202E-06-9.44124E-19 1.87693E-18
 -1      1343 8.96991E-05-2.68564E-05-2.69014E-05 1.51022E-07-2.51023E-19 2.25663E-18
 -1      1344 8.99100E-05-2.69452E-05-2.69620E-05 1.79909E-07-2.37546E-19 1.96316E-18
 -1      1345 9.14946E-05-2.73357E-05-2.75091E-05-7.69079E-08-6.15019E-19 1.28386E-18
 -1      1346 8.99147E-05-2.69485E-05-2.69688E-05 3.12814E-07-2.14678E-19 1.87869E-18
 -1      1347 9.02551E-05-2.70673E-05-2.70674E-05 3.24993E-07-2.02724E-19 1.63888E-18
 -1      1348 9.12415E-05-2.73234E-05-2.74015E-05 4.13678E-07-4.16805E-19 1.14614E-18
 -1      1349 9.04011E-05-2.71101E-05-2.71159E-05 3.82867E-07-1.25476E-19 1.68386E-18
 -1      1350 9.07904E-05-2.72384E-05-2.72285E-05 3.85403E-07-1.51962E-19 1.30012E-18
 -1      1351 9.13793E-05-2.73977E-05-2.74256E-05 6.48146E-07-3.11736E-19 9.65841E-19
 -1      1352 9.10076E-05-2.73011E-05-2.72977E-05 4.01491E-07-1.80313E-19 1.15314E-18
 -1      1353 9.14024E-05-2.74275E-05-2.74124E-05 3.98721E-07-6.81677E-20 9.57591E-19
 -1      1354 9.17248E-05-2.75193E-05-2.75191E-05 7.41319E-07-3.84043E-19 8.64067E-19
 -1      1355 9.16505E-05-2.74988E-05-2.74906E-05 3.92747E-07-1.69706E-19 8.35052E-19
 -1      1356 9.20291E-05-2.76175E-05-2.76010E-05 3.87570E-07-5.13338E-19 3.09753E-19
 -1      1357 9.21720E-05-2.76625E-05-2.76477E-05 7.56763E-07-4.09179E-19 5.03417E-19
 -1      1358 9.22864E-05-2.76913E-05-2.76817E-05 3.72329E-07-4.88575E-19 2.28484E-19
 -1      1359 9.26405E-05-2.78005E-05-2.77856E-05 3.66791E-07-9.05043E-20-3.32063E-20
 -1      1360 9.26606E-05-2.78120E-05-2.77920E-05 7.33724E-07-6.40981E-19 4.56974E-19
 -1      1361 9.28977E-05-2.78740E-05-2.78660E-05 3.51174E-07-1.27121E-19-4.96560E-19
 -1      1362 9.32285E-05-2.79747E-05-2.79635E-05 3.46788E-07-2.13047E-19-5.03017E-19
 -1      1363 9.31597E-05-2.79606E-05-2.79420E-05 6.98457E-07-3.73409E-19-2.64522E-19
 -1      1364 9.34848E-05-2.80477E-05-2.80435E-05 3.37369E-07-9.41296E-20-5.98780E-19
 -1      1365 9.38008E-05-2.81428E-05-2.81371E-05 3.35323E-07-1.15946E-19-6.67635E-19
 -1      1366 9.36589E-05-2.81060E-05-2.80940E-05 6.69715E-07-3.49984E-19-9.56041E-19
 -1      1367 9.40617E-05-2.82169E-05-2.82185E-05 3.37313E-07 6.14167E-20-4.98261E-19
 -1      1368 9.43771E-05-2.83108E-05-2.83122E-05 3.38613E-07 1.22026E-19-2.73693E-19
 -1      1369 9.41627E-05-2.82502E-05-2.82488E-05 6.61792E-07 9.80116E-21-1.23153E-18
 -1      1370 9.46535E-05-2.83892E-05-2.83983E-05 3.56473E-07-1.53504E-21-1.04277E-19
 -1      1371 9.49872E-05-2.84879E-05-2.84978E-05 3.62043E-07-2.54023E-19-3.05271E-20
 -1      1372 9.46867E-05-2.83982E-05-2.84110E-05 6.86397E-07 1.20799E-20-7.42870E-19
 -1      1373 9.52941E-05-2.85748E-05-2.85934E-05 3.99868E-07-2.69558E-19 2.49298E-19
 -1      1374 9.56699E-05-2.86856E-05-2.87055E-05 4.10617E-07-2.98178E-19-6.44978E-20
 -1      1375 9.52560E-05-2.85576E-05-2.85880E-05 7.53862E-07-7.39313E-20-8.49403E-20
 -1      1376 9.60261E-05-2.87864E-05-2.88166E-05 4.72324E-07-3.84329E-19-2.37649E-21
 -1      1377 9.64723E-05-2.89182E-05-2.89496E-05 4.89171E-07-3.93751E-19-4.81988E-19
 -1      1378 9.59034E-05-2.87384E-05-2.87897E-05 8.73839E-07-3.57641E-19 4.75319E-20
 -1      1379 9.69000E-05-2.90394E-05-2.90829E-05 5.78439E-07-3.65381E-19-6.09632E-19
 -1      1380 9.74492E-05-2.92021E-05-2.92465E-05 6.02284E-07-2.22146E-19-7.77960E-19
 -1      1381 9.66688E-05-2.89523E-05-2.90280E-05 1.05546E-06-4.39117E-19-2.64058E-19
 -1      1382 9.79732E-05-2.93509E-05-2.94098E-05 7.22135E-07-1.11246E-19-1.15865E-18
 -1      1383 9.86616E-05-2.95561E-05-2.96145E-05 7.53723E-07-1.09217E-19-1.26723E-18
 -1      1384 9.75979E-05-2.92136E-05-2.93164E-05 1.30679E-06-4.76224E-19-6.53468E-19
 -1      1385 9.93080E-05-2.97402E-05-2.98159E-05 9.05515E-07-1.98218E-19-1.77834E-18
 -1      1386 8.33506E-05-3.21396E-05-2.95814E-05 7.65434E-06-5.50868E-18 6.15962E-18
 -1      1387 9.87405E-05-2.95378E-05-2.96695E-05 1.63315E-06-6.26232E-19-1.73965E-18
 -1      1388 5.00374E-05-2.76755E-05-2.18996E-05 2.24070E-05-4.52781E-18 2.54898E-17
 -1      1389 5.59897E-05-1.88531E-05-1.66663E-05 8.14001E-06 1.46050E-18 2.34111E-17
 -1      1390 6.94902E-05-3.05683E-05-2.32598E-05 9.24100E-06 1.22428E-18 1.39396E-17
 -1      1391 5.31087E-05-1.64274E-05-1.64714E-05 6.24103E-06 1.31655E-18 2.67695E-17
 -1      1392 5.95246E-05-1.77879E-05-1.79216E-05 5.26798E-06 6.57695E-19 2.77852E-17
 -1      1393 5.53843E-05-2.08563E-05-1.67540E-05 1.34772E-05 2.61671E-18 2.49926E-17
 -1      1394 6.24635E-05-1.77798E-05-1.94594E-05 6.43914E-06-1.12007E-19 2.84321E-17
 -1      1395 7.04633E-05-1.91040E-05-2.31482E-05 7.89669E-06-1.82313E-18 2.60664E-17
 -1      1396 5.53720E-05-1.56867E-05-1.73337E-05 1.14777E-05 2.03473E-19 2.90031E-17
 -1      1397 7.13662E-05-1.65837E-05-2.60679E-05 1.26730E-05-3.57850E-18 2.61335E-17
 -1      1398 8.92387E-05-2.04295E-05-3.19839E-05 2.59829E-05-4.57355E-18 1.02042E-17
 -1      1399 5.85083E-05-1.13313E-05-2.12402E-05 1.88722E-05-5.63047E-18 2.96106E-17
 -1      1400 4.46720E-05 6.92983E-06-3.45081E-05 2.00967E-05-3.68523E-18 5.28752E-17
 -1      1401 4.36528E-05 2.70328E-05-3.24497E-05 6.94333E-05-1.80266E-16 2.46847E-17
 -1      1402 3.93116E-05 1.26116E-05-2.56109E-05 2.10527E-05-2.51530E-17 3.98105E-17
 -1      1403 1.86903E-05-6.32189E-05-2.57119E-05 7.92078E-05-1.41526E-16 1.52403E-16
 -1      1404 1.31015E-04-8.67626E-05 3.92127E-07 3.37504E-05 2.81571E-17-1.77064E-17
 -1      1405 5.92223E-05-5.87117E-05-2.35308E-05-6.04379E-05 6.65666E-17 8.19250E-17
 -1      1406 6.36194E-05-3.32688E-05 2.93210E-06 2.81765E-05-8.99549E-18 2.88906E-17
 -1      1407 7.33190E-05-2.91097E-05-7.37755E-06 1.11696E-05-9.54945E-18 1.44843E-17
 -1      1408 9.59635E-05-6.97583E-05-6.95141E-06 2.64353E-05-2.10674E-17 2.29715E-18
 -1      1409 8.29602E-05-2.94363E-05-1.47923E-05 1.04016E-05-3.53382E-18 1.17229E-17
 -1      1410 9.14110E-05-3.01787E-05-2.27931E-05 9.42316E-06-2.17857E-18 6.42390E-18
 -1      1411 8.20628E-05-2.92361E-05-1.53587E-05 2.28200E-05-1.18508E-17 4.33173E-18
 -1      1412 9.82168E-05-3.16227E-05-2.64792E-05 5.88256E-06-6.21510E-19 5.94596E-18
 -1      1413 1.03552E-04-3.27538E-05-2.96442E-05 4.88116E-06-2.49981E-19 4.54057E-18
 -1      1414 9.92301E-05-3.23631E-05-2.60595E-05 1.52521E-05-3.13063E-18 2.17222E-18
 -1      1415 1.05802E-04-3.30670E-05-3.08391E-05 1.04246E-06-5.70384E-19 4.57717E-18
 -1      1416 1.06573E-04-3.30005E-05-3.14383E-05 1.36593E-07-6.27016E-19 3.75580E-18
 -1      1417 1.07704E-04-3.47845E-05-3.06062E-05 5.80431E-06-1.04783E-18 2.08742E-18
 -1      1418 1.06120E-04-3.25526E-05-3.15142E-05-2.46336E-06-7.06975E-19 3.45134E-18
 -1      1419 1.03683E-04-3.14531E-05-3.09767E-05-2.91034E-06-7.33848E-19 2.39213E-18
 -1      1420 1.09079E-04-3.43004E-05-3.18769E-05-2.01601E-06-1.25064E-18 2.65447E-18
 -1      1421 1.01882E-04-3.05681E-05-3.06278E-05-3.54467E-06-5.75149E-19 2.00217E-18
 -1      1422 9.86721E-05-2.92322E-05-2.98444E-05-3.39364E-06-4.02030E-19 1.58019E-18
 -1      1423 1.06446E-04-3.22715E-05-3.17828E-05-5.95382E-06-1.29196E-18 1.81382E-18
 -1      1424 9.70732E-05-2.84791E-05-2.95177E-05-2.05150E-06-1.84415E-19 9.23584E-19
 -1      1425 9.54739E-05-2.78115E-05-2.91265E-05-1.42543E-06-5.69034E-19 3.29231E-19
 -1      1426 1.02718E-04-2.99625E-05-3.13126E-05-5.06208E-06-8.94606E-19 1.21970E-18
 -1      1427 9.53278E-05-2.77270E-05-2.91042E-05 9.24784E-07-5.11065E-19 4.70394E-19
 -1      1428 9.65484E-05-2.81937E-05-2.94058E-05 1.61454E-06-4.15959E-19-2.74121E-19
 -1      1429 1.00791E-04-2.87823E-05-3.10612E-05-4.52656E-07-4.26296E-19 3.26111E-19
 -1      1430 9.80630E-05-2.88308E-05-2.97528E-05 3.51824E-06-1.68785E-19 2.74809E-19
 -1      1431 1.01592E-04-3.01796E-05-3.06454E-05 3.87158E-06 1.42421E-19 1.70201E-19
 -1      1432 1.02181E-04-2.94710E-05-3.13173E-05 4.81696E-06-3.34724E-19 4.83801E-19
 -1      1433 1.03952E-04-3.11157E-05-3.12248E-05 4.40496E-06-1.63433E-19-3.20337E-19
 -1      1434 1.08183E-04-3.26701E-05-3.23293E-05 4.32024E-06 2.35641E-19-4.22617E-19
 -1      1435 1.06162E-04-3.14843E-05-3.20355E-05 7.75000E-06-1.67243E-19-3.62967E-19
 -1      1436 1.10304E-04-3.34202E-05-3.29136E-05 3.56612E-06 8.17387E-20-9.77158E-19
 -1      1437 1.13685E-04-3.45898E-05-3.38337E-05 3.21740E-06-4.86111E-19-8.65721E-19
 -1      1438 1.10684E-04-3.36403E-05-3.29491E-05 7.36833E-06-3.15301E-19-1.67924E-18
 -1      1439 1.14902E-04-3.49353E-05-3.42280E-05 1.86175E-06 2.00767E-19-1.57397E-18
 -1      1440 1.16670E-04-3.54888E-05-3.47363E-05 1.47572E-06 1.41799E-19-1.34631E-18
 -1      1441 1.13928E-04-3.49990E-05-3.37222E-05 4.72472E-06-3.77578E-19-1.78322E-18
 -1      1442 1.16860E-04-3.54595E-05-3.48573E-05 1.72574E-07-1.51473E-19-3.15083E-19
 -1      1443 1.17043E-04-3.54630E-05-3.49316E-05-1.18669E-07 1.65191E-19-6.08053E-19
 -1      1444 1.15160E-04-3.53451E-05-3.41165E-05 1.49293E-06 5.55865E-21-1.58890E-18
 -1      1445 1.16414E-04-3.51859E-05-3.48010E-05-1.04223E-06-5.84982E-20-1.00251E-18
 -1      1446 1.15456E-04-3.48268E-05-3.45459E-05-1.20919E-06-4.78014E-19-1.61200E-18
 -1      1447 1.14550E-04-3.49296E-05-3.40661E-05-1.16350E-06-1.73642E-20-9.68255E-19
 -1      1448 1.14317E-04-3.44236E-05-3.42401E-05-1.71004E-06-9.41687E-19-1.47760E-18
 -1      1449 1.12731E-04-3.38845E-05-3.37942E-05-1.77632E-06-9.42895E-19-2.86787E-18
 -1      1450 1.12667E-04-3.41045E-05-3.36436E-05-2.83717E-06-1.14145E-18-2.05035E-19
 -1      1451 1.11358E-04-3.34410E-05-3.33970E-05-1.94777E-06-4.84471E-20-3.35573E-18
 -1      1452 1.09548E-04-3.28519E-05-3.28770E-05-1.94962E-06 1.32109E-20-3.28953E-18
 -1      1453 1.10105E-04-3.31353E-05-3.29824E-05-3.61126E-06-1.32386E-18-8.75068E-19
 -1      1454 1.08141E-04-3.24200E-05-3.24553E-05-1.91203E-06 5.56130E-19-3.23890E-18
 -1      1455 1.06364E-04-3.18569E-05-3.19389E-05-1.87967E-06 4.10033E-19-2.47754E-18
 -1      1456 1.07325E-04-3.21765E-05-3.22142E-05-3.74946E-06 7.86706E-19-2.82062E-18
 -1      1457 1.05045E-04-3.14638E-05-3.15362E-05-1.73024E-06 3.98213E-19-8.82463E-19
 -1      1458 1.03440E-04-3.09636E-05-3.10666E-05-1.68324E-06 6.31594E-19-6.27665E-19
 -1      1459 1.04627E-04-3.13025E-05-3.14386E-05-3.51218E-06 1.30438E-18-2.45356E-18
 -1      1460 1.02274E-04-3.06215E-05-3.07076E-05-1.48392E-06 1.11583E-18-1.10346E-18
 -1      1461 1.00903E-04-3.01978E-05-3.03051E-05-1.43249E-06 8.08728E-19 7.82579E-20
 -1      1462 1.02182E-04-3.05417E-05-3.07190E-05-3.08743E-06 1.07891E-18-1.80850E-18
 -1      1463 9.99191E-05-2.99107E-05-3.00018E-05-1.21406E-06 5.37083E-19 1.11307E-18
 -1      1464 9.88047E-05-2.95668E-05-2.96752E-05-1.16149E-06 1.04912E-18 2.12290E-18
 -1      1465 1.00073E-04-2.98992E-05-3.00910E-05-2.58408E-06 1.51260E-18-6.94784E-19
 -1      1466 9.80157E-05-2.93347E-05-2.94337E-05-9.31421E-07 5.90873E-19 1.92101E-18
 -1      1467 9.71736E-05-2.90732E-05-2.91884E-05-8.75915E-07 1.30592E-19 2.53050E-18
 -1      1468 9.83342E-05-2.93703E-05-2.95727E-05-2.04700E-06 8.85555E-19 1.13334E-18
 -1      1469 9.65848E-05-2.88959E-05-2.90116E-05-6.28312E-07 6.13846E-19 2.20041E-18
 -1      1470 9.60397E-05-2.87255E-05-2.88524E-05-5.64295E-07 2.28494E-19 2.80800E-18
 -1      1471 9.69782E-05-2.89495E-05-2.91724E-05-1.47660E-06 3.88727E-19-1.77481E-19
 -1      1472 9.56404E-05-2.85940E-05-2.87371E-05-2.91942E-07-6.65884E-19 3.50468E-18
 -1      1473 9.54211E-05-2.85465E-05-2.86566E-05-2.18643E-07-9.25193E-19 2.30305E-18
 -1      1474 9.60026E-05-2.86343E-05-2.88886E-05-8.63320E-07 4.54503E-20 3.38714E-19
 -1      1475 9.52085E-05-2.85577E-05-2.85519E-05 3.88487E-08-2.06531E-18 1.88065E-18
 -1      1476 9.53682E-05-2.84988E-05-2.86624E-05-1.94209E-07-2.22089E-18 2.13868E-19
 -1      1477 9.65141E-05-2.83446E-05-2.97536E-05 3.00020E-06 7.74400E-19 4.62874E-18
 -1      1478 1.02478E-04-2.93812E-05-3.21382E-05 4.46741E-06 6.99649E-19 5.96544E-18
 -1      1479 1.02273E-04-2.67021E-05-3.26896E-05 1.27905E-05 1.44461E-18 3.55055E-18
 -1      1480 9.19598E-05-2.74080E-05-2.77406E-05 1.15627E-06 6.48417E-19 3.01748E-18
 -1      1481 9.39114E-05-2.75647E-05-2.86561E-05 1.47815E-06 5.97383E-19 4.01537E-18
 -1      1482 9.64285E-05-2.80126E-05-2.95162E-05 4.87555E-06 1.25911E-18 2.37540E-18
 -1      1483 9.01194E-05-2.69808E-05-2.70393E-05 3.35929E-07 4.11771E-19 1.72024E-18
 -1      1484 9.07392E-05-2.69999E-05-2.73134E-05 4.98659E-07 4.79030E-19 2.48276E-18
 -1      1485 9.29783E-05-2.75596E-05-2.80795E-05 1.85948E-06 1.03981E-18 1.46564E-18
 -1      1486 8.95950E-05-2.68605E-05-2.68616E-05-5.13915E-08 3.93655E-19 9.12321E-19
 -1      1487 8.96370E-05-2.67996E-05-2.68910E-05 3.76350E-08 3.22890E-19 1.49908E-18
 -1      1488 9.14201E-05-2.72869E-05-2.74943E-05 5.24888E-07 7.05658E-19 6.84588E-19
 -1      1489 8.97219E-05-2.69112E-05-2.69019E-05-2.39912E-07 6.09798E-20 5.36331E-19
 -1      1490 8.94971E-05-2.68049E-05-2.68379E-05-1.89616E-07 1.21162E-19 7.73209E-19
 -1      1491 9.08852E-05-2.72047E-05-2.72973E-05-1.26722E-07 4.23348E-19 3.26333E-19
 -1      1492 9.01737E-05-2.70531E-05-2.70401E-05-3.25521E-07-2.06784E-19 7.37898E-19
 -1      1493 8.98284E-05-2.69265E-05-2.69389E-05-2.97551E-07-1.65951E-19 4.81426E-19
 -1      1494 9.09029E-05-2.72474E-05-2.72867E-05-4.49158E-07-7.62214E-20 1.12341E-19
 -1      1495 9.07744E-05-2.72369E-05-2.72216E-05-3.54280E-07 2.20705E-19 6.02796E-19
 -1      1496 9.03849E-05-2.71059E-05-2.71073E-05-3.39882E-07 9.94906E-20 7.28878E-19
 -1      1497 9.12137E-05-2.73606E-05-2.73706E-05-5.95933E-07 2.89211E-20-2.49081E-20
 -1      1498 9.14263E-05-2.74341E-05-2.74182E-05-3.52001E-07 6.64749E-20-7.28217E-20
 -1      1499 9.10335E-05-2.73079E-05-2.73026E-05-3.45767E-07 2.45712E-19 3.13538E-19
 -1      1500 9.16702E-05-2.75082E-05-2.75017E-05-6.45222E-07 3.93448E-19-1.96618E-19
 -1      1501 9.20770E-05-2.76295E-05-2.76146E-05-3.34773E-07 2.90757E-19-5.37978E-19
 -1      1502 9.17015E-05-2.75121E-05-2.75037E-05-3.33073E-07 8.57524E-20-3.50986E-19
 -1      1503 9.21887E-05-2.76685E-05-2.76542E-05-6.42123E-07 3.92104E-19-6.37575E-19
 -1      1504 9.27032E-05-2.78164E-05-2.78041E-05-3.13415E-07 2.52522E-19-7.88222E-19
 -1      1505 9.23524E-05-2.77087E-05-2.76999E-05-3.13654E-07 2.09141E-19-4.74418E-19
 -1      1506 9.27238E-05-2.78299E-05-2.78137E-05-6.15249E-07 3.47481E-19-8.31133E-19
 -1      1507 9.33016E-05-2.79940E-05-2.79854E-05-2.95633E-07 3.99029E-19-1.21126E-18
 -1      1508 9.29737E-05-2.78945E-05-2.78877E-05-2.95844E-07 3.67034E-19-7.37413E-19
 -1      1509 9.32554E-05-2.79875E-05-2.79737E-05-5.84087E-07 2.94539E-19-5.67245E-19
 -1      1510 9.38829E-05-2.81659E-05-2.81620E-05-2.87228E-07 2.17705E-19-1.53208E-18
 -1      1511 9.35694E-05-2.80710E-05-2.80681E-05-2.85827E-07 2.01993E-19-1.38200E-18
 -1      1512 9.37810E-05-2.81411E-05-2.81332E-05-5.62705E-07 5.00837E-19-8.11317E-19
 -1      1513 9.44692E-05-2.83387E-05-2.83402E-05-2.92826E-07 1.22027E-19-1.85835E-18
 -1      1514 9.41564E-05-2.82436E-05-2.82462E-05-2.88445E-07-7.87197E-21-1.73018E-18
 -1      1515 9.43110E-05-2.82945E-05-2.82950E-05-5.61829E-07 3.12053E-19-1.07521E-18
 -1      1516 9.50914E-05-2.85217E-05-2.85294E-05-3.16308E-07-1.03707E-19-1.97446E-18
 -1      1517 9.47609E-05-2.84203E-05-2.84299E-05-3.07694E-07 1.96213E-19-1.80992E-18
 -1      1518 9.48657E-05-2.84538E-05-2.84651E-05-5.90082E-07 2.13451E-19-1.33860E-18
 -1      1519 9.57877E-05-2.87265E-05-2.87411E-05-3.61001E-07-2.80103E-19-1.72427E-18
 -1      1520 9.54174E-05-2.86116E-05-2.86294E-05-3.46965E-07-1.07320E-19-1.85787E-18
 -1      1521 9.54733E-05-2.86279E-05-2.86519E-05-6.54656E-07-1.93057E-19-1.41018E-18
 -1      1522 9.66022E-05-2.89664E-05-2.89884E-05-4.29605E-07-1.32563E-19-1.47539E-18
 -1      1523 9.61670E-05-2.88298E-05-2.88573E-05-4.09035E-07-1.79679E-19-1.65984E-18
 -1      1524 9.61679E-05-2.88270E-05-2.88657E-05-7.61484E-07-1.96749E-19-1.48229E-18
 -1      1525 9.75832E-05-2.92561E-05-2.92857E-05-5.23767E-07 5.14845E-19-2.19078E-18
 -1      1526 9.70556E-05-2.90891E-05-2.91270E-05-4.95729E-07 4.64158E-19-1.55897E-18
 -1      1527 9.69884E-05-2.90633E-05-2.91177E-05-9.14821E-07 2.55323E-19-1.67345E-18
 -1      1528 9.87796E-05-2.96108E-05-2.96475E-05-6.43166E-07 4.49486E-19-2.92797E-18
 -1      1529 9.81316E-05-2.94044E-05-2.94532E-05-6.07150E-07 3.76974E-19-2.44260E-18
 -1      1530 9.79752E-05-2.93494E-05-2.94199E-05-1.11605E-06 7.05856E-19-1.66932E-18
 -1      1531 1.00235E-04-3.00445E-05-3.00864E-05-7.83880E-07-3.31471E-19-2.78378E-18
 -1      1532 9.94417E-05-2.97907E-05-2.98493E-05-7.40260E-07-9.14870E-20-2.68617E-18
 -1      1533 9.91669E-05-2.96983E-05-2.97832E-05-1.36139E-06 1.41319E-19-1.73962E-18
 -1      1534 1.01979E-04-3.05672E-05-3.06101E-05-9.35762E-07-5.77676E-19-1.25493E-18
 -1      1535 1.01023E-04-3.02610E-05-3.03258E-05-8.86584E-07-6.36220E-19-2.28521E-18
 -1      1536 1.00593E-04-3.01210E-05-3.02151E-05-1.63804E-06-8.87821E-19-1.65425E-18
 -1      1537 1.04007E-04-3.11805E-05-3.12160E-05-1.07862E-06 6.41480E-19-1.44856E-18
 -1      1538 1.02891E-04-3.08227E-05-3.08861E-05-1.02882E-06 8.97168E-20-1.37522E-18
 -1      1539 1.02266E-04-3.06246E-05-3.07168E-05-1.91843E-06-2.13600E-19-9.29953E-19
 -1      1540 1.06261E-04-3.18699E-05-3.18841E-05-1.17730E-06 6.49784E-19-3.17174E-18
 -1      1541 1.05019E-04-3.14726E-05-3.15201E-05-1.13641E-06 9.08122E-19-1.76986E-18
 -1      1542 1.04160E-04-3.12076E-05-3.12777E-05-2.15234E-06 1.16245E-18-1.56467E-18
 -1      1543 1.08593E-04-3.25954E-05-3.25666E-05-1.17699E-06 2.97270E-19-4.12862E-18
 -1      1544 1.07313E-04-3.21885E-05-3.21965E-05-1.16097E-06 2.64384E-19-3.78888E-18
 -1      1545 1.06197E-04-3.18538E-05-3.18689E-05-2.25819E-06 8.72872E-19-1.97474E-18
 -1      1546 1.10729E-04-3.32783E-05-3.31783E-05-1.00214E-06-1.50557E-19-3.81475E-18
 -1      1547 1.09576E-04-3.29175E-05-3.28521E-05-1.03443E-06-2.24876E-19-3.95077E-18
 -1      1548 1.08214E-04-3.25236E-05-3.24362E-05-2.11756E-06-9.65518E-20-2.94715E-18
 -1      1549 1.12244E-04-3.37906E-05-3.35910E-05-5.66831E-07-1.57909E-19-3.45326E-18
 -1      1550 1.11472E-04-3.35633E-05-3.33843E-05-6.76142E-07-2.54044E-20-3.40482E-18
 -1      1551 1.09944E-04-3.31423E-05-3.28952E-05-1.58262E-06-2.21327E-19-1.67111E-18
 -1      1552 1.12580E-04-3.39539E-05-3.36447E-05 1.91624E-07-4.32725E-19-2.81755E-18
 -1      1553 1.12524E-04-3.39753E-05-3.36517E-05-1.90861E-08-2.39035E-19-3.07921E-18
 -1      1554 1.11008E-04-3.35894E-05-3.31351E-05-5.13458E-07-5.03204E-19-1.35468E-18
 -1      1555 1.18508E-04-3.22418E-05-3.34999E-05 6.96232E-06-6.20452E-20-2.79944E-18
 -1      1556 1.12161E-04-3.39548E-05-3.34967E-05 9.34360E-07-7.98130E-20-2.99291E-18
 -1      1557 1.10952E-04-3.36966E-05-3.30397E-05 1.13406E-06 1.41613E-19-1.14456E-18
 -1      1558 1.20971E-04-3.59390E-05-3.64487E-05 5.70067E-06-2.59245E-19-2.64962E-18
 -1      1559 1.29491E-04-3.66932E-05-3.57541E-05 1.14188E-05-1.57866E-19-2.67324E-18
 -1      1560 1.20253E-04-3.32729E-05-3.52440E-05 1.17657E-05-2.77589E-19-2.18619E-18
 -1      1561 1.12609E-04-3.36292E-05-3.40134E-05 4.88912E-06-1.05700E-19-1.52349E-18
 -1      1562 1.18503E-04-3.56142E-05-3.53550E-05 5.13504E-06-3.54563E-19-2.06443E-18
 -1      1563 1.16814E-04-3.41769E-05-3.50954E-05 1.03557E-05-6.45571E-19-1.31968E-18
 -1      1564 1.04143E-04-3.09860E-05-3.15065E-05 4.14194E-06-4.71420E-19-2.05315E-18
 -1      1565 1.09019E-04-3.24939E-05-3.29036E-05 4.22476E-06 1.51764E-19-1.90582E-18
 -1      1566 1.10097E-04-3.26676E-05-3.32217E-05 8.61354E-06 1.21258E-19-1.33495E-18
 -1      1567 9.77928E-05-2.89543E-05-2.96618E-05 2.68924E-06-4.02016E-19-1.23055E-18
 -1      1568 1.01335E-04-3.00030E-05-3.06673E-05 3.00331E-06-5.81793E-19-2.02976E-18
 -1      1569 1.03903E-04-3.05756E-05-3.14954E-05 6.59710E-06-6.68600E-19-7.58200E-19
 -1      1570 9.48741E-05-2.80434E-05-2.88020E-05 6.21294E-07-1.02662E-18 1.36832E-18
 -1      1571 9.63476E-05-2.83569E-05-2.92235E-05 1.13491E-06-1.32622E-18-2.15715E-19
 -1      1572 9.97624E-05-2.90722E-05-3.03883E-05 3.38544E-06-1.87213E-18 2.97845E-19
 -1      1573 9.58316E-05-2.84490E-05-2.89874E-05-1.39735E-06 2.12241E-19 2.57117E-18
 -1      1574 9.50255E-05-2.79819E-05-2.87984E-05-8.67167E-07-2.21684E-20 2.13223E-18
 -1      1575 9.85500E-05-2.86977E-05-3.00309E-05-4.17070E-07-9.18700E-19 6.46988E-19
 -1      1576 9.97403E-05-2.98357E-05-2.99811E-05-2.62585E-06-1.04519E-19 2.63459E-18
 -1      1577 9.72515E-05-2.88559E-05-2.93372E-05-2.27922E-06-1.69473E-19 3.12306E-18
 -1      1578 1.00180E-04-2.94966E-05-3.03588E-05-3.51055E-06-4.04644E-19 3.27643E-18
 -1      1579 1.04754E-04-3.15326E-05-3.13232E-05-2.76913E-06 5.80959E-19 1.67120E-18
 -1      1580 1.01687E-04-3.04593E-05-3.05053E-05-2.68518E-06 1.03262E-18 2.82152E-18
 -1      1581 1.03541E-04-3.09678E-05-3.11280E-05-4.89106E-06 9.74473E-19 2.51761E-18
 -1      1582 1.09089E-04-3.29318E-05-3.25441E-05-2.07142E-06 7.12001E-19 2.70362E-19
 -1      1583 1.06480E-04-3.21061E-05-3.18249E-05-2.19583E-06 5.24833E-19 9.61118E-19
 -1      1584 1.07125E-04-3.24211E-05-3.20086E-05-4.47118E-06 1.14826E-18 2.05040E-18
 -1      1585 1.11709E-04-3.37220E-05-3.33328E-05-1.01875E-06 1.26082E-19 5.30534E-19
 -1      1586 1.10141E-04-3.32931E-05-3.28813E-05-1.23814E-06-5.05123E-19 3.01755E-21
 -1      1587 1.09757E-04-3.33809E-05-3.27094E-05-2.90171E-06-1.96776E-19 1.61002E-18
 -1      1588 1.12413E-04-3.38830E-05-3.35923E-05-2.47454E-08-1.29844E-19 1.03947E-19
 -1      1589 1.11976E-04-3.38322E-05-3.34505E-05-2.42599E-07 5.26444E-19 7.88204E-19
 -1      1590 1.10923E-04-3.37141E-05-3.30639E-05-1.01326E-06 4.88268E-19 1.60475E-18
 -1      1591 1.11544E-04-3.35584E-05-3.33891E-05 7.00831E-07-7.12600E-20 9.20315E-19
 -1      1592 1.12017E-04-3.37823E-05-3.35082E-05 5.34387E-07-3.83580E-19-1.84905E-19
 -1      1593 1.10675E-04-3.35245E-05-3.30433E-05 6.03766E-07-3.54040E-19 6.23248E-19
 -1      1594 1.09642E-04-3.29337E-05-3.28651E-05 1.12192E-06 8.30235E-19 5.37237E-19
 -1      1595 1.10699E-04-3.33155E-05-3.31589E-05 1.01769E-06 9.95856E-19 1.65759E-18
 -1      1596 1.09366E-04-3.29972E-05-3.27143E-05 1.70349E-06 2.87981E-19 1.36889E-18
 -1      1597 1.07218E-04-3.21693E-05-3.21680E-05 1.29311E-06 7.03420E-19-1.17352E-18
 -1      1598 1.08560E-04-3.26146E-05-3.25518E-05 1.24144E-06 5.52627E-19 4.10943E-21
 -1      1599 1.07418E-04-3.23018E-05-3.21829E-05 2.28800E-06 1.32940E-18 1.08158E-18
 -1      1600 1.04656E-04-3.13790E-05-3.14155E-05 1.29350E-06-1.01361E-18-1.42126E-18
 -1      1601 1.06064E-04-3.18251E-05-3.18243E-05 1.27883E-06-1.87575E-19-1.77980E-18
 -1      1602 1.05195E-04-3.15596E-05-3.15525E-05 2.47297E-06 1.48036E-19 1.36273E-18
 -1      1603 1.02207E-04-3.06332E-05-3.06878E-05 1.19174E-06 6.72630E-20-1.89841E-19
 -1      1604 1.03542E-04-3.10438E-05-3.10788E-05 1.20031E-06-3.77904E-19-9.58669E-19
 -1      1605 1.02961E-04-3.08453E-05-3.09043E-05 2.39329E-06-4.74905E-19 7.75316E-19
 -1      1606 1.00018E-04-2.99711E-05-3.00339E-05 1.03376E-06 8.96839E-19-6.84601E-19
 -1      1607 1.01202E-04-3.03273E-05-3.03818E-05 1.05657E-06 6.72349E-19 1.86493E-19
 -1      1608 1.00887E-04-3.01995E-05-3.02940E-05 2.15690E-06 8.85158E-19 2.44614E-20
 -1      1609 9.81767E-05-2.94141E-05-2.94836E-05 8.42346E-07 1.24909E-18-2.82547E-18
 -1      1610 9.91631E-05-2.97057E-05-2.97732E-05 8.75593E-07 9.86017E-19-1.27491E-18
 -1      1611 9.90704E-05-2.96418E-05-2.97571E-05 1.83101E-06 1.44433E-18-1.17840E-18
 -1      1612 9.67419E-05-2.89774E-05-2.90576E-05 6.21441E-07 6.08549E-19-5.22787E-18
 -1      1613 9.74965E-05-2.91950E-05-2.92776E-05 6.66168E-07 8.54200E-19-4.33511E-18
 -1      1614 9.75725E-05-2.91811E-05-2.93160E-05 1.44454E-06 1.90246E-18-2.75147E-18
 -1      1615 9.57719E-05-2.86789E-05-2.87697E-05 3.61377E-07 3.77620E-19-6.17997E-18
 -1      1616 9.62545E-05-2.88079E-05-2.89118E-05 4.24619E-07 7.67440E-19-5.01808E-18
 -1      1617 9.64304E-05-2.88217E-05-2.89845E-05 9.98917E-07 1.11048E-18-3.36130E-18
 -1      1618 9.53116E-05-2.85481E-05-2.86087E-05 8.58196E-08-2.80178E-19-5.22963E-18
 -1      1619 9.54843E-05-2.85720E-05-2.86795E-05 1.57019E-07-3.84275E-19-6.53734E-18
 -1      1620 9.56649E-05-2.85805E-05-2.87604E-05 4.91741E-07 4.14548E-19-3.23613E-18
 -1      1621 9.52206E-05-2.85604E-05-2.85556E-05-2.33133E-08-2.80522E-18-2.88048E-18
 -1      1622 9.52000E-05-2.81808E-05-2.87309E-05 2.87907E-07-2.13622E-18 8.92779E-19
 -1      1623 9.52611E-05-2.83920E-05-2.86538E-05 2.16129E-07-3.55799E-18 1.65749E-18
 -1      1624 9.49286E-05-2.73556E-05-2.89657E-05 5.58853E-07-5.87838E-19 1.14811E-18
 -1      1625 9.50875E-05-2.78322E-05-2.88294E-05 5.10272E-07-1.49945E-18 5.87075E-19
 -1      1626 9.51712E-05-2.78543E-05-2.88615E-05 7.88244E-07-1.43844E-18 1.03261E-18
 -1      1627 9.45586E-05-2.62356E-05-2.92835E-05 7.25916E-07-1.03124E-18 8.31548E-20
 -1      1628 9.47734E-05-2.68832E-05-2.91001E-05 7.02137E-07-7.05195E-19 5.96161E-19
 -1      1629 9.48616E-05-2.70225E-05-2.90841E-05 1.22653E-06 8.74760E-20 9.62814E-19
 -1      1630 9.41535E-05-2.49944E-05-2.96396E-05 7.69769E-07 1.88831E-18 1.84642E-18
 -1      1631 9.43844E-05-2.56976E-05-2.94390E-05 7.71106E-07-9.12049E-19 2.96770E-18
 -1      1632 9.44968E-05-2.60064E-05-2.93561E-05 1.45042E-06-1.77589E-19 1.59964E-18
 -1      1633 9.37783E-05-2.38354E-05-2.99747E-05 6.98970E-07 1.67585E-18 4.21269E-19
 -1      1634 9.39871E-05-2.44748E-05-2.97915E-05 7.21351E-07 1.73454E-18-2.54322E-19
 -1      1635 9.41225E-05-2.49460E-05-2.96428E-05 1.44283E-06-4.78339E-19 1.10679E-18
 -1      1636 9.34712E-05-2.28839E-05-3.02505E-05 5.28109E-07 4.56480E-18 1.82880E-18
 -1      1637 9.36353E-05-2.33866E-05-3.01062E-05 5.68651E-07 2.70106E-18 2.00253E-18
 -1      1638 9.37853E-05-2.39777E-05-2.99070E-05 1.22640E-06 9.54783E-19 2.17817E-18
 -1      1639 9.32814E-05-2.22952E-05-3.04214E-05 2.82931E-07 4.71544E-18-3.87299E-19
 -1      1640 9.33740E-05-2.25785E-05-3.03401E-05 3.35598E-07 4.42747E-18 7.04895E-19
 -1      1641 9.35239E-05-2.32246E-05-3.01129E-05 8.35639E-07 1.11282E-18 1.35676E-18
 -1      1642 9.32350E-05-2.21528E-05-3.04627E-05-3.60480E-09 4.86643E-18-3.07081E-19
 -1      1643 9.32428E-05-2.21752E-05-3.04564E-05 5.43385E-08 5.63373E-18-4.41529E-19
 -1      1644 9.33757E-05-2.27991E-05-3.02289E-05 3.26395E-07 2.09684E-18 9.61614E-20
 -1      1645 9.33403E-05-2.24812E-05-3.03672E-05-2.93295E-07 2.62737E-18-1.77170E-18
 -1      1646 9.32610E-05-2.22365E-05-3.04376E-05-2.37794E-07 4.01606E-18-9.86501E-19
 -1      1647 9.33613E-05-2.27618E-05-3.02382E-05-2.33327E-07 2.69961E-18-2.07284E-18
 -1      1648 9.35848E-05-2.32405E-05-3.01470E-05-5.46084E-07-2.62291E-18-3.66548E-18
 -1      1649 9.34285E-05-2.27596E-05-3.02851E-05-5.00889E-07 2.34210E-18-3.34853E-18
 -1      1650 9.34844E-05-2.31220E-05-3.01386E-05-7.67884E-07 1.17213E-18-3.36738E-18
 -1      1651 9.39304E-05-2.43078E-05-2.98384E-05-7.21836E-07-4.54034E-18 8.42672E-19
 -1      1652 9.37213E-05-2.36688E-05-3.00212E-05-6.94452E-07-3.47328E-18-2.02786E-18
 -1      1653 9.37295E-05-2.38280E-05-2.99454E-05-1.19861E-06-4.04131E-19-5.38756E-18
 -1      1654 9.43407E-05-2.55648E-05-2.94771E-05-7.94183E-07-2.58795E-18 7.39094E-19
 -1      1655 9.41023E-05-2.48418E-05-2.96829E-05-7.89128E-07-4.23882E-18 2.60427E-18
 -1      1656 9.40652E-05-2.47887E-05-2.96841E-05-1.46119E-06-1.41505E-18 2.34314E-18
 -1      1657 9.47470E-05-2.67979E-05-2.91258E-05-7.36849E-07-2.56251E-18-7.76938E-20
 -1      1658 9.45215E-05-2.61204E-05-2.93171E-05-7.58291E-07-2.58625E-18 1.77302E-18
 -1      1659 9.44542E-05-2.58819E-05-2.93903E-05-1.50303E-06-1.03027E-18 1.02062E-18
 -1      1660 9.50820E-05-2.77863E-05-2.88429E-05-5.41981E-07-2.97461E-18 2.93864E-19
 -1      1661 9.49072E-05-2.72878E-05-2.89862E-05-5.93978E-07-2.64805E-18-7.66358E-19
 -1      1662 9.48365E-05-2.69381E-05-2.91093E-05-1.28779E-06-1.87924E-18-3.54023E-19
 -1      1663 9.52859E-05-2.82961E-05-2.87015E-05-3.63852E-07-2.25900E-18-7.47245E-19
 -1      1664 9.52134E-05-2.80598E-05-2.87857E-05-4.74213E-07-1.99778E-18-5.49825E-19
 -1      1665 9.51969E-05-2.77197E-05-2.89271E-05-1.01051E-06-1.59907E-18 1.50394E-19
 -1      1666 9.55228E-05-2.82543E-05-2.88256E-05-7.35168E-07-9.75993E-19-8.98672E-19
 -1      1667 1.91595E-05-6.09122E-05 1.21029E-05-5.23103E-06 2.60463E-18 4.49351E-19
 -1      1668 2.23259E-05-7.03635E-05 1.41382E-05 1.84901E-06 9.20301E-19 7.01132E-19
 -1      1669 1.80657E-05-3.35262E-05 2.44124E-06 3.46836E-06 2.62411E-18 7.68047E-19
 -1      1670 2.26701E-05-5.67308E-05 8.45727E-06-1.09811E-06 3.14419E-18 7.79416E-19
 -1      1671 3.84385E-05-9.16300E-06-1.40112E-05 3.25797E-05 1.99053E-18 6.10711E-19
 -1      1672 3.04503E-05-2.83980E-05-5.09357E-06 1.35796E-05 2.96546E-18 8.87691E-19
 -1      1673 7.71286E-05-4.59396E-07-3.17256E-05 6.10247E-05 9.31736E-19-9.40207E-20
 -1      1674 5.25839E-05-4.03261E-06-2.26388E-05 4.00512E-05 2.00577E-18 4.37916E-19
 -1      1675 1.38235E-04-1.57268E-05-4.89470E-05 7.62191E-05-4.17587E-19-8.50421E-19
 -1      1676 9.88652E-05-2.95264E-06-4.02954E-05 6.56970E-05 5.18384E-19-3.59142E-19
 -1      1677 1.99699E-04-4.16695E-05-6.25335E-05 6.13464E-05-4.77832E-19-3.20517E-18
 -1      1678 1.60738E-04-2.23787E-05-5.61011E-05 7.12030E-05-3.27590E-19-2.21753E-18
 -1      1679 2.36403E-04-5.86871E-05-7.01847E-05 1.94665E-05 3.20814E-19-6.05544E-18
 -1      1680 2.14501E-04-4.63730E-05-6.70764E-05 4.90067E-05-1.28220E-19-4.43379E-18
 -1      1681 2.33373E-04-5.66527E-05-7.00569E-05-3.09265E-05 2.28784E-18-7.65252E-18
 -1      1682 2.43263E-04-6.22173E-05-7.14221E-05 3.27025E-06 1.55896E-18-5.07886E-18
 -1      1683 1.85096E-04-3.31434E-05-6.13974E-05-6.38610E-05 5.18511E-18-9.84676E-18
 -1      1684 2.19960E-04-5.16137E-05-6.66246E-05-4.48913E-05 3.33747E-18-8.07646E-18
 -1      1685 1.17359E-04-6.03862E-06-4.64679E-05-7.08356E-05 7.42636E-18-1.10241E-17
 -1      1686 1.62420E-04-2.49121E-05-5.49475E-05-7.40410E-05 5.87544E-18-1.11359E-17
 -1      1687 6.16584E-05 3.04809E-06-2.89076E-05-5.00755E-05 8.98363E-18-8.62534E-18
 -1      1688 9.23504E-05 1.16861E-08-3.79278E-05-6.87341E-05 7.80456E-18-1.01220E-17
 -1      1689 3.24278E-05-1.40172E-05-1.09211E-05-2.24477E-05 4.38509E-18-5.77168E-18
 -1      1690 4.58030E-05-5.63146E-07-2.00907E-05-4.25107E-05 7.46236E-18-7.38824E-18
 -1      1691 1.92235E-05-3.70116E-05 2.96928E-06-4.46785E-06-6.79320E-19-2.18736E-18
 -1      1692 1.74521E-05-1.68300E-05-3.22780E-06-1.24536E-05 3.47284E-18-4.97399E-18
 -1      1693 1.93411E-05-5.80350E-05 1.12200E-05-3.34765E-06-3.71593E-18-4.25952E-19
 -1      1694 1.52745E-05-4.34054E-05 7.69533E-06 5.21029E-07-1.86093E-18-6.56186E-19
 -1      1695 1.76774E-05-6.06598E-05 1.28979E-05-9.78751E-06-6.12733E-18-1.43572E-18
 -1      1696 1.80742E-05-6.02065E-05 1.28261E-05-1.36161E-06-5.15970E-18-6.81862E-19
 -1      1697 1.51968E-05-4.54019E-05 7.67128E-06-9.19076E-06-8.09425E-18-3.58523E-18
 -1      1698 1.95570E-05-5.98133E-05 1.12840E-05-6.98811E-06-6.60474E-18-2.02589E-18
 -1      1699 2.44446E-05-2.19854E-05-4.72493E-06 1.02883E-05-8.45678E-18-5.82462E-18
 -1      1700 2.30367E-05-4.13959E-05 2.31044E-06-1.47659E-06-8.14507E-18-4.38212E-18
 -1      1701 5.58832E-05-7.36918E-06-2.19811E-05 4.04145E-05-6.94652E-18-5.58025E-18
 -1      1702 3.80176E-05-1.83709E-05-1.25982E-05 1.82504E-05-8.68632E-18-5.68274E-18
 -1      1703 1.17452E-04-1.65708E-05-4.12615E-05 6.41744E-05-4.36730E-18-4.42405E-18
 -1      1704 8.01570E-05-1.01388E-05-3.13481E-05 4.65359E-05-6.18080E-18-5.23043E-18
 -1      1705 1.89336E-04-4.03136E-05-5.89549E-05 6.05941E-05-1.91218E-18-3.86840E-18
 -1      1706 1.43158E-04-2.14566E-05-5.02208E-05 6.20347E-05-2.98579E-18-4.52485E-18
 -1      1707 2.41577E-04-6.10204E-05-7.06321E-05 3.13079E-05-1.27171E-18-1.09648E-18
 -1      1708 2.10237E-04-4.49928E-05-6.57651E-05 5.53761E-05-1.44382E-18-2.36068E-18
 -1      1709 2.48656E-04-6.15891E-05-7.35969E-05-1.88609E-05-9.39995E-19 6.31569E-19
 -1      1710 2.46199E-04-6.10837E-05-7.29222E-05 1.55923E-05-6.44169E-19-3.46860E-19
 -1      1711 2.19724E-04-4.57229E-05-6.89228E-05-6.16249E-05-1.66400E-18 3.12216E-18
 -1      1712 2.46398E-04-6.11599E-05-7.25470E-05-3.50996E-05-1.51174E-18 1.26377E-18
 -1      1713 1.58486E-04-1.88104E-05-5.66073E-05-7.78876E-05-3.51095E-18 5.07542E-18
 -1      1714 2.01427E-04-3.93487E-05-6.37459E-05-7.18271E-05-2.29853E-18 4.40881E-18
 -1      1715 9.45958E-05-1.40927E-06-3.95817E-05-6.56276E-05-3.57787E-18 5.03730E-18
 -1      1716 1.33993E-04-1.22082E-05-4.87339E-05-7.97106E-05-3.46648E-18 5.62684E-18
 -1      1717 5.15438E-05-9.37361E-06-2.05724E-05-3.63398E-05-2.26835E-18 3.71000E-18
 -1      1718 7.50478E-05-2.85591E-06-3.03733E-05-5.88763E-05-3.53552E-18 4.75863E-18
 -1      1719 2.68309E-05-2.98035E-05-3.63162E-06-1.03653E-05-5.87756E-18 1.10157E-18
 -1      1720 3.18641E-05-9.63920E-06-1.17757E-05-2.73715E-05-3.80826E-18 4.58245E-19
 -1      1721 2.29212E-05-5.79636E-05 8.73806E-06 7.45402E-07-4.29446E-18 2.64359E-18
 -1      1722 1.84677E-05-3.62176E-05 3.07477E-06-2.74501E-06-5.46167E-18 2.52691E-18
 -1      1723 2.26034E-05-7.14739E-05 1.43290E-05-1.89006E-06 7.95152E-20 1.35356E-18
 -1      1724 1.97198E-05-6.28077E-05 1.23817E-05 5.58797E-06-3.05694E-18 2.60939E-18
 -1      1725 1.12617E-04-2.71036E-05-3.55071E-05 4.65221E-05 1.62207E-19-1.47045E-18
 -1      1726 7.41339E-05-3.20108E-05-1.90419E-05 4.01449E-05 1.01898E-18-7.43695E-19
 -1      1727 9.53029E-05-2.85357E-05-2.86157E-05 7.52759E-08-3.47014E-18-3.42593E-19
 -1      1728 9.53553E-05-2.83397E-05-2.87224E-05 3.68376E-07-1.84532E-18 1.21141E-18
 -1      1729 1.80471E-05-4.39420E-05 6.90673E-06 1.35544E-05 1.49078E-19 1.05900E-18
 -1      1730 4.06752E-05-3.79179E-05-3.85253E-06 2.93913E-05 4.54857E-19-2.95879E-19
 -1      1731 1.13504E-05-4.66707E-05 1.05233E-05 3.15477E-07-4.81697E-19 2.58176E-18
 -1      1732 1.53618E-04-2.83477E-05-5.05293E-05 4.22036E-05-5.88264E-19-2.92311E-18
 -1      1733 1.84282E-04-3.03606E-05-6.16366E-05 2.65562E-05 3.91753E-20-5.89111E-18
 -1      1734 2.00708E-04-3.23105E-05-6.71015E-05 5.54152E-06 7.91976E-19-6.14300E-18
 -1      1735 1.95675E-04-3.28068E-05-6.50170E-05-1.66981E-05 3.34282E-18-4.97547E-18
 -1      1736 1.66516E-04-2.83998E-05-5.56662E-05-3.70476E-05 5.00485E-18-7.03291E-18
 -1      1737 1.23303E-04-2.33556E-05-4.12914E-05-4.70077E-05 5.18935E-18-7.74273E-18
 -1      1738 8.07178E-05-2.47368E-05-2.46102E-05-4.25125E-05 3.84045E-18-5.94575E-18
 -1      1739 4.45339E-05-2.69167E-05-9.16330E-06-3.39136E-05 1.16636E-18-6.37075E-18
 -1      1740 1.96850E-05-3.35127E-05 2.79860E-06-1.97146E-05-9.17337E-19-3.60222E-18
 -1      1741 9.76113E-06-3.92059E-05 8.85110E-06-9.70469E-06-3.19501E-18-1.74404E-18
 -1      1742 1.08925E-05-4.09673E-05 8.82464E-06 4.66728E-07-4.70612E-18-2.33908E-18
 -1      1743 2.60668E-05-3.96289E-05 2.10850E-06 1.37187E-05-5.54298E-18-3.71000E-18
 -1      1744 5.58024E-05-3.74184E-05-1.04579E-05 2.69782E-05-5.73780E-18-3.81779E-18
 -1      1745 9.87003E-05-3.66580E-05-2.69997E-05 3.59529E-05-5.54976E-18-2.71813E-18
 -1      1746 1.46173E-04-3.79131E-05-4.44138E-05 3.32858E-05-3.56749E-18-3.01205E-18
 -1      1747 1.84477E-04-3.67479E-05-5.92380E-05 2.34554E-05-2.38906E-18-2.51230E-18
 -1      1748 2.06303E-04-3.51213E-05-6.79809E-05 7.48999E-06-1.94479E-18-5.19019E-19
 -1      1749 2.07718E-04-3.35292E-05-6.91276E-05-1.47020E-05-2.15824E-18 1.39040E-18
 -1      1750 1.91834E-04-3.29654E-05-6.32227E-05-3.48275E-05-3.08193E-18 3.27717E-18
 -1      1751 1.54712E-04-2.92552E-05-5.07715E-05-4.68786E-05-2.78695E-18 4.12166E-18
 -1      1752 1.12201E-04-3.05039E-05-3.43982E-05-4.68737E-05-1.98714E-18 3.95649E-18
 -1      1753 7.12618E-05-3.32012E-05-1.75130E-05-4.09699E-05-3.56177E-18 3.13572E-18
 -1      1754 3.66167E-05-3.78794E-05-2.67117E-06-2.73024E-05-3.43302E-18 4.33893E-19
 -1      1755 1.77903E-05-4.49511E-05 7.23892E-06-1.33003E-05-2.28614E-18 3.96644E-18
 -1      1756 1.06000E-04-2.31559E-05-3.55880E-05-1.68596E-05-1.03314E-18 5.62578E-18
 -1      1757 8.91332E-05-1.05792E-05-3.37917E-05-1.33353E-05-1.66418E-18-1.19755E-18
 -1      1758 9.04679E-05-1.16313E-05-3.39296E-05-1.51489E-05-1.81100E-18-5.62536E-19
 -1      1759 9.24635E-05-1.38678E-05-3.38455E-05-1.60149E-05-1.75238E-18 1.49157E-19
 -1      1760 9.41702E-05-1.58111E-05-3.40867E-05-1.76755E-05-1.77475E-18 1.07319E-18
 -1      1761 9.33917E-05-1.63385E-05-3.30385E-05-1.37927E-05-1.84413E-18-1.83436E-19
 -1      1762 8.62288E-05-7.67452E-06-3.37376E-05-7.87596E-06-1.09455E-18-2.18067E-18
 -1      1763 8.66255E-05-7.97429E-06-3.37696E-05-9.26518E-06-1.26235E-18-2.03899E-18
 -1      1764 8.56259E-05-7.04267E-06-3.37380E-05-5.32878E-06-8.27920E-19-2.45035E-18
 -1      1765 8.58550E-05-7.21973E-06-3.37516E-05-6.63458E-06-9.76808E-19-2.34645E-18
 -1      1766 8.76182E-05-9.87325E-06-3.33518E-05-6.94221E-06-1.12132E-18-2.17245E-18
 -1      1767 8.52977E-05-6.68482E-06-3.37436E-05-2.89314E-06-4.42615E-19-2.44459E-18
 -1      1768 8.54157E-05-6.77904E-06-3.37486E-05-4.13445E-06-6.30340E-19-2.41312E-18
 -1      1769 8.69933E-05-9.16283E-06-3.33884E-05-4.54398E-06-7.66152E-19-2.35590E-18
 -1      1770 8.51696E-05-6.53681E-06-3.37482E-05-5.18316E-07-1.43268E-19-2.57143E-18
 -1      1771 8.52043E-05-6.56527E-06-3.37492E-05-1.72955E-06-2.81992E-19-2.54057E-18
 -1      1772 8.66665E-05-8.78387E-06-3.34106E-05-2.22016E-06-3.62355E-19-2.38311E-18
 -1      1773 8.52139E-05-6.57415E-06-3.37494E-05 1.84767E-06 1.27168E-19-2.53089E-18
 -1      1774 8.51732E-05-6.54132E-06-3.37481E-05 6.35465E-07-1.32465E-20-2.53839E-18
 -1      1775 8.65700E-05-8.67030E-06-3.34179E-05 6.55128E-08-7.54850E-20-2.46260E-18
 -1      1776 8.54404E-05-6.80388E-06-3.37486E-05 4.25686E-06 3.82498E-19-2.62038E-18
 -1      1777 8.53152E-05-6.70348E-06-3.37435E-05 3.01252E-06 2.71812E-19-2.59954E-18
 -1      1778 8.66838E-05-8.80315E-06-3.34098E-05 2.35232E-06 2.00505E-19-2.47162E-18
 -1      1779 8.58892E-05-7.25608E-06-3.37509E-05 6.72106E-06 6.86057E-19-2.44679E-18
 -1      1780 8.56556E-05-7.07438E-06-3.37377E-05 5.43252E-06 5.36163E-19-2.55312E-18
 -1      1781 8.70263E-05-9.19948E-06-3.33868E-05 4.65847E-06 5.09979E-19-2.47094E-18
 -1      1782 8.66908E-05-8.04413E-06-3.37673E-05 9.38533E-06 1.13905E-18-2.15404E-18
 -1      1783 8.62762E-05-7.72844E-06-3.37359E-05 7.96343E-06 8.83960E-19-2.29654E-18
 -1      1784 8.76693E-05-9.93084E-06-3.33491E-05 7.03629E-06 8.87912E-19-2.26101E-18
 -1      1785 8.80881E-05-9.38886E-06-3.38174E-05 1.22662E-05 1.51575E-18-1.86366E-18
 -1      1786 8.73559E-05-8.83241E-06-3.37481E-05 1.06726E-05 1.31372E-18-2.05416E-18
 -1      1787 8.87777E-05-1.11635E-05-3.32940E-05 9.51307E-06 1.32361E-18-1.97380E-18
 -1      1788 9.06140E-05-1.18365E-05-3.39216E-05 1.53150E-05 1.84017E-18-1.09855E-18
 -1      1789 8.92428E-05-1.07393E-05-3.37848E-05 1.35256E-05 1.66499E-18-1.56934E-18
 -1      1790 9.06586E-05-1.32222E-05-3.32057E-05 1.19870E-05 1.73619E-18-1.58951E-18
 -1      1791 9.58394E-05-1.70250E-05-3.39815E-05 1.77014E-05 1.93035E-18 4.59621E-19
 -1      1792 9.28294E-05-1.43365E-05-3.38181E-05 1.62058E-05 1.83173E-18-4.83179E-19
 -1      1793 9.39471E-05-1.68810E-05-3.30170E-05 1.39065E-05 1.91274E-18-7.22784E-19
 -1      1794 1.01875E-04-2.50798E-05-3.33442E-05 1.44314E-05 1.67374E-18 2.48827E-18
 -1      1795 9.80337E-05-1.96048E-05-3.36119E-05 1.69743E-05 1.79417E-18 1.15985E-18
 -1      1796 9.72900E-05-2.18429E-05-3.24157E-05 1.32598E-05 1.92857E-18 4.58033E-19
 -1      1797 9.87004E-05-2.61199E-05-3.13269E-05 9.44459E-06 1.63676E-18 2.00551E-18
 -1      1798 1.00109E-04-1.95500E-05-3.42037E-05-1.88786E-05-1.46891E-18 2.73750E-18
 -1      1799 9.52554E-05-2.72688E-05-2.91687E-05 4.07645E-06 1.40330E-18 1.21646E-18
 -1      1800 9.76885E-05-2.73749E-05-3.01785E-05 6.41030E-06 1.41804E-18 1.70214E-18
 -1      1801 9.75299E-05-2.56009E-05-3.08187E-05 8.77083E-06 1.71238E-18 8.71915E-19
 -1      1802 9.97710E-05-2.25274E-05-3.28234E-05-1.44781E-05-1.58146E-18 2.01128E-18
 -1      1803 9.69133E-05-2.69656E-05-2.98625E-05-5.71556E-06-1.34453E-18 1.79769E-18
 -1      1804 9.51016E-05-2.70196E-05-2.91512E-05-3.90909E-06-1.26322E-18 1.39251E-18
 -1      1805 9.42814E-05-2.72195E-05-2.86438E-05-2.43274E-06-1.17829E-18 1.35647E-18
 -1      1806 9.35073E-05-2.72987E-05-2.83382E-05-1.57853E-06-9.61899E-19 1.05024E-18
 -1      1807 9.54670E-05-2.65322E-05-2.95638E-05-4.48704E-06-1.37569E-18 5.94698E-19
 -1      1808 9.29832E-05-2.73493E-05-2.80697E-05-7.49826E-07-7.62022E-19 9.87144E-19
 -1      1809 9.26807E-05-2.74119E-05-2.79475E-05-3.10122E-07-5.79976E-19 8.04155E-19
 -1      1810 9.42560E-05-2.72064E-05-2.87558E-05-1.83904E-06-1.02746E-18 5.09183E-19
 -1      1811 9.24066E-05-2.74391E-05-2.78123E-05 1.48036E-07-4.87046E-19 8.02949E-19
 -1      1812 9.23757E-05-2.75143E-05-2.77829E-05 3.74797E-07-4.21319E-19 6.27416E-19
 -1      1813 9.35569E-05-2.75122E-05-2.83214E-05-3.67473E-07-6.83372E-19 3.52968E-19
 -1      1814 9.22761E-05-2.75456E-05-2.77264E-05 6.19899E-07-4.35789E-19 5.79605E-19
 -1      1815 9.23944E-05-2.76301E-05-2.77470E-05 7.28717E-07-4.11792E-19 4.26749E-19
 -1      1816 9.32405E-05-2.76951E-05-2.81034E-05 4.44508E-07-4.55360E-19 8.40374E-20
 -1      1817 9.24070E-05-2.76684E-05-2.77382E-05 8.48728E-07-4.24311E-19 4.49833E-19
 -1      1818 9.26029E-05-2.77554E-05-2.77859E-05 8.90501E-07-3.37562E-19 4.89907E-19
 -1      1819 9.31872E-05-2.78362E-05-2.80162E-05 8.72275E-07-4.79445E-19 2.41644E-20
 -1      1820 9.26841E-05-2.77981E-05-2.78059E-05 9.38008E-07-3.83281E-19 3.68265E-19
 -1      1821 9.29161E-05-2.78825E-05-2.78675E-05 9.43161E-07-4.04406E-19 2.28332E-19
 -1      1822 9.33006E-05-2.79584E-05-2.80095E-05 1.07409E-06-4.52790E-19-2.50818E-20
 -1      1823 9.30376E-05-2.79265E-05-2.79047E-05 9.51765E-07-7.66225E-19 2.70783E-19
 -1      1824 9.32828E-05-2.80057E-05-2.79728E-05 9.40092E-07-6.57573E-19 2.19943E-19
 -1      1825 9.35141E-05-2.80674E-05-2.80522E-05 1.14751E-06-5.31990E-19-1.73247E-19
 -1      1826 9.34276E-05-2.80492E-05-2.80204E-05 9.32569E-07-6.78226E-19-7.38031E-21
 -1      1827 9.36757E-05-2.81227E-05-2.80913E-05 9.17818E-07-6.60851E-19-5.32966E-19
 -1      1828 9.37854E-05-2.81647E-05-2.81255E-05 1.15659E-06-8.61989E-19-1.90823E-19
 -1      1829 9.38353E-05-2.81651E-05-2.81458E-05 9.10450E-07-6.14637E-19-5.60963E-19
 -1      1830 9.40847E-05-2.82339E-05-2.82186E-05 9.02741E-07-3.28540E-19-8.54446E-19
 -1      1831 9.40908E-05-2.82515E-05-2.82186E-05 1.14581E-06-7.24219E-19-5.23826E-19
 -1      1832 9.42571E-05-2.82758E-05-2.82790E-05 9.07812E-07-1.14498E-19-8.49912E-19
 -1      1833 9.45127E-05-2.83423E-05-2.83548E-05 9.15087E-07-2.16857E-20-7.93013E-19
 -1      1834 9.44208E-05-2.83299E-05-2.83263E-05 1.14770E-06-2.92122E-19-6.52543E-19
 -1      1835 9.47005E-05-2.83851E-05-2.84216E-05 9.42444E-07 3.08605E-19-8.32545E-19
 -1      1836 9.49724E-05-2.84530E-05-2.85033E-05 9.71379E-07 3.96713E-19-3.13773E-19
 -1      1837 9.47765E-05-2.84033E-05-2.84475E-05 1.18743E-06 1.36226E-19-5.05974E-19
 -1      1838 9.51818E-05-2.84988E-05-2.85785E-05 1.02942E-06 1.89797E-19-2.45794E-19
 -1      1839 9.54845E-05-2.85726E-05-2.86699E-05 1.08600E-06 1.55956E-19 1.86032E-19
 -1      1840 9.51674E-05-2.84760E-05-2.85844E-05 1.28568E-06 2.63995E-19-7.17401E-20
 -1      1841 9.57250E-05-2.86244E-05-2.87566E-05 1.18225E-06-2.99605E-19-1.53957E-19
 -1      1842 9.60764E-05-2.87098E-05-2.88628E-05 1.27203E-06-4.59519E-19-4.01251E-20
 -1      1843 9.56094E-05-2.85538E-05-2.87412E-05 1.46036E-06-1.96969E-19-2.97255E-19
 -1      1844 9.63598E-05-2.87714E-05-2.89648E-05 1.41326E-06-6.16235E-19-2.18177E-19
 -1      1845 9.67813E-05-2.88752E-05-2.90917E-05 1.54130E-06-5.60262E-19-5.70005E-19
 -1      1846 9.61239E-05-2.86437E-05-2.89241E-05 1.72751E-06-6.26346E-19-7.14638E-19
 -1      1847 9.71212E-05-2.89509E-05-2.92133E-05 1.73320E-06-6.82475E-19-7.32212E-19
 -1      1848 9.76365E-05-2.90813E-05-2.93675E-05 1.90343E-06-6.67270E-19-1.18396E-18
 -1      1849 9.67367E-05-2.87548E-05-2.91401E-05 2.10096E-06-7.77868E-19-1.23928E-18
 -1      1850 9.80480E-05-2.91770E-05-2.95128E-05 2.14942E-06-7.75533E-19-1.38417E-18
 -1      1851 9.86821E-05-2.93434E-05-2.97011E-05 2.36330E-06-7.85267E-19-1.58417E-18
 -1      1852 9.74771E-05-2.88988E-05-2.93967E-05 2.59072E-06-9.03431E-19-1.19515E-18
 -1      1853 8.37937E-05-2.70140E-05-2.95289E-05 3.43987E-07 4.05559E-18 6.00419E-18
 -1      1854 6.03402E-05-2.52220E-05-2.27737E-05 8.86501E-06 8.36911E-18 2.22278E-17
 -1      1855 9.83769E-05-2.90918E-05-2.97007E-05 3.19924E-06-3.60849E-19-1.06014E-18
 -1      1856 5.58545E-05-2.27280E-05-1.69922E-05 1.03697E-05 6.59262E-18 2.61553E-17
 -1      1857 5.28064E-05-1.83840E-05-1.57501E-05 9.67040E-06 4.31815E-18 2.84964E-17
 -1      1858 5.39787E-05-1.98961E-05-2.14747E-05 5.74681E-06 1.10373E-17 2.76692E-17
 -1      1859 4.84705E-05-1.39499E-05-1.50406E-05 1.06313E-05 2.43157E-18 2.97837E-17
 -1      1860 4.94344E-05-1.14917E-05-1.63216E-05 1.21173E-05 2.25516E-19 3.06514E-17
 -1      1861 4.60284E-05-1.43697E-05-1.48133E-05 8.75795E-06 4.86260E-18 3.13937E-17
 -1      1862 4.54152E-05-7.46329E-06-1.70006E-05 1.37812E-05-1.10368E-18 3.32421E-17
 -1      1863 4.44658E-05-3.57937E-06-1.90762E-05 1.79912E-05-4.81847E-18 3.38898E-17
 -1      1864 3.95760E-05-5.51584E-06-1.45939E-05 1.21882E-05 5.49671E-19 3.37735E-17
 -1      1865 3.93899E-05 2.79944E-06-2.00097E-05 1.73284E-05-8.67637E-18 3.78696E-17
 -1      1866 2.77493E-05 5.46259E-06-2.05847E-05-4.87615E-06-9.67820E-18 4.85316E-17
 -1      1867 3.13714E-05 1.23157E-06-1.53853E-05 1.00862E-05-2.81406E-18 3.94667E-17
 -1      1868 3.85067E-05-2.74843E-05-2.21325E-05-1.35899E-05-7.46660E-18 5.17063E-17
 -1      1869 8.12115E-05-6.86294E-05-1.95092E-05 6.35852E-06 3.12047E-18 5.51181E-17
 -1      1870 3.79266E-05-2.15282E-05-1.59283E-05 1.02366E-06-5.01698E-18 4.79234E-17
 -1      1871 9.22121E-05-7.26140E-05-1.41944E-05 2.31484E-05-2.01916E-17 2.76607E-17
 -1      1872 8.15543E-05-4.56800E-05-8.80968E-06 3.18718E-05-3.74177E-17 1.12554E-17
 -1      1873 5.28931E-05-4.42005E-05-1.88118E-05 3.04624E-05-2.68730E-17 5.97090E-17
 -1      1874 9.08026E-05-3.38320E-05-1.46718E-05 4.09726E-05-1.75912E-17-2.21584E-18
 -1      1875 1.01015E-04-3.72958E-05-2.23178E-05 3.39760E-05-7.29782E-18-1.16721E-18
 -1      1876 1.00371E-04-3.99377E-05-2.00354E-05 5.56369E-05-4.72102E-17 8.11796E-18
 -1      1877 1.04708E-04-3.89190E-05-2.59420E-05 2.28429E-05-2.69621E-18 7.19131E-19
 -1      1878 1.11909E-04-4.07760E-05-2.94053E-05 1.72755E-05-5.93029E-19 9.71970E-20
 -1      1879 1.21082E-04-4.93048E-05-2.70272E-05 3.72580E-05-5.80514E-18-1.75166E-18
 -1      1880 1.12467E-04-4.04459E-05-3.06767E-05 9.64406E-06-3.20761E-19 1.33736E-18
 -1      1881 1.14690E-04-4.03217E-05-3.18179E-05 4.59081E-06-2.10170E-19 1.48789E-18
 -1      1882 1.21261E-04-4.71854E-05-3.09466E-05 1.59543E-05-3.08148E-19 5.33631E-20
 -1      1883 1.13970E-04-3.90283E-05-3.23193E-05-8.49880E-07-7.05261E-19 2.09183E-18
 -1      1884 1.13426E-04-3.75168E-05-3.25578E-05-4.29907E-06-1.16842E-18 1.80381E-18
 -1      1885 1.20330E-04-4.42582E-05-3.25373E-05 2.11617E-06-3.36755E-19 1.02662E-18
 -1      1886 1.11588E-04-3.53517E-05-3.28805E-05-7.08843E-06-1.51552E-18 2.06051E-18
 -1      1887 1.09736E-04-3.30888E-05-3.28006E-05-7.99664E-06-1.38917E-18 1.79678E-18
 -1      1888 1.17343E-04-3.92441E-05-3.34885E-05-6.94693E-06-1.30199E-18 1.44326E-18
 -1      1889 1.07482E-04-3.06958E-05-3.30440E-05-7.37308E-06-1.25562E-18 1.26267E-18
 -1      1890 1.05852E-04-2.88561E-05-3.29271E-05-5.62081E-06-1.05073E-18 8.56178E-19
 -1      1891 1.12755E-04-3.28566E-05-3.43068E-05-9.44776E-06-1.66879E-18 1.92693E-18
 -1      1892 1.04601E-04-2.75901E-05-3.30282E-05-2.21996E-06-1.15484E-18 4.89400E-19
 -1      1893 1.04442E-04-2.73335E-05-3.30285E-05 9.18885E-07-1.00743E-18-3.69121E-20
 -1      1894 1.08825E-04-2.77799E-05-3.48470E-05-4.86891E-06-1.41759E-18 1.21796E-18
 -1      1895 1.05009E-04-2.79518E-05-3.29739E-05 4.73909E-06-6.43547E-19-4.28175E-19
 -1      1896 1.06502E-04-2.93094E-05-3.31413E-05 7.23439E-06-1.40938E-19-5.55257E-19
 -1      1897 1.08064E-04-2.68810E-05-3.49091E-05 3.41691E-06-1.03846E-18-2.89731E-19
 -1      1898 1.08149E-04-3.10613E-05-3.29736E-05 9.15860E-06-3.14871E-19-8.50209E-19
 -1      1899 1.10462E-04-3.29890E-05-3.32685E-05 9.76740E-06-5.43640E-19-7.83770E-19
 -1      1900 1.10545E-04-3.01366E-05-3.45062E-05 9.85596E-06-8.36498E-19-1.44851E-18
 -1      1901 1.11739E-04-3.44497E-05-3.31146E-05 9.19422E-06-2.81121E-19-1.05359E-18
 -1      1902 1.13778E-04-3.58501E-05-3.34393E-05 8.11885E-06-7.18572E-19-1.02764E-18
 -1      1903 1.13823E-04-3.46335E-05-3.39034E-05 1.11181E-05-4.35709E-19-1.00387E-18
 -1      1904 1.13993E-04-3.63406E-05-3.33342E-05 6.05489E-06-1.14924E-18-1.14895E-18
 -1      1905 1.15112E-04-3.68420E-05-3.35607E-05 4.24154E-06-5.03627E-19-1.38963E-18
 -1      1906 1.15504E-04-3.74699E-05-3.33950E-05 7.95774E-06-5.87305E-19-5.16311E-19
 -1      1907 1.14410E-04-3.65141E-05-3.34670E-05 1.95548E-06 9.92517E-19-1.37488E-18
 -1      1908 1.14518E-04-3.63165E-05-3.35185E-05 2.48831E-07 8.70783E-19-3.64543E-19
 -1      1909 1.15023E-04-3.78772E-05-3.30379E-05 3.06824E-06 3.42919E-19-4.06852E-19
 -1      1910 1.13342E-04-3.56165E-05-3.33873E-05-1.51519E-06 9.97315E-20-1.42259E-19
 -1      1911 1.12669E-04-3.50662E-05-3.32582E-05-2.71452E-06-2.89057E-19-3.97900E-19
 -1      1912 1.13057E-04-3.66409E-05-3.27468E-05-1.35621E-06 5.97704E-19-3.04392E-19
 -1      1913 1.11362E-04-3.43236E-05-3.30684E-05-3.76836E-06-4.97811E-19 7.18037E-19
 -1      1914 1.10214E-04-3.36740E-05-3.28025E-05-4.41517E-06-9.07232E-19 1.24992E-18
 -1      1915 1.10468E-04-3.48308E-05-3.24237E-05-4.38278E-06-1.84322E-19 8.34857E-20
 -1      1916 1.08953E-04-3.30361E-05-3.25619E-05-4.86417E-06-1.83877E-18 9.00657E-19
 -1      1917 1.07597E-04-3.24185E-05-3.22186E-05-5.08025E-06-1.16314E-18 7.01155E-19
 -1      1918 1.07809E-04-3.31082E-05-3.20260E-05-5.97134E-06-1.30894E-18 1.62563E-18
 -1      1919 1.06452E-04-3.19170E-05-3.19494E-05-5.11521E-06-8.17236E-19 3.63463E-19
 -1      1920 1.05075E-04-3.13807E-05-3.15812E-05-5.05545E-06 1.85902E-19-3.23100E-19
 -1      1921 1.05338E-04-3.17201E-05-3.15623E-05-6.45927E-06-1.04835E-18 2.91357E-18
 -1      1922 1.04066E-04-3.09975E-05-3.13074E-05-4.84894E-06 1.69850E-18-1.28282E-18
 -1      1923 1.02779E-04-3.05501E-05-3.09517E-05-4.63906E-06 1.61406E-18-3.59407E-19
 -1      1924 1.03145E-04-3.06823E-05-3.10665E-05-6.24238E-06 6.30870E-21 1.22619E-18
 -1      1925 1.01908E-04-3.02559E-05-3.06930E-05-4.31222E-06 1.45655E-18 2.23628E-20
 -1      1926 1.00771E-04-2.98888E-05-3.03725E-05-4.03352E-06 1.88884E-18 5.21392E-19
 -1      1927 1.01244E-04-2.99227E-05-3.05766E-05-5.63670E-06 1.85150E-18 6.14333E-19
 -1      1928 1.00030E-04-2.96571E-05-3.01423E-05-3.65695E-06 2.18785E-18 3.76035E-19
 -1      1929 9.90702E-05-2.93575E-05-2.98694E-05-3.35113E-06 1.99018E-18 1.30823E-18
 -1      1930 9.96236E-05-2.93576E-05-3.01236E-05-4.84836E-06 2.10824E-18 5.21596E-19
 -1      1931 9.84521E-05-2.91677E-05-2.96757E-05-2.95649E-06 6.11973E-19 8.88345E-19
 -1      1932 9.76778E-05-2.89240E-05-2.94567E-05-2.63596E-06 2.38398E-19 1.95087E-19
 -1      1933 9.82632E-05-2.89173E-05-2.97287E-05-3.98790E-06 1.65020E-18 1.17820E-18
 -1      1934 9.71697E-05-2.87612E-05-2.93026E-05-2.22960E-06 1.81722E-19-5.85285E-19
 -1      1935 9.65858E-05-2.85691E-05-2.91398E-05-1.88913E-06 1.56966E-20-1.03539E-18
 -1      1936 9.71406E-05-2.85512E-05-2.94032E-05-3.09725E-06-8.71086E-19 7.26028E-20
 -1      1937 9.62238E-05-2.84562E-05-2.90308E-05-1.49117E-06 7.07502E-19-7.80361E-19
 -1      1938 9.58202E-05-2.83229E-05-2.89158E-05-1.14101E-06-1.03479E-19-5.12079E-19
 -1      1939 9.56640E-05-2.81027E-05-2.89615E-05-1.34907E-06-5.01089E-19-3.91440E-19
 -1      1940 9.62784E-05-2.82689E-05-2.91571E-05-2.20621E-06 6.61665E-19-4.67200E-19
 -1      1941 9.31520E-05-2.73444E-05-2.81754E-05 1.61433E-06 1.08176E-18 6.69685E-19
 -1      1942 9.43493E-05-2.74507E-05-2.86127E-05 2.68532E-06 1.21155E-18 1.09188E-18
 -1      1943 9.51809E-05-2.70321E-05-2.92121E-05 4.06471E-06 1.41325E-18 5.09940E-19
 -1      1944 9.20971E-05-2.73295E-05-2.77329E-05 3.55993E-07 8.03450E-19 1.31687E-19
 -1      1945 9.25937E-05-2.73627E-05-2.79058E-05 9.04514E-07 8.44343E-19 4.75867E-19
 -1      1946 9.35747E-05-2.73521E-05-2.83880E-05 1.59466E-06 1.10621E-18 2.38976E-19
 -1      1947 9.17213E-05-2.73660E-05-2.75651E-05-3.01045E-07 1.76686E-19-4.26461E-20
 -1      1948 9.18373E-05-2.73400E-05-2.76121E-05-7.22651E-09 4.63120E-19 4.56538E-20
 -1      1949 9.27433E-05-2.74661E-05-2.79860E-05 2.78493E-07 6.39424E-19-1.57290E-19
 -1      1950 9.17490E-05-2.74563E-05-2.75437E-05-6.33663E-07-1.34807E-19-2.78333E-19
 -1      1951 9.16598E-05-2.73945E-05-2.75267E-05-4.78138E-07 1.81508E-20-4.92354E-20
 -1      1952 9.24325E-05-2.75583E-05-2.78135E-05-4.21836E-07 1.06131E-19-3.31681E-19
 -1      1953 9.20045E-05-2.75795E-05-2.76034E-05-7.83104E-07 2.79479E-19-4.98320E-19
 -1      1954 9.18086E-05-2.75001E-05-2.75529E-05-7.06997E-07 1.50712E-20-3.80172E-19
 -1      1955 9.24447E-05-2.76634E-05-2.77718E-05-7.78564E-07 1.11261E-19-5.19418E-19
 -1      1956 9.23800E-05-2.77174E-05-2.77070E-05-8.29048E-07 5.68317E-19-5.69768E-19
 -1      1957 9.21336E-05-2.76319E-05-2.76398E-05-7.98773E-07 4.31869E-19-4.73296E-19
 -1      1958 9.26466E-05-2.77801E-05-2.78062E-05-9.38524E-07 4.75885E-19-9.65356E-19
 -1      1959 9.28115E-05-2.78582E-05-2.78327E-05-8.20771E-07 3.68047E-19-7.77092E-19
 -1      1960 9.25464E-05-2.77731E-05-2.77583E-05-8.15227E-07 4.76522E-19-5.04918E-19
 -1      1961 9.29537E-05-2.79009E-05-2.78844E-05-9.88030E-07 5.93159E-19-7.77986E-19
 -1      1962 9.32644E-05-2.79958E-05-2.79685E-05-7.91040E-07 1.65268E-19-6.89888E-19
 -1      1963 9.29966E-05-2.79141E-05-2.78920E-05-7.95934E-07 2.76220E-19-7.25669E-19
 -1      1964 9.33150E-05-2.80197E-05-2.79871E-05-9.81952E-07 3.39005E-19-4.01637E-19
 -1      1965 9.37245E-05-2.81285E-05-2.81091E-05-7.62916E-07 4.98439E-19-6.71812E-19
 -1      1966 9.34594E-05-2.80506E-05-2.80322E-05-7.67963E-07 3.65478E-19-6.22482E-19
 -1      1967 9.37031E-05-2.81340E-05-2.81037E-05-9.57492E-07 4.03261E-19-3.88342E-19
 -1      1968 9.41920E-05-2.82581E-05-2.82540E-05-7.53481E-07 4.47534E-19-6.74266E-19
 -1      1969 9.39276E-05-2.81825E-05-2.81763E-05-7.50866E-07 4.17346E-19-7.19434E-19
 -1      1970 9.41075E-05-2.82438E-05-2.82295E-05-9.41260E-07 5.47862E-19-7.94487E-19
 -1      1971 9.46785E-05-2.83890E-05-2.84062E-05-7.76026E-07 4.85501E-19-1.07719E-18
 -1      1972 9.44069E-05-2.83128E-05-2.83254E-05-7.59475E-07 5.63127E-19-7.63889E-19
 -1      1973 9.45300E-05-2.83518E-05-2.83642E-05-9.53231E-07 5.53407E-19-6.40144E-19
 -1      1974 9.52038E-05-2.85279E-05-2.85713E-05-8.41337E-07 9.06817E-21-1.07274E-18
 -1      1975 9.49127E-05-2.84470E-05-2.84841E-05-8.05573E-07 2.09772E-19-9.59745E-19
 -1      1976 9.49821E-05-2.84628E-05-2.85106E-05-1.00908E-06 2.05386E-19-8.48712E-19
 -1      1977 9.57943E-05-2.86834E-05-2.87571E-05-9.58294E-07-2.18732E-19-1.41072E-18
 -1      1978 9.54680E-05-2.85926E-05-2.86589E-05-8.98779E-07-1.75781E-19-1.45170E-18
 -1      1979 9.54822E-05-2.85833E-05-2.86737E-05-1.12144E-06-2.68027E-20-9.64838E-19
 -1      1980 9.64816E-05-2.88656E-05-2.89727E-05-1.13375E-06-3.00796E-20-1.59226E-18
 -1      1981 9.61017E-05-2.87589E-05-2.88582E-05-1.04676E-06-1.67498E-19-1.50605E-18
 -1      1982 9.60544E-05-2.87215E-05-2.88603E-05-1.30036E-06-7.97481E-20-1.76004E-18
 -1      1983 9.73003E-05-2.90865E-05-2.92280E-05-1.37153E-06 5.28152E-19-1.60156E-18
 -1      1984 9.68468E-05-2.89570E-05-2.90917E-05-1.25462E-06 1.50302E-19-1.54592E-18
 -1      1985 9.67267E-05-2.88874E-05-2.90780E-05-1.55262E-06 3.17474E-19-1.46538E-18
 -1      1986 9.82855E-05-2.93591E-05-2.95326E-05-1.67030E-06 8.85243E-19-1.78102E-18
 -1      1987 9.77384E-05-2.91995E-05-2.93691E-05-1.52337E-06 8.53836E-19-1.42939E-18
 -1      1988 9.75294E-05-2.90930E-05-2.93348E-05-1.88006E-06 8.19820E-19-1.29888E-18
 -1      1989 9.94682E-05-2.96971E-05-2.98943E-05-2.01971E-06-5.47687E-19-1.53688E-18
 -1      1990 9.88103E-05-2.95003E-05-2.96991E-05-1.84684E-06 1.57600E-19-1.58206E-18
 -1      1991 9.84918E-05-2.93519E-05-2.96372E-05-2.27606E-06 3.88545E-19-1.38502E-18
 -1      1992 1.00869E-04-3.01141E-05-3.03166E-05-2.39450E-06-7.79705E-19-1.90749E-18
 -1      1993 1.00090E-04-2.98737E-05-3.00876E-05-2.20693E-06-6.75130E-19-1.74680E-18
 -1      1994 9.96394E-05-2.96804E-05-2.99892E-05-2.71996E-06-5.72968E-19-1.31188E-18
 -1      1995 1.02488E-04-3.06216E-05-3.07951E-05-2.74596E-06 4.54263E-19-1.51555E-18
 -1      1996 1.01592E-04-3.03339E-05-3.05348E-05-2.56640E-06-3.67523E-19-1.59013E-18
 -1      1997 1.00987E-04-3.00963E-05-3.03894E-05-3.16878E-06-4.96416E-19-1.98396E-18
 -1      1998 1.04290E-04-3.12253E-05-3.13131E-05-2.99143E-06 1.35252E-18-1.75994E-18
 -1      1999 1.03303E-04-3.08919E-05-3.10312E-05-2.85953E-06 1.02880E-18-1.59460E-18
 -1      2000 1.02532E-04-3.06184E-05-3.08280E-05-3.54632E-06 1.03963E-18-1.29779E-18
 -1      2001 1.06188E-04-3.19181E-05-3.18365E-05-3.00452E-06 5.15022E-19-2.11026E-18
 -1      2002 1.05170E-04-3.15507E-05-3.15530E-05-2.98218E-06 1.14125E-18-1.40176E-18
 -1      2003 1.04240E-04-3.12625E-05-3.12836E-05-3.73131E-06 1.15545E-18-1.45820E-18
 -1      2004 1.08018E-04-3.26681E-05-3.23085E-05-2.61375E-06-6.05294E-19-1.74849E-18
 -1      2005 1.07078E-04-3.22953E-05-3.20571E-05-2.78643E-06-6.73775E-19-2.23882E-18
 -1      2006 1.06033E-04-3.20318E-05-3.17199E-05-3.55023E-06-4.09339E-19-1.36383E-18
 -1      2007 1.09526E-04-3.33984E-05-3.26511E-05-1.62541E-06-4.60879E-19-1.08115E-18
 -1      2008 1.08827E-04-3.30751E-05-3.24788E-05-2.09127E-06-3.15014E-19-1.22759E-18
 -1      2009 1.07764E-04-3.28966E-05-3.20862E-05-2.78742E-06-6.94292E-19-6.73744E-19
 -1      2010 1.10363E-04-3.39603E-05-3.27746E-05 1.04873E-07-3.21280E-19-1.04733E-18
 -1      2011 1.10114E-04-3.37768E-05-3.27362E-05-7.29333E-07-3.91409E-19-9.31242E-19
 -1      2012 1.09200E-04-3.37585E-05-3.23233E-05-1.23459E-06-3.63480E-19-7.77760E-19
 -1      2013 1.12902E-04-3.24378E-05-3.28107E-05 7.28436E-06 8.62385E-20-1.47490E-18
 -1      2014 1.10545E-04-3.41943E-05-3.27463E-05 1.34677E-06 2.24530E-20-5.17693E-19
 -1      2015 1.10007E-04-3.44045E-05-3.23790E-05 1.19209E-06-7.43271E-20-1.03063E-19
 -1      2016 1.17502E-04-3.32799E-05-3.56437E-05 1.33523E-05-8.58680E-19-1.04249E-18
 -1      2017 1.16757E-04-3.08277E-05-3.47414E-05 1.28472E-05-3.44637E-19-1.69872E-18
 -1      2018 1.14203E-04-3.06571E-05-3.43213E-05 1.27352E-05-9.58590E-19-1.49988E-18
 -1      2019 1.13321E-04-3.33038E-05-3.43946E-05 1.16818E-05-2.72751E-19-6.50733E-19
 -1      2020 1.16368E-04-3.40573E-05-3.51428E-05 1.21942E-05-6.74112E-19-5.54807E-19
 -1      2021 1.14733E-04-3.26438E-05-3.48889E-05 1.39994E-05-7.25272E-19-3.82488E-20
 -1      2022 1.07899E-04-3.13860E-05-3.28450E-05 1.00120E-05 7.83175E-20-2.73698E-20
 -1      2023 1.11267E-04-3.26465E-05-3.37317E-05 1.06818E-05-2.47757E-20-1.54425E-19
 -1      2024 1.11492E-04-3.22440E-05-3.39391E-05 1.30912E-05-2.61629E-20 9.53944E-19
 -1      2025 1.03188E-04-2.92607E-05-3.16975E-05 6.77043E-06-1.41453E-18-1.96750E-19
 -1      2026 1.05840E-04-3.03383E-05-3.23506E-05 8.21700E-06-8.96677E-19-2.31862E-19
 -1      2027 1.07117E-04-3.02155E-05-3.29764E-05 1.04864E-05-7.61033E-19 1.15052E-18
 -1      2028 1.00603E-04-2.81363E-05-3.10772E-05 2.02369E-06-1.89825E-18-4.88027E-19
 -1      2029 1.01970E-04-2.85963E-05-3.14035E-05 4.16696E-06-1.75511E-18-4.60349E-19
 -1      2030 1.03669E-04-2.83555E-05-3.23158E-05 5.78027E-06-1.62011E-18-2.42265E-20
 -1      2031 1.00814E-04-2.85933E-05-3.09784E-05-2.72836E-06-9.86906E-19 1.75893E-18
 -1      2032 1.00667E-04-2.82714E-05-3.09731E-05-5.98325E-07-1.30844E-18 3.18908E-19
 -1      2033 1.02426E-04-2.79294E-05-3.19679E-05-2.72801E-08-1.71496E-18 4.65567E-19
 -1      2034 1.03270E-04-3.02883E-05-3.12924E-05-5.73286E-06-6.40549E-19 2.81050E-18
 -1      2035 1.01922E-04-2.94193E-05-3.10301E-05-4.39772E-06-6.99841E-19 2.53516E-18
 -1      2036 1.03549E-04-2.91952E-05-3.18838E-05-4.87679E-06-1.08758E-18 1.98026E-18
 -1      2037 1.06521E-04-3.22416E-05-3.18238E-05-6.22788E-06 1.45192E-18 2.66166E-18
 -1      2038 1.04680E-04-3.12819E-05-3.14400E-05-5.98724E-06 7.03180E-19 2.66559E-18
 -1      2039 1.06035E-04-3.13687E-05-3.19900E-05-7.11080E-06 6.77166E-19 2.04648E-18
 -1      2040 1.09177E-04-3.36297E-05-3.23516E-05-4.71658E-06 6.68759E-19 2.03545E-18
 -1      2041 1.07558E-04-3.29351E-05-3.19919E-05-5.33374E-06 1.32748E-18 2.06841E-18
 -1      2042 1.08478E-04-3.33240E-05-3.21906E-05-6.54307E-06 1.54380E-18 2.19879E-18
 -1      2043 1.10516E-04-3.41641E-05-3.26955E-05-2.30415E-06-1.03401E-19 1.59550E-18
 -1      2044 1.09550E-04-3.38605E-05-3.24665E-05-3.30583E-06-6.46326E-20 2.06476E-18
 -1      2045 1.09923E-04-3.43651E-05-3.23711E-05-4.17858E-06 6.14271E-19 3.09708E-18
 -1      2046 1.10481E-04-3.39812E-05-3.27671E-05 3.60392E-08 8.22409E-19 1.79672E-18
 -1      2047 1.10267E-04-3.40173E-05-3.27116E-05-9.43104E-07 3.19702E-19 1.52132E-18
 -1      2048 1.10111E-04-3.44394E-05-3.24304E-05-1.30153E-06 5.52252E-19 1.37292E-18
 -1      2049 1.09385E-04-3.33672E-05-3.25707E-05 1.78603E-06-6.88466E-19 1.16111E-18
 -1      2050 1.09802E-04-3.36252E-05-3.26759E-05 1.04501E-06-3.51287E-19 1.41185E-18
 -1      2051 1.09257E-04-3.38593E-05-3.23183E-05 1.17861E-06-2.03228E-19 1.22169E-18
 -1      2052 1.07631E-04-3.25704E-05-3.21684E-05 2.83143E-06 5.11203E-19 1.69471E-18
 -1      2053 1.08473E-04-3.29403E-05-3.23910E-05 2.37860E-06-2.84553E-19 1.28096E-18
 -1      2054 1.07727E-04-3.29830E-05-3.20389E-05 2.88042E-06-5.46518E-19 1.35358E-18
 -1      2055 1.05571E-04-3.17491E-05-3.16419E-05 3.27877E-06 1.36122E-18 2.09512E-18
 -1      2056 1.06636E-04-3.21534E-05-3.19316E-05 3.07294E-06 1.29398E-18 2.02686E-18
 -1      2057 1.05858E-04-3.20577E-05-3.16331E-05 3.79676E-06 7.68929E-19 2.26322E-18
 -1      2058 1.03460E-04-3.09851E-05-3.10663E-05 3.30376E-06 2.60863E-20 1.96700E-18
 -1      2059 1.04591E-04-3.13773E-05-3.13798E-05 3.27438E-06 5.52655E-19 2.12013E-18
 -1      2060 1.03898E-04-3.12083E-05-3.11553E-05 4.09394E-06 6.09969E-19 1.69548E-18
 -1      2061 1.01465E-04-3.03112E-05-3.04994E-05 3.06680E-06 5.25234E-19-2.85553E-19
 -1      2062 1.02553E-04-3.06676E-05-3.08049E-05 3.14901E-06-2.34297E-19 8.02567E-19
 -1      2063 1.02007E-04-3.04781E-05-3.06569E-05 3.97227E-06 5.23206E-19 1.17859E-18
 -1      2064 9.96816E-05-2.97344E-05-2.99805E-05 2.68068E-06 2.45005E-18-1.04759E-18
 -1      2065 1.00661E-04-3.00448E-05-3.02573E-05 2.82913E-06 1.72335E-18-8.66025E-20
 -1      2066 1.00282E-04-2.98679E-05-3.01787E-05 3.59656E-06 1.87202E-18-1.20613E-19
 -1      2067 9.81639E-05-2.92510E-05-2.95352E-05 2.20694E-06 1.54750E-18-1.64768E-18
 -1      2068 9.89963E-05-2.95120E-05-2.97701E-05 2.39809E-06 1.41058E-18-1.19537E-18
 -1      2069 9.87740E-05-2.93615E-05-2.97496E-05 3.07463E-06 1.73980E-18-4.07838E-19
 -1      2070 9.69423E-05-2.88557E-05-2.91797E-05 1.66717E-06 1.88956E-18-1.79559E-18
 -1      2071 9.76040E-05-2.90659E-05-2.93641E-05 1.89497E-06 2.12844E-18-1.01432E-18
 -1      2072 9.75087E-05-2.89411E-05-2.93884E-05 2.46077E-06 2.34090E-18-6.24941E-19
 -1      2073 9.60373E-05-2.85492E-05-2.89198E-05 1.06399E-06 6.26692E-19-2.06658E-18
 -1      2074 9.65073E-05-2.87051E-05-2.90502E-05 1.33042E-06 1.45656E-18-1.66796E-18
 -1      2075 9.64945E-05-2.85925E-05-2.91040E-05 1.77512E-06 1.72879E-18 1.73823E-19
 -1      2076 9.55288E-05-2.83789E-05-2.87711E-05 5.83455E-07-1.20735E-18 3.70494E-21
 -1      2077 9.58230E-05-2.84629E-05-2.88626E-05 8.64345E-07-5.27395E-19-9.93134E-19
 -1      2078 9.58377E-05-2.83491E-05-2.89273E-05 1.19098E-06-1.16609E-18 3.54844E-20
 -1      2079 9.54636E-05-2.82164E-05-2.88202E-05 7.45925E-07-2.15866E-18 1.60424E-18
 -1      2080 9.44391E-05-2.58116E-05-2.94153E-05 2.01224E-06 4.37505E-19 2.25501E-18
 -1      2081 9.46771E-05-2.63390E-05-2.92817E-05 1.95483E-06 1.10721E-19 8.64517E-19
 -1      2082 9.48987E-05-2.67975E-05-2.91864E-05 1.81248E-06-6.47980E-19 6.32800E-19
 -1      2083 9.51148E-05-2.72694E-05-2.90687E-05 1.61761E-06-5.85875E-19 2.16118E-18
 -1      2084 9.48827E-05-2.66269E-05-2.92536E-05 2.40554E-06-5.66126E-19 1.21265E-18
 -1      2085 9.52371E-05-2.75851E-05-2.89916E-05 1.34968E-06-8.82502E-19 2.50136E-18
 -1      2086 9.53910E-05-2.79515E-05-2.88955E-05 1.06536E-06-1.63759E-18 1.48485E-18
 -1      2087 9.55538E-05-2.80012E-05-2.89464E-05 1.30696E-06-1.41272E-18 1.47607E-18
 -1      2088 9.52858E-05-2.74060E-05-2.90942E-05 1.93828E-06-1.23120E-18 2.89719E-18
 -1      2089 9.40017E-05-2.48563E-05-2.96413E-05 1.92432E-06-9.29830E-19-5.73973E-19
 -1      2090 9.42263E-05-2.53637E-05-2.95112E-05 1.99433E-06-2.07475E-19 1.70376E-18
 -1      2091 9.43608E-05-2.56951E-05-2.94262E-05 2.53742E-06-3.91517E-19 4.25003E-19
 -1      2092 9.36181E-05-2.40114E-05-2.98426E-05 1.56855E-06 2.56123E-19 2.92266E-18
 -1      2093 9.38095E-05-2.44474E-05-2.97302E-05 1.75297E-06-9.24585E-19 2.82927E-18
 -1      2094 9.38726E-05-2.48106E-05-2.95924E-05 2.32292E-06-4.35422E-19 1.69695E-18
 -1      2095 9.33404E-05-2.34007E-05-2.99876E-05 9.96117E-07 4.39611E-19 1.18644E-18
 -1      2096 9.34711E-05-2.36976E-05-2.99110E-05 1.26753E-06-9.59530E-23 2.88738E-18
 -1      2097 9.34638E-05-2.40639E-05-2.97336E-05 1.79055E-06-4.75985E-19 2.84806E-18
 -1      2098 9.32027E-05-2.31043E-05-3.00562E-05 2.83173E-07 5.98762E-19-4.87285E-19
 -1      2099 9.32555E-05-2.32210E-05-3.00263E-05 6.05377E-07 1.32954E-19 1.04030E-18
 -1      2100 9.31838E-05-2.35533E-05-2.98299E-05 1.01215E-06-4.12017E-19 7.89413E-19
 -1      2101 9.32243E-05-2.31643E-05-3.00384E-05-4.76370E-07 1.31495E-18-1.86222E-18
 -1      2102 9.31913E-05-2.30831E-05-3.00597E-05-1.46262E-07 1.54077E-18-1.45117E-18
 -1      2103 9.30672E-05-2.33450E-05-2.98679E-05 8.91859E-08-1.19874E-18-7.24076E-19
 -1      2104 9.34059E-05-2.35771E-05-2.99362E-05-1.17976E-06-2.80861E-19-4.74462E-18
 -1      2105 9.32898E-05-2.33067E-05-3.00061E-05-8.87264E-07 1.17539E-18-2.70780E-18
 -1      2106 9.31312E-05-2.34697E-05-2.98424E-05-8.56714E-07 1.30913E-19-3.07115E-18
 -1      2107 9.37219E-05-2.42774E-05-2.97668E-05-1.71937E-06 8.71158E-19-3.58086E-18
 -1      2108 9.35388E-05-2.38611E-05-2.98736E-05-1.50994E-06 7.57992E-19-4.70580E-18
 -1      2109 9.33714E-05-2.39118E-05-2.97578E-05-1.69112E-06 8.64069E-20-3.81130E-18
 -1      2110 9.41476E-05-2.51998E-05-2.95483E-05-2.02821E-06-1.00792E-19 1.95058E-18
 -1      2111 9.39135E-05-2.46793E-05-2.96806E-05-1.93070E-06 9.53154E-19 9.38403E-19
 -1      2112 9.37620E-05-2.46200E-05-2.96251E-05-2.30237E-06 1.50409E-18-1.34974E-18
 -1      2113 9.46271E-05-2.62140E-05-2.93137E-05-2.03266E-06-1.70594E-19 6.10716E-19
 -1      2114 9.43743E-05-2.56677E-05-2.94507E-05-2.07588E-06 4.74438E-19 9.24537E-19
 -1      2115 9.42688E-05-2.55193E-05-2.94611E-05-2.59734E-06 1.25671E-18 1.55267E-18
 -1      2116 9.51063E-05-2.72102E-05-2.90948E-05-1.71165E-06-8.86875E-19-1.04722E-18
 -1      2117 9.48624E-05-2.66955E-05-2.92161E-05-1.90015E-06-4.66969E-19-4.06041E-19
 -1      2118 9.48301E-05-2.64962E-05-2.92861E-05-2.50823E-06-1.28395E-20-7.68925E-19
 -1      2119 5.76947E-05-3.64440E-05-9.50004E-06 4.05249E-05-5.37866E-19 5.91758E-19
 -1      2120 4.14937E-05-3.79295E-05-2.92165E-06 3.19007E-05-1.11639E-18 6.97743E-20
 -1      2121 1.15620E-05-2.96205E-05 6.43861E-06 4.76553E-06-9.29725E-19 2.24930E-18
 -1      2122 1.20584E-05-3.08058E-05 6.58541E-06-5.27699E-06-1.43466E-18 3.42371E-18
 -1      2123 2.74326E-05-3.26381E-05 1.25455E-06 2.68303E-05-9.82135E-19-5.37019E-19
 -1      2124 1.85946E-05-3.27502E-05 4.64019E-06 1.77560E-05-1.31142E-18 1.15069E-18
 -1      2125 4.26960E-05-3.31458E-05-4.50115E-06 3.62819E-05-1.70550E-18 2.75497E-19
 -1      2126 9.69113E-05-3.97471E-05-2.43001E-05 4.20536E-05 9.43595E-19-2.06380E-18
 -1      2127 7.91271E-05-4.22242E-05-1.66603E-05 3.81620E-05 4.26905E-19-1.05540E-18
 -1      2128 1.29721E-04-3.78331E-05-3.87415E-05 3.64966E-05-6.58568E-19-2.77615E-18
 -1      2129 1.10373E-04-3.90390E-05-3.10767E-05 3.56732E-05 2.55380E-19-2.68933E-18
 -1      2130 8.72760E-05-8.72647E-06-3.37524E-05-1.05341E-05-1.40889E-18-1.87380E-18
 -1      2131 8.79639E-05-9.25404E-06-3.38201E-05-1.21215E-05-1.61874E-18-1.51886E-18
 -1      2132 9.04653E-05-1.30763E-05-3.32330E-05-1.19325E-05-1.70278E-18-1.26072E-18
 -1      2133 8.86807E-05-1.10362E-05-3.32998E-05-9.42016E-06-1.33912E-18-1.84224E-18
 -1      2134 1.69310E-04-2.59779E-05-6.04433E-05 1.04376E-05-1.52042E-19-5.70477E-18
 -1      2135 1.60698E-04-2.74341E-05-5.64138E-05 1.69933E-05-5.75982E-20-5.66030E-18
 -1      2136 1.73091E-04-2.26042E-05-6.34007E-05-6.67072E-08 6.08170E-19-4.78769E-18
 -1      2137 1.68018E-04-2.08800E-05-6.23572E-05 6.39119E-06-2.29122E-19-5.55865E-18
 -1      2138 1.65178E-04-2.35089E-05-6.00789E-05-9.39160E-06 3.34366E-18-4.29361E-18
 -1      2139 1.74063E-04-2.46401E-05-6.29528E-05-2.66007E-06 2.29631E-18-3.95310E-18
 -1      2140 1.51758E-04-1.22006E-05-5.87562E-05 2.32329E-06 8.51268E-19-4.07640E-18
 -1      2141 1.46388E-04-2.97223E-05-4.98493E-05-2.22494E-05 3.40568E-18-4.66503E-18
 -1      2142 1.61419E-04-2.97811E-05-5.56135E-05-1.57524E-05 3.65834E-18-3.35086E-18
 -1      2143 1.16569E-04-3.30748E-05-3.62505E-05-3.25673E-05 3.10099E-18-4.38085E-18
 -1      2144 1.37175E-04-3.35892E-05-4.37979E-05-3.13363E-05 2.95435E-18-5.26939E-18
 -1      2145 8.51739E-05-3.44217E-05-2.21113E-05-3.78026E-05 1.54329E-18-4.39420E-18
 -1      2146 1.03222E-04-3.26369E-05-2.98814E-05-4.03800E-05 2.59573E-18-4.76371E-18
 -1      2147 1.20228E-04-4.29837E-05-3.29883E-05-2.65140E-05 7.57459E-19-3.04953E-18
 -1      2148 4.32675E-05-3.00777E-05-6.90683E-06-3.35873E-05-5.51842E-19-6.00287E-18
 -1      2149 6.10002E-05-3.00648E-05-1.38195E-05-4.05234E-05 4.62904E-19-6.16772E-18
 -1      2150 1.91808E-05-2.78688E-05 2.39136E-06-2.34432E-05-1.17738E-18-3.47495E-18
 -1      2151 2.79093E-05-2.52735E-05-1.88634E-06-3.04159E-05-2.24464E-20-4.84503E-18
 -1      2152 8.31839E-06-2.43521E-05 5.87333E-06-9.57977E-06-3.25769E-18-2.28275E-18
 -1      2153 1.13496E-05-2.39677E-05 4.48066E-06-1.70698E-05-2.00472E-18-2.86869E-18
 -1      2154 1.51024E-05-2.76124E-05 4.29168E-06 9.15540E-06-3.84807E-18-2.66434E-18
 -1      2155 9.64994E-06-2.57037E-05 5.77670E-06 1.17993E-06-3.37643E-18-1.77580E-18
 -1      2156 3.90109E-05-3.39067E-05-3.07550E-06 2.47625E-05-4.24914E-18-4.05115E-18
 -1      2157 2.58913E-05-3.37936E-05 1.77657E-06 1.59634E-05-4.08058E-18-3.50227E-18
 -1      2158 8.07992E-05-4.39398E-05-1.62178E-05 3.29883E-05-4.26905E-18-2.05765E-18
 -1      2159 6.14414E-05-4.28370E-05-9.25800E-06 2.72735E-05-4.32368E-18-2.91604E-18
 -1      2160 1.20685E-04-4.75460E-05-3.12734E-05 3.08874E-05-3.93786E-18-9.93570E-19
 -1      2161 9.76460E-05-4.67491E-05-2.28801E-05 2.88179E-05-4.40838E-18-1.63223E-18
 -1      2162 1.55800E-04-4.47001E-05-4.69114E-05 1.85766E-05-2.30901E-18-2.44496E-18
 -1      2163 1.36557E-04-4.60381E-05-3.89790E-05 2.14498E-05-3.06097E-18-2.18111E-18
 -1      2164 1.77795E-04-3.49802E-05-5.96550E-05 7.20501E-06-2.75476E-18-1.82578E-18
 -1      2165 1.62746E-04-3.64041E-05-5.36655E-05 9.55362E-06-2.48424E-18-2.48350E-18
 -1      2166 1.80763E-04-2.58309E-05-6.51547E-05-3.37512E-06-2.19382E-18-8.78797E-20
 -1      2167 1.79654E-04-2.93650E-05-6.30744E-05 3.55250E-06-2.37381E-18-8.28398E-19
 -1      2168 1.62891E-04-2.58079E-05-5.75608E-05-6.11407E-06-3.04297E-18-1.00522E-18
 -1      2169 1.78244E-04-2.55170E-05-6.41941E-05-1.11075E-05-3.17426E-18 8.97855E-19
 -1      2170 1.78009E-04-2.34449E-05-6.51551E-05-4.71790E-06-2.56058E-18 2.49213E-19
 -1      2171 1.66729E-04-2.95373E-05-5.80170E-05-2.04635E-05-2.67514E-18 2.53940E-18
 -1      2172 1.78690E-04-2.98243E-05-6.24594E-05-1.49590E-05-2.65164E-18 1.80926E-18
 -1      2173 1.60323E-04-1.94919E-05-5.91022E-05-2.30399E-06-2.82062E-18 3.58507E-19
 -1      2174 1.42359E-04-3.70899E-05-4.51288E-05-3.02259E-05-1.72625E-18 2.05151E-18
 -1      2175 1.60443E-04-3.62047E-05-5.21232E-05-2.78223E-05-1.97774E-18 2.55507E-18
 -1      2176 1.10979E-04-4.17928E-05-3.02397E-05-3.70450E-05-1.67797E-18 3.06541E-18
 -1      2177 1.30961E-04-3.94855E-05-3.85343E-05-3.94184E-05-1.72456E-18 2.06083E-18
 -1      2178 7.41886E-05-4.25056E-05-1.46568E-05-3.96479E-05-3.07600E-18 7.22096E-19
 -1      2179 9.42809E-05-4.24681E-05-2.22447E-05-4.39290E-05-1.03253E-18 3.52069E-18
 -1      2180 4.21534E-05-3.77738E-05-3.25813E-06-3.29218E-05-7.04731E-19 1.34498E-18
 -1      2181 5.70304E-05-3.64340E-05-9.28438E-06-4.06217E-05-2.37296E-18-6.65688E-19
 -1      2182 7.92326E-05-4.55829E-05-1.45023E-05-4.35604E-05-7.56400E-19 4.11327E-19
 -1      2183 1.72150E-05-3.35454E-05 5.36325E-06-1.57797E-05-1.41370E-18 3.17595E-18
 -1      2184 2.43500E-05-3.19778E-05 2.08500E-06-2.50656E-05-1.47214E-18 2.47715E-18
 -1      2185 1.55474E-04-3.41097E-05-5.11784E-05 2.26817E-05-4.06205E-19-6.05036E-18
 -1      2186 1.40055E-04-3.50131E-05-4.48881E-05 2.68081E-05-1.07488E-18-4.29107E-18
 -1      2187 1.39231E-04-4.39124E-05-4.02391E-05 1.90940E-05-1.05943E-18-5.19655E-18
 -1      2188 9.71414E-05-2.43003E-05-3.12916E-05-1.00126E-05-1.54806E-18 1.59372E-18
 -1      2189 1.51056E-04-3.05345E-05-5.08278E-05 6.19441E-06-5.91653E-19-6.15962E-18
 -1      2190 9.63108E-05-2.30874E-05-3.14446E-05-1.03960E-05-1.63289E-18 5.08948E-19
 -1      2191 1.86138E-05-2.36110E-05 1.53868E-06 1.45902E-05-1.35123E-18 1.20872E-18
 -1      2192 8.00200E-05-4.56494E-05-1.48445E-05 4.14946E-05-9.10560E-20-3.32725E-20
 -1      2193 9.52845E-05-2.75126E-05-2.90398E-05-1.64192E-06-3.61136E-19-2.33240E-19
 -1      2194 1.72222E-05-2.32730E-05 1.89303E-06-1.35580E-05-1.27034E-18 2.94683E-18
 -1      2195 1.15747E-04-5.00355E-05-2.80039E-05 3.30672E-05 6.35910E-19-3.34260E-18
 -1      2196 4.16737E-05-3.28594E-05-4.25460E-06-3.59692E-05-2.13452E-19 1.12931E-18
 -1      2197 1.14090E-04-5.19620E-05-2.65810E-05-3.58661E-05-1.08124E-18 2.38419E-18
 -1      2198 1.58097E-04-3.37478E-05-5.23287E-05-8.11123E-06-1.85204E-18 6.13252E-19
 -1      2199 1.61899E-04-1.66288E-05-6.11309E-05-4.26379E-06-2.87229E-18-1.64721E-19
 -1      2200 1.57457E-04-4.31771E-05-4.82377E-05 1.16224E-06-2.58589E-18-2.21753E-18
 -1      2201 1.36714E-04-5.56136E-05-3.44893E-05 1.66704E-05-2.71199E-18-9.06325E-19
 -1      2202 1.02960E-04-5.51245E-05-2.08100E-05 2.79123E-05-2.97817E-18-4.34316E-19
 -1      2203 6.12549E-05-4.15568E-05-8.81022E-06 2.96538E-05-2.92311E-18-2.65270E-18
 -1      2204 2.53319E-05-2.52402E-05-5.82406E-07 1.69537E-05-2.78547E-18-3.06075E-18
 -1      2205 1.08327E-05-1.64925E-05 2.04639E-06-4.05152E-06-2.29257E-18-2.60801E-18
 -1      2206 1.80353E-05-1.94994E-05 1.21060E-07-2.48073E-05-1.26801E-18-4.39017E-18
 -1      2207 8.02765E-05-3.66769E-05-1.88127E-05-3.86591E-05 6.09864E-20-4.11542E-18
 -1      2208 9.87498E-05-4.45576E-05-2.37499E-05-3.42866E-05-7.88588E-19-2.88351E-18
 -1      2209 7.71126E-05-3.78304E-05-1.63251E-05-3.99780E-05-1.35906E-18-4.50542E-18
 -1      2210 1.51753E-04-2.23845E-05-5.45946E-05-1.63649E-07 3.09167E-18-2.34840E-18
 -1      2211 1.53247E-04-1.64104E-05-5.77251E-05 1.74191E-06 5.29396E-20-4.71342E-18
 -1      2212 1.41490E-04-3.59541E-05-4.45851E-05-1.14670E-05 1.65647E-18-2.39922E-18
 -1      2213 4.30401E-05-2.79937E-05-6.69476E-06-3.79130E-05-9.09290E-19-5.57898E-18
 -1      2214 1.42751E-04-4.68368E-05-4.05989E-05-2.20822E-05-1.00077E-18 1.06133E-18
 -1      2215 9.51741E-05-2.63636E-05-2.94769E-05 4.20759E-06 1.36796E-18-7.28548E-20
 -1      2216 9.61499E-05-2.58498E-05-3.00550E-05 6.01335E-06 1.54790E-18 1.13185E-19
 -1      2217 8.81722E-05-1.11891E-05-3.30322E-05-3.66475E-06-6.72399E-19-2.24690E-18
 -1      2218 8.84029E-05-1.14597E-05-3.30129E-05-4.80767E-06-8.52358E-19-2.31454E-18
 -1      2219 8.87515E-05-1.19447E-05-3.29625E-05-5.82590E-06-9.62491E-19-2.19271E-18
 -1      2220 8.91512E-05-1.24148E-05-3.29323E-05-7.00259E-06-1.13840E-18-1.94735E-18
 -1      2221 8.99207E-05-1.38260E-05-3.26108E-05-4.90603E-06-8.29128E-19-2.09056E-18
 -1      2222 8.78316E-05-1.07303E-05-3.30775E-05 6.16267E-07-6.88426E-21-2.33744E-18
 -1      2223 8.78272E-05-1.07254E-05-3.30778E-05-4.95861E-07-1.96316E-19-2.37814E-18
 -1      2224 8.80097E-05-1.09550E-05-3.30579E-05 2.76080E-06 2.61736E-19-2.42445E-18
 -1      2225 8.78968E-05-1.08222E-05-3.30680E-05 1.64024E-06 1.01897E-19-2.38969E-18
 -1      2226 8.91488E-05-1.27742E-05-3.27350E-05 1.05074E-06 3.56887E-20-2.29044E-18
 -1      2227 8.84373E-05-1.15013E-05-3.30102E-05 4.89272E-06 6.25483E-19-2.35960E-18
 -1      2228 8.82017E-05-1.12252E-05-3.30297E-05 3.76836E-06 4.23514E-19-2.43929E-18
 -1      2229 8.94109E-05-1.31299E-05-3.26935E-05 3.02396E-06 3.29485E-19-2.32182E-18
 -1      2230 8.92063E-05-1.24823E-05-3.29276E-05 7.08245E-06 1.04836E-18-2.05233E-18
 -1      2231 8.87939E-05-1.19968E-05-3.29587E-05 5.90974E-06 8.07353E-19-2.20542E-18
 -1      2232 8.99604E-05-1.38772E-05-3.26061E-05 4.98042E-06 7.00141E-19-2.12205E-18
 -1      2233 9.04621E-05-1.40889E-05-3.27957E-05 9.23403E-06 1.43936E-18-1.80855E-18
 -1      2234 8.97893E-05-1.32797E-05-3.28436E-05 8.05393E-06 1.14699E-18-1.89146E-18
 -1      2235 9.08848E-05-1.51357E-05-3.24570E-05 6.87858E-06 1.06929E-18-1.80600E-18
 -1      2236 9.24412E-05-1.66559E-05-3.25799E-05 1.11204E-05 1.79286E-18-1.43602E-18
 -1      2237 9.13723E-05-1.53186E-05-3.26549E-05 1.00397E-05 1.60025E-18-1.69705E-18
 -1      2238 9.22932E-05-1.70868E-05-3.22106E-05 8.52760E-06 1.41035E-18-1.58831E-18
 -1      2239 9.41939E-05-2.71023E-05-2.87367E-05 1.77476E-06 1.07181E-18-2.30216E-19
 -1      2240 9.47949E-05-2.68799E-05-2.90351E-05 2.74902E-06 1.25991E-18-2.60165E-20
 -1      2241 9.53094E-05-2.58367E-05-2.97820E-05 4.37304E-06 1.38907E-18-4.21717E-19
 -1      2242 9.58809E-05-2.50806E-05-3.02951E-05-6.19936E-06-1.35903E-18 3.00796E-20
 -1      2243 9.52212E-05-2.58390E-05-2.97517E-05-4.29266E-06-1.23243E-18 2.99754E-20
 -1      2244 1.45063E-04-2.69543E-05-5.10413E-05-9.11894E-07-5.67089E-19-4.83550E-18
 -1      2245 1.42530E-04-3.44543E-05-4.64393E-05 1.51179E-06-1.06726E-18-4.92317E-18
 -1      2246 9.51068E-05-2.65232E-05-2.93356E-05-2.94787E-06-1.11587E-18 4.43121E-20
 -1      2247 9.46392E-05-2.68949E-05-2.90328E-05-1.88431E-06-9.33616E-19-2.85046E-21
 -1      2248 9.53171E-05-2.53431E-05-2.99913E-05-4.30416E-06-1.25864E-18-4.83695E-19
 -1      2249 9.44444E-05-2.72230E-05-2.87706E-05-1.03032E-06-8.04790E-19 7.64340E-20
 -1      2250 9.41881E-05-2.74348E-05-2.86057E-05-4.24068E-07-6.10244E-19-6.35047E-20
 -1      2251 9.50162E-05-2.66876E-05-2.92967E-05-1.92403E-06-8.52951E-19-4.78668E-19
 -1      2252 9.40424E-05-2.76133E-05-2.84469E-05 9.09950E-08-5.14537E-19-6.85234E-20
 -1      2253 9.39481E-05-2.77546E-05-2.83656E-05 4.28592E-07-3.97356E-19-1.42705E-19
 -1      2254 9.47142E-05-2.74094E-05-2.88579E-05-4.32102E-07-6.38347E-19-2.78712E-19
 -1      2255 9.38685E-05-2.78616E-05-2.82760E-05 7.22959E-07-3.95180E-19-4.17440E-19
 -1      2256 9.38820E-05-2.79660E-05-2.82468E-05 8.99581E-07-5.36744E-19-4.05568E-19
 -1      2257 9.45205E-05-2.78306E-05-2.85921E-05 4.58959E-07-6.07148E-19-6.71839E-19
 -1      2258 9.38585E-05-2.80347E-05-2.82035E-05 1.05488E-06-6.04862E-19-4.13787E-19
 -1      2259 9.39389E-05-2.81158E-05-2.82072E-05 1.13616E-06-4.86853E-19-3.84884E-19
 -1      2260 9.44399E-05-2.80901E-05-2.84436E-05 9.62137E-07-6.17599E-19-7.88537E-19
 -1      2261 9.39565E-05-2.81612E-05-2.81951E-05 1.20796E-06-4.63660E-19-5.86038E-19
 -1      2262 9.40765E-05-2.82252E-05-2.82193E-05 1.23637E-06-5.23785E-19-6.04370E-19
 -1      2263 9.44491E-05-2.82542E-05-2.83749E-05 1.22343E-06-5.47842E-19-9.93524E-19
 -1      2264 9.41226E-05-2.82547E-05-2.82285E-05 1.26338E-06-7.73105E-19-4.26830E-19
 -1      2265 9.42657E-05-2.83053E-05-2.82658E-05 1.26792E-06-9.15527E-19-3.99782E-19
 -1      2266 9.45223E-05-2.83562E-05-2.83609E-05 1.34390E-06-5.92952E-19-7.30593E-19
 -1      2267 9.43315E-05-2.83232E-05-2.82899E-05 1.27789E-06-8.32584E-19-3.33169E-19
 -1      2268 9.44893E-05-2.83632E-05-2.83365E-05 1.27932E-06-6.79749E-19-3.48840E-19
 -1      2269 9.46394E-05-2.84145E-05-2.83851E-05 1.39507E-06-9.11375E-19-4.85865E-19
 -1      2270 9.45698E-05-2.83722E-05-2.83718E-05 1.29286E-06-4.77069E-19-3.21414E-19
 -1      2271 9.47402E-05-2.84043E-05-2.84258E-05 1.30680E-06-4.78660E-20-3.11564E-19
 -1      2272 9.47878E-05-2.84403E-05-2.84370E-05 1.42907E-06-5.32770E-19-2.36432E-19
 -1      2273 9.48336E-05-2.84064E-05-2.84705E-05 1.33985E-06 1.03641E-19-1.56031E-19
 -1      2274 9.50192E-05-2.84332E-05-2.85320E-05 1.37869E-06 2.68907E-19 1.49239E-19
 -1      2275 9.49615E-05-2.84412E-05-2.85107E-05 1.48527E-06-3.81811E-20 4.82993E-20
 -1      2276 9.51262E-05-2.84302E-05-2.85858E-05 1.44420E-06 2.73363E-19-4.07180E-21
 -1      2277 9.53332E-05-2.84549E-05-2.86561E-05 1.51835E-06 2.35285E-19 4.76899E-20
 -1      2278 9.51598E-05-2.84226E-05-2.86037E-05 1.59472E-06 2.88267E-19 1.86760E-19
 -1      2279 9.54566E-05-2.84484E-05-2.87195E-05 1.62734E-06-1.95914E-19 2.04826E-19
 -1      2280 9.56944E-05-2.84745E-05-2.88010E-05 1.74590E-06-5.06605E-19 5.18298E-20
 -1      2281 9.53868E-05-2.83891E-05-2.87155E-05 1.78303E-06-7.71429E-20 4.21814E-20
 -1      2282 9.58384E-05-2.84664E-05-2.88753E-05 1.90801E-06-8.53287E-19-1.64113E-19
 -1      2283 9.61186E-05-2.84984E-05-2.89709E-05 2.07893E-06-8.81083E-19-2.62744E-19
 -1      2284 9.56498E-05-2.83453E-05-2.88473E-05 2.07211E-06-8.55903E-19 5.69671E-19
 -1      2285 9.62891E-05-2.84915E-05-2.90575E-05 2.30238E-06-8.43130E-19-3.89543E-19
 -1      2286 9.66254E-05-2.85351E-05-2.91706E-05 2.53207E-06-8.58416E-19-2.34507E-19
 -1      2287 9.59592E-05-2.82967E-05-2.90011E-05 2.48072E-06-1.07081E-18 3.60807E-19
 -1      2288 9.68293E-05-2.85337E-05-2.92708E-05 2.82297E-06-1.08561E-18-6.08738E-19
 -1      2289 9.72369E-05-2.85968E-05-2.94044E-05 3.11495E-06-8.59470E-19-3.81166E-19
 -1      2290 9.63283E-05-2.82521E-05-2.91788E-05 3.02370E-06-1.32209E-18 5.00665E-20
 -1      2291 9.74834E-05-2.86084E-05-2.95188E-05 3.47559E-06-5.41506E-19-4.17068E-19
 -1      2292 9.79783E-05-2.87027E-05-2.96753E-05 3.82796E-06-1.40040E-19-4.65984E-19
 -1      2293 9.67735E-05-2.82258E-05-2.93813E-05 3.70962E-06-7.40431E-19 4.24036E-20
 -1      2294 7.39327E-05-2.15561E-05-2.92122E-05 3.44655E-06 1.00564E-17 1.61241E-17
 -1      2295 4.35720E-05-1.62199E-05-2.06332E-05 4.75569E-06 1.37308E-17 4.05398E-17
 -1      2296 9.73170E-05-2.82429E-05-2.96074E-05 4.53598E-06-3.67035E-19-4.70648E-20
 -1      2297 4.21575E-05-1.34931E-05-1.40135E-05 6.41795E-06 4.57112E-18 3.28954E-17
 -1      2298 3.81115E-05-8.71661E-06-1.34009E-05 8.76453E-06 2.41485E-18 3.42327E-17
 -1      2299 3.18505E-05-9.29494E-06-1.82877E-05 1.01894E-05 1.90762E-18 4.56331E-17
 -1      2300 3.53740E-05-5.54864E-06-1.28075E-05 9.06394E-06 2.49443E-18 3.41949E-17
 -1      2301 3.24025E-05-2.42477E-06-1.31360E-05 9.42594E-06 1.58976E-18 3.56343E-17
 -1      2302 3.34109E-05-5.68841E-06-1.21854E-05 7.37804E-06 2.93433E-18 3.48648E-17
 -1      2303 2.92828E-05-4.52502E-07-1.27693E-05 8.34521E-06 1.67660E-18 3.79066E-17
 -1      2304 2.54802E-05-1.50178E-07-1.27669E-05 3.02903E-06 1.01009E-19 4.21596E-17
 -1      2305 2.75850E-05-1.51790E-06-1.11094E-05 5.08724E-06 3.31338E-18 3.69178E-17
 -1      2306 2.48090E-05-7.85796E-06-1.21493E-05-1.52828E-06 8.41527E-19 4.76664E-17
 -1      2307 3.40565E-05-2.29854E-05-1.25752E-05 3.22460E-06-1.68560E-18 5.18113E-17
 -1      2308 2.56324E-05-7.53547E-06-9.61106E-06-3.76334E-07 4.81263E-18 4.37389E-17
 -1      2309 2.33122E-05-2.63576E-05-1.40355E-05 4.41665E-06 1.08081E-18 6.86808E-17
 -1      2310 1.55776E-05-2.50234E-05-1.54713E-05 1.88322E-05-1.53279E-17 1.00424E-16
 -1      2311 2.45964E-05-1.87903E-05-8.81165E-06-5.11528E-06 8.65498E-18 5.74670E-17
 -1      2312 7.50640E-05-5.08315E-05-2.91783E-05 4.36010E-05-2.16341E-17 6.44287E-17
 -1      2313 1.68371E-04-6.61421E-05-2.96849E-05 5.72773E-05-2.62241E-18-2.10081E-17
 -1      2314 3.39107E-06-3.64919E-05-1.79353E-05-2.52390E-05 5.58195E-17 8.91113E-17
 -1      2315 1.35038E-04-6.32254E-05-2.88202E-05 3.05876E-05-2.92396E-18-1.34678E-19
 -1      2316 1.37660E-04-5.95405E-05-3.10259E-05 1.99467E-05-1.05879E-18-1.86877E-18
 -1      2317 1.89027E-04-9.09245E-05-3.17188E-05 1.20919E-06 4.51172E-18-1.68919E-17
 -1      2318 1.31099E-04-5.47401E-05-3.15883E-05 1.78898E-05 5.33578E-19-4.13987E-19
 -1      2319 1.30062E-04-5.35339E-05-3.24367E-05 9.93390E-06 3.81602E-19-2.88891E-19
 -1      2320 1.38981E-04-6.06759E-05-3.26679E-05 1.51417E-05-3.63589E-19-1.11104E-18
 -1      2321 1.27350E-04-5.11922E-05-3.27155E-05 3.72075E-06 7.01792E-19 1.94321E-19
 -1      2322 1.26235E-04-4.86698E-05-3.32397E-05-2.00072E-06 3.68492E-20 4.82226E-19
 -1      2323 1.35049E-04-5.83137E-05-3.30739E-05 5.44170E-06 6.49039E-19-1.06514E-19
 -1      2324 1.23835E-04-4.51159E-05-3.39609E-05-6.96062E-06-2.59880E-19 8.74495E-19
 -1      2325 1.21626E-04-4.09916E-05-3.45170E-05-1.01189E-05-9.31220E-19 1.76377E-18
 -1      2326 1.30470E-04-5.13157E-05-3.41086E-05-5.80068E-06-3.63463E-20 8.83760E-19
 -1      2327 1.18290E-04-3.59800E-05-3.55638E-05-1.16772E-05-1.86747E-18 2.20242E-18
 -1      2328 1.15659E-04-3.13094E-05-3.60975E-05-1.11345E-05-1.90048E-18 2.08235E-18
 -1      2329 1.24796E-04-4.07365E-05-3.61717E-05-1.29508E-05-1.05114E-18 1.82860E-18
 -1      2330 1.12614E-04-2.70134E-05-3.68920E-05-7.92942E-06-1.92642E-18 1.14916E-18
 -1      2331 1.11138E-04-2.45477E-05-3.71273E-05-4.19615E-06-1.62644E-18 6.90934E-19
 -1      2332 1.18086E-04-2.90855E-05-3.82856E-05-1.13691E-05-2.23236E-18 1.76940E-18
 -1      2333 1.10538E-04-2.38778E-05-3.71872E-05 1.61099E-06-1.50534E-18-4.11314E-19
 -1      2334 1.11025E-04-2.51208E-05-3.70334E-05 5.75947E-06-1.42953E-18-4.71076E-19
 -1      2335 1.14154E-04-2.24925E-05-3.94113E-05-1.58280E-06-2.20387E-18-2.02242E-19
 -1      2336 1.12783E-04-2.80039E-05-3.63169E-05 1.00076E-05-9.78747E-19-8.81371E-19
 -1      2337 1.14695E-04-3.15606E-05-3.58486E-05 1.19172E-05-9.51999E-19-9.86729E-19
 -1      2338 1.15080E-04-2.56383E-05-3.84239E-05 9.19652E-06-1.68474E-18-8.35638E-19
 -1      2339 1.16283E-04-3.50444E-05-3.47859E-05 1.18882E-05-6.45955E-19-5.50159E-19
 -1      2340 1.17732E-04-3.78743E-05-3.43403E-05 1.10156E-05-1.77686E-19-6.48970E-19
 -1      2341 1.19027E-04-3.41020E-05-3.64328E-05 1.29829E-05-3.94069E-19-3.55277E-19
 -1      2342 1.17461E-04-3.94620E-05-3.34677E-05 8.36720E-06-3.98702E-19 1.27943E-19
 -1      2343 1.17769E-04-4.04483E-05-3.31566E-05 5.98075E-06-3.46537E-19 3.97035E-19
 -1      2344 1.20347E-04-4.05480E-05-3.41867E-05 9.50235E-06 8.63543E-20 1.15020E-18
 -1      2345 1.15955E-04-4.00508E-05-3.26091E-05 2.81277E-06 4.27004E-19 5.24579E-19
 -1      2346 1.15253E-04-3.95484E-05-3.24143E-05 3.34461E-07 9.30648E-19 1.17387E-18
 -1      2347 1.18143E-04-4.22339E-05-3.25518E-05 3.15119E-06 5.45204E-19 1.29888E-18
 -1      2348 1.12966E-04-3.82016E-05-3.21159E-05-2.08786E-06 3.84742E-19-1.24635E-19
 -1      2349 1.11740E-04-3.70688E-05-3.19613E-05-3.94517E-06-3.17661E-19-4.70120E-19
 -1      2350 1.13904E-04-4.02276E-05-3.16219E-05-2.52958E-06 1.59019E-19 7.39549E-19
 -1      2351 1.09673E-04-3.56171E-05-3.17893E-05-5.36696E-06 2.42946E-19-5.15388E-19
 -1      2352 1.08306E-04-3.44454E-05-3.16220E-05-6.45551E-06 8.30903E-20 6.08787E-19
 -1      2353 1.09478E-04-3.69234E-05-3.11437E-05-6.28226E-06-2.95221E-21-5.21573E-19
 -1      2354 1.06689E-04-3.32731E-05-3.14910E-05-7.05740E-06-7.38790E-19 8.71192E-19
 -1      2355 1.05380E-04-3.23120E-05-3.12940E-05-7.50290E-06-1.02784E-18 1.49712E-18
 -1      2356 1.05769E-04-3.38293E-05-3.08705E-05-8.18285E-06-5.10583E-19 9.92650E-19
 -1      2357 1.04191E-04-3.14966E-05-3.11633E-05-7.55530E-06-1.13468E-18 1.39345E-18
 -1      2358 1.03016E-04-3.07894E-05-3.09428E-05-7.56043E-06-1.04910E-18 2.16064E-18
 -1      2359 1.02960E-04-3.14975E-05-3.06531E-05-8.73101E-06-1.12921E-18 9.04409E-19
 -1      2360 1.02150E-04-3.02689E-05-3.08024E-05-7.29357E-06-1.23074E-18 1.98590E-18
 -1      2361 1.01126E-04-2.97717E-05-3.05744E-05-7.03835E-06-4.30361E-19 1.15783E-18
 -1      2362 1.00907E-04-2.99465E-05-3.04283E-05-8.43503E-06-1.34190E-18 1.55825E-18
 -1      2363 1.00480E-04-2.94535E-05-3.04294E-05-6.60989E-06 1.06721E-18 8.50226E-19
 -1      2364 9.96024E-05-2.91045E-05-3.02101E-05-6.22219E-06 1.93961E-18 4.35868E-19
 -1      2365 9.93961E-05-2.89887E-05-3.01853E-05-7.67338E-06-8.28463E-21 1.35697E-18
 -1      2366 9.91022E-05-2.89072E-05-3.00699E-05-5.72730E-06 2.15326E-18 2.28626E-19
 -1      2367 9.83600E-05-2.86522E-05-2.98720E-05-5.28331E-06 2.66490E-18 1.23045E-18
 -1      2368 9.82507E-05-2.84156E-05-2.99367E-05-6.69164E-06 1.73688E-18 1.30781E-18
 -1      2369 9.79554E-05-2.85162E-05-2.97457E-05-4.77057E-06 2.46969E-18 6.06748E-19
 -1      2370 9.73369E-05-2.83149E-05-2.95775E-05-4.30663E-06 7.42807E-19 6.21886E-19
 -1      2371 9.73468E-05-2.80584E-05-2.97006E-05-5.62985E-06 1.88255E-18 1.07369E-18
 -1      2372 9.69940E-05-2.82001E-05-2.94707E-05-3.79310E-06-1.18883E-18 6.17089E-19
 -1      2373 9.64948E-05-2.80293E-05-2.93364E-05-3.31886E-06-1.40379E-18 1.18902E-19
 -1      2374 9.66025E-05-2.77972E-05-2.94922E-05-4.55349E-06 7.78869E-20-3.23028E-19
 -1      2375 5.55984E-05-3.25758E-05-9.74975E-06 4.01356E-05-8.26281E-19 1.52254E-18
 -1      2376 4.16715E-05-2.63547E-05-6.20885E-06 3.27521E-05-1.73430E-18 4.42786E-19
 -1      2377 9.33069E-05-2.76722E-05-2.81214E-05-4.19000E-07 1.75749E-19-6.78529E-19
 -1      2378 9.33815E-05-2.75683E-05-2.81812E-05-1.27373E-07 4.14684E-19-4.49115E-19
 -1      2379 9.32680E-05-2.78350E-05-2.80374E-05-8.44164E-07 2.45698E-19-1.03820E-18
 -1      2380 9.32160E-05-2.77449E-05-2.80459E-05-6.95590E-07 1.42902E-19-8.56086E-19
 -1      2381 9.39946E-05-2.77878E-05-2.83858E-05-4.63656E-07 3.89830E-19-1.10640E-18
 -1      2382 9.33830E-05-2.79691E-05-2.80306E-05-1.04924E-06 5.27131E-19-1.01765E-18
 -1      2383 9.32577E-05-2.78887E-05-2.80086E-05-9.83961E-07 3.09598E-19-9.97883E-19
 -1      2384 9.39211E-05-2.79924E-05-2.82637E-05-9.37840E-07 3.39619E-19-1.15264E-18
 -1      2385 9.35919E-05-2.80836E-05-2.80718E-05-1.12744E-06 3.34530E-19-5.93511E-19
 -1      2386 9.34268E-05-2.80122E-05-2.80320E-05-1.10824E-06 4.09104E-19-7.65003E-19
 -1      2387 9.39711E-05-2.81355E-05-2.82212E-05-1.17434E-06 2.56775E-19-9.32183E-19
 -1      2388 9.38556E-05-2.81821E-05-2.81429E-05-1.14113E-06 2.65251E-19-2.38530E-19
 -1      2389 9.36704E-05-2.81191E-05-2.80927E-05-1.14317E-06 5.21197E-19-2.12989E-19
 -1      2390 9.41023E-05-2.82394E-05-2.82311E-05-1.27365E-06 1.91897E-19-3.70611E-19
 -1      2391 9.41524E-05-2.82673E-05-2.82335E-05-1.13393E-06 6.14287E-19-4.87194E-19
 -1      2392 9.39564E-05-2.82117E-05-2.81768E-05-1.13970E-06 3.40876E-19-3.46375E-19
 -1      2393 9.42852E-05-2.83152E-05-2.82758E-05-1.30449E-06 3.97847E-19-2.47066E-19
 -1      2394 9.44736E-05-2.83426E-05-2.83385E-05-1.13762E-06 5.17894E-19-6.90894E-19
 -1      2395 9.42691E-05-2.82924E-05-2.82767E-05-1.13421E-06 7.36029E-19-6.75359E-19
 -1      2396 9.45026E-05-2.83701E-05-2.83448E-05-1.31574E-06 6.66458E-19-5.87540E-19
 -1      2397 9.48204E-05-2.84120E-05-2.84566E-05-1.17628E-06 2.94614E-19-5.91681E-19
 -1      2398 9.46041E-05-2.83645E-05-2.83895E-05-1.15376E-06 4.28737E-19-7.10513E-19
 -1      2399 9.47468E-05-2.84095E-05-2.84323E-05-1.34342E-06 4.54154E-19-5.91220E-19
 -1      2400 9.52017E-05-2.84807E-05-2.85896E-05-1.26881E-06-4.10018E-20-4.94977E-19
 -1      2401 9.49662E-05-2.84327E-05-2.85153E-05-1.21924E-06 1.16187E-19-5.09989E-19
 -1      2402 9.50179E-05-2.84384E-05-2.85362E-05-1.41493E-06 2.81228E-20-1.52979E-19
 -1      2403 9.56324E-05-2.85553E-05-2.87410E-05-1.43028E-06 9.26157E-20-6.99875E-19
 -1      2404 9.53673E-05-2.85024E-05-2.86568E-05-1.34728E-06 1.24628E-19-3.90745E-19
 -1      2405 9.53224E-05-2.84624E-05-2.86567E-05-1.55177E-06 6.63130E-20-3.97661E-19
 -1      2406 9.61319E-05-2.86438E-05-2.89157E-05-1.67226E-06 2.45434E-19-1.05347E-18
 -1      2407 9.58243E-05-2.85810E-05-2.88185E-05-1.55100E-06 1.65869E-19-7.76013E-19
 -1      2408 9.56714E-05-2.84878E-05-2.87958E-05-1.77082E-06 3.01906E-19-1.65639E-19
 -1      2409 9.67230E-05-2.87566E-05-2.91193E-05-2.00188E-06 4.98356E-19-1.18455E-18
 -1      2410 9.63583E-05-2.86775E-05-2.90054E-05-1.83974E-06 2.29598E-19-1.12475E-18
 -1      2411 9.60799E-05-2.85228E-05-2.89564E-05-2.08443E-06 3.80741E-19-7.64231E-19
 -1      2412 9.74302E-05-2.89068E-05-2.93568E-05-2.41956E-06 9.06758E-19-7.95075E-19
 -1      2413 9.69935E-05-2.88036E-05-2.92229E-05-2.21744E-06 9.02275E-19-7.33848E-19
 -1      2414 9.65662E-05-2.85789E-05-2.91415E-05-2.49913E-06 6.09803E-19-6.74643E-19
 -1      2415 9.82784E-05-2.91121E-05-2.96318E-05-2.91469E-06-5.91190E-20-6.04012E-19
 -1      2416 9.77557E-05-2.89749E-05-2.94756E-05-2.67943E-06 6.46759E-19-7.00243E-19
 -1      2417 9.71519E-05-2.86723E-05-2.93531E-05-3.01268E-06 5.39683E-19-1.82887E-19
 -1      2418 9.92904E-05-2.93956E-05-2.99445E-05-3.45899E-06-5.65399E-19-1.15505E-18
 -1      2419 9.86711E-05-2.92122E-05-2.97656E-05-3.20694E-06-3.91477E-19-8.71247E-19
 -1      2420 9.78610E-05-2.88267E-05-2.95916E-05-3.60884E-06-6.50396E-20-5.71647E-19
 -1      2421 1.00484E-04-2.97882E-05-3.02903E-05-3.99683E-06-2.17779E-19-1.75940E-18
 -1      2422 9.97641E-05-2.95436E-05-3.00914E-05-3.75898E-06-6.05317E-19-1.42725E-18
 -1      2423 9.87215E-05-2.90766E-05-2.98541E-05-4.24957E-06-1.51096E-19-1.13672E-18
 -1      2424 1.01868E-04-3.03285E-05-3.06571E-05-4.43304E-06 1.25905E-18-1.45826E-18
 -1      2425 1.01054E-04-3.00058E-05-3.04455E-05-4.26112E-06 5.64614E-19-1.52533E-18
 -1      2426 9.97651E-05-2.94709E-05-3.01334E-05-4.86406E-06 1.02209E-19-2.02570E-18
 -1      2427 1.03434E-04-3.10598E-05-3.10239E-05-4.62023E-06 6.92616E-19-6.98367E-19
 -1      2428 1.02552E-04-3.06437E-05-3.08131E-05-4.59237E-06 1.29769E-18-9.65383E-19
 -1      2429 1.01029E-04-3.00743E-05-3.04176E-05-5.33530E-06 7.35486E-19-1.25617E-18
 -1      2430 1.05148E-04-3.20165E-05-3.13614E-05-4.35228E-06-8.86083E-19-6.87203E-19
 -1      2431 1.04249E-04-3.15025E-05-3.11709E-05-4.57362E-06-8.23450E-20-7.77333E-19
 -1      2432 1.02550E-04-3.09620E-05-3.06908E-05-5.48670E-06 1.14702E-19-3.10114E-19
 -1      2433 1.06923E-04-3.31909E-05-3.16355E-05-3.37806E-06-4.89350E-19-4.69233E-19
 -1      2434 1.06098E-04-3.26051E-05-3.14898E-05-3.96791E-06-8.81832E-19-4.02420E-19
 -1      2435 1.04356E-04-3.21960E-05-3.09375E-05-5.07621E-06-5.14819E-19-3.06538E-19
 -1      2436 1.08591E-04-3.44686E-05-3.18187E-05-1.46104E-06-6.20905E-19-6.23860E-19
 -1      2437 1.07980E-04-3.39010E-05-3.17408E-05-2.51269E-06-3.60135E-19-8.12779E-19
 -1      2438 1.06427E-04-3.37687E-05-3.11507E-05-3.81463E-06-2.04632E-19-4.79259E-19
 -1      2439 1.09550E-04-3.21011E-05-3.20095E-05 4.37377E-06-8.47298E-19-1.25191E-18
 -1      2440 1.09645E-04-3.51827E-05-3.19087E-05-1.69253E-08-3.18931E-19-4.16547E-19
 -1      2441 1.08625E-04-3.54981E-05-3.13456E-05-1.43877E-06-4.14368E-19-6.68563E-19
 -1      2442 1.12749E-04-3.14539E-05-3.44890E-05 1.27821E-05-1.42662E-18-1.60788E-18
 -1      2443 1.11266E-04-2.95327E-05-3.34037E-05 1.09106E-05-1.53969E-18-2.46360E-18
 -1      2444 1.09197E-04-3.08588E-05-3.27221E-05 7.80930E-06-1.60560E-18-2.96811E-18
 -1      2445 1.13245E-04-3.29710E-05-3.44693E-05 1.46629E-05-8.59368E-19-4.13617E-19
 -1      2446 1.14004E-04-3.27424E-05-3.46892E-05 1.45028E-05-1.14629E-18-6.71042E-19
 -1      2447 1.12118E-04-3.22464E-05-3.39824E-05 1.32697E-05-1.69428E-18-2.14062E-18
 -1      2448 1.10883E-04-3.15382E-05-3.40275E-05 1.43201E-05-6.62146E-19 1.21357E-18
 -1      2449 1.12960E-04-3.27803E-05-3.44474E-05 1.50501E-05-7.38841E-19 2.89659E-19
 -1      2450 1.12992E-04-3.26180E-05-3.43902E-05 1.59110E-05-1.38000E-18-7.03434E-19
 -1      2451 1.07348E-04-2.85459E-05-3.37278E-05 1.12466E-05-6.22080E-19 9.10461E-19
 -1      2452 1.09473E-04-3.01778E-05-3.40438E-05 1.31511E-05-6.20220E-20 1.49223E-18
 -1      2453 1.11075E-04-3.02642E-05-3.46293E-05 1.54842E-05-4.55602E-19 8.27578E-20
 -1      2454 1.04621E-04-2.62801E-05-3.35317E-05 5.33027E-06-1.11202E-18 1.37347E-19
 -1      2455 1.05895E-04-2.71839E-05-3.37367E-05 8.29039E-06-9.29691E-19 7.89084E-19
 -1      2456 1.07937E-04-2.67050E-05-3.48564E-05 1.12816E-05-8.57489E-19 8.73471E-19
 -1      2457 1.04212E-04-2.65178E-05-3.33051E-05-1.59797E-06-2.53242E-18 1.17613E-18
 -1      2458 1.04192E-04-2.60713E-05-3.34313E-05 1.43324E-06-1.97967E-18 6.17626E-19
 -1      2459 1.05891E-04-2.46799E-05-3.48619E-05 3.96396E-06-1.77027E-18 4.85826E-19
 -1      2460 1.06105E-04-2.92540E-05-3.29894E-05-6.70859E-06-5.54952E-19 1.38898E-18
 -1      2461 1.05049E-04-2.77376E-05-3.30560E-05-4.79609E-06-1.98757E-18 1.21460E-18
 -1      2462 1.06394E-04-2.60830E-05-3.44813E-05-3.67520E-06-2.26555E-18 9.92313E-19
 -1      2463 1.08784E-04-3.27156E-05-3.26512E-05-8.24711E-06 8.16602E-19 1.86529E-18
 -1      2464 1.07407E-04-3.10597E-05-3.26597E-05-7.94624E-06 6.61695E-19 1.77138E-18
 -1      2465 1.08782E-04-3.00232E-05-3.37520E-05-8.32680E-06-3.39746E-19 1.61998E-18
 -1      2466 1.10599E-04-3.51097E-05-3.23812E-05-6.60208E-06 1.24366E-18 2.57167E-18
 -1      2467 1.09561E-04-3.40415E-05-3.23529E-05-7.55080E-06 1.15549E-18 2.54051E-18
 -1      2468 1.11086E-04-3.41348E-05-3.29380E-05-8.67941E-06 8.36821E-19 2.40187E-18
 -1      2469 1.10909E-04-3.58432E-05-3.21786E-05-3.35014E-06 8.99701E-19 2.48842E-18
 -1      2470 1.10506E-04-3.55407E-05-3.21596E-05-4.84273E-06 1.12740E-18 2.62780E-18
 -1      2471 1.11866E-04-3.65062E-05-3.22615E-05-5.91441E-06 1.07389E-18 2.85092E-18
 -1      2472 1.09926E-04-3.52743E-05-3.19894E-05-3.38384E-09 1.21803E-18 8.66152E-19
 -1      2473 1.10133E-04-3.55365E-05-3.20211E-05-1.44073E-06 1.10508E-18 1.88276E-18
 -1      2474 1.10985E-04-3.67996E-05-3.17826E-05-2.01958E-06 1.58261E-18 1.10914E-18
 -1      2475 1.08195E-04-3.40737E-05-3.17583E-05 2.59048E-06-6.41432E-19 1.20349E-18
 -1      2476 1.08834E-04-3.46090E-05-3.18592E-05 1.51461E-06 8.60225E-19 1.21444E-18
 -1      2477 1.09051E-04-3.56825E-05-3.14502E-05 1.51115E-06 6.56606E-19 1.64264E-18
 -1      2478 1.06178E-04-3.27535E-05-3.14606E-05 4.20424E-06-3.03737E-19 7.73693E-19
 -1      2479 1.07061E-04-3.33497E-05-3.16255E-05 3.55703E-06-1.60711E-18 5.32889E-19
 -1      2480 1.06754E-04-3.40262E-05-3.11824E-05 4.01973E-06-6.18026E-19 5.15571E-19
 -1      2481 1.04163E-04-3.15767E-05-3.11027E-05 4.95205E-06 2.51967E-19 1.32923E-18
 -1      2482 1.05140E-04-3.21237E-05-3.13123E-05 4.67208E-06 4.75050E-19 8.96735E-19
 -1      2483 1.04524E-04-3.24085E-05-3.09201E-05 5.44171E-06-1.06714E-19-6.97540E-19
 -1      2484 1.02292E-04-3.06268E-05-3.07093E-05 5.06666E-06 7.21198E-19 8.76526E-19
 -1      2485 1.03264E-04-3.10865E-05-3.09401E-05 5.05039E-06 3.59229E-19 9.66840E-19
 -1      2486 1.02545E-04-3.10807E-05-3.06390E-05 5.98091E-06 2.95047E-19 6.07735E-19
 -1      2487 1.00625E-04-2.98923E-05-3.03100E-05 4.77409E-06 5.38065E-19 6.98878E-19
 -1      2488 1.01531E-04-3.02646E-05-3.05409E-05 4.92549E-06 1.19203E-18 1.45632E-18
 -1      2489 1.00859E-04-3.00862E-05-3.03406E-05 5.90595E-06 4.58409E-19-2.13909E-19
 -1      2490 9.91786E-05-2.93272E-05-2.99319E-05 4.24336E-06 2.00988E-18 6.95258E-19
 -1      2491 9.99863E-05-2.96269E-05-3.01465E-05 4.49297E-06 9.33683E-19 4.83276E-19
 -1      2492 9.94453E-05-2.93701E-05-3.00400E-05 5.44868E-06 1.19037E-18 3.14090E-19
 -1      2493 9.79503E-05-2.88803E-05-2.95958E-05 3.57863E-06 2.00770E-18-1.24563E-19
 -1      2494 9.86428E-05-2.91255E-05-2.97829E-05 3.88622E-06 2.10233E-18 9.10275E-19
 -1      2495 9.82640E-05-2.88506E-05-2.97552E-05 4.77305E-06 2.09129E-18 1.47333E-18
 -1      2496 9.69277E-05-2.85105E-05-2.93152E-05 2.82832E-06 2.34734E-18 6.49053E-19
 -1      2497 9.74985E-05-2.87143E-05-2.94680E-05 3.17771E-06 2.00535E-18 2.23854E-19
 -1      2498 9.72743E-05-2.84510E-05-2.95018E-05 3.97897E-06 1.97586E-18 5.17321E-19
 -1      2499 9.60978E-05-2.81973E-05-2.90931E-05 2.01807E-06-1.81167E-19 2.35273E-18
 -1      2500 9.65502E-05-2.83674E-05-2.92111E-05 2.39867E-06 2.05188E-18 1.57754E-18
 -1      2501 9.64462E-05-2.81194E-05-2.92902E-05 3.10804E-06 1.68359E-18 2.21483E-18
 -1      2502 9.57809E-05-2.80909E-05-2.90024E-05 1.53830E-06-7.99931E-19 1.90138E-18
 -1      2503 9.36060E-05-2.47008E-05-2.95429E-05 2.62799E-06-1.25345E-20 2.11580E-18
 -1      2504 9.38931E-05-2.51159E-05-2.94724E-05 2.83474E-06 1.03603E-18-5.58645E-19
 -1      2505 9.31227E-05-2.40113E-05-2.96325E-05 1.92469E-06-1.79599E-19 3.24096E-18
 -1      2506 9.33437E-05-2.43294E-05-2.95782E-05 2.28531E-06-6.48218E-19 3.31867E-18
 -1      2507 9.33129E-05-2.45727E-05-2.94533E-05 2.82633E-06-3.46185E-19 2.37983E-18
 -1      2508 9.48487E-05-2.64761E-05-2.93093E-05 2.94244E-06 4.51982E-19 1.47796E-18
 -1      2509 9.51742E-05-2.69441E-05-2.92313E-05 2.79483E-06-3.75069E-19 2.10767E-18
 -1      2510 9.42041E-05-2.55548E-05-2.94307E-05 2.98184E-06 6.60901E-20-1.28722E-19
 -1      2511 9.45224E-05-2.60126E-05-2.93542E-05 3.00929E-06-2.64930E-19 1.64676E-18
 -1      2512 9.47595E-05-2.63281E-05-2.93247E-05 3.44116E-06 3.00834E-19 1.83274E-18
 -1      2513 9.39928E-05-2.54018E-05-2.93925E-05 3.34885E-06 9.97309E-19 9.18276E-19
 -1      2514 9.28124E-05-2.35715E-05-2.96875E-05 9.60092E-07-1.30620E-18-4.53757E-19
 -1      2515 9.29408E-05-2.37535E-05-2.96568E-05 1.42802E-06-6.12807E-19 1.45650E-18
 -1      2516 9.27848E-05-2.39278E-05-2.95005E-05 1.93058E-06-9.07067E-19 2.24816E-18
 -1      2517 9.27152E-05-2.34389E-05-2.97005E-05-1.43311E-07-4.58415E-19-2.06181E-19
 -1      2518 9.27336E-05-2.34603E-05-2.96975E-05 3.71180E-07-1.71860E-18 1.14319E-18
 -1      2519 9.24744E-05-2.35490E-05-2.95279E-05 7.71814E-07-1.31498E-18-2.46779E-19
 -1      2520 9.28490E-05-2.36360E-05-2.96698E-05-1.24081E-06-2.48535E-19-3.53687E-18
 -1      2521 9.27525E-05-2.34914E-05-2.96950E-05-7.48504E-07-3.78807E-19-1.69123E-18
 -1      2522 9.24243E-05-2.34882E-05-2.95320E-05-5.03526E-07 3.59129E-19-6.18848E-19
 -1      2523 9.31969E-05-2.41323E-05-2.96015E-05-2.16961E-06 7.69888E-19-2.80799E-18
 -1      2524 9.29977E-05-2.38442E-05-2.96503E-05-1.77303E-06 4.22309E-19-4.34442E-18
 -1      2525 9.26466E-05-2.37564E-05-2.95132E-05-1.71871E-06 5.41190E-19-3.49681E-18
 -1      2526 9.37358E-05-2.48897E-05-2.95029E-05-2.82851E-06 1.21058E-18-4.06082E-19
 -1      2527 9.34483E-05-2.44812E-05-2.95703E-05-2.57335E-06 1.02824E-18-2.75550E-18
 -1      2528 9.31205E-05-2.43262E-05-2.94747E-05-2.72071E-06 6.64557E-19-2.90651E-18
 -1      2529 9.44051E-05-2.58183E-05-2.93877E-05-3.09662E-06 1.22869E-18 8.40127E-19
 -1      2530 9.40634E-05-2.53383E-05-2.94643E-05-3.03538E-06 9.81231E-19 1.75593E-18
 -1      2531 9.38031E-05-2.51423E-05-2.94216E-05-3.37543E-06 8.43573E-19 1.27115E-19
 -1      2532 9.51204E-05-2.68111E-05-2.92662E-05-2.92107E-06-4.81481E-19-1.08230E-18
 -1      2533 9.47691E-05-2.63130E-05-2.93448E-05-3.07284E-06-7.68775E-20-6.38325E-19
 -1      2534 9.46085E-05-2.61106E-05-2.93570E-05-3.56803E-06 8.50266E-19-4.75461E-19
 -1      2535 9.55518E-05-2.75811E-05-2.91230E-05-2.09290E-06 1.88997E-19-4.99397E-19
 -1      2536 1.95826E-05-1.55504E-05-1.51936E-06-8.29567E-06-8.68368E-19 1.68983E-18
 -1      2537 2.56731E-05-1.90738E-05-2.63028E-06-2.21002E-05-4.18117E-19 1.34699E-18
 -1      2538 9.35839E-05-2.74549E-05-2.83292E-05 3.73224E-07 5.30481E-19-3.68179E-19
 -1      2539 9.38655E-05-2.73203E-05-2.84756E-05 9.10259E-07 7.87315E-19-2.79458E-19
 -1      2540 9.42431E-05-2.74721E-05-2.86298E-05 4.00843E-07 6.10444E-19-7.06702E-19
 -1      2541 9.68646E-05-4.99710E-05-2.00995E-05 3.99105E-05-1.40607E-19-2.99458E-18
 -1      2542 7.64362E-05-4.30680E-05-1.40189E-05 4.07040E-05-7.91552E-19-9.79382E-20
 -1      2543 3.76911E-05-2.60126E-05-4.81206E-06-3.17378E-05-1.02067E-19 8.21622E-19
 -1      2544 5.53440E-05-3.30848E-05-9.44099E-06-4.09239E-05 4.70739E-19 2.88203E-19
 -1      2545 3.94487E-05-2.06125E-05-7.53317E-06-2.71959E-05 4.73280E-19 1.58819E-19
 -1      2546 9.50465E-05-2.00165E-05-3.22042E-05-1.17475E-05-1.70140E-18-1.85288E-19
 -1      2547 9.54449E-05-2.33776E-05-3.09172E-05-7.99399E-06-1.51970E-18-9.47626E-20
 -1      2548 9.50487E-05-2.25289E-05-3.10474E-05-7.67669E-06-1.48458E-18-5.74745E-19
 -1      2549 9.32024E-05-1.75728E-05-3.24102E-05-1.13774E-05-1.74505E-18-6.68230E-19
 -1      2550 1.11042E-04-5.44566E-05-2.41606E-05-3.41849E-05-3.37331E-19 9.89229E-19
 -1      2551 1.27723E-04-5.54870E-05-3.11116E-05-2.82123E-05-1.62630E-19 1.59835E-18
 -1      2552 1.53895E-04-4.04398E-05-4.90304E-05-8.40239E-06-2.68689E-18-1.71990E-18
 -1      2553 1.50064E-04-4.93296E-05-4.31719E-05-3.68734E-06-2.05585E-18-2.09556E-18
 -1      2554 1.39693E-04-2.45552E-05-4.96051E-05 5.33977E-06 2.14553E-18-1.16255E-18
 -1      2555 1.40883E-04-1.75133E-05-5.33964E-05 6.69643E-06 2.05871E-18-1.91980E-18
 -1      2556 8.78829E-05-1.08050E-05-3.30692E-05-1.51978E-06-3.04306E-19-2.34523E-18
 -1      2557 8.79865E-05-1.09270E-05-3.30598E-05-2.63967E-06-5.04047E-19-2.23850E-18
 -1      2558 8.93842E-05-1.30970E-05-3.26964E-05-2.93206E-06-5.71775E-19-2.13669E-18
 -1      2559 8.91391E-05-1.27621E-05-3.27361E-05-9.41500E-07-2.76478E-19-2.26103E-18
 -1      2560 1.38757E-04-1.17327E-05-5.49483E-05-1.55607E-06-5.26854E-19-3.51794E-18
 -1      2561 1.41409E-04-1.76021E-05-5.32900E-05-2.86679E-06-3.36060E-19-4.49563E-18
 -1      2562 1.33532E-04-4.05251E-05-4.00523E-05-6.73295E-06 1.30072E-19-1.58861E-18
 -1      2563 1.39487E-04-3.50637E-05-4.52775E-05-5.85824E-07 9.86423E-19-1.55642E-18
 -1      2564 1.39167E-04-1.16393E-05-5.50087E-05 5.31169E-06 1.17992E-18-3.27929E-18
 -1      2565 1.37659E-04-9.63171E-06-5.54066E-05 2.70070E-06 1.69830E-19-3.11510E-18
 -1      2566 3.94277E-05-2.35499E-05-6.64874E-06-3.59032E-05-9.32795E-19-4.48207E-18
 -1      2567 5.47245E-05-2.87471E-05-1.10451E-05-4.02852E-05-1.33069E-18-4.83592E-18
 -1      2568 1.15380E-04-4.62229E-05-2.97181E-05-2.34345E-05-6.67144E-19-2.04622E-18
 -1      2569 1.26989E-04-4.53959E-05-3.51967E-05-1.71139E-05-3.20390E-19-1.90498E-18
 -1      2570 1.36060E-04-5.32690E-05-3.56575E-05-1.84742E-05-6.24475E-19 3.77777E-19
 -1      2571 1.44674E-04-4.90250E-05-4.13949E-05-1.16007E-05-1.06859E-18-2.11123E-19
 -1      2572 1.33587E-04-5.69900E-05-3.26199E-05-1.74116E-05 2.65862E-19-1.11702E-19
 -1      2573 1.82494E-05-1.21645E-05-2.24681E-06-2.22148E-05-1.25573E-18-4.40309E-18
 -1      2574 2.70302E-05-1.69455E-05-4.11062E-06-3.14341E-05-7.31413E-19-5.09533E-18
 -1      2575 3.92027E-05-1.85525E-05-8.35828E-06-3.36589E-05-1.15334E-18-4.80098E-18
 -1      2576 1.45704E-05-1.14310E-05-1.05902E-06 2.39932E-06-1.66474E-18-2.13939E-18
 -1      2577 1.24206E-05-9.66406E-06-9.21075E-07-1.06759E-05-1.18145E-18-3.11390E-18
 -1      2578 3.76855E-05-2.51835E-05-5.14827E-06 2.25711E-05-1.53969E-18-3.05546E-18
 -1      2579 2.48231E-05-1.76136E-05-2.84264E-06 1.33712E-05-1.57389E-18-2.04855E-18
 -1      2580 7.78536E-05-4.55532E-05-1.37975E-05 2.92380E-05-1.10368E-18-3.86459E-21
 -1      2581 5.53464E-05-3.57329E-05-8.33266E-06 2.61930E-05-8.26281E-19-2.27873E-18
 -1      2582 5.44402E-05-2.99921E-05-9.94501E-06 2.26348E-05 2.86827E-19-1.03539E-18
 -1      2583 1.18741E-04-6.01702E-05-2.52375E-05 2.30652E-05-2.28678E-18 2.78886E-19
 -1      2584 1.01528E-04-5.58825E-05-1.94709E-05 2.61242E-05-1.40396E-18-2.40796E-19
 -1      2585 1.44691E-04-5.85749E-05-3.73731E-05 7.22660E-06-2.04971E-18-2.27195E-18
 -1      2586 1.31722E-04-6.05020E-05-3.05766E-05 1.41627E-05-2.69632E-18-6.46921E-19
 -1      2587 1.30418E-04-6.36687E-05-2.85388E-05 1.29831E-05-1.69872E-18-2.49981E-19
 -1      2588 1.51922E-04-2.17992E-05-5.61156E-05-9.89507E-06-3.43662E-18-2.03606E-19
 -1      2589 1.51852E-04-2.81921E-05-5.31442E-05-1.10423E-05-3.28014E-18-8.73926E-19
 -1      2590 1.44931E-04-1.26839E-05-5.70653E-05-2.74957E-06-3.27548E-18 6.08328E-19
 -1      2591 1.47837E-04-1.54861E-05-5.70383E-05-7.14641E-06-3.27717E-18-3.16367E-19
 -1      2592 1.47013E-04-2.20943E-05-5.39270E-05 3.94116E-06-1.97168E-18 7.32683E-20
 -1      2593 1.44358E-04-1.65885E-05-5.54545E-05 2.38240E-06-2.36746E-18 4.27963E-19
 -1      2594 1.47356E-04-3.93034E-05-4.66061E-05-1.51077E-06-9.05902E-19-6.18334E-19
 -1      2595 1.49917E-04-3.05485E-05-5.15763E-05 1.71986E-06-1.14455E-18-6.35275E-22
 -1      2596 1.40100E-04-2.70445E-05-4.85216E-05 7.73551E-06-1.30062E-18 9.92087E-20
 -1      2597 7.51874E-05-4.23711E-05-1.37493E-05-4.18034E-05 1.23307E-18 5.91970E-19
 -1      2598 9.08917E-05-4.83258E-05-1.83570E-05-4.25277E-05-3.21873E-19 4.27805E-19
 -1      2599 1.26197E-04-5.32494E-05-3.13912E-05 2.56558E-05 9.06325E-20-4.29425E-18
 -1      2600 1.13067E-04-5.35449E-05-2.55021E-05 3.08630E-05 7.19131E-19-4.21357E-18
 -1      2601 2.78838E-05-1.91944E-05-3.48602E-06 2.34892E-05-2.41023E-18-4.42786E-19
 -1      2602 2.03845E-05-1.52663E-05-1.85543E-06 7.63780E-06-1.66281E-18 1.05329E-18
 -1      2603 4.20750E-05-2.04891E-05-8.65482E-06 2.71400E-05-1.86146E-18 7.38824E-19
 -1      2604 9.62930E-05-2.50827E-05-3.05445E-05 7.60613E-06 1.69064E-18 1.36346E-19
 -1      2605 9.74158E-05-2.37668E-05-3.15852E-05 1.07056E-05 1.77673E-18 3.41407E-19
 -1      2606 9.58565E-05-2.12934E-05-3.20115E-05 1.19080E-05 1.88883E-18-2.44051E-19
 -1      2607 9.58478E-05-2.41516E-05-3.07602E-05 7.69767E-06 1.68053E-18-3.31512E-19
 -1      2608 1.40181E-04-4.51440E-05-4.11501E-05 8.99732E-06-5.49433E-19-5.53218E-18
 -1      2609 1.33292E-04-4.99104E-05-3.58336E-05 1.61678E-05-1.46484E-19-4.63856E-18
 -1      2610 1.31184E-04-5.43328E-05-3.29153E-05 1.55343E-05 2.36322E-19-4.99474E-18
 -1      2611 1.35804E-04-2.16323E-05-4.91256E-05-5.86137E-06-5.29607E-19-4.55746E-18
 -1      2612 9.08284E-05-1.50675E-05-3.24649E-05-6.79991E-06-1.09740E-18-1.77427E-18
 -1      2613 8.97225E-05-1.32073E-05-3.28495E-05-7.97614E-06-1.21173E-18-1.84245E-18
 -1      2614 9.04135E-05-1.40326E-05-3.28003E-05-9.15300E-06-1.44096E-18-1.69442E-18
 -1      2615 9.47052E-05-2.69256E-05-2.90609E-05 1.89124E-06 9.80356E-19-5.38318E-19
 -1      2616 9.42229E-05-1.90749E-05-3.22514E-05 1.16171E-05 1.80053E-18-8.74337E-19
 -1      2617 1.39115E-04-4.12894E-05-4.19806E-05 1.12000E-07-5.66189E-19-4.03548E-18
 -1      2618 1.07295E-04-5.35013E-05-2.28742E-05-3.47482E-05 7.49201E-19-3.93870E-20
 -1      2619 7.45183E-05-3.84930E-05-1.49276E-05 3.86175E-05-1.24207E-18-4.64756E-19
 -1      2620 9.57582E-05-2.78397E-05-2.91055E-05 2.15413E-06-5.08050E-19 3.11550E-18
 -1      2621 9.55881E-05-2.75179E-05-2.91729E-05 2.44966E-06-3.68702E-19 2.75683E-18
 -1      2622 1.43463E-04-4.62107E-05-4.17154E-05-6.69418E-07-5.28866E-20-1.62016E-18
 -1      2623 9.59493E-05-2.78489E-05-2.91755E-05-2.51574E-06-2.73152E-20 5.96641E-20
 -1      2624 9.54670E-05-2.72565E-05-2.92386E-05-2.81122E-06-3.49291E-19 4.81191E-20
 -1      2625 9.54759E-05-2.70834E-05-2.93068E-05-3.40933E-06-1.01158E-18 2.96139E-19
 -1      2626 9.63086E-05-2.79630E-05-2.92774E-05-2.96227E-06-5.14719E-19 7.61071E-19
 -1      2627 1.35679E-04-1.38776E-05-5.24343E-05 2.25185E-06-2.94725E-18 8.47880E-19
 -1      2628 2.77545E-05-1.30009E-05-5.72331E-06 1.56654E-07-1.61818E-18 1.23794E-18
 -1      2629 9.46982E-05-2.05971E-05-3.17132E-05 9.68348E-06 1.69574E-18-9.56075E-19
 -1      2630 1.09621E-04-5.39154E-05-2.37158E-05 3.16474E-05-1.70465E-20-4.11250E-18
 -1      2631 1.47245E-04-5.61128E-05-3.90729E-05-3.79725E-06-1.77285E-18-1.62948E-18
 -1      2632 6.95176E-05-3.67600E-05-1.35676E-05-4.00760E-05 1.44123E-18 2.20229E-19
 -1      2633 9.43016E-05-5.25095E-05-1.77165E-05 2.53035E-05-4.85773E-19 8.63213E-19
 -1      2634 8.75538E-05-4.69944E-05-1.68439E-05 2.34430E-05 1.16033E-18 1.21533E-18
 -1      2635 1.08862E-04-5.79339E-05-2.18371E-05 1.94547E-05 2.36216E-19 1.01868E-18
 -1      2636 9.20806E-05-1.62823E-05-3.25203E-05-1.03879E-05-1.65261E-18-1.13999E-18
 -1      2637 1.47426E-04-3.51636E-05-4.82269E-05-1.42852E-05-3.34663E-18-9.96323E-19
 -1      2638 1.09747E-04-4.70855E-05-2.67917E-05-2.69505E-05-1.88994E-18-2.30668E-18
 -1      2639 1.16891E-04-4.91376E-05-2.92128E-05-1.74673E-05-2.74518E-18-1.64780E-18
 -1      2640 1.02000E-04-4.56473E-05-2.38237E-05-2.92222E-05-2.91633E-18-1.44260E-18
 -1      2641 2.06391E-05-8.53455E-06-4.61411E-06-1.66370E-05-6.21193E-19-4.10832E-18
 -1      2642 1.31131E-04-1.37776E-05-5.05401E-05 8.96113E-06 8.47668E-19-1.70804E-18
 -1      2643 1.34741E-04-2.98139E-05-4.50831E-05 8.31886E-06 6.39722E-19 2.19805E-19
 -1      2644 6.96920E-05-3.47151E-05-1.47026E-05-3.91681E-05-2.31071E-18-3.70048E-18
 -1      2645 8.39197E-05-4.00431E-05-1.89498E-05-3.55873E-05-3.25663E-18-1.41650E-18
 -1      2646 6.49049E-05-3.04841E-05-1.42279E-05-3.79522E-05-2.30499E-18-2.76196E-18
 -1      2647 1.30107E-04-4.49794E-05-3.65074E-05-5.39294E-06-8.50156E-19-4.26799E-19
 -1      2648 1.29996E-04-9.97892E-06-5.17541E-05 1.61008E-08-3.90482E-19-2.79579E-18
 -1      2649 2.57455E-05-1.23549E-05-5.11175E-06 7.29940E-06-4.61368E-19-2.38503E-18
 -1      2650 1.40222E-04-1.71870E-05-5.29068E-05-1.04079E-05-3.32397E-18 2.83968E-19
 -1      2651 9.56352E-05-2.73898E-05-2.92433E-05 3.04309E-06 6.22366E-19 2.78388E-18
 -1      2652 9.60694E-05-2.76148E-05-2.93446E-05-3.63477E-06-1.19928E-18 6.76811E-19
 -1      2653 9.05958E-05-1.51743E-05-3.23458E-05 3.19737E-06 4.46486E-19-2.10205E-18
 -1      2654 9.04081E-05-1.49028E-05-3.23797E-05 2.26284E-06 2.63663E-19-2.12670E-18
 -1      2655 9.02753E-05-1.46996E-05-3.24095E-05 1.42349E-06 9.26613E-20-2.16216E-18
 -1      2656 9.02109E-05-1.46072E-05-3.24209E-05 4.65982E-07-4.29029E-20-2.07407E-18
 -1      2657 9.14594E-05-1.65902E-05-3.20738E-05 1.64177E-06 2.02648E-19-2.01775E-18
 -1      2658 9.21611E-05-1.75531E-05-3.20128E-05 6.48008E-06 1.15669E-18-1.64523E-18
 -1      2659 9.16407E-05-1.67578E-05-3.21152E-05 5.63856E-06 9.71371E-19-1.74594E-18
 -1      2660 9.35625E-05-1.97729E-05-3.16665E-05 7.60741E-06 1.38453E-18-1.47653E-18
 -1      2661 9.27821E-05-1.85208E-05-3.18432E-05 7.02870E-06 1.20781E-18-1.52386E-18
 -1      2662 9.34522E-05-1.98656E-05-3.15141E-05 5.74105E-06 1.15987E-18-1.47498E-18
 -1      2663 9.51996E-05-2.53996E-05-2.99264E-05 3.98725E-06 1.16717E-18-7.81798E-19
 -1      2664 9.55357E-05-2.45511E-05-3.03895E-05 5.62180E-06 1.32245E-18-8.00641E-19
 -1      2665 1.18647E-04-5.54700E-05-2.71418E-05 2.46216E-05 5.23360E-19-3.78383E-18
 -1      2666 1.04452E-04-5.09651E-05-2.26618E-05 3.17403E-05-1.13608E-19-3.77177E-18
 -1      2667 9.49661E-05-2.66776E-05-2.92712E-05 1.78485E-06 8.58996E-19-7.90385E-19
 -1      2668 9.52301E-05-2.61841E-05-2.95548E-05 2.79400E-06 1.08588E-18-6.76786E-19
 -1      2669 9.52624E-05-2.50097E-05-3.01048E-05 3.82562E-06 1.09656E-18-1.05180E-18
 -1      2670 1.00522E-04-4.94897E-05-2.14970E-05-3.45635E-05 6.52321E-19 3.67189E-19
 -1      2671 1.17730E-04-5.63968E-05-2.64982E-05-2.80258E-05 8.18022E-19-4.70897E-20
 -1      2672 5.13792E-05-2.23373E-05-1.23673E-05 3.02594E-05-1.87904E-18 2.00440E-18
 -1      2673 4.04657E-05-1.52232E-05-1.01937E-05 1.97607E-05-2.19043E-18 1.95876E-19
 -1      2674 1.27284E-04-1.86639E-05-4.72385E-05-8.01233E-06-5.68147E-19-2.79182E-18
 -1      2675 1.32126E-04-2.72133E-05-4.52809E-05-9.13385E-06-1.87512E-19-3.49655E-18
 -1      2676 9.43252E-05-2.08687E-05-3.15161E-05-8.25485E-06-1.50973E-18-8.87372E-19
 -1      2677 9.47095E-05-2.26416E-05-3.09111E-05-6.41467E-06-1.42895E-18-8.82904E-19
 -1      2678 9.53491E-05-2.58924E-05-2.97395E-05-2.70924E-06-8.89172E-19-5.86583E-19
 -1      2679 9.51871E-05-2.64751E-05-2.94587E-05-1.71910E-06-7.10041E-19-6.52266E-19
 -1      2680 9.52120E-05-2.69881E-05-2.92155E-05-9.71515E-07-7.32805E-19-6.44810E-19
 -1      2681 9.50806E-05-2.73381E-05-2.90383E-05-3.57821E-07-7.04972E-19-7.43263E-19
 -1      2682 9.54189E-05-2.63125E-05-2.96225E-05-1.61134E-06-8.07879E-19-7.81391E-19
 -1      2683 9.50495E-05-2.76384E-05-2.88745E-05 1.20370E-07-6.18126E-19-7.89450E-19
 -1      2684 9.49765E-05-2.78571E-05-2.87679E-05 4.84664E-07-6.18434E-19-8.16263E-19
 -1      2685 9.54214E-05-2.72955E-05-2.92043E-05-3.12491E-07-6.67135E-19-8.86139E-19
 -1      2686 9.49368E-05-2.80343E-05-2.86624E-05 7.71482E-07-6.01641E-19-8.61651E-19
 -1      2687 9.49163E-05-2.81732E-05-2.86044E-05 9.74971E-07-6.08206E-19-9.38292E-19
 -1      2688 9.53646E-05-2.78932E-05-2.89233E-05 5.07455E-07-7.08078E-19-1.01738E-18
 -1      2689 9.48844E-05-2.82740E-05-2.85414E-05 1.13500E-06-6.04124E-19-8.49719E-19
 -1      2690 9.49031E-05-2.83609E-05-2.85170E-05 1.23959E-06-4.52062E-19-7.91681E-19
 -1      2691 9.53052E-05-2.82498E-05-2.87437E-05 9.94656E-07-6.00025E-19-8.07788E-19
 -1      2692 9.48829E-05-2.84113E-05-2.84849E-05 1.32213E-06-4.28486E-19-8.39062E-19
 -1      2693 9.49289E-05-2.84617E-05-2.84839E-05 1.37165E-06-6.34644E-19-8.62866E-19
 -1      2694 9.52625E-05-2.84491E-05-2.86388E-05 1.26613E-06-4.37955E-19-9.67991E-19
 -1      2695 9.49195E-05-2.84771E-05-2.84745E-05 1.41375E-06-7.19921E-19-6.51571E-19
 -1      2696 9.49846E-05-2.85009E-05-2.84903E-05 1.43992E-06-6.55204E-19-4.50109E-19
 -1      2697 9.52393E-05-2.85404E-05-2.85887E-05 1.41146E-06-5.47402E-19-9.08627E-19
 -1      2698 9.49840E-05-2.84905E-05-2.84978E-05 1.46950E-06-6.13929E-19-1.26254E-19
 -1      2699 9.50634E-05-2.84940E-05-2.85263E-05 1.49592E-06-3.41590E-19 7.50506E-20
 -1      2700 9.52334E-05-2.85540E-05-2.85795E-05 1.49836E-06-3.07765E-19-2.08748E-19
 -1      2701 9.50695E-05-2.84635E-05-2.85470E-05 1.53444E-06-2.50867E-19 2.83563E-19
 -1      2702 9.51614E-05-2.84512E-05-2.85859E-05 1.57930E-06 9.80223E-20 2.38242E-19
 -1      2703 9.52411E-05-2.85091E-05-2.86015E-05 1.57840E-06-1.93697E-19 3.50117E-19
 -1      2704 9.51727E-05-2.84041E-05-2.86175E-05 1.64375E-06 1.65417E-19 1.18551E-19
 -1      2705 9.52780E-05-2.83792E-05-2.86659E-05 1.72167E-06 1.15788E-19-2.76080E-20
 -1      2706 9.52594E-05-2.84174E-05-2.86483E-05 1.69166E-06-8.26616E-20 3.47906E-20
 -1      2707 9.52933E-05-2.83175E-05-2.87069E-05 1.82601E-06 1.34777E-19-2.63718E-19
 -1      2708 9.54146E-05-2.82828E-05-2.87648E-05 1.94922E-06-2.31616E-19-1.54315E-19
 -1      2709 9.52859E-05-2.82863E-05-2.87155E-05 1.87029E-06 1.21265E-19-1.20760E-19
 -1      2710 9.54332E-05-2.82080E-05-2.88143E-05 2.10528E-06-6.97323E-19 2.17893E-19
 -1      2711 9.55749E-05-2.81664E-05-2.88823E-05 2.28418E-06-9.70279E-19 3.49010E-19
 -1      2712 9.53189E-05-2.81206E-05-2.88004E-05 2.14091E-06-3.04704E-19-3.82935E-19
 -1      2713 9.55964E-05-2.80800E-05-2.89397E-05 2.50211E-06-1.15099E-18 3.47866E-19
 -1      2714 9.57641E-05-2.80356E-05-2.90184E-05 2.74532E-06-1.17758E-18 1.96059E-19
 -1      2715 9.53577E-05-2.79246E-05-2.89009E-05 2.52597E-06-1.09105E-18-1.03502E-19
 -1      2716 9.57891E-05-2.79406E-05-2.90825E-05 3.03346E-06-1.30121E-18 3.57743E-19
 -1      2717 9.59902E-05-2.78995E-05-2.91724E-05 3.34703E-06-1.40029E-18 2.60221E-19
 -1      2718 9.54028E-05-2.77040E-05-2.90145E-05 3.04414E-06-1.16191E-18 1.46824E-19
 -1      2719 9.60208E-05-2.78022E-05-2.92416E-05 3.71120E-06-1.14842E-18 5.13840E-19
 -1      2720 9.62646E-05-2.77751E-05-2.93422E-05 4.09707E-06-6.41957E-19 3.43412E-20
 -1      2721 9.54571E-05-2.74701E-05-2.91378E-05 3.70953E-06-1.11540E-18 8.10331E-19
 -1      2722 9.63072E-05-2.76881E-05-2.94135E-05 4.53908E-06-5.42396E-19 3.56142E-20
 -1      2723 7.81736E-05-2.73229E-05-2.90488E-05 9.99268E-06-7.65252E-18 1.21210E-17
 -1      2724 9.55289E-05-2.72448E-05-2.92651E-05 4.52968E-06-6.81587E-19-1.32159E-19
 -1      2725 4.43433E-05-2.26470E-05-2.03773E-05 1.38242E-05-7.90938E-18 3.93896E-17
 -1      2726 4.04669E-05-1.35304E-05-1.34519E-05 7.38824E-06 1.43477E-18 3.22644E-17
 -1      2727 6.03094E-05-2.62261E-05-2.16012E-05 3.99383E-06 3.83918E-19 2.18128E-17
 -1      2728 3.33247E-05-7.42432E-06-1.19142E-05 6.02318E-06 3.02994E-18 3.46286E-17
 -1      2729 3.07566E-05-4.62678E-06-1.12259E-05 4.56963E-06 3.35221E-18 3.45139E-17
 -1      2730 3.86047E-05-1.27662E-05-1.29681E-05 3.93093E-06 1.49028E-18 3.22471E-17
 -1      2731 2.79448E-05-2.68269E-06-1.05868E-05 3.32644E-06 4.94454E-18 3.54693E-17
 -1      2732 2.52415E-05-2.20989E-06-9.97977E-06 7.74990E-07 5.53282E-18 3.74572E-17
 -1      2733 2.97614E-05-4.74145E-06-1.04642E-05 1.26933E-06 4.93434E-18 3.34442E-17
 -1      2734 2.39749E-05-4.77469E-06-8.85548E-06-1.10417E-06 7.26521E-18 4.06179E-17
 -1      2735 2.49719E-05-1.07156E-05-7.87999E-06-3.42548E-06 8.67552E-18 4.51317E-17
 -1      2736 2.57628E-05-5.71446E-06-8.63491E-06-2.74843E-06 9.10928E-18 3.71884E-17
 -1      2737 2.81434E-05-1.94878E-05-6.61171E-06-3.23180E-06 1.03050E-17 4.68787E-17
 -1      2738 2.78961E-05-2.82615E-05-6.49776E-06-9.54666E-06 1.58421E-17 5.56990E-17
 -1      2739 2.64659E-05-1.63313E-05-6.18319E-06-5.24641E-06 1.33575E-17 4.40642E-17
 -1      2740 4.98790E-05-4.93348E-05-7.12030E-06-9.58632E-06 2.50472E-17 4.91380E-17
 -1      2741 7.50269E-05-7.48080E-05-1.58754E-05-2.32048E-05 4.56449E-17 4.09015E-17
 -1      2742 4.53183E-05-4.80255E-05-5.99347E-06-1.28880E-06 1.75286E-17 4.20334E-17
 -1      2743 1.07240E-04-6.49037E-05-2.79738E-05 6.39921E-06 1.82104E-17 2.91549E-18
 -1      2744 1.29915E-04-5.28791E-05-3.16041E-05 2.73531E-05-6.26169E-18-1.08336E-18
 -1      2745 3.06032E-05-3.25941E-05-1.62430E-05 5.58695E-06 1.31366E-17 2.37406E-17
 -1      2746 1.40061E-04-6.47316E-05-3.30996E-05 1.14228E-05 2.42474E-18-3.20321E-18
 -1      2747 1.44936E-04-6.70761E-05-3.31752E-05 1.05568E-05 1.60798E-18-1.72964E-18
 -1      2748 1.80916E-04-7.34185E-05-3.39819E-05 4.00050E-06 5.56892E-18-2.29948E-18
 -1      2749 1.40504E-04-6.35439E-05-3.27866E-05 5.59233E-06 1.61877E-18-5.53324E-19
 -1      2750 1.37990E-04-6.11890E-05-3.29620E-05 4.52124E-07 1.08405E-18 4.55280E-20
 -1      2751 1.44832E-04-6.85190E-05-3.27028E-05 3.13594E-06 2.57223E-18-7.52271E-19
 -1      2752 1.36644E-04-5.81296E-05-3.36810E-05-4.37168E-06 5.43660E-19 7.94279E-19
 -1      2753 1.34011E-04-5.34970E-05-3.45784E-05-9.01755E-06-1.52936E-19 1.17773E-18
 -1      2754 1.39768E-04-6.34204E-05-3.30449E-05-3.17881E-06 1.44736E-18 1.39760E-18
 -1      2755 1.32098E-04-4.75261E-05-3.64550E-05-1.33940E-05-5.35642E-19 1.58903E-18
 -1      2756 1.28464E-04-4.02229E-05-3.78572E-05-1.50562E-05-1.35046E-18 2.00960E-18
 -1      2757 1.37239E-04-5.41132E-05-3.59625E-05-1.19605E-05-5.15102E-20 1.94677E-18
 -1      2758 1.17406E-04-1.91724E-05-4.25086E-05-5.27449E-06-3.30872E-18 7.82983E-19
 -1      2759 1.16187E-04-1.79087E-05-4.25973E-05 7.94661E-07-2.89442E-18-9.40306E-20
 -1      2760 1.22341E-04-1.93376E-05-4.45427E-05 6.88666E-06-2.02684E-18 3.29178E-19
 -1      2761 1.24507E-04-2.49084E-05-4.31600E-05 1.08270E-05-1.36918E-18 2.14723E-19
 -1      2762 1.23668E-04-4.28673E-05-3.46723E-05 8.70822E-06 2.94145E-19 2.13082E-18
 -1      2763 1.23459E-04-4.51867E-05-3.35775E-05 5.81327E-06 1.74909E-19 2.35195E-18
 -1      2764 1.20164E-04-4.50768E-05-3.22636E-05 1.57490E-06-4.81231E-19 1.47406E-18
 -1      2765 1.18319E-04-4.43983E-05-3.15975E-05-1.46609E-06-1.99820E-19 4.19361E-19
 -1      2766 1.23355E-04-4.76925E-05-3.25646E-05 9.27025E-07-6.45452E-19 1.80030E-18
 -1      2767 1.14479E-04-4.23434E-05-3.09755E-05-4.35406E-06 2.01964E-19-3.01941E-19
 -1      2768 1.12123E-04-4.03906E-05-3.06492E-05-6.52048E-06-6.37396E-19-1.38933E-18
 -1      2769 1.15980E-04-4.49997E-05-3.05337E-05-6.05448E-06-9.67054E-19-8.53728E-19
 -1      2770 1.08949E-04-3.80214E-05-3.04242E-05-7.91632E-06-1.05237E-19-1.88016E-18
 -1      2771 1.06813E-04-3.60219E-05-3.02709E-05-9.10873E-06 1.75832E-19-1.28464E-18
 -1      2772 1.08882E-04-3.97971E-05-2.97087E-05-9.80805E-06-9.29404E-20-2.27498E-18
 -1      2773 1.04613E-04-3.41136E-05-3.02207E-05-9.50465E-06 2.14518E-19-6.03586E-19
 -1      2774 1.02943E-04-3.25481E-05-3.01295E-05-9.94636E-06-4.33066E-19-3.98023E-19
 -1      2775 1.03548E-04-3.49243E-05-2.94848E-05-1.11842E-05 1.20696E-19-1.57118E-18
 -1      2776 1.01579E-04-3.12653E-05-3.01302E-05-9.77786E-06-1.32917E-18-2.91869E-19
 -1      2777 1.00358E-04-3.02066E-05-3.00452E-05-9.73251E-06-1.35322E-18-8.62254E-19
 -1      2778 1.00062E-04-3.13530E-05-2.94928E-05-1.11208E-05-9.30229E-19-1.27419E-18
 -1      2779 9.95650E-05-2.94441E-05-3.00425E-05-9.28770E-06-1.28782E-18-5.42775E-19
 -1      2780 9.86803E-05-2.87884E-05-2.99463E-05-8.95889E-06-1.17850E-18 2.15326E-19
 -1      2781 9.79695E-05-2.90975E-05-2.95422E-05-1.03474E-05-1.34586E-18-1.69134E-18
 -1      2782 9.82370E-05-2.83851E-05-2.99252E-05-8.39440E-06-6.61405E-19 5.43132E-19
 -1      2783 9.75821E-05-2.80015E-05-2.98194E-05-7.92101E-06 5.39375E-19 5.59510E-19
 -1      2784 9.67726E-05-2.78232E-05-2.95626E-05-9.25095E-06-5.14547E-19-3.37107E-19
 -1      2785 9.73334E-05-2.78137E-05-2.97825E-05-7.32191E-06 1.51746E-18 4.19818E-19
 -1      2786 9.68293E-05-2.75910E-05-2.96755E-05-6.78890E-06 1.80030E-18 1.35450E-19
 -1      2787 9.61016E-05-2.71843E-05-2.95419E-05-8.03882E-06 9.21363E-19-1.17100E-18
 -1      2788 9.66760E-05-2.75109E-05-2.96311E-05-6.19647E-06 1.48828E-18-2.16710E-19
 -1      2789 9.62713E-05-2.73688E-05-2.95319E-05-5.64751E-06 9.70725E-19-6.75933E-19
 -1      2790 9.57102E-05-2.69017E-05-2.94916E-05-6.81688E-06 1.01691E-18-2.16609E-18
 -1      2791 9.61526E-05-2.73241E-05-2.94888E-05-5.07910E-06 7.21754E-19-6.20231E-19
 -1      2792 9.58198E-05-2.72084E-05-2.94049E-05-4.53142E-06 1.22094E-19-8.68895E-19
 -1      2793 9.54465E-05-2.67809E-05-2.94304E-05-5.62959E-06 1.20002E-18-1.98009E-18
 -1      2794 1.38560E-04-5.06847E-05-3.78260E-05-9.10939E-07 6.80141E-19-1.98057E-18
 -1      2795 1.39033E-04-4.21220E-05-4.20858E-05 6.76398E-06 8.63497E-19-8.62174E-19
 -1      2796 9.45508E-05-2.78252E-05-2.85970E-05-4.73234E-07 3.83481E-19-1.00269E-18
 -1      2797 9.46304E-05-2.76405E-05-2.86925E-05-1.19804E-07 5.30902E-19-9.21533E-19
 -1      2798 9.45743E-05-2.83668E-05-2.83724E-05-1.32693E-06-8.30965E-21-4.13667E-19
 -1      2799 9.44971E-05-2.83104E-05-2.83628E-05-1.28734E-06 1.68067E-19-6.02018E-19
 -1      2800 9.46883E-05-2.84255E-05-2.83955E-05-1.37745E-06 5.15370E-19-4.18266E-19
 -1      2801 9.45894E-05-2.83891E-05-2.83707E-05-1.36202E-06 2.97609E-19-3.54918E-19
 -1      2802 9.49424E-05-2.84687E-05-2.84924E-05-1.39561E-06 2.23323E-19-6.24553E-19
 -1      2803 9.48318E-05-2.84505E-05-2.84458E-05-1.41110E-06 6.21077E-19-5.45392E-19
 -1      2804 9.47176E-05-2.84291E-05-2.84099E-05-1.39754E-06 5.15291E-19-6.55551E-19
 -1      2805 9.49913E-05-2.85046E-05-2.84971E-05-1.46553E-06 5.93991E-19-6.81827E-19
 -1      2806 9.50000E-05-2.84504E-05-2.85172E-05-1.46550E-06 5.29703E-20-1.82476E-19
 -1      2807 9.48723E-05-2.84401E-05-2.84724E-05-1.43710E-06 4.45258E-19-2.15904E-19
 -1      2808 9.50632E-05-2.84954E-05-2.85313E-05-1.52294E-06 3.43287E-19-3.37562E-19
 -1      2809 9.51932E-05-2.84322E-05-2.86070E-05-1.56960E-06-9.16376E-20-7.80686E-20
 -1      2810 9.50505E-05-2.84294E-05-2.85538E-05-1.51344E-06 3.68724E-20-1.51904E-20
 -1      2811 9.51544E-05-2.84523E-05-2.85885E-05-1.60693E-06-2.00253E-20-1.63949E-19
 -1      2812 9.54159E-05-2.84023E-05-2.87145E-05-1.74613E-06-2.47900E-20-2.55655E-19
 -1      2813 9.52539E-05-2.84033E-05-2.86525E-05-1.65208E-06 5.35117E-20-1.25734E-19
 -1      2814 9.52645E-05-2.83834E-05-2.86651E-05-1.74773E-06 1.06775E-19 2.04940E-19
 -1      2815 9.56765E-05-2.83676E-05-2.88400E-05-2.01285E-06 2.42754E-19-3.89561E-19
 -1      2816 9.54886E-05-2.83681E-05-2.87684E-05-1.87314E-06 5.18444E-20-3.08737E-19
 -1      2817 9.53958E-05-2.82958E-05-2.87590E-05-1.96912E-06 1.35047E-19-1.32087E-19
 -1      2818 9.59863E-05-2.83374E-05-2.89847E-05-2.38241E-06 5.39677E-19-4.91548E-19
 -1      2819 9.57644E-05-2.83318E-05-2.89022E-05-2.19191E-06 4.33337E-19-2.46315E-19
 -1      2820 9.55538E-05-2.81974E-05-2.88690E-05-2.28943E-06 3.68189E-19-1.85369E-20
 -1      2821 9.63604E-05-2.83251E-05-2.91494E-05-2.86095E-06 3.83695E-19-2.52067E-19
 -1      2822 9.60946E-05-2.83054E-05-2.90550E-05-2.61815E-06 2.87307E-19-5.05219E-19
 -1      2823 9.57470E-05-2.80991E-05-2.89942E-05-2.72135E-06 2.77710E-19 3.31878E-20
 -1      2824 9.68179E-05-2.83512E-05-2.93336E-05-3.44489E-06 3.70204E-19 2.37460E-19
 -1      2825 9.64968E-05-2.83057E-05-2.92270E-05-3.15388E-06 5.84019E-19 1.65624E-19
 -1      2826 9.59885E-05-2.80179E-05-2.91328E-05-3.27034E-06 2.74386E-19 8.05669E-20
 -1      2827 9.73835E-05-2.84471E-05-2.95348E-05-4.11570E-06 1.64970E-19-2.50465E-19
 -1      2828 9.69942E-05-2.83585E-05-2.94169E-05-3.78924E-06 5.23377E-19 1.74394E-19
 -1      2829 9.62980E-05-2.79808E-05-2.92819E-05-3.93138E-06 4.34935E-19 2.22781E-19
 -1      2830 9.80912E-05-2.86603E-05-2.97476E-05-4.83206E-06 1.59249E-19-8.31807E-19
 -1      2831 9.76184E-05-2.85035E-05-2.96211E-05-4.49607E-06 3.77902E-20-6.45409E-19
 -1      2832 9.67060E-05-2.80309E-05-2.94363E-05-4.68366E-06 5.37714E-19-5.03725E-20
 -1      2833 9.89878E-05-2.90602E-05-2.99628E-05-5.51907E-06 1.00784E-19-9.89033E-19
 -1      2834 9.84138E-05-2.88000E-05-2.98325E-05-5.21852E-06 8.05660E-20-9.09760E-19
 -1      2835 9.72597E-05-2.82339E-05-2.95884E-05-5.48285E-06 1.11072E-19-3.91991E-19
 -1      2836 1.00138E-04-2.97404E-05-3.01688E-05-6.05497E-06 6.37929E-19-7.11686E-19
 -1      2837 9.94424E-05-2.93317E-05-3.00416E-05-5.86054E-06 3.37752E-19-1.07229E-18
 -1      2838 9.80319E-05-2.86858E-05-2.97287E-05-6.25021E-06 4.36219E-19-3.78837E-19
 -1      2839 1.01626E-04-3.08130E-05-3.03542E-05-6.25701E-06-2.01307E-19-2.03345E-19
 -1      2840 1.00789E-04-3.02066E-05-3.02375E-05-6.27061E-06 2.99268E-19-5.08018E-19
 -1      2841 9.91299E-05-2.95153E-05-2.98488E-05-6.85830E-06 1.43342E-19-9.29520E-19
 -1      2842 1.03540E-04-3.23777E-05-3.05153E-05-5.87228E-06-2.36512E-19-2.37438E-19
 -1      2843 1.02553E-04-3.15403E-05-3.04135E-05-6.22670E-06-3.74548E-19 1.87274E-19
 -1      2844 1.00699E-04-3.08729E-05-2.99469E-05-7.11321E-06-3.58840E-19 6.99001E-20
 -1      2845 1.05929E-04-3.44446E-05-3.06685E-05-4.58736E-06-3.25122E-19-4.08714E-19
 -1      2846 1.04825E-04-3.34054E-05-3.05774E-05-5.43021E-06-2.14393E-20-2.00540E-19
 -1      2847 1.02904E-04-3.28844E-05-3.00394E-05-6.73654E-06-3.63439E-19 3.80018E-19
 -1      2848 1.07181E-04-3.40301E-05-3.09101E-05-1.42308E-07-9.21863E-19-1.10538E-18
 -1      2849 1.07595E-04-3.57160E-05-3.07658E-05-3.53447E-06-2.56251E-19 4.01596E-21
 -1      2850 1.05862E-04-3.55366E-05-3.01775E-05-5.36158E-06-1.35446E-19 2.32681E-19
 -1      2851 1.09047E-04-3.23285E-05-3.26115E-05 7.62803E-06-1.38463E-18-2.26572E-18
 -1      2852 1.07535E-04-3.17576E-05-3.16992E-05 4.41315E-06-1.32831E-18-2.40123E-18
 -1      2853 1.05494E-04-3.26510E-05-3.09498E-05 1.46543E-06-1.77531E-18-2.29530E-18
 -1      2854 1.12371E-04-3.40663E-05-3.35897E-05 1.27903E-05-2.00225E-18-1.59384E-18
 -1      2855 1.11214E-04-3.34650E-05-3.32003E-05 1.05688E-05-1.86138E-18-1.61029E-18
 -1      2856 1.09640E-04-3.44115E-05-3.21753E-05 7.24643E-06-1.82348E-18-1.64316E-18
 -1      2857 1.13378E-04-3.32369E-05-3.43806E-05 1.58858E-05-1.20112E-18-9.89705E-19
 -1      2858 1.13725E-04-3.42552E-05-3.41553E-05 1.50689E-05-1.75708E-18-8.62591E-19
 -1      2859 1.13288E-04-3.51652E-05-3.34559E-05 1.28972E-05-2.08412E-18-6.88347E-20
 -1      2860 1.11508E-04-2.90100E-05-3.53396E-05 1.56814E-05-6.69262E-19 2.11917E-19
 -1      2861 1.13010E-04-3.15273E-05-3.50760E-05 1.66596E-05-6.87414E-19-6.03643E-19
 -1      2862 1.14285E-04-3.27010E-05-3.49331E-05 1.66822E-05-1.32837E-18-1.87467E-19
 -1      2863 1.08248E-04-2.37564E-05-3.61979E-05 1.08262E-05-1.73185E-18 1.31778E-18
 -1      2864 1.09889E-04-2.61852E-05-3.60095E-05 1.39045E-05-9.79713E-19 8.53740E-19
 -1      2865 1.12287E-04-2.70008E-05-3.65917E-05 1.58586E-05-1.36829E-18 7.49320E-19
 -1      2866 1.06811E-04-2.19052E-05-3.64216E-05 2.27058E-06-1.73778E-18 1.60263E-18
 -1      2867 1.07246E-04-2.22480E-05-3.64803E-05 6.35412E-06-1.61731E-18 1.30791E-18
 -1      2868 1.09144E-04-2.12240E-05-3.77974E-05 9.26502E-06-1.71367E-18 1.69911E-18
 -1      2869 1.08363E-04-2.51914E-05-3.57839E-05-6.03567E-06-2.19457E-18 9.85966E-19
 -1      2870 1.07306E-04-2.29616E-05-3.61543E-05-2.64273E-06-2.13767E-18 1.09685E-18
 -1      2871 1.08581E-04-2.03656E-05-3.79094E-05-2.81650E-07-1.64301E-18 1.21589E-18
 -1      2872 1.11667E-04-3.16098E-05-3.44514E-05-9.68356E-06-4.22185E-20 7.46494E-19
 -1      2873 1.10204E-04-2.84431E-05-3.49825E-05-8.51972E-06-1.43776E-18 2.95469E-19
 -1      2874 1.11457E-04-2.60531E-05-3.66395E-05-8.17357E-06-1.49769E-18 1.76315E-19
 -1      2875 1.13782E-04-3.68039E-05-3.30684E-05-8.23257E-06 7.42341E-19 1.71283E-18
 -1      2876 1.12942E-04-3.45601E-05-3.35499E-05-9.14805E-06 8.69125E-19 1.80510E-18
 -1      2877 1.14770E-04-3.39984E-05-3.46130E-05-9.96252E-06-4.12346E-19-1.57958E-19
 -1      2878 1.13458E-04-3.88336E-05-3.19872E-05-4.12355E-06 1.73510E-18 1.66385E-18
 -1      2879 1.13500E-04-3.80851E-05-3.23371E-05-6.04697E-06 1.49018E-18 2.28729E-18
 -1      2880 1.15594E-04-3.88950E-05-3.28361E-05-6.76216E-06 9.39685E-19 5.63734E-19
 -1      2881 1.11192E-04-3.81090E-05-3.12910E-05 3.05635E-07 1.77243E-18 4.02892E-19
 -1      2882 1.11963E-04-3.85473E-05-3.15137E-05-1.64137E-06 2.12790E-18 1.52844E-18
 -1      2883 1.13727E-04-4.02507E-05-3.14931E-05-1.70927E-06 1.82146E-18 1.05746E-18
 -1      2884 1.08180E-04-3.60452E-05-3.08771E-05 3.69863E-06 3.05259E-19 1.43156E-18
 -1      2885 1.09304E-04-3.70209E-05-3.10258E-05 2.20929E-06 5.81564E-19 1.24219E-18
 -1      2886 1.10235E-04-3.86690E-05-3.07025E-05 2.71230E-06 8.18014E-19 1.08143E-18
 -1      2887 1.05263E-04-3.37598E-05-3.06122E-05 5.77509E-06-5.05825E-20 7.04784E-19
 -1      2888 1.06438E-04-3.48024E-05-3.07339E-05 4.85419E-06 3.90280E-19 1.61248E-18
 -1      2889 1.06551E-04-3.59658E-05-3.02890E-05 5.66889E-06 3.05577E-19 1.39410E-18
 -1      2890 1.02799E-04-3.18082E-05-3.04025E-05 6.72603E-06 2.65453E-19-3.29177E-21
 -1      2891 1.03873E-04-3.26931E-05-3.05239E-05 6.30229E-06-5.72679E-19 1.23465E-20
 -1      2892 1.03405E-04-3.33027E-05-3.00770E-05 7.22805E-06 3.69460E-19 1.33198E-18
 -1      2893 1.00854E-04-3.03566E-05-3.01998E-05 6.87237E-06 7.05612E-19-1.45370E-19
 -1      2894 1.01778E-04-3.10231E-05-3.03298E-05 6.81171E-06 7.20907E-19 2.43072E-19
 -1      2895 1.00999E-04-3.11793E-05-2.99467E-05 7.73271E-06 5.86380E-19 8.79231E-19
 -1      2896 9.93525E-05-2.93581E-05-2.99903E-05 6.50881E-06 7.28360E-19-6.50089E-19
 -1      2897 1.00128E-04-2.98305E-05-3.01261E-05 6.68440E-06 6.80828E-19-6.85262E-19
 -1      2898 9.92599E-05-2.96870E-05-2.98332E-05 7.54998E-06 1.23072E-18-1.51400E-19
 -1      2899 9.81897E-05-2.86956E-05-2.97794E-05 5.85111E-06 1.65849E-18-1.42790E-18
 -1      2900 9.88360E-05-2.90249E-05-2.99132E-05 6.16631E-06 1.20567E-18-1.22943E-18
 -1      2901 9.80242E-05-2.87172E-05-2.97137E-05 6.95941E-06 1.36443E-18-2.06241E-18
 -1      2902 9.72728E-05-2.82470E-05-2.95798E-05 5.03799E-06 2.66833E-18-7.82569E-19
 -1      2903 9.78110E-05-2.84851E-05-2.97032E-05 5.42979E-06 2.14740E-18 2.10480E-19
 -1      2904 9.71339E-05-2.81109E-05-2.95884E-05 6.14844E-06 1.29224E-18-2.05080E-18
 -1      2905 9.65366E-05-2.79163E-05-2.94032E-05 4.14377E-06 7.12291E-19 1.25516E-18
 -1      2906 9.69785E-05-2.81018E-05-2.95098E-05 4.57573E-06 1.55675E-18 4.56530E-19
 -1      2907 9.64607E-05-2.77183E-05-2.94663E-05 5.22959E-06 1.54997E-18-6.53038E-20
 -1      2908 9.58839E-05-2.75683E-05-2.92711E-05 3.36945E-06 8.60139E-19 3.08197E-18
 -1      2909 9.62462E-05-2.77257E-05-2.93563E-05 3.83964E-06 9.25384E-19 1.67103E-18
 -1      2910 9.58621E-05-2.73659E-05-2.93659E-05 4.41398E-06 6.53710E-19 2.35636E-18
 -1      2911 9.53543E-05-2.69933E-05-2.93082E-05 3.72041E-06 6.21329E-19 2.23729E-18
 -1      2912 9.19380E-05-2.34197E-05-2.93749E-05 5.57810E-07-2.29035E-19 8.70821E-19
 -1      2913 9.20521E-05-2.35318E-05-2.93688E-05 1.20792E-06-4.94088E-19 7.62216E-19
 -1      2914 9.57609E-05-2.71838E-05-2.93813E-05-4.15728E-06-8.73023E-20-6.49141E-19
 -1      2915 9.55611E-05-2.71156E-05-2.93317E-05-3.78086E-06-4.36270E-19-2.40908E-19
 -1      2916 9.52688E-05-2.67196E-05-2.93816E-05-4.66284E-06 3.35324E-19-3.34640E-18
 -1      2917 9.28594E-05-2.43813E-05-2.93613E-05 2.99148E-06-3.58313E-19 1.69809E-18
 -1      2918 9.32325E-05-2.47571E-05-2.93410E-05 3.36885E-06 7.82141E-19 7.49931E-19
 -1      2919 9.19528E-05-2.34279E-05-2.93735E-05-8.82319E-07 1.98704E-19-1.35843E-18
 -1      2920 9.19009E-05-2.33745E-05-2.93760E-05-2.13617E-07 1.56627E-19 3.31338E-19
 -1      2921 9.14679E-05-2.32663E-05-2.92173E-05 2.06731E-07-2.37146E-20 1.10572E-18
 -1      2922 9.22568E-05-2.37544E-05-2.93707E-05 1.90586E-06-1.93624E-18 7.24611E-19
 -1      2923 9.25179E-05-2.40147E-05-2.93566E-05 2.45341E-06-1.33878E-18 2.49276E-18
 -1      2924 9.23810E-05-2.41406E-05-2.92384E-05 3.03210E-06-9.85007E-19 8.77685E-19
 -1      2925 9.17490E-05-2.35401E-05-2.92220E-05 1.74213E-06-8.92385E-19 1.78652E-18
 -1      2926 3.79468E-05-1.57738E-05-9.04191E-06-2.10175E-05 3.21925E-19 7.45601E-19
 -1      2927 4.90637E-05-2.28247E-05-1.09699E-05-3.17483E-05 6.55180E-19 1.71101E-19
 -1      2928 9.23014E-05-2.37774E-05-2.93680E-05-2.20325E-06 5.24120E-19-4.37806E-18
 -1      2929 9.20899E-05-2.35674E-05-2.93781E-05-1.61432E-06 1.84088E-19-2.84146E-18
 -1      2930 9.15843E-05-2.33628E-05-2.92258E-05-1.36545E-06 1.22272E-19-2.75389E-18
 -1      2931 9.29620E-05-2.44451E-05-2.93603E-05-3.27049E-06 4.32795E-19-1.63208E-18
 -1      2932 9.26048E-05-2.40917E-05-2.93764E-05-2.82271E-06 4.65857E-19-3.29949E-18
 -1      2933 9.20914E-05-2.38232E-05-2.92477E-05-2.78053E-06 1.20268E-19-3.56864E-18
 -1      2934 9.38522E-05-2.53555E-05-2.93524E-05-3.90306E-06 1.15226E-18-4.42044E-19
 -1      2935 9.34043E-05-2.48982E-05-2.93724E-05-3.68225E-06 1.70777E-18-7.57941E-19
 -1      2936 9.29406E-05-2.46002E-05-2.92828E-05-3.85946E-06 7.42152E-19-9.46753E-19
 -1      2937 9.47141E-05-2.73953E-05-2.88528E-05 3.77680E-07 6.34547E-19-9.30560E-19
 -1      2938 9.48877E-05-2.71052E-05-2.90231E-05 9.86730E-07 6.98157E-19-8.27608E-19
 -1      2939 9.52485E-05-2.64837E-05-2.94751E-05 1.73042E-06 8.82993E-19-1.13156E-18
 -1      2940 9.51273E-05-2.73526E-05-2.90540E-05 3.55965E-07 6.41373E-19-1.12409E-18
 -1      2941 8.62430E-05-4.22800E-05-1.88013E-05 3.66880E-05-1.39464E-18-3.22211E-18
 -1      2942 6.87247E-05-3.20970E-05-1.51194E-05 3.53100E-05-1.83579E-18 3.94717E-19
 -1      2943 9.20405E-05-1.66575E-05-3.23145E-05-9.03320E-06-1.53235E-18-1.31427E-18
 -1      2944 6.35058E-05-3.07518E-05-1.34505E-05-3.65280E-05 2.83121E-19-1.07467E-19
 -1      2945 7.97865E-05-3.96349E-05-1.71313E-05-3.86367E-05 1.07838E-18-1.16938E-18
 -1      2946 1.30512E-04-5.69871E-05-3.13436E-05-1.56092E-05 6.22887E-19-1.03910E-18
 -1      2947 1.36714E-04-5.57295E-05-3.52008E-05-8.49129E-06 2.91856E-19-2.69134E-18
 -1      2948 1.35922E-04-5.16358E-05-3.61546E-05 2.63266E-07 5.05917E-19-1.73504E-18
 -1      2949 1.30080E-04-3.42192E-05-4.12171E-05 1.01740E-05-4.95885E-19 6.71379E-19
 -1      2950 1.28467E-04-2.55112E-05-4.48633E-05 1.30941E-05 4.26905E-19 3.55754E-19
 -1      2951 9.45009E-05-2.82622E-05-2.83863E-05-1.20939E-06 2.02255E-19-7.60575E-19
 -1      2952 9.44573E-05-2.81787E-05-2.83989E-05-1.11498E-06 2.20545E-19-8.58620E-19
 -1      2953 9.49235E-05-2.83717E-05-2.85272E-05-1.26155E-06 1.36021E-19-6.67233E-19
 -1      2954 9.44856E-05-2.80925E-05-2.84533E-05-9.56355E-07 2.46890E-19-8.77521E-19
 -1      2955 9.44933E-05-2.79701E-05-2.84989E-05-7.63631E-07 3.07503E-19-8.75531E-19
 -1      2956 9.49438E-05-2.81879E-05-2.86164E-05-9.93967E-07 2.00895E-19-8.13048E-19
 -1      2957 9.52599E-05-2.40939E-05-3.04819E-05-5.16810E-06-1.21918E-18-7.42880E-19
 -1      2958 9.51677E-05-2.50723E-05-3.00590E-05-3.67759E-06-1.06566E-18-6.83636E-19
 -1      2959 9.52264E-05-2.47537E-05-3.01950E-05-3.43096E-06-9.64501E-19-7.17975E-19
 -1      2960 9.45866E-05-2.23678E-05-3.09442E-05-5.70089E-06-1.28092E-18-9.67431E-19
 -1      2961 3.66243E-05-1.41142E-05-9.12036E-06-2.96880E-05-1.20681E-18-4.85075E-18
 -1      2962 4.81721E-05-2.08293E-05-1.13962E-05-3.51650E-05-1.21856E-18-4.23644E-18
 -1      2963 1.40162E-04-3.01599E-05-4.78443E-05-1.60493E-05-3.56696E-18 3.26108E-19
 -1      2964 1.43541E-04-4.04481E-05-4.43170E-05-1.65312E-05-2.88881E-18-4.01070E-19
 -1      2965 9.12047E-05-1.60889E-05-3.22205E-05 4.92175E-06 7.98883E-19-1.81705E-18
 -1      2966 9.08672E-05-1.55909E-05-3.22831E-05 3.99861E-06 5.57479E-19-1.94900E-18
 -1      2967 9.18466E-05-1.71978E-05-3.19768E-05 3.19981E-06 5.17375E-19-1.88274E-18
 -1      2968 9.25077E-05-1.82585E-05-3.18008E-05 4.61830E-06 7.83810E-19-1.63569E-18
 -1      2969 1.24403E-04-4.67457E-05-3.33836E-05-4.80598E-06-2.08135E-18 6.25110E-19
 -1      2970 1.28932E-04-4.27410E-05-3.74587E-05 3.03591E-06-1.36513E-18 1.16118E-18
 -1      2971 9.08313E-05-1.55416E-05-3.22883E-05-3.93459E-06-7.27111E-19-2.00219E-18
 -1      2972 9.11615E-05-1.60271E-05-3.22272E-05-4.85814E-06-9.19451E-19-1.87984E-18
 -1      2973 1.22598E-04-8.85389E-06-4.92566E-05 2.75422E-06-5.14784E-19-2.02121E-18
 -1      2974 1.23536E-04-1.08563E-05-4.87611E-05-3.59380E-06-8.51056E-19-2.30679E-18
 -1      2975 9.51304E-05-2.66606E-05-2.93426E-05-3.90392E-06 1.73529E-20-2.40016E-18
 -1      2976 3.39621E-05-1.26351E-05-8.68870E-06 1.11156E-05 6.67885E-19-1.36076E-18
 -1      2977 2.41030E-05-6.24034E-06-7.12752E-06 4.28192E-08 4.79818E-19-1.93293E-18
 -1      2978 1.25328E-04-1.64696E-05-4.69957E-05 1.28053E-05 2.69674E-19-6.98379E-19
 -1      2979 1.23058E-04-1.15044E-05-4.84850E-05 8.76721E-06-3.46860E-19-1.95993E-18
 -1      2980 2.09341E-05-5.00738E-06-6.40800E-06-9.92315E-06-4.93132E-19-3.21534E-18
 -1      2981 2.61325E-05-7.70339E-06-7.49738E-06-2.19653E-05-3.36801E-19-4.27222E-18
 -1      2982 1.30659E-04-1.55027E-05-5.00368E-05-9.43128E-06-3.54992E-18 8.00711E-19
 -1      2983 1.35514E-04-2.13745E-05-4.93596E-05-1.45705E-05-3.43006E-18 2.04876E-19
 -1      2984 6.72675E-05-3.44540E-05-1.36628E-05 2.16296E-05 1.43329E-18 3.72165E-19
 -1      2985 4.97182E-05-2.36298E-05-1.07136E-05 1.72523E-05 1.47029E-18-5.36172E-19
 -1      2986 1.37569E-04-6.53813E-05-3.13567E-05 5.84679E-06-6.88108E-19-4.66292E-19
 -1      2987 1.26432E-04-6.37824E-05-2.67747E-05 1.24402E-05-4.60468E-19 6.41680E-19
 -1      2988 3.35537E-05-1.10691E-05-9.25064E-06 7.31000E-06-1.76490E-18-7.13625E-20
 -1      2989 3.35091E-05-1.13567E-05-8.92688E-06-8.92616E-06-7.59312E-19 3.56601E-19
 -1      2990 1.34862E-04-3.70216E-05-4.25428E-05-5.75838E-06 4.42045E-20-3.38030E-18
 -1      2991 1.34543E-04-4.58594E-05-3.80199E-05-6.29008E-07 6.69844E-19-3.37903E-18
 -1      2992 1.29058E-04-3.32565E-05-4.13162E-05-9.28927E-06 3.20231E-19-1.92181E-18
 -1      2993 1.31212E-04-5.36093E-05-3.37381E-05 1.00331E-05 1.36092E-18-4.02981E-18
 -1      2994 1.25820E-04-5.56901E-05-2.99408E-05 1.70928E-05 1.05604E-18-3.64192E-18
 -1      2995 1.21241E-04-5.47980E-05-2.83508E-05 1.82712E-05 1.66760E-18-3.37826E-18
 -1      2996 1.46346E-04-5.37356E-05-4.04904E-05-1.05492E-05-1.53149E-18-1.27288E-18
 -1      2997 1.44131E-04-6.11403E-05-3.54746E-05-3.05160E-06-9.73386E-19-1.19114E-18
 -1      2998 9.46910E-05-2.19011E-05-3.12023E-05 7.85499E-06 1.54094E-18-1.05896E-18
 -1      2999 9.15816E-05-1.66693E-05-3.21246E-05-5.58644E-06-9.73058E-19-1.72657E-18
 -1      3000 9.20523E-05-1.73706E-05-3.20304E-05-6.41896E-06-1.15075E-18-1.55094E-18
 -1      3001 9.24535E-05-1.81809E-05-3.18102E-05-4.58000E-06-9.37434E-19-1.66239E-18
 -1      3002 9.13283E-05-1.63869E-05-3.21054E-05 2.86166E-08-1.00550E-19-1.92612E-18
 -1      3003 9.02068E-05-1.46022E-05-3.24214E-05-3.83098E-07-2.10237E-19-2.13594E-18
 -1      3004 9.02626E-05-1.46825E-05-3.24111E-05-1.34111E-06-3.47547E-19-2.16471E-18
 -1      3005 1.24363E-04-5.59517E-05-2.92558E-05-1.80306E-05 5.58406E-19-1.20745E-18
 -1      3006 1.06762E-04-4.94580E-05-2.47635E-05 2.56277E-05-8.09155E-19-2.51021E-18
 -1      3007 9.79763E-05-4.67575E-05-2.16633E-05 3.21552E-05-1.02396E-18-3.18368E-18
 -1      3008 9.11142E-05-4.07085E-05-2.14211E-05 3.09634E-05-1.11586E-18-2.87597E-18
 -1      3009 4.40363E-05-1.31181E-05-1.26788E-05 1.14904E-05-1.66183E-18 1.54266E-19
 -1      3010 1.41548E-04-6.36413E-05-3.33068E-05-2.42282E-06-2.64433E-20-4.70844E-19
 -1      3011 8.08522E-05-4.10511E-05-1.65710E-05 1.91805E-05 1.89121E-18 9.93517E-19
 -1      3012 7.60504E-05-3.52085E-05-1.69970E-05 1.47016E-05 2.76037E-18 1.34668E-18
 -1      3013 9.41896E-05-4.73309E-05-1.98862E-05 1.53256E-05 2.27624E-18 2.10276E-18
 -1      3014 9.35064E-05-4.49191E-05-2.04889E-05-3.53010E-05 8.68844E-19 1.83833E-19
 -1      3015 1.03889E-04-4.80146E-05-2.38629E-05-2.86268E-05 7.19025E-19 5.45913E-19
 -1      3016 8.63826E-05-3.89811E-05-2.00390E-05-3.36851E-05-1.25996E-20-1.46060E-19
 -1      3017 1.28272E-04-1.40528E-05-4.96857E-05-4.72351E-06-3.29432E-18 1.37431E-18
 -1      3018 1.24656E-04-1.73059E-05-4.64954E-05-7.80709E-06-3.66554E-18 1.07841E-18
 -1      3019 1.26459E-04-3.83246E-05-3.78999E-05 9.73500E-06-1.83700E-18 9.99393E-19
 -1      3020 5.64723E-05-2.22090E-05-1.43201E-05-3.22255E-05-1.96755E-18-2.13489E-18
 -1      3021 5.96419E-05-2.61038E-05-1.38938E-05-3.52511E-05-2.07089E-18-1.96485E-18
 -1      3022 7.12433E-05-3.14451E-05-1.69625E-05-3.38938E-05-2.87785E-18-4.81697E-19
 -1      3023 1.35967E-04-4.16561E-05-4.09824E-05-1.75227E-05-2.18021E-18 1.82149E-18
 -1      3024 1.28703E-04-3.50546E-05-4.04518E-05-1.70053E-05-2.13198E-18 1.79444E-18
 -1      3025 1.20555E-04-2.16022E-05-4.27525E-05-1.05975E-05-3.37087E-18 9.14822E-19
 -1      3026 1.23594E-04-2.76504E-05-4.15782E-05-1.40383E-05-2.73809E-18 1.59078E-18
 -1      3027 1.32534E-04-2.88515E-05-4.48893E-05 1.16291E-05-2.22876E-19 1.09617E-18
 -1      3028 1.23029E-04-3.29722E-05-3.87340E-05 1.26084E-05 1.16467E-19 7.14340E-19
 -1      3029 9.32703E-05-2.49789E-05-2.92641E-05 3.92174E-06 8.40847E-19 4.06342E-19
 -1      3030 9.36658E-05-2.52166E-05-2.93477E-05 3.68617E-06 1.87166E-19 3.31341E-19
 -1      3031 9.41030E-05-2.56653E-05-2.93242E-05 3.84703E-06-2.04465E-19 1.85301E-18
 -1      3032 1.25405E-04-3.89151E-05-3.73266E-05 1.20981E-05 7.23340E-19 1.38549E-18
 -1      3033 1.33309E-04-4.23448E-05-3.91097E-05 8.73874E-06 1.08362E-18 1.85813E-18
 -1      3034 1.36669E-04-3.80409E-05-4.28217E-05 1.05668E-05 8.23634E-19 8.43857E-19
 -1      3035 1.22837E-04-2.23398E-05-4.33985E-05 1.43023E-05-7.33107E-19 6.11981E-20
 -1      3036 2.87928E-05-5.26705E-06-9.45206E-06-5.46452E-06 3.18855E-19-2.58387E-18
 -1      3037 1.28008E-04-1.55400E-05-4.86791E-05 2.68437E-06-2.75582E-18 1.16192E-18
 -1      3038 6.57480E-05-2.70406E-05-1.60893E-05 2.99533E-05-2.34554E-18 6.75244E-19
 -1      3039 9.50140E-05-2.78761E-05-2.87818E-05-4.97959E-07 3.95159E-19-9.87941E-19
 -1      3040 4.29889E-05-1.36603E-05-1.19873E-05-1.37224E-05-1.01030E-18 5.75982E-19
 -1      3041 9.45050E-05-2.60873E-05-2.93321E-05 3.90099E-06-1.86672E-19 1.18268E-18
 -1      3042 9.49590E-05-2.65642E-05-2.93056E-05 3.83814E-06 1.43980E-20 1.30206E-18
 -1      3043 9.51743E-05-2.67373E-05-2.93209E-05 4.22122E-06-1.22470E-19 1.40980E-18
 -1      3044 9.42477E-05-2.58780E-05-2.92960E-05 4.29491E-06-3.84983E-19 1.08989E-18
 -1      3045 1.18397E-04-1.19346E-05-4.60798E-05 6.14197E-06-6.81650E-19-9.08946E-19
 -1      3046 1.21169E-04-4.82874E-05-3.13170E-05-9.02656E-06-2.70653E-18 1.12761E-19
 -1      3047 1.21859E-04-4.60894E-05-3.25347E-05-2.59371E-08-2.99106E-18 1.98873E-18
 -1      3048 1.14875E-04-4.75443E-05-2.88478E-05-1.27753E-05-3.87618E-18-3.68089E-19
 -1      3049 9.46702E-05-2.61506E-05-2.93652E-05-3.93728E-06 1.42345E-18-1.35229E-18
 -1      3050 9.28277E-05-1.84291E-05-3.18832E-05-7.47886E-06-1.34884E-18-1.32647E-18
 -1      3051 1.20901E-04-6.25745E-05-2.48738E-05 1.39276E-05 4.51998E-19 1.03222E-18
 -1      3052 1.12415E-04-5.74629E-05-2.32737E-05 1.40279E-05 1.40703E-18 1.61775E-18
 -1      3053 1.28907E-04-6.48159E-05-2.77699E-05 6.91926E-06 1.23079E-18 5.29131E-19
 -1      3054 1.28763E-04-4.35379E-05-3.66939E-05 8.98329E-06 5.81885E-19 2.30893E-18
 -1      3055 9.47865E-05-4.32909E-05-2.18363E-05-3.08639E-05-3.54790E-18-1.02101E-18
 -1      3056 1.03171E-04-4.58781E-05-2.46617E-05-2.31687E-05-3.93505E-18-1.54535E-18
 -1      3057 8.71157E-05-3.90505E-05-2.02622E-05-3.14031E-05-3.82774E-18-5.20899E-19
 -1      3058 6.12889E-05-2.62417E-05-1.44743E-05-3.17443E-05 5.38025E-19 2.86827E-19
 -1      3059 3.55399E-05-1.02995E-05-1.02658E-05-2.39345E-05-7.81864E-19-4.04172E-18
 -1      3060 1.21493E-04-1.65646E-05-4.53822E-05-6.06969E-06-7.55342E-19-1.46913E-18
 -1      3061 1.32817E-04-2.76155E-05-4.54512E-05-1.61210E-05-3.25758E-18 1.20639E-18
 -1      3062 9.03864E-05-1.48739E-05-3.23827E-05-2.17812E-06-4.17463E-19-1.99244E-18
 -1      3063 9.05687E-05-1.51377E-05-3.23494E-05-3.12943E-06-5.97564E-19-2.01030E-18
 -1      3064 9.18155E-05-1.71549E-05-3.19821E-05-3.14321E-06-5.98082E-19-1.88372E-18
 -1      3065 9.14451E-05-1.65705E-05-3.20760E-05-1.58273E-06-3.94725E-19-2.01964E-18
 -1      3066 1.42642E-04-4.78755E-05-4.08148E-05-1.49444E-05-1.71355E-18 1.22396E-19
 -1      3067 4.67680E-05-1.73221E-05-1.20358E-05 1.06940E-05 2.25787E-18 2.95932E-19
 -1      3068 9.47411E-05-2.62720E-05-2.93460E-05-4.53579E-06 5.93666E-19-2.52211E-18
 -1      3069 9.42197E-05-2.57339E-05-2.93542E-05-4.18230E-06 1.45765E-18-8.70324E-19
 -1      3070 9.38827E-05-2.54697E-05-2.93144E-05-4.53355E-06 1.33214E-18-3.47296E-19
 -1      3071 9.48242E-05-2.62936E-05-2.93628E-05-4.92428E-06 6.97800E-19-2.92707E-18
 -1      3072 9.43480E-05-2.14192E-05-3.12595E-05 7.22695E-06 1.40044E-18-1.29247E-18
 -1      3073 9.46120E-05-2.24602E-05-3.09147E-05 5.70068E-06 1.19862E-18-1.25736E-18
 -1      3074 1.30899E-04-4.95423E-05-3.49453E-05 2.44663E-06 1.52438E-18-2.50002E-18
 -1      3075 1.23336E-04-2.93204E-05-4.07589E-05-1.07951E-05 7.41154E-21-1.34726E-18
 -1      3076 1.27095E-04-3.72313E-05-3.85305E-05-9.45289E-06 5.01602E-19-1.70296E-18
 -1      3077 9.42847E-05-2.18448E-05-3.10674E-05 4.97974E-06 1.11118E-18-1.30710E-18
 -1      3078 9.38352E-05-2.09040E-05-3.12563E-05 4.62952E-06 9.54428E-19-1.43412E-18
 -1      3079 7.50344E-05-3.04499E-05-1.90849E-05 2.98600E-05-2.28704E-18-2.16258E-19
 -1      3080 6.13343E-05-2.11809E-05-1.67301E-05 2.47081E-05-2.31282E-18 1.31671E-18
 -1      3081 1.23088E-04-4.05834E-05-3.54089E-05 8.89539E-06-2.19832E-18 8.35148E-19
 -1      3082 1.22998E-04-3.40589E-05-3.86173E-05 1.41229E-05-1.58633E-18 2.35713E-19
 -1      3083 1.42661E-04-6.26361E-05-3.49251E-05-6.87818E-06 5.96033E-20 2.36772E-19
 -1      3084 1.39430E-04-6.52701E-05-3.14909E-05-1.03548E-06 5.10073E-19-2.91909E-19
 -1      3085 1.23093E-04-5.39988E-05-2.99394E-05 1.28994E-05 1.70923E-18-3.90698E-18
 -1      3086 1.17630E-04-5.27362E-05-2.75584E-05 1.83342E-05 6.00454E-19-3.21996E-18
 -1      3087 1.40589E-04-5.23520E-05-3.78797E-05-1.40340E-05-6.09864E-19 1.18431E-18
 -1      3088 9.56883E-05-2.68462E-05-2.94896E-05-7.16725E-07-7.92412E-19-8.99552E-19
 -1      3089 9.56662E-05-2.72852E-05-2.93139E-05-1.78398E-07-7.01076E-19-1.06943E-18
 -1      3090 9.57079E-05-2.76585E-05-2.91531E-05 2.17685E-07-7.87412E-19-1.03853E-18
 -1      3091 9.56731E-05-2.79322E-05-2.90359E-05 5.52744E-07-7.78920E-19-1.15447E-18
 -1      3092 9.59055E-05-2.72718E-05-2.94177E-05-1.10566E-07-7.77855E-19-1.16042E-18
 -1      3093 9.56614E-05-2.81535E-05-2.89245E-05 7.98137E-07-5.69435E-19-1.09002E-18
 -1      3094 9.56322E-05-2.83171E-05-2.88508E-05 9.95164E-07-4.63320E-19-1.02440E-18
 -1      3095 9.59402E-05-2.79623E-05-2.91371E-05 5.65162E-07-6.26903E-19-1.06308E-18
 -1      3096 9.55937E-05-2.84355E-05-2.87775E-05 1.13817E-06-3.77012E-19-1.05030E-18
 -1      3097 9.55747E-05-2.85229E-05-2.87361E-05 1.24852E-06-4.14765E-19-9.39387E-19
 -1      3098 9.58957E-05-2.83670E-05-2.89444E-05 9.81790E-07-4.52368E-19-1.05850E-18
 -1      3099 9.55230E-05-2.85693E-05-2.86922E-05 1.32934E-06-3.17803E-19-7.22879E-19
 -1      3100 9.55138E-05-2.86022E-05-2.86748E-05 1.39232E-06-2.13357E-19-5.69950E-19
 -1      3101 9.58108E-05-2.85715E-05-2.88199E-05 1.22796E-06-1.85991E-19-6.88317E-19
 -1      3102 9.54554E-05-2.85965E-05-2.86534E-05 1.44291E-06-2.09236E-19-1.20479E-19
 -1      3103 9.54544E-05-2.85888E-05-2.86541E-05 1.48846E-06 2.43564E-20 2.30606E-19
 -1      3104 9.57051E-05-2.86321E-05-2.87480E-05 1.37674E-06 1.52117E-19-3.65048E-19
 -1      3105 9.53914E-05-2.85435E-05-2.86500E-05 1.53385E-06-1.15687E-19 2.75546E-19
 -1      3106 9.53966E-05-2.85042E-05-2.86649E-05 1.58500E-06-2.09385E-19 1.89800E-19
 -1      3107 9.55870E-05-2.85857E-05-2.87167E-05 1.48607E-06-1.39578E-20 2.16428E-19
 -1      3108 9.53286E-05-2.84270E-05-2.86742E-05 1.64493E-06-2.82656E-19 1.22599E-19
 -1      3109 9.53387E-05-2.83618E-05-2.87004E-05 1.71985E-06 5.73200E-21 6.44288E-21
 -1      3110 9.54586E-05-2.84557E-05-2.87168E-05 1.60155E-06-2.12823E-19 1.88915E-19
 -1      3111 9.52635E-05-2.82569E-05-2.87202E-05 1.81025E-06 1.65537E-19-1.62745E-19
 -1      3112 9.52772E-05-2.81696E-05-2.87558E-05 1.92366E-06 8.12010E-21-1.77583E-19
 -1      3113 9.53174E-05-2.82565E-05-2.87411E-05 1.75946E-06-2.70069E-20-2.07397E-19
 -1      3114 9.51915E-05-2.80394E-05-2.87836E-05 2.05772E-06-2.49437E-19-3.91644E-19
 -1      3115 9.52082E-05-2.79325E-05-2.88272E-05 2.22186E-06-5.31832E-19-4.31202E-19
 -1      3116 9.51582E-05-2.79966E-05-2.87836E-05 1.98921E-06-3.02992E-19-7.12802E-19
 -1      3117 9.51077E-05-2.77785E-05-2.88605E-05 2.41071E-06-7.71197E-19-3.00993E-19
 -1      3118 9.51271E-05-2.76548E-05-2.89108E-05 2.63577E-06-1.09379E-18-3.50077E-19
 -1      3119 9.49738E-05-2.76809E-05-2.88391E-05 2.31516E-06-7.98165E-19-3.92798E-19
 -1      3120 9.50072E-05-2.74787E-05-2.89469E-05 2.88894E-06-1.10363E-18-2.31584E-19
 -1      3121 9.50298E-05-2.73426E-05-2.90022E-05 3.18299E-06-1.03458E-18 3.74341E-21
 -1      3122 9.47553E-05-2.73140E-05-2.89020E-05 2.75777E-06-9.79506E-19-5.85811E-19
 -1      3123 9.48867E-05-2.71488E-05-2.90377E-05 3.50844E-06-1.02716E-18 3.56711E-19
 -1      3124 9.49149E-05-2.70086E-05-2.90954E-05 3.87687E-06-1.01368E-18 4.77695E-19
 -1      3125 9.44946E-05-2.69032E-05-2.89654E-05 3.33404E-06-9.28342E-19 2.83217E-19
 -1      3126 9.47469E-05-2.68067E-05-2.91253E-05 4.28077E-06-1.02024E-18 3.60534E-19
 -1      3127 9.47871E-05-2.66779E-05-2.91815E-05 4.72514E-06-5.56645E-19-3.60692E-21
 -1      3128 9.41858E-05-2.64642E-05-2.90204E-05 4.05763E-06-1.02067E-18 3.45016E-19
 -1      3129 7.76541E-05-2.72791E-05-2.87744E-05-3.65623E-07 6.08381E-18 1.05489E-17
 -1      3130 4.57871E-05-2.27736E-05-2.03456E-05-4.99554E-06 6.75382E-18 3.54144E-17
 -1      3131 9.38308E-05-2.60277E-05-2.90546E-05 4.93876E-06-3.87239E-19 6.26367E-19
 -1      3132 4.25253E-05-1.47265E-05-1.37356E-05 1.15580E-06 4.63856E-19 2.93348E-17
 -1      3133 3.57204E-05-9.55542E-06-1.20489E-05 1.11320E-06 1.78300E-18 3.12765E-17
 -1      3134 3.69354E-05-1.13841E-05-1.85204E-05-1.67854E-06 3.11285E-20 3.61836E-17
 -1      3135 3.34399E-05-7.46650E-06-1.10378E-05-1.80384E-07 4.42914E-18 3.10790E-17
 -1      3136 3.07131E-05-5.97241E-06-1.03176E-05-2.54446E-06 6.72716E-18 3.20084E-17
 -1      3137 3.82801E-05-1.05989E-05-1.21144E-05-1.63605E-06 3.53451E-18 2.82324E-17
 -1      3138 2.82746E-05-5.92646E-06-9.42562E-06-4.38157E-06 1.03989E-17 3.43312E-17
 -1      3139 2.71758E-05-8.00916E-06-8.26190E-06-6.52513E-06 1.26680E-17 3.67911E-17
 -1      3140 3.31721E-05-8.44109E-06-1.02327E-05-6.26251E-06 1.04773E-17 3.08211E-17
 -1      3141 2.66501E-05-1.21115E-05-7.22576E-06-6.28964E-06 1.47943E-17 4.10169E-17
 -1      3142 2.87213E-05-2.02723E-05-6.09309E-06-6.01977E-06 1.63940E-17 4.37936E-17
 -1      3143 2.96424E-05-1.14128E-05-8.34171E-06-8.55156E-06 1.66927E-17 3.69451E-17
 -1      3144 2.95289E-05-2.77392E-05-6.33283E-06-4.93283E-06 1.81506E-17 4.62177E-17
 -1      3145 5.14774E-05-4.13083E-05-6.76527E-06 1.04514E-06 1.72892E-17 3.60497E-17
 -1      3146 3.26992E-05-2.53781E-05-7.89239E-06-6.99450E-06 1.72405E-17 4.16664E-17
 -1      3147 5.89909E-05-7.04934E-05-1.56566E-05 4.41910E-05-1.46435E-17 4.85028E-17
 -1      3148 1.03955E-04-5.99125E-05-2.80647E-05 7.52378E-06-1.01559E-18 3.62191E-18
 -1      3149-2.32596E-05-9.22886E-06-1.52641E-05-1.72445E-06 1.88821E-17 7.40188E-17
 -1      3150 1.21545E-04-4.41092E-05-3.06625E-05-1.97362E-05 1.90781E-17-1.08420E-19
 -1      3151 1.35729E-04-6.43069E-05-3.18847E-05-1.97417E-06 4.94032E-18-2.58742E-18
 -1      3152 1.86823E-04-8.34531E-05-3.01625E-05-5.71469E-06 1.50213E-17-2.00882E-17
 -1      3153 1.42639E-04-6.75942E-05-3.14731E-05-1.40869E-06 3.98481E-18-1.36759E-18
 -1      3154 1.37729E-04-6.55200E-05-3.09902E-05-1.74632E-07 3.36169E-18 2.25417E-19
 -1      3155 1.29920E-04-5.85987E-05-2.94986E-05-6.68730E-06 7.42551E-18-2.17073E-18
 -1      3156 1.41273E-04-6.22524E-05-3.36197E-05-7.04897E-06 4.59055E-19 1.44651E-18
 -1      3157 1.39685E-04-5.63770E-05-3.58023E-05-1.13832E-05 1.26777E-19 1.68282E-18
 -1      3158 1.14807E-04-1.35844E-05-4.36413E-05 9.72845E-06-9.38724E-19-2.99717E-19
 -1      3159 1.14224E-04-1.18031E-05-4.43073E-05 2.45266E-06-8.80703E-19-5.28152E-19
 -1      3160 1.20519E-04-2.63896E-05-4.03945E-05 1.65157E-05-1.13889E-18 5.96205E-19
 -1      3161 1.16940E-04-1.97393E-05-4.21816E-05 1.44630E-05-9.13578E-19-1.74012E-19
 -1      3162 1.16406E-04-4.72235E-05-2.96616E-05-9.45766E-06-1.53159E-18-1.69956E-19
 -1      3163 1.12406E-04-4.42220E-05-2.90352E-05-1.17053E-05-1.53834E-18-1.27895E-18
 -1      3164 1.07937E-04-4.07193E-05-2.87697E-05-1.25966E-05-2.91677E-19-6.29939E-19
 -1      3165 1.04591E-04-3.76451E-05-2.85889E-05-1.33986E-05 2.55908E-19-9.82643E-19
 -1      3166 1.07060E-04-4.25910E-05-2.77947E-05-1.62582E-05-3.43849E-19 1.11750E-18
 -1      3167 1.01908E-04-3.49372E-05-2.86611E-05-1.29823E-05 3.44124E-20-7.77650E-19
 -1      3168 9.96316E-05-3.26270E-05-2.86662E-05-1.30098E-05-1.44553E-19-6.69226E-19
 -1      3169 9.97401E-05-3.54123E-05-2.76831E-05-1.55953E-05 2.90441E-19-1.60327E-19
 -1      3170 9.82247E-05-3.08822E-05-2.88290E-05-1.22444E-05-3.03969E-19-7.23503E-19
 -1      3171 9.68337E-05-2.94004E-05-2.88812E-05-1.18811E-05-1.43724E-18-7.31505E-19
 -1      3172 9.59223E-05-3.06963E-05-2.80133E-05-1.39456E-05-2.09997E-19 4.11016E-19
 -1      3173 9.62120E-05-2.84019E-05-2.90371E-05-1.10505E-05-2.08195E-18-8.24546E-20
 -1      3174 9.54073E-05-2.75459E-05-2.90802E-05-1.05102E-05-1.03453E-18 1.87243E-19
 -1      3175 9.40304E-05-2.78399E-05-2.83973E-05-1.21172E-05-8.70184E-19 9.37187E-19
 -1      3176 9.52326E-05-2.70596E-05-2.91989E-05-9.71612E-06-5.12266E-19-2.13956E-19
 -1      3177 9.47847E-05-2.66203E-05-2.92173E-05-9.10883E-06-2.42511E-19-7.06246E-19
 -1      3178 9.33149E-05-2.63268E-05-2.87213E-05-1.03886E-05-3.82402E-19 3.50593E-19
 -1      3179 9.48352E-05-2.64451E-05-2.92966E-05-8.38166E-06-2.13614E-19-5.44563E-19
 -1      3180 9.45855E-05-2.62513E-05-2.92930E-05-7.76418E-06 6.57790E-19-1.80629E-18
 -1      3181 9.32332E-05-2.56710E-05-2.89578E-05-8.83101E-06-2.65525E-19-8.65235E-19
 -1      3182 9.47249E-05-2.62367E-05-2.93421E-05-7.10697E-06 1.03608E-18-2.14299E-18
 -1      3183 9.45811E-05-2.61676E-05-2.93262E-05-6.50412E-06 6.83407E-19-2.81143E-18
 -1      3184 9.34449E-05-2.54988E-05-2.91170E-05-7.44018E-06 8.15050E-19-1.19248E-18
 -1      3185 9.47878E-05-2.62556E-05-2.93629E-05-5.98845E-06 1.10996E-18-2.51894E-18
 -1      3186 9.46811E-05-2.62236E-05-2.93425E-05-5.40245E-06 1.08147E-18-2.39109E-18
 -1      3187 9.41502E-05-2.57831E-05-2.93027E-05-5.27519E-06 7.36948E-19-1.54919E-18
 -1      3188 9.38074E-05-2.56046E-05-2.92283E-05-6.27196E-06 1.03237E-18-1.72551E-18
 -1      3189 9.52732E-05-2.85498E-05-2.85939E-05-1.39711E-06 3.07015E-19-7.74341E-19
 -1      3190 9.52580E-05-2.85082E-05-2.86044E-05-1.34047E-06 9.00352E-20-8.19744E-19
 -1      3191 9.52887E-05-2.84293E-05-2.86500E-05-1.66527E-06-2.24524E-19-4.86866E-19
 -1      3192 9.52395E-05-2.84660E-05-2.86190E-05-1.60615E-06-1.28461E-19-6.61347E-19
 -1      3193 9.53163E-05-2.83056E-05-2.87142E-05-1.83560E-06 3.03563E-20-5.95511E-20
 -1      3194 9.52571E-05-2.83571E-05-2.86740E-05-1.74238E-06 1.58985E-20-8.90437E-20
 -1      3195 9.53236E-05-2.83615E-05-2.86993E-05-1.73926E-06-3.25995E-19-8.24967E-19
 -1      3196 9.53555E-05-2.81553E-05-2.87947E-05-2.09106E-06 3.12733E-19 5.15866E-21
 -1      3197 9.52845E-05-2.82172E-05-2.87464E-05-1.95295E-06 3.03794E-19 2.26262E-19
 -1      3198 9.52610E-05-2.81784E-05-2.87506E-05-1.94163E-06 1.13071E-19-2.11869E-19
 -1      3199 9.54092E-05-2.79873E-05-2.88890E-05-2.44979E-06 5.69883E-19-4.81594E-20
 -1      3200 9.53232E-05-2.80544E-05-2.88334E-05-2.25876E-06 3.42227E-19-3.66999E-20
 -1      3201 9.51971E-05-2.79609E-05-2.88161E-05-2.23394E-06 3.57174E-19-1.79490E-19
 -1      3202 9.54837E-05-2.78143E-05-2.89944E-05-2.92435E-06 2.68265E-19 5.82841E-20
 -1      3203 9.53773E-05-2.78790E-05-2.89322E-05-2.67553E-06 5.57957E-19 2.78602E-19
 -1      3204 9.51326E-05-2.77196E-05-2.88917E-05-2.63439E-06 4.43576E-19-2.08638E-19
 -1      3205 9.55903E-05-2.76566E-05-2.91070E-05-3.52026E-06 2.26471E-19-2.08321E-19
 -1      3206 9.54556E-05-2.77072E-05-2.90397E-05-3.21299E-06 2.78636E-19-1.31625E-19
 -1      3207 9.50720E-05-2.74701E-05-2.89726E-05-3.15584E-06 4.75291E-19-3.58869E-19
 -1      3208 9.57493E-05-2.75473E-05-2.92214E-05-4.23313E-06 1.25527E-19 1.48853E-19
 -1      3209 9.55740E-05-2.75649E-05-2.91514E-05-3.87286E-06 6.67377E-21-1.52572E-20
 -1      3210 9.50263E-05-2.72379E-05-2.90526E-05-3.80473E-06-4.24572E-20-6.09513E-19
 -1      3211 9.59956E-05-2.75390E-05-2.93301E-05-5.04416E-06 3.59737E-19 4.32234E-19
 -1      3212 9.57605E-05-2.74946E-05-2.92608E-05-4.64537E-06 6.02230E-19 6.48302E-19
 -1      3213 9.50185E-05-2.70650E-05-2.91240E-05-4.57889E-06 9.03872E-21 5.92349E-19
 -1      3214 9.63878E-05-2.77133E-05-2.94233E-05-5.91357E-06 2.12446E-19 1.68423E-19
 -1      3215 9.60628E-05-2.75629E-05-2.93594E-05-5.50380E-06 3.03012E-19 5.17943E-19
 -1      3216 9.50915E-05-2.70181E-05-2.91769E-05-5.46409E-06 3.14868E-19 1.09660E-18
 -1      3217 9.70204E-05-2.81891E-05-2.94909E-05-6.77112E-06 3.79399E-19-1.80896E-19
 -1      3218 9.65597E-05-2.78702E-05-2.94372E-05-6.39649E-06 3.40853E-19-2.31570E-20
 -1      3219 9.53200E-05-2.71995E-05-2.92003E-05-6.42874E-06 5.07506E-19 7.69667E-19
 -1      3220 9.80370E-05-2.91274E-05-2.95257E-05-7.50249E-06 4.67357E-22 2.21321E-19
 -1      3221 9.73749E-05-2.85585E-05-2.94855E-05-7.23484E-06 2.85335E-19 8.53678E-20
 -1      3222 9.58272E-05-2.77575E-05-2.91843E-05-7.41514E-06 1.33348E-19 5.74726E-19
 -1      3223 9.96380E-05-3.07206E-05-2.95324E-05-7.92915E-06-8.44331E-19 3.84979E-19
 -1      3224 9.86904E-05-2.98109E-05-2.95026E-05-7.87492E-06-5.00271E-19 2.24564E-19
 -1      3225 9.68029E-05-2.88916E-05-2.91263E-05-8.32398E-06-2.87488E-19 6.45153E-19
 -1      3226 1.02063E-04-3.31424E-05-2.95416E-05-7.77921E-06-1.23334E-19 9.19209E-20
 -1      3227 1.00747E-04-3.18259E-05-2.95058E-05-8.08852E-06-3.55968E-19 2.65235E-19
 -1      3228 9.85181E-05-3.08390E-05-2.90422E-05-8.98495E-06-7.82924E-19 1.82938E-19
 -1      3229 1.03169E-04-3.40388E-05-2.96345E-05-5.27424E-06-1.11565E-18-7.62015E-19
 -1      3230 1.03804E-04-3.47331E-05-2.95500E-05-7.52156E-06-7.85160E-20 1.88855E-19
 -1      3231 1.01312E-04-3.38114E-05-2.89858E-05-9.10240E-06-4.42552E-19 3.84300E-20
 -1      3232 1.04999E-04-3.40029E-05-3.03689E-05 3.08533E-07-1.86139E-18-1.75804E-18
 -1      3233 1.03044E-04-3.29288E-05-2.98036E-05-2.11084E-06-1.80344E-18-1.94264E-18
 -1      3234 9.98675E-05-3.28029E-05-2.89971E-05-5.12587E-06-1.36097E-18-1.10975E-18
 -1      3235 1.10158E-04-3.65120E-05-3.15831E-05 5.75913E-06-2.57180E-18-7.00786E-19
 -1      3236 1.07921E-04-3.54259E-05-3.09497E-05 2.94711E-06-2.35124E-18-1.48629E-18
 -1      3237 1.05020E-04-3.60042E-05-2.97096E-05-9.40011E-07-2.47794E-18-5.93439E-19
 -1      3238 1.14646E-04-3.73317E-05-3.31743E-05 1.15995E-05-2.13553E-18 7.25252E-19
 -1      3239 1.13401E-04-3.76074E-05-3.24793E-05 9.10097E-06-2.47731E-18 1.94305E-19
 -1      3240 1.11549E-04-3.87862E-05-3.12841E-05 4.96427E-06-2.97152E-18-5.98746E-19
 -1      3241 1.17015E-04-3.28149E-05-3.61294E-05 1.61332E-05-1.63101E-18 4.43760E-19
 -1      3242 1.17440E-04-3.62247E-05-3.49531E-05 1.46173E-05-1.49602E-18 5.15291E-19
 -1      3243 1.12752E-04-2.32708E-05-3.84023E-05 1.53749E-05-1.75151E-18 1.01816E-18
 -1      3244 1.14362E-04-2.76747E-05-3.74690E-05 1.68179E-05-1.27379E-18 7.74453E-19
 -1      3245 1.09693E-04-1.67735E-05-3.99468E-05 5.33912E-06-1.37037E-18 8.68450E-19
 -1      3246 1.10607E-04-1.86755E-05-3.95954E-05 1.04271E-05-1.67120E-18 2.91062E-19
 -1      3247 1.09994E-04-1.74955E-05-3.98742E-05-7.32587E-08-1.31200E-18 9.54236E-21
 -1      3248 1.14672E-04-2.77283E-05-3.75272E-05-1.00226E-05-6.27771E-19-8.39122E-19
 -1      3249 1.12554E-04-2.26170E-05-3.86824E-05-8.11091E-06-1.08825E-18-8.31733E-19
 -1      3250 1.19057E-04-3.64480E-05-3.55578E-05-9.86399E-06-2.80196E-19-1.22938E-18
 -1      3251 1.17360E-04-3.14569E-05-3.68633E-05-1.06818E-05-5.07849E-19-1.09522E-18
 -1      3252 1.17885E-04-4.26290E-05-3.22744E-05-3.84936E-06 8.58339E-19 1.49091E-19
 -1      3253 1.18051E-04-4.08475E-05-3.31046E-05-6.28269E-06 4.71572E-19 3.69915E-20
 -1      3254 1.13834E-04-4.19479E-05-3.07419E-05 1.91992E-06 1.32319E-18 1.04222E-18
 -1      3255 1.15371E-04-4.24787E-05-3.12881E-05-4.51290E-07 1.30268E-18 2.35101E-19
 -1      3256 1.17863E-04-4.44219E-05-3.15119E-05-1.48068E-07 8.61816E-19-1.32363E-18
 -1      3257 1.08940E-04-3.88462E-05-2.99657E-05 5.90377E-06 1.35314E-19 1.23701E-18
 -1      3258 1.10870E-04-4.03920E-05-3.02484E-05 4.20268E-06 9.39396E-19 1.35820E-18
 -1      3259 1.12122E-04-4.24900E-05-2.99382E-05 5.49732E-06 8.04770E-19 9.29677E-19
 -1      3260 1.04579E-04-3.52887E-05-2.96393E-05 8.00929E-06 2.13473E-19 7.31482E-19
 -1      3261 1.06362E-04-3.69442E-05-2.97705E-05 7.05090E-06-3.30842E-19 7.49358E-19
 -1      3262 1.06525E-04-3.84307E-05-2.92618E-05 8.59415E-06 1.05042E-19 9.47391E-19
 -1      3263 1.01277E-04-3.22804E-05-2.95338E-05 8.73682E-06 6.18170E-19 1.63201E-19
 -1      3264 1.02700E-04-3.36549E-05-2.95949E-05 8.36259E-06 6.29179E-19 3.69282E-19
 -1      3265 1.02080E-04-3.44224E-05-2.90573E-05 9.77534E-06 7.84252E-19-5.28748E-19
 -1      3266 9.90166E-05-3.01214E-05-2.95068E-05 8.60350E-06 1.26430E-18-7.02676E-19
 -1      3267 1.00060E-04-3.11050E-05-2.95475E-05 8.61808E-06 6.71117E-19-3.36689E-20
 -1      3268 9.90388E-05-3.13047E-05-2.90691E-05 9.76007E-06 8.89438E-19-1.66230E-18
 -1      3269 9.75483E-05-2.87212E-05-2.94883E-05 7.99402E-06 6.21234E-19-2.91457E-19
 -1      3270 9.82881E-05-2.93661E-05-2.95302E-05 8.24611E-06 9.43862E-19-4.26127E-19
 -1      3271 9.71459E-05-2.91990E-05-2.91445E-05 9.13344E-06 8.27506E-19-1.90749E-18
 -1      3272 9.66170E-05-2.78813E-05-2.94556E-05 7.13877E-06 1.50866E-18-8.56465E-19
 -1      3273 9.71412E-05-2.82798E-05-2.95034E-05 7.52441E-06 1.89412E-18-6.97944E-19
 -1      3274 9.60459E-05-2.79070E-05-2.92163E-05 8.21964E-06 1.44282E-18-1.93479E-19
 -1      3275 9.60222E-05-2.74020E-05-2.94091E-05 6.17585E-06 1.18972E-18-1.07030E-18
 -1      3276 9.64044E-05-2.76456E-05-2.94597E-05 6.62763E-06 6.31858E-19-1.35368E-18
 -1      3277 9.54481E-05-2.71825E-05-2.92640E-05 7.18837E-06 1.10857E-18-2.13688E-19
 -1      3278 9.56242E-05-2.71152E-05-2.93594E-05 5.17863E-06 5.90533E-19 5.36062E-19
 -1      3279 9.59105E-05-2.72787E-05-2.94064E-05 5.65784E-06 1.05748E-18-7.44990E-19
 -1      3280 9.51349E-05-2.67998E-05-2.92898E-05 6.13283E-06 6.25298E-19-1.07009E-18
 -1      3281 9.52518E-05-2.68306E-05-2.93194E-05 4.51937E-06 4.40177E-19 6.73120E-19
 -1      3282 9.55318E-05-2.70228E-05-2.93537E-05 4.87401E-06 4.62777E-19 5.65784E-19
 -1      3283 9.49282E-05-2.65763E-05-2.92969E-05 5.28285E-06 2.37542E-20-1.67075E-18
 -1      3284 9.47584E-05-2.64009E-05-2.93056E-05 4.64055E-06-7.21656E-19-1.07991E-18
 -1      3285 9.52095E-05-2.42703E-05-3.04052E-05 4.27527E-06 1.10710E-18-1.21486E-18
 -1      3286 9.46428E-05-2.27244E-05-3.08115E-05 4.77683E-06 1.13564E-18-1.24751E-18
 -1      3287 9.49219E-05-2.35755E-05-3.05761E-05 3.67044E-06 9.94073E-19-1.27685E-18
 -1      3288 9.52379E-05-2.51929E-05-3.00323E-05 2.99740E-06 9.62695E-19-1.20509E-18
 -1      3289 3.21104E-05-4.95152E-06-1.14400E-05-1.64407E-06 1.04242E-18-1.14318E-18
 -1      3290 2.97408E-05-3.62937E-06-1.07465E-05-1.07353E-05 4.74239E-19-2.23638E-18
 -1      3291 9.24080E-05-1.83299E-05-3.17630E-05 1.81018E-06 3.37656E-19-1.84359E-18
 -1      3292 9.22897E-05-1.81273E-05-3.17957E-05 1.05694E-06 6.31935E-20-1.83625E-18
 -1      3293 9.08004E-05-2.30242E-05-2.90539E-05-1.55629E-07-9.63967E-19-6.66527E-20
 -1      3294 9.08530E-05-2.30693E-05-2.90533E-05 6.67622E-07-5.15470E-19 1.29694E-18
 -1      3295 9.28853E-05-2.47180E-05-2.92111E-05-4.46230E-06 8.18946E-19 8.16349E-20
 -1      3296 9.23142E-05-2.42597E-05-2.91804E-05-4.03550E-06 3.73626E-19-6.43530E-19
 -1      3297 9.10492E-05-2.32092E-05-2.90749E-05-1.86756E-06-1.57703E-19-3.17605E-18
 -1      3298 9.08663E-05-2.30699E-05-2.90644E-05-1.08526E-06-5.85370E-21-1.15631E-18
 -1      3299 9.02534E-05-2.27958E-05-2.88976E-05-6.47387E-07-9.29517E-19-2.48750E-19
 -1      3300 9.52950E-05-2.84592E-05-2.86433E-05-1.25902E-06-7.77426E-21-8.55419E-19
 -1      3301 9.52976E-05-2.83717E-05-2.86774E-05-1.15124E-06 8.71953E-20-9.84095E-19
 -1      3302 9.55836E-05-2.85251E-05-2.87430E-05-1.25931E-06 1.61210E-20-8.83492E-19
 -1      3303 9.17721E-05-2.37944E-05-2.91280E-05-3.38291E-06 2.75127E-19-2.94306E-18
 -1      3304 9.13657E-05-2.34800E-05-2.91073E-05-2.72109E-06 4.36166E-19-4.17827E-18
 -1      3305 9.06845E-05-2.31149E-05-2.89466E-05-2.49640E-06-1.22884E-19-3.11517E-18
 -1      3306 9.16303E-05-2.38507E-05-2.90433E-05-4.05357E-06 9.65279E-19-1.70986E-18
 -1      3307 9.52718E-05-2.85182E-05-2.86053E-05-1.55657E-06 1.33520E-19-5.59226E-19
 -1      3308 9.52322E-05-2.85355E-05-2.85850E-05-1.51774E-06 2.34168E-19-6.23698E-19
 -1      3309 9.53860E-05-2.85010E-05-2.86667E-05-1.60344E-06-9.77183E-20-8.62263E-19
 -1      3310 9.52661E-05-2.85629E-05-2.85844E-05-1.47981E-06 3.45282E-19-7.03565E-19
 -1      3311 9.52373E-05-2.85549E-05-2.85775E-05-1.44363E-06 4.75347E-19-8.32256E-19
 -1      3312 9.55159E-05-2.86018E-05-2.86803E-05-1.40604E-06 3.19595E-19-8.49998E-19
 -1      3313 9.54498E-05-2.85862E-05-2.86581E-05-1.50475E-06 1.37230E-19-6.72880E-19
 -1      3314 4.60504E-05-1.20150E-05-1.42683E-05-8.76933E-06-1.85607E-18-2.49769E-19
 -1      3315 5.03388E-05-1.60309E-05-1.43538E-05-2.01836E-05-5.76671E-19 3.86353E-19
 -1      3316 9.54993E-05-2.55462E-05-2.99672E-05-2.13346E-06-8.44909E-19-9.97356E-19
 -1      3317 9.55427E-05-2.62397E-05-2.97134E-05-1.31377E-06-7.80815E-19-1.01922E-18
 -1      3318 9.57204E-05-2.61671E-05-2.98098E-05-1.14391E-06-7.58035E-19-1.24599E-18
 -1      3319 1.18054E-04-5.34398E-05-2.75101E-05-1.98440E-05 3.03582E-19-2.14806E-19
 -1      3320 1.28269E-04-5.52440E-05-3.15790E-05-9.61097E-06-4.60627E-19-1.67218E-18
 -1      3321 9.53322E-05-2.82607E-05-2.87459E-05-1.00081E-06 1.09848E-19-9.35235E-19
 -1      3322 9.53578E-05-2.81084E-05-2.88126E-05-8.00526E-07 2.11128E-19-9.09145E-19
 -1      3323 9.56484E-05-2.83216E-05-2.88588E-05-1.00240E-06 9.72792E-20-1.09951E-18
 -1      3324 9.53789E-05-2.79047E-05-2.89208E-05-5.37279E-07 3.10866E-19-9.76025E-19
 -1      3325 9.54255E-05-2.76549E-05-2.90334E-05-1.86562E-07 4.36796E-19-8.57536E-19
 -1      3326 9.56966E-05-2.79376E-05-2.90448E-05-5.56185E-07 1.76018E-19-9.42415E-19
 -1      3327 5.82496E-05-2.12235E-05-1.54536E-05-2.63965E-05 8.52062E-20 1.26504E-18
 -1      3328 7.02104E-05-2.89414E-05-1.75730E-05-3.13434E-05-5.52371E-19 2.58027E-19
 -1      3329 6.05858E-05-1.92579E-05-1.72807E-05-2.09676E-05-8.37186E-19 9.30042E-19
 -1      3330 5.04101E-05-1.49080E-05-1.51195E-05 1.67954E-05-1.24683E-18 1.94076E-19
 -1      3331 4.59545E-05-1.13911E-05-1.44556E-05 4.52618E-06-1.19408E-18 1.68454E-19
 -1      3332 9.34835E-05-1.98457E-05-3.15552E-05-6.23917E-06-1.16095E-18-1.35578E-18
 -1      3333 1.28986E-04-4.58694E-05-3.60616E-05-3.57460E-06 7.39791E-19-2.53041E-18
 -1      3334 1.27418E-04-5.14590E-05-3.24629E-05 4.55732E-06 1.71944E-18-3.48432E-18
 -1      3335 3.36078E-05-6.94166E-06-1.11214E-05-1.86894E-05-1.00545E-18-3.47538E-18
 -1      3336 4.32826E-05-1.31698E-05-1.25756E-05-2.64644E-05-1.35668E-18-4.01917E-18
 -1      3337 5.79074E-05-2.18944E-05-1.49077E-05 1.00478E-05 3.46876E-18 1.93266E-18
 -1      3338 4.28567E-05-1.16275E-05-1.30366E-05 4.68594E-06 2.39267E-18 1.08637E-18
 -1      3339 9.22301E-05-1.80268E-05-3.18145E-05 4.08338E-07-4.45395E-20-1.76570E-18
 -1      3340 9.22271E-05-1.80221E-05-3.18150E-05-3.59107E-07-2.45192E-19-1.84619E-18
 -1      3341 9.31804E-05-1.96027E-05-3.15155E-05 6.27155E-07-1.20599E-20-1.70895E-18
 -1      3342 9.43887E-05-2.19846E-05-3.10031E-05 3.64155E-06 8.37930E-19-1.33924E-18
 -1      3343 9.34518E-05-2.02094E-05-3.14175E-05 4.23130E-06 8.38475E-19-1.52563E-18
 -1      3344 9.30929E-05-1.95399E-05-3.15332E-05 3.65236E-06 6.42214E-19-1.55219E-18
 -1      3345 1.20721E-04-2.45108E-05-4.15504E-05-1.10536E-05-6.17275E-19-9.77635E-19
 -1      3346 1.19712E-04-2.93823E-05-3.88484E-05-1.05638E-05-3.22111E-19-1.21623E-18
 -1      3347 6.12414E-05-1.85871E-05-1.79639E-05 1.84424E-05-1.19916E-18 5.52583E-19
 -1      3348 1.11513E-04-4.94162E-05-2.64067E-05 2.01900E-05-3.62927E-19-2.93687E-18
 -1      3349 3.64716E-05-6.19391E-06-1.26209E-05-1.38653E-05-4.66053E-19-2.50648E-18
 -1      3350 1.07244E-04-5.37759E-05-2.25514E-05 1.15204E-05 2.29175E-18 1.82440E-18
 -1      3351 1.00179E-04-4.74509E-05-2.21283E-05 8.41070E-06 3.28225E-18 1.77537E-18
 -1      3352 1.17486E-04-5.88857E-05-2.53626E-05 7.07412E-06 2.56450E-18 1.57917E-18
 -1      3353 8.13068E-05-3.39190E-05-1.99127E-05-3.10027E-05-9.50847E-19-8.54074E-19
 -1      3354 9.11167E-05-3.86470E-05-2.26054E-05-2.85614E-05-7.39433E-20-4.24364E-19
 -1      3355 7.74029E-05-2.89945E-05-2.04945E-05-2.70985E-05-6.96182E-19 1.18585E-19
 -1      3356 1.18952E-04-3.06194E-05-3.79776E-05 1.59717E-05-1.82189E-18 7.38930E-19
 -1      3357 1.34294E-04-6.44689E-05-2.97857E-05 1.48168E-06 1.19792E-18-1.97465E-20
 -1      3358 5.14505E-05-1.74020E-05-1.41377E-05-2.81731E-05-1.93732E-18-2.80707E-18
 -1      3359 6.06720E-05-2.23906E-05-1.62214E-05-2.86906E-05-2.36952E-18-6.59786E-19
 -1      3360 4.88181E-05-1.41890E-05-1.46258E-05-2.38453E-05-2.09577E-18-2.82313E-18
 -1      3361 8.13302E-05-3.54686E-05-1.93391E-05-3.07938E-05-3.15075E-18-6.35804E-20
 -1      3362 9.00862E-05-3.89105E-05-2.19006E-05-2.54905E-05-3.32540E-18-5.19800E-19
 -1      3363 7.54709E-05-3.10978E-05-1.88126E-05-2.94205E-05-2.73327E-18-1.08950E-19
 -1      3364 1.40374E-04-6.60467E-05-3.15529E-05-3.05032E-07 2.58242E-18 6.11161E-19
 -1      3365 1.39181E-04-6.39419E-05-3.24165E-05-3.71596E-06 1.21414E-18 1.19991E-18
 -1      3366 9.27479E-05-2.47166E-05-2.91696E-05 4.16596E-06-4.16103E-19 6.13015E-19
 -1      3367 9.33183E-05-2.51834E-05-2.91941E-05 4.48965E-06-8.91712E-19 1.96144E-18
 -1      3368 8.50085E-05-3.52242E-05-2.09566E-05 2.91870E-05-1.13968E-18-2.22950E-18
 -1      3369 7.91827E-05-2.95231E-05-2.12143E-05 2.54737E-05-1.14703E-18-4.05305E-19
 -1      3370 9.35539E-05-3.96830E-05-2.32831E-05 2.61887E-05-8.14376E-19-2.25877E-18
 -1      3371 1.13590E-04-1.88966E-05-4.08172E-05 1.21523E-05-1.31894E-18-3.16896E-19
 -1      3372 1.30986E-04-4.79646E-05-3.59674E-05 5.33920E-06 4.33549E-19 1.19045E-18
 -1      3373 1.17538E-04-3.85318E-05-3.39336E-05 1.11908E-05-1.98878E-18 1.26519E-19
 -1      3374 1.13399E-04-1.77699E-05-4.12381E-05-3.01674E-06-8.09605E-19-1.53181E-19
 -1      3375 1.21778E-04-4.02285E-05-3.50644E-05-7.62503E-06-4.73452E-19-1.74382E-18
 -1      3376 9.54265E-05-2.60200E-05-2.97358E-05 2.10108E-06 8.19196E-19-1.25820E-18
 -1      3377 9.53720E-05-2.53122E-05-3.00195E-05 2.48791E-06 9.12702E-19-1.22359E-18
 -1      3378 9.53682E-05-2.65983E-05-2.94819E-05 1.23789E-06 7.55637E-19-1.22324E-18
 -1      3379 9.17200E-05-2.38417E-05-2.91050E-05 3.07549E-06-9.43330E-19 6.58659E-19
 -1      3380 9.21791E-05-2.42088E-05-2.91223E-05 3.64422E-06 8.19820E-20 7.93556E-19
 -1      3381 9.21412E-05-2.43754E-05-2.90403E-05 4.28504E-06-1.09588E-18 1.17244E-18
 -1      3382 9.25805E-05-1.86260E-05-3.17057E-05 2.42003E-06 4.58895E-19-1.83872E-18
 -1      3383 9.33918E-05-1.99929E-05-3.14376E-05 1.79855E-06 3.73981E-19-1.71048E-18
 -1      3384 9.28171E-05-1.90425E-05-3.16367E-05 3.12154E-06 6.32872E-19-1.71701E-18
 -1      3385 1.02688E-04-4.35721E-05-2.52370E-05-1.88225E-05-3.29329E-18-3.63430E-19
 -1      3386 1.10278E-04-4.67999E-05-2.70688E-05-1.61950E-05-4.18437E-18-8.24944E-19
 -1      3387 1.13699E-04-4.59935E-05-2.91249E-05-7.30971E-06-3.69940E-18 5.45436E-19
 -1      3388 5.46157E-05-1.26647E-05-1.77586E-05 2.84228E-06-3.69995E-19 3.82674E-19
 -1      3389 4.91883E-05-1.16114E-05-1.57300E-05-2.08557E-06-1.12631E-18-4.51098E-19
 -1      3390 5.43622E-05-1.32432E-05-1.75571E-05-8.56269E-06-8.24557E-19-5.72647E-19
 -1      3391 9.10374E-05-2.32471E-05-2.90646E-05 1.57596E-06-5.75197E-19 1.90590E-18
 -1      3392 9.13158E-05-2.34702E-05-2.90738E-05 2.31884E-06-1.19924E-18 1.67684E-18
 -1      3393 9.10567E-05-2.34884E-05-2.89493E-05 2.97301E-06-2.76844E-19 1.22988E-18
 -1      3394 9.03882E-05-2.29301E-05-2.88991E-05 1.25323E-06-1.10648E-18 1.24235E-18
 -1      3395 1.25201E-04-4.17527E-05-3.59322E-05-6.47725E-06 3.80622E-19-2.37844E-18
 -1      3396 9.53869E-05-2.73883E-05-2.91479E-05 1.57810E-07 4.79449E-19-1.01285E-18
 -1      3397 9.54483E-05-2.70071E-05-2.93200E-05 7.22022E-07 6.29228E-19-1.08677E-18
 -1      3398 9.55745E-05-2.65950E-05-2.95648E-05 1.02936E-06 5.65167E-19-1.14549E-18
 -1      3399 9.56790E-05-2.73724E-05-2.92803E-05 1.04244E-07 4.14932E-19-8.90024E-19
 -1      3400 9.51950E-05-2.46656E-05-3.02435E-05-2.86538E-06-8.80094E-19-1.06664E-18
 -1      3401 9.52875E-05-2.45361E-05-3.03163E-05-2.52293E-06-8.90911E-19-1.23176E-18
 -1      3402 9.50336E-05-2.37142E-05-3.05664E-05-3.91192E-06-9.55123E-19-1.14123E-18
 -1      3403 1.25851E-04-5.10902E-05-3.20733E-05-3.34757E-06-4.28202E-19 2.30168E-19
 -1      3404 1.22057E-04-5.02666E-05-3.05819E-05-7.27829E-06-1.10055E-18-1.74899E-19
 -1      3405 1.30770E-04-5.12674E-05-3.39663E-05 3.97771E-07-1.67977E-19-1.64907E-19
 -1      3406 1.39031E-04-6.61637E-05-3.18588E-05-2.24330E-06 1.22955E-18 1.97756E-19
 -1      3407 6.86246E-05-2.77998E-05-1.68417E-05 8.22083E-06 4.39363E-18 2.10223E-18
 -1      3408 6.32903E-05-2.16596E-05-1.72450E-05 2.65558E-06 5.27993E-18 2.61956E-18
 -1      3409 8.03814E-05-3.45660E-05-1.92728E-05 6.48290E-06 5.03495E-18 2.79950E-18
 -1      3410 1.16414E-04-4.97395E-05-2.87507E-05-1.44700E-05-1.32262E-18-5.31023E-19
 -1      3411 1.09289E-04-4.99475E-05-2.54159E-05-2.52983E-05 6.15105E-19 1.06068E-18
 -1      3412 1.15451E-04-5.02577E-05-2.77552E-05-1.75026E-05-3.25711E-19 5.93519E-19
 -1      3413 1.10067E-04-4.62825E-05-2.69557E-05-1.92335E-05-6.14112E-19 1.49199E-18
 -1      3414 1.01813E-04-4.45016E-05-2.43738E-05-2.59867E-05 6.22172E-20 1.09953E-18
 -1      3415 9.40469E-05-2.14067E-05-3.11389E-05-5.00322E-06-1.05713E-18-1.27003E-18
 -1      3416 1.33694E-04-6.47969E-05-2.98299E-05-5.57149E-07 3.39724E-18 5.81276E-20
 -1      3417 1.16488E-04-1.67014E-05-4.31130E-05-6.22918E-06-7.60212E-19-8.87743E-19
 -1      3418 9.25603E-05-1.85940E-05-3.17103E-05-2.37165E-06-4.97389E-19-1.80399E-18
 -1      3419 9.27869E-05-1.89962E-05-3.16428E-05-3.08275E-06-6.69336E-19-1.71089E-18
 -1      3420 9.36864E-05-2.54240E-05-2.92589E-05-5.05654E-06 4.92640E-19-4.48670E-19
 -1      3421 9.32509E-05-2.50368E-05-2.92410E-05-4.78008E-06 8.39736E-19 1.13092E-19
 -1      3422 9.26584E-05-2.46566E-05-2.91398E-05-5.00478E-06-2.25242E-20 8.88298E-19
 -1      3423 9.35392E-05-2.53348E-05-2.92250E-05-5.53737E-06 7.61385E-19-2.36543E-19
 -1      3424 4.68553E-05-1.07126E-05-1.53257E-05 5.07090E-07 4.14935E-18 4.02309E-18
 -1      3425 3.85493E-05-7.11108E-06-1.30666E-05 7.10845E-07 2.45396E-18 7.83453E-19
 -1      3426 3.71246E-05-4.88007E-06-1.38316E-05-3.43861E-06 2.12563E-18 7.95152E-19
 -1      3427 1.24021E-04-5.04624E-05-3.14257E-05 5.21841E-06 7.08960E-19-5.41794E-18
 -1      3428 9.30699E-05-1.94932E-05-3.15418E-05-3.61237E-06-7.59206E-19-1.59814E-18
 -1      3429 9.34324E-05-2.01568E-05-3.14277E-05-4.22624E-06-9.03333E-19-1.54360E-18
 -1      3430 9.37664E-05-2.07397E-05-3.12811E-05-2.79827E-06-7.16976E-19-1.54530E-18
 -1      3431 6.80913E-05-2.11955E-05-2.00788E-05 1.98470E-05-1.33120E-18-5.07082E-19
 -1      3432 5.97386E-05-1.53713E-05-1.87937E-05 1.26426E-05-4.88427E-19 2.90771E-19
 -1      3433 3.69924E-05-5.18892E-06-1.34920E-05-9.75813E-06 4.25085E-19-1.41558E-18
 -1      3434 4.14057E-05-8.31536E-06-1.39129E-05-1.65755E-05-8.25487E-19-2.33853E-18
 -1      3435 1.19352E-04-4.26311E-05-3.30387E-05 5.73792E-06-2.52775E-18-2.93560E-19
 -1      3436 9.61645E-05-2.77308E-05-2.93216E-05 3.25428E-07-6.06927E-19-1.12188E-18
 -1      3437 9.61559E-05-2.80277E-05-2.92018E-05 6.02194E-07-5.49170E-19-1.05362E-18
 -1      3438 9.61512E-05-2.82623E-05-2.90902E-05 7.90153E-07-4.43584E-19-9.48025E-19
 -1      3439 9.61146E-05-2.84304E-05-2.90091E-05 9.59901E-07-2.58739E-19-7.44877E-19
 -1      3440 9.63359E-05-2.80641E-05-2.92607E-05 5.90818E-07-3.74474E-19-7.74292E-19
 -1      3441 9.60609E-05-2.85461E-05-2.89319E-05 1.07347E-06-2.36960E-19-6.86847E-19
 -1      3442 9.60102E-05-2.86211E-05-2.88810E-05 1.17606E-06-6.49507E-21-6.14356E-19
 -1      3443 9.62795E-05-2.84629E-05-2.90660E-05 9.11292E-07-2.12068E-19-6.74466E-19
 -1      3444 9.59252E-05-2.86499E-05-2.88309E-05 1.24607E-06 1.64010E-19-9.45363E-19
 -1      3445 9.58670E-05-2.86561E-05-2.88034E-05 1.31386E-06 2.36305E-19-6.10799E-19
 -1      3446 9.61435E-05-2.86363E-05-2.89334E-05 1.11117E-06-3.65399E-21-6.03085E-19
 -1      3447 9.57604E-05-2.86197E-05-2.87747E-05 1.36567E-06 2.10425E-19-6.06517E-19
 -1      3448 9.56971E-05-2.85732E-05-2.87652E-05 1.42417E-06 2.75490E-21-3.15908E-19
 -1      3449 9.59549E-05-2.86418E-05-2.88499E-05 1.24625E-06 2.10220E-19-1.12991E-18
 -1      3450 9.55727E-05-2.84857E-05-2.87530E-05 1.47810E-06-2.06947E-19-3.54759E-19
 -1      3451 9.55039E-05-2.83969E-05-2.87574E-05 1.54751E-06-1.57751E-19-2.26478E-19
 -1      3452 9.57270E-05-2.85181E-05-2.88047E-05 1.36189E-06-7.27063E-20-9.20786E-19
 -1      3453 9.53615E-05-2.82667E-05-2.87576E-05 1.61994E-06-3.04129E-19-3.60752E-19
 -1      3454 9.52852E-05-2.81418E-05-2.87725E-05 1.71639E-06-2.31663E-19-6.64585E-19
 -1      3455 9.54634E-05-2.82905E-05-2.87886E-05 1.49461E-06-2.60343E-19-6.41578E-19
 -1      3456 9.51212E-05-2.79737E-05-2.87813E-05 1.82065E-06-9.04469E-20-8.67564E-19
 -1      3457 9.50341E-05-2.78166E-05-2.88039E-05 1.95728E-06-4.66865E-19-7.21933E-19
 -1      3458 9.51603E-05-2.79739E-05-2.87935E-05 1.67386E-06-3.13810E-19-1.04933E-18
 -1      3459 9.48427E-05-2.76128E-05-2.88178E-05 2.10441E-06-5.53358E-19-4.44654E-19
 -1      3460 9.47405E-05-2.74261E-05-2.88452E-05 2.29206E-06-7.71200E-19-1.51635E-19
 -1      3461 9.48086E-05-2.75769E-05-2.88119E-05 1.92357E-06-1.51401E-19-7.31843E-19
 -1      3462 9.45140E-05-2.71882E-05-2.88601E-05 2.49145E-06-9.63050E-19-2.69563E-19
 -1      3463 9.43922E-05-2.69748E-05-2.88890E-05 2.73903E-06-7.99269E-19 8.05715E-20
 -1      3464 9.43949E-05-2.71047E-05-2.88358E-05 2.26354E-06-6.99900E-19-1.68192E-19
 -1      3465 9.41219E-05-2.67054E-05-2.89004E-05 2.99890E-06-7.78005E-19 4.36801E-19
 -1      3466 9.39766E-05-2.64707E-05-2.89267E-05 3.31356E-06-9.91501E-19 6.66763E-19
 -1      3467 9.39030E-05-2.65623E-05-2.88560E-05 2.71047E-06-6.39395E-19 3.10098E-19
 -1      3468 9.36541E-05-2.61758E-05-2.89284E-05 3.64141E-06-1.31092E-18 6.19938E-19
 -1      3469 9.34836E-05-2.59306E-05-2.89465E-05 4.02863E-06-1.05174E-18 5.21071E-19
 -1      3470 9.33159E-05-2.59590E-05-2.88614E-05 3.27901E-06-1.01951E-18 8.81629E-19
 -1      3471 9.31028E-05-2.56230E-05-2.89306E-05 4.43219E-06-5.95648E-19 4.69435E-19
 -1      3472 7.31378E-05-1.86478E-05-2.84808E-05 4.76772E-06-6.81226E-18 1.09047E-17
 -1      3473 9.26186E-05-2.53138E-05-2.88374E-05 3.98329E-06-8.74863E-19 9.03149E-19
 -1      3474 4.93188E-05-1.66902E-05-2.11959E-05 2.37229E-06-9.09502E-18 2.77700E-17
 -1      3475 4.83673E-05-1.72043E-05-1.48187E-05 9.24467E-07-1.26790E-18 2.31728E-17
 -1      3476 5.93782E-05-1.92872E-05-2.20553E-05 7.94392E-07-5.16182E-18 1.53808E-17
 -1      3477 4.43883E-05-1.44187E-05-1.33984E-05-2.34481E-06 2.59970E-18 2.47434E-17
 -1      3478 4.20151E-05-1.31378E-05-1.22597E-05-4.84019E-06 5.43607E-18 2.49882E-17
 -1      3479 5.30533E-05-1.97424E-05-1.51767E-05-2.67399E-06 2.54530E-19 1.92297E-17
 -1      3480 3.95349E-05-1.19238E-05-1.15432E-05-8.11345E-06 1.01040E-17 2.63107E-17
 -1      3481 3.68393E-05-1.11644E-05-1.06605E-05-1.07795E-05 1.44227E-17 2.84466E-17
 -1      3482 4.70677E-05-1.63817E-05-1.28053E-05-9.14555E-06 9.29262E-18 2.13587E-17
 -1      3483 3.36589E-05-1.09554E-05-9.94692E-06-1.24305E-05 1.96496E-17 3.14065E-17
 -1      3484 3.27261E-05-1.27002E-05-9.15508E-06-1.28729E-05 2.26896E-17 3.39058E-17
 -1      3485 4.15737E-05-1.40468E-05-1.14310E-05-1.56060E-05 2.00658E-17 2.48755E-17
 -1      3486 3.06205E-05-1.67037E-05-1.02623E-05-4.67704E-06 2.21863E-17 4.51096E-17
 -1      3487 3.30525E-05-2.80149E-05-1.23904E-05-3.05516E-06 1.52839E-17 5.01715E-17
 -1      3488 3.07950E-05-1.00997E-05-1.19044E-05-1.29216E-05 2.92764E-17 3.84265E-17
 -1      3489 6.44562E-05-4.69527E-05-1.46070E-05-1.54642E-05 1.22074E-17 3.32376E-17
 -1      3490 5.56907E-05-3.49593E-05-2.16785E-05-3.67489E-05 4.81352E-17 3.59718E-17
 -1      3491 5.12347E-05-4.64572E-05-2.10634E-05 9.32522E-06-7.67073E-18 5.98242E-17
 -1      3492 1.06796E-04-2.22966E-05-2.47599E-05-5.42656E-05 4.54636E-17-2.43183E-18
 -1      3493 1.00006E-04-4.57831E-05-2.51981E-05-1.23339E-05 1.32326E-17 1.84484E-18
 -1      3494 8.55245E-05-4.14028E-05-1.83336E-05 2.98155E-06 2.17433E-17 4.23516E-19
 -1      3495 1.04642E-04-4.38459E-05-2.41919E-05-7.15731E-06 8.59431E-18-9.76205E-19
 -1      3496 1.04139E-04-4.59779E-05-2.42030E-05-1.30119E-06 5.34203E-18 1.26335E-18
 -1      3497 9.70033E-05-3.46113E-05-2.66343E-05-1.75907E-05-5.46797E-19 8.52592E-19
 -1      3498 9.41231E-05-3.16288E-05-2.67416E-05-1.67573E-05-4.01771E-19 2.49051E-19
 -1      3499 9.31470E-05-2.96164E-05-2.71641E-05-1.50165E-05-5.22406E-21 2.15104E-19
 -1      3500 9.17533E-05-2.78319E-05-2.73956E-05-1.39933E-05 4.86692E-19 8.14738E-19
 -1      3501 8.93976E-05-2.86531E-05-2.60712E-05-1.69646E-05 4.89658E-20 5.21848E-19
 -1      3502 9.16521E-05-2.67672E-05-2.77643E-05-1.25668E-05-4.88865E-19 2.48803E-19
 -1      3503 9.10370E-05-2.57971E-05-2.79726E-05-1.16288E-05-1.06095E-18 7.60420E-19
 -1      3504 8.85122E-05-2.56736E-05-2.69511E-05-1.34972E-05-4.20935E-19-1.27978E-19
 -1      3505 9.13371E-05-2.53332E-05-2.82605E-05-1.05206E-05-6.28276E-19 5.88861E-19
 -1      3506 9.11704E-05-2.48915E-05-2.84204E-05-9.69736E-06-3.96228E-19 7.69153E-19
 -1      3507 8.88305E-05-2.42845E-05-2.76648E-05-1.08978E-05-5.02479E-19-5.71286E-19
 -1      3508 9.16350E-05-2.47866E-05-2.86327E-05-8.82489E-06-4.49421E-19 4.01001E-19
 -1      3509 9.16918E-05-2.46526E-05-2.87452E-05-8.10474E-06 3.26996E-19 3.31179E-19
 -1      3510 8.96489E-05-2.38228E-05-2.82048E-05-8.92419E-06-5.43684E-19 3.93020E-19
 -1      3511 9.21878E-05-2.47396E-05-2.88983E-05-7.39320E-06 5.37828E-19 8.01024E-19
 -1      3512 9.23538E-05-2.47649E-05-2.89760E-05-6.75801E-06 6.60414E-19 1.15323E-20
 -1      3513 9.06291E-05-2.38718E-05-2.85997E-05-7.37751E-06 3.58112E-19 1.18670E-18
 -1      3514 9.51940E-05-2.80329E-05-2.87792E-05-1.95403E-06-2.27820E-20-7.07271E-19
 -1      3515 9.52270E-05-2.81466E-05-2.87520E-05-1.83033E-06-1.98198E-19-8.46559E-19
 -1      3516 9.53433E-05-2.82765E-05-2.87393E-05-1.73145E-06-2.32066E-19-7.36833E-19
 -1      3517 9.53759E-05-2.83672E-05-2.87203E-05-1.64584E-06-2.39201E-19-6.96706E-19
 -1      3518 9.52683E-05-2.81424E-05-2.87684E-05-1.73155E-06-6.91553E-20-6.94187E-19
 -1      3519 9.48501E-05-2.74308E-05-2.88889E-05-2.69134E-06 2.02301E-19-6.70630E-19
 -1      3520 9.48836E-05-2.75729E-05-2.88525E-05-2.46281E-06 3.17484E-19-8.67003E-19
 -1      3521 9.46567E-05-2.71015E-05-2.89465E-05-3.23668E-06 2.81547E-19-3.81804E-19
 -1      3522 9.46864E-05-2.72442E-05-2.89097E-05-2.94675E-06 3.81715E-19-5.03987E-19
 -1      3523 9.44412E-05-2.70803E-05-2.88672E-05-2.75874E-06 1.70319E-21-8.29181E-19
 -1      3524 9.44600E-05-2.67882E-05-2.89958E-05-3.91210E-06-3.58842E-19-2.48736E-20
 -1      3525 9.44779E-05-2.69146E-05-2.89622E-05-3.55912E-06-8.04641E-20-3.20965E-19
 -1      3526 9.41000E-05-2.66703E-05-2.88963E-05-3.33125E-06 1.80213E-20 1.00568E-19
 -1      3527 9.42842E-05-2.65386E-05-2.90264E-05-4.71926E-06-1.11059E-19 3.69460E-19
 -1      3528 9.42742E-05-2.66215E-05-2.90008E-05-4.30606E-06-2.41858E-19-2.38987E-19
 -1      3529 9.37353E-05-2.62792E-05-2.89074E-05-4.04051E-06-1.51309E-19-1.85543E-19
 -1      3530 9.41770E-05-2.64283E-05-2.90263E-05-5.65173E-06 2.29318E-19 4.28086E-19
 -1      3531 9.41102E-05-2.64253E-05-2.90144E-05-5.18721E-06 2.92061E-19 2.27659E-19
 -1      3532 9.33728E-05-2.59629E-05-2.88882E-05-4.89533E-06-4.59627E-20-6.85429E-19
 -1      3533 9.42237E-05-2.65728E-05-2.89822E-05-6.69204E-06 2.04629E-19 7.63591E-19
 -1      3534 9.40510E-05-2.64201E-05-2.89898E-05-6.19362E-06 4.63734E-19 5.96432E-19
 -1      3535 9.30647E-05-2.58090E-05-2.88239E-05-5.90218E-06 2.93884E-19-5.06245E-19
 -1      3536 9.45671E-05-2.71402E-05-2.88830E-05-7.80558E-06 2.36389E-19 2.58278E-19
 -1      3537 9.42094E-05-2.67468E-05-2.89145E-05-7.30363E-06 2.81774E-19 3.61228E-19
 -1      3538 9.29065E-05-2.59508E-05-2.86994E-05-7.06488E-06 4.94538E-19 2.92243E-19
 -1      3539 9.54309E-05-2.83596E-05-2.87268E-05-8.92677E-06-4.50117E-19 2.93835E-19
 -1      3540 9.47696E-05-2.76046E-05-2.87805E-05-8.47320E-06-1.59856E-19 3.24399E-19
 -1      3541 9.30602E-05-2.65815E-05-2.85030E-05-8.38048E-06 8.13446E-20 3.96460E-19
 -1      3542 9.71415E-05-3.05136E-05-2.85339E-05-9.92782E-06-7.76843E-19-1.95970E-19
 -1      3543 9.60145E-05-2.92549E-05-2.85952E-05-9.61362E-06-6.40168E-19 1.42034E-19
 -1      3544 9.37857E-05-2.79665E-05-2.82346E-05-9.82463E-06-2.32407E-19 1.59002E-19
 -1      3545 9.71774E-05-3.20283E-05-2.83355E-05-9.79072E-06-1.10024E-18-1.00072E-18
 -1      3546 9.83497E-05-3.20011E-05-2.83987E-05-1.05374E-05-1.12965E-18-4.21671E-19
 -1      3547 9.54810E-05-3.04462E-05-2.79226E-05-1.13096E-05-8.61949E-19 5.86173E-20
 -1      3548 9.82570E-05-3.34070E-05-2.78695E-05-6.82241E-06-1.87269E-18-2.47251E-19
 -1      3549 9.59638E-05-3.17513E-05-2.77755E-05-8.26625E-06-1.51860E-18-5.52213E-19
 -1      3550 9.17961E-05-3.06538E-05-2.69878E-05-1.06403E-05-2.38413E-18-1.38024E-18
 -1      3551 1.04764E-04-3.75376E-05-2.87572E-05-3.34562E-06-2.57968E-18 1.25566E-19
 -1      3552 1.01451E-04-3.54715E-05-2.81771E-05-5.72830E-06-2.07626E-18 2.82883E-19
 -1      3553 9.65780E-05-3.44644E-05-2.68055E-05-9.34579E-06-2.48846E-18 3.58311E-19
 -1      3554 1.12818E-04-4.25434E-05-3.01302E-05-8.86847E-07-2.74047E-18-4.32730E-19
 -1      3555 1.08991E-04-4.11430E-05-2.90153E-05-3.88967E-06-3.00306E-18-2.19388E-19
 -1      3556 9.90345E-05-3.25871E-05-2.84343E-05 1.13947E-05 9.41454E-19-9.29308E-19
 -1      3557 1.00988E-04-3.45655E-05-2.84380E-05 1.13548E-05 6.24005E-19-7.83846E-19
 -1      3558 9.64831E-05-2.96763E-05-2.86116E-05 1.04855E-05 1.28473E-18-1.60178E-18
 -1      3559 9.77226E-05-3.10224E-05-2.85593E-05 1.07852E-05 1.17022E-18-1.24637E-18
 -1      3560 9.60558E-05-3.09837E-05-2.79413E-05 1.22721E-05 1.39025E-18-4.79434E-19
 -1      3561 9.50983E-05-2.78679E-05-2.88069E-05 9.32904E-06 9.93387E-20-1.12359E-18
 -1      3562 9.58362E-05-2.87061E-05-2.87491E-05 9.78582E-06 3.95157E-19-1.35952E-18
 -1      3563 9.42053E-05-2.83453E-05-2.82540E-05 1.07566E-05 1.08790E-18-2.82592E-19
 -1      3564 9.44508E-05-2.68529E-05-2.89716E-05 8.11712E-06 9.44209E-19 7.30621E-19
 -1      3565 9.48622E-05-2.73300E-05-2.89265E-05 8.63830E-06 7.74243E-19-3.99312E-19
 -1      3566 9.33856E-05-2.68020E-05-2.85498E-05 9.25628E-06-3.59152E-19 5.09743E-19
 -1      3567 9.42338E-05-2.63559E-05-2.90948E-05 6.93473E-06 9.70884E-19-3.34638E-19
 -1      3568 9.44473E-05-2.65999E-05-2.90652E-05 7.47283E-06 1.26116E-18-2.46605E-20
 -1      3569 9.31849E-05-2.60114E-05-2.87937E-05 7.87154E-06 7.87999E-19 9.59004E-19
 -1      3570 9.42385E-05-2.61438E-05-2.91865E-05 5.82594E-06 4.47624E-19-3.17777E-19
 -1      3571 9.43442E-05-2.62701E-05-2.91665E-05 6.35251E-06 6.41692E-19 3.76434E-19
 -1      3572 9.33127E-05-2.56932E-05-2.89847E-05 6.62457E-06 5.38936E-19 9.64282E-19
 -1      3573 1.23540E-04-4.65977E-05-3.30841E-05-2.50488E-06 3.38380E-19-3.28497E-18
 -1      3574 9.37958E-05-2.55830E-05-2.92442E-05 4.61175E-06-1.18054E-18 1.26857E-18
 -1      3575 9.43046E-05-2.60134E-05-2.92658E-05 4.67057E-06-8.71711E-19 1.60722E-18
 -1      3576 9.43520E-05-2.60875E-05-2.92535E-05 4.99574E-06-8.59758E-19 4.92803E-19
 -1      3577 9.33132E-05-2.52879E-05-2.91532E-05 4.91256E-06-1.56268E-18 2.65562E-18
 -1      3578 8.94976E-05-2.24868E-05-2.87219E-05-1.16139E-06-9.09424E-19 4.06540E-20
 -1      3579 8.94160E-05-2.24423E-05-2.87086E-05-1.85348E-07-1.73245E-18 1.06566E-18
 -1      3580 9.58312E-05-2.85854E-05-2.88194E-05-1.22324E-06 1.86946E-19-1.03056E-18
 -1      3581 9.58671E-05-2.85040E-05-2.88662E-05-1.11751E-06 2.57809E-20-8.92767E-19
 -1      3582 9.56898E-05-2.54865E-05-3.00822E-05-1.47711E-06-7.89394E-19-1.09962E-18
 -1      3583 9.58459E-05-2.62168E-05-2.98510E-05-8.43165E-07-7.60718E-19-1.15700E-18
 -1      3584 9.54807E-05-2.84678E-05-2.87167E-05-1.57825E-06-1.46527E-19-6.46035E-19
 -1      3585 9.55136E-05-2.85301E-05-2.87084E-05-1.51753E-06-6.04833E-20-4.55841E-19
 -1      3586 9.54870E-05-2.83903E-05-2.87565E-05-1.55963E-06-6.40402E-20-4.67756E-19
 -1      3587 1.09709E-04-4.20935E-05-2.88111E-05 1.00036E-05 5.56123E-19-1.50091E-18
 -1      3588 1.12838E-04-4.44513E-05-2.93068E-05 8.13252E-06 1.33937E-19-1.93078E-18
 -1      3589 9.59130E-05-2.83865E-05-2.89415E-05-9.91313E-07-7.96050E-20-9.39640E-19
 -1      3590 9.59454E-05-2.82201E-05-2.90191E-05-8.10069E-07 6.05192E-20-9.53207E-19
 -1      3591 9.61203E-05-2.84267E-05-2.90140E-05-9.59020E-07 1.22115E-19-1.18534E-18
 -1      3592 1.03294E-04-3.68122E-05-2.84068E-05 1.15875E-05 3.98269E-19-1.12819E-18
 -1      3593 1.06032E-04-3.92951E-05-2.85710E-05 1.09288E-05 9.44134E-19-5.26395E-19
 -1      3594 9.95055E-05-3.51316E-05-2.77164E-05 1.34857E-05 6.38133E-19-1.94466E-18
 -1      3595 9.59523E-05-2.79914E-05-2.91300E-05-5.97685E-07 1.70849E-19-9.04473E-19
 -1      3596 9.59723E-05-2.77073E-05-2.92479E-05-2.97062E-07 1.95355E-19-9.27557E-19
 -1      3597 9.61697E-05-2.80254E-05-2.92070E-05-5.97969E-07 1.42362E-19-9.66706E-19
 -1      3598 9.50300E-05-2.77471E-05-2.88309E-05-2.26814E-06 5.11036E-19-1.06177E-18
 -1      3599 9.50638E-05-2.78784E-05-2.87980E-05-2.09595E-06 2.91069E-19-7.59872E-19
 -1      3600 9.50240E-05-2.78336E-05-2.87954E-05-1.97500E-06 5.67976E-20-1.30974E-18
 -1      3601 9.47495E-05-2.74751E-05-2.88308E-05-2.31148E-06 3.90716E-19-1.27222E-18
 -1      3602 9.22807E-05-1.81145E-05-3.17974E-05-1.00768E-06-3.02557E-19-1.93157E-18
 -1      3603 9.23911E-05-1.83056E-05-3.17660E-05-1.75995E-06-4.28539E-19-1.81850E-18
 -1      3604 9.33743E-05-1.99680E-05-3.14415E-05-1.75887E-06-4.36675E-19-1.74294E-18
 -1      3605 1.00274E-04-4.09721E-05-2.52815E-05-2.22682E-05-2.82591E-19 9.23974E-19
 -1      3606 9.59180E-05-3.66595E-05-2.52705E-05-2.14114E-05-1.62061E-19 1.39944E-18
 -1      3607 6.00458E-05-1.67062E-05-1.82687E-05-1.67269E-05-9.61938E-19-3.21820E-19
 -1      3608 6.66524E-05-2.15800E-05-1.92510E-05-2.24211E-05-2.87568E-19 1.36822E-18
 -1      3609 1.13907E-04-4.79192E-05-2.84747E-05 1.32301E-05-4.00686E-19-4.29099E-18
 -1      3610 1.06414E-04-4.46011E-05-2.61606E-05 1.94634E-05-6.87576E-19-3.15893E-18
 -1      3611 9.53415E-05-2.47505E-05-3.02537E-05 2.75015E-06 8.87895E-19-1.20663E-18
 -1      3612 9.50581E-05-2.39074E-05-3.05015E-05 2.99590E-06 9.06151E-19-1.23059E-18
 -1      3613 9.54934E-05-2.55950E-05-2.99625E-05 1.84380E-06 7.63976E-19-1.20812E-18
 -1      3614 9.60439E-05-2.68531E-05-2.96448E-05-4.02959E-07-7.50668E-19-1.19588E-18
 -1      3615 9.60908E-05-2.73304E-05-2.94759E-05 2.76216E-08-7.38493E-19-1.12239E-18
 -1      3616 9.62666E-05-2.73579E-05-2.95326E-05 8.50718E-08-6.38959E-19-1.08162E-18
 -1      3617 9.40341E-05-2.13463E-05-3.11465E-05-4.32958E-06-9.53349E-19-1.36891E-18
 -1      3618 1.20891E-04-4.83483E-05-3.10954E-05 4.05964E-06 3.04250E-19-4.15388E-18
 -1      3619 1.17817E-04-4.79330E-05-2.98959E-05 7.23191E-06 2.17635E-19-3.83602E-18
 -1      3620 9.48419E-05-2.32489E-05-3.06799E-05 2.79122E-06 7.45471E-19-1.25032E-18
 -1      3621 6.59828E-05-1.64474E-05-2.11440E-05 9.66938E-06-7.07054E-19-3.74375E-19
 -1      3622 5.94117E-05-1.39684E-05-1.92857E-05 7.67770E-06-1.53978E-19 2.20877E-19
 -1      3623 6.06590E-05-1.36879E-05-2.01440E-05 1.49018E-06 5.68184E-19 1.90291E-19
 -1      3624 4.63549E-05-1.03986E-05-1.53500E-05-1.48414E-05-6.51527E-19-1.70154E-18
 -1      3625 4.63776E-05-1.12087E-05-1.47901E-05-1.90469E-05-1.35573E-18-2.69624E-18
 -1      3626 5.29504E-05-1.52006E-05-1.60538E-05-2.11405E-05-1.77175E-18-2.10212E-18
 -1      3627 7.46074E-05-2.54755E-05-2.07899E-05-2.39014E-05 2.95634E-19 8.46742E-19
 -1      3628 8.28411E-05-2.98999E-05-2.26834E-05-2.36544E-05 4.53076E-20-5.82441E-19
 -1      3629 7.36167E-05-2.30463E-05-2.15601E-05-2.02269E-05 3.31402E-19 2.66299E-19
 -1      3630 1.00148E-04-4.00128E-05-2.56396E-05 1.96987E-05-1.04680E-18-2.67560E-18
 -1      3631 9.41198E-05-2.14869E-05-3.11431E-05 1.75749E-06 4.46221E-19-1.62478E-18
 -1      3632 9.39832E-05-2.11928E-05-3.12032E-05 1.24233E-06 2.59345E-19-1.55281E-18
 -1      3633 1.16853E-04-4.30387E-05-3.15272E-05 2.60271E-06-2.86120E-18-4.66550E-19
 -1      3634 6.93611E-05-2.65333E-05-1.80109E-05-2.80182E-05-2.26936E-18 3.85479E-19
 -1      3635 7.75609E-05-3.05336E-05-2.01176E-05-2.50447E-05-2.13204E-18-1.28034E-19
 -1      3636 6.37503E-05-2.22508E-05-1.76835E-05-2.50544E-05-2.18926E-18-1.68798E-19
 -1      3637 9.45235E-05-2.24216E-05-3.08927E-05-3.32861E-06-8.09916E-19-1.34079E-18
 -1      3638 9.38974E-05-2.10196E-05-3.12451E-05 8.04470E-07 5.22697E-20-1.52220E-18
 -1      3639 9.38494E-05-2.09200E-05-3.12649E-05 2.45608E-07-6.61036E-20-1.62748E-18
 -1      3640 9.46387E-05-2.23468E-05-3.09639E-05 8.22860E-07 1.19157E-19-1.35334E-18
 -1      3641 7.97760E-05-2.85771E-05-2.04204E-05-8.56637E-06 1.39547E-17 4.42659E-18
 -1      3642 6.25136E-05-1.93617E-05-1.78716E-05-2.14377E-06 6.04792E-18 4.37980E-18
 -1      3643 5.31414E-05-1.40589E-05-1.62372E-05-1.98737E-07 6.00578E-18 4.70866E-18
 -1      3644 4.66243E-05-9.55001E-06-1.59041E-05-2.58704E-06 5.32561E-18 4.87171E-18
 -1      3645 8.87622E-05-2.21672E-05-2.85271E-05 4.63595E-07-1.79248E-18 9.99096E-19
 -1      3646 8.95123E-05-2.25431E-05-2.87114E-05 9.50081E-07-1.51014E-18 7.42353E-19
 -1      3647 8.97570E-05-2.27212E-05-2.87272E-05 1.90044E-06-1.00055E-18 1.10521E-18
 -1      3648 8.20049E-05-2.89435E-05-2.26863E-05 2.20242E-05-8.04410E-19-3.30555E-19
 -1      3649 7.47566E-05-2.46330E-05-2.11752E-05 2.20217E-05-1.31662E-18 8.23237E-19
 -1      3650 7.17861E-05-2.12381E-05-2.16782E-05 1.73129E-05-1.15778E-18-1.86612E-21
 -1      3651 3.99194E-05-5.52409E-06-1.50840E-05-3.35016E-06 3.15048E-18 2.60839E-18
 -1      3652 3.75470E-05-4.61951E-06-1.39844E-05-5.42841E-06 1.39961E-18 5.64336E-20
 -1      3653 4.07766E-05-6.60598E-06-1.48542E-05-7.82280E-06 1.19230E-18-2.50351E-19
 -1      3654 9.01670E-05-2.29364E-05-2.88033E-05-3.16884E-06-3.20328E-19-3.59063E-18
 -1      3655 8.97567E-05-2.26773E-05-2.87615E-05-2.26874E-06-3.53547E-19-2.97297E-18
 -1      3656 8.89495E-05-2.22610E-05-2.85670E-05-1.84876E-06-9.86220E-19-6.12945E-19
 -1      3657 9.31753E-05-1.95948E-05-3.15167E-05-5.86030E-07-2.48023E-19-1.83097E-18
 -1      3658 9.28953E-05-2.50086E-05-2.90910E-05-6.38203E-06 1.15583E-18-1.45311E-19
 -1      3659 9.31159E-05-2.51197E-05-2.91463E-05-5.88270E-06 1.48755E-18 2.03061E-19
 -1      3660 9.26503E-05-2.47592E-05-2.90937E-05-5.64105E-06 1.13036E-18 7.52190E-19
 -1      3661 9.16904E-05-2.42627E-05-2.88872E-05-6.33476E-06 1.18320E-18 1.26559E-18
 -1      3662 9.57265E-05-2.86429E-05-2.87486E-05-1.36301E-06 2.09530E-19-8.06579E-19
 -1      3663 9.57621E-05-2.86234E-05-2.87720E-05-1.29775E-06 2.94703E-19-8.42210E-19
 -1      3664 9.60091E-05-2.86158E-05-2.88851E-05-1.17855E-06 1.37733E-19-1.28527E-18
 -1      3665 1.03745E-04-4.04825E-05-2.71346E-05-9.68846E-06-2.37654E-18 5.81773E-19
 -1      3666 9.61106E-05-2.73265E-05-2.94808E-05-2.18658E-08 2.84929E-19-1.02724E-18
 -1      3667 9.59113E-05-2.73112E-05-2.94049E-05 4.96076E-08 2.99255E-19-9.15433E-19
 -1      3668 9.44342E-05-2.61819E-05-2.92479E-05 5.31172E-06-8.98271E-20 3.57619E-19
 -1      3669 9.50579E-05-2.36618E-05-3.06024E-05-2.73088E-06-8.57575E-19-1.21013E-18
 -1      3670 9.53551E-05-2.46141E-05-3.03268E-05-1.97737E-06-8.10675E-19-1.19072E-18
 -1      3671 9.54719E-05-2.46380E-05-3.03523E-05-1.63534E-06-7.65947E-19-8.98617E-19
 -1      3672 9.45713E-05-2.24971E-05-3.08827E-05-2.71174E-06-6.99135E-19-1.25067E-18
 -1      3673 9.37979E-05-2.07720E-05-3.12733E-05 2.84683E-06 6.64067E-19-1.60841E-18
 -1      3674 9.36942E-05-3.85107E-05-2.35337E-05-2.06291E-05-2.69335E-18-9.36885E-19
 -1      3675 9.97224E-05-3.97967E-05-2.56264E-05-1.37317E-05-2.44693E-18-3.90039E-19
 -1      3676 9.56619E-05-3.57904E-05-2.56309E-05-1.21164E-05-2.26430E-18 1.17913E-19
 -1      3677 9.30671E-05-2.52432E-05-2.90741E-05 5.38826E-06-6.93079E-19 2.83926E-18
 -1      3678 9.36502E-05-2.56535E-05-2.91377E-05 5.52064E-06-5.99087E-19 1.54577E-18
 -1      3679 1.05740E-04-4.11170E-05-2.79038E-05 1.36552E-05-2.79299E-19-3.48525E-18
 -1      3680 9.60013E-05-2.62361E-05-2.98983E-05-6.72791E-07-8.44810E-19-9.22559E-19
 -1      3681 6.09864E-05-1.54555E-05-1.92836E-05-1.08733E-05-2.30697E-19-7.67624E-21
 -1      3682 9.14891E-05-2.40759E-05-2.89070E-05 4.48479E-06-4.20984E-19 1.08426E-18
 -1      3683 9.22179E-05-2.45918E-05-2.89702E-05 5.01922E-06-1.03012E-18 2.20077E-18
 -1      3684 9.25186E-05-2.49553E-05-2.89504E-05 5.68108E-06-3.27987E-19 2.31623E-18
 -1      3685 9.58706E-05-2.69418E-05-2.95312E-05 4.43374E-07 3.60223E-19-1.05275E-18
 -1      3686 9.56083E-05-2.85953E-05-2.87175E-05-1.46682E-06-1.08055E-19-6.97719E-19
 -1      3687 9.56425E-05-2.86221E-05-2.87229E-05-1.41435E-06 3.38923E-20-7.04172E-19
 -1      3688 9.56837E-05-2.85649E-05-2.87666E-05-1.43296E-06-2.74721E-19-5.19708E-19
 -1      3689 9.39716E-05-2.11748E-05-3.12064E-05-1.21352E-06-3.41826E-19-1.70735E-18
 -1      3690 9.41020E-05-2.14581E-05-3.11469E-05-1.72451E-06-4.95125E-19-1.69479E-18
 -1      3691 1.32082E-04-6.42643E-05-2.85563E-05 3.33586E-06 2.07052E-18-3.80119E-19
 -1      3692 1.22940E-04-5.82475E-05-2.70110E-05 1.20980E-06 3.71143E-18-4.75741E-19
 -1      3693 1.26449E-04-6.13732E-05-2.77001E-05 2.84422E-06 2.33564E-18 2.18301E-19
 -1      3694 9.21932E-05-2.44277E-05-2.90518E-05-5.31797E-06 1.14400E-18 4.42929E-19
 -1      3695 9.42265E-05-2.17056E-05-3.10828E-05-2.03834E-06-5.11885E-19-1.71600E-18
 -1      3696 9.44330E-05-2.21766E-05-3.09788E-05-2.45662E-06-5.99107E-19-1.52860E-18
 -1      3697 9.49822E-05-2.33468E-05-3.06972E-05-1.92822E-06-5.61479E-19-1.39079E-18
 -1      3698 9.47959E-05-2.27558E-05-3.08593E-05-1.46905E-06-4.39179E-19-1.63560E-18
 -1      3699 9.14757E-05-2.40157E-05-2.89122E-05-5.48439E-06 1.60912E-18 4.28113E-19
 -1      3700 9.15580E-05-2.39351E-05-2.89706E-05-4.80354E-06 1.05778E-18-1.30534E-19
 -1      3701 9.08673E-05-2.34751E-05-2.89011E-05-4.14544E-06 8.53937E-19-1.78616E-18
 -1      3702 9.09084E-05-2.37479E-05-2.87922E-05-5.78220E-06 9.30976E-19 3.97874E-19
 -1      3703 9.42788E-05-2.18276E-05-3.10555E-05 2.12846E-06 5.65881E-19-1.64018E-18
 -1      3704 9.48420E-05-2.28535E-05-3.08333E-05 1.54398E-06 5.13636E-19-1.42165E-18
 -1      3705 9.45042E-05-2.23379E-05-3.09502E-05 2.55835E-06 6.27466E-19-1.53976E-18
 -1      3706 9.30591E-05-4.13400E-05-2.17644E-05 3.20754E-06 5.32736E-18 2.09238E-18
 -1      3707 9.17094E-05-2.65567E-05-2.79318E-05 1.04807E-05 7.70627E-19 9.32437E-19
 -1      3708 9.23652E-05-2.75149E-05-2.77541E-05 1.12836E-05 1.36498E-18 3.33794E-19
 -1      3709 9.64659E-05-2.83722E-05-2.91801E-05 7.23635E-07-1.52691E-19-7.92827E-19
 -1      3710 9.64135E-05-2.85232E-05-2.90972E-05 8.55807E-07-3.54185E-20-6.44997E-19
 -1      3711 9.63343E-05-2.86164E-05-2.90203E-05 9.34755E-07-7.62907E-20-3.80712E-19
 -1      3712 9.62498E-05-2.86643E-05-2.89652E-05 1.02083E-06 5.50535E-20-5.19686E-19
 -1      3713 9.64964E-05-2.85406E-05-2.91245E-05 7.66987E-07 9.84864E-20-5.76533E-19
 -1      3714 9.61278E-05-2.86625E-05-2.89133E-05 1.07427E-06 2.20913E-20-5.24076E-19
 -1      3715 9.60212E-05-2.86322E-05-2.88800E-05 1.13879E-06 2.92783E-20-8.04957E-19
 -1      3716 9.62967E-05-2.86503E-05-2.89921E-05 9.10836E-07-3.44096E-20-3.73516E-19
 -1      3717 9.58665E-05-2.85570E-05-2.88477E-05 1.18462E-06 2.00847E-19-7.59223E-19
 -1      3718 9.57419E-05-2.84650E-05-2.88313E-05 1.24737E-06 1.51335E-19-5.14824E-19
 -1      3719 9.60225E-05-2.85797E-05-2.89045E-05 1.01928E-06 1.26677E-19-4.08917E-19
 -1      3720 9.55581E-05-2.83303E-05-2.88138E-05 1.30043E-06-2.27947E-20-4.26367E-19
 -1      3721 9.54150E-05-2.81872E-05-2.88099E-05 1.37738E-06-2.38920E-19-6.07388E-19
 -1      3722 9.56874E-05-2.83666E-05-2.88516E-05 1.12388E-06 1.19432E-19 4.88458E-20
 -1      3723 9.52007E-05-2.80015E-05-2.88027E-05 1.44969E-06-4.49737E-19-7.49008E-19
 -1      3724 9.50358E-05-2.78136E-05-2.88074E-05 1.55360E-06-3.82353E-19-7.96152E-19
 -1      3725 9.52933E-05-2.80352E-05-2.88239E-05 1.25074E-06-1.87353E-19-3.11708E-19
 -1      3726 9.47855E-05-2.75814E-05-2.88061E-05 1.65487E-06-2.27331E-20-7.78958E-19
 -1      3727 9.45929E-05-2.73523E-05-2.88153E-05 1.79607E-06-9.38603E-20-5.04660E-19
 -1      3728 9.48336E-05-2.76001E-05-2.88122E-05 1.42060E-06-2.82102E-19-7.48689E-19
 -1      3729 9.42981E-05-2.70759E-05-2.88151E-05 1.93432E-06-4.12387E-19-5.04164E-19
 -1      3730 9.40701E-05-2.68081E-05-2.88246E-05 2.12126E-06-7.09050E-19-3.20046E-19
 -1      3731 9.42943E-05-2.70693E-05-2.88072E-05 1.65013E-06-2.30371E-19-9.80229E-19
 -1      3732 9.37198E-05-2.64893E-05-2.88201E-05 2.30334E-06-7.32424E-19 2.02926E-20
 -1      3733 9.34477E-05-2.61861E-05-2.88246E-05 2.54301E-06-4.09438E-19 1.09887E-19
 -1      3734 9.36560E-05-2.64478E-05-2.87983E-05 1.95296E-06-4.61348E-19-6.36235E-19
 -1      3735 9.30291E-05-2.58282E-05-2.88091E-05 2.77521E-06-4.69206E-19-7.31067E-21
 -1      3736 9.27045E-05-2.54959E-05-2.88020E-05 3.07376E-06-9.25401E-19 1.27163E-19
 -1      3737 9.28952E-05-2.57411E-05-2.87732E-05 2.34072E-06-4.78286E-19-2.54302E-19
 -1      3738 9.22040E-05-2.51060E-05-2.87669E-05 3.36280E-06-1.11909E-18 4.20205E-19
 -1      3739 8.12828E-05-2.18614E-05-2.85351E-05 4.26126E-06-2.59531E-18 3.45378E-18
 -1      3740 9.19858E-05-2.49594E-05-2.87161E-05 2.82453E-06-6.62208E-19-1.86592E-19
 -1      3741 6.63293E-05-2.25498E-05-2.38559E-05-1.54563E-06-4.00922E-18 9.47788E-18
 -1      3742 6.39367E-05-2.44833E-05-1.88829E-05-3.34828E-06-2.69963E-18 1.31375E-17
 -1      3743 7.42360E-05-2.63134E-05-2.44783E-05-3.22891E-06-5.20608E-19 4.89077E-18
 -1      3744 6.07147E-05-2.37329E-05-1.66336E-05-4.97181E-06-1.43585E-19 1.45117E-17
 -1      3745 5.68978E-05-2.20108E-05-1.48908E-05-7.03866E-06 3.53837E-18 1.61804E-17
 -1      3746 6.62794E-05-2.63189E-05-1.83013E-05-7.75350E-06 1.03296E-18 1.03291E-17
 -1      3747 5.49670E-05-2.08633E-05-1.41031E-05-9.36795E-06 7.48010E-18 1.68235E-17
 -1      3748 5.23570E-05-1.98292E-05-1.33731E-05-1.27135E-05 1.15581E-17 1.77828E-17
 -1      3749 6.15926E-05-2.49778E-05-1.54496E-05-1.06131E-05 6.38262E-18 1.32679E-17
 -1      3750 5.19005E-05-1.99790E-05-1.27297E-05-1.68053E-05 1.71480E-17 1.71420E-17
 -1      3751 4.76521E-05-1.87094E-05-1.19755E-05-1.96181E-05 2.26350E-17 2.07425E-17
 -1      3752 6.01691E-05-2.50831E-05-1.39873E-05-1.64153E-05 1.50003E-17 1.23349E-17
 -1      3753 4.56138E-05-1.68981E-05-1.21238E-05-2.89981E-05 3.62649E-17 1.91571E-17
 -1      3754 3.48981E-05-1.14439E-05-1.39242E-05-2.47901E-05 4.67579E-17 3.32477E-17
 -1      3755 6.40349E-05-2.85564E-05-1.33382E-05-2.95373E-05 3.16917E-17 8.03157E-18
 -1      3756 1.23370E-05-7.86411E-06-2.07382E-05-2.00330E-05 6.94808E-17 8.69615E-17
 -1      3757 6.22590E-05-3.66263E-05-3.09412E-05-2.73749E-05 4.73051E-17 6.33123E-17
 -1      3758 5.62890E-05-2.02005E-05-1.86143E-05-5.92124E-05 1.10627E-16 1.99218E-17
 -1      3759 1.03624E-04-4.58470E-05-2.23925E-05-1.96993E-05 1.73422E-17 2.02017E-18
 -1      3760 8.20129E-05-2.93483E-05-1.89605E-05-1.98755E-05 2.33629E-17 8.12474E-18
 -1      3761 4.57698E-05-2.12402E-06-2.35178E-05-5.78753E-05 7.06565E-17 4.16096E-17
 -1      3762 9.51868E-05-2.80041E-05-2.87897E-05-1.65276E-06-2.32632E-21-1.09982E-18
 -1      3763 9.53040E-05-2.81540E-05-2.87814E-05-1.55043E-06 1.44999E-19-6.27710E-19
 -1      3764 8.52732E-05-2.40704E-05-2.61771E-05-1.33168E-05-4.22632E-19 2.70385E-19
 -1      3765 8.52320E-05-2.32443E-05-2.66102E-05-1.18484E-05-5.95945E-19-2.63105E-20
 -1      3766 8.63579E-05-2.30212E-05-2.71156E-05-1.04823E-05-6.59710E-19-4.03821E-19
 -1      3767 8.66886E-05-2.27238E-05-2.74479E-05-9.40446E-06-6.24163E-19-3.20919E-19
 -1      3768 8.32147E-05-2.15501E-05-2.64016E-05-1.02078E-05-4.33643E-19 1.82024E-18
 -1      3769 8.77460E-05-2.28062E-05-2.78153E-05-8.44122E-06-5.65113E-19-5.62711E-20
 -1      3770 8.82301E-05-2.28156E-05-2.80601E-05-7.62588E-06-1.32296E-19 6.19821E-19
 -1      3771 8.54175E-05-2.16290E-05-2.73125E-05-7.99468E-06-4.62369E-19 4.55863E-19
 -1      3772 8.91695E-05-2.30571E-05-2.83274E-05-6.92445E-06 1.31581E-19 5.00480E-19
 -1      3773 8.96959E-05-2.32045E-05-2.85089E-05-6.28086E-06 6.17306E-19-1.89508E-20
 -1      3774 8.74146E-05-2.20988E-05-2.79730E-05-6.44160E-06-4.83228E-19 1.72776E-19
 -1      3775 9.35632E-05-2.62408E-05-2.88481E-05-3.26628E-06-1.24426E-19-3.88562E-20
 -1      3776 9.37438E-05-2.64656E-05-2.88408E-05-2.95628E-06-2.85108E-19-3.93666E-19
 -1      3777 9.40459E-05-2.67325E-05-2.88448E-05-2.69313E-06-2.15540E-19-5.48169E-19
 -1      3778 9.42111E-05-2.69541E-05-2.88306E-05-2.44625E-06-1.17826E-20-7.96108E-19
 -1      3779 9.35387E-05-2.63220E-05-2.88030E-05-2.62108E-06-1.38427E-19-4.98316E-19
 -1      3780 9.24866E-05-2.53642E-05-2.87598E-05-4.84274E-06-8.50642E-20-5.81535E-19
 -1      3781 9.26631E-05-2.55190E-05-2.87855E-05-4.39102E-06 1.21652E-19-4.63927E-19
 -1      3782 9.19693E-05-2.51300E-05-2.86357E-05-5.88070E-06 4.29160E-19-5.78100E-19
 -1      3783 9.20984E-05-2.51802E-05-2.86896E-05-5.35080E-06 3.23505E-19-7.16515E-19
 -1      3784 9.14284E-05-2.47095E-05-2.85880E-05-4.81200E-06 1.76186E-19-7.99000E-19
 -1      3785 9.15808E-05-2.52010E-05-2.84340E-05-7.11752E-06 2.53234E-19-1.32812E-19
 -1      3786 9.15989E-05-2.50679E-05-2.85240E-05-6.50392E-06 3.72032E-19-3.76270E-19
 -1      3787 9.06620E-05-2.44056E-05-2.83909E-05-5.91638E-06 1.73676E-19-8.62674E-19
 -1      3788 9.14891E-05-2.57796E-05-2.81394E-05-8.58611E-06-5.90349E-20 2.67209E-19
 -1      3789 9.12908E-05-2.53494E-05-2.82703E-05-7.88484E-06 1.89368E-19 6.00663E-20
 -1      3790 8.99812E-05-2.44233E-05-2.80949E-05-7.29026E-06-1.76192E-19-5.14613E-19
 -1      3791 9.19699E-05-2.71485E-05-2.77483E-05-1.03160E-05-1.94715E-19 9.02022E-20
 -1      3792 9.13892E-05-2.62648E-05-2.79164E-05-9.53365E-06-2.19088E-19 3.02639E-19
 -1      3793 8.95481E-05-2.49768E-05-2.76797E-05-9.01628E-06-3.32974E-19-6.91771E-20
 -1      3794 8.99430E-05-2.86160E-05-2.72080E-05-1.23888E-05-1.28230E-18 7.03037E-20
 -1      3795 9.22436E-05-2.81416E-05-2.74690E-05-1.14793E-05-3.70806E-19 9.78887E-19
 -1      3796 8.96369E-05-2.63707E-05-2.71363E-05-1.11979E-05-7.82226E-19 2.78315E-19
 -1      3797 8.85704E-05-3.01275E-05-2.52936E-05-1.20730E-05-2.57129E-18-6.53962E-19
 -1      3798 8.68101E-05-2.86181E-05-2.57888E-05-1.23999E-05-2.55873E-18-8.11458E-19
 -1      3799 8.23990E-05-2.71454E-05-2.51105E-05-1.35717E-05-1.72255E-18 4.20975E-19
 -1      3800 9.32224E-05-3.37158E-05-2.54464E-05-1.20008E-05-2.83462E-18 4.09726E-19
 -1      3801 9.01453E-05-3.14781E-05-2.52102E-05-1.23434E-05-2.85102E-18-3.74213E-19
 -1      3802 8.42737E-05-2.93557E-05-2.38937E-05-1.42247E-05-2.96974E-18-2.92809E-19
 -1      3803 8.86824E-05-3.30251E-05-2.40254E-05-1.53207E-05-2.71935E-18-3.13852E-19
 -1      3804 9.62804E-05-2.74210E-05-2.95172E-05-1.39850E-07 2.17756E-19-1.13731E-18
 -1      3805 9.62173E-05-2.69482E-05-2.96799E-05 2.18480E-07 3.27066E-19-1.09971E-18
 -1      3806 9.26900E-05-2.86097E-05-2.74606E-05 1.25382E-05 1.28809E-18-2.59621E-19
 -1      3807 9.40541E-05-3.02387E-05-2.72911E-05 1.33160E-05 1.17938E-18-3.17245E-19
 -1      3808 8.99390E-05-2.66873E-05-2.71134E-05 1.22943E-05 6.63204E-19 2.67799E-19
 -1      3809 9.19077E-05-2.50771E-05-2.86508E-05 7.26209E-06 6.36549E-19 1.75151E-18
 -1      3810 9.18993E-05-2.52892E-05-2.85313E-05 7.90417E-06-4.66261E-19 1.89360E-18
 -1      3811 9.22784E-05-2.49464E-05-2.88581E-05 6.13010E-06-3.25605E-20 2.61412E-18
 -1      3812 9.21497E-05-2.50112E-05-2.87611E-05 6.71700E-06 6.42301E-19 1.98600E-18
 -1      3813 9.08262E-05-2.42899E-05-2.85109E-05 6.73536E-06-1.29990E-19 3.11622E-18
 -1      3814 9.13223E-05-2.42974E-05-2.87379E-05 5.74448E-06-4.11340E-20 1.09450E-18
 -1      3815 9.38477E-05-2.09172E-05-3.12656E-05-2.12197E-07-1.96608E-19-1.68443E-18
 -1      3816 9.38919E-05-2.10088E-05-3.12470E-05-7.70906E-07-2.71564E-19-1.76896E-18
 -1      3817 9.46343E-05-2.23363E-05-3.09666E-05-7.98891E-07-3.88412E-19-1.61886E-18
 -1      3818 9.45645E-05-2.21729E-05-3.10070E-05 1.31184E-08-8.34845E-20-1.49014E-18
 -1      3819 9.63558E-05-3.64063E-05-2.55685E-05 1.93561E-05-1.10015E-18-2.90812E-18
 -1      3820 9.59314E-05-2.56616E-05-3.01129E-05-8.73790E-07-8.83204E-19-9.38632E-19
 -1      3821 9.61340E-05-2.63815E-05-2.99011E-05-4.22026E-07-8.47387E-19-1.00333E-18
 -1      3822 9.63381E-05-2.70008E-05-2.97111E-05-1.25323E-07-6.83302E-19-1.05566E-18
 -1      3823 9.64147E-05-2.74753E-05-2.95512E-05 1.90068E-07-5.36023E-19-1.08215E-18
 -1      3824 9.62706E-05-2.64714E-05-2.99101E-05-2.91165E-07-7.74794E-19-1.08436E-18
 -1      3825 8.87046E-05-3.23524E-05-2.41726E-05-2.25726E-05-1.12442E-18-1.11114E-19
 -1      3826 9.63865E-05-4.04306E-05-2.40802E-05-2.54811E-05 7.19713E-20 8.63775E-19
 -1      3827 9.52491E-05-2.40741E-05-3.04843E-05 2.07639E-06 6.34962E-19-1.25175E-18
 -1      3828 9.63471E-05-2.81039E-05-2.92507E-05-6.17802E-07 5.02188E-20-1.16505E-18
 -1      3829 9.63517E-05-2.78123E-05-2.93685E-05-3.81329E-07 1.23890E-19-1.17753E-18
 -1      3830 9.64276E-05-2.74691E-05-2.95532E-05-1.78082E-07 1.73275E-19-1.33289E-18
 -1      3831 9.54806E-05-2.83075E-05-2.87859E-05-1.47443E-06 1.37932E-20-7.84498E-19
 -1      3832 9.55860E-05-2.84206E-05-2.87868E-05-1.39963E-06-2.29085E-19-8.68359E-19
 -1      3833 9.53952E-05-2.81778E-05-2.88072E-05-1.38699E-06 2.85493E-20-1.41386E-18
 -1      3834 7.12365E-05-2.30048E-05-1.89708E-05-9.02752E-06 1.38814E-17 4.93608E-18
 -1      3835 9.15820E-05-2.55010E-05-2.83332E-05 8.73592E-06-1.31669E-18 1.30284E-18
 -1      3836 9.18241E-05-2.60092E-05-2.81808E-05 9.46344E-06-5.98791E-19 8.76154E-19
 -1      3837 8.98085E-05-2.51604E-05-2.77030E-05 9.93800E-06-3.52638E-19 8.05533E-19
 -1      3838 9.02718E-05-2.44887E-05-2.81853E-05 8.08537E-06-1.40686E-18 1.51673E-18
 -1      3839 9.30353E-05-2.57651E-05-2.88248E-05-3.97765E-06 2.15686E-19-6.88322E-19
 -1      3840 9.32232E-05-2.59719E-05-2.88304E-05-3.59917E-06 1.81322E-19-3.40102E-19
 -1      3841 9.21900E-05-2.51891E-05-2.87089E-05-3.91851E-06 1.17879E-19-4.20156E-19
 -1      3842 9.57398E-05-2.65726E-05-2.96470E-05 8.05950E-07 4.31222E-19-1.09358E-18
 -1      3843 9.56747E-05-2.60806E-05-2.98158E-05 1.37038E-06 6.33055E-19-1.16744E-18
 -1      3844 9.56324E-05-2.55671E-05-3.00393E-05 1.59314E-06 6.79583E-19-1.14331E-18
 -1      3845 9.59020E-05-2.64663E-05-2.97657E-05 7.00720E-07 3.91773E-19-1.03111E-18
 -1      3846 9.01801E-05-2.30833E-05-2.87714E-05 2.90857E-06-1.95700E-19 2.39544E-18
 -1      3847 9.07125E-05-2.34587E-05-2.88135E-05 3.70198E-06-6.81133E-19 1.54658E-18
 -1      3848 8.93477E-05-2.26402E-05-2.85793E-05 2.66631E-06-8.93728E-19 1.09696E-18
 -1      3849 9.62911E-05-2.84884E-05-2.90597E-05-9.18964E-07 2.56006E-19-1.49003E-18
 -1      3850 9.63355E-05-2.83297E-05-2.91416E-05-7.70929E-07 2.64790E-19-1.25870E-18
 -1      3851 9.64873E-05-2.81441E-05-2.92906E-05-5.86570E-07 1.52388E-19-1.40415E-18
 -1      3852 9.64862E-05-2.78637E-05-2.94056E-05 3.89159E-07-3.21133E-19-9.81585E-19
 -1      3853 9.64837E-05-2.81525E-05-2.92880E-05 5.96900E-07-3.02679E-19-8.87921E-19
 -1      3854 9.65930E-05-2.81955E-05-2.93133E-05 5.48871E-07-1.80591E-19-9.90982E-19
 -1      3855 9.65404E-05-2.75389E-05-2.95709E-05 2.11047E-07-4.24139E-19-1.22441E-18
 -1      3856 6.15177E-05-1.40958E-05-2.01761E-05-6.14956E-06 4.25833E-21-1.56039E-19
 -1      3857 6.60398E-05-1.73455E-05-2.08681E-05-1.35849E-05 1.59528E-19 1.23084E-20
 -1      3858 9.69656E-05-3.42791E-05-2.67673E-05 1.56073E-05-7.50152E-19-2.35769E-18
 -1      3859 8.92188E-05-3.22842E-05-2.44226E-05 2.10070E-05-1.12167E-18-3.08622E-18
 -1      3860 8.40444E-05-2.76433E-05-2.42569E-05 1.84916E-05-1.57816E-18-1.56471E-18
 -1      3861 9.43398E-05-3.16952E-05-2.68081E-05 1.50730E-05 3.66216E-19-1.60021E-18
 -1      3862 7.05448E-05-1.83418E-05-2.21418E-05 1.28298E-05-1.32215E-18-5.14295E-19
 -1      3863 6.95108E-05-1.70919E-05-2.24771E-05 8.66080E-06-1.24898E-18 2.69376E-19
 -1      3864 4.63075E-05-1.00010E-05-1.55783E-05-1.13311E-05 1.81000E-19-1.66378E-18
 -1      3865 5.03740E-05-1.25952E-05-1.63280E-05-1.38582E-05 8.96796E-20-1.22309E-18
 -1      3866 7.12117E-05-1.98652E-05-2.18077E-05-1.63700E-05-2.51833E-19 3.17121E-19
 -1      3867 7.72506E-05-2.33998E-05-2.30572E-05-1.79107E-05-5.75721E-19 8.70512E-19
 -1      3868 7.08066E-05-1.82711E-05-2.24783E-05-1.22398E-05-2.10097E-19 1.06645E-18
 -1      3869 8.99809E-05-2.29702E-05-2.87168E-05-4.00576E-06 8.38141E-21-1.84079E-18
 -1      3870 6.52588E-05-1.48916E-05-2.14616E-05-1.85452E-06 4.31616E-19 1.60327E-19
 -1      3871 5.95643E-05-1.86413E-05-1.72814E-05-2.20586E-05-2.13510E-18-5.46866E-19
 -1      3872 6.68731E-05-2.25859E-05-1.88460E-05-2.13530E-05-1.90528E-18 5.33439E-19
 -1      3873 5.66032E-05-1.63073E-05-1.72587E-05-1.83619E-05-1.41708E-18-1.14971E-18
 -1      3874 9.51563E-05-2.35165E-05-3.07144E-05 8.21279E-07 3.32377E-19-1.14119E-18
 -1      3875 9.50960E-05-2.33456E-05-3.07573E-05 4.74420E-07 1.22321E-19-1.17468E-18
 -1      3876 5.73472E-05-1.62202E-05-1.77687E-05-1.60648E-05 1.40506E-17 1.05812E-17
 -1      3877 9.49853E-05-2.78130E-05-2.87920E-05-1.76106E-06 2.14470E-19-1.19340E-18
 -1      3878 9.50207E-05-2.78147E-05-2.88014E-05-1.57135E-06 2.57260E-19-1.22618E-18
 -1      3879 9.48540E-05-2.76324E-05-2.88061E-05-1.90258E-06 3.51586E-19-1.47987E-18
 -1      3880 4.50625E-05-8.23178E-06-1.65020E-05-4.58682E-06 6.96833E-18 8.15185E-18
 -1      3881 4.15463E-05-5.59878E-06-1.58434E-05-3.94399E-06 6.16269E-18 6.65514E-18
 -1      3882 3.95692E-05-5.04741E-06-1.58196E-05-3.15550E-06 4.69807E-18 6.22823E-18
 -1      3883 4.32463E-05-6.59689E-06-1.76525E-05-1.77595E-05 1.40031E-17 1.39733E-17
 -1      3884 8.77411E-05-2.17173E-05-2.83042E-05-2.33807E-08-2.17539E-18 9.33689E-19
 -1      3885 8.78711E-05-2.18150E-05-2.83087E-05 1.15721E-06-1.75470E-18 6.73085E-19
 -1      3886 7.52420E-05-2.15594E-05-2.30058E-05 1.51210E-05-1.23176E-18 3.40309E-19
 -1      3887 8.49017E-05-2.65069E-05-2.49478E-05-1.74648E-05-8.59877E-19 1.04792E-18
 -1      3888 8.41369E-05-2.47727E-05-2.54862E-05-1.53461E-05-4.28071E-19 3.24818E-19
 -1      3889 8.78328E-05-2.17553E-05-2.83311E-05-1.41643E-06-2.20139E-18 9.87939E-19
 -1      3890 8.69370E-05-2.13353E-05-2.80987E-05-7.39288E-07-2.18628E-18 7.99616E-19
 -1      3891 8.81428E-05-2.19359E-05-2.83741E-05-2.55793E-06-1.32275E-18-6.57628E-19
 -1      3892 9.61564E-05-2.86544E-05-2.89293E-05-1.10579E-06 2.61883E-20-1.35984E-18
 -1      3893 9.62244E-05-2.85930E-05-2.89827E-05-1.01335E-06 1.88198E-20-1.48545E-18
 -1      3894 9.64100E-05-2.85136E-05-2.90998E-05-8.48569E-07 1.56925E-19-1.39481E-18
 -1      3895 8.96222E-05-2.29719E-05-2.85521E-05-5.33580E-06 6.17214E-19-6.00935E-19
 -1      3896 9.29002E-05-2.57475E-05-2.87746E-05-3.19710E-06 8.60342E-20-7.02968E-19
 -1      3897 9.53437E-05-2.40645E-05-3.05574E-05 1.33600E-06 5.00819E-19-1.40572E-18
 -1      3898 9.52283E-05-2.37212E-05-3.06490E-05 1.06471E-06 4.07283E-19-1.28458E-18
 -1      3899 9.56664E-05-2.45716E-05-3.04552E-05 6.85815E-07 3.92367E-19-1.10726E-18
 -1      3900 9.57228E-05-2.84517E-05-2.88308E-05-1.25122E-06-3.29050E-19-1.25717E-18
 -1      3901 9.57402E-05-2.85299E-05-2.88024E-05-1.34396E-06-4.10414E-19-8.99941E-19
 -1      3902 9.58352E-05-2.85983E-05-2.88163E-05-1.28234E-06-3.65550E-19-9.09132E-19
 -1      3903 8.25125E-05-3.12296E-05-2.18612E-05-2.03200E-05-2.02025E-18-6.94845E-19
 -1      3904 7.96797E-05-2.87207E-05-2.17294E-05-1.90754E-05-2.44755E-18-3.44729E-19
 -1      3905 9.04657E-05-2.91559E-05-2.62766E-05 1.54161E-05-4.65943E-19-2.08035E-18
 -1      3906 9.58594E-05-2.86490E-05-2.88063E-05-1.31923E-06 1.15830E-19-1.00274E-18
 -1      3907 9.06961E-05-2.36446E-05-2.87316E-05 4.51143E-06 1.43418E-19 1.43521E-18
 -1      3908 9.61621E-05-2.63876E-05-2.99024E-05 4.36862E-07 4.05520E-19-1.31310E-18
 -1      3909 9.60261E-05-2.63226E-05-2.98782E-05 5.90443E-07 3.42588E-19-1.15331E-18
 -1      3910 8.08735E-05-2.21771E-05-2.51441E-05-1.34811E-05-9.73271E-19 8.78057E-19
 -1      3911 9.59039E-05-2.58719E-05-3.00042E-05 9.85254E-07 4.41864E-19-1.14103E-18
 -1      3912 9.53484E-05-2.41576E-05-3.05122E-05-1.61157E-06-5.54075E-19-1.26915E-18
 -1      3913 9.56727E-05-2.50464E-05-3.02732E-05-1.13205E-06-7.15881E-19-1.07409E-18
 -1      3914 9.58059E-05-2.51698E-05-3.02685E-05-8.58824E-07-7.93259E-19-1.28995E-18
 -1      3915 9.52324E-05-2.38169E-05-3.06077E-05-1.42658E-06-5.26271E-19-1.54488E-18
 -1      3916 9.44757E-05-2.72038E-05-2.88273E-05-2.24367E-06 1.58902E-19-9.28946E-19
 -1      3917 9.46234E-05-2.74090E-05-2.88112E-05-2.05341E-06 1.95163E-19-1.19490E-18
 -1      3918 9.45925E-05-2.73757E-05-2.88051E-05-1.82602E-06 5.94586E-20-9.97754E-19
 -1      3919 9.50925E-05-2.33360E-05-3.07595E-05-4.54710E-07-3.59150E-19-1.50994E-18
 -1      3920 9.51497E-05-2.34873E-05-3.07198E-05-8.04126E-07-4.52089E-19-1.49471E-18
 -1      3921 8.51894E-05-2.85632E-05-2.42914E-05-2.02041E-05-2.81420E-19 9.73740E-19
 -1      3922 9.51512E-05-2.35825E-05-3.06763E-05-1.18528E-06-5.49360E-19-1.61088E-18
 -1      3923 4.51657E-05-9.51075E-06-1.57184E-05-7.38626E-06 1.76555E-18-1.94818E-20
 -1      3924 9.55855E-05-2.44407E-05-3.04839E-05-8.19087E-07-5.47315E-19-1.49551E-18
 -1      3925 9.41013E-05-2.68729E-05-2.88090E-05-2.17003E-06-5.26225E-20-4.53575E-19
 -1      3926 5.44349E-05-1.50782E-05-1.73197E-05-1.24435E-05 2.54692E-19-1.24037E-19
 -1      3927 5.51329E-05-1.50249E-05-1.71724E-05-1.53428E-05-7.38004E-19-7.90507E-19
 -1      3928 6.05385E-05-1.83504E-05-1.82515E-05-1.66083E-05-1.16891E-18 2.98884E-19
 -1      3929 9.14023E-05-2.46418E-05-2.86082E-05-3.65765E-06-5.64671E-20-5.79539E-19
 -1      3930 9.17774E-05-2.49351E-05-2.86574E-05-3.27863E-06 1.30725E-19-4.92109E-19
 -1      3931 8.72745E-05-2.16377E-05-2.81144E-05 2.03434E-06-1.95325E-18 4.60089E-19
 -1      3932 8.82578E-05-2.21446E-05-2.83484E-05 2.45846E-06-1.43937E-18 2.49979E-19
 -1      3933 8.87982E-05-2.25028E-05-2.84029E-05 3.48920E-06-1.29651E-18 1.05167E-18
 -1      3934 9.64465E-05-2.86479E-05-2.90559E-05 7.14852E-07 2.07732E-19-6.41213E-19
 -1      3935 9.63247E-05-2.86567E-05-2.90005E-05 7.79631E-07 1.44871E-19-3.49459E-19
 -1      3936 9.61650E-05-2.86156E-05-2.89501E-05 8.13134E-07-2.74404E-20-3.44948E-19
 -1      3937 9.60104E-05-2.85418E-05-2.89145E-05 8.66875E-07 2.73669E-19-3.03088E-19
 -1      3938 9.63008E-05-2.86174E-05-2.90072E-05 6.24728E-07 5.27683E-20-1.48572E-19
 -1      3939 9.58103E-05-2.84230E-05-2.88815E-05 8.99822E-07 3.70277E-19-3.93486E-19
 -1      3940 9.56263E-05-2.82822E-05-2.88609E-05 9.56747E-07 6.95822E-20-4.39256E-19
 -1      3941 9.59441E-05-2.84598E-05-2.89217E-05 6.96181E-07 2.17398E-19-5.89595E-19
 -1      3942 9.53887E-05-2.80996E-05-2.88404E-05 9.98388E-07-1.32410E-19-3.35526E-19
 -1      3943 9.51740E-05-2.79018E-05-2.88301E-05 1.06931E-06-2.32876E-19-2.64221E-19
 -1      3944 9.55106E-05-2.81538E-05-2.88663E-05 7.72233E-07 1.75289E-19-6.30720E-19
 -1      3945 9.48955E-05-2.76629E-05-2.88173E-05 1.12663E-06-5.88693E-19-6.10038E-19
 -1      3946 9.46447E-05-2.74139E-05-2.88126E-05 1.22015E-06-6.41741E-19-7.05179E-19
 -1      3947 9.49999E-05-2.77227E-05-2.88310E-05 8.67313E-07-5.44555E-19-1.75267E-19
 -1      3948 9.43176E-05-2.71229E-05-2.88022E-05 1.29873E-06-2.71874E-19-9.94382E-19
 -1      3949 9.40221E-05-2.68260E-05-2.87982E-05 1.42163E-06-1.57176E-19-8.91388E-19
 -1      3950 9.44010E-05-2.71794E-05-2.88057E-05 9.92697E-07-6.46683E-19-7.10248E-19
 -1      3951 9.36353E-05-2.64850E-05-2.87845E-05 1.52589E-06-3.35848E-19-1.11860E-18
 -1      3952 9.32839E-05-2.61426E-05-2.87753E-05 1.68353E-06-3.82503E-19-8.99477E-19
 -1      3953 9.36950E-05-2.65310E-05-2.87793E-05 1.15693E-06-1.81350E-19-8.04599E-19
 -1      3954 9.28233E-05-2.57539E-05-2.87514E-05 1.81706E-06-3.14883E-19-5.86532E-19
 -1      3955 9.24034E-05-2.53695E-05-2.87300E-05 2.01390E-06-6.44346E-19-5.61264E-19
 -1      3956 9.28573E-05-2.57826E-05-2.87389E-05 1.36630E-06-2.69081E-19-6.03676E-19
 -1      3957 9.18525E-05-2.49369E-05-2.86874E-05 2.18003E-06-6.76303E-19-3.32615E-19
 -1      3958 9.13502E-05-2.45170E-05-2.86449E-05 2.42059E-06-4.86715E-19-1.03708E-19
 -1      3959 9.18575E-05-2.49402E-05-2.86688E-05 1.62558E-06-5.57596E-19-2.55015E-19
 -1      3960 8.33340E-05-2.58475E-05-2.84138E-05-1.05859E-06 6.50310E-19 1.69152E-18
 -1      3961 7.17331E-05-2.75244E-05-2.38569E-05-7.63253E-06 1.31332E-18 7.03376E-18
 -1      3962 9.06604E-05-2.40142E-05-2.85494E-05 1.93952E-06-4.33422E-19-1.84719E-19
 -1      3963 7.02303E-05-2.79386E-05-1.99781E-05-9.23281E-06 1.35700E-18 7.21947E-18
 -1      3964 6.75245E-05-2.70676E-05-1.79779E-05-9.90258E-06 2.56262E-18 9.15124E-18
 -1      3965 7.24785E-05-2.85123E-05-2.33051E-05-9.98508E-06 3.03979E-18 6.08974E-18
 -1      3966 6.68905E-05-2.70781E-05-1.67213E-05-1.04306E-05 4.68392E-18 9.30546E-18
 -1      3967 6.55621E-05-2.67437E-05-1.59047E-05-1.21470E-05 7.73632E-18 9.86738E-18
 -1      3968 7.02343E-05-2.84843E-05-1.83779E-05-1.12921E-05 4.62558E-18 6.60135E-18
 -1      3969 6.64685E-05-2.76282E-05-1.51383E-05-1.28538E-05 1.08574E-17 8.56604E-18
 -1      3970 6.82758E-05-2.90247E-05-1.43960E-05-1.64214E-05 1.51487E-17 6.98273E-18
 -1      3971 7.02576E-05-2.95383E-05-1.63984E-05-1.20097E-05 8.71359E-18 5.51778E-18
 -1      3972 7.32751E-05-3.24092E-05-1.33780E-05-1.52896E-05 1.94955E-17 3.10268E-18
 -1      3973 8.54818E-05-3.79455E-05-1.28058E-05-2.41069E-05 3.01637E-17-6.76779E-18
 -1      3974 7.42864E-05-3.29052E-05-1.43367E-05-1.05895E-05 1.41961E-17 1.63816E-18
 -1      3975 1.10567E-04-4.74568E-05-1.63753E-05-1.38408E-05 2.56050E-17-4.74914E-17
 -1      3976 5.63144E-05-2.44341E-05-2.36659E-05-1.90283E-05 5.81107E-17 1.84687E-17
 -1      3977 8.61626E-05-3.88436E-05-1.36817E-05 3.51474E-06 1.32658E-17-1.70186E-17
 -1      3978-1.51713E-06 6.68644E-06-2.15122E-05-1.89021E-05 5.84834E-17 7.03173E-17
 -1      3979 3.08122E-05 5.83816E-07-1.89153E-05-1.39120E-05 1.83196E-17 2.49112E-17
 -1      3980 3.28150E-05-6.54331E-07-1.77112E-05 2.01290E-06 9.55347E-18 1.57811E-17
 -1      3981 4.33052E-05-1.90668E-05-2.14163E-05 2.51589E-05-2.67310E-17 2.05117E-17
 -1      3982 9.54662E-05-2.47108E-05-3.03224E-05 1.55932E-06 5.40609E-19-1.22553E-18
 -1      3983 7.96784E-05-2.44575E-05-2.36317E-05-1.83401E-05-5.89502E-19 1.37379E-18
 -1      3984 6.80558E-05-1.54010E-05-2.25748E-05 1.49672E-06 2.08416E-19 3.10471E-19
 -1      3985 6.86396E-05-1.57873E-05-2.26491E-05-5.22036E-06-1.45353E-19 5.63330E-19
 -1      3986 8.33313E-05-2.05807E-05-2.68860E-05-6.83099E-06-3.51465E-19 1.02503E-19
 -1      3987 8.44351E-05-2.08600E-05-2.72823E-05-6.02759E-06-9.98503E-19 4.13939E-19
 -1      3988 8.58521E-05-2.12888E-05-2.76699E-05-5.48392E-06-1.35621E-18 3.06862E-19
 -1      3989 8.67874E-05-2.16060E-05-2.79556E-05-4.89754E-06-1.09553E-18-3.51161E-19
 -1      3990 8.41112E-05-2.03758E-05-2.72875E-05-4.35048E-06-1.45515E-18 2.87449E-19
 -1      3991 8.94171E-05-2.36551E-05-2.81747E-05-5.62598E-06-1.99338E-19-6.93451E-19
 -1      3992 8.97945E-05-2.37906E-05-2.83034E-05-5.04161E-06 1.75853E-19-9.43842E-19
 -1      3993 9.04343E-05-2.40669E-05-2.84378E-05-4.52712E-06 3.67237E-19-8.26223E-19
 -1      3994 9.08269E-05-2.43084E-05-2.85210E-05-4.05777E-06 1.45015E-19-7.54198E-19
 -1      3995 8.92824E-05-2.33526E-05-2.82429E-05-4.23291E-06 5.99596E-20-6.15690E-19
 -1      3996 8.75988E-05-2.39397E-05-2.72559E-05-8.88394E-06-7.28882E-19-6.58717E-19
 -1      3997 8.77149E-05-2.35784E-05-2.75110E-05-7.93802E-06-3.98227E-19-9.37266E-19
 -1      3998 8.29405E-05-2.51524E-05-2.64174E-05-1.25743E-05-1.02618E-18 4.20975E-19
 -1      3999 8.69367E-05-2.42898E-05-2.68756E-05-1.01076E-05-1.34568E-18-7.29356E-19
 -1      4000 8.51411E-05-2.27829E-05-2.67116E-05-8.93179E-06-9.62311E-19-1.00453E-18
 -1      4001 7.77307E-05-2.56428E-05-2.28565E-05-1.39968E-05-2.11372E-18 1.00776E-18
 -1      4002 7.73887E-05-2.51438E-05-2.40379E-05-1.37484E-05-1.46473E-18 1.10093E-18
 -1      4003 7.35134E-05-2.41350E-05-2.35209E-05-1.37751E-05-1.54224E-18 1.55981E-18
 -1      4004 8.82710E-05-3.47541E-05-2.26780E-05-2.07751E-05-2.17235E-18-9.10157E-19
 -1      4005 8.63423E-05-2.58969E-05-2.59848E-05 1.39131E-05-1.12042E-18-8.46920E-19
 -1      4006 8.64218E-05-2.69755E-05-2.54324E-05 1.57301E-05-1.74273E-18-1.72358E-18
 -1      4007 8.68355E-05-2.42349E-05-2.68692E-05 1.08282E-05 1.47056E-19 3.40501E-19
 -1      4008 8.70557E-05-2.50952E-05-2.65213E-05 1.21517E-05 8.64391E-20-7.96846E-19
 -1      4009 8.33842E-05-2.31830E-05-2.57519E-05 1.21771E-05-9.24669E-19 2.58433E-19
 -1      4010 8.84249E-05-2.35442E-05-2.77904E-05-7.03692E-06-2.00491E-19-9.22522E-19
 -1      4011 8.87257E-05-2.34920E-05-2.79771E-05-6.29911E-06 1.57757E-20-1.05142E-18
 -1      4012 8.79522E-05-2.28240E-05-2.78977E-05-5.35684E-06 9.84744E-20-9.15334E-19
 -1      4013 9.50716E-05-2.32749E-05-3.07791E-05 1.95201E-07 6.37547E-20-1.30211E-18
 -1      4014 9.50702E-05-2.32718E-05-3.07799E-05-1.75113E-07-1.65976E-19-1.48336E-18
 -1      4015 9.55990E-05-2.42956E-05-3.05421E-05 2.46233E-07 2.17309E-19-1.15076E-18
 -1      4016 8.03701E-05-2.01819E-05-2.57853E-05-8.88495E-06-1.15754E-18 1.65235E-18
 -1      4017 8.15251E-05-2.02130E-05-2.63391E-05-7.72165E-06-7.01947E-19 1.39112E-18
 -1      4018 8.08851E-05-1.92767E-05-2.63372E-05-5.47727E-06-1.47336E-18 4.57530E-20
 -1      4019 9.30677E-05-2.59421E-05-2.87661E-05-2.41739E-06 1.90522E-19-6.72080E-19
 -1      4020 9.33714E-05-2.62438E-05-2.87761E-05-2.17570E-06-5.85011E-20-5.58388E-19
 -1      4021 4.44360E-05-9.55295E-06-1.60108E-05-3.14038E-06 2.77022E-18 2.74058E-18
 -1      4022 4.97431E-05-1.31818E-05-1.66609E-05-7.16362E-06 2.46465E-18 7.86682E-19
 -1      4023 7.30753E-05-2.55261E-05-2.03708E-05-1.99642E-05-2.25087E-18 4.89903E-19
 -1      4024 8.06277E-05-2.78784E-05-2.25645E-05-1.55861E-05-2.72323E-18 1.08870E-19
 -1      4025 7.89075E-05-2.65675E-05-2.26333E-05-1.50090E-05-2.43034E-18 4.94078E-19
 -1      4026 6.85680E-05-2.23270E-05-1.98483E-05-1.78082E-05-2.23236E-18 6.01354E-19
 -1      4027 9.65546E-05-2.76067E-05-2.95542E-05-2.50134E-07 1.65534E-19-1.25942E-18
 -1      4028 9.64888E-05-2.71588E-05-2.97075E-05 6.18055E-09 2.96421E-19-1.16098E-18
 -1      4029 9.37520E-05-2.65669E-05-2.87917E-05-1.98890E-06-3.24283E-19-6.88264E-19
 -1      4030 9.40178E-05-2.68466E-05-2.87933E-05-1.80117E-06-3.50905E-19-8.02087E-19
 -1      4031 9.33238E-05-2.62032E-05-2.87605E-05-1.78419E-06-3.72656E-19-7.55184E-19
 -1      4032 9.61974E-05-2.60241E-05-3.00764E-05-4.14290E-07-6.59846E-19-1.23020E-18
 -1      4033 9.64057E-05-2.66921E-05-2.98820E-05-1.07864E-07-5.51540E-19-1.06994E-18
 -1      4034 8.95045E-05-2.30442E-05-2.85010E-05 4.37772E-06-5.60528E-19 1.29142E-18
 -1      4035 9.04432E-05-2.36725E-05-2.86126E-05 5.16676E-06 5.90293E-19 1.92644E-20
 -1      4036 9.01350E-05-2.36486E-05-2.84965E-05 5.64672E-06-4.46799E-19 6.58371E-19
 -1      4037 8.84030E-05-2.24759E-05-2.82614E-05 4.23740E-06-1.83254E-18 3.60599E-19
 -1      4038 8.86624E-05-2.23739E-05-2.84212E-05-4.32763E-06-7.12926E-21-1.29254E-18
 -1      4039 9.66033E-05-2.82389E-05-2.93013E-05-5.68158E-07 1.25786E-19-1.28426E-18
 -1      4040 9.66134E-05-2.79700E-05-2.94152E-05-3.98393E-07 1.44226E-19-1.18388E-18
 -1      4041 9.66519E-05-2.76770E-05-2.95587E-05-2.43174E-07 1.62743E-19-9.40661E-19
 -1      4042 7.41980E-05-1.81541E-05-2.40422E-05 7.60523E-06-1.57751E-18-7.09347E-19
 -1      4043 7.06472E-05-1.63022E-05-2.31775E-05 4.71944E-06-4.90459E-19-6.16355E-19
 -1      4044 7.32883E-05-1.68022E-05-2.41770E-05 1.51665E-06-6.76687E-19-2.19158E-19
 -1      4045 9.53064E-05-2.80560E-05-2.88199E-05-1.23996E-06 8.73003E-20-1.09402E-18
 -1      4046 9.54835E-05-2.82231E-05-2.88280E-05-1.16204E-06-5.12906E-20-9.76531E-19
 -1      4047 9.55948E-05-2.42901E-05-3.05435E-05-2.32518E-07-2.02920E-19-1.29936E-18
 -1      4048 9.66373E-05-2.84786E-05-2.92096E-05 5.78566E-07 5.37217E-20-6.31375E-19
 -1      4049 9.65586E-05-2.85932E-05-2.91289E-05 6.69931E-07 1.33930E-19-6.42796E-19
 -1      4050 9.65712E-05-2.85943E-05-2.91328E-05 5.38649E-07 2.26463E-19-4.28686E-19
 -1      4051 9.59669E-05-2.86540E-05-2.88472E-05-1.23225E-06-2.04879E-19-1.02733E-18
 -1      4052 9.60508E-05-2.86668E-05-2.88781E-05-1.16607E-06 1.06190E-20-1.24599E-18
 -1      4053 9.62407E-05-2.86549E-05-2.89670E-05-1.01609E-06-1.35589E-19-1.45342E-18
 -1      4054 9.60056E-05-2.86188E-05-2.88810E-05-1.13797E-06-3.74931E-19-1.07503E-18
 -1      4055 9.22846E-05-2.52873E-05-2.87107E-05-2.96568E-06 2.40353E-19-6.62694E-19
 -1      4056 9.26267E-05-2.55964E-05-2.87360E-05-2.66096E-06 3.27904E-19-6.83251E-19
 -1      4057 9.15678E-05-2.47626E-05-2.86218E-05-2.70643E-06 2.31748E-19-3.59946E-19
 -1      4058 8.03303E-05-2.41484E-05-2.39864E-05 1.64795E-05-1.78108E-18 6.11138E-19
 -1      4059 9.04921E-05-2.40271E-05-2.84741E-05-3.37353E-06 1.43299E-19-8.48139E-19
 -1      4060 7.80508E-05-2.15071E-05-2.43087E-05 1.28751E-05-2.07909E-18-1.76722E-19
 -1      4061 9.25089E-05-2.55009E-05-2.87106E-05-2.18662E-06 3.52843E-19-3.87894E-19
 -1      4062 8.75442E-05-2.18096E-05-2.81667E-05-3.99469E-06-1.08924E-18-6.47947E-20
 -1      4063 8.59257E-05-2.10536E-05-2.78211E-05 1.63139E-06-1.11031E-18 4.31253E-19
 -1      4064 8.63886E-05-2.13166E-05-2.78641E-05 2.97914E-06-1.18429E-18 1.88912E-19
 -1      4065 8.78072E-05-2.35783E-05-2.75736E-05 8.52731E-06-1.73197E-18 2.68375E-19
 -1      4066 8.76200E-05-2.39343E-05-2.72858E-05 9.49570E-06-5.75757E-19-5.77263E-19
 -1      4067 8.49435E-05-2.24366E-05-2.67597E-05 9.22869E-06-5.49423E-19 3.67141E-19
 -1      4068 9.48597E-05-2.76375E-05-2.88077E-05-1.41731E-06 5.07318E-20-9.38612E-19
 -1      4069 9.50619E-05-2.78483E-05-2.88090E-05-1.31210E-06 9.25025E-20-1.06109E-18
 -1      4070 9.51526E-05-2.78875E-05-2.88265E-05-1.08087E-06 7.80577E-20-6.28336E-19
 -1      4071 9.56039E-05-2.82642E-05-2.88594E-05-9.58345E-07-2.44590E-19-7.33528E-19
 -1      4072 9.56944E-05-2.83801E-05-2.88476E-05-1.11064E-06-2.03094E-19-1.08605E-18
 -1      4073 9.58492E-05-2.84957E-05-2.88668E-05-1.04866E-06-3.81586E-19-1.04714E-18
 -1      4074 8.65406E-05-2.25688E-05-2.74015E-05-6.86608E-06-3.08975E-19-1.04916E-18
 -1      4075 8.62114E-05-2.11331E-05-2.79002E-05-3.04775E-06-1.77011E-18 9.49545E-19
 -1      4076 9.54881E-05-2.45320E-05-3.04151E-05 1.33026E-06 5.20864E-19-1.40667E-18
 -1      4077 9.58146E-05-2.52476E-05-3.02446E-05 8.35488E-07 4.79173E-19-1.45128E-18
 -1      4078 8.06849E-05-2.17022E-05-2.52706E-05 1.10978E-05-1.50791E-18 7.88480E-19
 -1      4079 7.67485E-05-1.94218E-05-2.44699E-05 9.65048E-06-1.80707E-18 5.24834E-19
 -1      4080 7.69807E-05-1.87191E-05-2.50137E-05 6.42491E-06-1.57014E-18-9.55547E-19
 -1      4081 8.15063E-05-2.13350E-05-2.58591E-05 9.42920E-06 1.72831E-20 9.59491E-19
 -1      4082 7.32769E-05-2.42794E-05-2.14365E-05-1.51964E-05-2.52665E-18 1.71700E-18
 -1      4083 9.59388E-05-2.51670E-05-3.03384E-05 2.69048E-07 3.42025E-19-8.74782E-19
 -1      4084 9.59222E-05-2.51033E-05-3.03586E-05 7.38446E-08 1.69010E-19-1.08400E-18
 -1      4085 8.98470E-05-2.36477E-05-2.83701E-05 6.16142E-06-7.65940E-19 2.92135E-19
 -1      4086 4.38764E-05-7.86001E-06-1.67303E-05-2.71440E-06 6.06931E-18 6.15793E-18
 -1      4087 9.62871E-05-2.65669E-05-2.98882E-05 2.18383E-07 3.33426E-19-1.30285E-18
 -1      4088 9.60853E-05-2.58668E-05-3.00885E-05 5.92878E-07 3.51087E-19-1.33501E-18
 -1      4089 7.67221E-05-2.01104E-05-2.42233E-05-1.20645E-05-6.50538E-19 1.49261E-18
 -1      4090 7.80769E-05-1.98310E-05-2.50138E-05-1.01954E-05-5.88999E-19 1.63183E-18
 -1      4091 5.28814E-05-1.44112E-05-1.71054E-05-9.92440E-06 1.47098E-18 1.39231E-19
 -1      4092 5.68089E-05-1.69114E-05-1.77968E-05-1.17298E-05 7.80435E-19 9.46453E-19
 -1      4093 5.19646E-05-1.60506E-05-1.73582E-05-6.15808E-06 3.24287E-18 1.81117E-18
 -1      4094 9.65684E-05-2.84367E-05-2.91974E-05-6.62355E-07 2.15297E-19-1.10003E-18
 -1      4095 9.66741E-05-2.82779E-05-2.93125E-05-4.94099E-07 7.76694E-20-1.19355E-18
 -1      4096 9.65095E-05-2.85712E-05-2.91157E-05-7.75324E-07 1.20250E-19-1.19388E-18
 -1      4097 9.59539E-05-2.54361E-05-3.02245E-05 6.03883E-07 3.86495E-19-1.36074E-18
 -1      4098 9.59314E-05-2.52550E-05-3.02931E-05 4.52272E-07 3.17545E-19-1.12799E-18
 -1      4099 9.66973E-05-2.80408E-05-2.94229E-05 3.69584E-07-1.59405E-19-8.49194E-19
 -1      4100 9.66822E-05-2.82949E-05-2.93109E-05 5.10334E-07-6.45503E-20-7.16611E-19
 -1      4101 9.67297E-05-2.83412E-05-2.93094E-05 4.17582E-07 9.87649E-20-5.06793E-19
 -1      4102 9.59282E-05-2.51027E-05-3.03595E-05-6.37959E-08 9.61535E-21-1.09997E-18
 -1      4103 9.59410E-05-2.51701E-05-3.03385E-05-2.65439E-07-1.80593E-19-1.14882E-18
 -1      4104 9.62636E-05-2.58511E-05-3.01658E-05-8.95401E-09 1.33359E-19-9.19125E-19
 -1      4105 7.29362E-05-1.70374E-05-2.38940E-05-5.29710E-06-1.43915E-19 1.44179E-18
 -1      4106 7.07907E-05-1.69832E-05-2.29780E-05-8.65068E-06-2.38890E-19 1.63107E-18
 -1      4107 7.71406E-05-2.16061E-05-2.38230E-05-1.50208E-05-1.46990E-18 4.35514E-19
 -1      4108 8.90623E-05-2.34867E-05-2.81264E-05 6.81104E-06-1.31255E-18 4.07317E-19
 -1      4109 8.86941E-05-2.35597E-05-2.79031E-05 7.59362E-06-1.66732E-18 2.51178E-19
 -1      4110 8.67455E-05-2.24007E-05-2.75268E-05 7.11472E-06-1.87794E-18 2.85483E-19
 -1      4111 8.84758E-05-2.28107E-05-2.81207E-05 5.64773E-06-1.14603E-18 1.59292E-19
 -1      4112 9.62958E-05-2.60380E-05-3.01039E-05-1.52169E-07-2.83790E-19-8.69001E-19
 -1      4113 9.59858E-05-2.53374E-05-3.02772E-05-3.61752E-07-3.79491E-19-1.17477E-18
 -1      4114 9.64163E-05-2.66932E-05-2.98819E-05 1.23291E-07 2.52767E-19-1.19226E-18
 -1      4115 9.58451E-05-2.50944E-05-3.03229E-05-5.68175E-07-6.13523E-19-1.38765E-18
 -1      4116 9.65152E-05-2.68372E-05-2.98604E-05-4.22512E-08-4.94210E-19-7.07613E-19
 -1      4117 9.65760E-05-2.72564E-05-2.97074E-05 5.05629E-08-5.32788E-19-1.08025E-18
 -1      4118 9.66537E-05-2.76921E-05-2.95580E-05 2.62423E-07-3.10692E-19-1.12693E-18
 -1      4119 9.62484E-05-2.59378E-05-3.01233E-05 2.56913E-07 2.99593E-19-9.55896E-19
 -1      4120 9.43454E-05-2.71373E-05-2.88017E-05-1.66123E-06 7.44072E-20-8.01390E-19
 -1      4121 9.45771E-05-2.73857E-05-2.88007E-05-1.51910E-06 2.39823E-19-8.41189E-19
 -1      4122 9.46304E-05-2.74103E-05-2.88061E-05-1.24837E-06 1.32563E-19-8.76719E-19
 -1      4123 7.69141E-05-1.85274E-05-2.49941E-05-7.45625E-06-9.18443E-19 1.67234E-18
 -1      4124 9.40258E-05-2.68450E-05-2.87879E-05-1.47736E-06-1.34231E-19-1.04746E-18
 -1      4125 9.64923E-05-2.65531E-05-2.99753E-05-3.38446E-08-9.30165E-22-7.73600E-19
 -1      4126 9.65359E-05-2.67330E-05-2.99177E-05-6.96473E-08-2.93873E-19-6.59440E-19
 -1      4127 9.66893E-05-2.72827E-05-2.97444E-05 7.64851E-08-1.27382E-19-4.70958E-19
 -1      4128 8.57337E-05-2.08484E-05-2.78101E-05-3.74062E-08-1.29653E-18 3.92635E-19
 -1      4129 8.49030E-05-2.05665E-05-2.75463E-05 9.24281E-07 6.46245E-19 7.27009E-20
 -1      4130 9.60700E-05-2.85186E-05-2.89515E-05 4.63882E-07-7.90910E-20-5.43201E-19
 -1      4131 9.58720E-05-2.83985E-05-2.89165E-05 5.03435E-07 4.33473E-20-7.09134E-19
 -1      4132 9.56337E-05-2.82380E-05-2.88854E-05 5.14696E-07 3.46530E-19-1.10798E-18
 -1      4133 9.53977E-05-2.80497E-05-2.88630E-05 5.57105E-07 8.18484E-20-9.39132E-19
 -1      4134 9.57598E-05-2.82961E-05-2.89119E-05 2.85848E-07 6.08851E-20-9.25789E-19
 -1      4135 9.51166E-05-2.78248E-05-2.88418E-05 5.74578E-07-2.45660E-19-1.06393E-18
 -1      4136 9.48395E-05-2.75770E-05-2.88270E-05 6.25369E-07-6.29641E-19-9.47528E-19
 -1      4137 9.52485E-05-2.79044E-05-2.88585E-05 3.17640E-07-1.03495E-19-1.52662E-18
 -1      4138 9.45101E-05-2.72941E-05-2.88104E-05 6.51401E-07-7.72471E-19-6.05714E-19
 -1      4139 9.41842E-05-2.69917E-05-2.87978E-05 7.14625E-07-3.82036E-19-5.91402E-19
 -1      4140 9.46474E-05-2.73875E-05-2.88196E-05 3.56095E-07-3.30182E-19-1.19864E-18
 -1      4141 9.37970E-05-2.66547E-05-2.87801E-05 7.50693E-07-1.55687E-19-4.70790E-19
 -1      4142 9.34113E-05-2.63007E-05-2.87637E-05 8.28956E-07-3.15729E-20-4.62439E-19
 -1      4143 9.39416E-05-2.67564E-05-2.87840E-05 4.03413E-07-1.54809E-19-5.99845E-19
 -1      4144 9.29533E-05-2.59122E-05-2.87382E-05 8.75725E-07-1.56919E-19-3.57032E-19
 -1      4145 9.24936E-05-2.55090E-05-2.87111E-05 9.70366E-07-1.89635E-19-2.52009E-19
 -1      4146 9.31088E-05-2.60180E-05-2.87393E-05 4.59737E-07-2.87855E-19-6.47575E-19
 -1      4147 9.19490E-05-2.50720E-05-2.86697E-05 1.02774E-06-2.12778E-19-3.10873E-19
 -1      4148 9.13984E-05-2.46236E-05-2.86229E-05 1.13917E-06-3.26058E-19-2.88189E-19
 -1      4149 9.21206E-05-2.51781E-05-2.86705E-05 5.23101E-07-2.52279E-19-5.69366E-19
 -1      4150 9.07483E-05-2.41430E-05-2.85554E-05 1.20644E-06-3.83301E-19 2.18210E-19
 -1      4151 9.00869E-05-2.36557E-05-2.84779E-05 1.33493E-06-2.08573E-19 2.50289E-19
 -1      4152 9.09426E-05-2.42443E-05-2.85592E-05 5.89343E-07-1.25308E-19-3.43027E-19
 -1      4153 8.25153E-05-2.66047E-05-2.81120E-05-3.55078E-06 1.19538E-18 2.96970E-18
 -1      4154 7.35718E-05-2.89407E-05-2.32830E-05-1.07008E-05 2.46338E-18 6.49335E-18
 -1      4155 8.95332E-05-2.32281E-05-2.83820E-05 6.52211E-07-3.37518E-19-2.09170E-19
 -1      4156 7.26997E-05-2.88086E-05-2.01689E-05-1.08246E-05 3.11740E-18 5.31450E-18
 -1      4157 7.24018E-05-2.90432E-05-1.89127E-05-1.09379E-05 4.57358E-18 4.81289E-18
 -1      4158 7.56774E-05-2.97484E-05-2.37921E-05-1.02277E-05 2.69356E-18 4.93312E-18
 -1      4159 7.32335E-05-2.98848E-05-1.80138E-05-1.11105E-05 6.33345E-18 3.29782E-18
 -1      4160 7.39183E-05-3.06883E-05-1.72080E-05-1.11151E-05 8.26445E-18 2.09387E-18
 -1      4161 7.57094E-05-3.04945E-05-1.96061E-05-1.02300E-05 4.56236E-18 1.82525E-18
 -1      4162 7.37586E-05-3.07458E-05-1.63530E-05-1.14239E-05 1.11229E-17 1.08928E-18
 -1      4163 7.55197E-05-3.13134E-05-1.50701E-05-8.14259E-06 1.43152E-17-2.50214E-18
 -1      4164 7.66667E-05-3.17376E-05-1.80791E-05-1.10154E-05 8.63772E-18-7.80117E-19
 -1      4165 7.36409E-05-3.10047E-05-1.36325E-05-5.98529E-06 1.58823E-17-1.71778E-18
 -1      4166 7.21935E-05-2.49873E-05-1.67743E-05 1.97884E-06 4.84249E-18-6.40357E-18
 -1      4167 7.29751E-05-2.81337E-05-1.74140E-05-1.06773E-05 1.80113E-17-2.47672E-18
 -1      4168 8.82521E-05-2.27212E-05-2.80838E-05-3.65942E-06 2.06642E-19-7.84258E-20
 -1      4169 8.88938E-05-2.30718E-05-2.82293E-05-3.23034E-06 3.27975E-19-2.44796E-20
 -1      4170 8.34476E-05-2.00442E-05-2.71980E-05-2.73708E-06-5.91436E-19-3.95516E-19
 -1      4171 8.49233E-05-2.05471E-05-2.75948E-05-2.39166E-06-1.56309E-18-1.55317E-20
 -1      4172 6.65839E-05-2.09945E-05-1.95944E-05-1.56868E-05-1.94455E-18 9.38327E-19
 -1      4173 9.20120E-05-2.51252E-05-2.86666E-05-1.83147E-06 2.05878E-19-4.40636E-19
 -1      4174 9.24541E-05-2.55044E-05-2.87014E-05-1.62837E-06 1.88103E-19-6.21793E-19
 -1      4175 8.58193E-05-2.08561E-05-2.78397E-05-1.45410E-06-1.03298E-18 9.96259E-19
 -1      4176 9.09313E-05-2.43141E-05-2.85511E-05-2.28754E-06 3.13095E-19-5.27847E-19
 -1      4177 9.14395E-05-2.47082E-05-2.86105E-05-2.02815E-06 2.98058E-19-3.59754E-19
 -1      4178 9.14622E-05-2.46738E-05-2.86032E-05-1.42545E-06 3.99123E-20-1.09025E-18
 -1      4179 8.48180E-05-2.16207E-05-2.70736E-05-6.13124E-06-3.34068E-19 1.04575E-19
 -1      4180 8.55355E-05-2.17463E-05-2.73755E-05-5.35261E-06-1.46683E-19-4.44961E-20
 -1      4181 6.80871E-05-2.20958E-05-2.08969E-05-1.30443E-05-1.44747E-18 2.80651E-18
 -1      4182 6.93452E-05-2.30801E-05-2.28258E-05-1.30323E-05-8.03940E-19 2.80368E-18
 -1      4183 7.74560E-05-2.30072E-05-2.60577E-05-1.09840E-05-8.76679E-20 1.06197E-18
 -1      4184 8.35067E-05-2.14373E-05-2.66563E-05-7.09121E-06-5.06825E-19 1.40253E-19
 -1      4185 8.27336E-05-2.52305E-05-2.65961E-05-7.85079E-06 1.54880E-18 8.86969E-19
 -1      4186 6.62770E-05-2.30599E-05-2.28038E-05-1.21242E-05-1.12084E-18 4.47699E-18
 -1      4187 8.66306E-05-2.20639E-05-2.76682E-05-4.70009E-06-3.07724E-20-1.53858E-19
 -1      4188 8.73271E-05-2.23341E-05-2.78811E-05-4.13166E-06 5.33267E-20-2.64929E-19
 -1      4189 8.51224E-05-2.73447E-05-2.70914E-05-6.77376E-06 2.45936E-18 1.20716E-18
 -1      4190 6.58569E-05-2.06245E-05-1.98106E-05-1.41937E-05-1.36410E-18 1.42360E-18
 -1      4191 9.37366E-05-2.65940E-05-2.87756E-05-1.21573E-06-3.95783E-19-1.05767E-18
 -1      4192 9.40654E-05-2.69071E-05-2.87870E-05-1.09484E-06-7.18594E-20-1.16962E-18
 -1      4193 8.75270E-05-2.22479E-05-2.79993E-05 4.82029E-06-1.61174E-18-5.34793E-20
 -1      4194 8.15902E-05-1.93689E-05-2.67052E-05-2.40631E-06-1.75306E-18-1.37992E-18
 -1      4195 8.28068E-05-1.96333E-05-2.70748E-05-2.51258E-07-4.17210E-19-1.27781E-18
 -1      4196 7.99067E-05-1.88031E-05-2.61873E-05-2.83610E-06-1.92392E-18-4.01655E-19
 -1      4197 7.44657E-05-1.91792E-05-2.37122E-05-1.16396E-05-7.37954E-19 2.07393E-18
 -1      4198 9.29409E-05-2.58929E-05-2.87354E-05-1.48145E-06-1.73722E-19-8.07774E-19
 -1      4199 9.33226E-05-2.62435E-05-2.87548E-05-1.32368E-06-4.67215E-19-9.10817E-19
 -1      4200 9.25101E-05-2.55166E-05-2.86965E-05-1.13531E-06-2.00819E-19-1.29827E-18
 -1      4201 7.51249E-05-1.74342E-05-2.47530E-05-4.26338E-06-1.06037E-18 7.98739E-19
 -1      4202 4.42875E-05-1.32395E-05-1.80468E-05 5.87863E-06 6.02876E-18 1.11139E-17
 -1      4203 9.65143E-05-2.65767E-05-2.99762E-05 3.16729E-08 1.53343E-19-7.47510E-19
 -1      4204 9.64676E-05-2.66277E-05-2.99349E-05 4.52768E-08 2.17022E-19-8.60982E-19
 -1      4205 8.30238E-05-1.98013E-05-2.70691E-05 1.54491E-06 7.14943E-19-4.83746E-19
 -1      4206 8.96824E-05-2.34954E-05-2.83662E-05-2.88089E-06-2.39307E-20-3.64177E-19
 -1      4207 9.02588E-05-2.38831E-05-2.84617E-05-2.54924E-06 3.73172E-20-2.78586E-19
 -1      4208 8.87901E-05-2.28579E-05-2.82209E-05-2.32879E-06-1.33063E-19 2.70680E-19
 -1      4209 9.66866E-05-2.85689E-05-2.91917E-05 3.42426E-07 2.76425E-19-6.51560E-19
 -1      4210 9.65684E-05-2.86309E-05-2.91165E-05 3.97705E-07 2.57204E-19-5.11529E-19
 -1      4211 9.67107E-05-2.74599E-05-2.96776E-05-7.94026E-08 9.07917E-20-1.01936E-18
 -1      4212 9.65664E-05-2.68116E-05-2.98941E-05 1.08972E-08 1.16456E-19-9.28105E-19
 -1      4213 9.67572E-05-2.74008E-05-2.97231E-05-3.52275E-08 1.73978E-20-7.12868E-19
 -1      4214 9.67635E-05-2.78513E-05-2.95370E-05-2.43255E-07 1.34706E-21-1.01199E-18
 -1      4215 9.64244E-05-2.86398E-05-2.90503E-05 4.14743E-07 7.79875E-20-5.31669E-19
 -1      4216 9.62666E-05-2.86046E-05-2.89976E-05 4.56150E-07 6.54475E-20-6.43407E-19
 -1      4217 9.65191E-05-2.86122E-05-2.91024E-05 2.27765E-07 1.54772E-19-9.94522E-19
 -1      4218 6.16303E-05-1.90663E-05-1.90848E-05-1.30839E-05-8.42904E-19 2.09273E-18
 -1      4219 7.67241E-05-1.76341E-05-2.52650E-05-7.87606E-07-2.14651E-18-4.73329E-20
 -1      4220 9.62996E-05-2.86661E-05-2.89855E-05-9.04205E-07-1.24246E-19-1.19084E-18
 -1      4221 9.64038E-05-2.86421E-05-2.90408E-05-8.24781E-07 4.43080E-20-1.04641E-18
 -1      4222 9.65524E-05-2.85851E-05-2.91312E-05-6.52747E-07 1.79453E-20-6.70792E-19
 -1      4223 8.39674E-05-2.12400E-05-2.68545E-05 7.20117E-06-1.53029E-18 3.14418E-18
 -1      4224 8.32191E-05-2.14849E-05-2.64367E-05 8.17942E-06-4.31539E-19 1.84481E-18
 -1      4225 8.09755E-05-2.01592E-05-2.60189E-05 7.03580E-06-1.01385E-18 1.68582E-18
 -1      4226 9.55100E-05-2.81646E-05-2.88617E-05-7.68000E-07-1.04735E-19-1.19995E-18
 -1      4227 9.57226E-05-2.83295E-05-2.88837E-05-7.13263E-07-3.63807E-19-1.18729E-18
 -1      4228 5.94407E-05-1.89845E-05-1.88834E-05-1.15822E-05 8.97961E-19 2.75921E-18
 -1      4229 8.71031E-05-2.70849E-05-2.76876E-05-4.64369E-06 1.06303E-18 3.09963E-19
 -1      4230 6.11386E-05-2.38078E-05-2.03471E-05-4.70093E-06-1.69661E-18 5.49555E-18
 -1      4231 5.07364E-05-2.24192E-05-2.01725E-05 4.42421E-06 4.63496E-18 1.33120E-17
 -1      4232 5.59000E-05-2.12356E-05-1.81645E-05-5.47843E-06 5.50190E-18 4.39356E-18
 -1      4233 6.21764E-05-2.38969E-05-1.86905E-05-1.26131E-05 1.21035E-17 5.23043E-18
 -1      4234 9.34021E-05-2.62850E-05-2.87538E-05-9.18633E-07-4.84414E-19-1.34086E-18
 -1      4235 8.61159E-05-2.15869E-05-2.76828E-05 4.56294E-06-4.42394E-19 5.51647E-20
 -1      4236 9.41625E-05-2.69655E-05-2.87917E-05-7.58841E-07-1.09903E-19-1.56421E-18
 -1      4237 9.44187E-05-2.72136E-05-2.88020E-05-1.01763E-06-6.50133E-21-1.20446E-18
 -1      4238 9.47025E-05-2.74831E-05-2.88117E-05-9.26236E-07 1.94088E-19-1.33387E-18
 -1      4239 9.02317E-05-2.37775E-05-2.84533E-05-1.81201E-06 2.17075E-20-3.63335E-19
 -1      4240 5.76417E-05-2.10576E-05-1.83889E-05-9.80866E-06 4.37831E-18 3.40126E-18
 -1      4241 9.50051E-05-2.77407E-05-2.88271E-05-8.72919E-07 3.17826E-19-1.35729E-18
 -1      4242 9.52508E-05-2.79614E-05-2.88405E-05-8.03709E-07 1.59304E-19-1.21389E-18
 -1      4243 9.48129E-05-2.75479E-05-2.88238E-05-6.42816E-07 3.17693E-19-1.95865E-18
 -1      4244 9.61878E-05-2.85442E-05-2.89901E-05 2.56096E-07-3.90720E-20-9.43391E-19
 -1      4245 9.53708E-05-2.80223E-05-2.88621E-05-5.59001E-07 3.83520E-21-2.00078E-18
 -1      4246 9.67313E-05-2.77825E-05-2.95485E-05 2.31207E-07-1.20152E-19-6.12098E-19
 -1      4247 9.67631E-05-2.83928E-05-2.93009E-05-3.97196E-07 3.36537E-20-7.93248E-19
 -1      4248 9.67880E-05-2.81659E-05-2.94091E-05-2.83702E-07 3.86732E-20-8.45078E-19
 -1      4249 9.68199E-05-2.79502E-05-2.95152E-05-1.40044E-07 1.41211E-20-6.14917E-19
 -1      4250 9.59885E-05-2.85227E-05-2.89144E-05-8.63528E-07-4.05409E-19-1.15355E-18
 -1      4251 9.60267E-05-2.85917E-05-2.88997E-05-1.00719E-06-5.32783E-19-1.15644E-18
 -1      4252 9.61608E-05-2.86454E-05-2.89345E-05-9.45774E-07-4.12862E-19-1.20769E-18
 -1      4253 8.49997E-05-2.13158E-05-2.73226E-05 5.33949E-06-4.58586E-19 1.09399E-18
 -1      4254 9.67590E-05-2.84355E-05-2.92835E-05 3.30653E-07 1.27908E-19-5.84812E-19
 -1      4255 9.67547E-05-2.84821E-05-2.92618E-05 1.92598E-07 8.14969E-20-7.00725E-19
 -1      4256 9.68028E-05-2.82325E-05-2.93879E-05 2.49022E-07-4.36805E-20-4.15138E-19
 -1      4257 9.10947E-05-2.44602E-05-2.85739E-05-5.07809E-07-1.40079E-19-6.74485E-19
 -1      4258 9.16817E-05-2.49019E-05-2.86335E-05-3.73513E-07-3.10432E-19-9.13173E-19
 -1      4259 9.32029E-05-2.61552E-05-2.87436E-05-2.81482E-07-2.72464E-19-1.06780E-18
 -1      4260 9.36249E-05-2.65174E-05-2.87669E-05-2.06881E-07-2.12054E-19-8.61312E-19
 -1      4261 9.67666E-05-2.76511E-05-2.96224E-05 1.15221E-07-3.79065E-20-4.40936E-19
 -1      4262 9.68091E-05-2.80074E-05-2.94860E-05 2.23916E-07 1.07825E-20-2.97332E-19
 -1      4263 9.68291E-05-2.80999E-05-2.94546E-05 1.26290E-07-7.41620E-20-3.51060E-19
 -1      4264 9.67623E-05-2.75199E-05-2.96736E-05 5.52284E-08-4.75621E-20-4.02683E-19
 -1      4265 5.74803E-05-1.87854E-05-1.92464E-05-1.19774E-05 3.50841E-18 5.02248E-18
 -1      4266 6.02694E-05-1.98286E-05-2.06507E-05-1.23323E-05 2.19053E-18 7.64151E-18
 -1      4267 6.11764E-05-2.12922E-05-2.43668E-05-1.23750E-05-8.72656E-19 1.08319E-17
 -1      4268 5.73264E-05-1.99840E-05-2.02737E-05-1.37730E-05 6.63735E-18 9.16151E-18
 -1      4269 9.66222E-05-2.86336E-05-2.91364E-05 2.62440E-08 3.50279E-20-1.07021E-18
 -1      4270 9.64726E-05-2.86407E-05-2.90709E-05 5.77204E-08 1.13228E-19-9.89712E-19
 -1      4271 9.53108E-05-2.79716E-05-2.88618E-05-1.39995E-07 9.12590E-20-1.51447E-18
 -1      4272 9.50235E-05-2.77358E-05-2.88396E-05-1.29805E-07 7.90194E-20-1.38940E-18
 -1      4273 9.47164E-05-2.74744E-05-2.88219E-05-1.70891E-07 4.04367E-21-1.29392E-18
 -1      4274 9.43798E-05-2.71801E-05-2.88039E-05-1.60871E-07 5.84772E-20-7.87361E-19
 -1      4275 9.40205E-05-2.68661E-05-2.87866E-05-2.16135E-07-2.53887E-19-1.00721E-18
 -1      4276 9.27352E-05-2.57552E-05-2.87154E-05-2.74679E-07-5.44756E-19-1.26841E-18
 -1      4277 9.22379E-05-2.53496E-05-2.86785E-05-3.74909E-07-4.16495E-19-8.26768E-19
 -1      4278 9.04304E-05-2.39703E-05-2.85016E-05-5.16275E-07-1.02393E-20-6.71976E-19
 -1      4279 8.97375E-05-2.35031E-05-2.84075E-05-6.96764E-07-2.86450E-19-2.11413E-19
 -1      4280 8.89405E-05-2.29792E-05-2.82946E-05-7.21325E-07-4.64654E-19-2.60800E-19
 -1      4281 8.43077E-05-2.59490E-05-2.79802E-05-5.19245E-06 2.47757E-19 1.58607E-18
 -1      4282 8.01252E-05-2.91390E-05-2.41934E-05-8.25234E-06 1.19474E-18 1.82641E-18
 -1      4283 8.06506E-05-3.18416E-05-2.33592E-05-8.97935E-06 3.08384E-18 1.11268E-18
 -1      4284 8.20700E-05-3.29329E-05-2.23677E-05-8.99716E-06 4.86493E-18-3.59989E-20
 -1      4285 8.17877E-05-3.26868E-05-2.21148E-05-1.01212E-05 6.24920E-18 2.63639E-20
 -1      4286 8.20457E-05-3.19874E-05-2.18631E-05-1.05122E-05 8.03326E-18-2.35687E-18
 -1      4287 5.80920E-05-2.13612E-05-2.07470E-05-1.51522E-05 1.51721E-17 1.14544E-17
 -1      4288 9.58476E-05-2.83748E-05-2.89171E-05-4.95637E-07-2.06419E-19-1.31721E-18
 -1      4289 9.59431E-05-2.84713E-05-2.89159E-05-6.88672E-07-3.51431E-19-1.07762E-18
 -1      4290 9.61278E-05-2.85739E-05-2.89517E-05-6.39467E-07-3.81355E-19-9.98664E-19
 -1      4291 7.92504E-05-1.93106E-05-2.57147E-05 5.81746E-06-2.05796E-18-3.12338E-19
 -1      4292 7.73796E-05-1.81740E-05-2.53586E-05 3.81646E-06-2.53879E-18-2.13705E-18
 -1      4293 7.81579E-05-1.82799E-05-2.56895E-05 2.05096E-06-2.57188E-18-1.75088E-18
 -1      4294 9.58164E-05-2.83454E-05-2.89172E-05-1.19228E-07-1.58193E-19-1.20540E-18
 -1      4295 9.55730E-05-2.81747E-05-2.88855E-05-1.08309E-07-1.63272E-19-1.33955E-18
 -1      4296 9.62343E-05-2.85752E-05-2.89969E-05-1.06574E-07 5.01485E-20-1.11031E-18
 -1      4297 9.60366E-05-2.84806E-05-2.89519E-05-9.15229E-08-1.09629E-19-1.15437E-18
 -1      4298 8.24705E-05-2.90841E-05-2.23171E-05-1.00845E-05 5.73018E-18-6.32427E-18
 -1      4299 8.08342E-05-1.96322E-05-2.62937E-05 4.81210E-06-1.86246E-18 1.15619E-18
 -1      4300 8.28082E-05-2.03210E-05-2.67863E-05 4.40597E-06-1.23250E-18 1.12207E-18
 -1      4301 9.68267E-05-2.77474E-05-2.96050E-05 1.31539E-08-1.23931E-19-6.80307E-19
 -1      4302 9.68387E-05-2.82821E-05-2.93777E-05-1.75768E-08-6.19733E-20-5.52778E-19
 -1      4303 9.67735E-05-2.84623E-05-2.92785E-05-4.48778E-09-2.19244E-21-6.31640E-19
 -1      4304 9.63088E-05-2.85888E-05-2.90241E-05-2.94147E-07 5.53615E-20-9.46288E-19
 -1      4305 7.09092E-05-2.44374E-05-2.41591E-05-1.21947E-05 1.09115E-17 3.28649E-18
 -1      4306 9.63078E-05-2.86372E-05-2.90026E-05-7.76234E-07-3.03085E-19-9.97655E-19
 -1      4307 9.67122E-05-2.84938E-05-2.92374E-05-1.77329E-07-2.79571E-19-5.89778E-19
 -1      4308 9.66304E-05-2.85914E-05-2.91603E-05-3.84413E-07-1.22608E-19-5.82246E-19
 -1      4309 9.68515E-05-2.80814E-05-2.94749E-05-3.56545E-08-8.17750E-20-4.58759E-19
 -1      4310 9.63744E-05-2.86402E-05-2.90298E-05-4.79209E-07-1.82256E-19-7.18859E-19
 -1      4311 9.65154E-05-2.86382E-05-2.90869E-05-4.42534E-07-7.31579E-20-4.70608E-19
 -1      4312 8.02933E-05-1.88958E-05-2.63103E-05 1.85471E-06-2.54163E-18-9.08135E-19
 -1      4313 8.13054E-05-1.95678E-05-2.65223E-05 3.15200E-06-1.36048E-18 7.58693E-19
 -3
    1PSTEP                         4           1           1          
  100CL  101 1.000000000        4313                     0    1           1
 -4  ERROR       1    1
 -5  STR(%)      1    1    0    0
 -1         1 3.47446E+01
 -1         2 2.51566E+01
 -1         3 4.95371E-02
 -1         4 6.11434E-02
 -1         5 1.40447E+01
 -1         6 1.31490E+01
 -1         7 1.31490E+01
 -1         8 3.66065E+00
 -1         9 1.82058E+00
 -1        10 1.28644E+00
 -1        11 1.04415E+00
 -1        12 8.98396E-01
 -1        13 8.07954E-01
 -1        14 7.54225E-01
 -1        15 7.56164E-01
 -1        16 8.12198E-01
 -1        17 8.99305E-01
 -1        18 1.05040E+00
 -1        19 1.30499E+00
 -1        20 1.83127E+00
 -1        21 3.50240E+00
 -1        22 8.64393E+00
 -1        23 1.31490E+01
 -1        24 4.32428E+00
 -1        25 3.34963E+00
 -1        26 2.12145E+00
 -1        27 1.37434E+00
 -1        28 1.02579E+00
 -1        29 7.90306E-01
 -1        30 6.15146E-01
 -1        31 4.80939E-01
 -1        32 3.78096E-01
 -1        33 3.02086E-01
 -1        34 2.46332E-01
 -1        35 2.06965E-01
 -1        36 1.83700E-01
 -1        37 1.89551E-01
 -1        38 2.26701E-01
 -1        39 2.78480E-01
 -1        40 3.45261E-01
 -1        41 4.25843E-01
 -1        42 2.08244E+01
 -1        43 2.08244E+01
 -1        44 7.10471E+00
 -1        45 1.38303E+01
 -1        46 4.21725E+01
 -1        47 5.00045E+01
 -1        48 4.43414E+01
 -1        49 1.91087E+01
 -1        50 4.49742E+00
 -1        51 3.13798E+00
 -1        52 1.76238E+00
 -1        53 2.95804E+00
 -1        54 3.92231E+00
 -1        55 4.01892E+00
 -1        56 4.01892E+00
 -1        57 3.53274E+00
 -1        58 2.02918E+00
 -1        59 1.47968E+00
 -1        60 1.42103E+00
 -1        61 1.48509E+00
 -1        62 1.48509E+00
 -1        63 1.36295E+00
 -1        64 1.12709E+00
 -1        65 8.81749E-01
 -1        66 7.24323E-01
 -1        67 6.51449E-01
 -1        68 5.57312E-01
 -1        69 4.46355E-01
 -1        70 3.75361E-01
 -1        71 2.58093E-01
 -1        72 1.40447E+01
 -1        73 3.39981E+00
 -1        74 2.41976E+00
 -1        75 1.67375E+00
 -1        76 1.15411E+00
 -1        77 9.15331E-01
 -1        78 7.44290E-01
 -1        79 6.05837E-01
 -1        80 4.93023E-01
 -1        81 4.02385E-01
 -1        82 3.31877E-01
 -1        83 2.79839E-01
 -1        84 2.44671E-01
 -1        85 2.24727E-01
 -1        86 2.23016E-01
 -1        87 2.36428E-01
 -1        88 2.63608E-01
 -1        89 3.19343E-01
 -1        90 3.82939E-01
 -1        91 4.48477E-01
 -1        92 5.05842E-01
 -1        93 5.39514E-01
 -1        94 5.51605E-01
 -1        95 7.24134E-01
 -1        96 8.82524E-01
 -1        97 9.60789E-01
 -1        98 1.20372E+00
 -1        99 5.87687E+00
 -1       100 5.87687E+00
 -1       101 2.50039E+00
 -1       102 2.19026E+00
 -1       103 2.68296E+00
 -1       104 2.78939E+00
 -1       105 2.78939E+00
 -1       106 2.75511E+00
 -1       107 1.96884E+00
 -1       108 1.16675E+00
 -1       109 8.83549E-01
 -1       110 1.03421E+00
 -1       111 1.12326E+00
 -1       112 1.12326E+00
 -1       113 1.06096E+00
 -1       114 9.15691E-01
 -1       115 7.61109E-01
 -1       116 5.98951E-01
 -1       117 4.95460E-01
 -1       118 4.05572E-01
 -1       119 2.84332E-01
 -1       120 1.78737E-01
 -1       121 8.06080E-02
 -1       122 8.06080E-02
 -1       123 6.85328E-02
 -1       124 3.84643E-02
 -1       125 3.01698E-02
 -1       126 5.52451E-02
 -1       127 7.22582E-02
 -1       128 7.90034E-02
 -1       129 7.90034E-02
 -1       130 7.59161E-02
 -1       131 6.10587E-02
 -1       132 3.72768E-02
 -1       133 3.80165E-02
 -1       134 7.17299E-02
 -1       135 1.14769E-01
 -1       136 1.29426E-01
 -1       137 2.51566E+01
 -1       138 4.54061E+01
 -1       139 4.54061E+01
 -1       140 1.74440E+01
 -1       141 1.21588E+01
 -1       142 1.24453E+01
 -1       143 1.24453E+01
 -1       144 1.20402E+01
 -1       145 1.20402E+01
 -1       146 1.32835E+01
 -1       147 3.45303E+01
 -1       148 3.45303E+01
 -1       149 2.71196E+01
 -1       150 2.52850E+01
 -1       151 2.56136E+01
 -1       152 2.63797E+01
 -1       153 3.47446E+01
 -1       154 1.40116E+01
 -1       155 1.22899E+01
 -1       156 1.23696E+01
 -1       157 1.23696E+01
 -1       158 1.21488E+01
 -1       159 1.17818E+01
 -1       160 2.07893E+01
 -1       161 4.81119E+01
 -1       162 4.81119E+01
 -1       163 2.50483E+01
 -1       164 6.07493E+00
 -1       165 2.29481E+00
 -1       166 1.50475E+00
 -1       167 1.15564E+00
 -1       168 9.71973E-01
 -1       169 8.63699E-01
 -1       170 7.95807E-01
 -1       171 7.56164E-01
 -1       172 7.99206E-01
 -1       173 8.66371E-01
 -1       174 9.79413E-01
 -1       175 1.17018E+00
 -1       176 1.52464E+00
 -1       177 2.25770E+00
 -1       178 3.92929E+00
 -1       179 1.40447E+01
 -1       180 4.32428E+00
 -1       181 3.34963E+00
 -1       182 2.12145E+00
 -1       183 1.45680E+00
 -1       184 1.03658E+00
 -1       185 7.90306E-01
 -1       186 6.15146E-01
 -1       187 4.88321E-01
 -1       188 3.93341E-01
 -1       189 3.17238E-01
 -1       190 2.57777E-01
 -1       191 2.12689E-01
 -1       192 1.83700E-01
 -1       193 1.72255E-01
 -1       194 1.89551E-01
 -1       195 2.26701E-01
 -1       196 2.78480E-01
 -1       197 3.45261E-01
 -1       198 1.35741E+01
 -1       199 2.08244E+01
 -1       200 8.66360E+00
 -1       201 1.28577E+01
 -1       202 3.29603E+01
 -1       203 5.00045E+01
 -1       204 5.00045E+01
 -1       205 4.43414E+01
 -1       206 1.91087E+01
 -1       207 4.73024E+00
 -1       208 3.00364E+00
 -1       209 2.24591E+00
 -1       210 2.95804E+00
 -1       211 3.92231E+00
 -1       212 4.01892E+00
 -1       213 3.53274E+00
 -1       214 2.17506E+00
 -1       215 1.47968E+00
 -1       216 1.42103E+00
 -1       217 1.37252E+00
 -1       218 1.48509E+00
 -1       219 1.36295E+00
 -1       220 1.12709E+00
 -1       221 9.25964E-01
 -1       222 7.80954E-01
 -1       223 6.51449E-01
 -1       224 5.57312E-01
 -1       225 4.46355E-01
 -1       226 3.75361E-01
 -1       227 2.58093E-01
 -1       228 3.39981E+00
 -1       229 2.41976E+00
 -1       230 1.67375E+00
 -1       231 1.15411E+00
 -1       232 9.15331E-01
 -1       233 7.44290E-01
 -1       234 6.05837E-01
 -1       235 4.93023E-01
 -1       236 4.02385E-01
 -1       237 3.31877E-01
 -1       238 2.79839E-01
 -1       239 2.44671E-01
 -1       240 2.24727E-01
 -1       241 2.18212E-01
 -1       242 2.23016E-01
 -1       243 2.36428E-01
 -1       244 2.80750E-01
 -1       245 3.32083E-01
 -1       246 3.84058E-01
 -1       247 4.48477E-01
 -1       248 5.05842E-01
 -1       249 5.39514E-01
 -1       250 6.19476E-01
 -1       251 7.24134E-01
 -1       252 8.82524E-01
 -1       253 9.60789E-01
 -1       254 3.61663E+00
 -1       255 5.87687E+00
 -1       256 2.50039E+00
 -1       257 2.08789E+00
 -1       258 2.19026E+00
 -1       259 2.68296E+00
 -1       260 2.78939E+00
 -1       261 2.75511E+00
 -1       262 1.96884E+00
 -1       263 1.16675E+00
 -1       264 7.61659E-01
 -1       265 8.83549E-01
 -1       266 1.03421E+00
 -1       267 1.12326E+00
 -1       268 1.06096E+00
 -1       269 9.15691E-01
 -1       270 7.61109E-01
 -1       271 6.05873E-01
 -1       272 4.95460E-01
 -1       273 4.05572E-01
 -1       274 2.84332E-01
 -1       275 1.78737E-01
 -1       276 1.07810E-01
 -1       277 1.08123E-01
 -1       278 1.08123E-01
 -1       279 5.23178E-02
 -1       280 9.63811E-02
 -1       281 1.31482E-01
 -1       282 1.48884E-01
 -1       283 1.50084E-01
 -1       284 1.50084E-01
 -1       285 1.39287E-01
 -1       286 1.10033E-01
 -1       287 6.32974E-02
 -1       288 1.11811E-01
 -1       289 1.11811E-01
 -1       290 1.48218E-01
 -1       291 3.19150E+01
 -1       292 3.96534E+01
 -1       293 4.54061E+01
 -1       294 1.81855E+01
 -1       295 1.06244E+01
 -1       296 1.21588E+01
 -1       297 1.24453E+01
 -1       298 1.15204E+01
 -1       299 1.20402E+01
 -1       300 1.11548E+01
 -1       301 1.32835E+01
 -1       302 3.45303E+01
 -1       303 3.42859E+01
 -1       304 2.82411E+01
 -1       305 3.05583E+01
 -1       306 3.05583E+01
 -1       307 3.29132E+01
 -1       308 3.47446E+01
 -1       309 1.40116E+01
 -1       310 1.20091E+01
 -1       311 1.22899E+01
 -1       312 1.23696E+01
 -1       313 1.21488E+01
 -1       314 1.17818E+01
 -1       315 1.12058E+01
 -1       316 2.29427E+01
 -1       317 4.81119E+01
 -1       318 3.05501E+01
 -1       319 3.19150E+01
 -1       320 1.04369E+00
 -1       321 2.47624E+00
 -1       322 7.93219E-01
 -1       323 6.93491E-01
 -1       324 6.30898E-01
 -1       325 5.87182E-01
 -1       326 5.90335E-01
 -1       327 6.33520E-01
 -1       328 6.99708E-01
 -1       329 7.94424E-01
 -1       330 9.29404E-01
 -1       331 1.15563E+00
 -1       332 1.32475E+00
 -1       333 2.20321E+00
 -1       334 1.91697E+00
 -1       335 1.73672E+00
 -1       336 1.27602E+00
 -1       337 9.16947E-01
 -1       338 6.67159E-01
 -1       339 5.52992E-01
 -1       340 4.59552E-01
 -1       341 3.78398E-01
 -1       342 3.10813E-01
 -1       343 2.57040E-01
 -1       344 2.11432E-01
 -1       345 1.77109E-01
 -1       346 1.51558E-01
 -1       347 1.57893E-01
 -1       348 1.85944E-01
 -1       349 2.24528E-01
 -1       350 2.95482E-01
 -1       351 4.02264E-01
 -1       352 1.10932E+01
 -1       353 1.56480E+01
 -1       354 1.03943E+01
 -1       355 1.73687E+01
 -1       356 3.70470E+01
 -1       357 5.72567E+01
 -1       358 5.72567E+01
 -1       359 3.63832E+01
 -1       360 1.39512E+01
 -1       361 4.53870E+00
 -1       362 2.35209E+00
 -1       363 2.29766E+00
 -1       364 2.66001E+00
 -1       365 2.31741E+00
 -1       366 2.51657E+00
 -1       367 1.97582E+00
 -1       368 1.46564E+00
 -1       369 1.08614E+00
 -1       370 1.02217E+00
 -1       371 1.03879E+00
 -1       372 1.12435E+00
 -1       373 1.06719E+00
 -1       374 9.38853E-01
 -1       375 8.29055E-01
 -1       376 6.95253E-01
 -1       377 5.47482E-01
 -1       378 4.15991E-01
 -1       379 3.25351E-01
 -1       380 2.26038E-01
 -1       381 1.13611E+00
 -1       382 8.98940E-01
 -1       383 7.12310E-01
 -1       384 5.54229E-01
 -1       385 4.51079E-01
 -1       386 3.87246E-01
 -1       387 3.26415E-01
 -1       388 2.71817E-01
 -1       389 2.34514E-01
 -1       390 2.05227E-01
 -1       391 1.86696E-01
 -1       392 1.76725E-01
 -1       393 1.74158E-01
 -1       394 1.95658E-01
 -1       395 2.44592E-01
 -1       396 3.31756E-01
 -1       397 4.29590E-01
 -1       398 5.32566E-01
 -1       399 6.29684E-01
 -1       400 7.11388E-01
 -1       401 7.79695E-01
 -1       402 7.79695E-01
 -1       403 7.78952E-01
 -1       404 6.65083E-01
 -1       405 1.61715E+00
 -1       406 1.57463E+00
 -1       407 1.82148E+00
 -1       408 1.46608E+00
 -1       409 1.51059E+00
 -1       410 1.51059E+00
 -1       411 1.42594E+00
 -1       412 1.63196E+00
 -1       413 1.35070E+00
 -1       414 8.38325E-01
 -1       415 5.31159E-01
 -1       416 6.00202E-01
 -1       417 7.42333E-01
 -1       418 8.08491E-01
 -1       419 8.19129E-01
 -1       420 7.49564E-01
 -1       421 6.62771E-01
 -1       422 5.58320E-01
 -1       423 4.39454E-01
 -1       424 3.63982E-01
 -1       425 2.75227E-01
 -1       426 1.70888E-01
 -1       427 1.15475E-01
 -1       428 2.06509E-01
 -1       429 2.06509E-01
 -1       430 1.24517E-01
 -1       431 1.77087E-01
 -1       432 2.07649E-01
 -1       433 2.10405E-01
 -1       434 2.13218E-01
 -1       435 2.13218E-01
 -1       436 1.93716E-01
 -1       437 1.46737E-01
 -1       438 1.20843E-01
 -1       439 1.88066E-01
 -1       440 2.77854E+01
 -1       441 3.30954E+01
 -1       442 3.30954E+01
 -1       443 1.50717E+01
 -1       444 8.71674E+00
 -1       445 9.08529E-01
 -1       446 9.35364E+00
 -1       447 1.11341E+01
 -1       448 1.05798E+01
 -1       449 8.80915E+00
 -1       450 7.80008E+00
 -1       451 1.30747E+01
 -1       452 2.28672E+01
 -1       453 2.64110E+01
 -1       454 4.42564E+01
 -1       455 4.42564E+01
 -1       456 2.69994E+01
 -1       457 2.30146E+01
 -1       458 1.31702E+01
 -1       459 7.37832E+00
 -1       460 8.72841E+00
 -1       461 9.65657E+00
 -1       462 1.05441E+01
 -1       463 9.60142E+00
 -1       464 7.18549E+00
 -1       465 9.63768E+00
 -1       466 1.67162E+01
 -1       467 3.05501E+01
 -1       468 3.22657E+01
 -1       469 7.44875E+00
 -1       470 1.28303E+01
 -1       471 1.05457E+00
 -1       472 4.85139E-01
 -1       473 5.12738E-01
 -1       474 4.31125E-01
 -1       475 4.56601E-01
 -1       476 4.85680E-01
 -1       477 5.09501E-01
 -1       478 5.09501E-01
 -1       479 6.02313E-01
 -1       480 8.98940E-01
 -1       481 8.03987E-01
 -1       482 4.92719E+00
 -1       483 7.09188E-01
 -1       484 5.96464E-01
 -1       485 4.84345E-01
 -1       486 3.85447E-01
 -1       487 3.37357E-01
 -1       488 2.89284E-01
 -1       489 2.43580E-01
 -1       490 2.02141E-01
 -1       491 1.65312E-01
 -1       492 1.32384E-01
 -1       493 1.14752E-01
 -1       494 1.33638E-01
 -1       495 1.68593E-01
 -1       496 2.47655E-01
 -1       497 3.41986E-01
 -1       498 4.53182E-01
 -1       499 1.56480E+01
 -1       500 1.56480E+01
 -1       501 9.27492E+00
 -1       502 1.73687E+01
 -1       503 3.70470E+01
 -1       504 5.72567E+01
 -1       505 3.93943E+01
 -1       506 2.29501E+01
 -1       507 3.21023E+00
 -1       508 2.25006E+00
 -1       509 2.20460E+00
 -1       510 4.45478E+00
 -1       511 4.67932E+00
 -1       512 6.50590E+00
 -1       513 4.38094E+00
 -1       514 2.39384E+00
 -1       515 2.02363E+00
 -1       516 1.77708E+00
 -1       517 1.49166E+00
 -1       518 1.38002E+00
 -1       519 1.19165E+00
 -1       520 1.00775E+00
 -1       521 9.01758E-01
 -1       522 7.61525E-01
 -1       523 6.11729E-01
 -1       524 4.68664E-01
 -1       525 3.41888E-01
 -1       526 1.81335E+01
 -1       527 5.54229E-01
 -1       528 4.51079E-01
 -1       529 3.87246E-01
 -1       530 3.26415E-01
 -1       531 2.71817E-01
 -1       532 2.24671E-01
 -1       533 1.84867E-01
 -1       534 1.51400E-01
 -1       535 1.23232E-01
 -1       536 1.40626E-01
 -1       537 1.64446E-01
 -1       538 2.14149E-01
 -1       539 2.93984E-01
 -1       540 3.83766E-01
 -1       541 4.80290E-01
 -1       542 5.76459E-01
 -1       543 6.59988E-01
 -1       544 7.32029E-01
 -1       545 7.90833E-01
 -1       546 8.40489E-01
 -1       547 8.22785E-01
 -1       548 1.61715E+00
 -1       549 1.61715E+00
 -1       550 1.11422E+00
 -1       551 8.96908E-01
 -1       552 1.37103E+00
 -1       553 1.55444E+00
 -1       554 1.48762E+00
 -1       555 1.58821E+00
 -1       556 1.23558E+00
 -1       557 1.06063E+00
 -1       558 8.97691E-01
 -1       559 8.72834E-01
 -1       560 7.95196E-01
 -1       561 8.21635E-01
 -1       562 7.70315E-01
 -1       563 6.91747E-01
 -1       564 6.19216E-01
 -1       565 5.28168E-01
 -1       566 4.23396E-01
 -1       567 3.17416E-01
 -1       568 2.41937E-01
 -1       569 2.16192E-01
 -1       570 2.68341E-01
 -1       571 1.99351E-01
 -1       572 1.71871E-01
 -1       573 2.84689E-01
 -1       574 2.84689E-01
 -1       575 2.85042E-01
 -1       576 2.85042E-01
 -1       577 2.47892E-01
 -1       578 2.17784E-01
 -1       579 2.17784E-01
 -1       580 3.22657E+01
 -1       581 7.12310E-01
 -1       582 1.29425E+01
 -1       583 2.11109E+01
 -1       584 8.74456E-01
 -1       585 9.25787E+00
 -1       586 4.20120E+00
 -1       587 6.31459E+00
 -1       588 4.56522E-01
 -1       589 7.11059E+00
 -1       590 4.05074E+00
 -1       591 7.60773E+00
 -1       592 1.72634E+01
 -1       593 5.72181E+00
 -1       594 4.54311E+00
 -1       595 2.64110E+01
 -1       596 4.42564E+01
 -1       597 2.69994E+01
 -1       598 1.80994E+01
 -1       599 1.06072E+01
 -1       600 6.65757E+00
 -1       601 6.27353E+00
 -1       602 8.18827E+00
 -1       603 7.56559E+00
 -1       604 5.67649E+00
 -1       605 1.27480E+01
 -1       606 7.70334E+00
 -1       607 3.30954E+01
 -1       608 1.32962E+00
 -1       609 4.22988E+00
 -1       610 5.30185E-01
 -1       611 2.05264E-01
 -1       612 1.03494E+01
 -1       613 6.48574E+00
 -1       614 1.07657E+01
 -1       615 3.58044E-01
 -1       616 3.42904E-01
 -1       617 3.60976E-01
 -1       618 3.36837E-01
 -1       619 5.44063E-01
 -1       620 6.82523E+00
 -1       621 5.21019E-01
 -1       622 7.68614E+00
 -1       623 1.32618E+01
 -1       624 4.36700E+00
 -1       625 5.30185E-01
 -1       626 4.02473E-01
 -1       627 3.89391E-01
 -1       628 3.47619E-01
 -1       629 2.96436E-01
 -1       630 2.44195E-01
 -1       631 2.13341E-01
 -1       632 1.80420E-01
 -1       633 1.46826E-01
 -1       634 1.13103E-01
 -1       635 7.86956E-02
 -1       636 8.08332E-02
 -1       637 1.20238E-01
 -1       638 1.86415E-01
 -1       639 2.65397E-01
 -1       640 3.60056E-01
 -1       641 1.48536E+01
 -1       642 1.48536E+01
 -1       643 8.20695E+00
 -1       644 8.30631E+00
 -1       645 7.64548E+00
 -1       646 3.52092E+01
 -1       647 4.12887E+01
 -1       648 3.15300E+01
 -1       649 1.65902E+01
 -1       650 3.11465E+00
 -1       651 2.44225E+00
 -1       652 2.83531E+00
 -1       653 6.50590E+00
 -1       654 2.85514E+00
 -1       655 2.84220E+00
 -1       656 2.32781E+00
 -1       657 2.01083E+00
 -1       658 1.53241E+00
 -1       659 1.26420E+00
 -1       660 1.05239E+00
 -1       661 8.47776E-01
 -1       662 6.63570E-01
 -1       663 5.04549E-01
 -1       664 3.42286E-01
 -1       665 2.48505E+00
 -1       666 4.02067E-01
 -1       667 2.44983E-01
 -1       668 2.07143E-01
 -1       669 1.70562E-01
 -1       670 1.35815E-01
 -1       671 1.02422E-01
 -1       672 9.53416E-02
 -1       673 1.10981E-01
 -1       674 1.69765E-01
 -1       675 2.41338E-01
 -1       676 3.23575E-01
 -1       677 4.16243E-01
 -1       678 5.17122E-01
 -1       679 6.20958E-01
 -1       680 7.18172E-01
 -1       681 8.03142E-01
 -1       682 9.42580E-01
 -1       683 1.07719E+00
 -1       684 1.80038E+00
 -1       685 1.70653E+00
 -1       686 1.84390E+00
 -1       687 1.97116E+00
 -1       688 1.71746E+00
 -1       689 2.00209E+00
 -1       690 1.55444E+00
 -1       691 2.40151E+00
 -1       692 2.25481E+00
 -1       693 2.00293E+00
 -1       694 1.61544E+00
 -1       695 1.39956E+00
 -1       696 1.15726E+00
 -1       697 1.09135E+00
 -1       698 9.48484E-01
 -1       699 7.87436E-01
 -1       700 6.91440E-01
 -1       701 5.84983E-01
 -1       702 4.71170E-01
 -1       703 3.59787E-01
 -1       704 2.76457E-01
 -1       705 3.66631E-01
 -1       706 2.21314E-01
 -1       707 3.25394E-01
 -1       708 3.74668E-01
 -1       709 3.66631E-01
 -1       710 1.47670E+01
 -1       711 3.74668E-01
 -1       712 3.61802E-01
 -1       713 2.85315E-01
 -1       714 4.69942E-01
 -1       715 1.08852E+01
 -1       716 1.02916E+01
 -1       717 5.72758E+00
 -1       718 2.80161E+00
 -1       719 2.81988E-01
 -1       720 3.32636E-01
 -1       721 4.02298E-01
 -1       722 1.28501E+01
 -1       723 4.45478E+00
 -1       724 3.60976E-01
 -1       725 2.90353E+00
 -1       726 3.58102E-01
 -1       727 5.03182E+00
 -1       728 1.68857E+01
 -1       729 4.68611E+00
 -1       730 1.73280E+01
 -1       731 5.34252E+00
 -1       732 1.43166E+01
 -1       733 5.55334E+00
 -1       734 1.19264E+01
 -1       735 3.20114E+00
 -1       736 3.80935E+00
 -1       737 4.13175E+00
 -1       738 3.75762E-01
 -1       739 3.42446E-01
 -1       740 6.09349E+00
 -1       741 9.07288E+00
 -1       742 7.44218E+00
 -1       743 8.49464E+00
 -1       744 4.38094E+00
 -1       745 2.49646E-01
 -1       746 2.08426E-01
 -1       747 3.98425E+00
 -1       748 6.54677E+00
 -1       749 6.72845E+00
 -1       750 3.57250E-01
 -1       751 2.70149E-01
 -1       752 2.25481E+00
 -1       753 2.44480E-01
 -1       754 8.46146E+00
 -1       755 1.97116E+00
 -1       756 5.51976E+00
 -1       757 5.17125E+00
 -1       758 2.58205E-01
 -1       759 2.49699E-01
 -1       760 2.25298E-01
 -1       761 1.92873E-01
 -1       762 1.64774E-01
 -1       763 1.37122E-01
 -1       764 1.05568E-01
 -1       765 7.10974E-02
 -1       766 6.38400E-02
 -1       767 8.67910E-02
 -1       768 1.43497E-01
 -1       769 2.16387E-01
 -1       770 3.04585E-01
 -1       771 4.10567E-01
 -1       772 1.45875E+01
 -1       773 1.40747E+01
 -1       774 8.30631E+00
 -1       775 9.65703E+00
 -1       776 2.53468E+01
 -1       777 4.97953E+01
 -1       778 4.97953E+01
 -1       779 2.63818E+01
 -1       780 1.15402E+01
 -1       781 3.44179E+00
 -1       782 2.77977E+00
 -1       783 5.79110E+00
 -1       784 4.15093E+00
 -1       785 2.28220E+00
 -1       786 1.75534E+00
 -1       787 1.30709E+00
 -1       788 9.65638E-01
 -1       789 7.36272E-01
 -1       790 5.61055E-01
 -1       791 4.10690E-01
 -1       792 1.83075E-01
 -1       793 8.31504E-02
 -1       794 4.89660E-02
 -1       795 6.63810E-02
 -1       796 1.18227E-01
 -1       797 1.78793E-01
 -1       798 2.50180E-01
 -1       799 3.35100E-01
 -1       800 4.38094E-01
 -1       801 5.56672E-01
 -1       802 6.88154E-01
 -1       803 8.35041E-01
 -1       804 9.89408E-01
 -1       805 1.19565E+00
 -1       806 2.08453E+00
 -1       807 2.47686E+00
 -1       808 2.70279E+00
 -1       809 2.82820E+00
 -1       810 3.15436E+00
 -1       811 2.00293E+00
 -1       812 2.09346E+00
 -1       813 1.80129E+00
 -1       814 1.60769E+00
 -1       815 1.25494E+00
 -1       816 1.00261E+00
 -1       817 8.33769E-01
 -1       818 6.68977E-01
 -1       819 5.20221E-01
 -1       820 3.90216E-01
 -1       821 2.89314E-01
 -1       822 2.81484E-01
 -1       823 9.40600E+00
 -1       824 2.88340E-01
 -1       825 4.63920E-01
 -1       826 3.66410E-01
 -1       827 4.84664E-01
 -1       828 2.13828E-01
 -1       829 4.84664E-01
 -1       830 1.16343E-01
 -1       831 1.51197E-01
 -1       832 8.44185E+00
 -1       833 2.36159E-01
 -1       834 4.11235E+00
 -1       835 2.54165E-01
 -1       836 2.88266E-01
 -1       837 8.38024E+00
 -1       838 8.55483E+00
 -1       839 2.59170E+00
 -1       840 1.13614E+01
 -1       841 1.24003E+01
 -1       842 2.81765E-01
 -1       843 2.78480E-01
 -1       844 1.15402E+01
 -1       845 6.14584E+00
 -1       846 6.38637E+00
 -1       847 6.12013E+00
 -1       848 6.22752E+00
 -1       849 3.54001E-01
 -1       850 5.75233E+00
 -1       851 2.43516E-01
 -1       852 4.50253E-01
 -1       853 2.88340E-01
 -1       854 4.39321E+00
 -1       855 8.55483E+00
 -1       856 4.63920E-01
 -1       857 2.77885E-01
 -1       858 2.60811E-01
 -1       859 1.78278E+01
 -1       860 5.79110E+00
 -1       861 2.88936E-01
 -1       862 3.80454E-01
 -1       863 9.52521E+00
 -1       864 2.81287E-01
 -1       865 5.77101E+00
 -1       866 6.83343E+00
 -1       867 1.81240E-01
 -1       868 1.70853E-01
 -1       869 1.50469E-01
 -1       870 1.29412E-01
 -1       871 1.08830E-01
 -1       872 8.37397E-02
 -1       873 8.81302E-02
 -1       874 9.67314E-02
 -1       875 1.35300E-01
 -1       876 2.01175E-01
 -1       877 2.82093E-01
 -1       878 3.81827E-01
 -1       879 1.06382E+01
 -1       880 1.40747E+01
 -1       881 9.18192E+00
 -1       882 9.65703E+00
 -1       883 2.53468E+01
 -1       884 4.62653E+01
 -1       885 4.97953E+01
 -1       886 3.16982E+01
 -1       887 3.50375E+00
 -1       888 2.53884E+00
 -1       889 1.69274E+00
 -1       890 1.23321E+00
 -1       891 9.65638E-01
 -1       892 7.36272E-01
 -1       893 7.87471E-02
 -1       894 7.42874E-02
 -1       895 1.64965E-01
 -1       896 2.33558E-01
 -1       897 3.13585E-01
 -1       898 4.05201E-01
 -1       899 5.06680E-01
 -1       900 6.27705E-01
 -1       901 7.83488E-01
 -1       902 1.02229E+00
 -1       903 1.33528E+00
 -1       904 2.38168E+00
 -1       905 3.09552E+00
 -1       906 4.19192E+00
 -1       907 2.00858E+00
 -1       908 1.39690E+00
 -1       909 1.06574E+00
 -1       910 7.89120E-01
 -1       911 6.27568E-01
 -1       912 5.74652E-01
 -1       913 3.31871E-01
 -1       914 6.23750E-01
 -1       915 1.67881E-01
 -1       916 1.43391E-01
 -1       917 9.22140E-02
 -1       918 5.75233E+00
 -1       919 1.93127E-01
 -1       920 3.32971E+00
 -1       921 2.09247E-01
 -1       922 1.06697E-01
 -1       923 2.88936E-01
 -1       924 5.66416E+00
 -1       925 1.65127E-01
 -1       926 1.75483E-01
 -1       927 5.38868E+00
 -1       928 4.87106E+00
 -1       929 4.49807E+00
 -1       930 2.17008E-01
 -1       931 5.70654E+00
 -1       932 2.17008E-01
 -1       933 1.69083E+01
 -1       934 5.76834E-01
 -1       935 3.85307E+00
 -1       936 7.11851E+00
 -1       937 6.44312E-01
 -1       938 5.34406E-01
 -1       939 1.43966E-01
 -1       940 2.07177E-01
 -1       941 1.48664E-01
 -1       942 5.70654E+00
 -1       943 6.01322E-01
 -1       944 1.20314E-01
 -1       945 2.16515E-01
 -1       946 2.01266E-01
 -1       947 6.44312E-01
 -1       948 2.05812E-01
 -1       949 1.49050E+00
 -1       950 1.30048E-01
 -1       951 1.16908E-01
 -1       952 1.02275E-01
 -1       953 9.51395E-02
 -1       954 1.01848E-01
 -1       955 1.11506E-01
 -1       956 1.26893E-01
 -1       957 1.70610E-01
 -1       958 2.37751E-01
 -1       959 3.21804E-01
 -1       960 7.56763E+00
 -1       961 7.92224E+00
 -1       962 7.42144E+00
 -1       963 9.42136E+00
 -1       964 2.26501E+01
 -1       965 3.65663E+01
 -1       966 4.62653E+01
 -1       967 3.91811E+01
 -1       968 9.95573E-02
 -1       969 2.34866E+00
 -1       970 1.69274E+00
 -1       971 1.23321E+00
 -1       972 8.95458E-01
 -1       973 2.91302E-01
 -1       974 2.14942E-01
 -1       975 4.94832E-01
 -1       976 6.27705E-01
 -1       977 7.83488E-01
 -1       978 9.80146E-01
 -1       979 1.29104E+00
 -1       980 3.10294E+00
 -1       981 3.36149E+00
 -1       982 4.03838E+00
 -1       983 1.47037E-01
 -1       984 2.05521E+00
 -1       985 7.89120E-01
 -1       986 6.27568E-01
 -1       987 2.16515E-01
 -1       988 9.27343E-02
 -1       989 1.23314E-01
 -1       990 1.53671E-01
 -1       991 9.28152E-02
 -1       992 1.05404E+00
 -1       993 3.83637E-01
 -1       994 1.85871E-01
 -1       995 6.01322E-01
 -1       996 1.46938E-01
 -1       997 1.33664E-01
 -1       998 4.61293E+00
 -1       999 3.50144E+00
 -1      1000 3.42342E+00
 -1      1001 6.14709E+00
 -1      1002 3.35788E+00
 -1      1003 5.09203E+00
 -1      1004 1.52375E-01
 -1      1005 1.09664E-01
 -1      1006 2.46901E+01
 -1      1007 7.67761E-01
 -1      1008 2.62931E+00
 -1      1009 7.37726E-01
 -1      1010 1.30739E-01
 -1      1011 1.41586E-01
 -1      1012 9.56944E-02
 -1      1013 1.25459E-01
 -1      1014 1.30992E-01
 -1      1015 1.51901E-01
 -1      1016 1.52306E-01
 -1      1017 5.09203E+00
 -1      1018 4.32795E-01
 -1      1019 7.67761E-01
 -1      1020 9.12592E-02
 -1      1021 1.01177E-01
 -1      1022 1.08053E-01
 -1      1023 1.17290E-01
 -1      1024 1.30375E-01
 -1      1025 1.55408E-01
 -1      1026 1.92458E-01
 -1      1027 2.44172E-01
 -1      1028 3.23109E-01
 -1      1029 5.11682E+00
 -1      1030 3.87861E+00
 -1      1031 6.12314E+00
 -1      1032 1.32961E+01
 -1      1033 3.67983E+01
 -1      1034 4.53160E+01
 -1      1035 4.53160E+01
 -1      1036 3.53084E+00
 -1      1037 1.42873E+00
 -1      1038 9.65348E-01
 -1      1039 7.44475E-01
 -1      1040 5.67392E-01
 -1      1041 1.29104E+00
 -1      1042 4.13345E+00
 -1      1043 4.91149E+00
 -1      1044 2.91463E+00
 -1      1045 1.84785E+00
 -1      1046 9.80146E-01
 -1      1047 1.52375E-01
 -1      1048 3.05822E+00
 -1      1049 2.46148E-01
 -1      1050 2.46901E+01
 -1      1051 5.09203E+00
 -1      1052 1.04746E-01
 -1      1053 1.80807E-01
 -1      1054 9.48468E-02
 -1      1055 6.82124E-01
 -1      1056 1.14307E-01
 -1      1057 3.53084E+00
 -1      1058 1.08488E-01
 -1      1059 9.96995E-02
 -1      1060 1.13768E-01
 -1      1061 3.28352E-01
 -1      1062 1.27288E+00
 -1      1063 1.63373E+00
 -1      1064 1.19958E-01
 -1      1065 9.99152E-02
 -1      1066 2.22298E+00
 -1      1067 9.93484E-02
 -1      1068 9.22955E-02
 -1      1069 2.99905E+00
 -1      1070 1.14769E+01
 -1      1071 1.24404E-01
 -1      1072 1.00185E-01
 -1      1073 9.93484E-02
 -1      1074 9.98511E-01
 -1      1075 8.97557E-02
 -1      1076 1.40164E-01
 -1      1077 5.25987E-02
 -1      1078 1.27288E+00
 -1      1079 1.08053E-01
 -1      1080 1.17290E-01
 -1      1081 1.30375E-01
 -1      1082 1.55408E-01
 -1      1083 1.90447E-01
 -1      1084 2.36211E-01
 -1      1085 2.95631E-01
 -1      1086 3.73021E-01
 -1      1087 4.11708E+00
 -1      1088 4.31780E+00
 -1      1089 5.86067E+00
 -1      1090 1.45252E+01
 -1      1091 3.67983E+01
 -1      1092 4.31780E+00
 -1      1093 2.61215E-01
 -1      1094 3.32432E-01
 -1      1095 5.86067E+00
 -1      1096 4.81171E+00
 -1      1097 1.45252E+01
 -1      1098 4.31780E+00
 -1      1099 1.70949E-01
 -1      1100 3.05822E+00
 -1      1101 2.10647E-01
 -1      1102 4.43466E-01
 -1      1103 1.15805E-01
 -1      1104 8.39881E-02
 -1      1105 1.31033E-01
 -1      1106 1.19078E-01
 -1      1107 1.63373E+00
 -1      1108 1.08488E-01
 -1      1109 4.01300E+01
 -1      1110 1.40164E-01
 -1      1111 1.19958E-01
 -1      1112 1.24404E-01
 -1      1113 1.22337E-01
 -1      1114 9.46890E-02
 -1      1115 6.23982E-02
 -1      1116 1.31401E+01
 -1      1117 1.31033E-01
 -1      1118 1.31033E-01
 -1      1119 1.96811E+00
 -1      1120 1.31490E+01
 -1      1121 8.40481E+00
 -1      1122 2.74062E+00
 -1      1123 1.55351E+00
 -1      1124 1.16529E+00
 -1      1125 9.71271E-01
 -1      1126 8.53175E-01
 -1      1127 7.81089E-01
 -1      1128 7.55194E-01
 -1      1129 7.84181E-01
 -1      1130 8.55752E-01
 -1      1131 9.74853E-01
 -1      1132 1.17770E+00
 -1      1133 1.56813E+00
 -1      1134 2.66683E+00
 -1      1135 6.07316E+00
 -1      1136 1.13443E+01
 -1      1137 1.31490E+01
 -1      1138 8.73662E+00
 -1      1139 3.83695E+00
 -1      1140 2.73554E+00
 -1      1141 1.74790E+00
 -1      1142 1.20007E+00
 -1      1143 9.08049E-01
 -1      1144 7.02726E-01
 -1      1145 5.48042E-01
 -1      1146 4.29518E-01
 -1      1147 3.40091E-01
 -1      1148 2.74209E-01
 -1      1149 2.26648E-01
 -1      1150 1.95333E-01
 -1      1151 1.86626E-01
 -1      1152 2.08126E-01
 -1      1153 2.52590E-01
 -1      1154 3.11870E-01
 -1      1155 3.85552E-01
 -1      1156 1.06251E+01
 -1      1157 2.08244E+01
 -1      1158 1.39645E+01
 -1      1159 1.04675E+01
 -1      1160 2.80014E+01
 -1      1161 4.60885E+01
 -1      1162 4.71729E+01
 -1      1163 3.17250E+01
 -1      1164 1.18030E+01
 -1      1165 3.81770E+00
 -1      1166 2.45018E+00
 -1      1167 2.36021E+00
 -1      1168 3.44018E+00
 -1      1169 3.97062E+00
 -1      1170 4.01892E+00
 -1      1171 3.77583E+00
 -1      1172 2.78096E+00
 -1      1173 1.75443E+00
 -1      1174 1.45036E+00
 -1      1175 1.45306E+00
 -1      1176 1.48509E+00
 -1      1177 1.42402E+00
 -1      1178 1.24502E+00
 -1      1179 1.00442E+00
 -1      1180 8.03036E-01
 -1      1181 6.87886E-01
 -1      1182 6.04380E-01
 -1      1183 5.01834E-01
 -1      1184 4.10858E-01
 -1      1185 3.16727E-01
 -1      1186 1.59618E-01
 -1      1187 1.40447E+01
 -1      1188 8.72225E+00
 -1      1189 2.90978E+00
 -1      1190 2.04676E+00
 -1      1191 1.41393E+00
 -1      1192 1.03472E+00
 -1      1193 8.29810E-01
 -1      1194 6.75063E-01
 -1      1195 5.49430E-01
 -1      1196 4.47704E-01
 -1      1197 3.67131E-01
 -1      1198 3.05858E-01
 -1      1199 2.62255E-01
 -1      1200 2.34699E-01
 -1      1201 2.23871E-01
 -1      1202 2.29722E-01
 -1      1203 2.50018E-01
 -1      1204 2.91475E-01
 -1      1205 3.51141E-01
 -1      1206 4.15708E-01
 -1      1207 4.77159E-01
 -1      1208 5.22678E-01
 -1      1209 5.45559E-01
 -1      1210 6.37870E-01
 -1      1211 8.03329E-01
 -1      1212 9.21656E-01
 -1      1213 1.08225E+00
 -1      1214 3.54030E+00
 -1      1215 5.87687E+00
 -1      1216 4.18863E+00
 -1      1217 2.34533E+00
 -1      1218 2.43661E+00
 -1      1219 2.73617E+00
 -1      1220 2.78939E+00
 -1      1221 2.77225E+00
 -1      1222 2.36197E+00
 -1      1223 1.56779E+00
 -1      1224 1.02515E+00
 -1      1225 9.58881E-01
 -1      1226 1.07874E+00
 -1      1227 1.12326E+00
 -1      1228 1.09211E+00
 -1      1229 9.88325E-01
 -1      1230 8.38400E-01
 -1      1231 6.80030E-01
 -1      1232 5.47205E-01
 -1      1233 4.50516E-01
 -1      1234 3.44952E-01
 -1      1235 2.31535E-01
 -1      1236 1.14137E-01
 -1      1237 6.50725E-02
 -1      1238 8.06080E-02
 -1      1239 7.45704E-02
 -1      1240 5.34985E-02
 -1      1241 3.43170E-02
 -1      1242 4.27074E-02
 -1      1243 6.37517E-02
 -1      1244 7.56308E-02
 -1      1245 7.90034E-02
 -1      1246 7.74598E-02
 -1      1247 6.84874E-02
 -1      1248 4.91678E-02
 -1      1249 3.76466E-02
 -1      1250 5.48732E-02
 -1      1251 9.32492E-02
 -1      1252 1.22097E-01
 -1      1253 9.52846E-02
 -1      1254 2.51566E+01
 -1      1255 3.52814E+01
 -1      1256 4.54061E+01
 -1      1257 3.14251E+01
 -1      1258 1.48014E+01
 -1      1259 1.23021E+01
 -1      1260 1.24453E+01
 -1      1261 1.22428E+01
 -1      1262 1.20402E+01
 -1      1263 1.26619E+01
 -1      1264 2.39069E+01
 -1      1265 3.45303E+01
 -1      1266 3.08249E+01
 -1      1267 2.62023E+01
 -1      1268 2.54493E+01
 -1      1269 2.59967E+01
 -1      1270 3.05621E+01
 -1      1271 3.47446E+01
 -1      1272 2.43781E+01
 -1      1273 1.31507E+01
 -1      1274 1.23297E+01
 -1      1275 1.23696E+01
 -1      1276 1.22592E+01
 -1      1277 1.19653E+01
 -1      1278 1.62855E+01
 -1      1279 3.44506E+01
 -1      1280 4.81119E+01
 -1      1281 3.65801E+01
 -1      1282 2.51025E+01
 -1      1283 1.31490E+01
 -1      1284 4.86779E+00
 -1      1285 9.61195E+00
 -1      1286 2.05769E+00
 -1      1287 2.97773E+00
 -1      1288 4.18487E+00
 -1      1289 1.39559E+00
 -1      1290 1.66267E+00
 -1      1291 1.89978E+00
 -1      1292 1.09989E+00
 -1      1293 1.22104E+00
 -1      1294 1.33020E+00
 -1      1295 9.35184E-01
 -1      1296 1.00806E+00
 -1      1297 1.06381E+00
 -1      1298 8.35826E-01
 -1      1299 8.81047E-01
 -1      1300 9.17836E-01
 -1      1301 7.75016E-01
 -1      1302 8.01880E-01
 -1      1303 8.29753E-01
 -1      1304 7.56164E-01
 -1      1305 7.55194E-01
 -1      1306 7.75985E-01
 -1      1307 8.05702E-01
 -1      1308 7.77685E-01
 -1      1309 7.77685E-01
 -1      1310 8.82838E-01
 -1      1311 8.39285E-01
 -1      1312 8.32789E-01
 -1      1313 1.01491E+00
 -1      1314 9.39359E-01
 -1      1315 9.22892E-01
 -1      1316 1.23759E+00
 -1      1317 1.11029E+00
 -1      1318 1.07480E+00
 -1      1319 1.67796E+00
 -1      1320 1.41482E+00
 -1      1321 1.34741E+00
 -1      1322 2.88005E+00
 -1      1323 2.04449E+00
 -1      1324 1.89117E+00
 -1      1325 6.28661E+00
 -1      1326 3.71584E+00
 -1      1327 3.09350E+00
 -1      1328 1.40447E+01
 -1      1329 1.13443E+01
 -1      1330 8.98699E+00
 -1      1331 1.40447E+01
 -1      1332 8.73662E+00
 -1      1333 4.32428E+00
 -1      1334 3.83695E+00
 -1      1335 3.34963E+00
 -1      1336 3.83695E+00
 -1      1337 2.73554E+00
 -1      1338 2.12145E+00
 -1      1339 2.73554E+00
 -1      1340 1.78912E+00
 -1      1341 1.41557E+00
 -1      1342 1.78912E+00
 -1      1343 1.20546E+00
 -1      1344 1.03119E+00
 -1      1345 1.24669E+00
 -1      1346 9.08049E-01
 -1      1347 7.90306E-01
 -1      1348 9.13444E-01
 -1      1349 7.02726E-01
 -1      1350 6.15146E-01
 -1      1351 7.02726E-01
 -1      1352 5.51733E-01
 -1      1353 4.84630E-01
 -1      1354 5.51733E-01
 -1      1355 4.37140E-01
 -1      1356 3.85719E-01
 -1      1357 4.40831E-01
 -1      1358 3.47667E-01
 -1      1359 3.09662E-01
 -1      1360 3.55289E-01
 -1      1361 2.79932E-01
 -1      1362 2.52055E-01
 -1      1363 2.87508E-01
 -1      1364 2.29510E-01
 -1      1365 2.09827E-01
 -1      1366 2.35233E-01
 -1      1367 1.95333E-01
 -1      1368 1.83700E-01
 -1      1369 1.98195E-01
 -1      1370 1.77978E-01
 -1      1371 1.80903E-01
 -1      1372 1.77978E-01
 -1      1373 1.89551E-01
 -1      1374 2.08126E-01
 -1      1375 1.80903E-01
 -1      1376 2.26701E-01
 -1      1377 2.52590E-01
 -1      1378 2.08126E-01
 -1      1379 2.78480E-01
 -1      1380 3.11870E-01
 -1      1381 2.52590E-01
 -1      1382 3.45261E-01
 -1      1383 3.85552E-01
 -1      1384 3.11870E-01
 -1      1385 6.99997E+00
 -1      1386 1.71992E+01
 -1      1387 6.95967E+00
 -1      1388 2.08244E+01
 -1      1389 2.08244E+01
 -1      1390 1.71992E+01
 -1      1391 1.47440E+01
 -1      1392 7.88416E+00
 -1      1393 1.47440E+01
 -1      1394 9.98122E+00
 -1      1395 1.33440E+01
 -1      1396 1.07607E+01
 -1      1397 2.33953E+01
 -1      1398 3.75664E+01
 -1      1399 2.29090E+01
 -1      1400 4.60885E+01
 -1      1401 5.00045E+01
 -1      1402 4.14824E+01
 -1      1403 5.00045E+01
 -1      1404 4.71729E+01
 -1      1405 5.00045E+01
 -1      1406 4.43414E+01
 -1      1407 3.17250E+01
 -1      1408 4.71729E+01
 -1      1409 1.91087E+01
 -1      1410 1.18030E+01
 -1      1411 3.17250E+01
 -1      1412 4.61383E+00
 -1      1413 3.93411E+00
 -1      1414 1.19195E+01
 -1      1415 3.07081E+00
 -1      1416 2.38301E+00
 -1      1417 3.86694E+00
 -1      1418 2.00415E+00
 -1      1419 2.60198E+00
 -1      1420 2.62477E+00
 -1      1421 2.95804E+00
 -1      1422 3.44018E+00
 -1      1423 2.60198E+00
 -1      1424 3.92231E+00
 -1      1425 3.97062E+00
 -1      1426 3.44018E+00
 -1      1427 4.01892E+00
 -1      1428 4.01892E+00
 -1      1429 3.97062E+00
 -1      1430 3.77583E+00
 -1      1431 3.53274E+00
 -1      1432 3.77583E+00
 -1      1433 2.85390E+00
 -1      1434 2.10212E+00
 -1      1435 2.85390E+00
 -1      1436 1.75443E+00
 -1      1437 1.47968E+00
 -1      1438 1.82737E+00
 -1      1439 1.45036E+00
 -1      1440 1.42103E+00
 -1      1441 1.45036E+00
 -1      1442 1.39677E+00
 -1      1443 1.42880E+00
 -1      1444 1.39677E+00
 -1      1445 1.48509E+00
 -1      1446 1.48509E+00
 -1      1447 1.42880E+00
 -1      1448 1.42402E+00
 -1      1449 1.36295E+00
 -1      1450 1.42402E+00
 -1      1451 1.24502E+00
 -1      1452 1.12709E+00
 -1      1453 1.24502E+00
 -1      1454 1.02653E+00
 -1      1455 9.03857E-01
 -1      1456 1.02653E+00
 -1      1457 8.31352E-01
 -1      1458 7.52639E-01
 -1      1459 8.53459E-01
 -1      1460 6.87886E-01
 -1      1461 6.51449E-01
 -1      1462 7.16202E-01
 -1      1463 6.04380E-01
 -1      1464 5.57312E-01
 -1      1465 6.04380E-01
 -1      1466 5.01834E-01
 -1      1467 4.46355E-01
 -1      1468 5.01834E-01
 -1      1469 4.10858E-01
 -1      1470 3.75361E-01
 -1      1471 4.10858E-01
 -1      1472 3.16727E-01
 -1      1473 2.58093E-01
 -1      1474 3.16727E-01
 -1      1475 1.93759E-01
 -1      1476 1.93759E-01
 -1      1477 3.39981E+00
 -1      1478 8.72225E+00
 -1      1479 8.72225E+00
 -1      1480 2.41976E+00
 -1      1481 2.90978E+00
 -1      1482 2.90978E+00
 -1      1483 1.67375E+00
 -1      1484 2.04676E+00
 -1      1485 2.04676E+00
 -1      1486 1.15411E+00
 -1      1487 1.41393E+00
 -1      1488 1.41393E+00
 -1      1489 9.15331E-01
 -1      1490 1.03472E+00
 -1      1491 1.03472E+00
 -1      1492 7.44290E-01
 -1      1493 8.29810E-01
 -1      1494 8.29810E-01
 -1      1495 6.05837E-01
 -1      1496 6.75063E-01
 -1      1497 6.75063E-01
 -1      1498 4.93023E-01
 -1      1499 5.49430E-01
 -1      1500 5.49430E-01
 -1      1501 4.02385E-01
 -1      1502 4.47704E-01
 -1      1503 4.47704E-01
 -1      1504 3.31877E-01
 -1      1505 3.67131E-01
 -1      1506 3.67131E-01
 -1      1507 2.79839E-01
 -1      1508 3.05858E-01
 -1      1509 3.05858E-01
 -1      1510 2.44671E-01
 -1      1511 2.62255E-01
 -1      1512 2.62255E-01
 -1      1513 2.24727E-01
 -1      1514 2.34699E-01
 -1      1515 2.34699E-01
 -1      1516 2.20614E-01
 -1      1517 2.21470E-01
 -1      1518 2.21470E-01
 -1      1519 2.29722E-01
 -1      1520 2.23016E-01
 -1      1521 2.20614E-01
 -1      1522 2.50018E-01
 -1      1523 2.36428E-01
 -1      1524 2.29722E-01
 -1      1525 3.00046E-01
 -1      1526 2.72179E-01
 -1      1527 2.58589E-01
 -1      1528 3.57511E-01
 -1      1529 3.25713E-01
 -1      1530 3.06417E-01
 -1      1531 4.16267E-01
 -1      1532 3.83499E-01
 -1      1533 3.58071E-01
 -1      1534 4.77159E-01
 -1      1535 4.48477E-01
 -1      1536 4.16267E-01
 -1      1537 5.22678E-01
 -1      1538 5.05842E-01
 -1      1539 4.77159E-01
 -1      1540 5.45559E-01
 -1      1541 5.39514E-01
 -1      1542 5.22678E-01
 -1      1543 6.71805E-01
 -1      1544 5.85541E-01
 -1      1545 5.79495E-01
 -1      1546 8.03329E-01
 -1      1547 7.24134E-01
 -1      1548 6.71805E-01
 -1      1549 9.21656E-01
 -1      1550 8.82524E-01
 -1      1551 8.03329E-01
 -1      1552 1.08225E+00
 -1      1553 9.60789E-01
 -1      1554 9.21656E-01
 -1      1555 4.74675E+00
 -1      1556 2.41018E+00
 -1      1557 2.28871E+00
 -1      1558 5.87687E+00
 -1      1559 5.87687E+00
 -1      1560 4.74675E+00
 -1      1561 2.50039E+00
 -1      1562 4.18863E+00
 -1      1563 4.18863E+00
 -1      1564 2.13908E+00
 -1      1565 2.29414E+00
 -1      1566 2.29414E+00
 -1      1567 2.43661E+00
 -1      1568 2.19026E+00
 -1      1569 2.13908E+00
 -1      1570 2.73617E+00
 -1      1571 2.68296E+00
 -1      1572 2.43661E+00
 -1      1573 2.78939E+00
 -1      1574 2.78939E+00
 -1      1575 2.73617E+00
 -1      1576 2.75511E+00
 -1      1577 2.77225E+00
 -1      1578 2.77225E+00
 -1      1579 1.96884E+00
 -1      1580 2.36197E+00
 -1      1581 2.36197E+00
 -1      1582 1.16675E+00
 -1      1583 1.56779E+00
 -1      1584 1.56779E+00
 -1      1585 8.22604E-01
 -1      1586 9.64204E-01
 -1      1587 9.64204E-01
 -1      1588 9.58881E-01
 -1      1589 8.83549E-01
 -1      1590 8.22604E-01
 -1      1591 1.07874E+00
 -1      1592 1.03421E+00
 -1      1593 9.58881E-01
 -1      1594 1.12326E+00
 -1      1595 1.12326E+00
 -1      1596 1.07874E+00
 -1      1597 1.06096E+00
 -1      1598 1.09211E+00
 -1      1599 1.09211E+00
 -1      1600 9.15691E-01
 -1      1601 9.88325E-01
 -1      1602 9.88325E-01
 -1      1603 7.61109E-01
 -1      1604 8.38400E-01
 -1      1605 8.38400E-01
 -1      1606 6.02412E-01
 -1      1607 6.83491E-01
 -1      1608 6.83491E-01
 -1      1609 4.95460E-01
 -1      1610 5.47205E-01
 -1      1611 5.50666E-01
 -1      1612 4.05572E-01
 -1      1613 4.50516E-01
 -1      1614 4.50516E-01
 -1      1615 2.84332E-01
 -1      1616 3.44952E-01
 -1      1617 3.44952E-01
 -1      1618 1.78737E-01
 -1      1619 2.31535E-01
 -1      1620 2.31535E-01
 -1      1621 1.29672E-01
 -1      1622 9.42089E-02
 -1      1623 9.42089E-02
 -1      1624 8.83277E-02
 -1      1625 9.43653E-02
 -1      1626 1.07966E-01
 -1      1627 7.32935E-02
 -1      1628 8.83277E-02
 -1      1629 1.08123E-01
 -1      1630 4.12438E-02
 -1      1631 4.53910E-02
 -1      1632 8.02202E-02
 -1      1633 7.58131E-02
 -1      1634 6.32754E-02
 -1      1635 7.43495E-02
 -1      1636 1.01870E-01
 -1      1637 9.33634E-02
 -1      1638 1.13931E-01
 -1      1639 1.13943E-01
 -1      1640 1.10571E-01
 -1      1641 1.40183E-01
 -1      1642 1.14544E-01
 -1      1643 1.14544E-01
 -1      1644 1.49484E-01
 -1      1645 1.13000E-01
 -1      1646 1.14544E-01
 -1      1647 1.50084E-01
 -1      1648 1.00173E-01
 -1      1649 1.07602E-01
 -1      1650 1.44686E-01
 -1      1651 7.36550E-02
 -1      1652 8.55460E-02
 -1      1653 1.24660E-01
 -1      1654 5.06569E-02
 -1      1655 5.02871E-02
 -1      1656 8.66653E-02
 -1      1657 9.17703E-02
 -1      1658 7.49136E-02
 -1      1659 8.75541E-02
 -1      1660 1.13290E-01
 -1      1661 9.17703E-02
 -1      1662 1.11811E-01
 -1      1663 1.38822E-01
 -1      1664 1.31493E-01
 -1      1665 1.30015E-01
 -1      1666 2.03155E-01
 -1      1667 2.85358E+01
 -1      1668 2.85358E+01
 -1      1669 4.25298E+01
 -1      1670 3.24050E+01
 -1      1671 4.54061E+01
 -1      1672 4.54061E+01
 -1      1673 1.78147E+01
 -1      1674 3.17958E+01
 -1      1675 1.13916E+01
 -1      1676 1.40342E+01
 -1      1677 1.23021E+01
 -1      1678 1.21588E+01
 -1      1679 1.24453E+01
 -1      1680 1.24453E+01
 -1      1681 1.17803E+01
 -1      1682 1.19829E+01
 -1      1683 1.20402E+01
 -1      1684 1.20402E+01
 -1      1685 1.22192E+01
 -1      1686 1.15975E+01
 -1      1687 2.39069E+01
 -1      1688 1.32835E+01
 -1      1689 3.45303E+01
 -1      1690 3.45303E+01
 -1      1691 3.07028E+01
 -1      1692 3.44081E+01
 -1      1693 2.67631E+01
 -1      1694 2.76804E+01
 -1      1695 2.80860E+01
 -1      1696 2.79216E+01
 -1      1697 2.84690E+01
 -1      1698 2.80860E+01
 -1      1699 3.38289E+01
 -1      1700 2.96465E+01
 -1      1701 3.47446E+01
 -1      1702 3.47446E+01
 -1      1703 1.40116E+01
 -1      1704 2.43781E+01
 -1      1705 1.21495E+01
 -1      1706 1.30104E+01
 -1      1707 1.23297E+01
 -1      1708 1.22899E+01
 -1      1709 1.23696E+01
 -1      1710 1.23696E+01
 -1      1711 1.21488E+01
 -1      1712 1.22592E+01
 -1      1713 1.17818E+01
 -1      1714 1.19653E+01
 -1      1715 1.59976E+01
 -1      1716 1.14938E+01
 -1      1717 3.55273E+01
 -1      1718 2.18660E+01
 -1      1719 4.81119E+01
 -1      1720 4.81119E+01
 -1      1721 2.77992E+01
 -1      1722 3.93310E+01
 -1      1723 2.85358E+01
 -1      1724 2.84816E+01
 -1      1725 1.44050E+01
 -1      1726 3.17958E+01
 -1      1727 1.29672E-01
 -1      1728 1.43273E-01
 -1      1729 3.57842E+01
 -1      1730 4.25298E+01
 -1      1731 3.19150E+01
 -1      1732 1.13916E+01
 -1      1733 1.23021E+01
 -1      1734 1.19829E+01
 -1      1735 1.17803E+01
 -1      1736 1.15975E+01
 -1      1737 1.22192E+01
 -1      1738 2.39069E+01
 -1      1739 3.44081E+01
 -1      1740 3.12635E+01
 -1      1741 2.93997E+01
 -1      1742 3.05583E+01
 -1      1743 3.17357E+01
 -1      1744 3.38289E+01
 -1      1745 2.43781E+01
 -1      1746 1.30104E+01
 -1      1747 1.21495E+01
 -1      1748 1.23297E+01
 -1      1749 1.22592E+01
 -1      1750 1.19653E+01
 -1      1751 1.14938E+01
 -1      1752 1.70743E+01
 -1      1753 3.55273E+01
 -1      1754 3.93310E+01
 -1      1755 3.12325E+01
 -1      1756 9.61195E+00
 -1      1757 1.27422E+00
 -1      1758 1.66925E+00
 -1      1759 2.38553E+00
 -1      1760 4.27558E+00
 -1      1761 1.75997E+00
 -1      1762 8.82596E-01
 -1      1763 9.74429E-01
 -1      1764 7.78595E-01
 -1      1765 8.32732E-01
 -1      1766 7.43355E-01
 -1      1767 7.13352E-01
 -1      1768 7.47298E-01
 -1      1769 6.62194E-01
 -1      1770 6.71673E-01
 -1      1771 6.91494E-01
 -1      1772 6.09040E-01
 -1      1773 6.94770E-01
 -1      1774 6.73249E-01
 -1      1775 5.88758E-01
 -1      1776 7.49946E-01
 -1      1777 7.16363E-01
 -1      1778 6.11927E-01
 -1      1779 8.39561E-01
 -1      1780 7.83040E-01
 -1      1781 6.66614E-01
 -1      1782 9.82301E-01
 -1      1783 8.86918E-01
 -1      1784 7.47066E-01
 -1      1785 1.22702E+00
 -1      1786 1.04979E+00
 -1      1787 8.61914E-01
 -1      1788 1.70667E+00
 -1      1789 1.34014E+00
 -1      1790 1.04252E+00
 -1      1791 2.62702E+00
 -1      1792 1.79123E+00
 -1      1793 1.24019E+00
 -1      1794 8.12395E+00
 -1      1795 3.06625E+00
 -1      1796 1.76398E+00
 -1      1797 2.80151E+00
 -1      1798 5.19960E+00
 -1      1799 2.16837E+00
 -1      1800 2.65839E+00
 -1      1801 2.06009E+00
 -1      1802 3.40026E+00
 -1      1803 2.54317E+00
 -1      1804 1.92908E+00
 -1      1805 1.69873E+00
 -1      1806 1.36641E+00
 -1      1807 1.50637E+00
 -1      1808 1.18687E+00
 -1      1809 9.76765E-01
 -1      1810 1.09648E+00
 -1      1811 8.51871E-01
 -1      1812 7.28733E-01
 -1      1813 7.92053E-01
 -1      1814 6.71649E-01
 -1      1815 5.84069E-01
 -1      1816 6.10076E-01
 -1      1817 5.37349E-01
 -1      1818 4.73937E-01
 -1      1819 5.06272E-01
 -1      1820 4.33360E-01
 -1      1821 3.85869E-01
 -1      1822 4.18975E-01
 -1      1823 3.52077E-01
 -1      1824 3.14025E-01
 -1      1825 3.44605E-01
 -1      1826 2.87139E-01
 -1      1827 2.57409E-01
 -1      1828 2.83927E-01
 -1      1829 2.34604E-01
 -1      1830 2.12060E-01
 -1      1831 2.34236E-01
 -1      1832 1.94899E-01
 -1      1833 1.80405E-01
 -1      1834 1.94270E-01
 -1      1835 1.67629E-01
 -1      1836 1.61906E-01
 -1      1837 1.64334E-01
 -1      1838 1.65074E-01
 -1      1839 1.73722E-01
 -1      1840 1.54726E-01
 -1      1841 1.87747E-01
 -1      1842 2.06323E-01
 -1      1843 1.71919E-01
 -1      1844 2.25614E-01
 -1      1845 2.51504E-01
 -1      1846 2.05236E-01
 -1      1847 2.86981E-01
 -1      1848 3.20371E-01
 -1      1849 2.60005E-01
 -1      1850 3.73762E-01
 -1      1851 6.98818E+00
 -1      1852 3.48873E-01
 -1      1853 1.23336E+01
 -1      1854 1.59588E+01
 -1      1855 5.74774E+00
 -1      1856 1.82362E+01
 -1      1857 1.21558E+01
 -1      1858 1.33706E+01
 -1      1859 9.52895E+00
 -1      1860 1.16260E+01
 -1      1861 1.30212E+01
 -1      1862 1.51132E+01
 -1      1863 2.51645E+01
 -1      1864 1.38815E+01
 -1      1865 3.50036E+01
 -1      1866 4.35257E+01
 -1      1867 2.72079E+01
 -1      1868 5.36306E+01
 -1      1869 5.36306E+01
 -1      1870 4.71518E+01
 -1      1871 5.36306E+01
 -1      1872 5.07990E+01
 -1      1873 5.72567E+01
 -1      1874 4.03623E+01
 -1      1875 2.77459E+01
 -1      1876 4.68200E+01
 -1      1877 1.65299E+01
 -1      1878 9.34071E+00
 -1      1879 2.51672E+01
 -1      1880 4.63447E+00
 -1      1881 3.77117E+00
 -1      1882 9.24494E+00
 -1      1883 2.67787E+00
 -1      1884 2.29900E+00
 -1      1885 3.44540E+00
 -1      1886 2.27178E+00
 -1      1887 2.62785E+00
 -1      1888 2.32487E+00
 -1      1889 2.80903E+00
 -1      1890 3.29116E+00
 -1      1891 2.47883E+00
 -1      1892 3.11986E+00
 -1      1893 3.16817E+00
 -1      1894 2.48871E+00
 -1      1895 3.26774E+00
 -1      1896 3.02465E+00
 -1      1897 2.41699E+00
 -1      1898 2.75428E+00
 -1      1899 2.07544E+00
 -1      1900 2.24619E+00
 -1      1901 1.82035E+00
 -1      1902 1.47266E+00
 -1      1903 1.72073E+00
 -1      1904 1.28291E+00
 -1      1905 1.25358E+00
 -1      1906 1.27589E+00
 -1      1907 1.22160E+00
 -1      1908 1.19734E+00
 -1      1909 1.05415E+00
 -1      1910 1.20565E+00
 -1      1911 1.26194E+00
 -1      1912 1.03048E+00
 -1      1913 1.30472E+00
 -1      1914 1.24365E+00
 -1      1915 1.08157E+00
 -1      1916 1.21507E+00
 -1      1917 1.09714E+00
 -1      1918 1.09577E+00
 -1      1919 1.03297E+00
 -1      1920 9.32408E-01
 -1      1921 1.00302E+00
 -1      1922 8.77510E-01
 -1      1923 8.05005E-01
 -1      1924 8.83954E-01
 -1      1925 7.38104E-01
 -1      1926 6.73351E-01
 -1      1927 7.62154E-01
 -1      1928 5.99466E-01
 -1      1929 5.52397E-01
 -1      1930 6.21368E-01
 -1      1931 4.86651E-01
 -1      1932 4.31173E-01
 -1      1933 4.81736E-01
 -1      1934 3.85853E-01
 -1      1935 3.50356E-01
 -1      1936 3.70671E-01
 -1      1937 3.00700E-01
 -1      1938 2.42065E-01
 -1      1939 1.87128E-01
 -1      1940 2.75694E-01
 -1      1941 1.40493E+00
 -1      1942 1.77794E+00
 -1      1943 1.52654E+00
 -1      1944 1.02653E+00
 -1      1945 1.28635E+00
 -1      1946 1.01753E+00
 -1      1947 8.13821E-01
 -1      1948 9.33211E-01
 -1      1949 8.05625E-01
 -1      1950 6.49259E-01
 -1      1951 7.34780E-01
 -1      1952 6.33270E-01
 -1      1953 5.28458E-01
 -1      1954 5.97684E-01
 -1      1955 5.02654E-01
 -1      1956 4.40134E-01
 -1      1957 4.96541E-01
 -1      1958 4.19162E-01
 -1      1959 3.64400E-01
 -1      1960 4.09719E-01
 -1      1961 3.56831E-01
 -1      1962 3.01847E-01
 -1      1963 3.37101E-01
 -1      1964 2.99116E-01
 -1      1965 2.57176E-01
 -1      1966 2.83195E-01
 -1      1967 2.53165E-01
 -1      1968 2.24949E-01
 -1      1969 2.42533E-01
 -1      1970 2.19870E-01
 -1      1971 2.05712E-01
 -1      1972 2.15684E-01
 -1      1973 1.95962E-01
 -1      1974 1.97469E-01
 -1      1975 2.00726E-01
 -1      1976 1.81711E-01
 -1      1977 1.98587E-01
 -1      1978 1.96185E-01
 -1      1979 1.75442E-01
 -1      1980 2.16043E-01
 -1      1981 2.09337E-01
 -1      1982 1.84908E-01
 -1      1983 2.62671E-01
 -1      1984 2.40510E-01
 -1      1985 2.20125E-01
 -1      1986 3.31920E-01
 -1      1987 3.06253E-01
 -1      1988 2.88174E-01
 -1      1989 4.06824E-01
 -1      1990 3.80837E-01
 -1      1991 3.80673E-01
 -1      1992 4.90521E-01
 -1      1993 4.58312E-01
 -1      1994 4.81078E-01
 -1      1995 5.67763E-01
 -1      1996 5.39081E-01
 -1      1997 5.81125E-01
 -1      1998 6.25451E-01
 -1      1999 6.08615E-01
 -1      2000 6.70536E-01
 -1      2001 6.99585E-01
 -1      2002 6.59604E-01
 -1      2003 7.45541E-01
 -1      2004 7.51914E-01
 -1      2005 6.99585E-01
 -1      2006 7.79695E-01
 -1      2007 8.30738E-01
 -1      2008 7.51543E-01
 -1      2009 7.79323E-01
 -1      2010 8.12936E-01
 -1      2011 7.73804E-01
 -1      2012 7.22018E-01
 -1      2013 2.61689E+00
 -1      2014 1.28897E+00
 -1      2015 1.14112E+00
 -1      2016 3.72575E+00
 -1      2017 2.59563E+00
 -1      2018 1.59589E+00
 -1      2019 2.16093E+00
 -1      2020 3.84918E+00
 -1      2021 1.69805E+00
 -1      2022 1.77698E+00
 -1      2023 1.98323E+00
 -1      2024 1.64378E+00
 -1      2025 1.85042E+00
 -1      2026 1.79924E+00
 -1      2027 1.48833E+00
 -1      2028 2.09677E+00
 -1      2029 1.85042E+00
 -1      2030 1.51059E+00
 -1      2031 2.10766E+00
 -1      2032 2.05445E+00
 -1      2033 1.46826E+00
 -1      2034 2.19353E+00
 -1      2035 2.21067E+00
 -1      2036 1.52895E+00
 -1      2037 1.65977E+00
 -1      2038 2.05290E+00
 -1      2039 1.49133E+00
 -1      2040 1.00254E+00
 -1      2041 1.40358E+00
 -1      2042 1.09451E+00
 -1      2043 6.46409E-01
 -1      2044 8.48954E-01
 -1      2045 6.84742E-01
 -1      2046 7.41875E-01
 -1      2047 6.80930E-01
 -1      2048 5.65680E-01
 -1      2049 8.88273E-01
 -1      2050 8.12941E-01
 -1      2051 6.71268E-01
 -1      2052 9.65877E-01
 -1      2053 9.21352E-01
 -1      2054 7.75412E-01
 -1      2055 9.40044E-01
 -1      2056 9.71196E-01
 -1      2057 8.13810E-01
 -1      2058 8.32627E-01
 -1      2059 9.05261E-01
 -1      2060 7.84346E-01
 -1      2061 7.11940E-01
 -1      2062 7.89231E-01
 -1      2063 7.06167E-01
 -1      2064 5.82096E-01
 -1      2065 6.59715E-01
 -1      2066 6.10546E-01
 -1      2067 4.67457E-01
 -1      2068 5.22663E-01
 -1      2069 4.98887E-01
 -1      2070 3.84777E-01
 -1      2071 4.29721E-01
 -1      2072 4.01718E-01
 -1      2073 2.79780E-01
 -1      2074 3.40400E-01
 -1      2075 3.19604E-01
 -1      2076 1.74812E-01
 -1      2077 2.27610E-01
 -1      2078 2.23057E-01
 -1      2079 1.39349E-01
 -1      2080 8.38965E-02
 -1      2081 1.11799E-01
 -1      2082 1.57316E-01
 -1      2083 1.57316E-01
 -1      2084 1.60992E-01
 -1      2085 1.57316E-01
 -1      2086 1.57159E-01
 -1      2087 1.88698E-01
 -1      2088 2.06509E-01
 -1      2089 1.10449E-01
 -1      2090 8.84176E-02
 -1      2091 1.19996E-01
 -1      2092 1.54284E-01
 -1      2093 1.36734E-01
 -1      2094 1.50802E-01
 -1      2095 1.78266E-01
 -1      2096 1.69565E-01
 -1      2097 1.92368E-01
 -1      2098 1.80245E-01
 -1      2099 1.79644E-01
 -1      2100 2.09027E-01
 -1      2101 1.81651E-01
 -1      2102 1.81651E-01
 -1      2103 2.11811E-01
 -1      2104 1.76252E-01
 -1      2105 1.81651E-01
 -1      2106 2.13218E-01
 -1      2107 1.51875E-01
 -1      2108 1.66502E-01
 -1      2109 2.03467E-01
 -1      2110 1.05017E-01
 -1      2111 1.28385E-01
 -1      2112 1.70227E-01
 -1      2113 1.16327E-01
 -1      2114 9.20703E-02
 -1      2115 1.33790E-01
 -1      2116 1.49938E-01
 -1      2117 1.49938E-01
 -1      2118 1.54455E-01
 -1      2119 3.65958E+01
 -1      2120 3.37194E+01
 -1      2121 3.25052E+01
 -1      2122 3.25052E+01
 -1      2123 3.63744E+01
 -1      2124 3.25052E+01
 -1      2125 3.04404E+01
 -1      2126 1.66286E+01
 -1      2127 3.02389E+01
 -1      2128 9.67059E+00
 -1      2129 1.34511E+01
 -1      2130 1.03208E+00
 -1      2131 1.20664E+00
 -1      2132 9.76108E-01
 -1      2133 8.50874E-01
 -1      2134 1.08995E+01
 -1      2135 1.07562E+01
 -1      2136 1.13272E+01
 -1      2137 1.17897E+01
 -1      2138 1.13100E+01
 -1      2139 1.10501E+01
 -1      2140 1.08569E+01
 -1      2141 9.98199E+00
 -1      2142 1.04247E+01
 -1      2143 1.05418E+01
 -1      2144 9.47745E+00
 -1      2145 2.38025E+01
 -1      2146 1.31791E+01
 -1      2147 1.04374E+01
 -1      2148 2.85766E+01
 -1      2149 2.86988E+01
 -1      2150 2.73260E+01
 -1      2151 3.03484E+01
 -1      2152 3.74073E+01
 -1      2153 3.62488E+01
 -1      2154 3.74073E+01
 -1      2155 3.74073E+01
 -1      2156 2.99563E+01
 -1      2157 2.87788E+01
 -1      2158 2.88796E+01
 -1      2159 2.79639E+01
 -1      2160 1.35909E+01
 -1      2161 2.39574E+01
 -1      2162 9.69373E+00
 -1      2163 1.06949E+01
 -1      2164 1.05091E+01
 -1      2165 1.03688E+01
 -1      2166 1.10131E+01
 -1      2167 1.09732E+01
 -1      2168 9.19249E+00
 -1      2169 1.13464E+01
 -1      2170 1.14568E+01
 -1      2171 1.06916E+01
 -1      2172 1.08751E+01
 -1      2173 1.00727E+01
 -1      2174 9.19565E+00
 -1      2175 9.48362E+00
 -1      2176 1.62902E+01
 -1      2177 1.04217E+01
 -1      2178 3.24140E+01
 -1      2179 1.98294E+01
 -1      2180 3.05501E+01
 -1      2181 3.93310E+01
 -1      2182 2.36331E+01
 -1      2183 3.20903E+01
 -1      2184 3.14079E+01
 -1      2185 9.80379E+00
 -1      2186 9.03660E+00
 -1      2187 8.08274E+00
 -1      2188 2.91294E+00
 -1      2189 8.40119E+00
 -1      2190 2.10648E+00
 -1      2191 3.30954E+01
 -1      2192 2.14286E+01
 -1      2193 1.68142E-01
 -1      2194 3.26805E+01
 -1      2195 1.18942E+01
 -1      2196 3.14079E+01
 -1      2197 1.31769E+01
 -1      2198 8.39345E+00
 -1      2199 1.01003E+01
 -1      2200 8.05337E+00
 -1      2201 1.02743E+01
 -1      2202 1.80924E+01
 -1      2203 2.50070E+01
 -1      2204 3.56279E+01
 -1      2205 4.42564E+01
 -1      2206 3.53337E+01
 -1      2207 2.36803E+01
 -1      2208 1.29525E+01
 -1      2209 1.78487E+01
 -1      2210 9.69449E+00
 -1      2211 1.02438E+01
 -1      2212 8.30461E+00
 -1      2213 2.46391E+01
 -1      2214 8.41158E+00
 -1      2215 1.09534E+00
 -1      2216 1.48577E+00
 -1      2217 5.58018E-01
 -1      2218 5.89315E-01
 -1      2219 6.03114E-01
 -1      2220 6.52978E-01
 -1      2221 4.98938E-01
 -1      2222 5.10730E-01
 -1      2223 5.09153E-01
 -1      2224 5.45060E-01
 -1      2225 5.23468E-01
 -1      2226 4.43863E-01
 -1      2227 5.92694E-01
 -1      2228 5.59600E-01
 -1      2229 4.71140E-01
 -1      2230 6.51962E-01
 -1      2231 6.04604E-01
 -1      2232 4.97591E-01
 -1      2233 7.19453E-01
 -1      2234 6.51962E-01
 -1      2235 5.09501E-01
 -1      2236 8.78971E-01
 -1      2237 7.65859E-01
 -1      2238 5.55907E-01
 -1      2239 8.98940E-01
 -1      2240 1.01753E+00
 -1      2241 9.76753E-01
 -1      2242 1.27035E+00
 -1      2243 1.04000E+00
 -1      2244 7.14041E+00
 -1      2245 6.18797E+00
 -1      2246 9.92603E-01
 -1      2247 8.13068E-01
 -1      2248 7.56587E-01
 -1      2249 7.56706E-01
 -1      2250 6.31812E-01
 -1      2251 6.52826E-01
 -1      2252 5.75752E-01
 -1      2253 5.18669E-01
 -1      2254 5.40405E-01
 -1      2255 4.69220E-01
 -1      2256 4.22500E-01
 -1      2257 4.34896E-01
 -1      2258 3.98455E-01
 -1      2259 3.57878E-01
 -1      2260 3.61402E-01
 -1      2261 3.33841E-01
 -1      2262 3.00048E-01
 -1      2263 3.13321E-01
 -1      2264 2.77196E-01
 -1      2265 2.50310E-01
 -1      2266 2.66432E-01
 -1      2267 2.29591E-01
 -1      2268 2.06786E-01
 -1      2269 2.22860E-01
 -1      2270 1.88372E-01
 -1      2271 1.71211E-01
 -1      2272 1.83727E-01
 -1      2273 1.54747E-01
 -1      2274 1.41971E-01
 -1      2275 1.48848E-01
 -1      2276 1.33155E-01
 -1      2277 1.36323E-01
 -1      2278 1.23568E-01
 -1      2279 1.45766E-01
 -1      2280 1.59791E-01
 -1      2281 1.24195E-01
 -1      2282 1.77268E-01
 -1      2283 1.96560E-01
 -1      2284 1.51115E-01
 -1      2285 2.36092E-01
 -1      2286 2.71569E-01
 -1      2287 2.08124E-01
 -1      2288 3.18734E-01
 -1      2289 3.72125E-01
 -1      2290 2.94821E-01
 -1      2291 4.27723E-01
 -1      2292 5.77320E+00
 -1      2293 3.97584E-01
 -1      2294 1.33706E+01
 -1      2295 1.56480E+01
 -1      2296 8.05061E+00
 -1      2297 1.56480E+01
 -1      2298 1.30212E+01
 -1      2299 1.56480E+01
 -1      2300 9.83461E+00
 -1      2301 1.33218E+01
 -1      2302 1.24615E+01
 -1      2303 1.73687E+01
 -1      2304 2.72079E+01
 -1      2305 1.33218E+01
 -1      2306 3.70470E+01
 -1      2307 4.71518E+01
 -1      2308 2.72079E+01
 -1      2309 5.72567E+01
 -1      2310 5.72567E+01
 -1      2311 4.71518E+01
 -1      2312 4.83255E+01
 -1      2313 3.78888E+01
 -1      2314 4.83255E+01
 -1      2315 2.96667E+01
 -1      2316 1.84506E+01
 -1      2317 3.11722E+01
 -1      2318 8.58070E+00
 -1      2319 3.87446E+00
 -1      2320 1.30802E+01
 -1      2321 3.39438E+00
 -1      2322 2.30108E+00
 -1      2323 2.73014E+00
 -1      2324 2.27835E+00
 -1      2325 2.25113E+00
 -1      2326 2.22733E+00
 -1      2327 3.37622E+00
 -1      2328 3.55740E+00
 -1      2329 3.32969E+00
 -1      2330 3.66966E+00
 -1      2331 3.49836E+00
 -1      2332 4.56705E+00
 -1      2333 4.41165E+00
 -1      2334 4.51123E+00
 -1      2335 5.59261E+00
 -1      2336 3.44875E+00
 -1      2337 3.17838E+00
 -1      2338 5.44342E+00
 -1      2339 2.18483E+00
 -1      2340 1.92974E+00
 -1      2341 3.38739E+00
 -1      2342 1.74464E+00
 -1      2343 1.55489E+00
 -1      2344 2.20874E+00
 -1      2345 1.43161E+00
 -1      2346 1.39963E+00
 -1      2347 1.90036E+00
 -1      2348 1.25692E+00
 -1      2349 1.26522E+00
 -1      2350 1.63437E+00
 -1      2351 1.20940E+00
 -1      2352 1.25219E+00
 -1      2353 1.43584E+00
 -1      2354 1.15800E+00
 -1      2355 1.12942E+00
 -1      2356 1.28584E+00
 -1      2357 1.03747E+00
 -1      2358 9.73299E-01
 -1      2359 1.09970E+00
 -1      2360 9.20305E-01
 -1      2361 8.65407E-01
 -1      2362 9.54752E-01
 -1      2363 7.95290E-01
 -1      2364 7.28389E-01
 -1      2365 8.31642E-01
 -1      2366 6.53491E-01
 -1      2367 5.79606E-01
 -1      2368 6.86627E-01
 -1      2369 5.08073E-01
 -1      2370 4.42327E-01
 -1      2371 5.40196E-01
 -1      2372 3.78939E-01
 -1      2373 3.33619E-01
 -1      2374 4.05276E-01
 -1      2375 2.29595E+01
 -1      2376 2.56144E+01
 -1      2377 5.54229E-01
 -1      2378 6.33270E-01
 -1      2379 4.51079E-01
 -1      2380 5.02654E-01
 -1      2381 5.02654E-01
 -1      2382 3.87246E-01
 -1      2383 4.19162E-01
 -1      2384 4.19162E-01
 -1      2385 3.26415E-01
 -1      2386 3.56831E-01
 -1      2387 3.56831E-01
 -1      2388 2.71817E-01
 -1      2389 2.99116E-01
 -1      2390 2.99116E-01
 -1      2391 2.29592E-01
 -1      2392 2.48244E-01
 -1      2393 2.48244E-01
 -1      2394 1.95047E-01
 -1      2395 2.09690E-01
 -1      2396 2.04769E-01
 -1      2397 1.69048E-01
 -1      2398 1.78313E-01
 -1      2399 1.68133E-01
 -1      2400 1.49979E-01
 -1      2401 1.54964E-01
 -1      2402 1.37316E-01
 -1      2403 1.57392E-01
 -1      2404 1.58675E-01
 -1      2405 1.31929E-01
 -1      2406 1.80052E-01
 -1      2407 1.69302E-01
 -1      2408 1.52536E-01
 -1      2409 2.29371E-01
 -1      2410 2.04903E-01
 -1      2411 1.89297E-01
 -1      2412 3.12870E-01
 -1      2413 2.69288E-01
 -1      2414 2.54066E-01
 -1      2415 4.06678E-01
 -1      2416 3.57761E-01
 -1      2417 3.38875E-01
 -1      2418 5.06428E-01
 -1      2419 4.54940E-01
 -1      2420 4.32028E-01
 -1      2421 6.03072E-01
 -1      2422 5.54513E-01
 -1      2423 5.28375E-01
 -1      2424 6.85688E-01
 -1      2425 6.44836E-01
 -1      2426 6.18223E-01
 -1      2427 7.55862E-01
 -1      2428 7.21709E-01
 -1      2429 6.96009E-01
 -1      2430 7.85264E-01
 -1      2431 7.85264E-01
 -1      2432 7.61431E-01
 -1      2433 8.09720E-01
 -1      2434 8.10092E-01
 -1      2435 8.15661E-01
 -1      2436 7.43934E-01
 -1      2437 8.00868E-01
 -1      2438 8.31637E-01
 -1      2439 1.61715E+00
 -1      2440 1.14112E+00
 -1      2441 1.21997E+00
 -1      2442 1.59589E+00
 -1      2443 1.61715E+00
 -1      2444 1.61715E+00
 -1      2445 1.46785E+00
 -1      2446 1.34442E+00
 -1      2447 1.36569E+00
 -1      2448 1.18149E+00
 -1      2449 1.35919E+00
 -1      2450 1.00557E+00
 -1      2451 1.44081E+00
 -1      2452 1.41855E+00
 -1      2453 1.13397E+00
 -1      2454 1.53251E+00
 -1      2455 1.53251E+00
 -1      2456 1.46273E+00
 -1      2457 1.45678E+00
 -1      2458 1.49910E+00
 -1      2459 1.52103E+00
 -1      2460 1.61008E+00
 -1      2461 1.50707E+00
 -1      2462 1.53791E+00
 -1      2463 1.29314E+00
 -1      2464 1.43377E+00
 -1      2465 1.41190E+00
 -1      2466 9.49478E-01
 -1      2467 1.20566E+00
 -1      2468 1.14811E+00
 -1      2469 7.14425E-01
 -1      2470 8.68008E-01
 -1      2471 9.79161E-01
 -1      2472 7.36518E-01
 -1      2473 7.01996E-01
 -1      2474 8.85262E-01
 -1      2475 7.68765E-01
 -1      2476 6.97699E-01
 -1      2477 8.34015E-01
 -1      2478 8.15063E-01
 -1      2479 7.81984E-01
 -1      2480 8.08416E-01
 -1      2481 7.94722E-01
 -1      2482 7.89403E-01
 -1      2483 7.95975E-01
 -1      2484 7.20655E-01
 -1      2485 7.55438E-01
 -1      2486 7.31031E-01
 -1      2487 6.40993E-01
 -1      2488 6.84390E-01
 -1      2489 6.55481E-01
 -1      2490 5.43244E-01
 -1      2491 5.95470E-01
 -1      2492 5.73692E-01
 -1      2493 4.31425E-01
 -1      2494 4.90858E-01
 -1      2495 4.75782E-01
 -1      2496 3.40699E-01
 -1      2497 3.78435E-01
 -1      2498 3.70406E-01
 -1      2499 2.58582E-01
 -1      2500 3.02960E-01
 -1      2501 2.79677E-01
 -1      2502 2.40868E-01
 -1      2503 1.96639E-01
 -1      2504 1.70355E-01
 -1      2505 2.37995E-01
 -1      2506 2.22714E-01
 -1      2507 2.42266E-01
 -1      2508 1.57413E-01
 -1      2509 2.02930E-01
 -1      2510 1.48194E-01
 -1      2511 1.43673E-01
 -1      2512 1.85611E-01
 -1      2513 1.94031E-01
 -1      2514 2.47547E-01
 -1      2515 2.46169E-01
 -1      2516 2.76515E-01
 -1      2517 2.48953E-01
 -1      2518 2.47547E-01
 -1      2519 2.84689E-01
 -1      2520 2.49130E-01
 -1      2521 2.49130E-01
 -1      2522 2.84866E-01
 -1      2523 2.39379E-01
 -1      2524 2.49130E-01
 -1      2525 2.85042E-01
 -1      2526 1.97314E-01
 -1      2527 2.20804E-01
 -1      2528 2.66467E-01
 -1      2529 1.69314E-01
 -1      2530 1.82261E-01
 -1      2531 2.32838E-01
 -1      2532 2.02925E-01
 -1      2533 1.69314E-01
 -1      2534 2.17784E-01
 -1      2535 2.07052E-01
 -1      2536 3.26805E+01
 -1      2537 3.22657E+01
 -1      2538 7.12310E-01
 -1      2539 8.05625E-01
 -1      2540 6.33270E-01
 -1      2541 1.40071E+01
 -1      2542 2.03640E+01
 -1      2543 2.66883E+01
 -1      2544 2.58305E+01
 -1      2545 2.66883E+01
 -1      2546 1.67535E+00
 -1      2547 1.30559E+00
 -1      2548 8.39221E-01
 -1      2549 9.59072E-01
 -1      2550 1.29870E+01
 -1      2551 9.44777E+00
 -1      2552 6.46481E+00
 -1      2553 5.78976E+00
 -1      2554 7.56187E+00
 -1      2555 8.44721E+00
 -1      2556 5.21852E-01
 -1      2557 5.43710E-01
 -1      2558 4.70831E-01
 -1      2559 4.43824E-01
 -1      2560 9.12232E+00
 -1      2561 8.23211E+00
 -1      2562 5.92541E+00
 -1      2563 6.42995E+00
 -1      2564 9.09378E+00
 -1      2565 9.37089E+00
 -1      2566 2.18372E+01
 -1      2567 2.00653E+01
 -1      2568 9.39824E+00
 -1      2569 6.76094E+00
 -1      2570 7.09039E+00
 -1      2571 5.86430E+00
 -1      2572 6.90049E+00
 -1      2573 3.53337E+01
 -1      2574 2.64110E+01
 -1      2575 2.18372E+01
 -1      2576 4.42564E+01
 -1      2577 4.42564E+01
 -1      2578 2.69994E+01
 -1      2579 3.56279E+01
 -1      2580 2.05570E+01
 -1      2581 2.25494E+01
 -1      2582 2.25494E+01
 -1      2583 1.18887E+01
 -1      2584 1.68109E+01
 -1      2585 7.01794E+00
 -1      2586 9.91388E+00
 -1      2587 8.63239E+00
 -1      2588 7.96505E+00
 -1      2589 7.50097E+00
 -1      2590 9.36616E+00
 -1      2591 8.92242E+00
 -1      2592 8.58350E+00
 -1      2593 9.05482E+00
 -1      2594 6.43099E+00
 -1      2595 7.63896E+00
 -1      2596 6.62104E+00
 -1      2597 2.16490E+01
 -1      2598 1.47321E+01
 -1      2599 8.21004E+00
 -1      2600 1.13875E+01
 -1      2601 3.30954E+01
 -1      2602 3.30954E+01
 -1      2603 2.56144E+01
 -1      2604 1.62330E+00
 -1      2605 1.76641E+00
 -1      2606 1.32718E+00
 -1      2607 1.19209E+00
 -1      2608 5.83931E+00
 -1      2609 6.47331E+00
 -1      2610 5.96661E+00
 -1      2611 6.01889E+00
 -1      2612 5.21461E-01
 -1      2613 6.61702E-01
 -1      2614 7.19357E-01
 -1      2615 8.05625E-01
 -1      2616 1.24262E+00
 -1      2617 4.57853E+00
 -1      2618 1.10029E+01
 -1      2619 1.55380E+01
 -1      2620 2.24223E-01
 -1      2621 2.24223E-01
 -1      2622 5.10980E+00
 -1      2623 2.15651E-01
 -1      2624 1.96665E-01
 -1      2625 2.11524E-01
 -1      2626 2.65307E-01
 -1      2627 7.87693E+00
 -1      2628 3.26805E+01
 -1      2629 9.65967E-01
 -1      2630 1.03229E+01
 -1      2631 5.42938E+00
 -1      2632 1.69294E+01
 -1      2633 1.66820E+01
 -1      2634 1.42244E+01
 -1      2635 1.04783E+01
 -1      2636 8.91492E-01
 -1      2637 5.23737E+00
 -1      2638 9.78020E+00
 -1      2639 6.10377E+00
 -1      2640 9.65800E+00
 -1      2641 3.53337E+01
 -1      2642 6.96116E+00
 -1      2643 5.18266E+00
 -1      2644 1.68164E+01
 -1      2645 1.17980E+01
 -1      2646 1.40146E+01
 -1      2647 4.88627E+00
 -1      2648 7.35916E+00
 -1      2649 3.56279E+01
 -1      2650 7.23090E+00
 -1      2651 2.20644E-01
 -1      2652 2.73576E-01
 -1      2653 4.21862E-01
 -1      2654 4.07322E-01
 -1      2655 3.99752E-01
 -1      2656 3.87014E-01
 -1      2657 3.50474E-01
 -1      2658 4.35238E-01
 -1      2659 4.35238E-01
 -1      2660 4.69575E-01
 -1      2661 4.23169E-01
 -1      2662 3.48906E-01
 -1      2663 7.21501E-01
 -1      2664 7.99315E-01
 -1      2665 7.26428E+00
 -1      2666 9.88384E+00
 -1      2667 6.16664E-01
 -1      2668 7.09979E-01
 -1      2669 5.32541E-01
 -1      2670 1.02171E+01
 -1      2671 8.47201E+00
 -1      2672 1.56977E+01
 -1      2673 2.31786E+01
 -1      2674 5.73879E+00
 -1      2675 4.64710E+00
 -1      2676 7.02321E-01
 -1      2677 6.67086E-01
 -1      2678 5.55831E-01
 -1      2679 4.99469E-01
 -1      2680 4.92928E-01
 -1      2681 4.36868E-01
 -1      2682 3.95932E-01
 -1      2683 4.15982E-01
 -1      2684 3.66533E-01
 -1      2685 3.68505E-01
 -1      2686 3.40942E-01
 -1      2687 3.16897E-01
 -1      2688 3.22028E-01
 -1      2689 2.90776E-01
 -1      2690 2.66739E-01
 -1      2691 2.70315E-01
 -1      2692 2.51313E-01
 -1      2693 2.28460E-01
 -1      2694 2.28768E-01
 -1      2695 2.12000E-01
 -1      2696 1.91280E-01
 -1      2697 1.96880E-01
 -1      2698 1.74484E-01
 -1      2699 1.56069E-01
 -1      2700 1.63623E-01
 -1      2701 1.39207E-01
 -1      2702 1.22743E-01
 -1      2703 1.29964E-01
 -1      2704 1.05540E-01
 -1      2705 9.67238E-02
 -1      2706 9.58991E-02
 -1      2707 9.77926E-02
 -1      2708 1.07236E-01
 -1      2709 7.97644E-02
 -1      2710 1.26938E-01
 -1      2711 1.44415E-01
 -1      2712 1.00536E-01
 -1      2713 1.77504E-01
 -1      2714 2.17035E-01
 -1      2715 1.53327E-01
 -1      2716 2.56526E-01
 -1      2717 3.03691E-01
 -1      2718 2.25906E-01
 -1      2719 3.51021E-01
 -1      2720 4.06619E-01
 -1      2721 3.12726E-01
 -1      2722 7.65338E+00
 -1      2723 1.52508E+01
 -1      2724 7.60682E+00
 -1      2725 1.52508E+01
 -1      2726 1.52508E+01
 -1      2727 1.48536E+01
 -1      2728 1.19275E+01
 -1      2729 8.74094E+00
 -1      2730 1.15303E+01
 -1      2731 8.79062E+00
 -1      2732 1.28375E+01
 -1      2733 8.25663E+00
 -1      2734 1.25071E+01
 -1      2735 2.23462E+01
 -1      2736 7.97589E+00
 -1      2737 3.61281E+01
 -1      2738 4.62329E+01
 -1      2739 2.14273E+01
 -1      2740 4.92727E+01
 -1      2741 4.03415E+01
 -1      2742 3.82489E+01
 -1      2743 3.54622E+01
 -1      2744 2.72400E+01
 -1      2745 3.64093E+01
 -1      2746 1.97701E+01
 -1      2747 9.90020E+00
 -1      2748 2.40601E+01
 -1      2749 3.16244E+00
 -1      2750 2.68236E+00
 -1      2751 9.85241E+00
 -1      2752 2.34616E+00
 -1      2753 2.32343E+00
 -1      2754 2.77845E+00
 -1      2755 2.51995E+00
 -1      2756 3.64504E+00
 -1      2757 2.63878E+00
 -1      2758 5.59261E+00
 -1      2759 6.50590E+00
 -1      2760 7.03574E+00
 -1      2761 5.97326E+00
 -1      2762 2.62449E+00
 -1      2763 2.43939E+00
 -1      2764 2.43292E+00
 -1      2765 2.30964E+00
 -1      2766 2.84867E+00
 -1      2767 2.05245E+00
 -1      2768 1.90973E+00
 -1      2769 2.58500E+00
 -1      2770 1.75124E+00
 -1      2771 1.69543E+00
 -1      2772 2.16932E+00
 -1      2773 1.45622E+00
 -1      2774 1.36203E+00
 -1      2775 1.77162E+00
 -1      2776 1.22793E+00
 -1      2777 1.13597E+00
 -1      2778 1.39831E+00
 -1      2779 1.03007E+00
 -1      2780 9.77076E-01
 -1      2781 1.15830E+00
 -1      2782 8.74767E-01
 -1      2783 8.04651E-01
 -1      2784 9.50085E-01
 -1      2785 7.12548E-01
 -1      2786 6.37649E-01
 -1      2787 7.55673E-01
 -1      2788 5.58139E-01
 -1      2789 4.86606E-01
 -1      2790 5.84059E-01
 -1      2791 4.05475E-01
 -1      2792 3.42087E-01
 -1      2793 4.23418E-01
 -1      2794 3.51408E+00
 -1      2795 4.08077E+00
 -1      2796 4.26573E-01
 -1      2797 4.78148E-01
 -1      2798 2.58400E-01
 -1      2799 2.85699E-01
 -1      2800 2.15907E-01
 -1      2801 2.39480E-01
 -1      2802 2.26063E-01
 -1      2803 1.77714E-01
 -1      2804 1.97617E-01
 -1      2805 1.88852E-01
 -1      2806 1.43608E-01
 -1      2807 1.60341E-01
 -1      2808 1.53189E-01
 -1      2809 1.12827E-01
 -1      2810 1.26911E-01
 -1      2811 1.19119E-01
 -1      2812 1.17984E-01
 -1      2813 1.09287E-01
 -1      2814 9.88816E-02
 -1      2815 1.37714E-01
 -1      2816 1.25804E-01
 -1      2817 1.03162E-01
 -1      2818 1.91957E-01
 -1      2819 1.67105E-01
 -1      2820 1.40373E-01
 -1      2821 2.67661E-01
 -1      2822 2.27743E-01
 -1      2823 2.05551E-01
 -1      2824 3.53671E-01
 -1      2825 3.08780E-01
 -1      2826 2.82456E-01
 -1      2827 4.48266E-01
 -1      2828 4.00004E-01
 -1      2829 3.69909E-01
 -1      2830 5.46791E-01
 -1      2831 4.98706E-01
 -1      2832 4.66682E-01
 -1      2833 6.40473E-01
 -1      2834 5.98709E-01
 -1      2835 5.69040E-01
 -1      2836 7.25101E-01
 -1      2837 6.89080E-01
 -1      2838 6.69565E-01
 -1      2839 7.96988E-01
 -1      2840 7.67586E-01
 -1      2841 7.60657E-01
 -1      2842 8.91535E-01
 -1      2843 8.66707E-01
 -1      2844 8.72861E-01
 -1      2845 9.49988E-01
 -1      2846 9.58840E-01
 -1      2847 1.00989E+00
 -1      2848 1.70876E+00
 -1      2849 1.31158E+00
 -1      2850 1.43878E+00
 -1      2851 1.66184E+00
 -1      2852 1.66184E+00
 -1      2853 1.75345E+00
 -1      2854 1.47906E+00
 -1      2855 1.73052E+00
 -1      2856 1.77522E+00
 -1      2857 1.43403E+00
 -1      2858 1.54269E+00
 -1      2859 1.90753E+00
 -1      2860 1.54425E+00
 -1      2861 1.30718E+00
 -1      2862 1.84431E+00
 -1      2863 1.77826E+00
 -1      2864 1.68656E+00
 -1      2865 1.85977E+00
 -1      2866 1.52103E+00
 -1      2867 1.55444E+00
 -1      2868 1.77826E+00
 -1      2869 1.99486E+00
 -1      2870 1.94456E+00
 -1      2871 1.97797E+00
 -1      2872 1.74520E+00
 -1      2873 1.92151E+00
 -1      2874 2.32816E+00
 -1      2875 1.53178E+00
 -1      2876 1.61926E+00
 -1      2877 2.12887E+00
 -1      2878 1.25656E+00
 -1      2879 1.33803E+00
 -1      2880 1.80918E+00
 -1      2881 1.13620E+00
 -1      2882 1.14863E+00
 -1      2883 1.50750E+00
 -1      2884 9.76228E-01
 -1      2885 1.01505E+00
 -1      2886 1.27841E+00
 -1      2887 9.56491E-01
 -1      2888 9.43272E-01
 -1      2889 1.12430E+00
 -1      2890 8.59399E-01
 -1      2891 8.85059E-01
 -1      2892 1.01992E+00
 -1      2893 7.39592E-01
 -1      2894 7.78876E-01
 -1      2895 8.67960E-01
 -1      2896 6.55328E-01
 -1      2897 6.91593E-01
 -1      2898 7.39438E-01
 -1      2899 5.56575E-01
 -1      2900 6.02099E-01
 -1      2901 6.38211E-01
 -1      2902 4.47283E-01
 -1      2903 4.99669E-01
 -1      2904 5.28076E-01
 -1      2905 3.38601E-01
 -1      2906 3.91592E-01
 -1      2907 4.15479E-01
 -1      2908 2.59197E-01
 -1      2909 2.96936E-01
 -1      2910 3.18122E-01
 -1      2911 2.37904E-01
 -1      2912 3.25660E-01
 -1      2913 3.25660E-01
 -1      2914 2.81601E-01
 -1      2915 2.13289E-01
 -1      2916 2.81800E-01
 -1      2917 2.96867E-01
 -1      2918 2.70793E-01
 -1      2919 3.29855E-01
 -1      2920 3.29678E-01
 -1      2921 3.70649E-01
 -1      2922 3.25660E-01
 -1      2923 3.17486E-01
 -1      2924 3.46012E-01
 -1      2925 3.66631E-01
 -1      2926 2.35163E+01
 -1      2927 1.79389E+01
 -1      2928 3.29855E-01
 -1      2929 3.29855E-01
 -1      2930 3.74668E-01
 -1      2931 3.04847E-01
 -1      2932 3.23422E-01
 -1      2933 3.68235E-01
 -1      2934 2.51550E-01
 -1      2935 2.66603E-01
 -1      2936 3.23559E-01
 -1      2937 5.12085E-01
 -1      2938 5.91126E-01
 -1      2939 4.95480E-01
 -1      2940 4.36004E-01
 -1      2941 1.19138E+01
 -1      2942 1.45093E+01
 -1      2943 7.19357E-01
 -1      2944 1.57013E+01
 -1      2945 1.15198E+01
 -1      2946 7.49272E+00
 -1      2947 5.13534E+00
 -1      2948 4.10631E+00
 -1      2949 3.42617E+00
 -1      2950 4.55810E+00
 -1      2951 3.04202E-01
 -1      2952 3.34617E-01
 -1      2953 2.63485E-01
 -1      2954 3.59941E-01
 -1      2955 3.91857E-01
 -1      2956 3.07312E-01
 -1      2957 6.03142E-01
 -1      2958 5.55743E-01
 -1      2959 4.02386E-01
 -1      2960 4.66242E-01
 -1      2961 1.96305E+01
 -1      2962 1.50567E+01
 -1      2963 5.36416E+00
 -1      2964 4.32799E+00
 -1      2965 4.35238E-01
 -1      2966 4.23328E-01
 -1      2967 3.59510E-01
 -1      2968 3.60976E-01
 -1      2969 4.31267E+00
 -1      2970 3.47714E+00
 -1      2971 4.21620E-01
 -1      2972 4.35420E-01
 -1      2973 6.31978E+00
 -1      2974 6.07120E+00
 -1      2975 2.19549E-01
 -1      2976 2.19425E+01
 -1      2977 3.05710E+01
 -1      2978 5.50035E+00
 -1      2979 6.14692E+00
 -1      2980 3.07922E+01
 -1      2981 2.18695E+01
 -1      2982 6.76539E+00
 -1      2983 5.80803E+00
 -1      2984 1.62080E+01
 -1      2985 2.06580E+01
 -1      2986 6.10545E+00
 -1      2987 8.08028E+00
 -1      2988 2.25109E+01
 -1      2989 2.20960E+01
 -1      2990 4.06417E+00
 -1      2991 3.71551E+00
 -1      2992 3.78407E+00
 -1      2993 4.01961E+00
 -1      2994 5.75634E+00
 -1      2995 5.31729E+00
 -1      2996 4.16648E+00
 -1      2997 5.39466E+00
 -1      2998 8.28440E-01
 -1      2999 4.44250E-01
 -1      3000 4.52974E-01
 -1      3001 3.66932E-01
 -1      3002 3.42675E-01
 -1      3003 3.86785E-01
 -1      3004 3.99484E-01
 -1      3005 6.70686E+00
 -1      3006 6.45936E+00
 -1      3007 9.51797E+00
 -1      3008 8.48933E+00
 -1      3009 1.25941E+01
 -1      3010 4.84254E+00
 -1      3011 1.35861E+01
 -1      3012 1.16947E+01
 -1      3013 9.71115E+00
 -1      3014 1.00951E+01
 -1      3015 7.56416E+00
 -1      3016 8.86690E+00
 -1      3017 7.34708E+00
 -1      3018 5.92421E+00
 -1      3019 2.85257E+00
 -1      3020 1.06724E+01
 -1      3021 1.28790E+01
 -1      3022 9.63016E+00
 -1      3023 3.64504E+00
 -1      3024 4.45478E+00
 -1      3025 5.01092E+00
 -1      3026 4.89865E+00
 -1      3027 5.97326E+00
 -1      3028 4.38094E+00
 -1      3029 2.87520E-01
 -1      3030 2.32919E-01
 -1      3031 2.10758E-01
 -1      3032 3.38739E+00
 -1      3033 3.43299E+00
 -1      3034 5.02871E+00
 -1      3035 3.74386E+00
 -1      3036 1.71068E+01
 -1      3037 7.03574E+00
 -1      3038 1.20735E+01
 -1      3039 3.67351E-01
 -1      3040 1.33467E+01
 -1      3041 1.90148E-01
 -1      3042 2.03889E-01
 -1      3043 2.42442E-01
 -1      3044 2.29036E-01
 -1      3045 4.85896E+00
 -1      3046 4.85303E+00
 -1      3047 3.44389E+00
 -1      3048 5.23499E+00
 -1      3049 2.19549E-01
 -1      3050 5.30185E-01
 -1      3051 8.57699E+00
 -1      3052 8.44809E+00
 -1      3053 6.05005E+00
 -1      3054 3.61804E+00
 -1      3055 9.77935E+00
 -1      3056 6.60709E+00
 -1      3057 8.74706E+00
 -1      3058 1.25293E+01
 -1      3059 1.50890E+01
 -1      3060 4.69941E+00
 -1      3061 4.89865E+00
 -1      3062 4.06886E-01
 -1      3063 4.21194E-01
 -1      3064 3.57676E-01
 -1      3065 3.49848E-01
 -1      3066 4.29327E+00
 -1      3067 1.56011E+01
 -1      3068 2.45731E-01
 -1      3069 2.43966E-01
 -1      3070 2.77732E-01
 -1      3071 3.06217E-01
 -1      3072 5.73188E-01
 -1      3073 4.40450E-01
 -1      3074 3.50524E+00
 -1      3075 3.31091E+00
 -1      3076 2.72798E+00
 -1      3077 2.90658E-01
 -1      3078 3.02728E-01
 -1      3079 9.67332E+00
 -1      3080 1.08616E+01
 -1      3081 2.43734E+00
 -1      3082 2.38638E+00
 -1      3083 4.82576E+00
 -1      3084 5.53655E+00
 -1      3085 4.49030E+00
 -1      3086 5.99824E+00
 -1      3087 3.48353E+00
 -1      3088 3.23798E-01
 -1      3089 3.02912E-01
 -1      3090 2.98659E-01
 -1      3091 2.73068E-01
 -1      3092 2.53952E-01
 -1      3093 2.60867E-01
 -1      3094 2.34747E-01
 -1      3095 2.37499E-01
 -1      3096 2.18534E-01
 -1      3097 2.03107E-01
 -1      3098 2.09086E-01
 -1      3099 1.89057E-01
 -1      3100 1.72597E-01
 -1      3101 1.78823E-01
 -1      3102 1.58771E-01
 -1      3103 1.41974E-01
 -1      3104 1.50948E-01
 -1      3105 1.26197E-01
 -1      3106 1.09335E-01
 -1      3107 1.21345E-01
 -1      3108 9.21000E-02
 -1      3109 7.48965E-02
 -1      3110 8.83325E-02
 -1      3111 7.12678E-02
 -1      3112 7.23366E-02
 -1      3113 6.74687E-02
 -1      3114 8.38121E-02
 -1      3115 1.03515E-01
 -1      3116 7.53155E-02
 -1      3117 1.31867E-01
 -1      3118 1.64956E-01
 -1      3119 1.15144E-01
 -1      3120 2.01401E-01
 -1      3121 2.40892E-01
 -1      3122 1.79942E-01
 -1      3123 2.84991E-01
 -1      3124 3.32321E-01
 -1      3125 2.60486E-01
 -1      3126 3.85312E-01
 -1      3127 7.63207E+00
 -1      3128 3.57576E-01
 -1      3129 1.47205E+01
 -1      3130 1.47205E+01
 -1      3131 7.49901E+00
 -1      3132 1.44641E+01
 -1      3133 1.11408E+01
 -1      3134 1.43311E+01
 -1      3135 8.25663E+00
 -1      3136 8.30631E+00
 -1      3137 1.11905E+01
 -1      3138 8.98167E+00
 -1      3139 8.65126E+00
 -1      3140 8.98167E+00
 -1      3141 1.64962E+01
 -1      3142 3.02780E+01
 -1      3143 1.75019E+01
 -1      3144 4.25022E+01
 -1      3145 4.55420E+01
 -1      3146 3.75711E+01
 -1      3147 4.55420E+01
 -1      3148 4.06626E+01
 -1      3149 4.97953E+01
 -1      3150 2.89559E+01
 -1      3151 2.14860E+01
 -1      3152 3.80885E+01
 -1      3153 1.40652E+01
 -1      3154 7.32741E+00
 -1      3155 1.89610E+01
 -1      3156 3.98101E+00
 -1      3157 4.17753E+00
 -1      3158 4.06395E+00
 -1      3159 4.23681E+00
 -1      3160 2.79069E+00
 -1      3161 3.73294E+00
 -1      3162 4.31665E+00
 -1      3163 4.05945E+00
 -1      3164 3.23937E+00
 -1      3165 3.08088E+00
 -1      3166 4.97101E+00
 -1      3167 2.14651E+00
 -1      3168 1.90730E+00
 -1      3169 3.21656E+00
 -1      3170 1.64388E+00
 -1      3171 1.50977E+00
 -1      3172 2.01877E+00
 -1      3173 1.28565E+00
 -1      3174 1.17974E+00
 -1      3175 1.53122E+00
 -1      3176 1.00902E+00
 -1      3177 9.06707E-01
 -1      3178 1.13636E+00
 -1      3179 7.92024E-01
 -1      3180 6.99921E-01
 -1      3181 8.50955E-01
 -1      3182 6.12312E-01
 -1      3183 5.32802E-01
 -1      3184 6.48664E-01
 -1      3185 4.57619E-01
 -1      3186 3.76488E-01
 -1      3187 3.40419E-01
 -1      3188 4.85873E-01
 -1      3189 1.95109E-01
 -1      3190 2.14029E-01
 -1      3191 9.27860E-02
 -1      3192 1.09483E-01
 -1      3193 7.21538E-02
 -1      3194 7.56938E-02
 -1      3195 6.60582E-02
 -1      3196 8.86812E-02
 -1      3197 8.08613E-02
 -1      3198 5.76735E-02
 -1      3199 1.43996E-01
 -1      3200 1.14604E-01
 -1      3201 9.23042E-02
 -1      3202 2.10066E-01
 -1      3203 1.74279E-01
 -1      3204 1.48510E-01
 -1      3205 2.86877E-01
 -1      3206 2.45759E-01
 -1      3207 2.14487E-01
 -1      3208 3.75671E-01
 -1      3209 3.29337E-01
 -1      3210 2.92640E-01
 -1      3211 4.77608E-01
 -1      3212 4.27168E-01
 -1      3213 3.86597E-01
 -1      3214 5.88815E-01
 -1      3215 5.36897E-01
 -1      3216 4.97383E-01
 -1      3217 7.03163E-01
 -1      3218 6.54556E-01
 -1      3219 6.22413E-01
 -1      3220 8.19092E-01
 -1      3221 7.76607E-01
 -1      3222 7.61598E-01
 -1      3223 9.65994E-01
 -1      3224 8.96275E-01
 -1      3225 9.12225E-01
 -1      3226 1.13642E+00
 -1      3227 1.06912E+00
 -1      3228 1.09253E+00
 -1      3229 1.94245E+00
 -1      3230 1.58086E+00
 -1      3231 1.64009E+00
 -1      3232 2.09170E+00
 -1      3233 2.13862E+00
 -1      3234 2.28070E+00
 -1      3235 2.27334E+00
 -1      3236 2.20466E+00
 -1      3237 2.58983E+00
 -1      3238 2.39968E+00
 -1      3239 2.33605E+00
 -1      3240 2.76550E+00
 -1      3241 1.84431E+00
 -1      3242 1.97116E+00
 -1      3243 2.39093E+00
 -1      3244 2.24861E+00
 -1      3245 2.49811E+00
 -1      3246 2.72194E+00
 -1      3247 2.92165E+00
 -1      3248 2.70459E+00
 -1      3249 2.77793E+00
 -1      3250 2.12887E+00
 -1      3251 2.25481E+00
 -1      3252 1.80918E+00
 -1      3253 2.00293E+00
 -1      3254 1.74651E+00
 -1      3255 1.85445E+00
 -1      3256 2.04820E+00
 -1      3257 1.47928E+00
 -1      3258 1.60043E+00
 -1      3259 1.94737E+00
 -1      3260 1.34952E+00
 -1      3261 1.38248E+00
 -1      3262 1.70449E+00
 -1      3263 1.10171E+00
 -1      3264 1.17314E+00
 -1      3265 1.43132E+00
 -1      3266 8.95022E-01
 -1      3267 9.75546E-01
 -1      3268 1.12877E+00
 -1      3269 7.62604E-01
 -1      3270 8.10603E-01
 -1      3271 9.18188E-01
 -1      3272 6.26980E-01
 -1      3273 6.80209E-01
 -1      3274 7.51373E-01
 -1      3275 4.95696E-01
 -1      3276 5.52602E-01
 -1      3277 5.94599E-01
 -1      3278 3.75001E-01
 -1      3279 4.30693E-01
 -1      3280 4.55218E-01
 -1      3281 2.82886E-01
 -1      3282 3.24551E-01
 -1      3283 3.39765E-01
 -1      3284 2.48870E-01
 -1      3285 4.12774E-01
 -1      3286 3.09160E-01
 -1      3287 2.62982E-01
 -1      3288 4.01251E-01
 -1      3289 1.31458E+01
 -1      3290 1.33670E+01
 -1      3291 3.23192E-01
 -1      3292 3.15622E-01
 -1      3293 4.19294E-01
 -1      3294 4.15276E-01
 -1      3295 3.25863E-01
 -1      3296 3.64106E-01
 -1      3297 4.29666E-01
 -1      3298 4.29666E-01
 -1      3299 4.74292E-01
 -1      3300 2.29405E-01
 -1      3301 2.47908E-01
 -1      3302 1.98452E-01
 -1      3303 4.23233E-01
 -1      3304 4.29666E-01
 -1      3305 4.84664E-01
 -1      3306 4.25537E-01
 -1      3307 1.26079E-01
 -1      3308 1.43453E-01
 -1      3309 9.97468E-02
 -1      3310 1.60879E-01
 -1      3311 1.79170E-01
 -1      3312 1.67136E-01
 -1      3313 1.33770E-01
 -1      3314 1.01841E+01
 -1      3315 1.16044E+01
 -1      3316 3.19316E-01
 -1      3317 3.12775E-01
 -1      3318 2.47182E-01
 -1      3319 5.89925E+00
 -1      3320 4.91996E+00
 -1      3321 2.68076E-01
 -1      3322 2.93400E-01
 -1      3323 2.33996E-01
 -1      3324 3.10451E-01
 -1      3325 3.45166E-01
 -1      3326 2.71215E-01
 -1      3327 1.15736E+01
 -1      3328 9.33593E+00
 -1      3329 8.41104E+00
 -1      3330 1.09083E+01
 -1      3331 1.02406E+01
 -1      3332 4.52974E-01
 -1      3333 2.89642E+00
 -1      3334 3.20053E+00
 -1      3335 1.43447E+01
 -1      3336 1.21057E+01
 -1      3337 1.33584E+01
 -1      3338 1.46430E+01
 -1      3339 3.12334E-01
 -1      3340 3.12105E-01
 -1      3341 2.85052E-01
 -1      3342 2.61480E-01
 -1      3343 3.19728E-01
 -1      3344 3.19728E-01
 -1      3345 3.76068E+00
 -1      3346 2.70459E+00
 -1      3347 8.50814E+00
 -1      3348 5.63237E+00
 -1      3349 1.03837E+01
 -1      3350 1.09448E+01
 -1      3351 1.03065E+01
 -1      3352 9.04347E+00
 -1      3353 8.21873E+00
 -1      3354 6.79401E+00
 -1      3355 7.26304E+00
 -1      3356 2.37546E+00
 -1      3357 6.03326E+00
 -1      3358 9.61821E+00
 -1      3359 7.44051E+00
 -1      3360 8.87388E+00
 -1      3361 8.44290E+00
 -1      3362 6.42429E+00
 -1      3363 7.30739E+00
 -1      3364 4.67108E+00
 -1      3365 4.33489E+00
 -1      3366 3.39697E-01
 -1      3367 3.01823E-01
 -1      3368 8.31875E+00
 -1      3369 7.10689E+00
 -1      3370 5.92291E+00
 -1      3371 3.11078E+00
 -1      3372 2.67009E+00
 -1      3373 2.39968E+00
 -1      3374 3.29808E+00
 -1      3375 2.12887E+00
 -1      3376 3.82267E-01
 -1      3377 2.62500E-01
 -1      3378 3.56729E-01
 -1      3379 4.08442E-01
 -1      3380 3.87823E-01
 -1      3381 4.02127E-01
 -1      3382 3.23192E-01
 -1      3383 2.88340E-01
 -1      3384 3.24658E-01
 -1      3385 5.56083E+00
 -1      3386 5.43947E+00
 -1      3387 4.18873E+00
 -1      3388 8.55483E+00
 -1      3389 1.02406E+01
 -1      3390 8.49834E+00
 -1      3391 4.15276E-01
 -1      3392 4.15276E-01
 -1      3393 4.57086E-01
 -1      3394 4.63920E-01
 -1      3395 2.42326E+00
 -1      3396 3.39976E-01
 -1      3397 3.73913E-01
 -1      3398 2.60700E-01
 -1      3399 2.83075E-01
 -1      3400 3.31642E-01
 -1      3401 2.48485E-01
 -1      3402 3.31554E-01
 -1      3403 3.48374E+00
 -1      3404 3.47728E+00
 -1      3405 4.29136E+00
 -1      3406 5.87364E+00
 -1      3407 1.60722E+01
 -1      3408 1.51140E+01
 -1      3409 1.34503E+01
 -1      3410 4.95172E+00
 -1      3411 6.73862E+00
 -1      3412 4.95172E+00
 -1      3413 5.79110E+00
 -1      3414 6.61664E+00
 -1      3415 3.89030E-01
 -1      3416 8.88384E+00
 -1      3417 4.09309E+00
 -1      3418 3.23093E-01
 -1      3419 3.23519E-01
 -1      3420 3.25301E-01
 -1      3421 3.32885E-01
 -1      3422 3.73432E-01
 -1      3423 3.95572E-01
 -1      3424 1.09627E+01
 -1      3425 1.32054E+01
 -1      3426 9.46561E+00
 -1      3427 3.88148E+00
 -1      3428 3.19695E-01
 -1      3429 3.28525E-01
 -1      3430 2.85112E-01
 -1      3431 7.11623E+00
 -1      3432 7.16292E+00
 -1      3433 8.11972E+00
 -1      3434 9.09741E+00
 -1      3435 2.86587E+00
 -1      3436 2.15469E-01
 -1      3437 2.03269E-01
 -1      3438 1.98076E-01
 -1      3439 1.81863E-01
 -1      3440 1.76046E-01
 -1      3441 1.71671E-01
 -1      3442 1.57621E-01
 -1      3443 1.60661E-01
 -1      3444 1.47093E-01
 -1      3445 1.33267E-01
 -1      3446 1.39941E-01
 -1      3447 1.22976E-01
 -1      3448 1.07199E-01
 -1      3449 1.19121E-01
 -1      3450 9.46536E-02
 -1      3451 7.74186E-02
 -1      3452 9.62851E-02
 -1      3453 7.96138E-02
 -1      3454 7.59851E-02
 -1      3455 8.59350E-02
 -1      3456 8.02857E-02
 -1      3457 9.17612E-02
 -1      3458 9.24308E-02
 -1      3459 1.11046E-01
 -1      3460 1.39398E-01
 -1      3461 1.16016E-01
 -1      3462 1.72336E-01
 -1      3463 2.08781E-01
 -1      3464 1.68238E-01
 -1      3465 2.49240E-01
 -1      3466 2.93339E-01
 -1      3467 2.41634E-01
 -1      3468 3.43206E-01
 -1      3469 3.96197E-01
 -1      3470 3.31960E-01
 -1      3471 5.52440E+00
 -1      3472 1.26128E+01
 -1      3473 5.51003E+00
 -1      3474 1.43311E+01
 -1      3475 1.40747E+01
 -1      3476 1.23565E+01
 -1      3477 1.16283E+01
 -1      3478 8.74411E+00
 -1      3479 1.16283E+01
 -1      3480 8.98167E+00
 -1      3481 9.65703E+00
 -1      3482 9.41947E+00
 -1      3483 1.75019E+01
 -1      3484 2.53468E+01
 -1      3485 1.75019E+01
 -1      3486 3.58061E+01
 -1      3487 4.80303E+01
 -1      3488 3.58061E+01
 -1      3489 4.97953E+01
 -1      3490 4.97953E+01
 -1      3491 4.80303E+01
 -1      3492 4.07467E+01
 -1      3493 2.90400E+01
 -1      3494 4.07467E+01
 -1      3495 2.21048E+01
 -1      3496 1.46840E+01
 -1      3497 3.82734E+00
 -1      3498 2.89298E+00
 -1      3499 2.41052E+00
 -1      3500 2.14709E+00
 -1      3501 3.02130E+00
 -1      3502 1.72404E+00
 -1      3503 1.49991E+00
 -1      3504 2.11579E+00
 -1      3505 1.27015E+00
 -1      3506 1.09942E+00
 -1      3507 1.46297E+00
 -1      3508 9.65638E-01
 -1      3509 8.50955E-01
 -1      3510 1.09942E+00
 -1      3511 7.36272E-01
 -1      3512 6.48664E-01
 -1      3513 8.50955E-01
 -1      3514 7.25641E-02
 -1      3515 6.38566E-02
 -1      3516 6.16267E-02
 -1      3517 7.87189E-02
 -1      3518 7.65173E-02
 -1      3519 1.71879E-01
 -1      3520 1.41596E-01
 -1      3521 2.41869E-01
 -1      3522 2.06176E-01
 -1      3523 1.99261E-01
 -1      3524 3.24342E-01
 -1      3525 2.81882E-01
 -1      3526 2.73571E-01
 -1      3527 4.21648E-01
 -1      3528 3.70150E-01
 -1      3529 3.59393E-01
 -1      3530 5.31676E-01
 -1      3531 4.72387E-01
 -1      3532 4.55940E-01
 -1      3533 6.57930E-01
 -1      3534 5.92188E-01
 -1      3535 5.67192E-01
 -1      3536 8.09265E-01
 -1      3537 7.35821E-01
 -1      3538 7.05596E-01
 -1      3539 1.00585E+00
 -1      3540 9.28666E-01
 -1      3541 9.02889E-01
 -1      3542 1.26547E+00
 -1      3543 1.16235E+00
 -1      3544 1.17879E+00
 -1      3545 2.23311E+00
 -1      3546 1.78867E+00
 -1      3547 1.85848E+00
 -1      3548 2.78619E+00
 -1      3549 2.59002E+00
 -1      3550 2.73860E+00
 -1      3551 3.44736E+00
 -1      3552 3.33439E+00
 -1      3553 3.64372E+00
 -1      3554 3.61071E+00
 -1      3555 3.54800E+00
 -1      3556 1.63176E+00
 -1      3557 1.80814E+00
 -1      3558 1.19976E+00
 -1      3559 1.32592E+00
 -1      3560 1.70274E+00
 -1      3561 9.49752E-01
 -1      3562 1.03417E+00
 -1      3563 1.23132E+00
 -1      3564 7.29049E-01
 -1      3565 8.11445E-01
 -1      3566 9.27428E-01
 -1      3567 5.73895E-01
 -1      3568 6.48273E-01
 -1      3569 7.08344E-01
 -1      3570 4.82434E-01
 -1      3571 5.47437E-01
 -1      3572 6.01110E-01
 -1      3573 2.29732E+00
 -1      3574 2.90758E-01
 -1      3575 2.70148E-01
 -1      3576 3.10593E-01
 -1      3577 3.42936E-01
 -1      3578 5.54207E-01
 -1      3579 5.43835E-01
 -1      3580 1.75478E-01
 -1      3581 1.90854E-01
 -1      3582 1.89775E-01
 -1      3583 2.00798E-01
 -1      3584 8.76822E-02
 -1      3585 1.04279E-01
 -1      3586 8.32507E-02
 -1      3587 3.77681E+00
 -1      3588 3.92289E+00
 -1      3589 2.03477E-01
 -1      3590 2.23646E-01
 -1      3591 1.80504E-01
 -1      3592 2.46870E+00
 -1      3593 2.56550E+00
 -1      3594 2.66915E+00
 -1      3595 2.31706E-01
 -1      3596 2.48756E-01
 -1      3597 2.01187E-01
 -1      3598 1.12462E-01
 -1      3599 8.65391E-02
 -1      3600 9.27221E-02
 -1      3601 1.35831E-01
 -1      3602 3.15691E-01
 -1      3603 3.23093E-01
 -1      3604 2.88936E-01
 -1      3605 5.96847E+00
 -1      3606 5.14838E+00
 -1      3607 7.05300E+00
 -1      3608 7.02220E+00
 -1      3609 5.46179E+00
 -1      3610 5.92291E+00
 -1      3611 2.23305E-01
 -1      3612 2.04803E-01
 -1      3613 2.04321E-01
 -1      3614 2.16844E-01
 -1      3615 2.12591E-01
 -1      3616 1.78362E-01
 -1      3617 3.18286E-01
 -1      3618 3.58709E+00
 -1      3619 3.63235E+00
 -1      3620 2.21803E-01
 -1      3621 5.57984E+00
 -1      3622 6.97175E+00
 -1      3623 6.97175E+00
 -1      3624 5.85225E+00
 -1      3625 8.11623E+00
 -1      3626 5.62872E+00
 -1      3627 6.43916E+00
 -1      3628 5.32196E+00
 -1      3629 5.08111E+00
 -1      3630 5.75233E+00
 -1      3631 2.52674E-01
 -1      3632 2.52674E-01
 -1      3633 3.40623E+00
 -1      3634 7.10059E+00
 -1      3635 5.91334E+00
 -1      3636 6.04646E+00
 -1      3637 2.71049E-01
 -1      3638 2.52674E-01
 -1      3639 2.49387E-01
 -1      3640 2.17008E-01
 -1      3641 2.47630E+01
 -1      3642 1.73680E+01
 -1      3643 1.46543E+01
 -1      3644 1.32167E+01
 -1      3645 6.00292E-01
 -1      3646 5.20377E-01
 -1      3647 5.20377E-01
 -1      3648 4.80270E+00
 -1      3649 6.15726E+00
 -1      3650 4.81204E+00
 -1      3651 8.32186E+00
 -1      3652 8.26226E+00
 -1      3653 6.97597E+00
 -1      3654 5.64488E-01
 -1      3655 5.64488E-01
 -1      3656 6.34031E-01
 -1      3657 2.85351E-01
 -1      3658 5.47731E-01
 -1      3659 4.72548E-01
 -1      3660 4.57430E-01
 -1      3661 6.35339E-01
 -1      3662 1.47581E-01
 -1      3663 1.63521E-01
 -1      3664 1.55924E-01
 -1      3665 4.29257E+00
 -1      3666 2.08212E-01
 -1      3667 2.47721E-01
 -1      3668 3.61043E-01
 -1      3669 2.04737E-01
 -1      3670 1.92412E-01
 -1      3671 1.46027E-01
 -1      3672 2.14976E-01
 -1      3673 2.83410E-01
 -1      3674 6.21749E+00
 -1      3675 5.04988E+00
 -1      3676 4.94923E+00
 -1      3677 4.64327E-01
 -1      3678 4.53262E-01
 -1      3679 4.54102E+00
 -1      3680 1.59437E-01
 -1      3681 7.10949E+00
 -1      3682 5.25787E-01
 -1      3683 4.77661E-01
 -1      3684 5.87987E-01
 -1      3685 2.42531E-01
 -1      3686 1.18328E-01
 -1      3687 1.35755E-01
 -1      3688 1.06264E-01
 -1      3689 2.52726E-01
 -1      3690 2.52726E-01
 -1      3691 6.38714E+00
 -1      3692 1.15402E+01
 -1      3693 8.88384E+00
 -1      3694 4.50408E-01
 -1      3695 2.45101E-01
 -1      3696 2.41277E-01
 -1      3697 1.74965E-01
 -1      3698 2.08891E-01
 -1      3699 5.89359E-01
 -1      3700 5.05361E-01
 -1      3701 5.64488E-01
 -1      3702 6.90292E-01
 -1      3703 2.47076E-01
 -1      3704 2.11410E-01
 -1      3705 2.42146E-01
 -1      3706 1.46840E+01
 -1      3707 1.27812E+00
 -1      3708 1.44370E+00
 -1      3709 1.50451E-01
 -1      3710 1.40259E-01
 -1      3711 1.33689E-01
 -1      3712 1.23160E-01
 -1      3713 1.23478E-01
 -1      3714 1.15843E-01
 -1      3715 1.05553E-01
 -1      3716 1.09592E-01
 -1      3717 1.01985E-01
 -1      3718 8.94396E-02
 -1      3719 9.87071E-02
 -1      3720 9.27939E-02
 -1      3721 9.49891E-02
 -1      3722 9.84938E-02
 -1      3723 9.98182E-02
 -1      3724 1.04119E-01
 -1      3725 1.06677E-01
 -1      3726 1.11812E-01
 -1      3727 1.31097E-01
 -1      3728 1.19200E-01
 -1      3729 1.52955E-01
 -1      3730 1.85893E-01
 -1      3731 1.48752E-01
 -1      3732 2.19463E-01
 -1      3733 2.59922E-01
 -1      3734 2.04181E-01
 -1      3735 3.01949E-01
 -1      3736 3.51815E-01
 -1      3737 2.79778E-01
 -1      3738 3.97473E+00
 -1      3739 9.10293E+00
 -1      3740 3.94472E+00
 -1      3741 9.28024E+00
 -1      3742 1.09985E+01
 -1      3743 7.74493E+00
 -1      3744 1.07481E+01
 -1      3745 8.30168E+00
 -1      3746 7.67184E+00
 -1      3747 9.30164E+00
 -1      3748 9.53919E+00
 -1      3749 8.42140E+00
 -1      3750 1.61536E+01
 -1      3751 2.39985E+01
 -1      3752 1.60357E+01
 -1      3753 3.09566E+01
 -1      3754 4.14158E+01
 -1      3755 2.96082E+01
 -1      3756 4.62653E+01
 -1      3757 4.80303E+01
 -1      3758 4.14158E+01
 -1      3759 4.44882E+01
 -1      3760 3.54396E+01
 -1      3761 4.27232E+01
 -1      3762 8.91522E-02
 -1      3763 8.69224E-02
 -1      3764 2.44375E+00
 -1      3765 2.02070E+00
 -1      3766 1.69274E+00
 -1      3767 1.46297E+00
 -1      3768 2.02070E+00
 -1      3769 1.23321E+00
 -1      3770 1.09942E+00
 -1      3771 1.46297E+00
 -1      3772 9.30548E-01
 -1      3773 8.15865E-01
 -1      3774 1.06433E+00
 -1      3775 3.02443E-01
 -1      3776 2.62430E-01
 -1      3777 2.24250E-01
 -1      3778 1.89954E-01
 -1      3779 2.53122E-01
 -1      3780 5.00756E-01
 -1      3781 4.50017E-01
 -1      3782 6.27705E-01
 -1      3783 5.67192E-01
 -1      3784 5.61268E-01
 -1      3785 7.83488E-01
 -1      3786 7.05596E-01
 -1      3787 7.05596E-01
 -1      3788 1.00122E+00
 -1      3789 8.81817E-01
 -1      3790 8.81817E-01
 -1      3791 1.31316E+00
 -1      3792 1.15666E+00
 -1      3793 1.13559E+00
 -1      3794 2.74231E+00
 -1      3795 2.21911E+00
 -1      3796 2.19699E+00
 -1      3797 3.22850E+00
 -1      3798 2.87159E+00
 -1      3799 3.23221E+00
 -1      3800 4.11515E+00
 -1      3801 3.56695E+00
 -1      3802 3.69993E+00
 -1      3803 4.87246E+00
 -1      3804 1.78142E-01
 -1      3805 1.77107E-01
 -1      3806 1.72606E+00
 -1      3807 2.03190E+00
 -1      3808 1.77285E+00
 -1      3809 7.08344E-01
 -1      3810 7.89120E-01
 -1      3811 6.01110E-01
 -1      3812 6.27568E-01
 -1      3813 7.08344E-01
 -1      3814 6.14445E-01
 -1      3815 2.49140E-01
 -1      3816 2.52726E-01
 -1      3817 2.16515E-01
 -1      3818 2.16762E-01
 -1      3819 4.54102E+00
 -1      3820 1.18063E-01
 -1      3821 1.34109E-01
 -1      3822 1.49399E-01
 -1      3823 1.52277E-01
 -1      3824 1.08024E-01
 -1      3825 4.82480E+00
 -1      3826 5.96847E+00
 -1      3827 1.85469E-01
 -1      3828 1.73399E-01
 -1      3829 1.81459E-01
 -1      3830 1.50354E-01
 -1      3831 8.35513E-02
 -1      3832 9.25146E-02
 -1      3833 9.61863E-02
 -1      3834 2.43032E+01
 -1      3835 9.21581E-01
 -1      3836 1.05989E+00
 -1      3837 1.27227E+00
 -1      3838 9.21581E-01
 -1      3839 3.94419E-01
 -1      3840 3.48611E-01
 -1      3841 4.39235E-01
 -1      3842 2.31878E-01
 -1      3843 2.14694E-01
 -1      3844 1.75499E-01
 -1      3845 1.96524E-01
 -1      3846 5.32621E-01
 -1      3847 5.25787E-01
 -1      3848 5.89078E-01
 -1      3849 1.57410E-01
 -1      3850 1.70032E-01
 -1      3851 1.50305E-01
 -1      3852 1.57452E-01
 -1      3853 1.52259E-01
 -1      3854 1.31856E-01
 -1      3855 1.28489E-01
 -1      3856 6.58388E+00
 -1      3857 5.13854E+00
 -1      3858 3.41557E+00
 -1      3859 4.62688E+00
 -1      3860 3.67725E+00
 -1      3861 2.75501E+00
 -1      3862 4.59721E+00
 -1      3863 4.40605E+00
 -1      3864 6.49026E+00
 -1      3865 5.50907E+00
 -1      3866 4.51102E+00
 -1      3867 3.92798E+00
 -1      3868 3.98541E+00
 -1      3869 6.44312E-01
 -1      3870 5.00081E+00
 -1      3871 5.73920E+00
 -1      3872 5.39929E+00
 -1      3873 4.98155E+00
 -1      3874 1.84692E-01
 -1      3875 1.84692E-01
 -1      3876 2.80447E+01
 -1      3877 9.42058E-02
 -1      3878 1.04611E-01
 -1      3879 1.08181E-01
 -1      3880 2.07992E+01
 -1      3881 1.71077E+01
 -1      3882 1.59043E+01
 -1      3883 3.19356E+01
 -1      3884 6.95755E-01
 -1      3885 6.72297E-01
 -1      3886 3.63825E+00
 -1      3887 3.06653E+00
 -1      3888 2.58408E+00
 -1      3889 6.80738E-01
 -1      3890 7.52743E-01
 -1      3891 6.91019E-01
 -1      3892 1.37352E-01
 -1      3893 1.49310E-01
 -1      3894 1.38838E-01
 -1      3895 7.69885E-01
 -1      3896 3.37470E-01
 -1      3897 1.73699E-01
 -1      3898 1.79297E-01
 -1      3899 1.46981E-01
 -1      3900 9.42548E-02
 -1      3901 9.39542E-02
 -1      3902 1.08004E-01
 -1      3903 5.70654E+00
 -1      3904 4.87246E+00
 -1      3905 2.77832E+00
 -1      3906 1.32140E-01
 -1      3907 6.01322E-01
 -1      3908 1.36248E-01
 -1      3909 1.66318E-01
 -1      3910 2.48899E+00
 -1      3911 1.55665E-01
 -1      3912 1.39828E-01
 -1      3913 1.37192E-01
 -1      3914 1.11863E-01
 -1      3915 1.66129E-01
 -1      3916 1.58433E-01
 -1      3917 1.29299E-01
 -1      3918 1.30783E-01
 -1      3919 1.84411E-01
 -1      3920 1.84411E-01
 -1      3921 4.00091E+00
 -1      3922 1.73754E-01
 -1      3923 6.63280E+00
 -1      3924 1.41649E-01
 -1      3925 1.83422E-01
 -1      3926 5.61956E+00
 -1      3927 4.98155E+00
 -1      3928 5.09203E+00
 -1      3929 4.63813E-01
 -1      3930 4.08216E-01
 -1      3931 7.67761E-01
 -1      3932 6.72297E-01
 -1      3933 6.84541E-01
 -1      3934 1.04084E-01
 -1      3935 9.67670E-02
 -1      3936 1.01726E-01
 -1      3937 9.81584E-02
 -1      3938 9.62182E-02
 -1      3939 1.01596E-01
 -1      3940 1.04951E-01
 -1      3941 1.04615E-01
 -1      3942 1.09569E-01
 -1      3943 1.14398E-01
 -1      3944 1.12671E-01
 -1      3945 1.20941E-01
 -1      3946 1.28634E-01
 -1      3947 1.23832E-01
 -1      3948 1.41151E-01
 -1      3949 1.63009E-01
 -1      3950 1.42892E-01
 -1      3951 1.81534E-01
 -1      3952 2.15105E-01
 -1      3953 1.73933E-01
 -1      3954 2.40962E-01
 -1      3955 2.82988E-01
 -1      3956 2.18315E-01
 -1      3957 3.22457E-01
 -1      3958 3.94537E+00
 -1      3959 2.83641E-01
 -1      3960 6.34223E+00
 -1      3961 6.51953E+00
 -1      3962 2.71997E+00
 -1      3963 5.90042E+00
 -1      3964 5.65002E+00
 -1      3965 4.49772E+00
 -1      3966 6.77229E+00
 -1      3967 7.77225E+00
 -1      3968 5.00087E+00
 -1      3969 1.13588E+01
 -1      3970 1.79731E+01
 -1      3971 9.70964E+00
 -1      3972 2.97242E+01
 -1      3973 3.66823E+01
 -1      3974 2.50472E+01
 -1      3975 4.09411E+01
 -1      3976 4.57907E+01
 -1      3977 4.10572E+01
 -1      3978 4.57907E+01
 -1      3979 4.22485E+01
 -1      3980 3.50031E+01
 -1      3981 4.53160E+01
 -1      3982 1.95841E-01
 -1      3983 3.56369E+00
 -1      3984 4.45976E+00
 -1      3985 4.07189E+00
 -1      3986 1.56073E+00
 -1      3987 1.33097E+00
 -1      3988 1.09928E+00
 -1      3989 9.30403E-01
 -1      3990 1.19704E+00
 -1      3991 7.63982E-01
 -1      3992 6.86090E-01
 -1      3993 5.97548E-01
 -1      3994 5.31112E-01
 -1      3995 6.55934E-01
 -1      3996 1.29104E+00
 -1      3997 1.13559E+00
 -1      3998 3.61819E+00
 -1      3999 2.71224E+00
 -1      4000 2.71224E+00
 -1      4001 4.13649E+00
 -1      4002 4.00722E+00
 -1      4003 4.52247E+00
 -1      4004 5.91334E+00
 -1      4005 2.48492E+00
 -1      4006 3.20803E+00
 -1      4007 1.66917E+00
 -1      4008 1.95153E+00
 -1      4009 2.38124E+00
 -1      4010 9.80146E-01
 -1      4011 8.81817E-01
 -1      4012 8.62310E-01
 -1      4013 1.84692E-01
 -1      4014 1.84445E-01
 -1      4015 1.52375E-01
 -1      4016 2.70344E+00
 -1      4017 2.37548E+00
 -1      4018 2.24347E+00
 -1      4019 2.68725E-01
 -1      4020 2.30545E-01
 -1      4021 1.59043E+01
 -1      4022 1.54186E+01
 -1      4023 5.39929E+00
 -1      4024 4.56520E+00
 -1      4025 4.22676E+00
 -1      4026 5.09203E+00
 -1      4027 1.29209E-01
 -1      4028 1.25891E-01
 -1      4029 1.97875E-01
 -1      4030 1.66354E-01
 -1      4031 2.13478E-01
 -1      4032 9.37905E-02
 -1      4033 1.09081E-01
 -1      4034 6.41723E-01
 -1      4035 6.41723E-01
 -1      4036 6.54846E-01
 -1      4037 7.24942E-01
 -1      4038 7.69885E-01
 -1      4039 1.30622E-01
 -1      4040 1.33989E-01
 -1      4041 1.09526E-01
 -1      4042 3.47713E+00
 -1      4043 4.45976E+00
 -1      4044 3.53084E+00
 -1      4045 1.04023E-01
 -1      4046 1.00652E-01
 -1      4047 1.52341E-01
 -1      4048 1.14874E-01
 -1      4049 1.08304E-01
 -1      4050 9.54794E-02
 -1      4051 1.17041E-01
 -1      4052 1.28867E-01
 -1      4053 1.22253E-01
 -1      4054 1.04731E-01
 -1      4055 3.55995E-01
 -1      4056 3.09827E-01
 -1      4057 3.80573E-01
 -1      4058 3.38385E+00
 -1      4059 5.00093E-01
 -1      4060 3.16902E+00
 -1      4061 2.87250E-01
 -1      4062 8.16592E-01
 -1      4063 1.02032E+00
 -1      4064 1.02032E+00
 -1      4065 1.34389E+00
 -1      4066 1.56211E+00
 -1      4067 1.74079E+00
 -1      4068 1.14811E-01
 -1      4069 1.09758E-01
 -1      4070 1.14223E-01
 -1      4071 1.04202E-01
 -1      4072 9.63652E-02
 -1      4073 9.78048E-02
 -1      4074 1.13559E+00
 -1      4075 8.51537E-01
 -1      4076 1.65635E-01
 -1      4077 1.33523E-01
 -1      4078 2.56881E+00
 -1      4079 2.82320E+00
 -1      4080 2.87691E+00
 -1      4081 2.03542E+00
 -1      4082 5.00176E+00
 -1      4083 1.25862E-01
 -1      4084 1.25862E-01
 -1      4085 7.35622E-01
 -1      4086 2.46901E+01
 -1      4087 1.19666E-01
 -1      4088 1.08877E-01
 -1      4089 2.81418E+00
 -1      4090 2.67385E+00
 -1      4091 8.81200E+00
 -1      4092 8.28448E+00
 -1      4093 1.80835E+01
 -1      4094 1.35671E-01
 -1      4095 1.19355E-01
 -1      4096 1.27571E-01
 -1      4097 1.16941E-01
 -1      4098 1.22335E-01
 -1      4099 1.16925E-01
 -1      4100 1.15117E-01
 -1      4101 9.99424E-02
 -1      4102 1.25862E-01
 -1      4103 1.25827E-01
 -1      4104 9.93484E-02
 -1      4105 3.26494E+00
 -1      4106 3.80599E+00
 -1      4107 2.99360E+00
 -1      4108 8.93816E-01
 -1      4109 1.02628E+00
 -1      4110 1.31612E+00
 -1      4111 8.40318E-01
 -1      4112 9.70976E-02
 -1      4113 1.23576E-01
 -1      4114 9.85208E-02
 -1      4115 1.22520E-01
 -1      4116 9.23013E-02
 -1      4117 1.06535E-01
 -1      4118 1.11710E-01
 -1      4119 9.58220E-02
 -1      4120 1.46033E-01
 -1      4121 1.24914E-01
 -1      4122 1.30061E-01
 -1      4123 3.02863E+00
 -1      4124 1.60486E-01
 -1      4125 7.59736E-02
 -1      4126 7.37227E-02
 -1      4127 7.11772E-02
 -1      4128 1.02032E+00
 -1      4129 1.27288E+00
 -1      4130 1.04615E-01
 -1      4131 1.08053E-01
 -1      4132 1.12671E-01
 -1      4133 1.17290E-01
 -1      4134 1.12671E-01
 -1      4135 1.23832E-01
 -1      4136 1.30375E-01
 -1      4137 1.23832E-01
 -1      4138 1.42892E-01
 -1      4139 1.55408E-01
 -1      4140 1.42892E-01
 -1      4141 1.72928E-01
 -1      4142 1.91452E-01
 -1      4143 1.72928E-01
 -1      4144 2.14334E-01
 -1      4145 2.40191E-01
 -1      4146 2.13329E-01
 -1      4147 2.69902E-01
 -1      4148 3.09370E-01
 -1      4149 2.65921E-01
 -1      4150 3.48065E-01
 -1      4151 2.74492E+00
 -1      4152 3.34326E-01
 -1      4153 4.61695E+00
 -1      4154 3.99784E+00
 -1      4155 2.24505E+00
 -1      4156 4.09820E+00
 -1      4157 5.22047E+00
 -1      4158 4.21744E+00
 -1      4159 5.99190E+00
 -1      4160 9.57841E+00
 -1      4161 5.08924E+00
 -1      4162 1.39107E+01
 -1      4163 2.56618E+01
 -1      4164 1.01929E+01
 -1      4165 3.67983E+01
 -1      4166 4.10572E+01
 -1      4167 2.56618E+01
 -1      4168 2.53114E+00
 -1      4169 2.44260E+00
 -1      4170 1.35081E+00
 -1      4171 1.11911E+00
 -1      4172 5.09203E+00
 -1      4173 2.94783E-01
 -1      4174 2.53681E-01
 -1      4175 1.00530E+00
 -1      4176 3.82613E-01
 -1      4177 3.30392E-01
 -1      4178 2.96823E-01
 -1      4179 3.57585E+00
 -1      4180 3.42041E+00
 -1      4181 4.86160E+00
 -1      4182 4.47258E+00
 -1      4183 9.32932E+00
 -1      4184 7.90811E+00
 -1      4185 1.01929E+01
 -1      4186 9.66845E+00
 -1      4187 2.64897E+00
 -1      4188 2.53114E+00
 -1      4189 5.08924E+00
 -1      4190 5.00176E+00
 -1      4191 1.75878E-01
 -1      4192 1.55557E-01
 -1      4193 8.83136E-01
 -1      4194 2.24347E+00
 -1      4195 2.16555E+00
 -1      4196 3.05822E+00
 -1      4197 3.17846E+00
 -1      4198 2.28397E-01
 -1      4199 1.95727E-01
 -1      4200 2.35931E-01
 -1      4201 3.29453E+00
 -1      4202 3.50031E+01
 -1      4203 7.59736E-02
 -1      4204 1.02047E-01
 -1      4205 2.16555E+00
 -1      4206 5.05429E-01
 -1      4207 4.38130E-01
 -1      4208 2.38063E+00
 -1      4209 1.07752E-01
 -1      4210 1.03532E-01
 -1      4211 9.43670E-02
 -1      4212 9.16683E-02
 -1      4213 6.82934E-02
 -1      4214 9.91474E-02
 -1      4215 1.11146E-01
 -1      4216 1.16105E-01
 -1      4217 1.23419E-01
 -1      4218 4.95187E+00
 -1      4219 3.29453E+00
 -1      4220 1.16423E-01
 -1      4221 1.24908E-01
 -1      4222 1.21741E-01
 -1      4223 1.63373E+00
 -1      4224 1.74079E+00
 -1      4225 1.92835E+00
 -1      4226 1.08488E-01
 -1      4227 1.04202E-01
 -1      4228 8.14431E+00
 -1      4229 4.31780E+00
 -1      4230 4.27230E+01
 -1      4231 4.27230E+01
 -1      4232 3.24101E+01
 -1      4233 3.84642E+01
 -1      4234 1.90798E-01
 -1      4235 1.13570E+00
 -1      4236 1.55557E-01
 -1      4237 1.40164E-01
 -1      4238 1.30061E-01
 -1      4239 3.87949E-01
 -1      4240 2.58035E+01
 -1      4241 1.19958E-01
 -1      4242 1.14223E-01
 -1      4243 1.30061E-01
 -1      4244 1.19543E-01
 -1      4245 1.14223E-01
 -1      4246 9.49705E-02
 -1      4247 1.24404E-01
 -1      4248 1.19355E-01
 -1      4249 1.04196E-01
 -1      4250 1.11126E-01
 -1      4251 1.09016E-01
 -1      4252 1.18052E-01
 -1      4253 1.45330E+00
 -1      4254 9.71943E-02
 -1      4255 1.05247E-01
 -1      4256 9.74371E-02
 -1      4257 3.14032E-01
 -1      4258 2.78423E-01
 -1      4259 2.00547E-01
 -1      4260 1.80698E-01
 -1      4261 7.60770E-02
 -1      4262 8.12917E-02
 -1      4263 7.85436E-02
 -1      4264 5.74985E-02
 -1      4265 1.23085E+01
 -1      4266 8.97589E+00
 -1      4267 1.38326E+01
 -1      4268 2.66350E+01
 -1      4269 1.23419E-01
 -1      4270 1.31033E-01
 -1      4271 1.18624E-01
 -1      4272 1.25167E-01
 -1      4273 1.35270E-01
 -1      4274 1.47786E-01
 -1      4275 1.63179E-01
 -1      4276 2.23429E-01
 -1      4277 2.48713E-01
 -1      4278 3.52727E-01
 -1      4279 4.08244E-01
 -1      4280 2.28027E+00
 -1      4281 4.21744E+00
 -1      4282 4.31780E+00
 -1      4283 4.31780E+00
 -1      4284 5.08924E+00
 -1      4285 5.86067E+00
 -1      4286 1.01929E+01
 -1      4287 2.49692E+01
 -1      4288 1.19761E-01
 -1      4289 1.15474E-01
 -1      4290 1.26685E-01
 -1      4291 2.09555E+00
 -1      4292 2.74948E+00
 -1      4293 3.29453E+00
 -1      4294 1.08271E-01
 -1      4295 1.12889E-01
 -1      4296 1.31033E-01
 -1      4297 1.19543E-01
 -1      4298 1.45252E+01
 -1      4299 1.80092E+00
 -1      4300 2.34597E+00
 -1      4301 7.31932E-02
 -1      4302 1.09546E-01
 -1      4303 1.20104E-01
 -1      4304 1.31033E-01
 -1      4305 2.56618E+01
 -1      4306 1.20708E-01
 -1      4307 1.27718E-01
 -1      4308 1.27718E-01
 -1      4309 9.34010E-02
 -1      4310 1.26685E-01
 -1      4311 1.25055E-01
 -1      4312 2.51316E+00
 -1      4313 2.34597E+00
 -3
 9999
