    1C
    1UUSER                                                              
    1UDATE              27.october.2022                                 
    1UTIME              01:18:04                                        
    1UHOST                                                              
    1UPGM               CalculiX                                        
    1UVERSION           Version 2.17                             
    1UCOMPILETIME       Thu Jul 23 21:43:50 CEST 2020                    
    1UDIR                                                               
    1UDBN                                                               
    1UMAT    1SOLIDMATERIAL                                             
    2C                          4276                                     1
 -1         1 1.11426E+02 4.15541E+01 0.00000E+00
 -1         2 1.17059E+02 3.46890E+01 0.00000E+00
 -1         3 1.50000E+02 0.00000E+00 0.00000E+00
 -1         4 1.50000E+02 5.00000E+01 0.00000E+00
 -1         5 0.00000E+00 0.00000E+00 0.00000E+00
 -1         6 0.00000E+00 5.00000E+01 0.00000E+00
 -1         7 0.00000E+00 4.70500E+01 0.00000E+00
 -1         8 0.00000E+00 4.41000E+01 0.00000E+00
 -1         9 0.00000E+00 4.11500E+01 0.00000E+00
 -1        10 0.00000E+00 3.82000E+01 0.00000E+00
 -1        11 0.00000E+00 3.52500E+01 0.00000E+00
 -1        12 0.00000E+00 3.23500E+01 0.00000E+00
 -1        13 0.00000E+00 2.94000E+01 0.00000E+00
 -1        14 0.00000E+00 2.64500E+01 0.00000E+00
 -1        15 0.00000E+00 2.35000E+01 0.00000E+00
 -1        16 0.00000E+00 2.05500E+01 0.00000E+00
 -1        17 0.00000E+00 1.76000E+01 0.00000E+00
 -1        18 0.00000E+00 1.47000E+01 0.00000E+00
 -1        19 0.00000E+00 1.17500E+01 0.00000E+00
 -1        20 0.00000E+00 8.80000E+00 0.00000E+00
 -1        21 0.00000E+00 5.85000E+00 0.00000E+00
 -1        22 0.00000E+00 2.90000E+00 0.00000E+00
 -1        23 3.15000E+00 5.00000E+01 0.00000E+00
 -1        24 6.15000E+00 5.00000E+01 0.00000E+00
 -1        25 9.15000E+00 5.00000E+01 0.00000E+00
 -1        26 1.21500E+01 5.00000E+01 0.00000E+00
 -1        27 1.51500E+01 5.00000E+01 0.00000E+00
 -1        28 1.81500E+01 5.00000E+01 0.00000E+00
 -1        29 2.11500E+01 5.00000E+01 0.00000E+00
 -1        30 2.41500E+01 5.00000E+01 0.00000E+00
 -1        31 2.71500E+01 5.00000E+01 0.00000E+00
 -1        32 3.01500E+01 5.00000E+01 0.00000E+00
 -1        33 3.33000E+01 5.00000E+01 0.00000E+00
 -1        34 3.63000E+01 5.00000E+01 0.00000E+00
 -1        35 3.93000E+01 5.00000E+01 0.00000E+00
 -1        36 4.23000E+01 5.00000E+01 0.00000E+00
 -1        37 4.53000E+01 5.00000E+01 0.00000E+00
 -1        38 4.83000E+01 5.00000E+01 0.00000E+00
 -1        39 5.13000E+01 5.00000E+01 0.00000E+00
 -1        40 5.43000E+01 5.00000E+01 0.00000E+00
 -1        41 5.73000E+01 5.00000E+01 0.00000E+00
 -1        42 6.03000E+01 5.00000E+01 0.00000E+00
 -1        43 6.33000E+01 5.00000E+01 0.00000E+00
 -1        44 6.64500E+01 5.00000E+01 0.00000E+00
 -1        45 6.94500E+01 5.00000E+01 0.00000E+00
 -1        46 7.24500E+01 5.00000E+01 0.00000E+00
 -1        47 7.54500E+01 5.00000E+01 0.00000E+00
 -1        48 7.84500E+01 5.00000E+01 0.00000E+00
 -1        49 8.14500E+01 5.00000E+01 0.00000E+00
 -1        50 8.44500E+01 5.00000E+01 0.00000E+00
 -1        51 8.74500E+01 5.00000E+01 0.00000E+00
 -1        52 9.04500E+01 5.00000E+01 0.00000E+00
 -1        53 9.34500E+01 5.00000E+01 0.00000E+00
 -1        54 9.64500E+01 5.00000E+01 0.00000E+00
 -1        55 9.96000E+01 5.00000E+01 0.00000E+00
 -1        56 1.02600E+02 5.00000E+01 0.00000E+00
 -1        57 1.05600E+02 5.00000E+01 0.00000E+00
 -1        58 1.08150E+02 5.00000E+01 0.00000E+00
 -1        59 1.11000E+02 5.00000E+01 0.00000E+00
 -1        60 1.13850E+02 5.00000E+01 0.00000E+00
 -1        61 1.16850E+02 5.00000E+01 0.00000E+00
 -1        62 1.20000E+02 5.00000E+01 0.00000E+00
 -1        63 1.23000E+02 5.00000E+01 0.00000E+00
 -1        64 1.26000E+02 5.00000E+01 0.00000E+00
 -1        65 1.29000E+02 5.00000E+01 0.00000E+00
 -1        66 1.32000E+02 5.00000E+01 0.00000E+00
 -1        67 1.35000E+02 5.00000E+01 0.00000E+00
 -1        68 1.38000E+02 5.00000E+01 0.00000E+00
 -1        69 1.41000E+02 5.00000E+01 0.00000E+00
 -1        70 1.44000E+02 5.00000E+01 0.00000E+00
 -1        71 1.47000E+02 5.00000E+01 0.00000E+00
 -1        72 3.15000E+00 0.00000E+00 0.00000E+00
 -1        73 6.15000E+00 0.00000E+00 0.00000E+00
 -1        74 9.15000E+00 0.00000E+00 0.00000E+00
 -1        75 1.21500E+01 0.00000E+00 0.00000E+00
 -1        76 1.51500E+01 0.00000E+00 0.00000E+00
 -1        77 1.81500E+01 0.00000E+00 0.00000E+00
 -1        78 2.11500E+01 0.00000E+00 0.00000E+00
 -1        79 2.41500E+01 0.00000E+00 0.00000E+00
 -1        80 2.71500E+01 0.00000E+00 0.00000E+00
 -1        81 3.01500E+01 0.00000E+00 0.00000E+00
 -1        82 3.31500E+01 0.00000E+00 0.00000E+00
 -1        83 3.61500E+01 0.00000E+00 0.00000E+00
 -1        84 3.91500E+01 0.00000E+00 0.00000E+00
 -1        85 4.21500E+01 0.00000E+00 0.00000E+00
 -1        86 4.51500E+01 0.00000E+00 0.00000E+00
 -1        87 4.81500E+01 0.00000E+00 0.00000E+00
 -1        88 5.11500E+01 0.00000E+00 0.00000E+00
 -1        89 5.41500E+01 0.00000E+00 0.00000E+00
 -1        90 5.71500E+01 0.00000E+00 0.00000E+00
 -1        91 6.01500E+01 0.00000E+00 0.00000E+00
 -1        92 6.31500E+01 0.00000E+00 0.00000E+00
 -1        93 6.61500E+01 0.00000E+00 0.00000E+00
 -1        94 6.91500E+01 0.00000E+00 0.00000E+00
 -1        95 7.21500E+01 0.00000E+00 0.00000E+00
 -1        96 7.51500E+01 0.00000E+00 0.00000E+00
 -1        97 7.81500E+01 0.00000E+00 0.00000E+00
 -1        98 8.11500E+01 0.00000E+00 0.00000E+00
 -1        99 8.41500E+01 0.00000E+00 0.00000E+00
 -1       100 8.71500E+01 0.00000E+00 0.00000E+00
 -1       101 9.01500E+01 0.00000E+00 0.00000E+00
 -1       102 9.31500E+01 0.00000E+00 0.00000E+00
 -1       103 9.61500E+01 0.00000E+00 0.00000E+00
 -1       104 9.91500E+01 0.00000E+00 0.00000E+00
 -1       105 1.02150E+02 0.00000E+00 0.00000E+00
 -1       106 1.05150E+02 0.00000E+00 0.00000E+00
 -1       107 1.08150E+02 0.00000E+00 0.00000E+00
 -1       108 1.11150E+02 0.00000E+00 0.00000E+00
 -1       109 1.14150E+02 0.00000E+00 0.00000E+00
 -1       110 1.17150E+02 0.00000E+00 0.00000E+00
 -1       111 1.20150E+02 0.00000E+00 0.00000E+00
 -1       112 1.23150E+02 0.00000E+00 0.00000E+00
 -1       113 1.26150E+02 0.00000E+00 0.00000E+00
 -1       114 1.29150E+02 0.00000E+00 0.00000E+00
 -1       115 1.32150E+02 0.00000E+00 0.00000E+00
 -1       116 1.35150E+02 0.00000E+00 0.00000E+00
 -1       117 1.38150E+02 0.00000E+00 0.00000E+00
 -1       118 1.41150E+02 0.00000E+00 0.00000E+00
 -1       119 1.44150E+02 0.00000E+00 0.00000E+00
 -1       120 1.47150E+02 0.00000E+00 0.00000E+00
 -1       121 1.50000E+02 2.95000E+00 0.00000E+00
 -1       122 1.50000E+02 5.90000E+00 0.00000E+00
 -1       123 1.50000E+02 8.85000E+00 0.00000E+00
 -1       124 1.50000E+02 1.18000E+01 0.00000E+00
 -1       125 1.50000E+02 1.47500E+01 0.00000E+00
 -1       126 1.50000E+02 1.76500E+01 0.00000E+00
 -1       127 1.50000E+02 2.06000E+01 0.00000E+00
 -1       128 1.50000E+02 2.35500E+01 0.00000E+00
 -1       129 1.50000E+02 2.65000E+01 0.00000E+00
 -1       130 1.50000E+02 2.94500E+01 0.00000E+00
 -1       131 1.50000E+02 3.24000E+01 0.00000E+00
 -1       132 1.50000E+02 3.53000E+01 0.00000E+00
 -1       133 1.50000E+02 3.82500E+01 0.00000E+00
 -1       134 1.50000E+02 4.12000E+01 0.00000E+00
 -1       135 1.50000E+02 4.41500E+01 0.00000E+00
 -1       136 1.50000E+02 4.71000E+01 0.00000E+00
 -1       137 1.16898E+02 3.31958E+01 0.00000E+00
 -1       138 1.16368E+02 3.16561E+01 0.00000E+00
 -1       139 1.15625E+02 3.04449E+01 0.00000E+00
 -1       140 1.14665E+02 2.94183E+01 0.00000E+00
 -1       141 1.13331E+02 2.85008E+01 0.00000E+00
 -1       142 1.12042E+02 2.79758E+01 0.00000E+00
 -1       143 1.10564E+02 2.77072E+01 0.00000E+00
 -1       144 1.08959E+02 2.77759E+01 0.00000E+00
 -1       145 1.07569E+02 2.81468E+01 0.00000E+00
 -1       146 1.06320E+02 2.87713E+01 0.00000E+00
 -1       147 1.05161E+02 2.96880E+01 0.00000E+00
 -1       148 1.04220E+02 3.08273E+01 0.00000E+00
 -1       149 1.03503E+02 3.22352E+01 0.00000E+00
 -1       150 1.03150E+02 3.35627E+01 0.00000E+00
 -1       151 1.03067E+02 3.50300E+01 0.00000E+00
 -1       152 1.03287E+02 3.64607E+01 0.00000E+00
 -1       153 1.03827E+02 3.78777E+01 0.00000E+00
 -1       154 1.04606E+02 3.90777E+01 0.00000E+00
 -1       155 1.05739E+02 4.01970E+01 0.00000E+00
 -1       156 1.06942E+02 4.09570E+01 0.00000E+00
 -1       157 1.08449E+02 4.15014E+01 0.00000E+00
 -1       158 1.09912E+02 4.16874E+01 0.00000E+00
 -1       159 1.12710E+02 4.11674E+01 0.00000E+00
 -1       160 1.13968E+02 4.04955E+01 0.00000E+00
 -1       161 1.14984E+02 3.96628E+01 0.00000E+00
 -1       162 1.15857E+02 3.86113E+01 0.00000E+00
 -1       163 1.16509E+02 3.74091E+01 0.00000E+00
 -1       164 1.16922E+02 3.60674E+01 0.00000E+00
 -1       165 2.59800E+00 4.55750E+01 0.00000E+00
 -1       166 2.59800E+00 4.26250E+01 0.00000E+00
 -1       167 2.59800E+00 3.96750E+01 0.00000E+00
 -1       168 2.59800E+00 3.67250E+01 0.00000E+00
 -1       169 2.59800E+00 3.38250E+01 0.00000E+00
 -1       170 2.59800E+00 3.08750E+01 0.00000E+00
 -1       171 2.59800E+00 2.79250E+01 0.00000E+00
 -1       172 2.59800E+00 2.49750E+01 0.00000E+00
 -1       173 2.59800E+00 2.20250E+01 0.00000E+00
 -1       174 2.59800E+00 1.90750E+01 0.00000E+00
 -1       175 2.59800E+00 1.61750E+01 0.00000E+00
 -1       176 2.59800E+00 1.32250E+01 0.00000E+00
 -1       177 2.59800E+00 1.02750E+01 0.00000E+00
 -1       178 2.59800E+00 7.32500E+00 0.00000E+00
 -1       179 2.59800E+00 4.37500E+00 0.00000E+00
 -1       180 2.87400E+00 2.18750E+00 0.00000E+00
 -1       181 4.65000E+00 4.74020E+01 0.00000E+00
 -1       182 7.65000E+00 4.74020E+01 0.00000E+00
 -1       183 1.06500E+01 4.74020E+01 0.00000E+00
 -1       184 1.36500E+01 4.74020E+01 0.00000E+00
 -1       185 1.66500E+01 4.74020E+01 0.00000E+00
 -1       186 1.96500E+01 4.74020E+01 0.00000E+00
 -1       187 2.26500E+01 4.74020E+01 0.00000E+00
 -1       188 2.56500E+01 4.74020E+01 0.00000E+00
 -1       189 2.86500E+01 4.74020E+01 0.00000E+00
 -1       190 3.18000E+01 4.74020E+01 0.00000E+00
 -1       191 3.48000E+01 4.74020E+01 0.00000E+00
 -1       192 3.78000E+01 4.74020E+01 0.00000E+00
 -1       193 4.08000E+01 4.74020E+01 0.00000E+00
 -1       194 4.38000E+01 4.74020E+01 0.00000E+00
 -1       195 4.68000E+01 4.74020E+01 0.00000E+00
 -1       196 4.98000E+01 4.74020E+01 0.00000E+00
 -1       197 5.28000E+01 4.74020E+01 0.00000E+00
 -1       198 5.58000E+01 4.74020E+01 0.00000E+00
 -1       199 5.88000E+01 4.74020E+01 0.00000E+00
 -1       200 6.18000E+01 4.74020E+01 0.00000E+00
 -1       201 6.49500E+01 4.74020E+01 0.00000E+00
 -1       202 6.79500E+01 4.74020E+01 0.00000E+00
 -1       203 7.09500E+01 4.74020E+01 0.00000E+00
 -1       204 7.39500E+01 4.74020E+01 0.00000E+00
 -1       205 7.69500E+01 4.74020E+01 0.00000E+00
 -1       206 7.99500E+01 4.74020E+01 0.00000E+00
 -1       207 8.29500E+01 4.74020E+01 0.00000E+00
 -1       208 8.59500E+01 4.74020E+01 0.00000E+00
 -1       209 8.89500E+01 4.74020E+01 0.00000E+00
 -1       210 9.19500E+01 4.74020E+01 0.00000E+00
 -1       211 9.49500E+01 4.74020E+01 0.00000E+00
 -1       212 9.81000E+01 4.74020E+01 0.00000E+00
 -1       213 1.01100E+02 4.74020E+01 0.00000E+00
 -1       214 1.04100E+02 4.74020E+01 0.00000E+00
 -1       215 1.06650E+02 4.74020E+01 0.00000E+00
 -1       216 1.09500E+02 4.74020E+01 0.00000E+00
 -1       217 1.12350E+02 4.74020E+01 0.00000E+00
 -1       218 1.15350E+02 4.74020E+01 0.00000E+00
 -1       219 1.18500E+02 4.74020E+01 0.00000E+00
 -1       220 1.21500E+02 4.74020E+01 0.00000E+00
 -1       221 1.24500E+02 4.74020E+01 0.00000E+00
 -1       222 1.27500E+02 4.74020E+01 0.00000E+00
 -1       223 1.30500E+02 4.74020E+01 0.00000E+00
 -1       224 1.33500E+02 4.74020E+01 0.00000E+00
 -1       225 1.36500E+02 4.74020E+01 0.00000E+00
 -1       226 1.39500E+02 4.74020E+01 0.00000E+00
 -1       227 1.42500E+02 4.74020E+01 0.00000E+00
 -1       228 1.45500E+02 4.74020E+01 0.00000E+00
 -1       229 1.47750E+02 4.72510E+01 0.00000E+00
 -1       230 5.87400E+00 2.18750E+00 0.00000E+00
 -1       231 8.87400E+00 2.18750E+00 0.00000E+00
 -1       232 1.18740E+01 2.18750E+00 0.00000E+00
 -1       233 1.48740E+01 2.18750E+00 0.00000E+00
 -1       234 1.78740E+01 2.18750E+00 0.00000E+00
 -1       235 2.08740E+01 2.18750E+00 0.00000E+00
 -1       236 2.38740E+01 2.18750E+00 0.00000E+00
 -1       237 2.68740E+01 2.18750E+00 0.00000E+00
 -1       238 2.98740E+01 2.18750E+00 0.00000E+00
 -1       239 3.28740E+01 2.18750E+00 0.00000E+00
 -1       240 3.58740E+01 2.18750E+00 0.00000E+00
 -1       241 3.88740E+01 2.18750E+00 0.00000E+00
 -1       242 4.18740E+01 2.18750E+00 0.00000E+00
 -1       243 4.48740E+01 2.18750E+00 0.00000E+00
 -1       244 4.78740E+01 2.18750E+00 0.00000E+00
 -1       245 5.08740E+01 2.18750E+00 0.00000E+00
 -1       246 5.38740E+01 2.18750E+00 0.00000E+00
 -1       247 5.68740E+01 2.18750E+00 0.00000E+00
 -1       248 5.98740E+01 2.18750E+00 0.00000E+00
 -1       249 6.28740E+01 2.18750E+00 0.00000E+00
 -1       250 6.58740E+01 2.18750E+00 0.00000E+00
 -1       251 6.88740E+01 2.18750E+00 0.00000E+00
 -1       252 7.18740E+01 2.18750E+00 0.00000E+00
 -1       253 7.48740E+01 2.18750E+00 0.00000E+00
 -1       254 7.78740E+01 2.18750E+00 0.00000E+00
 -1       255 8.08740E+01 2.18750E+00 0.00000E+00
 -1       256 8.38740E+01 2.18750E+00 0.00000E+00
 -1       257 8.68740E+01 2.18750E+00 0.00000E+00
 -1       258 8.98740E+01 2.18750E+00 0.00000E+00
 -1       259 9.28740E+01 2.18750E+00 0.00000E+00
 -1       260 9.58740E+01 2.18750E+00 0.00000E+00
 -1       261 9.88740E+01 2.18750E+00 0.00000E+00
 -1       262 1.01874E+02 2.18750E+00 0.00000E+00
 -1       263 1.04874E+02 2.18750E+00 0.00000E+00
 -1       264 1.07874E+02 2.18750E+00 0.00000E+00
 -1       265 1.10874E+02 2.18750E+00 0.00000E+00
 -1       266 1.13874E+02 2.18750E+00 0.00000E+00
 -1       267 1.16874E+02 2.18750E+00 0.00000E+00
 -1       268 1.19874E+02 2.18750E+00 0.00000E+00
 -1       269 1.22874E+02 2.18750E+00 0.00000E+00
 -1       270 1.25874E+02 2.18750E+00 0.00000E+00
 -1       271 1.28874E+02 2.18750E+00 0.00000E+00
 -1       272 1.31874E+02 2.18750E+00 0.00000E+00
 -1       273 1.34874E+02 2.18750E+00 0.00000E+00
 -1       274 1.37874E+02 2.18750E+00 0.00000E+00
 -1       275 1.40874E+02 2.18750E+00 0.00000E+00
 -1       276 1.43874E+02 2.18750E+00 0.00000E+00
 -1       277 1.46874E+02 2.18750E+00 0.00000E+00
 -1       278 1.47402E+02 4.42500E+00 0.00000E+00
 -1       279 1.47402E+02 7.37500E+00 0.00000E+00
 -1       280 1.47402E+02 1.03250E+01 0.00000E+00
 -1       281 1.47402E+02 1.32750E+01 0.00000E+00
 -1       282 1.47402E+02 1.61750E+01 0.00000E+00
 -1       283 1.47402E+02 1.91250E+01 0.00000E+00
 -1       284 1.47402E+02 2.20750E+01 0.00000E+00
 -1       285 1.47402E+02 2.50250E+01 0.00000E+00
 -1       286 1.47402E+02 2.79750E+01 0.00000E+00
 -1       287 1.47402E+02 3.09250E+01 0.00000E+00
 -1       288 1.47402E+02 3.38250E+01 0.00000E+00
 -1       289 1.47402E+02 3.67750E+01 0.00000E+00
 -1       290 1.47402E+02 3.97250E+01 0.00000E+00
 -1       291 1.47402E+02 4.26750E+01 0.00000E+00
 -1       292 1.47576E+02 4.49630E+01 0.00000E+00
 -1       293 1.18350E+02 3.37943E+01 0.00000E+00
 -1       294 1.18096E+02 3.19222E+01 0.00000E+00
 -1       295 1.17102E+02 3.03732E+01 0.00000E+00
 -1       296 1.16031E+02 2.91034E+01 0.00000E+00
 -1       297 1.14875E+02 2.76843E+01 0.00000E+00
 -1       298 1.13144E+02 2.71155E+01 0.00000E+00
 -1       299 1.11520E+02 2.66486E+01 0.00000E+00
 -1       300 1.09695E+02 2.61954E+01 0.00000E+00
 -1       301 1.07930E+02 2.67090E+01 0.00000E+00
 -1       302 1.06402E+02 2.73746E+01 0.00000E+00
 -1       303 1.04884E+02 2.81473E+01 0.00000E+00
 -1       304 1.03497E+02 2.92725E+01 0.00000E+00
 -1       305 1.02557E+02 3.08667E+01 0.00000E+00
 -1       306 1.02155E+02 3.25874E+01 0.00000E+00
 -1       307 1.01814E+02 3.42233E+01 0.00000E+00
 -1       308 1.01979E+02 3.59293E+01 0.00000E+00
 -1       309 1.02268E+02 3.76610E+01 0.00000E+00
 -1       310 1.03199E+02 3.91374E+01 0.00000E+00
 -1       311 1.04203E+02 4.06192E+01 0.00000E+00
 -1       312 1.05693E+02 4.16021E+01 0.00000E+00
 -1       313 1.07170E+02 4.26846E+01 0.00000E+00
 -1       314 1.09027E+02 4.27971E+01 0.00000E+00
 -1       315 1.10790E+02 4.29954E+01 0.00000E+00
 -1       316 1.12418E+02 4.25217E+01 0.00000E+00
 -1       317 1.13950E+02 4.19748E+01 0.00000E+00
 -1       318 1.15245E+02 4.10169E+01 0.00000E+00
 -1       319 1.16354E+02 3.99112E+01 0.00000E+00
 -1       320 1.17248E+02 3.85882E+01 0.00000E+00
 -1       321 1.17874E+02 3.70950E+01 0.00000E+00
 -1       322 1.18280E+02 3.55064E+01 0.00000E+00
 -1       323 5.19600E+00 4.11500E+01 0.00000E+00
 -1       324 5.19600E+00 4.41000E+01 0.00000E+00
 -1       325 5.19600E+00 3.52750E+01 0.00000E+00
 -1       326 5.19600E+00 3.23250E+01 0.00000E+00
 -1       327 5.19600E+00 2.93750E+01 0.00000E+00
 -1       328 5.19600E+00 2.64250E+01 0.00000E+00
 -1       329 5.19600E+00 2.34750E+01 0.00000E+00
 -1       330 5.19600E+00 2.05250E+01 0.00000E+00
 -1       331 5.19600E+00 1.76250E+01 0.00000E+00
 -1       332 5.19600E+00 1.46750E+01 0.00000E+00
 -1       333 5.19600E+00 1.17250E+01 0.00000E+00
 -1       334 5.19600E+00 8.77500E+00 0.00000E+00
 -1       335 5.19600E+00 5.82500E+00 0.00000E+00
 -1       336 5.53500E+00 4.00625E+00 0.00000E+00
 -1       337 8.53500E+00 4.00625E+00 0.00000E+00
 -1       338 9.15000E+00 4.48040E+01 0.00000E+00
 -1       339 1.21500E+01 4.48040E+01 0.00000E+00
 -1       340 1.51500E+01 4.48040E+01 0.00000E+00
 -1       341 1.81500E+01 4.48040E+01 0.00000E+00
 -1       342 2.11500E+01 4.48040E+01 0.00000E+00
 -1       343 2.41500E+01 4.48040E+01 0.00000E+00
 -1       344 2.71500E+01 4.48040E+01 0.00000E+00
 -1       345 3.03000E+01 4.48040E+01 0.00000E+00
 -1       346 3.33000E+01 4.48040E+01 0.00000E+00
 -1       347 3.63000E+01 4.48040E+01 0.00000E+00
 -1       348 3.93000E+01 4.48040E+01 0.00000E+00
 -1       349 4.23000E+01 4.48040E+01 0.00000E+00
 -1       350 4.53000E+01 4.48040E+01 0.00000E+00
 -1       351 4.83000E+01 4.48040E+01 0.00000E+00
 -1       352 5.13000E+01 4.48040E+01 0.00000E+00
 -1       353 5.43000E+01 4.48040E+01 0.00000E+00
 -1       354 5.73000E+01 4.48040E+01 0.00000E+00
 -1       355 6.03000E+01 4.48040E+01 0.00000E+00
 -1       356 6.34500E+01 4.48040E+01 0.00000E+00
 -1       357 6.64500E+01 4.48040E+01 0.00000E+00
 -1       358 6.94500E+01 4.48040E+01 0.00000E+00
 -1       359 7.24500E+01 4.48040E+01 0.00000E+00
 -1       360 7.54500E+01 4.48040E+01 0.00000E+00
 -1       361 7.84500E+01 4.48040E+01 0.00000E+00
 -1       362 8.14500E+01 4.48040E+01 0.00000E+00
 -1       363 8.44500E+01 4.48040E+01 0.00000E+00
 -1       364 8.74500E+01 4.48040E+01 0.00000E+00
 -1       365 9.04500E+01 4.48040E+01 0.00000E+00
 -1       366 9.34500E+01 4.48040E+01 0.00000E+00
 -1       367 9.66000E+01 4.48040E+01 0.00000E+00
 -1       368 9.96000E+01 4.48040E+01 0.00000E+00
 -1       369 1.02600E+02 4.48040E+01 0.00000E+00
 -1       370 1.05150E+02 4.48040E+01 0.00000E+00
 -1       371 1.08075E+02 4.55193E+01 0.00000E+00
 -1       372 1.10925E+02 4.51842E+01 0.00000E+00
 -1       373 1.13850E+02 4.51842E+01 0.00000E+00
 -1       374 1.16925E+02 4.51842E+01 0.00000E+00
 -1       375 1.20000E+02 4.48490E+01 0.00000E+00
 -1       376 1.23000E+02 4.48490E+01 0.00000E+00
 -1       377 1.26000E+02 4.48490E+01 0.00000E+00
 -1       378 1.29000E+02 4.48490E+01 0.00000E+00
 -1       379 1.32000E+02 4.48490E+01 0.00000E+00
 -1       380 1.35000E+02 4.48490E+01 0.00000E+00
 -1       381 1.38000E+02 4.48490E+01 0.00000E+00
 -1       382 1.41000E+02 4.48490E+01 0.00000E+00
 -1       383 1.44000E+02 4.48490E+01 0.00000E+00
 -1       384 1.33740E+01 4.78550E+00 0.00000E+00
 -1       385 1.63740E+01 4.78550E+00 0.00000E+00
 -1       386 1.93740E+01 4.78550E+00 0.00000E+00
 -1       387 2.23740E+01 4.78550E+00 0.00000E+00
 -1       388 2.53740E+01 4.78550E+00 0.00000E+00
 -1       389 2.83740E+01 4.78550E+00 0.00000E+00
 -1       390 3.13740E+01 4.78550E+00 0.00000E+00
 -1       391 3.43740E+01 4.78550E+00 0.00000E+00
 -1       392 3.73740E+01 4.78550E+00 0.00000E+00
 -1       393 4.03740E+01 4.78550E+00 0.00000E+00
 -1       394 4.33740E+01 4.78550E+00 0.00000E+00
 -1       395 4.63740E+01 4.78550E+00 0.00000E+00
 -1       396 4.93740E+01 4.78550E+00 0.00000E+00
 -1       397 5.23740E+01 4.78550E+00 0.00000E+00
 -1       398 5.53740E+01 4.78550E+00 0.00000E+00
 -1       399 5.83740E+01 4.78550E+00 0.00000E+00
 -1       400 6.13740E+01 4.78550E+00 0.00000E+00
 -1       401 6.43740E+01 4.78550E+00 0.00000E+00
 -1       402 6.73740E+01 4.78550E+00 0.00000E+00
 -1       403 7.03740E+01 4.78550E+00 0.00000E+00
 -1       404 7.33740E+01 4.78550E+00 0.00000E+00
 -1       405 7.63740E+01 4.78550E+00 0.00000E+00
 -1       406 7.93740E+01 4.78550E+00 0.00000E+00
 -1       407 8.23740E+01 4.78550E+00 0.00000E+00
 -1       408 8.53740E+01 4.78550E+00 0.00000E+00
 -1       409 8.83740E+01 4.78550E+00 0.00000E+00
 -1       410 9.13740E+01 4.78550E+00 0.00000E+00
 -1       411 9.43740E+01 4.78550E+00 0.00000E+00
 -1       412 9.73740E+01 4.78550E+00 0.00000E+00
 -1       413 1.00374E+02 4.78550E+00 0.00000E+00
 -1       414 1.03374E+02 4.78550E+00 0.00000E+00
 -1       415 1.06374E+02 4.78550E+00 0.00000E+00
 -1       416 1.09374E+02 4.78550E+00 0.00000E+00
 -1       417 1.12374E+02 4.78550E+00 0.00000E+00
 -1       418 1.15374E+02 4.78550E+00 0.00000E+00
 -1       419 1.18374E+02 4.78550E+00 0.00000E+00
 -1       420 1.21374E+02 4.78550E+00 0.00000E+00
 -1       421 1.24374E+02 4.78550E+00 0.00000E+00
 -1       422 1.27374E+02 4.78550E+00 0.00000E+00
 -1       423 1.30374E+02 4.78550E+00 0.00000E+00
 -1       424 1.33374E+02 4.78550E+00 0.00000E+00
 -1       425 1.36374E+02 4.78550E+00 0.00000E+00
 -1       426 1.39374E+02 4.78550E+00 0.00000E+00
 -1       427 1.42374E+02 4.78550E+00 0.00000E+00
 -1       428 1.44888E+02 4.60525E+00 0.00000E+00
 -1       429 1.44804E+02 1.18000E+01 0.00000E+00
 -1       430 1.44804E+02 8.85000E+00 0.00000E+00
 -1       431 1.44804E+02 1.47000E+01 0.00000E+00
 -1       432 1.44804E+02 1.76500E+01 0.00000E+00
 -1       433 1.44804E+02 2.06000E+01 0.00000E+00
 -1       434 1.44804E+02 2.35500E+01 0.00000E+00
 -1       435 1.44804E+02 2.65000E+01 0.00000E+00
 -1       436 1.44804E+02 2.94500E+01 0.00000E+00
 -1       437 1.44804E+02 3.23500E+01 0.00000E+00
 -1       438 1.44804E+02 3.53000E+01 0.00000E+00
 -1       439 1.44804E+02 3.82500E+01 0.00000E+00
 -1       440 1.44804E+02 4.12000E+01 0.00000E+00
 -1       441 1.09545E+01 4.39587E+00 0.00000E+00
 -1       442 1.18690E+02 3.04476E+01 0.00000E+00
 -1       443 1.16523E+02 2.75223E+01 0.00000E+00
 -1       444 1.20029E+02 3.47206E+01 0.00000E+00
 -1       445 1.17594E+02 2.87922E+01 0.00000E+00
 -1       446 5.19600E+00 3.82125E+01 0.00000E+00
 -1       447 1.14493E+02 2.59297E+01 0.00000E+00
 -1       448 1.12868E+02 2.54629E+01 0.00000E+00
 -1       449 1.10981E+02 2.49201E+01 0.00000E+00
 -1       450 1.08451E+02 2.52076E+01 0.00000E+00
 -1       451 1.06581E+02 2.56999E+01 0.00000E+00
 -1       452 1.05063E+02 2.64726E+01 0.00000E+00
 -1       453 1.03269E+02 2.75732E+01 0.00000E+00
 -1       454 1.01911E+02 2.94114E+01 0.00000E+00
 -1       455 1.00686E+02 3.13363E+01 0.00000E+00
 -1       456 1.00346E+02 3.29722E+01 0.00000E+00
 -1       457 1.00440E+02 3.52165E+01 0.00000E+00
 -1       458 1.00729E+02 3.69482E+01 0.00000E+00
 -1       459 1.01637E+02 3.90909E+01 0.00000E+00
 -1       460 1.02419E+02 4.07460E+01 0.00000E+00
 -1       461 1.04096E+02 4.24027E+01 0.00000E+00
 -1       462 1.08005E+02 4.42856E+01 0.00000E+00
 -1       463 1.11989E+02 4.40835E+01 0.00000E+00
 -1       464 1.13521E+02 4.35367E+01 0.00000E+00
 -1       465 1.15468E+02 4.26726E+01 0.00000E+00
 -1       466 1.16714E+02 4.13819E+01 0.00000E+00
 -1       467 1.18083E+02 4.01167E+01 0.00000E+00
 -1       468 1.18834E+02 3.83748E+01 0.00000E+00
 -1       469 1.19576E+02 3.66841E+01 0.00000E+00
 -1       470 1.19674E+02 3.26612E+01 0.00000E+00
 -1       471 1.16140E+02 2.57677E+01 0.00000E+00
 -1       472 1.20267E+02 3.11866E+01 0.00000E+00
 -1       473 1.00098E+02 3.83780E+01 0.00000E+00
 -1       474 1.09736E+02 2.39323E+01 0.00000E+00
 -1       475 1.05616E+02 4.32563E+01 0.00000E+00
 -1       476 1.10227E+02 4.38852E+01 0.00000E+00
 -1       477 7.79400E+00 3.08500E+01 0.00000E+00
 -1       478 7.79400E+00 3.38000E+01 0.00000E+00
 -1       479 7.79400E+00 2.49500E+01 0.00000E+00
 -1       480 7.79400E+00 2.20000E+01 0.00000E+00
 -1       481 7.79400E+00 1.91000E+01 0.00000E+00
 -1       482 7.79400E+00 1.61500E+01 0.00000E+00
 -1       483 7.79400E+00 1.32000E+01 0.00000E+00
 -1       484 7.79400E+00 1.02500E+01 0.00000E+00
 -1       485 7.79400E+00 7.30000E+00 0.00000E+00
 -1       486 8.16450E+00 5.65312E+00 0.00000E+00
 -1       487 1.06500E+01 4.22060E+01 0.00000E+00
 -1       488 1.36500E+01 4.22060E+01 0.00000E+00
 -1       489 1.66500E+01 4.22060E+01 0.00000E+00
 -1       490 1.96500E+01 4.22060E+01 0.00000E+00
 -1       491 2.26500E+01 4.22060E+01 0.00000E+00
 -1       492 2.56500E+01 4.22060E+01 0.00000E+00
 -1       493 2.88000E+01 4.22060E+01 0.00000E+00
 -1       494 3.18000E+01 4.22060E+01 0.00000E+00
 -1       495 3.48000E+01 4.22060E+01 0.00000E+00
 -1       496 3.78000E+01 4.22060E+01 0.00000E+00
 -1       497 4.08000E+01 4.22060E+01 0.00000E+00
 -1       498 4.38000E+01 4.22060E+01 0.00000E+00
 -1       499 4.68000E+01 4.22060E+01 0.00000E+00
 -1       500 4.98000E+01 4.22060E+01 0.00000E+00
 -1       501 5.28000E+01 4.22060E+01 0.00000E+00
 -1       502 5.58000E+01 4.22060E+01 0.00000E+00
 -1       503 5.88000E+01 4.22060E+01 0.00000E+00
 -1       504 6.19500E+01 4.22060E+01 0.00000E+00
 -1       505 6.49500E+01 4.22060E+01 0.00000E+00
 -1       506 6.79500E+01 4.22060E+01 0.00000E+00
 -1       507 7.09500E+01 4.22060E+01 0.00000E+00
 -1       508 7.39500E+01 4.22060E+01 0.00000E+00
 -1       509 7.69500E+01 4.22060E+01 0.00000E+00
 -1       510 7.99500E+01 4.22060E+01 0.00000E+00
 -1       511 8.29500E+01 4.22060E+01 0.00000E+00
 -1       512 8.59500E+01 4.22060E+01 0.00000E+00
 -1       513 8.89500E+01 4.22060E+01 0.00000E+00
 -1       514 9.19500E+01 4.22060E+01 0.00000E+00
 -1       515 9.51000E+01 4.22060E+01 0.00000E+00
 -1       516 9.81000E+01 4.22060E+01 0.00000E+00
 -1       517 1.19362E+02 2.88118E+01 0.00000E+00
 -1       518 1.24500E+02 4.22510E+01 0.00000E+00
 -1       519 1.27500E+02 4.22510E+01 0.00000E+00
 -1       520 1.30500E+02 4.22510E+01 0.00000E+00
 -1       521 1.33500E+02 4.22510E+01 0.00000E+00
 -1       522 1.36500E+02 4.22510E+01 0.00000E+00
 -1       523 1.39500E+02 4.22510E+01 0.00000E+00
 -1       524 1.42152E+02 4.17255E+01 0.00000E+00
 -1       525 2.08740E+01 7.38350E+00 0.00000E+00
 -1       526 1.78740E+01 7.38350E+00 0.00000E+00
 -1       527 1.48740E+01 7.38350E+00 0.00000E+00
 -1       528 2.38740E+01 7.38350E+00 0.00000E+00
 -1       529 2.68740E+01 7.38350E+00 0.00000E+00
 -1       530 2.98740E+01 7.38350E+00 0.00000E+00
 -1       531 3.28740E+01 7.38350E+00 0.00000E+00
 -1       532 3.58740E+01 7.38350E+00 0.00000E+00
 -1       533 3.88740E+01 7.38350E+00 0.00000E+00
 -1       534 4.18740E+01 7.38350E+00 0.00000E+00
 -1       535 4.48740E+01 7.38350E+00 0.00000E+00
 -1       536 4.78740E+01 7.38350E+00 0.00000E+00
 -1       537 5.08740E+01 7.38350E+00 0.00000E+00
 -1       538 5.38740E+01 7.38350E+00 0.00000E+00
 -1       539 5.68740E+01 7.38350E+00 0.00000E+00
 -1       540 5.98740E+01 7.38350E+00 0.00000E+00
 -1       541 6.28740E+01 7.38350E+00 0.00000E+00
 -1       542 6.58740E+01 7.38350E+00 0.00000E+00
 -1       543 6.88740E+01 7.38350E+00 0.00000E+00
 -1       544 7.18740E+01 7.38350E+00 0.00000E+00
 -1       545 7.48740E+01 7.38350E+00 0.00000E+00
 -1       546 7.78740E+01 7.38350E+00 0.00000E+00
 -1       547 8.08740E+01 7.38350E+00 0.00000E+00
 -1       548 8.38740E+01 7.38350E+00 0.00000E+00
 -1       549 8.68740E+01 7.38350E+00 0.00000E+00
 -1       550 8.98740E+01 7.38350E+00 0.00000E+00
 -1       551 9.28740E+01 7.38350E+00 0.00000E+00
 -1       552 9.58740E+01 7.38350E+00 0.00000E+00
 -1       553 9.88740E+01 7.38350E+00 0.00000E+00
 -1       554 1.01874E+02 7.38350E+00 0.00000E+00
 -1       555 1.04874E+02 7.38350E+00 0.00000E+00
 -1       556 1.07874E+02 7.38350E+00 0.00000E+00
 -1       557 1.10874E+02 7.38350E+00 0.00000E+00
 -1       558 1.13874E+02 7.38350E+00 0.00000E+00
 -1       559 1.16874E+02 7.38350E+00 0.00000E+00
 -1       560 1.19874E+02 7.38350E+00 0.00000E+00
 -1       561 1.22874E+02 7.38350E+00 0.00000E+00
 -1       562 1.25874E+02 7.38350E+00 0.00000E+00
 -1       563 1.28874E+02 7.38350E+00 0.00000E+00
 -1       564 1.31874E+02 7.38350E+00 0.00000E+00
 -1       565 1.34874E+02 7.38350E+00 0.00000E+00
 -1       566 1.37874E+02 7.38350E+00 0.00000E+00
 -1       567 1.40874E+02 7.38350E+00 0.00000E+00
 -1       568 1.42206E+02 1.61750E+01 0.00000E+00
 -1       569 1.42206E+02 1.32750E+01 0.00000E+00
 -1       570 1.42206E+02 1.03250E+01 0.00000E+00
 -1       571 1.21459E+02 3.34136E+01 0.00000E+00
 -1       572 1.42206E+02 1.91250E+01 0.00000E+00
 -1       573 1.42206E+02 2.20750E+01 0.00000E+00
 -1       574 1.42206E+02 2.50250E+01 0.00000E+00
 -1       575 1.42206E+02 2.79750E+01 0.00000E+00
 -1       576 1.42206E+02 3.08750E+01 0.00000E+00
 -1       577 1.42206E+02 3.38250E+01 0.00000E+00
 -1       578 1.42206E+02 3.67750E+01 0.00000E+00
 -1       579 1.42179E+02 3.92503E+01 0.00000E+00
 -1       580 7.92300E+00 4.16780E+01 0.00000E+00
 -1       581 1.21801E+02 3.61628E+01 0.00000E+00
 -1       582 1.21058E+02 3.78535E+01 0.00000E+00
 -1       583 1.01817E+02 4.30328E+01 0.00000E+00
 -1       584 1.00063E+02 2.95882E+01 0.00000E+00
 -1       585 1.07122E+02 2.39572E+01 0.00000E+00
 -1       586 1.18369E+02 2.70515E+01 0.00000E+00
 -1       587 1.21500E+02 4.22510E+01 0.00000E+00
 -1       588 1.18240E+02 4.29784E+01 0.00000E+00
 -1       589 7.79400E+00 2.79000E+01 0.00000E+00
 -1       590 1.14247E+02 2.37258E+01 0.00000E+00
 -1       591 1.01277E+02 2.75230E+01 0.00000E+00
 -1       592 1.12359E+02 2.31831E+01 0.00000E+00
 -1       593 1.05082E+02 2.46324E+01 0.00000E+00
 -1       594 1.00175E+02 4.07945E+01 0.00000E+00
 -1       595 1.03287E+02 2.57330E+01 0.00000E+00
 -1       596 9.90009E+01 3.18390E+01 0.00000E+00
 -1       597 9.88465E+01 3.41589E+01 0.00000E+00
 -1       598 9.90576E+01 3.63372E+01 0.00000E+00
 -1       599 1.19880E+02 3.98585E+01 0.00000E+00
 -1       600 7.79400E+00 3.67375E+01 0.00000E+00
 -1       601 1.05840E+01 6.04275E+00 0.00000E+00
 -1       602 1.15895E+02 2.35638E+01 0.00000E+00
 -1       603 1.22053E+02 3.19389E+01 0.00000E+00
 -1       604 1.27290E+01 6.71313E+00 0.00000E+00
 -1       605 1.20940E+02 2.95509E+01 0.00000E+00
 -1       606 1.08407E+02 2.26819E+01 0.00000E+00
 -1       607 1.03920E+01 2.05500E+01 0.00000E+00
 -1       608 1.03920E+01 2.35000E+01 0.00000E+00
 -1       609 1.03920E+01 1.46750E+01 0.00000E+00
 -1       610 1.03920E+01 1.17250E+01 0.00000E+00
 -1       611 1.02135E+01 7.68962E+00 0.00000E+00
 -1       612 1.21500E+01 3.96080E+01 0.00000E+00
 -1       613 9.80234E+01 3.97895E+01 0.00000E+00
 -1       614 1.20652E+02 2.69245E+01 0.00000E+00
 -1       615 1.51500E+01 3.96080E+01 0.00000E+00
 -1       616 1.81500E+01 3.96080E+01 0.00000E+00
 -1       617 2.11500E+01 3.96080E+01 0.00000E+00
 -1       618 2.41500E+01 3.96080E+01 0.00000E+00
 -1       619 2.73000E+01 3.96080E+01 0.00000E+00
 -1       620 3.03000E+01 3.96080E+01 0.00000E+00
 -1       621 3.33000E+01 3.96080E+01 0.00000E+00
 -1       622 3.63000E+01 3.96080E+01 0.00000E+00
 -1       623 3.93000E+01 3.96080E+01 0.00000E+00
 -1       624 4.23000E+01 3.96080E+01 0.00000E+00
 -1       625 4.53000E+01 3.96080E+01 0.00000E+00
 -1       626 4.83000E+01 3.96080E+01 0.00000E+00
 -1       627 5.13000E+01 3.96080E+01 0.00000E+00
 -1       628 5.43000E+01 3.96080E+01 0.00000E+00
 -1       629 5.73000E+01 3.96080E+01 0.00000E+00
 -1       630 6.04500E+01 3.96080E+01 0.00000E+00
 -1       631 6.34500E+01 3.96080E+01 0.00000E+00
 -1       632 6.64500E+01 3.96080E+01 0.00000E+00
 -1       633 6.94500E+01 3.96080E+01 0.00000E+00
 -1       634 7.24500E+01 3.96080E+01 0.00000E+00
 -1       635 7.54500E+01 3.96080E+01 0.00000E+00
 -1       636 7.84500E+01 3.96080E+01 0.00000E+00
 -1       637 8.14500E+01 3.96080E+01 0.00000E+00
 -1       638 8.44500E+01 3.96080E+01 0.00000E+00
 -1       639 8.74500E+01 3.96080E+01 0.00000E+00
 -1       640 9.04500E+01 3.96080E+01 0.00000E+00
 -1       641 9.36000E+01 3.96080E+01 0.00000E+00
 -1       642 1.29000E+02 3.96530E+01 0.00000E+00
 -1       643 1.32000E+02 3.96530E+01 0.00000E+00
 -1       644 1.35000E+02 3.96530E+01 0.00000E+00
 -1       645 1.38000E+02 3.96530E+01 0.00000E+00
 -1       646 1.40089E+02 3.94516E+01 0.00000E+00
 -1       647 1.93740E+01 9.98150E+00 0.00000E+00
 -1       648 2.23740E+01 9.98150E+00 0.00000E+00
 -1       649 1.63740E+01 9.98150E+00 0.00000E+00
 -1       650 2.83740E+01 9.98150E+00 0.00000E+00
 -1       651 3.13740E+01 9.98150E+00 0.00000E+00
 -1       652 3.43740E+01 9.98150E+00 0.00000E+00
 -1       653 3.73740E+01 9.98150E+00 0.00000E+00
 -1       654 4.03740E+01 9.98150E+00 0.00000E+00
 -1       655 4.33740E+01 9.98150E+00 0.00000E+00
 -1       656 4.63740E+01 9.98150E+00 0.00000E+00
 -1       657 4.93740E+01 9.98150E+00 0.00000E+00
 -1       658 5.23740E+01 9.98150E+00 0.00000E+00
 -1       659 5.53740E+01 9.98150E+00 0.00000E+00
 -1       660 5.83740E+01 9.98150E+00 0.00000E+00
 -1       661 6.13740E+01 9.98150E+00 0.00000E+00
 -1       662 6.43740E+01 9.98150E+00 0.00000E+00
 -1       663 6.73740E+01 9.98150E+00 0.00000E+00
 -1       664 7.03740E+01 9.98150E+00 0.00000E+00
 -1       665 7.33740E+01 9.98150E+00 0.00000E+00
 -1       666 7.63740E+01 9.98150E+00 0.00000E+00
 -1       667 7.93740E+01 9.98150E+00 0.00000E+00
 -1       668 8.23740E+01 9.98150E+00 0.00000E+00
 -1       669 8.53740E+01 9.98150E+00 0.00000E+00
 -1       670 8.83740E+01 9.98150E+00 0.00000E+00
 -1       671 9.13740E+01 9.98150E+00 0.00000E+00
 -1       672 9.43740E+01 9.98150E+00 0.00000E+00
 -1       673 9.73740E+01 9.98150E+00 0.00000E+00
 -1       674 1.00374E+02 9.98150E+00 0.00000E+00
 -1       675 1.03374E+02 9.98150E+00 0.00000E+00
 -1       676 1.06374E+02 9.98150E+00 0.00000E+00
 -1       677 1.09374E+02 9.98150E+00 0.00000E+00
 -1       678 1.12374E+02 9.98150E+00 0.00000E+00
 -1       679 1.15374E+02 9.98150E+00 0.00000E+00
 -1       680 1.18374E+02 9.98150E+00 0.00000E+00
 -1       681 1.21374E+02 9.98150E+00 0.00000E+00
 -1       682 1.24374E+02 9.98150E+00 0.00000E+00
 -1       683 1.27374E+02 9.98150E+00 0.00000E+00
 -1       684 1.30374E+02 9.98150E+00 0.00000E+00
 -1       685 1.33374E+02 9.98150E+00 0.00000E+00
 -1       686 1.36374E+02 9.98150E+00 0.00000E+00
 -1       687 1.39290E+02 1.01532E+01 0.00000E+00
 -1       688 1.39608E+02 2.06000E+01 0.00000E+00
 -1       689 1.39290E+02 1.31032E+01 0.00000E+00
 -1       690 1.39608E+02 1.76500E+01 0.00000E+00
 -1       691 1.39608E+02 2.65000E+01 0.00000E+00
 -1       692 1.39608E+02 2.94000E+01 0.00000E+00
 -1       693 1.39608E+02 3.23500E+01 0.00000E+00
 -1       694 1.39608E+02 3.53000E+01 0.00000E+00
 -1       695 1.23307E+02 3.78324E+01 0.00000E+00
 -1       696 9.80569E+01 3.00172E+01 0.00000E+00
 -1       697 9.69830E+01 3.77487E+01 0.00000E+00
 -1       698 1.22128E+02 3.98374E+01 0.00000E+00
 -1       699 9.91918E+01 2.76864E+01 0.00000E+00
 -1       700 1.23831E+02 3.45146E+01 0.00000E+00
 -1       701 1.05458E+02 2.23485E+01 0.00000E+00
 -1       702 1.13777E+02 2.18061E+01 0.00000E+00
 -1       703 1.03288E+02 2.37206E+01 0.00000E+00
 -1       704 1.01142E+02 2.53472E+01 0.00000E+00
 -1       705 1.03920E+01 1.76125E+01 0.00000E+00
 -1       706 1.03920E+01 3.23250E+01 0.00000E+00
 -1       707 9.67718E+01 3.55704E+01 0.00000E+00
 -1       708 1.10577E+02 2.19085E+01 0.00000E+00
 -1       709 9.73795E+01 3.28961E+01 0.00000E+00
 -1       710 1.39608E+02 2.35500E+01 0.00000E+00
 -1       711 1.39449E+02 1.53766E+01 0.00000E+00
 -1       712 2.53740E+01 9.98150E+00 0.00000E+00
 -1       713 1.26000E+02 3.96530E+01 0.00000E+00
 -1       714 1.18278E+02 2.46330E+01 0.00000E+00
 -1       715 1.03920E+01 2.64500E+01 0.00000E+00
 -1       716 1.15425E+02 2.16441E+01 0.00000E+00
 -1       717 9.64356E+01 3.10744E+01 0.00000E+00
 -1       718 9.90562E+01 2.55106E+01 0.00000E+00
 -1       719 1.22725E+02 3.03032E+01 0.00000E+00
 -1       720 9.78035E+00 3.93914E+01 0.00000E+00
 -1       721 1.39849E+02 3.73758E+01 0.00000E+00
 -1       722 1.33741E+01 9.98153E+00 0.00000E+00
 -1       723 1.03920E+01 3.52625E+01 0.00000E+00
 -1       724 1.11994E+02 2.05316E+01 0.00000E+00
 -1       725 1.23278E+02 3.24089E+01 0.00000E+00
 -1       726 1.06743E+02 2.10732E+01 0.00000E+00
 -1       727 1.03920E+01 2.93875E+01 0.00000E+00
 -1       728 1.29900E+01 1.32000E+01 0.00000E+00
 -1       729 1.22437E+02 2.76768E+01 0.00000E+00
 -1       730 1.66500E+01 3.70100E+01 0.00000E+00
 -1       731 1.96500E+01 3.70100E+01 0.00000E+00
 -1       732 2.26500E+01 3.70100E+01 0.00000E+00
 -1       733 2.58000E+01 3.70100E+01 0.00000E+00
 -1       734 2.88000E+01 3.70100E+01 0.00000E+00
 -1       735 3.18000E+01 3.70100E+01 0.00000E+00
 -1       736 3.48000E+01 3.70100E+01 0.00000E+00
 -1       737 3.78000E+01 3.70100E+01 0.00000E+00
 -1       738 4.08000E+01 3.70100E+01 0.00000E+00
 -1       739 4.38000E+01 3.70100E+01 0.00000E+00
 -1       740 4.68000E+01 3.70100E+01 0.00000E+00
 -1       741 4.98000E+01 3.70100E+01 0.00000E+00
 -1       742 5.28000E+01 3.70100E+01 0.00000E+00
 -1       743 5.58000E+01 3.70100E+01 0.00000E+00
 -1       744 5.89500E+01 3.70100E+01 0.00000E+00
 -1       745 6.19500E+01 3.70100E+01 0.00000E+00
 -1       746 6.49500E+01 3.70100E+01 0.00000E+00
 -1       747 6.79500E+01 3.70100E+01 0.00000E+00
 -1       748 7.09500E+01 3.70100E+01 0.00000E+00
 -1       749 7.39500E+01 3.70100E+01 0.00000E+00
 -1       750 7.69500E+01 3.70100E+01 0.00000E+00
 -1       751 7.99500E+01 3.70100E+01 0.00000E+00
 -1       752 8.29500E+01 3.70100E+01 0.00000E+00
 -1       753 8.59500E+01 3.70100E+01 0.00000E+00
 -1       754 8.89500E+01 3.70100E+01 0.00000E+00
 -1       755 9.21000E+01 3.70100E+01 0.00000E+00
 -1       756 1.37010E+02 3.38250E+01 0.00000E+00
 -1       757 1.30500E+02 3.70550E+01 0.00000E+00
 -1       758 1.27500E+02 3.70550E+01 0.00000E+00
 -1       759 1.33500E+02 3.70550E+01 0.00000E+00
 -1       760 1.36500E+02 3.70550E+01 0.00000E+00
 -1       761 2.08740E+01 1.25795E+01 0.00000E+00
 -1       762 1.78740E+01 1.25795E+01 0.00000E+00
 -1       763 3.28740E+01 1.25795E+01 0.00000E+00
 -1       764 2.98740E+01 1.25795E+01 0.00000E+00
 -1       765 3.88740E+01 1.25795E+01 0.00000E+00
 -1       766 4.18740E+01 1.25795E+01 0.00000E+00
 -1       767 4.48740E+01 1.25795E+01 0.00000E+00
 -1       768 4.78740E+01 1.25795E+01 0.00000E+00
 -1       769 5.08740E+01 1.25795E+01 0.00000E+00
 -1       770 5.38740E+01 1.25795E+01 0.00000E+00
 -1       771 5.68740E+01 1.25795E+01 0.00000E+00
 -1       772 5.98740E+01 1.25795E+01 0.00000E+00
 -1       773 6.28740E+01 1.25795E+01 0.00000E+00
 -1       774 6.58740E+01 1.25795E+01 0.00000E+00
 -1       775 6.88740E+01 1.25795E+01 0.00000E+00
 -1       776 7.18740E+01 1.25795E+01 0.00000E+00
 -1       777 7.48740E+01 1.25795E+01 0.00000E+00
 -1       778 7.78740E+01 1.25795E+01 0.00000E+00
 -1       779 8.08740E+01 1.25795E+01 0.00000E+00
 -1       780 8.38740E+01 1.25795E+01 0.00000E+00
 -1       781 8.68740E+01 1.25795E+01 0.00000E+00
 -1       782 8.98740E+01 1.25795E+01 0.00000E+00
 -1       783 9.28740E+01 1.25795E+01 0.00000E+00
 -1       784 9.58740E+01 1.25795E+01 0.00000E+00
 -1       785 9.88740E+01 1.25795E+01 0.00000E+00
 -1       786 1.01874E+02 1.25795E+01 0.00000E+00
 -1       787 1.04874E+02 1.25795E+01 0.00000E+00
 -1       788 1.07874E+02 1.25795E+01 0.00000E+00
 -1       789 1.10874E+02 1.25795E+01 0.00000E+00
 -1       790 1.13874E+02 1.25795E+01 0.00000E+00
 -1       791 1.16874E+02 1.25795E+01 0.00000E+00
 -1       792 1.19874E+02 1.25795E+01 0.00000E+00
 -1       793 1.22874E+02 1.25795E+01 0.00000E+00
 -1       794 1.25874E+02 1.25795E+01 0.00000E+00
 -1       795 1.28874E+02 1.25795E+01 0.00000E+00
 -1       796 1.31874E+02 1.25795E+01 0.00000E+00
 -1       797 1.34874E+02 1.25795E+01 0.00000E+00
 -1       798 1.37082E+02 1.28414E+01 0.00000E+00
 -1       799 1.37010E+02 1.91250E+01 0.00000E+00
 -1       800 1.37010E+02 3.08750E+01 0.00000E+00
 -1       801 1.37010E+02 2.79750E+01 0.00000E+00
 -1       802 1.37010E+02 2.20750E+01 0.00000E+00
 -1       803 1.37010E+02 2.50250E+01 0.00000E+00
 -1       804 1.36500E+01 3.70100E+01 0.00000E+00
 -1       805 1.21122E+02 2.40627E+01 0.00000E+00
 -1       806 3.58740E+01 1.25795E+01 0.00000E+00
 -1       807 9.69317E+01 2.80276E+01 0.00000E+00
 -1       808 1.03367E+02 2.14434E+01 0.00000E+00
 -1       809 9.52398E+01 3.38160E+01 0.00000E+00
 -1       810 1.29900E+01 2.20250E+01 0.00000E+00
 -1       811 1.01078E+02 2.30334E+01 0.00000E+00
 -1       812 1.08912E+02 2.02998E+01 0.00000E+00
 -1       813 1.17926E+02 2.22277E+01 0.00000E+00
 -1       814 9.44359E+01 3.62902E+01 0.00000E+00
 -1       815 1.22907E+02 2.48150E+01 0.00000E+00
 -1       816 1.29900E+01 1.61375E+01 0.00000E+00
 -1       817 1.14367E+02 1.93512E+01 0.00000E+00
 -1       818 1.29900E+01 3.08563E+01 0.00000E+00
 -1       819 9.67961E+01 2.58517E+01 0.00000E+00
 -1       820 2.38740E+01 1.25795E+01 0.00000E+00
 -1       821 2.68740E+01 1.25795E+01 0.00000E+00
 -1       822 1.37241E+02 1.51147E+01 0.00000E+00
 -1       823 1.27144E+02 3.36488E+01 0.00000E+00
 -1       824 9.53104E+01 2.90847E+01 0.00000E+00
 -1       825 1.48741E+01 1.25795E+01 0.00000E+00
 -1       826 1.29900E+01 3.37938E+01 0.00000E+00
 -1       827 1.10330E+02 1.89228E+01 0.00000E+00
 -1       828 1.29900E+01 1.90875E+01 0.00000E+00
 -1       829 1.04652E+02 2.01681E+01 0.00000E+00
 -1       830 1.29900E+01 2.49750E+01 0.00000E+00
 -1       831 9.89924E+01 2.31967E+01 0.00000E+00
 -1       832 1.37126E+02 1.71199E+01 0.00000E+00
 -1       833 1.29900E+01 2.79188E+01 0.00000E+00
 -1       834 9.41120E+01 3.16925E+01 0.00000E+00
 -1       835 1.20795E+02 2.09312E+01 0.00000E+00
 -1       836 2.11500E+01 3.44120E+01 0.00000E+00
 -1       837 2.43000E+01 3.44120E+01 0.00000E+00
 -1       838 2.73000E+01 3.44120E+01 0.00000E+00
 -1       839 3.03000E+01 3.44120E+01 0.00000E+00
 -1       840 3.33000E+01 3.44120E+01 0.00000E+00
 -1       841 3.63000E+01 3.44120E+01 0.00000E+00
 -1       842 3.93000E+01 3.44120E+01 0.00000E+00
 -1       843 4.23000E+01 3.44120E+01 0.00000E+00
 -1       844 4.53000E+01 3.44120E+01 0.00000E+00
 -1       845 4.83000E+01 3.44120E+01 0.00000E+00
 -1       846 5.13000E+01 3.44120E+01 0.00000E+00
 -1       847 5.43000E+01 3.44120E+01 0.00000E+00
 -1       848 5.74500E+01 3.44120E+01 0.00000E+00
 -1       849 6.04500E+01 3.44120E+01 0.00000E+00
 -1       850 6.34500E+01 3.44120E+01 0.00000E+00
 -1       851 6.64500E+01 3.44120E+01 0.00000E+00
 -1       852 6.94500E+01 3.44120E+01 0.00000E+00
 -1       853 7.24500E+01 3.44120E+01 0.00000E+00
 -1       854 7.54500E+01 3.44120E+01 0.00000E+00
 -1       855 7.84500E+01 3.44120E+01 0.00000E+00
 -1       856 8.14500E+01 3.44120E+01 0.00000E+00
 -1       857 8.44500E+01 3.44120E+01 0.00000E+00
 -1       858 8.74500E+01 3.44120E+01 0.00000E+00
 -1       859 9.06000E+01 3.44120E+01 0.00000E+00
 -1       860 1.16868E+02 1.99348E+01 0.00000E+00
 -1       861 1.30144E+02 3.36488E+01 0.00000E+00
 -1       862 1.51500E+01 3.44120E+01 0.00000E+00
 -1       863 1.33144E+02 3.36488E+01 0.00000E+00
 -1       864 4.33740E+01 1.51775E+01 0.00000E+00
 -1       865 4.03740E+01 1.51775E+01 0.00000E+00
 -1       866 4.93740E+01 1.51775E+01 0.00000E+00
 -1       867 5.23740E+01 1.51775E+01 0.00000E+00
 -1       868 5.53740E+01 1.51775E+01 0.00000E+00
 -1       869 5.83740E+01 1.51775E+01 0.00000E+00
 -1       870 6.13740E+01 1.51775E+01 0.00000E+00
 -1       871 6.43740E+01 1.51775E+01 0.00000E+00
 -1       872 6.73740E+01 1.51775E+01 0.00000E+00
 -1       873 7.03740E+01 1.51775E+01 0.00000E+00
 -1       874 7.33740E+01 1.51775E+01 0.00000E+00
 -1       875 7.63740E+01 1.51775E+01 0.00000E+00
 -1       876 7.93740E+01 1.51775E+01 0.00000E+00
 -1       877 8.23740E+01 1.51775E+01 0.00000E+00
 -1       878 8.53740E+01 1.51775E+01 0.00000E+00
 -1       879 8.83740E+01 1.51775E+01 0.00000E+00
 -1       880 9.13740E+01 1.51775E+01 0.00000E+00
 -1       881 9.43740E+01 1.51775E+01 0.00000E+00
 -1       882 9.73740E+01 1.51775E+01 0.00000E+00
 -1       883 1.00374E+02 1.51775E+01 0.00000E+00
 -1       884 1.03374E+02 1.51775E+01 0.00000E+00
 -1       885 1.06374E+02 1.51775E+01 0.00000E+00
 -1       886 1.09374E+02 1.51775E+01 0.00000E+00
 -1       887 1.12374E+02 1.51775E+01 0.00000E+00
 -1       888 1.15374E+02 1.51775E+01 0.00000E+00
 -1       889 1.18374E+02 1.51775E+01 0.00000E+00
 -1       890 1.21374E+02 1.51775E+01 0.00000E+00
 -1       891 1.24374E+02 1.51775E+01 0.00000E+00
 -1       892 1.27374E+02 1.51775E+01 0.00000E+00
 -1       893 1.30374E+02 1.51775E+01 0.00000E+00
 -1       894 1.33374E+02 1.51775E+01 0.00000E+00
 -1       895 1.35307E+02 1.51461E+01 0.00000E+00
 -1       896 1.34412E+02 3.23500E+01 0.00000E+00
 -1       897 1.34412E+02 2.06000E+01 0.00000E+00
 -1       898 1.34412E+02 2.94500E+01 0.00000E+00
 -1       899 1.25888E+02 3.09170E+01 0.00000E+00
 -1       900 9.29199E+01 3.41140E+01 0.00000E+00
 -1       901 1.01053E+02 2.05546E+01 0.00000E+00
 -1       902 1.07083E+02 1.85974E+01 0.00000E+00
 -1       903 3.13740E+01 1.51775E+01 0.00000E+00
 -1       904 1.93740E+01 1.51775E+01 0.00000E+00
 -1       905 1.25600E+02 2.82906E+01 0.00000E+00
 -1       906 1.81500E+01 3.44120E+01 0.00000E+00
 -1       907 4.63740E+01 1.51775E+01 0.00000E+00
 -1       908 1.63741E+01 1.51775E+01 0.00000E+00
 -1       909 1.46820E+01 1.56575E+01 0.00000E+00
 -1       910 1.34412E+02 2.35500E+01 0.00000E+00
 -1       911 1.22580E+02 2.16835E+01 0.00000E+00
 -1       912 1.26070E+02 2.54287E+01 0.00000E+00
 -1       913 1.02338E+02 1.92793E+01 0.00000E+00
 -1       914 1.16208E+02 1.71130E+01 0.00000E+00
 -1       915 9.67323E+01 2.35379E+01 0.00000E+00
 -1       916 1.28888E+02 3.09170E+01 0.00000E+00
 -1       917 1.51500E+01 3.14745E+01 0.00000E+00
 -1       918 1.51500E+01 2.85370E+01 0.00000E+00
 -1       919 2.83740E+01 1.51775E+01 0.00000E+00
 -1       920 3.73740E+01 1.51775E+01 0.00000E+00
 -1       921 1.34527E+02 1.85949E+01 0.00000E+00
 -1       922 9.51747E+01 2.69089E+01 0.00000E+00
 -1       923 1.34412E+02 2.65000E+01 0.00000E+00
 -1       924 3.43740E+01 1.51775E+01 0.00000E+00
 -1       925 2.23740E+01 1.51775E+01 0.00000E+00
 -1       926 1.12119E+02 1.78056E+01 0.00000E+00
 -1       927 9.89670E+01 2.07180E+01 0.00000E+00
 -1       928 1.55880E+01 2.35000E+01 0.00000E+00
 -1       929 1.55880E+01 2.05625E+01 0.00000E+00
 -1       930 2.27250E+01 3.18140E+01 0.00000E+00
 -1       931 2.57250E+01 3.18140E+01 0.00000E+00
 -1       932 2.87250E+01 3.18140E+01 0.00000E+00
 -1       933 3.17250E+01 3.18140E+01 0.00000E+00
 -1       934 3.47250E+01 3.18140E+01 0.00000E+00
 -1       935 3.77250E+01 3.18140E+01 0.00000E+00
 -1       936 4.07250E+01 3.18140E+01 0.00000E+00
 -1       937 4.37250E+01 3.18140E+01 0.00000E+00
 -1       938 4.67250E+01 3.18140E+01 0.00000E+00
 -1       939 4.97250E+01 3.18140E+01 0.00000E+00
 -1       940 5.27250E+01 3.18140E+01 0.00000E+00
 -1       941 5.58750E+01 3.18140E+01 0.00000E+00
 -1       942 5.88750E+01 3.18140E+01 0.00000E+00
 -1       943 6.18750E+01 3.18140E+01 0.00000E+00
 -1       944 6.48750E+01 3.18140E+01 0.00000E+00
 -1       945 6.78750E+01 3.18140E+01 0.00000E+00
 -1       946 7.08750E+01 3.18140E+01 0.00000E+00
 -1       947 7.38750E+01 3.18140E+01 0.00000E+00
 -1       948 7.68750E+01 3.18140E+01 0.00000E+00
 -1       949 7.98750E+01 3.18140E+01 0.00000E+00
 -1       950 8.28750E+01 3.18140E+01 0.00000E+00
 -1       951 8.58750E+01 3.18140E+01 0.00000E+00
 -1       952 8.90250E+01 3.18140E+01 0.00000E+00
 -1       953 4.18740E+01 1.77755E+01 0.00000E+00
 -1       954 1.78740E+01 1.77755E+01 0.00000E+00
 -1       955 2.53740E+01 1.51775E+01 0.00000E+00
 -1       956 5.38740E+01 1.77755E+01 0.00000E+00
 -1       957 5.08740E+01 1.77755E+01 0.00000E+00
 -1       958 5.98740E+01 1.77755E+01 0.00000E+00
 -1       959 6.28740E+01 1.77755E+01 0.00000E+00
 -1       960 6.58740E+01 1.77755E+01 0.00000E+00
 -1       961 6.88740E+01 1.77755E+01 0.00000E+00
 -1       962 7.18740E+01 1.77755E+01 0.00000E+00
 -1       963 7.48740E+01 1.77755E+01 0.00000E+00
 -1       964 7.78740E+01 1.77755E+01 0.00000E+00
 -1       965 8.08740E+01 1.77755E+01 0.00000E+00
 -1       966 8.38740E+01 1.77755E+01 0.00000E+00
 -1       967 8.68740E+01 1.77755E+01 0.00000E+00
 -1       968 8.98740E+01 1.77755E+01 0.00000E+00
 -1       969 9.28740E+01 1.77755E+01 0.00000E+00
 -1       970 9.58740E+01 1.77755E+01 0.00000E+00
 -1       971 9.88740E+01 1.77755E+01 0.00000E+00
 -1       972 1.19874E+02 1.77755E+01 0.00000E+00
 -1       973 1.22874E+02 1.77755E+01 0.00000E+00
 -1       974 1.25874E+02 1.77755E+01 0.00000E+00
 -1       975 1.28874E+02 1.77755E+01 0.00000E+00
 -1       976 1.31874E+02 1.77755E+01 0.00000E+00
 -1       977 1.53690E+01 2.60185E+01 0.00000E+00
 -1       978 9.16765E+01 3.19977E+01 0.00000E+00
 -1       979 1.28600E+02 2.82906E+01 0.00000E+00
 -1       980 1.51350E+01 1.81100E+01 0.00000E+00
 -1       981 9.28749E+01 2.93899E+01 0.00000E+00
 -1       982 5.68740E+01 1.77755E+01 0.00000E+00
 -1       983 1.97250E+01 3.18140E+01 0.00000E+00
 -1       984 9.51109E+01 2.45951E+01 0.00000E+00
 -1       985 1.25743E+02 2.22973E+01 0.00000E+00
 -1       986 1.00252E+02 1.94427E+01 0.00000E+00
 -1       987 2.08740E+01 1.77755E+01 0.00000E+00
 -1       988 9.67068E+01 2.10591E+01 0.00000E+00
 -1       989 4.48740E+01 1.77755E+01 0.00000E+00
 -1       990 1.31814E+02 2.20750E+01 0.00000E+00
 -1       991 2.98740E+01 1.77755E+01 0.00000E+00
 -1       992 3.88740E+01 1.77755E+01 0.00000E+00
 -1       993 1.31814E+02 3.09000E+01 0.00000E+00
 -1       994 4.78740E+01 1.77755E+01 0.00000E+00
 -1       995 1.04229E+02 1.74057E+01 0.00000E+00
 -1       996 1.31758E+02 1.97806E+01 0.00000E+00
 -1       997 1.75470E+01 2.89163E+01 0.00000E+00
 -1       998 9.27392E+01 2.72141E+01 0.00000E+00
 -1       999 1.31814E+02 2.79500E+01 0.00000E+00
 -1      1000 1.80667E+01 2.49843E+01 0.00000E+00
 -1      1001 3.28740E+01 1.77755E+01 0.00000E+00
 -1      1002 1.80667E+01 2.20468E+01 0.00000E+00
 -1      1003 2.72250E+01 2.92160E+01 0.00000E+00
 -1      1004 3.02250E+01 2.92160E+01 0.00000E+00
 -1      1005 3.32250E+01 2.92160E+01 0.00000E+00
 -1      1006 3.62250E+01 2.92160E+01 0.00000E+00
 -1      1007 3.92250E+01 2.92160E+01 0.00000E+00
 -1      1008 4.22250E+01 2.92160E+01 0.00000E+00
 -1      1009 4.52250E+01 2.92160E+01 0.00000E+00
 -1      1010 4.82250E+01 2.92160E+01 0.00000E+00
 -1      1011 5.12250E+01 2.92160E+01 0.00000E+00
 -1      1012 5.43750E+01 2.92160E+01 0.00000E+00
 -1      1013 5.73750E+01 2.92160E+01 0.00000E+00
 -1      1014 6.03750E+01 2.92160E+01 0.00000E+00
 -1      1015 6.33750E+01 2.92160E+01 0.00000E+00
 -1      1016 6.63750E+01 2.92160E+01 0.00000E+00
 -1      1017 6.93750E+01 2.92160E+01 0.00000E+00
 -1      1018 7.23750E+01 2.92160E+01 0.00000E+00
 -1      1019 7.53750E+01 2.92160E+01 0.00000E+00
 -1      1020 7.83750E+01 2.92160E+01 0.00000E+00
 -1      1021 8.13750E+01 2.92160E+01 0.00000E+00
 -1      1022 8.43750E+01 2.92160E+01 0.00000E+00
 -1      1023 8.75250E+01 2.92160E+01 0.00000E+00
 -1      1024 1.29282E+02 2.51390E+01 0.00000E+00
 -1      1025 5.23740E+01 2.03735E+01 0.00000E+00
 -1      1026 1.25809E+02 2.00364E+01 0.00000E+00
 -1      1027 6.43740E+01 2.03735E+01 0.00000E+00
 -1      1028 6.13740E+01 2.03735E+01 0.00000E+00
 -1      1029 7.03740E+01 2.03735E+01 0.00000E+00
 -1      1030 7.33740E+01 2.03735E+01 0.00000E+00
 -1      1031 7.63740E+01 2.03735E+01 0.00000E+00
 -1      1032 7.93740E+01 2.03735E+01 0.00000E+00
 -1      1033 8.23740E+01 2.03735E+01 0.00000E+00
 -1      1034 8.53740E+01 2.03735E+01 0.00000E+00
 -1      1035 8.83740E+01 2.03735E+01 0.00000E+00
 -1      1036 9.13740E+01 2.03735E+01 0.00000E+00
 -1      1037 2.12250E+01 2.92160E+01 0.00000E+00
 -1      1038 1.28784E+02 1.99085E+01 0.00000E+00
 -1      1039 6.73740E+01 2.03735E+01 0.00000E+00
 -1      1040 3.58740E+01 1.77755E+01 0.00000E+00
 -1      1041 5.53740E+01 2.03735E+01 0.00000E+00
 -1      1042 9.01999E+01 2.93030E+01 0.00000E+00
 -1      1043 5.83740E+01 2.03735E+01 0.00000E+00
 -1      1044 2.68740E+01 1.77755E+01 0.00000E+00
 -1      1045 1.31814E+02 2.50125E+01 0.00000E+00
 -1      1046 2.42250E+01 2.92160E+01 0.00000E+00
 -1      1047 4.93740E+01 2.03735E+01 0.00000E+00
 -1      1048 9.50855E+01 2.21163E+01 0.00000E+00
 -1      1049 4.03740E+01 2.03735E+01 0.00000E+00
 -1      1050 2.83740E+01 2.03735E+01 0.00000E+00
 -1      1051 2.38740E+01 1.77755E+01 0.00000E+00
 -1      1052 2.06647E+01 2.35156E+01 0.00000E+00
 -1      1053 9.39798E+01 1.99459E+01 0.00000E+00
 -1      1054 1.28811E+02 2.25244E+01 0.00000E+00
 -1      1055 3.13740E+01 2.03735E+01 0.00000E+00
 -1      1056 2.09449E+01 2.63658E+01 0.00000E+00
 -1      1057 9.26755E+01 2.49003E+01 0.00000E+00
 -1      1058 4.33740E+01 2.03735E+01 0.00000E+00
 -1      1059 3.17250E+01 2.66180E+01 0.00000E+00
 -1      1060 3.47250E+01 2.66180E+01 0.00000E+00
 -1      1061 3.77250E+01 2.66180E+01 0.00000E+00
 -1      1062 4.07250E+01 2.66180E+01 0.00000E+00
 -1      1063 4.37250E+01 2.66180E+01 0.00000E+00
 -1      1064 4.67250E+01 2.66180E+01 0.00000E+00
 -1      1065 4.97250E+01 2.66180E+01 0.00000E+00
 -1      1066 5.28750E+01 2.66180E+01 0.00000E+00
 -1      1067 5.58750E+01 2.66180E+01 0.00000E+00
 -1      1068 5.88750E+01 2.66180E+01 0.00000E+00
 -1      1069 6.18750E+01 2.66180E+01 0.00000E+00
 -1      1070 6.48750E+01 2.66180E+01 0.00000E+00
 -1      1071 6.78750E+01 2.66180E+01 0.00000E+00
 -1      1072 7.08750E+01 2.66180E+01 0.00000E+00
 -1      1073 7.38750E+01 2.66180E+01 0.00000E+00
 -1      1074 7.68750E+01 2.66180E+01 0.00000E+00
 -1      1075 7.98750E+01 2.66180E+01 0.00000E+00
 -1      1076 8.28750E+01 2.66180E+01 0.00000E+00
 -1      1077 8.60250E+01 2.66180E+01 0.00000E+00
 -1      1078 4.63740E+01 2.03735E+01 0.00000E+00
 -1      1079 6.58740E+01 2.29715E+01 0.00000E+00
 -1      1080 3.73740E+01 2.03735E+01 0.00000E+00
 -1      1081 2.57250E+01 2.66180E+01 0.00000E+00
 -1      1082 3.43740E+01 2.03735E+01 0.00000E+00
 -1      1083 5.38740E+01 2.29715E+01 0.00000E+00
 -1      1084 2.53740E+01 2.03735E+01 0.00000E+00
 -1      1085 6.28740E+01 2.29715E+01 0.00000E+00
 -1      1086 7.48740E+01 2.29715E+01 0.00000E+00
 -1      1087 7.18740E+01 2.29715E+01 0.00000E+00
 -1      1088 8.08740E+01 2.29715E+01 0.00000E+00
 -1      1089 8.38740E+01 2.29715E+01 0.00000E+00
 -1      1090 8.68740E+01 2.29715E+01 0.00000E+00
 -1      1091 8.98740E+01 2.29715E+01 0.00000E+00
 -1      1092 9.24798E+01 2.25439E+01 0.00000E+00
 -1      1093 7.78740E+01 2.29715E+01 0.00000E+00
 -1      1094 6.88740E+01 2.29715E+01 0.00000E+00
 -1      1095 5.68740E+01 2.29715E+01 0.00000E+00
 -1      1096 8.86999E+01 2.67050E+01 0.00000E+00
 -1      1097 5.98740E+01 2.29715E+01 0.00000E+00
 -1      1098 2.33349E+01 2.64919E+01 0.00000E+00
 -1      1099 2.22694E+01 2.06455E+01 0.00000E+00
 -1      1100 2.87250E+01 2.66180E+01 0.00000E+00
 -1      1101 3.88740E+01 2.29715E+01 0.00000E+00
 -1      1102 2.37347E+01 2.33484E+01 0.00000E+00
 -1      1103 2.68740E+01 2.29715E+01 0.00000E+00
 -1      1104 2.98740E+01 2.29715E+01 0.00000E+00
 -1      1105 4.18740E+01 2.29715E+01 0.00000E+00
 -1      1106 5.08740E+01 2.29715E+01 0.00000E+00
 -1      1107 3.62250E+01 2.40200E+01 0.00000E+00
 -1      1108 4.82250E+01 2.40200E+01 0.00000E+00
 -1      1109 4.50495E+01 2.34958E+01 0.00000E+00
 -1      1110 3.30495E+01 2.34958E+01 0.00000E+00
 -1      1111 0.00000E+00 4.85250E+01 0.00000E+00
 -1      1112 0.00000E+00 4.55750E+01 0.00000E+00
 -1      1113 0.00000E+00 4.26250E+01 0.00000E+00
 -1      1114 0.00000E+00 3.96750E+01 0.00000E+00
 -1      1115 0.00000E+00 3.67250E+01 0.00000E+00
 -1      1116 0.00000E+00 3.38000E+01 0.00000E+00
 -1      1117 0.00000E+00 3.08750E+01 0.00000E+00
 -1      1118 0.00000E+00 2.79250E+01 0.00000E+00
 -1      1119 0.00000E+00 2.49750E+01 0.00000E+00
 -1      1120 0.00000E+00 2.20250E+01 0.00000E+00
 -1      1121 0.00000E+00 1.90750E+01 0.00000E+00
 -1      1122 0.00000E+00 1.61500E+01 0.00000E+00
 -1      1123 0.00000E+00 1.32250E+01 0.00000E+00
 -1      1124 0.00000E+00 1.02750E+01 0.00000E+00
 -1      1125 0.00000E+00 7.32500E+00 0.00000E+00
 -1      1126 0.00000E+00 4.37500E+00 0.00000E+00
 -1      1127 0.00000E+00 1.45000E+00 0.00000E+00
 -1      1128 1.57500E+00 5.00000E+01 0.00000E+00
 -1      1129 4.65000E+00 5.00000E+01 0.00000E+00
 -1      1130 7.65000E+00 5.00000E+01 0.00000E+00
 -1      1131 1.06500E+01 5.00000E+01 0.00000E+00
 -1      1132 1.36500E+01 5.00000E+01 0.00000E+00
 -1      1133 1.66500E+01 5.00000E+01 0.00000E+00
 -1      1134 1.96500E+01 5.00000E+01 0.00000E+00
 -1      1135 2.26500E+01 5.00000E+01 0.00000E+00
 -1      1136 2.56500E+01 5.00000E+01 0.00000E+00
 -1      1137 2.86500E+01 5.00000E+01 0.00000E+00
 -1      1138 3.17250E+01 5.00000E+01 0.00000E+00
 -1      1139 3.48000E+01 5.00000E+01 0.00000E+00
 -1      1140 3.78000E+01 5.00000E+01 0.00000E+00
 -1      1141 4.08000E+01 5.00000E+01 0.00000E+00
 -1      1142 4.38000E+01 5.00000E+01 0.00000E+00
 -1      1143 4.68000E+01 5.00000E+01 0.00000E+00
 -1      1144 4.98000E+01 5.00000E+01 0.00000E+00
 -1      1145 5.28000E+01 5.00000E+01 0.00000E+00
 -1      1146 5.58000E+01 5.00000E+01 0.00000E+00
 -1      1147 5.88000E+01 5.00000E+01 0.00000E+00
 -1      1148 6.18000E+01 5.00000E+01 0.00000E+00
 -1      1149 6.48750E+01 5.00000E+01 0.00000E+00
 -1      1150 6.79500E+01 5.00000E+01 0.00000E+00
 -1      1151 7.09500E+01 5.00000E+01 0.00000E+00
 -1      1152 7.39500E+01 5.00000E+01 0.00000E+00
 -1      1153 7.69500E+01 5.00000E+01 0.00000E+00
 -1      1154 7.99500E+01 5.00000E+01 0.00000E+00
 -1      1155 8.29500E+01 5.00000E+01 0.00000E+00
 -1      1156 8.59500E+01 5.00000E+01 0.00000E+00
 -1      1157 8.89500E+01 5.00000E+01 0.00000E+00
 -1      1158 9.19500E+01 5.00000E+01 0.00000E+00
 -1      1159 9.49500E+01 5.00000E+01 0.00000E+00
 -1      1160 9.80250E+01 5.00000E+01 0.00000E+00
 -1      1161 1.01100E+02 5.00000E+01 0.00000E+00
 -1      1162 1.04100E+02 5.00000E+01 0.00000E+00
 -1      1163 1.06875E+02 5.00000E+01 0.00000E+00
 -1      1164 1.09575E+02 5.00000E+01 0.00000E+00
 -1      1165 1.12425E+02 5.00000E+01 0.00000E+00
 -1      1166 1.15350E+02 5.00000E+01 0.00000E+00
 -1      1167 1.18425E+02 5.00000E+01 0.00000E+00
 -1      1168 1.21500E+02 5.00000E+01 0.00000E+00
 -1      1169 1.24500E+02 5.00000E+01 0.00000E+00
 -1      1170 1.27500E+02 5.00000E+01 0.00000E+00
 -1      1171 1.30500E+02 5.00000E+01 0.00000E+00
 -1      1172 1.33500E+02 5.00000E+01 0.00000E+00
 -1      1173 1.36500E+02 5.00000E+01 0.00000E+00
 -1      1174 1.39500E+02 5.00000E+01 0.00000E+00
 -1      1175 1.42500E+02 5.00000E+01 0.00000E+00
 -1      1176 1.45500E+02 5.00000E+01 0.00000E+00
 -1      1177 1.48500E+02 5.00000E+01 0.00000E+00
 -1      1178 1.57500E+00 0.00000E+00 0.00000E+00
 -1      1179 4.65000E+00 0.00000E+00 0.00000E+00
 -1      1180 7.65000E+00 0.00000E+00 0.00000E+00
 -1      1181 1.06500E+01 0.00000E+00 0.00000E+00
 -1      1182 1.36500E+01 0.00000E+00 0.00000E+00
 -1      1183 1.66500E+01 0.00000E+00 0.00000E+00
 -1      1184 1.96500E+01 0.00000E+00 0.00000E+00
 -1      1185 2.26500E+01 0.00000E+00 0.00000E+00
 -1      1186 2.56500E+01 0.00000E+00 0.00000E+00
 -1      1187 2.86500E+01 0.00000E+00 0.00000E+00
 -1      1188 3.16500E+01 0.00000E+00 0.00000E+00
 -1      1189 3.46500E+01 0.00000E+00 0.00000E+00
 -1      1190 3.76500E+01 0.00000E+00 0.00000E+00
 -1      1191 4.06500E+01 0.00000E+00 0.00000E+00
 -1      1192 4.36500E+01 0.00000E+00 0.00000E+00
 -1      1193 4.66500E+01 0.00000E+00 0.00000E+00
 -1      1194 4.96500E+01 0.00000E+00 0.00000E+00
 -1      1195 5.26500E+01 0.00000E+00 0.00000E+00
 -1      1196 5.56500E+01 0.00000E+00 0.00000E+00
 -1      1197 5.86500E+01 0.00000E+00 0.00000E+00
 -1      1198 6.16500E+01 0.00000E+00 0.00000E+00
 -1      1199 6.46500E+01 0.00000E+00 0.00000E+00
 -1      1200 6.76500E+01 0.00000E+00 0.00000E+00
 -1      1201 7.06500E+01 0.00000E+00 0.00000E+00
 -1      1202 7.36500E+01 0.00000E+00 0.00000E+00
 -1      1203 7.66500E+01 0.00000E+00 0.00000E+00
 -1      1204 7.96500E+01 0.00000E+00 0.00000E+00
 -1      1205 8.26500E+01 0.00000E+00 0.00000E+00
 -1      1206 8.56500E+01 0.00000E+00 0.00000E+00
 -1      1207 8.86500E+01 0.00000E+00 0.00000E+00
 -1      1208 9.16500E+01 0.00000E+00 0.00000E+00
 -1      1209 9.46500E+01 0.00000E+00 0.00000E+00
 -1      1210 9.76500E+01 0.00000E+00 0.00000E+00
 -1      1211 1.00650E+02 0.00000E+00 0.00000E+00
 -1      1212 1.03650E+02 0.00000E+00 0.00000E+00
 -1      1213 1.06650E+02 0.00000E+00 0.00000E+00
 -1      1214 1.09650E+02 0.00000E+00 0.00000E+00
 -1      1215 1.12650E+02 0.00000E+00 0.00000E+00
 -1      1216 1.15650E+02 0.00000E+00 0.00000E+00
 -1      1217 1.18650E+02 0.00000E+00 0.00000E+00
 -1      1218 1.21650E+02 0.00000E+00 0.00000E+00
 -1      1219 1.24650E+02 0.00000E+00 0.00000E+00
 -1      1220 1.27650E+02 0.00000E+00 0.00000E+00
 -1      1221 1.30650E+02 0.00000E+00 0.00000E+00
 -1      1222 1.33650E+02 0.00000E+00 0.00000E+00
 -1      1223 1.36650E+02 0.00000E+00 0.00000E+00
 -1      1224 1.39650E+02 0.00000E+00 0.00000E+00
 -1      1225 1.42650E+02 0.00000E+00 0.00000E+00
 -1      1226 1.45650E+02 0.00000E+00 0.00000E+00
 -1      1227 1.48575E+02 0.00000E+00 0.00000E+00
 -1      1228 1.50000E+02 1.47500E+00 0.00000E+00
 -1      1229 1.50000E+02 4.42500E+00 0.00000E+00
 -1      1230 1.50000E+02 7.37500E+00 0.00000E+00
 -1      1231 1.50000E+02 1.03250E+01 0.00000E+00
 -1      1232 1.50000E+02 1.32750E+01 0.00000E+00
 -1      1233 1.50000E+02 1.62000E+01 0.00000E+00
 -1      1234 1.50000E+02 1.91250E+01 0.00000E+00
 -1      1235 1.50000E+02 2.20750E+01 0.00000E+00
 -1      1236 1.50000E+02 2.50250E+01 0.00000E+00
 -1      1237 1.50000E+02 2.79750E+01 0.00000E+00
 -1      1238 1.50000E+02 3.09250E+01 0.00000E+00
 -1      1239 1.50000E+02 3.38500E+01 0.00000E+00
 -1      1240 1.50000E+02 3.67750E+01 0.00000E+00
 -1      1241 1.50000E+02 3.97250E+01 0.00000E+00
 -1      1242 1.50000E+02 4.26750E+01 0.00000E+00
 -1      1243 1.50000E+02 4.56250E+01 0.00000E+00
 -1      1244 1.50000E+02 4.85500E+01 0.00000E+00
 -1      1245 1.17018E+02 3.39380E+01 0.00000E+00
 -1      1246 1.16678E+02 3.24105E+01 0.00000E+00
 -1      1247 1.16027E+02 3.10316E+01 0.00000E+00
 -1      1248 1.15171E+02 2.99074E+01 0.00000E+00
 -1      1249 1.14025E+02 2.89208E+01 0.00000E+00
 -1      1250 1.12700E+02 2.82062E+01 0.00000E+00
 -1      1251 1.11310E+02 2.78017E+01 0.00000E+00
 -1      1252 1.09760E+02 2.76954E+01 0.00000E+00
 -1      1253 1.08254E+02 2.79255E+01 0.00000E+00
 -1      1254 1.06929E+02 2.84278E+01 0.00000E+00
 -1      1255 1.05716E+02 2.91990E+01 0.00000E+00
 -1      1256 1.04660E+02 3.02328E+01 0.00000E+00
 -1      1257 1.03822E+02 3.15109E+01 0.00000E+00
 -1      1258 1.03294E+02 3.28903E+01 0.00000E+00
 -1      1259 1.03070E+02 3.42942E+01 0.00000E+00
 -1      1260 1.03140E+02 3.57510E+01 0.00000E+00
 -1      1261 1.03519E+02 3.71839E+01 0.00000E+00
 -1      1262 1.04186E+02 3.84976E+01 0.00000E+00
 -1      1263 1.05140E+02 3.96697E+01 0.00000E+00
 -1      1264 1.06321E+02 4.06077E+01 0.00000E+00
 -1      1265 1.07680E+02 4.12724E+01 0.00000E+00
 -1      1266 1.09175E+02 4.16330E+01 0.00000E+00
 -1      1267 1.10672E+02 4.16620E+01 0.00000E+00
 -1      1268 1.12077E+02 4.13916E+01 0.00000E+00
 -1      1269 1.13356E+02 4.08636E+01 0.00000E+00
 -1      1270 1.14496E+02 4.01031E+01 0.00000E+00
 -1      1271 1.15446E+02 3.91584E+01 0.00000E+00
 -1      1272 1.16212E+02 3.80261E+01 0.00000E+00
 -1      1273 1.16749E+02 3.67486E+01 0.00000E+00
 -1      1274 1.17024E+02 3.53816E+01 0.00000E+00
 -1      1275 1.57500E+00 4.85250E+01 0.00000E+00
 -1      1276 1.29900E+00 4.48375E+01 0.00000E+00
 -1      1277 1.29900E+00 4.63125E+01 0.00000E+00
 -1      1278 1.29900E+00 4.18875E+01 0.00000E+00
 -1      1279 1.29900E+00 4.33625E+01 0.00000E+00
 -1      1280 2.59800E+00 4.41000E+01 0.00000E+00
 -1      1281 1.29900E+00 3.89375E+01 0.00000E+00
 -1      1282 1.29900E+00 4.04125E+01 0.00000E+00
 -1      1283 2.59800E+00 4.11500E+01 0.00000E+00
 -1      1284 1.29900E+00 3.59875E+01 0.00000E+00
 -1      1285 1.29900E+00 3.74625E+01 0.00000E+00
 -1      1286 2.59800E+00 3.82000E+01 0.00000E+00
 -1      1287 1.29900E+00 3.30875E+01 0.00000E+00
 -1      1288 1.29900E+00 3.45375E+01 0.00000E+00
 -1      1289 2.59800E+00 3.52750E+01 0.00000E+00
 -1      1290 1.29900E+00 3.01375E+01 0.00000E+00
 -1      1291 1.29900E+00 3.16125E+01 0.00000E+00
 -1      1292 2.59800E+00 3.23500E+01 0.00000E+00
 -1      1293 1.29900E+00 2.71875E+01 0.00000E+00
 -1      1294 1.29900E+00 2.86625E+01 0.00000E+00
 -1      1295 2.59800E+00 2.94000E+01 0.00000E+00
 -1      1296 1.29900E+00 2.42375E+01 0.00000E+00
 -1      1297 1.29900E+00 2.57125E+01 0.00000E+00
 -1      1298 2.59800E+00 2.64500E+01 0.00000E+00
 -1      1299 1.29900E+00 2.12875E+01 0.00000E+00
 -1      1300 1.29900E+00 2.27625E+01 0.00000E+00
 -1      1301 2.59800E+00 2.35000E+01 0.00000E+00
 -1      1302 1.29900E+00 1.83375E+01 0.00000E+00
 -1      1303 1.29900E+00 1.98125E+01 0.00000E+00
 -1      1304 2.59800E+00 2.05500E+01 0.00000E+00
 -1      1305 1.29900E+00 1.54375E+01 0.00000E+00
 -1      1306 1.29900E+00 1.68875E+01 0.00000E+00
 -1      1307 2.59800E+00 1.76250E+01 0.00000E+00
 -1      1308 1.29900E+00 1.24875E+01 0.00000E+00
 -1      1309 1.29900E+00 1.39625E+01 0.00000E+00
 -1      1310 2.59800E+00 1.47000E+01 0.00000E+00
 -1      1311 1.29900E+00 9.53750E+00 0.00000E+00
 -1      1312 1.29900E+00 1.10125E+01 0.00000E+00
 -1      1313 2.59800E+00 1.17500E+01 0.00000E+00
 -1      1314 1.29900E+00 6.58750E+00 0.00000E+00
 -1      1315 1.29900E+00 8.06250E+00 0.00000E+00
 -1      1316 2.59800E+00 8.80000E+00 0.00000E+00
 -1      1317 1.29900E+00 3.63750E+00 0.00000E+00
 -1      1318 1.29900E+00 5.11250E+00 0.00000E+00
 -1      1319 2.59800E+00 5.85000E+00 0.00000E+00
 -1      1320 1.43700E+00 1.09375E+00 0.00000E+00
 -1      1321 1.43700E+00 2.54375E+00 0.00000E+00
 -1      1322 2.73600E+00 3.28125E+00 0.00000E+00
 -1      1323 3.01200E+00 1.09375E+00 0.00000E+00
 -1      1324 3.90000E+00 4.87010E+01 0.00000E+00
 -1      1325 5.40000E+00 4.87010E+01 0.00000E+00
 -1      1326 6.90000E+00 4.87010E+01 0.00000E+00
 -1      1327 8.40000E+00 4.87010E+01 0.00000E+00
 -1      1328 6.15000E+00 4.74020E+01 0.00000E+00
 -1      1329 9.90000E+00 4.87010E+01 0.00000E+00
 -1      1330 1.14000E+01 4.87010E+01 0.00000E+00
 -1      1331 9.15000E+00 4.74020E+01 0.00000E+00
 -1      1332 1.29000E+01 4.87010E+01 0.00000E+00
 -1      1333 1.44000E+01 4.87010E+01 0.00000E+00
 -1      1334 1.21500E+01 4.74020E+01 0.00000E+00
 -1      1335 1.59000E+01 4.87010E+01 0.00000E+00
 -1      1336 1.74000E+01 4.87010E+01 0.00000E+00
 -1      1337 1.51500E+01 4.74020E+01 0.00000E+00
 -1      1338 1.89000E+01 4.87010E+01 0.00000E+00
 -1      1339 2.04000E+01 4.87010E+01 0.00000E+00
 -1      1340 1.81500E+01 4.74020E+01 0.00000E+00
 -1      1341 2.19000E+01 4.87010E+01 0.00000E+00
 -1      1342 2.34000E+01 4.87010E+01 0.00000E+00
 -1      1343 2.11500E+01 4.74020E+01 0.00000E+00
 -1      1344 2.49000E+01 4.87010E+01 0.00000E+00
 -1      1345 2.64000E+01 4.87010E+01 0.00000E+00
 -1      1346 2.41500E+01 4.74020E+01 0.00000E+00
 -1      1347 2.79000E+01 4.87010E+01 0.00000E+00
 -1      1348 2.94000E+01 4.87010E+01 0.00000E+00
 -1      1349 2.71500E+01 4.74020E+01 0.00000E+00
 -1      1350 3.09750E+01 4.87010E+01 0.00000E+00
 -1      1351 3.25500E+01 4.87010E+01 0.00000E+00
 -1      1352 3.02250E+01 4.74020E+01 0.00000E+00
 -1      1353 3.40500E+01 4.87010E+01 0.00000E+00
 -1      1354 3.55500E+01 4.87010E+01 0.00000E+00
 -1      1355 3.33000E+01 4.74020E+01 0.00000E+00
 -1      1356 3.70500E+01 4.87010E+01 0.00000E+00
 -1      1357 3.85500E+01 4.87010E+01 0.00000E+00
 -1      1358 3.63000E+01 4.74020E+01 0.00000E+00
 -1      1359 4.00500E+01 4.87010E+01 0.00000E+00
 -1      1360 4.15500E+01 4.87010E+01 0.00000E+00
 -1      1361 3.93000E+01 4.74020E+01 0.00000E+00
 -1      1362 4.30500E+01 4.87010E+01 0.00000E+00
 -1      1363 4.45500E+01 4.87010E+01 0.00000E+00
 -1      1364 4.23000E+01 4.74020E+01 0.00000E+00
 -1      1365 4.60500E+01 4.87010E+01 0.00000E+00
 -1      1366 4.75500E+01 4.87010E+01 0.00000E+00
 -1      1367 4.53000E+01 4.74020E+01 0.00000E+00
 -1      1368 4.90500E+01 4.87010E+01 0.00000E+00
 -1      1369 5.05500E+01 4.87010E+01 0.00000E+00
 -1      1370 4.83000E+01 4.74020E+01 0.00000E+00
 -1      1371 5.20500E+01 4.87010E+01 0.00000E+00
 -1      1372 5.35500E+01 4.87010E+01 0.00000E+00
 -1      1373 5.13000E+01 4.74020E+01 0.00000E+00
 -1      1374 5.50500E+01 4.87010E+01 0.00000E+00
 -1      1375 5.65500E+01 4.87010E+01 0.00000E+00
 -1      1376 5.43000E+01 4.74020E+01 0.00000E+00
 -1      1377 5.80500E+01 4.87010E+01 0.00000E+00
 -1      1378 5.95500E+01 4.87010E+01 0.00000E+00
 -1      1379 5.73000E+01 4.74020E+01 0.00000E+00
 -1      1380 6.10500E+01 4.87010E+01 0.00000E+00
 -1      1381 6.25500E+01 4.87010E+01 0.00000E+00
 -1      1382 6.03000E+01 4.74020E+01 0.00000E+00
 -1      1383 6.41250E+01 4.87010E+01 0.00000E+00
 -1      1384 6.57000E+01 4.87010E+01 0.00000E+00
 -1      1385 6.33750E+01 4.74020E+01 0.00000E+00
 -1      1386 6.72000E+01 4.87010E+01 0.00000E+00
 -1      1387 6.87000E+01 4.87010E+01 0.00000E+00
 -1      1388 6.64500E+01 4.74020E+01 0.00000E+00
 -1      1389 7.02000E+01 4.87010E+01 0.00000E+00
 -1      1390 7.17000E+01 4.87010E+01 0.00000E+00
 -1      1391 6.94500E+01 4.74020E+01 0.00000E+00
 -1      1392 7.32000E+01 4.87010E+01 0.00000E+00
 -1      1393 7.47000E+01 4.87010E+01 0.00000E+00
 -1      1394 7.24500E+01 4.74020E+01 0.00000E+00
 -1      1395 7.62000E+01 4.87010E+01 0.00000E+00
 -1      1396 7.77000E+01 4.87010E+01 0.00000E+00
 -1      1397 7.54500E+01 4.74020E+01 0.00000E+00
 -1      1398 7.92000E+01 4.87010E+01 0.00000E+00
 -1      1399 8.07000E+01 4.87010E+01 0.00000E+00
 -1      1400 7.84500E+01 4.74020E+01 0.00000E+00
 -1      1401 8.22000E+01 4.87010E+01 0.00000E+00
 -1      1402 8.37000E+01 4.87010E+01 0.00000E+00
 -1      1403 8.14500E+01 4.74020E+01 0.00000E+00
 -1      1404 8.52000E+01 4.87010E+01 0.00000E+00
 -1      1405 8.67000E+01 4.87010E+01 0.00000E+00
 -1      1406 8.44500E+01 4.74020E+01 0.00000E+00
 -1      1407 8.82000E+01 4.87010E+01 0.00000E+00
 -1      1408 8.97000E+01 4.87010E+01 0.00000E+00
 -1      1409 8.74500E+01 4.74020E+01 0.00000E+00
 -1      1410 9.12000E+01 4.87010E+01 0.00000E+00
 -1      1411 9.27000E+01 4.87010E+01 0.00000E+00
 -1      1412 9.04500E+01 4.74020E+01 0.00000E+00
 -1      1413 9.42000E+01 4.87010E+01 0.00000E+00
 -1      1414 9.57000E+01 4.87010E+01 0.00000E+00
 -1      1415 9.34500E+01 4.74020E+01 0.00000E+00
 -1      1416 9.72750E+01 4.87010E+01 0.00000E+00
 -1      1417 9.88500E+01 4.87010E+01 0.00000E+00
 -1      1418 9.65250E+01 4.74020E+01 0.00000E+00
 -1      1419 1.00350E+02 4.87010E+01 0.00000E+00
 -1      1420 1.01850E+02 4.87010E+01 0.00000E+00
 -1      1421 9.96000E+01 4.74020E+01 0.00000E+00
 -1      1422 1.03350E+02 4.87010E+01 0.00000E+00
 -1      1423 1.04850E+02 4.87010E+01 0.00000E+00
 -1      1424 1.02600E+02 4.74020E+01 0.00000E+00
 -1      1425 1.06125E+02 4.87010E+01 0.00000E+00
 -1      1426 1.07400E+02 4.87010E+01 0.00000E+00
 -1      1427 1.05375E+02 4.74020E+01 0.00000E+00
 -1      1428 1.08825E+02 4.87010E+01 0.00000E+00
 -1      1429 1.10250E+02 4.87010E+01 0.00000E+00
 -1      1430 1.08075E+02 4.74020E+01 0.00000E+00
 -1      1431 1.11675E+02 4.87010E+01 0.00000E+00
 -1      1432 1.13100E+02 4.87010E+01 0.00000E+00
 -1      1433 1.10925E+02 4.74020E+01 0.00000E+00
 -1      1434 1.14600E+02 4.87010E+01 0.00000E+00
 -1      1435 1.16100E+02 4.87010E+01 0.00000E+00
 -1      1436 1.13850E+02 4.74020E+01 0.00000E+00
 -1      1437 1.17675E+02 4.87010E+01 0.00000E+00
 -1      1438 1.19250E+02 4.87010E+01 0.00000E+00
 -1      1439 1.16925E+02 4.74020E+01 0.00000E+00
 -1      1440 1.20750E+02 4.87010E+01 0.00000E+00
 -1      1441 1.22250E+02 4.87010E+01 0.00000E+00
 -1      1442 1.20000E+02 4.74020E+01 0.00000E+00
 -1      1443 1.23750E+02 4.87010E+01 0.00000E+00
 -1      1444 1.25250E+02 4.87010E+01 0.00000E+00
 -1      1445 1.23000E+02 4.74020E+01 0.00000E+00
 -1      1446 1.26750E+02 4.87010E+01 0.00000E+00
 -1      1447 1.28250E+02 4.87010E+01 0.00000E+00
 -1      1448 1.26000E+02 4.74020E+01 0.00000E+00
 -1      1449 1.29750E+02 4.87010E+01 0.00000E+00
 -1      1450 1.31250E+02 4.87010E+01 0.00000E+00
 -1      1451 1.29000E+02 4.74020E+01 0.00000E+00
 -1      1452 1.32750E+02 4.87010E+01 0.00000E+00
 -1      1453 1.34250E+02 4.87010E+01 0.00000E+00
 -1      1454 1.32000E+02 4.74020E+01 0.00000E+00
 -1      1455 1.35750E+02 4.87010E+01 0.00000E+00
 -1      1456 1.37250E+02 4.87010E+01 0.00000E+00
 -1      1457 1.35000E+02 4.74020E+01 0.00000E+00
 -1      1458 1.38750E+02 4.87010E+01 0.00000E+00
 -1      1459 1.40250E+02 4.87010E+01 0.00000E+00
 -1      1460 1.38000E+02 4.74020E+01 0.00000E+00
 -1      1461 1.41750E+02 4.87010E+01 0.00000E+00
 -1      1462 1.43250E+02 4.87010E+01 0.00000E+00
 -1      1463 1.41000E+02 4.74020E+01 0.00000E+00
 -1      1464 1.44750E+02 4.87010E+01 0.00000E+00
 -1      1465 1.46250E+02 4.87010E+01 0.00000E+00
 -1      1466 1.44000E+02 4.74020E+01 0.00000E+00
 -1      1467 1.47375E+02 4.86255E+01 0.00000E+00
 -1      1468 1.48875E+02 4.86255E+01 0.00000E+00
 -1      1469 1.48875E+02 4.71755E+01 0.00000E+00
 -1      1470 1.46625E+02 4.73265E+01 0.00000E+00
 -1      1471 6.01200E+00 1.09375E+00 0.00000E+00
 -1      1472 4.51200E+00 1.09375E+00 0.00000E+00
 -1      1473 4.37400E+00 2.18750E+00 0.00000E+00
 -1      1474 9.01200E+00 1.09375E+00 0.00000E+00
 -1      1475 7.51200E+00 1.09375E+00 0.00000E+00
 -1      1476 7.37400E+00 2.18750E+00 0.00000E+00
 -1      1477 1.20120E+01 1.09375E+00 0.00000E+00
 -1      1478 1.05120E+01 1.09375E+00 0.00000E+00
 -1      1479 1.03740E+01 2.18750E+00 0.00000E+00
 -1      1480 1.50120E+01 1.09375E+00 0.00000E+00
 -1      1481 1.35120E+01 1.09375E+00 0.00000E+00
 -1      1482 1.33740E+01 2.18750E+00 0.00000E+00
 -1      1483 1.80120E+01 1.09375E+00 0.00000E+00
 -1      1484 1.65120E+01 1.09375E+00 0.00000E+00
 -1      1485 1.63740E+01 2.18750E+00 0.00000E+00
 -1      1486 2.10120E+01 1.09375E+00 0.00000E+00
 -1      1487 1.95120E+01 1.09375E+00 0.00000E+00
 -1      1488 1.93740E+01 2.18750E+00 0.00000E+00
 -1      1489 2.40120E+01 1.09375E+00 0.00000E+00
 -1      1490 2.25120E+01 1.09375E+00 0.00000E+00
 -1      1491 2.23740E+01 2.18750E+00 0.00000E+00
 -1      1492 2.70120E+01 1.09375E+00 0.00000E+00
 -1      1493 2.55120E+01 1.09375E+00 0.00000E+00
 -1      1494 2.53740E+01 2.18750E+00 0.00000E+00
 -1      1495 3.00120E+01 1.09375E+00 0.00000E+00
 -1      1496 2.85120E+01 1.09375E+00 0.00000E+00
 -1      1497 2.83740E+01 2.18750E+00 0.00000E+00
 -1      1498 3.30120E+01 1.09375E+00 0.00000E+00
 -1      1499 3.15120E+01 1.09375E+00 0.00000E+00
 -1      1500 3.13740E+01 2.18750E+00 0.00000E+00
 -1      1501 3.60120E+01 1.09375E+00 0.00000E+00
 -1      1502 3.45120E+01 1.09375E+00 0.00000E+00
 -1      1503 3.43740E+01 2.18750E+00 0.00000E+00
 -1      1504 3.90120E+01 1.09375E+00 0.00000E+00
 -1      1505 3.75120E+01 1.09375E+00 0.00000E+00
 -1      1506 3.73740E+01 2.18750E+00 0.00000E+00
 -1      1507 4.20120E+01 1.09375E+00 0.00000E+00
 -1      1508 4.05120E+01 1.09375E+00 0.00000E+00
 -1      1509 4.03740E+01 2.18750E+00 0.00000E+00
 -1      1510 4.50120E+01 1.09375E+00 0.00000E+00
 -1      1511 4.35120E+01 1.09375E+00 0.00000E+00
 -1      1512 4.33740E+01 2.18750E+00 0.00000E+00
 -1      1513 4.80120E+01 1.09375E+00 0.00000E+00
 -1      1514 4.65120E+01 1.09375E+00 0.00000E+00
 -1      1515 4.63740E+01 2.18750E+00 0.00000E+00
 -1      1516 5.10120E+01 1.09375E+00 0.00000E+00
 -1      1517 4.95120E+01 1.09375E+00 0.00000E+00
 -1      1518 4.93740E+01 2.18750E+00 0.00000E+00
 -1      1519 5.40120E+01 1.09375E+00 0.00000E+00
 -1      1520 5.25120E+01 1.09375E+00 0.00000E+00
 -1      1521 5.23740E+01 2.18750E+00 0.00000E+00
 -1      1522 5.70120E+01 1.09375E+00 0.00000E+00
 -1      1523 5.55120E+01 1.09375E+00 0.00000E+00
 -1      1524 5.53740E+01 2.18750E+00 0.00000E+00
 -1      1525 6.00120E+01 1.09375E+00 0.00000E+00
 -1      1526 5.85120E+01 1.09375E+00 0.00000E+00
 -1      1527 5.83740E+01 2.18750E+00 0.00000E+00
 -1      1528 6.30120E+01 1.09375E+00 0.00000E+00
 -1      1529 6.15120E+01 1.09375E+00 0.00000E+00
 -1      1530 6.13740E+01 2.18750E+00 0.00000E+00
 -1      1531 6.60120E+01 1.09375E+00 0.00000E+00
 -1      1532 6.45120E+01 1.09375E+00 0.00000E+00
 -1      1533 6.43740E+01 2.18750E+00 0.00000E+00
 -1      1534 6.90120E+01 1.09375E+00 0.00000E+00
 -1      1535 6.75120E+01 1.09375E+00 0.00000E+00
 -1      1536 6.73740E+01 2.18750E+00 0.00000E+00
 -1      1537 7.20120E+01 1.09375E+00 0.00000E+00
 -1      1538 7.05120E+01 1.09375E+00 0.00000E+00
 -1      1539 7.03740E+01 2.18750E+00 0.00000E+00
 -1      1540 7.50120E+01 1.09375E+00 0.00000E+00
 -1      1541 7.35120E+01 1.09375E+00 0.00000E+00
 -1      1542 7.33740E+01 2.18750E+00 0.00000E+00
 -1      1543 7.80120E+01 1.09375E+00 0.00000E+00
 -1      1544 7.65120E+01 1.09375E+00 0.00000E+00
 -1      1545 7.63740E+01 2.18750E+00 0.00000E+00
 -1      1546 8.10120E+01 1.09375E+00 0.00000E+00
 -1      1547 7.95120E+01 1.09375E+00 0.00000E+00
 -1      1548 7.93740E+01 2.18750E+00 0.00000E+00
 -1      1549 8.40120E+01 1.09375E+00 0.00000E+00
 -1      1550 8.25120E+01 1.09375E+00 0.00000E+00
 -1      1551 8.23740E+01 2.18750E+00 0.00000E+00
 -1      1552 8.70120E+01 1.09375E+00 0.00000E+00
 -1      1553 8.55120E+01 1.09375E+00 0.00000E+00
 -1      1554 8.53740E+01 2.18750E+00 0.00000E+00
 -1      1555 9.00120E+01 1.09375E+00 0.00000E+00
 -1      1556 8.85120E+01 1.09375E+00 0.00000E+00
 -1      1557 8.83740E+01 2.18750E+00 0.00000E+00
 -1      1558 9.30120E+01 1.09375E+00 0.00000E+00
 -1      1559 9.15120E+01 1.09375E+00 0.00000E+00
 -1      1560 9.13740E+01 2.18750E+00 0.00000E+00
 -1      1561 9.60120E+01 1.09375E+00 0.00000E+00
 -1      1562 9.45120E+01 1.09375E+00 0.00000E+00
 -1      1563 9.43740E+01 2.18750E+00 0.00000E+00
 -1      1564 9.90120E+01 1.09375E+00 0.00000E+00
 -1      1565 9.75120E+01 1.09375E+00 0.00000E+00
 -1      1566 9.73740E+01 2.18750E+00 0.00000E+00
 -1      1567 1.02012E+02 1.09375E+00 0.00000E+00
 -1      1568 1.00512E+02 1.09375E+00 0.00000E+00
 -1      1569 1.00374E+02 2.18750E+00 0.00000E+00
 -1      1570 1.05012E+02 1.09375E+00 0.00000E+00
 -1      1571 1.03512E+02 1.09375E+00 0.00000E+00
 -1      1572 1.03374E+02 2.18750E+00 0.00000E+00
 -1      1573 1.08012E+02 1.09375E+00 0.00000E+00
 -1      1574 1.06512E+02 1.09375E+00 0.00000E+00
 -1      1575 1.06374E+02 2.18750E+00 0.00000E+00
 -1      1576 1.11012E+02 1.09375E+00 0.00000E+00
 -1      1577 1.09512E+02 1.09375E+00 0.00000E+00
 -1      1578 1.09374E+02 2.18750E+00 0.00000E+00
 -1      1579 1.14012E+02 1.09375E+00 0.00000E+00
 -1      1580 1.12512E+02 1.09375E+00 0.00000E+00
 -1      1581 1.12374E+02 2.18750E+00 0.00000E+00
 -1      1582 1.17012E+02 1.09375E+00 0.00000E+00
 -1      1583 1.15512E+02 1.09375E+00 0.00000E+00
 -1      1584 1.15374E+02 2.18750E+00 0.00000E+00
 -1      1585 1.20012E+02 1.09375E+00 0.00000E+00
 -1      1586 1.18512E+02 1.09375E+00 0.00000E+00
 -1      1587 1.18374E+02 2.18750E+00 0.00000E+00
 -1      1588 1.23012E+02 1.09375E+00 0.00000E+00
 -1      1589 1.21512E+02 1.09375E+00 0.00000E+00
 -1      1590 1.21374E+02 2.18750E+00 0.00000E+00
 -1      1591 1.26012E+02 1.09375E+00 0.00000E+00
 -1      1592 1.24512E+02 1.09375E+00 0.00000E+00
 -1      1593 1.24374E+02 2.18750E+00 0.00000E+00
 -1      1594 1.29012E+02 1.09375E+00 0.00000E+00
 -1      1595 1.27512E+02 1.09375E+00 0.00000E+00
 -1      1596 1.27374E+02 2.18750E+00 0.00000E+00
 -1      1597 1.32012E+02 1.09375E+00 0.00000E+00
 -1      1598 1.30512E+02 1.09375E+00 0.00000E+00
 -1      1599 1.30374E+02 2.18750E+00 0.00000E+00
 -1      1600 1.35012E+02 1.09375E+00 0.00000E+00
 -1      1601 1.33512E+02 1.09375E+00 0.00000E+00
 -1      1602 1.33374E+02 2.18750E+00 0.00000E+00
 -1      1603 1.38012E+02 1.09375E+00 0.00000E+00
 -1      1604 1.36512E+02 1.09375E+00 0.00000E+00
 -1      1605 1.36374E+02 2.18750E+00 0.00000E+00
 -1      1606 1.41012E+02 1.09375E+00 0.00000E+00
 -1      1607 1.39512E+02 1.09375E+00 0.00000E+00
 -1      1608 1.39374E+02 2.18750E+00 0.00000E+00
 -1      1609 1.44012E+02 1.09375E+00 0.00000E+00
 -1      1610 1.42512E+02 1.09375E+00 0.00000E+00
 -1      1611 1.42374E+02 2.18750E+00 0.00000E+00
 -1      1612 1.47012E+02 1.09375E+00 0.00000E+00
 -1      1613 1.45512E+02 1.09375E+00 0.00000E+00
 -1      1614 1.45374E+02 2.18750E+00 0.00000E+00
 -1      1615 1.48575E+02 1.47500E+00 0.00000E+00
 -1      1616 1.48701E+02 5.16250E+00 0.00000E+00
 -1      1617 1.48701E+02 3.68750E+00 0.00000E+00
 -1      1618 1.48701E+02 8.11250E+00 0.00000E+00
 -1      1619 1.48701E+02 6.63750E+00 0.00000E+00
 -1      1620 1.47402E+02 5.90000E+00 0.00000E+00
 -1      1621 1.48701E+02 1.10625E+01 0.00000E+00
 -1      1622 1.48701E+02 9.58750E+00 0.00000E+00
 -1      1623 1.47402E+02 8.85000E+00 0.00000E+00
 -1      1624 1.48701E+02 1.40125E+01 0.00000E+00
 -1      1625 1.48701E+02 1.25375E+01 0.00000E+00
 -1      1626 1.47402E+02 1.18000E+01 0.00000E+00
 -1      1627 1.48701E+02 1.69125E+01 0.00000E+00
 -1      1628 1.48701E+02 1.54625E+01 0.00000E+00
 -1      1629 1.47402E+02 1.47250E+01 0.00000E+00
 -1      1630 1.48701E+02 1.98625E+01 0.00000E+00
 -1      1631 1.48701E+02 1.83875E+01 0.00000E+00
 -1      1632 1.47402E+02 1.76500E+01 0.00000E+00
 -1      1633 1.48701E+02 2.28125E+01 0.00000E+00
 -1      1634 1.48701E+02 2.13375E+01 0.00000E+00
 -1      1635 1.47402E+02 2.06000E+01 0.00000E+00
 -1      1636 1.48701E+02 2.57625E+01 0.00000E+00
 -1      1637 1.48701E+02 2.42875E+01 0.00000E+00
 -1      1638 1.47402E+02 2.35500E+01 0.00000E+00
 -1      1639 1.48701E+02 2.87125E+01 0.00000E+00
 -1      1640 1.48701E+02 2.72375E+01 0.00000E+00
 -1      1641 1.47402E+02 2.65000E+01 0.00000E+00
 -1      1642 1.48701E+02 3.16625E+01 0.00000E+00
 -1      1643 1.48701E+02 3.01875E+01 0.00000E+00
 -1      1644 1.47402E+02 2.94500E+01 0.00000E+00
 -1      1645 1.48701E+02 3.45625E+01 0.00000E+00
 -1      1646 1.48701E+02 3.31125E+01 0.00000E+00
 -1      1647 1.47402E+02 3.23750E+01 0.00000E+00
 -1      1648 1.48701E+02 3.75125E+01 0.00000E+00
 -1      1649 1.48701E+02 3.60375E+01 0.00000E+00
 -1      1650 1.47402E+02 3.53000E+01 0.00000E+00
 -1      1651 1.48701E+02 4.04625E+01 0.00000E+00
 -1      1652 1.48701E+02 3.89875E+01 0.00000E+00
 -1      1653 1.47402E+02 3.82500E+01 0.00000E+00
 -1      1654 1.48701E+02 4.34125E+01 0.00000E+00
 -1      1655 1.48701E+02 4.19375E+01 0.00000E+00
 -1      1656 1.47402E+02 4.12000E+01 0.00000E+00
 -1      1657 1.48788E+02 4.60315E+01 0.00000E+00
 -1      1658 1.48788E+02 4.45565E+01 0.00000E+00
 -1      1659 1.47489E+02 4.38190E+01 0.00000E+00
 -1      1660 1.47663E+02 4.61070E+01 0.00000E+00
 -1      1661 1.17624E+02 3.34951E+01 0.00000E+00
 -1      1662 1.17705E+02 3.42416E+01 0.00000E+00
 -1      1663 1.17232E+02 3.17891E+01 0.00000E+00
 -1      1664 1.17497E+02 3.25590E+01 0.00000E+00
 -1      1665 1.16364E+02 3.04090E+01 0.00000E+00
 -1      1666 1.16735E+02 3.10146E+01 0.00000E+00
 -1      1667 1.15348E+02 2.92608E+01 0.00000E+00
 -1      1668 1.15828E+02 2.97741E+01 0.00000E+00
 -1      1669 1.14103E+02 2.80926E+01 0.00000E+00
 -1      1670 1.14770E+02 2.85513E+01 0.00000E+00
 -1      1671 1.12593E+02 2.75456E+01 0.00000E+00
 -1      1672 1.13237E+02 2.78082E+01 0.00000E+00
 -1      1673 1.11042E+02 2.71779E+01 0.00000E+00
 -1      1674 1.11781E+02 2.73122E+01 0.00000E+00
 -1      1675 1.09327E+02 2.69856E+01 0.00000E+00
 -1      1676 1.10130E+02 2.69513E+01 0.00000E+00
 -1      1677 1.07749E+02 2.74279E+01 0.00000E+00
 -1      1678 1.08445E+02 2.72424E+01 0.00000E+00
 -1      1679 1.06361E+02 2.80729E+01 0.00000E+00
 -1      1680 1.06985E+02 2.77607E+01 0.00000E+00
 -1      1681 1.05023E+02 2.89177E+01 0.00000E+00
 -1      1682 1.05602E+02 2.84593E+01 0.00000E+00
 -1      1683 1.03859E+02 3.00499E+01 0.00000E+00
 -1      1684 1.04329E+02 2.94802E+01 0.00000E+00
 -1      1685 1.03030E+02 3.15509E+01 0.00000E+00
 -1      1686 1.03389E+02 3.08470E+01 0.00000E+00
 -1      1687 1.02652E+02 3.30751E+01 0.00000E+00
 -1      1688 1.02829E+02 3.24113E+01 0.00000E+00
 -1      1689 1.02441E+02 3.46267E+01 0.00000E+00
 -1      1690 1.02482E+02 3.38930E+01 0.00000E+00
 -1      1691 1.02633E+02 3.61950E+01 0.00000E+00
 -1      1692 1.02523E+02 3.54797E+01 0.00000E+00
 -1      1693 1.03048E+02 3.77694E+01 0.00000E+00
 -1      1694 1.02777E+02 3.70608E+01 0.00000E+00
 -1      1695 1.03902E+02 3.91075E+01 0.00000E+00
 -1      1696 1.03513E+02 3.85075E+01 0.00000E+00
 -1      1697 1.04971E+02 4.04081E+01 0.00000E+00
 -1      1698 1.04404E+02 3.98485E+01 0.00000E+00
 -1      1699 1.06318E+02 4.12795E+01 0.00000E+00
 -1      1700 1.05716E+02 4.08995E+01 0.00000E+00
 -1      1701 1.07810E+02 4.20930E+01 0.00000E+00
 -1      1702 1.07056E+02 4.18208E+01 0.00000E+00
 -1      1703 1.09469E+02 4.22423E+01 0.00000E+00
 -1      1704 1.08738E+02 4.21492E+01 0.00000E+00
 -1      1705 1.11108E+02 4.22748E+01 0.00000E+00
 -1      1706 1.10351E+02 4.23414E+01 0.00000E+00
 -1      1707 1.12564E+02 4.18445E+01 0.00000E+00
 -1      1708 1.11922E+02 4.20379E+01 0.00000E+00
 -1      1709 1.13959E+02 4.12352E+01 0.00000E+00
 -1      1710 1.13330E+02 4.15711E+01 0.00000E+00
 -1      1711 1.15115E+02 4.03399E+01 0.00000E+00
 -1      1712 1.14607E+02 4.07562E+01 0.00000E+00
 -1      1713 1.16105E+02 3.92612E+01 0.00000E+00
 -1      1714 1.15669E+02 3.97870E+01 0.00000E+00
 -1      1715 1.16879E+02 3.79987E+01 0.00000E+00
 -1      1716 1.16553E+02 3.85997E+01 0.00000E+00
 -1      1717 1.17398E+02 3.65812E+01 0.00000E+00
 -1      1718 1.17191E+02 3.72521E+01 0.00000E+00
 -1      1719 1.17669E+02 3.50977E+01 0.00000E+00
 -1      1720 1.17601E+02 3.57869E+01 0.00000E+00
 -1      1721 1.16566E+02 2.97383E+01 0.00000E+00
 -1      1722 1.18315E+02 3.46504E+01 0.00000E+00
 -1      1723 1.48437E+02 2.56875E+00 0.00000E+00
 -1      1724 1.47138E+02 3.30625E+00 0.00000E+00
 -1      1725 1.18223E+02 3.28583E+01 0.00000E+00
 -1      1726 1.17599E+02 3.11477E+01 0.00000E+00
 -1      1727 1.15453E+02 2.83939E+01 0.00000E+00
 -1      1728 1.14009E+02 2.73999E+01 0.00000E+00
 -1      1729 1.12332E+02 2.68821E+01 0.00000E+00
 -1      1730 1.10608E+02 2.64220E+01 0.00000E+00
 -1      1731 1.08813E+02 2.64522E+01 0.00000E+00
 -1      1732 1.07166E+02 2.70418E+01 0.00000E+00
 -1      1733 1.05643E+02 2.77610E+01 0.00000E+00
 -1      1734 1.04191E+02 2.87099E+01 0.00000E+00
 -1      1735 1.03027E+02 3.00696E+01 0.00000E+00
 -1      1736 1.02356E+02 3.17271E+01 0.00000E+00
 -1      1737 1.01985E+02 3.34054E+01 0.00000E+00
 -1      1738 1.01897E+02 3.50763E+01 0.00000E+00
 -1      1739 1.02123E+02 3.67952E+01 0.00000E+00
 -1      1740 1.02733E+02 3.83992E+01 0.00000E+00
 -1      1741 1.03701E+02 3.98783E+01 0.00000E+00
 -1      1742 1.04948E+02 4.11107E+01 0.00000E+00
 -1      1743 1.06432E+02 4.21434E+01 0.00000E+00
 -1      1744 1.08099E+02 4.27409E+01 0.00000E+00
 -1      1745 1.09909E+02 4.28963E+01 0.00000E+00
 -1      1746 1.11604E+02 4.27585E+01 0.00000E+00
 -1      1747 1.13184E+02 4.22482E+01 0.00000E+00
 -1      1748 1.14597E+02 4.14958E+01 0.00000E+00
 -1      1749 1.15799E+02 4.04640E+01 0.00000E+00
 -1      1750 1.16801E+02 3.92497E+01 0.00000E+00
 -1      1751 1.17561E+02 3.78416E+01 0.00000E+00
 -1      1752 1.18077E+02 3.63007E+01 0.00000E+00
 -1      1753 2.87400E+00 4.77875E+01 0.00000E+00
 -1      1754 3.89700E+00 4.04125E+01 0.00000E+00
 -1      1755 3.89700E+00 4.18875E+01 0.00000E+00
 -1      1756 3.89700E+00 4.33625E+01 0.00000E+00
 -1      1757 3.89700E+00 4.48375E+01 0.00000E+00
 -1      1758 5.19600E+00 4.26250E+01 0.00000E+00
 -1      1759 3.89700E+00 3.45500E+01 0.00000E+00
 -1      1760 3.89700E+00 3.60000E+01 0.00000E+00
 -1      1761 3.89700E+00 3.16000E+01 0.00000E+00
 -1      1762 3.89700E+00 3.30750E+01 0.00000E+00
 -1      1763 5.19600E+00 3.38000E+01 0.00000E+00
 -1      1764 3.89700E+00 2.86500E+01 0.00000E+00
 -1      1765 3.89700E+00 3.01250E+01 0.00000E+00
 -1      1766 5.19600E+00 3.08500E+01 0.00000E+00
 -1      1767 3.89700E+00 2.57000E+01 0.00000E+00
 -1      1768 3.89700E+00 2.71750E+01 0.00000E+00
 -1      1769 5.19600E+00 2.79000E+01 0.00000E+00
 -1      1770 3.89700E+00 2.27500E+01 0.00000E+00
 -1      1771 3.89700E+00 2.42250E+01 0.00000E+00
 -1      1772 5.19600E+00 2.49500E+01 0.00000E+00
 -1      1773 3.89700E+00 1.98000E+01 0.00000E+00
 -1      1774 3.89700E+00 2.12750E+01 0.00000E+00
 -1      1775 5.19600E+00 2.20000E+01 0.00000E+00
 -1      1776 3.89700E+00 1.69000E+01 0.00000E+00
 -1      1777 3.89700E+00 1.83500E+01 0.00000E+00
 -1      1778 5.19600E+00 1.90750E+01 0.00000E+00
 -1      1779 3.89700E+00 1.39500E+01 0.00000E+00
 -1      1780 3.89700E+00 1.54250E+01 0.00000E+00
 -1      1781 5.19600E+00 1.61500E+01 0.00000E+00
 -1      1782 3.89700E+00 1.10000E+01 0.00000E+00
 -1      1783 3.89700E+00 1.24750E+01 0.00000E+00
 -1      1784 5.19600E+00 1.32000E+01 0.00000E+00
 -1      1785 3.89700E+00 8.05000E+00 0.00000E+00
 -1      1786 3.89700E+00 9.52500E+00 0.00000E+00
 -1      1787 5.19600E+00 1.02500E+01 0.00000E+00
 -1      1788 3.89700E+00 5.10000E+00 0.00000E+00
 -1      1789 3.89700E+00 6.57500E+00 0.00000E+00
 -1      1790 5.19600E+00 7.30000E+00 0.00000E+00
 -1      1791 4.20450E+00 3.09687E+00 0.00000E+00
 -1      1792 4.06650E+00 4.19063E+00 0.00000E+00
 -1      1793 5.36550E+00 4.91563E+00 0.00000E+00
 -1      1794 5.70450E+00 3.09687E+00 0.00000E+00
 -1      1795 3.62400E+00 4.64885E+01 0.00000E+00
 -1      1796 8.70450E+00 3.09687E+00 0.00000E+00
 -1      1797 7.20450E+00 3.09687E+00 0.00000E+00
 -1      1798 7.03500E+00 4.00625E+00 0.00000E+00
 -1      1799 4.92300E+00 4.57510E+01 0.00000E+00
 -1      1800 8.40000E+00 4.61030E+01 0.00000E+00
 -1      1801 9.90000E+00 4.61030E+01 0.00000E+00
 -1      1802 1.14000E+01 4.61030E+01 0.00000E+00
 -1      1803 1.29000E+01 4.61030E+01 0.00000E+00
 -1      1804 1.06500E+01 4.48040E+01 0.00000E+00
 -1      1805 1.44000E+01 4.61030E+01 0.00000E+00
 -1      1806 1.59000E+01 4.61030E+01 0.00000E+00
 -1      1807 1.36500E+01 4.48040E+01 0.00000E+00
 -1      1808 1.74000E+01 4.61030E+01 0.00000E+00
 -1      1809 1.89000E+01 4.61030E+01 0.00000E+00
 -1      1810 1.66500E+01 4.48040E+01 0.00000E+00
 -1      1811 2.04000E+01 4.61030E+01 0.00000E+00
 -1      1812 2.19000E+01 4.61030E+01 0.00000E+00
 -1      1813 1.96500E+01 4.48040E+01 0.00000E+00
 -1      1814 2.34000E+01 4.61030E+01 0.00000E+00
 -1      1815 2.49000E+01 4.61030E+01 0.00000E+00
 -1      1816 2.26500E+01 4.48040E+01 0.00000E+00
 -1      1817 2.64000E+01 4.61030E+01 0.00000E+00
 -1      1818 2.79000E+01 4.61030E+01 0.00000E+00
 -1      1819 2.56500E+01 4.48040E+01 0.00000E+00
 -1      1820 2.94750E+01 4.61030E+01 0.00000E+00
 -1      1821 3.10500E+01 4.61030E+01 0.00000E+00
 -1      1822 2.87250E+01 4.48040E+01 0.00000E+00
 -1      1823 3.25500E+01 4.61030E+01 0.00000E+00
 -1      1824 3.40500E+01 4.61030E+01 0.00000E+00
 -1      1825 3.18000E+01 4.48040E+01 0.00000E+00
 -1      1826 3.55500E+01 4.61030E+01 0.00000E+00
 -1      1827 3.70500E+01 4.61030E+01 0.00000E+00
 -1      1828 3.48000E+01 4.48040E+01 0.00000E+00
 -1      1829 3.85500E+01 4.61030E+01 0.00000E+00
 -1      1830 4.00500E+01 4.61030E+01 0.00000E+00
 -1      1831 3.78000E+01 4.48040E+01 0.00000E+00
 -1      1832 4.15500E+01 4.61030E+01 0.00000E+00
 -1      1833 4.30500E+01 4.61030E+01 0.00000E+00
 -1      1834 4.08000E+01 4.48040E+01 0.00000E+00
 -1      1835 4.45500E+01 4.61030E+01 0.00000E+00
 -1      1836 4.60500E+01 4.61030E+01 0.00000E+00
 -1      1837 4.38000E+01 4.48040E+01 0.00000E+00
 -1      1838 4.75500E+01 4.61030E+01 0.00000E+00
 -1      1839 4.90500E+01 4.61030E+01 0.00000E+00
 -1      1840 4.68000E+01 4.48040E+01 0.00000E+00
 -1      1841 5.05500E+01 4.61030E+01 0.00000E+00
 -1      1842 5.20500E+01 4.61030E+01 0.00000E+00
 -1      1843 4.98000E+01 4.48040E+01 0.00000E+00
 -1      1844 5.35500E+01 4.61030E+01 0.00000E+00
 -1      1845 5.50500E+01 4.61030E+01 0.00000E+00
 -1      1846 5.28000E+01 4.48040E+01 0.00000E+00
 -1      1847 5.65500E+01 4.61030E+01 0.00000E+00
 -1      1848 5.80500E+01 4.61030E+01 0.00000E+00
 -1      1849 5.58000E+01 4.48040E+01 0.00000E+00
 -1      1850 5.95500E+01 4.61030E+01 0.00000E+00
 -1      1851 6.10500E+01 4.61030E+01 0.00000E+00
 -1      1852 5.88000E+01 4.48040E+01 0.00000E+00
 -1      1853 6.26250E+01 4.61030E+01 0.00000E+00
 -1      1854 6.42000E+01 4.61030E+01 0.00000E+00
 -1      1855 6.18750E+01 4.48040E+01 0.00000E+00
 -1      1856 6.57000E+01 4.61030E+01 0.00000E+00
 -1      1857 6.72000E+01 4.61030E+01 0.00000E+00
 -1      1858 6.49500E+01 4.48040E+01 0.00000E+00
 -1      1859 6.87000E+01 4.61030E+01 0.00000E+00
 -1      1860 7.02000E+01 4.61030E+01 0.00000E+00
 -1      1861 6.79500E+01 4.48040E+01 0.00000E+00
 -1      1862 7.17000E+01 4.61030E+01 0.00000E+00
 -1      1863 7.32000E+01 4.61030E+01 0.00000E+00
 -1      1864 7.09500E+01 4.48040E+01 0.00000E+00
 -1      1865 7.47000E+01 4.61030E+01 0.00000E+00
 -1      1866 7.62000E+01 4.61030E+01 0.00000E+00
 -1      1867 7.39500E+01 4.48040E+01 0.00000E+00
 -1      1868 7.77000E+01 4.61030E+01 0.00000E+00
 -1      1869 7.92000E+01 4.61030E+01 0.00000E+00
 -1      1870 7.69500E+01 4.48040E+01 0.00000E+00
 -1      1871 8.07000E+01 4.61030E+01 0.00000E+00
 -1      1872 8.22000E+01 4.61030E+01 0.00000E+00
 -1      1873 7.99500E+01 4.48040E+01 0.00000E+00
 -1      1874 8.37000E+01 4.61030E+01 0.00000E+00
 -1      1875 8.52000E+01 4.61030E+01 0.00000E+00
 -1      1876 8.29500E+01 4.48040E+01 0.00000E+00
 -1      1877 8.67000E+01 4.61030E+01 0.00000E+00
 -1      1878 8.82000E+01 4.61030E+01 0.00000E+00
 -1      1879 8.59500E+01 4.48040E+01 0.00000E+00
 -1      1880 8.97000E+01 4.61030E+01 0.00000E+00
 -1      1881 9.12000E+01 4.61030E+01 0.00000E+00
 -1      1882 8.89500E+01 4.48040E+01 0.00000E+00
 -1      1883 9.27000E+01 4.61030E+01 0.00000E+00
 -1      1884 9.42000E+01 4.61030E+01 0.00000E+00
 -1      1885 9.19500E+01 4.48040E+01 0.00000E+00
 -1      1886 9.57750E+01 4.61030E+01 0.00000E+00
 -1      1887 9.73500E+01 4.61030E+01 0.00000E+00
 -1      1888 9.50250E+01 4.48040E+01 0.00000E+00
 -1      1889 9.88500E+01 4.61030E+01 0.00000E+00
 -1      1890 1.00350E+02 4.61030E+01 0.00000E+00
 -1      1891 9.81000E+01 4.48040E+01 0.00000E+00
 -1      1892 1.01850E+02 4.61030E+01 0.00000E+00
 -1      1893 1.03350E+02 4.61030E+01 0.00000E+00
 -1      1894 1.01100E+02 4.48040E+01 0.00000E+00
 -1      1895 1.04625E+02 4.61030E+01 0.00000E+00
 -1      1896 1.05900E+02 4.61030E+01 0.00000E+00
 -1      1897 1.03875E+02 4.48040E+01 0.00000E+00
 -1      1898 1.07363E+02 4.64607E+01 0.00000E+00
 -1      1899 1.08787E+02 4.64607E+01 0.00000E+00
 -1      1900 1.10213E+02 4.62931E+01 0.00000E+00
 -1      1901 1.11637E+02 4.62931E+01 0.00000E+00
 -1      1902 1.13100E+02 4.62931E+01 0.00000E+00
 -1      1903 1.14600E+02 4.62931E+01 0.00000E+00
 -1      1904 1.16137E+02 4.62931E+01 0.00000E+00
 -1      1905 1.17713E+02 4.62931E+01 0.00000E+00
 -1      1906 1.19250E+02 4.61255E+01 0.00000E+00
 -1      1907 1.20750E+02 4.61255E+01 0.00000E+00
 -1      1908 1.22250E+02 4.61255E+01 0.00000E+00
 -1      1909 1.23750E+02 4.61255E+01 0.00000E+00
 -1      1910 1.21500E+02 4.48490E+01 0.00000E+00
 -1      1911 1.25250E+02 4.61255E+01 0.00000E+00
 -1      1912 1.26750E+02 4.61255E+01 0.00000E+00
 -1      1913 1.24500E+02 4.48490E+01 0.00000E+00
 -1      1914 1.28250E+02 4.61255E+01 0.00000E+00
 -1      1915 1.29750E+02 4.61255E+01 0.00000E+00
 -1      1916 1.27500E+02 4.48490E+01 0.00000E+00
 -1      1917 1.31250E+02 4.61255E+01 0.00000E+00
 -1      1918 1.32750E+02 4.61255E+01 0.00000E+00
 -1      1919 1.30500E+02 4.48490E+01 0.00000E+00
 -1      1920 1.34250E+02 4.61255E+01 0.00000E+00
 -1      1921 1.35750E+02 4.61255E+01 0.00000E+00
 -1      1922 1.33500E+02 4.48490E+01 0.00000E+00
 -1      1923 1.37250E+02 4.61255E+01 0.00000E+00
 -1      1924 1.38750E+02 4.61255E+01 0.00000E+00
 -1      1925 1.36500E+02 4.48490E+01 0.00000E+00
 -1      1926 1.40250E+02 4.61255E+01 0.00000E+00
 -1      1927 1.41750E+02 4.61255E+01 0.00000E+00
 -1      1928 1.39500E+02 4.48490E+01 0.00000E+00
 -1      1929 1.43250E+02 4.61255E+01 0.00000E+00
 -1      1930 1.44750E+02 4.61255E+01 0.00000E+00
 -1      1931 1.42500E+02 4.48490E+01 0.00000E+00
 -1      1932 1.46538E+02 4.61825E+01 0.00000E+00
 -1      1933 1.41240E+01 3.48650E+00 0.00000E+00
 -1      1934 1.26240E+01 3.48650E+00 0.00000E+00
 -1      1935 1.71240E+01 3.48650E+00 0.00000E+00
 -1      1936 1.56240E+01 3.48650E+00 0.00000E+00
 -1      1937 1.48740E+01 4.78550E+00 0.00000E+00
 -1      1938 2.01240E+01 3.48650E+00 0.00000E+00
 -1      1939 1.86240E+01 3.48650E+00 0.00000E+00
 -1      1940 1.78740E+01 4.78550E+00 0.00000E+00
 -1      1941 2.31240E+01 3.48650E+00 0.00000E+00
 -1      1942 2.16240E+01 3.48650E+00 0.00000E+00
 -1      1943 2.08740E+01 4.78550E+00 0.00000E+00
 -1      1944 2.61240E+01 3.48650E+00 0.00000E+00
 -1      1945 2.46240E+01 3.48650E+00 0.00000E+00
 -1      1946 2.38740E+01 4.78550E+00 0.00000E+00
 -1      1947 2.91240E+01 3.48650E+00 0.00000E+00
 -1      1948 2.76240E+01 3.48650E+00 0.00000E+00
 -1      1949 2.68740E+01 4.78550E+00 0.00000E+00
 -1      1950 3.21240E+01 3.48650E+00 0.00000E+00
 -1      1951 3.06240E+01 3.48650E+00 0.00000E+00
 -1      1952 2.98740E+01 4.78550E+00 0.00000E+00
 -1      1953 3.51240E+01 3.48650E+00 0.00000E+00
 -1      1954 3.36240E+01 3.48650E+00 0.00000E+00
 -1      1955 3.28740E+01 4.78550E+00 0.00000E+00
 -1      1956 3.81240E+01 3.48650E+00 0.00000E+00
 -1      1957 3.66240E+01 3.48650E+00 0.00000E+00
 -1      1958 3.58740E+01 4.78550E+00 0.00000E+00
 -1      1959 4.11240E+01 3.48650E+00 0.00000E+00
 -1      1960 3.96240E+01 3.48650E+00 0.00000E+00
 -1      1961 3.88740E+01 4.78550E+00 0.00000E+00
 -1      1962 4.41240E+01 3.48650E+00 0.00000E+00
 -1      1963 4.26240E+01 3.48650E+00 0.00000E+00
 -1      1964 4.18740E+01 4.78550E+00 0.00000E+00
 -1      1965 4.71240E+01 3.48650E+00 0.00000E+00
 -1      1966 4.56240E+01 3.48650E+00 0.00000E+00
 -1      1967 4.48740E+01 4.78550E+00 0.00000E+00
 -1      1968 5.01240E+01 3.48650E+00 0.00000E+00
 -1      1969 4.86240E+01 3.48650E+00 0.00000E+00
 -1      1970 4.78740E+01 4.78550E+00 0.00000E+00
 -1      1971 5.31240E+01 3.48650E+00 0.00000E+00
 -1      1972 5.16240E+01 3.48650E+00 0.00000E+00
 -1      1973 5.08740E+01 4.78550E+00 0.00000E+00
 -1      1974 5.61240E+01 3.48650E+00 0.00000E+00
 -1      1975 5.46240E+01 3.48650E+00 0.00000E+00
 -1      1976 5.38740E+01 4.78550E+00 0.00000E+00
 -1      1977 5.91240E+01 3.48650E+00 0.00000E+00
 -1      1978 5.76240E+01 3.48650E+00 0.00000E+00
 -1      1979 5.68740E+01 4.78550E+00 0.00000E+00
 -1      1980 6.21240E+01 3.48650E+00 0.00000E+00
 -1      1981 6.06240E+01 3.48650E+00 0.00000E+00
 -1      1982 5.98740E+01 4.78550E+00 0.00000E+00
 -1      1983 6.51240E+01 3.48650E+00 0.00000E+00
 -1      1984 6.36240E+01 3.48650E+00 0.00000E+00
 -1      1985 6.28740E+01 4.78550E+00 0.00000E+00
 -1      1986 6.81240E+01 3.48650E+00 0.00000E+00
 -1      1987 6.66240E+01 3.48650E+00 0.00000E+00
 -1      1988 6.58740E+01 4.78550E+00 0.00000E+00
 -1      1989 7.11240E+01 3.48650E+00 0.00000E+00
 -1      1990 6.96240E+01 3.48650E+00 0.00000E+00
 -1      1991 6.88740E+01 4.78550E+00 0.00000E+00
 -1      1992 7.41240E+01 3.48650E+00 0.00000E+00
 -1      1993 7.26240E+01 3.48650E+00 0.00000E+00
 -1      1994 7.18740E+01 4.78550E+00 0.00000E+00
 -1      1995 7.71240E+01 3.48650E+00 0.00000E+00
 -1      1996 7.56240E+01 3.48650E+00 0.00000E+00
 -1      1997 7.48740E+01 4.78550E+00 0.00000E+00
 -1      1998 8.01240E+01 3.48650E+00 0.00000E+00
 -1      1999 7.86240E+01 3.48650E+00 0.00000E+00
 -1      2000 7.78740E+01 4.78550E+00 0.00000E+00
 -1      2001 8.31240E+01 3.48650E+00 0.00000E+00
 -1      2002 8.16240E+01 3.48650E+00 0.00000E+00
 -1      2003 8.08740E+01 4.78550E+00 0.00000E+00
 -1      2004 8.61240E+01 3.48650E+00 0.00000E+00
 -1      2005 8.46240E+01 3.48650E+00 0.00000E+00
 -1      2006 8.38740E+01 4.78550E+00 0.00000E+00
 -1      2007 8.91240E+01 3.48650E+00 0.00000E+00
 -1      2008 8.76240E+01 3.48650E+00 0.00000E+00
 -1      2009 8.68740E+01 4.78550E+00 0.00000E+00
 -1      2010 9.21240E+01 3.48650E+00 0.00000E+00
 -1      2011 9.06240E+01 3.48650E+00 0.00000E+00
 -1      2012 8.98740E+01 4.78550E+00 0.00000E+00
 -1      2013 9.51240E+01 3.48650E+00 0.00000E+00
 -1      2014 9.36240E+01 3.48650E+00 0.00000E+00
 -1      2015 9.28740E+01 4.78550E+00 0.00000E+00
 -1      2016 9.81240E+01 3.48650E+00 0.00000E+00
 -1      2017 9.66240E+01 3.48650E+00 0.00000E+00
 -1      2018 9.58740E+01 4.78550E+00 0.00000E+00
 -1      2019 1.01124E+02 3.48650E+00 0.00000E+00
 -1      2020 9.96240E+01 3.48650E+00 0.00000E+00
 -1      2021 9.88740E+01 4.78550E+00 0.00000E+00
 -1      2022 1.04124E+02 3.48650E+00 0.00000E+00
 -1      2023 1.02624E+02 3.48650E+00 0.00000E+00
 -1      2024 1.01874E+02 4.78550E+00 0.00000E+00
 -1      2025 1.07124E+02 3.48650E+00 0.00000E+00
 -1      2026 1.05624E+02 3.48650E+00 0.00000E+00
 -1      2027 1.04874E+02 4.78550E+00 0.00000E+00
 -1      2028 1.10124E+02 3.48650E+00 0.00000E+00
 -1      2029 1.08624E+02 3.48650E+00 0.00000E+00
 -1      2030 1.07874E+02 4.78550E+00 0.00000E+00
 -1      2031 1.13124E+02 3.48650E+00 0.00000E+00
 -1      2032 1.11624E+02 3.48650E+00 0.00000E+00
 -1      2033 1.10874E+02 4.78550E+00 0.00000E+00
 -1      2034 1.16124E+02 3.48650E+00 0.00000E+00
 -1      2035 1.14624E+02 3.48650E+00 0.00000E+00
 -1      2036 1.13874E+02 4.78550E+00 0.00000E+00
 -1      2037 1.19124E+02 3.48650E+00 0.00000E+00
 -1      2038 1.17624E+02 3.48650E+00 0.00000E+00
 -1      2039 1.16874E+02 4.78550E+00 0.00000E+00
 -1      2040 1.22124E+02 3.48650E+00 0.00000E+00
 -1      2041 1.20624E+02 3.48650E+00 0.00000E+00
 -1      2042 1.19874E+02 4.78550E+00 0.00000E+00
 -1      2043 1.25124E+02 3.48650E+00 0.00000E+00
 -1      2044 1.23624E+02 3.48650E+00 0.00000E+00
 -1      2045 1.22874E+02 4.78550E+00 0.00000E+00
 -1      2046 1.28124E+02 3.48650E+00 0.00000E+00
 -1      2047 1.26624E+02 3.48650E+00 0.00000E+00
 -1      2048 1.25874E+02 4.78550E+00 0.00000E+00
 -1      2049 1.31124E+02 3.48650E+00 0.00000E+00
 -1      2050 1.29624E+02 3.48650E+00 0.00000E+00
 -1      2051 1.28874E+02 4.78550E+00 0.00000E+00
 -1      2052 1.34124E+02 3.48650E+00 0.00000E+00
 -1      2053 1.32624E+02 3.48650E+00 0.00000E+00
 -1      2054 1.31874E+02 4.78550E+00 0.00000E+00
 -1      2055 1.37124E+02 3.48650E+00 0.00000E+00
 -1      2056 1.35624E+02 3.48650E+00 0.00000E+00
 -1      2057 1.34874E+02 4.78550E+00 0.00000E+00
 -1      2058 1.40124E+02 3.48650E+00 0.00000E+00
 -1      2059 1.38624E+02 3.48650E+00 0.00000E+00
 -1      2060 1.37874E+02 4.78550E+00 0.00000E+00
 -1      2061 1.43124E+02 3.48650E+00 0.00000E+00
 -1      2062 1.41624E+02 3.48650E+00 0.00000E+00
 -1      2063 1.40874E+02 4.78550E+00 0.00000E+00
 -1      2064 1.45881E+02 3.39637E+00 0.00000E+00
 -1      2065 1.44381E+02 3.39637E+00 0.00000E+00
 -1      2066 1.43631E+02 4.69537E+00 0.00000E+00
 -1      2067 1.46145E+02 4.51512E+00 0.00000E+00
 -1      2068 1.46103E+02 1.25375E+01 0.00000E+00
 -1      2069 1.46103E+02 1.10625E+01 0.00000E+00
 -1      2070 1.46103E+02 9.58750E+00 0.00000E+00
 -1      2071 1.46103E+02 8.11250E+00 0.00000E+00
 -1      2072 1.44804E+02 1.03250E+01 0.00000E+00
 -1      2073 1.46145E+02 5.99013E+00 0.00000E+00
 -1      2074 1.46103E+02 1.54375E+01 0.00000E+00
 -1      2075 1.46103E+02 1.39875E+01 0.00000E+00
 -1      2076 1.44804E+02 1.32500E+01 0.00000E+00
 -1      2077 1.46103E+02 1.83875E+01 0.00000E+00
 -1      2078 1.46103E+02 1.69125E+01 0.00000E+00
 -1      2079 1.44804E+02 1.61750E+01 0.00000E+00
 -1      2080 1.46103E+02 2.13375E+01 0.00000E+00
 -1      2081 1.46103E+02 1.98625E+01 0.00000E+00
 -1      2082 1.44804E+02 1.91250E+01 0.00000E+00
 -1      2083 1.46103E+02 2.42875E+01 0.00000E+00
 -1      2084 1.46103E+02 2.28125E+01 0.00000E+00
 -1      2085 1.44804E+02 2.20750E+01 0.00000E+00
 -1      2086 1.46103E+02 2.72375E+01 0.00000E+00
 -1      2087 1.46103E+02 2.57625E+01 0.00000E+00
 -1      2088 1.44804E+02 2.50250E+01 0.00000E+00
 -1      2089 1.46103E+02 3.01875E+01 0.00000E+00
 -1      2090 1.46103E+02 2.87125E+01 0.00000E+00
 -1      2091 1.44804E+02 2.79750E+01 0.00000E+00
 -1      2092 1.46103E+02 3.30875E+01 0.00000E+00
 -1      2093 1.46103E+02 3.16375E+01 0.00000E+00
 -1      2094 1.44804E+02 3.09000E+01 0.00000E+00
 -1      2095 1.46103E+02 3.60375E+01 0.00000E+00
 -1      2096 1.46103E+02 3.45625E+01 0.00000E+00
 -1      2097 1.44804E+02 3.38250E+01 0.00000E+00
 -1      2098 1.46103E+02 3.89875E+01 0.00000E+00
 -1      2099 1.46103E+02 3.75125E+01 0.00000E+00
 -1      2100 1.44804E+02 3.67750E+01 0.00000E+00
 -1      2101 1.46103E+02 4.19375E+01 0.00000E+00
 -1      2102 1.46103E+02 4.04625E+01 0.00000E+00
 -1      2103 1.44804E+02 3.97250E+01 0.00000E+00
 -1      2104 1.14143E+01 3.29169E+00 0.00000E+00
 -1      2105 9.91425E+00 3.29169E+00 0.00000E+00
 -1      2106 9.74475E+00 4.20106E+00 0.00000E+00
 -1      2107 1.21643E+01 4.59069E+00 0.00000E+00
 -1      2108 1.17896E+02 3.04104E+01 0.00000E+00
 -1      2109 1.18393E+02 3.11849E+01 0.00000E+00
 -1      2110 1.15699E+02 2.76033E+01 0.00000E+00
 -1      2111 1.16277E+02 2.83129E+01 0.00000E+00
 -1      2112 1.19190E+02 3.42575E+01 0.00000E+00
 -1      2113 1.19155E+02 3.51135E+01 0.00000E+00
 -1      2114 1.16812E+02 2.89478E+01 0.00000E+00
 -1      2115 1.17348E+02 2.95827E+01 0.00000E+00
 -1      2116 1.17058E+02 2.81572E+01 0.00000E+00
 -1      2117 3.89700E+00 3.74688E+01 0.00000E+00
 -1      2118 3.89700E+00 3.89437E+01 0.00000E+00
 -1      2119 5.19600E+00 3.96813E+01 0.00000E+00
 -1      2120 5.19600E+00 3.67438E+01 0.00000E+00
 -1      2121 1.13818E+02 2.65226E+01 0.00000E+00
 -1      2122 1.14684E+02 2.68070E+01 0.00000E+00
 -1      2123 1.12194E+02 2.60557E+01 0.00000E+00
 -1      2124 1.13006E+02 2.62892E+01 0.00000E+00
 -1      2125 1.13680E+02 2.56963E+01 0.00000E+00
 -1      2126 1.10338E+02 2.55578E+01 0.00000E+00
 -1      2127 1.11250E+02 2.57844E+01 0.00000E+00
 -1      2128 1.08190E+02 2.59583E+01 0.00000E+00
 -1      2129 1.09073E+02 2.57015E+01 0.00000E+00
 -1      2130 1.06492E+02 2.65372E+01 0.00000E+00
 -1      2131 1.07256E+02 2.62044E+01 0.00000E+00
 -1      2132 1.04974E+02 2.73100E+01 0.00000E+00
 -1      2133 1.05733E+02 2.69236E+01 0.00000E+00
 -1      2134 1.05822E+02 2.60862E+01 0.00000E+00
 -1      2135 1.03383E+02 2.84228E+01 0.00000E+00
 -1      2136 1.04076E+02 2.78602E+01 0.00000E+00
 -1      2137 1.02234E+02 3.01390E+01 0.00000E+00
 -1      2138 1.02704E+02 2.93419E+01 0.00000E+00
 -1      2139 1.01420E+02 3.19619E+01 0.00000E+00
 -1      2140 1.01622E+02 3.11015E+01 0.00000E+00
 -1      2141 1.01080E+02 3.35977E+01 0.00000E+00
 -1      2142 1.01250E+02 3.27798E+01 0.00000E+00
 -1      2143 1.00516E+02 3.21542E+01 0.00000E+00
 -1      2144 1.01209E+02 3.55729E+01 0.00000E+00
 -1      2145 1.01127E+02 3.47199E+01 0.00000E+00
 -1      2146 1.01498E+02 3.73046E+01 0.00000E+00
 -1      2147 1.01354E+02 3.64387E+01 0.00000E+00
 -1      2148 1.00584E+02 3.60823E+01 0.00000E+00
 -1      2149 1.02418E+02 3.91141E+01 0.00000E+00
 -1      2150 1.01952E+02 3.83759E+01 0.00000E+00
 -1      2151 1.03311E+02 4.06826E+01 0.00000E+00
 -1      2152 1.02809E+02 3.99417E+01 0.00000E+00
 -1      2153 1.04895E+02 4.20024E+01 0.00000E+00
 -1      2154 1.04149E+02 4.15110E+01 0.00000E+00
 -1      2155 1.08516E+02 4.35413E+01 0.00000E+00
 -1      2156 1.07588E+02 4.34851E+01 0.00000E+00
 -1      2157 1.12204E+02 4.33026E+01 0.00000E+00
 -1      2158 1.11390E+02 4.35395E+01 0.00000E+00
 -1      2159 1.13736E+02 4.27558E+01 0.00000E+00
 -1      2160 1.12970E+02 4.30292E+01 0.00000E+00
 -1      2161 1.12755E+02 4.38101E+01 0.00000E+00
 -1      2162 1.15356E+02 4.18448E+01 0.00000E+00
 -1      2163 1.14709E+02 4.23237E+01 0.00000E+00
 -1      2164 1.16534E+02 4.06465E+01 0.00000E+00
 -1      2165 1.15980E+02 4.11994E+01 0.00000E+00
 -1      2166 1.17666E+02 3.93524E+01 0.00000E+00
 -1      2167 1.17218E+02 4.00139E+01 0.00000E+00
 -1      2168 1.18354E+02 3.77349E+01 0.00000E+00
 -1      2169 1.18041E+02 3.84815E+01 0.00000E+00
 -1      2170 1.18928E+02 3.60953E+01 0.00000E+00
 -1      2171 1.18725E+02 3.68895E+01 0.00000E+00
 -1      2172 1.18885E+02 3.22917E+01 0.00000E+00
 -1      2173 1.19012E+02 3.32278E+01 0.00000E+00
 -1      2174 1.06613E+02 4.51617E+01 0.00000E+00
 -1      2175 1.09500E+02 4.53517E+01 0.00000E+00
 -1      2176 6.42300E+00 4.57510E+01 0.00000E+00
 -1      2177 1.12387E+02 4.51842E+01 0.00000E+00
 -1      2178 1.18142E+02 2.96199E+01 0.00000E+00
 -1      2179 1.15317E+02 2.58487E+01 0.00000E+00
 -1      2180 1.15508E+02 2.67260E+01 0.00000E+00
 -1      2181 1.16332E+02 2.66450E+01 0.00000E+00
 -1      2182 7.17300E+00 4.44520E+01 0.00000E+00
 -1      2183 1.15387E+02 4.51842E+01 0.00000E+00
 -1      2184 1.18463E+02 4.50166E+01 0.00000E+00
 -1      2185 1.45788E+02 4.49060E+01 0.00000E+00
 -1      2186 1.44846E+02 6.72762E+00 0.00000E+00
 -1      2187 1.19851E+02 3.36909E+01 0.00000E+00
 -1      2188 1.45701E+02 4.37620E+01 0.00000E+00
 -1      2189 1.19479E+02 3.08171E+01 0.00000E+00
 -1      2190 1.19182E+02 3.15544E+01 0.00000E+00
 -1      2191 1.19970E+02 3.19239E+01 0.00000E+00
 -1      2192 1.19803E+02 3.57023E+01 0.00000E+00
 -1      2193 1.19205E+02 3.75294E+01 0.00000E+00
 -1      2194 1.18458E+02 3.92457E+01 0.00000E+00
 -1      2195 1.17399E+02 4.07493E+01 0.00000E+00
 -1      2196 1.14495E+02 4.31047E+01 0.00000E+00
 -1      2197 1.03258E+02 4.15743E+01 0.00000E+00
 -1      2198 1.01183E+02 3.80195E+01 0.00000E+00
 -1      2199 1.00413E+02 3.76631E+01 0.00000E+00
 -1      2200 1.00868E+02 3.87344E+01 0.00000E+00
 -1      2201 1.00393E+02 3.40943E+01 0.00000E+00
 -1      2202 1.01298E+02 3.03738E+01 0.00000E+00
 -1      2203 1.04166E+02 2.70229E+01 0.00000E+00
 -1      2204 1.07516E+02 2.54537E+01 0.00000E+00
 -1      2205 1.11925E+02 2.51915E+01 0.00000E+00
 -1      2206 1.09716E+02 2.50639E+01 0.00000E+00
 -1      2207 1.10358E+02 2.44262E+01 0.00000E+00
 -1      2208 1.09093E+02 2.45699E+01 0.00000E+00
 -1      2209 1.02590E+02 2.84923E+01 0.00000E+00
 -1      2210 1.02028E+02 3.99184E+01 0.00000E+00
 -1      2211 1.06393E+02 4.29705E+01 0.00000E+00
 -1      2212 1.05655E+02 4.24292E+01 0.00000E+00
 -1      2213 1.11108E+02 4.39844E+01 0.00000E+00
 -1      2214 1.10508E+02 4.34403E+01 0.00000E+00
 -1      2215 1.09627E+02 4.33412E+01 0.00000E+00
 -1      2216 1.16091E+02 4.20272E+01 0.00000E+00
 -1      2217 1.44402E+02 4.30245E+01 0.00000E+00
 -1      2218 1.06810E+02 4.37709E+01 0.00000E+00
 -1      2219 1.04856E+02 4.28295E+01 0.00000E+00
 -1      2220 1.09116E+02 4.40854E+01 0.00000E+00
 -1      2221 6.49500E+00 3.01125E+01 0.00000E+00
 -1      2222 6.49500E+00 3.15875E+01 0.00000E+00
 -1      2223 6.49500E+00 3.30625E+01 0.00000E+00
 -1      2224 6.49500E+00 3.45375E+01 0.00000E+00
 -1      2225 7.79400E+00 3.23250E+01 0.00000E+00
 -1      2226 6.49500E+00 2.42125E+01 0.00000E+00
 -1      2227 6.49500E+00 2.56875E+01 0.00000E+00
 -1      2228 6.49500E+00 2.12625E+01 0.00000E+00
 -1      2229 6.49500E+00 2.27375E+01 0.00000E+00
 -1      2230 7.79400E+00 2.34750E+01 0.00000E+00
 -1      2231 6.49500E+00 1.83625E+01 0.00000E+00
 -1      2232 6.49500E+00 1.98125E+01 0.00000E+00
 -1      2233 7.79400E+00 2.05500E+01 0.00000E+00
 -1      2234 6.49500E+00 1.54125E+01 0.00000E+00
 -1      2235 6.49500E+00 1.68875E+01 0.00000E+00
 -1      2236 7.79400E+00 1.76250E+01 0.00000E+00
 -1      2237 6.49500E+00 1.24625E+01 0.00000E+00
 -1      2238 6.49500E+00 1.39375E+01 0.00000E+00
 -1      2239 7.79400E+00 1.46750E+01 0.00000E+00
 -1      2240 6.49500E+00 9.51250E+00 0.00000E+00
 -1      2241 6.49500E+00 1.09875E+01 0.00000E+00
 -1      2242 7.79400E+00 1.17250E+01 0.00000E+00
 -1      2243 6.49500E+00 6.56250E+00 0.00000E+00
 -1      2244 6.49500E+00 8.03750E+00 0.00000E+00
 -1      2245 7.79400E+00 8.77500E+00 0.00000E+00
 -1      2246 6.84975E+00 4.82969E+00 0.00000E+00
 -1      2247 6.68025E+00 5.73906E+00 0.00000E+00
 -1      2248 7.97925E+00 6.47656E+00 0.00000E+00
 -1      2249 8.34975E+00 4.82969E+00 0.00000E+00
 -1      2250 9.90000E+00 4.35050E+01 0.00000E+00
 -1      2251 1.14000E+01 4.35050E+01 0.00000E+00
 -1      2252 1.29000E+01 4.35050E+01 0.00000E+00
 -1      2253 1.44000E+01 4.35050E+01 0.00000E+00
 -1      2254 1.21500E+01 4.22060E+01 0.00000E+00
 -1      2255 1.59000E+01 4.35050E+01 0.00000E+00
 -1      2256 1.74000E+01 4.35050E+01 0.00000E+00
 -1      2257 1.51500E+01 4.22060E+01 0.00000E+00
 -1      2258 1.89000E+01 4.35050E+01 0.00000E+00
 -1      2259 2.04000E+01 4.35050E+01 0.00000E+00
 -1      2260 1.81500E+01 4.22060E+01 0.00000E+00
 -1      2261 2.19000E+01 4.35050E+01 0.00000E+00
 -1      2262 2.34000E+01 4.35050E+01 0.00000E+00
 -1      2263 2.11500E+01 4.22060E+01 0.00000E+00
 -1      2264 2.49000E+01 4.35050E+01 0.00000E+00
 -1      2265 2.64000E+01 4.35050E+01 0.00000E+00
 -1      2266 2.41500E+01 4.22060E+01 0.00000E+00
 -1      2267 2.79750E+01 4.35050E+01 0.00000E+00
 -1      2268 2.95500E+01 4.35050E+01 0.00000E+00
 -1      2269 2.72250E+01 4.22060E+01 0.00000E+00
 -1      2270 3.10500E+01 4.35050E+01 0.00000E+00
 -1      2271 3.25500E+01 4.35050E+01 0.00000E+00
 -1      2272 3.03000E+01 4.22060E+01 0.00000E+00
 -1      2273 3.40500E+01 4.35050E+01 0.00000E+00
 -1      2274 3.55500E+01 4.35050E+01 0.00000E+00
 -1      2275 3.33000E+01 4.22060E+01 0.00000E+00
 -1      2276 3.70500E+01 4.35050E+01 0.00000E+00
 -1      2277 3.85500E+01 4.35050E+01 0.00000E+00
 -1      2278 3.63000E+01 4.22060E+01 0.00000E+00
 -1      2279 4.00500E+01 4.35050E+01 0.00000E+00
 -1      2280 4.15500E+01 4.35050E+01 0.00000E+00
 -1      2281 3.93000E+01 4.22060E+01 0.00000E+00
 -1      2282 4.30500E+01 4.35050E+01 0.00000E+00
 -1      2283 4.45500E+01 4.35050E+01 0.00000E+00
 -1      2284 4.23000E+01 4.22060E+01 0.00000E+00
 -1      2285 4.60500E+01 4.35050E+01 0.00000E+00
 -1      2286 4.75500E+01 4.35050E+01 0.00000E+00
 -1      2287 4.53000E+01 4.22060E+01 0.00000E+00
 -1      2288 4.90500E+01 4.35050E+01 0.00000E+00
 -1      2289 5.05500E+01 4.35050E+01 0.00000E+00
 -1      2290 4.83000E+01 4.22060E+01 0.00000E+00
 -1      2291 5.20500E+01 4.35050E+01 0.00000E+00
 -1      2292 5.35500E+01 4.35050E+01 0.00000E+00
 -1      2293 5.13000E+01 4.22060E+01 0.00000E+00
 -1      2294 5.50500E+01 4.35050E+01 0.00000E+00
 -1      2295 5.65500E+01 4.35050E+01 0.00000E+00
 -1      2296 5.43000E+01 4.22060E+01 0.00000E+00
 -1      2297 5.80500E+01 4.35050E+01 0.00000E+00
 -1      2298 5.95500E+01 4.35050E+01 0.00000E+00
 -1      2299 5.73000E+01 4.22060E+01 0.00000E+00
 -1      2300 6.11250E+01 4.35050E+01 0.00000E+00
 -1      2301 6.27000E+01 4.35050E+01 0.00000E+00
 -1      2302 6.03750E+01 4.22060E+01 0.00000E+00
 -1      2303 6.42000E+01 4.35050E+01 0.00000E+00
 -1      2304 6.57000E+01 4.35050E+01 0.00000E+00
 -1      2305 6.34500E+01 4.22060E+01 0.00000E+00
 -1      2306 6.72000E+01 4.35050E+01 0.00000E+00
 -1      2307 6.87000E+01 4.35050E+01 0.00000E+00
 -1      2308 6.64500E+01 4.22060E+01 0.00000E+00
 -1      2309 7.02000E+01 4.35050E+01 0.00000E+00
 -1      2310 7.17000E+01 4.35050E+01 0.00000E+00
 -1      2311 6.94500E+01 4.22060E+01 0.00000E+00
 -1      2312 7.32000E+01 4.35050E+01 0.00000E+00
 -1      2313 7.47000E+01 4.35050E+01 0.00000E+00
 -1      2314 7.24500E+01 4.22060E+01 0.00000E+00
 -1      2315 7.62000E+01 4.35050E+01 0.00000E+00
 -1      2316 7.77000E+01 4.35050E+01 0.00000E+00
 -1      2317 7.54500E+01 4.22060E+01 0.00000E+00
 -1      2318 7.92000E+01 4.35050E+01 0.00000E+00
 -1      2319 8.07000E+01 4.35050E+01 0.00000E+00
 -1      2320 7.84500E+01 4.22060E+01 0.00000E+00
 -1      2321 8.22000E+01 4.35050E+01 0.00000E+00
 -1      2322 8.37000E+01 4.35050E+01 0.00000E+00
 -1      2323 8.14500E+01 4.22060E+01 0.00000E+00
 -1      2324 8.52000E+01 4.35050E+01 0.00000E+00
 -1      2325 8.67000E+01 4.35050E+01 0.00000E+00
 -1      2326 8.44500E+01 4.22060E+01 0.00000E+00
 -1      2327 8.82000E+01 4.35050E+01 0.00000E+00
 -1      2328 8.97000E+01 4.35050E+01 0.00000E+00
 -1      2329 8.74500E+01 4.22060E+01 0.00000E+00
 -1      2330 9.12000E+01 4.35050E+01 0.00000E+00
 -1      2331 9.27000E+01 4.35050E+01 0.00000E+00
 -1      2332 9.04500E+01 4.22060E+01 0.00000E+00
 -1      2333 9.42750E+01 4.35050E+01 0.00000E+00
 -1      2334 9.58500E+01 4.35050E+01 0.00000E+00
 -1      2335 9.35250E+01 4.22060E+01 0.00000E+00
 -1      2336 9.73500E+01 4.35050E+01 0.00000E+00
 -1      2337 9.88500E+01 4.35050E+01 0.00000E+00
 -1      2338 9.66000E+01 4.22060E+01 0.00000E+00
 -1      2339 1.18478E+02 2.88020E+01 0.00000E+00
 -1      2340 1.19026E+02 2.96297E+01 0.00000E+00
 -1      2341 1.43589E+02 6.81775E+00 0.00000E+00
 -1      2342 1.23750E+02 4.35500E+01 0.00000E+00
 -1      2343 1.25250E+02 4.35500E+01 0.00000E+00
 -1      2344 1.26750E+02 4.35500E+01 0.00000E+00
 -1      2345 1.28250E+02 4.35500E+01 0.00000E+00
 -1      2346 1.26000E+02 4.22510E+01 0.00000E+00
 -1      2347 1.29750E+02 4.35500E+01 0.00000E+00
 -1      2348 1.31250E+02 4.35500E+01 0.00000E+00
 -1      2349 1.29000E+02 4.22510E+01 0.00000E+00
 -1      2350 1.32750E+02 4.35500E+01 0.00000E+00
 -1      2351 1.34250E+02 4.35500E+01 0.00000E+00
 -1      2352 1.32000E+02 4.22510E+01 0.00000E+00
 -1      2353 1.35750E+02 4.35500E+01 0.00000E+00
 -1      2354 1.37250E+02 4.35500E+01 0.00000E+00
 -1      2355 1.35000E+02 4.22510E+01 0.00000E+00
 -1      2356 1.38750E+02 4.35500E+01 0.00000E+00
 -1      2357 1.40250E+02 4.35500E+01 0.00000E+00
 -1      2358 1.38000E+02 4.22510E+01 0.00000E+00
 -1      2359 1.41576E+02 4.32873E+01 0.00000E+00
 -1      2360 1.43076E+02 4.32873E+01 0.00000E+00
 -1      2361 1.43478E+02 4.14628E+01 0.00000E+00
 -1      2362 1.40826E+02 4.19883E+01 0.00000E+00
 -1      2363 2.16240E+01 6.08450E+00 0.00000E+00
 -1      2364 2.01240E+01 6.08450E+00 0.00000E+00
 -1      2365 1.86240E+01 6.08450E+00 0.00000E+00
 -1      2366 1.71240E+01 6.08450E+00 0.00000E+00
 -1      2367 1.93740E+01 7.38350E+00 0.00000E+00
 -1      2368 1.56240E+01 6.08450E+00 0.00000E+00
 -1      2369 1.41240E+01 6.08450E+00 0.00000E+00
 -1      2370 1.63740E+01 7.38350E+00 0.00000E+00
 -1      2371 2.46240E+01 6.08450E+00 0.00000E+00
 -1      2372 2.31240E+01 6.08450E+00 0.00000E+00
 -1      2373 2.23740E+01 7.38350E+00 0.00000E+00
 -1      2374 2.76240E+01 6.08450E+00 0.00000E+00
 -1      2375 2.61240E+01 6.08450E+00 0.00000E+00
 -1      2376 2.53740E+01 7.38350E+00 0.00000E+00
 -1      2377 3.06240E+01 6.08450E+00 0.00000E+00
 -1      2378 2.91240E+01 6.08450E+00 0.00000E+00
 -1      2379 2.83740E+01 7.38350E+00 0.00000E+00
 -1      2380 3.36240E+01 6.08450E+00 0.00000E+00
 -1      2381 3.21240E+01 6.08450E+00 0.00000E+00
 -1      2382 3.13740E+01 7.38350E+00 0.00000E+00
 -1      2383 3.66240E+01 6.08450E+00 0.00000E+00
 -1      2384 3.51240E+01 6.08450E+00 0.00000E+00
 -1      2385 3.43740E+01 7.38350E+00 0.00000E+00
 -1      2386 3.96240E+01 6.08450E+00 0.00000E+00
 -1      2387 3.81240E+01 6.08450E+00 0.00000E+00
 -1      2388 3.73740E+01 7.38350E+00 0.00000E+00
 -1      2389 4.26240E+01 6.08450E+00 0.00000E+00
 -1      2390 4.11240E+01 6.08450E+00 0.00000E+00
 -1      2391 4.03740E+01 7.38350E+00 0.00000E+00
 -1      2392 4.56240E+01 6.08450E+00 0.00000E+00
 -1      2393 4.41240E+01 6.08450E+00 0.00000E+00
 -1      2394 4.33740E+01 7.38350E+00 0.00000E+00
 -1      2395 4.86240E+01 6.08450E+00 0.00000E+00
 -1      2396 4.71240E+01 6.08450E+00 0.00000E+00
 -1      2397 4.63740E+01 7.38350E+00 0.00000E+00
 -1      2398 5.16240E+01 6.08450E+00 0.00000E+00
 -1      2399 5.01240E+01 6.08450E+00 0.00000E+00
 -1      2400 4.93740E+01 7.38350E+00 0.00000E+00
 -1      2401 5.46240E+01 6.08450E+00 0.00000E+00
 -1      2402 5.31240E+01 6.08450E+00 0.00000E+00
 -1      2403 5.23740E+01 7.38350E+00 0.00000E+00
 -1      2404 5.76240E+01 6.08450E+00 0.00000E+00
 -1      2405 5.61240E+01 6.08450E+00 0.00000E+00
 -1      2406 5.53740E+01 7.38350E+00 0.00000E+00
 -1      2407 6.06240E+01 6.08450E+00 0.00000E+00
 -1      2408 5.91240E+01 6.08450E+00 0.00000E+00
 -1      2409 5.83740E+01 7.38350E+00 0.00000E+00
 -1      2410 6.36240E+01 6.08450E+00 0.00000E+00
 -1      2411 6.21240E+01 6.08450E+00 0.00000E+00
 -1      2412 6.13740E+01 7.38350E+00 0.00000E+00
 -1      2413 6.66240E+01 6.08450E+00 0.00000E+00
 -1      2414 6.51240E+01 6.08450E+00 0.00000E+00
 -1      2415 6.43740E+01 7.38350E+00 0.00000E+00
 -1      2416 6.96240E+01 6.08450E+00 0.00000E+00
 -1      2417 6.81240E+01 6.08450E+00 0.00000E+00
 -1      2418 6.73740E+01 7.38350E+00 0.00000E+00
 -1      2419 7.26240E+01 6.08450E+00 0.00000E+00
 -1      2420 7.11240E+01 6.08450E+00 0.00000E+00
 -1      2421 7.03740E+01 7.38350E+00 0.00000E+00
 -1      2422 7.56240E+01 6.08450E+00 0.00000E+00
 -1      2423 7.41240E+01 6.08450E+00 0.00000E+00
 -1      2424 7.33740E+01 7.38350E+00 0.00000E+00
 -1      2425 7.86240E+01 6.08450E+00 0.00000E+00
 -1      2426 7.71240E+01 6.08450E+00 0.00000E+00
 -1      2427 7.63740E+01 7.38350E+00 0.00000E+00
 -1      2428 8.16240E+01 6.08450E+00 0.00000E+00
 -1      2429 8.01240E+01 6.08450E+00 0.00000E+00
 -1      2430 7.93740E+01 7.38350E+00 0.00000E+00
 -1      2431 8.46240E+01 6.08450E+00 0.00000E+00
 -1      2432 8.31240E+01 6.08450E+00 0.00000E+00
 -1      2433 8.23740E+01 7.38350E+00 0.00000E+00
 -1      2434 8.76240E+01 6.08450E+00 0.00000E+00
 -1      2435 8.61240E+01 6.08450E+00 0.00000E+00
 -1      2436 8.53740E+01 7.38350E+00 0.00000E+00
 -1      2437 9.06240E+01 6.08450E+00 0.00000E+00
 -1      2438 8.91240E+01 6.08450E+00 0.00000E+00
 -1      2439 8.83740E+01 7.38350E+00 0.00000E+00
 -1      2440 9.36240E+01 6.08450E+00 0.00000E+00
 -1      2441 9.21240E+01 6.08450E+00 0.00000E+00
 -1      2442 9.13740E+01 7.38350E+00 0.00000E+00
 -1      2443 9.66240E+01 6.08450E+00 0.00000E+00
 -1      2444 9.51240E+01 6.08450E+00 0.00000E+00
 -1      2445 9.43740E+01 7.38350E+00 0.00000E+00
 -1      2446 9.96240E+01 6.08450E+00 0.00000E+00
 -1      2447 9.81240E+01 6.08450E+00 0.00000E+00
 -1      2448 9.73740E+01 7.38350E+00 0.00000E+00
 -1      2449 1.02624E+02 6.08450E+00 0.00000E+00
 -1      2450 1.01124E+02 6.08450E+00 0.00000E+00
 -1      2451 1.00374E+02 7.38350E+00 0.00000E+00
 -1      2452 1.05624E+02 6.08450E+00 0.00000E+00
 -1      2453 1.04124E+02 6.08450E+00 0.00000E+00
 -1      2454 1.03374E+02 7.38350E+00 0.00000E+00
 -1      2455 1.08624E+02 6.08450E+00 0.00000E+00
 -1      2456 1.07124E+02 6.08450E+00 0.00000E+00
 -1      2457 1.06374E+02 7.38350E+00 0.00000E+00
 -1      2458 1.11624E+02 6.08450E+00 0.00000E+00
 -1      2459 1.10124E+02 6.08450E+00 0.00000E+00
 -1      2460 1.09374E+02 7.38350E+00 0.00000E+00
 -1      2461 1.14624E+02 6.08450E+00 0.00000E+00
 -1      2462 1.13124E+02 6.08450E+00 0.00000E+00
 -1      2463 1.12374E+02 7.38350E+00 0.00000E+00
 -1      2464 1.17624E+02 6.08450E+00 0.00000E+00
 -1      2465 1.16124E+02 6.08450E+00 0.00000E+00
 -1      2466 1.15374E+02 7.38350E+00 0.00000E+00
 -1      2467 1.20624E+02 6.08450E+00 0.00000E+00
 -1      2468 1.19124E+02 6.08450E+00 0.00000E+00
 -1      2469 1.18374E+02 7.38350E+00 0.00000E+00
 -1      2470 1.23624E+02 6.08450E+00 0.00000E+00
 -1      2471 1.22124E+02 6.08450E+00 0.00000E+00
 -1      2472 1.21374E+02 7.38350E+00 0.00000E+00
 -1      2473 1.26624E+02 6.08450E+00 0.00000E+00
 -1      2474 1.25124E+02 6.08450E+00 0.00000E+00
 -1      2475 1.24374E+02 7.38350E+00 0.00000E+00
 -1      2476 1.29624E+02 6.08450E+00 0.00000E+00
 -1      2477 1.28124E+02 6.08450E+00 0.00000E+00
 -1      2478 1.27374E+02 7.38350E+00 0.00000E+00
 -1      2479 1.32624E+02 6.08450E+00 0.00000E+00
 -1      2480 1.31124E+02 6.08450E+00 0.00000E+00
 -1      2481 1.30374E+02 7.38350E+00 0.00000E+00
 -1      2482 1.35624E+02 6.08450E+00 0.00000E+00
 -1      2483 1.34124E+02 6.08450E+00 0.00000E+00
 -1      2484 1.33374E+02 7.38350E+00 0.00000E+00
 -1      2485 1.38624E+02 6.08450E+00 0.00000E+00
 -1      2486 1.37124E+02 6.08450E+00 0.00000E+00
 -1      2487 1.36374E+02 7.38350E+00 0.00000E+00
 -1      2488 1.41624E+02 6.08450E+00 0.00000E+00
 -1      2489 1.40124E+02 6.08450E+00 0.00000E+00
 -1      2490 1.39374E+02 7.38350E+00 0.00000E+00
 -1      2491 1.43505E+02 1.69125E+01 0.00000E+00
 -1      2492 1.43505E+02 1.54375E+01 0.00000E+00
 -1      2493 1.43505E+02 1.39875E+01 0.00000E+00
 -1      2494 1.43505E+02 1.25375E+01 0.00000E+00
 -1      2495 1.42206E+02 1.47250E+01 0.00000E+00
 -1      2496 1.43505E+02 1.10625E+01 0.00000E+00
 -1      2497 1.43505E+02 9.58750E+00 0.00000E+00
 -1      2498 1.42206E+02 1.18000E+01 0.00000E+00
 -1      2499 1.20566E+02 3.30374E+01 0.00000E+00
 -1      2500 1.20744E+02 3.40671E+01 0.00000E+00
 -1      2501 1.43505E+02 1.98625E+01 0.00000E+00
 -1      2502 1.43505E+02 1.83875E+01 0.00000E+00
 -1      2503 1.42206E+02 1.76500E+01 0.00000E+00
 -1      2504 1.43505E+02 2.28125E+01 0.00000E+00
 -1      2505 1.43505E+02 2.13375E+01 0.00000E+00
 -1      2506 1.42206E+02 2.06000E+01 0.00000E+00
 -1      2507 1.43505E+02 2.57625E+01 0.00000E+00
 -1      2508 1.43505E+02 2.42875E+01 0.00000E+00
 -1      2509 1.42206E+02 2.35500E+01 0.00000E+00
 -1      2510 1.43505E+02 2.87125E+01 0.00000E+00
 -1      2511 1.43505E+02 2.72375E+01 0.00000E+00
 -1      2512 1.42206E+02 2.65000E+01 0.00000E+00
 -1      2513 1.43505E+02 3.16125E+01 0.00000E+00
 -1      2514 1.43505E+02 3.01625E+01 0.00000E+00
 -1      2515 1.42206E+02 2.94250E+01 0.00000E+00
 -1      2516 1.43505E+02 3.45625E+01 0.00000E+00
 -1      2517 1.43505E+02 3.30875E+01 0.00000E+00
 -1      2518 1.42206E+02 3.23500E+01 0.00000E+00
 -1      2519 1.43505E+02 3.75125E+01 0.00000E+00
 -1      2520 1.43505E+02 3.60375E+01 0.00000E+00
 -1      2521 1.42206E+02 3.53000E+01 0.00000E+00
 -1      2522 1.43492E+02 4.02251E+01 0.00000E+00
 -1      2523 1.43492E+02 3.87501E+01 0.00000E+00
 -1      2524 1.42193E+02 3.80126E+01 0.00000E+00
 -1      2525 1.42165E+02 4.04879E+01 0.00000E+00
 -1      2526 6.55950E+00 4.28890E+01 0.00000E+00
 -1      2527 8.53650E+00 4.32410E+01 0.00000E+00
 -1      2528 9.28650E+00 4.19420E+01 0.00000E+00
 -1      2529 6.55950E+00 4.14140E+01 0.00000E+00
 -1      2530 1.20915E+02 3.54417E+01 0.00000E+00
 -1      2531 1.20688E+02 3.64234E+01 0.00000E+00
 -1      2532 1.20317E+02 3.72688E+01 0.00000E+00
 -1      2533 1.19946E+02 3.81141E+01 0.00000E+00
 -1      2534 1.21429E+02 3.70082E+01 0.00000E+00
 -1      2535 1.02956E+02 4.27177E+01 0.00000E+00
 -1      2536 1.02118E+02 4.18894E+01 0.00000E+00
 -1      2537 1.00375E+02 3.04622E+01 0.00000E+00
 -1      2538 1.00987E+02 2.94998E+01 0.00000E+00
 -1      2539 1.06852E+02 2.48285E+01 0.00000E+00
 -1      2540 1.07786E+02 2.45824E+01 0.00000E+00
 -1      2541 1.17446E+02 2.72869E+01 0.00000E+00
 -1      2542 1.17982E+02 2.79218E+01 0.00000E+00
 -1      2543 1.20750E+02 4.35500E+01 0.00000E+00
 -1      2544 1.22250E+02 4.35500E+01 0.00000E+00
 -1      2545 1.23000E+02 4.22510E+01 0.00000E+00
 -1      2546 1.17583E+02 4.40813E+01 0.00000E+00
 -1      2547 1.19120E+02 4.39137E+01 0.00000E+00
 -1      2548 6.49500E+00 2.71625E+01 0.00000E+00
 -1      2549 6.49500E+00 2.86375E+01 0.00000E+00
 -1      2550 7.79400E+00 2.93750E+01 0.00000E+00
 -1      2551 7.79400E+00 2.64250E+01 0.00000E+00
 -1      2552 1.13558E+02 2.45943E+01 0.00000E+00
 -1      2553 1.14370E+02 2.48278E+01 0.00000E+00
 -1      2554 1.01594E+02 2.84672E+01 0.00000E+00
 -1      2555 1.02273E+02 2.75481E+01 0.00000E+00
 -1      2556 1.11670E+02 2.40516E+01 0.00000E+00
 -1      2557 1.12614E+02 2.43230E+01 0.00000E+00
 -1      2558 1.13303E+02 2.34545E+01 0.00000E+00
 -1      2559 1.05073E+02 2.55525E+01 0.00000E+00
 -1      2560 1.05832E+02 2.51662E+01 0.00000E+00
 -1      2561 1.11457E+02 4.46339E+01 0.00000E+00
 -1      2562 1.10576E+02 4.45347E+01 0.00000E+00
 -1      2563 1.01297E+02 4.07702E+01 0.00000E+00
 -1      2564 1.00906E+02 3.99427E+01 0.00000E+00
 -1      2565 1.03278E+02 2.66531E+01 0.00000E+00
 -1      2566 1.04175E+02 2.61028E+01 0.00000E+00
 -1      2567 1.04185E+02 2.51827E+01 0.00000E+00
 -1      2568 9.96733E+01 3.24056E+01 0.00000E+00
 -1      2569 9.98435E+01 3.15876E+01 0.00000E+00
 -1      2570 9.96430E+01 3.46877E+01 0.00000E+00
 -1      2571 9.95961E+01 3.35655E+01 0.00000E+00
 -1      2572 9.98931E+01 3.66427E+01 0.00000E+00
 -1      2573 9.97486E+01 3.57768E+01 0.00000E+00
 -1      2574 1.17477E+02 4.21801E+01 0.00000E+00
 -1      2575 1.16854E+02 4.28255E+01 0.00000E+00
 -1      2576 1.18162E+02 4.15476E+01 0.00000E+00
 -1      2577 1.19357E+02 3.91166E+01 0.00000E+00
 -1      2578 1.18981E+02 3.99876E+01 0.00000E+00
 -1      2579 1.42839E+02 8.11675E+00 0.00000E+00
 -1      2580 1.09151E+02 4.47023E+01 0.00000E+00
 -1      2581 7.79400E+00 3.52687E+01 0.00000E+00
 -1      2582 6.49500E+00 3.60062E+01 0.00000E+00
 -1      2583 6.49500E+00 3.74750E+01 0.00000E+00
 -1      2584 1.21630E+02 3.47882E+01 0.00000E+00
 -1      2585 9.55950E+00 5.02450E+00 0.00000E+00
 -1      2586 9.37425E+00 5.84794E+00 0.00000E+00
 -1      2587 1.07692E+01 5.21931E+00 0.00000E+00
 -1      2588 1.15194E+02 2.47468E+01 0.00000E+00
 -1      2589 1.16018E+02 2.46658E+01 0.00000E+00
 -1      2590 1.15071E+02 2.36448E+01 0.00000E+00
 -1      2591 9.91373E+01 4.15002E+01 0.00000E+00
 -1      2592 9.98873E+01 4.27992E+01 0.00000E+00
 -1      2593 1.12920E+02 4.46339E+01 0.00000E+00
 -1      2594 1.14659E+02 4.39284E+01 0.00000E+00
 -1      2595 1.16196E+02 4.39284E+01 0.00000E+00
 -1      2596 1.18866E+02 2.79317E+01 0.00000E+00
 -1      2597 1.00708E+02 4.39184E+01 0.00000E+00
 -1      2598 1.02208E+02 4.39184E+01 0.00000E+00
 -1      2599 1.03348E+02 4.36033E+01 0.00000E+00
 -1      2600 1.04623E+02 4.36033E+01 0.00000E+00
 -1      2601 1.19870E+02 4.26147E+01 0.00000E+00
 -1      2602 1.41540E+02 8.85425E+00 0.00000E+00
 -1      2603 1.08040E+02 4.49025E+01 0.00000E+00
 -1      2604 1.20863E+02 3.23001E+01 0.00000E+00
 -1      2605 1.21756E+02 3.26762E+01 0.00000E+00
 -1      2606 1.21160E+02 3.15628E+01 0.00000E+00
 -1      2607 6.55950E+00 3.99453E+01 0.00000E+00
 -1      2608 9.95321E+01 3.07136E+01 0.00000E+00
 -1      2609 1.30515E+01 5.74931E+00 0.00000E+00
 -1      2610 1.18418E+01 5.55450E+00 0.00000E+00
 -1      2611 1.16565E+01 6.37794E+00 0.00000E+00
 -1      2612 1.38015E+01 7.04831E+00 0.00000E+00
 -1      2613 1.19815E+02 2.99992E+01 0.00000E+00
 -1      2614 1.20604E+02 3.03687E+01 0.00000E+00
 -1      2615 1.20151E+02 2.91813E+01 0.00000E+00
 -1      2616 1.17255E+02 2.64096E+01 0.00000E+00
 -1      2617 1.20469E+02 3.88560E+01 0.00000E+00
 -1      2618 9.95779E+01 3.73576E+01 0.00000E+00
 -1      2619 9.89520E+01 3.52480E+01 0.00000E+00
 -1      2620 1.02282E+02 2.66280E+01 0.00000E+00
 -1      2621 1.00996E+02 4.19136E+01 0.00000E+00
 -1      2622 1.00670E+02 2.85556E+01 0.00000E+00
 -1      2623 1.00136E+02 3.95863E+01 0.00000E+00
 -1      2624 1.13686E+02 4.43604E+01 0.00000E+00
 -1      2625 1.05383E+02 4.40302E+01 0.00000E+00
 -1      2626 1.11048E+02 2.35577E+01 0.00000E+00
 -1      2627 1.07764E+02 2.33196E+01 0.00000E+00
 -1      2628 1.08429E+02 2.39448E+01 0.00000E+00
 -1      2629 1.09072E+02 2.33071E+01 0.00000E+00
 -1      2630 1.06102E+02 2.42948E+01 0.00000E+00
 -1      2631 9.89237E+01 3.29989E+01 0.00000E+00
 -1      2632 1.19791E+02 4.11839E+01 0.00000E+00
 -1      2633 1.06578E+02 4.45448E+01 0.00000E+00
 -1      2634 9.09300E+00 1.98250E+01 0.00000E+00
 -1      2635 9.09300E+00 2.12750E+01 0.00000E+00
 -1      2636 9.09300E+00 2.27500E+01 0.00000E+00
 -1      2637 9.09300E+00 2.42250E+01 0.00000E+00
 -1      2638 1.03920E+01 2.20250E+01 0.00000E+00
 -1      2639 9.09300E+00 1.39375E+01 0.00000E+00
 -1      2640 9.09300E+00 1.54125E+01 0.00000E+00
 -1      2641 9.09300E+00 1.09875E+01 0.00000E+00
 -1      2642 9.09300E+00 1.24625E+01 0.00000E+00
 -1      2643 1.03920E+01 1.32000E+01 0.00000E+00
 -1      2644 9.18900E+00 6.67137E+00 0.00000E+00
 -1      2645 9.00375E+00 7.49481E+00 0.00000E+00
 -1      2646 1.03988E+01 6.86619E+00 0.00000E+00
 -1      2647 1.14000E+01 4.09070E+01 0.00000E+00
 -1      2648 1.29000E+01 4.09070E+01 0.00000E+00
 -1      2649 9.80617E+01 4.09978E+01 0.00000E+00
 -1      2650 9.90991E+01 4.02920E+01 0.00000E+00
 -1      2651 9.90608E+01 3.90838E+01 0.00000E+00
 -1      2652 1.19511E+02 2.69880E+01 0.00000E+00
 -1      2653 1.20007E+02 2.78681E+01 0.00000E+00
 -1      2654 1.44000E+01 4.09070E+01 0.00000E+00
 -1      2655 1.59000E+01 4.09070E+01 0.00000E+00
 -1      2656 1.36500E+01 3.96080E+01 0.00000E+00
 -1      2657 1.74000E+01 4.09070E+01 0.00000E+00
 -1      2658 1.89000E+01 4.09070E+01 0.00000E+00
 -1      2659 1.66500E+01 3.96080E+01 0.00000E+00
 -1      2660 2.04000E+01 4.09070E+01 0.00000E+00
 -1      2661 2.19000E+01 4.09070E+01 0.00000E+00
 -1      2662 1.96500E+01 3.96080E+01 0.00000E+00
 -1      2663 2.34000E+01 4.09070E+01 0.00000E+00
 -1      2664 2.49000E+01 4.09070E+01 0.00000E+00
 -1      2665 2.26500E+01 3.96080E+01 0.00000E+00
 -1      2666 2.64750E+01 4.09070E+01 0.00000E+00
 -1      2667 2.80500E+01 4.09070E+01 0.00000E+00
 -1      2668 2.57250E+01 3.96080E+01 0.00000E+00
 -1      2669 2.95500E+01 4.09070E+01 0.00000E+00
 -1      2670 3.10500E+01 4.09070E+01 0.00000E+00
 -1      2671 2.88000E+01 3.96080E+01 0.00000E+00
 -1      2672 3.25500E+01 4.09070E+01 0.00000E+00
 -1      2673 3.40500E+01 4.09070E+01 0.00000E+00
 -1      2674 3.18000E+01 3.96080E+01 0.00000E+00
 -1      2675 3.55500E+01 4.09070E+01 0.00000E+00
 -1      2676 3.70500E+01 4.09070E+01 0.00000E+00
 -1      2677 3.48000E+01 3.96080E+01 0.00000E+00
 -1      2678 3.85500E+01 4.09070E+01 0.00000E+00
 -1      2679 4.00500E+01 4.09070E+01 0.00000E+00
 -1      2680 3.78000E+01 3.96080E+01 0.00000E+00
 -1      2681 4.15500E+01 4.09070E+01 0.00000E+00
 -1      2682 4.30500E+01 4.09070E+01 0.00000E+00
 -1      2683 4.08000E+01 3.96080E+01 0.00000E+00
 -1      2684 4.45500E+01 4.09070E+01 0.00000E+00
 -1      2685 4.60500E+01 4.09070E+01 0.00000E+00
 -1      2686 4.38000E+01 3.96080E+01 0.00000E+00
 -1      2687 4.75500E+01 4.09070E+01 0.00000E+00
 -1      2688 4.90500E+01 4.09070E+01 0.00000E+00
 -1      2689 4.68000E+01 3.96080E+01 0.00000E+00
 -1      2690 5.05500E+01 4.09070E+01 0.00000E+00
 -1      2691 5.20500E+01 4.09070E+01 0.00000E+00
 -1      2692 4.98000E+01 3.96080E+01 0.00000E+00
 -1      2693 5.35500E+01 4.09070E+01 0.00000E+00
 -1      2694 5.50500E+01 4.09070E+01 0.00000E+00
 -1      2695 5.28000E+01 3.96080E+01 0.00000E+00
 -1      2696 5.65500E+01 4.09070E+01 0.00000E+00
 -1      2697 5.80500E+01 4.09070E+01 0.00000E+00
 -1      2698 5.58000E+01 3.96080E+01 0.00000E+00
 -1      2699 5.96250E+01 4.09070E+01 0.00000E+00
 -1      2700 6.12000E+01 4.09070E+01 0.00000E+00
 -1      2701 5.88750E+01 3.96080E+01 0.00000E+00
 -1      2702 6.27000E+01 4.09070E+01 0.00000E+00
 -1      2703 6.42000E+01 4.09070E+01 0.00000E+00
 -1      2704 6.19500E+01 3.96080E+01 0.00000E+00
 -1      2705 6.57000E+01 4.09070E+01 0.00000E+00
 -1      2706 6.72000E+01 4.09070E+01 0.00000E+00
 -1      2707 6.49500E+01 3.96080E+01 0.00000E+00
 -1      2708 6.87000E+01 4.09070E+01 0.00000E+00
 -1      2709 7.02000E+01 4.09070E+01 0.00000E+00
 -1      2710 6.79500E+01 3.96080E+01 0.00000E+00
 -1      2711 7.17000E+01 4.09070E+01 0.00000E+00
 -1      2712 7.32000E+01 4.09070E+01 0.00000E+00
 -1      2713 7.09500E+01 3.96080E+01 0.00000E+00
 -1      2714 7.47000E+01 4.09070E+01 0.00000E+00
 -1      2715 7.62000E+01 4.09070E+01 0.00000E+00
 -1      2716 7.39500E+01 3.96080E+01 0.00000E+00
 -1      2717 7.77000E+01 4.09070E+01 0.00000E+00
 -1      2718 7.92000E+01 4.09070E+01 0.00000E+00
 -1      2719 7.69500E+01 3.96080E+01 0.00000E+00
 -1      2720 8.07000E+01 4.09070E+01 0.00000E+00
 -1      2721 8.22000E+01 4.09070E+01 0.00000E+00
 -1      2722 7.99500E+01 3.96080E+01 0.00000E+00
 -1      2723 8.37000E+01 4.09070E+01 0.00000E+00
 -1      2724 8.52000E+01 4.09070E+01 0.00000E+00
 -1      2725 8.29500E+01 3.96080E+01 0.00000E+00
 -1      2726 8.67000E+01 4.09070E+01 0.00000E+00
 -1      2727 8.82000E+01 4.09070E+01 0.00000E+00
 -1      2728 8.59500E+01 3.96080E+01 0.00000E+00
 -1      2729 8.97000E+01 4.09070E+01 0.00000E+00
 -1      2730 9.12000E+01 4.09070E+01 0.00000E+00
 -1      2731 8.89500E+01 3.96080E+01 0.00000E+00
 -1      2732 9.27750E+01 4.09070E+01 0.00000E+00
 -1      2733 9.43500E+01 4.09070E+01 0.00000E+00
 -1      2734 9.20250E+01 3.96080E+01 0.00000E+00
 -1      2735 9.65617E+01 4.09978E+01 0.00000E+00
 -1      2736 1.28250E+02 4.09520E+01 0.00000E+00
 -1      2737 1.29750E+02 4.09520E+01 0.00000E+00
 -1      2738 1.31250E+02 4.09520E+01 0.00000E+00
 -1      2739 1.32750E+02 4.09520E+01 0.00000E+00
 -1      2740 1.30500E+02 3.96530E+01 0.00000E+00
 -1      2741 1.34250E+02 4.09520E+01 0.00000E+00
 -1      2742 1.35750E+02 4.09520E+01 0.00000E+00
 -1      2743 1.33500E+02 3.96530E+01 0.00000E+00
 -1      2744 1.37250E+02 4.09520E+01 0.00000E+00
 -1      2745 1.38750E+02 4.09520E+01 0.00000E+00
 -1      2746 1.36500E+02 3.96530E+01 0.00000E+00
 -1      2747 1.39795E+02 4.08513E+01 0.00000E+00
 -1      2748 1.41121E+02 4.05886E+01 0.00000E+00
 -1      2749 1.41134E+02 3.93510E+01 0.00000E+00
 -1      2750 1.39045E+02 3.95523E+01 0.00000E+00
 -1      2751 2.01240E+01 8.68250E+00 0.00000E+00
 -1      2752 1.86240E+01 8.68250E+00 0.00000E+00
 -1      2753 2.31240E+01 8.68250E+00 0.00000E+00
 -1      2754 2.16240E+01 8.68250E+00 0.00000E+00
 -1      2755 2.08740E+01 9.98150E+00 0.00000E+00
 -1      2756 1.71240E+01 8.68250E+00 0.00000E+00
 -1      2757 1.56240E+01 8.68250E+00 0.00000E+00
 -1      2758 1.78740E+01 9.98150E+00 0.00000E+00
 -1      2759 2.91240E+01 8.68250E+00 0.00000E+00
 -1      2760 2.76240E+01 8.68250E+00 0.00000E+00
 -1      2761 3.21240E+01 8.68250E+00 0.00000E+00
 -1      2762 3.06240E+01 8.68250E+00 0.00000E+00
 -1      2763 2.98740E+01 9.98150E+00 0.00000E+00
 -1      2764 3.51240E+01 8.68250E+00 0.00000E+00
 -1      2765 3.36240E+01 8.68250E+00 0.00000E+00
 -1      2766 3.28740E+01 9.98150E+00 0.00000E+00
 -1      2767 3.81240E+01 8.68250E+00 0.00000E+00
 -1      2768 3.66240E+01 8.68250E+00 0.00000E+00
 -1      2769 3.58740E+01 9.98150E+00 0.00000E+00
 -1      2770 4.11240E+01 8.68250E+00 0.00000E+00
 -1      2771 3.96240E+01 8.68250E+00 0.00000E+00
 -1      2772 3.88740E+01 9.98150E+00 0.00000E+00
 -1      2773 4.41240E+01 8.68250E+00 0.00000E+00
 -1      2774 4.26240E+01 8.68250E+00 0.00000E+00
 -1      2775 4.18740E+01 9.98150E+00 0.00000E+00
 -1      2776 4.71240E+01 8.68250E+00 0.00000E+00
 -1      2777 4.56240E+01 8.68250E+00 0.00000E+00
 -1      2778 4.48740E+01 9.98150E+00 0.00000E+00
 -1      2779 5.01240E+01 8.68250E+00 0.00000E+00
 -1      2780 4.86240E+01 8.68250E+00 0.00000E+00
 -1      2781 4.78740E+01 9.98150E+00 0.00000E+00
 -1      2782 5.31240E+01 8.68250E+00 0.00000E+00
 -1      2783 5.16240E+01 8.68250E+00 0.00000E+00
 -1      2784 5.08740E+01 9.98150E+00 0.00000E+00
 -1      2785 5.61240E+01 8.68250E+00 0.00000E+00
 -1      2786 5.46240E+01 8.68250E+00 0.00000E+00
 -1      2787 5.38740E+01 9.98150E+00 0.00000E+00
 -1      2788 5.91240E+01 8.68250E+00 0.00000E+00
 -1      2789 5.76240E+01 8.68250E+00 0.00000E+00
 -1      2790 5.68740E+01 9.98150E+00 0.00000E+00
 -1      2791 6.21240E+01 8.68250E+00 0.00000E+00
 -1      2792 6.06240E+01 8.68250E+00 0.00000E+00
 -1      2793 5.98740E+01 9.98150E+00 0.00000E+00
 -1      2794 6.51240E+01 8.68250E+00 0.00000E+00
 -1      2795 6.36240E+01 8.68250E+00 0.00000E+00
 -1      2796 6.28740E+01 9.98150E+00 0.00000E+00
 -1      2797 6.81240E+01 8.68250E+00 0.00000E+00
 -1      2798 6.66240E+01 8.68250E+00 0.00000E+00
 -1      2799 6.58740E+01 9.98150E+00 0.00000E+00
 -1      2800 7.11240E+01 8.68250E+00 0.00000E+00
 -1      2801 6.96240E+01 8.68250E+00 0.00000E+00
 -1      2802 6.88740E+01 9.98150E+00 0.00000E+00
 -1      2803 7.41240E+01 8.68250E+00 0.00000E+00
 -1      2804 7.26240E+01 8.68250E+00 0.00000E+00
 -1      2805 7.18740E+01 9.98150E+00 0.00000E+00
 -1      2806 7.71240E+01 8.68250E+00 0.00000E+00
 -1      2807 7.56240E+01 8.68250E+00 0.00000E+00
 -1      2808 7.48740E+01 9.98150E+00 0.00000E+00
 -1      2809 8.01240E+01 8.68250E+00 0.00000E+00
 -1      2810 7.86240E+01 8.68250E+00 0.00000E+00
 -1      2811 7.78740E+01 9.98150E+00 0.00000E+00
 -1      2812 8.31240E+01 8.68250E+00 0.00000E+00
 -1      2813 8.16240E+01 8.68250E+00 0.00000E+00
 -1      2814 8.08740E+01 9.98150E+00 0.00000E+00
 -1      2815 8.61240E+01 8.68250E+00 0.00000E+00
 -1      2816 8.46240E+01 8.68250E+00 0.00000E+00
 -1      2817 8.38740E+01 9.98150E+00 0.00000E+00
 -1      2818 8.91240E+01 8.68250E+00 0.00000E+00
 -1      2819 8.76240E+01 8.68250E+00 0.00000E+00
 -1      2820 8.68740E+01 9.98150E+00 0.00000E+00
 -1      2821 9.21240E+01 8.68250E+00 0.00000E+00
 -1      2822 9.06240E+01 8.68250E+00 0.00000E+00
 -1      2823 8.98740E+01 9.98150E+00 0.00000E+00
 -1      2824 9.51240E+01 8.68250E+00 0.00000E+00
 -1      2825 9.36240E+01 8.68250E+00 0.00000E+00
 -1      2826 9.28740E+01 9.98150E+00 0.00000E+00
 -1      2827 9.81240E+01 8.68250E+00 0.00000E+00
 -1      2828 9.66240E+01 8.68250E+00 0.00000E+00
 -1      2829 9.58740E+01 9.98150E+00 0.00000E+00
 -1      2830 1.01124E+02 8.68250E+00 0.00000E+00
 -1      2831 9.96240E+01 8.68250E+00 0.00000E+00
 -1      2832 9.88740E+01 9.98150E+00 0.00000E+00
 -1      2833 1.04124E+02 8.68250E+00 0.00000E+00
 -1      2834 1.02624E+02 8.68250E+00 0.00000E+00
 -1      2835 1.01874E+02 9.98150E+00 0.00000E+00
 -1      2836 1.07124E+02 8.68250E+00 0.00000E+00
 -1      2837 1.05624E+02 8.68250E+00 0.00000E+00
 -1      2838 1.04874E+02 9.98150E+00 0.00000E+00
 -1      2839 1.10124E+02 8.68250E+00 0.00000E+00
 -1      2840 1.08624E+02 8.68250E+00 0.00000E+00
 -1      2841 1.07874E+02 9.98150E+00 0.00000E+00
 -1      2842 1.13124E+02 8.68250E+00 0.00000E+00
 -1      2843 1.11624E+02 8.68250E+00 0.00000E+00
 -1      2844 1.10874E+02 9.98150E+00 0.00000E+00
 -1      2845 1.16124E+02 8.68250E+00 0.00000E+00
 -1      2846 1.14624E+02 8.68250E+00 0.00000E+00
 -1      2847 1.13874E+02 9.98150E+00 0.00000E+00
 -1      2848 1.19124E+02 8.68250E+00 0.00000E+00
 -1      2849 1.17624E+02 8.68250E+00 0.00000E+00
 -1      2850 1.16874E+02 9.98150E+00 0.00000E+00
 -1      2851 1.22124E+02 8.68250E+00 0.00000E+00
 -1      2852 1.20624E+02 8.68250E+00 0.00000E+00
 -1      2853 1.19874E+02 9.98150E+00 0.00000E+00
 -1      2854 1.25124E+02 8.68250E+00 0.00000E+00
 -1      2855 1.23624E+02 8.68250E+00 0.00000E+00
 -1      2856 1.22874E+02 9.98150E+00 0.00000E+00
 -1      2857 1.28124E+02 8.68250E+00 0.00000E+00
 -1      2858 1.26624E+02 8.68250E+00 0.00000E+00
 -1      2859 1.25874E+02 9.98150E+00 0.00000E+00
 -1      2860 1.31124E+02 8.68250E+00 0.00000E+00
 -1      2861 1.29624E+02 8.68250E+00 0.00000E+00
 -1      2862 1.28874E+02 9.98150E+00 0.00000E+00
 -1      2863 1.34124E+02 8.68250E+00 0.00000E+00
 -1      2864 1.32624E+02 8.68250E+00 0.00000E+00
 -1      2865 1.31874E+02 9.98150E+00 0.00000E+00
 -1      2866 1.37124E+02 8.68250E+00 0.00000E+00
 -1      2867 1.35624E+02 8.68250E+00 0.00000E+00
 -1      2868 1.34874E+02 9.98150E+00 0.00000E+00
 -1      2869 1.40082E+02 8.76838E+00 0.00000E+00
 -1      2870 1.38582E+02 8.76838E+00 0.00000E+00
 -1      2871 1.37832E+02 1.00674E+01 0.00000E+00
 -1      2872 1.40748E+02 1.02391E+01 0.00000E+00
 -1      2873 1.40907E+02 2.13375E+01 0.00000E+00
 -1      2874 1.40907E+02 1.98625E+01 0.00000E+00
 -1      2875 1.40748E+02 1.31891E+01 0.00000E+00
 -1      2876 1.40748E+02 1.17141E+01 0.00000E+00
 -1      2877 1.39290E+02 1.16283E+01 0.00000E+00
 -1      2878 1.40907E+02 1.83875E+01 0.00000E+00
 -1      2879 1.40907E+02 1.69125E+01 0.00000E+00
 -1      2880 1.39608E+02 1.91250E+01 0.00000E+00
 -1      2881 1.40907E+02 2.72375E+01 0.00000E+00
 -1      2882 1.40907E+02 2.57625E+01 0.00000E+00
 -1      2883 1.40907E+02 3.01375E+01 0.00000E+00
 -1      2884 1.40907E+02 2.86875E+01 0.00000E+00
 -1      2885 1.39608E+02 2.79500E+01 0.00000E+00
 -1      2886 1.40907E+02 3.30875E+01 0.00000E+00
 -1      2887 1.40907E+02 3.16125E+01 0.00000E+00
 -1      2888 1.39608E+02 3.08750E+01 0.00000E+00
 -1      2889 1.40907E+02 3.60375E+01 0.00000E+00
 -1      2890 1.40907E+02 3.45625E+01 0.00000E+00
 -1      2891 1.39608E+02 3.38250E+01 0.00000E+00
 -1      2892 1.22554E+02 3.69976E+01 0.00000E+00
 -1      2893 1.22182E+02 3.78430E+01 0.00000E+00
 -1      2894 9.85289E+01 3.09281E+01 0.00000E+00
 -1      2895 9.90601E+01 2.98027E+01 0.00000E+00
 -1      2896 9.85405E+01 3.80633E+01 0.00000E+00
 -1      2897 9.80203E+01 3.70429E+01 0.00000E+00
 -1      2898 9.75032E+01 3.87691E+01 0.00000E+00
 -1      2899 1.21593E+02 3.88455E+01 0.00000E+00
 -1      2900 1.21004E+02 3.98479E+01 0.00000E+00
 -1      2901 1.22717E+02 3.88349E+01 0.00000E+00
 -1      2902 1.21814E+02 4.10442E+01 0.00000E+00
 -1      2903 1.23314E+02 4.10442E+01 0.00000E+00
 -1      2904 7.85850E+00 3.92077E+01 0.00000E+00
 -1      2905 9.96276E+01 2.86373E+01 0.00000E+00
 -1      2906 1.00235E+02 2.76047E+01 0.00000E+00
 -1      2907 1.22645E+02 3.39641E+01 0.00000E+00
 -1      2908 1.22816E+02 3.53387E+01 0.00000E+00
 -1      2909 1.05270E+02 2.34905E+01 0.00000E+00
 -1      2910 1.06290E+02 2.31528E+01 0.00000E+00
 -1      2911 1.13068E+02 2.24946E+01 0.00000E+00
 -1      2912 1.14012E+02 2.27660E+01 0.00000E+00
 -1      2913 1.03288E+02 2.47268E+01 0.00000E+00
 -1      2914 1.04185E+02 2.41765E+01 0.00000E+00
 -1      2915 1.01210E+02 2.64351E+01 0.00000E+00
 -1      2916 1.02215E+02 2.55401E+01 0.00000E+00
 -1      2917 9.09300E+00 1.68813E+01 0.00000E+00
 -1      2918 9.09300E+00 1.83563E+01 0.00000E+00
 -1      2919 1.03920E+01 1.90812E+01 0.00000E+00
 -1      2920 1.03920E+01 1.61437E+01 0.00000E+00
 -1      2921 9.09300E+00 3.15875E+01 0.00000E+00
 -1      2922 9.09300E+00 3.30625E+01 0.00000E+00
 -1      2923 9.79147E+01 3.59538E+01 0.00000E+00
 -1      2924 9.78091E+01 3.48646E+01 0.00000E+00
 -1      2925 9.68774E+01 3.66595E+01 0.00000E+00
 -1      2926 1.10156E+02 2.29204E+01 0.00000E+00
 -1      2927 1.11468E+02 2.25458E+01 0.00000E+00
 -1      2928 9.81130E+01 3.35275E+01 0.00000E+00
 -1      2929 9.81902E+01 3.23676E+01 0.00000E+00
 -1      2930 1.40907E+02 2.42875E+01 0.00000E+00
 -1      2931 1.40907E+02 2.28125E+01 0.00000E+00
 -1      2932 1.39608E+02 2.50250E+01 0.00000E+00
 -1      2933 1.40827E+02 1.57758E+01 0.00000E+00
 -1      2934 1.40827E+02 1.43258E+01 0.00000E+00
 -1      2935 1.39370E+02 1.42399E+01 0.00000E+00
 -1      2936 1.39529E+02 1.65133E+01 0.00000E+00
 -1      2937 2.61240E+01 8.68250E+00 0.00000E+00
 -1      2938 2.46240E+01 8.68250E+00 0.00000E+00
 -1      2939 2.38740E+01 9.98150E+00 0.00000E+00
 -1      2940 2.68740E+01 9.98150E+00 0.00000E+00
 -1      2941 1.25250E+02 4.09520E+01 0.00000E+00
 -1      2942 1.26750E+02 4.09520E+01 0.00000E+00
 -1      2943 1.27500E+02 3.96530E+01 0.00000E+00
 -1      2944 1.17209E+02 2.52004E+01 0.00000E+00
 -1      2945 1.18324E+02 2.58423E+01 0.00000E+00
 -1      2946 1.03920E+01 2.49750E+01 0.00000E+00
 -1      2947 9.09300E+00 2.57000E+01 0.00000E+00
 -1      2948 9.09300E+00 2.71750E+01 0.00000E+00
 -1      2949 9.00375E+00 8.96981E+00 0.00000E+00
 -1      2950 1.20796E+02 2.82377E+01 0.00000E+00
 -1      2951 1.14836E+02 2.26850E+01 0.00000E+00
 -1      2952 1.15660E+02 2.26040E+01 0.00000E+00
 -1      2953 1.14601E+02 2.17251E+01 0.00000E+00
 -1      2954 1.19465E+02 2.57787E+01 0.00000E+00
 -1      2955 1.02215E+02 2.45339E+01 0.00000E+00
 -1      2956 1.04373E+02 2.30345E+01 0.00000E+00
 -1      2957 9.58117E+01 3.96988E+01 0.00000E+00
 -1      2958 9.77182E+01 3.14567E+01 0.00000E+00
 -1      2959 9.72462E+01 3.05458E+01 0.00000E+00
 -1      2960 9.69076E+01 3.19853E+01 0.00000E+00
 -1      2961 9.91240E+01 2.65985E+01 0.00000E+00
 -1      2962 1.00167E+02 2.65168E+01 0.00000E+00
 -1      2963 1.00099E+02 2.54289E+01 0.00000E+00
 -1      2964 1.21832E+02 2.99270E+01 0.00000E+00
 -1      2965 1.21496E+02 3.07449E+01 0.00000E+00
 -1      2966 1.22389E+02 3.11211E+01 0.00000E+00
 -1      2967 1.24064E+02 3.97452E+01 0.00000E+00
 -1      2968 1.39608E+02 2.20750E+01 0.00000E+00
 -1      2969 8.85168E+00 4.05347E+01 0.00000E+00
 -1      2970 1.02152E+01 4.07987E+01 0.00000E+00
 -1      2971 1.23569E+02 3.61735E+01 0.00000E+00
 -1      2972 1.41014E+02 3.83130E+01 0.00000E+00
 -1      2973 1.41027E+02 3.70754E+01 0.00000E+00
 -1      2974 1.39728E+02 3.63379E+01 0.00000E+00
 -1      2975 1.39969E+02 3.84137E+01 0.00000E+00
 -1      2976 1.48740E+01 9.98151E+00 0.00000E+00
 -1      2977 1.41240E+01 8.68251E+00 0.00000E+00
 -1      2978 1.30515E+01 8.34733E+00 0.00000E+00
 -1      2979 1.17087E+02 2.40984E+01 0.00000E+00
 -1      2980 1.03920E+01 3.37938E+01 0.00000E+00
 -1      2981 9.09300E+00 3.45313E+01 0.00000E+00
 -1      2982 9.09300E+00 3.60000E+01 0.00000E+00
 -1      2983 9.86244E+01 2.88518E+01 0.00000E+00
 -1      2984 1.11285E+02 2.12200E+01 0.00000E+00
 -1      2985 1.12177E+02 2.18573E+01 0.00000E+00
 -1      2986 1.12886E+02 2.11688E+01 0.00000E+00
 -1      2987 1.20690E+02 4.10548E+01 0.00000E+00
 -1      2988 1.22665E+02 3.21739E+01 0.00000E+00
 -1      2989 1.22368E+02 3.29112E+01 0.00000E+00
 -1      2990 1.23554E+02 3.34618E+01 0.00000E+00
 -1      2991 1.23001E+02 3.13560E+01 0.00000E+00
 -1      2992 1.06932E+02 2.25152E+01 0.00000E+00
 -1      2993 1.07575E+02 2.18776E+01 0.00000E+00
 -1      2994 1.06100E+02 2.17108E+01 0.00000E+00
 -1      2995 1.03027E+01 9.70731E+00 0.00000E+00
 -1      2996 9.09300E+00 2.86437E+01 0.00000E+00
 -1      2997 9.09300E+00 3.01187E+01 0.00000E+00
 -1      2998 1.03920E+01 3.08563E+01 0.00000E+00
 -1      2999 1.03920E+01 2.79188E+01 0.00000E+00
 -1      3000 1.09492E+02 2.22952E+01 0.00000E+00
 -1      3001 9.70757E+01 3.42333E+01 0.00000E+00
 -1      3002 1.09652E+01 3.94997E+01 0.00000E+00
 -1      3003 1.16910E+01 1.24625E+01 0.00000E+00
 -1      3004 1.16910E+01 1.39375E+01 0.00000E+00
 -1      3005 1.14712E+01 7.20138E+00 0.00000E+00
 -1      3006 1.21544E+02 2.73006E+01 0.00000E+00
 -1      3007 1.21688E+02 2.86138E+01 0.00000E+00
 -1      3008 1.22581E+02 2.89900E+01 0.00000E+00
 -1      3009 1.59000E+01 3.83090E+01 0.00000E+00
 -1      3010 1.74000E+01 3.83090E+01 0.00000E+00
 -1      3011 1.89000E+01 3.83090E+01 0.00000E+00
 -1      3012 2.04000E+01 3.83090E+01 0.00000E+00
 -1      3013 1.81500E+01 3.70100E+01 0.00000E+00
 -1      3014 2.19000E+01 3.83090E+01 0.00000E+00
 -1      3015 2.34000E+01 3.83090E+01 0.00000E+00
 -1      3016 2.11500E+01 3.70100E+01 0.00000E+00
 -1      3017 2.49750E+01 3.83090E+01 0.00000E+00
 -1      3018 2.65500E+01 3.83090E+01 0.00000E+00
 -1      3019 2.42250E+01 3.70100E+01 0.00000E+00
 -1      3020 2.80500E+01 3.83090E+01 0.00000E+00
 -1      3021 2.95500E+01 3.83090E+01 0.00000E+00
 -1      3022 2.73000E+01 3.70100E+01 0.00000E+00
 -1      3023 3.10500E+01 3.83090E+01 0.00000E+00
 -1      3024 3.25500E+01 3.83090E+01 0.00000E+00
 -1      3025 3.03000E+01 3.70100E+01 0.00000E+00
 -1      3026 3.40500E+01 3.83090E+01 0.00000E+00
 -1      3027 3.55500E+01 3.83090E+01 0.00000E+00
 -1      3028 3.33000E+01 3.70100E+01 0.00000E+00
 -1      3029 3.70500E+01 3.83090E+01 0.00000E+00
 -1      3030 3.85500E+01 3.83090E+01 0.00000E+00
 -1      3031 3.63000E+01 3.70100E+01 0.00000E+00
 -1      3032 4.00500E+01 3.83090E+01 0.00000E+00
 -1      3033 4.15500E+01 3.83090E+01 0.00000E+00
 -1      3034 3.93000E+01 3.70100E+01 0.00000E+00
 -1      3035 4.30500E+01 3.83090E+01 0.00000E+00
 -1      3036 4.45500E+01 3.83090E+01 0.00000E+00
 -1      3037 4.23000E+01 3.70100E+01 0.00000E+00
 -1      3038 4.60500E+01 3.83090E+01 0.00000E+00
 -1      3039 4.75500E+01 3.83090E+01 0.00000E+00
 -1      3040 4.53000E+01 3.70100E+01 0.00000E+00
 -1      3041 4.90500E+01 3.83090E+01 0.00000E+00
 -1      3042 5.05500E+01 3.83090E+01 0.00000E+00
 -1      3043 4.83000E+01 3.70100E+01 0.00000E+00
 -1      3044 5.20500E+01 3.83090E+01 0.00000E+00
 -1      3045 5.35500E+01 3.83090E+01 0.00000E+00
 -1      3046 5.13000E+01 3.70100E+01 0.00000E+00
 -1      3047 5.50500E+01 3.83090E+01 0.00000E+00
 -1      3048 5.65500E+01 3.83090E+01 0.00000E+00
 -1      3049 5.43000E+01 3.70100E+01 0.00000E+00
 -1      3050 5.81250E+01 3.83090E+01 0.00000E+00
 -1      3051 5.97000E+01 3.83090E+01 0.00000E+00
 -1      3052 5.73750E+01 3.70100E+01 0.00000E+00
 -1      3053 6.12000E+01 3.83090E+01 0.00000E+00
 -1      3054 6.27000E+01 3.83090E+01 0.00000E+00
 -1      3055 6.04500E+01 3.70100E+01 0.00000E+00
 -1      3056 6.42000E+01 3.83090E+01 0.00000E+00
 -1      3057 6.57000E+01 3.83090E+01 0.00000E+00
 -1      3058 6.34500E+01 3.70100E+01 0.00000E+00
 -1      3059 6.72000E+01 3.83090E+01 0.00000E+00
 -1      3060 6.87000E+01 3.83090E+01 0.00000E+00
 -1      3061 6.64500E+01 3.70100E+01 0.00000E+00
 -1      3062 7.02000E+01 3.83090E+01 0.00000E+00
 -1      3063 7.17000E+01 3.83090E+01 0.00000E+00
 -1      3064 6.94500E+01 3.70100E+01 0.00000E+00
 -1      3065 7.32000E+01 3.83090E+01 0.00000E+00
 -1      3066 7.47000E+01 3.83090E+01 0.00000E+00
 -1      3067 7.24500E+01 3.70100E+01 0.00000E+00
 -1      3068 7.62000E+01 3.83090E+01 0.00000E+00
 -1      3069 7.77000E+01 3.83090E+01 0.00000E+00
 -1      3070 7.54500E+01 3.70100E+01 0.00000E+00
 -1      3071 7.92000E+01 3.83090E+01 0.00000E+00
 -1      3072 8.07000E+01 3.83090E+01 0.00000E+00
 -1      3073 7.84500E+01 3.70100E+01 0.00000E+00
 -1      3074 8.22000E+01 3.83090E+01 0.00000E+00
 -1      3075 8.37000E+01 3.83090E+01 0.00000E+00
 -1      3076 8.14500E+01 3.70100E+01 0.00000E+00
 -1      3077 8.52000E+01 3.83090E+01 0.00000E+00
 -1      3078 8.67000E+01 3.83090E+01 0.00000E+00
 -1      3079 8.44500E+01 3.70100E+01 0.00000E+00
 -1      3080 8.82000E+01 3.83090E+01 0.00000E+00
 -1      3081 8.97000E+01 3.83090E+01 0.00000E+00
 -1      3082 8.74500E+01 3.70100E+01 0.00000E+00
 -1      3083 9.12750E+01 3.83090E+01 0.00000E+00
 -1      3084 9.28500E+01 3.83090E+01 0.00000E+00
 -1      3085 9.05250E+01 3.70100E+01 0.00000E+00
 -1      3086 1.38309E+02 3.45625E+01 0.00000E+00
 -1      3087 1.38309E+02 3.30875E+01 0.00000E+00
 -1      3088 1.29750E+02 3.83540E+01 0.00000E+00
 -1      3089 1.31250E+02 3.83540E+01 0.00000E+00
 -1      3090 1.26750E+02 3.83540E+01 0.00000E+00
 -1      3091 1.28250E+02 3.83540E+01 0.00000E+00
 -1      3092 1.29000E+02 3.70550E+01 0.00000E+00
 -1      3093 1.32750E+02 3.83540E+01 0.00000E+00
 -1      3094 1.34250E+02 3.83540E+01 0.00000E+00
 -1      3095 1.32000E+02 3.70550E+01 0.00000E+00
 -1      3096 1.35750E+02 3.83540E+01 0.00000E+00
 -1      3097 1.37250E+02 3.83540E+01 0.00000E+00
 -1      3098 1.35000E+02 3.70550E+01 0.00000E+00
 -1      3099 2.16240E+01 1.12805E+01 0.00000E+00
 -1      3100 2.01240E+01 1.12805E+01 0.00000E+00
 -1      3101 1.86240E+01 1.12805E+01 0.00000E+00
 -1      3102 1.71240E+01 1.12805E+01 0.00000E+00
 -1      3103 1.93740E+01 1.25795E+01 0.00000E+00
 -1      3104 3.36240E+01 1.12805E+01 0.00000E+00
 -1      3105 3.21240E+01 1.12805E+01 0.00000E+00
 -1      3106 3.06240E+01 1.12805E+01 0.00000E+00
 -1      3107 2.91240E+01 1.12805E+01 0.00000E+00
 -1      3108 3.13740E+01 1.25795E+01 0.00000E+00
 -1      3109 3.96240E+01 1.12805E+01 0.00000E+00
 -1      3110 3.81240E+01 1.12805E+01 0.00000E+00
 -1      3111 4.26240E+01 1.12805E+01 0.00000E+00
 -1      3112 4.11240E+01 1.12805E+01 0.00000E+00
 -1      3113 4.03740E+01 1.25795E+01 0.00000E+00
 -1      3114 4.56240E+01 1.12805E+01 0.00000E+00
 -1      3115 4.41240E+01 1.12805E+01 0.00000E+00
 -1      3116 4.33740E+01 1.25795E+01 0.00000E+00
 -1      3117 4.86240E+01 1.12805E+01 0.00000E+00
 -1      3118 4.71240E+01 1.12805E+01 0.00000E+00
 -1      3119 4.63740E+01 1.25795E+01 0.00000E+00
 -1      3120 5.16240E+01 1.12805E+01 0.00000E+00
 -1      3121 5.01240E+01 1.12805E+01 0.00000E+00
 -1      3122 4.93740E+01 1.25795E+01 0.00000E+00
 -1      3123 5.46240E+01 1.12805E+01 0.00000E+00
 -1      3124 5.31240E+01 1.12805E+01 0.00000E+00
 -1      3125 5.23740E+01 1.25795E+01 0.00000E+00
 -1      3126 5.76240E+01 1.12805E+01 0.00000E+00
 -1      3127 5.61240E+01 1.12805E+01 0.00000E+00
 -1      3128 5.53740E+01 1.25795E+01 0.00000E+00
 -1      3129 6.06240E+01 1.12805E+01 0.00000E+00
 -1      3130 5.91240E+01 1.12805E+01 0.00000E+00
 -1      3131 5.83740E+01 1.25795E+01 0.00000E+00
 -1      3132 6.36240E+01 1.12805E+01 0.00000E+00
 -1      3133 6.21240E+01 1.12805E+01 0.00000E+00
 -1      3134 6.13740E+01 1.25795E+01 0.00000E+00
 -1      3135 6.66240E+01 1.12805E+01 0.00000E+00
 -1      3136 6.51240E+01 1.12805E+01 0.00000E+00
 -1      3137 6.43740E+01 1.25795E+01 0.00000E+00
 -1      3138 6.96240E+01 1.12805E+01 0.00000E+00
 -1      3139 6.81240E+01 1.12805E+01 0.00000E+00
 -1      3140 6.73740E+01 1.25795E+01 0.00000E+00
 -1      3141 7.26240E+01 1.12805E+01 0.00000E+00
 -1      3142 7.11240E+01 1.12805E+01 0.00000E+00
 -1      3143 7.03740E+01 1.25795E+01 0.00000E+00
 -1      3144 7.56240E+01 1.12805E+01 0.00000E+00
 -1      3145 7.41240E+01 1.12805E+01 0.00000E+00
 -1      3146 7.33740E+01 1.25795E+01 0.00000E+00
 -1      3147 7.86240E+01 1.12805E+01 0.00000E+00
 -1      3148 7.71240E+01 1.12805E+01 0.00000E+00
 -1      3149 7.63740E+01 1.25795E+01 0.00000E+00
 -1      3150 8.16240E+01 1.12805E+01 0.00000E+00
 -1      3151 8.01240E+01 1.12805E+01 0.00000E+00
 -1      3152 7.93740E+01 1.25795E+01 0.00000E+00
 -1      3153 8.46240E+01 1.12805E+01 0.00000E+00
 -1      3154 8.31240E+01 1.12805E+01 0.00000E+00
 -1      3155 8.23740E+01 1.25795E+01 0.00000E+00
 -1      3156 8.76240E+01 1.12805E+01 0.00000E+00
 -1      3157 8.61240E+01 1.12805E+01 0.00000E+00
 -1      3158 8.53740E+01 1.25795E+01 0.00000E+00
 -1      3159 9.06240E+01 1.12805E+01 0.00000E+00
 -1      3160 8.91240E+01 1.12805E+01 0.00000E+00
 -1      3161 8.83740E+01 1.25795E+01 0.00000E+00
 -1      3162 9.36240E+01 1.12805E+01 0.00000E+00
 -1      3163 9.21240E+01 1.12805E+01 0.00000E+00
 -1      3164 9.13740E+01 1.25795E+01 0.00000E+00
 -1      3165 9.66240E+01 1.12805E+01 0.00000E+00
 -1      3166 9.51240E+01 1.12805E+01 0.00000E+00
 -1      3167 9.43740E+01 1.25795E+01 0.00000E+00
 -1      3168 9.96240E+01 1.12805E+01 0.00000E+00
 -1      3169 9.81240E+01 1.12805E+01 0.00000E+00
 -1      3170 9.73740E+01 1.25795E+01 0.00000E+00
 -1      3171 1.02624E+02 1.12805E+01 0.00000E+00
 -1      3172 1.01124E+02 1.12805E+01 0.00000E+00
 -1      3173 1.00374E+02 1.25795E+01 0.00000E+00
 -1      3174 1.05624E+02 1.12805E+01 0.00000E+00
 -1      3175 1.04124E+02 1.12805E+01 0.00000E+00
 -1      3176 1.03374E+02 1.25795E+01 0.00000E+00
 -1      3177 1.08624E+02 1.12805E+01 0.00000E+00
 -1      3178 1.07124E+02 1.12805E+01 0.00000E+00
 -1      3179 1.06374E+02 1.25795E+01 0.00000E+00
 -1      3180 1.11624E+02 1.12805E+01 0.00000E+00
 -1      3181 1.10124E+02 1.12805E+01 0.00000E+00
 -1      3182 1.09374E+02 1.25795E+01 0.00000E+00
 -1      3183 1.14624E+02 1.12805E+01 0.00000E+00
 -1      3184 1.13124E+02 1.12805E+01 0.00000E+00
 -1      3185 1.12374E+02 1.25795E+01 0.00000E+00
 -1      3186 1.17624E+02 1.12805E+01 0.00000E+00
 -1      3187 1.16124E+02 1.12805E+01 0.00000E+00
 -1      3188 1.15374E+02 1.25795E+01 0.00000E+00
 -1      3189 1.20624E+02 1.12805E+01 0.00000E+00
 -1      3190 1.19124E+02 1.12805E+01 0.00000E+00
 -1      3191 1.18374E+02 1.25795E+01 0.00000E+00
 -1      3192 1.23624E+02 1.12805E+01 0.00000E+00
 -1      3193 1.22124E+02 1.12805E+01 0.00000E+00
 -1      3194 1.21374E+02 1.25795E+01 0.00000E+00
 -1      3195 1.26624E+02 1.12805E+01 0.00000E+00
 -1      3196 1.25124E+02 1.12805E+01 0.00000E+00
 -1      3197 1.24374E+02 1.25795E+01 0.00000E+00
 -1      3198 1.29624E+02 1.12805E+01 0.00000E+00
 -1      3199 1.28124E+02 1.12805E+01 0.00000E+00
 -1      3200 1.27374E+02 1.25795E+01 0.00000E+00
 -1      3201 1.32624E+02 1.12805E+01 0.00000E+00
 -1      3202 1.31124E+02 1.12805E+01 0.00000E+00
 -1      3203 1.30374E+02 1.25795E+01 0.00000E+00
 -1      3204 1.35624E+02 1.12805E+01 0.00000E+00
 -1      3205 1.34124E+02 1.12805E+01 0.00000E+00
 -1      3206 1.33374E+02 1.25795E+01 0.00000E+00
 -1      3207 1.38186E+02 1.14973E+01 0.00000E+00
 -1      3208 1.36728E+02 1.14114E+01 0.00000E+00
 -1      3209 1.35978E+02 1.27104E+01 0.00000E+00
 -1      3210 1.38186E+02 1.29723E+01 0.00000E+00
 -1      3211 8.78718E+00 3.80644E+01 0.00000E+00
 -1      3212 1.24653E+02 3.87427E+01 0.00000E+00
 -1      3213 1.00862E+01 3.73269E+01 0.00000E+00
 -1      3214 1.38309E+02 1.98625E+01 0.00000E+00
 -1      3215 1.38309E+02 1.83875E+01 0.00000E+00
 -1      3216 1.38309E+02 3.16125E+01 0.00000E+00
 -1      3217 1.38309E+02 3.01375E+01 0.00000E+00
 -1      3218 1.37010E+02 3.23500E+01 0.00000E+00
 -1      3219 1.38309E+02 2.86875E+01 0.00000E+00
 -1      3220 1.38309E+02 2.72375E+01 0.00000E+00
 -1      3221 1.37010E+02 2.94250E+01 0.00000E+00
 -1      3222 1.38309E+02 2.28125E+01 0.00000E+00
 -1      3223 1.38309E+02 2.13375E+01 0.00000E+00
 -1      3224 1.37010E+02 2.06000E+01 0.00000E+00
 -1      3225 1.17938E+01 8.83558E+00 0.00000E+00
 -1      3226 1.38309E+02 2.57625E+01 0.00000E+00
 -1      3227 1.38309E+02 2.42875E+01 0.00000E+00
 -1      3228 1.37010E+02 2.35500E+01 0.00000E+00
 -1      3229 1.37010E+02 2.65000E+01 0.00000E+00
 -1      3230 1.29000E+01 3.83090E+01 0.00000E+00
 -1      3231 1.44000E+01 3.83090E+01 0.00000E+00
 -1      3232 1.51500E+01 3.70100E+01 0.00000E+00
 -1      3233 1.25403E+02 3.74437E+01 0.00000E+00
 -1      3234 1.18830E+01 1.08533E+01 0.00000E+00
 -1      3235 1.19700E+02 2.43478E+01 0.00000E+00
 -1      3236 1.20887E+02 2.54936E+01 0.00000E+00
 -1      3237 3.66240E+01 1.12805E+01 0.00000E+00
 -1      3238 3.51240E+01 1.12805E+01 0.00000E+00
 -1      3239 3.43740E+01 1.25795E+01 0.00000E+00
 -1      3240 3.73740E+01 1.25795E+01 0.00000E+00
 -1      3241 9.52915E+01 3.86783E+01 0.00000E+00
 -1      3242 9.74943E+01 2.90224E+01 0.00000E+00
 -1      3243 9.80618E+01 2.78570E+01 0.00000E+00
 -1      3244 1.03327E+02 2.25820E+01 0.00000E+00
 -1      3245 1.04412E+02 2.18959E+01 0.00000E+00
 -1      3246 9.60058E+01 3.46932E+01 0.00000E+00
 -1      3247 9.63097E+01 3.33561E+01 0.00000E+00
 -1      3248 1.16910E+01 2.12875E+01 0.00000E+00
 -1      3249 1.16910E+01 2.27625E+01 0.00000E+00
 -1      3250 1.31820E+01 1.15908E+01 0.00000E+00
 -1      3251 1.01110E+02 2.41903E+01 0.00000E+00
 -1      3252 1.02183E+02 2.33770E+01 0.00000E+00
 -1      3253 1.08660E+02 2.14909E+01 0.00000E+00
 -1      3254 1.09744E+02 2.11041E+01 0.00000E+00
 -1      3255 1.07828E+02 2.06865E+01 0.00000E+00
 -1      3256 1.16910E+02 2.28958E+01 0.00000E+00
 -1      3257 1.18102E+02 2.34304E+01 0.00000E+00
 -1      3258 9.40179E+01 3.79491E+01 0.00000E+00
 -1      3259 9.57094E+01 3.70194E+01 0.00000E+00
 -1      3260 9.56038E+01 3.59303E+01 0.00000E+00
 -1      3261 9.32679E+01 3.66501E+01 0.00000E+00
 -1      3262 1.21779E+02 2.58697E+01 0.00000E+00
 -1      3263 1.22672E+02 2.62459E+01 0.00000E+00
 -1      3264 1.22014E+02 2.44388E+01 0.00000E+00
 -1      3265 1.25665E+02 3.57848E+01 0.00000E+00
 -1      3266 1.29900E+01 1.46687E+01 0.00000E+00
 -1      3267 1.16910E+01 1.54063E+01 0.00000E+00
 -1      3268 1.16910E+01 1.68750E+01 0.00000E+00
 -1      3269 1.14072E+02 2.05786E+01 0.00000E+00
 -1      3270 1.14896E+02 2.04976E+01 0.00000E+00
 -1      3271 1.16910E+01 3.01219E+01 0.00000E+00
 -1      3272 1.16910E+01 3.15906E+01 0.00000E+00
 -1      3273 9.58377E+01 3.24452E+01 0.00000E+00
 -1      3274 1.38054E+02 3.61775E+01 0.00000E+00
 -1      3275 1.36755E+02 3.54400E+01 0.00000E+00
 -1      3276 9.79939E+01 2.67691E+01 0.00000E+00
 -1      3277 9.79261E+01 2.56811E+01 0.00000E+00
 -1      3278 9.68639E+01 2.69397E+01 0.00000E+00
 -1      3279 1.16675E+02 2.19359E+01 0.00000E+00
 -1      3280 2.31240E+01 1.12805E+01 0.00000E+00
 -1      3281 2.23740E+01 1.25795E+01 0.00000E+00
 -1      3282 2.46240E+01 1.12805E+01 0.00000E+00
 -1      3283 1.38924E+02 3.85144E+01 0.00000E+00
 -1      3284 1.02222E+02 2.22384E+01 0.00000E+00
 -1      3285 2.83740E+01 1.25795E+01 0.00000E+00
 -1      3286 2.76240E+01 1.12805E+01 0.00000E+00
 -1      3287 2.61240E+01 1.12805E+01 0.00000E+00
 -1      3288 1.38266E+02 1.41090E+01 0.00000E+00
 -1      3289 1.37161E+02 1.39781E+01 0.00000E+00
 -1      3290 1.38345E+02 1.52457E+01 0.00000E+00
 -1      3291 1.25487E+02 3.40817E+01 0.00000E+00
 -1      3292 1.27322E+02 3.53519E+01 0.00000E+00
 -1      3293 9.58730E+01 3.00795E+01 0.00000E+00
 -1      3294 9.66836E+01 2.95510E+01 0.00000E+00
 -1      3295 9.61210E+01 2.85562E+01 0.00000E+00
 -1      3296 1.56240E+01 1.12805E+01 0.00000E+00
 -1      3297 1.41241E+01 1.12805E+01 0.00000E+00
 -1      3298 1.16910E+01 3.30594E+01 0.00000E+00
 -1      3299 1.16910E+01 3.45281E+01 0.00000E+00
 -1      3300 1.29900E+01 3.23250E+01 0.00000E+00
 -1      3301 1.10453E+02 2.04157E+01 0.00000E+00
 -1      3302 1.11162E+02 1.97272E+01 0.00000E+00
 -1      3303 1.09621E+02 1.96113E+01 0.00000E+00
 -1      3304 1.16910E+01 1.98188E+01 0.00000E+00
 -1      3305 1.29900E+01 2.05562E+01 0.00000E+00
 -1      3306 1.16910E+01 1.83500E+01 0.00000E+00
 -1      3307 1.05055E+02 2.12583E+01 0.00000E+00
 -1      3308 1.05697E+02 2.06206E+01 0.00000E+00
 -1      3309 1.04009E+02 2.08058E+01 0.00000E+00
 -1      3310 1.13181E+02 1.99414E+01 0.00000E+00
 -1      3311 1.38174E+02 3.72154E+01 0.00000E+00
 -1      3312 1.19524E+02 2.31452E+01 0.00000E+00
 -1      3313 9.48378E+01 3.50531E+01 0.00000E+00
 -1      3314 1.39320E+01 1.28898E+01 0.00000E+00
 -1      3315 1.12710E+01 3.74352E+01 0.00000E+00
 -1      3316 1.29900E+01 2.35000E+01 0.00000E+00
 -1      3317 1.16910E+01 2.42375E+01 0.00000E+00
 -1      3318 1.16910E+01 2.57125E+01 0.00000E+00
 -1      3319 9.90243E+01 2.43536E+01 0.00000E+00
 -1      3320 1.00067E+02 2.42720E+01 0.00000E+00
 -1      3321 1.00035E+02 2.31151E+01 0.00000E+00
 -1      3322 1.38367E+02 1.73849E+01 0.00000E+00
 -1      3323 1.38287E+02 1.62482E+01 0.00000E+00
 -1      3324 1.37183E+02 1.61173E+01 0.00000E+00
 -1      3325 1.37068E+02 1.81224E+01 0.00000E+00
 -1      3326 1.20210E+01 3.61362E+01 0.00000E+00
 -1      3327 1.25211E+02 3.30288E+01 0.00000E+00
 -1      3328 1.63740E+01 1.25795E+01 0.00000E+00
 -1      3329 1.16910E+01 2.86531E+01 0.00000E+00
 -1      3330 1.29900E+01 2.93875E+01 0.00000E+00
 -1      3331 1.16910E+01 2.71844E+01 0.00000E+00
 -1      3332 9.46759E+01 3.27543E+01 0.00000E+00
 -1      3333 9.52738E+01 3.13835E+01 0.00000E+00
 -1      3334 1.19360E+02 2.15795E+01 0.00000E+00
 -1      3335 1.20958E+02 2.24969E+01 0.00000E+00
 -1      3336 2.04000E+01 3.57110E+01 0.00000E+00
 -1      3337 2.19000E+01 3.57110E+01 0.00000E+00
 -1      3338 2.34750E+01 3.57110E+01 0.00000E+00
 -1      3339 2.50500E+01 3.57110E+01 0.00000E+00
 -1      3340 2.27250E+01 3.44120E+01 0.00000E+00
 -1      3341 2.65500E+01 3.57110E+01 0.00000E+00
 -1      3342 2.80500E+01 3.57110E+01 0.00000E+00
 -1      3343 2.58000E+01 3.44120E+01 0.00000E+00
 -1      3344 2.95500E+01 3.57110E+01 0.00000E+00
 -1      3345 3.10500E+01 3.57110E+01 0.00000E+00
 -1      3346 2.88000E+01 3.44120E+01 0.00000E+00
 -1      3347 3.25500E+01 3.57110E+01 0.00000E+00
 -1      3348 3.40500E+01 3.57110E+01 0.00000E+00
 -1      3349 3.18000E+01 3.44120E+01 0.00000E+00
 -1      3350 3.55500E+01 3.57110E+01 0.00000E+00
 -1      3351 3.70500E+01 3.57110E+01 0.00000E+00
 -1      3352 3.48000E+01 3.44120E+01 0.00000E+00
 -1      3353 3.85500E+01 3.57110E+01 0.00000E+00
 -1      3354 4.00500E+01 3.57110E+01 0.00000E+00
 -1      3355 3.78000E+01 3.44120E+01 0.00000E+00
 -1      3356 4.15500E+01 3.57110E+01 0.00000E+00
 -1      3357 4.30500E+01 3.57110E+01 0.00000E+00
 -1      3358 4.08000E+01 3.44120E+01 0.00000E+00
 -1      3359 4.45500E+01 3.57110E+01 0.00000E+00
 -1      3360 4.60500E+01 3.57110E+01 0.00000E+00
 -1      3361 4.38000E+01 3.44120E+01 0.00000E+00
 -1      3362 4.75500E+01 3.57110E+01 0.00000E+00
 -1      3363 4.90500E+01 3.57110E+01 0.00000E+00
 -1      3364 4.68000E+01 3.44120E+01 0.00000E+00
 -1      3365 5.05500E+01 3.57110E+01 0.00000E+00
 -1      3366 5.20500E+01 3.57110E+01 0.00000E+00
 -1      3367 4.98000E+01 3.44120E+01 0.00000E+00
 -1      3368 5.35500E+01 3.57110E+01 0.00000E+00
 -1      3369 5.50500E+01 3.57110E+01 0.00000E+00
 -1      3370 5.28000E+01 3.44120E+01 0.00000E+00
 -1      3371 5.66250E+01 3.57110E+01 0.00000E+00
 -1      3372 5.82000E+01 3.57110E+01 0.00000E+00
 -1      3373 5.58750E+01 3.44120E+01 0.00000E+00
 -1      3374 5.97000E+01 3.57110E+01 0.00000E+00
 -1      3375 6.12000E+01 3.57110E+01 0.00000E+00
 -1      3376 5.89500E+01 3.44120E+01 0.00000E+00
 -1      3377 6.27000E+01 3.57110E+01 0.00000E+00
 -1      3378 6.42000E+01 3.57110E+01 0.00000E+00
 -1      3379 6.19500E+01 3.44120E+01 0.00000E+00
 -1      3380 6.57000E+01 3.57110E+01 0.00000E+00
 -1      3381 6.72000E+01 3.57110E+01 0.00000E+00
 -1      3382 6.49500E+01 3.44120E+01 0.00000E+00
 -1      3383 6.87000E+01 3.57110E+01 0.00000E+00
 -1      3384 7.02000E+01 3.57110E+01 0.00000E+00
 -1      3385 6.79500E+01 3.44120E+01 0.00000E+00
 -1      3386 7.17000E+01 3.57110E+01 0.00000E+00
 -1      3387 7.32000E+01 3.57110E+01 0.00000E+00
 -1      3388 7.09500E+01 3.44120E+01 0.00000E+00
 -1      3389 7.47000E+01 3.57110E+01 0.00000E+00
 -1      3390 7.62000E+01 3.57110E+01 0.00000E+00
 -1      3391 7.39500E+01 3.44120E+01 0.00000E+00
 -1      3392 7.77000E+01 3.57110E+01 0.00000E+00
 -1      3393 7.92000E+01 3.57110E+01 0.00000E+00
 -1      3394 7.69500E+01 3.44120E+01 0.00000E+00
 -1      3395 8.07000E+01 3.57110E+01 0.00000E+00
 -1      3396 8.22000E+01 3.57110E+01 0.00000E+00
 -1      3397 7.99500E+01 3.44120E+01 0.00000E+00
 -1      3398 8.37000E+01 3.57110E+01 0.00000E+00
 -1      3399 8.52000E+01 3.57110E+01 0.00000E+00
 -1      3400 8.29500E+01 3.44120E+01 0.00000E+00
 -1      3401 8.67000E+01 3.57110E+01 0.00000E+00
 -1      3402 8.82000E+01 3.57110E+01 0.00000E+00
 -1      3403 8.59500E+01 3.44120E+01 0.00000E+00
 -1      3404 8.97750E+01 3.57110E+01 0.00000E+00
 -1      3405 9.13500E+01 3.57110E+01 0.00000E+00
 -1      3406 8.90250E+01 3.44120E+01 0.00000E+00
 -1      3407 1.16147E+02 2.07895E+01 0.00000E+00
 -1      3408 1.17397E+02 2.10813E+01 0.00000E+00
 -1      3409 1.15618E+02 1.96430E+01 0.00000E+00
 -1      3410 1.28822E+02 3.53519E+01 0.00000E+00
 -1      3411 1.30322E+02 3.53519E+01 0.00000E+00
 -1      3412 1.28644E+02 3.36488E+01 0.00000E+00
 -1      3413 1.44000E+01 3.57110E+01 0.00000E+00
 -1      3414 1.59000E+01 3.57110E+01 0.00000E+00
 -1      3415 1.31822E+02 3.53519E+01 0.00000E+00
 -1      3416 1.33322E+02 3.53519E+01 0.00000E+00
 -1      3417 1.31644E+02 3.36488E+01 0.00000E+00
 -1      3418 1.34822E+02 3.53519E+01 0.00000E+00
 -1      3419 4.41240E+01 1.38785E+01 0.00000E+00
 -1      3420 4.26240E+01 1.38785E+01 0.00000E+00
 -1      3421 4.11240E+01 1.38785E+01 0.00000E+00
 -1      3422 3.96240E+01 1.38785E+01 0.00000E+00
 -1      3423 4.18740E+01 1.51775E+01 0.00000E+00
 -1      3424 5.01240E+01 1.38785E+01 0.00000E+00
 -1      3425 4.86240E+01 1.38785E+01 0.00000E+00
 -1      3426 5.31240E+01 1.38785E+01 0.00000E+00
 -1      3427 5.16240E+01 1.38785E+01 0.00000E+00
 -1      3428 5.08740E+01 1.51775E+01 0.00000E+00
 -1      3429 5.61240E+01 1.38785E+01 0.00000E+00
 -1      3430 5.46240E+01 1.38785E+01 0.00000E+00
 -1      3431 5.38740E+01 1.51775E+01 0.00000E+00
 -1      3432 5.91240E+01 1.38785E+01 0.00000E+00
 -1      3433 5.76240E+01 1.38785E+01 0.00000E+00
 -1      3434 5.68740E+01 1.51775E+01 0.00000E+00
 -1      3435 6.21240E+01 1.38785E+01 0.00000E+00
 -1      3436 6.06240E+01 1.38785E+01 0.00000E+00
 -1      3437 5.98740E+01 1.51775E+01 0.00000E+00
 -1      3438 6.51240E+01 1.38785E+01 0.00000E+00
 -1      3439 6.36240E+01 1.38785E+01 0.00000E+00
 -1      3440 6.28740E+01 1.51775E+01 0.00000E+00
 -1      3441 6.81240E+01 1.38785E+01 0.00000E+00
 -1      3442 6.66240E+01 1.38785E+01 0.00000E+00
 -1      3443 6.58740E+01 1.51775E+01 0.00000E+00
 -1      3444 7.11240E+01 1.38785E+01 0.00000E+00
 -1      3445 6.96240E+01 1.38785E+01 0.00000E+00
 -1      3446 6.88740E+01 1.51775E+01 0.00000E+00
 -1      3447 7.41240E+01 1.38785E+01 0.00000E+00
 -1      3448 7.26240E+01 1.38785E+01 0.00000E+00
 -1      3449 7.18740E+01 1.51775E+01 0.00000E+00
 -1      3450 7.71240E+01 1.38785E+01 0.00000E+00
 -1      3451 7.56240E+01 1.38785E+01 0.00000E+00
 -1      3452 7.48740E+01 1.51775E+01 0.00000E+00
 -1      3453 8.01240E+01 1.38785E+01 0.00000E+00
 -1      3454 7.86240E+01 1.38785E+01 0.00000E+00
 -1      3455 7.78740E+01 1.51775E+01 0.00000E+00
 -1      3456 8.31240E+01 1.38785E+01 0.00000E+00
 -1      3457 8.16240E+01 1.38785E+01 0.00000E+00
 -1      3458 8.08740E+01 1.51775E+01 0.00000E+00
 -1      3459 8.61240E+01 1.38785E+01 0.00000E+00
 -1      3460 8.46240E+01 1.38785E+01 0.00000E+00
 -1      3461 8.38740E+01 1.51775E+01 0.00000E+00
 -1      3462 8.91240E+01 1.38785E+01 0.00000E+00
 -1      3463 8.76240E+01 1.38785E+01 0.00000E+00
 -1      3464 8.68740E+01 1.51775E+01 0.00000E+00
 -1      3465 9.21240E+01 1.38785E+01 0.00000E+00
 -1      3466 9.06240E+01 1.38785E+01 0.00000E+00
 -1      3467 8.98740E+01 1.51775E+01 0.00000E+00
 -1      3468 9.51240E+01 1.38785E+01 0.00000E+00
 -1      3469 9.36240E+01 1.38785E+01 0.00000E+00
 -1      3470 9.28740E+01 1.51775E+01 0.00000E+00
 -1      3471 9.81240E+01 1.38785E+01 0.00000E+00
 -1      3472 9.66240E+01 1.38785E+01 0.00000E+00
 -1      3473 9.58740E+01 1.51775E+01 0.00000E+00
 -1      3474 1.01124E+02 1.38785E+01 0.00000E+00
 -1      3475 9.96240E+01 1.38785E+01 0.00000E+00
 -1      3476 9.88740E+01 1.51775E+01 0.00000E+00
 -1      3477 1.04124E+02 1.38785E+01 0.00000E+00
 -1      3478 1.02624E+02 1.38785E+01 0.00000E+00
 -1      3479 1.01874E+02 1.51775E+01 0.00000E+00
 -1      3480 1.07124E+02 1.38785E+01 0.00000E+00
 -1      3481 1.05624E+02 1.38785E+01 0.00000E+00
 -1      3482 1.04874E+02 1.51775E+01 0.00000E+00
 -1      3483 1.10124E+02 1.38785E+01 0.00000E+00
 -1      3484 1.08624E+02 1.38785E+01 0.00000E+00
 -1      3485 1.07874E+02 1.51775E+01 0.00000E+00
 -1      3486 1.13124E+02 1.38785E+01 0.00000E+00
 -1      3487 1.11624E+02 1.38785E+01 0.00000E+00
 -1      3488 1.10874E+02 1.51775E+01 0.00000E+00
 -1      3489 1.16124E+02 1.38785E+01 0.00000E+00
 -1      3490 1.14624E+02 1.38785E+01 0.00000E+00
 -1      3491 1.13874E+02 1.51775E+01 0.00000E+00
 -1      3492 1.19124E+02 1.38785E+01 0.00000E+00
 -1      3493 1.17624E+02 1.38785E+01 0.00000E+00
 -1      3494 1.16874E+02 1.51775E+01 0.00000E+00
 -1      3495 1.22124E+02 1.38785E+01 0.00000E+00
 -1      3496 1.20624E+02 1.38785E+01 0.00000E+00
 -1      3497 1.19874E+02 1.51775E+01 0.00000E+00
 -1      3498 1.25124E+02 1.38785E+01 0.00000E+00
 -1      3499 1.23624E+02 1.38785E+01 0.00000E+00
 -1      3500 1.22874E+02 1.51775E+01 0.00000E+00
 -1      3501 1.28124E+02 1.38785E+01 0.00000E+00
 -1      3502 1.26624E+02 1.38785E+01 0.00000E+00
 -1      3503 1.25874E+02 1.51775E+01 0.00000E+00
 -1      3504 1.31124E+02 1.38785E+01 0.00000E+00
 -1      3505 1.29624E+02 1.38785E+01 0.00000E+00
 -1      3506 1.28874E+02 1.51775E+01 0.00000E+00
 -1      3507 1.34124E+02 1.38785E+01 0.00000E+00
 -1      3508 1.32624E+02 1.38785E+01 0.00000E+00
 -1      3509 1.31874E+02 1.51775E+01 0.00000E+00
 -1      3510 1.36195E+02 1.39937E+01 0.00000E+00
 -1      3511 1.35091E+02 1.38628E+01 0.00000E+00
 -1      3512 1.34341E+02 1.51618E+01 0.00000E+00
 -1      3513 1.36274E+02 1.51304E+01 0.00000E+00
 -1      3514 1.35711E+02 3.30875E+01 0.00000E+00
 -1      3515 1.35711E+02 3.16125E+01 0.00000E+00
 -1      3516 1.35711E+02 2.13375E+01 0.00000E+00
 -1      3517 1.35711E+02 1.98625E+01 0.00000E+00
 -1      3518 1.35711E+02 3.01625E+01 0.00000E+00
 -1      3519 1.35711E+02 2.87125E+01 0.00000E+00
 -1      3520 1.34412E+02 3.09000E+01 0.00000E+00
 -1      3521 1.24583E+02 3.16629E+01 0.00000E+00
 -1      3522 1.26516E+02 3.22829E+01 0.00000E+00
 -1      3523 9.25099E+01 3.55620E+01 0.00000E+00
 -1      3524 9.36779E+01 3.52021E+01 0.00000E+00
 -1      3525 9.40798E+01 3.39650E+01 0.00000E+00
 -1      3526 9.17599E+01 3.42630E+01 0.00000E+00
 -1      3527 1.01065E+02 2.17940E+01 0.00000E+00
 -1      3528 1.02210E+02 2.09990E+01 0.00000E+00
 -1      3529 1.24307E+02 3.06101E+01 0.00000E+00
 -1      3530 1.06913E+02 1.98353E+01 0.00000E+00
 -1      3531 1.07998E+02 1.94486E+01 0.00000E+00
 -1      3532 3.21240E+01 1.38785E+01 0.00000E+00
 -1      3533 3.06240E+01 1.38785E+01 0.00000E+00
 -1      3534 2.01240E+01 1.38785E+01 0.00000E+00
 -1      3535 1.86240E+01 1.38785E+01 0.00000E+00
 -1      3536 1.24018E+02 2.79837E+01 0.00000E+00
 -1      3537 1.24163E+02 2.92969E+01 0.00000E+00
 -1      3538 1.25744E+02 2.96038E+01 0.00000E+00
 -1      3539 1.74000E+01 3.57110E+01 0.00000E+00
 -1      3540 1.89000E+01 3.57110E+01 0.00000E+00
 -1      3541 1.66500E+01 3.44120E+01 0.00000E+00
 -1      3542 4.71240E+01 1.38785E+01 0.00000E+00
 -1      3543 4.56240E+01 1.38785E+01 0.00000E+00
 -1      3544 4.48740E+01 1.51775E+01 0.00000E+00
 -1      3545 4.78740E+01 1.51775E+01 0.00000E+00
 -1      3546 1.71240E+01 1.38785E+01 0.00000E+00
 -1      3547 1.56241E+01 1.38785E+01 0.00000E+00
 -1      3548 1.78740E+01 1.51775E+01 0.00000E+00
 -1      3549 1.47780E+01 1.41185E+01 0.00000E+00
 -1      3550 1.38360E+01 1.44288E+01 0.00000E+00
 -1      3551 1.38360E+01 1.58975E+01 0.00000E+00
 -1      3552 1.55280E+01 1.54175E+01 0.00000E+00
 -1      3553 1.35711E+02 2.42875E+01 0.00000E+00
 -1      3554 1.35711E+02 2.28125E+01 0.00000E+00
 -1      3555 1.34412E+02 2.20750E+01 0.00000E+00
 -1      3556 1.18832E+02 2.04330E+01 0.00000E+00
 -1      3557 1.21687E+02 2.13073E+01 0.00000E+00
 -1      3558 1.21851E+02 2.28731E+01 0.00000E+00
 -1      3559 1.22744E+02 2.32492E+01 0.00000E+00
 -1      3560 1.24489E+02 2.51219E+01 0.00000E+00
 -1      3561 1.24254E+02 2.65528E+01 0.00000E+00
 -1      3562 1.25835E+02 2.68596E+01 0.00000E+00
 -1      3563 1.01695E+02 1.99169E+01 0.00000E+00
 -1      3564 1.02852E+02 2.03614E+01 0.00000E+00
 -1      3565 1.03495E+02 1.97237E+01 0.00000E+00
 -1      3566 1.15288E+02 1.82321E+01 0.00000E+00
 -1      3567 1.16538E+02 1.85239E+01 0.00000E+00
 -1      3568 9.67642E+01 2.46948E+01 0.00000E+00
 -1      3569 9.78942E+01 2.45242E+01 0.00000E+00
 -1      3570 9.78623E+01 2.33673E+01 0.00000E+00
 -1      3571 9.47112E+01 3.03886E+01 0.00000E+00
 -1      3572 2.53740E+01 1.25795E+01 0.00000E+00
 -1      3573 1.28016E+02 3.22829E+01 0.00000E+00
 -1      3574 1.29516E+02 3.22829E+01 0.00000E+00
 -1      3575 1.27388E+02 3.09170E+01 0.00000E+00
 -1      3576 1.33200E+01 3.54019E+01 0.00000E+00
 -1      3577 1.40700E+01 3.41029E+01 0.00000E+00
 -1      3578 1.40700E+01 3.11654E+01 0.00000E+00
 -1      3579 1.40700E+01 3.26341E+01 0.00000E+00
 -1      3580 1.51500E+01 3.29432E+01 0.00000E+00
 -1      3581 1.40700E+01 2.82279E+01 0.00000E+00
 -1      3582 1.40700E+01 2.96966E+01 0.00000E+00
 -1      3583 1.51500E+01 3.00058E+01 0.00000E+00
 -1      3584 2.91240E+01 1.38785E+01 0.00000E+00
 -1      3585 2.76240E+01 1.38785E+01 0.00000E+00
 -1      3586 2.98740E+01 1.51775E+01 0.00000E+00
 -1      3587 3.88740E+01 1.51775E+01 0.00000E+00
 -1      3588 3.81240E+01 1.38785E+01 0.00000E+00
 -1      3589 3.66240E+01 1.38785E+01 0.00000E+00
 -1      3590 9.35159E+01 3.29033E+01 0.00000E+00
 -1      3591 1.34470E+02 1.95974E+01 0.00000E+00
 -1      3592 1.35769E+02 1.88599E+01 0.00000E+00
 -1      3593 1.35827E+02 1.78574E+01 0.00000E+00
 -1      3594 9.52425E+01 2.79968E+01 0.00000E+00
 -1      3595 9.60532E+01 2.74682E+01 0.00000E+00
 -1      3596 9.59854E+01 2.63803E+01 0.00000E+00
 -1      3597 1.29900E+01 1.76125E+01 0.00000E+00
 -1      3598 1.29900E+01 2.64469E+01 0.00000E+00
 -1      3599 1.34412E+02 2.79750E+01 0.00000E+00
 -1      3600 1.35711E+02 2.72375E+01 0.00000E+00
 -1      3601 1.35711E+02 2.57625E+01 0.00000E+00
 -1      3602 1.08707E+02 1.87601E+01 0.00000E+00
 -1      3603 1.96500E+01 3.44120E+01 0.00000E+00
 -1      3604 1.05867E+02 1.93828E+01 0.00000E+00
 -1      3605 3.51240E+01 1.38785E+01 0.00000E+00
 -1      3606 3.36240E+01 1.38785E+01 0.00000E+00
 -1      3607 3.28740E+01 1.51775E+01 0.00000E+00
 -1      3608 3.58740E+01 1.51775E+01 0.00000E+00
 -1      3609 2.16240E+01 1.38785E+01 0.00000E+00
 -1      3610 2.08740E+01 1.51775E+01 0.00000E+00
 -1      3611 2.31240E+01 1.38785E+01 0.00000E+00
 -1      3612 1.12056E+02 1.91686E+01 0.00000E+00
 -1      3613 1.13243E+02 1.85784E+01 0.00000E+00
 -1      3614 1.35077E+02 3.37369E+01 0.00000E+00
 -1      3615 1.00022E+02 2.18757E+01 0.00000E+00
 -1      3616 1.00010E+02 2.06363E+01 0.00000E+00
 -1      3617 9.89797E+01 2.19573E+01 0.00000E+00
 -1      3618 1.42890E+01 2.27625E+01 0.00000E+00
 -1      3619 1.42890E+01 2.42375E+01 0.00000E+00
 -1      3620 1.42890E+01 1.98250E+01 0.00000E+00
 -1      3621 1.42890E+01 2.12938E+01 0.00000E+00
 -1      3622 1.55880E+01 2.20313E+01 0.00000E+00
 -1      3623 1.14163E+02 1.74593E+01 0.00000E+00
 -1      3624 1.11224E+02 1.83642E+01 0.00000E+00
 -1      3625 2.19375E+01 3.31130E+01 0.00000E+00
 -1      3626 2.35125E+01 3.31130E+01 0.00000E+00
 -1      3627 2.50125E+01 3.31130E+01 0.00000E+00
 -1      3628 2.65125E+01 3.31130E+01 0.00000E+00
 -1      3629 2.42250E+01 3.18140E+01 0.00000E+00
 -1      3630 2.80125E+01 3.31130E+01 0.00000E+00
 -1      3631 2.95125E+01 3.31130E+01 0.00000E+00
 -1      3632 2.72250E+01 3.18140E+01 0.00000E+00
 -1      3633 3.10125E+01 3.31130E+01 0.00000E+00
 -1      3634 3.25125E+01 3.31130E+01 0.00000E+00
 -1      3635 3.02250E+01 3.18140E+01 0.00000E+00
 -1      3636 3.40125E+01 3.31130E+01 0.00000E+00
 -1      3637 3.55125E+01 3.31130E+01 0.00000E+00
 -1      3638 3.32250E+01 3.18140E+01 0.00000E+00
 -1      3639 3.70125E+01 3.31130E+01 0.00000E+00
 -1      3640 3.85125E+01 3.31130E+01 0.00000E+00
 -1      3641 3.62250E+01 3.18140E+01 0.00000E+00
 -1      3642 4.00125E+01 3.31130E+01 0.00000E+00
 -1      3643 4.15125E+01 3.31130E+01 0.00000E+00
 -1      3644 3.92250E+01 3.18140E+01 0.00000E+00
 -1      3645 4.30125E+01 3.31130E+01 0.00000E+00
 -1      3646 4.45125E+01 3.31130E+01 0.00000E+00
 -1      3647 4.22250E+01 3.18140E+01 0.00000E+00
 -1      3648 4.60125E+01 3.31130E+01 0.00000E+00
 -1      3649 4.75125E+01 3.31130E+01 0.00000E+00
 -1      3650 4.52250E+01 3.18140E+01 0.00000E+00
 -1      3651 4.90125E+01 3.31130E+01 0.00000E+00
 -1      3652 5.05125E+01 3.31130E+01 0.00000E+00
 -1      3653 4.82250E+01 3.18140E+01 0.00000E+00
 -1      3654 5.20125E+01 3.31130E+01 0.00000E+00
 -1      3655 5.35125E+01 3.31130E+01 0.00000E+00
 -1      3656 5.12250E+01 3.18140E+01 0.00000E+00
 -1      3657 5.50875E+01 3.31130E+01 0.00000E+00
 -1      3658 5.66625E+01 3.31130E+01 0.00000E+00
 -1      3659 5.43000E+01 3.18140E+01 0.00000E+00
 -1      3660 5.81625E+01 3.31130E+01 0.00000E+00
 -1      3661 5.96625E+01 3.31130E+01 0.00000E+00
 -1      3662 5.73750E+01 3.18140E+01 0.00000E+00
 -1      3663 6.11625E+01 3.31130E+01 0.00000E+00
 -1      3664 6.26625E+01 3.31130E+01 0.00000E+00
 -1      3665 6.03750E+01 3.18140E+01 0.00000E+00
 -1      3666 6.41625E+01 3.31130E+01 0.00000E+00
 -1      3667 6.56625E+01 3.31130E+01 0.00000E+00
 -1      3668 6.33750E+01 3.18140E+01 0.00000E+00
 -1      3669 6.71625E+01 3.31130E+01 0.00000E+00
 -1      3670 6.86625E+01 3.31130E+01 0.00000E+00
 -1      3671 6.63750E+01 3.18140E+01 0.00000E+00
 -1      3672 7.01625E+01 3.31130E+01 0.00000E+00
 -1      3673 7.16625E+01 3.31130E+01 0.00000E+00
 -1      3674 6.93750E+01 3.18140E+01 0.00000E+00
 -1      3675 7.31625E+01 3.31130E+01 0.00000E+00
 -1      3676 7.46625E+01 3.31130E+01 0.00000E+00
 -1      3677 7.23750E+01 3.18140E+01 0.00000E+00
 -1      3678 7.61625E+01 3.31130E+01 0.00000E+00
 -1      3679 7.76625E+01 3.31130E+01 0.00000E+00
 -1      3680 7.53750E+01 3.18140E+01 0.00000E+00
 -1      3681 7.91625E+01 3.31130E+01 0.00000E+00
 -1      3682 8.06625E+01 3.31130E+01 0.00000E+00
 -1      3683 7.83750E+01 3.18140E+01 0.00000E+00
 -1      3684 8.21625E+01 3.31130E+01 0.00000E+00
 -1      3685 8.36625E+01 3.31130E+01 0.00000E+00
 -1      3686 8.13750E+01 3.18140E+01 0.00000E+00
 -1      3687 8.51625E+01 3.31130E+01 0.00000E+00
 -1      3688 8.66625E+01 3.31130E+01 0.00000E+00
 -1      3689 8.43750E+01 3.18140E+01 0.00000E+00
 -1      3690 8.82375E+01 3.31130E+01 0.00000E+00
 -1      3691 8.98125E+01 3.31130E+01 0.00000E+00
 -1      3692 8.74500E+01 3.18140E+01 0.00000E+00
 -1      3693 1.66500E+01 3.29432E+01 0.00000E+00
 -1      3694 4.26240E+01 1.64765E+01 0.00000E+00
 -1      3695 4.11240E+01 1.64765E+01 0.00000E+00
 -1      3696 1.86240E+01 1.64765E+01 0.00000E+00
 -1      3697 1.71241E+01 1.64765E+01 0.00000E+00
 -1      3698 2.61240E+01 1.38785E+01 0.00000E+00
 -1      3699 2.46240E+01 1.38785E+01 0.00000E+00
 -1      3700 2.38740E+01 1.51775E+01 0.00000E+00
 -1      3701 2.68740E+01 1.51775E+01 0.00000E+00
 -1      3702 5.46240E+01 1.64765E+01 0.00000E+00
 -1      3703 5.31240E+01 1.64765E+01 0.00000E+00
 -1      3704 5.16240E+01 1.64765E+01 0.00000E+00
 -1      3705 5.01240E+01 1.64765E+01 0.00000E+00
 -1      3706 5.23740E+01 1.77755E+01 0.00000E+00
 -1      3707 6.06240E+01 1.64765E+01 0.00000E+00
 -1      3708 5.91240E+01 1.64765E+01 0.00000E+00
 -1      3709 6.36240E+01 1.64765E+01 0.00000E+00
 -1      3710 6.21240E+01 1.64765E+01 0.00000E+00
 -1      3711 6.13740E+01 1.77755E+01 0.00000E+00
 -1      3712 6.66240E+01 1.64765E+01 0.00000E+00
 -1      3713 6.51240E+01 1.64765E+01 0.00000E+00
 -1      3714 6.43740E+01 1.77755E+01 0.00000E+00
 -1      3715 6.96240E+01 1.64765E+01 0.00000E+00
 -1      3716 6.81240E+01 1.64765E+01 0.00000E+00
 -1      3717 6.73740E+01 1.77755E+01 0.00000E+00
 -1      3718 7.26240E+01 1.64765E+01 0.00000E+00
 -1      3719 7.11240E+01 1.64765E+01 0.00000E+00
 -1      3720 7.03740E+01 1.77755E+01 0.00000E+00
 -1      3721 7.56240E+01 1.64765E+01 0.00000E+00
 -1      3722 7.41240E+01 1.64765E+01 0.00000E+00
 -1      3723 7.33740E+01 1.77755E+01 0.00000E+00
 -1      3724 7.86240E+01 1.64765E+01 0.00000E+00
 -1      3725 7.71240E+01 1.64765E+01 0.00000E+00
 -1      3726 7.63740E+01 1.77755E+01 0.00000E+00
 -1      3727 8.16240E+01 1.64765E+01 0.00000E+00
 -1      3728 8.01240E+01 1.64765E+01 0.00000E+00
 -1      3729 7.93740E+01 1.77755E+01 0.00000E+00
 -1      3730 8.46240E+01 1.64765E+01 0.00000E+00
 -1      3731 8.31240E+01 1.64765E+01 0.00000E+00
 -1      3732 8.23740E+01 1.77755E+01 0.00000E+00
 -1      3733 8.76240E+01 1.64765E+01 0.00000E+00
 -1      3734 8.61240E+01 1.64765E+01 0.00000E+00
 -1      3735 8.53740E+01 1.77755E+01 0.00000E+00
 -1      3736 9.06240E+01 1.64765E+01 0.00000E+00
 -1      3737 8.91240E+01 1.64765E+01 0.00000E+00
 -1      3738 8.83740E+01 1.77755E+01 0.00000E+00
 -1      3739 9.36240E+01 1.64765E+01 0.00000E+00
 -1      3740 9.21240E+01 1.64765E+01 0.00000E+00
 -1      3741 9.13740E+01 1.77755E+01 0.00000E+00
 -1      3742 9.66240E+01 1.64765E+01 0.00000E+00
 -1      3743 9.51240E+01 1.64765E+01 0.00000E+00
 -1      3744 9.43740E+01 1.77755E+01 0.00000E+00
 -1      3745 9.96240E+01 1.64765E+01 0.00000E+00
 -1      3746 9.81240E+01 1.64765E+01 0.00000E+00
 -1      3747 9.73740E+01 1.77755E+01 0.00000E+00
 -1      3748 1.02856E+02 1.72284E+01 0.00000E+00
 -1      3749 1.01356E+02 1.72284E+01 0.00000E+00
 -1      3750 1.08228E+02 1.68875E+01 0.00000E+00
 -1      3751 1.06728E+02 1.68875E+01 0.00000E+00
 -1      3752 1.12246E+02 1.64915E+01 0.00000E+00
 -1      3753 1.10746E+02 1.64915E+01 0.00000E+00
 -1      3754 1.13746E+02 1.64915E+01 0.00000E+00
 -1      3755 1.17291E+02 1.61452E+01 0.00000E+00
 -1      3756 1.15791E+02 1.61452E+01 0.00000E+00
 -1      3757 1.20624E+02 1.64765E+01 0.00000E+00
 -1      3758 1.19124E+02 1.64765E+01 0.00000E+00
 -1      3759 1.23624E+02 1.64765E+01 0.00000E+00
 -1      3760 1.22124E+02 1.64765E+01 0.00000E+00
 -1      3761 1.21374E+02 1.77755E+01 0.00000E+00
 -1      3762 1.26624E+02 1.64765E+01 0.00000E+00
 -1      3763 1.25124E+02 1.64765E+01 0.00000E+00
 -1      3764 1.24374E+02 1.77755E+01 0.00000E+00
 -1      3765 1.29624E+02 1.64765E+01 0.00000E+00
 -1      3766 1.28124E+02 1.64765E+01 0.00000E+00
 -1      3767 1.27374E+02 1.77755E+01 0.00000E+00
 -1      3768 1.32624E+02 1.64765E+01 0.00000E+00
 -1      3769 1.31124E+02 1.64765E+01 0.00000E+00
 -1      3770 1.30374E+02 1.77755E+01 0.00000E+00
 -1      3771 1.18371E+02 1.88552E+01 0.00000E+00
 -1      3772 1.20334E+02 1.93533E+01 0.00000E+00
 -1      3773 1.41795E+01 2.54967E+01 0.00000E+00
 -1      3774 1.41795E+01 2.69686E+01 0.00000E+00
 -1      3775 1.52595E+01 2.72778E+01 0.00000E+00
 -1      3776 1.54785E+01 2.47593E+01 0.00000E+00
 -1      3777 1.18041E+02 1.74442E+01 0.00000E+00
 -1      3778 9.22982E+01 3.30559E+01 0.00000E+00
 -1      3779 9.28942E+01 3.18451E+01 0.00000E+00
 -1      3780 1.27100E+02 2.82906E+01 0.00000E+00
 -1      3781 1.27244E+02 2.96038E+01 0.00000E+00
 -1      3782 1.28744E+02 2.96038E+01 0.00000E+00
 -1      3783 1.40625E+01 1.71238E+01 0.00000E+00
 -1      3784 1.40625E+01 1.85988E+01 0.00000E+00
 -1      3785 1.53615E+01 1.93363E+01 0.00000E+00
 -1      3786 1.49085E+01 1.68838E+01 0.00000E+00
 -1      3787 9.34934E+01 3.05412E+01 0.00000E+00
 -1      3788 9.40926E+01 2.92373E+01 0.00000E+00
 -1      3789 9.22757E+01 3.06938E+01 0.00000E+00
 -1      3790 9.11383E+01 3.32049E+01 0.00000E+00
 -1      3791 5.76240E+01 1.64765E+01 0.00000E+00
 -1      3792 5.61240E+01 1.64765E+01 0.00000E+00
 -1      3793 5.53740E+01 1.77755E+01 0.00000E+00
 -1      3794 1.36217E+02 1.61330E+01 0.00000E+00
 -1      3795 1.89375E+01 3.31130E+01 0.00000E+00
 -1      3796 2.04375E+01 3.31130E+01 0.00000E+00
 -1      3797 2.12250E+01 3.18140E+01 0.00000E+00
 -1      3798 1.74375E+01 3.16443E+01 0.00000E+00
 -1      3799 1.09852E+02 1.70501E+01 0.00000E+00
 -1      3800 9.59535E+01 2.52234E+01 0.00000E+00
 -1      3801 9.59216E+01 2.40665E+01 0.00000E+00
 -1      3802 9.51428E+01 2.57520E+01 0.00000E+00
 -1      3803 1.34412E+02 2.50250E+01 0.00000E+00
 -1      3804 9.03508E+01 3.19059E+01 0.00000E+00
 -1      3805 1.24325E+02 2.35561E+01 0.00000E+00
 -1      3806 1.25907E+02 2.38630E+01 0.00000E+00
 -1      3807 1.24162E+02 2.19904E+01 0.00000E+00
 -1      3808 1.00652E+02 1.99986E+01 0.00000E+00
 -1      3809 1.01295E+02 1.93610E+01 0.00000E+00
 -1      3810 9.96096E+01 2.00803E+01 0.00000E+00
 -1      3811 2.01240E+01 1.64765E+01 0.00000E+00
 -1      3812 1.93740E+01 1.77755E+01 0.00000E+00
 -1      3813 2.16240E+01 1.64765E+01 0.00000E+00
 -1      3814 9.67196E+01 2.22985E+01 0.00000E+00
 -1      3815 9.78496E+01 2.21279E+01 0.00000E+00
 -1      3816 9.78369E+01 2.08885E+01 0.00000E+00
 -1      3817 5.83740E+01 1.77755E+01 0.00000E+00
 -1      3818 4.41240E+01 1.64765E+01 0.00000E+00
 -1      3819 4.33740E+01 1.77755E+01 0.00000E+00
 -1      3820 4.56240E+01 1.64765E+01 0.00000E+00
 -1      3821 1.33113E+02 2.28125E+01 0.00000E+00
 -1      3822 1.33113E+02 2.13375E+01 0.00000E+00
 -1      3823 1.27335E+02 2.68596E+01 0.00000E+00
 -1      3824 3.06240E+01 1.64765E+01 0.00000E+00
 -1      3825 2.91240E+01 1.64765E+01 0.00000E+00
 -1      3826 3.96240E+01 1.64765E+01 0.00000E+00
 -1      3827 3.81240E+01 1.64765E+01 0.00000E+00
 -1      3828 4.03740E+01 1.77755E+01 0.00000E+00
 -1      3829 1.33113E+02 3.16250E+01 0.00000E+00
 -1      3830 1.33113E+02 3.01750E+01 0.00000E+00
 -1      3831 4.93740E+01 1.77755E+01 0.00000E+00
 -1      3832 4.86240E+01 1.64765E+01 0.00000E+00
 -1      3833 4.71240E+01 1.64765E+01 0.00000E+00
 -1      3834 1.05656E+02 1.80016E+01 0.00000E+00
 -1      3835 1.05301E+02 1.62916E+01 0.00000E+00
 -1      3836 1.03801E+02 1.62916E+01 0.00000E+00
 -1      3837 1.21834E+02 1.93533E+01 0.00000E+00
 -1      3838 1.33951E+02 1.68862E+01 0.00000E+00
 -1      3839 1.33201E+02 1.81852E+01 0.00000E+00
 -1      3840 1.34917E+02 1.68705E+01 0.00000E+00
 -1      3841 1.33778E+02 3.29994E+01 0.00000E+00
 -1      3842 1.30979E+02 3.22744E+01 0.00000E+00
 -1      3843 1.32479E+02 3.22744E+01 0.00000E+00
 -1      3844 1.33085E+02 2.01903E+01 0.00000E+00
 -1      3845 1.33143E+02 1.91877E+01 0.00000E+00
 -1      3846 1.31816E+02 1.87781E+01 0.00000E+00
 -1      3847 1.63485E+01 2.87266E+01 0.00000E+00
 -1      3848 1.63485E+01 3.01954E+01 0.00000E+00
 -1      3849 1.86360E+01 3.03651E+01 0.00000E+00
 -1      3850 1.64580E+01 2.74674E+01 0.00000E+00
 -1      3851 9.40248E+01 2.81494E+01 0.00000E+00
 -1      3852 9.39570E+01 2.70615E+01 0.00000E+00
 -1      3853 9.28071E+01 2.83020E+01 0.00000E+00
 -1      3854 1.33113E+02 2.87000E+01 0.00000E+00
 -1      3855 1.33113E+02 2.72250E+01 0.00000E+00
 -1      3856 1.31814E+02 2.94250E+01 0.00000E+00
 -1      3857 1.68274E+01 2.42422E+01 0.00000E+00
 -1      3858 1.67179E+01 2.55014E+01 0.00000E+00
 -1      3859 1.31786E+02 2.09278E+01 0.00000E+00
 -1      3860 3.36240E+01 1.64765E+01 0.00000E+00
 -1      3861 3.21240E+01 1.64765E+01 0.00000E+00
 -1      3862 3.13740E+01 1.77755E+01 0.00000E+00
 -1      3863 1.68274E+01 2.13047E+01 0.00000E+00
 -1      3864 1.68274E+01 2.27734E+01 0.00000E+00
 -1      3865 1.80667E+01 2.35156E+01 0.00000E+00
 -1      3866 1.30351E+02 3.09085E+01 0.00000E+00
 -1      3867 1.04440E+02 1.87869E+01 0.00000E+00
 -1      3868 1.22727E+02 1.97295E+01 0.00000E+00
 -1      3869 2.64750E+01 3.05150E+01 0.00000E+00
 -1      3870 2.79750E+01 3.05150E+01 0.00000E+00
 -1      3871 2.94750E+01 3.05150E+01 0.00000E+00
 -1      3872 3.09750E+01 3.05150E+01 0.00000E+00
 -1      3873 2.87250E+01 2.92160E+01 0.00000E+00
 -1      3874 3.24750E+01 3.05150E+01 0.00000E+00
 -1      3875 3.39750E+01 3.05150E+01 0.00000E+00
 -1      3876 3.17250E+01 2.92160E+01 0.00000E+00
 -1      3877 3.54750E+01 3.05150E+01 0.00000E+00
 -1      3878 3.69750E+01 3.05150E+01 0.00000E+00
 -1      3879 3.47250E+01 2.92160E+01 0.00000E+00
 -1      3880 3.84750E+01 3.05150E+01 0.00000E+00
 -1      3881 3.99750E+01 3.05150E+01 0.00000E+00
 -1      3882 3.77250E+01 2.92160E+01 0.00000E+00
 -1      3883 4.14750E+01 3.05150E+01 0.00000E+00
 -1      3884 4.29750E+01 3.05150E+01 0.00000E+00
 -1      3885 4.07250E+01 2.92160E+01 0.00000E+00
 -1      3886 4.44750E+01 3.05150E+01 0.00000E+00
 -1      3887 4.59750E+01 3.05150E+01 0.00000E+00
 -1      3888 4.37250E+01 2.92160E+01 0.00000E+00
 -1      3889 4.74750E+01 3.05150E+01 0.00000E+00
 -1      3890 4.89750E+01 3.05150E+01 0.00000E+00
 -1      3891 4.67250E+01 2.92160E+01 0.00000E+00
 -1      3892 5.04750E+01 3.05150E+01 0.00000E+00
 -1      3893 5.19750E+01 3.05150E+01 0.00000E+00
 -1      3894 4.97250E+01 2.92160E+01 0.00000E+00
 -1      3895 5.35500E+01 3.05150E+01 0.00000E+00
 -1      3896 5.51250E+01 3.05150E+01 0.00000E+00
 -1      3897 5.28000E+01 2.92160E+01 0.00000E+00
 -1      3898 5.66250E+01 3.05150E+01 0.00000E+00
 -1      3899 5.81250E+01 3.05150E+01 0.00000E+00
 -1      3900 5.58750E+01 2.92160E+01 0.00000E+00
 -1      3901 5.96250E+01 3.05150E+01 0.00000E+00
 -1      3902 6.11250E+01 3.05150E+01 0.00000E+00
 -1      3903 5.88750E+01 2.92160E+01 0.00000E+00
 -1      3904 6.26250E+01 3.05150E+01 0.00000E+00
 -1      3905 6.41250E+01 3.05150E+01 0.00000E+00
 -1      3906 6.18750E+01 2.92160E+01 0.00000E+00
 -1      3907 6.56250E+01 3.05150E+01 0.00000E+00
 -1      3908 6.71250E+01 3.05150E+01 0.00000E+00
 -1      3909 6.48750E+01 2.92160E+01 0.00000E+00
 -1      3910 6.86250E+01 3.05150E+01 0.00000E+00
 -1      3911 7.01250E+01 3.05150E+01 0.00000E+00
 -1      3912 6.78750E+01 2.92160E+01 0.00000E+00
 -1      3913 7.16250E+01 3.05150E+01 0.00000E+00
 -1      3914 7.31250E+01 3.05150E+01 0.00000E+00
 -1      3915 7.08750E+01 2.92160E+01 0.00000E+00
 -1      3916 7.46250E+01 3.05150E+01 0.00000E+00
 -1      3917 7.61250E+01 3.05150E+01 0.00000E+00
 -1      3918 7.38750E+01 2.92160E+01 0.00000E+00
 -1      3919 7.76250E+01 3.05150E+01 0.00000E+00
 -1      3920 7.91250E+01 3.05150E+01 0.00000E+00
 -1      3921 7.68750E+01 2.92160E+01 0.00000E+00
 -1      3922 8.06250E+01 3.05150E+01 0.00000E+00
 -1      3923 8.21250E+01 3.05150E+01 0.00000E+00
 -1      3924 7.98750E+01 2.92160E+01 0.00000E+00
 -1      3925 8.36250E+01 3.05150E+01 0.00000E+00
 -1      3926 8.51250E+01 3.05150E+01 0.00000E+00
 -1      3927 8.28750E+01 2.92160E+01 0.00000E+00
 -1      3928 8.67000E+01 3.05150E+01 0.00000E+00
 -1      3929 8.82750E+01 3.05150E+01 0.00000E+00
 -1      3930 8.59500E+01 2.92160E+01 0.00000E+00
 -1      3931 1.27676E+02 2.52839E+01 0.00000E+00
 -1      3932 1.28941E+02 2.67148E+01 0.00000E+00
 -1      3933 1.65045E+01 1.79428E+01 0.00000E+00
 -1      3934 1.57545E+01 1.66438E+01 0.00000E+00
 -1      3935 5.31240E+01 1.90745E+01 0.00000E+00
 -1      3936 5.16240E+01 1.90745E+01 0.00000E+00
 -1      3937 1.24341E+02 1.89059E+01 0.00000E+00
 -1      3938 1.24194E+02 2.08599E+01 0.00000E+00
 -1      3939 1.25776E+02 2.11668E+01 0.00000E+00
 -1      3940 1.25841E+02 1.89059E+01 0.00000E+00
 -1      3941 6.51240E+01 1.90745E+01 0.00000E+00
 -1      3942 6.36240E+01 1.90745E+01 0.00000E+00
 -1      3943 6.21240E+01 1.90745E+01 0.00000E+00
 -1      3944 6.06240E+01 1.90745E+01 0.00000E+00
 -1      3945 6.28740E+01 2.03735E+01 0.00000E+00
 -1      3946 7.11240E+01 1.90745E+01 0.00000E+00
 -1      3947 6.96240E+01 1.90745E+01 0.00000E+00
 -1      3948 7.41240E+01 1.90745E+01 0.00000E+00
 -1      3949 7.26240E+01 1.90745E+01 0.00000E+00
 -1      3950 7.18740E+01 2.03735E+01 0.00000E+00
 -1      3951 7.71240E+01 1.90745E+01 0.00000E+00
 -1      3952 7.56240E+01 1.90745E+01 0.00000E+00
 -1      3953 7.48740E+01 2.03735E+01 0.00000E+00
 -1      3954 8.01240E+01 1.90745E+01 0.00000E+00
 -1      3955 7.86240E+01 1.90745E+01 0.00000E+00
 -1      3956 7.78740E+01 2.03735E+01 0.00000E+00
 -1      3957 8.31240E+01 1.90745E+01 0.00000E+00
 -1      3958 8.16240E+01 1.90745E+01 0.00000E+00
 -1      3959 8.08740E+01 2.03735E+01 0.00000E+00
 -1      3960 8.61240E+01 1.90745E+01 0.00000E+00
 -1      3961 8.46240E+01 1.90745E+01 0.00000E+00
 -1      3962 8.38740E+01 2.03735E+01 0.00000E+00
 -1      3963 8.91240E+01 1.90745E+01 0.00000E+00
 -1      3964 8.76240E+01 1.90745E+01 0.00000E+00
 -1      3965 8.68740E+01 2.03735E+01 0.00000E+00
 -1      3966 9.21240E+01 1.90745E+01 0.00000E+00
 -1      3967 9.06240E+01 1.90745E+01 0.00000E+00
 -1      3968 8.98740E+01 2.03735E+01 0.00000E+00
 -1      3969 9.77904E+01 1.94173E+01 0.00000E+00
 -1      3970 9.62904E+01 1.94173E+01 0.00000E+00
 -1      3971 1.00606E+02 1.85274E+01 0.00000E+00
 -1      3972 1.30316E+02 1.87781E+01 0.00000E+00
 -1      3973 1.03283E+02 1.83425E+01 0.00000E+00
 -1      3974 2.04750E+01 3.05150E+01 0.00000E+00
 -1      3975 2.19750E+01 3.05150E+01 0.00000E+00
 -1      3976 1.30351E+02 2.94335E+01 0.00000E+00
 -1      3977 1.28829E+02 1.88420E+01 0.00000E+00
 -1      3978 1.27329E+02 1.88420E+01 0.00000E+00
 -1      3979 1.27296E+02 1.99724E+01 0.00000E+00
 -1      3980 1.30271E+02 1.98446E+01 0.00000E+00
 -1      3981 1.30299E+02 2.09918E+01 0.00000E+00
 -1      3982 6.81240E+01 1.90745E+01 0.00000E+00
 -1      3983 6.66240E+01 1.90745E+01 0.00000E+00
 -1      3984 6.88740E+01 2.03735E+01 0.00000E+00
 -1      3985 3.66240E+01 1.64765E+01 0.00000E+00
 -1      3986 3.51240E+01 1.64765E+01 0.00000E+00
 -1      3987 3.73740E+01 1.77755E+01 0.00000E+00
 -1      3988 5.61240E+01 1.90745E+01 0.00000E+00
 -1      3989 5.46240E+01 1.90745E+01 0.00000E+00
 -1      3990 5.38740E+01 2.03735E+01 0.00000E+00
 -1      3991 8.96125E+01 3.05585E+01 0.00000E+00
 -1      3992 9.09382E+01 3.06503E+01 0.00000E+00
 -1      3993 9.15374E+01 2.93464E+01 0.00000E+00
 -1      3994 8.88625E+01 2.92595E+01 0.00000E+00
 -1      3995 1.30207E+02 2.81203E+01 0.00000E+00
 -1      3996 1.78069E+01 2.69503E+01 0.00000E+00
 -1      3997 5.91240E+01 1.90745E+01 0.00000E+00
 -1      3998 5.76240E+01 1.90745E+01 0.00000E+00
 -1      3999 5.98740E+01 2.03735E+01 0.00000E+00
 -1      4000 2.83740E+01 1.77755E+01 0.00000E+00
 -1      4001 2.76240E+01 1.64765E+01 0.00000E+00
 -1      4002 2.61240E+01 1.64765E+01 0.00000E+00
 -1      4003 1.33113E+02 2.57563E+01 0.00000E+00
 -1      4004 1.33113E+02 2.42813E+01 0.00000E+00
 -1      4005 1.31814E+02 2.35438E+01 0.00000E+00
 -1      4006 1.31814E+02 2.64813E+01 0.00000E+00
 -1      4007 1.67310E+01 1.91690E+01 0.00000E+00
 -1      4008 2.34750E+01 3.05150E+01 0.00000E+00
 -1      4009 2.49750E+01 3.05150E+01 0.00000E+00
 -1      4010 2.27250E+01 2.92160E+01 0.00000E+00
 -1      4011 1.79704E+01 1.99112E+01 0.00000E+00
 -1      4012 5.01240E+01 1.90745E+01 0.00000E+00
 -1      4013 4.86240E+01 1.90745E+01 0.00000E+00
 -1      4014 5.08740E+01 2.03735E+01 0.00000E+00
 -1      4015 2.57250E+01 2.92160E+01 0.00000E+00
 -1      4016 6.58740E+01 2.03735E+01 0.00000E+00
 -1      4017 1.30548E+02 2.65445E+01 0.00000E+00
 -1      4018 1.27512E+02 2.37181E+01 0.00000E+00
 -1      4019 9.59089E+01 2.28271E+01 0.00000E+00
 -1      4020 9.58962E+01 2.15877E+01 0.00000E+00
 -1      4021 9.50982E+01 2.33557E+01 0.00000E+00
 -1      4022 4.11240E+01 1.90745E+01 0.00000E+00
 -1      4023 3.96240E+01 1.90745E+01 0.00000E+00
 -1      4024 4.63740E+01 1.77755E+01 0.00000E+00
 -1      4025 2.91240E+01 1.90745E+01 0.00000E+00
 -1      4026 2.76240E+01 1.90745E+01 0.00000E+00
 -1      4027 2.46240E+01 1.64765E+01 0.00000E+00
 -1      4028 2.31240E+01 1.64765E+01 0.00000E+00
 -1      4029 2.23740E+01 1.77755E+01 0.00000E+00
 -1      4030 2.53740E+01 1.77755E+01 0.00000E+00
 -1      4031 1.93657E+01 2.27812E+01 0.00000E+00
 -1      4032 1.93657E+01 2.42499E+01 0.00000E+00
 -1      4033 3.43740E+01 1.77755E+01 0.00000E+00
 -1      4034 9.53433E+01 2.05025E+01 0.00000E+00
 -1      4035 9.49269E+01 1.88607E+01 0.00000E+00
 -1      4036 9.34269E+01 1.88607E+01 0.00000E+00
 -1      4037 9.45326E+01 2.10311E+01 0.00000E+00
 -1      4038 9.26769E+01 2.01597E+01 0.00000E+00
 -1      4039 9.89205E+01 1.92467E+01 0.00000E+00
 -1      4040 1.30313E+02 2.22997E+01 0.00000E+00
 -1      4041 1.28797E+02 2.12165E+01 0.00000E+00
 -1      4042 1.27310E+02 2.12804E+01 0.00000E+00
 -1      4043 1.30313E+02 2.37685E+01 0.00000E+00
 -1      4044 1.93860E+01 2.90661E+01 0.00000E+00
 -1      4045 3.21240E+01 1.90745E+01 0.00000E+00
 -1      4046 3.06240E+01 1.90745E+01 0.00000E+00
 -1      4047 2.98740E+01 2.03735E+01 0.00000E+00
 -1      4048 1.95058E+01 2.56750E+01 0.00000E+00
 -1      4049 1.92459E+01 2.76410E+01 0.00000E+00
 -1      4050 2.10849E+01 2.77909E+01 0.00000E+00
 -1      4051 2.08048E+01 2.49407E+01 0.00000E+00
 -1      4052 9.27074E+01 2.60572E+01 0.00000E+00
 -1      4053 9.39251E+01 2.59046E+01 0.00000E+00
 -1      4054 9.38932E+01 2.47477E+01 0.00000E+00
 -1      4055 5.68740E+01 2.03735E+01 0.00000E+00
 -1      4056 4.26240E+01 1.90745E+01 0.00000E+00
 -1      4057 4.18740E+01 2.03735E+01 0.00000E+00
 -1      4058 4.41240E+01 1.90745E+01 0.00000E+00
 -1      4059 1.94704E+01 1.99112E+01 0.00000E+00
 -1      4060 9.14696E+01 2.82585E+01 0.00000E+00
 -1      4061 3.09750E+01 2.79170E+01 0.00000E+00
 -1      4062 3.24750E+01 2.79170E+01 0.00000E+00
 -1      4063 3.39750E+01 2.79170E+01 0.00000E+00
 -1      4064 3.54750E+01 2.79170E+01 0.00000E+00
 -1      4065 3.32250E+01 2.66180E+01 0.00000E+00
 -1      4066 3.69750E+01 2.79170E+01 0.00000E+00
 -1      4067 3.84750E+01 2.79170E+01 0.00000E+00
 -1      4068 3.62250E+01 2.66180E+01 0.00000E+00
 -1      4069 3.99750E+01 2.79170E+01 0.00000E+00
 -1      4070 4.14750E+01 2.79170E+01 0.00000E+00
 -1      4071 3.92250E+01 2.66180E+01 0.00000E+00
 -1      4072 4.29750E+01 2.79170E+01 0.00000E+00
 -1      4073 4.44750E+01 2.79170E+01 0.00000E+00
 -1      4074 4.22250E+01 2.66180E+01 0.00000E+00
 -1      4075 4.59750E+01 2.79170E+01 0.00000E+00
 -1      4076 4.74750E+01 2.79170E+01 0.00000E+00
 -1      4077 4.52250E+01 2.66180E+01 0.00000E+00
 -1      4078 4.89750E+01 2.79170E+01 0.00000E+00
 -1      4079 5.04750E+01 2.79170E+01 0.00000E+00
 -1      4080 4.82250E+01 2.66180E+01 0.00000E+00
 -1      4081 5.20500E+01 2.79170E+01 0.00000E+00
 -1      4082 5.36250E+01 2.79170E+01 0.00000E+00
 -1      4083 5.13000E+01 2.66180E+01 0.00000E+00
 -1      4084 5.51250E+01 2.79170E+01 0.00000E+00
 -1      4085 5.66250E+01 2.79170E+01 0.00000E+00
 -1      4086 5.43750E+01 2.66180E+01 0.00000E+00
 -1      4087 5.81250E+01 2.79170E+01 0.00000E+00
 -1      4088 5.96250E+01 2.79170E+01 0.00000E+00
 -1      4089 5.73750E+01 2.66180E+01 0.00000E+00
 -1      4090 6.11250E+01 2.79170E+01 0.00000E+00
 -1      4091 6.26250E+01 2.79170E+01 0.00000E+00
 -1      4092 6.03750E+01 2.66180E+01 0.00000E+00
 -1      4093 6.41250E+01 2.79170E+01 0.00000E+00
 -1      4094 6.56250E+01 2.79170E+01 0.00000E+00
 -1      4095 6.33750E+01 2.66180E+01 0.00000E+00
 -1      4096 6.71250E+01 2.79170E+01 0.00000E+00
 -1      4097 6.86250E+01 2.79170E+01 0.00000E+00
 -1      4098 6.63750E+01 2.66180E+01 0.00000E+00
 -1      4099 7.01250E+01 2.79170E+01 0.00000E+00
 -1      4100 7.16250E+01 2.79170E+01 0.00000E+00
 -1      4101 6.93750E+01 2.66180E+01 0.00000E+00
 -1      4102 7.31250E+01 2.79170E+01 0.00000E+00
 -1      4103 7.46250E+01 2.79170E+01 0.00000E+00
 -1      4104 7.23750E+01 2.66180E+01 0.00000E+00
 -1      4105 7.61250E+01 2.79170E+01 0.00000E+00
 -1      4106 7.76250E+01 2.79170E+01 0.00000E+00
 -1      4107 7.53750E+01 2.66180E+01 0.00000E+00
 -1      4108 7.91250E+01 2.79170E+01 0.00000E+00
 -1      4109 8.06250E+01 2.79170E+01 0.00000E+00
 -1      4110 7.83750E+01 2.66180E+01 0.00000E+00
 -1      4111 8.21250E+01 2.79170E+01 0.00000E+00
 -1      4112 8.36250E+01 2.79170E+01 0.00000E+00
 -1      4113 8.13750E+01 2.66180E+01 0.00000E+00
 -1      4114 8.52000E+01 2.79170E+01 0.00000E+00
 -1      4115 8.67750E+01 2.79170E+01 0.00000E+00
 -1      4116 8.44500E+01 2.66180E+01 0.00000E+00
 -1      4117 4.71240E+01 1.90745E+01 0.00000E+00
 -1      4118 4.56240E+01 1.90745E+01 0.00000E+00
 -1      4119 4.78740E+01 2.03735E+01 0.00000E+00
 -1      4120 6.66240E+01 2.16725E+01 0.00000E+00
 -1      4121 6.51240E+01 2.16725E+01 0.00000E+00
 -1      4122 3.88740E+01 2.03735E+01 0.00000E+00
 -1      4123 3.81240E+01 1.90745E+01 0.00000E+00
 -1      4124 3.66240E+01 1.90745E+01 0.00000E+00
 -1      4125 2.49750E+01 2.79170E+01 0.00000E+00
 -1      4126 2.64750E+01 2.79170E+01 0.00000E+00
 -1      4127 3.51240E+01 1.90745E+01 0.00000E+00
 -1      4128 3.36240E+01 1.90745E+01 0.00000E+00
 -1      4129 3.28740E+01 2.03735E+01 0.00000E+00
 -1      4130 3.58740E+01 2.03735E+01 0.00000E+00
 -1      4131 1.27277E+02 2.24108E+01 0.00000E+00
 -1      4132 5.46240E+01 2.16725E+01 0.00000E+00
 -1      4133 5.31240E+01 2.16725E+01 0.00000E+00
 -1      4134 2.68740E+01 2.03735E+01 0.00000E+00
 -1      4135 2.61240E+01 1.90745E+01 0.00000E+00
 -1      4136 2.46240E+01 1.90745E+01 0.00000E+00
 -1      4137 6.36240E+01 2.16725E+01 0.00000E+00
 -1      4138 6.21240E+01 2.16725E+01 0.00000E+00
 -1      4139 6.43740E+01 2.29715E+01 0.00000E+00
 -1      4140 7.56240E+01 2.16725E+01 0.00000E+00
 -1      4141 7.41240E+01 2.16725E+01 0.00000E+00
 -1      4142 7.26240E+01 2.16725E+01 0.00000E+00
 -1      4143 7.11240E+01 2.16725E+01 0.00000E+00
 -1      4144 7.33740E+01 2.29715E+01 0.00000E+00
 -1      4145 8.16240E+01 2.16725E+01 0.00000E+00
 -1      4146 8.01240E+01 2.16725E+01 0.00000E+00
 -1      4147 8.46240E+01 2.16725E+01 0.00000E+00
 -1      4148 8.31240E+01 2.16725E+01 0.00000E+00
 -1      4149 8.23740E+01 2.29715E+01 0.00000E+00
 -1      4150 8.76240E+01 2.16725E+01 0.00000E+00
 -1      4151 8.61240E+01 2.16725E+01 0.00000E+00
 -1      4152 8.53740E+01 2.29715E+01 0.00000E+00
 -1      4153 9.06240E+01 2.16725E+01 0.00000E+00
 -1      4154 8.91240E+01 2.16725E+01 0.00000E+00
 -1      4155 8.83740E+01 2.29715E+01 0.00000E+00
 -1      4156 9.32298E+01 2.12449E+01 0.00000E+00
 -1      4157 9.19269E+01 2.14587E+01 0.00000E+00
 -1      4158 9.37826E+01 2.23301E+01 0.00000E+00
 -1      4159 7.86240E+01 2.16725E+01 0.00000E+00
 -1      4160 7.71240E+01 2.16725E+01 0.00000E+00
 -1      4161 7.63740E+01 2.29715E+01 0.00000E+00
 -1      4162 7.93740E+01 2.29715E+01 0.00000E+00
 -1      4163 1.30548E+02 2.50757E+01 0.00000E+00
 -1      4164 6.96240E+01 2.16725E+01 0.00000E+00
 -1      4165 6.81240E+01 2.16725E+01 0.00000E+00
 -1      4166 7.03740E+01 2.29715E+01 0.00000E+00
 -1      4167 5.76240E+01 2.16725E+01 0.00000E+00
 -1      4168 5.61240E+01 2.16725E+01 0.00000E+00
 -1      4169 5.53740E+01 2.29715E+01 0.00000E+00
 -1      4170 9.95631E+01 1.86091E+01 0.00000E+00
 -1      4171 8.81125E+01 2.79605E+01 0.00000E+00
 -1      4172 8.94499E+01 2.80040E+01 0.00000E+00
 -1      4173 8.73625E+01 2.66615E+01 0.00000E+00
 -1      4174 9.07196E+01 2.69595E+01 0.00000E+00
 -1      4175 6.06240E+01 2.16725E+01 0.00000E+00
 -1      4176 5.91240E+01 2.16725E+01 0.00000E+00
 -1      4177 5.83740E+01 2.29715E+01 0.00000E+00
 -1      4178 6.13740E+01 2.29715E+01 0.00000E+00
 -1      4179 1.29046E+02 2.38317E+01 0.00000E+00
 -1      4180 2.22800E+01 2.78539E+01 0.00000E+00
 -1      4181 2.37800E+01 2.78539E+01 0.00000E+00
 -1      4182 2.45300E+01 2.65549E+01 0.00000E+00
 -1      4183 2.21399E+01 2.64288E+01 0.00000E+00
 -1      4184 2.15717E+01 1.92105E+01 0.00000E+00
 -1      4185 2.01681E+01 2.13462E+01 0.00000E+00
 -1      4186 2.14671E+01 2.20805E+01 0.00000E+00
 -1      4187 2.30717E+01 1.92105E+01 0.00000E+00
 -1      4188 2.79750E+01 2.79170E+01 0.00000E+00
 -1      4189 2.94750E+01 2.79170E+01 0.00000E+00
 -1      4190 2.72250E+01 2.66180E+01 0.00000E+00
 -1      4191 4.48740E+01 2.03735E+01 0.00000E+00
 -1      4192 9.37953E+01 2.35695E+01 0.00000E+00
 -1      4193 3.96240E+01 2.16725E+01 0.00000E+00
 -1      4194 3.81240E+01 2.16725E+01 0.00000E+00
 -1      4195 6.73740E+01 2.29715E+01 0.00000E+00
 -1      4196 2.30020E+01 2.19970E+01 0.00000E+00
 -1      4197 2.21997E+01 2.34320E+01 0.00000E+00
 -1      4198 3.02250E+01 2.66180E+01 0.00000E+00
 -1      4199 9.11769E+01 2.27577E+01 0.00000E+00
 -1      4200 2.76240E+01 2.16725E+01 0.00000E+00
 -1      4201 2.61240E+01 2.16725E+01 0.00000E+00
 -1      4202 2.23398E+01 2.48571E+01 0.00000E+00
 -1      4203 3.06240E+01 2.16725E+01 0.00000E+00
 -1      4204 2.91240E+01 2.16725E+01 0.00000E+00
 -1      4205 2.83740E+01 2.29715E+01 0.00000E+00
 -1      4206 9.06877E+01 2.58026E+01 0.00000E+00
 -1      4207 9.25776E+01 2.37221E+01 0.00000E+00
 -1      4208 4.26240E+01 2.16725E+01 0.00000E+00
 -1      4209 4.11240E+01 2.16725E+01 0.00000E+00
 -1      4210 4.03740E+01 2.29715E+01 0.00000E+00
 -1      4211 5.23740E+01 2.29715E+01 0.00000E+00
 -1      4212 5.16240E+01 2.16725E+01 0.00000E+00
 -1      4213 5.01240E+01 2.16725E+01 0.00000E+00
 -1      4214 2.62995E+01 2.47948E+01 0.00000E+00
 -1      4215 2.77995E+01 2.47948E+01 0.00000E+00
 -1      4216 2.92995E+01 2.47948E+01 0.00000E+00
 -1      4217 3.54750E+01 2.53190E+01 0.00000E+00
 -1      4218 3.69750E+01 2.53190E+01 0.00000E+00
 -1      4219 3.82995E+01 2.47948E+01 0.00000E+00
 -1      4220 3.97995E+01 2.47948E+01 0.00000E+00
 -1      4221 4.12995E+01 2.47948E+01 0.00000E+00
 -1      4222 4.27995E+01 2.47948E+01 0.00000E+00
 -1      4223 4.74750E+01 2.53190E+01 0.00000E+00
 -1      4224 4.89750E+01 2.53190E+01 0.00000E+00
 -1      4225 5.02995E+01 2.47948E+01 0.00000E+00
 -1      4226 5.18745E+01 2.47948E+01 0.00000E+00
 -1      4227 5.33745E+01 2.47948E+01 0.00000E+00
 -1      4228 5.48745E+01 2.47948E+01 0.00000E+00
 -1      4229 5.63745E+01 2.47948E+01 0.00000E+00
 -1      4230 5.78745E+01 2.47948E+01 0.00000E+00
 -1      4231 5.93745E+01 2.47948E+01 0.00000E+00
 -1      4232 6.08745E+01 2.47948E+01 0.00000E+00
 -1      4233 6.23745E+01 2.47948E+01 0.00000E+00
 -1      4234 6.38745E+01 2.47948E+01 0.00000E+00
 -1      4235 6.53745E+01 2.47948E+01 0.00000E+00
 -1      4236 6.68745E+01 2.47948E+01 0.00000E+00
 -1      4237 6.83745E+01 2.47948E+01 0.00000E+00
 -1      4238 6.98745E+01 2.47948E+01 0.00000E+00
 -1      4239 7.13745E+01 2.47948E+01 0.00000E+00
 -1      4240 7.28745E+01 2.47948E+01 0.00000E+00
 -1      4241 7.43745E+01 2.47948E+01 0.00000E+00
 -1      4242 7.58745E+01 2.47948E+01 0.00000E+00
 -1      4243 7.73745E+01 2.47948E+01 0.00000E+00
 -1      4244 7.88745E+01 2.47948E+01 0.00000E+00
 -1      4245 8.03745E+01 2.47948E+01 0.00000E+00
 -1      4246 8.18745E+01 2.47948E+01 0.00000E+00
 -1      4247 8.33745E+01 2.47948E+01 0.00000E+00
 -1      4248 8.49495E+01 2.47948E+01 0.00000E+00
 -1      4249 4.87995E+01 2.21968E+01 0.00000E+00
 -1      4250 4.72995E+01 2.21968E+01 0.00000E+00
 -1      4251 2.38217E+01 2.05095E+01 0.00000E+00
 -1      4252 2.45544E+01 2.18609E+01 0.00000E+00
 -1      4253 3.07995E+01 2.47948E+01 0.00000E+00
 -1      4254 2.47298E+01 2.49832E+01 0.00000E+00
 -1      4255 2.53044E+01 2.31599E+01 0.00000E+00
 -1      4256 8.64495E+01 2.47948E+01 0.00000E+00
 -1      4257 3.75495E+01 2.34958E+01 0.00000E+00
 -1      4258 3.67995E+01 2.21968E+01 0.00000E+00
 -1      4259 4.57118E+01 2.19346E+01 0.00000E+00
 -1      4260 4.42118E+01 2.19346E+01 0.00000E+00
 -1      4261 4.34618E+01 2.32336E+01 0.00000E+00
 -1      4262 4.66372E+01 2.37579E+01 0.00000E+00
 -1      4263 8.77870E+01 2.48382E+01 0.00000E+00
 -1      4264 3.23873E+01 2.50569E+01 0.00000E+00
 -1      4265 3.38873E+01 2.50569E+01 0.00000E+00
 -1      4266 3.46373E+01 2.37579E+01 0.00000E+00
 -1      4267 3.14618E+01 2.32336E+01 0.00000E+00
 -1      4268 9.12747E+01 2.39359E+01 0.00000E+00
 -1      4269 8.92870E+01 2.48382E+01 0.00000E+00
 -1      4270 4.43872E+01 2.50569E+01 0.00000E+00
 -1      4271 4.95495E+01 2.34958E+01 0.00000E+00
 -1      4272 4.58872E+01 2.50569E+01 0.00000E+00
 -1      4273 2.35348E+01 2.49201E+01 0.00000E+00
 -1      4274 3.37118E+01 2.19346E+01 0.00000E+00
 -1      4275 3.22118E+01 2.19346E+01 0.00000E+00
 -1      4276 3.52995E+01 2.21968E+01 0.00000E+00
 -3
    3C                          2056                                     1
 -1       165    8    0    1
 -2         6         7        23      1111      1275      1128
 -1       166    8    0    1
 -2         7         8       165      1112      1276      1277
 -1       167    8    0    1
 -2         8         9       166      1113      1278      1279
 -1       168    8    0    1
 -2         8       166       165      1279      1280      1276
 -1       169    8    0    1
 -2         9        10       167      1114      1281      1282
 -1       170    8    0    1
 -2         9       167       166      1282      1283      1278
 -1       171    8    0    1
 -2        10        11       168      1115      1284      1285
 -1       172    8    0    1
 -2        10       168       167      1285      1286      1281
 -1       173    8    0    1
 -2        11        12       169      1116      1287      1288
 -1       174    8    0    1
 -2        11       169       168      1288      1289      1284
 -1       175    8    0    1
 -2        12        13       170      1117      1290      1291
 -1       176    8    0    1
 -2        12       170       169      1291      1292      1287
 -1       177    8    0    1
 -2        13        14       171      1118      1293      1294
 -1       178    8    0    1
 -2        13       171       170      1294      1295      1290
 -1       179    8    0    1
 -2        14        15       172      1119      1296      1297
 -1       180    8    0    1
 -2        14       172       171      1297      1298      1293
 -1       181    8    0    1
 -2        15        16       173      1120      1299      1300
 -1       182    8    0    1
 -2        15       173       172      1300      1301      1296
 -1       183    8    0    1
 -2        16        17       174      1121      1302      1303
 -1       184    8    0    1
 -2        16       174       173      1303      1304      1299
 -1       185    8    0    1
 -2        17        18       175      1122      1305      1306
 -1       186    8    0    1
 -2        17       175       174      1306      1307      1302
 -1       187    8    0    1
 -2        18        19       176      1123      1308      1309
 -1       188    8    0    1
 -2        18       176       175      1309      1310      1305
 -1       189    8    0    1
 -2        19        20       177      1124      1311      1312
 -1       190    8    0    1
 -2        19       177       176      1312      1313      1308
 -1       191    8    0    1
 -2        20        21       178      1125      1314      1315
 -1       192    8    0    1
 -2        20       178       177      1315      1316      1311
 -1       193    8    0    1
 -2        21        22       179      1126      1317      1318
 -1       194    8    0    1
 -2        21       179       178      1318      1319      1314
 -1       195    8    0    1
 -2        22         5       180      1127      1320      1321
 -1       196    8    0    1
 -2       179        22       180      1317      1321      1322
 -1       197    8    0    1
 -2         5        72       180      1178      1323      1320
 -1       198    8    0    1
 -2        24        23       181      1129      1324      1325
 -1       199    8    0    1
 -2        25        24       182      1130      1326      1327
 -1       200    8    0    1
 -2        24       181       182      1325      1328      1326
 -1       201    8    0    1
 -2        26        25       183      1131      1329      1330
 -1       202    8    0    1
 -2        25       182       183      1327      1331      1329
 -1       203    8    0    1
 -2        27        26       184      1132      1332      1333
 -1       204    8    0    1
 -2        26       183       184      1330      1334      1332
 -1       205    8    0    1
 -2        28        27       185      1133      1335      1336
 -1       206    8    0    1
 -2        27       184       185      1333      1337      1335
 -1       207    8    0    1
 -2        29        28       186      1134      1338      1339
 -1       208    8    0    1
 -2        28       185       186      1336      1340      1338
 -1       209    8    0    1
 -2        30        29       187      1135      1341      1342
 -1       210    8    0    1
 -2        29       186       187      1339      1343      1341
 -1       211    8    0    1
 -2        31        30       188      1136      1344      1345
 -1       212    8    0    1
 -2        30       187       188      1342      1346      1344
 -1       213    8    0    1
 -2        32        31       189      1137      1347      1348
 -1       214    8    0    1
 -2        31       188       189      1345      1349      1347
 -1       215    8    0    1
 -2        33        32       190      1138      1350      1351
 -1       216    8    0    1
 -2        32       189       190      1348      1352      1350
 -1       217    8    0    1
 -2        34        33       191      1139      1353      1354
 -1       218    8    0    1
 -2        33       190       191      1351      1355      1353
 -1       219    8    0    1
 -2        35        34       192      1140      1356      1357
 -1       220    8    0    1
 -2        34       191       192      1354      1358      1356
 -1       221    8    0    1
 -2        36        35       193      1141      1359      1360
 -1       222    8    0    1
 -2        35       192       193      1357      1361      1359
 -1       223    8    0    1
 -2        37        36       194      1142      1362      1363
 -1       224    8    0    1
 -2        36       193       194      1360      1364      1362
 -1       225    8    0    1
 -2        38        37       195      1143      1365      1366
 -1       226    8    0    1
 -2        37       194       195      1363      1367      1365
 -1       227    8    0    1
 -2        39        38       196      1144      1368      1369
 -1       228    8    0    1
 -2        38       195       196      1366      1370      1368
 -1       229    8    0    1
 -2        40        39       197      1145      1371      1372
 -1       230    8    0    1
 -2        39       196       197      1369      1373      1371
 -1       231    8    0    1
 -2        41        40       198      1146      1374      1375
 -1       232    8    0    1
 -2        40       197       198      1372      1376      1374
 -1       233    8    0    1
 -2        42        41       199      1147      1377      1378
 -1       234    8    0    1
 -2        41       198       199      1375      1379      1377
 -1       235    8    0    1
 -2        43        42       200      1148      1380      1381
 -1       236    8    0    1
 -2        42       199       200      1378      1382      1380
 -1       237    8    0    1
 -2        44        43       201      1149      1383      1384
 -1       238    8    0    1
 -2        43       200       201      1381      1385      1383
 -1       239    8    0    1
 -2        45        44       202      1150      1386      1387
 -1       240    8    0    1
 -2        44       201       202      1384      1388      1386
 -1       241    8    0    1
 -2        46        45       203      1151      1389      1390
 -1       242    8    0    1
 -2        45       202       203      1387      1391      1389
 -1       243    8    0    1
 -2        47        46       204      1152      1392      1393
 -1       244    8    0    1
 -2        46       203       204      1390      1394      1392
 -1       245    8    0    1
 -2        48        47       205      1153      1395      1396
 -1       246    8    0    1
 -2        47       204       205      1393      1397      1395
 -1       247    8    0    1
 -2        49        48       206      1154      1398      1399
 -1       248    8    0    1
 -2        48       205       206      1396      1400      1398
 -1       249    8    0    1
 -2        50        49       207      1155      1401      1402
 -1       250    8    0    1
 -2        49       206       207      1399      1403      1401
 -1       251    8    0    1
 -2        51        50       208      1156      1404      1405
 -1       252    8    0    1
 -2        50       207       208      1402      1406      1404
 -1       253    8    0    1
 -2        52        51       209      1157      1407      1408
 -1       254    8    0    1
 -2        51       208       209      1405      1409      1407
 -1       255    8    0    1
 -2        53        52       210      1158      1410      1411
 -1       256    8    0    1
 -2        52       209       210      1408      1412      1410
 -1       257    8    0    1
 -2        54        53       211      1159      1413      1414
 -1       258    8    0    1
 -2        53       210       211      1411      1415      1413
 -1       259    8    0    1
 -2        55        54       212      1160      1416      1417
 -1       260    8    0    1
 -2        54       211       212      1414      1418      1416
 -1       261    8    0    1
 -2        56        55       213      1161      1419      1420
 -1       262    8    0    1
 -2        55       212       213      1417      1421      1419
 -1       263    8    0    1
 -2        57        56       214      1162      1422      1423
 -1       264    8    0    1
 -2        56       213       214      1420      1424      1422
 -1       265    8    0    1
 -2        58        57       215      1163      1425      1426
 -1       266    8    0    1
 -2        57       214       215      1423      1427      1425
 -1       267    8    0    1
 -2        59        58       216      1164      1428      1429
 -1       268    8    0    1
 -2        58       215       216      1426      1430      1428
 -1       269    8    0    1
 -2        60        59       217      1165      1431      1432
 -1       270    8    0    1
 -2        59       216       217      1429      1433      1431
 -1       271    8    0    1
 -2        61        60       218      1166      1434      1435
 -1       272    8    0    1
 -2        60       217       218      1432      1436      1434
 -1       273    8    0    1
 -2        62        61       219      1167      1437      1438
 -1       274    8    0    1
 -2        61       218       219      1435      1439      1437
 -1       275    8    0    1
 -2        63        62       220      1168      1440      1441
 -1       276    8    0    1
 -2        62       219       220      1438      1442      1440
 -1       277    8    0    1
 -2        64        63       221      1169      1443      1444
 -1       278    8    0    1
 -2        63       220       221      1441      1445      1443
 -1       279    8    0    1
 -2        65        64       222      1170      1446      1447
 -1       280    8    0    1
 -2        64       221       222      1444      1448      1446
 -1       281    8    0    1
 -2        66        65       223      1171      1449      1450
 -1       282    8    0    1
 -2        65       222       223      1447      1451      1449
 -1       283    8    0    1
 -2        67        66       224      1172      1452      1453
 -1       284    8    0    1
 -2        66       223       224      1450      1454      1452
 -1       285    8    0    1
 -2        68        67       225      1173      1455      1456
 -1       286    8    0    1
 -2        67       224       225      1453      1457      1455
 -1       287    8    0    1
 -2        69        68       226      1174      1458      1459
 -1       288    8    0    1
 -2        68       225       226      1456      1460      1458
 -1       289    8    0    1
 -2        70        69       227      1175      1461      1462
 -1       290    8    0    1
 -2        69       226       227      1459      1463      1461
 -1       291    8    0    1
 -2        71        70       228      1176      1464      1465
 -1       292    8    0    1
 -2        70       227       228      1462      1466      1464
 -1       293    8    0    1
 -2         4        71       229      1177      1467      1468
 -1       294    8    0    1
 -2       136         4       229      1244      1468      1469
 -1       295    8    0    1
 -2        71       228       229      1465      1470      1467
 -1       296    8    0    1
 -2        72        73       230      1179      1471      1472
 -1       297    8    0    1
 -2        72       230       180      1472      1473      1323
 -1       298    8    0    1
 -2        73        74       231      1180      1474      1475
 -1       299    8    0    1
 -2        73       231       230      1475      1476      1471
 -1       300    8    0    1
 -2        74        75       232      1181      1477      1478
 -1       301    8    0    1
 -2        74       232       231      1478      1479      1474
 -1       302    8    0    1
 -2        75        76       233      1182      1480      1481
 -1       303    8    0    1
 -2        75       233       232      1481      1482      1477
 -1       304    8    0    1
 -2        76        77       234      1183      1483      1484
 -1       305    8    0    1
 -2        76       234       233      1484      1485      1480
 -1       306    8    0    1
 -2        77        78       235      1184      1486      1487
 -1       307    8    0    1
 -2        77       235       234      1487      1488      1483
 -1       308    8    0    1
 -2        78        79       236      1185      1489      1490
 -1       309    8    0    1
 -2        78       236       235      1490      1491      1486
 -1       310    8    0    1
 -2        79        80       237      1186      1492      1493
 -1       311    8    0    1
 -2        79       237       236      1493      1494      1489
 -1       312    8    0    1
 -2        80        81       238      1187      1495      1496
 -1       313    8    0    1
 -2        80       238       237      1496      1497      1492
 -1       314    8    0    1
 -2        81        82       239      1188      1498      1499
 -1       315    8    0    1
 -2        81       239       238      1499      1500      1495
 -1       316    8    0    1
 -2        82        83       240      1189      1501      1502
 -1       317    8    0    1
 -2        82       240       239      1502      1503      1498
 -1       318    8    0    1
 -2        83        84       241      1190      1504      1505
 -1       319    8    0    1
 -2        83       241       240      1505      1506      1501
 -1       320    8    0    1
 -2        84        85       242      1191      1507      1508
 -1       321    8    0    1
 -2        84       242       241      1508      1509      1504
 -1       322    8    0    1
 -2        85        86       243      1192      1510      1511
 -1       323    8    0    1
 -2        85       243       242      1511      1512      1507
 -1       324    8    0    1
 -2        86        87       244      1193      1513      1514
 -1       325    8    0    1
 -2        86       244       243      1514      1515      1510
 -1       326    8    0    1
 -2        87        88       245      1194      1516      1517
 -1       327    8    0    1
 -2        87       245       244      1517      1518      1513
 -1       328    8    0    1
 -2        88        89       246      1195      1519      1520
 -1       329    8    0    1
 -2        88       246       245      1520      1521      1516
 -1       330    8    0    1
 -2        89        90       247      1196      1522      1523
 -1       331    8    0    1
 -2        89       247       246      1523      1524      1519
 -1       332    8    0    1
 -2        90        91       248      1197      1525      1526
 -1       333    8    0    1
 -2        90       248       247      1526      1527      1522
 -1       334    8    0    1
 -2        91        92       249      1198      1528      1529
 -1       335    8    0    1
 -2        91       249       248      1529      1530      1525
 -1       336    8    0    1
 -2        92        93       250      1199      1531      1532
 -1       337    8    0    1
 -2        92       250       249      1532      1533      1528
 -1       338    8    0    1
 -2        93        94       251      1200      1534      1535
 -1       339    8    0    1
 -2        93       251       250      1535      1536      1531
 -1       340    8    0    1
 -2        94        95       252      1201      1537      1538
 -1       341    8    0    1
 -2        94       252       251      1538      1539      1534
 -1       342    8    0    1
 -2        95        96       253      1202      1540      1541
 -1       343    8    0    1
 -2        95       253       252      1541      1542      1537
 -1       344    8    0    1
 -2        96        97       254      1203      1543      1544
 -1       345    8    0    1
 -2        96       254       253      1544      1545      1540
 -1       346    8    0    1
 -2        97        98       255      1204      1546      1547
 -1       347    8    0    1
 -2        97       255       254      1547      1548      1543
 -1       348    8    0    1
 -2        98        99       256      1205      1549      1550
 -1       349    8    0    1
 -2        98       256       255      1550      1551      1546
 -1       350    8    0    1
 -2        99       100       257      1206      1552      1553
 -1       351    8    0    1
 -2        99       257       256      1553      1554      1549
 -1       352    8    0    1
 -2       100       101       258      1207      1555      1556
 -1       353    8    0    1
 -2       100       258       257      1556      1557      1552
 -1       354    8    0    1
 -2       101       102       259      1208      1558      1559
 -1       355    8    0    1
 -2       101       259       258      1559      1560      1555
 -1       356    8    0    1
 -2       102       103       260      1209      1561      1562
 -1       357    8    0    1
 -2       102       260       259      1562      1563      1558
 -1       358    8    0    1
 -2       103       104       261      1210      1564      1565
 -1       359    8    0    1
 -2       103       261       260      1565      1566      1561
 -1       360    8    0    1
 -2       104       105       262      1211      1567      1568
 -1       361    8    0    1
 -2       104       262       261      1568      1569      1564
 -1       362    8    0    1
 -2       105       106       263      1212      1570      1571
 -1       363    8    0    1
 -2       105       263       262      1571      1572      1567
 -1       364    8    0    1
 -2       106       107       264      1213      1573      1574
 -1       365    8    0    1
 -2       106       264       263      1574      1575      1570
 -1       366    8    0    1
 -2       107       108       265      1214      1576      1577
 -1       367    8    0    1
 -2       107       265       264      1577      1578      1573
 -1       368    8    0    1
 -2       108       109       266      1215      1579      1580
 -1       369    8    0    1
 -2       108       266       265      1580      1581      1576
 -1       370    8    0    1
 -2       109       110       267      1216      1582      1583
 -1       371    8    0    1
 -2       109       267       266      1583      1584      1579
 -1       372    8    0    1
 -2       110       111       268      1217      1585      1586
 -1       373    8    0    1
 -2       110       268       267      1586      1587      1582
 -1       374    8    0    1
 -2       111       112       269      1218      1588      1589
 -1       375    8    0    1
 -2       111       269       268      1589      1590      1585
 -1       376    8    0    1
 -2       112       113       270      1219      1591      1592
 -1       377    8    0    1
 -2       112       270       269      1592      1593      1588
 -1       378    8    0    1
 -2       113       114       271      1220      1594      1595
 -1       379    8    0    1
 -2       113       271       270      1595      1596      1591
 -1       380    8    0    1
 -2       114       115       272      1221      1597      1598
 -1       381    8    0    1
 -2       114       272       271      1598      1599      1594
 -1       382    8    0    1
 -2       115       116       273      1222      1600      1601
 -1       383    8    0    1
 -2       115       273       272      1601      1602      1597
 -1       384    8    0    1
 -2       116       117       274      1223      1603      1604
 -1       385    8    0    1
 -2       116       274       273      1604      1605      1600
 -1       386    8    0    1
 -2       117       118       275      1224      1606      1607
 -1       387    8    0    1
 -2       117       275       274      1607      1608      1603
 -1       388    8    0    1
 -2       118       119       276      1225      1609      1610
 -1       389    8    0    1
 -2       118       276       275      1610      1611      1606
 -1       390    8    0    1
 -2       119       120       277      1226      1612      1613
 -1       391    8    0    1
 -2       119       277       276      1613      1614      1609
 -1       392    8    0    1
 -2       120         3       121      1227      1228      1615
 -1       393    8    0    1
 -2       121       122       278      1229      1616      1617
 -1       394    8    0    1
 -2       122       123       279      1230      1618      1619
 -1       395    8    0    1
 -2       122       279       278      1619      1620      1616
 -1       396    8    0    1
 -2       123       124       280      1231      1621      1622
 -1       397    8    0    1
 -2       123       280       279      1622      1623      1618
 -1       398    8    0    1
 -2       124       125       281      1232      1624      1625
 -1       399    8    0    1
 -2       124       281       280      1625      1626      1621
 -1       400    8    0    1
 -2       125       126       282      1233      1627      1628
 -1       401    8    0    1
 -2       125       282       281      1628      1629      1624
 -1       402    8    0    1
 -2       126       127       283      1234      1630      1631
 -1       403    8    0    1
 -2       126       283       282      1631      1632      1627
 -1       404    8    0    1
 -2       127       128       284      1235      1633      1634
 -1       405    8    0    1
 -2       127       284       283      1634      1635      1630
 -1       406    8    0    1
 -2       128       129       285      1236      1636      1637
 -1       407    8    0    1
 -2       128       285       284      1637      1638      1633
 -1       408    8    0    1
 -2       129       130       286      1237      1639      1640
 -1       409    8    0    1
 -2       129       286       285      1640      1641      1636
 -1       410    8    0    1
 -2       130       131       287      1238      1642      1643
 -1       411    8    0    1
 -2       130       287       286      1643      1644      1639
 -1       412    8    0    1
 -2       131       132       288      1239      1645      1646
 -1       413    8    0    1
 -2       131       288       287      1646      1647      1642
 -1       414    8    0    1
 -2       132       133       289      1240      1648      1649
 -1       415    8    0    1
 -2       132       289       288      1649      1650      1645
 -1       416    8    0    1
 -2       133       134       290      1241      1651      1652
 -1       417    8    0    1
 -2       133       290       289      1652      1653      1648
 -1       418    8    0    1
 -2       134       135       291      1242      1654      1655
 -1       419    8    0    1
 -2       134       291       290      1655      1656      1651
 -1       420    8    0    1
 -2       135       136       292      1243      1657      1658
 -1       421    8    0    1
 -2       291       135       292      1654      1658      1659
 -1       422    8    0    1
 -2       136       229       292      1469      1660      1657
 -1       423    8    0    1
 -2         2       137       293      1245      1661      1662
 -1       424    8    0    1
 -2       137       138       294      1246      1663      1664
 -1       425    8    0    1
 -2       138       139       295      1247      1665      1666
 -1       426    8    0    1
 -2       139       140       296      1248      1667      1668
 -1       427    8    0    1
 -2       140       141       297      1249      1669      1670
 -1       428    8    0    1
 -2       141       142       298      1250      1671      1672
 -1       429    8    0    1
 -2       142       143       299      1251      1673      1674
 -1       430    8    0    1
 -2       143       144       300      1252      1675      1676
 -1       431    8    0    1
 -2       144       145       301      1253      1677      1678
 -1       432    8    0    1
 -2       145       146       302      1254      1679      1680
 -1       433    8    0    1
 -2       146       147       303      1255      1681      1682
 -1       434    8    0    1
 -2       147       148       304      1256      1683      1684
 -1       435    8    0    1
 -2       148       149       305      1257      1685      1686
 -1       436    8    0    1
 -2       149       150       306      1258      1687      1688
 -1       437    8    0    1
 -2       150       151       307      1259      1689      1690
 -1       438    8    0    1
 -2       151       152       308      1260      1691      1692
 -1       439    8    0    1
 -2       152       153       309      1261      1693      1694
 -1       440    8    0    1
 -2       153       154       310      1262      1695      1696
 -1       441    8    0    1
 -2       154       155       311      1263      1697      1698
 -1       442    8    0    1
 -2       155       156       312      1264      1699      1700
 -1       443    8    0    1
 -2       156       157       313      1265      1701      1702
 -1       444    8    0    1
 -2       157       158       314      1266      1703      1704
 -1       445    8    0    1
 -2       158         1       315      1267      1705      1706
 -1       446    8    0    1
 -2         1       159       316      1268      1707      1708
 -1       447    8    0    1
 -2       159       160       317      1269      1709      1710
 -1       448    8    0    1
 -2       160       161       318      1270      1711      1712
 -1       449    8    0    1
 -2       161       162       319      1271      1713      1714
 -1       450    8    0    1
 -2       162       163       320      1272      1715      1716
 -1       451    8    0    1
 -2       163       164       321      1273      1717      1718
 -1       452    8    0    1
 -2       164         2       322      1274      1719      1720
 -1       453    8    0    1
 -2       295       139       296      1665      1668      1721
 -1       454    8    0    1
 -2         2       293       322      1662      1722      1719
 -1       455    8    0    1
 -2       120       121       277      1615      1723      1612
 -1       456    8    0    1
 -2       121       278       277      1617      1724      1723
 -1       457    8    0    1
 -2       293       137       294      1661      1664      1725
 -1       458    8    0    1
 -2       294       138       295      1663      1666      1726
 -1       459    8    0    1
 -2       140       297       296      1670      1727      1667
 -1       460    8    0    1
 -2       141       298       297      1672      1728      1669
 -1       461    8    0    1
 -2       142       299       298      1674      1729      1671
 -1       462    8    0    1
 -2       143       300       299      1676      1730      1673
 -1       463    8    0    1
 -2       144       301       300      1678      1731      1675
 -1       464    8    0    1
 -2       145       302       301      1680      1732      1677
 -1       465    8    0    1
 -2       146       303       302      1682      1733      1679
 -1       466    8    0    1
 -2       147       304       303      1684      1734      1681
 -1       467    8    0    1
 -2       148       305       304      1686      1735      1683
 -1       468    8    0    1
 -2       149       306       305      1688      1736      1685
 -1       469    8    0    1
 -2       150       307       306      1690      1737      1687
 -1       470    8    0    1
 -2       151       308       307      1692      1738      1689
 -1       471    8    0    1
 -2       152       309       308      1694      1739      1691
 -1       472    8    0    1
 -2       153       310       309      1696      1740      1693
 -1       473    8    0    1
 -2       154       311       310      1698      1741      1695
 -1       474    8    0    1
 -2       155       312       311      1700      1742      1697
 -1       475    8    0    1
 -2       156       313       312      1702      1743      1699
 -1       476    8    0    1
 -2       157       314       313      1704      1744      1701
 -1       477    8    0    1
 -2       158       315       314      1706      1745      1703
 -1       478    8    0    1
 -2         1       316       315      1708      1746      1705
 -1       479    8    0    1
 -2       159       317       316      1710      1747      1707
 -1       480    8    0    1
 -2       160       318       317      1712      1748      1709
 -1       481    8    0    1
 -2       161       319       318      1714      1749      1711
 -1       482    8    0    1
 -2       162       320       319      1716      1750      1713
 -1       483    8    0    1
 -2       163       321       320      1718      1751      1715
 -1       484    8    0    1
 -2       164       322       321      1720      1752      1717
 -1       485    8    0    1
 -2        23         7       165      1275      1277      1753
 -1       486    8    0    1
 -2       166       167       323      1283      1754      1755
 -1       487    8    0    1
 -2       165       166       324      1280      1756      1757
 -1       488    8    0    1
 -2       166       323       324      1755      1758      1756
 -1       489    8    0    1
 -2       168       169       325      1289      1759      1760
 -1       490    8    0    1
 -2       169       170       326      1292      1761      1762
 -1       491    8    0    1
 -2       169       326       325      1762      1763      1759
 -1       492    8    0    1
 -2       170       171       327      1295      1764      1765
 -1       493    8    0    1
 -2       170       327       326      1765      1766      1761
 -1       494    8    0    1
 -2       171       172       328      1298      1767      1768
 -1       495    8    0    1
 -2       171       328       327      1768      1769      1764
 -1       496    8    0    1
 -2       172       173       329      1301      1770      1771
 -1       497    8    0    1
 -2       172       329       328      1771      1772      1767
 -1       498    8    0    1
 -2       173       174       330      1304      1773      1774
 -1       499    8    0    1
 -2       173       330       329      1774      1775      1770
 -1       500    8    0    1
 -2       174       175       331      1307      1776      1777
 -1       501    8    0    1
 -2       174       331       330      1777      1778      1773
 -1       502    8    0    1
 -2       175       176       332      1310      1779      1780
 -1       503    8    0    1
 -2       175       332       331      1780      1781      1776
 -1       504    8    0    1
 -2       176       177       333      1313      1782      1783
 -1       505    8    0    1
 -2       176       333       332      1783      1784      1779
 -1       506    8    0    1
 -2       177       178       334      1316      1785      1786
 -1       507    8    0    1
 -2       177       334       333      1786      1787      1782
 -1       508    8    0    1
 -2       178       179       335      1319      1788      1789
 -1       509    8    0    1
 -2       178       335       334      1789      1790      1785
 -1       510    8    0    1
 -2       179       180       336      1322      1791      1792
 -1       511    8    0    1
 -2       335       179       336      1788      1792      1793
 -1       512    8    0    1
 -2       180       230       336      1473      1794      1791
 -1       513    8    0    1
 -2       181        23       165      1324      1753      1795
 -1       514    8    0    1
 -2       230       231       337      1476      1796      1797
 -1       515    8    0    1
 -2       230       337       336      1797      1798      1794
 -1       516    8    0    1
 -2       181       165       324      1795      1757      1799
 -1       517    8    0    1
 -2       183       182       338      1331      1800      1801
 -1       518    8    0    1
 -2       184       183       339      1334      1802      1803
 -1       519    8    0    1
 -2       183       338       339      1801      1804      1802
 -1       520    8    0    1
 -2       185       184       340      1337      1805      1806
 -1       521    8    0    1
 -2       184       339       340      1803      1807      1805
 -1       522    8    0    1
 -2       186       185       341      1340      1808      1809
 -1       523    8    0    1
 -2       185       340       341      1806      1810      1808
 -1       524    8    0    1
 -2       187       186       342      1343      1811      1812
 -1       525    8    0    1
 -2       186       341       342      1809      1813      1811
 -1       526    8    0    1
 -2       188       187       343      1346      1814      1815
 -1       527    8    0    1
 -2       187       342       343      1812      1816      1814
 -1       528    8    0    1
 -2       189       188       344      1349      1817      1818
 -1       529    8    0    1
 -2       188       343       344      1815      1819      1817
 -1       530    8    0    1
 -2       190       189       345      1352      1820      1821
 -1       531    8    0    1
 -2       189       344       345      1818      1822      1820
 -1       532    8    0    1
 -2       191       190       346      1355      1823      1824
 -1       533    8    0    1
 -2       190       345       346      1821      1825      1823
 -1       534    8    0    1
 -2       192       191       347      1358      1826      1827
 -1       535    8    0    1
 -2       191       346       347      1824      1828      1826
 -1       536    8    0    1
 -2       193       192       348      1361      1829      1830
 -1       537    8    0    1
 -2       192       347       348      1827      1831      1829
 -1       538    8    0    1
 -2       194       193       349      1364      1832      1833
 -1       539    8    0    1
 -2       193       348       349      1830      1834      1832
 -1       540    8    0    1
 -2       195       194       350      1367      1835      1836
 -1       541    8    0    1
 -2       194       349       350      1833      1837      1835
 -1       542    8    0    1
 -2       196       195       351      1370      1838      1839
 -1       543    8    0    1
 -2       195       350       351      1836      1840      1838
 -1       544    8    0    1
 -2       197       196       352      1373      1841      1842
 -1       545    8    0    1
 -2       196       351       352      1839      1843      1841
 -1       546    8    0    1
 -2       198       197       353      1376      1844      1845
 -1       547    8    0    1
 -2       197       352       353      1842      1846      1844
 -1       548    8    0    1
 -2       199       198       354      1379      1847      1848
 -1       549    8    0    1
 -2       198       353       354      1845      1849      1847
 -1       550    8    0    1
 -2       200       199       355      1382      1850      1851
 -1       551    8    0    1
 -2       199       354       355      1848      1852      1850
 -1       552    8    0    1
 -2       201       200       356      1385      1853      1854
 -1       553    8    0    1
 -2       200       355       356      1851      1855      1853
 -1       554    8    0    1
 -2       202       201       357      1388      1856      1857
 -1       555    8    0    1
 -2       201       356       357      1854      1858      1856
 -1       556    8    0    1
 -2       203       202       358      1391      1859      1860
 -1       557    8    0    1
 -2       202       357       358      1857      1861      1859
 -1       558    8    0    1
 -2       204       203       359      1394      1862      1863
 -1       559    8    0    1
 -2       203       358       359      1860      1864      1862
 -1       560    8    0    1
 -2       205       204       360      1397      1865      1866
 -1       561    8    0    1
 -2       204       359       360      1863      1867      1865
 -1       562    8    0    1
 -2       206       205       361      1400      1868      1869
 -1       563    8    0    1
 -2       205       360       361      1866      1870      1868
 -1       564    8    0    1
 -2       207       206       362      1403      1871      1872
 -1       565    8    0    1
 -2       206       361       362      1869      1873      1871
 -1       566    8    0    1
 -2       208       207       363      1406      1874      1875
 -1       567    8    0    1
 -2       207       362       363      1872      1876      1874
 -1       568    8    0    1
 -2       209       208       364      1409      1877      1878
 -1       569    8    0    1
 -2       208       363       364      1875      1879      1877
 -1       570    8    0    1
 -2       210       209       365      1412      1880      1881
 -1       571    8    0    1
 -2       209       364       365      1878      1882      1880
 -1       572    8    0    1
 -2       211       210       366      1415      1883      1884
 -1       573    8    0    1
 -2       210       365       366      1881      1885      1883
 -1       574    8    0    1
 -2       212       211       367      1418      1886      1887
 -1       575    8    0    1
 -2       211       366       367      1884      1888      1886
 -1       576    8    0    1
 -2       213       212       368      1421      1889      1890
 -1       577    8    0    1
 -2       212       367       368      1887      1891      1889
 -1       578    8    0    1
 -2       214       213       369      1424      1892      1893
 -1       579    8    0    1
 -2       213       368       369      1890      1894      1892
 -1       580    8    0    1
 -2       215       214       370      1427      1895      1896
 -1       581    8    0    1
 -2       214       369       370      1893      1897      1895
 -1       582    8    0    1
 -2       216       215       371      1430      1898      1899
 -1       583    8    0    1
 -2       217       216       372      1433      1900      1901
 -1       584    8    0    1
 -2       218       217       373      1436      1902      1903
 -1       585    8    0    1
 -2       219       218       374      1439      1904      1905
 -1       586    8    0    1
 -2       220       219       375      1442      1906      1907
 -1       587    8    0    1
 -2       221       220       376      1445      1908      1909
 -1       588    8    0    1
 -2       220       375       376      1907      1910      1908
 -1       589    8    0    1
 -2       222       221       377      1448      1911      1912
 -1       590    8    0    1
 -2       221       376       377      1909      1913      1911
 -1       591    8    0    1
 -2       223       222       378      1451      1914      1915
 -1       592    8    0    1
 -2       222       377       378      1912      1916      1914
 -1       593    8    0    1
 -2       224       223       379      1454      1917      1918
 -1       594    8    0    1
 -2       223       378       379      1915      1919      1917
 -1       595    8    0    1
 -2       225       224       380      1457      1920      1921
 -1       596    8    0    1
 -2       224       379       380      1918      1922      1920
 -1       597    8    0    1
 -2       226       225       381      1460      1923      1924
 -1       598    8    0    1
 -2       225       380       381      1921      1925      1923
 -1       599    8    0    1
 -2       227       226       382      1463      1926      1927
 -1       600    8    0    1
 -2       226       381       382      1924      1928      1926
 -1       601    8    0    1
 -2       228       227       383      1466      1929      1930
 -1       602    8    0    1
 -2       227       382       383      1927      1931      1929
 -1       603    8    0    1
 -2       229       228       292      1470      1932      1660
 -1       604    8    0    1
 -2       232       233       384      1482      1933      1934
 -1       605    8    0    1
 -2       233       234       385      1485      1935      1936
 -1       606    8    0    1
 -2       233       385       384      1936      1937      1933
 -1       607    8    0    1
 -2       234       235       386      1488      1938      1939
 -1       608    8    0    1
 -2       234       386       385      1939      1940      1935
 -1       609    8    0    1
 -2       235       236       387      1491      1941      1942
 -1       610    8    0    1
 -2       235       387       386      1942      1943      1938
 -1       611    8    0    1
 -2       236       237       388      1494      1944      1945
 -1       612    8    0    1
 -2       236       388       387      1945      1946      1941
 -1       613    8    0    1
 -2       237       238       389      1497      1947      1948
 -1       614    8    0    1
 -2       237       389       388      1948      1949      1944
 -1       615    8    0    1
 -2       238       239       390      1500      1950      1951
 -1       616    8    0    1
 -2       238       390       389      1951      1952      1947
 -1       617    8    0    1
 -2       239       240       391      1503      1953      1954
 -1       618    8    0    1
 -2       239       391       390      1954      1955      1950
 -1       619    8    0    1
 -2       240       241       392      1506      1956      1957
 -1       620    8    0    1
 -2       240       392       391      1957      1958      1953
 -1       621    8    0    1
 -2       241       242       393      1509      1959      1960
 -1       622    8    0    1
 -2       241       393       392      1960      1961      1956
 -1       623    8    0    1
 -2       242       243       394      1512      1962      1963
 -1       624    8    0    1
 -2       242       394       393      1963      1964      1959
 -1       625    8    0    1
 -2       243       244       395      1515      1965      1966
 -1       626    8    0    1
 -2       243       395       394      1966      1967      1962
 -1       627    8    0    1
 -2       244       245       396      1518      1968      1969
 -1       628    8    0    1
 -2       244       396       395      1969      1970      1965
 -1       629    8    0    1
 -2       245       246       397      1521      1971      1972
 -1       630    8    0    1
 -2       245       397       396      1972      1973      1968
 -1       631    8    0    1
 -2       246       247       398      1524      1974      1975
 -1       632    8    0    1
 -2       246       398       397      1975      1976      1971
 -1       633    8    0    1
 -2       247       248       399      1527      1977      1978
 -1       634    8    0    1
 -2       247       399       398      1978      1979      1974
 -1       635    8    0    1
 -2       248       249       400      1530      1980      1981
 -1       636    8    0    1
 -2       248       400       399      1981      1982      1977
 -1       637    8    0    1
 -2       249       250       401      1533      1983      1984
 -1       638    8    0    1
 -2       249       401       400      1984      1985      1980
 -1       639    8    0    1
 -2       250       251       402      1536      1986      1987
 -1       640    8    0    1
 -2       250       402       401      1987      1988      1983
 -1       641    8    0    1
 -2       251       252       403      1539      1989      1990
 -1       642    8    0    1
 -2       251       403       402      1990      1991      1986
 -1       643    8    0    1
 -2       252       253       404      1542      1992      1993
 -1       644    8    0    1
 -2       252       404       403      1993      1994      1989
 -1       645    8    0    1
 -2       253       254       405      1545      1995      1996
 -1       646    8    0    1
 -2       253       405       404      1996      1997      1992
 -1       647    8    0    1
 -2       254       255       406      1548      1998      1999
 -1       648    8    0    1
 -2       254       406       405      1999      2000      1995
 -1       649    8    0    1
 -2       255       256       407      1551      2001      2002
 -1       650    8    0    1
 -2       255       407       406      2002      2003      1998
 -1       651    8    0    1
 -2       256       257       408      1554      2004      2005
 -1       652    8    0    1
 -2       256       408       407      2005      2006      2001
 -1       653    8    0    1
 -2       257       258       409      1557      2007      2008
 -1       654    8    0    1
 -2       257       409       408      2008      2009      2004
 -1       655    8    0    1
 -2       258       259       410      1560      2010      2011
 -1       656    8    0    1
 -2       258       410       409      2011      2012      2007
 -1       657    8    0    1
 -2       259       260       411      1563      2013      2014
 -1       658    8    0    1
 -2       259       411       410      2014      2015      2010
 -1       659    8    0    1
 -2       260       261       412      1566      2016      2017
 -1       660    8    0    1
 -2       260       412       411      2017      2018      2013
 -1       661    8    0    1
 -2       261       262       413      1569      2019      2020
 -1       662    8    0    1
 -2       261       413       412      2020      2021      2016
 -1       663    8    0    1
 -2       262       263       414      1572      2022      2023
 -1       664    8    0    1
 -2       262       414       413      2023      2024      2019
 -1       665    8    0    1
 -2       263       264       415      1575      2025      2026
 -1       666    8    0    1
 -2       263       415       414      2026      2027      2022
 -1       667    8    0    1
 -2       264       265       416      1578      2028      2029
 -1       668    8    0    1
 -2       264       416       415      2029      2030      2025
 -1       669    8    0    1
 -2       265       266       417      1581      2031      2032
 -1       670    8    0    1
 -2       265       417       416      2032      2033      2028
 -1       671    8    0    1
 -2       266       267       418      1584      2034      2035
 -1       672    8    0    1
 -2       266       418       417      2035      2036      2031
 -1       673    8    0    1
 -2       267       268       419      1587      2037      2038
 -1       674    8    0    1
 -2       267       419       418      2038      2039      2034
 -1       675    8    0    1
 -2       268       269       420      1590      2040      2041
 -1       676    8    0    1
 -2       268       420       419      2041      2042      2037
 -1       677    8    0    1
 -2       269       270       421      1593      2043      2044
 -1       678    8    0    1
 -2       269       421       420      2044      2045      2040
 -1       679    8    0    1
 -2       270       271       422      1596      2046      2047
 -1       680    8    0    1
 -2       270       422       421      2047      2048      2043
 -1       681    8    0    1
 -2       271       272       423      1599      2049      2050
 -1       682    8    0    1
 -2       271       423       422      2050      2051      2046
 -1       683    8    0    1
 -2       272       273       424      1602      2052      2053
 -1       684    8    0    1
 -2       272       424       423      2053      2054      2049
 -1       685    8    0    1
 -2       273       274       425      1605      2055      2056
 -1       686    8    0    1
 -2       273       425       424      2056      2057      2052
 -1       687    8    0    1
 -2       274       275       426      1608      2058      2059
 -1       688    8    0    1
 -2       274       426       425      2059      2060      2055
 -1       689    8    0    1
 -2       275       276       427      1611      2061      2062
 -1       690    8    0    1
 -2       275       427       426      2062      2063      2058
 -1       691    8    0    1
 -2       276       277       428      1614      2064      2065
 -1       692    8    0    1
 -2       427       276       428      2061      2065      2066
 -1       693    8    0    1
 -2       277       278       428      1724      2067      2064
 -1       694    8    0    1
 -2       280       281       429      1626      2068      2069
 -1       695    8    0    1
 -2       279       280       430      1623      2070      2071
 -1       696    8    0    1
 -2       280       429       430      2069      2072      2070
 -1       697    8    0    1
 -2       278       279       428      1620      2073      2067
 -1       698    8    0    1
 -2       281       282       431      1629      2074      2075
 -1       699    8    0    1
 -2       281       431       429      2075      2076      2068
 -1       700    8    0    1
 -2       282       283       432      1632      2077      2078
 -1       701    8    0    1
 -2       282       432       431      2078      2079      2074
 -1       702    8    0    1
 -2       283       284       433      1635      2080      2081
 -1       703    8    0    1
 -2       283       433       432      2081      2082      2077
 -1       704    8    0    1
 -2       284       285       434      1638      2083      2084
 -1       705    8    0    1
 -2       284       434       433      2084      2085      2080
 -1       706    8    0    1
 -2       285       286       435      1641      2086      2087
 -1       707    8    0    1
 -2       285       435       434      2087      2088      2083
 -1       708    8    0    1
 -2       286       287       436      1644      2089      2090
 -1       709    8    0    1
 -2       286       436       435      2090      2091      2086
 -1       710    8    0    1
 -2       287       288       437      1647      2092      2093
 -1       711    8    0    1
 -2       287       437       436      2093      2094      2089
 -1       712    8    0    1
 -2       288       289       438      1650      2095      2096
 -1       713    8    0    1
 -2       288       438       437      2096      2097      2092
 -1       714    8    0    1
 -2       289       290       439      1653      2098      2099
 -1       715    8    0    1
 -2       289       439       438      2099      2100      2095
 -1       716    8    0    1
 -2       290       291       440      1656      2101      2102
 -1       717    8    0    1
 -2       290       440       439      2102      2103      2098
 -1       718    8    0    1
 -2       231       232       441      1479      2104      2105
 -1       719    8    0    1
 -2       337       231       441      1796      2105      2106
 -1       720    8    0    1
 -2       232       384       441      1934      2107      2104
 -1       721    8    0    1
 -2       294       295       442      1726      2108      2109
 -1       722    8    0    1
 -2       296       297       443      1727      2110      2111
 -1       723    8    0    1
 -2       322       293       444      1722      2112      2113
 -1       724    8    0    1
 -2       295       296       445      1721      2114      2115
 -1       725    8    0    1
 -2       296       443       445      2111      2116      2114
 -1       726    8    0    1
 -2       167       168       446      1286      2117      2118
 -1       727    8    0    1
 -2       323       167       446      1754      2118      2119
 -1       728    8    0    1
 -2       168       325       446      1760      2120      2117
 -1       729    8    0    1
 -2       297       298       447      1728      2121      2122
 -1       730    8    0    1
 -2       298       299       448      1729      2123      2124
 -1       731    8    0    1
 -2       298       448       447      2124      2125      2121
 -1       732    8    0    1
 -2       299       300       449      1730      2126      2127
 -1       733    8    0    1
 -2       300       301       450      1731      2128      2129
 -1       734    8    0    1
 -2       301       302       451      1732      2130      2131
 -1       735    8    0    1
 -2       302       303       452      1733      2132      2133
 -1       736    8    0    1
 -2       302       452       451      2133      2134      2130
 -1       737    8    0    1
 -2       303       304       453      1734      2135      2136
 -1       738    8    0    1
 -2       304       305       454      1735      2137      2138
 -1       739    8    0    1
 -2       305       306       455      1736      2139      2140
 -1       740    8    0    1
 -2       306       307       456      1737      2141      2142
 -1       741    8    0    1
 -2       306       456       455      2142      2143      2139
 -1       742    8    0    1
 -2       307       308       457      1738      2144      2145
 -1       743    8    0    1
 -2       308       309       458      1739      2146      2147
 -1       744    8    0    1
 -2       308       458       457      2147      2148      2144
 -1       745    8    0    1
 -2       309       310       459      1740      2149      2150
 -1       746    8    0    1
 -2       310       311       460      1741      2151      2152
 -1       747    8    0    1
 -2       311       312       461      1742      2153      2154
 -1       748    8    0    1
 -2       313       314       462      1744      2155      2156
 -1       749    8    0    1
 -2       315       316       463      1746      2157      2158
 -1       750    8    0    1
 -2       316       317       464      1747      2159      2160
 -1       751    8    0    1
 -2       316       464       463      2160      2161      2157
 -1       752    8    0    1
 -2       317       318       465      1748      2162      2163
 -1       753    8    0    1
 -2       318       319       466      1749      2164      2165
 -1       754    8    0    1
 -2       319       320       467      1750      2166      2167
 -1       755    8    0    1
 -2       320       321       468      1751      2168      2169
 -1       756    8    0    1
 -2       321       322       469      1752      2170      2171
 -1       757    8    0    1
 -2       293       294       470      1725      2172      2173
 -1       758    8    0    1
 -2       215       370       371      1896      2174      1898
 -1       759    8    0    1
 -2       372       216       371      1900      1899      2175
 -1       760    8    0    1
 -2       181       324       182      1799      2176      1328
 -1       761    8    0    1
 -2       373       217       372      1902      1901      2177
 -1       762    8    0    1
 -2       442       295       445      2108      2115      2178
 -1       763    8    0    1
 -2       297       447       471      2122      2179      2180
 -1       764    8    0    1
 -2       297       471       443      2180      2181      2110
 -1       765    8    0    1
 -2       338       182       324      1800      2176      2182
 -1       766    8    0    1
 -2       218       373       374      1903      2183      1904
 -1       767    8    0    1
 -2       219       374       375      1905      2184      1906
 -1       768    8    0    1
 -2       228       383       292      1930      2185      1932
 -1       769    8    0    1
 -2       428       279       430      2073      2071      2186
 -1       770    8    0    1
 -2       444       293       470      2112      2173      2187
 -1       771    8    0    1
 -2       291       292       383      1659      2185      2188
 -1       772    8    0    1
 -2       294       442       472      2109      2189      2190
 -1       773    8    0    1
 -2       294       472       470      2190      2191      2172
 -1       774    8    0    1
 -2       322       444       469      2113      2192      2170
 -1       775    8    0    1
 -2       468       321       469      2168      2171      2193
 -1       776    8    0    1
 -2       467       320       468      2166      2169      2194
 -1       777    8    0    1
 -2       466       319       467      2164      2167      2195
 -1       778    8    0    1
 -2       464       317       465      2159      2163      2196
 -1       779    8    0    1
 -2       460       311       461      2151      2154      2197
 -1       780    8    0    1
 -2       458       309       473      2146      2198      2199
 -1       781    8    0    1
 -2       309       459       473      2150      2200      2198
 -1       782    8    0    1
 -2       456       307       457      2141      2145      2201
 -1       783    8    0    1
 -2       454       305       455      2137      2140      2202
 -1       784    8    0    1
 -2       452       303       453      2132      2136      2203
 -1       785    8    0    1
 -2       450       301       451      2128      2131      2204
 -1       786    8    0    1
 -2       299       449       448      2127      2205      2123
 -1       787    8    0    1
 -2       449       300       474      2126      2206      2207
 -1       788    8    0    1
 -2       300       450       474      2129      2208      2206
 -1       789    8    0    1
 -2       453       304       454      2135      2138      2209
 -1       790    8    0    1
 -2       459       310       460      2149      2152      2210
 -1       791    8    0    1
 -2       312       313       475      1743      2211      2212
 -1       792    8    0    1
 -2       315       463       476      2158      2213      2214
 -1       793    8    0    1
 -2       315       476       314      2214      2215      1745
 -1       794    8    0    1
 -2       465       318       466      2162      2165      2216
 -1       795    8    0    1
 -2       291       383       440      2188      2217      2101
 -1       796    8    0    1
 -2       475       313       462      2211      2156      2218
 -1       797    8    0    1
 -2       312       475       461      2212      2219      2153
 -1       798    8    0    1
 -2       314       476       462      2215      2220      2155
 -1       799    8    0    1
 -2       326       327       477      1766      2221      2222
 -1       800    8    0    1
 -2       325       326       478      1763      2223      2224
 -1       801    8    0    1
 -2       326       477       478      2222      2225      2223
 -1       802    8    0    1
 -2       328       329       479      1772      2226      2227
 -1       803    8    0    1
 -2       329       330       480      1775      2228      2229
 -1       804    8    0    1
 -2       329       480       479      2229      2230      2226
 -1       805    8    0    1
 -2       330       331       481      1778      2231      2232
 -1       806    8    0    1
 -2       330       481       480      2232      2233      2228
 -1       807    8    0    1
 -2       331       332       482      1781      2234      2235
 -1       808    8    0    1
 -2       331       482       481      2235      2236      2231
 -1       809    8    0    1
 -2       332       333       483      1784      2237      2238
 -1       810    8    0    1
 -2       332       483       482      2238      2239      2234
 -1       811    8    0    1
 -2       333       334       484      1787      2240      2241
 -1       812    8    0    1
 -2       333       484       483      2241      2242      2237
 -1       813    8    0    1
 -2       334       335       485      1790      2243      2244
 -1       814    8    0    1
 -2       334       485       484      2244      2245      2240
 -1       815    8    0    1
 -2       335       336       486      1793      2246      2247
 -1       816    8    0    1
 -2       485       335       486      2243      2247      2248
 -1       817    8    0    1
 -2       336       337       486      1798      2249      2246
 -1       818    8    0    1
 -2       339       338       487      1804      2250      2251
 -1       819    8    0    1
 -2       340       339       488      1807      2252      2253
 -1       820    8    0    1
 -2       339       487       488      2251      2254      2252
 -1       821    8    0    1
 -2       341       340       489      1810      2255      2256
 -1       822    8    0    1
 -2       340       488       489      2253      2257      2255
 -1       823    8    0    1
 -2       342       341       490      1813      2258      2259
 -1       824    8    0    1
 -2       341       489       490      2256      2260      2258
 -1       825    8    0    1
 -2       343       342       491      1816      2261      2262
 -1       826    8    0    1
 -2       342       490       491      2259      2263      2261
 -1       827    8    0    1
 -2       344       343       492      1819      2264      2265
 -1       828    8    0    1
 -2       343       491       492      2262      2266      2264
 -1       829    8    0    1
 -2       345       344       493      1822      2267      2268
 -1       830    8    0    1
 -2       344       492       493      2265      2269      2267
 -1       831    8    0    1
 -2       346       345       494      1825      2270      2271
 -1       832    8    0    1
 -2       345       493       494      2268      2272      2270
 -1       833    8    0    1
 -2       347       346       495      1828      2273      2274
 -1       834    8    0    1
 -2       346       494       495      2271      2275      2273
 -1       835    8    0    1
 -2       348       347       496      1831      2276      2277
 -1       836    8    0    1
 -2       347       495       496      2274      2278      2276
 -1       837    8    0    1
 -2       349       348       497      1834      2279      2280
 -1       838    8    0    1
 -2       348       496       497      2277      2281      2279
 -1       839    8    0    1
 -2       350       349       498      1837      2282      2283
 -1       840    8    0    1
 -2       349       497       498      2280      2284      2282
 -1       841    8    0    1
 -2       351       350       499      1840      2285      2286
 -1       842    8    0    1
 -2       350       498       499      2283      2287      2285
 -1       843    8    0    1
 -2       352       351       500      1843      2288      2289
 -1       844    8    0    1
 -2       351       499       500      2286      2290      2288
 -1       845    8    0    1
 -2       353       352       501      1846      2291      2292
 -1       846    8    0    1
 -2       352       500       501      2289      2293      2291
 -1       847    8    0    1
 -2       354       353       502      1849      2294      2295
 -1       848    8    0    1
 -2       353       501       502      2292      2296      2294
 -1       849    8    0    1
 -2       355       354       503      1852      2297      2298
 -1       850    8    0    1
 -2       354       502       503      2295      2299      2297
 -1       851    8    0    1
 -2       356       355       504      1855      2300      2301
 -1       852    8    0    1
 -2       355       503       504      2298      2302      2300
 -1       853    8    0    1
 -2       357       356       505      1858      2303      2304
 -1       854    8    0    1
 -2       356       504       505      2301      2305      2303
 -1       855    8    0    1
 -2       358       357       506      1861      2306      2307
 -1       856    8    0    1
 -2       357       505       506      2304      2308      2306
 -1       857    8    0    1
 -2       359       358       507      1864      2309      2310
 -1       858    8    0    1
 -2       358       506       507      2307      2311      2309
 -1       859    8    0    1
 -2       360       359       508      1867      2312      2313
 -1       860    8    0    1
 -2       359       507       508      2310      2314      2312
 -1       861    8    0    1
 -2       361       360       509      1870      2315      2316
 -1       862    8    0    1
 -2       360       508       509      2313      2317      2315
 -1       863    8    0    1
 -2       362       361       510      1873      2318      2319
 -1       864    8    0    1
 -2       361       509       510      2316      2320      2318
 -1       865    8    0    1
 -2       363       362       511      1876      2321      2322
 -1       866    8    0    1
 -2       362       510       511      2319      2323      2321
 -1       867    8    0    1
 -2       364       363       512      1879      2324      2325
 -1       868    8    0    1
 -2       363       511       512      2322      2326      2324
 -1       869    8    0    1
 -2       365       364       513      1882      2327      2328
 -1       870    8    0    1
 -2       364       512       513      2325      2329      2327
 -1       871    8    0    1
 -2       366       365       514      1885      2330      2331
 -1       872    8    0    1
 -2       365       513       514      2328      2332      2330
 -1       873    8    0    1
 -2       367       366       515      1888      2333      2334
 -1       874    8    0    1
 -2       366       514       515      2331      2335      2333
 -1       875    8    0    1
 -2       368       367       516      1891      2336      2337
 -1       876    8    0    1
 -2       367       515       516      2334      2338      2336
 -1       877    8    0    1
 -2       442       445       517      2178      2339      2340
 -1       878    8    0    1
 -2       428       430       427      2186      2341      2066
 -1       879    8    0    1
 -2       377       376       518      1913      2342      2343
 -1       880    8    0    1
 -2       378       377       519      1916      2344      2345
 -1       881    8    0    1
 -2       377       518       519      2343      2346      2344
 -1       882    8    0    1
 -2       379       378       520      1919      2347      2348
 -1       883    8    0    1
 -2       378       519       520      2345      2349      2347
 -1       884    8    0    1
 -2       380       379       521      1922      2350      2351
 -1       885    8    0    1
 -2       379       520       521      2348      2352      2350
 -1       886    8    0    1
 -2       381       380       522      1925      2353      2354
 -1       887    8    0    1
 -2       380       521       522      2351      2355      2353
 -1       888    8    0    1
 -2       382       381       523      1928      2356      2357
 -1       889    8    0    1
 -2       381       522       523      2354      2358      2356
 -1       890    8    0    1
 -2       383       382       524      1931      2359      2360
 -1       891    8    0    1
 -2       440       383       524      2217      2360      2361
 -1       892    8    0    1
 -2       382       523       524      2357      2362      2359
 -1       893    8    0    1
 -2       386       387       525      1943      2363      2364
 -1       894    8    0    1
 -2       385       386       526      1940      2365      2366
 -1       895    8    0    1
 -2       386       525       526      2364      2367      2365
 -1       896    8    0    1
 -2       384       385       527      1937      2368      2369
 -1       897    8    0    1
 -2       385       526       527      2366      2370      2368
 -1       898    8    0    1
 -2       387       388       528      1946      2371      2372
 -1       899    8    0    1
 -2       387       528       525      2372      2373      2363
 -1       900    8    0    1
 -2       388       389       529      1949      2374      2375
 -1       901    8    0    1
 -2       388       529       528      2375      2376      2371
 -1       902    8    0    1
 -2       389       390       530      1952      2377      2378
 -1       903    8    0    1
 -2       389       530       529      2378      2379      2374
 -1       904    8    0    1
 -2       390       391       531      1955      2380      2381
 -1       905    8    0    1
 -2       390       531       530      2381      2382      2377
 -1       906    8    0    1
 -2       391       392       532      1958      2383      2384
 -1       907    8    0    1
 -2       391       532       531      2384      2385      2380
 -1       908    8    0    1
 -2       392       393       533      1961      2386      2387
 -1       909    8    0    1
 -2       392       533       532      2387      2388      2383
 -1       910    8    0    1
 -2       393       394       534      1964      2389      2390
 -1       911    8    0    1
 -2       393       534       533      2390      2391      2386
 -1       912    8    0    1
 -2       394       395       535      1967      2392      2393
 -1       913    8    0    1
 -2       394       535       534      2393      2394      2389
 -1       914    8    0    1
 -2       395       396       536      1970      2395      2396
 -1       915    8    0    1
 -2       395       536       535      2396      2397      2392
 -1       916    8    0    1
 -2       396       397       537      1973      2398      2399
 -1       917    8    0    1
 -2       396       537       536      2399      2400      2395
 -1       918    8    0    1
 -2       397       398       538      1976      2401      2402
 -1       919    8    0    1
 -2       397       538       537      2402      2403      2398
 -1       920    8    0    1
 -2       398       399       539      1979      2404      2405
 -1       921    8    0    1
 -2       398       539       538      2405      2406      2401
 -1       922    8    0    1
 -2       399       400       540      1982      2407      2408
 -1       923    8    0    1
 -2       399       540       539      2408      2409      2404
 -1       924    8    0    1
 -2       400       401       541      1985      2410      2411
 -1       925    8    0    1
 -2       400       541       540      2411      2412      2407
 -1       926    8    0    1
 -2       401       402       542      1988      2413      2414
 -1       927    8    0    1
 -2       401       542       541      2414      2415      2410
 -1       928    8    0    1
 -2       402       403       543      1991      2416      2417
 -1       929    8    0    1
 -2       402       543       542      2417      2418      2413
 -1       930    8    0    1
 -2       403       404       544      1994      2419      2420
 -1       931    8    0    1
 -2       403       544       543      2420      2421      2416
 -1       932    8    0    1
 -2       404       405       545      1997      2422      2423
 -1       933    8    0    1
 -2       404       545       544      2423      2424      2419
 -1       934    8    0    1
 -2       405       406       546      2000      2425      2426
 -1       935    8    0    1
 -2       405       546       545      2426      2427      2422
 -1       936    8    0    1
 -2       406       407       547      2003      2428      2429
 -1       937    8    0    1
 -2       406       547       546      2429      2430      2425
 -1       938    8    0    1
 -2       407       408       548      2006      2431      2432
 -1       939    8    0    1
 -2       407       548       547      2432      2433      2428
 -1       940    8    0    1
 -2       408       409       549      2009      2434      2435
 -1       941    8    0    1
 -2       408       549       548      2435      2436      2431
 -1       942    8    0    1
 -2       409       410       550      2012      2437      2438
 -1       943    8    0    1
 -2       409       550       549      2438      2439      2434
 -1       944    8    0    1
 -2       410       411       551      2015      2440      2441
 -1       945    8    0    1
 -2       410       551       550      2441      2442      2437
 -1       946    8    0    1
 -2       411       412       552      2018      2443      2444
 -1       947    8    0    1
 -2       411       552       551      2444      2445      2440
 -1       948    8    0    1
 -2       412       413       553      2021      2446      2447
 -1       949    8    0    1
 -2       412       553       552      2447      2448      2443
 -1       950    8    0    1
 -2       413       414       554      2024      2449      2450
 -1       951    8    0    1
 -2       413       554       553      2450      2451      2446
 -1       952    8    0    1
 -2       414       415       555      2027      2452      2453
 -1       953    8    0    1
 -2       414       555       554      2453      2454      2449
 -1       954    8    0    1
 -2       415       416       556      2030      2455      2456
 -1       955    8    0    1
 -2       415       556       555      2456      2457      2452
 -1       956    8    0    1
 -2       416       417       557      2033      2458      2459
 -1       957    8    0    1
 -2       416       557       556      2459      2460      2455
 -1       958    8    0    1
 -2       417       418       558      2036      2461      2462
 -1       959    8    0    1
 -2       417       558       557      2462      2463      2458
 -1       960    8    0    1
 -2       418       419       559      2039      2464      2465
 -1       961    8    0    1
 -2       418       559       558      2465      2466      2461
 -1       962    8    0    1
 -2       419       420       560      2042      2467      2468
 -1       963    8    0    1
 -2       419       560       559      2468      2469      2464
 -1       964    8    0    1
 -2       420       421       561      2045      2470      2471
 -1       965    8    0    1
 -2       420       561       560      2471      2472      2467
 -1       966    8    0    1
 -2       421       422       562      2048      2473      2474
 -1       967    8    0    1
 -2       421       562       561      2474      2475      2470
 -1       968    8    0    1
 -2       422       423       563      2051      2476      2477
 -1       969    8    0    1
 -2       422       563       562      2477      2478      2473
 -1       970    8    0    1
 -2       423       424       564      2054      2479      2480
 -1       971    8    0    1
 -2       423       564       563      2480      2481      2476
 -1       972    8    0    1
 -2       424       425       565      2057      2482      2483
 -1       973    8    0    1
 -2       424       565       564      2483      2484      2479
 -1       974    8    0    1
 -2       425       426       566      2060      2485      2486
 -1       975    8    0    1
 -2       425       566       565      2486      2487      2482
 -1       976    8    0    1
 -2       426       427       567      2063      2488      2489
 -1       977    8    0    1
 -2       426       567       566      2489      2490      2485
 -1       978    8    0    1
 -2       431       432       568      2079      2491      2492
 -1       979    8    0    1
 -2       429       431       569      2076      2493      2494
 -1       980    8    0    1
 -2       431       568       569      2492      2495      2493
 -1       981    8    0    1
 -2       430       429       570      2072      2496      2497
 -1       982    8    0    1
 -2       429       569       570      2494      2498      2496
 -1       983    8    0    1
 -2       444       470       571      2187      2499      2500
 -1       984    8    0    1
 -2       432       433       572      2082      2501      2502
 -1       985    8    0    1
 -2       432       572       568      2502      2503      2491
 -1       986    8    0    1
 -2       433       434       573      2085      2504      2505
 -1       987    8    0    1
 -2       433       573       572      2505      2506      2501
 -1       988    8    0    1
 -2       434       435       574      2088      2507      2508
 -1       989    8    0    1
 -2       434       574       573      2508      2509      2504
 -1       990    8    0    1
 -2       435       436       575      2091      2510      2511
 -1       991    8    0    1
 -2       435       575       574      2511      2512      2507
 -1       992    8    0    1
 -2       436       437       576      2094      2513      2514
 -1       993    8    0    1
 -2       436       576       575      2514      2515      2510
 -1       994    8    0    1
 -2       437       438       577      2097      2516      2517
 -1       995    8    0    1
 -2       437       577       576      2517      2518      2513
 -1       996    8    0    1
 -2       438       439       578      2100      2519      2520
 -1       997    8    0    1
 -2       438       578       577      2520      2521      2516
 -1       998    8    0    1
 -2       439       440       579      2103      2522      2523
 -1       999    8    0    1
 -2       578       439       579      2519      2523      2524
 -1      1000    8    0    1
 -2       440       524       579      2361      2525      2522
 -1      1001    8    0    1
 -2       338       324       580      2182      2526      2527
 -1      1002    8    0    1
 -2       487       338       580      2250      2527      2528
 -1      1003    8    0    1
 -2       324       323       580      1758      2529      2526
 -1      1004    8    0    1
 -2       469       444       581      2192      2530      2531
 -1      1005    8    0    1
 -2       468       469       582      2193      2532      2533
 -1      1006    8    0    1
 -2       469       581       582      2531      2534      2532
 -1      1007    8    0    1
 -2       460       461       583      2197      2535      2536
 -1      1008    8    0    1
 -2       454       455       584      2202      2537      2538
 -1      1009    8    0    1
 -2       450       451       585      2204      2539      2540
 -1      1010    8    0    1
 -2       445       443       586      2116      2541      2542
 -1      1011    8    0    1
 -2       376       375       587      1910      2543      2544
 -1      1012    8    0    1
 -2       376       587       518      2544      2545      2342
 -1      1013    8    0    1
 -2       375       374       588      2184      2546      2547
 -1      1014    8    0    1
 -2       327       328       589      1769      2548      2549
 -1      1015    8    0    1
 -2       477       327       589      2221      2549      2550
 -1      1016    8    0    1
 -2       328       479       589      2227      2551      2548
 -1      1017    8    0    1
 -2       447       448       590      2125      2552      2553
 -1      1018    8    0    1
 -2       453       454       591      2209      2554      2555
 -1      1019    8    0    1
 -2       448       449       592      2205      2556      2557
 -1      1020    8    0    1
 -2       448       592       590      2557      2558      2552
 -1      1021    8    0    1
 -2       451       452       593      2134      2559      2560
 -1      1022    8    0    1
 -2       476       463       372      2213      2561      2562
 -1      1023    8    0    1
 -2       459       460       594      2210      2563      2564
 -1      1024    8    0    1
 -2       452       453       595      2203      2565      2566
 -1      1025    8    0    1
 -2       452       595       593      2566      2567      2559
 -1      1026    8    0    1
 -2       455       456       596      2143      2568      2569
 -1      1027    8    0    1
 -2       456       457       597      2201      2570      2571
 -1      1028    8    0    1
 -2       457       458       598      2148      2572      2573
 -1      1029    8    0    1
 -2       465       466       588      2216      2574      2575
 -1      1030    8    0    1
 -2       466       467       588      2195      2576      2574
 -1      1031    8    0    1
 -2       467       468       599      2194      2577      2578
 -1      1032    8    0    1
 -2       427       430       567      2341      2579      2488
 -1      1033    8    0    1
 -2       476       372       371      2562      2175      2580
 -1      1034    8    0    1
 -2       325       478       600      2224      2581      2582
 -1      1035    8    0    1
 -2       325       600       446      2582      2583      2120
 -1      1036    8    0    1
 -2       581       444       571      2530      2500      2584
 -1      1037    8    0    1
 -2       486       337       601      2249      2585      2586
 -1      1038    8    0    1
 -2       337       441       601      2106      2587      2585
 -1      1039    8    0    1
 -2       471       447       602      2179      2588      2589
 -1      1040    8    0    1
 -2       447       590       602      2553      2590      2588
 -1      1041    8    0    1
 -2       368       516       594      2337      2591      2592
 -1      1042    8    0    1
 -2       373       372       463      2177      2561      2593
 -1      1043    8    0    1
 -2       374       373       465      2183      2594      2595
 -1      1044    8    0    1
 -2       517       445       586      2339      2542      2596
 -1      1045    8    0    1
 -2       369       368       583      1894      2597      2598
 -1      1046    8    0    1
 -2       370       369       461      1897      2599      2600
 -1      1047    8    0    1
 -2       375       588       587      2547      2601      2543
 -1      1048    8    0    1
 -2       430       570       567      2497      2602      2579
 -1      1049    8    0    1
 -2       476       371       462      2580      2603      2220
 -1      1050    8    0    1
 -2       571       470       603      2499      2604      2605
 -1      1051    8    0    1
 -2       470       472       603      2191      2606      2604
 -1      1052    8    0    1
 -2       580       323       446      2529      2119      2607
 -1      1053    8    0    1
 -2       584       455       596      2537      2569      2608
 -1      1054    8    0    1
 -2       441       384       604      2107      2609      2610
 -1      1055    8    0    1
 -2       601       441       604      2587      2610      2611
 -1      1056    8    0    1
 -2       384       527       604      2369      2612      2609
 -1      1057    8    0    1
 -2       472       442       605      2189      2613      2614
 -1      1058    8    0    1
 -2       442       517       605      2340      2615      2613
 -1      1059    8    0    1
 -2       443       471       586      2181      2616      2541
 -1      1060    8    0    1
 -2       468       582       599      2533      2617      2577
 -1      1061    8    0    1
 -2       583       461       369      2535      2599      2598
 -1      1062    8    0    1
 -2       598       458       473      2572      2199      2618
 -1      1063    8    0    1
 -2       597       457       598      2570      2573      2619
 -1      1064    8    0    1
 -2       595       453       591      2565      2555      2620
 -1      1065    8    0    1
 -2       594       460       583      2563      2536      2621
 -1      1066    8    0    1
 -2       454       584       591      2538      2622      2554
 -1      1067    8    0    1
 -2       368       594       583      2592      2621      2597
 -1      1068    8    0    1
 -2       473       459       594      2200      2564      2623
 -1      1069    8    0    1
 -2       374       465       588      2595      2575      2546
 -1      1070    8    0    1
 -2       373       463       464      2593      2161      2624
 -1      1071    8    0    1
 -2       465       373       464      2594      2624      2196
 -1      1072    8    0    1
 -2       370       461       475      2600      2219      2625
 -1      1073    8    0    1
 -2       592       449       474      2556      2207      2626
 -1      1074    8    0    1
 -2       450       585       606      2540      2627      2628
 -1      1075    8    0    1
 -2       450       606       474      2628      2629      2208
 -1      1076    8    0    1
 -2       585       451       593      2539      2560      2630
 -1      1077    8    0    1
 -2       596       456       597      2568      2571      2631
 -1      1078    8    0    1
 -2       588       467       587      2576      2632      2601
 -1      1079    8    0    1
 -2       370       475       462      2625      2218      2633
 -1      1080    8    0    1
 -2       480       481       607      2233      2634      2635
 -1      1081    8    0    1
 -2       479       480       608      2230      2636      2637
 -1      1082    8    0    1
 -2       480       607       608      2635      2638      2636
 -1      1083    8    0    1
 -2       482       483       609      2239      2639      2640
 -1      1084    8    0    1
 -2       483       484       610      2242      2641      2642
 -1      1085    8    0    1
 -2       483       610       609      2642      2643      2639
 -1      1086    8    0    1
 -2       485       486       611      2248      2644      2645
 -1      1087    8    0    1
 -2       486       601       611      2586      2646      2644
 -1      1088    8    0    1
 -2       488       487       612      2254      2647      2648
 -1      1089    8    0    1
 -2       594       516       613      2591      2649      2650
 -1      1090    8    0    1
 -2       594       613       473      2650      2651      2623
 -1      1091    8    0    1
 -2       517       586       614      2596      2652      2653
 -1      1092    8    0    1
 -2       489       488       615      2257      2654      2655
 -1      1093    8    0    1
 -2       488       612       615      2648      2656      2654
 -1      1094    8    0    1
 -2       490       489       616      2260      2657      2658
 -1      1095    8    0    1
 -2       489       615       616      2655      2659      2657
 -1      1096    8    0    1
 -2       491       490       617      2263      2660      2661
 -1      1097    8    0    1
 -2       490       616       617      2658      2662      2660
 -1      1098    8    0    1
 -2       492       491       618      2266      2663      2664
 -1      1099    8    0    1
 -2       491       617       618      2661      2665      2663
 -1      1100    8    0    1
 -2       493       492       619      2269      2666      2667
 -1      1101    8    0    1
 -2       492       618       619      2664      2668      2666
 -1      1102    8    0    1
 -2       494       493       620      2272      2669      2670
 -1      1103    8    0    1
 -2       493       619       620      2667      2671      2669
 -1      1104    8    0    1
 -2       495       494       621      2275      2672      2673
 -1      1105    8    0    1
 -2       494       620       621      2670      2674      2672
 -1      1106    8    0    1
 -2       496       495       622      2278      2675      2676
 -1      1107    8    0    1
 -2       495       621       622      2673      2677      2675
 -1      1108    8    0    1
 -2       497       496       623      2281      2678      2679
 -1      1109    8    0    1
 -2       496       622       623      2676      2680      2678
 -1      1110    8    0    1
 -2       498       497       624      2284      2681      2682
 -1      1111    8    0    1
 -2       497       623       624      2679      2683      2681
 -1      1112    8    0    1
 -2       499       498       625      2287      2684      2685
 -1      1113    8    0    1
 -2       498       624       625      2682      2686      2684
 -1      1114    8    0    1
 -2       500       499       626      2290      2687      2688
 -1      1115    8    0    1
 -2       499       625       626      2685      2689      2687
 -1      1116    8    0    1
 -2       501       500       627      2293      2690      2691
 -1      1117    8    0    1
 -2       500       626       627      2688      2692      2690
 -1      1118    8    0    1
 -2       502       501       628      2296      2693      2694
 -1      1119    8    0    1
 -2       501       627       628      2691      2695      2693
 -1      1120    8    0    1
 -2       503       502       629      2299      2696      2697
 -1      1121    8    0    1
 -2       502       628       629      2694      2698      2696
 -1      1122    8    0    1
 -2       504       503       630      2302      2699      2700
 -1      1123    8    0    1
 -2       503       629       630      2697      2701      2699
 -1      1124    8    0    1
 -2       505       504       631      2305      2702      2703
 -1      1125    8    0    1
 -2       504       630       631      2700      2704      2702
 -1      1126    8    0    1
 -2       506       505       632      2308      2705      2706
 -1      1127    8    0    1
 -2       505       631       632      2703      2707      2705
 -1      1128    8    0    1
 -2       507       506       633      2311      2708      2709
 -1      1129    8    0    1
 -2       506       632       633      2706      2710      2708
 -1      1130    8    0    1
 -2       508       507       634      2314      2711      2712
 -1      1131    8    0    1
 -2       507       633       634      2709      2713      2711
 -1      1132    8    0    1
 -2       509       508       635      2317      2714      2715
 -1      1133    8    0    1
 -2       508       634       635      2712      2716      2714
 -1      1134    8    0    1
 -2       510       509       636      2320      2717      2718
 -1      1135    8    0    1
 -2       509       635       636      2715      2719      2717
 -1      1136    8    0    1
 -2       511       510       637      2323      2720      2721
 -1      1137    8    0    1
 -2       510       636       637      2718      2722      2720
 -1      1138    8    0    1
 -2       512       511       638      2326      2723      2724
 -1      1139    8    0    1
 -2       511       637       638      2721      2725      2723
 -1      1140    8    0    1
 -2       513       512       639      2329      2726      2727
 -1      1141    8    0    1
 -2       512       638       639      2724      2728      2726
 -1      1142    8    0    1
 -2       514       513       640      2332      2729      2730
 -1      1143    8    0    1
 -2       513       639       640      2727      2731      2729
 -1      1144    8    0    1
 -2       515       514       641      2335      2732      2733
 -1      1145    8    0    1
 -2       514       640       641      2730      2734      2732
 -1      1146    8    0    1
 -2       516       515       613      2338      2735      2649
 -1      1147    8    0    1
 -2       370       462       371      2633      2603      2174
 -1      1148    8    0    1
 -2       520       519       642      2349      2736      2737
 -1      1149    8    0    1
 -2       521       520       643      2352      2738      2739
 -1      1150    8    0    1
 -2       520       642       643      2737      2740      2738
 -1      1151    8    0    1
 -2       522       521       644      2355      2741      2742
 -1      1152    8    0    1
 -2       521       643       644      2739      2743      2741
 -1      1153    8    0    1
 -2       523       522       645      2358      2744      2745
 -1      1154    8    0    1
 -2       522       644       645      2742      2746      2744
 -1      1155    8    0    1
 -2       524       523       646      2362      2747      2748
 -1      1156    8    0    1
 -2       579       524       646      2525      2748      2749
 -1      1157    8    0    1
 -2       523       645       646      2745      2750      2747
 -1      1158    8    0    1
 -2       526       525       647      2367      2751      2752
 -1      1159    8    0    1
 -2       525       528       648      2373      2753      2754
 -1      1160    8    0    1
 -2       525       648       647      2754      2755      2751
 -1      1161    8    0    1
 -2       527       526       649      2370      2756      2757
 -1      1162    8    0    1
 -2       526       647       649      2752      2758      2756
 -1      1163    8    0    1
 -2       529       530       650      2379      2759      2760
 -1      1164    8    0    1
 -2       530       531       651      2382      2761      2762
 -1      1165    8    0    1
 -2       530       651       650      2762      2763      2759
 -1      1166    8    0    1
 -2       531       532       652      2385      2764      2765
 -1      1167    8    0    1
 -2       531       652       651      2765      2766      2761
 -1      1168    8    0    1
 -2       532       533       653      2388      2767      2768
 -1      1169    8    0    1
 -2       532       653       652      2768      2769      2764
 -1      1170    8    0    1
 -2       533       534       654      2391      2770      2771
 -1      1171    8    0    1
 -2       533       654       653      2771      2772      2767
 -1      1172    8    0    1
 -2       534       535       655      2394      2773      2774
 -1      1173    8    0    1
 -2       534       655       654      2774      2775      2770
 -1      1174    8    0    1
 -2       535       536       656      2397      2776      2777
 -1      1175    8    0    1
 -2       535       656       655      2777      2778      2773
 -1      1176    8    0    1
 -2       536       537       657      2400      2779      2780
 -1      1177    8    0    1
 -2       536       657       656      2780      2781      2776
 -1      1178    8    0    1
 -2       537       538       658      2403      2782      2783
 -1      1179    8    0    1
 -2       537       658       657      2783      2784      2779
 -1      1180    8    0    1
 -2       538       539       659      2406      2785      2786
 -1      1181    8    0    1
 -2       538       659       658      2786      2787      2782
 -1      1182    8    0    1
 -2       539       540       660      2409      2788      2789
 -1      1183    8    0    1
 -2       539       660       659      2789      2790      2785
 -1      1184    8    0    1
 -2       540       541       661      2412      2791      2792
 -1      1185    8    0    1
 -2       540       661       660      2792      2793      2788
 -1      1186    8    0    1
 -2       541       542       662      2415      2794      2795
 -1      1187    8    0    1
 -2       541       662       661      2795      2796      2791
 -1      1188    8    0    1
 -2       542       543       663      2418      2797      2798
 -1      1189    8    0    1
 -2       542       663       662      2798      2799      2794
 -1      1190    8    0    1
 -2       543       544       664      2421      2800      2801
 -1      1191    8    0    1
 -2       543       664       663      2801      2802      2797
 -1      1192    8    0    1
 -2       544       545       665      2424      2803      2804
 -1      1193    8    0    1
 -2       544       665       664      2804      2805      2800
 -1      1194    8    0    1
 -2       545       546       666      2427      2806      2807
 -1      1195    8    0    1
 -2       545       666       665      2807      2808      2803
 -1      1196    8    0    1
 -2       546       547       667      2430      2809      2810
 -1      1197    8    0    1
 -2       546       667       666      2810      2811      2806
 -1      1198    8    0    1
 -2       547       548       668      2433      2812      2813
 -1      1199    8    0    1
 -2       547       668       667      2813      2814      2809
 -1      1200    8    0    1
 -2       548       549       669      2436      2815      2816
 -1      1201    8    0    1
 -2       548       669       668      2816      2817      2812
 -1      1202    8    0    1
 -2       549       550       670      2439      2818      2819
 -1      1203    8    0    1
 -2       549       670       669      2819      2820      2815
 -1      1204    8    0    1
 -2       550       551       671      2442      2821      2822
 -1      1205    8    0    1
 -2       550       671       670      2822      2823      2818
 -1      1206    8    0    1
 -2       551       552       672      2445      2824      2825
 -1      1207    8    0    1
 -2       551       672       671      2825      2826      2821
 -1      1208    8    0    1
 -2       552       553       673      2448      2827      2828
 -1      1209    8    0    1
 -2       552       673       672      2828      2829      2824
 -1      1210    8    0    1
 -2       553       554       674      2451      2830      2831
 -1      1211    8    0    1
 -2       553       674       673      2831      2832      2827
 -1      1212    8    0    1
 -2       554       555       675      2454      2833      2834
 -1      1213    8    0    1
 -2       554       675       674      2834      2835      2830
 -1      1214    8    0    1
 -2       555       556       676      2457      2836      2837
 -1      1215    8    0    1
 -2       555       676       675      2837      2838      2833
 -1      1216    8    0    1
 -2       556       557       677      2460      2839      2840
 -1      1217    8    0    1
 -2       556       677       676      2840      2841      2836
 -1      1218    8    0    1
 -2       557       558       678      2463      2842      2843
 -1      1219    8    0    1
 -2       557       678       677      2843      2844      2839
 -1      1220    8    0    1
 -2       558       559       679      2466      2845      2846
 -1      1221    8    0    1
 -2       558       679       678      2846      2847      2842
 -1      1222    8    0    1
 -2       559       560       680      2469      2848      2849
 -1      1223    8    0    1
 -2       559       680       679      2849      2850      2845
 -1      1224    8    0    1
 -2       560       561       681      2472      2851      2852
 -1      1225    8    0    1
 -2       560       681       680      2852      2853      2848
 -1      1226    8    0    1
 -2       561       562       682      2475      2854      2855
 -1      1227    8    0    1
 -2       561       682       681      2855      2856      2851
 -1      1228    8    0    1
 -2       562       563       683      2478      2857      2858
 -1      1229    8    0    1
 -2       562       683       682      2858      2859      2854
 -1      1230    8    0    1
 -2       563       564       684      2481      2860      2861
 -1      1231    8    0    1
 -2       563       684       683      2861      2862      2857
 -1      1232    8    0    1
 -2       564       565       685      2484      2863      2864
 -1      1233    8    0    1
 -2       564       685       684      2864      2865      2860
 -1      1234    8    0    1
 -2       565       566       686      2487      2866      2867
 -1      1235    8    0    1
 -2       565       686       685      2867      2868      2863
 -1      1236    8    0    1
 -2       566       567       687      2490      2869      2870
 -1      1237    8    0    1
 -2       686       566       687      2866      2870      2871
 -1      1238    8    0    1
 -2       567       570       687      2602      2872      2869
 -1      1239    8    0    1
 -2       572       573       688      2506      2873      2874
 -1      1240    8    0    1
 -2       570       569       689      2498      2875      2876
 -1      1241    8    0    1
 -2       570       689       687      2876      2877      2872
 -1      1242    8    0    1
 -2       568       572       690      2503      2878      2879
 -1      1243    8    0    1
 -2       572       688       690      2874      2880      2878
 -1      1244    8    0    1
 -2       574       575       691      2512      2881      2882
 -1      1245    8    0    1
 -2       575       576       692      2515      2883      2884
 -1      1246    8    0    1
 -2       575       692       691      2884      2885      2881
 -1      1247    8    0    1
 -2       576       577       693      2518      2886      2887
 -1      1248    8    0    1
 -2       576       693       692      2887      2888      2883
 -1      1249    8    0    1
 -2       577       578       694      2521      2889      2890
 -1      1250    8    0    1
 -2       577       694       693      2890      2891      2886
 -1      1251    8    0    1
 -2       582       581       695      2534      2892      2893
 -1      1252    8    0    1
 -2       584       596       696      2608      2894      2895
 -1      1253    8    0    1
 -2       598       473       697      2618      2896      2897
 -1      1254    8    0    1
 -2       473       613       697      2651      2898      2896
 -1      1255    8    0    1
 -2       599       582       698      2617      2899      2900
 -1      1256    8    0    1
 -2       582       695       698      2893      2901      2899
 -1      1257    8    0    1
 -2       518       587       698      2545      2902      2903
 -1      1258    8    0    1
 -2       580       446       600      2607      2583      2904
 -1      1259    8    0    1
 -2       591       584       699      2622      2905      2906
 -1      1260    8    0    1
 -2       581       571       700      2584      2907      2908
 -1      1261    8    0    1
 -2       585       593       701      2630      2909      2910
 -1      1262    8    0    1
 -2       590       592       702      2558      2911      2912
 -1      1263    8    0    1
 -2       593       595       703      2567      2913      2914
 -1      1264    8    0    1
 -2       595       591       704      2620      2915      2916
 -1      1265    8    0    1
 -2       481       482       705      2236      2917      2918
 -1      1266    8    0    1
 -2       607       481       705      2634      2918      2919
 -1      1267    8    0    1
 -2       482       609       705      2640      2920      2917
 -1      1268    8    0    1
 -2       478       477       706      2225      2921      2922
 -1      1269    8    0    1
 -2       597       598       707      2619      2923      2924
 -1      1270    8    0    1
 -2       598       697       707      2897      2925      2923
 -1      1271    8    0    1
 -2       592       474       708      2626      2926      2927
 -1      1272    8    0    1
 -2       596       597       709      2631      2928      2929
 -1      1273    8    0    1
 -2       573       574       710      2509      2930      2931
 -1      1274    8    0    1
 -2       574       691       710      2882      2932      2930
 -1      1275    8    0    1
 -2       569       568       711      2495      2933      2934
 -1      1276    8    0    1
 -2       689       569       711      2875      2934      2935
 -1      1277    8    0    1
 -2       568       690       711      2879      2936      2933
 -1      1278    8    0    1
 -2       528       529       712      2376      2937      2938
 -1      1279    8    0    1
 -2       648       528       712      2753      2938      2939
 -1      1280    8    0    1
 -2       529       650       712      2760      2940      2937
 -1      1281    8    0    1
 -2       519       518       713      2346      2941      2942
 -1      1282    8    0    1
 -2       519       713       642      2942      2943      2736
 -1      1283    8    0    1
 -2       586       471       714      2616      2944      2945
 -1      1284    8    0    1
 -2       479       608       715      2637      2946      2947
 -1      1285    8    0    1
 -2       479       715       589      2947      2948      2551
 -1      1286    8    0    1
 -2       485       611       484      2645      2949      2245
 -1      1287    8    0    1
 -2       605       517       614      2615      2653      2950
 -1      1288    8    0    1
 -2       602       590       716      2590      2951      2952
 -1      1289    8    0    1
 -2       590       702       716      2912      2953      2951
 -1      1290    8    0    1
 -2       614       586       714      2652      2945      2954
 -1      1291    8    0    1
 -2       703       595       704      2913      2916      2955
 -1      1292    8    0    1
 -2       701       593       703      2909      2914      2956
 -1      1293    8    0    1
 -2       515       641       613      2733      2957      2735
 -1      1294    8    0    1
 -2       696       596       717      2894      2958      2959
 -1      1295    8    0    1
 -2       596       709       717      2929      2960      2958
 -1      1296    8    0    1
 -2       591       699       718      2906      2961      2962
 -1      1297    8    0    1
 -2       591       718       704      2962      2963      2915
 -1      1298    8    0    1
 -2       472       605       719      2614      2964      2965
 -1      1299    8    0    1
 -2       472       719       603      2965      2966      2606
 -1      1300    8    0    1
 -2       713       518       698      2941      2903      2967
 -1      1301    8    0    1
 -2       688       573       710      2873      2931      2968
 -1      1302    8    0    1
 -2       487       580       720      2528      2969      2970
 -1      1303    8    0    1
 -2       695       581       700      2892      2908      2971
 -1      1304    8    0    1
 -2       578       579       721      2524      2972      2973
 -1      1305    8    0    1
 -2       694       578       721      2889      2973      2974
 -1      1306    8    0    1
 -2       579       646       721      2749      2975      2972
 -1      1307    8    0    1
 -2       527       649       722      2757      2976      2977
 -1      1308    8    0    1
 -2       604       527       722      2612      2977      2978
 -1      1309    8    0    1
 -2       471       602       714      2589      2979      2944
 -1      1310    8    0    1
 -2       478       706       723      2922      2980      2981
 -1      1311    8    0    1
 -2       478       723       600      2981      2982      2581
 -1      1312    8    0    1
 -2       584       696       699      2895      2983      2905
 -1      1313    8    0    1
 -2       592       708       724      2927      2984      2985
 -1      1314    8    0    1
 -2       592       724       702      2985      2986      2911
 -1      1315    8    0    1
 -2       467       599       587      2578      2987      2632
 -1      1316    8    0    1
 -2       571       603       725      2605      2988      2989
 -1      1317    8    0    1
 -2       700       571       725      2907      2989      2990
 -1      1318    8    0    1
 -2       603       719       725      2966      2991      2988
 -1      1319    8    0    1
 -2       606       585       726      2627      2992      2993
 -1      1320    8    0    1
 -2       585       701       726      2910      2994      2992
 -1      1321    8    0    1
 -2       484       611       610      2949      2995      2641
 -1      1322    8    0    1
 -2       698       587       599      2902      2987      2900
 -1      1323    8    0    1
 -2       477       589       727      2550      2996      2997
 -1      1324    8    0    1
 -2       706       477       727      2921      2997      2998
 -1      1325    8    0    1
 -2       589       715       727      2948      2999      2996
 -1      1326    8    0    1
 -2       474       606       708      2629      3000      2926
 -1      1327    8    0    1
 -2       709       597       707      2928      2924      3001
 -1      1328    8    0    1
 -2       487       720       612      2970      3002      2647
 -1      1329    8    0    1
 -2       609       610       728      2643      3003      3004
 -1      1330    8    0    1
 -2       611       601       604      2646      2611      3005
 -1      1331    8    0    1
 -2       605       614       729      2950      3006      3007
 -1      1332    8    0    1
 -2       605       729       719      3007      3008      2964
 -1      1333    8    0    1
 -2       616       615       730      2659      3009      3010
 -1      1334    8    0    1
 -2       617       616       731      2662      3011      3012
 -1      1335    8    0    1
 -2       616       730       731      3010      3013      3011
 -1      1336    8    0    1
 -2       618       617       732      2665      3014      3015
 -1      1337    8    0    1
 -2       617       731       732      3012      3016      3014
 -1      1338    8    0    1
 -2       619       618       733      2668      3017      3018
 -1      1339    8    0    1
 -2       618       732       733      3015      3019      3017
 -1      1340    8    0    1
 -2       620       619       734      2671      3020      3021
 -1      1341    8    0    1
 -2       619       733       734      3018      3022      3020
 -1      1342    8    0    1
 -2       621       620       735      2674      3023      3024
 -1      1343    8    0    1
 -2       620       734       735      3021      3025      3023
 -1      1344    8    0    1
 -2       622       621       736      2677      3026      3027
 -1      1345    8    0    1
 -2       621       735       736      3024      3028      3026
 -1      1346    8    0    1
 -2       623       622       737      2680      3029      3030
 -1      1347    8    0    1
 -2       622       736       737      3027      3031      3029
 -1      1348    8    0    1
 -2       624       623       738      2683      3032      3033
 -1      1349    8    0    1
 -2       623       737       738      3030      3034      3032
 -1      1350    8    0    1
 -2       625       624       739      2686      3035      3036
 -1      1351    8    0    1
 -2       624       738       739      3033      3037      3035
 -1      1352    8    0    1
 -2       626       625       740      2689      3038      3039
 -1      1353    8    0    1
 -2       625       739       740      3036      3040      3038
 -1      1354    8    0    1
 -2       627       626       741      2692      3041      3042
 -1      1355    8    0    1
 -2       626       740       741      3039      3043      3041
 -1      1356    8    0    1
 -2       628       627       742      2695      3044      3045
 -1      1357    8    0    1
 -2       627       741       742      3042      3046      3044
 -1      1358    8    0    1
 -2       629       628       743      2698      3047      3048
 -1      1359    8    0    1
 -2       628       742       743      3045      3049      3047
 -1      1360    8    0    1
 -2       630       629       744      2701      3050      3051
 -1      1361    8    0    1
 -2       629       743       744      3048      3052      3050
 -1      1362    8    0    1
 -2       631       630       745      2704      3053      3054
 -1      1363    8    0    1
 -2       630       744       745      3051      3055      3053
 -1      1364    8    0    1
 -2       632       631       746      2707      3056      3057
 -1      1365    8    0    1
 -2       631       745       746      3054      3058      3056
 -1      1366    8    0    1
 -2       633       632       747      2710      3059      3060
 -1      1367    8    0    1
 -2       632       746       747      3057      3061      3059
 -1      1368    8    0    1
 -2       634       633       748      2713      3062      3063
 -1      1369    8    0    1
 -2       633       747       748      3060      3064      3062
 -1      1370    8    0    1
 -2       635       634       749      2716      3065      3066
 -1      1371    8    0    1
 -2       634       748       749      3063      3067      3065
 -1      1372    8    0    1
 -2       636       635       750      2719      3068      3069
 -1      1373    8    0    1
 -2       635       749       750      3066      3070      3068
 -1      1374    8    0    1
 -2       637       636       751      2722      3071      3072
 -1      1375    8    0    1
 -2       636       750       751      3069      3073      3071
 -1      1376    8    0    1
 -2       638       637       752      2725      3074      3075
 -1      1377    8    0    1
 -2       637       751       752      3072      3076      3074
 -1      1378    8    0    1
 -2       639       638       753      2728      3077      3078
 -1      1379    8    0    1
 -2       638       752       753      3075      3079      3077
 -1      1380    8    0    1
 -2       640       639       754      2731      3080      3081
 -1      1381    8    0    1
 -2       639       753       754      3078      3082      3080
 -1      1382    8    0    1
 -2       641       640       755      2734      3083      3084
 -1      1383    8    0    1
 -2       640       754       755      3081      3085      3083
 -1      1384    8    0    1
 -2       693       694       756      2891      3086      3087
 -1      1385    8    0    1
 -2       643       642       757      2740      3088      3089
 -1      1386    8    0    1
 -2       642       713       758      2943      3090      3091
 -1      1387    8    0    1
 -2       642       758       757      3091      3092      3088
 -1      1388    8    0    1
 -2       644       643       759      2743      3093      3094
 -1      1389    8    0    1
 -2       643       757       759      3089      3095      3093
 -1      1390    8    0    1
 -2       645       644       760      2746      3096      3097
 -1      1391    8    0    1
 -2       644       759       760      3094      3098      3096
 -1      1392    8    0    1
 -2       647       648       761      2755      3099      3100
 -1      1393    8    0    1
 -2       649       647       762      2758      3101      3102
 -1      1394    8    0    1
 -2       647       761       762      3100      3103      3101
 -1      1395    8    0    1
 -2       651       652       763      2766      3104      3105
 -1      1396    8    0    1
 -2       650       651       764      2763      3106      3107
 -1      1397    8    0    1
 -2       651       763       764      3105      3108      3106
 -1      1398    8    0    1
 -2       653       654       765      2772      3109      3110
 -1      1399    8    0    1
 -2       654       655       766      2775      3111      3112
 -1      1400    8    0    1
 -2       654       766       765      3112      3113      3109
 -1      1401    8    0    1
 -2       655       656       767      2778      3114      3115
 -1      1402    8    0    1
 -2       655       767       766      3115      3116      3111
 -1      1403    8    0    1
 -2       656       657       768      2781      3117      3118
 -1      1404    8    0    1
 -2       656       768       767      3118      3119      3114
 -1      1405    8    0    1
 -2       657       658       769      2784      3120      3121
 -1      1406    8    0    1
 -2       657       769       768      3121      3122      3117
 -1      1407    8    0    1
 -2       658       659       770      2787      3123      3124
 -1      1408    8    0    1
 -2       658       770       769      3124      3125      3120
 -1      1409    8    0    1
 -2       659       660       771      2790      3126      3127
 -1      1410    8    0    1
 -2       659       771       770      3127      3128      3123
 -1      1411    8    0    1
 -2       660       661       772      2793      3129      3130
 -1      1412    8    0    1
 -2       660       772       771      3130      3131      3126
 -1      1413    8    0    1
 -2       661       662       773      2796      3132      3133
 -1      1414    8    0    1
 -2       661       773       772      3133      3134      3129
 -1      1415    8    0    1
 -2       662       663       774      2799      3135      3136
 -1      1416    8    0    1
 -2       662       774       773      3136      3137      3132
 -1      1417    8    0    1
 -2       663       664       775      2802      3138      3139
 -1      1418    8    0    1
 -2       663       775       774      3139      3140      3135
 -1      1419    8    0    1
 -2       664       665       776      2805      3141      3142
 -1      1420    8    0    1
 -2       664       776       775      3142      3143      3138
 -1      1421    8    0    1
 -2       665       666       777      2808      3144      3145
 -1      1422    8    0    1
 -2       665       777       776      3145      3146      3141
 -1      1423    8    0    1
 -2       666       667       778      2811      3147      3148
 -1      1424    8    0    1
 -2       666       778       777      3148      3149      3144
 -1      1425    8    0    1
 -2       667       668       779      2814      3150      3151
 -1      1426    8    0    1
 -2       667       779       778      3151      3152      3147
 -1      1427    8    0    1
 -2       668       669       780      2817      3153      3154
 -1      1428    8    0    1
 -2       668       780       779      3154      3155      3150
 -1      1429    8    0    1
 -2       669       670       781      2820      3156      3157
 -1      1430    8    0    1
 -2       669       781       780      3157      3158      3153
 -1      1431    8    0    1
 -2       670       671       782      2823      3159      3160
 -1      1432    8    0    1
 -2       670       782       781      3160      3161      3156
 -1      1433    8    0    1
 -2       671       672       783      2826      3162      3163
 -1      1434    8    0    1
 -2       671       783       782      3163      3164      3159
 -1      1435    8    0    1
 -2       672       673       784      2829      3165      3166
 -1      1436    8    0    1
 -2       672       784       783      3166      3167      3162
 -1      1437    8    0    1
 -2       673       674       785      2832      3168      3169
 -1      1438    8    0    1
 -2       673       785       784      3169      3170      3165
 -1      1439    8    0    1
 -2       674       675       786      2835      3171      3172
 -1      1440    8    0    1
 -2       674       786       785      3172      3173      3168
 -1      1441    8    0    1
 -2       675       676       787      2838      3174      3175
 -1      1442    8    0    1
 -2       675       787       786      3175      3176      3171
 -1      1443    8    0    1
 -2       676       677       788      2841      3177      3178
 -1      1444    8    0    1
 -2       676       788       787      3178      3179      3174
 -1      1445    8    0    1
 -2       677       678       789      2844      3180      3181
 -1      1446    8    0    1
 -2       677       789       788      3181      3182      3177
 -1      1447    8    0    1
 -2       678       679       790      2847      3183      3184
 -1      1448    8    0    1
 -2       678       790       789      3184      3185      3180
 -1      1449    8    0    1
 -2       679       680       791      2850      3186      3187
 -1      1450    8    0    1
 -2       679       791       790      3187      3188      3183
 -1      1451    8    0    1
 -2       680       681       792      2853      3189      3190
 -1      1452    8    0    1
 -2       680       792       791      3190      3191      3186
 -1      1453    8    0    1
 -2       681       682       793      2856      3192      3193
 -1      1454    8    0    1
 -2       681       793       792      3193      3194      3189
 -1      1455    8    0    1
 -2       682       683       794      2859      3195      3196
 -1      1456    8    0    1
 -2       682       794       793      3196      3197      3192
 -1      1457    8    0    1
 -2       683       684       795      2862      3198      3199
 -1      1458    8    0    1
 -2       683       795       794      3199      3200      3195
 -1      1459    8    0    1
 -2       684       685       796      2865      3201      3202
 -1      1460    8    0    1
 -2       684       796       795      3202      3203      3198
 -1      1461    8    0    1
 -2       685       686       797      2868      3204      3205
 -1      1462    8    0    1
 -2       685       797       796      3205      3206      3201
 -1      1463    8    0    1
 -2       686       687       798      2871      3207      3208
 -1      1464    8    0    1
 -2       797       686       798      3204      3208      3209
 -1      1465    8    0    1
 -2       687       689       798      2877      3210      3207
 -1      1466    8    0    1
 -2       720       580       600      2969      2904      3211
 -1      1467    8    0    1
 -2       713       698       695      2967      2901      3212
 -1      1468    8    0    1
 -2       720       600       723      3211      2982      3213
 -1      1469    8    0    1
 -2       690       688       799      2880      3214      3215
 -1      1470    8    0    1
 -2       692       693       800      2888      3216      3217
 -1      1471    8    0    1
 -2       693       756       800      3087      3218      3216
 -1      1472    8    0    1
 -2       691       692       801      2885      3219      3220
 -1      1473    8    0    1
 -2       692       800       801      3217      3221      3219
 -1      1474    8    0    1
 -2       688       710       802      2968      3222      3223
 -1      1475    8    0    1
 -2       688       802       799      3223      3224      3214
 -1      1476    8    0    1
 -2       604       722       611      2978      3225      3005
 -1      1477    8    0    1
 -2       710       691       803      2932      3226      3227
 -1      1478    8    0    1
 -2       802       710       803      3222      3227      3228
 -1      1479    8    0    1
 -2       691       801       803      3220      3229      3226
 -1      1480    8    0    1
 -2       615       612       804      2656      3230      3231
 -1      1481    8    0    1
 -2       615       804       730      3231      3232      3009
 -1      1482    8    0    1
 -2       713       695       758      3212      3233      3090
 -1      1483    8    0    1
 -2       610       611       722      2995      3225      3234
 -1      1484    8    0    1
 -2       614       714       805      2954      3235      3236
 -1      1485    8    0    1
 -2       652       653       806      2769      3237      3238
 -1      1486    8    0    1
 -2       763       652       806      3104      3238      3239
 -1      1487    8    0    1
 -2       653       765       806      3110      3240      3237
 -1      1488    8    0    1
 -2       613       641       697      2957      3241      2898
 -1      1489    8    0    1
 -2       699       696       807      2983      3242      3243
 -1      1490    8    0    1
 -2       701       703       808      2956      3244      3245
 -1      1491    8    0    1
 -2       709       707       809      3001      3246      3247
 -1      1492    8    0    1
 -2       608       607       810      2638      3248      3249
 -1      1493    8    0    1
 -2       610       722       728      3234      3250      3003
 -1      1494    8    0    1
 -2       703       704       811      2955      3251      3252
 -1      1495    8    0    1
 -2       708       606       812      3000      3253      3254
 -1      1496    8    0    1
 -2       606       726       812      2993      3255      3253
 -1      1497    8    0    1
 -2       714       602       813      2979      3256      3257
 -1      1498    8    0    1
 -2       697       641       814      3241      3258      3259
 -1      1499    8    0    1
 -2       707       697       814      2925      3259      3260
 -1      1500    8    0    1
 -2       641       755       814      3084      3261      3258
 -1      1501    8    0    1
 -2       729       614       815      3006      3262      3263
 -1      1502    8    0    1
 -2       614       805       815      3236      3264      3262
 -1      1503    8    0    1
 -2       758       695       700      3233      2971      3265
 -1      1504    8    0    1
 -2       609       728       816      3004      3266      3267
 -1      1505    8    0    1
 -2       609       816       705      3267      3268      2920
 -1      1506    8    0    1
 -2       716       702       817      2953      3269      3270
 -1      1507    8    0    1
 -2       706       727       818      2998      3271      3272
 -1      1508    8    0    1
 -2       717       709       809      2960      3247      3273
 -1      1509    8    0    1
 -2       756       694       760      3086      3274      3275
 -1      1510    8    0    1
 -2       718       699       819      2961      3276      3277
 -1      1511    8    0    1
 -2       699       807       819      3243      3278      3276
 -1      1512    8    0    1
 -2       602       716       813      2952      3279      3256
 -1      1513    8    0    1
 -2       761       648       820      3099      3280      3281
 -1      1514    8    0    1
 -2       648       712       820      2939      3282      3280
 -1      1515    8    0    1
 -2       646       645       721      2750      3283      2975
 -1      1516    8    0    1
 -2       808       703       811      3244      3252      3284
 -1      1517    8    0    1
 -2       650       764       821      3107      3285      3286
 -1      1518    8    0    1
 -2       650       821       712      3286      3287      2940
 -1      1519    8    0    1
 -2       798       689       822      3210      3288      3289
 -1      1520    8    0    1
 -2       689       711       822      2935      3290      3288
 -1      1521    8    0    1
 -2       758       700       823      3265      3291      3292
 -1      1522    8    0    1
 -2       696       717       824      2959      3293      3294
 -1      1523    8    0    1
 -2       696       824       807      3294      3295      3242
 -1      1524    8    0    1
 -2       722       649       825      2976      3296      3297
 -1      1525    8    0    1
 -2       723       706       826      2980      3298      3299
 -1      1526    8    0    1
 -2       706       818       826      3272      3300      3298
 -1      1527    8    0    1
 -2       724       708       827      2984      3301      3302
 -1      1528    8    0    1
 -2       708       812       827      3254      3303      3301
 -1      1529    8    0    1
 -2       810       607       828      3248      3304      3305
 -1      1530    8    0    1
 -2       607       705       828      2919      3306      3304
 -1      1531    8    0    1
 -2       726       701       829      2994      3307      3308
 -1      1532    8    0    1
 -2       701       808       829      3245      3309      3307
 -1      1533    8    0    1
 -2       702       724       817      2986      3310      3269
 -1      1534    8    0    1
 -2       694       721       760      2974      3311      3274
 -1      1535    8    0    1
 -2       805       714       813      3235      3257      3312
 -1      1536    8    0    1
 -2       809       707       814      3246      3260      3313
 -1      1537    8    0    1
 -2       722       825       728      3297      3314      3250
 -1      1538    8    0    1
 -2       612       720       723      3002      3213      3315
 -1      1539    8    0    1
 -2       608       810       830      3249      3316      3317
 -1      1540    8    0    1
 -2       608       830       715      3317      3318      2946
 -1      1541    8    0    1
 -2       704       718       831      2963      3319      3320
 -1      1542    8    0    1
 -2       704       831       811      3320      3321      3251
 -1      1543    8    0    1
 -2       711       690       832      2936      3322      3323
 -1      1544    8    0    1
 -2       822       711       832      3290      3323      3324
 -1      1545    8    0    1
 -2       690       799       832      3215      3325      3322
 -1      1546    8    0    1
 -2       612       723       804      3315      3326      3230
 -1      1547    8    0    1
 -2       823       700       725      3291      2990      3327
 -1      1548    8    0    1
 -2       825       649       762      3296      3102      3328
 -1      1549    8    0    1
 -2       818       727       833      3271      3329      3330
 -1      1550    8    0    1
 -2       727       715       833      2999      3331      3329
 -1      1551    8    0    1
 -2       760       721       645      3311      3283      3097
 -1      1552    8    0    1
 -2       717       809       834      3273      3332      3333
 -1      1553    8    0    1
 -2       805       813       835      3312      3334      3335
 -1      1554    8    0    1
 -2       732       731       836      3016      3336      3337
 -1      1555    8    0    1
 -2       733       732       837      3019      3338      3339
 -1      1556    8    0    1
 -2       732       836       837      3337      3340      3338
 -1      1557    8    0    1
 -2       734       733       838      3022      3341      3342
 -1      1558    8    0    1
 -2       733       837       838      3339      3343      3341
 -1      1559    8    0    1
 -2       735       734       839      3025      3344      3345
 -1      1560    8    0    1
 -2       734       838       839      3342      3346      3344
 -1      1561    8    0    1
 -2       736       735       840      3028      3347      3348
 -1      1562    8    0    1
 -2       735       839       840      3345      3349      3347
 -1      1563    8    0    1
 -2       737       736       841      3031      3350      3351
 -1      1564    8    0    1
 -2       736       840       841      3348      3352      3350
 -1      1565    8    0    1
 -2       738       737       842      3034      3353      3354
 -1      1566    8    0    1
 -2       737       841       842      3351      3355      3353
 -1      1567    8    0    1
 -2       739       738       843      3037      3356      3357
 -1      1568    8    0    1
 -2       738       842       843      3354      3358      3356
 -1      1569    8    0    1
 -2       740       739       844      3040      3359      3360
 -1      1570    8    0    1
 -2       739       843       844      3357      3361      3359
 -1      1571    8    0    1
 -2       741       740       845      3043      3362      3363
 -1      1572    8    0    1
 -2       740       844       845      3360      3364      3362
 -1      1573    8    0    1
 -2       742       741       846      3046      3365      3366
 -1      1574    8    0    1
 -2       741       845       846      3363      3367      3365
 -1      1575    8    0    1
 -2       743       742       847      3049      3368      3369
 -1      1576    8    0    1
 -2       742       846       847      3366      3370      3368
 -1      1577    8    0    1
 -2       744       743       848      3052      3371      3372
 -1      1578    8    0    1
 -2       743       847       848      3369      3373      3371
 -1      1579    8    0    1
 -2       745       744       849      3055      3374      3375
 -1      1580    8    0    1
 -2       744       848       849      3372      3376      3374
 -1      1581    8    0    1
 -2       746       745       850      3058      3377      3378
 -1      1582    8    0    1
 -2       745       849       850      3375      3379      3377
 -1      1583    8    0    1
 -2       747       746       851      3061      3380      3381
 -1      1584    8    0    1
 -2       746       850       851      3378      3382      3380
 -1      1585    8    0    1
 -2       748       747       852      3064      3383      3384
 -1      1586    8    0    1
 -2       747       851       852      3381      3385      3383
 -1      1587    8    0    1
 -2       749       748       853      3067      3386      3387
 -1      1588    8    0    1
 -2       748       852       853      3384      3388      3386
 -1      1589    8    0    1
 -2       750       749       854      3070      3389      3390
 -1      1590    8    0    1
 -2       749       853       854      3387      3391      3389
 -1      1591    8    0    1
 -2       751       750       855      3073      3392      3393
 -1      1592    8    0    1
 -2       750       854       855      3390      3394      3392
 -1      1593    8    0    1
 -2       752       751       856      3076      3395      3396
 -1      1594    8    0    1
 -2       751       855       856      3393      3397      3395
 -1      1595    8    0    1
 -2       753       752       857      3079      3398      3399
 -1      1596    8    0    1
 -2       752       856       857      3396      3400      3398
 -1      1597    8    0    1
 -2       754       753       858      3082      3401      3402
 -1      1598    8    0    1
 -2       753       857       858      3399      3403      3401
 -1      1599    8    0    1
 -2       755       754       859      3085      3404      3405
 -1      1600    8    0    1
 -2       754       858       859      3402      3406      3404
 -1      1601    8    0    1
 -2       813       716       860      3279      3407      3408
 -1      1602    8    0    1
 -2       716       817       860      3270      3409      3407
 -1      1603    8    0    1
 -2       757       758       861      3092      3410      3411
 -1      1604    8    0    1
 -2       758       823       861      3292      3412      3410
 -1      1605    8    0    1
 -2       730       804       862      3232      3413      3414
 -1      1606    8    0    1
 -2       759       757       863      3095      3415      3416
 -1      1607    8    0    1
 -2       757       861       863      3411      3417      3415
 -1      1608    8    0    1
 -2       760       759       863      3098      3416      3418
 -1      1609    8    0    1
 -2       766       767       864      3116      3419      3420
 -1      1610    8    0    1
 -2       765       766       865      3113      3421      3422
 -1      1611    8    0    1
 -2       766       864       865      3420      3423      3421
 -1      1612    8    0    1
 -2       768       769       866      3122      3424      3425
 -1      1613    8    0    1
 -2       769       770       867      3125      3426      3427
 -1      1614    8    0    1
 -2       769       867       866      3427      3428      3424
 -1      1615    8    0    1
 -2       770       771       868      3128      3429      3430
 -1      1616    8    0    1
 -2       770       868       867      3430      3431      3426
 -1      1617    8    0    1
 -2       771       772       869      3131      3432      3433
 -1      1618    8    0    1
 -2       771       869       868      3433      3434      3429
 -1      1619    8    0    1
 -2       772       773       870      3134      3435      3436
 -1      1620    8    0    1
 -2       772       870       869      3436      3437      3432
 -1      1621    8    0    1
 -2       773       774       871      3137      3438      3439
 -1      1622    8    0    1
 -2       773       871       870      3439      3440      3435
 -1      1623    8    0    1
 -2       774       775       872      3140      3441      3442
 -1      1624    8    0    1
 -2       774       872       871      3442      3443      3438
 -1      1625    8    0    1
 -2       775       776       873      3143      3444      3445
 -1      1626    8    0    1
 -2       775       873       872      3445      3446      3441
 -1      1627    8    0    1
 -2       776       777       874      3146      3447      3448
 -1      1628    8    0    1
 -2       776       874       873      3448      3449      3444
 -1      1629    8    0    1
 -2       777       778       875      3149      3450      3451
 -1      1630    8    0    1
 -2       777       875       874      3451      3452      3447
 -1      1631    8    0    1
 -2       778       779       876      3152      3453      3454
 -1      1632    8    0    1
 -2       778       876       875      3454      3455      3450
 -1      1633    8    0    1
 -2       779       780       877      3155      3456      3457
 -1      1634    8    0    1
 -2       779       877       876      3457      3458      3453
 -1      1635    8    0    1
 -2       780       781       878      3158      3459      3460
 -1      1636    8    0    1
 -2       780       878       877      3460      3461      3456
 -1      1637    8    0    1
 -2       781       782       879      3161      3462      3463
 -1      1638    8    0    1
 -2       781       879       878      3463      3464      3459
 -1      1639    8    0    1
 -2       782       783       880      3164      3465      3466
 -1      1640    8    0    1
 -2       782       880       879      3466      3467      3462
 -1      1641    8    0    1
 -2       783       784       881      3167      3468      3469
 -1      1642    8    0    1
 -2       783       881       880      3469      3470      3465
 -1      1643    8    0    1
 -2       784       785       882      3170      3471      3472
 -1      1644    8    0    1
 -2       784       882       881      3472      3473      3468
 -1      1645    8    0    1
 -2       785       786       883      3173      3474      3475
 -1      1646    8    0    1
 -2       785       883       882      3475      3476      3471
 -1      1647    8    0    1
 -2       786       787       884      3176      3477      3478
 -1      1648    8    0    1
 -2       786       884       883      3478      3479      3474
 -1      1649    8    0    1
 -2       787       788       885      3179      3480      3481
 -1      1650    8    0    1
 -2       787       885       884      3481      3482      3477
 -1      1651    8    0    1
 -2       788       789       886      3182      3483      3484
 -1      1652    8    0    1
 -2       788       886       885      3484      3485      3480
 -1      1653    8    0    1
 -2       789       790       887      3185      3486      3487
 -1      1654    8    0    1
 -2       789       887       886      3487      3488      3483
 -1      1655    8    0    1
 -2       790       791       888      3188      3489      3490
 -1      1656    8    0    1
 -2       790       888       887      3490      3491      3486
 -1      1657    8    0    1
 -2       791       792       889      3191      3492      3493
 -1      1658    8    0    1
 -2       791       889       888      3493      3494      3489
 -1      1659    8    0    1
 -2       792       793       890      3194      3495      3496
 -1      1660    8    0    1
 -2       792       890       889      3496      3497      3492
 -1      1661    8    0    1
 -2       793       794       891      3197      3498      3499
 -1      1662    8    0    1
 -2       793       891       890      3499      3500      3495
 -1      1663    8    0    1
 -2       794       795       892      3200      3501      3502
 -1      1664    8    0    1
 -2       794       892       891      3502      3503      3498
 -1      1665    8    0    1
 -2       795       796       893      3203      3504      3505
 -1      1666    8    0    1
 -2       795       893       892      3505      3506      3501
 -1      1667    8    0    1
 -2       796       797       894      3206      3507      3508
 -1      1668    8    0    1
 -2       796       894       893      3508      3509      3504
 -1      1669    8    0    1
 -2       797       798       895      3209      3510      3511
 -1      1670    8    0    1
 -2       894       797       895      3507      3511      3512
 -1      1671    8    0    1
 -2       798       822       895      3289      3513      3510
 -1      1672    8    0    1
 -2       800       756       896      3218      3514      3515
 -1      1673    8    0    1
 -2       799       802       897      3224      3516      3517
 -1      1674    8    0    1
 -2       801       800       898      3221      3518      3519
 -1      1675    8    0    1
 -2       800       896       898      3515      3520      3518
 -1      1676    8    0    1
 -2       823       725       899      3327      3521      3522
 -1      1677    8    0    1
 -2       814       755       900      3261      3523      3524
 -1      1678    8    0    1
 -2       809       814       900      3313      3524      3525
 -1      1679    8    0    1
 -2       755       859       900      3405      3526      3523
 -1      1680    8    0    1
 -2       808       811       901      3284      3527      3528
 -1      1681    8    0    1
 -2       725       719       899      2991      3529      3521
 -1      1682    8    0    1
 -2       812       726       902      3255      3530      3531
 -1      1683    8    0    1
 -2       764       763       903      3108      3532      3533
 -1      1684    8    0    1
 -2       762       761       904      3103      3534      3535
 -1      1685    8    0    1
 -2       719       729       905      3008      3536      3537
 -1      1686    8    0    1
 -2       719       905       899      3537      3538      3529
 -1      1687    8    0    1
 -2       731       730       906      3013      3539      3540
 -1      1688    8    0    1
 -2       730       862       906      3414      3541      3539
 -1      1689    8    0    1
 -2       767       768       907      3119      3542      3543
 -1      1690    8    0    1
 -2       864       767       907      3419      3543      3544
 -1      1691    8    0    1
 -2       768       866       907      3425      3545      3542
 -1      1692    8    0    1
 -2       825       762       908      3328      3546      3547
 -1      1693    8    0    1
 -2       762       904       908      3535      3548      3546
 -1      1694    8    0    1
 -2       728       825       909      3314      3549      3550
 -1      1695    8    0    1
 -2       816       728       909      3266      3550      3551
 -1      1696    8    0    1
 -2       825       908       909      3547      3552      3549
 -1      1697    8    0    1
 -2       802       803       910      3228      3553      3554
 -1      1698    8    0    1
 -2       802       910       897      3554      3555      3516
 -1      1699    8    0    1
 -2       835       813       860      3334      3408      3556
 -1      1700    8    0    1
 -2       805       835       911      3335      3557      3558
 -1      1701    8    0    1
 -2       805       911       815      3558      3559      3264
 -1      1702    8    0    1
 -2       729       815       912      3263      3560      3561
 -1      1703    8    0    1
 -2       729       912       905      3561      3562      3536
 -1      1704    8    0    1
 -2       808       901       913      3528      3563      3564
 -1      1705    8    0    1
 -2       808       913       829      3564      3565      3309
 -1      1706    8    0    1
 -2       860       817       914      3409      3566      3567
 -1      1707    8    0    1
 -2       718       819       915      3277      3568      3569
 -1      1708    8    0    1
 -2       718       915       831      3569      3570      3319
 -1      1709    8    0    1
 -2       717       834       824      3333      3571      3293
 -1      1710    8    0    1
 -2       820       712       821      3282      3287      3572
 -1      1711    8    0    1
 -2       861       823       916      3412      3573      3574
 -1      1712    8    0    1
 -2       823       899       916      3522      3575      3573
 -1      1713    8    0    1
 -2       862       804       826      3413      3576      3577
 -1      1714    8    0    1
 -2       826       818       917      3300      3578      3579
 -1      1715    8    0    1
 -2       826       917       862      3579      3580      3577
 -1      1716    8    0    1
 -2       818       833       918      3330      3581      3582
 -1      1717    8    0    1
 -2       818       918       917      3582      3583      3578
 -1      1718    8    0    1
 -2       821       764       919      3285      3584      3585
 -1      1719    8    0    1
 -2       764       903       919      3533      3586      3584
 -1      1720    8    0    1
 -2       765       865       920      3422      3587      3588
 -1      1721    8    0    1
 -2       765       920       806      3588      3589      3240
 -1      1722    8    0    1
 -2       834       809       900      3332      3525      3590
 -1      1723    8    0    1
 -2       799       897       921      3517      3591      3592
 -1      1724    8    0    1
 -2       799       921       832      3592      3593      3325
 -1      1725    8    0    1
 -2       807       824       922      3295      3594      3595
 -1      1726    8    0    1
 -2       807       922       819      3595      3596      3278
 -1      1727    8    0    1
 -2       705       816       828      3268      3597      3306
 -1      1728    8    0    1
 -2       833       715       830      3331      3318      3598
 -1      1729    8    0    1
 -2       801       898       923      3519      3599      3600
 -1      1730    8    0    1
 -2       801       923       803      3600      3601      3229
 -1      1731    8    0    1
 -2       812       902       827      3531      3602      3303
 -1      1732    8    0    1
 -2       723       826       804      3299      3576      3326
 -1      1733    8    0    1
 -2       731       906       836      3540      3603      3336
 -1      1734    8    0    1
 -2       902       726       829      3530      3308      3604
 -1      1735    8    0    1
 -2       763       806       924      3239      3605      3606
 -1      1736    8    0    1
 -2       903       763       924      3532      3606      3607
 -1      1737    8    0    1
 -2       806       920       924      3589      3608      3605
 -1      1738    8    0    1
 -2       904       761       925      3534      3609      3610
 -1      1739    8    0    1
 -2       761       820       925      3281      3611      3609
 -1      1740    8    0    1
 -2       817       724       926      3310      3612      3613
 -1      1741    8    0    1
 -2       756       760       863      3275      3418      3614
 -1      1742    8    0    1
 -2       901       811       927      3527      3615      3616
 -1      1743    8    0    1
 -2       811       831       927      3321      3617      3615
 -1      1744    8    0    1
 -2       830       810       928      3316      3618      3619
 -1      1745    8    0    1
 -2       810       828       929      3305      3620      3621
 -1      1746    8    0    1
 -2       810       929       928      3621      3622      3618
 -1      1747    8    0    1
 -2       817       926       914      3613      3623      3566
 -1      1748    8    0    1
 -2       926       724       827      3612      3302      3624
 -1      1749    8    0    1
 -2       837       836       930      3340      3625      3626
 -1      1750    8    0    1
 -2       838       837       931      3343      3627      3628
 -1      1751    8    0    1
 -2       837       930       931      3626      3629      3627
 -1      1752    8    0    1
 -2       839       838       932      3346      3630      3631
 -1      1753    8    0    1
 -2       838       931       932      3628      3632      3630
 -1      1754    8    0    1
 -2       840       839       933      3349      3633      3634
 -1      1755    8    0    1
 -2       839       932       933      3631      3635      3633
 -1      1756    8    0    1
 -2       841       840       934      3352      3636      3637
 -1      1757    8    0    1
 -2       840       933       934      3634      3638      3636
 -1      1758    8    0    1
 -2       842       841       935      3355      3639      3640
 -1      1759    8    0    1
 -2       841       934       935      3637      3641      3639
 -1      1760    8    0    1
 -2       843       842       936      3358      3642      3643
 -1      1761    8    0    1
 -2       842       935       936      3640      3644      3642
 -1      1762    8    0    1
 -2       844       843       937      3361      3645      3646
 -1      1763    8    0    1
 -2       843       936       937      3643      3647      3645
 -1      1764    8    0    1
 -2       845       844       938      3364      3648      3649
 -1      1765    8    0    1
 -2       844       937       938      3646      3650      3648
 -1      1766    8    0    1
 -2       846       845       939      3367      3651      3652
 -1      1767    8    0    1
 -2       845       938       939      3649      3653      3651
 -1      1768    8    0    1
 -2       847       846       940      3370      3654      3655
 -1      1769    8    0    1
 -2       846       939       940      3652      3656      3654
 -1      1770    8    0    1
 -2       848       847       941      3373      3657      3658
 -1      1771    8    0    1
 -2       847       940       941      3655      3659      3657
 -1      1772    8    0    1
 -2       849       848       942      3376      3660      3661
 -1      1773    8    0    1
 -2       848       941       942      3658      3662      3660
 -1      1774    8    0    1
 -2       850       849       943      3379      3663      3664
 -1      1775    8    0    1
 -2       849       942       943      3661      3665      3663
 -1      1776    8    0    1
 -2       851       850       944      3382      3666      3667
 -1      1777    8    0    1
 -2       850       943       944      3664      3668      3666
 -1      1778    8    0    1
 -2       852       851       945      3385      3669      3670
 -1      1779    8    0    1
 -2       851       944       945      3667      3671      3669
 -1      1780    8    0    1
 -2       853       852       946      3388      3672      3673
 -1      1781    8    0    1
 -2       852       945       946      3670      3674      3672
 -1      1782    8    0    1
 -2       854       853       947      3391      3675      3676
 -1      1783    8    0    1
 -2       853       946       947      3673      3677      3675
 -1      1784    8    0    1
 -2       855       854       948      3394      3678      3679
 -1      1785    8    0    1
 -2       854       947       948      3676      3680      3678
 -1      1786    8    0    1
 -2       856       855       949      3397      3681      3682
 -1      1787    8    0    1
 -2       855       948       949      3679      3683      3681
 -1      1788    8    0    1
 -2       857       856       950      3400      3684      3685
 -1      1789    8    0    1
 -2       856       949       950      3682      3686      3684
 -1      1790    8    0    1
 -2       858       857       951      3403      3687      3688
 -1      1791    8    0    1
 -2       857       950       951      3685      3689      3687
 -1      1792    8    0    1
 -2       859       858       952      3406      3690      3691
 -1      1793    8    0    1
 -2       858       951       952      3688      3692      3690
 -1      1794    8    0    1
 -2       862       917       906      3580      3693      3541
 -1      1795    8    0    1
 -2       865       864       953      3423      3694      3695
 -1      1796    8    0    1
 -2       908       904       954      3548      3696      3697
 -1      1797    8    0    1
 -2       820       821       955      3572      3698      3699
 -1      1798    8    0    1
 -2       925       820       955      3611      3699      3700
 -1      1799    8    0    1
 -2       821       919       955      3585      3701      3698
 -1      1800    8    0    1
 -2       867       868       956      3431      3702      3703
 -1      1801    8    0    1
 -2       866       867       957      3428      3704      3705
 -1      1802    8    0    1
 -2       867       956       957      3703      3706      3704
 -1      1803    8    0    1
 -2       869       870       958      3437      3707      3708
 -1      1804    8    0    1
 -2       870       871       959      3440      3709      3710
 -1      1805    8    0    1
 -2       870       959       958      3710      3711      3707
 -1      1806    8    0    1
 -2       871       872       960      3443      3712      3713
 -1      1807    8    0    1
 -2       871       960       959      3713      3714      3709
 -1      1808    8    0    1
 -2       872       873       961      3446      3715      3716
 -1      1809    8    0    1
 -2       872       961       960      3716      3717      3712
 -1      1810    8    0    1
 -2       873       874       962      3449      3718      3719
 -1      1811    8    0    1
 -2       873       962       961      3719      3720      3715
 -1      1812    8    0    1
 -2       874       875       963      3452      3721      3722
 -1      1813    8    0    1
 -2       874       963       962      3722      3723      3718
 -1      1814    8    0    1
 -2       875       876       964      3455      3724      3725
 -1      1815    8    0    1
 -2       875       964       963      3725      3726      3721
 -1      1816    8    0    1
 -2       876       877       965      3458      3727      3728
 -1      1817    8    0    1
 -2       876       965       964      3728      3729      3724
 -1      1818    8    0    1
 -2       877       878       966      3461      3730      3731
 -1      1819    8    0    1
 -2       877       966       965      3731      3732      3727
 -1      1820    8    0    1
 -2       878       879       967      3464      3733      3734
 -1      1821    8    0    1
 -2       878       967       966      3734      3735      3730
 -1      1822    8    0    1
 -2       879       880       968      3467      3736      3737
 -1      1823    8    0    1
 -2       879       968       967      3737      3738      3733
 -1      1824    8    0    1
 -2       880       881       969      3470      3739      3740
 -1      1825    8    0    1
 -2       880       969       968      3740      3741      3736
 -1      1826    8    0    1
 -2       881       882       970      3473      3742      3743
 -1      1827    8    0    1
 -2       881       970       969      3743      3744      3739
 -1      1828    8    0    1
 -2       882       883       971      3476      3745      3746
 -1      1829    8    0    1
 -2       882       971       970      3746      3747      3742
 -1      1830    8    0    1
 -2       883       884       913      3479      3748      3749
 -1      1831    8    0    1
 -2       885       886       902      3485      3750      3751
 -1      1832    8    0    1
 -2       886       887       926      3488      3752      3753
 -1      1833    8    0    1
 -2       887       888       926      3491      3754      3752
 -1      1834    8    0    1
 -2       888       889       914      3494      3755      3756
 -1      1835    8    0    1
 -2       889       890       972      3497      3757      3758
 -1      1836    8    0    1
 -2       890       891       973      3500      3759      3760
 -1      1837    8    0    1
 -2       890       973       972      3760      3761      3757
 -1      1838    8    0    1
 -2       891       892       974      3503      3762      3763
 -1      1839    8    0    1
 -2       891       974       973      3763      3764      3759
 -1      1840    8    0    1
 -2       892       893       975      3506      3765      3766
 -1      1841    8    0    1
 -2       892       975       974      3766      3767      3762
 -1      1842    8    0    1
 -2       893       894       976      3509      3768      3769
 -1      1843    8    0    1
 -2       893       976       975      3769      3770      3765
 -1      1844    8    0    1
 -2       835       860       972      3556      3771      3772
 -1      1845    8    0    1
 -2       833       830       977      3598      3773      3774
 -1      1846    8    0    1
 -2       918       833       977      3581      3774      3775
 -1      1847    8    0    1
 -2       830       928       977      3619      3776      3773
 -1      1848    8    0    1
 -2       860       914       972      3567      3777      3771
 -1      1849    8    0    1
 -2       834       900       978      3590      3778      3779
 -1      1850    8    0    1
 -2       899       905       979      3538      3780      3781
 -1      1851    8    0    1
 -2       899       979       916      3781      3782      3575
 -1      1852    8    0    1
 -2       828       816       980      3597      3783      3784
 -1      1853    8    0    1
 -2       929       828       980      3620      3784      3785
 -1      1854    8    0    1
 -2       816       909       980      3551      3786      3783
 -1      1855    8    0    1
 -2       824       834       981      3571      3787      3788
 -1      1856    8    0    1
 -2       834       978       981      3779      3789      3787
 -1      1857    8    0    1
 -2       900       859       978      3526      3790      3778
 -1      1858    8    0    1
 -2       868       869       982      3434      3791      3792
 -1      1859    8    0    1
 -2       868       982       956      3792      3793      3702
 -1      1860    8    0    1
 -2       822       832       895      3324      3794      3513
 -1      1861    8    0    1
 -2       836       906       983      3603      3795      3796
 -1      1862    8    0    1
 -2       836       983       930      3796      3797      3625
 -1      1863    8    0    1
 -2       906       917       983      3693      3798      3795
 -1      1864    8    0    1
 -2       886       926       827      3753      3624      3799
 -1      1865    8    0    1
 -2       914       889       972      3755      3758      3777
 -1      1866    8    0    1
 -2       886       827       902      3799      3602      3750
 -1      1867    8    0    1
 -2       915       819       984      3568      3800      3801
 -1      1868    8    0    1
 -2       819       922       984      3596      3802      3800
 -1      1869    8    0    1
 -2       910       803       923      3553      3601      3803
 -1      1870    8    0    1
 -2       859       952       978      3691      3804      3790
 -1      1871    8    0    1
 -2       912       815       985      3560      3805      3806
 -1      1872    8    0    1
 -2       815       911       985      3559      3807      3805
 -1      1873    8    0    1
 -2       913       901       986      3563      3808      3809
 -1      1874    8    0    1
 -2       901       927       986      3616      3810      3808
 -1      1875    8    0    1
 -2       954       904       987      3696      3811      3812
 -1      1876    8    0    1
 -2       904       925       987      3610      3813      3811
 -1      1877    8    0    1
 -2       831       915       988      3570      3814      3815
 -1      1878    8    0    1
 -2       831       988       927      3815      3816      3617
 -1      1879    8    0    1
 -2       869       958       982      3708      3817      3791
 -1      1880    8    0    1
 -2       953       864       989      3694      3818      3819
 -1      1881    8    0    1
 -2       864       907       989      3544      3820      3818
 -1      1882    8    0    1
 -2       897       910       990      3555      3821      3822
 -1      1883    8    0    1
 -2       979       905       912      3780      3562      3823
 -1      1884    8    0    1
 -2       919       903       991      3586      3824      3825
 -1      1885    8    0    1
 -2       920       865       992      3587      3826      3827
 -1      1886    8    0    1
 -2       865       953       992      3695      3828      3826
 -1      1887    8    0    1
 -2       898       896       993      3520      3829      3830
 -1      1888    8    0    1
 -2       866       957       994      3705      3831      3832
 -1      1889    8    0    1
 -2       866       994       907      3832      3833      3545
 -1      1890    8    0    1
 -2       885       902       995      3751      3834      3835
 -1      1891    8    0    1
 -2       884       885       995      3482      3835      3836
 -1      1892    8    0    1
 -2       926       888       914      3754      3756      3623
 -1      1893    8    0    1
 -2       835       972       973      3772      3761      3837
 -1      1894    8    0    1
 -2       976       894       921      3768      3838      3839
 -1      1895    8    0    1
 -2       894       895       921      3512      3840      3838
 -1      1896    8    0    1
 -2       896       756       863      3514      3614      3841
 -1      1897    8    0    1
 -2       863       861       993      3417      3842      3843
 -1      1898    8    0    1
 -2       921       897       996      3591      3844      3845
 -1      1899    8    0    1
 -2       921       996       976      3845      3846      3839
 -1      1900    8    0    1
 -2       917       918       997      3583      3847      3848
 -1      1901    8    0    1
 -2       983       917       997      3798      3848      3849
 -1      1902    8    0    1
 -2       918       977       997      3775      3850      3847
 -1      1903    8    0    1
 -2       922       824       998      3594      3851      3852
 -1      1904    8    0    1
 -2       824       981       998      3788      3853      3851
 -1      1905    8    0    1
 -2       923       898       999      3599      3854      3855
 -1      1906    8    0    1
 -2       898       993       999      3830      3856      3854
 -1      1907    8    0    1
 -2       977       928      1000      3776      3857      3858
 -1      1908    8    0    1
 -2       832       921       895      3593      3840      3794
 -1      1909    8    0    1
 -2       897       990       996      3822      3859      3844
 -1      1910    8    0    1
 -2       863       993       896      3843      3829      3841
 -1      1911    8    0    1
 -2       903       924      1001      3607      3860      3861
 -1      1912    8    0    1
 -2       903      1001       991      3861      3862      3824
 -1      1913    8    0    1
 -2       928       929      1002      3622      3863      3864
 -1      1914    8    0    1
 -2       928      1002      1000      3864      3865      3857
 -1      1915    8    0    1
 -2       861       916       993      3574      3866      3842
 -1      1916    8    0    1
 -2       902       829       995      3604      3867      3834
 -1      1917    8    0    1
 -2       911       835       973      3557      3837      3868
 -1      1918    8    0    1
 -2       932       931      1003      3632      3869      3870
 -1      1919    8    0    1
 -2       933       932      1004      3635      3871      3872
 -1      1920    8    0    1
 -2       932      1003      1004      3870      3873      3871
 -1      1921    8    0    1
 -2       934       933      1005      3638      3874      3875
 -1      1922    8    0    1
 -2       933      1004      1005      3872      3876      3874
 -1      1923    8    0    1
 -2       935       934      1006      3641      3877      3878
 -1      1924    8    0    1
 -2       934      1005      1006      3875      3879      3877
 -1      1925    8    0    1
 -2       936       935      1007      3644      3880      3881
 -1      1926    8    0    1
 -2       935      1006      1007      3878      3882      3880
 -1      1927    8    0    1
 -2       937       936      1008      3647      3883      3884
 -1      1928    8    0    1
 -2       936      1007      1008      3881      3885      3883
 -1      1929    8    0    1
 -2       938       937      1009      3650      3886      3887
 -1      1930    8    0    1
 -2       937      1008      1009      3884      3888      3886
 -1      1931    8    0    1
 -2       939       938      1010      3653      3889      3890
 -1      1932    8    0    1
 -2       938      1009      1010      3887      3891      3889
 -1      1933    8    0    1
 -2       940       939      1011      3656      3892      3893
 -1      1934    8    0    1
 -2       939      1010      1011      3890      3894      3892
 -1      1935    8    0    1
 -2       941       940      1012      3659      3895      3896
 -1      1936    8    0    1
 -2       940      1011      1012      3893      3897      3895
 -1      1937    8    0    1
 -2       942       941      1013      3662      3898      3899
 -1      1938    8    0    1
 -2       941      1012      1013      3896      3900      3898
 -1      1939    8    0    1
 -2       943       942      1014      3665      3901      3902
 -1      1940    8    0    1
 -2       942      1013      1014      3899      3903      3901
 -1      1941    8    0    1
 -2       944       943      1015      3668      3904      3905
 -1      1942    8    0    1
 -2       943      1014      1015      3902      3906      3904
 -1      1943    8    0    1
 -2       945       944      1016      3671      3907      3908
 -1      1944    8    0    1
 -2       944      1015      1016      3905      3909      3907
 -1      1945    8    0    1
 -2       946       945      1017      3674      3910      3911
 -1      1946    8    0    1
 -2       945      1016      1017      3908      3912      3910
 -1      1947    8    0    1
 -2       947       946      1018      3677      3913      3914
 -1      1948    8    0    1
 -2       946      1017      1018      3911      3915      3913
 -1      1949    8    0    1
 -2       948       947      1019      3680      3916      3917
 -1      1950    8    0    1
 -2       947      1018      1019      3914      3918      3916
 -1      1951    8    0    1
 -2       949       948      1020      3683      3919      3920
 -1      1952    8    0    1
 -2       948      1019      1020      3917      3921      3919
 -1      1953    8    0    1
 -2       950       949      1021      3686      3922      3923
 -1      1954    8    0    1
 -2       949      1020      1021      3920      3924      3922
 -1      1955    8    0    1
 -2       951       950      1022      3689      3925      3926
 -1      1956    8    0    1
 -2       950      1021      1022      3923      3927      3925
 -1      1957    8    0    1
 -2       952       951      1023      3692      3928      3929
 -1      1958    8    0    1
 -2       951      1022      1023      3926      3930      3928
 -1      1959    8    0    1
 -2       979       912      1024      3823      3931      3932
 -1      1960    8    0    1
 -2       908       954       980      3697      3933      3934
 -1      1961    8    0    1
 -2       957       956      1025      3706      3935      3936
 -1      1962    8    0    1
 -2       911       973      1026      3868      3937      3938
 -1      1963    8    0    1
 -2       985       911      1026      3807      3938      3939
 -1      1964    8    0    1
 -2       973       974      1026      3764      3940      3937
 -1      1965    8    0    1
 -2       959       960      1027      3714      3941      3942
 -1      1966    8    0    1
 -2       958       959      1028      3711      3943      3944
 -1      1967    8    0    1
 -2       959      1027      1028      3942      3945      3943
 -1      1968    8    0    1
 -2       961       962      1029      3720      3946      3947
 -1      1969    8    0    1
 -2       962       963      1030      3723      3948      3949
 -1      1970    8    0    1
 -2       962      1030      1029      3949      3950      3946
 -1      1971    8    0    1
 -2       963       964      1031      3726      3951      3952
 -1      1972    8    0    1
 -2       963      1031      1030      3952      3953      3948
 -1      1973    8    0    1
 -2       964       965      1032      3729      3954      3955
 -1      1974    8    0    1
 -2       964      1032      1031      3955      3956      3951
 -1      1975    8    0    1
 -2       965       966      1033      3732      3957      3958
 -1      1976    8    0    1
 -2       965      1033      1032      3958      3959      3954
 -1      1977    8    0    1
 -2       966       967      1034      3735      3960      3961
 -1      1978    8    0    1
 -2       966      1034      1033      3961      3962      3957
 -1      1979    8    0    1
 -2       967       968      1035      3738      3963      3964
 -1      1980    8    0    1
 -2       967      1035      1034      3964      3965      3960
 -1      1981    8    0    1
 -2       968       969      1036      3741      3966      3967
 -1      1982    8    0    1
 -2       968      1036      1035      3967      3968      3963
 -1      1983    8    0    1
 -2       970       971       988      3747      3969      3970
 -1      1984    8    0    1
 -2       883       913       971      3749      3971      3745
 -1      1985    8    0    1
 -2       975       976       996      3770      3846      3972
 -1      1986    8    0    1
 -2       995       829       913      3867      3565      3973
 -1      1987    8    0    1
 -2       930       983      1037      3797      3974      3975
 -1      1988    8    0    1
 -2       993       916       999      3866      3976      3856
 -1      1989    8    0    1
 -2       974       975      1038      3767      3977      3978
 -1      1990    8    0    1
 -2      1026       974      1038      3940      3978      3979
 -1      1991    8    0    1
 -2       975       996      1038      3972      3980      3977
 -1      1992    8    0    1
 -2       996       990      1038      3859      3981      3980
 -1      1993    8    0    1
 -2       960       961      1039      3717      3982      3983
 -1      1994    8    0    1
 -2       961      1029      1039      3947      3984      3982
 -1      1995    8    0    1
 -2       924       920      1040      3608      3985      3986
 -1      1996    8    0    1
 -2       920       992      1040      3827      3987      3985
 -1      1997    8    0    1
 -2       956       982      1041      3793      3988      3989
 -1      1998    8    0    1
 -2       956      1041      1025      3989      3990      3935
 -1      1999    8    0    1
 -2       978       952      1042      3804      3991      3992
 -1      2000    8    0    1
 -2       981       978      1042      3789      3992      3993
 -1      2001    8    0    1
 -2       952      1023      1042      3929      3994      3991
 -1      2002    8    0    1
 -2       916       979       999      3782      3995      3976
 -1      2003    8    0    1
 -2       977      1000       997      3858      3996      3850
 -1      2004    8    0    1
 -2       982       958      1043      3817      3997      3998
 -1      2005    8    0    1
 -2       958      1028      1043      3944      3999      3997
 -1      2006    8    0    1
 -2       909       908       980      3552      3934      3786
 -1      2007    8    0    1
 -2       919       991      1044      3825      4000      4001
 -1      2008    8    0    1
 -2       919      1044       955      4001      4002      3701
 -1      2009    8    0    1
 -2       910       923      1045      3803      4003      4004
 -1      2010    8    0    1
 -2       990       910      1045      3821      4004      4005
 -1      2011    8    0    1
 -2       923       999      1045      3855      4006      4003
 -1      2012    8    0    1
 -2       980       954       929      3933      4007      3785
 -1      2013    8    0    1
 -2       931       930      1046      3629      4008      4009
 -1      2014    8    0    1
 -2       930      1037      1046      3975      4010      4008
 -1      2015    8    0    1
 -2       929       954      1002      4007      4011      3863
 -1      2016    8    0    1
 -2       994       957      1047      3831      4012      4013
 -1      2017    8    0    1
 -2       957      1025      1047      3936      4014      4012
 -1      2018    8    0    1
 -2      1003       931      1046      3869      4009      4015
 -1      2019    8    0    1
 -2      1027       960      1039      3941      3983      4016
 -1      2020    8    0    1
 -2       979      1024       999      3932      4017      3995
 -1      2021    8    0    1
 -2      1024       912       985      3931      3806      4018
 -1      2022    8    0    1
 -2       988       915      1048      3814      4019      4020
 -1      2023    8    0    1
 -2       915       984      1048      3801      4021      4019
 -1      2024    8    0    1
 -2       992       953      1049      3828      4022      4023
 -1      2025    8    0    1
 -2       989       907       994      3820      3833      4024
 -1      2026    8    0    1
 -2      1044       991      1050      4000      4025      4026
 -1      2027    8    0    1
 -2       925       955      1051      3700      4027      4028
 -1      2028    8    0    1
 -2       987       925      1051      3813      4028      4029
 -1      2029    8    0    1
 -2       955      1044      1051      4002      4030      4027
 -1      2030    8    0    1
 -2      1000      1002      1052      3865      4031      4032
 -1      2031    8    0    1
 -2      1001       924      1040      3860      3986      4033
 -1      2032    8    0    1
 -2       970       988      1053      3970      4034      4035
 -1      2033    8    0    1
 -2       969       970      1053      3744      4035      4036
 -1      2034    8    0    1
 -2       988      1048      1053      4020      4037      4034
 -1      2035    8    0    1
 -2      1036       969      1053      3966      4036      4038
 -1      2036    8    0    1
 -2       988       971       927      3969      4039      3816
 -1      2037    8    0    1
 -2      1038       990      1054      3981      4040      4041
 -1      2038    8    0    1
 -2      1026      1038      1054      3979      4041      4042
 -1      2039    8    0    1
 -2       990      1045      1054      4005      4043      4040
 -1      2040    8    0    1
 -2       913       884       995      3748      3836      3973
 -1      2041    8    0    1
 -2       983       997      1037      3849      4044      3974
 -1      2042    8    0    1
 -2       991      1001      1055      3862      4045      4046
 -1      2043    8    0    1
 -2       991      1055      1050      4046      4047      4025
 -1      2044    8    0    1
 -2       997      1000      1056      3996      4048      4049
 -1      2045    8    0    1
 -2      1037       997      1056      4044      4049      4050
 -1      2046    8    0    1
 -2      1000      1052      1056      4032      4051      4048
 -1      2047    8    0    1
 -2       922       998      1057      3852      4052      4053
 -1      2048    8    0    1
 -2       922      1057       984      4053      4054      3802
 -1      2049    8    0    1
 -2       982      1043      1041      3998      4055      3988
 -1      2050    8    0    1
 -2      1049       953      1058      4022      4056      4057
 -1      2051    8    0    1
 -2       953       989      1058      3819      4058      4056
 -1      2052    8    0    1
 -2       954       987      1002      3812      4059      4011
 -1      2053    8    0    1
 -2       998       981      1042      3853      3993      4060
 -1      2054    8    0    1
 -2      1005      1004      1059      3876      4061      4062
 -1      2055    8    0    1
 -2      1006      1005      1060      3879      4063      4064
 -1      2056    8    0    1
 -2      1005      1059      1060      4062      4065      4063
 -1      2057    8    0    1
 -2      1007      1006      1061      3882      4066      4067
 -1      2058    8    0    1
 -2      1006      1060      1061      4064      4068      4066
 -1      2059    8    0    1
 -2      1008      1007      1062      3885      4069      4070
 -1      2060    8    0    1
 -2      1007      1061      1062      4067      4071      4069
 -1      2061    8    0    1
 -2      1009      1008      1063      3888      4072      4073
 -1      2062    8    0    1
 -2      1008      1062      1063      4070      4074      4072
 -1      2063    8    0    1
 -2      1010      1009      1064      3891      4075      4076
 -1      2064    8    0    1
 -2      1009      1063      1064      4073      4077      4075
 -1      2065    8    0    1
 -2      1011      1010      1065      3894      4078      4079
 -1      2066    8    0    1
 -2      1010      1064      1065      4076      4080      4078
 -1      2067    8    0    1
 -2      1012      1011      1066      3897      4081      4082
 -1      2068    8    0    1
 -2      1011      1065      1066      4079      4083      4081
 -1      2069    8    0    1
 -2      1013      1012      1067      3900      4084      4085
 -1      2070    8    0    1
 -2      1012      1066      1067      4082      4086      4084
 -1      2071    8    0    1
 -2      1014      1013      1068      3903      4087      4088
 -1      2072    8    0    1
 -2      1013      1067      1068      4085      4089      4087
 -1      2073    8    0    1
 -2      1015      1014      1069      3906      4090      4091
 -1      2074    8    0    1
 -2      1014      1068      1069      4088      4092      4090
 -1      2075    8    0    1
 -2      1016      1015      1070      3909      4093      4094
 -1      2076    8    0    1
 -2      1015      1069      1070      4091      4095      4093
 -1      2077    8    0    1
 -2      1017      1016      1071      3912      4096      4097
 -1      2078    8    0    1
 -2      1016      1070      1071      4094      4098      4096
 -1      2079    8    0    1
 -2      1018      1017      1072      3915      4099      4100
 -1      2080    8    0    1
 -2      1017      1071      1072      4097      4101      4099
 -1      2081    8    0    1
 -2      1019      1018      1073      3918      4102      4103
 -1      2082    8    0    1
 -2      1018      1072      1073      4100      4104      4102
 -1      2083    8    0    1
 -2      1020      1019      1074      3921      4105      4106
 -1      2084    8    0    1
 -2      1019      1073      1074      4103      4107      4105
 -1      2085    8    0    1
 -2      1021      1020      1075      3924      4108      4109
 -1      2086    8    0    1
 -2      1020      1074      1075      4106      4110      4108
 -1      2087    8    0    1
 -2      1022      1021      1076      3927      4111      4112
 -1      2088    8    0    1
 -2      1021      1075      1076      4109      4113      4111
 -1      2089    8    0    1
 -2      1023      1022      1077      3930      4114      4115
 -1      2090    8    0    1
 -2      1022      1076      1077      4112      4116      4114
 -1      2091    8    0    1
 -2       989       994      1078      4024      4117      4118
 -1      2092    8    0    1
 -2       994      1047      1078      4013      4119      4117
 -1      2093    8    0    1
 -2      1027      1039      1079      4016      4120      4121
 -1      2094    8    0    1
 -2       992      1049      1080      4023      4122      4123
 -1      2095    8    0    1
 -2       992      1080      1040      4123      4124      3987
 -1      2096    8    0    1
 -2      1003      1046      1081      4015      4125      4126
 -1      2097    8    0    1
 -2      1001      1040      1082      4033      4127      4128
 -1      2098    8    0    1
 -2      1055      1001      1082      4045      4128      4129
 -1      2099    8    0    1
 -2      1040      1080      1082      4124      4130      4127
 -1      2100    8    0    1
 -2       985      1026      1054      3939      4042      4131
 -1      2101    8    0    1
 -2      1025      1041      1083      3990      4132      4133
 -1      2102    8    0    1
 -2      1044      1050      1084      4026      4134      4135
 -1      2103    8    0    1
 -2      1044      1084      1051      4135      4136      4030
 -1      2104    8    0    1
 -2      1028      1027      1085      3945      4137      4138
 -1      2105    8    0    1
 -2      1027      1079      1085      4121      4139      4137
 -1      2106    8    0    1
 -2      1030      1031      1086      3953      4140      4141
 -1      2107    8    0    1
 -2      1029      1030      1087      3950      4142      4143
 -1      2108    8    0    1
 -2      1030      1086      1087      4141      4144      4142
 -1      2109    8    0    1
 -2      1032      1033      1088      3959      4145      4146
 -1      2110    8    0    1
 -2      1033      1034      1089      3962      4147      4148
 -1      2111    8    0    1
 -2      1033      1089      1088      4148      4149      4145
 -1      2112    8    0    1
 -2      1034      1035      1090      3965      4150      4151
 -1      2113    8    0    1
 -2      1034      1090      1089      4151      4152      4147
 -1      2114    8    0    1
 -2      1035      1036      1091      3968      4153      4154
 -1      2115    8    0    1
 -2      1035      1091      1090      4154      4155      4150
 -1      2116    8    0    1
 -2      1036      1053      1092      4038      4156      4157
 -1      2117    8    0    1
 -2      1053      1048      1092      4037      4158      4156
 -1      2118    8    0    1
 -2      1031      1032      1093      3956      4159      4160
 -1      2119    8    0    1
 -2      1086      1031      1093      4140      4160      4161
 -1      2120    8    0    1
 -2      1032      1088      1093      4146      4162      4159
 -1      2121    8    0    1
 -2       999      1024      1045      4017      4163      4006
 -1      2122    8    0    1
 -2      1039      1029      1094      3984      4164      4165
 -1      2123    8    0    1
 -2      1029      1087      1094      4143      4166      4164
 -1      2124    8    0    1
 -2      1041      1043      1095      4055      4167      4168
 -1      2125    8    0    1
 -2      1041      1095      1083      4168      4169      4132
 -1      2126    8    0    1
 -2       927       971       986      4039      4170      3810
 -1      2127    8    0    1
 -2      1042      1023      1096      3994      4171      4172
 -1      2128    8    0    1
 -2      1023      1077      1096      4115      4173      4171
 -1      2129    8    0    1
 -2       998      1042      1096      4060      4172      4174
 -1      2130    8    0    1
 -2      1043      1028      1097      3999      4175      4176
 -1      2131    8    0    1
 -2      1095      1043      1097      4167      4176      4177
 -1      2132    8    0    1
 -2      1028      1085      1097      4138      4178      4175
 -1      2133    8    0    1
 -2      1045      1024      1054      4163      4179      4043
 -1      2134    8    0    1
 -2      1046      1037      1098      4010      4180      4181
 -1      2135    8    0    1
 -2      1081      1046      1098      4125      4181      4182
 -1      2136    8    0    1
 -2      1037      1056      1098      4050      4183      4180
 -1      2137    8    0    1
 -2      1002       987      1099      4059      4184      4185
 -1      2138    8    0    1
 -2      1052      1002      1099      4031      4185      4186
 -1      2139    8    0    1
 -2       987      1051      1099      4029      4187      4184
 -1      2140    8    0    1
 -2      1004      1003      1100      3873      4188      4189
 -1      2141    8    0    1
 -2      1003      1081      1100      4126      4190      4188
 -1      2142    8    0    1
 -2       989      1078      1058      4118      4191      4058
 -1      2143    8    0    1
 -2      1048       984      1092      4021      4192      4158
 -1      2144    8    0    1
 -2      1080      1049      1101      4122      4193      4194
 -1      2145    8    0    1
 -2      1079      1039      1094      4120      4165      4195
 -1      2146    8    0    1
 -2      1052      1099      1102      4186      4196      4197
 -1      2147    8    0    1
 -2      1004      1100      1059      4189      4198      4061
 -1      2148    8    0    1
 -2      1036      1092      1091      4157      4199      4153
 -1      2149    8    0    1
 -2       971       913       986      3971      3809      4170
 -1      2150    8    0    1
 -2      1084      1050      1103      4134      4200      4201
 -1      2151    8    0    1
 -2      1056      1052      1102      4051      4197      4202
 -1      2152    8    0    1
 -2      1050      1055      1104      4047      4203      4204
 -1      2153    8    0    1
 -2      1050      1104      1103      4204      4205      4200
 -1      2154    8    0    1
 -2      1057       998      1096      4052      4174      4206
 -1      2155    8    0    1
 -2      1092       984      1057      4192      4054      4207
 -1      2156    8    0    1
 -2      1049      1058      1105      4057      4208      4209
 -1      2157    8    0    1
 -2      1049      1105      1101      4209      4210      4193
 -1      2158    8    0    1
 -2      1025      1083      1106      4133      4211      4212
 -1      2159    8    0    1
 -2      1025      1106      1047      4212      4213      4014
 -1      2160    8    0    1
 -2      1024       985      1054      4018      4131      4179
 -1      2161    8    0    1
 -2      1100      1081      1103      4190      4214      4215
 -1      2162    8    0    1
 -2      1100      1103      1104      4215      4205      4216
 -1      2163    8    0    1
 -2      1061      1060      1107      4068      4217      4218
 -1      2164    8    0    1
 -2      1062      1061      1101      4071      4219      4220
 -1      2165    8    0    1
 -2      1063      1062      1105      4074      4221      4222
 -1      2166    8    0    1
 -2      1065      1064      1108      4080      4223      4224
 -1      2167    8    0    1
 -2      1066      1065      1106      4083      4225      4226
 -1      2168    8    0    1
 -2      1067      1066      1083      4086      4227      4228
 -1      2169    8    0    1
 -2      1068      1067      1095      4089      4229      4230
 -1      2170    8    0    1
 -2      1069      1068      1097      4092      4231      4232
 -1      2171    8    0    1
 -2      1070      1069      1085      4095      4233      4234
 -1      2172    8    0    1
 -2      1071      1070      1079      4098      4235      4236
 -1      2173    8    0    1
 -2      1072      1071      1094      4101      4237      4238
 -1      2174    8    0    1
 -2      1073      1072      1087      4104      4239      4240
 -1      2175    8    0    1
 -2      1074      1073      1086      4107      4241      4242
 -1      2176    8    0    1
 -2      1075      1074      1093      4110      4243      4244
 -1      2177    8    0    1
 -2      1076      1075      1088      4113      4245      4246
 -1      2178    8    0    1
 -2      1077      1076      1089      4116      4247      4248
 -1      2179    8    0    1
 -2      1078      1047      1108      4119      4249      4250
 -1      2180    8    0    1
 -2      1079      1094      1071      4195      4237      4236
 -1      2181    8    0    1
 -2      1102      1099      1084      4196      4251      4252
 -1      2182    8    0    1
 -2      1059      1100      1104      4198      4216      4253
 -1      2183    8    0    1
 -2      1103      1081      1102      4214      4254      4255
 -1      2184    8    0    1
 -2      1099      1051      1084      4187      4136      4251
 -1      2185    8    0    1
 -2      1079      1070      1085      4235      4234      4139
 -1      2186    8    0    1
 -2      1087      1086      1073      4144      4241      4240
 -1      2187    8    0    1
 -2      1084      1103      1102      4201      4255      4252
 -1      2188    8    0    1
 -2      1083      1095      1067      4169      4229      4228
 -1      2189    8    0    1
 -2      1089      1090      1077      4152      4256      4248
 -1      2190    8    0    1
 -2      1088      1089      1076      4149      4247      4246
 -1      2191    8    0    1
 -2      1085      1069      1097      4233      4232      4178
 -1      2192    8    0    1
 -2      1080      1101      1107      4194      4257      4258
 -1      2193    8    0    1
 -2      1083      1066      1106      4227      4226      4211
 -1      2194    8    0    1
 -2      1094      1087      1072      4166      4239      4238
 -1      2195    8    0    1
 -2      1088      1075      1093      4245      4244      4162
 -1      2196    8    0    1
 -2      1058      1078      1109      4191      4259      4260
 -1      2197    8    0    1
 -2      1105      1058      1109      4208      4260      4261
 -1      2198    8    0    1
 -2      1078      1108      1109      4250      4262      4259
 -1      2199    8    0    1
 -2      1096      1077      1090      4173      4256      4263
 -1      2200    8    0    1
 -2      1060      1059      1110      4065      4264      4265
 -1      2201    8    0    1
 -2      1107      1060      1110      4217      4265      4266
 -1      2202    8    0    1
 -2      1059      1104      1110      4253      4267      4264
 -1      2203    8    0    1
 -2      1091      1092      1057      4199      4207      4268
 -1      2204    8    0    1
 -2      1101      1061      1107      4219      4218      4257
 -1      2205    8    0    1
 -2      1062      1101      1105      4220      4210      4221
 -1      2206    8    0    1
 -2      1068      1095      1097      4230      4177      4231
 -1      2207    8    0    1
 -2      1074      1086      1093      4242      4161      4243
 -1      2208    8    0    1
 -2      1096      1090      1091      4263      4155      4269
 -1      2209    8    0    1
 -2      1091      1057      1096      4268      4206      4269
 -1      2210    8    0    1
 -2      1063      1105      1109      4222      4261      4270
 -1      2211    8    0    1
 -2      1065      1108      1106      4224      4271      4225
 -1      2212    8    0    1
 -2      1064      1063      1109      4077      4270      4272
 -1      2213    8    0    1
 -2      1047      1106      1108      4213      4271      4249
 -1      2214    8    0    1
 -2      1102      1081      1098      4254      4182      4273
 -1      2215    8    0    1
 -2      1055      1082      1110      4129      4274      4275
 -1      2216    8    0    1
 -2      1055      1110      1104      4275      4267      4203
 -1      2217    8    0    1
 -2      1056      1102      1098      4202      4273      4183
 -1      2218    8    0    1
 -2      1082      1080      1107      4130      4258      4276
 -1      2219    8    0    1
 -2      1064      1109      1108      4272      4262      4223
 -1      2220    8    0    1
 -2      1107      1110      1082      4266      4274      4276
 -3
    1PSTEP                         1           1           1          
  100CL  101 1.000000000        4276                     0    1           1
 -4  DISP        4    1
 -5  D1          1    2    1    0
 -5  D2          1    2    2    0
 -5  D3          1    2    3    0
 -5  ALL         1    2    0    0    1ALL
 -1         1 1.18550E-02-1.91558E-03-2.88342E-14
 -1         2 1.35648E-02-9.28761E-04-3.05203E-14
 -1         3 1.39521E-02-1.35610E-03-4.16498E-14
 -1         4 1.63836E-02-2.54707E-03-4.58561E-14
 -1         5 0.00000E+00 0.00000E+00 0.00000E+00
 -1         6 0.00000E+00 0.00000E+00 0.00000E+00
 -1         7 0.00000E+00 0.00000E+00 0.00000E+00
 -1         8 0.00000E+00 0.00000E+00 0.00000E+00
 -1         9 0.00000E+00 0.00000E+00 0.00000E+00
 -1        10 0.00000E+00 0.00000E+00 0.00000E+00
 -1        11 0.00000E+00 0.00000E+00 0.00000E+00
 -1        12 0.00000E+00 0.00000E+00 0.00000E+00
 -1        13 0.00000E+00 0.00000E+00 0.00000E+00
 -1        14 0.00000E+00 0.00000E+00 0.00000E+00
 -1        15 0.00000E+00 0.00000E+00 0.00000E+00
 -1        16 0.00000E+00 0.00000E+00 0.00000E+00
 -1        17 0.00000E+00 0.00000E+00 0.00000E+00
 -1        18 0.00000E+00 0.00000E+00 0.00000E+00
 -1        19 0.00000E+00 0.00000E+00 0.00000E+00
 -1        20 0.00000E+00 0.00000E+00 0.00000E+00
 -1        21 0.00000E+00 0.00000E+00 0.00000E+00
 -1        22 0.00000E+00 0.00000E+00 0.00000E+00
 -1        23 4.11390E-04-2.60743E-04-1.31798E-18
 -1        24 7.03381E-04-4.00997E-04-7.38748E-17
 -1        25 9.73455E-04-4.98382E-04-2.13490E-16
 -1        26 1.23795E-03-5.67131E-04-4.16635E-16
 -1        27 1.50148E-03-6.16386E-04-6.81997E-16
 -1        28 1.76614E-03-6.51532E-04-1.00602E-15
 -1        29 2.03289E-03-6.76275E-04-1.38766E-15
 -1        30 2.30209E-03-6.93309E-04-1.82677E-15
 -1        31 2.57379E-03-7.04648E-04-2.32443E-15
 -1        32 2.84786E-03-7.11813E-04-2.87632E-15
 -1        33 3.13792E-03-7.16090E-04-3.50988E-15
 -1        34 3.41607E-03-7.17952E-04-4.15880E-15
 -1        35 3.69581E-03-7.18278E-04-4.84735E-15
 -1        36 3.97687E-03-7.17495E-04-5.57826E-15
 -1        37 4.25905E-03-7.15889E-04-6.34877E-15
 -1        38 4.54218E-03-7.13633E-04-7.16218E-15
 -1        39 4.82616E-03-7.10816E-04-8.00882E-15
 -1        40 5.11096E-03-7.07461E-04-8.88734E-15
 -1        41 5.39663E-03-7.03542E-04-9.79875E-15
 -1        42 5.68333E-03-6.99007E-04-1.07379E-14
 -1        43 5.97135E-03-6.93790E-04-1.17051E-14
 -1        44 6.27571E-03-6.87520E-04-1.27478E-14
 -1        45 6.56817E-03-6.80805E-04-1.37650E-14
 -1        46 6.86426E-03-6.73494E-04-1.47999E-14
 -1        47 7.16557E-03-6.65960E-04-1.58476E-14
 -1        48 7.47439E-03-6.59029E-04-1.69147E-14
 -1        49 7.79403E-03-6.54360E-04-1.80007E-14
 -1        50 8.12915E-03-6.55110E-04-1.91054E-14
 -1        51 8.48601E-03-6.67067E-04-2.02316E-14
 -1        52 8.87230E-03-7.00400E-04-2.13852E-14
 -1        53 9.29553E-03-7.71858E-04-2.25582E-14
 -1        54 9.75820E-03-9.05815E-04-2.37386E-14
 -1        55 1.02727E-02-1.14341E-03-2.49874E-14
 -1        56 1.07491E-02-1.47045E-03-2.61683E-14
 -1        57 1.11513E-02-1.84414E-03-2.73194E-14
 -1        58 1.14081E-02-2.10182E-03-2.82867E-14
 -1        59 1.16401E-02-2.21339E-03-2.93849E-14
 -1        60 1.19022E-02-2.11830E-03-3.04829E-14
 -1        61 1.22771E-02-1.90281E-03-3.16445E-14
 -1        62 1.27622E-02-1.70065E-03-3.28919E-14
 -1        63 1.32495E-02-1.60268E-03-3.41166E-14
 -1        64 1.37152E-02-1.59800E-03-3.53790E-14
 -1        65 1.41413E-02-1.66098E-03-3.66696E-14
 -1        66 1.45276E-02-1.76536E-03-3.79860E-14
 -1        67 1.48806E-02-1.89187E-03-3.93057E-14
 -1        68 1.52079E-02-2.02794E-03-4.06214E-14
 -1        69 1.55162E-02-2.16550E-03-4.19344E-14
 -1        70 1.58113E-02-2.29927E-03-4.32490E-14
 -1        71 1.60984E-02-2.42611E-03-4.45648E-14
 -1        72 4.13840E-04 2.61448E-04 4.55433E-17
 -1        73 7.03210E-04 4.03709E-04 5.66496E-17
 -1        74 9.73986E-04 5.00158E-04 3.03475E-17
 -1        75 1.23877E-03 5.68837E-04-3.73609E-17
 -1        76 1.50244E-03 6.18145E-04-1.50115E-16
 -1        77 1.76717E-03 6.53381E-04-3.09367E-16
 -1        78 2.03396E-03 6.78233E-04-5.14088E-16
 -1        79 2.30319E-03 6.95387E-04-7.60358E-16
 -1        80 2.57491E-03 7.06852E-04-1.05083E-15
 -1        81 2.84900E-03 7.14146E-04-1.39083E-15
 -1        82 3.12522E-03 7.18415E-04-1.78059E-15
 -1        83 3.40332E-03 7.20510E-04-2.21763E-15
 -1        84 3.68303E-03 7.21055E-04-2.69644E-15
 -1        85 3.96409E-03 7.20496E-04-3.21992E-15
 -1        86 4.24631E-03 7.19141E-04-3.78910E-15
 -1        87 4.52952E-03 7.17196E-04-4.40139E-15
 -1        88 4.81361E-03 7.14797E-04-5.05533E-15
 -1        89 5.09855E-03 7.12032E-04-5.74486E-15
 -1        90 5.38435E-03 7.08977E-04-6.47321E-15
 -1        91 5.67109E-03 7.05715E-04-7.24973E-15
 -1        92 5.95891E-03 7.02369E-04-8.07570E-15
 -1        93 6.24799E-03 6.99135E-04-8.94838E-15
 -1        94 6.53852E-03 6.96305E-04-9.86458E-15
 -1        95 6.83069E-03 6.94298E-04-1.08215E-14
 -1        96 7.12459E-03 6.93671E-04-1.18107E-14
 -1        97 7.42011E-03 6.95101E-04-1.28390E-14
 -1        98 7.71686E-03 6.99322E-04-1.38986E-14
 -1        99 8.01401E-03 7.06981E-04-1.49745E-14
 -1       100 8.31016E-03 7.18406E-04-1.60612E-14
 -1       101 8.60331E-03 7.33257E-04-1.71660E-14
 -1       102 8.89090E-03 7.50112E-04-1.82896E-14
 -1       103 9.17022E-03 7.66075E-04-1.94151E-14
 -1       104 9.43890E-03 7.76592E-04-2.05412E-14
 -1       105 9.69569E-03 7.75697E-04-2.16725E-14
 -1       106 9.94125E-03 7.56820E-04-2.28102E-14
 -1       107 1.01784E-02 7.14113E-04-2.39640E-14
 -1       108 1.04118E-02 6.43904E-04-2.51280E-14
 -1       109 1.06469E-02 5.45710E-04-2.63058E-14
 -1       110 1.08887E-02 4.22363E-04-2.74947E-14
 -1       111 1.11406E-02 2.79171E-04-2.86979E-14
 -1       112 1.14035E-02 1.22502E-04-2.99251E-14
 -1       113 1.16766E-02-4.16433E-05-3.11691E-14
 -1       114 1.19576E-02-2.08613E-04-3.24273E-14
 -1       115 1.22436E-02-3.75502E-04-3.37078E-14
 -1       116 1.25319E-02-5.41052E-04-3.50043E-14
 -1       117 1.28207E-02-7.05270E-04-3.63121E-14
 -1       118 1.31085E-02-8.68923E-04-3.76411E-14
 -1       119 1.33951E-02-1.03303E-03-3.89863E-14
 -1       120 1.36808E-02-1.19828E-03-4.03509E-14
 -1       121 1.41156E-02-1.44052E-03-4.19126E-14
 -1       122 1.42801E-02-1.52487E-03-4.21860E-14
 -1       123 1.44462E-02-1.60829E-03-4.24510E-14
 -1       124 1.46140E-02-1.68970E-03-4.27189E-14
 -1       125 1.47828E-02-1.76787E-03-4.29831E-14
 -1       126 1.49488E-02-1.84030E-03-4.32675E-14
 -1       127 1.51158E-02-1.90836E-03-4.35719E-14
 -1       128 1.52784E-02-1.97020E-03-4.38647E-14
 -1       129 1.54337E-02-2.02618E-03-4.41355E-14
 -1       130 1.55789E-02-2.07788E-03-4.43848E-14
 -1       131 1.57122E-02-2.12812E-03-4.46293E-14
 -1       132 1.58317E-02-2.17962E-03-4.48581E-14
 -1       133 1.59436E-02-2.23785E-03-4.50719E-14
 -1       134 1.60501E-02-2.30469E-03-4.52744E-14
 -1       135 1.61568E-02-2.38073E-03-4.54591E-14
 -1       136 1.62685E-02-2.46367E-03-4.56432E-14
 -1       137 1.34505E-02-7.38384E-04-3.03520E-14
 -1       138 1.32157E-02-5.38838E-04-3.00382E-14
 -1       139 1.29276E-02-3.73321E-04-2.96687E-14
 -1       140 1.25769E-02-2.25586E-04-2.92243E-14
 -1       141 1.21131E-02-8.03507E-05-2.86366E-14
 -1       142 1.16761E-02 1.59698E-05-2.81006E-14
 -1       143 1.11846E-02 8.62113E-05-2.75050E-14
 -1       144 1.06664E-02 1.18288E-04-2.68760E-14
 -1       145 1.02196E-02 1.08505E-04-2.63509E-14
 -1       146 9.82286E-03 6.48608E-05-2.59013E-14
 -1       147 9.45925E-03-1.58647E-05-2.55113E-14
 -1       148 9.16678E-03-1.27517E-04-2.52387E-14
 -1       149 8.94552E-03-2.76558E-04-2.50789E-14
 -1       150 8.83949E-03-4.28914E-04-2.50561E-14
 -1       151 8.81996E-03-6.09050E-04-2.51508E-14
 -1       152 8.89834E-03-8.03397E-04-2.53513E-14
 -1       153 9.08509E-03-1.01845E-03-2.56723E-14
 -1       154 9.35541E-03-1.23038E-03-2.60682E-14
 -1       155 9.75735E-03-1.46395E-03-2.65827E-14
 -1       156 1.01962E-02-1.65486E-03-2.70937E-14
 -1       157 1.07506E-02-1.82383E-03-2.77025E-14
 -1       158 1.12988E-02-1.91000E-03-2.82684E-14
 -1       159 1.23152E-02-1.85566E-03-2.92958E-14
 -1       160 1.27438E-02-1.74098E-03-2.97347E-14
 -1       161 1.30693E-02-1.60582E-03-3.00764E-14
 -1       162 1.33269E-02-1.44829E-03-3.03344E-14
 -1       163 1.34969E-02-1.28135E-03-3.04964E-14
 -1       164 1.35776E-02-1.10474E-03-3.05587E-14
 -1       165 2.40408E-04-1.25523E-04-2.20195E-17
 -1       166 2.25277E-04-9.46232E-05-2.78775E-17
 -1       167 2.19523E-04-7.27800E-05-3.03475E-17
 -1       168 2.16709E-04-5.51099E-05-3.09811E-17
 -1       169 2.15220E-04-3.99702E-05-3.02967E-17
 -1       170 2.14385E-04-2.59167E-05-2.90905E-17
 -1       171 2.13966E-04-1.26444E-05-2.75489E-17
 -1       172 2.13844E-04 2.73376E-07-2.59633E-17
 -1       173 2.13985E-04 1.32035E-05-2.39778E-17
 -1       174 2.14426E-04 2.65155E-05-2.15655E-17
 -1       175 2.15269E-04 4.03966E-05-1.85297E-17
 -1       176 2.16816E-04 5.59165E-05-1.46435E-17
 -1       177 2.19678E-04 7.38187E-05-9.26654E-18
 -1       178 2.25442E-04 9.60249E-05-1.38236E-18
 -1       179 2.39337E-04 1.27596E-04 1.02694E-17
 -1       180 2.97716E-04 1.85507E-04 2.39880E-17
 -1       181 4.68632E-04-2.63561E-04-5.72154E-17
 -1       182 7.66778E-04-3.82161E-04-1.70762E-16
 -1       183 1.05063E-03-4.65047E-04-3.45373E-16
 -1       184 1.32802E-03-5.23821E-04-5.80211E-16
 -1       185 1.60262E-03-5.65504E-04-8.73464E-16
 -1       186 1.87651E-03-5.94781E-04-1.22329E-15
 -1       187 2.15081E-03-6.14952E-04-1.62935E-15
 -1       188 2.42612E-03-6.28437E-04-2.09165E-15
 -1       189 2.70271E-03-6.37042E-04-2.60812E-15
 -1       190 2.99458E-03-6.42296E-04-3.20495E-15
 -1       191 3.27387E-03-6.44739E-04-3.82035E-15
 -1       192 3.55436E-03-6.45419E-04-4.47898E-15
 -1       193 3.83591E-03-6.44846E-04-5.17834E-15
 -1       194 4.11839E-03-6.43367E-04-5.91708E-15
 -1       195 4.40172E-03-6.41196E-04-6.69737E-15
 -1       196 4.68581E-03-6.38448E-04-7.51437E-15
 -1       197 4.97065E-03-6.35163E-04-8.36521E-15
 -1       198 5.25627E-03-6.31316E-04-9.24904E-15
 -1       199 5.54278E-03-6.26843E-04-1.01640E-14
 -1       200 5.83037E-03-6.21652E-04-1.11091E-14
 -1       201 6.13387E-03-6.15316E-04-1.21287E-14
 -1       202 6.42487E-03-6.08356E-04-1.31253E-14
 -1       203 6.71847E-03-6.00473E-04-1.41440E-14
 -1       204 7.01565E-03-5.91795E-04-1.51807E-14
 -1       205 7.31775E-03-5.82746E-04-1.62340E-14
 -1       206 7.62663E-03-5.74307E-04-1.73055E-14
 -1       207 7.94473E-03-5.68520E-04-1.83933E-14
 -1       208 8.27522E-03-5.69364E-04-1.95018E-14
 -1       209 8.62193E-03-5.84233E-04-2.06334E-14
 -1       210 8.98907E-03-6.26161E-04-2.17898E-14
 -1       211 9.38025E-03-7.16295E-04-2.29584E-14
 -1       212 9.81790E-03-8.94795E-04-2.41936E-14
 -1       213 1.02547E-02-1.17277E-03-2.53701E-14
 -1       214 1.06946E-02-1.54738E-03-2.65313E-14
 -1       215 1.10521E-02-1.87283E-03-2.75034E-14
 -1       216 1.14268E-02-2.10968E-03-2.85892E-14
 -1       217 1.17944E-02-2.10967E-03-2.96856E-14
 -1       218 1.22045E-02-1.91047E-03-3.08495E-14
 -1       219 1.26612E-02-1.66517E-03-3.20915E-14
 -1       220 1.30973E-02-1.51733E-03-3.32998E-14
 -1       221 1.35155E-02-1.47612E-03-3.45384E-14
 -1       222 1.39082E-02-1.51834E-03-3.58121E-14
 -1       223 1.42753E-02-1.61352E-03-3.71105E-14
 -1       224 1.46198E-02-1.73790E-03-3.84256E-14
 -1       225 1.49458E-02-1.87582E-03-3.97415E-14
 -1       226 1.52571E-02-2.01748E-03-4.10607E-14
 -1       227 1.55574E-02-2.15660E-03-4.23872E-14
 -1       228 1.58499E-02-2.28907E-03-4.37050E-14
 -1       229 1.60600E-02-2.37852E-03-4.46840E-14
 -1       230 6.04583E-04 3.31060E-04 2.20771E-17
 -1       231 8.93687E-04 4.32701E-04-1.56023E-17
 -1       232 1.17256E-03 5.04434E-04-9.34515E-17
 -1       233 1.44692E-03 5.55517E-04-2.14733E-16
 -1       234 1.71972E-03 5.91743E-04-3.81266E-16
 -1       235 1.99262E-03 6.17104E-04-5.92659E-16
 -1       236 2.26644E-03 6.34468E-04-8.47948E-16
 -1       237 2.54159E-03 6.45960E-04-1.14816E-15
 -1       238 2.81822E-03 6.53175E-04-1.49555E-15
 -1       239 3.09631E-03 6.57307E-04-1.89042E-15
 -1       240 3.37575E-03 6.59241E-04-2.33262E-15
 -1       241 3.65643E-03 6.59621E-04-2.81777E-15
 -1       242 3.93819E-03 6.58903E-04-3.34693E-15
 -1       243 4.22090E-03 6.57399E-04-3.91925E-15
 -1       244 4.50447E-03 6.55315E-04-4.53407E-15
 -1       245 4.78881E-03 6.52779E-04-5.19014E-15
 -1       246 5.07390E-03 6.49873E-04-5.88485E-15
 -1       247 5.35977E-03 6.46660E-04-6.61685E-15
 -1       248 5.64646E-03 6.43211E-04-7.39202E-15
 -1       249 5.93409E-03 6.39633E-04-8.21821E-15
 -1       250 6.22278E-03 6.36107E-04-9.09111E-15
 -1       251 6.51268E-03 6.32914E-04-1.00035E-14
 -1       252 6.80390E-03 6.30472E-04-1.09544E-14
 -1       253 7.09649E-03 6.29346E-04-1.19396E-14
 -1       254 7.39037E-03 6.30248E-04-1.29615E-14
 -1       255 7.68523E-03 6.33978E-04-1.40154E-14
 -1       256 7.98048E-03 6.41294E-04-1.50868E-14
 -1       257 8.27513E-03 6.52679E-04-1.61718E-14
 -1       258 8.56778E-03 6.67990E-04-1.72745E-14
 -1       259 8.85669E-03 6.86007E-04-1.83946E-14
 -1       260 9.13998E-03 7.03990E-04-1.95205E-14
 -1       261 9.41603E-03 7.17416E-04-2.06518E-14
 -1       262 9.68393E-03 7.20143E-04-2.17871E-14
 -1       263 9.94402E-03 7.05201E-04-2.29281E-14
 -1       264 1.01981E-02 6.66182E-04-2.40795E-14
 -1       265 1.04493E-02 5.98851E-04-2.52400E-14
 -1       266 1.07012E-02 5.02359E-04-2.64108E-14
 -1       267 1.09574E-02 3.79478E-04-2.75938E-14
 -1       268 1.12202E-02 2.35753E-04-2.87944E-14
 -1       269 1.14904E-02 7.79594E-05-3.00174E-14
 -1       270 1.17677E-02-8.74747E-05-3.12561E-14
 -1       271 1.20505E-02-2.55568E-04-3.25141E-14
 -1       272 1.23370E-02-4.23226E-04-3.37859E-14
 -1       273 1.26254E-02-5.89136E-04-3.50778E-14
 -1       274 1.29140E-02-7.53349E-04-3.63833E-14
 -1       275 1.32021E-02-9.16747E-04-3.77130E-14
 -1       276 1.34893E-02-1.08050E-03-3.90601E-14
 -1       277 1.37755E-02-1.24550E-03-4.04225E-14
 -1       278 1.39503E-02-1.33840E-03-4.08655E-14
 -1       279 1.41158E-02-1.42173E-03-4.11330E-14
 -1       280 1.42832E-02-1.50376E-03-4.13941E-14
 -1       281 1.44523E-02-1.58371E-03-4.16647E-14
 -1       282 1.46195E-02-1.65944E-03-4.19311E-14
 -1       283 1.47891E-02-1.73273E-03-4.22118E-14
 -1       284 1.49557E-02-1.80166E-03-4.24943E-14
 -1       285 1.51164E-02-1.86615E-03-4.27708E-14
 -1       286 1.52680E-02-1.92687E-03-4.30358E-14
 -1       287 1.54078E-02-1.98534E-03-4.32924E-14
 -1       288 1.55326E-02-2.04278E-03-4.35353E-14
 -1       289 1.56476E-02-2.10368E-03-4.37672E-14
 -1       290 1.57542E-02-2.16936E-03-4.39885E-14
 -1       291 1.58578E-02-2.24124E-03-4.41983E-14
 -1       292 1.59567E-02-2.30830E-03-4.44406E-14
 -1       293 1.35392E-02-9.26972E-04-3.09645E-14
 -1       294 1.33036E-02-8.17256E-04-3.07258E-14
 -1       295 1.29673E-02-6.34581E-04-3.02207E-14
 -1       296 1.25933E-02-4.42437E-04-2.97087E-14
 -1       297 1.21236E-02-2.44543E-04-2.91493E-14
 -1       298 1.17251E-02-3.15370E-05-2.84403E-14
 -1       299 1.13259E-02 1.11089E-04-2.77772E-14
 -1       300 1.09084E-02 1.96917E-04-2.70261E-14
 -1       301 1.05201E-02 1.71949E-04-2.63756E-14
 -1       302 1.01487E-02 8.77077E-05-2.58286E-14
 -1       303 9.78900E-03-4.23854E-05-2.52957E-14
 -1       304 9.43424E-03-1.96624E-04-2.48522E-14
 -1       305 9.10543E-03-3.30708E-04-2.46174E-14
 -1       306 8.88299E-03-4.30361E-04-2.46013E-14
 -1       307 8.78858E-03-5.24878E-04-2.46042E-14
 -1       308 8.83022E-03-6.28436E-04-2.48043E-14
 -1       309 9.01687E-03-7.47519E-04-2.50524E-14
 -1       310 9.31965E-03-9.45167E-04-2.55282E-14
 -1       311 9.74569E-03-1.17580E-03-2.60306E-14
 -1       312 1.01902E-02-1.47418E-03-2.66748E-14
 -1       313 1.06959E-02-1.74926E-03-2.73185E-14
 -1       314 1.11253E-02-1.94913E-03-2.80287E-14
 -1       315 1.15601E-02-2.01686E-03-2.87140E-14
 -1       316 1.19706E-02-1.93438E-03-2.92991E-14
 -1       317 1.23631E-02-1.77347E-03-2.98512E-14
 -1       318 1.27525E-02-1.58064E-03-3.02845E-14
 -1       319 1.30914E-02-1.39876E-03-3.06338E-14
 -1       320 1.33690E-02-1.24270E-03-3.08844E-14
 -1       321 1.35509E-02-1.11869E-03-3.10214E-14
 -1       322 1.36133E-02-1.01848E-03-3.10645E-14
 -1       323 4.55398E-04-1.64800E-04-1.01309E-16
 -1       324 4.74261E-04-2.12986E-04-9.31126E-17
 -1       325 4.40448E-04-9.40199E-05-1.03978E-16
 -1       326 4.37485E-04-6.49143E-05-1.01217E-16
 -1       327 4.35863E-04-3.79071E-05-9.74799E-17
 -1       328 4.35153E-04-1.20173E-05-9.28924E-17
 -1       329 4.35183E-04 1.35377E-05-8.75527E-17
 -1       330 4.35960E-04 3.94850E-05-8.11864E-17
 -1       331 4.37626E-04 6.61435E-05-7.33463E-17
 -1       332 4.40680E-04 9.54223E-05-6.37274E-17
 -1       333 4.46064E-04 1.28337E-04-5.16250E-17
 -1       334 4.55991E-04 1.67323E-04-3.53484E-17
 -1       335 4.75883E-04 2.16988E-04-1.32544E-17
 -1       336 5.31994E-04 2.69969E-04 1.32137E-18
 -1       337 8.24488E-04 3.73489E-04-4.39508E-17
 -1       338 8.63279E-04-3.57422E-04-2.73890E-16
 -1       339 1.14964E-03-4.26173E-04-4.80630E-16
 -1       340 1.43242E-03-4.75339E-04-7.44376E-16
 -1       341 1.71314E-03-5.10059E-04-1.06368E-15
 -1       342 1.99292E-03-5.34131E-04-1.43798E-15
 -1       343 2.27252E-03-5.50372E-04-1.86685E-15
 -1       344 2.55242E-03-5.60892E-04-2.34939E-15
 -1       345 2.84690E-03-5.67504E-04-2.91100E-15
 -1       346 3.12805E-03-5.70801E-04-3.49401E-15
 -1       347 3.40992E-03-5.72038E-04-4.12107E-15
 -1       348 3.69247E-03-5.71826E-04-4.78959E-15
 -1       349 3.97567E-03-5.70583E-04-5.49862E-15
 -1       350 4.25948E-03-5.68583E-04-6.24787E-15
 -1       351 4.54386E-03-5.65978E-04-7.03371E-15
 -1       352 4.82880E-03-5.62836E-04-7.85591E-15
 -1       353 5.11431E-03-5.59151E-04-8.71352E-15
 -1       354 5.40046E-03-5.54866E-04-9.60182E-15
 -1       355 5.68736E-03-5.49889E-04-1.05218E-14
 -1       356 5.98957E-03-5.43793E-04-1.15186E-14
 -1       357 6.27857E-03-5.37043E-04-1.24948E-14
 -1       358 6.56904E-03-5.29292E-04-1.34953E-14
 -1       359 6.86141E-03-5.20562E-04-1.45168E-14
 -1       360 7.15619E-03-5.11068E-04-1.55570E-14
 -1       361 7.45404E-03-5.01416E-04-1.66162E-14
 -1       362 7.75574E-03-4.92932E-04-1.76906E-14
 -1       363 8.06223E-03-4.88254E-04-1.87800E-14
 -1       364 8.37476E-03-4.92317E-04-1.98932E-14
 -1       365 8.69530E-03-5.13905E-04-2.10288E-14
 -1       366 9.02760E-03-5.67863E-04-2.21825E-14
 -1       367 9.39720E-03-6.84713E-04-2.34071E-14
 -1       368 9.78207E-03-8.86584E-04-2.45803E-14
 -1       369 1.02127E-02-1.20765E-03-2.57440E-14
 -1       370 1.06143E-02-1.56103E-03-2.67218E-14
 -1       371 1.11427E-02-1.95955E-03-2.78916E-14
 -1       372 1.15820E-02-2.08241E-03-2.89494E-14
 -1       373 1.20523E-02-1.93530E-03-3.00809E-14
 -1       374 1.25375E-02-1.66309E-03-3.12886E-14
 -1       375 1.30070E-02-1.44412E-03-3.24881E-14
 -1       376 1.33990E-02-1.37122E-03-3.37099E-14
 -1       377 1.37552E-02-1.39245E-03-3.49651E-14
 -1       378 1.40891E-02-1.47490E-03-3.62462E-14
 -1       379 1.44089E-02-1.59282E-03-3.75497E-14
 -1       380 1.47190E-02-1.72881E-03-3.88626E-14
 -1       381 1.50218E-02-1.87178E-03-4.01826E-14
 -1       382 1.53184E-02-2.01457E-03-4.15116E-14
 -1       383 1.56101E-02-2.15230E-03-4.28460E-14
 -1       384 1.27168E-03 4.61196E-04-2.21970E-16
 -1       385 1.55260E-03 5.04073E-04-3.80342E-16
 -1       386 1.83197E-03 5.34216E-04-5.83192E-16
 -1       387 2.11084E-03 5.54969E-04-8.30370E-16
 -1       388 2.38987E-03 5.68830E-04-1.12205E-15
 -1       389 2.66942E-03 5.77671E-04-1.46031E-15
 -1       390 2.94969E-03 5.82894E-04-1.84513E-15
 -1       391 3.23074E-03 5.85542E-04-2.27622E-15
 -1       392 3.51257E-03 5.86375E-04-2.75120E-15
 -1       393 3.79515E-03 5.85937E-04-3.27114E-15
 -1       394 4.07841E-03 5.84604E-04-3.83189E-15
 -1       395 4.36230E-03 5.82624E-04-4.43475E-15
 -1       396 4.64679E-03 5.80150E-04-5.07944E-15
 -1       397 4.93184E-03 5.77277E-04-5.76337E-15
 -1       398 5.21748E-03 5.74060E-04-6.48384E-15
 -1       399 5.50374E-03 5.70551E-04-7.24395E-15
 -1       400 5.79069E-03 5.66824E-04-8.05111E-15
 -1       401 6.07842E-03 5.63006E-04-8.90478E-15
 -1       402 6.36705E-03 5.59314E-04-9.80137E-15
 -1       403 6.65669E-03 5.56086E-04-1.07340E-14
 -1       404 6.94747E-03 5.53813E-04-1.16997E-14
 -1       405 7.23945E-03 5.53153E-04-1.27021E-14
 -1       406 7.53259E-03 5.54905E-04-1.37380E-14
 -1       407 7.82674E-03 5.59940E-04-1.48000E-14
 -1       408 8.12149E-03 5.69025E-04-1.58758E-14
 -1       409 8.41618E-03 5.82532E-04-1.69683E-14
 -1       410 8.70979E-03 6.00024E-04-1.80801E-14
 -1       411 9.00100E-03 6.19737E-04-1.92033E-14
 -1       412 9.28834E-03 6.38115E-04-2.03355E-14
 -1       413 9.57050E-03 6.49620E-04-2.14726E-14
 -1       414 9.84681E-03 6.47130E-04-2.26147E-14
 -1       415 1.01177E-02 6.23105E-04-2.37631E-14
 -1       416 1.03850E-02 5.71385E-04-2.49158E-14
 -1       417 1.06515E-02 4.88988E-04-2.60784E-14
 -1       418 1.09200E-02 3.77054E-04-2.72503E-14
 -1       419 1.11929E-02 2.40457E-04-2.84354E-14
 -1       420 1.14711E-02 8.62594E-05-2.96434E-14
 -1       421 1.17544E-02-7.82118E-05-3.08751E-14
 -1       422 1.20416E-02-2.46880E-04-3.21183E-14
 -1       423 1.23313E-02-4.15672E-04-3.33802E-14
 -1       424 1.26219E-02-5.82559E-04-3.46578E-14
 -1       425 1.29124E-02-7.47171E-04-3.59569E-14
 -1       426 1.32019E-02-9.10241E-04-3.72748E-14
 -1       427 1.34901E-02-1.07303E-03-3.86132E-14
 -1       428 1.37206E-02-1.20509E-03-3.97354E-14
 -1       429 1.41203E-02-1.40289E-03-4.03424E-14
 -1       430 1.39517E-02-1.32063E-03-4.00783E-14
 -1       431 1.42879E-02-1.48208E-03-4.06033E-14
 -1       432 1.44590E-02-1.56016E-03-4.08691E-14
 -1       433 1.46289E-02-1.63496E-03-4.11380E-14
 -1       434 1.47948E-02-1.70591E-03-4.14088E-14
 -1       435 1.49530E-02-1.77291E-03-4.16814E-14
 -1       436 1.51003E-02-1.83661E-03-4.19472E-14
 -1       437 1.52319E-02-1.89740E-03-4.21993E-14
 -1       438 1.53519E-02-1.95948E-03-4.24494E-14
 -1       439 1.54601E-02-2.02417E-03-4.26880E-14
 -1       440 1.55615E-02-2.09362E-03-4.29190E-14
 -1       441 1.04895E-03 4.24743E-04-1.17578E-16
 -1       442 1.30834E-02-8.08274E-04-3.08407E-14
 -1       443 1.23172E-02-4.40747E-04-2.97625E-14
 -1       444 1.36185E-02-1.02057E-03-3.17006E-14
 -1       445 1.26822E-02-6.25092E-04-3.02797E-14
 -1       446 4.45607E-04-1.26488E-04-1.04236E-16
 -1       447 1.17655E-02-1.34547E-04-2.88504E-14
 -1       448 1.14516E-02 4.26192E-05-2.81878E-14
 -1       449 1.11028E-02 1.82307E-04-2.74132E-14
 -1       450 1.06859E-02 2.20972E-04-2.64533E-14
 -1       451 1.03566E-02 1.49361E-04-2.57629E-14
 -1       452 1.00517E-02 3.33985E-05-2.52355E-14
 -1       453 9.66868E-03-1.36543E-04-2.46334E-14
 -1       454 9.26928E-03-3.04436E-04-2.42605E-14
 -1       455 8.95182E-03-4.22602E-04-2.39459E-14
 -1       456 8.81070E-03-4.75661E-04-2.39438E-14
 -1       457 8.77748E-03-5.35439E-04-2.41542E-14
 -1       458 8.88894E-03-5.96515E-04-2.44021E-14
 -1       459 9.21396E-03-7.49674E-04-2.49219E-14
 -1       460 9.57877E-03-9.22953E-04-2.53528E-14
 -1       461 1.01100E-02-1.25892E-03-2.61288E-14
 -1       462 1.10468E-02-1.91442E-03-2.77641E-14
 -1       463 1.17755E-02-2.02135E-03-2.92665E-14
 -1       464 1.20879E-02-1.88943E-03-2.98138E-14
 -1       465 1.25140E-02-1.64342E-03-3.05086E-14
 -1       466 1.28773E-02-1.43699E-03-3.08940E-14
 -1       467 1.32104E-02-1.25529E-03-3.13350E-14
 -1       468 1.34712E-02-1.13634E-03-3.15023E-14
 -1       469 1.36135E-02-1.06441E-03-3.16705E-14
 -1       470 1.34536E-02-9.55240E-04-3.14019E-14
 -1       471 1.19933E-02-3.07691E-04-2.94638E-14
 -1       472 1.32926E-02-9.37508E-04-3.15210E-14
 -1       473 9.02182E-03-6.07479E-04-2.42693E-14
 -1       474 1.08804E-02 2.32899E-04-2.68439E-14
 -1       475 1.04994E-02-1.54614E-03-2.67762E-14
 -1       476 1.14418E-02-2.04485E-03-2.85747E-14
 -1       477 6.65847E-04-7.51402E-05-2.10034E-16
 -1       478 6.69809E-04-1.15901E-04-2.15878E-16
 -1       479 6.63178E-04 1.10580E-06-1.92541E-16
 -1       480 6.63897E-04 3.87715E-05-1.81055E-16
 -1       481 6.66034E-04 7.68283E-05-1.67814E-16
 -1       482 6.70123E-04 1.17742E-04-1.51575E-16
 -1       483 6.77122E-04 1.62364E-04-1.32015E-16
 -1       484 6.88962E-04 2.12739E-04-1.07451E-16
 -1       485 7.09783E-04 2.71783E-04-7.55147E-17
 -1       486 7.63513E-04 3.20522E-04-6.23348E-17
 -1       487 9.76315E-04-3.28642E-04-3.84502E-16
 -1       488 1.26223E-03-3.83520E-04-6.19710E-16
 -1       489 1.54725E-03-4.23258E-04-9.09578E-16
 -1       490 1.83138E-03-4.51295E-04-1.25324E-15
 -1       491 2.11492E-03-4.70527E-04-1.64981E-15
 -1       492 2.39820E-03-4.83240E-04-2.09900E-15
 -1       493 2.69563E-03-4.91490E-04-2.62610E-15
 -1       494 2.97905E-03-4.95876E-04-3.17739E-15
 -1       495 3.26271E-03-4.97873E-04-3.77370E-15
 -1       496 3.54667E-03-4.98191E-04-4.41243E-15
 -1       497 3.83094E-03-4.97329E-04-5.09157E-15
 -1       498 4.11552E-03-4.95622E-04-5.80988E-15
 -1       499 4.40042E-03-4.93272E-04-6.56639E-15
 -1       500 4.68562E-03-4.90383E-04-7.35782E-15
 -1       501 4.97114E-03-4.86981E-04-8.18686E-15
 -1       502 5.25699E-03-4.83034E-04-9.05043E-15
 -1       503 5.54321E-03-4.78468E-04-9.94394E-15
 -1       504 5.84418E-03-4.72904E-04-1.09168E-14
 -1       505 6.13128E-03-4.66767E-04-1.18720E-14
 -1       506 6.41886E-03-4.59742E-04-1.28533E-14
 -1       507 6.70694E-03-4.51831E-04-1.38592E-14
 -1       508 6.99545E-03-4.43192E-04-1.48845E-14
 -1       509 7.28421E-03-4.34265E-04-1.59290E-14
 -1       510 7.57284E-03-4.25992E-04-1.69911E-14
 -1       511 7.86075E-03-4.20158E-04-1.80670E-14
 -1       512 8.14714E-03-4.19933E-04-1.91600E-14
 -1       513 8.43141E-03-4.30652E-04-2.02766E-14
 -1       514 8.71418E-03-4.60923E-04-2.14146E-14
 -1       515 9.01479E-03-5.28967E-04-2.26259E-14
 -1       516 9.31801E-03-6.51277E-04-2.37926E-14
 -1       517 1.28643E-02-7.80359E-04-3.09703E-14
 -1       518 1.36701E-02-1.27723E-03-3.41203E-14
 -1       519 1.39586E-02-1.35053E-03-3.53838E-14
 -1       520 1.42411E-02-1.46052E-03-3.66733E-14
 -1       521 1.45238E-02-1.59101E-03-3.79789E-14
 -1       522 1.48080E-02-1.73148E-03-3.92951E-14
 -1       523 1.50932E-02-1.87477E-03-4.06238E-14
 -1       524 1.53286E-02-1.98643E-03-4.17680E-14
 -1       525 1.95097E-03 4.73415E-04-7.99304E-16
 -1       526 1.66766E-03 4.49014E-04-5.60837E-16
 -1       527 1.38350E-03 4.14107E-04-3.66355E-16
 -1       528 2.23384E-03 4.89969E-04-1.08240E-15
 -1       529 2.51659E-03 5.00752E-04-1.41054E-15
 -1       530 2.79946E-03 5.07348E-04-1.78617E-15
 -1       531 3.08259E-03 5.10949E-04-2.20745E-15
 -1       532 3.36604E-03 5.12436E-04-2.67382E-15
 -1       533 3.64985E-03 5.12447E-04-3.18351E-15
 -1       534 3.93402E-03 5.11426E-04-3.73505E-15
 -1       535 4.21854E-03 5.09673E-04-4.32657E-15
 -1       536 4.50341E-03 5.07377E-04-4.95965E-15
 -1       537 4.78862E-03 5.04649E-04-5.63306E-15
 -1       538 5.07417E-03 5.01551E-04-6.34346E-15
 -1       539 5.36011E-03 4.98122E-04-7.09048E-15
 -1       540 5.64647E-03 4.94406E-04-7.88196E-15
 -1       541 5.93334E-03 4.90480E-04-8.71734E-15
 -1       542 6.22081E-03 4.86487E-04-9.59647E-15
 -1       543 6.50903E-03 4.82673E-04-1.05144E-14
 -1       544 6.79816E-03 4.79416E-04-1.14643E-14
 -1       545 7.08840E-03 4.77263E-04-1.24476E-14
 -1       546 7.37998E-03 4.76932E-04-1.34673E-14
 -1       547 7.67307E-03 4.79292E-04-1.45147E-14
 -1       548 7.96783E-03 4.85273E-04-1.55829E-14
 -1       549 8.26419E-03 4.95666E-04-1.66656E-14
 -1       550 8.56182E-03 5.10799E-04-1.77668E-14
 -1       551 8.85992E-03 5.30029E-04-1.88858E-14
 -1       552 9.15719E-03 5.51132E-04-2.00165E-14
 -1       553 9.45189E-03 5.69721E-04-2.11545E-14
 -1       554 9.74233E-03 5.79054E-04-2.22982E-14
 -1       555 1.00276E-02 5.70690E-04-2.34412E-14
 -1       556 1.03082E-02 5.36242E-04-2.45924E-14
 -1       557 1.05864E-02 4.69883E-04-2.57496E-14
 -1       558 1.08654E-02 3.70427E-04-2.69113E-14
 -1       559 1.11481E-02 2.41773E-04-2.80841E-14
 -1       560 1.14356E-02 9.14210E-05-2.92760E-14
 -1       561 1.17276E-02-7.20542E-05-3.04933E-14
 -1       562 1.20227E-02-2.41213E-04-3.17248E-14
 -1       563 1.23190E-02-4.10904E-04-3.29761E-14
 -1       564 1.26148E-02-5.78418E-04-3.42443E-14
 -1       565 1.29092E-02-7.43029E-04-3.55341E-14
 -1       566 1.32015E-02-9.05345E-04-3.68403E-14
 -1       567 1.34916E-02-1.06673E-03-3.81710E-14
 -1       568 1.41255E-02-1.38816E-03-3.95467E-14
 -1       569 1.39566E-02-1.30680E-03-3.92897E-14
 -1       570 1.37868E-02-1.22277E-03-3.90285E-14
 -1       571 1.35755E-02-1.03709E-03-3.21672E-14
 -1       572 1.42979E-02-1.46864E-03-3.98055E-14
 -1       573 1.44686E-02-1.54570E-03-4.00663E-14
 -1       574 1.46340E-02-1.61843E-03-4.03334E-14
 -1       575 1.47900E-02-1.68655E-03-4.06010E-14
 -1       576 1.49304E-02-1.74970E-03-4.08647E-14
 -1       577 1.50576E-02-1.81182E-03-4.11225E-14
 -1       578 1.51693E-02-1.87447E-03-4.13745E-14
 -1       579 1.52512E-02-1.92842E-03-4.15722E-14
 -1       580 7.12623E-04-2.51848E-04-2.20506E-16
 -1       581 1.36832E-02-1.08235E-03-3.25192E-14
 -1       582 1.36143E-02-1.10240E-03-3.23544E-14
 -1       583 9.87378E-03-9.99842E-04-2.52999E-14
 -1       584 9.09007E-03-3.58448E-04-2.35710E-14
 -1       585 1.05036E-02 2.12887E-04-2.58279E-14
 -1       586 1.24781E-02-6.01676E-04-3.04333E-14
 -1       587 1.33610E-02-1.26634E-03-3.28836E-14
 -1       588 1.28982E-02-1.42406E-03-3.16317E-14
 -1       589 6.63786E-04-3.65244E-05-2.02288E-16
 -1       590 1.15132E-02-3.65386E-05-2.85609E-14
 -1       591 9.42854E-03-2.26445E-04-2.38705E-14
 -1       592 1.12188E-02 1.24247E-04-2.77898E-14
 -1       593 1.01864E-02 1.08514E-04-2.50918E-14
 -1       594 9.35558E-03-7.14258E-04-2.44888E-14
 -1       595 9.85792E-03-3.70811E-05-2.44916E-14
 -1       596 8.83071E-03-4.35028E-04-2.33405E-14
 -1       597 8.73869E-03-4.75993E-04-2.34594E-14
 -1       598 8.79843E-03-5.13156E-04-2.37095E-14
 -1       599 1.33959E-02-1.17640E-03-3.20358E-14
 -1       600 6.76601E-04-1.60093E-04-2.18968E-16
 -1       601 9.90451E-04 3.72927E-04-1.38825E-16
 -1       602 1.17316E-02-1.82689E-04-2.91787E-14
 -1       603 1.34702E-02-1.02755E-03-3.22876E-14
 -1       604 1.18681E-03 3.98379E-04-2.39178E-16
 -1       605 1.31138E-02-9.08004E-04-3.16556E-14
 -1       606 1.06808E-02 2.52141E-04-2.62187E-14
 -1       607 8.99799E-04 7.41236E-05-3.02974E-16
 -1       608 8.97714E-04 2.51836E-05-3.22638E-16
 -1       609 9.11850E-04 1.78247E-04-2.52812E-16
 -1       610 9.24213E-04 2.36756E-04-2.19534E-16
 -1       611 9.36662E-04 3.23558E-04-1.54584E-16
 -1       612 1.09775E-03-2.94646E-04-5.01477E-16
 -1       613 9.04888E-03-5.55651E-04-2.35753E-14
 -1       614 1.27333E-02-7.63119E-04-3.13220E-14
 -1       615 1.38331E-03-3.37066E-04-7.62614E-16
 -1       616 1.66951E-03-3.67970E-04-1.07593E-15
 -1       617 1.95573E-03-3.89722E-04-1.44129E-15
 -1       618 2.24177E-03-4.04472E-04-1.85823E-15
 -1       619 2.54192E-03-4.14369E-04-2.35142E-15
 -1       620 2.82764E-03-4.19931E-04-2.87026E-15
 -1       621 3.11328E-03-4.22806E-04-3.43554E-15
 -1       622 3.39887E-03-4.23784E-04-4.04362E-15
 -1       623 3.68445E-03-4.23432E-04-4.69321E-15
 -1       624 3.97005E-03-4.22142E-04-5.38266E-15
 -1       625 4.25568E-03-4.20167E-04-6.10976E-15
 -1       626 4.54135E-03-4.17649E-04-6.87256E-15
 -1       627 4.82706E-03-4.14653E-04-7.67169E-15
 -1       628 5.11280E-03-4.11180E-04-8.50650E-15
 -1       629 5.39856E-03-4.07190E-04-9.37513E-15
 -1       630 5.69858E-03-4.02377E-04-1.03220E-14
 -1       631 5.98420E-03-3.97135E-04-1.12553E-14
 -1       632 6.26957E-03-3.91219E-04-1.22171E-14
 -1       633 6.55445E-03-3.84670E-04-1.32040E-14
 -1       634 6.83841E-03-3.77664E-04-1.42139E-14
 -1       635 7.12082E-03-3.70614E-04-1.52442E-14
 -1       636 7.40066E-03-3.64309E-04-1.62921E-14
 -1       637 7.67647E-03-3.60119E-04-1.73570E-14
 -1       638 7.94619E-03-3.60258E-04-1.84368E-14
 -1       639 8.20723E-03-3.68078E-04-1.95354E-14
 -1       640 8.45672E-03-3.88334E-04-2.06545E-14
 -1       641 8.70430E-03-4.30505E-04-2.18525E-14
 -1       642 1.41050E-02-1.34644E-03-3.58037E-14
 -1       643 1.43526E-02-1.46860E-03-3.70982E-14
 -1       644 1.46120E-02-1.60258E-03-3.84073E-14
 -1       645 1.48805E-02-1.74234E-03-3.97298E-14
 -1       646 1.50652E-02-1.83596E-03-4.06468E-14
 -1       647 1.78978E-03 3.90910E-04-7.56119E-16
 -1       648 2.07560E-03 4.09927E-04-1.03031E-15
 -1       649 1.50377E-03 3.63520E-04-5.26234E-16
 -1       650 2.64662E-03 4.30684E-04-1.71430E-15
 -1       651 2.93195E-03 4.35366E-04-2.12646E-15
 -1       652 3.21726E-03 4.37650E-04-2.58451E-15
 -1       653 3.50257E-03 4.38250E-04-3.08521E-15
 -1       654 3.78793E-03 4.37679E-04-3.62735E-15
 -1       655 4.07334E-03 4.36283E-04-4.20906E-15
 -1       656 4.35883E-03 4.34291E-04-4.83160E-15
 -1       657 4.64440E-03 4.31838E-04-5.49354E-15
 -1       658 4.93007E-03 4.28995E-04-6.19542E-15
 -1       659 5.21585E-03 4.25798E-04-6.93265E-15
 -1       660 5.50179E-03 4.22266E-04-7.70880E-15
 -1       661 5.78795E-03 4.18433E-04-8.52938E-15
 -1       662 6.07441E-03 4.14369E-04-9.39166E-15
 -1       663 6.36131E-03 4.10219E-04-1.02936E-14
 -1       664 6.64884E-03 4.06229E-04-1.12301E-14
 -1       665 6.93730E-03 4.02787E-04-1.21979E-14
 -1       666 7.22705E-03 4.00456E-04-1.32001E-14
 -1       667 7.51857E-03 3.99989E-04-1.42322E-14
 -1       668 7.81241E-03 4.02322E-04-1.52902E-14
 -1       669 8.10913E-03 4.08492E-04-1.63656E-14
 -1       670 8.40908E-03 4.19449E-04-1.74589E-14
 -1       671 8.71222E-03 4.35686E-04-1.85688E-14
 -1       672 9.01773E-03 4.56614E-04-1.96965E-14
 -1       673 9.32384E-03 4.79691E-04-2.08338E-14
 -1       674 9.62797E-03 4.99508E-04-2.19777E-14
 -1       675 9.92753E-03 5.07473E-04-2.31193E-14
 -1       676 1.02213E-02 4.92899E-04-2.42676E-14
 -1       677 1.05104E-02 4.45966E-04-2.54205E-14
 -1       678 1.07986E-02 3.61635E-04-2.65754E-14
 -1       679 1.10900E-02 2.41891E-04-2.77387E-14
 -1       680 1.13869E-02 9.48285E-05-2.89161E-14
 -1       681 1.16891E-02-6.88399E-05-3.01171E-14
 -1       682 1.19944E-02-2.39492E-04-3.13346E-14
 -1       683 1.22999E-02-4.10501E-04-3.25714E-14
 -1       684 1.26036E-02-5.78483E-04-3.38324E-14
 -1       685 1.29039E-02-7.42560E-04-3.51137E-14
 -1       686 1.32005E-02-9.03435E-04-3.64106E-14
 -1       687 1.34951E-02-1.06325E-03-3.77090E-14
 -1       688 1.41369E-02-1.38437E-03-3.87567E-14
 -1       689 1.36645E-02-1.15091E-03-3.79664E-14
 -1       690 1.39621E-02-1.30073E-03-3.85030E-14
 -1       691 1.44756E-02-1.53710E-03-3.92785E-14
 -1       692 1.46272E-02-1.60325E-03-3.95409E-14
 -1       693 1.47648E-02-1.66549E-03-3.98080E-14
 -1       694 1.48833E-02-1.72541E-03-4.00698E-14
 -1       695 1.37283E-02-1.13974E-03-3.32650E-14
 -1       696 8.89969E-03-3.70620E-04-2.28389E-14
 -1       697 8.80574E-03-4.73463E-04-2.30153E-14
 -1       698 1.35728E-02-1.16782E-03-3.29445E-14
 -1       699 9.18297E-03-2.73281E-04-2.30867E-14
 -1       700 1.37226E-02-1.11509E-03-3.32111E-14
 -1       701 1.02955E-02 1.98584E-04-2.50432E-14
 -1       702 1.13363E-02 4.97251E-05-2.82098E-14
 -1       703 9.97032E-03 6.34838E-05-2.43250E-14
 -1       704 9.59318E-03-1.04785E-04-2.36400E-14
 -1       705 9.04243E-04 1.24634E-04-2.80090E-16
 -1       706 9.03871E-04-1.22223E-04-3.64597E-16
 -1       707 8.69009E-03-4.41750E-04-2.27682E-14
 -1       708 1.09400E-02 2.24636E-04-2.69890E-14
 -1       709 8.71283E-03-4.26788E-04-2.28007E-14
 -1       710 1.43095E-02-1.46364E-03-3.90140E-14
 -1       711 1.38126E-02-1.22641E-03-3.82364E-14
 -1       712 2.36119E-03 4.22633E-04-1.34898E-15
 -1       713 1.38706E-02-1.24435E-03-3.45320E-14
 -1       714 1.21615E-02-4.53395E-04-3.01946E-14
 -1       715 8.97652E-04-2.31598E-05-3.39494E-16
 -1       716 1.15383E-02-7.23604E-05-2.88277E-14
 -1       717 8.73200E-03-3.74576E-04-2.23021E-14
 -1       718 9.32264E-03-1.59114E-04-2.28565E-14
 -1       719 1.33385E-02-1.00754E-03-3.24251E-14
 -1       720 8.72395E-04-2.47136E-04-3.33287E-16
 -1       721 1.49772E-02-1.77942E-03-4.03605E-14
 -1       722 1.21787E-03 3.25387E-04-3.39772E-16
 -1       723 9.11272E-04-1.75626E-04-3.71749E-16
 -1       724 1.10671E-02 1.79147E-04-2.74097E-14
 -1       725 1.35716E-02-1.07340E-03-3.28158E-14
 -1       726 1.04577E-02 2.58041E-04-2.54328E-14
 -1       727 8.99593E-04-7.18356E-05-3.53426E-16
 -1       728 1.16160E-03 2.43663E-04-3.73355E-16
 -1       729 1.30124E-02-8.95369E-04-3.20932E-14
 -1       730 1.51024E-03-2.86525E-04-9.07924E-16
 -1       731 1.79734E-03-3.09476E-04-1.24246E-15
 -1       732 2.08501E-03-3.25518E-04-1.62774E-15
 -1       733 2.38719E-03-3.36656E-04-2.08750E-15
 -1       734 2.67489E-03-3.43220E-04-2.57414E-15
 -1       735 2.96238E-03-3.46925E-04-3.10733E-15
 -1       736 3.24963E-03-3.48586E-04-3.68534E-15
 -1       737 3.53662E-03-3.48809E-04-4.30436E-15
 -1       738 3.82338E-03-3.48023E-04-4.96361E-15
 -1       739 4.10991E-03-3.46516E-04-5.66255E-15
 -1       740 4.39623E-03-3.44470E-04-6.39814E-15
 -1       741 4.68232E-03-3.41982E-04-7.16887E-15
 -1       742 4.96819E-03-3.39090E-04-7.97593E-15
 -1       743 5.25377E-03-3.35789E-04-8.81586E-15
 -1       744 5.55325E-03-3.31861E-04-9.73527E-15
 -1       745 5.83794E-03-3.27662E-04-1.06457E-14
 -1       746 6.12190E-03-3.23033E-04-1.15873E-14
 -1       747 6.40476E-03-3.18067E-04-1.25564E-14
 -1       748 6.68597E-03-3.12991E-04-1.35476E-14
 -1       749 6.96472E-03-3.08240E-04-1.45592E-14
 -1       750 7.23980E-03-3.04571E-04-1.55935E-14
 -1       751 7.50950E-03-3.03193E-04-1.66467E-14
 -1       752 7.77139E-03-3.05918E-04-1.77146E-14
 -1       753 8.02219E-03-3.15264E-04-1.88029E-14
 -1       754 8.25746E-03-3.34419E-04-1.99069E-14
 -1       755 8.48156E-03-3.69232E-04-2.10875E-14
 -1       756 1.46023E-02-1.58139E-03-3.87750E-14
 -1       757 1.41894E-02-1.36359E-03-3.62203E-14
 -1       758 1.39794E-02-1.25261E-03-3.49416E-14
 -1       759 1.44229E-02-1.48757E-03-3.75210E-14
 -1       760 1.46731E-02-1.61973E-03-3.88372E-14
 -1       761 1.91738E-03 3.29902E-04-9.67295E-16
 -1       762 1.63011E-03 3.09391E-04-7.02217E-16
 -1       763 3.06690E-03 3.62032E-04-2.48239E-15
 -1       764 2.77977E-03 3.58947E-04-2.03458E-15
 -1       765 3.64050E-03 3.63246E-04-3.50888E-15
 -1       766 3.92698E-03 3.62313E-04-4.08094E-15
 -1       767 4.21327E-03 3.60738E-04-4.69309E-15
 -1       768 4.49940E-03 3.58680E-04-5.34701E-15
 -1       769 4.78537E-03 3.56226E-04-6.03836E-15
 -1       770 5.07120E-03 3.53410E-04-6.76660E-15
 -1       771 5.35692E-03 3.50239E-04-7.53098E-15
 -1       772 5.64257E-03 3.46710E-04-8.33642E-15
 -1       773 5.92820E-03 3.42833E-04-9.18353E-15
 -1       774 6.21394E-03 3.38654E-04-1.00712E-14
 -1       775 6.49996E-03 3.34284E-04-1.09939E-14
 -1       776 6.78655E-03 3.29933E-04-1.19486E-14
 -1       777 7.07416E-03 3.25952E-04-1.29347E-14
 -1       778 7.36340E-03 3.22879E-04-1.39512E-14
 -1       779 7.65510E-03 3.21482E-04-1.49953E-14
 -1       780 7.95029E-03 3.22796E-04-1.60626E-14
 -1       781 8.25002E-03 3.28100E-04-1.71492E-14
 -1       782 8.55518E-03 3.38771E-04-1.82518E-14
 -1       783 8.86598E-03 3.55868E-04-1.93739E-14
 -1       784 9.18140E-03 3.79267E-04-2.05081E-14
 -1       785 9.49873E-03 4.06233E-04-2.16519E-14
 -1       786 9.81386E-03 4.29700E-04-2.27974E-14
 -1       787 1.01229E-02 4.37771E-04-2.39440E-14
 -1       788 1.04247E-02 4.15691E-04-2.50918E-14
 -1       789 1.07223E-02 3.51805E-04-2.62437E-14
 -1       790 1.10218E-02 2.43632E-04-2.73988E-14
 -1       791 1.13277E-02 9.92979E-05-2.85653E-14
 -1       792 1.16409E-02-6.69540E-05-2.97481E-14
 -1       793 1.19583E-02-2.41565E-04-3.09532E-14
 -1       794 1.22755E-02-4.15405E-04-3.21760E-14
 -1       795 1.25891E-02-5.84241E-04-3.34197E-14
 -1       796 1.28971E-02-7.47364E-04-3.46928E-14
 -1       797 1.31992E-02-9.05959E-04-3.59843E-14
 -1       798 1.34331E-02-1.02902E-03-3.69701E-14
 -1       799 1.37981E-02-1.21973E-03-3.74767E-14
 -1       800 1.44721E-02-1.52355E-03-3.85063E-14
 -1       801 1.43224E-02-1.46055E-03-3.82469E-14
 -1       802 1.39772E-02-1.30695E-03-3.77295E-14
 -1       803 1.41541E-02-1.38792E-03-3.79836E-14
 -1       804 1.22455E-03-2.55052E-04-6.23941E-16
 -1       805 1.24729E-02-6.35154E-04-3.12635E-14
 -1       806 3.35381E-03 3.63281E-04-2.97497E-15
 -1       807 8.93885E-03-2.85316E-04-2.22527E-14
 -1       808 1.00335E-02 1.62597E-04-2.41629E-14
 -1       809 8.60247E-03-3.92054E-04-2.20496E-14
 -1       810 1.13831E-03 5.90638E-05-4.79526E-16
 -1       811 9.69858E-03 1.93992E-05-2.34217E-14
 -1       812 1.07038E-02 2.73424E-04-2.62043E-14
 -1       813 1.19026E-02-3.00504E-04-2.98478E-14
 -1       814 8.60036E-03-3.99380E-04-2.19255E-14
 -1       815 1.27569E-02-7.79927E-04-3.20351E-14
 -1       816 1.14986E-03 1.79139E-04-4.14284E-16
 -1       817 1.13005E-02 6.50952E-05-2.82141E-14
 -1       818 1.14208E-03-1.15208E-04-5.45980E-16
 -1       819 9.04916E-03-1.88916E-04-2.20248E-14
 -1       820 2.20491E-03 3.44015E-04-1.27705E-15
 -1       821 2.49242E-03 3.53274E-04-1.63195E-15
 -1       822 1.35812E-02-1.10761E-03-3.72364E-14
 -1       823 1.38576E-02-1.20211E-03-3.45040E-14
 -1       824 8.74417E-03-3.02508E-04-2.17184E-14
 -1       825 1.34367E-03 2.80754E-04-4.80569E-16
 -1       826 1.14928E-03-1.76140E-04-5.59957E-16
 -1       827 1.08311E-02 2.60884E-04-2.66257E-14
 -1       828 1.14242E-03 1.17830E-04-4.49544E-16
 -1       829 1.01988E-02 2.39195E-04-2.45471E-14
 -1       830 1.13695E-03 1.19572E-06-5.05628E-16
 -1       831 9.42756E-03-3.61097E-05-2.26402E-14
 -1       832 1.36887E-02-1.16391E-03-3.73576E-14
 -1       833 1.13816E-03-5.65212E-05-5.27827E-16
 -1       834 8.56782E-03-3.41077E-04-2.14616E-14
 -1       835 1.21754E-02-4.52011E-04-3.08623E-14
 -1       836 1.92961E-03-2.47736E-04-1.40862E-15
 -1       837 2.23285E-03-2.59228E-04-1.83453E-15
 -1       838 2.52193E-03-2.66291E-04-2.28964E-15
 -1       839 2.81093E-03-2.70542E-04-2.79108E-15
 -1       840 3.09965E-03-2.72748E-04-3.33802E-15
 -1       841 3.38800E-03-2.73499E-04-3.92703E-15
 -1       842 3.67594E-03-2.73226E-04-4.55614E-15
 -1       843 3.96345E-03-2.72233E-04-5.22595E-15
 -1       844 4.25053E-03-2.70719E-04-5.93341E-15
 -1       845 4.53718E-03-2.68807E-04-6.67678E-15
 -1       846 4.82337E-03-2.66562E-04-7.45652E-15
 -1       847 5.10906E-03-2.64013E-04-8.26982E-15
 -1       848 5.40838E-03-2.61025E-04-9.16043E-15
 -1       849 5.69267E-03-2.57905E-04-1.00450E-14
 -1       850 5.97595E-03-2.54581E-04-1.09624E-14
 -1       851 6.25785E-03-2.51187E-04-1.19095E-14
 -1       852 6.53783E-03-2.47989E-04-1.28838E-14
 -1       853 6.81510E-03-2.45444E-04-1.38808E-14
 -1       854 7.08856E-03-2.44295E-04-1.48991E-14
 -1       855 7.35668E-03-2.45668E-04-1.59386E-14
 -1       856 7.61736E-03-2.51177E-04-1.69952E-14
 -1       857 7.86772E-03-2.62991E-04-1.80707E-14
 -1       858 8.10388E-03-2.83768E-04-1.91634E-14
 -1       859 8.33057E-03-3.18415E-04-2.03340E-14
 -1       860 1.16269E-02-1.24912E-04-2.92352E-14
 -1       861 1.40560E-02-1.30358E-03-3.57656E-14
 -1       862 1.35546E-03-2.09654E-04-7.50447E-16
 -1       863 1.42799E-02-1.41735E-03-3.70588E-14
 -1       864 4.06703E-03 2.86603E-04-4.54593E-15
 -1       865 3.77982E-03 2.87690E-04-3.94288E-15
 -1       866 4.64029E-03 2.83077E-04-5.87330E-15
 -1       867 4.92636E-03 2.80774E-04-6.59306E-15
 -1       868 5.21208E-03 2.78124E-04-7.34792E-15
 -1       869 5.49744E-03 2.75102E-04-8.14124E-15
 -1       870 5.78250E-03 2.71671E-04-8.97425E-15
 -1       871 6.06730E-03 2.67799E-04-9.84659E-15
 -1       872 6.35198E-03 2.63476E-04-1.07557E-14
 -1       873 6.63678E-03 2.58741E-04-1.16978E-14
 -1       874 6.92208E-03 2.53716E-04-1.26708E-14
 -1       875 7.20851E-03 2.48658E-04-1.36744E-14
 -1       876 7.49696E-03 2.44030E-04-1.47047E-14
 -1       877 7.78869E-03 2.40607E-04-1.57596E-14
 -1       878 8.08529E-03 2.39595E-04-1.68371E-14
 -1       879 8.38852E-03 2.42733E-04-1.79324E-14
 -1       880 8.69997E-03 2.52252E-04-1.90468E-14
 -1       881 9.02025E-03 2.70419E-04-2.01795E-14
 -1       882 9.34808E-03 2.98224E-04-2.13184E-14
 -1       883 9.67924E-03 3.32821E-04-2.24671E-14
 -1       884 1.00070E-02 3.63937E-04-2.36138E-14
 -1       885 1.03264E-02 3.73156E-04-2.47619E-14
 -1       886 1.06367E-02 3.39162E-04-2.59116E-14
 -1       887 1.09452E-02 2.49254E-04-2.70625E-14
 -1       888 1.12604E-02 1.09143E-04-2.82201E-14
 -1       889 1.15858E-02-6.33979E-05-2.93928E-14
 -1       890 1.19173E-02-2.46285E-04-3.05813E-14
 -1       891 1.22485E-02-4.25988E-04-3.17882E-14
 -1       892 1.25738E-02-5.96843E-04-3.30159E-14
 -1       893 1.28907E-02-7.58806E-04-3.42726E-14
 -1       894 1.31987E-02-9.14217E-04-3.55557E-14
 -1       895 1.33914E-02-1.01126E-03-3.63921E-14
 -1       896 1.43245E-02-1.44545E-03-3.74971E-14
 -1       897 1.36346E-02-1.14523E-03-3.64689E-14
 -1       898 1.41777E-02-1.38799E-03-3.72358E-14
 -1       899 1.36090E-02-1.12160E-03-3.37531E-14
 -1       900 8.47618E-03-3.50554E-04-2.11883E-14
 -1       901 9.75198E-03 1.36700E-04-2.32037E-14
 -1       902 1.04654E-02 3.05011E-04-2.53455E-14
 -1       903 2.91580E-03 2.85807E-04-2.37092E-15
 -1       904 1.76111E-03 2.51574E-04-8.94385E-16
 -1       905 1.33630E-02-1.04239E-03-3.34176E-14
 -1       906 1.64167E-03-2.31744E-04-1.05431E-15
 -1       907 4.35385E-03 2.85034E-04-5.18928E-15
 -1       908 1.47404E-03 2.31257E-04-6.37840E-16
 -1       909 1.31125E-03 2.05604E-04-5.20359E-16
 -1       910 1.38213E-02-1.23633E-03-3.67224E-14
 -1       911 1.24470E-02-6.03443E-04-3.16339E-14
 -1       912 1.31509E-02-9.55458E-04-3.33635E-14
 -1       913 9.91853E-03 2.17329E-04-2.35840E-14
 -1       914 1.14229E-02 8.75061E-06-2.87222E-14
 -1       915 9.14544E-03-7.78434E-05-2.18094E-14
 -1       916 1.38219E-02-1.21662E-03-3.49967E-14
 -1       917 1.34657E-03-1.42001E-04-7.33405E-16
 -1       918 1.34141E-03-7.65422E-05-7.10647E-16
 -1       919 2.62710E-03 2.82120E-04-1.93233E-15
 -1       920 3.49220E-03 2.88120E-04-3.37790E-15
 -1       921 1.35212E-02-1.08560E-03-3.63456E-14
 -1       922 8.83444E-03-2.25332E-04-2.14939E-14
 -1       923 1.40056E-02-1.31817E-03-3.69748E-14
 -1       924 3.20419E-03 2.87625E-04-2.85316E-15
 -1       925 2.04941E-03 2.66027E-04-1.19482E-15
 -1       926 1.09950E-02 2.13227E-04-2.72079E-14
 -1       927 9.49286E-03 8.65600E-05-2.24203E-14
 -1       928 1.38110E-03 3.41139E-05-6.97555E-16
 -1       929 1.38423E-03 9.98467E-05-6.60584E-16
 -1       930 2.07289E-03-1.83001E-04-1.58383E-15
 -1       931 2.36261E-03-1.89788E-04-2.00607E-15
 -1       932 2.65259E-03-1.94089E-04-2.47480E-15
 -1       933 2.94246E-03-1.96542E-04-2.98878E-15
 -1       934 3.23197E-03-1.97659E-04-3.54591E-15
 -1       935 3.52100E-03-1.97827E-04-4.14473E-15
 -1       936 3.80948E-03-1.97330E-04-4.78331E-15
 -1       937 4.09739E-03-1.96363E-04-5.46072E-15
 -1       938 4.38469E-03-1.95055E-04-6.17656E-15
 -1       939 4.67138E-03-1.93487E-04-6.92893E-15
 -1       940 4.95740E-03-1.91709E-04-7.71527E-15
 -1       941 5.25692E-03-1.89660E-04-8.57594E-15
 -1       942 5.54126E-03-1.87585E-04-9.43152E-15
 -1       943 5.82448E-03-1.85480E-04-1.03227E-14
 -1       944 6.10627E-03-1.83502E-04-1.12476E-14
 -1       945 6.38616E-03-1.81924E-04-1.22002E-14
 -1       946 6.66355E-03-1.81189E-04-1.31802E-14
 -1       947 6.93756E-03-1.81986E-04-1.41817E-14
 -1       948 7.20709E-03-1.85321E-04-1.52066E-14
 -1       949 7.47064E-03-1.92602E-04-1.62501E-14
 -1       950 7.72634E-03-2.05681E-04-1.73125E-14
 -1       951 7.97179E-03-2.26809E-04-1.83939E-14
 -1       952 8.21518E-03-2.60305E-04-1.95534E-14
 -1       953 3.92044E-03 2.11846E-04-4.38989E-15
 -1       954 1.60814E-03 1.76834E-04-8.11942E-16
 -1       955 2.33822E-03 2.75835E-04-1.54049E-15
 -1       956 5.06741E-03 2.05715E-04-7.15715E-15
 -1       957 4.78151E-03 2.07719E-04-6.41097E-15
 -1       958 5.63749E-03 2.00612E-04-8.76059E-15
 -1       959 5.92167E-03 1.97365E-04-9.62170E-15
 -1       960 6.20533E-03 1.93527E-04-1.05175E-14
 -1       961 6.48860E-03 1.88999E-04-1.14477E-14
 -1       962 6.77174E-03 1.83697E-04-1.24076E-14
 -1       963 7.05521E-03 1.77592E-04-1.33990E-14
 -1       964 7.33980E-03 1.70779E-04-1.44175E-14
 -1       965 7.62669E-03 1.63591E-04-1.54602E-14
 -1       966 7.91759E-03 1.56787E-04-1.65256E-14
 -1       967 8.21481E-03 1.51830E-04-1.76138E-14
 -1       968 8.52106E-03 1.51209E-04-1.87202E-14
 -1       969 8.83911E-03 1.58646E-04-1.98461E-14
 -1       970 9.17032E-03 1.78732E-04-2.09828E-14
 -1       971 9.51343E-03 2.14490E-04-2.21277E-14
 -1       972 1.18752E-02-2.51590E-04-3.02186E-14
 -1       973 1.22233E-02-4.42012E-04-3.14115E-14
 -1       974 1.25624E-02-6.17129E-04-3.26227E-14
 -1       975 1.28886E-02-7.78013E-04-3.38576E-14
 -1       976 1.32022E-02-9.29250E-04-3.51313E-14
 -1       977 1.36015E-03-2.16135E-05-7.06517E-16
 -1       978 8.40334E-03-3.01962E-04-2.05598E-14
 -1       979 1.36171E-02-1.14632E-03-3.46539E-14
 -1       980 1.34650E-03 1.52964E-04-5.90721E-16
 -1       981 8.54190E-03-2.71070E-04-2.08157E-14
 -1       982 5.35274E-03 2.03367E-04-7.93926E-15
 -1       983 1.78405E-03-1.72960E-04-1.21014E-15
 -1       984 8.92649E-03-1.28788E-04-2.12815E-14
 -1       985 1.28584E-02-8.06724E-04-3.29568E-14
 -1       986 9.66587E-03 1.67804E-04-2.28016E-14
 -1       987 1.89603E-03 1.90060E-04-1.10314E-15
 -1       988 9.21629E-03 4.06569E-05-2.15877E-14
 -1       989 4.20802E-03 2.10805E-04-5.02369E-15
 -1       990 1.34735E-02-1.07753E-03-3.54741E-14
 -1       991 2.76482E-03 2.09398E-04-2.24933E-15
 -1       992 3.63230E-03 2.12440E-04-3.79367E-15
 -1       993 1.40445E-02-1.31863E-03-3.62374E-14
 -1       994 4.49505E-03 2.09415E-04-5.69836E-15
 -1       995 1.01288E-02 3.09965E-04-2.41404E-14
 -1       996 1.33171E-02-9.95066E-04-3.52518E-14
 -1       997 1.56943E-03-9.28312E-05-9.42053E-16
 -1       998 8.59951E-03-2.07846E-04-2.05936E-14
 -1       999 1.38673E-02-1.25378E-03-3.59802E-14
 -1      1000 1.61621E-03 1.26539E-06-9.46458E-16
 -1      1001 3.05442E-03 2.11524E-04-2.72244E-15
 -1      1002 1.61794E-03 7.25344E-05-9.02856E-16
 -1      1003 2.50271E-03-1.18407E-04-2.18379E-15
 -1      1004 2.79328E-03-1.20516E-04-2.66651E-15
 -1      1005 3.08363E-03-1.21614E-04-3.19211E-15
 -1      1006 3.37353E-03-1.21985E-04-3.76004E-15
 -1      1007 3.66284E-03-1.21845E-04-4.36803E-15
 -1      1008 3.95149E-03-1.21348E-04-5.01639E-15
 -1      1009 4.23945E-03-1.20601E-04-5.70298E-15
 -1      1010 4.52668E-03-1.19681E-04-6.42890E-15
 -1      1011 4.81316E-03-1.18640E-04-7.19011E-15
 -1      1012 5.11307E-03-1.17473E-04-8.02256E-15
 -1      1013 5.39772E-03-1.16356E-04-8.85042E-15
 -1      1014 5.68126E-03-1.15334E-04-9.71466E-15
 -1      1015 5.96344E-03-1.14567E-04-1.06142E-14
 -1      1016 6.24390E-03-1.14312E-04-1.15467E-14
 -1      1017 6.52222E-03-1.14971E-04-1.25068E-14
 -1      1018 6.79781E-03-1.17141E-04-1.34927E-14
 -1      1019 7.06998E-03-1.21673E-04-1.45031E-14
 -1      1020 7.33787E-03-1.29723E-04-1.55326E-14
 -1      1021 7.60058E-03-1.42770E-04-1.65824E-14
 -1      1022 7.85716E-03-1.62548E-04-1.76547E-14
 -1      1023 8.11917E-03-1.92468E-04-1.87997E-14
 -1      1024 1.34418E-02-1.07531E-03-3.46665E-14
 -1      1025 4.92306E-03 1.32828E-04-6.95757E-15
 -1      1026 1.27014E-02-7.10368E-04-3.27874E-14
 -1      1027 6.06024E-03 1.24016E-04-1.02754E-14
 -1      1028 5.77719E-03 1.26988E-04-9.39117E-15
 -1      1029 6.62387E-03 1.15460E-04-1.21431E-14
 -1      1030 6.90476E-03 1.09385E-04-1.31236E-14
 -1      1031 7.18559E-03 1.01778E-04-1.41313E-14
 -1      1032 7.46721E-03 9.24865E-05-1.51612E-14
 -1      1033 7.75103E-03 8.16240E-05-1.62157E-14
 -1      1034 8.03921E-03 6.98746E-05-1.72926E-14
 -1      1035 8.33487E-03 5.90209E-05-1.83924E-14
 -1      1036 8.64211E-03 5.25950E-05-1.95096E-14
 -1      1037 1.92266E-03-1.09656E-04-1.35680E-15
 -1      1038 1.30166E-02-8.57229E-04-3.40029E-14
 -1      1039 6.34244E-03 1.20250E-04-1.11933E-14
 -1      1040 3.34361E-03 2.12417E-04-3.23763E-15
 -1      1041 5.20856E-03 1.31265E-04-7.72999E-15
 -1      1042 8.33398E-03-2.28108E-04-1.98010E-14
 -1      1043 5.49329E-03 1.29355E-04-8.54084E-15
 -1      1044 2.47498E-03 2.05550E-04-1.82101E-15
 -1      1045 1.36721E-02-1.17249E-03-3.57275E-14
 -1      1046 2.21231E-03-1.14929E-04-1.74717E-15
 -1      1047 4.63682E-03 1.34115E-04-6.21901E-15
 -1      1048 9.00483E-03-1.80254E-05-2.10638E-14
 -1      1049 3.77391E-03 1.36510E-04-4.22055E-15
 -1      1050 2.61480E-03 1.33383E-04-2.11828E-15
 -1      1051 2.18522E-03 1.99356E-04-1.43934E-15
 -1      1052 1.86583E-03 3.94017E-05-1.19901E-15
 -1      1053 8.92968E-03 7.34253E-05-2.04564E-14
 -1      1054 1.32019E-02-9.60719E-04-3.42412E-14
 -1      1055 2.90523E-03 1.35368E-04-2.58086E-15
 -1      1056 1.89265E-03-3.45954E-05-1.28013E-15
 -1      1057 8.66767E-03-1.27585E-04-2.03837E-14
 -1      1058 4.06223E-03 1.35973E-04-4.84743E-15
 -1      1059 2.93639E-03-4.57553E-05-2.84999E-15
 -1      1060 3.22686E-03-4.59884E-05-3.38632E-15
 -1      1061 3.51678E-03-4.59852E-05-3.96387E-15
 -1      1062 3.80603E-03-4.58178E-05-4.58101E-15
 -1      1063 4.09455E-03-4.55413E-05-5.23852E-15
 -1      1064 4.38231E-03-4.51990E-05-5.93606E-15
 -1      1065 4.66927E-03-4.48318E-05-6.67058E-15
 -1      1066 4.96967E-03-4.44671E-05-7.47690E-15
 -1      1067 5.25481E-03-4.42024E-05-8.27684E-15
 -1      1068 5.53890E-03-4.41135E-05-9.11380E-15
 -1      1069 5.82176E-03-4.43455E-05-9.98953E-15
 -1      1070 6.10318E-03-4.51213E-05-1.08979E-14
 -1      1071 6.38286E-03-4.67735E-05-1.18367E-14
 -1      1072 6.66049E-03-4.97809E-05-1.28036E-14
 -1      1073 6.93570E-03-5.48054E-05-1.37977E-14
 -1      1074 7.20818E-03-6.27176E-05-1.48156E-14
 -1      1075 7.47772E-03-7.45864E-05-1.58515E-14
 -1      1076 7.74439E-03-9.15917E-05-1.69114E-14
 -1      1077 8.02206E-03-1.16072E-04-1.80470E-14
 -1      1078 4.34987E-03 1.35163E-04-5.51399E-15
 -1      1079 6.19844E-03 5.18715E-05-1.09360E-14
 -1      1080 3.48493E-03 1.36691E-04-3.63364E-15
 -1      1081 2.35476E-03-4.41549E-05-1.90593E-15
 -1      1082 3.19533E-03 1.36379E-04-3.08633E-15
 -1      1083 5.06494E-03 5.85979E-05-7.51202E-15
 -1      1084 2.32435E-03 1.30059E-04-1.70099E-15
 -1      1085 5.91674E-03 5.44454E-05-1.00284E-14
 -1      1086 7.03588E-03 3.62516E-05-1.38417E-14
 -1      1087 6.75797E-03 4.32167E-05-1.28433E-14
 -1      1088 7.58990E-03 1.44240E-05-1.59054E-14
 -1      1089 7.86818E-03-1.16612E-06-1.69720E-14
 -1      1090 8.15021E-03-1.95560E-05-1.80610E-14
 -1      1091 8.44021E-03-3.85187E-05-1.91717E-14
 -1      1092 8.71304E-03-3.52122E-05-2.01132E-14
 -1      1093 7.31294E-03 2.68211E-05-1.48615E-14
 -1      1094 6.47886E-03 4.82609E-05-1.18757E-14
 -1      1095 5.34988E-03 5.76181E-05-8.31244E-15
 -1      1096 8.25593E-03-1.44736E-04-1.90375E-14
 -1      1097 5.63385E-03 5.62865E-05-9.15267E-15
 -1      1098 2.12335E-03-3.94793E-05-1.57780E-15
 -1      1099 2.02379E-03 1.17425E-04-1.32342E-15
 -1      1100 2.64557E-03-4.51865E-05-2.35572E-15
 -1      1101 3.62784E-03 6.07225E-05-4.04226E-15
 -1      1102 2.16217E-03 4.61273E-05-1.56365E-15
 -1      1103 2.46645E-03 5.84340E-05-1.97896E-15
 -1      1104 2.75729E-03 5.96436E-05-2.43080E-15
 -1      1105 3.91679E-03 6.05897E-05-4.65992E-15
 -1      1106 4.77911E-03 5.93319E-05-6.74741E-15
 -1      1107 3.37176E-03 3.00072E-05-3.57147E-15
 -1      1108 4.52584E-03 2.96810E-05-6.15923E-15
 -1      1109 4.22171E-03 4.50923E-05-5.38506E-15
 -1      1110 3.06470E-03 4.50907E-05-2.97634E-15
 -1      1111 0.00000E+00 0.00000E+00 0.00000E+00
 -1      1112 0.00000E+00 0.00000E+00 0.00000E+00
 -1      1113 0.00000E+00 0.00000E+00 0.00000E+00
 -1      1114 0.00000E+00 0.00000E+00 0.00000E+00
 -1      1115 0.00000E+00 0.00000E+00 0.00000E+00
 -1      1116 0.00000E+00 0.00000E+00 0.00000E+00
 -1      1117 0.00000E+00 0.00000E+00 0.00000E+00
 -1      1118 0.00000E+00 0.00000E+00 0.00000E+00
 -1      1119 0.00000E+00 0.00000E+00 0.00000E+00
 -1      1120 0.00000E+00 0.00000E+00 0.00000E+00
 -1      1121 0.00000E+00 0.00000E+00 0.00000E+00
 -1      1122 0.00000E+00 0.00000E+00 0.00000E+00
 -1      1123 0.00000E+00 0.00000E+00 0.00000E+00
 -1      1124 0.00000E+00 0.00000E+00 0.00000E+00
 -1      1125 0.00000E+00 0.00000E+00 0.00000E+00
 -1      1126 0.00000E+00 0.00000E+00 0.00000E+00
 -1      1127 0.00000E+00 0.00000E+00 0.00000E+00
 -1      1128 2.11668E-04-1.48333E-04-1.78893E-18
 -1      1129 5.51638E-04-3.37516E-04-4.73254E-17
 -1      1130 8.33459E-04-4.59010E-04-1.51626E-16
 -1      1131 1.10303E-03-5.40691E-04-3.22957E-16
 -1      1132 1.36845E-03-5.97934E-04-5.57510E-16
 -1      1133 1.63326E-03-6.38632E-04-8.52210E-16
 -1      1134 1.89932E-03-6.67433E-04-1.20478E-15
 -1      1135 2.16747E-03-6.87454E-04-1.61529E-15
 -1      1136 2.43802E-03-7.00977E-04-2.08312E-15
 -1      1137 2.71095E-03-7.09719E-04-2.60766E-15
 -1      1138 2.99301E-03-7.15076E-04-3.19920E-15
 -1      1139 3.27714E-03-7.17815E-04-3.84103E-15
 -1      1140 3.55608E-03-7.18698E-04-4.50886E-15
 -1      1141 3.83647E-03-7.18318E-04-5.21967E-15
 -1      1142 4.11808E-03-7.17021E-04-5.96947E-15
 -1      1143 4.40073E-03-7.15025E-04-6.76038E-15
 -1      1144 4.68429E-03-7.12451E-04-7.59082E-15
 -1      1145 4.96869E-03-7.09346E-04-8.45321E-15
 -1      1146 5.25395E-03-7.05702E-04-9.34837E-15
 -1      1147 5.54018E-03-7.01469E-04-1.02729E-14
 -1      1148 5.82760E-03-6.96575E-04-1.12259E-14
 -1      1149 6.12384E-03-6.90793E-04-1.22290E-14
 -1      1150 6.42240E-03-6.84187E-04-1.32595E-14
 -1      1151 6.71684E-03-6.76962E-04-1.42860E-14
 -1      1152 7.01575E-03-6.69145E-04-1.53267E-14
 -1      1153 7.32109E-03-6.61201E-04-1.63839E-14
 -1      1154 7.63564E-03-6.54160E-04-1.74610E-14
 -1      1155 7.96332E-03-6.50095E-04-1.85560E-14
 -1      1156 8.30947E-03-6.53019E-04-1.96716E-14
 -1      1157 8.68083E-03-6.70426E-04-2.08092E-14
 -1      1158 9.08482E-03-7.15733E-04-2.19714E-14
 -1      1159 9.52673E-03-8.11004E-04-2.31468E-14
 -1      1160 1.00153E-02-9.92469E-04-2.43597E-14
 -1      1161 1.05148E-02-1.28626E-03-2.55788E-14
 -1      1162 1.09603E-02-1.66599E-03-2.67455E-14
 -1      1163 1.12874E-02-2.01281E-03-2.78071E-14
 -1      1164 1.15262E-02-2.22003E-03-2.88428E-14
 -1      1165 1.17629E-02-2.21748E-03-2.99364E-14
 -1      1166 1.20783E-02-2.02892E-03-3.10632E-14
 -1      1167 1.25136E-02-1.78563E-03-3.22702E-14
 -1      1168 1.30052E-02-1.62191E-03-3.35079E-14
 -1      1169 1.34825E-02-1.57169E-03-3.47507E-14
 -1      1170 1.39274E-02-1.60798E-03-3.60262E-14
 -1      1171 1.43327E-02-1.69928E-03-3.73292E-14
 -1      1172 1.47021E-02-1.82076E-03-3.86476E-14
 -1      1173 1.50424E-02-1.95630E-03-3.99625E-14
 -1      1174 1.53606E-02-2.09596E-03-4.12760E-14
 -1      1175 1.56626E-02-2.23340E-03-4.25923E-14
 -1      1176 1.59539E-02-2.36456E-03-4.39003E-14
 -1      1177 1.62398E-02-2.48809E-03-4.52018E-14
 -1      1178 2.28428E-04 1.60708E-04 2.26463E-17
 -1      1179 5.53817E-04 3.42156E-04 4.74067E-17
 -1      1180 8.34394E-04 4.61204E-04 3.93294E-17
 -1      1181 1.10393E-03 5.42390E-04-8.80914E-18
 -1      1182 1.36935E-03 5.99612E-04-9.96246E-17
 -1      1183 1.63422E-03 6.40400E-04-2.35895E-16
 -1      1184 1.90033E-03 6.69307E-04-4.18421E-16
 -1      1185 2.16853E-03 6.89445E-04-6.43921E-16
 -1      1186 2.43911E-03 7.03093E-04-9.12180E-16
 -1      1187 2.71206E-03 7.11965E-04-1.22626E-15
 -1      1188 2.98724E-03 7.17359E-04-1.59111E-15
 -1      1189 3.26441E-03 7.20249E-04-2.00496E-15
 -1      1190 3.54331E-03 7.21354E-04-2.46338E-15
 -1      1191 3.82369E-03 7.21191E-04-2.96430E-15
 -1      1192 4.10532E-03 7.20123E-04-3.50975E-15
 -1      1193 4.38803E-03 7.18395E-04-4.10193E-15
 -1      1194 4.67168E-03 7.16167E-04-4.73475E-15
 -1      1195 4.95619E-03 7.13540E-04-5.40549E-15
 -1      1196 5.24157E-03 7.10587E-04-6.11371E-15
 -1      1197 5.52785E-03 7.07375E-04-6.86857E-15
 -1      1198 5.81514E-03 7.03999E-04-7.67035E-15
 -1      1199 6.10359E-03 7.00607E-04-8.51931E-15
 -1      1200 6.39341E-03 6.97437E-04-9.41157E-15
 -1      1201 6.68475E-03 6.94840E-04-1.03470E-14
 -1      1202 6.97776E-03 6.93312E-04-1.13216E-14
 -1      1203 7.27242E-03 6.93491E-04-1.23298E-14
 -1      1204 7.56848E-03 6.96126E-04-1.33712E-14
 -1      1205 7.86533E-03 7.01980E-04-1.44392E-14
 -1      1206 8.16186E-03 7.11645E-04-1.55201E-14
 -1      1207 8.45637E-03 7.25239E-04-1.66149E-14
 -1      1208 8.74663E-03 7.42000E-04-1.77284E-14
 -1      1209 9.03003E-03 7.59838E-04-1.88548E-14
 -1      1210 9.30403E-03 7.74988E-04-1.99807E-14
 -1      1211 9.56683E-03 7.81987E-04-2.11074E-14
 -1      1212 9.81812E-03 7.74206E-04-2.22392E-14
 -1      1213 1.00596E-02 7.44995E-04-2.33859E-14
 -1      1214 1.02950E-02 6.89209E-04-2.45452E-14
 -1      1215 1.05294E-02 6.04599E-04-2.57185E-14
 -1      1216 1.07680E-02 4.92455E-04-2.69033E-14
 -1      1217 1.10150E-02 3.57203E-04-2.81009E-14
 -1      1218 1.12725E-02 2.05137E-04-2.93140E-14
 -1      1219 1.15405E-02 4.28399E-05-3.05501E-14
 -1      1220 1.18175E-02-1.24118E-04-3.17988E-14
 -1      1221 1.21009E-02-2.91886E-04-3.30660E-14
 -1      1222 1.23880E-02-4.58446E-04-3.43548E-14
 -1      1223 1.26764E-02-6.23311E-04-3.56604E-14
 -1      1224 1.29646E-02-7.87040E-04-3.69813E-14
 -1      1225 1.32518E-02-9.50697E-04-3.83189E-14
 -1      1226 1.35378E-02-1.11529E-03-3.96690E-14
 -1      1227 1.38162E-02-1.27694E-03-4.10023E-14
 -1      1228 1.40336E-02-1.39808E-03-4.17806E-14
 -1      1229 1.41975E-02-1.48248E-03-4.20523E-14
 -1      1230 1.43628E-02-1.56632E-03-4.23197E-14
 -1      1231 1.45298E-02-1.64866E-03-4.25860E-14
 -1      1232 1.46984E-02-1.72839E-03-4.28523E-14
 -1      1233 1.48664E-02-1.80362E-03-4.31185E-14
 -1      1234 1.50337E-02-1.87390E-03-4.34199E-14
 -1      1235 1.51994E-02-1.93891E-03-4.37235E-14
 -1      1236 1.53593E-02-1.99793E-03-4.40059E-14
 -1      1237 1.55102E-02-2.05193E-03-4.42587E-14
 -1      1238 1.56496E-02-2.10306E-03-4.45023E-14
 -1      1239 1.57756E-02-2.15409E-03-4.47423E-14
 -1      1240 1.58902E-02-2.20902E-03-4.49641E-14
 -1      1241 1.59978E-02-2.27159E-03-4.51758E-14
 -1      1242 1.61028E-02-2.34309E-03-4.53692E-14
 -1      1243 1.62109E-02-2.42283E-03-4.55476E-14
 -1      1244 1.63245E-02-2.50641E-03-4.57418E-14
 -1      1245 1.35622E-02-8.49791E-04-3.04537E-14
 -1      1246 1.33688E-02-6.75825E-04-3.02120E-14
 -1      1247 1.30758E-02-4.98374E-04-2.98680E-14
 -1      1248 1.27304E-02-3.30324E-04-2.94582E-14
 -1      1249 1.23084E-02-1.59353E-04-2.89336E-14
 -1      1250 1.18568E-02-1.09019E-05-2.83683E-14
 -1      1251 1.14097E-02 9.33078E-05-2.78042E-14
 -1      1252 1.09294E-02 1.49942E-04-2.71870E-14
 -1      1253 1.04694E-02 1.49608E-04-2.66084E-14
 -1      1254 1.00592E-02 9.95296E-05-2.61179E-14
 -1      1255 9.67401E-03 1.06638E-05-2.56898E-14
 -1      1256 9.32676E-03-1.06512E-04-2.53587E-14
 -1      1257 9.03966E-03-2.42635E-04-2.51381E-14
 -1      1258 8.85203E-03-3.83458E-04-2.50498E-14
 -1      1259 8.77312E-03-5.26588E-04-2.50862E-14
 -1      1260 8.80292E-03-6.85821E-04-2.52376E-14
 -1      1261 8.95140E-03-8.68173E-04-2.54983E-14
 -1      1262 9.20893E-03-1.07510E-03-2.58608E-14
 -1      1263 9.57274E-03-1.31162E-03-2.63152E-14
 -1      1264 1.00133E-02-1.55491E-03-2.68299E-14
 -1      1265 1.05083E-02-1.77132E-03-2.73951E-14
 -1      1266 1.10416E-02-1.92656E-03-2.79867E-14
 -1      1267 1.15675E-02-1.97592E-03-2.85573E-14
 -1      1268 1.20540E-02-1.92741E-03-2.90786E-14
 -1      1269 1.24927E-02-1.80775E-03-2.95275E-14
 -1      1270 1.28782E-02-1.65039E-03-2.99171E-14
 -1      1271 1.31921E-02-1.48414E-03-3.02258E-14
 -1      1272 1.34333E-02-1.31777E-03-3.04321E-14
 -1      1273 1.35828E-02-1.15826E-03-3.05395E-14
 -1      1274 1.36281E-02-1.00558E-03-3.05527E-14
 -1      1275 1.66700E-04-1.10342E-04-1.02728E-17
 -1      1276 1.12541E-04-5.69767E-05-1.78351E-17
 -1      1277 1.17623E-04-6.75841E-05-1.55854E-17
 -1      1278 1.08425E-04-4.34954E-05-2.11284E-17
 -1      1279 1.10286E-04-4.96095E-05-2.02746E-17
 -1      1280 2.26331E-04-1.07629E-04-4.80844E-17
 -1      1281 1.06842E-04-3.36112E-05-2.24565E-17
 -1      1282 1.07690E-04-3.83351E-05-2.21313E-17
 -1      1283 2.19112E-04-8.24637E-05-5.33699E-17
 -1      1284 1.06061E-04-2.53569E-05-2.27954E-17
 -1      1285 1.06491E-04-2.93881E-05-2.27682E-17
 -1      1286 2.15863E-04-6.32803E-05-5.54569E-17
 -1      1287 1.05661E-04-1.80945E-05-2.24159E-17
 -1      1288 1.05891E-04-2.16631E-05-2.26056E-17
 -1      1289 2.14209E-04-4.71967E-05-5.55789E-17
 -1      1290 1.05440E-04-1.12410E-05-2.17247E-17
 -1      1291 1.05563E-04-1.46268E-05-2.19822E-17
 -1      1292 2.13297E-04-3.27577E-05-5.44269E-17
 -1      1293 1.05340E-04-4.68973E-06-2.07896E-17
 -1      1294 1.05393E-04-7.94357E-06-2.10471E-17
 -1      1295 2.12799E-04-1.91925E-05-5.25025E-17
 -1      1296 1.05329E-04 1.74353E-06-1.97596E-17
 -1      1297 1.05327E-04-1.47040E-06-2.01120E-17
 -1      1298 2.12585E-04-6.16079E-06-5.03205E-17
 -1      1299 1.05401E-04 8.22644E-06-1.82281E-17
 -1      1300 1.05344E-04 4.96611E-06-1.86483E-17
 -1      1301 2.12593E-04 6.71008E-06-4.73932E-17
 -1      1302 1.05579E-04 1.49349E-05-1.65747E-17
 -1      1303 1.05451E-04 1.15344E-05-1.71033E-17
 -1      1304 2.12824E-04 1.97678E-05-4.38153E-17
 -1      1305 1.05912E-04 2.19545E-05-1.43521E-17
 -1      1306 1.05677E-04 1.83630E-05-1.50298E-17
 -1      1307 2.13335E-04 3.32722E-05-3.95192E-17
 -1      1308 1.06535E-04 2.98207E-05-1.16823E-17
 -1      1309 1.06095E-04 2.57442E-05-1.25632E-17
 -1      1310 2.14274E-04 4.78012E-05-3.40982E-17
 -1      1311 1.07733E-04 3.89181E-05-7.98244E-18
 -1      1312 1.06880E-04 3.41231E-05-9.39190E-18
 -1      1313 2.15983E-04 6.42106E-05-2.74303E-17
 -1      1314 1.10268E-04 5.03537E-05-2.85958E-18
 -1      1315 1.08434E-04 4.41715E-05-5.05509E-18
 -1      1316 2.19224E-04 8.37174E-05-1.84992E-17
 -1      1317 1.16930E-04 6.76169E-05 4.17418E-18
 -1      1318 1.12179E-04 5.77729E-05 7.86047E-19
 -1      1319 2.26308E-04 1.09451E-04-6.70850E-18
 -1      1320 1.57580E-04 1.09856E-04 1.46503E-17
 -1      1321 1.35661E-04 8.60878E-05 8.79559E-18
 -1      1322 2.56032E-04 1.52089E-04 7.20994E-18
 -1      1323 3.35086E-04 2.20733E-04 2.54923E-17
 -1      1324 4.21541E-04-2.61740E-04-4.66885E-17
 -1      1325 5.74638E-04-3.36800E-04-8.33887E-17
 -1      1326 7.21826E-04-3.97402E-04-1.38168E-16
 -1      1327 8.64994E-04-4.46697E-04-2.09197E-16
 -1      1328 6.12074E-04-3.30894E-04-1.23653E-16
 -1      1329 1.00502E-03-4.87769E-04-2.95513E-16
 -1      1330 1.14286E-03-5.21756E-04-3.97252E-16
 -1      1331 9.05307E-04-4.31592E-04-2.67310E-16
 -1      1332 1.27936E-03-5.50526E-04-5.14305E-16
 -1      1333 1.41500E-03-5.74558E-04-6.46808E-16
 -1      1334 1.18774E-03-5.01009E-04-4.71723E-16
 -1      1335 1.55024E-03-5.94916E-04-7.93704E-16
 -1      1336 1.68534E-03-6.11936E-04-9.54776E-16
 -1      1337 1.46467E-03-5.49772E-04-7.35645E-16
 -1      1338 1.82052E-03-6.26243E-04-1.13054E-15
 -1      1339 1.95590E-03-6.38130E-04-1.32030E-15
 -1      1340 1.73935E-03-5.84060E-04-1.05702E-15
 -1      1341 2.09162E-03-6.48000E-04-1.52404E-15
 -1      1342 2.22770E-03-6.56101E-04-1.74272E-15
 -1      1343 2.01366E-03-6.07851E-04-1.43483E-15
 -1      1344 2.36420E-03-6.62707E-04-1.97509E-15
 -1      1345 2.50114E-03-6.68023E-04-2.22122E-15
 -1      1346 2.28858E-03-6.23953E-04-1.86831E-15
 -1      1347 2.63853E-03-6.72243E-04-2.48155E-15
 -1      1348 2.77635E-03-6.75529E-04-2.75484E-15
 -1      1349 2.56458E-03-6.34435E-04-2.35762E-15
 -1      1350 2.92154E-03-6.78128E-04-3.05473E-15
 -1      1351 3.06717E-03-6.79994E-04-3.36825E-15
 -1      1352 2.84881E-03-6.40959E-04-2.91302E-15
 -1      1353 3.20628E-03-6.81196E-04-3.67856E-15
 -1      1354 3.34577E-03-6.81934E-04-3.99938E-15
 -1      1355 3.13440E-03-6.44435E-04-3.51895E-15
 -1      1356 3.48560E-03-6.82271E-04-4.33116E-15
 -1      1357 3.62575E-03-6.82280E-04-4.67294E-15
 -1      1358 3.41428E-03-6.45753E-04-4.15584E-15
 -1      1359 3.76621E-03-6.82002E-04-5.02521E-15
 -1      1360 3.90696E-03-6.81490E-04-5.38842E-15
 -1      1361 3.69529E-03-6.45630E-04-4.83466E-15
 -1      1362 4.04796E-03-6.80767E-04-5.76117E-15
 -1      1363 4.18921E-03-6.79870E-04-6.14272E-15
 -1      1364 3.97729E-03-6.44480E-04-5.55431E-15
 -1      1365 4.33070E-03-6.78808E-04-6.53548E-15
 -1      1366 4.47239E-03-6.77605E-04-6.93796E-15
 -1      1367 4.26019E-03-6.42571E-04-6.31386E-15
 -1      1368 4.61430E-03-6.76261E-04-7.34913E-15
 -1      1369 4.75641E-03-6.74790E-04-7.76983E-15
 -1      1370 4.54389E-03-6.40060E-04-7.11177E-15
 -1      1371 4.89873E-03-6.73182E-04-8.19807E-15
 -1      1372 5.04125E-03-6.71447E-04-8.63339E-15
 -1      1373 4.82836E-03-6.37015E-04-7.94532E-15
 -1      1374 5.18399E-03-6.69565E-04-9.07830E-15
 -1      1375 5.32696E-03-6.67544E-04-9.53179E-15
 -1      1376 5.11361E-03-6.33434E-04-8.81280E-15
 -1      1377 5.47018E-03-6.65357E-04-9.99164E-15
 -1      1378 5.61367E-03-6.63012E-04-1.04577E-14
 -1      1379 5.39970E-03-6.29266E-04-9.71181E-15
 -1      1380 5.75749E-03-6.60474E-04-1.09322E-14
 -1      1381 5.90165E-03-6.57757E-04-1.14132E-14
 -1      1382 5.68680E-03-6.24419E-04-1.06410E-14
 -1      1383 6.05348E-03-6.54666E-04-1.19247E-14
 -1      1384 6.20585E-03-6.51360E-04-1.24441E-14
 -1      1385 5.98240E-03-6.18631E-04-1.16226E-14
 -1      1386 6.35155E-03-6.47956E-04-1.29442E-14
 -1      1387 6.49794E-03-6.44353E-04-1.34495E-14
 -1      1388 6.27978E-03-6.11892E-04-1.26308E-14
 -1      1389 6.64513E-03-6.40494E-04-1.39601E-14
 -1      1390 6.79327E-03-6.36463E-04-1.44761E-14
 -1      1391 6.57223E-03-6.04312E-04-1.36378E-14
 -1      1392 6.94255E-03-6.32201E-04-1.49961E-14
 -1      1393 7.09317E-03-6.27856E-04-1.55189E-14
 -1      1394 6.86783E-03-5.95735E-04-1.46654E-14
 -1      1395 7.24538E-03-6.23381E-04-1.60468E-14
 -1      1396 7.39948E-03-6.19024E-04-1.65792E-14
 -1      1397 7.16775E-03-5.86339E-04-1.57108E-14
 -1      1398 7.55580E-03-6.14789E-04-1.71151E-14
 -1      1399 7.71476E-03-6.11084E-04-1.76572E-14
 -1      1400 7.47360E-03-5.76667E-04-1.67730E-14
 -1      1401 7.87681E-03-6.08045E-04-1.82032E-14
 -1      1402 8.04248E-03-6.06338E-04-1.87541E-14
 -1      1403 7.78751E-03-5.67977E-04-1.78519E-14
 -1      1404 8.21234E-03-6.06402E-04-1.93106E-14
 -1      1405 8.38704E-03-6.09309E-04-1.98721E-14
 -1      1406 8.11222E-03-5.62903E-04-1.89509E-14
 -1      1407 8.56723E-03-6.16115E-04-2.04401E-14
 -1      1408 8.75357E-03-6.28519E-04-2.10137E-14
 -1      1409 8.45106E-03-5.66645E-04-2.00710E-14
 -1      1410 8.94666E-03-6.48668E-04-2.15915E-14
 -1      1411 9.14694E-03-6.79224E-04-2.21741E-14
 -1      1412 8.80772E-03-5.88980E-04-2.12143E-14
 -1      1413 9.35467E-03-7.23842E-04-2.27600E-14
 -1      1414 9.56946E-03-7.86242E-04-2.33475E-14
 -1      1415 9.18584E-03-6.47218E-04-2.23743E-14
 -1      1416 9.80201E-03-8.76222E-04-2.39672E-14
 -1      1417 1.00393E-02-9.95321E-04-2.45887E-14
 -1      1418 9.59844E-03-7.72982E-04-2.35756E-14
 -1      1419 1.02676E-02-1.13907E-03-2.51776E-14
 -1      1420 1.04932E-02-1.31190E-03-2.57640E-14
 -1      1421 1.00359E-02-1.00225E-03-2.47808E-14
 -1      1422 1.07129E-02-1.50790E-03-2.63458E-14
 -1      1423 1.09203E-02-1.71352E-03-2.69228E-14
 -1      1424 1.04777E-02-1.34636E-03-2.59490E-14
 -1      1425 1.10854E-02-1.88278E-03-2.74106E-14
 -1      1426 1.12391E-02-2.02911E-03-2.78990E-14
 -1      1427 1.08800E-02-1.73147E-03-2.70165E-14
 -1      1428 1.13985E-02-2.15051E-03-2.84456E-14
 -1      1429 1.15526E-02-2.21108E-03-2.89923E-14
 -1      1430 1.12455E-02-2.05113E-03-2.80489E-14
 -1      1431 1.17052E-02-2.20760E-03-2.95395E-14
 -1      1432 1.18679E-02-2.14748E-03-3.00859E-14
 -1      1433 1.16078E-02-2.17838E-03-2.91406E-14
 -1      1434 1.20523E-02-2.04004E-03-3.06681E-14
 -1      1435 1.22521E-02-1.91240E-03-3.12535E-14
 -1      1436 1.19911E-02-2.04856E-03-3.02708E-14
 -1      1437 1.24766E-02-1.77978E-03-3.18732E-14
 -1      1438 1.27097E-02-1.66678E-03-3.24998E-14
 -1      1439 1.24280E-02-1.78165E-03-3.14740E-14
 -1      1440 1.29361E-02-1.58716E-03-3.31050E-14
 -1      1441 1.31613E-02-1.53696E-03-3.37174E-14
 -1      1442 1.28790E-02-1.56212E-03-3.27005E-14
 -1      1443 1.33830E-02-1.51446E-03-3.43370E-14
 -1      1444 1.35986E-02-1.51622E-03-3.49656E-14
 -1      1445 1.33067E-02-1.46492E-03-3.39247E-14
 -1      1446 1.38071E-02-1.53754E-03-3.56026E-14
 -1      1447 1.40080E-02-1.57442E-03-3.62473E-14
 -1      1448 1.37109E-02-1.47194E-03-3.51801E-14
 -1      1449 1.42012E-02-1.62281E-03-3.68971E-14
 -1      1450 1.43871E-02-1.67974E-03-3.75511E-14
 -1      1451 1.40896E-02-1.54881E-03-3.64653E-14
 -1      1452 1.45662E-02-1.74264E-03-3.82087E-14
 -1      1453 1.47390E-02-1.80951E-03-3.88671E-14
 -1      1454 1.44449E-02-1.66538E-03-3.77705E-14
 -1      1455 1.49063E-02-1.87893E-03-3.95247E-14
 -1      1456 1.50687E-02-1.94956E-03-4.01819E-14
 -1      1457 1.47803E-02-1.80145E-03-3.90848E-14
 -1      1458 1.52268E-02-2.02063E-03-4.08388E-14
 -1      1459 1.53811E-02-2.09121E-03-4.14991E-14
 -1      1460 1.50994E-02-1.94462E-03-4.04014E-14
 -1      1461 1.55324E-02-2.16085E-03-4.21590E-14
 -1      1462 1.56810E-02-2.22886E-03-4.28170E-14
 -1      1463 1.54058E-02-2.08727E-03-4.17225E-14
 -1      1464 1.58275E-02-2.29502E-03-4.34776E-14
 -1      1465 1.59723E-02-2.35893E-03-4.41317E-14
 -1      1466 1.57027E-02-2.22445E-03-4.30456E-14
 -1      1467 1.60772E-02-2.40337E-03-4.46134E-14
 -1      1468 1.62203E-02-2.46387E-03-4.52624E-14
 -1      1469 1.61631E-02-2.42270E-03-4.51604E-14
 -1      1470 1.59539E-02-2.33544E-03-4.41932E-14
 -1      1471 6.43081E-04 3.72030E-04 2.95310E-17
 -1      1472 4.92953E-04 3.03694E-04 3.17536E-17
 -1      1473 4.44880E-04 2.65895E-04 1.82824E-17
 -1      1474 9.28669E-04 4.72017E-04-4.26905E-18
 -1      1475 7.87816E-04 4.26518E-04 1.74828E-17
 -1      1476 7.44752E-04 3.90737E-04-1.80249E-18
 -1      1477 1.20355E-03 5.41401E-04-7.81981E-17
 -1      1478 1.06689E-03 5.09727E-04-3.58058E-17
 -1      1479 1.03079E-03 4.76162E-04-6.02816E-17
 -1      1480 1.47410E-03 5.90583E-04-1.95820E-16
 -1      1481 1.33905E-03 5.68121E-04-1.31500E-16
 -1      1482 1.30869E-03 5.35954E-04-1.60516E-16
 -1      1483 1.74363E-03 6.25461E-04-3.58600E-16
 -1      1484 1.60882E-03 6.09564E-04-2.71159E-16
 -1      1485 1.58293E-03 5.78239E-04-3.04485E-16
 -1      1486 2.01383E-03 6.49892E-04-5.66455E-16
 -1      1487 1.87856E-03 6.38808E-04-4.57181E-16
 -1      1488 1.85610E-03 6.07951E-04-4.93434E-16
 -1      1489 2.28551E-03 6.66622E-04-8.17597E-16
 -1      1490 2.14944E-03 6.59089E-04-6.86530E-16
 -1      1491 2.12961E-03 6.28469E-04-7.27039E-16
 -1      1492 2.55898E-03 6.77687E-04-1.11288E-15
 -1      1493 2.42201E-03 6.72764E-04-9.59438E-16
 -1      1494 2.40417E-03 6.42239E-04-1.00424E-15
 -1      1495 2.83431E-03 6.84620E-04-1.45640E-15
 -1      1496 2.69642E-03 6.81595E-04-1.27869E-15
 -1      1497 2.68009E-03 6.51083E-04-1.32763E-15
 -1      1498 3.11141E-03 6.88573E-04-1.84869E-15
 -1      1499 2.97265E-03 6.86914E-04-1.64650E-15
 -1      1500 2.95745E-03 6.56364E-04-1.69904E-15
 -1      1501 3.39012E-03 6.90400E-04-2.28735E-15
 -1      1502 3.25057E-03 6.89712E-04-2.06213E-15
 -1      1503 3.23621E-03 6.59099E-04-2.11732E-15
 -1      1504 3.67023E-03 6.90723E-04-2.77038E-15
 -1      1505 3.53001E-03 6.90720E-04-2.52321E-15
 -1      1506 3.51626E-03 6.60034E-04-2.58090E-15
 -1      1507 3.95158E-03 6.89981E-04-3.29539E-15
 -1      1508 3.81077E-03 6.90465E-04-3.02747E-15
 -1      1509 3.79746E-03 6.59702E-04-3.08789E-15
 -1      1510 4.23400E-03 6.88477E-04-3.86647E-15
 -1      1511 4.09267E-03 6.89311E-04-3.57550E-15
 -1      1512 4.07969E-03 6.58474E-04-3.63854E-15
 -1      1513 4.51735E-03 6.86408E-04-4.48022E-15
 -1      1514 4.37556E-03 6.87504E-04-4.16763E-15
 -1      1515 4.36281E-03 6.56596E-04-4.23249E-15
 -1      1516 4.80155E-03 6.83897E-04-5.13387E-15
 -1      1517 4.65935E-03 6.85201E-04-4.80238E-15
 -1      1518 4.64676E-03 6.54226E-04-4.86759E-15
 -1      1519 5.08658E-03 6.81024E-04-5.82543E-15
 -1      1520 4.94396E-03 6.82500E-04-5.47521E-15
 -1      1521 4.93148E-03 6.51458E-04-5.54302E-15
 -1      1522 5.37243E-03 6.77850E-04-6.55755E-15
 -1      1523 5.22940E-03 6.79468E-04-6.18590E-15
 -1      1524 5.21696E-03 6.48354E-04-6.25624E-15
 -1      1525 5.65919E-03 6.74444E-04-7.33658E-15
 -1      1526 5.51569E-03 6.76167E-04-6.94095E-15
 -1      1527 5.50325E-03 6.44970E-04-7.01163E-15
 -1      1528 5.94697E-03 6.70918E-04-8.16102E-15
 -1      1529 5.80294E-03 6.72682E-04-7.74278E-15
 -1      1530 5.79043E-03 6.41387E-04-7.81332E-15
 -1      1531 6.23590E-03 6.67451E-04-9.03182E-15
 -1      1532 6.09128E-03 6.69157E-04-8.59061E-15
 -1      1533 6.07860E-03 6.37739E-04-8.66138E-15
 -1      1534 6.52616E-03 6.64330E-04-9.94428E-15
 -1      1535 6.38086E-03 6.65821E-04-9.48384E-15
 -1      1536 6.36790E-03 6.34249E-04-9.55280E-15
 -1      1537 6.81785E-03 6.61975E-04-1.08980E-14
 -1      1538 6.67182E-03 6.63023E-04-1.04167E-14
 -1      1539 6.65846E-03 6.31264E-04-1.04846E-14
 -1      1540 7.11103E-03 6.60959E-04-1.18871E-14
 -1      1541 6.96425E-03 6.61260E-04-1.13878E-14
 -1      1542 6.95034E-03 6.29279E-04-1.14529E-14
 -1      1543 7.40556E-03 6.62000E-04-1.29100E-14
 -1      1544 7.25813E-03 6.61182E-04-1.23945E-14
 -1      1545 7.24353E-03 6.28952E-04-1.24567E-14
 -1      1546 7.70107E-03 6.65906E-04-1.39616E-14
 -1      1547 7.55322E-03 6.63564E-04-1.34326E-14
 -1      1548 7.53782E-03 6.31079E-04-1.34929E-14
 -1      1549 7.99681E-03 6.73442E-04-1.50343E-14
 -1      1550 7.84897E-03 6.69212E-04-1.44964E-14
 -1      1551 7.83275E-03 6.36504E-04-1.45544E-14
 -1      1552 8.29160E-03 6.85087E-04-1.61215E-14
 -1      1553 8.14441E-03 6.78786E-04-1.55765E-14
 -1      1554 8.12753E-03 6.45946E-04-1.56314E-14
 -1      1555 8.58378E-03 7.00679E-04-1.72246E-14
 -1      1556 8.43813E-03 6.92492E-04-1.66710E-14
 -1      1557 8.42100E-03 6.59694E-04-1.67259E-14
 -1      1558 8.87132E-03 7.18951E-04-1.83438E-14
 -1      1559 8.72827E-03 7.09673E-04-1.77825E-14
 -1      1560 8.71160E-03 6.77188E-04-1.78365E-14
 -1      1561 9.15208E-03 7.37089E-04-1.94704E-14
 -1      1562 9.01269E-03 7.28333E-04-1.89068E-14
 -1      1563 8.99757E-03 6.96529E-04-1.89600E-14
 -1      1564 9.42424E-03 7.50465E-04-2.05999E-14
 -1      1565 9.28934E-03 7.44757E-04-2.00346E-14
 -1      1566 9.27719E-03 7.14064E-04-2.00886E-14
 -1      1567 9.68691E-03 7.52837E-04-2.17289E-14
 -1      1568 9.55679E-03 7.53452E-04-2.11635E-14
 -1      1569 9.54922E-03 7.24287E-04-2.12194E-14
 -1      1570 9.94061E-03 7.37173E-04-2.28722E-14
 -1      1571 9.81480E-03 7.47643E-04-2.23000E-14
 -1      1572 9.81337E-03 7.20304E-04-2.23575E-14
 -1      1573 1.01875E-02 6.97082E-04-2.40216E-14
 -1      1574 1.00647E-02 7.20428E-04-2.34452E-14
 -1      1575 1.00707E-02 6.94985E-04-2.35045E-14
 -1      1576 1.04313E-02 6.28431E-04-2.51876E-14
 -1      1577 1.03095E-02 6.66364E-04-2.46031E-14
 -1      1578 1.03236E-02 6.42610E-04-2.46605E-14
 -1      1579 1.06762E-02 5.30530E-04-2.63609E-14
 -1      1580 1.05533E-02 5.82950E-04-2.57729E-14
 -1      1581 1.05754E-02 5.60434E-04-2.58273E-14
 -1      1582 1.09261E-02 4.06325E-04-2.75499E-14
 -1      1583 1.08003E-02 4.71356E-04-2.69533E-14
 -1      1584 1.08297E-02 4.49497E-04-2.70044E-14
 -1      1585 1.11837E-02 2.61494E-04-2.87533E-14
 -1      1586 1.10538E-02 3.36051E-04-2.81504E-14
 -1      1587 1.10894E-02 3.14293E-04-2.81977E-14
 -1      1588 1.14501E-02 1.02888E-04-2.99767E-14
 -1      1589 1.13158E-02 1.83500E-04-2.93618E-14
 -1      1590 1.13560E-02 1.61428E-04-2.94093E-14
 -1      1591 1.17246E-02-6.30618E-05-3.12160E-14
 -1      1592 1.15864E-02 2.05118E-05-3.05945E-14
 -1      1593 1.16298E-02-2.09120E-06-3.06394E-14
 -1      1594 1.20057E-02-2.31420E-04-3.24723E-14
 -1      1595 1.18645E-02-1.47136E-04-3.18424E-14
 -1      1596 1.19097E-02-1.70302E-04-3.18858E-14
 -1      1597 1.22912E-02-3.99167E-04-3.37505E-14
 -1      1598 1.21480E-02-3.15452E-04-3.31104E-14
 -1      1599 1.21942E-02-3.39079E-04-3.31512E-14
 -1      1600 1.25789E-02-5.65075E-04-3.50464E-14
 -1      1601 1.24349E-02-4.82348E-04-3.43963E-14
 -1      1602 1.24815E-02-5.06266E-04-3.44355E-14
 -1      1603 1.28672E-02-7.29270E-04-3.63554E-14
 -1      1604 1.27231E-02-6.47332E-04-3.56983E-14
 -1      1605 1.27698E-02-6.71358E-04-3.57360E-14
 -1      1606 1.31550E-02-8.92692E-04-3.76842E-14
 -1      1607 1.30112E-02-8.11006E-04-3.70168E-14
 -1      1608 1.30581E-02-8.34984E-04-3.70535E-14
 -1      1609 1.34419E-02-1.05654E-03-3.90303E-14
 -1      1610 1.32986E-02-9.74505E-04-3.83546E-14
 -1      1611 1.33457E-02-9.98334E-04-3.83904E-14
 -1      1612 1.37279E-02-1.22167E-03-4.03850E-14
 -1      1613 1.35850E-02-1.13893E-03-3.97065E-14
 -1      1614 1.36323E-02-1.16259E-03-3.97427E-14
 -1      1615 1.38979E-02-1.31907E-03-4.11325E-14
 -1      1616 1.41149E-02-1.43109E-03-4.15274E-14
 -1      1617 1.40327E-02-1.38918E-03-4.13908E-14
 -1      1618 1.42808E-02-1.51415E-03-4.17894E-14
 -1      1619 1.41977E-02-1.47278E-03-4.16599E-14
 -1      1620 1.40326E-02-1.37984E-03-4.09984E-14
 -1      1621 1.44486E-02-1.59552E-03-4.20601E-14
 -1      1622 1.43645E-02-1.55510E-03-4.19227E-14
 -1      1623 1.41991E-02-1.46244E-03-4.12634E-14
 -1      1624 1.46179E-02-1.67427E-03-4.23227E-14
 -1      1625 1.45331E-02-1.63528E-03-4.21930E-14
 -1      1626 1.43676E-02-1.54333E-03-4.15280E-14
 -1      1627 1.47851E-02-1.74816E-03-4.25961E-14
 -1      1628 1.47015E-02-1.71171E-03-4.24583E-14
 -1      1629 1.45362E-02-1.62108E-03-4.17963E-14
 -1      1630 1.49540E-02-1.81887E-03-4.28914E-14
 -1      1631 1.48698E-02-1.78412E-03-4.27423E-14
 -1      1632 1.47052E-02-1.69556E-03-4.20729E-14
 -1      1633 1.51193E-02-1.88459E-03-4.31787E-14
 -1      1634 1.50373E-02-1.85236E-03-4.30342E-14
 -1      1635 1.48742E-02-1.76669E-03-4.23535E-14
 -1      1636 1.52779E-02-1.94549E-03-4.34519E-14
 -1      1637 1.51996E-02-1.91560E-03-4.33181E-14
 -1      1638 1.50388E-02-1.83349E-03-4.26314E-14
 -1      1639 1.54266E-02-2.00267E-03-4.37065E-14
 -1      1640 1.53537E-02-1.97445E-03-4.35831E-14
 -1      1641 1.51958E-02-1.89627E-03-4.29018E-14
 -1      1642 1.55631E-02-2.05812E-03-4.39564E-14
 -1      1643 1.54965E-02-2.03046E-03-4.38307E-14
 -1      1644 1.53420E-02-1.95607E-03-4.31608E-14
 -1      1645 1.56846E-02-2.11355E-03-4.41918E-14
 -1      1646 1.56254E-02-2.08555E-03-4.40770E-14
 -1      1647 1.54742E-02-2.01425E-03-4.34088E-14
 -1      1648 1.57970E-02-2.17370E-03-4.44183E-14
 -1      1649 1.57421E-02-2.14299E-03-4.43051E-14
 -1      1650 1.55934E-02-2.07359E-03-4.36472E-14
 -1      1651 1.59023E-02-2.23994E-03-4.46309E-14
 -1      1652 1.58502E-02-2.20596E-03-4.45270E-14
 -1      1653 1.57027E-02-2.13698E-03-4.38747E-14
 -1      1654 1.60064E-02-2.31329E-03-4.48321E-14
 -1      1655 1.59541E-02-2.27573E-03-4.47333E-14
 -1      1656 1.58061E-02-2.20576E-03-4.40928E-14
 -1      1657 1.61109E-02-2.38723E-03-4.50456E-14
 -1      1658 1.60560E-02-2.34697E-03-4.49463E-14
 -1      1659 1.59062E-02-2.27557E-03-4.43183E-14
 -1      1660 1.60066E-02-2.34427E-03-4.45569E-14
 -1      1661 1.35371E-02-8.77586E-04-3.06590E-14
 -1      1662 1.36046E-02-9.27408E-04-3.07464E-14
 -1      1663 1.32698E-02-7.47403E-04-3.03837E-14
 -1      1664 1.34119E-02-8.15660E-04-3.05425E-14
 -1      1665 1.29246E-02-5.64203E-04-2.99495E-14
 -1      1666 1.30898E-02-6.42999E-04-3.01350E-14
 -1      1667 1.25401E-02-3.69679E-04-2.94685E-14
 -1      1668 1.27241E-02-4.59307E-04-2.96957E-14
 -1      1669 1.20623E-02-1.62351E-04-2.88882E-14
 -1      1670 1.22779E-02-2.68452E-04-2.91836E-14
 -1      1671 1.16644E-02 2.53833E-05-2.82689E-14
 -1      1672 1.18485E-02-4.89702E-05-2.85347E-14
 -1      1673 1.12540E-02 1.51472E-04-2.76388E-14
 -1      1674 1.14450E-02 9.99573E-05-2.79367E-14
 -1      1675 1.08301E-02 2.10292E-04-2.69513E-14
 -1      1676 1.10196E-02 1.98528E-04-2.72622E-14
 -1      1677 1.04350E-02 1.66880E-04-2.63651E-14
 -1      1678 1.06094E-02 1.93689E-04-2.66259E-14
 -1      1679 1.00564E-02 7.06695E-05-2.58661E-14
 -1      1680 1.02278E-02 1.20725E-04-2.60896E-14
 -1      1681 9.68543E-03-6.86713E-05-2.54038E-14
 -1      1682 9.86083E-03-1.28804E-06-2.55967E-14
 -1      1683 9.33279E-03-2.22972E-04-2.50442E-14
 -1      1684 9.49246E-03-1.55798E-04-2.51785E-14
 -1      1685 9.01449E-03-3.57414E-04-2.48442E-14
 -1      1686 9.14994E-03-2.96086E-04-2.49273E-14
 -1      1687 8.82045E-03-4.57296E-04-2.48241E-14
 -1      1688 8.89111E-03-4.10805E-04-2.48360E-14
 -1      1689 8.75152E-03-5.58821E-04-2.48741E-14
 -1      1690 8.76773E-03-5.12859E-04-2.48275E-14
 -1      1691 8.81959E-03-6.72142E-04-2.50765E-14
 -1      1692 8.77120E-03-6.18148E-04-2.49759E-14
 -1      1693 9.03453E-03-8.12383E-04-2.53612E-14
 -1      1694 8.91723E-03-7.38276E-04-2.52012E-14
 -1      1695 9.35522E-03-1.02036E-03-2.57978E-14
 -1      1696 9.19483E-03-9.23805E-04-2.56006E-14
 -1      1697 9.80264E-03-1.27662E-03-2.63040E-14
 -1      1698 9.58667E-03-1.14337E-03-2.60464E-14
 -1      1699 1.02484E-02-1.56668E-03-2.68810E-14
 -1      1700 1.00408E-02-1.43996E-03-2.66249E-14
 -1      1701 1.07600E-02-1.83391E-03-2.75118E-14
 -1      1702 1.05349E-02-1.71124E-03-2.72029E-14
 -1      1703 1.12042E-02-1.99894E-03-2.81479E-14
 -1      1704 1.09972E-02-1.93933E-03-2.78663E-14
 -1      1705 1.16523E-02-2.02630E-03-2.87811E-14
 -1      1706 1.14482E-02-2.03502E-03-2.84941E-14
 -1      1707 1.20691E-02-1.92084E-03-2.93057E-14
 -1      1708 1.18855E-02-1.97887E-03-2.90739E-14
 -1      1709 1.24771E-02-1.74024E-03-2.97969E-14
 -1      1710 1.22852E-02-1.83204E-03-2.95802E-14
 -1      1711 1.28595E-02-1.54596E-03-3.01831E-14
 -1      1712 1.26935E-02-1.63514E-03-3.00134E-14
 -1      1713 1.31920E-02-1.36316E-03-3.04951E-14
 -1      1714 1.30441E-02-1.44590E-03-3.03620E-14
 -1      1715 1.34516E-02-1.20892E-03-3.06947E-14
 -1      1716 1.33426E-02-1.27601E-03-3.06173E-14
 -1      1717 1.36097E-02-1.08474E-03-3.07878E-14
 -1      1718 1.35508E-02-1.13888E-03-3.07581E-14
 -1      1719 1.36428E-02-9.81563E-04-3.07928E-14
 -1      1720 1.36436E-02-1.02610E-03-3.08113E-14
 -1      1721 1.27670E-02-5.81610E-04-2.99714E-14
 -1      1722 1.36332E-02-9.73775E-04-3.10165E-14
 -1      1723 1.39454E-02-1.34265E-03-4.11684E-14
 -1      1724 1.38626E-02-1.29173E-03-4.06433E-14
 -1      1725 1.34685E-02-9.00443E-04-3.08497E-14
 -1      1726 1.31539E-02-7.74167E-04-3.04786E-14
 -1      1727 1.23194E-02-3.67867E-04-2.94311E-14
 -1      1728 1.18853E-02-1.30746E-04-2.87928E-14
 -1      1729 1.14924E-02 7.18911E-05-2.81065E-14
 -1      1730 1.10997E-02 2.01755E-04-2.73995E-14
 -1      1731 1.07392E-02 2.28094E-04-2.67007E-14
 -1      1732 1.03749E-02 1.52467E-04-2.61025E-14
 -1      1733 1.00100E-02 1.88871E-05-2.55616E-14
 -1      1734 9.64090E-03-1.50625E-04-2.50709E-14
 -1      1735 9.27327E-03-3.09140E-04-2.47307E-14
 -1      1736 8.96718E-03-4.21363E-04-2.46051E-14
 -1      1737 8.78720E-03-5.02496E-04-2.45985E-14
 -1      1738 8.75172E-03-5.70942E-04-2.47007E-14
 -1      1739 8.87335E-03-6.56546E-04-2.49262E-14
 -1      1740 9.14328E-03-7.92504E-04-2.52892E-14
 -1      1741 9.53947E-03-1.00991E-03-2.57778E-14
 -1      1742 1.00005E-02-1.29784E-03-2.63496E-14
 -1      1743 1.04932E-02-1.62117E-03-2.69941E-14
 -1      1744 1.09349E-02-1.89957E-03-2.76721E-14
 -1      1745 1.13510E-02-2.05071E-03-2.83743E-14
 -1      1746 1.17346E-02-2.03008E-03-2.90133E-14
 -1      1747 1.21250E-02-1.87682E-03-2.95807E-14
 -1      1748 1.25156E-02-1.66259E-03-3.00724E-14
 -1      1749 1.28985E-02-1.44819E-03-3.04670E-14
 -1      1750 1.32338E-02-1.26758E-03-3.07674E-14
 -1      1751 1.34920E-02-1.13360E-03-3.09551E-14
 -1      1752 1.36334E-02-1.04103E-03-3.10423E-14
 -1      1753 2.85241E-04-1.76231E-04-3.77031E-17
 -1      1754 3.32195E-04-1.16773E-04-8.32125E-17
 -1      1755 3.36331E-04-1.33018E-04-8.08273E-17
 -1      1756 3.42210E-04-1.52007E-04-7.71952E-17
 -1      1757 3.51763E-04-1.74009E-04-7.17742E-17
 -1      1758 4.58336E-04-1.88073E-04-1.17636E-16
 -1      1759 3.24568E-04-6.53778E-05-8.44322E-17
 -1      1760 3.25706E-04-7.66760E-05-8.50286E-17
 -1      1761 3.23077E-04-4.38861E-05-8.23045E-17
 -1      1762 3.23730E-04-5.43755E-05-8.35242E-17
 -1      1763 4.36515E-04-7.92807E-05-1.23450E-16
 -1      1764 3.22295E-04-2.37693E-05-7.92281E-17
 -1      1765 3.22625E-04-3.36823E-05-8.09221E-17
 -1      1766 4.34519E-04-5.13122E-05-1.20008E-16
 -1      1767 3.22002E-04-4.33610E-06-7.55147E-17
 -1      1768 3.22098E-04-1.39879E-05-7.74391E-17
 -1      1769 4.33501E-04-2.49210E-05-1.15386E-16
 -1      1770 3.22124E-04 1.49807E-05-7.08797E-17
 -1      1771 3.22010E-04 5.31882E-06-7.34682E-17
 -1      1772 4.33205E-04 7.58231E-07-1.09694E-16
 -1      1773 3.22688E-04 3.47286E-05-6.54858E-17
 -1      1774 3.22338E-04 2.47832E-05-6.83183E-17
 -1      1775 4.33559E-04 2.64663E-05-1.02864E-16
 -1      1776 3.23813E-04 5.51653E-05-5.86147E-17
 -1      1777 3.23152E-04 4.48031E-05-6.23552E-17
 -1      1778 4.34633E-04 5.27200E-05-9.46915E-17
 -1      1779 3.25864E-04 7.78158E-05-5.04018E-17
 -1      1780 3.24670E-04 6.62356E-05-5.48742E-17
 -1      1781 4.36683E-04 8.05990E-05-8.47440E-17
 -1      1782 3.29552E-04 1.03648E-04-3.98038E-17
 -1      1783 3.27399E-04 9.03041E-05-4.55771E-17
 -1      1784 4.40319E-04 1.11572E-04-7.25602E-17
 -1      1785 3.36631E-04 1.35131E-04-2.56414E-17
 -1      1786 3.32462E-04 1.18604E-04-3.34883E-17
 -1      1787 4.46820E-04 1.47345E-04-5.69884E-17
 -1      1788 3.52258E-04 1.77573E-04-6.85758E-18
 -1      1789 3.42788E-04 1.54735E-04-1.71168E-17
 -1      1790 4.59286E-04 1.91436E-04-3.63614E-17
 -1      1791 4.07675E-04 2.33677E-04 8.82270E-18
 -1      1792 3.78066E-04 2.02662E-04-6.36969E-19
 -1      1793 4.95842E-04 2.44012E-04-1.67374E-17
 -1      1794 5.58526E-04 3.02508E-04 1.57209E-18
 -1      1795 3.40023E-04-1.90907E-04-5.74221E-17
 -1      1796 8.53601E-04 4.07115E-04-4.13894E-17
 -1      1797 7.07168E-04 3.59357E-04-1.50026E-17
 -1      1798 6.73422E-04 3.28796E-04-2.69153E-17
 -1      1799 4.58956E-04-2.36714E-04-9.46780E-17
 -1      1800 8.07232E-04-3.74104E-04-2.38809E-16
 -1      1801 9.52500E-04-4.15285E-04-3.26819E-16
 -1      1802 1.09534E-03-4.49967E-04-4.29385E-16
 -1      1803 1.23701E-03-4.78854E-04-5.46587E-16
 -1      1804 1.00393E-03-3.97898E-04-3.87562E-16
 -1      1805 1.37742E-03-5.03330E-04-6.78331E-16
 -1      1806 1.51711E-03-5.23691E-04-8.24400E-16
 -1      1807 1.28962E-03-4.55846E-04-6.22088E-16
 -1      1808 1.65627E-03-5.40856E-04-9.84523E-16
 -1      1809 1.79512E-03-5.55064E-04-1.15871E-15
 -1      1810 1.57203E-03-4.96770E-04-9.13318E-16
 -1      1811 1.93384E-03-5.66922E-04-1.34632E-15
 -1      1812 2.07249E-03-5.76633E-04-1.54790E-15
 -1      1813 1.85265E-03-5.25281E-04-1.25953E-15
 -1      1814 2.21125E-03-5.84614E-04-1.76402E-15
 -1      1815 2.35009E-03-5.91035E-04-1.99331E-15
 -1      1816 2.13256E-03-5.44711E-04-1.66079E-15
 -1      1817 2.48914E-03-5.96192E-04-2.23579E-15
 -1      1818 2.62836E-03-6.00222E-04-2.49189E-15
 -1      1819 2.41243E-03-5.57510E-04-2.11639E-15
 -1      1820 2.77481E-03-6.03473E-04-2.77390E-15
 -1      1821 2.92149E-03-6.05845E-04-3.06916E-15
 -1      1822 2.69969E-03-5.65653E-04-2.63689E-15
 -1      1823 3.06146E-03-6.07443E-04-3.36267E-15
 -1      1824 3.20165E-03-6.08484E-04-3.66744E-15
 -1      1825 2.98755E-03-5.70201E-04-3.20914E-15
 -1      1826 3.34209E-03-6.09070E-04-3.98320E-15
 -1      1827 3.48275E-03-6.09265E-04-4.30973E-15
 -1      1828 3.26908E-03-5.72198E-04-3.81371E-15
 -1      1829 3.62364E-03-6.09139E-04-4.64665E-15
 -1      1830 3.76472E-03-6.08739E-04-4.99342E-15
 -1      1831 3.55130E-03-5.72509E-04-4.46115E-15
 -1      1832 3.90602E-03-6.08108E-04-5.35093E-15
 -1      1833 4.04750E-03-6.07280E-04-5.71849E-15
 -1      1834 3.83418E-03-5.71635E-04-5.15052E-15
 -1      1835 4.18918E-03-6.06276E-04-6.09540E-15
 -1      1836 4.33102E-03-6.05121E-04-6.48170E-15
 -1      1837 4.11769E-03-5.69911E-04-5.87959E-15
 -1      1838 4.47305E-03-6.03822E-04-6.87785E-15
 -1      1839 4.61523E-03-6.02393E-04-7.28233E-15
 -1      1840 4.40178E-03-5.67539E-04-6.64703E-15
 -1      1841 4.75759E-03-6.00828E-04-7.69622E-15
 -1      1842 4.90012E-03-5.99137E-04-8.11891E-15
 -1      1843 4.68645E-03-5.64621E-04-7.45050E-15
 -1      1844 5.04282E-03-5.97304E-04-8.54958E-15
 -1      1845 5.18571E-03-5.95333E-04-8.98869E-15
 -1      1846 4.97169E-03-5.61178E-04-8.28976E-15
 -1      1847 5.32880E-03-5.93200E-04-9.43522E-15
 -1      1848 5.47210E-03-5.90910E-04-9.88946E-15
 -1      1849 5.25755E-03-5.57172E-04-9.16201E-15
 -1      1850 5.61563E-03-5.88428E-04-1.03524E-14
 -1      1851 5.75944E-03-5.85762E-04-1.08222E-14
 -1      1852 5.54411E-03-5.52517E-04-1.00653E-14
 -1      1853 5.91074E-03-5.82719E-04-1.13218E-14
 -1      1854 6.06244E-03-5.79440E-04-1.18295E-14
 -1      1855 5.83871E-03-5.46950E-04-1.10236E-14
 -1      1856 6.20729E-03-5.76047E-04-1.23209E-14
 -1      1857 6.35263E-03-5.72416E-04-1.28158E-14
 -1      1858 6.13440E-03-5.40437E-04-1.20110E-14
 -1      1859 6.49844E-03-5.68495E-04-1.33169E-14
 -1      1860 6.64491E-03-5.64324E-04-1.38238E-14
 -1      1861 6.42425E-03-5.33044E-04-1.29983E-14
 -1      1862 6.79201E-03-5.59861E-04-1.43369E-14
 -1      1863 6.93999E-03-5.55173E-04-1.48542E-14
 -1      1864 6.71581E-03-5.24552E-04-1.40093E-14
 -1      1865 7.08880E-03-5.50243E-04-1.53750E-14
 -1      1866 7.23880E-03-5.45183E-04-1.59009E-14
 -1      1867 7.00956E-03-5.15004E-04-1.50412E-14
 -1      1868 7.38987E-03-5.40037E-04-1.64304E-14
 -1      1869 7.54253E-03-5.34993E-04-1.69642E-14
 -1      1870 7.30609E-03-5.04697E-04-1.60887E-14
 -1      1871 7.69658E-03-5.30232E-04-1.75029E-14
 -1      1872 7.85272E-03-5.26068E-04-1.80458E-14
 -1      1873 7.60609E-03-4.94418E-04-1.71555E-14
 -1      1874 8.01062E-03-5.22954E-04-1.85937E-14
 -1      1875 8.17124E-03-5.21425E-04-1.91459E-14
 -1      1876 7.91034E-03-4.85881E-04-1.82377E-14
 -1      1877 8.33408E-03-5.22435E-04-1.97047E-14
 -1      1878 8.50033E-03-5.26936E-04-2.02688E-14
 -1      1879 8.21980E-03-4.82506E-04-1.93402E-14
 -1      1880 8.66951E-03-5.36686E-04-2.08381E-14
 -1      1881 8.84280E-03-5.53422E-04-2.14120E-14
 -1      1882 8.53585E-03-4.90722E-04-2.04640E-14
 -1      1883 9.02028E-03-5.79934E-04-2.19901E-14
 -1      1884 9.20259E-03-6.19543E-04-2.25709E-14
 -1      1885 8.86107E-03-5.21917E-04-2.16078E-14
 -1      1886 9.40118E-03-6.79199E-04-2.31847E-14
 -1      1887 9.60582E-03-7.63529E-04-2.38009E-14
 -1      1888 9.21020E-03-5.98124E-04-2.27960E-14
 -1      1889 9.81169E-03-8.69596E-04-2.43877E-14
 -1      1890 1.00226E-02-1.00829E-03-2.49712E-14
 -1      1891 9.58815E-03-7.50829E-04-2.39942E-14
 -1      1892 1.02460E-02-1.17671E-03-2.55522E-14
 -1      1893 1.04714E-02-1.37608E-03-2.61320E-14
 -1      1894 1.00019E-02-1.01319E-03-2.51590E-14
 -1      1895 1.06704E-02-1.55970E-03-2.66223E-14
 -1      1896 1.08647E-02-1.74391E-03-2.71114E-14
 -1      1897 1.04305E-02-1.37363E-03-2.62296E-14
 -1      1898 1.11011E-02-1.94999E-03-2.76993E-14
 -1      1899 1.13032E-02-2.08289E-03-2.82443E-14
 -1      1900 1.14887E-02-2.14647E-03-2.87771E-14
 -1      1901 1.16904E-02-2.13887E-03-2.93221E-14
 -1      1902 1.18957E-02-2.06013E-03-2.98878E-14
 -1      1903 1.21181E-02-1.93762E-03-3.04722E-14
 -1      1904 1.23527E-02-1.79213E-03-3.10746E-14
 -1      1905 1.25894E-02-1.65372E-03-3.16981E-14
 -1      1906 1.28283E-02-1.53656E-03-3.22966E-14
 -1      1907 1.30412E-02-1.46100E-03-3.29025E-14
 -1      1908 1.32491E-02-1.41851E-03-3.35159E-14
 -1      1909 1.34457E-02-1.40263E-03-3.41346E-14
 -1      1910 1.32047E-02-1.37268E-03-3.31042E-14
 -1      1911 1.36364E-02-1.41118E-03-3.47601E-14
 -1      1912 1.38197E-02-1.43795E-03-3.53949E-14
 -1      1913 1.35793E-02-1.35330E-03-3.43432E-14
 -1      1914 1.39978E-02-1.47936E-03-3.60365E-14
 -1      1915 1.41710E-02-1.53161E-03-3.66826E-14
 -1      1916 1.39228E-02-1.41361E-03-3.56086E-14
 -1      1917 1.43396E-02-1.59159E-03-3.73332E-14
 -1      1918 1.45048E-02-1.65718E-03-3.79882E-14
 -1      1919 1.42483E-02-1.52099E-03-3.68986E-14
 -1      1920 1.46662E-02-1.72627E-03-3.86465E-14
 -1      1921 1.48249E-02-1.79763E-03-3.93045E-14
 -1      1922 1.45627E-02-1.65330E-03-3.82061E-14
 -1      1923 1.49805E-02-1.86997E-03-3.99640E-14
 -1      1924 1.51340E-02-1.94250E-03-4.06237E-14
 -1      1925 1.48691E-02-1.79656E-03-3.95232E-14
 -1      1926 1.52849E-02-2.01445E-03-4.12855E-14
 -1      1927 1.54342E-02-2.08520E-03-4.19499E-14
 -1      1928 1.51690E-02-1.94209E-03-4.08463E-14
 -1      1929 1.55815E-02-2.15434E-03-4.26135E-14
 -1      1930 1.57275E-02-2.22133E-03-4.32775E-14
 -1      1931 1.54635E-02-2.08417E-03-4.21806E-14
 -1      1932 1.59018E-02-2.29984E-03-4.40711E-14
 -1      1933 1.35840E-03 5.12121E-04-2.32426E-16
 -1      1934 1.21836E-03 4.87064E-04-1.67577E-16
 -1      1935 1.63626E-03 5.50990E-04-3.94460E-16
 -1      1936 1.49759E-03 5.33336E-04-3.07846E-16
 -1      1937 1.41113E-03 4.87365E-04-3.07629E-16
 -1      1938 1.91288E-03 5.78112E-04-6.01678E-16
 -1      1939 1.77465E-03 5.65841E-04-4.92390E-16
 -1      1940 1.69177E-03 5.22878E-04-4.88148E-16
 -1      1941 2.18944E-03 5.96636E-04-8.52928E-16
 -1      1942 2.05114E-03 5.88312E-04-7.21686E-16
 -1      1943 1.97117E-03 5.47491E-04-7.13080E-16
 -1      1944 2.46659E-03 6.08875E-04-1.14893E-15
 -1      1945 2.32793E-03 6.03436E-04-9.95447E-16
 -1      1946 2.25028E-03 5.64123E-04-9.82572E-16
 -1      1947 2.74466E-03 6.16552E-04-1.49178E-15
 -1      1948 2.60551E-03 6.13204E-04-1.31457E-15
 -1      1949 2.52967E-03 5.74938E-04-1.29757E-15
 -1      1950 3.02377E-03 6.20954E-04-1.88116E-15
 -1      1951 2.88409E-03 6.19102E-04-1.68028E-15
 -1      1952 2.80963E-03 5.81550E-04-1.65838E-15
 -1      1953 3.30394E-03 6.23030E-04-2.31724E-15
 -1      1954 3.16373E-03 6.22237E-04-2.09396E-15
 -1      1955 3.09032E-03 5.85161E-04-2.06654E-15
 -1      1956 3.58511E-03 6.23472E-04-2.79799E-15
 -1      1957 3.44441E-03 6.23421E-04-2.55185E-15
 -1      1958 3.37177E-03 5.86654E-04-2.52026E-15
 -1      1959 3.86720E-03 6.22769E-04-3.32086E-15
 -1      1960 3.72605E-03 6.23240E-04-3.05399E-15
 -1      1961 3.65398E-03 5.86667E-04-3.01704E-15
 -1      1962 4.15012E-03 6.21257E-04-3.88813E-15
 -1      1963 4.00856E-03 6.22098E-04-3.59932E-15
 -1      1964 3.93690E-03 5.85646E-04-3.55744E-15
 -1      1965 4.43379E-03 6.19153E-04-4.49646E-15
 -1      1966 4.29187E-03 6.20268E-04-4.18697E-15
 -1      1967 4.22047E-03 5.83891E-04-4.13938E-15
 -1      1968 4.71817E-03 6.16590E-04-5.14625E-15
 -1      1969 4.57590E-03 6.17921E-04-4.81647E-15
 -1      1970 4.50466E-03 5.81593E-04-4.76304E-15
 -1      1971 5.00323E-03 6.13649E-04-5.83469E-15
 -1      1972 4.86062E-03 6.15162E-04-5.48567E-15
 -1      1973 4.78943E-03 5.78865E-04-5.42668E-15
 -1      1974 5.28898E-03 6.10381E-04-6.56270E-15
 -1      1975 5.14602E-03 6.12051E-04-6.19376E-15
 -1      1976 5.07478E-03 5.75772E-04-6.12912E-15
 -1      1977 5.57547E-03 6.06841E-04-7.33310E-15
 -1      1978 5.43213E-03 6.08640E-04-6.94181E-15
 -1      1979 5.36073E-03 5.72361E-04-6.87090E-15
 -1      1980 5.86278E-03 6.03113E-04-8.14855E-15
 -1      1981 5.71901E-03 6.04992E-04-7.73505E-15
 -1      1982 5.64734E-03 5.68682E-04-7.65550E-15
 -1      1983 6.15100E-03 5.99347E-04-9.01049E-15
 -1      1984 6.00676E-03 6.01222E-04-8.57462E-15
 -1      1985 5.93469E-03 5.64829E-04-8.48581E-15
 -1      1986 6.44027E-03 5.95790E-04-9.91245E-15
 -1      1987 6.29550E-03 5.97524E-04-9.45588E-15
 -1      1988 6.22287E-03 5.60965E-04-9.35965E-15
 -1      1989 6.73068E-03 5.92823E-04-1.08537E-14
 -1      1990 6.58532E-03 5.94207E-04-1.03788E-14
 -1      1991 6.51200E-03 5.57363E-04-1.02730E-14
 -1      1992 7.02230E-03 5.90990E-04-1.18302E-14
 -1      1993 6.87634E-03 5.91731E-04-1.13372E-14
 -1      1994 6.80219E-03 5.54439E-04-1.12228E-14
 -1      1995 7.31510E-03 5.90999E-04-1.28415E-14
 -1      1996 7.16856E-03 5.90723E-04-1.23317E-14
 -1      1997 7.09352E-03 5.52777E-04-1.22076E-14
 -1      1998 7.60891E-03 5.93694E-04-1.38823E-14
 -1      1999 7.46191E-03 5.91967E-04-1.33582E-14
 -1      2000 7.38602E-03 5.53133E-04-1.32247E-14
 -1      2001 7.90334E-03 5.99950E-04-1.49463E-14
 -1      2002 7.75611E-03 5.96339E-04-1.44122E-14
 -1      2003 7.67958E-03 5.56391E-04-1.42715E-14
 -1      2004 8.19772E-03 6.10468E-04-1.60291E-14
 -1      2005 8.05062E-03 6.04659E-04-1.54864E-14
 -1      2006 7.97393E-03 5.63447E-04-1.53412E-14
 -1      2007 8.49105E-03 6.25438E-04-1.71266E-14
 -1      2008 8.34464E-03 6.17423E-04-1.65757E-14
 -1      2009 8.26855E-03 5.74973E-04-1.64264E-14
 -1      2010 8.78202E-03 6.44086E-04-1.82410E-14
 -1      2011 8.63698E-03 6.34401E-04-1.76820E-14
 -1      2012 8.56264E-03 5.91058E-04-1.75272E-14
 -1      2013 9.06914E-03 6.64158E-04-1.93642E-14
 -1      2014 8.92621E-03 6.54142E-04-1.88005E-14
 -1      2015 8.85505E-03 6.10710E-04-1.86440E-14
 -1      2016 9.35093E-03 6.81518E-04-2.04965E-14
 -1      2017 9.21082E-03 6.73488E-04-1.99298E-14
 -1      2018 9.14439E-03 6.31317E-04-1.97698E-14
 -1      2019 9.62637E-03 6.90131E-04-2.16311E-14
 -1      2020 9.48949E-03 6.87323E-04-2.10636E-14
 -1      2021 9.42926E-03 6.48254E-04-2.09048E-14
 -1      2022 9.89529E-03 6.82684E-04-2.27733E-14
 -1      2023 9.76157E-03 6.88853E-04-2.22000E-14
 -1      2024 9.70862E-03 6.54944E-04-2.20449E-14
 -1      2025 1.01588E-02 6.51947E-04-2.39214E-14
 -1      2026 1.00275E-02 6.70600E-04-2.33481E-14
 -1      2027 9.98230E-03 6.43650E-04-2.31873E-14
 -1      2028 1.04190E-02 5.92563E-04-2.50796E-14
 -1      2029 1.02890E-02 6.26039E-04-2.44988E-14
 -1      2030 1.02514E-02 6.07062E-04-2.43389E-14
 -1      2031 1.06792E-02 5.02610E-04-2.62467E-14
 -1      2032 1.05488E-02 5.51379E-04-2.56629E-14
 -1      2033 1.05182E-02 5.40268E-04-2.54975E-14
 -1      2034 1.09422E-02 3.84185E-04-2.74245E-14
 -1      2035 1.08101E-02 4.46705E-04-2.68337E-14
 -1      2036 1.07856E-02 4.42281E-04-2.66650E-14
 -1      2037 1.12102E-02 2.42724E-04-2.86221E-14
 -1      2038 1.10754E-02 3.15940E-04-2.80217E-14
 -1      2039 1.10564E-02 3.16348E-04-2.78457E-14
 -1      2040 1.14842E-02 8.53898E-05-2.98355E-14
 -1      2041 1.13464E-02 1.65612E-04-2.92256E-14
 -1      2042 1.13320E-02 1.68874E-04-2.90431E-14
 -1      2043 1.17638E-02-8.07414E-05-3.10679E-14
 -1      2044 1.16234E-02 3.05234E-06-3.04505E-14
 -1      2045 1.16129E-02 7.50936E-06-3.02619E-14
 -1      2046 1.20481E-02-2.50021E-04-3.23179E-14
 -1      2047 1.19055E-02-1.65251E-04-3.16910E-14
 -1      2048 1.18983E-02-1.60715E-04-3.14963E-14
 -1      2049 1.23354E-02-4.18828E-04-3.35864E-14
 -1      2050 1.21915E-02-3.34629E-04-3.29492E-14
 -1      2051 1.21868E-02-3.30574E-04-3.27493E-14
 -1      2052 1.26242E-02-5.85522E-04-3.48740E-14
 -1      2053 1.24797E-02-5.02484E-04-3.42279E-14
 -1      2054 1.24769E-02-4.99020E-04-3.40211E-14
 -1      2055 1.29133E-02-7.50018E-04-3.61788E-14
 -1      2056 1.27688E-02-6.68019E-04-3.55247E-14
 -1      2057 1.27673E-02-6.64954E-04-3.53134E-14
 -1      2058 1.32019E-02-9.13224E-04-3.75014E-14
 -1      2059 1.30577E-02-8.31717E-04-3.68381E-14
 -1      2060 1.30573E-02-8.28699E-04-3.66230E-14
 -1      2061 1.34894E-02-1.07646E-03-3.88437E-14
 -1      2062 1.33458E-02-9.94763E-04-3.81708E-14
 -1      2063 1.33461E-02-9.91412E-04-3.79503E-14
 -1      2064 1.37478E-02-1.22496E-03-4.00805E-14
 -1      2065 1.36046E-02-1.14260E-03-3.94020E-14
 -1      2066 1.36053E-02-1.13869E-03-3.91781E-14
 -1      2067 1.38353E-02-1.27130E-03-4.03019E-14
 -1      2068 1.42867E-02-1.49240E-03-4.10042E-14
 -1      2069 1.42018E-02-1.45221E-03-4.08712E-14
 -1      2070 1.41175E-02-1.41149E-03-4.07386E-14
 -1      2071 1.40336E-02-1.37043E-03-4.06065E-14
 -1      2072 1.40358E-02-1.36147E-03-4.02137E-14
 -1      2073 1.39179E-02-1.31304E-03-4.04346E-14
 -1      2074 1.44545E-02-1.56971E-03-4.12695E-14
 -1      2075 1.43704E-02-1.53140E-03-4.11355E-14
 -1      2076 1.42042E-02-1.44216E-03-4.04773E-14
 -1      2077 1.46253E-02-1.64535E-03-4.15433E-14
 -1      2078 1.45400E-02-1.60798E-03-4.14057E-14
 -1      2079 1.43740E-02-1.52083E-03-4.07403E-14
 -1      2080 1.47942E-02-1.71731E-03-4.18166E-14
 -1      2081 1.47102E-02-1.68183E-03-4.16811E-14
 -1      2082 1.45453E-02-1.59735E-03-4.10087E-14
 -1      2083 1.49580E-02-1.78531E-03-4.20920E-14
 -1      2084 1.48769E-02-1.75179E-03-4.19549E-14
 -1      2085 1.47141E-02-1.67032E-03-4.12798E-14
 -1      2086 1.51133E-02-1.84965E-03-4.23588E-14
 -1      2087 1.50369E-02-1.81785E-03-4.22257E-14
 -1      2088 1.48770E-02-1.73941E-03-4.15502E-14
 -1      2089 1.52568E-02-1.91133E-03-4.26188E-14
 -1      2090 1.51867E-02-1.88066E-03-4.24909E-14
 -1      2091 1.50305E-02-1.80484E-03-4.18176E-14
 -1      2092 1.53846E-02-1.97106E-03-4.28670E-14
 -1      2093 1.53224E-02-1.94110E-03-4.27421E-14
 -1      2094 1.51701E-02-1.86710E-03-4.20759E-14
 -1      2095 1.55014E-02-2.03306E-03-4.31103E-14
 -1      2096 1.54446E-02-2.00169E-03-4.29902E-14
 -1      2097 1.52956E-02-1.92848E-03-4.23267E-14
 -1      2098 1.56077E-02-2.09853E-03-4.33380E-14
 -1      2099 1.55555E-02-2.06519E-03-4.32230E-14
 -1      2100 1.54087E-02-1.99175E-03-4.25699E-14
 -1      2101 1.57091E-02-2.16920E-03-4.35617E-14
 -1      2102 1.56586E-02-2.13316E-03-4.34503E-14
 -1      2103 1.55118E-02-2.05871E-03-4.28035E-14
 -1      2104 1.10801E-03 4.68649E-04-1.18395E-16
 -1      2105 9.65636E-04 4.34273E-04-7.35631E-17
 -1      2106 9.33401E-04 4.04825E-04-8.80779E-17
 -1      2107 1.15821E-03 4.47939E-04-1.77565E-16
 -1      2108 1.30199E-02-7.77311E-04-3.05379E-14
 -1      2109 1.32042E-02-8.55161E-04-3.07917E-14
 -1      2110 1.21797E-02-3.64927E-04-2.94558E-14
 -1      2111 1.24047E-02-4.80011E-04-2.97413E-14
 -1      2112 1.36198E-02-9.92268E-04-3.13356E-14
 -1      2113 1.36566E-02-1.00595E-03-3.13857E-14
 -1      2114 1.26056E-02-5.80900E-04-3.00007E-14
 -1      2115 1.28016E-02-6.79084E-04-3.02588E-14
 -1      2116 1.24726E-02-5.66368E-04-3.00289E-14
 -1      2117 3.27132E-04-8.89808E-05-8.49472E-17
 -1      2118 3.29244E-04-1.02125E-04-8.43509E-17
 -1      2119 4.46321E-04-1.45099E-04-1.23599E-16
 -1      2120 4.39997E-04-1.09939E-04-1.24995E-16
 -1      2121 1.17006E-02-7.27178E-05-2.86441E-14
 -1      2122 1.18840E-02-1.95240E-04-2.89983E-14
 -1      2123 1.13674E-02 1.11370E-04-2.79785E-14
 -1      2124 1.15317E-02 2.53414E-05-2.83110E-14
 -1      2125 1.15729E-02-2.92019E-05-2.85173E-14
 -1      2126 1.10149E-02 2.32947E-04-2.72165E-14
 -1      2127 1.11792E-02 1.85682E-04-2.75892E-14
 -1      2128 1.06452E-02 2.29258E-04-2.64144E-14
 -1      2129 1.08007E-02 2.50086E-04-2.67375E-14
 -1      2130 1.03145E-02 1.28108E-04-2.57979E-14
 -1      2131 1.04699E-02 1.86149E-04-2.60697E-14
 -1      2132 9.98000E-03-2.11164E-05-2.52683E-14
 -1      2133 1.01481E-02 5.99761E-05-2.55334E-14
 -1      2134 1.02450E-02 9.94702E-05-2.55017E-14
 -1      2135 9.59309E-03-2.06214E-04-2.47394E-14
 -1      2136 9.77238E-03-1.20212E-04-2.49616E-14
 -1      2137 9.19870E-03-3.65880E-04-2.44353E-14
 -1      2138 9.37117E-03-2.99856E-04-2.45516E-14
 -1      2139 8.90090E-03-4.66664E-04-2.42680E-14
 -1      2140 9.01978E-03-4.32079E-04-2.42776E-14
 -1      2141 8.76187E-03-5.13520E-04-2.42678E-14
 -1      2142 8.81808E-03-4.94792E-04-2.42681E-14
 -1      2143 8.85043E-03-4.79500E-04-2.39383E-14
 -1      2144 8.76194E-03-5.61149E-04-2.44757E-14
 -1      2145 8.73963E-03-5.41423E-04-2.43761E-14
 -1      2146 8.92172E-03-6.24895E-04-2.47253E-14
 -1      2147 8.82253E-03-5.92257E-04-2.46012E-14
 -1      2148 8.78600E-03-5.48173E-04-2.42753E-14
 -1      2149 9.26724E-03-7.84850E-04-2.52239E-14
 -1      2150 9.09893E-03-7.02550E-04-2.49848E-14
 -1      2151 9.68887E-03-9.93893E-04-2.56891E-14
 -1      2152 9.46969E-03-8.77454E-04-2.54393E-14
 -1      2153 1.01997E-02-1.34279E-03-2.63978E-14
 -1      2154 9.97871E-03-1.17886E-03-2.60744E-14
 -1      2155 1.11041E-02-1.98127E-03-2.78975E-14
 -1      2156 1.09260E-02-1.86523E-03-2.75415E-14
 -1      2157 1.18212E-02-2.01568E-03-2.92918E-14
 -1      2158 1.16579E-02-2.07085E-03-2.89982E-14
 -1      2159 1.21614E-02-1.83937E-03-2.98391E-14
 -1      2160 1.19902E-02-1.93923E-03-2.95640E-14
 -1      2161 1.18981E-02-1.99137E-03-2.95481E-14
 -1      2162 1.25732E-02-1.58335E-03-3.04002E-14
 -1      2163 1.23904E-02-1.69807E-03-3.01851E-14
 -1      2164 1.29494E-02-1.36932E-03-3.07736E-14
 -1      2165 1.27766E-02-1.46768E-03-3.05956E-14
 -1      2166 1.32824E-02-1.19437E-03-3.11202E-14
 -1      2167 1.31321E-02-1.26608E-03-3.09966E-14
 -1      2168 1.35346E-02-1.08709E-03-3.12635E-14
 -1      2169 1.34306E-02-1.12961E-03-3.11993E-14
 -1      2170 1.36538E-02-1.02762E-03-3.13680E-14
 -1      2171 1.36143E-02-1.04831E-03-3.13457E-14
 -1      2172 1.34059E-02-9.29632E-04-3.10666E-14
 -1      2173 1.35304E-02-9.60029E-04-3.11868E-14
 -1      2174 1.09041E-02-1.80186E-03-2.73072E-14
 -1      2175 1.13608E-02-2.09742E-03-2.84242E-14
 -1      2176 6.07881E-04-2.98123E-04-1.48495E-16
 -1      2177 1.18020E-02-2.06819E-03-2.95205E-14
 -1      2178 1.28818E-02-7.61059E-04-3.05702E-14
 -1      2179 1.18449E-02-2.25762E-04-2.91593E-14
 -1      2180 1.19970E-02-2.95282E-04-2.93066E-14
 -1      2181 1.21089E-02-3.91866E-04-2.96189E-14
 -1      2182 6.63602E-04-2.92407E-04-1.89884E-16
 -1      2183 1.22786E-02-1.80369E-03-3.06906E-14
 -1      2184 1.27674E-02-1.52308E-03-3.18938E-14
 -1      2185 1.57830E-02-2.23293E-03-4.36415E-14
 -1      2186 1.38355E-02-1.26272E-03-3.99105E-14
 -1      2187 1.35854E-02-1.00326E-03-3.15543E-14
 -1      2188 1.57341E-02-2.19870E-03-4.35179E-14
 -1      2189 1.32015E-02-9.15182E-04-3.11871E-14
 -1      2190 1.33061E-02-9.24631E-04-3.11263E-14
 -1      2191 1.33947E-02-9.73704E-04-3.14651E-14
 -1      2192 1.36672E-02-1.02772E-03-3.16885E-14
 -1      2193 1.35810E-02-1.06258E-03-3.15903E-14
 -1      2194 1.33569E-02-1.14774E-03-3.14282E-14
 -1      2195 1.30349E-02-1.29885E-03-3.11255E-14
 -1      2196 1.22624E-02-1.77224E-03-3.01658E-14
 -1      2197 9.86228E-03-1.04934E-03-2.57372E-14
 -1      2198 9.00687E-03-6.26001E-04-2.46605E-14
 -1      2199 8.92980E-03-5.72268E-04-2.43348E-14
 -1      2200 9.09945E-03-6.30582E-04-2.45943E-14
 -1      2201 8.73941E-03-5.13657E-04-2.40435E-14
 -1      2202 9.09520E-03-4.08746E-04-2.40969E-14
 -1      2203 9.89528E-03-6.76796E-05-2.49323E-14
 -1      2204 1.05509E-02 2.15885E-04-2.61083E-14
 -1      2205 1.12518E-02 1.48921E-04-2.77965E-14
 -1      2206 1.09019E-02 2.55386E-04-2.69322E-14
 -1      2207 1.09809E-02 2.42969E-04-2.71239E-14
 -1      2208 1.08034E-02 2.62738E-04-2.66469E-14
 -1      2209 9.48646E-03-2.58056E-04-2.44419E-14
 -1      2210 9.39219E-03-7.86316E-04-2.51350E-14
 -1      2211 1.06359E-02-1.66173E-03-2.70452E-14
 -1      2212 1.04115E-02-1.50205E-03-2.67215E-14
 -1      2213 1.16007E-02-2.09011E-03-2.89271E-14
 -1      2214 1.14864E-02-2.08370E-03-2.86513E-14
 -1      2215 1.13110E-02-2.05639E-03-2.83044E-14
 -1      2216 1.26630E-02-1.51234E-03-3.07074E-14
 -1      2217 1.55848E-02-2.12227E-03-4.28809E-14
 -1      2218 1.08130E-02-1.76682E-03-2.72692E-14
 -1      2219 1.03416E-02-1.39237E-03-2.64480E-14
 -1      2220 1.12481E-02-2.04473E-03-2.81734E-14
 -1      2221 5.47793E-04-5.53008E-05-1.68499E-16
 -1      2222 5.48829E-04-7.20171E-05-1.71304E-16
 -1      2223 5.50249E-04-8.93389E-05-1.73567E-16
 -1      2224 5.52119E-04-1.07316E-04-1.75383E-16
 -1      2225 6.65298E-04-9.54925E-05-2.32981E-16
 -1      2226 5.46411E-04 8.85785E-06-1.53482E-16
 -1      2227 5.46392E-04-6.98049E-06-1.57792E-16
 -1      2228 5.47166E-04 4.08704E-05-1.43684E-16
 -1      2229 5.46666E-04 2.47951E-05-1.48834E-16
 -1      2230 6.61350E-04 1.99324E-05-2.05063E-16
 -1      2231 5.48992E-04 7.34934E-05-1.32327E-16
 -1      2232 5.47929E-04 5.70003E-05-1.38453E-16
 -1      2233 6.62676E-04 5.77894E-05-1.92053E-16
 -1      2234 5.52383E-04 1.08968E-04-1.18178E-16
 -1      2235 5.50459E-04 9.08916E-05-1.25524E-16
 -1      2236 6.65537E-04 9.72585E-05-1.76440E-16
 -1      2237 5.58253E-04 1.48309E-04-1.00804E-16
 -1      2238 5.54942E-04 1.28079E-04-1.10006E-16
 -1      2239 6.70628E-04 1.40028E-04-1.57277E-16
 -1      2240 5.68608E-04 1.93891E-04-7.89977E-17
 -1      2241 5.62716E-04 1.70195E-04-9.06935E-17
 -1      2242 6.79255E-04 1.87578E-04-1.34075E-16
 -1      2243 5.88034E-04 2.49505E-04-5.04832E-17
 -1      2244 5.76899E-04 2.20247E-04-6.56755E-17
 -1      2245 6.94242E-04 2.42503E-04-1.04815E-16
 -1      2246 6.42160E-04 3.01303E-04-3.55076E-17
 -1      2247 6.14436E-04 2.73804E-04-4.42761E-17
 -1      2248 7.31536E-04 2.97808E-04-8.08544E-17
 -1      2249 7.88604E-04 3.49696E-04-6.47404E-17
 -1      2250 9.15179E-04-3.46365E-04-3.46132E-16
 -1      2251 1.05928E-03-3.79672E-04-4.49470E-16
 -1      2252 1.20254E-03-4.08055E-04-5.66807E-16
 -1      2253 1.34534E-03-4.31919E-04-6.98050E-16
 -1      2254 1.11698E-03-3.60485E-04-5.12570E-16
 -1      2255 1.48752E-03-4.52124E-04-8.43103E-16
 -1      2256 1.62929E-03-4.68945E-04-1.00201E-15
 -1      2257 1.40330E-03-4.07237E-04-7.74635E-16
 -1      2258 1.77072E-03-4.83056E-04-1.17434E-15
 -1      2259 1.91189E-03-4.94670E-04-1.36013E-15
 -1      2260 1.68843E-03-4.40438E-04-1.09063E-15
 -1      2261 2.05292E-03-5.04281E-04-1.55957E-15
 -1      2262 2.19384E-03-5.12064E-04-1.77267E-15
 -1      2263 1.97261E-03-4.63434E-04-1.46038E-15
 -1      2264 2.33474E-03-5.18379E-04-1.99875E-15
 -1      2265 2.47563E-03-5.23367E-04-2.23782E-15
 -1      2266 2.25625E-03-4.78857E-04-1.88295E-15
 -1      2267 2.62363E-03-5.27463E-04-2.50249E-15
 -1      2268 2.77168E-03-5.30519E-04-2.78059E-15
 -1      2269 2.54675E-03-4.88929E-04-2.37007E-15
 -1      2270 2.91280E-03-5.32659E-04-3.05780E-15
 -1      2271 3.05400E-03-5.34138E-04-3.34667E-15
 -1      2272 2.83727E-03-4.94827E-04-2.90885E-15
 -1      2273 3.19533E-03-5.35088E-04-3.64667E-15
 -1      2274 3.33676E-03-5.35575E-04-3.95731E-15
 -1      2275 3.12088E-03-4.97736E-04-3.48190E-15
 -1      2276 3.47832E-03-5.35691E-04-4.27890E-15
 -1      2277 3.61999E-03-5.35485E-04-4.61083E-15
 -1      2278 3.40473E-03-4.98677E-04-4.09881E-15
 -1      2279 3.76179E-03-5.35017E-04-4.95228E-15
 -1      2280 3.90370E-03-5.34322E-04-5.30476E-15
 -1      2281 3.68887E-03-4.98243E-04-4.75740E-15
 -1      2282 4.04573E-03-5.33436E-04-5.66649E-15
 -1      2283 4.18786E-03-5.32382E-04-6.03794E-15
 -1      2284 3.97331E-03-4.96839E-04-5.45599E-15
 -1      2285 4.33012E-03-5.31177E-04-6.41844E-15
 -1      2286 4.47248E-03-5.29837E-04-6.80829E-15
 -1      2287 4.25807E-03-4.94726E-04-6.19302E-15
 -1      2288 4.61495E-03-5.28364E-04-7.20794E-15
 -1      2289 4.75754E-03-5.26766E-04-7.61580E-15
 -1      2290 4.54313E-03-4.92048E-04-6.96729E-15
 -1      2291 4.90024E-03-5.25034E-04-8.03257E-15
 -1      2292 5.04306E-03-5.23171E-04-8.45774E-15
 -1      2293 4.82851E-03-4.88861E-04-7.77803E-15
 -1      2294 5.18600E-03-5.21160E-04-8.89107E-15
 -1      2295 5.32908E-03-5.19000E-04-9.33235E-15
 -1      2296 5.11422E-03-4.85153E-04-8.62282E-15
 -1      2297 5.47230E-03-5.16667E-04-9.78267E-15
 -1      2298 5.61567E-03-5.14160E-04-1.02398E-14
 -1      2299 5.40029E-03-4.80863E-04-9.50120E-15
 -1      2300 5.76639E-03-5.11305E-04-1.07285E-14
 -1      2301 5.91732E-03-5.08225E-04-1.12240E-14
 -1      2302 5.69392E-03-4.75760E-04-1.04345E-14
 -1      2303 6.06125E-03-5.05044E-04-1.17035E-14
 -1      2304 6.20543E-03-5.01628E-04-1.21908E-14
 -1      2305 5.98802E-03-4.69823E-04-1.13988E-14
 -1      2306 6.34982E-03-4.97945E-04-1.26821E-14
 -1      2307 6.49452E-03-4.94005E-04-1.31793E-14
 -1      2308 6.27544E-03-4.63114E-04-1.23664E-14
 -1      2309 6.63947E-03-4.89789E-04-1.36827E-14
 -1      2310 6.78480E-03-4.85319E-04-1.41927E-14
 -1      2311 6.56337E-03-4.55432E-04-1.33588E-14
 -1      2312 6.93039E-03-4.80604E-04-1.47071E-14
 -1      2313 7.07644E-03-4.75687E-04-1.52256E-14
 -1      2314 6.85177E-03-4.46806E-04-1.43742E-14
 -1      2315 7.22276E-03-4.70636E-04-1.57483E-14
 -1      2316 7.36963E-03-4.65523E-04-1.62756E-14
 -1      2317 7.14052E-03-4.37456E-04-1.54080E-14
 -1      2318 7.51672E-03-4.60538E-04-1.68068E-14
 -1      2319 7.66444E-03-4.55804E-04-1.73428E-14
 -1      2320 7.42931E-03-4.27956E-04-1.64599E-14
 -1      2321 7.81232E-03-4.51722E-04-1.78843E-14
 -1      2322 7.96089E-03-4.48516E-04-1.84286E-14
 -1      2323 7.71757E-03-4.19501E-04-1.75301E-14
 -1      2324 8.10952E-03-4.46937E-04-1.89781E-14
 -1      2325 8.25898E-03-4.47409E-04-1.95335E-14
 -1      2326 8.00447E-03-4.14336E-04-1.86174E-14
 -1      2327 8.40851E-03-4.51198E-04-2.00929E-14
 -1      2328 8.55922E-03-4.59185E-04-2.06573E-14
 -1      2329 8.28908E-03-4.16396E-04-1.97235E-14
 -1      2330 8.71053E-03-4.73240E-04-2.12276E-14
 -1      2331 8.86409E-03-4.95170E-04-2.18018E-14
 -1      2332 8.57111E-03-4.32248E-04-2.08495E-14
 -1      2333 9.02803E-03-5.29320E-04-2.24073E-14
 -1      2334 9.19773E-03-5.79823E-04-2.30181E-14
 -1      2335 8.85997E-03-4.73527E-04-2.20226E-14
 -1      2336 9.36705E-03-6.45187E-04-2.36023E-14
 -1      2337 9.54717E-03-7.36587E-04-2.41858E-14
 -1      2338 9.15945E-03-5.59444E-04-2.32098E-14
 -1      2339 1.27602E-02-7.45698E-04-3.06314E-14
 -1      2340 1.29651E-02-8.33030E-04-3.09146E-14
 -1      2341 1.37204E-02-1.19687E-03-3.93504E-14
 -1      2342 1.35420E-02-1.29625E-03-3.39247E-14
 -1      2343 1.37058E-02-1.31556E-03-3.45506E-14
 -1      2344 1.38636E-02-1.35123E-03-3.51830E-14
 -1      2345 1.40179E-02-1.39817E-03-3.58215E-14
 -1      2346 1.38191E-02-1.29178E-03-3.47592E-14
 -1      2347 1.41692E-02-1.45404E-03-3.64642E-14
 -1      2348 1.43195E-02-1.51641E-03-3.71129E-14
 -1      2349 1.41020E-02-1.39126E-03-3.60313E-14
 -1      2350 1.44682E-02-1.58317E-03-3.77669E-14
 -1      2351 1.46166E-02-1.65320E-03-3.84241E-14
 -1      2352 1.43829E-02-1.51687E-03-3.73285E-14
 -1      2353 1.47639E-02-1.72493E-03-3.90836E-14
 -1      2354 1.49110E-02-1.79772E-03-3.97432E-14
 -1      2355 1.46656E-02-1.65615E-03-3.86415E-14
 -1      2356 1.50571E-02-1.87053E-03-4.04051E-14
 -1      2357 1.52030E-02-1.94287E-03-4.10714E-14
 -1      2358 1.49501E-02-1.80079E-03-3.99636E-14
 -1      2359 1.53228E-02-1.99897E-03-4.16402E-14
 -1      2360 1.54669E-02-2.06884E-03-4.23108E-14
 -1      2361 1.54452E-02-2.04080E-03-4.23425E-14
 -1      2362 1.52110E-02-1.93006E-03-4.11982E-14
 -1      2363 2.03093E-03 5.16059E-04-8.28561E-16
 -1      2364 1.89022E-03 5.06059E-04-7.01574E-16
 -1      2365 1.74934E-03 4.93856E-04-5.85713E-16
 -1      2366 1.60820E-03 4.79250E-04-4.80979E-16
 -1      2367 1.80864E-03 4.64161E-04-6.86896E-16
 -1      2368 1.46671E-03 4.61642E-04-3.87006E-16
 -1      2369 1.32469E-03 4.40788E-04-3.04254E-16
 -1      2370 1.52446E-03 4.35200E-04-4.70462E-16
 -1      2371 2.31215E-03 5.30914E-04-1.11635E-15
 -1      2372 2.17156E-03 5.24290E-04-9.66797E-16
 -1      2373 2.09201E-03 4.84015E-04-9.47810E-16
 -1      2374 2.59344E-03 5.40416E-04-1.45008E-15
 -1      2375 2.45278E-03 5.36245E-04-1.27737E-15
 -1      2376 2.37500E-03 4.97163E-04-1.25370E-15
 -1      2377 2.87506E-03 5.46065E-04-1.82914E-15
 -1      2378 2.73421E-03 5.43655E-04-1.63385E-15
 -1      2379 2.65793E-03 5.05429E-04-1.60570E-15
 -1      2380 3.15715E-03 5.48976E-04-2.25560E-15
 -1      2381 3.01605E-03 5.47812E-04-2.03639E-15
 -1      2382 2.94100E-03 5.10191E-04-2.00346E-15
 -1      2383 3.43977E-03 5.49966E-04-2.72591E-15
 -1      2384 3.29840E-03 5.49674E-04-2.48521E-15
 -1      2385 3.22434E-03 5.12473E-04-2.44718E-15
 -1      2386 3.72293E-03 5.49617E-04-3.23949E-15
 -1      2387 3.58129E-03 5.49932E-04-2.97735E-15
 -1      2388 3.50800E-03 5.13021E-04-2.93485E-15
 -1      2389 4.00660E-03 5.48334E-04-3.79575E-15
 -1      2390 3.86471E-03 5.49074E-04-3.51225E-15
 -1      2391 3.79201E-03 5.12366E-04-3.46499E-15
 -1      2392 4.29077E-03 5.46383E-04-4.39263E-15
 -1      2393 4.14863E-03 5.47429E-04-4.08911E-15
 -1      2394 4.07637E-03 5.10867E-04-4.03605E-15
 -1      2395 4.57542E-03 5.43929E-04-5.03162E-15
 -1      2396 4.43304E-03 5.45211E-04-4.70719E-15
 -1      2397 4.36107E-03 5.08760E-04-4.64872E-15
 -1      2398 4.86053E-03 5.41068E-04-5.70870E-15
 -1      2399 4.71792E-03 5.42545E-04-5.36526E-15
 -1      2400 4.64611E-03 5.06186E-04-5.30141E-15
 -1      2401 5.14612E-03 5.37852E-04-6.42498E-15
 -1      2402 5.00326E-03 5.39501E-04-6.06192E-15
 -1      2403 4.93150E-03 5.03222E-04-5.99336E-15
 -1      2404 5.43221E-03 5.34321E-04-7.18180E-15
 -1      2405 5.28909E-03 5.36123E-04-6.79849E-15
 -1      2406 5.21725E-03 4.99911E-04-6.72371E-15
 -1      2407 5.71886E-03 5.30527E-04-7.98042E-15
 -1      2408 5.57546E-03 5.32452E-04-7.57531E-15
 -1      2409 5.50340E-03 4.96286E-04-7.49417E-15
 -1      2410 6.00616E-03 5.26569E-04-8.82386E-15
 -1      2411 5.86242E-03 5.28560E-04-8.39641E-15
 -1      2412 5.79002E-03 4.92398E-04-8.30701E-15
 -1      2413 6.29420E-03 5.22623E-04-9.70894E-15
 -1      2414 6.15008E-03 5.24580E-04-9.26203E-15
 -1      2415 6.07718E-03 4.88350E-04-9.16334E-15
 -1      2416 6.58312E-03 5.18984E-04-1.06339E-14
 -1      2417 6.43854E-03 5.20744E-04-1.01668E-14
 -1      2418 6.36501E-03 4.84332E-04-1.00612E-14
 -1      2419 6.87305E-03 5.16096E-04-1.15922E-14
 -1      2420 6.72795E-03 5.17416E-04-1.11087E-14
 -1      2421 6.65365E-03 4.80652E-04-1.09955E-14
 -1      2422 7.16411E-03 5.14580E-04-1.25855E-14
 -1      2423 7.01844E-03 5.15126E-04-1.20851E-14
 -1      2424 6.94329E-03 4.77777E-04-1.19631E-14
 -1      2425 7.45642E-03 5.15228E-04-1.36099E-14
 -1      2426 7.31012E-03 5.14583E-04-1.30938E-14
 -1      2427 7.23413E-03 4.76355E-04-1.29634E-14
 -1      2428 7.74998E-03 5.18960E-04-1.46602E-14
 -1      2429 7.60306E-03 5.16654E-04-1.41317E-14
 -1      2430 7.52640E-03 4.77210E-04-1.39945E-14
 -1      2431 8.04468E-03 5.26689E-04-1.57352E-14
 -1      2432 7.89723E-03 5.22277E-04-1.51951E-14
 -1      2433 7.82026E-03 4.81294E-04-1.50513E-14
 -1      2434 8.34019E-03 5.39076E-04-1.68225E-14
 -1      2435 8.19241E-03 5.32278E-04-1.62768E-14
 -1      2436 8.11578E-03 4.89550E-04-1.61277E-14
 -1      2437 8.63585E-03 5.56128E-04-1.79295E-14
 -1      2438 8.48811E-03 5.47052E-04-1.73741E-14
 -1      2439 8.41281E-03 5.02647E-04-1.72210E-14
 -1      2440 8.93062E-03 5.76671E-04-1.90468E-14
 -1      2441 8.78349E-03 5.66091E-04-1.84867E-14
 -1      2442 8.71083E-03 5.20553E-04-1.83300E-14
 -1      2443 9.22311E-03 5.97761E-04-2.01778E-14
 -1      2444 9.07730E-03 5.87404E-04-1.96106E-14
 -1      2445 9.00878E-03 5.41950E-04-1.94523E-14
 -1      2446 9.51176E-03 6.14274E-04-2.13155E-14
 -1      2447 9.36802E-03 6.06989E-04-2.07456E-14
 -1      2448 9.30510E-03 5.63570E-04-2.05857E-14
 -1      2449 9.79537E-03 6.19023E-04-2.24567E-14
 -1      2450 9.65422E-03 6.18626E-04-2.18861E-14
 -1      2451 9.59795E-03 5.79732E-04-2.17262E-14
 -1      2452 1.00737E-02 6.03740E-04-2.36032E-14
 -1      2453 9.93508E-03 6.14397E-04-2.30283E-14
 -1      2454 9.88586E-03 5.82511E-04-2.28689E-14
 -1      2455 1.03479E-02 5.60967E-04-2.47546E-14
 -1      2456 1.02111E-02 5.86164E-04-2.41780E-14
 -1      2457 1.01685E-02 5.62972E-04-2.40164E-14
 -1      2458 1.06205E-02 4.86276E-04-2.59156E-14
 -1      2459 1.04841E-02 5.27718E-04-2.53336E-14
 -1      2460 1.04474E-02 5.13477E-04-2.51707E-14
 -1      2461 1.08946E-02 3.79782E-04-2.70827E-14
 -1      2462 1.07571E-02 4.36809E-04-2.64984E-14
 -1      2463 1.07254E-02 4.30236E-04-2.63306E-14
 -1      2464 1.11725E-02 2.46077E-04-2.82654E-14
 -1      2465 1.10329E-02 3.15905E-04-2.76712E-14
 -1      2466 1.10059E-02 3.14728E-04-2.75003E-14
 -1      2467 1.14554E-02 9.26414E-05-2.94665E-14
 -1      2468 1.13133E-02 1.71310E-04-2.88640E-14
 -1      2469 1.12909E-02 1.73105E-04-2.86840E-14
 -1      2470 1.17429E-02-7.24120E-05-3.06874E-14
 -1      2471 1.15987E-02 1.11004E-05-3.00747E-14
 -1      2472 1.15809E-02 1.39674E-05-2.98891E-14
 -1      2473 1.20337E-02-2.42223E-04-3.19249E-14
 -1      2474 1.18880E-02-1.57062E-04-3.13044E-14
 -1      2475 1.18748E-02-1.54242E-04-3.11113E-14
 -1      2476 1.23262E-02-4.12129E-04-3.31801E-14
 -1      2477 1.21799E-02-3.27356E-04-3.25510E-14
 -1      2478 1.21708E-02-3.25016E-04-3.23529E-14
 -1      2479 1.26190E-02-5.79756E-04-3.44589E-14
 -1      2480 1.24727E-02-4.96293E-04-3.38172E-14
 -1      2481 1.24671E-02-4.94404E-04-3.36134E-14
 -1      2482 1.29111E-02-7.44590E-04-3.57529E-14
 -1      2483 1.27652E-02-6.62500E-04-3.51023E-14
 -1      2484 1.27623E-02-6.60781E-04-3.48946E-14
 -1      2485 1.32017E-02-9.07361E-04-3.70670E-14
 -1      2486 1.30566E-02-8.26159E-04-3.64078E-14
 -1      2487 1.30556E-02-8.24229E-04-3.61928E-14
 -1      2488 1.34907E-02-1.06946E-03-3.84000E-14
 -1      2489 1.33464E-02-9.88402E-04-3.77308E-14
 -1      2490 1.33468E-02-9.85864E-04-3.75119E-14
 -1      2491 1.42934E-02-1.47373E-03-4.02128E-14
 -1      2492 1.42073E-02-1.43383E-03-4.00815E-14
 -1      2493 1.41229E-02-1.39400E-03-3.99517E-14
 -1      2494 1.40388E-02-1.35377E-03-3.98218E-14
 -1      2495 1.40413E-02-1.34735E-03-3.94293E-14
 -1      2496 1.39538E-02-1.31245E-03-3.96888E-14
 -1      2497 1.38694E-02-1.27091E-03-3.95575E-14
 -1      2498 1.38716E-02-1.26455E-03-3.91672E-14
 -1      2499 1.35430E-02-1.01822E-03-3.17893E-14
 -1      2500 1.36292E-02-1.03222E-03-3.19404E-14
 -1      2501 1.44651E-02-1.55139E-03-4.04776E-14
 -1      2502 1.43794E-02-1.51298E-03-4.03448E-14
 -1      2503 1.42125E-02-1.42845E-03-3.96881E-14
 -1      2504 1.46339E-02-1.62546E-03-4.07453E-14
 -1      2505 1.45501E-02-1.58892E-03-4.06118E-14
 -1      2506 1.43849E-02-1.50741E-03-3.99503E-14
 -1      2507 1.47961E-02-1.69543E-03-4.10125E-14
 -1      2508 1.47161E-02-1.66094E-03-4.08792E-14
 -1      2509 1.45539E-02-1.58247E-03-4.02142E-14
 -1      2510 1.49478E-02-1.76146E-03-4.12792E-14
 -1      2511 1.48735E-02-1.72884E-03-4.11448E-14
 -1      2512 1.47155E-02-1.65294E-03-4.04786E-14
 -1      2513 1.50835E-02-1.82358E-03-4.15341E-14
 -1      2514 1.50175E-02-1.79270E-03-4.14081E-14
 -1      2515 1.48642E-02-1.71843E-03-4.07404E-14
 -1      2516 1.52064E-02-1.88582E-03-4.17903E-14
 -1      2517 1.51469E-02-1.85459E-03-4.16625E-14
 -1      2518 1.49981E-02-1.78075E-03-4.10023E-14
 -1      2519 1.53154E-02-1.94966E-03-4.20342E-14
 -1      2520 1.52625E-02-1.91731E-03-4.19138E-14
 -1      2521 1.51170E-02-1.84268E-03-4.12575E-14
 -1      2522 1.54059E-02-2.01137E-03-4.22498E-14
 -1      2523 1.53567E-02-1.97690E-03-4.21281E-14
 -1      2524 1.52122E-02-1.90073E-03-4.14799E-14
 -1      2525 1.52905E-02-1.95648E-03-4.16732E-14
 -1      2526 5.88508E-04-2.37974E-04-1.69840E-16
 -1      2527 7.81308E-04-3.04822E-04-2.66117E-16
 -1      2528 8.40742E-04-2.93593E-04-3.15137E-16
 -1      2529 5.78975E-04-2.10177E-04-1.74841E-16
 -1      2530 1.36839E-02-1.04855E-03-3.21156E-14
 -1      2531 1.36763E-02-1.04976E-03-3.21005E-14
 -1      2532 1.36370E-02-1.05825E-03-3.20159E-14
 -1      2533 1.35653E-02-1.07441E-03-3.19340E-14
 -1      2534 1.36833E-02-1.07099E-03-3.24465E-14
 -1      2535 1.00161E-02-1.09304E-03-2.57093E-14
 -1      2536 9.75784E-03-9.23731E-04-2.53222E-14
 -1      2537 9.01640E-03-4.25121E-04-2.37529E-14
 -1      2538 9.18294E-03-3.74901E-04-2.39109E-14
 -1      2539 1.04714E-02 2.00844E-04-2.57981E-14
 -1      2540 1.06120E-02 2.43608E-04-2.61406E-14
 -1      2541 1.23682E-02-5.53193E-04-3.01041E-14
 -1      2542 1.25474E-02-6.48408E-04-3.03660E-14
 -1      2543 1.31845E-02-1.32256E-03-3.26934E-14
 -1      2544 1.33690E-02-1.29523E-03-3.33056E-14
 -1      2545 1.35222E-02-1.23875E-03-3.35074E-14
 -1      2546 1.26935E-02-1.52323E-03-3.14686E-14
 -1      2547 1.29336E-02-1.40750E-03-3.20678E-14
 -1      2548 5.46605E-04-2.29011E-05-1.61709E-16
 -1      2549 5.47062E-04-3.89426E-05-1.65368E-16
 -1      2550 6.62527E-04-5.58170E-05-2.25690E-16
 -1      2551 6.61298E-04-1.77052E-05-2.16271E-16
 -1      2552 1.14530E-02 1.84580E-05-2.83712E-14
 -1      2553 1.15916E-02-7.52171E-05-2.87049E-14
 -1      2554 9.37350E-03-3.01836E-04-2.40599E-14
 -1      2555 9.57079E-03-2.15671E-04-2.42456E-14
 -1      2556 1.11519E-02 1.82797E-04-2.75961E-14
 -1      2557 1.12967E-02 1.09138E-04-2.79837E-14
 -1      2558 1.13428E-02 6.75257E-05-2.81716E-14
 -1      2559 1.01680E-02 7.10198E-05-2.51685E-14
 -1      2560 1.03046E-02 1.37027E-04-2.54303E-14
 -1      2561 1.16548E-02-2.09825E-03-2.91162E-14
 -1      2562 1.15121E-02-2.11234E-03-2.87686E-14
 -1      2563 9.47215E-03-7.65933E-04-2.49193E-14
 -1      2564 9.29243E-03-6.86929E-04-2.47031E-14
 -1      2565 9.80589E-03-1.06796E-04-2.45613E-14
 -1      2566 9.99078E-03-1.48870E-05-2.48644E-14
 -1      2567 1.00557E-02 3.43912E-05-2.47934E-14
 -1      2568 8.79935E-03-4.77294E-04-2.36364E-14
 -1      2569 8.87246E-03-4.62145E-04-2.36383E-14
 -1      2570 8.72456E-03-5.02433E-04-2.38046E-14
 -1      2571 8.74011E-03-4.93781E-04-2.36985E-14
 -1      2572 8.81338E-03-5.28956E-04-2.40540E-14
 -1      2573 8.75457E-03-5.15990E-04-2.39299E-14
 -1      2574 1.28530E-02-1.39256E-03-3.12710E-14
 -1      2575 1.26842E-02-1.49739E-03-3.10749E-14
 -1      2576 1.30262E-02-1.30043E-03-3.14945E-14
 -1      2577 1.34389E-02-1.11495E-03-3.17759E-14
 -1      2578 1.33063E-02-1.16624E-03-3.16968E-14
 -1      2579 1.37219E-02-1.19329E-03-3.91262E-14
 -1      2580 1.12806E-02-2.06434E-03-2.82372E-14
 -1      2581 6.70244E-04-1.37966E-04-2.37413E-16
 -1      2582 5.54606E-04-1.26221E-04-1.76400E-16
 -1      2583 5.57773E-04-1.46208E-04-1.76603E-16
 -1      2584 1.36803E-02-1.06047E-03-3.23531E-14
 -1      2585 9.02623E-04 3.77946E-04-9.88115E-17
 -1      2586 8.73488E-04 3.51560E-04-1.08163E-16
 -1      2587 1.01625E-03 4.01789E-04-1.40323E-16
 -1      2588 1.17059E-02-1.60082E-04-2.90159E-14
 -1      2589 1.18201E-02-2.46023E-04-2.93263E-14
 -1      2590 1.15982E-02-1.02164E-04-2.88707E-14
 -1      2591 9.34257E-03-6.49780E-04-2.41412E-14
 -1      2592 9.59349E-03-7.71620E-04-2.45328E-14
 -1      2593 1.18963E-02-2.01302E-03-2.96814E-14
 -1      2594 1.22246E-02-1.80152E-03-3.02991E-14
 -1      2595 1.24803E-02-1.63798E-03-3.09047E-14
 -1      2596 1.26578E-02-7.22989E-04-3.07106E-14
 -1      2597 9.84548E-03-9.13868E-04-2.49376E-14
 -1      2598 1.00635E-02-1.08243E-03-2.55156E-14
 -1      2599 1.02047E-02-1.21075E-03-2.59295E-14
 -1      2600 1.04130E-02-1.40512E-03-2.64205E-14
 -1      2601 1.31361E-02-1.29373E-03-3.22638E-14
 -1      2602 1.36389E-02-1.14471E-03-3.86065E-14
 -1      2603 1.11168E-02-1.97407E-03-2.78300E-14
 -1      2604 1.34762E-02-1.01508E-03-3.18477E-14
 -1      2605 1.35475E-02-1.04580E-03-3.22355E-14
 -1      2606 1.34017E-02-1.00941E-03-3.19084E-14
 -1      2607 5.71834E-04-1.85201E-04-1.77538E-16
 -1      2608 8.93530E-03-4.30742E-04-2.34516E-14
 -1      2609 1.22692E-03 4.32513E-04-2.43620E-16
 -1      2610 1.11415E-03 4.15442E-04-1.87147E-16
 -1      2611 1.08606E-03 3.89715E-04-1.97501E-16
 -1      2612 1.28326E-03 4.09745E-04-3.11464E-16
 -1      2613 1.30931E-02-9.00176E-04-3.12526E-14
 -1      2614 1.32095E-02-9.51624E-04-3.15915E-14
 -1      2615 1.29920E-02-8.78715E-04-3.13169E-14
 -1      2616 1.22106E-02-4.75942E-04-2.99548E-14
 -1      2617 1.35348E-02-1.09859E-03-3.22037E-14
 -1      2618 8.86834E-03-5.29913E-04-2.39884E-14
 -1      2619 8.72331E-03-4.88445E-04-2.35834E-14
 -1      2620 9.66605E-03-1.55116E-04-2.41778E-14
 -1      2621 9.61455E-03-8.13377E-04-2.48908E-14
 -1      2622 9.26168E-03-3.27469E-04-2.37145E-14
 -1      2623 9.17381E-03-6.21987E-04-2.43778E-14
 -1      2624 1.20320E-02-1.93070E-03-2.99552E-14
 -1      2625 1.05969E-02-1.55676E-03-2.67455E-14
 -1      2626 1.10491E-02 2.19105E-04-2.73137E-14
 -1      2627 1.06150E-02 2.59121E-04-2.60213E-14
 -1      2628 1.07064E-02 2.64516E-04-2.63327E-14
 -1      2629 1.07836E-02 2.71570E-04-2.65260E-14
 -1      2630 1.03747E-02 1.79358E-04-2.54625E-14
 -1      2631 8.74459E-03-4.71611E-04-2.33978E-14
 -1      2632 1.32583E-02-1.20819E-03-3.21183E-14
 -1      2633 1.08481E-02-1.77099E-03-2.72437E-14
 -1      2634 7.80215E-04 7.73394E-05-2.47076E-16
 -1      2635 7.78955E-04 5.54768E-05-2.55939E-16
 -1      2636 7.78110E-04 3.35635E-05-2.64139E-16
 -1      2637 7.77688E-04 1.18980E-05-2.71877E-16
 -1      2638 8.96525E-04 4.96848E-05-3.30289E-16
 -1      2639 7.91549E-04 1.73132E-04-2.01485E-16
 -1      2640 7.87543E-04 1.47723E-04-2.14550E-16
 -1      2641 8.03381E-04 2.28339E-04-1.71616E-16
 -1      2642 7.96796E-04 1.99939E-04-1.87459E-16
 -1      2643 9.14853E-04 2.07817E-04-2.50911E-16
 -1      2644 8.45775E-04 3.26128E-04-1.16254E-16
 -1      2645 8.19602E-04 3.01547E-04-1.23287E-16
 -1      2646 9.59952E-04 3.50410E-04-1.59120E-16
 -1      2647 1.03367E-03-3.14232E-04-4.59932E-16
 -1      2648 1.17692E-03-3.40347E-04-5.77026E-16
 -1      2649 9.17446E-03-5.74664E-04-2.36867E-14
 -1      2650 9.18597E-03-5.93872E-04-2.40331E-14
 -1      2651 9.03044E-03-5.49355E-04-2.39247E-14
 -1      2652 1.25942E-02-7.11482E-04-3.08829E-14
 -1      2653 1.27810E-02-7.99690E-04-3.11515E-14
 -1      2654 1.32013E-03-3.62756E-04-7.07632E-16
 -1      2655 1.46335E-03-3.81723E-04-8.51681E-16
 -1      2656 1.23838E-03-3.19076E-04-6.42661E-16
 -1      2657 1.60640E-03-3.97789E-04-1.00904E-15
 -1      2658 1.74933E-03-4.11179E-04-1.17945E-15
 -1      2659 1.52497E-03-3.55388E-04-9.29324E-16
 -1      2660 1.89210E-03-4.22361E-04-1.36333E-15
 -1      2661 2.03476E-03-4.31523E-04-1.56017E-15
 -1      2662 1.81166E-03-3.81252E-04-1.26845E-15
 -1      2663 2.17731E-03-4.39039E-04-1.76970E-15
 -1      2664 2.31977E-03-4.45060E-04-1.99255E-15
 -1      2665 2.09812E-03-3.99045E-04-1.65917E-15
 -1      2666 2.46931E-03-4.50087E-04-2.24008E-15
 -1      2667 2.61880E-03-4.53927E-04-2.50121E-15
 -1      2668 2.39145E-03-4.11010E-04-2.11274E-15
 -1      2669 2.76115E-03-4.56704E-04-2.76279E-15
 -1      2670 2.90349E-03-4.58718E-04-3.03550E-15
 -1      2671 2.68455E-03-4.18333E-04-2.61857E-15
 -1      2672 3.04585E-03-4.60124E-04-3.31934E-15
 -1      2673 3.18821E-03-4.60994E-04-3.61469E-15
 -1      2674 2.97033E-03-4.22274E-04-3.15989E-15
 -1      2675 3.33061E-03-4.61438E-04-3.92107E-15
 -1      2676 3.47302E-03-4.61507E-04-4.23798E-15
 -1      2677 3.25602E-03-4.23981E-04-3.74586E-15
 -1      2678 3.61548E-03-4.61279E-04-4.56483E-15
 -1      2679 3.75796E-03-4.60789E-04-4.90165E-15
 -1      2680 3.54166E-03-4.24125E-04-4.37421E-15
 -1      2681 3.90049E-03-4.60089E-04-5.24880E-15
 -1      2682 4.04305E-03-4.59200E-04-5.60516E-15
 -1      2683 3.82729E-03-4.23177E-04-5.04337E-15
 -1      2684 4.18566E-03-4.58154E-04-5.97114E-15
 -1      2685 4.32831E-03-4.56963E-04-6.34611E-15
 -1      2686 4.11293E-03-4.21449E-04-5.75126E-15
 -1      2687 4.47100E-03-4.55642E-04-6.73027E-15
 -1      2688 4.61374E-03-4.54198E-04-7.12383E-15
 -1      2689 4.39861E-03-4.19134E-04-6.49665E-15
 -1      2690 4.75652E-03-4.52630E-04-7.52715E-15
 -1      2691 4.89935E-03-4.50942E-04-7.93800E-15
 -1      2692 4.68432E-03-4.16325E-04-7.27791E-15
 -1      2693 5.04222E-03-4.49124E-04-8.35733E-15
 -1      2694 5.18515E-03-4.47174E-04-8.78513E-15
 -1      2695 4.97007E-03-4.13049E-04-8.09520E-15
 -1      2696 5.32812E-03-4.45077E-04-9.22229E-15
 -1      2697 5.47114E-03-4.42829E-04-9.66751E-15
 -1      2698 5.25585E-03-4.09278E-04-8.94596E-15
 -1      2699 5.62135E-03-4.40285E-04-1.01429E-14
 -1      2700 5.77163E-03-4.37548E-04-1.06271E-14
 -1      2701 5.54878E-03-4.04834E-04-9.85318E-15
 -1      2702 5.91478E-03-4.34740E-04-1.10947E-14
 -1      2703 6.05798E-03-4.31733E-04-1.15696E-14
 -1      2704 5.84164E-03-3.99726E-04-1.07929E-14
 -1      2705 6.20118E-03-4.28514E-04-1.20523E-14
 -1      2706 6.34442E-03-4.25080E-04-1.25410E-14
 -1      2707 6.12720E-03-3.94035E-04-1.17392E-14
 -1      2708 6.48761E-03-4.21434E-04-1.30365E-14
 -1      2709 6.63081E-03-4.17578E-04-1.35367E-14
 -1      2710 6.41239E-03-3.87625E-04-1.27146E-14
 -1      2711 6.77387E-03-4.13549E-04-1.40422E-14
 -1      2712 6.91686E-03-4.09352E-04-1.45528E-14
 -1      2713 6.69688E-03-3.80570E-04-1.37122E-14
 -1      2714 7.05957E-03-4.05085E-04-1.50689E-14
 -1      2715 7.20209E-03-4.00760E-04-1.55892E-14
 -1      2716 6.98012E-03-3.73113E-04-1.47297E-14
 -1      2717 7.34408E-03-3.96582E-04-1.61150E-14
 -1      2718 7.48568E-03-3.92569E-04-1.66434E-14
 -1      2719 7.26127E-03-3.65786E-04-1.57680E-14
 -1      2720 7.62641E-03-3.89101E-04-1.71764E-14
 -1      2721 7.76643E-03-3.86210E-04-1.77149E-14
 -1      2722 7.53901E-03-3.59573E-04-1.68252E-14
 -1      2723 7.90509E-03-3.84541E-04-1.82579E-14
 -1      2724 8.04265E-03-3.84150E-04-1.88042E-14
 -1      2725 7.81147E-03-3.56146E-04-1.78976E-14
 -1      2726 8.17825E-03-3.86054E-04-1.93550E-14
 -1      2727 8.31240E-03-3.90367E-04-1.99108E-14
 -1      2728 8.07611E-03-3.58130E-04-1.89891E-14
 -1      2729 8.44404E-03-3.98542E-04-2.04743E-14
 -1      2730 8.57431E-03-4.10952E-04-2.10400E-14
 -1      2731 8.32986E-03-3.69340E-04-2.00990E-14
 -1      2732 8.70840E-03-4.30671E-04-2.16406E-14
 -1      2733 8.84213E-03-4.57609E-04-2.22433E-14
 -1      2734 8.57576E-03-3.95926E-04-2.12585E-14
 -1      2735 9.03938E-03-5.16626E-04-2.31036E-14
 -1      2736 1.40437E-02-1.33387E-03-3.56038E-14
 -1      2737 1.41735E-02-1.39241E-03-3.62435E-14
 -1      2738 1.43043E-02-1.45531E-03-3.68893E-14
 -1      2739 1.44376E-02-1.52210E-03-3.75425E-14
 -1      2740 1.42315E-02-1.39854E-03-3.64554E-14
 -1      2741 1.45723E-02-1.59107E-03-3.81967E-14
 -1      2742 1.47090E-02-1.66199E-03-3.88551E-14
 -1      2743 1.44834E-02-1.52994E-03-3.77548E-14
 -1      2744 1.48468E-02-1.73360E-03-3.95190E-14
 -1      2745 1.49859E-02-1.80569E-03-4.01853E-14
 -1      2746 1.47466E-02-1.66926E-03-3.90711E-14
 -1      2747 1.50803E-02-1.85328E-03-4.06409E-14
 -1      2748 1.51961E-02-1.90993E-03-4.12116E-14
 -1      2749 1.51588E-02-1.88168E-03-4.11138E-14
 -1      2750 1.49735E-02-1.78770E-03-4.01949E-14
 -1      2751 1.86959E-03 4.33734E-04-7.91535E-16
 -1      2752 1.72699E-03 4.22058E-04-6.69048E-16
 -1      2753 2.15439E-03 4.51322E-04-1.07083E-15
 -1      2754 2.01205E-03 4.43431E-04-9.25692E-16
 -1      2755 1.93192E-03 4.02690E-04-9.00511E-16
 -1      2756 1.58424E-03 4.07958E-04-5.57361E-16
 -1      2757 1.44126E-03 3.91221E-04-4.56558E-16
 -1      2758 1.64560E-03 3.79983E-04-6.48299E-16
 -1      2759 2.72316E-03 4.69966E-04-1.76482E-15
 -1      2760 2.58102E-03 4.66885E-04-1.57436E-15
 -1      2761 3.00749E-03 4.73923E-04-2.18135E-15
 -1      2762 2.86533E-03 4.72283E-04-1.96715E-15
 -1      2763 2.78911E-03 4.34119E-04-1.92819E-15
 -1      2764 3.29191E-03 4.75651E-04-2.64219E-15
 -1      2765 3.14969E-03 4.75024E-04-2.40613E-15
 -1      2766 3.07452E-03 4.37340E-04-2.36238E-15
 -1      2767 3.57649E-03 4.75825E-04-3.14673E-15
 -1      2768 3.43419E-03 4.75903E-04-2.88921E-15
 -1      2769 3.35989E-03 4.38577E-04-2.84056E-15
 -1      2770 3.86125E-03 4.74921E-04-3.69293E-15
 -1      2771 3.71885E-03 4.75487E-04-3.41488E-15
 -1      2772 3.64527E-03 4.38433E-04-3.36191E-15
 -1      2773 4.14621E-03 4.73258E-04-4.27932E-15
 -1      2774 4.00371E-03 4.74171E-04-3.98107E-15
 -1      2775 3.93069E-03 4.37330E-04-3.92361E-15
 -1      2776 4.43137E-03 4.71040E-04-4.90783E-15
 -1      2777 4.28877E-03 4.72210E-04-4.58867E-15
 -1      2778 4.21616E-03 4.35547E-04-4.52583E-15
 -1      2779 4.71674E-03 4.68384E-04-5.57456E-15
 -1      2780 4.57403E-03 4.69762E-04-5.23636E-15
 -1      2781 4.50170E-03 4.33257E-04-5.16892E-15
 -1      2782 5.00234E-03 4.65354E-04-6.28012E-15
 -1      2783 4.85951E-03 4.66914E-04-5.92244E-15
 -1      2784 4.78733E-03 4.30556E-04-5.84989E-15
 -1      2785 5.28818E-03 4.61978E-04-7.02476E-15
 -1      2786 5.14523E-03 4.63707E-04-6.64746E-15
 -1      2787 5.07306E-03 4.27490E-04-6.56967E-15
 -1      2788 5.57432E-03 4.58285E-04-7.80886E-15
 -1      2789 5.43121E-03 4.60169E-04-7.41166E-15
 -1      2790 5.35892E-03 4.24079E-04-7.32747E-15
 -1      2791 5.86082E-03 4.54324E-04-8.63589E-15
 -1      2792 5.71752E-03 4.56334E-04-8.21749E-15
 -1      2793 5.64497E-03 4.20343E-04-8.12565E-15
 -1      2794 6.14777E-03 4.50200E-04-9.50506E-15
 -1      2795 6.00423E-03 4.52274E-04-9.06512E-15
 -1      2796 5.93126E-03 4.16326E-04-8.96614E-15
 -1      2797 6.43530E-03 4.46106E-04-1.04134E-14
 -1      2798 6.29145E-03 4.48134E-04-9.95445E-15
 -1      2799 6.21792E-03 4.12130E-04-9.84781E-15
 -1      2800 6.72362E-03 4.42359E-04-1.13566E-14
 -1      2801 6.57935E-03 4.44165E-04-1.08806E-14
 -1      2802 6.50509E-03 4.07944E-04-1.07664E-14
 -1      2803 7.01296E-03 4.39438E-04-1.23341E-14
 -1      2804 6.86814E-03 4.40760E-04-1.18415E-14
 -1      2805 6.79303E-03 4.04087E-04-1.17195E-14
 -1      2806 7.30363E-03 4.38006E-04-1.33420E-14
 -1      2807 7.15811E-03 4.38487E-04-1.28349E-14
 -1      2808 7.08206E-03 4.01036E-04-1.27058E-14
 -1      2809 7.59599E-03 4.38916E-04-1.43781E-14
 -1      2810 7.44959E-03 4.38107E-04-1.38569E-14
 -1      2811 7.37262E-03 3.99465E-04-1.37202E-14
 -1      2812 7.89040E-03 4.43155E-04-1.54409E-14
 -1      2813 7.74294E-03 4.40550E-04-1.49066E-14
 -1      2814 7.66523E-03 4.00246E-04-1.47634E-14
 -1      2815 8.18716E-03 4.51716E-04-1.65198E-14
 -1      2816 8.03852E-03 4.46830E-04-1.59780E-14
 -1      2817 7.96048E-03 4.04420E-04-1.58290E-14
 -1      2818 8.48629E-03 4.65324E-04-1.76192E-14
 -1      2819 8.33649E-03 4.57853E-04-1.70679E-14
 -1      2820 8.25889E-03 4.13066E-04-1.69142E-14
 -1      2821 8.78735E-03 4.83977E-04-1.87305E-14
 -1      2822 8.63669E-03 4.74053E-04-1.81731E-14
 -1      2823 8.56066E-03 4.27030E-04-1.80151E-14
 -1      2824 9.08922E-03 5.06284E-04-1.98578E-14
 -1      2825 8.93834E-03 4.94832E-04-1.92927E-14
 -1      2826 8.86542E-03 4.46429E-04-1.91326E-14
 -1      2827 9.39003E-03 5.28675E-04-2.09953E-14
 -1      2828 9.23994E-03 5.17807E-04-2.04258E-14
 -1      2829 9.17185E-03 4.69861E-04-2.02649E-14
 -1      2830 9.68749E-03 5.44828E-04-2.21367E-14
 -1      2831 9.53933E-03 5.38068E-04-2.15657E-14
 -1      2832 9.47761E-03 4.93427E-04-2.14045E-14
 -1      2833 9.97974E-03 5.45866E-04-2.32813E-14
 -1      2834 9.83429E-03 5.47906E-04-2.27089E-14
 -1      2835 9.77982E-03 5.09966E-04-2.25474E-14
 -1      2836 1.02665E-02 5.21918E-04-2.44298E-14
 -1      2837 1.01236E-02 5.37631E-04-2.38544E-14
 -1      2838 1.00762E-02 5.09311E-04-2.36932E-14
 -1      2839 1.05497E-02 4.65086E-04-2.55854E-14
 -1      2840 1.04082E-02 4.97961E-04-2.50074E-14
 -1      2841 1.03668E-02 4.80418E-04-2.48428E-14
 -1      2842 1.08329E-02 3.72393E-04-2.67447E-14
 -1      2843 1.06909E-02 4.23137E-04-2.61641E-14
 -1      2844 1.06541E-02 4.15172E-04-2.59983E-14
 -1      2845 1.11196E-02 2.47100E-04-2.79140E-14
 -1      2846 1.09755E-02 3.13361E-04-2.73283E-14
 -1      2847 1.09427E-02 3.11900E-04-2.71580E-14
 -1      2848 1.14118E-02 9.72447E-05-2.91042E-14
 -1      2849 1.12650E-02 1.74586E-04-2.85076E-14
 -1      2850 1.12363E-02 1.76139E-04-2.83307E-14
 -1      2851 1.17089E-02-6.73713E-05-3.03083E-14
 -1      2852 1.15599E-02 1.61622E-05-2.97037E-14
 -1      2853 1.15360E-02 1.81020E-05-2.95216E-14
 -1      2854 1.20091E-02-2.38151E-04-3.15343E-14
 -1      2855 1.18588E-02-1.52442E-04-3.09201E-14
 -1      2856 1.18403E-02-1.51369E-04-3.07293E-14
 -1      2857 1.23099E-02-4.09179E-04-3.27787E-14
 -1      2858 1.21596E-02-3.23884E-04-3.21545E-14
 -1      2859 1.21465E-02-3.23836E-04-3.19579E-14
 -1      2860 1.26096E-02-5.77404E-04-3.40464E-14
 -1      2861 1.24601E-02-4.93724E-04-3.34096E-14
 -1      2862 1.24516E-02-4.94272E-04-3.32068E-14
 -1      2863 1.29068E-02-7.42044E-04-3.53288E-14
 -1      2864 1.27586E-02-6.60143E-04-3.46843E-14
 -1      2865 1.27540E-02-6.60686E-04-3.44761E-14
 -1      2866 1.32011E-02-9.03783E-04-3.66330E-14
 -1      2867 1.30543E-02-8.23189E-04-3.59788E-14
 -1      2868 1.30526E-02-8.23169E-04-3.57659E-14
 -1      2869 1.34933E-02-1.06437E-03-3.79479E-14
 -1      2870 1.33480E-02-9.84311E-04-3.72832E-14
 -1      2871 1.33482E-02-9.83326E-04-3.70641E-14
 -1      2872 1.36414E-02-1.14266E-03-3.83736E-14
 -1      2873 1.43048E-02-1.46526E-03-3.94217E-14
 -1      2874 1.42184E-02-1.42556E-03-3.92919E-14
 -1      2875 1.38112E-02-1.22846E-03-3.86348E-14
 -1      2876 1.37260E-02-1.18561E-03-3.85034E-14
 -1      2877 1.35796E-02-1.10688E-03-3.78472E-14
 -1      2878 1.41315E-02-1.38488E-03-3.91625E-14
 -1      2879 1.40445E-02-1.34348E-03-3.90330E-14
 -1      2880 1.40504E-02-1.34307E-03-3.86412E-14
 -1      2881 1.46356E-02-1.61180E-03-3.99474E-14
 -1      2882 1.45563E-02-1.57715E-03-3.98161E-14
 -1      2883 1.47814E-02-1.67617E-03-4.02090E-14
 -1      2884 1.47104E-02-1.64449E-03-4.00783E-14
 -1      2885 1.45554E-02-1.57104E-03-3.94219E-14
 -1      2886 1.49133E-02-1.73804E-03-4.04729E-14
 -1      2887 1.48496E-02-1.70734E-03-4.03413E-14
 -1      2888 1.47007E-02-1.63476E-03-3.96851E-14
 -1      2889 1.50274E-02-1.79906E-03-4.07293E-14
 -1      2890 1.49725E-02-1.76836E-03-4.06009E-14
 -1      2891 1.48287E-02-1.69502E-03-3.99478E-14
 -1      2892 1.37277E-02-1.09683E-03-3.29015E-14
 -1      2893 1.36885E-02-1.09722E-03-3.28173E-14
 -1      2894 8.85370E-03-4.25001E-04-2.30855E-14
 -1      2895 8.98662E-03-3.95088E-04-2.32001E-14
 -1      2896 8.89246E-03-5.04419E-04-2.36427E-14
 -1      2897 8.78377E-03-4.76293E-04-2.33628E-14
 -1      2898 8.90077E-03-4.88256E-04-2.32977E-14
 -1      2899 1.36073E-02-1.10879E-03-3.26581E-14
 -1      2900 1.34934E-02-1.13340E-03-3.24996E-14
 -1      2901 1.36768E-02-1.12848E-03-3.31158E-14
 -1      2902 1.34778E-02-1.18577E-03-3.29246E-14
 -1      2903 1.36160E-02-1.19843E-03-3.35388E-14
 -1      2904 6.88560E-04-2.04000E-04-2.40856E-16
 -1      2905 9.14606E-03-3.43627E-04-2.33256E-14
 -1      2906 9.31247E-03-2.80439E-04-2.34741E-14
 -1      2907 1.36721E-02-1.08176E-03-3.26957E-14
 -1      2908 1.37311E-02-1.09067E-03-3.28751E-14
 -1      2909 1.02769E-02 1.64761E-04-2.50732E-14
 -1      2910 1.04192E-02 2.19326E-04-2.54383E-14
 -1      2911 1.12637E-02 1.04640E-04-2.79958E-14
 -1      2912 1.13978E-02 2.22742E-05-2.83833E-14
 -1      2913 9.95047E-03 8.09968E-06-2.44091E-14
 -1      2914 1.01044E-02 8.46086E-05-2.47102E-14
 -1      2915 9.53857E-03-1.85380E-04-2.37506E-14
 -1      2916 9.74747E-03-8.96624E-05-2.40641E-14
 -1      2917 7.84401E-04 1.23467E-04-2.26354E-16
 -1      2918 7.82017E-04 1.00031E-04-2.37223E-16
 -1      2919 8.99634E-04 9.94563E-05-3.08130E-16
 -1      2920 9.05364E-04 1.51598E-04-2.81879E-16
 -1      2921 7.81749E-04-9.79731E-05-3.01273E-16
 -1      2922 7.84060E-04-1.21326E-04-3.05162E-16
 -1      2923 8.72018E-03-4.64397E-04-2.32396E-14
 -1      2924 8.68740E-03-4.59512E-04-2.31162E-14
 -1      2925 8.71687E-03-4.45124E-04-2.28944E-14
 -1      2926 1.09143E-02 2.56162E-04-2.69125E-14
 -1      2927 1.10647E-02 2.04945E-04-2.73849E-14
 -1      2928 8.70229E-03-4.58263E-04-2.31298E-14
 -1      2929 8.74700E-03-4.49326E-04-2.30686E-14
 -1      2930 1.44744E-02-1.54119E-03-3.96849E-14
 -1      2931 1.43903E-02-1.50385E-03-3.95535E-14
 -1      2932 1.43956E-02-1.50139E-03-3.91603E-14
 -1      2933 1.39700E-02-1.30713E-03-3.88999E-14
 -1      2934 1.38851E-02-1.26547E-03-3.87721E-14
 -1      2935 1.37386E-02-1.18866E-03-3.81127E-14
 -1      2936 1.38878E-02-1.26374E-03-3.83809E-14
 -1      2937 2.43884E-03 4.62849E-04-1.39473E-15
 -1      2938 2.29665E-03 4.57747E-04-1.22703E-15
 -1      2939 2.21790E-03 4.18094E-04-1.19750E-15
 -1      2940 2.50360E-03 4.28079E-04-1.53963E-15
 -1      2941 1.37879E-02-1.23710E-03-3.43364E-14
 -1      2942 1.39161E-02-1.28162E-03-3.49660E-14
 -1      2943 1.39934E-02-1.28116E-03-3.51752E-14
 -1      2944 1.20495E-02-3.96784E-04-2.98328E-14
 -1      2945 1.22865E-02-5.44068E-04-3.03233E-14
 -1      2946 8.95502E-04 1.01129E-06-3.48964E-16
 -1      2947 7.77659E-04-9.72075E-06-2.78830E-16
 -1      2948 7.78022E-04-3.13699E-05-2.85443E-16
 -1      2949 8.07524E-04 2.68334E-04-1.43765E-16
 -1      2950 1.29191E-02-8.62811E-04-3.14924E-14
 -1      2951 1.15025E-02-4.69302E-05-2.86948E-14
 -1      2952 1.16082E-02-1.19421E-04-2.90074E-14
 -1      2953 1.14211E-02 9.35401E-07-2.85183E-14
 -1      2954 1.24335E-02-6.30404E-04-3.07630E-14
 -1      2955 9.80649E-03-2.91110E-05-2.39807E-14
 -1      2956 1.01610E-02 1.41549E-04-2.46864E-14
 -1      2957 8.86616E-03-4.61565E-04-2.27164E-14
 -1      2958 8.77245E-03-4.23367E-04-2.28170E-14
 -1      2959 8.80006E-03-3.91958E-04-2.25673E-14
 -1      2960 8.70479E-03-4.13348E-04-2.25500E-14
 -1      2961 9.26623E-03-2.35101E-04-2.29710E-14
 -1      2962 9.39910E-03-2.17210E-04-2.33599E-14
 -1      2963 9.46867E-03-1.50809E-04-2.32457E-14
 -1      2964 1.32379E-02-9.82777E-04-3.20442E-14
 -1      2965 1.33198E-02-9.98716E-04-3.19774E-14
 -1      2966 1.34186E-02-1.03509E-03-3.23626E-14
 -1      2967 1.37325E-02-1.17702E-03-3.37430E-14
 -1      2968 1.42251E-02-1.42485E-03-3.88997E-14
 -1      2969 7.88873E-04-2.52468E-04-2.93412E-16
 -1      2970 9.20042E-04-2.88257E-04-3.77357E-16
 -1      2971 1.37698E-02-1.11606E-03-3.32490E-14
 -1      2972 1.51146E-02-1.85281E-03-4.09708E-14
 -1      2973 1.50745E-02-1.82649E-03-4.08727E-14
 -1      2974 1.49330E-02-1.75129E-03-4.02221E-14
 -1      2975 1.50230E-02-1.80623E-03-4.05096E-14
 -1      2976 1.35905E-03 3.47652E-04-4.40186E-16
 -1      2977 1.29816E-03 3.71305E-04-3.67002E-16
 -1      2978 1.19879E-03 3.63650E-04-3.02425E-16
 -1      2979 1.19222E-02-3.21945E-04-2.96907E-14
 -1      2980 9.04904E-04-1.49069E-04-3.87385E-16
 -1      2981 7.87119E-04-1.45472E-04-3.07927E-16
 -1      2982 7.91017E-04-1.70644E-04-3.09784E-16
 -1      2983 9.03248E-03-3.50462E-04-2.29603E-14
 -1      2984 1.10006E-02 2.23481E-04-2.71976E-14
 -1      2985 1.11260E-02 1.72193E-04-2.75973E-14
 -1      2986 1.11857E-02 1.36678E-04-2.78081E-14
 -1      2987 1.33667E-02-1.18594E-03-3.24678E-14
 -1      2988 1.35395E-02-1.06370E-03-3.25584E-14
 -1      2989 1.35916E-02-1.06492E-03-3.25003E-14
 -1      2990 1.36762E-02-1.10023E-03-3.30228E-14
 -1      2991 1.34781E-02-1.05693E-03-3.26279E-14
 -1      2992 1.05051E-02 2.52057E-04-2.56311E-14
 -1      2993 1.05785E-02 2.74416E-04-2.58219E-14
 -1      2994 1.03966E-02 2.45467E-04-2.52399E-14
 -1      2995 9.25334E-04 2.80327E-04-2.01621E-16
 -1      2996 7.78799E-04-5.31562E-05-2.91339E-16
 -1      2997 7.80015E-04-7.53463E-05-2.96584E-16
 -1      2998 8.99351E-04-9.71030E-05-3.77953E-16
 -1      2999 8.96397E-04-4.75301E-05-3.64956E-16
 -1      3000 1.08179E-02 2.71005E-04-2.65997E-14
 -1      3001 8.66204E-03-4.38585E-04-2.27868E-14
 -1      3002 9.82146E-04-2.73256E-04-4.31269E-16
 -1      3003 1.04030E-03 2.43309E-04-3.04837E-16
 -1      3004 1.03367E-03 2.11558E-04-3.24664E-16
 -1      3005 1.05908E-03 3.64498E-04-2.06649E-16
 -1      3006 1.28732E-02-8.51838E-04-3.17104E-14
 -1      3007 1.30568E-02-9.24130E-04-3.18779E-14
 -1      3008 1.31836E-02-9.73118E-04-3.22655E-14
 -1      3009 1.44458E-03-3.13736E-04-8.51627E-16
 -1      3010 1.58809E-03-3.28193E-04-1.00713E-15
 -1      3011 1.73168E-03-3.40425E-04-1.17557E-15
 -1      3012 1.87535E-03-3.50610E-04-1.35688E-15
 -1      3013 1.65239E-03-3.00112E-04-1.08522E-15
 -1      3014 2.01901E-03-3.59071E-04-1.55094E-15
 -1      3015 2.16266E-03-3.65962E-04-1.75760E-15
 -1      3016 1.94019E-03-3.19285E-04-1.44500E-15
 -1      3017 2.31344E-03-3.71809E-04-1.98801E-15
 -1      3018 2.46416E-03-3.76378E-04-2.23207E-15
 -1      3019 2.23543E-03-3.32598E-04-1.86586E-15
 -1      3020 2.60765E-03-3.79768E-04-2.47766E-15
 -1      3021 2.75108E-03-3.82322E-04-2.73483E-15
 -1      3022 2.53060E-03-3.41087E-04-2.33915E-15
 -1      3023 2.89447E-03-3.84206E-04-3.00310E-15
 -1      3024 3.03779E-03-3.85493E-04-3.28245E-15
 -1      3025 2.81835E-03-3.45969E-04-2.84867E-15
 -1      3026 3.18107E-03-3.86308E-04-3.57323E-15
 -1      3027 3.32430E-03-3.86703E-04-3.87487E-15
 -1      3028 3.10584E-03-3.48445E-04-3.40360E-15
 -1      3029 3.46750E-03-3.86769E-04-4.18663E-15
 -1      3030 3.61065E-03-3.86541E-04-4.50819E-15
 -1      3031 3.39304E-03-3.49222E-04-4.00148E-15
 -1      3032 3.75377E-03-3.86084E-04-4.84012E-15
 -1      3033 3.89686E-03-3.85419E-04-5.18223E-15
 -1      3034 3.67998E-03-3.48812E-04-4.63978E-15
 -1      3035 4.03993E-03-3.84589E-04-5.53358E-15
 -1      3036 4.18296E-03-3.83607E-04-5.89448E-15
 -1      3037 3.96668E-03-3.47568E-04-5.31836E-15
 -1      3038 4.32597E-03-3.82496E-04-6.26467E-15
 -1      3039 4.46896E-03-3.81263E-04-6.64372E-15
 -1      3040 4.25313E-03-3.45718E-04-6.03505E-15
 -1      3041 4.61192E-03-3.79920E-04-7.03177E-15
 -1      3042 4.75486E-03-3.78466E-04-7.42981E-15
 -1      3043 4.53937E-03-3.43395E-04-6.78869E-15
 -1      3044 4.89777E-03-3.76903E-04-7.83542E-15
 -1      3045 5.04066E-03-3.75228E-04-8.24887E-15
 -1      3046 4.82538E-03-3.40659E-04-7.57787E-15
 -1      3047 5.18351E-03-3.73437E-04-8.67298E-15
 -1      3048 5.32632E-03-3.71524E-04-9.10457E-15
 -1      3049 5.11113E-03-3.37520E-04-8.40212E-15
 -1      3050 5.47621E-03-3.69376E-04-9.56503E-15
 -1      3051 5.62604E-03-3.67078E-04-1.00365E-14
 -1      3052 5.40370E-03-3.33862E-04-9.28084E-15
 -1      3053 5.76864E-03-3.64745E-04-1.04934E-14
 -1      3054 5.91115E-03-3.62263E-04-1.09572E-14
 -1      3055 5.69582E-03-3.29726E-04-1.01949E-14
 -1      3056 6.05352E-03-3.59637E-04-1.14292E-14
 -1      3057 6.19573E-03-3.56860E-04-1.19089E-14
 -1      3058 5.98018E-03-3.25217E-04-1.11208E-14
 -1      3059 6.33771E-03-3.53957E-04-1.23931E-14
 -1      3060 6.47946E-03-3.50920E-04-1.28853E-14
 -1      3061 6.26364E-03-3.20277E-04-1.20745E-14
 -1      3062 6.62082E-03-3.47809E-04-1.33826E-14
 -1      3063 6.76180E-03-3.44619E-04-1.38841E-14
 -1      3064 6.54571E-03-3.15041E-04-1.30533E-14
 -1      3065 6.90219E-03-3.41467E-04-1.43916E-14
 -1      3066 7.04196E-03-3.38347E-04-1.49047E-14
 -1      3067 6.82572E-03-3.09811E-04-1.40547E-14
 -1      3068 7.18083E-03-3.35472E-04-1.54232E-14
 -1      3069 7.31874E-03-3.32828E-04-1.59460E-14
 -1      3070 7.10262E-03-3.05143E-04-1.50780E-14
 -1      3071 7.45528E-03-3.30777E-04-1.64727E-14
 -1      3072 7.59038E-03-3.29283E-04-1.70036E-14
 -1      3073 7.37490E-03-3.01975E-04-1.61215E-14
 -1      3074 7.72345E-03-3.28926E-04-1.75391E-14
 -1      3075 7.85439E-03-3.29613E-04-1.80808E-14
 -1      3076 7.64040E-03-3.01770E-04-1.71820E-14
 -1      3077 7.98241E-03-3.32234E-04-1.86256E-14
 -1      3078 8.10741E-03-3.36564E-04-1.91735E-14
 -1      3079 7.89610E-03-3.06653E-04-1.82611E-14
 -1      3080 8.22833E-03-3.43900E-04-1.97270E-14
 -1      3081 8.34519E-03-3.53738E-04-2.02867E-14
 -1      3082 8.13787E-03-3.19453E-04-1.93573E-14
 -1      3083 8.46190E-03-3.68719E-04-2.08793E-14
 -1      3084 8.57295E-03-3.87484E-04-2.14766E-14
 -1      3085 8.36543E-03-3.44207E-04-2.05022E-14
 -1      3086 1.47448E-02-1.65179E-03-3.94287E-14
 -1      3087 1.46859E-02-1.62294E-03-3.92972E-14
 -1      3088 1.41604E-02-1.34705E-03-3.60218E-14
 -1      3089 1.42761E-02-1.40888E-03-3.66654E-14
 -1      3090 1.39457E-02-1.23489E-03-3.47474E-14
 -1      3091 1.40505E-02-1.28946E-03-3.53822E-14
 -1      3092 1.40892E-02-1.30091E-03-3.55878E-14
 -1      3093 1.43961E-02-1.47308E-03-3.73138E-14
 -1      3094 1.45203E-02-1.53995E-03-3.79684E-14
 -1      3095 1.43088E-02-1.42042E-03-3.68743E-14
 -1      3096 1.46478E-02-1.60806E-03-3.86261E-14
 -1      3097 1.47784E-02-1.67776E-03-3.92908E-14
 -1      3098 1.45494E-02-1.55023E-03-3.81823E-14
 -1      3099 1.99556E-03 3.70982E-04-1.01342E-15
 -1      3100 1.85202E-03 3.62046E-04-8.72796E-16
 -1      3101 1.70847E-03 3.51226E-04-7.43437E-16
 -1      3102 1.56493E-03 3.38349E-04-6.25043E-16
 -1      3103 1.77256E-03 3.21703E-04-8.42628E-16
 -1      3104 3.14211E-03 4.00442E-04-2.54729E-15
 -1      3105 2.99897E-03 3.99428E-04-2.31582E-15
 -1      3106 2.85577E-03 3.97882E-04-2.09509E-15
 -1      3107 2.71254E-03 3.95735E-04-1.88611E-15
 -1      3108 2.92311E-03 3.61326E-04-2.26636E-15
 -1      3109 3.71435E-03 4.00854E-04-3.57959E-15
 -1      3110 3.57134E-03 4.01184E-04-3.30577E-15
 -1      3111 4.00032E-03 3.99606E-04-4.15664E-15
 -1      3112 3.85735E-03 4.00321E-04-3.86355E-15
 -1      3113 3.78374E-03 3.63142E-04-3.80030E-15
 -1      3114 4.28622E-03 3.97751E-04-4.77521E-15
 -1      3115 4.14328E-03 3.98746E-04-4.46065E-15
 -1      3116 4.07016E-03 3.61797E-04-4.39312E-15
 -1      3117 4.57206E-03 3.95432E-04-5.43216E-15
 -1      3118 4.42915E-03 3.96645E-04-5.09861E-15
 -1      3119 4.35640E-03 3.59912E-04-5.02619E-15
 -1      3120 4.85787E-03 3.92725E-04-6.12725E-15
 -1      3121 4.71497E-03 3.94125E-04-5.77514E-15
 -1      3122 4.64246E-03 3.57603E-04-5.69804E-15
 -1      3123 5.14366E-03 3.89660E-04-6.86112E-15
 -1      3124 5.00077E-03 3.91237E-04-6.48932E-15
 -1      3125 4.92838E-03 3.54925E-04-6.40792E-15
 -1      3126 5.42947E-03 3.86244E-04-7.63291E-15
 -1      3127 5.28656E-03 3.87996E-04-7.24182E-15
 -1      3128 5.21416E-03 3.51893E-04-7.15438E-15
 -1      3129 5.71535E-03 3.82490E-04-8.44537E-15
 -1      3130 5.57240E-03 3.84409E-04-8.03405E-15
 -1      3131 5.49984E-03 3.48501E-04-7.94090E-15
 -1      3132 6.00137E-03 3.78431E-04-9.29854E-15
 -1      3133 5.85833E-03 3.80495E-04-8.86686E-15
 -1      3134 5.78547E-03 3.44748E-04-8.76693E-15
 -1      3135 6.28765E-03 3.74159E-04-1.01931E-14
 -1      3136 6.14446E-03 3.76314E-04-9.74161E-15
 -1      3137 6.07112E-03 3.40655E-04-9.63385E-15
 -1      3138 6.57440E-03 3.69854E-04-1.11204E-14
 -1      3139 6.43095E-03 3.71996E-04-1.06521E-14
 -1      3140 6.35696E-03 3.36296E-04-1.05379E-14
 -1      3141 6.86190E-03 3.65817E-04-1.20830E-14
 -1      3142 6.71803E-03 3.67776E-04-1.15974E-14
 -1      3143 6.64320E-03 3.31825E-04-1.14758E-14
 -1      3144 7.15059E-03 3.62517E-04-1.30771E-14
 -1      3145 7.00607E-03 3.64035E-04-1.25764E-14
 -1      3146 6.93021E-03 3.27520E-04-1.24465E-14
 -1      3147 7.44105E-03 3.60625E-04-1.40990E-14
 -1      3148 7.29557E-03 3.61338E-04-1.35853E-14
 -1      3149 7.21854E-03 3.23826E-04-1.34486E-14
 -1      3150 7.73401E-03 3.61037E-04-1.51471E-14
 -1      3151 7.58718E-03 3.60467E-04-1.46202E-14
 -1      3152 7.50891E-03 3.21403E-04-1.44779E-14
 -1      3153 8.03029E-03 3.64859E-04-1.62186E-14
 -1      3154 7.88171E-03 3.62429E-04-1.56811E-14
 -1      3155 7.80229E-03 3.21173E-04-1.55318E-14
 -1      3156 8.33067E-03 3.73307E-04-1.73088E-14
 -1      3157 8.17997E-03 3.68407E-04-1.67603E-14
 -1      3158 8.09979E-03 3.24342E-04-1.66090E-14
 -1      3159 8.63556E-03 3.87436E-04-1.84142E-14
 -1      3160 8.48260E-03 3.79589E-04-1.78602E-14
 -1      3161 8.40245E-03 3.32330E-04-1.77020E-14
 -1      3162 8.94462E-03 4.07594E-04-1.95373E-14
 -1      3163 8.78971E-03 3.96773E-04-1.89738E-14
 -1      3164 8.71092E-03 3.46522E-04-1.88138E-14
 -1      3165 9.25628E-03 4.32478E-04-2.06711E-14
 -1      3166 9.10036E-03 4.19635E-04-2.01022E-14
 -1      3167 9.02485E-03 3.67642E-04-1.99404E-14
 -1      3168 9.56759E-03 4.57840E-04-2.18117E-14
 -1      3169 9.41227E-03 4.45565E-04-2.12410E-14
 -1      3170 9.34231E-03 3.94575E-04-2.10764E-14
 -1      3171 9.87489E-03 4.75452E-04-2.29583E-14
 -1      3172 9.72196E-03 4.68389E-04-2.23851E-14
 -1      3173 9.65954E-03 4.22597E-04-2.22216E-14
 -1      3174 1.01755E-02 4.73406E-04-2.41041E-14
 -1      3175 1.00260E-02 4.77836E-04-2.35310E-14
 -1      3176 9.97196E-03 4.41937E-04-2.33675E-14
 -1      3177 1.04695E-02 4.39013E-04-2.52560E-14
 -1      3178 1.03230E-02 4.61003E-04-2.46797E-14
 -1      3179 1.02764E-02 4.38286E-04-2.45164E-14
 -1      3180 1.07610E-02 3.64057E-04-2.64105E-14
 -1      3181 1.06151E-02 4.06829E-04-2.58331E-14
 -1      3182 1.05740E-02 3.97043E-04-2.56676E-14
 -1      3183 1.10553E-02 2.48681E-04-2.75721E-14
 -1      3184 1.09073E-02 3.10938E-04-2.69907E-14
 -1      3185 1.08702E-02 3.10345E-04-2.68228E-14
 -1      3186 1.13563E-02 1.01527E-04-2.87482E-14
 -1      3187 1.12048E-02 1.78189E-04-2.81569E-14
 -1      3188 1.11714E-02 1.81295E-04-2.79865E-14
 -1      3189 1.16640E-02-6.46289E-05-2.99366E-14
 -1      3190 1.15095E-02 1.99455E-05-2.93408E-14
 -1      3191 1.14808E-02 2.24018E-05-2.91612E-14
 -1      3192 1.19755E-02-2.38204E-04-3.11498E-14
 -1      3193 1.18196E-02-1.51136E-04-3.05411E-14
 -1      3194 1.17969E-02-1.51148E-04-3.03555E-14
 -1      3195 1.22872E-02-4.11325E-04-3.23790E-14
 -1      3196 1.21317E-02-3.25154E-04-3.17610E-14
 -1      3197 1.21153E-02-3.27517E-04-3.15689E-14
 -1      3198 1.25960E-02-5.80215E-04-3.36344E-14
 -1      3199 1.24422E-02-4.96384E-04-3.30039E-14
 -1      3200 1.24317E-02-4.99979E-04-3.28021E-14
 -1      3201 1.29003E-02-7.44118E-04-3.49089E-14
 -1      3202 1.27488E-02-6.62732E-04-3.42700E-14
 -1      3203 1.27432E-02-6.66342E-04-3.40612E-14
 -1      3204 1.31998E-02-9.04013E-04-3.62054E-14
 -1      3205 1.30507E-02-8.24442E-04-3.55545E-14
 -1      3206 1.30486E-02-8.27137E-04-3.53435E-14
 -1      3207 1.34643E-02-1.04526E-03-3.73461E-14
 -1      3208 1.33163E-02-9.66214E-04-3.66971E-14
 -1      3209 1.33165E-02-9.67699E-04-3.64830E-14
 -1      3210 1.35492E-02-1.08998E-03-3.74749E-14
 -1      3211 7.69952E-04-2.02492E-04-2.92667E-16
 -1      3212 1.38044E-02-1.17441E-03-3.39045E-14
 -1      3213 8.87869E-04-2.11825E-04-3.72383E-16
 -1      3214 1.39693E-02-1.30294E-03-3.81245E-14
 -1      3215 1.38808E-02-1.25966E-03-3.79979E-14
 -1      3216 1.46213E-02-1.59372E-03-3.91647E-14
 -1      3217 1.45515E-02-1.56321E-03-3.90314E-14
 -1      3218 1.45432E-02-1.55260E-03-3.86506E-14
 -1      3219 1.44780E-02-1.53188E-03-3.89036E-14
 -1      3220 1.44004E-02-1.49868E-03-3.87730E-14
 -1      3221 1.44023E-02-1.49329E-03-3.83892E-14
 -1      3222 1.41460E-02-1.38617E-03-3.83829E-14
 -1      3223 1.40579E-02-1.34523E-03-3.82535E-14
 -1      3224 1.38886E-02-1.26453E-03-3.76146E-14
 -1      3225 1.07417E-03 3.29525E-04-2.51318E-16
 -1      3226 1.43180E-02-1.46309E-03-3.86432E-14
 -1      3227 1.42329E-02-1.42552E-03-3.85145E-14
 -1      3228 1.40679E-02-1.34910E-03-3.78724E-14
 -1      3229 1.42420E-02-1.42600E-03-3.81310E-14
 -1      3230 1.15850E-03-2.76950E-04-5.79682E-16
 -1      3231 1.30138E-03-2.96726E-04-7.09136E-16
 -1      3232 1.36546E-03-2.73128E-04-7.76506E-16
 -1      3233 1.38646E-02-1.17919E-03-3.41088E-14
 -1      3234 1.06770E-03 2.82701E-04-2.90214E-16
 -1      3235 1.23055E-02-5.61169E-04-3.07332E-14
 -1      3236 1.25817E-02-7.12881E-04-3.12962E-14
 -1      3237 3.42829E-03 4.01255E-04-3.04275E-15
 -1      3238 3.28522E-03 4.01035E-04-2.78957E-15
 -1      3239 3.21023E-03 3.63296E-04-2.73592E-15
 -1      3240 3.49710E-03 3.63747E-04-3.24767E-15
 -1      3241 8.75388E-03-4.33153E-04-2.24371E-14
 -1      3242 8.92015E-03-3.46924E-04-2.25435E-14
 -1      3243 9.05840E-03-3.02764E-04-2.26678E-14
 -1      3244 1.00289E-02 1.16714E-04-2.42450E-14
 -1      3245 1.01809E-02 1.86206E-04-2.46053E-14
 -1      3246 8.62298E-03-4.14910E-04-2.24114E-14
 -1      3247 8.63876E-03-4.15508E-04-2.24265E-14
 -1      3248 1.01660E-03 6.82108E-05-4.02646E-16
 -1      3249 1.01543E-03 4.12273E-05-4.14816E-16
 -1      3250 1.18655E-03 2.84942E-04-3.71570E-16
 -1      3251 9.67197E-03-5.02695E-05-2.35285E-14
 -1      3252 9.85207E-03 3.40188E-05-2.38725E-14
 -1      3253 1.07034E-02 2.83501E-04-2.62063E-14
 -1      3254 1.08191E-02 2.72997E-04-2.65916E-14
 -1      3255 1.05917E-02 2.89836E-04-2.58154E-14
 -1      3256 1.17974E-02-2.44671E-04-2.95154E-14
 -1      3257 1.20044E-02-3.79512E-04-3.00275E-14
 -1      3258 8.63223E-03-4.01590E-04-2.18947E-14
 -1      3259 8.68130E-03-4.21561E-04-2.24726E-14
 -1      3260 8.63118E-03-4.13351E-04-2.23517E-14
 -1      3261 8.53245E-03-3.76062E-04-2.15129E-14
 -1      3262 1.27308E-02-7.87366E-04-3.16826E-14
 -1      3263 1.28746E-02-8.52289E-04-3.20698E-14
 -1      3264 1.26094E-02-7.20403E-04-3.16523E-14
 -1      3265 1.38632E-02-1.17580E-03-3.40784E-14
 -1      3266 1.15308E-03 2.11817E-04-4.09029E-16
 -1      3267 1.02834E-03 1.81181E-04-3.42879E-16
 -1      3268 1.02417E-03 1.51847E-04-3.59738E-16
 -1      3269 1.13039E-02 6.86139E-05-2.82111E-14
 -1      3270 1.14000E-02 1.02908E-05-2.85234E-14
 -1      3271 1.01813E-03-9.29958E-05-4.62344E-16
 -1      3272 1.02051E-03-1.20711E-04-4.69338E-16
 -1      3273 8.63650E-03-3.94882E-04-2.21765E-14
 -1      3274 1.47808E-02-1.67146E-03-3.94567E-14
 -1      3275 1.46444E-02-1.59932E-03-3.88143E-14
 -1      3276 9.12766E-03-2.49353E-04-2.25537E-14
 -1      3277 9.18807E-03-1.91265E-04-2.24392E-14
 -1      3278 8.99770E-03-2.52462E-04-2.21371E-14
 -1      3279 1.17021E-02-1.81786E-04-2.93394E-14
 -1      3280 2.13906E-03 3.78352E-04-1.16540E-15
 -1      3281 2.06033E-03 3.38665E-04-1.13047E-15
 -1      3282 2.28251E-03 3.84302E-04-1.32824E-15
 -1      3283 1.49319E-02-1.75937E-03-4.00508E-14
 -1      3284 9.88704E-03 9.24194E-05-2.37914E-14
 -1      3285 2.63573E-03 3.57191E-04-1.84157E-15
 -1      3286 2.56925E-03 3.92834E-04-1.68897E-15
 -1      3287 2.42591E-03 3.89091E-04-1.50250E-15
 -1      3288 1.36231E-02-1.12862E-03-3.76096E-14
 -1      3289 1.35070E-02-1.06839E-03-3.71108E-14
 -1      3290 1.36976E-02-1.16708E-03-3.77445E-14
 -1      3291 1.37991E-02-1.15715E-03-3.38645E-14
 -1      3292 1.39434E-02-1.22459E-03-3.47326E-14
 -1      3293 8.73062E-03-3.51890E-04-2.20084E-14
 -1      3294 8.82025E-03-3.53179E-04-2.22757E-14
 -1      3295 8.83336E-03-3.09964E-04-2.19839E-14
 -1      3296 1.42153E-03 3.23060E-04-5.17747E-16
 -1      3297 1.27827E-03 3.05143E-04-4.21402E-16
 -1      3298 1.02369E-03-1.49114E-04-4.75233E-16
 -1      3299 1.02775E-03-1.78354E-04-4.79746E-16
 -1      3300 1.14331E-03-1.45899E-04-5.70968E-16
 -1      3301 1.08825E-02 2.60203E-04-2.68024E-14
 -1      3302 1.09423E-02 2.40840E-04-2.70142E-14
 -1      3303 1.07709E-02 2.86276E-04-2.64097E-14
 -1      3304 1.01840E-03 9.54734E-05-3.89581E-16
 -1      3305 1.13818E-03 8.85658E-05-4.81182E-16
 -1      3306 1.02087E-03 1.23247E-04-3.75256E-16
 -1      3307 1.02651E-02 2.27425E-04-2.47989E-14
 -1      3308 1.03396E-02 2.61060E-04-2.49891E-14
 -1      3309 1.01334E-02 2.10040E-04-2.43565E-14
 -1      3310 1.11766E-02 1.38494E-04-2.78118E-14
 -1      3311 1.48254E-02-1.69757E-03-3.96006E-14
 -1      3312 1.21724E-02-4.77811E-04-3.05573E-14
 -1      3313 8.57630E-03-3.93277E-04-2.19918E-14
 -1      3314 1.25054E-03 2.63614E-04-4.39007E-16
 -1      3315 9.99656E-04-2.33173E-04-4.53861E-16
 -1      3316 1.13552E-03 3.01662E-05-5.09602E-16
 -1      3317 1.01483E-03 1.44497E-05-4.25997E-16
 -1      3318 1.01480E-03-1.22294E-05-4.36378E-16
 -1      3319 9.39138E-03-1.07589E-04-2.27476E-14
 -1      3320 9.53002E-03-8.34570E-05-2.31373E-14
 -1      3321 9.57406E-03-1.75117E-05-2.30284E-14
 -1      3322 1.38265E-02-1.23257E-03-3.79371E-14
 -1      3323 1.37512E-02-1.19453E-03-3.78052E-14
 -1      3324 1.36351E-02-1.13596E-03-3.73050E-14
 -1      3325 1.37438E-02-1.19229E-03-3.74258E-14
 -1      3326 1.06455E-03-2.15913E-04-5.08111E-16
 -1      3327 1.37288E-02-1.14181E-03-3.36631E-14
 -1      3328 1.48522E-03 2.97433E-04-5.99469E-16
 -1      3329 1.01641E-03-6.57783E-05-4.54660E-16
 -1      3330 1.13793E-03-8.59832E-05-5.54624E-16
 -1      3331 1.01532E-03-3.89350E-05-4.45932E-16
 -1      3332 8.56839E-03-3.71518E-04-2.17563E-14
 -1      3333 8.63696E-03-3.67138E-04-2.18794E-14
 -1      3334 1.20286E-02-3.82692E-04-3.03568E-14
 -1      3335 1.23038E-02-5.46737E-04-3.10663E-14
 -1      3336 1.86190E-03-2.79947E-04-1.34201E-15
 -1      3337 2.00613E-03-2.87253E-04-1.53301E-15
 -1      3338 2.15766E-03-2.93550E-04-1.74679E-15
 -1      3339 2.30923E-03-2.98579E-04-1.97417E-15
 -1      3340 2.08026E-03-2.54805E-04-1.63029E-15
 -1      3341 2.45358E-03-3.02394E-04-2.20337E-15
 -1      3342 2.59789E-03-3.05355E-04-2.44482E-15
 -1      3343 2.37672E-03-2.63792E-04-2.07099E-15
 -1      3344 2.74215E-03-3.07623E-04-2.69709E-15
 -1      3345 2.88634E-03-3.09270E-04-2.96092E-15
 -1      3346 2.66597E-03-2.69239E-04-2.54832E-15
 -1      3347 3.03045E-03-3.10422E-04-3.23594E-15
 -1      3348 3.17447E-03-3.11133E-04-3.52211E-15
 -1      3349 2.95499E-03-2.72287E-04-3.07179E-15
 -1      3350 3.31841E-03-3.11496E-04-3.81898E-15
 -1      3351 3.46225E-03-3.11548E-04-4.12565E-15
 -1      3352 3.24365E-03-2.73618E-04-3.63895E-15
 -1      3353 3.60600E-03-3.11359E-04-4.44264E-15
 -1      3354 3.74967E-03-3.10952E-04-4.76945E-15
 -1      3355 3.53188E-03-2.73739E-04-4.24811E-15
 -1      3356 3.89324E-03-3.10375E-04-5.10608E-15
 -1      3357 4.03673E-03-3.09642E-04-5.45248E-15
 -1      3358 3.81967E-03-2.73014E-04-4.89685E-15
 -1      3359 4.18014E-03-3.08785E-04-5.80842E-15
 -1      3360 4.32346E-03-3.07808E-04-6.17362E-15
 -1      3361 4.10702E-03-2.71689E-04-5.58454E-15
 -1      3362 4.46670E-03-3.06733E-04-6.54782E-15
 -1      3363 4.60984E-03-3.05560E-04-6.93136E-15
 -1      3364 4.39393E-03-2.69921E-04-6.30977E-15
 -1      3365 4.75291E-03-3.04298E-04-7.32377E-15
 -1      3366 4.89587E-03-3.02944E-04-7.72428E-15
 -1      3367 4.68038E-03-2.67797E-04-7.07182E-15
 -1      3368 5.03874E-03-3.01504E-04-8.13351E-15
 -1      3369 5.18150E-03-2.99971E-04-8.55248E-15
 -1      3370 4.96635E-03-2.65358E-04-7.86867E-15
 -1      3371 5.33126E-03-2.98267E-04-9.00040E-15
 -1      3372 5.48086E-03-2.96456E-04-9.45649E-15
 -1      3373 5.25889E-03-2.62548E-04-8.72101E-15
 -1      3374 5.62317E-03-2.94642E-04-9.89939E-15
 -1      3375 5.76530E-03-2.92731E-04-1.03521E-14
 -1      3376 5.55072E-03-2.59433E-04-9.60773E-15
 -1      3377 5.90719E-03-2.90743E-04-1.08130E-14
 -1      3378 6.04883E-03-2.88670E-04-1.12818E-14
 -1      3379 5.83454E-03-2.56133E-04-1.05076E-14
 -1      3380 6.19013E-03-2.86550E-04-1.17572E-14
 -1      3381 6.33106E-03-2.84379E-04-1.22378E-14
 -1      3382 6.11716E-03-2.52662E-04-1.14401E-14
 -1      3383 6.47150E-03-2.82228E-04-1.27255E-14
 -1      3384 6.61142E-03-2.80093E-04-1.32190E-14
 -1      3385 6.39811E-03-2.49204E-04-1.23990E-14
 -1      3386 6.75063E-03-2.78100E-04-1.37192E-14
 -1      3387 6.88905E-03-2.76247E-04-1.42241E-14
 -1      3388 6.67674E-03-2.46104E-04-1.33836E-14
 -1      3389 7.02647E-03-2.74742E-04-1.47344E-14
 -1      3390 7.16274E-03-2.73577E-04-1.52504E-14
 -1      3391 6.95207E-03-2.43942E-04-1.43918E-14
 -1      3392 7.29757E-03-2.73083E-04-1.57712E-14
 -1      3393 7.43074E-03-2.73235E-04-1.62954E-14
 -1      3394 7.22274E-03-2.43635E-04-1.54208E-14
 -1      3395 7.56185E-03-2.74539E-04-1.68251E-14
 -1      3396 7.69060E-03-2.76915E-04-1.73599E-14
 -1      3397 7.48688E-03-2.46547E-04-1.64691E-14
 -1      3398 7.81644E-03-2.81119E-04-1.78979E-14
 -1      3399 7.93892E-03-2.86937E-04-1.84411E-14
 -1      3400 7.74188E-03-2.54594E-04-1.75352E-14
 -1      3401 8.05735E-03-2.95475E-04-1.89889E-14
 -1      3402 8.17103E-03-3.06193E-04-1.95412E-14
 -1      3403 7.98418E-03-2.70278E-04-1.86199E-14
 -1      3404 8.28428E-03-3.21501E-04-2.01255E-14
 -1      3405 8.39010E-03-3.39556E-04-2.07178E-14
 -1      3406 8.21415E-03-2.97337E-04-1.97511E-14
 -1      3407 1.15683E-02-9.41077E-05-2.90330E-14
 -1      3408 1.17437E-02-2.06760E-04-2.95440E-14
 -1      3409 1.14504E-02-1.79862E-05-2.87248E-14
 -1      3410 1.40371E-02-1.27490E-03-3.53656E-14
 -1      3411 1.41389E-02-1.33068E-03-3.60050E-14
 -1      3412 1.39628E-02-1.25100E-03-3.51427E-14
 -1      3413 1.28776E-03-2.34051E-04-7.04176E-16
 -1      3414 1.43064E-03-2.48368E-04-8.44580E-16
 -1      3415 1.42476E-02-1.38841E-03-3.66478E-14
 -1      3416 1.43619E-02-1.44968E-03-3.72964E-14
 -1      3417 1.41713E-02-1.35802E-03-3.64197E-14
 -1      3418 1.44813E-02-1.51358E-03-3.79536E-14
 -1      3419 4.14021E-03 3.23920E-04-4.63261E-15
 -1      3420 3.99686E-03 3.24687E-04-4.32316E-15
 -1      3421 3.85343E-03 3.25312E-04-4.02343E-15
 -1      3422 3.70992E-03 3.25785E-04-3.73426E-15
 -1      3423 3.92342E-03 2.87413E-04-4.25080E-15
 -1      3424 4.71291E-03 3.19793E-04-5.96608E-15
 -1      3425 4.56984E-03 3.20969E-04-5.61825E-15
 -1      3426 4.99886E-03 3.17183E-04-6.69053E-15
 -1      3427 4.85592E-03 3.18533E-04-6.32418E-15
 -1      3428 4.78341E-03 2.82039E-04-6.23808E-15
 -1      3429 5.28455E-03 3.14217E-04-7.45133E-15
 -1      3430 5.14173E-03 3.15747E-04-7.06596E-15
 -1      3431 5.06931E-03 2.79530E-04-6.97581E-15
 -1      3432 5.57003E-03 3.10879E-04-8.25158E-15
 -1      3433 5.42732E-03 3.12598E-04-7.84621E-15
 -1      3434 5.35485E-03 2.76664E-04-7.75069E-15
 -1      3435 5.85533E-03 3.07148E-04-9.09026E-15
 -1      3436 5.71270E-03 3.09065E-04-8.66635E-15
 -1      3437 5.64005E-03 2.73405E-04-8.56380E-15
 -1      3438 6.14056E-03 3.03026E-04-9.97024E-15
 -1      3439 5.99795E-03 3.05136E-04-9.52505E-15
 -1      3440 5.92496E-03 2.69712E-04-9.41665E-15
 -1      3441 6.42585E-03 2.98559E-04-1.08837E-14
 -1      3442 6.28318E-03 3.00831E-04-1.04232E-14
 -1      3443 6.20966E-03 2.65559E-04-1.03071E-14
 -1      3444 6.71150E-03 2.93867E-04-1.18319E-14
 -1      3445 6.56861E-03 2.96229E-04-1.13533E-14
 -1      3446 6.49433E-03 2.60955E-04-1.12323E-14
 -1      3447 6.99794E-03 2.89188E-04-1.28129E-14
 -1      3448 6.85459E-03 2.91502E-04-1.23184E-14
 -1      3449 6.77929E-03 2.55971E-04-1.21901E-14
 -1      3450 7.28581E-03 2.84926E-04-1.38210E-14
 -1      3451 7.14164E-03 2.86964E-04-1.33134E-14
 -1      3452 7.06504E-03 2.50789E-04-1.31787E-14
 -1      3453 7.57603E-03 2.81723E-04-1.48560E-14
 -1      3454 7.43056E-03 2.83127E-04-1.43358E-14
 -1      3455 7.35235E-03 2.45759E-04-1.41937E-14
 -1      3456 7.86981E-03 2.80530E-04-1.59169E-14
 -1      3457 7.72240E-03 2.80778E-04-1.53839E-14
 -1      3458 7.64232E-03 2.41491E-04-1.52363E-14
 -1      3459 8.16855E-03 2.82681E-04-1.69973E-14
 -1      3460 8.01849E-03 2.81054E-04-1.64554E-14
 -1      3461 7.93643E-03 2.38980E-04-1.63019E-14
 -1      3462 8.47367E-03 2.89876E-04-1.80976E-14
 -1      3463 8.32028E-03 2.85487E-04-1.75453E-14
 -1      3464 8.23644E-03 2.39729E-04-1.73879E-14
 -1      3465 8.78607E-03 3.03964E-04-1.92145E-14
 -1      3466 8.62901E-03 2.95910E-04-1.86538E-14
 -1      3467 8.54416E-03 2.45835E-04-1.84927E-14
 -1      3468 9.10547E-03 3.26221E-04-2.03429E-14
 -1      3469 8.94509E-03 3.14021E-04-1.97771E-14
 -1      3470 8.86087E-03 2.59793E-04-1.96139E-14
 -1      3471 9.42952E-03 3.55894E-04-2.14838E-14
 -1      3472 9.26728E-03 3.40360E-04-2.09135E-14
 -1      3473 9.18631E-03 2.83690E-04-2.07482E-14
 -1      3474 9.75336E-03 3.87680E-04-2.26290E-14
 -1      3475 9.59191E-03 3.72239E-04-2.20536E-14
 -1      3476 9.51754E-03 3.17267E-04-2.18887E-14
 -1      3477 1.00713E-02 4.09766E-04-2.37755E-14
 -1      3478 9.91342E-03 4.01095E-04-2.32027E-14
 -1      3479 9.84848E-03 3.54222E-04-2.30340E-14
 -1      3480 1.03799E-02 4.04612E-04-2.49271E-14
 -1      3481 1.02267E-02 4.12052E-04-2.43521E-14
 -1      3482 1.01720E-02 3.79897E-04-2.41833E-14
 -1      3483 1.06809E-02 3.54925E-04-2.60763E-14
 -1      3484 1.05305E-02 3.86087E-04-2.54999E-14
 -1      3485 1.04845E-02 3.72097E-04-2.53346E-14
 -1      3486 1.09823E-02 2.54140E-04-2.72324E-14
 -1      3487 1.08307E-02 3.10816E-04-2.66546E-14
 -1      3488 1.07897E-02 3.11212E-04-2.64851E-14
 -1      3489 1.12913E-02 1.09278E-04-2.83972E-14
 -1      3490 1.11354E-02 1.85896E-04-2.78131E-14
 -1      3491 1.10984E-02 1.92713E-04-2.76412E-14
 -1      3492 1.16103E-02-6.17422E-05-2.95761E-14
 -1      3493 1.14498E-02 2.56420E-05-2.89860E-14
 -1      3494 1.14173E-02 3.07554E-05-2.88095E-14
 -1      3495 1.19351E-02-2.41683E-04-3.07734E-14
 -1      3496 1.17724E-02-1.51560E-04-3.01710E-14
 -1      3497 1.17467E-02-1.51365E-04-2.99909E-14
 -1      3498 1.22600E-02-4.19269E-04-3.19869E-14
 -1      3499 1.20980E-02-3.31258E-04-3.13780E-14
 -1      3500 1.20799E-02-3.35753E-04-3.11887E-14
 -1      3501 1.25801E-02-5.89597E-04-3.32259E-14
 -1      3502 1.24209E-02-5.05405E-04-3.26038E-14
 -1      3503 1.24099E-02-5.12465E-04-3.24076E-14
 -1      3504 1.28930E-02-7.52404E-04-3.44901E-14
 -1      3505 1.27376E-02-6.71806E-04-3.38550E-14
 -1      3506 1.27322E-02-6.79164E-04-3.36486E-14
 -1      3507 1.31986E-02-9.09507E-04-3.57773E-14
 -1      3508 1.30468E-02-8.31472E-04-3.51314E-14
 -1      3509 1.30453E-02-8.37576E-04-3.49208E-14
 -1      3510 1.34122E-02-1.01959E-03-3.66886E-14
 -1      3511 1.32947E-02-9.58804E-04-3.61959E-14
 -1      3512 1.32954E-02-9.63216E-04-3.59816E-14
 -1      3513 1.34868E-02-1.05968E-03-3.68220E-14
 -1      3514 1.44667E-02-1.51158E-03-3.81428E-14
 -1      3515 1.44006E-02-1.48416E-03-3.80100E-14
 -1      3516 1.38083E-02-1.22786E-03-3.71071E-14
 -1      3517 1.37169E-02-1.18242E-03-3.69791E-14
 -1      3518 1.43289E-02-1.45559E-03-3.78804E-14
 -1      3519 1.42516E-02-1.42451E-03-3.77522E-14
 -1      3520 1.42581E-02-1.41817E-03-3.73759E-14
 -1      3521 1.35978E-02-1.10601E-03-3.32939E-14
 -1      3522 1.37560E-02-1.16880E-03-3.41377E-14
 -1      3523 8.45949E-03-3.55358E-04-2.11441E-14
 -1      3524 8.51908E-03-3.71434E-04-2.15601E-14
 -1      3525 8.52812E-03-3.70709E-04-2.16205E-14
 -1      3526 8.39589E-03-3.31788E-04-2.07642E-14
 -1      3527 9.74555E-03 7.78736E-05-2.33108E-14
 -1      3528 9.90490E-03 1.48631E-04-2.36823E-14
 -1      3529 1.34867E-02-1.07859E-03-3.30947E-14
 -1      3530 1.04737E-02 2.95988E-04-2.53873E-14
 -1      3531 1.05879E-02 3.05685E-04-2.57696E-14
 -1      3532 2.99112E-03 3.24452E-04-2.44099E-15
 -1      3533 2.84711E-03 3.23079E-04-2.21393E-15
 -1      3534 1.83783E-03 2.91385E-04-9.45722E-16
 -1      3535 1.69384E-03 2.81985E-04-8.09642E-16
 -1      3536 1.31967E-02-9.87327E-04-3.27579E-14
 -1      3537 1.33475E-02-1.03836E-03-3.29259E-14
 -1      3538 1.34986E-02-1.09471E-03-3.35951E-14
 -1      3539 1.57404E-03-2.60680E-04-9.97629E-16
 -1      3540 1.71786E-03-2.71133E-04-1.16358E-15
 -1      3541 1.49674E-03-2.22335E-04-9.13115E-16
 -1      3542 4.42670E-03 3.22050E-04-5.28046E-15
 -1      3543 4.28350E-03 3.23040E-04-4.95162E-15
 -1      3544 4.21047E-03 2.86019E-04-4.87422E-15
 -1      3545 4.49713E-03 2.84207E-04-5.53717E-15
 -1      3546 1.55012E-03 2.70803E-04-6.84836E-16
 -1      3547 1.40674E-03 2.57681E-04-5.71063E-16
 -1      3548 1.61600E-03 2.43107E-04-7.74608E-16
 -1      3549 1.32500E-03 2.43618E-04-5.16012E-16
 -1      3550 1.23411E-03 2.26544E-04-4.58387E-16
 -1      3551 1.22851E-03 1.93232E-04-4.80681E-16
 -1      3552 1.39086E-03 2.19409E-04-5.92110E-16
 -1      3553 1.39911E-02-1.31378E-03-3.73644E-14
 -1      3554 1.39000E-02-1.27183E-03-3.72349E-14
 -1      3555 1.37289E-02-1.19295E-03-3.66027E-14
 -1      3556 1.18880E-02-2.88337E-04-3.00475E-14
 -1      3557 1.23035E-02-5.32584E-04-3.12538E-14
 -1      3558 1.24467E-02-6.25711E-04-3.14536E-14
 -1      3559 1.25888E-02-6.99043E-04-3.18418E-14
 -1      3560 1.29579E-02-8.81890E-04-3.27029E-14
 -1      3561 1.30726E-02-9.37600E-04-3.27311E-14
 -1      3562 1.32569E-02-1.00998E-03-3.33989E-14
 -1      3563 9.84838E-03 1.80215E-04-2.33913E-14
 -1      3564 9.99043E-03 1.92980E-04-2.38731E-14
 -1      3565 1.00690E-02 2.33373E-04-2.40642E-14
 -1      3566 1.13545E-02 4.39397E-05-2.84682E-14
 -1      3567 1.15105E-02-4.89741E-05-2.89799E-14
 -1      3568 9.10552E-03-1.43410E-04-2.19146E-14
 -1      3569 9.24561E-03-1.30047E-04-2.23313E-14
 -1      3570 9.29137E-03-6.75786E-05-2.22216E-14
 -1      3571 8.63703E-03-3.34822E-04-2.15892E-14
 -1      3572 2.34811E-03 3.50018E-04-1.46317E-15
 -1      3573 1.38519E-02-1.21292E-03-3.47602E-14
 -1      3574 1.39535E-02-1.26230E-03-3.53919E-14
 -1      3575 1.37219E-02-1.17292E-03-3.43828E-14
 -1      3576 1.18408E-03-2.15455E-04-6.09891E-16
 -1      3577 1.25023E-03-1.93790E-04-6.69224E-16
 -1      3578 1.24222E-03-1.29045E-04-6.53408E-16
 -1      3579 1.24573E-03-1.61071E-04-6.61987E-16
 -1      3580 1.34886E-03-1.76190E-04-7.59782E-16
 -1      3581 1.23772E-03-6.65700E-05-6.32795E-16
 -1      3582 1.23957E-03-9.75960E-05-6.43610E-16
 -1      3583 1.34193E-03-1.09463E-04-7.39507E-16
 -1      3584 2.70303E-03 3.21141E-04-1.99860E-15
 -1      3585 2.55888E-03 3.18573E-04-1.79465E-15
 -1      3586 2.77106E-03 2.84747E-04-2.15949E-15
 -1      3587 3.63595E-03 2.88258E-04-3.66620E-15
 -1      3588 3.56633E-03 3.26063E-04-3.45523E-15
 -1      3589 3.42266E-03 3.26125E-04-3.18633E-15
 -1      3590 8.50194E-03-3.49454E-04-2.13257E-14
 -1      3591 1.35781E-02-1.11651E-03-3.64140E-14
 -1      3592 1.36609E-02-1.15357E-03-3.69193E-14
 -1      3593 1.36055E-02-1.12452E-03-3.68578E-14
 -1      3594 8.78565E-03-2.76442E-04-2.16060E-14
 -1      3595 8.88804E-03-2.68035E-04-2.18728E-14
 -1      3596 8.93932E-03-2.20705E-04-2.17580E-14
 -1      3597 1.14377E-03 1.48714E-04-4.47911E-16
 -1      3598 1.13544E-03-2.76989E-05-5.34132E-16
 -1      3599 1.40968E-02-1.35577E-03-3.71176E-14
 -1      3600 1.41681E-02-1.39037E-03-3.76218E-14
 -1      3601 1.40809E-02-1.35338E-03-3.74947E-14
 -1      3602 1.06511E-02 3.08381E-04-2.59808E-14
 -1      3603 1.78430E-03-2.41244E-04-1.24175E-15
 -1      3604 1.03469E-02 2.91001E-04-2.49449E-14
 -1      3605 3.27889E-03 3.25908E-04-2.92737E-15
 -1      3606 3.13505E-03 3.25379E-04-2.67886E-15
 -1      3607 3.05975E-03 2.87323E-04-2.61920E-15
 -1      3608 3.34806E-03 2.88337E-04-3.12195E-15
 -1      3609 1.98196E-03 2.99250E-04-1.09252E-15
 -1      3610 1.90411E-03 2.60278E-04-1.05265E-15
 -1      3611 2.12618E-03 3.05712E-04-1.25106E-15
 -1      3612 1.10245E-02 2.09561E-04-2.73092E-14
 -1      3613 1.11369E-02 1.57426E-04-2.77112E-14
 -1      3614 1.44418E-02-1.49657E-03-3.79223E-14
 -1      3615 9.60982E-03 4.75644E-05-2.29201E-14
 -1      3616 9.63162E-03 1.08800E-04-2.28104E-14
 -1      3617 9.47518E-03 2.21395E-05-2.25287E-14
 -1      3618 1.25752E-03 4.78547E-05-5.99577E-16
 -1      3619 1.25678E-03 1.67900E-05-6.14878E-16
 -1      3620 1.26117E-03 1.10478E-04-5.65655E-16
 -1      3621 1.25897E-03 7.90014E-05-5.83219E-16
 -1      3622 1.38069E-03 6.70918E-05-6.95583E-16
 -1      3623 1.12023E-02 1.29144E-04-2.79627E-14
 -1      3624 1.09118E-02 2.53533E-04-2.69135E-14
 -1      3625 1.99981E-03-2.16434E-04-1.51249E-15
 -1      3626 2.15175E-03-2.21453E-04-1.72282E-15
 -1      3627 2.29657E-03-2.25335E-04-1.93573E-15
 -1      3628 2.44145E-03-2.28424E-04-2.16058E-15
 -1      3629 2.21683E-03-1.87234E-04-1.80418E-15
 -1      3630 2.58633E-03-2.30858E-04-2.39695E-15
 -1      3631 2.73118E-03-2.32702E-04-2.64469E-15
 -1      3632 2.50695E-03-1.92623E-04-2.24884E-15
 -1      3633 2.87597E-03-2.34071E-04-2.90386E-15
 -1      3634 3.02067E-03-2.35010E-04-3.17385E-15
 -1      3635 2.79708E-03-1.95861E-04-2.73937E-15
 -1      3636 3.16526E-03-2.35612E-04-3.45527E-15
 -1      3637 3.30974E-03-2.35908E-04-3.74695E-15
 -1      3638 3.08693E-03-1.97526E-04-3.27458E-15
 -1      3639 3.45410E-03-2.35969E-04-4.04822E-15
 -1      3640 3.59833E-03-2.35816E-04-4.36001E-15
 -1      3641 3.37632E-03-1.98070E-04-3.85203E-15
 -1      3642 3.74243E-03-2.35499E-04-4.68203E-15
 -1      3643 3.88640E-03-2.35029E-04-5.01346E-15
 -1      3644 3.66516E-03-1.97826E-04-4.46957E-15
 -1      3645 4.03024E-03-2.34445E-04-5.35477E-15
 -1      3646 4.17394E-03-2.33750E-04-5.70556E-15
 -1      3647 3.95342E-03-1.97032E-04-5.12801E-15
 -1      3648 4.31752E-03-2.32969E-04-6.06527E-15
 -1      3649 4.46095E-03-2.32103E-04-6.43466E-15
 -1      3650 4.24108E-03-1.95845E-04-5.82390E-15
 -1      3651 4.60425E-03-2.31168E-04-6.81256E-15
 -1      3652 4.74741E-03-2.30162E-04-7.19998E-15
 -1      3653 4.52812E-03-1.94367E-04-6.55682E-15
 -1      3654 4.89041E-03-2.29095E-04-7.59591E-15
 -1      3655 5.03326E-03-2.27964E-04-8.00029E-15
 -1      3656 4.81450E-03-1.92657E-04-7.32590E-15
 -1      3657 5.18306E-03-2.26718E-04-8.43345E-15
 -1      3658 5.33266E-03-2.25407E-04-8.87644E-15
 -1      3659 5.10732E-03-1.90706E-04-8.14969E-15
 -1      3660 5.47491E-03-2.24114E-04-9.30781E-15
 -1      3661 5.61692E-03-2.22770E-04-9.74583E-15
 -1      3662 5.39926E-03-1.88596E-04-9.00857E-15
 -1      3663 5.75866E-03-2.21403E-04-1.01937E-14
 -1      3664 5.90009E-03-2.20007E-04-1.06497E-14
 -1      3665 5.68306E-03-1.86446E-04-9.88207E-15
 -1      3666 6.04116E-03-2.18628E-04-1.11140E-14
 -1      3667 6.18181E-03-2.17264E-04-1.15853E-14
 -1      3668 5.96558E-03-1.84321E-04-1.07896E-14
 -1      3669 6.32196E-03-2.15988E-04-1.20626E-14
 -1      3670 6.46156E-03-2.14805E-04-1.25466E-14
 -1      3671 6.24643E-03-1.82426E-04-1.17278E-14
 -1      3672 6.60046E-03-2.13834E-04-1.30372E-14
 -1      3673 6.73860E-03-2.13084E-04-1.35344E-14
 -1      3674 6.52506E-03-1.81112E-04-1.26929E-14
 -1      3675 6.87579E-03-2.12740E-04-1.40374E-14
 -1      3676 7.01191E-03-2.12817E-04-1.45454E-14
 -1      3677 6.80071E-03-1.80935E-04-1.36830E-14
 -1      3678 7.14675E-03-2.13594E-04-1.50577E-14
 -1      3679 7.28010E-03-2.15084E-04-1.55757E-14
 -1      3680 7.07236E-03-1.82740E-04-1.46969E-14
 -1      3681 7.41172E-03-2.17698E-04-1.60983E-14
 -1      3682 7.54127E-03-2.21425E-04-1.66262E-14
 -1      3683 7.33868E-03-1.87751E-04-1.57292E-14
 -1      3684 7.66850E-03-2.26856E-04-1.71591E-14
 -1      3685 7.79289E-03-2.33908E-04-1.76958E-14
 -1      3686 7.59790E-03-1.97644E-04-1.67833E-14
 -1      3687 7.91417E-03-2.43412E-04-1.82381E-14
 -1      3688 8.03155E-03-2.55120E-04-1.87853E-14
 -1      3689 7.84776E-03-2.14587E-04-1.78568E-14
 -1      3690 8.15031E-03-2.71032E-04-1.93643E-14
 -1      3691 8.26311E-03-2.89889E-04-1.99496E-14
 -1      3692 8.09115E-03-2.41996E-04-1.89772E-14
 -1      3693 1.49161E-03-1.86369E-04-9.03737E-16
 -1      3694 3.99369E-03 2.49463E-04-4.48032E-15
 -1      3695 3.84989E-03 2.49975E-04-4.17486E-15
 -1      3696 1.68287E-03 2.14373E-04-8.68351E-16
 -1      3697 1.53920E-03 2.05404E-04-7.37339E-16
 -1      3698 2.41467E-03 3.15222E-04-1.60184E-15
 -1      3699 2.27043E-03 3.10998E-04-1.42091E-15
 -1      3700 2.19299E-03 2.72161E-04-1.37591E-15
 -1      3701 2.48208E-03 2.79970E-04-1.74486E-15
 -1      3702 5.13975E-03 2.41994E-04-7.26342E-15
 -1      3703 4.99691E-03 2.43223E-04-6.88348E-15
 -1      3704 4.85396E-03 2.44363E-04-6.51275E-15
 -1      3705 4.71088E-03 2.45425E-04-6.14988E-15
 -1      3706 4.92455E-03 2.06800E-04-6.78912E-15
 -1      3707 5.70993E-03 2.36107E-04-8.87967E-15
 -1      3708 5.56755E-03 2.37742E-04-8.46042E-15
 -1      3709 5.99436E-03 2.32469E-04-9.74461E-15
 -1      3710 5.85219E-03 2.34355E-04-9.30691E-15
 -1      3711 5.77966E-03 1.99014E-04-9.19670E-15
 -1      3712 6.27846E-03 2.28284E-04-1.06467E-14
 -1      3713 6.13644E-03 2.30450E-04-1.01915E-14
 -1      3714 6.06354E-03 1.95445E-04-1.00747E-14
 -1      3715 6.56241E-03 2.23513E-04-1.15810E-14
 -1      3716 6.42043E-03 2.25973E-04-1.11101E-14
 -1      3717 6.34695E-03 1.91222E-04-1.09878E-14
 -1      3718 6.84655E-03 2.18164E-04-1.25492E-14
 -1      3719 6.70442E-03 2.20905E-04-1.20610E-14
 -1      3720 6.63006E-03 1.86246E-04-1.19326E-14
 -1      3721 7.13146E-03 2.12346E-04-1.35450E-14
 -1      3722 6.98886E-03 2.15296E-04-1.30434E-14
 -1      3723 6.91325E-03 1.80446E-04-1.29083E-14
 -1      3724 7.41801E-03 2.06336E-04-1.45670E-14
 -1      3725 7.27445E-03 2.09325E-04-1.40526E-14
 -1      3726 7.19712E-03 1.73838E-04-1.39118E-14
 -1      3727 7.70751E-03 2.00703E-04-1.56161E-14
 -1      3728 7.56229E-03 2.03397E-04-1.50886E-14
 -1      3729 7.48269E-03 1.66607E-04-1.49416E-14
 -1      3730 8.00170E-03 1.96479E-04-1.66871E-14
 -1      3731 7.85389E-03 1.98287E-04-1.61488E-14
 -1      3732 7.77142E-03 1.59263E-04-1.59959E-14
 -1      3733 8.30278E-03 1.95379E-04-1.77788E-14
 -1      3734 8.15125E-03 1.95340E-04-1.72302E-14
 -1      3735 8.06541E-03 1.52883E-04-1.70734E-14
 -1      3736 8.61305E-03 1.99983E-04-1.88894E-14
 -1      3737 8.45668E-03 1.96693E-04-1.83324E-14
 -1      3738 8.36730E-03 1.49447E-04-1.81708E-14
 -1      3739 8.93430E-03 2.13638E-04-2.00125E-14
 -1      3740 8.77236E-03 2.05381E-04-1.94495E-14
 -1      3741 8.68006E-03 1.52170E-04-1.92849E-14
 -1      3742 9.26641E-03 2.39510E-04-2.11521E-14
 -1      3743 9.09930E-03 2.24867E-04-2.05816E-14
 -1      3744 9.00611E-03 1.65572E-04-2.04142E-14
 -1      3745 9.60617E-03 2.78092E-04-2.22931E-14
 -1      3746 9.43609E-03 2.57476E-04-2.17228E-14
 -1      3747 9.34562E-03 1.94221E-04-2.15526E-14
 -1      3748 9.97899E-03 3.01357E-04-2.35967E-14
 -1      3749 9.80734E-03 2.77292E-04-2.30235E-14
 -1      3750 1.05600E-02 3.39330E-04-2.56267E-14
 -1      3751 1.04009E-02 3.47454E-04-2.50518E-14
 -1      3752 1.09670E-02 2.40954E-04-2.71357E-14
 -1      3753 1.08106E-02 2.94000E-04-2.65583E-14
 -1      3754 1.11258E-02 1.71670E-04-2.77132E-14
 -1      3755 1.14996E-02-2.32614E-05-2.90600E-14
 -1      3756 1.13342E-02 6.73100E-05-2.84728E-14
 -1      3757 1.18906E-02-2.47052E-04-3.04051E-14
 -1      3758 1.17197E-02-1.50867E-04-2.98131E-14
 -1      3759 1.22316E-02-4.33237E-04-3.16041E-14
 -1      3760 1.20619E-02-3.41548E-04-3.10027E-14
 -1      3761 1.20441E-02-3.47739E-04-3.08183E-14
 -1      3762 1.25651E-02-6.06716E-04-3.28281E-14
 -1      3763 1.23998E-02-5.21612E-04-3.22135E-14
 -1      3764 1.23907E-02-5.32575E-04-3.20214E-14
 -1      3765 1.28878E-02-7.68262E-04-3.40752E-14
 -1      3766 1.27280E-02-6.88690E-04-3.34478E-14
 -1      3767 1.27252E-02-7.00463E-04-3.32487E-14
 -1      3768 1.31995E-02-9.21530E-04-3.53527E-14
 -1      3769 1.30450E-02-8.45596E-04-3.47111E-14
 -1      3770 1.30460E-02-8.55665E-04-3.45033E-14
 -1      3771 1.17436E-02-1.88894E-04-2.97286E-14
 -1      3772 1.20089E-02-3.47975E-04-3.05458E-14
 -1      3773 1.24642E-03-9.62419E-06-6.18253E-16
 -1      3774 1.24697E-03-4.04336E-05-6.31466E-16
 -1      3775 1.34889E-03-4.93126E-05-7.25629E-16
 -1      3776 1.36876E-03 6.13846E-06-7.18704E-16
 -1      3777 1.16390E-02-1.14396E-04-2.94718E-14
 -1      3778 8.42726E-03-3.27889E-04-2.08769E-14
 -1      3779 8.47716E-03-3.24129E-04-2.10103E-14
 -1      3780 1.34952E-02-1.10204E-03-3.40402E-14
 -1      3781 1.36140E-02-1.14075E-03-3.42122E-14
 -1      3782 1.37295E-02-1.18811E-03-3.48364E-14
 -1      3783 1.24604E-03 1.67946E-04-5.13465E-16
 -1      3784 1.24230E-03 1.35651E-04-5.33387E-16
 -1      3785 1.36344E-03 1.26960E-04-6.41062E-16
 -1      3786 1.32683E-03 1.80007E-04-5.70358E-16
 -1      3787 8.54683E-03-3.13302E-04-2.11399E-14
 -1      3788 8.63577E-03-2.95545E-04-2.12668E-14
 -1      3789 8.45791E-03-2.93287E-04-2.06913E-14
 -1      3790 8.35320E-03-3.10669E-04-2.04514E-14
 -1      3791 5.42507E-03 2.39260E-04-8.05218E-15
 -1      3792 5.28247E-03 2.40678E-04-7.65307E-15
 -1      3793 5.21017E-03 2.04605E-04-7.55374E-15
 -1      3794 1.35404E-02-1.08862E-03-3.68822E-14
 -1      3795 1.71113E-03-2.03648E-04-1.14892E-15
 -1      3796 1.85532E-03-2.10597E-04-1.32465E-15
 -1      3797 1.92722E-03-1.78983E-04-1.40716E-15
 -1      3798 1.56308E-03-1.59072E-04-9.73898E-16
 -1      3799 1.07324E-02 3.10912E-04-2.62647E-14
 -1      3800 8.99197E-03-1.68373E-04-2.16509E-14
 -1      3801 9.03767E-03-1.13040E-04-2.15428E-14
 -1      3802 8.88274E-03-1.87121E-04-2.13873E-14
 -1      3803 1.39163E-02-1.28004E-03-3.68599E-14
 -1      3804 8.30463E-03-2.81071E-04-2.00600E-14
 -1      3805 1.27994E-02-8.00084E-04-3.25034E-14
 -1      3806 1.30006E-02-8.89364E-04-3.31715E-14
 -1      3807 1.26523E-02-7.14487E-04-3.23026E-14
 -1      3808 9.71917E-03 1.52331E-04-2.29993E-14
 -1      3809 9.80164E-03 1.94377E-04-2.31892E-14
 -1      3810 9.58940E-03 1.26684E-04-2.26080E-14
 -1      3811 1.82696E-03 2.21998E-04-1.01080E-15
 -1      3812 1.75060E-03 1.84561E-04-9.66553E-16
 -1      3813 1.97138E-03 2.28378E-04-1.16435E-15
 -1      3814 9.19077E-03-2.33982E-05-2.16966E-14
 -1      3815 9.33164E-03-3.60912E-06-2.21126E-14
 -1      3816 9.36040E-03 5.87467E-05-2.20024E-14
 -1      3817 5.49521E-03 2.02035E-04-8.35595E-15
 -1      3818 4.13737E-03 2.48842E-04-4.79498E-15
 -1      3819 4.06423E-03 2.11507E-04-4.71239E-15
 -1      3820 4.28093E-03 2.48115E-04-5.11916E-15
 -1      3821 1.36506E-02-1.15992E-03-3.61075E-14
 -1      3822 1.35543E-02-1.11206E-03-3.59788E-14
 -1      3823 1.33962E-02-1.06417E-03-3.40152E-14
 -1      3824 2.83982E-03 2.48009E-04-2.32446E-15
 -1      3825 2.69511E-03 2.46407E-04-2.10267E-15
 -1      3826 3.70595E-03 2.50347E-04-3.87976E-15
 -1      3827 3.56190E-03 2.50570E-04-3.59490E-15
 -1      3828 3.77631E-03 2.12381E-04-4.09694E-15
 -1      3829 1.41898E-02-1.38131E-03-3.68772E-14
 -1      3830 1.41134E-02-1.35380E-03-3.67491E-14
 -1      3831 4.63835E-03 2.08674E-04-6.05990E-15
 -1      3832 4.56768E-03 2.46402E-04-5.79670E-15
 -1      3833 4.42437E-03 2.47303E-04-5.45352E-15
 -1      3834 1.03030E-02 3.19345E-04-2.47386E-14
 -1      3835 1.02372E-02 3.55042E-04-2.44500E-14
 -1      3836 1.00741E-02 3.42701E-04-2.38732E-14
 -1      3837 1.21898E-02-4.47931E-04-3.11387E-14
 -1      3838 1.33591E-02-1.00148E-03-3.59569E-14
 -1      3839 1.33627E-02-1.00913E-03-3.57454E-14
 -1      3840 1.34553E-02-1.04850E-03-3.63763E-14
 -1      3841 1.43068E-02-1.43090E-03-3.72869E-14
 -1      3842 1.40590E-02-1.31268E-03-3.60158E-14
 -1      3843 1.41721E-02-1.36824E-03-3.66602E-14
 -1      3844 1.34775E-02-1.07227E-03-3.58671E-14
 -1      3845 1.34196E-02-1.04085E-03-3.58067E-14
 -1      3846 1.32587E-02-9.63379E-04-3.52029E-14
 -1      3847 1.45357E-03-8.49760E-05-8.39064E-16
 -1      3848 1.45595E-03-1.19191E-04-8.52630E-16
 -1      3849 1.67478E-03-1.32382E-04-1.08888E-15
 -1      3850 1.46259E-03-5.60975E-05-8.36625E-16
 -1      3851 8.67328E-03-2.63230E-04-2.11545E-14
 -1      3852 8.71240E-03-2.25964E-04-2.10440E-14
 -1      3853 8.56567E-03-2.47395E-04-2.07072E-14
 -1      3854 1.40281E-02-1.32251E-03-3.66180E-14
 -1      3855 1.39376E-02-1.28713E-03-3.64904E-14
 -1      3856 1.39636E-02-1.29001E-03-3.61250E-14
 -1      3857 1.49678E-03 1.85342E-05-8.33535E-16
 -1      3858 1.48629E-03-1.08177E-05-8.39118E-16
 -1      3859 1.33949E-02-1.03845E-03-3.53754E-14
 -1      3860 3.12899E-03 2.49946E-04-2.80113E-15
 -1      3861 2.98446E-03 2.49174E-04-2.55727E-15
 -1      3862 2.90925E-03 2.10985E-04-2.49322E-15
 -1      3863 1.49924E-03 8.74061E-05-7.92687E-16
 -1      3864 1.49761E-03 5.28851E-05-8.13667E-16
 -1      3865 1.61529E-03 3.69702E-05-9.41928E-16
 -1      3866 1.39374E-02-1.26799E-03-3.56274E-14
 -1      3867 1.01756E-02 2.82319E-04-2.43442E-14
 -1      3868 1.23210E-02-5.22154E-04-3.15296E-14
 -1      3869 2.43158E-03-1.54703E-04-2.10994E-15
 -1      3870 2.57683E-03-1.56436E-04-2.34169E-15
 -1      3871 2.72207E-03-1.57771E-04-2.58447E-15
 -1      3872 2.86726E-03-1.58744E-04-2.83844E-15
 -1      3873 2.64740E-03-1.19845E-04-2.43275E-15
 -1      3874 3.01237E-03-1.59431E-04-3.10345E-15
 -1      3875 3.15737E-03-1.59856E-04-3.37954E-15
 -1      3876 2.93805E-03-1.21369E-04-2.93591E-15
 -1      3877 3.30224E-03-1.60079E-04-3.66637E-15
 -1      3878 3.44697E-03-1.60116E-04-3.96226E-15
 -1      3879 3.22832E-03-1.22035E-04-3.48250E-15
 -1      3880 3.59154E-03-1.60015E-04-4.26842E-15
 -1      3881 3.73596E-03-1.59781E-04-4.58500E-15
 -1      3882 3.51803E-03-1.22095E-04-4.07023E-15
 -1      3883 3.88022E-03-1.59452E-04-4.91167E-15
 -1      3884 4.02432E-03-1.59028E-04-5.24762E-15
 -1      3885 3.80710E-03-1.21731E-04-4.69766E-15
 -1      3886 4.16825E-03-1.58539E-04-5.59360E-15
 -1      3887 4.31200E-03-1.57980E-04-5.94860E-15
 -1      3888 4.09547E-03-1.21073E-04-5.36467E-15
 -1      3889 4.45559E-03-1.57373E-04-6.31269E-15
 -1      3890 4.59900E-03-1.56714E-04-6.68607E-15
 -1      3891 4.38311E-03-1.20209E-04-6.07062E-15
 -1      3892 4.74223E-03-1.56020E-04-7.06808E-15
 -1      3893 4.88526E-03-1.55284E-04-7.45913E-15
 -1      3894 4.67001E-03-1.19200E-04-6.81315E-15
 -1      3895 5.03523E-03-1.54486E-04-7.87819E-15
 -1      3896 5.18497E-03-1.53654E-04-8.30613E-15
 -1      3897 4.96324E-03-1.18067E-04-7.60855E-15
 -1      3898 5.32733E-03-1.52853E-04-8.72318E-15
 -1      3899 5.46943E-03-1.52037E-04-9.14919E-15
 -1      3900 5.25554E-03-1.16890E-04-8.43973E-15
 -1      3901 5.61125E-03-1.51237E-04-9.58371E-15
 -1      3902 5.75276E-03-1.50451E-04-1.00261E-14
 -1      3903 5.53966E-03-1.15777E-04-9.28645E-15
 -1      3904 5.89390E-03-1.49722E-04-1.04781E-14
 -1      3905 6.03464E-03-1.49055E-04-1.09383E-14
 -1      3906 5.82252E-03-1.14823E-04-1.01689E-14
 -1      3907 6.17493E-03-1.48515E-04-1.14057E-14
 -1      3908 6.31469E-03-1.48115E-04-1.18799E-14
 -1      3909 6.10384E-03-1.14233E-04-1.10844E-14
 -1      3910 6.45386E-03-1.47957E-04-1.23615E-14
 -1      3911 6.59234E-03-1.48061E-04-1.28487E-14
 -1      3912 6.38321E-03-1.14330E-04-1.20301E-14
 -1      3913 6.73005E-03-1.48579E-04-1.33419E-14
 -1      3914 6.86686E-03-1.49543E-04-1.38422E-14
 -1      3915 6.66010E-03-1.15612E-04-1.30023E-14
 -1      3916 7.00267E-03-1.51175E-04-1.43471E-14
 -1      3917 7.13731E-03-1.53515E-04-1.48570E-14
 -1      3918 6.93387E-03-1.18809E-04-1.39983E-14
 -1      3919 7.27066E-03-1.56874E-04-1.53738E-14
 -1      3920 7.40248E-03-1.61297E-04-1.58944E-14
 -1      3921 7.20371E-03-1.24947E-04-1.50175E-14
 -1      3922 7.53270E-03-1.67206E-04-1.64207E-14
 -1      3923 7.66093E-03-1.74630E-04-1.69524E-14
 -1      3924 7.46868E-03-1.35393E-04-1.60583E-14
 -1      3925 7.78719E-03-1.84121E-04-1.74878E-14
 -1      3926 7.91092E-03-1.95650E-04-1.80289E-14
 -1      3927 7.72780E-03-1.51865E-04-1.71197E-14
 -1      3928 8.03832E-03-2.10694E-04-1.86033E-14
 -1      3929 8.16219E-03-2.28587E-04-1.91833E-14
 -1      3930 7.98636E-03-1.77071E-04-1.82284E-14
 -1      3931 1.32989E-02-1.02175E-03-3.40213E-14
 -1      3932 1.35315E-02-1.11763E-03-3.46723E-14
 -1      3933 1.47545E-03 1.65817E-04-7.11860E-16
 -1      3934 1.40799E-03 1.91936E-04-6.30057E-16
 -1      3935 4.99520E-03 1.69372E-04-7.06768E-15
 -1      3936 4.85225E-03 1.70247E-04-6.69199E-15
 -1      3937 1.24567E-02-5.80181E-04-3.21077E-14
 -1      3938 1.25713E-02-6.62159E-04-3.22177E-14
 -1      3939 1.27752E-02-7.62093E-04-3.28860E-14
 -1      3940 1.26271E-02-6.65111E-04-3.27166E-14
 -1      3941 6.13254E-03 1.58671E-04-1.04062E-14
 -1      3942 5.99099E-03 1.60502E-04-9.95636E-15
 -1      3943 5.84928E-03 1.62153E-04-9.51562E-15
 -1      3944 5.70738E-03 1.63655E-04-9.08450E-15
 -1      3945 5.91879E-03 1.25554E-04-9.83763E-15
 -1      3946 6.69732E-03 1.49202E-04-1.22850E-14
 -1      3947 6.55627E-03 1.51937E-04-1.18030E-14
 -1      3948 6.97936E-03 1.42880E-04-1.32698E-14
 -1      3949 6.83831E-03 1.46187E-04-1.27737E-14
 -1      3950 6.76415E-03 1.12409E-04-1.26380E-14
 -1      3951 7.26196E-03 1.35346E-04-1.42789E-14
 -1      3952 7.12053E-03 1.39258E-04-1.37709E-14
 -1      3953 7.04486E-03 1.05484E-04-1.36306E-14
 -1      3954 7.54619E-03 1.26671E-04-1.53171E-14
 -1      3955 7.40377E-03 1.31118E-04-1.47955E-14
 -1      3956 7.32589E-03 9.68701E-05-1.46480E-14
 -1      3957 7.83371E-03 1.17282E-04-1.63763E-14
 -1      3958 7.68939E-03 1.21982E-04-1.58439E-14
 -1      3959 7.60837E-03 8.64929E-05-1.56923E-14
 -1      3960 8.12692E-03 1.08291E-04-1.74601E-14
 -1      3961 7.97941E-03 1.12568E-04-1.69157E-14
 -1      3962 7.89413E-03 7.46698E-05-1.67575E-14
 -1      3963 8.42901E-03 1.01965E-04-1.85627E-14
 -1      3964 8.27664E-03 1.04495E-04-1.80081E-14
 -1      3965 8.18591E-03 6.25252E-05-1.78469E-14
 -1      3966 8.74370E-03 1.02258E-04-1.96807E-14
 -1      3967 8.58458E-03 1.00818E-04-1.91207E-14
 -1      3968 8.48751E-03 5.26833E-05-1.89528E-14
 -1      3969 9.37856E-03 1.27212E-04-2.18555E-14
 -1      3970 9.20326E-03 1.09431E-04-2.12864E-14
 -1      3971 9.72154E-03 2.14356E-04-2.28537E-14
 -1      3972 1.31033E-02-8.90457E-04-3.45642E-14
 -1      3973 1.00366E-02 2.73341E-04-2.38600E-14
 -1      3974 1.85179E-03-1.42252E-04-1.29999E-15
 -1      3975 1.99638E-03-1.46342E-04-1.48456E-15
 -1      3976 1.38459E-02-1.23839E-03-3.55003E-14
 -1      3977 1.29501E-02-8.19186E-04-3.39448E-14
 -1      3978 1.27878E-02-7.41963E-04-3.33209E-14
 -1      3979 1.28592E-02-7.87762E-04-3.34061E-14
 -1      3980 1.31678E-02-9.28627E-04-3.46370E-14
 -1      3981 1.32474E-02-9.72835E-04-3.47484E-14
 -1      3982 6.41516E-03 1.54412E-04-1.13295E-14
 -1      3983 6.27392E-03 1.56651E-04-1.08641E-14
 -1      3984 6.48311E-03 1.17883E-04-1.16732E-14
 -1      3985 3.41771E-03 2.50597E-04-3.31989E-15
 -1      3986 3.27341E-03 2.50410E-04-3.05536E-15
 -1      3987 3.48782E-03 2.12740E-04-3.52107E-15
 -1      3988 5.28060E-03 1.67386E-04-7.84579E-15
 -1      3989 5.13799E-03 1.68425E-04-7.45239E-15
 -1      3990 5.06591E-03 1.32110E-04-7.34840E-15
 -1      3991 8.26461E-03-2.47576E-04-1.96831E-14
 -1      3992 8.36178E-03-2.69403E-04-2.01841E-14
 -1      3993 8.43353E-03-2.53399E-04-2.03099E-14
 -1      3994 8.22351E-03-2.11524E-04-1.93033E-14
 -1      3995 1.37451E-02-1.20282E-03-3.53253E-14
 -1      3996 1.59069E-03-4.61934E-05-9.62785E-16
 -1      3997 5.56530E-03 1.65014E-04-8.66249E-15
 -1      3998 5.42304E-03 1.66257E-04-8.24911E-15
 -1      3999 5.63534E-03 1.28226E-04-8.97058E-15
 -1      4000 2.61934E-03 2.08139E-04-2.04326E-15
 -1      4001 2.55033E-03 2.44259E-04-1.89216E-15
 -1      4002 2.40553E-03 2.41503E-04-1.69290E-15
 -1      4003 1.38435E-02-1.24810E-03-3.63615E-14
 -1      4004 1.37472E-02-1.20547E-03-3.62325E-14
 -1      4005 1.35737E-02-1.12857E-03-3.56128E-14
 -1      4006 1.37737E-02-1.21756E-03-3.58675E-14
 -1      4007 1.49397E-03 1.37694E-04-7.51311E-16
 -1      4008 2.14128E-03-1.49727E-04-1.68103E-15
 -1      4009 2.28637E-03-1.52484E-04-1.88947E-15
 -1      4010 2.06635E-03-1.12847E-04-1.56137E-15
 -1      4011 1.61072E-03 1.24906E-04-8.74368E-16
 -1      4012 4.70913E-03 1.71044E-04-6.32499E-15
 -1      4013 4.56585E-03 1.71777E-04-5.96665E-15
 -1      4014 4.78002E-03 1.33543E-04-6.59252E-15
 -1      4015 2.35667E-03-1.17139E-04-1.97398E-15
 -1      4016 6.20137E-03 1.22179E-04-1.07388E-14
 -1      4017 1.36638E-02-1.17176E-03-3.53355E-14
 -1      4018 1.31574E-02-9.53799E-04-3.38196E-14
 -1      4019 9.08048E-03-5.38475E-05-2.14335E-14
 -1      4020 9.11454E-03 5.72917E-06-2.13244E-14
 -1      4021 8.97163E-03-7.99197E-05-2.11721E-14
 -1      4022 3.84702E-03 1.74377E-04-4.31710E-15
 -1      4023 3.70277E-03 1.74644E-04-4.01643E-15
 -1      4024 4.35158E-03 2.10249E-04-5.36687E-15
 -1      4025 2.68909E-03 1.71622E-04-2.19840E-15
 -1      4026 2.54390E-03 1.70041E-04-1.98154E-15
 -1      4027 2.26073E-03 2.38003E-04-1.50533E-15
 -1      4028 2.11599E-03 2.33681E-04-1.32869E-15
 -1      4029 2.03953E-03 1.95701E-04-1.27997E-15
 -1      4030 2.32931E-03 2.03278E-04-1.63855E-15
 -1      4031 1.74027E-03 5.68590E-05-1.06169E-15
 -1      4032 1.73939E-03 1.98077E-05-1.08625E-15
 -1      4033 3.19878E-03 2.12378E-04-2.98619E-15
 -1      4034 9.07570E-03 5.27830E-05-2.10211E-14
 -1      4035 9.05527E-03 1.23132E-04-2.07200E-14
 -1      4036 8.88843E-03 1.14724E-04-2.01518E-14
 -1      4037 8.97268E-03 2.47885E-05-2.07595E-14
 -1      4038 8.78614E-03 5.86698E-05-1.99845E-14
 -1      4039 9.51544E-03 1.51802E-04-2.22728E-14
 -1      4040 1.33390E-02-1.02181E-03-3.48669E-14
 -1      4041 1.31067E-02-9.12128E-04-3.41360E-14
 -1      4042 1.29523E-02-8.43484E-04-3.35240E-14
 -1      4043 1.34427E-02-1.07373E-03-3.49930E-14
 -1      4044 1.74436E-03-1.01819E-04-1.15623E-15
 -1      4045 2.97931E-03 1.73689E-04-2.66501E-15
 -1      4046 2.83424E-03 1.72827E-04-2.42655E-15
 -1      4047 2.75950E-03 1.34762E-04-2.35703E-15
 -1      4048 1.75278E-03-1.61460E-05-1.12329E-15
 -1      4049 1.72905E-03-6.54786E-05-1.12269E-15
 -1      4050 1.90611E-03-7.21756E-05-1.33514E-15
 -1      4051 1.87766E-03 2.51453E-06-1.25631E-15
 -1      4052 8.63274E-03-1.75216E-04-2.04902E-14
 -1      4053 8.75496E-03-1.83221E-04-2.09380E-14
 -1      4054 8.79512E-03-1.36477E-04-2.08313E-14
 -1      4055 5.35103E-03 1.30368E-04-8.14024E-15
 -1      4056 3.99111E-03 1.74017E-04-4.62751E-15
 -1      4057 3.91803E-03 1.36381E-04-4.54023E-15
 -1      4058 4.13503E-03 1.73564E-04-4.94822E-15
 -1      4059 1.75452E-03 1.30023E-04-1.01975E-15
 -1      4060 8.45619E-03-2.25650E-04-2.01992E-14
 -1      4061 2.86406E-03-8.34066E-05-2.77156E-15
 -1      4062 3.00941E-03-8.37596E-05-3.03159E-15
 -1      4063 3.15465E-03-8.39864E-05-3.30222E-15
 -1      4064 3.29975E-03-8.40876E-05-3.58352E-15
 -1      4065 3.08127E-03-4.59726E-05-3.12509E-15
 -1      4066 3.44470E-03-8.41024E-05-3.87465E-15
 -1      4067 3.58949E-03-8.40272E-05-4.17557E-15
 -1      4068 3.37160E-03-4.60658E-05-3.68163E-15
 -1      4069 3.73411E-03-8.38942E-05-4.48698E-15
 -1      4070 3.87854E-03-8.36974E-05-4.80812E-15
 -1      4071 3.66129E-03-4.59573E-05-4.27913E-15
 -1      4072 4.02279E-03-8.34632E-05-5.13951E-15
 -1      4073 4.16686E-03-8.31840E-05-5.48051E-15
 -1      4074 3.95025E-03-4.57185E-05-4.91655E-15
 -1      4075 4.31073E-03-8.28814E-05-5.83077E-15
 -1      4076 4.45441E-03-8.25482E-05-6.19051E-15
 -1      4077 4.23845E-03-4.53951E-05-5.59306E-15
 -1      4078 4.59788E-03-8.22030E-05-6.55934E-15
 -1      4079 4.74116E-03-8.18386E-05-6.93667E-15
 -1      4080 4.52585E-03-4.50262E-05-6.30790E-15
 -1      4081 4.89136E-03-8.14557E-05-7.34159E-15
 -1      4082 5.04132E-03-8.10664E-05-7.75568E-15
 -1      4083 4.81958E-03-4.46412E-05-7.07645E-15
 -1      4084 5.18389E-03-8.07127E-05-8.15939E-15
 -1      4085 5.32621E-03-8.03710E-05-8.57138E-15
 -1      4086 5.11236E-03-4.43058E-05-7.88074E-15
 -1      4087 5.46825E-03-8.00712E-05-8.99277E-15
 -1      4088 5.60999E-03-7.98118E-05-9.42305E-15
 -1      4089 5.39699E-03-4.41013E-05-8.70000E-15
 -1      4090 5.75140E-03-7.96348E-05-9.86120E-15
 -1      4091 5.89245E-03-7.95431E-05-1.03091E-14
 -1      4092 5.68047E-03-4.41354E-05-9.55635E-15
 -1      4093 6.03310E-03-7.95979E-05-1.07658E-14
 -1      4094 6.17330E-03-7.98084E-05-1.12291E-14
 -1      4095 5.96260E-03-4.45892E-05-1.04477E-14
 -1      4096 6.31301E-03-8.02632E-05-1.16990E-14
 -1      4097 6.45217E-03-8.09801E-05-1.21769E-14
 -1      4098 6.24312E-03-4.57389E-05-1.13706E-14
 -1      4099 6.59074E-03-8.20852E-05-1.26622E-14
 -1      4100 6.72861E-03-8.36068E-05-1.31531E-14
 -1      4101 6.52172E-03-4.79913E-05-1.23221E-14
 -1      4102 6.86577E-03-8.57199E-05-1.36506E-14
 -1      4103 7.00208E-03-8.84646E-05-1.41533E-14
 -1      4104 6.79803E-03-5.19249E-05-1.33021E-14
 -1      4105 7.13755E-03-9.20749E-05-1.46627E-14
 -1      4106 7.27200E-03-9.66010E-05-1.51775E-14
 -1      4107 7.07170E-03-5.83268E-05-1.43081E-14
 -1      4108 7.40549E-03-1.02341E-04-1.56968E-14
 -1      4109 7.53780E-03-1.09349E-04-1.62215E-14
 -1      4110 7.34244E-03-6.82118E-05-1.53352E-14
 -1      4111 7.66911E-03-1.17976E-04-1.67521E-14
 -1      4112 7.79911E-03-1.28263E-04-1.72874E-14
 -1      4113 7.61015E-03-8.27898E-05-1.63842E-14
 -1      4114 7.93463E-03-1.41257E-04-1.78544E-14
 -1      4115 8.06870E-03-1.56510E-04-1.84292E-14
 -1      4116 7.88176E-03-1.03936E-04-1.74819E-14
 -1      4117 4.42240E-03 1.72440E-04-5.61771E-15
 -1      4118 4.27880E-03 1.73040E-04-5.27803E-15
 -1      4119 4.49340E-03 1.34723E-04-5.87106E-15
 -1      4120 6.27007E-03 8.60052E-05-1.10739E-14
 -1      4121 6.12929E-03 8.77429E-05-1.06133E-14
 -1      4122 3.62930E-03 1.36781E-04-3.93285E-15
 -1      4123 3.55837E-03 1.74785E-04-3.72535E-15
 -1      4124 3.41381E-03 1.74797E-04-3.44508E-15
 -1      4125 2.28233E-03-8.00491E-05-1.84168E-15
 -1      4126 2.42771E-03-8.12354E-05-2.05717E-15
 -1      4127 3.26911E-03 1.74634E-04-3.17476E-15
 -1      4128 3.12427E-03 1.74285E-04-2.91450E-15
 -1      4129 3.04994E-03 1.36175E-04-2.84033E-15
 -1      4130 3.33992E-03 1.36766E-04-3.36635E-15
 -1      4131 1.30319E-02-8.89799E-04-3.36085E-14
 -1      4132 5.13668E-03 9.50302E-05-7.63167E-15
 -1      4133 4.99396E-03 9.56448E-05-7.24217E-15
 -1      4134 2.46884E-03 1.32202E-04-1.91803E-15
 -1      4135 2.39870E-03 1.67995E-04-1.77659E-15
 -1      4136 2.25356E-03 1.65437E-04-1.58257E-15
 -1      4137 5.98825E-03 8.92455E-05-1.01608E-14
 -1      4138 5.84694E-03 9.05564E-05-9.71651E-15
 -1      4139 6.05767E-03 5.32572E-05-1.04854E-14
 -1      4140 7.10976E-03 6.83727E-05-1.39910E-14
 -1      4141 6.97023E-03 7.24098E-05-1.34888E-14
 -1      4142 6.83063E-03 7.59457E-05-1.29911E-14
 -1      4143 6.69083E-03 7.90202E-05-1.25001E-14
 -1      4144 6.89674E-03 3.98509E-05-1.33448E-14
 -1      4145 7.66905E-03 4.63083E-05-1.60664E-14
 -1      4146 7.52869E-03 5.27309E-05-1.55395E-14
 -1      4147 7.95227E-03 3.17310E-05-1.71393E-14
 -1      4148 7.81009E-03 3.92225E-05-1.66000E-14
 -1      4149 7.72808E-03 6.09209E-06-1.64419E-14
 -1      4150 8.24157E-03 1.59499E-05-1.82323E-14
 -1      4151 8.09586E-03 2.37598E-05-1.76834E-14
 -1      4152 8.00786E-03-1.16432E-05-1.75190E-14
 -1      4153 8.54131E-03 1.94434E-06-1.93431E-14
 -1      4154 8.38976E-03 8.32452E-06-1.87847E-14
 -1      4155 8.29346E-03-3.16762E-05-1.86173E-14
 -1      4156 8.82444E-03 1.35895E-05-2.02846E-14
 -1      4157 8.68075E-03 5.95776E-06-1.98131E-14
 -1      4158 8.85863E-03-3.31694E-05-2.05863E-14
 -1      4159 7.38885E-03 5.85768E-05-1.50178E-14
 -1      4160 7.24923E-03 6.37626E-05-1.45014E-14
 -1      4161 7.17404E-03 3.15830E-05-1.43547E-14
 -1      4162 7.45079E-03 2.04858E-05-1.53857E-14
 -1      4163 1.35593E-02-1.12709E-03-3.52065E-14
 -1      4164 6.55083E-03 8.16893E-05-1.20175E-14
 -1      4165 6.41058E-03 8.40039E-05-1.15412E-14
 -1      4166 6.61836E-03 4.58689E-05-1.23621E-14
 -1      4167 5.42149E-03 9.35691E-05-8.43801E-15
 -1      4168 5.27920E-03 9.43459E-05-8.03012E-15
 -1      4169 5.20752E-03 5.81598E-05-7.91751E-15
 -1      4170 9.59719E-03 1.91249E-04-2.24609E-14
 -1      4171 8.18148E-03-1.72436E-04-1.89236E-14
 -1      4172 8.29307E-03-1.90331E-04-1.94232E-14
 -1      4173 8.13690E-03-1.31808E-04-1.85439E-14
 -1      4174 8.42563E-03-1.79693E-04-1.98149E-14
 -1      4175 5.70537E-03 9.16942E-05-9.28101E-15
 -1      4176 5.56355E-03 9.26947E-05-8.85467E-15
 -1      4177 5.49198E-03 5.70154E-05-8.73670E-15
 -1      4178 5.77540E-03 5.54451E-05-9.59396E-15
 -1      4179 1.33222E-02-1.02354E-03-3.44672E-14
 -1      4180 2.02150E-03-7.54458E-05-1.48257E-15
 -1      4181 2.16654E-03-7.71566E-05-1.67711E-15
 -1      4182 2.23809E-03-4.19413E-05-1.75273E-15
 -1      4183 2.00682E-03-3.71500E-05-1.44084E-15
 -1      4184 1.95836E-03 1.54628E-04-1.22625E-15
 -1      4185 1.81908E-03 9.49474E-05-1.11970E-15
 -1      4186 1.94323E-03 7.80436E-05-1.27760E-15
 -1      4187 2.10318E-03 1.58419E-04-1.39722E-15
 -1      4188 2.57316E-03-8.21752E-05-2.28445E-15
 -1      4189 2.71863E-03-8.28801E-05-2.52268E-15
 -1      4190 2.49942E-03-4.48278E-05-2.13908E-15
 -1      4191 4.20606E-03 1.35675E-04-5.18606E-15
 -1      4192 8.82406E-03-8.68453E-05-2.06960E-14
 -1      4193 3.70061E-03 9.87472E-05-4.14347E-15
 -1      4194 3.55598E-03 9.88210E-05-3.84710E-15
 -1      4195 6.33868E-03 5.01847E-05-1.14092E-14
 -1      4196 2.09159E-03 8.23959E-05-1.45629E-15
 -1      4197 2.01273E-03 4.28993E-05-1.39090E-15
 -1      4198 2.79046E-03-4.55967E-05-2.61061E-15
 -1      4199 8.57490E-03-4.14764E-05-1.96409E-14
 -1      4200 2.53970E-03 9.59273E-05-2.06359E-15
 -1      4201 2.39429E-03 9.47301E-05-1.85275E-15
 -1      4202 2.02576E-03 4.82220E-06-1.43615E-15
 -1      4203 2.83056E-03 9.75830E-05-2.51997E-15
 -1      4204 2.68515E-03 9.68717E-05-2.28620E-15
 -1      4205 2.61122E-03 5.92227E-05-2.21347E-15
 -1      4206 8.45265E-03-1.43886E-04-1.97107E-14
 -1      4207 8.69266E-03-8.68340E-05-2.02493E-14
 -1      4208 3.98933E-03 9.84108E-05-4.76608E-15
 -1      4209 3.84506E-03 9.86124E-05-4.44990E-15
 -1      4210 3.77223E-03 6.07267E-05-4.35704E-15
 -1      4211 4.92212E-03 5.90109E-05-7.13416E-15
 -1      4212 4.85102E-03 9.61896E-05-6.86186E-15
 -1      4213 4.70788E-03 9.66836E-05-6.49067E-15
 -1      4214 2.40924E-03 6.87428E-06-1.95922E-15
 -1      4215 2.55476E-03 6.98993E-06-2.17893E-15
 -1      4216 2.70031E-03 7.07274E-06-2.40952E-15
 -1      4217 3.29881E-03-8.02923E-06-3.49158E-15
 -1      4218 3.44384E-03-7.99525E-06-3.77724E-15
 -1      4219 3.57178E-03 7.38918E-06-4.01690E-15
 -1      4220 3.71648E-03 7.42081E-06-4.32067E-15
 -1      4221 3.86100E-03 7.43394E-06-4.63475E-15
 -1      4222 4.00534E-03 7.45194E-06-4.95879E-15
 -1      4223 4.45395E-03-7.68490E-06-6.05805E-15
 -1      4224 4.59746E-03-7.65194E-06-6.42174E-15
 -1      4225 4.72401E-03 7.34527E-06-6.72032E-15
 -1      4226 4.87426E-03 7.26870E-06-7.11794E-15
 -1      4227 5.01713E-03 7.15396E-06-7.50546E-15
 -1      4228 5.15976E-03 7.00689E-06-7.90229E-15
 -1      4229 5.30215E-03 6.79743E-06-8.30746E-15
 -1      4230 5.44427E-03 6.53082E-06-8.72246E-15
 -1      4231 5.58612E-03 6.16844E-06-9.14557E-15
 -1      4232 5.72766E-03 5.71133E-06-9.57800E-15
 -1      4233 5.86889E-03 5.10827E-06-1.00192E-14
 -1      4234 6.00977E-03 4.35460E-06-1.04699E-14
 -1      4235 6.15028E-03 3.38203E-06-1.09281E-14
 -1      4236 6.29040E-03 2.17799E-06-1.13923E-14
 -1      4237 6.43010E-03 6.52684E-07-1.18643E-14
 -1      4238 6.56935E-03-1.21732E-06-1.23447E-14
 -1      4239 6.70816E-03-3.54630E-06-1.28322E-14
 -1      4240 6.84646E-03-6.37225E-06-1.33260E-14
 -1      4241 6.98432E-03-9.83262E-06-1.38263E-14
 -1      4242 7.12166E-03-1.39840E-05-1.43327E-14
 -1      4243 7.25861E-03-1.89760E-05-1.48447E-14
 -1      4244 7.39506E-03-2.48880E-05-1.53623E-14
 -1      4245 7.53131E-03-3.18498E-05-1.58851E-14
 -1      4246 7.66722E-03-3.99659E-05-1.64137E-14
 -1      4247 7.80327E-03-4.92824E-05-1.69489E-14
 -1      4248 7.94614E-03-6.05073E-05-1.75153E-14
 -1      4249 4.58115E-03 8.20125E-05-6.20074E-15
 -1      4250 4.43764E-03 8.23553E-05-5.84424E-15
 -1      4251 2.17305E-03 1.24256E-04-1.52145E-15
 -1      4252 2.24198E-03 8.79214E-05-1.64843E-15
 -1      4253 2.84583E-03 7.15823E-06-2.65115E-15
 -1      4254 2.25704E-03 1.52420E-06-1.74566E-15
 -1      4255 2.31339E-03 5.24043E-05-1.78027E-15
 -1      4256 8.08305E-03-7.23112E-05-1.80602E-14
 -1      4257 3.49960E-03 4.54309E-05-3.81504E-15
 -1      4258 3.42778E-03 8.34591E-05-3.61625E-15
 -1      4259 4.28562E-03 9.02522E-05-5.46205E-15
 -1      4260 4.14172E-03 9.05344E-05-5.12510E-15
 -1      4261 4.06924E-03 5.28717E-05-5.02689E-15
 -1      4262 4.37382E-03 3.73945E-05-5.77557E-15
 -1      4263 8.20497E-03-8.52427E-05-1.85545E-14
 -1      4264 2.99977E-03-4.19541E-07-2.92698E-15
 -1      4265 3.14511E-03-3.81069E-07-3.19124E-15
 -1      4266 3.21794E-03 3.76418E-05-3.27922E-15
 -1      4267 2.91054E-03 5.25437E-05-2.70976E-15
 -1      4268 8.55608E-03-8.59553E-05-1.97777E-14
 -1      4269 8.34418E-03-9.90024E-05-1.91093E-14
 -1      4270 4.15789E-03-1.61963E-07-5.32486E-15
 -1      4271 4.65251E-03 4.45982E-05-6.45972E-15
 -1      4272 4.30182E-03-1.36795E-07-5.66900E-15
 -1      4273 2.14132E-03 3.20073E-06-1.58707E-15
 -1      4274 3.12940E-03 9.08293E-05-3.04489E-15
 -1      4275 2.98415E-03 9.05059E-05-2.78864E-15
 -1      4276 3.28281E-03 8.33783E-05-3.33845E-15
 -3
    1PSTEP                         2           1           1          
  100CL  101 1.000000000        4276                     0    1           1
 -4  STRESS      6    1
 -5  SXX         1    4    1    1
 -5  SYY         1    4    2    2
 -5  SZZ         1    4    3    3
 -5  SXY         1    4    1    2
 -5  SYZ         1    4    2    3
 -5  SZX         1    4    3    1
 -1         1 7.03111E+01 3.42117E+00 4.53468E+00-1.28379E+01 3.17454E-14 3.71925E-15
 -1         2-7.91971E-01-2.65917E+01-3.50115E+00 1.82128E-02 8.15972E-13-2.44166E-13
 -1         3 1.99964E+01-3.50526E-03 1.08930E-02-3.58489E-03-4.12706E-13-3.36691E-13
 -1         4 1.99676E+01-4.23800E-02 4.25943E-02 4.57486E-02 4.10786E-14 6.03990E-14
 -1         5 3.27675E+01 6.14253E+00 2.74223E+00 6.22410E+00-2.39045E-14 1.48385E-12
 -1         6 3.57513E+01 1.22631E+01 5.12535E+00-8.64647E+00-9.40914E-14 8.56412E-13
 -1         7 2.08183E+01 6.09959E+00-1.28639E-01-4.72545E+00-1.56541E-14-6.12982E-14
 -1         8 1.96716E+01 5.93492E+00 5.09634E-02-3.27482E+00-8.38912E-15-2.91312E-13
 -1         9 1.91375E+01 5.77196E+00 4.91736E-02-2.52664E+00-5.75755E-15-3.88782E-13
 -1        10 1.88950E+01 5.69212E+00 5.09658E-02-1.95127E+00-1.42768E-15-4.23308E-13
 -1        11 1.87738E+01 5.65128E+00 5.02808E-02-1.45630E+00 7.91468E-16-4.23108E-13
 -1        12 1.87106E+01 5.62973E+00 4.88428E-02-1.01528E+00 1.80997E-15-4.02391E-13
 -1        13 1.86771E+01 5.61831E+00 4.74488E-02-5.95409E-01 2.98177E-15-3.68834E-13
 -1        14 1.86630E+01 5.61348E+00 4.67161E-02-1.91208E-01 6.65182E-15-3.41845E-13
 -1        15 1.86635E+01 5.61364E+00 4.67566E-02 2.08246E-01 1.02377E-14-3.07919E-13
 -1        16 1.86786E+01 5.61879E+00 4.75790E-02 6.13274E-01 1.00032E-14-2.65869E-13
 -1        17 1.87133E+01 5.63047E+00 4.90965E-02 1.03509E+00 1.31388E-14-2.13986E-13
 -1        18 1.87779E+01 5.65245E+00 5.08237E-02 1.47917E+00 1.47582E-14-1.47601E-13
 -1        19 1.89011E+01 5.69388E+00 5.16670E-02 1.98020E+00 1.83274E-14-5.77012E-14
 -1        20 1.91432E+01 5.77460E+00 4.91345E-02 2.56405E+00 2.15956E-14 9.09620E-14
 -1        21 1.96666E+01 5.94941E+00 4.57957E-02 3.30890E+00 2.19547E-14 3.30377E-13
 -1        22 2.12010E+01 6.38132E+00 1.39460E-01 4.52288E+00 5.68989E-16 7.36853E-13
 -1        23 2.30290E+01-1.37918E+00-9.38285E-01-7.11180E-01-6.20649E-14 5.41053E-13
 -1        24 1.93662E+01-9.94835E-02-3.09840E-01 6.32019E-02-1.61485E-14 3.01302E-13
 -1        25 1.86777E+01-5.63213E-02-6.88193E-02 6.07152E-02-1.68977E-14 8.22710E-14
 -1        26 1.84752E+01-2.20895E-02-6.49624E-03 3.29745E-02-2.47588E-15-9.32310E-14
 -1        27 1.84864E+01-1.17990E-02 1.58567E-03 2.25923E-02-2.16960E-15-2.43992E-13
 -1        28 1.86003E+01-6.23746E-03 1.79430E-03 1.62865E-02 3.19959E-15-3.09314E-13
 -1        29 1.87598E+01-3.08580E-03 1.73484E-03 1.21324E-02-4.49266E-16-3.90660E-13
 -1        30 1.89338E+01-1.23672E-03 1.91484E-03 9.16781E-03-1.04439E-14-4.82010E-13
 -1        31 1.91044E+01-1.41572E-04 2.06992E-03 6.93499E-03 2.19685E-14-5.80648E-13
 -1        32 1.92624E+01 5.10524E-04 2.13737E-03 5.22758E-03-2.58581E-14-6.18626E-13
 -1        33 1.94084E+01 7.08560E-04 1.94606E-03 3.77924E-03-7.71329E-15-7.24395E-13
 -1        34 1.95283E+01 8.67522E-04 1.78018E-03 2.70472E-03 4.44533E-15-6.22206E-13
 -1        35 1.96297E+01 8.19344E-04 1.51802E-03 1.86686E-03-3.62185E-14-7.11315E-13
 -1        36 1.97148E+01 6.76059E-04 1.21683E-03 1.20543E-03 3.15400E-14-6.54250E-13
 -1        37 1.97868E+01 4.57282E-04 8.84946E-04 6.90697E-04-6.33473E-14-6.55168E-13
 -1        38 1.98494E+01 1.71247E-04 5.20493E-04 2.96669E-04 1.04903E-14-7.28444E-13
 -1        39 1.99073E+01-1.86454E-04 1.10066E-04 5.14537E-06 1.84864E-15-6.80996E-13
 -1        40 1.99659E+01-6.33003E-04-3.73141E-04-1.92871E-04-1.05681E-14-5.69046E-13
 -1        41 2.00315E+01-1.20035E-03-9.73688E-04-2.94478E-04 1.57987E-14-4.82981E-13
 -1        42 2.01126E+01-1.91795E-03-1.75560E-03-2.71039E-04 3.66169E-14-3.15574E-13
 -1        43 2.02198E+01-3.10098E-03-2.87760E-03-3.03526E-04-2.70788E-14-3.07955E-13
 -1        44 2.03768E+01-4.23772E-03-4.46180E-03 4.56755E-04-2.27888E-14-4.95642E-13
 -1        45 2.05899E+01-6.17109E-03-6.80624E-03 1.35150E-03 2.08743E-14-5.84349E-13
 -1        46 2.08948E+01-8.67147E-03-1.02817E-02 3.14255E-03-1.30180E-15-2.81803E-13
 -1        47 2.13333E+01-1.19985E-02-1.55045E-02 6.42603E-03 2.77349E-14-3.27431E-13
 -1        48 2.19649E+01-1.62062E-02-2.32396E-02 1.23342E-02-2.79746E-14-3.24625E-13
 -1        49 2.28709E+01-2.09769E-02-3.41114E-02 2.27473E-02 2.73225E-14-3.15897E-13
 -1        50 2.41554E+01-2.50422E-02-4.73673E-02 4.04653E-02-1.45712E-14-7.89854E-14
 -1        51 2.59307E+01-2.50968E-02-5.74084E-02 6.86280E-02-6.99310E-15-9.88550E-14
 -1        52 2.82604E+01-1.47308E-02-4.69326E-02 1.07170E-01 1.67765E-14-2.85036E-13
 -1        53 3.10104E+01 1.49700E-02 2.04973E-02 1.41276E-01 7.98781E-15-4.42403E-13
 -1        54 3.35696E+01 7.50035E-02 1.85145E-01 1.29161E-01-1.19101E-13-7.69874E-13
 -1        55 3.44212E+01 1.13715E-01 3.84695E-01-7.63033E-02 1.67305E-14-1.14859E-12
 -1        56 3.14072E+01 9.22805E-02 3.35028E-01-4.83349E-01 6.17475E-14-5.91305E-13
 -1        57 2.44679E+01 3.15223E-03-2.44976E-01-7.85179E-01-6.05383E-14-2.68258E-13
 -1        58 1.83210E+01-1.64698E-01-9.58398E-01-5.23543E-01 1.03431E-13-7.67997E-14
 -1        59 1.69394E+01-1.73682E-01-1.12751E+00 2.86843E-01-3.08503E-14 4.64101E-13
 -1        60 2.23550E+01-6.84216E-02-4.64622E-01 7.84468E-01-5.53455E-14 7.50539E-13
 -1        61 2.98711E+01 7.72271E-02 2.60728E-01 5.95047E-01-7.52939E-14 4.64656E-13
 -1        62 3.39228E+01 1.11173E-01 4.09529E-01 1.32339E-01-2.25011E-14 2.20608E-13
 -1        63 3.36518E+01 8.31528E-02 2.31066E-01-9.80080E-02-7.93896E-14-1.17096E-13
 -1        64 3.12561E+01 2.70690E-02 5.06479E-02-1.45974E-01 5.03822E-14-1.20015E-13
 -1        65 2.83750E+01-8.49033E-03-3.50843E-02-1.19538E-01-4.99215E-14 7.37188E-14
 -1        66 2.57975E+01-2.31020E-02-5.50634E-02-8.15552E-02-1.60507E-14 1.08007E-13
 -1        67 2.37452E+01-2.57289E-02-4.87753E-02-5.25839E-02 9.65584E-14 4.02511E-13
 -1        68 2.21968E+01-2.39719E-02-3.85264E-02-3.42865E-02-7.07919E-15 2.98034E-13
 -1        69 2.10743E+01-2.19629E-02-3.34856E-02-2.24148E-02 2.05155E-14 2.15454E-13
 -1        70 2.03288E+01-2.19644E-02-3.43213E-02-1.08689E-02 5.01324E-15 4.52141E-13
 -1        71 1.99847E+01-7.17169E-03-1.40069E-02 2.22644E-02-5.26896E-14-4.83810E-14
 -1        72 2.10419E+01-4.05112E-01-9.80546E-01-3.11632E-01 5.44009E-15 1.47159E-12
 -1        73 1.93308E+01-6.65851E-02-2.90794E-01-5.38615E-02 1.65102E-15 1.28541E-12
 -1        74 1.86868E+01-2.12339E-02-6.37053E-02-2.10236E-02 7.20561E-15 1.14572E-12
 -1        75 1.84847E+01-1.04778E-02-9.07269E-03-1.60622E-02 2.55828E-15 1.02104E-12
 -1        76 1.84956E+01-5.37949E-03 5.99502E-04-1.27091E-02 1.18195E-14 9.03312E-13
 -1        77 1.86086E+01-2.61848E-03 1.70465E-03-1.01868E-02-1.17948E-15 8.11799E-13
 -1        78 1.87672E+01-1.06835E-03 1.91621E-03-8.31742E-03-1.92434E-14 8.70576E-13
 -1        79 1.89403E+01-1.77741E-04 2.11811E-03-6.81779E-03-6.61495E-15 8.97048E-13
 -1        80 1.91102E+01 3.21085E-04 2.24088E-03-5.54864E-03 1.04945E-14 8.68423E-13
 -1        81 1.92673E+01 5.73368E-04 2.22488E-03-4.45294E-03 1.63415E-14 6.51286E-13
 -1        82 1.94070E+01 6.65837E-04 2.08236E-03-3.50473E-03 2.20039E-14 5.27627E-13
 -1        83 1.95279E+01 6.53270E-04 1.84832E-03-2.68861E-03-2.83090E-15 4.59671E-13
 -1        84 1.96308E+01 5.71436E-04 1.55462E-03-1.99264E-03-1.63455E-14 4.56921E-13
 -1        85 1.97177E+01 4.44166E-04 1.22368E-03-1.40666E-03 2.83841E-14 4.37669E-13
 -1        86 1.97918E+01 2.87782E-04 8.69234E-04-9.22715E-04 2.84013E-14 1.70096E-13
 -1        87 1.98567E+01 1.14414E-04 4.99046E-04-5.36538E-04-4.63248E-14 2.77815E-13
 -1        88 1.99165E+01-6.50772E-05 1.18362E-04-2.49498E-04-1.86490E-14 3.89364E-13
 -1        89 1.99755E+01-2.38152E-04-2.65790E-04-7.06458E-05 4.01759E-14 3.05088E-13
 -1        90 2.00380E+01-3.87468E-04-6.39134E-04-1.84342E-05-1.68941E-14 8.02590E-14
 -1        91 2.01083E+01-4.87594E-04-9.73140E-04-1.21394E-04-3.56499E-14 1.15375E-13
 -1        92 2.01899E+01-5.01933E-04-1.21636E-03-4.16540E-04 3.54429E-14 1.83678E-13
 -1        93 2.02853E+01-3.80803E-04-1.28471E-03-9.43447E-04-8.16886E-14 1.06585E-13
 -1        94 2.03943E+01-6.24452E-05-1.05287E-03-1.73097E-03-3.22078E-15 1.10608E-13
 -1        95 2.05134E+01 5.20061E-04-3.51928E-04-2.77280E-03-8.38362E-15 8.39923E-14
 -1        96 2.06332E+01 1.42186E-03 1.01720E-03-3.98848E-03-1.03516E-14 1.81904E-13
 -1        97 2.07370E+01 2.65494E-03 3.23939E-03-5.16994E-03 4.35853E-14 2.02509E-13
 -1        98 2.07986E+01 4.14054E-03 6.39180E-03-5.92385E-03-5.33529E-14 8.13366E-14
 -1        99 2.07825E+01 5.65192E-03 1.02904E-02-5.63937E-03-2.94379E-14 1.98810E-13
 -1       100 2.06464E+01 6.77160E-03 1.42974E-02-3.53892E-03-1.18505E-14 2.63635E-13
 -1       101 2.03482E+01 6.91075E-03 1.71781E-02 1.10853E-03 3.74701E-14 6.01789E-14
 -1       102 1.98601E+01 5.45330E-03 1.71847E-02 8.55827E-03-2.48750E-14-4.18623E-14
 -1       103 1.91857E+01 2.05412E-03 1.25779E-02 1.80225E-02-5.06015E-14 2.77523E-13
 -1       104 1.83781E+01-2.99410E-03 2.62421E-03 2.72832E-02-2.32381E-14 5.63273E-13
 -1       105 1.75454E+01-8.55552E-03-1.13098E-02 3.29871E-02 7.59248E-14 5.89811E-13
 -1       106 1.68365E+01-1.28976E-02-2.54282E-02 3.19326E-02-8.62335E-14 3.22757E-13
 -1       107 1.64010E+01-1.44317E-02-3.47090E-02 2.29341E-02-4.46193E-14 5.48190E-14
 -1       108 1.63380E+01-1.25400E-02-3.53729E-02 7.99026E-03 5.28132E-14-1.18011E-13
 -1       109 1.66564E+01-7.91988E-03-2.70610E-02-8.35170E-03 2.51674E-14-5.06747E-14
 -1       110 1.72714E+01-2.19037E-03-1.30637E-02-2.11918E-02-1.06751E-14-4.54393E-14
 -1       111 1.80369E+01 2.93342E-03 1.57621E-03-2.75552E-02 2.05770E-14 1.40467E-13
 -1       112 1.87980E+01 6.32071E-03 1.26208E-02-2.72617E-02-3.74190E-14 1.11883E-13
 -1       113 1.94346E+01 7.64712E-03 1.81687E-02-2.21961E-02 8.25086E-14 3.22840E-13
 -1       114 1.98831E+01 7.21435E-03 1.85524E-02-1.49159E-02-4.31571E-14-2.61423E-14
 -1       115 2.01341E+01 5.61424E-03 1.53243E-02-7.56687E-03 8.86033E-14-4.84865E-13
 -1       116 2.02180E+01 3.44891E-03 1.01765E-02-1.47272E-03 2.80547E-14-8.80083E-13
 -1       117 2.01869E+01 1.21072E-03 4.35404E-03 2.70385E-03 4.75127E-14-1.15114E-12
 -1       118 2.01010E+01-5.89765E-04-1.23978E-03 4.60557E-03-3.95472E-14-1.00574E-12
 -1       119 2.00196E+01-1.30672E-03-4.57989E-03 3.31247E-03 9.70045E-15-7.13191E-13
 -1       120 1.99896E+01 2.24769E-03 1.82449E-04-2.24984E-03 1.89884E-13-5.22919E-13
 -1       121 1.99994E+01-8.28474E-03 1.28305E-05-4.74606E-03-6.58390E-13 7.49275E-14
 -1       122 1.99959E+01 2.00499E-02-6.07632E-03-1.52364E-03-4.16919E-15-2.96169E-14
 -1       123 1.99947E+01 1.23713E-01-7.49433E-03 1.30020E-03 3.75996E-14 1.50022E-13
 -1       124 1.99943E+01 3.08904E-01-8.37804E-03 4.33700E-03 2.52283E-14-1.21147E-13
 -1       125 1.99948E+01 5.85587E-01-8.36851E-03 8.33906E-03 1.84783E-14-2.60059E-13
 -1       126 1.99965E+01 9.44743E-01-6.42393E-03 1.22387E-02-9.07350E-13 5.51833E-14
 -1       127 1.99998E+01 1.37343E+00-1.74212E-03 1.54487E-02-8.72613E-13 1.45944E-13
 -1       128 2.00044E+01 1.81328E+00 5.47980E-03 1.61440E-02-4.42637E-13 4.62745E-14
 -1       129 2.00094E+01 2.18554E+00 1.40016E-02 1.30112E-02 2.46734E-13 1.19508E-13
 -1       130 2.00136E+01 2.40013E+00 2.15803E-02 5.48639E-03 4.59006E-13-1.69446E-13
 -1       131 2.00149E+01 2.37930E+00 2.52123E-02-6.08329E-03 1.53929E-13 7.43396E-14
 -1       132 2.00133E+01 2.09432E+00 2.26396E-02-1.80022E-02 4.99235E-13 1.20243E-13
 -1       133 2.00070E+01 1.56553E+00 1.15870E-02-2.82769E-02 2.32485E-13-9.62096E-14
 -1       134 1.99966E+01 9.05915E-01-7.58781E-03-3.16244E-02 6.57240E-13 2.69659E-13
 -1       135 1.99945E+01 3.02078E-01-2.47670E-02-1.55289E-02 1.17654E-12 6.67593E-14
 -1       136 1.99938E+01-2.90370E-02-1.41253E-02 2.43580E-02 9.53102E-13 2.98774E-14
 -1       137-1.50941E+00-1.98886E+01-3.01218E+00-3.73336E+00 6.49536E-13 1.76636E-13
 -1       138-8.46259E-01-6.29921E+00-1.98750E+00-1.76438E+00 8.96339E-13 4.67376E-13
 -1       139 4.56856E+00 5.63977E+00-7.63886E-01 5.29113E+00 7.77767E-13 6.50202E-13
 -1       140 1.76694E+01 1.15274E+01 6.03626E-01 1.40844E+01 9.76996E-15-6.85563E-14
 -1       141 3.83655E+01 1.04739E+01 2.00831E+00 1.94078E+01 5.64826E-14 2.36366E-13
 -1       142 5.66661E+01 5.21462E+00 2.97928E+00 1.60781E+01 8.80823E-14-6.28386E-14
 -1       143 6.76879E+01 1.22029E+00 3.49192E+00 4.33231E+00-2.46261E-14-9.12728E-13
 -1       144 6.47217E+01 2.37650E+00 3.33879E+00-9.50338E+00 2.45778E-13-1.66886E-12
 -1       145 5.03517E+01 7.30832E+00 2.65229E+00-1.82538E+01 8.01997E-13-1.83514E-12
 -1       146 3.11451E+01 1.17259E+01 1.57204E+00-1.86922E+01 9.89153E-13-1.82476E-12
 -1       147 1.33864E+01 1.05793E+01 2.19739E-01-1.18637E+01 5.51836E-13-8.12128E-13
 -1       148 2.39165E+00 2.28022E+00-1.15156E+00-2.79258E+00 1.44051E-13 4.29101E-14
 -1       149-1.60877E+00-1.12420E+01-2.39930E+00 3.44455E+00-5.56555E-13 1.16629E-13
 -1       150-1.06606E+00-2.22087E+01-3.16138E+00 3.08178E+00-9.39082E-13 1.03827E-13
 -1       151-7.78502E-01-2.67155E+01-3.51782E+00-1.23702E+00-6.53824E-13 8.44914E-14
 -1       152-2.07619E+00-2.20362E+01-3.39299E+00-5.41317E+00-3.51663E-14-6.22558E-14
 -1       153-2.41304E+00-1.04532E+01-2.78938E+00-4.30746E+00 1.33671E-13-1.11300E-14
 -1       154 2.45966E+00 1.88049E+00-1.70797E+00 2.64994E+00 2.41140E-13 3.67206E-13
 -1       155 1.84133E+01 9.64993E+00 6.19929E-02 1.33127E+01 4.80838E-13 6.77125E-13
 -1       156 4.18001E+01 9.24185E+00 2.18839E+00 1.88757E+01 3.00981E-13 5.76872E-13
 -1       157 6.66096E+01 4.46425E+00 4.25681E+00 1.50241E+01 1.57339E-13 4.93383E-13
 -1       158 7.81537E+01 1.21073E+00 5.18046E+00 1.30256E+00 1.26149E-14 1.50269E-13
 -1       159 5.03038E+01 8.20899E+00 2.91169E+00-1.93784E+01-1.94261E-13 1.07581E-13
 -1       160 2.65033E+01 1.05236E+01 8.84395E-01-1.64976E+01 4.64295E-13-3.05089E-13
 -1       161 9.14989E+00 7.05614E+00-8.33102E-01-8.19263E+00 6.13287E-13-5.33906E-13
 -1       162-3.28833E-01-2.46550E+00-2.17147E+00 6.58227E-01-4.07174E-13 2.22822E-13
 -1       163-2.64032E+00-1.45726E+01-3.04688E+00 5.41162E+00 2.77556E-16 3.78864E-14
 -1       164-1.55083E+00-2.42327E+01-3.49387E+00 4.45693E+00 6.20670E-13-1.62132E-13
 -1       165 2.10130E+01 3.69393E+00-5.73365E-02-3.61032E+00-1.56632E-13-1.49287E-13
 -1       166 1.99907E+01 4.20776E+00-4.57163E-02-2.80951E+00-1.13827E-13-2.80834E-13
 -1       167 1.95090E+01 4.47700E+00-3.15956E-02-2.19443E+00-5.77173E-14-3.43824E-13
 -1       168 1.92674E+01 4.61517E+00-2.37687E-02-1.67559E+00-1.34638E-14-3.60910E-13
 -1       169 1.91376E+01 4.69685E+00-1.95008E-02-1.21925E+00 1.49826E-14-3.45468E-13
 -1       170 1.90639E+01 4.74794E+00-1.74131E-02-7.92145E-01 3.84067E-14-3.24137E-13
 -1       171 1.90267E+01 4.77584E+00-1.64196E-02-3.86916E-01 7.85223E-14-2.88899E-13
 -1       172 1.90158E+01 4.78438E+00-1.61325E-02 8.28582E-03 1.04810E-13-2.57215E-13
 -1       173 1.90284E+01 4.77455E+00-1.64656E-02 4.03827E-01 1.28503E-13-2.29274E-13
 -1       174 1.90675E+01 4.74497E+00-1.75184E-02 8.10137E-01 1.49062E-13-1.97637E-13
 -1       175 1.91419E+01 4.69252E+00-1.96836E-02 1.23172E+00 1.63956E-13-1.43489E-13
 -1       176 1.92771E+01 4.60553E+00-2.39847E-02 1.69842E+00 1.95855E-13-6.73211E-14
 -1       177 1.95242E+01 4.45966E+00-3.26184E-02 2.22589E+00 2.10186E-13 2.63643E-14
 -1       178 2.00124E+01 4.18403E+00-4.71745E-02 2.84804E+00 2.06955E-13 2.00149E-13
 -1       179 2.11345E+01 3.46352E+00-6.00655E-02 3.53635E+00 1.58290E-13 4.70200E-13
 -1       180 2.24189E+01 1.14355E+00-3.36568E-01 3.01482E+00 8.36076E-14 7.99125E-13
 -1       181 2.19711E+01 8.58235E-01 6.64389E-04-1.95911E+00-1.36710E-13 5.21701E-14
 -1       182 2.04466E+01 1.90184E-01-1.00072E-02-7.64342E-01-1.30590E-13-1.22784E-14
 -1       183 1.96709E+01 1.01689E-01 1.35342E-02-2.85779E-01-9.47211E-14-5.64566E-14
 -1       184 1.93312E+01 4.71554E-02 9.99068E-03-6.80892E-02-9.82669E-14-1.16034E-13
 -1       185 1.92014E+01 2.25575E-02 5.16043E-03 3.91681E-02-4.67529E-14-1.51296E-13
 -1       186 1.91879E+01 9.53099E-03 2.43430E-03 9.18090E-02-4.79745E-14-1.75020E-13
 -1       187 1.92365E+01 2.15301E-03 1.13186E-03 1.14259E-01-4.89864E-14-1.85303E-13
 -1       188 1.93158E+01-2.05284E-03 4.95681E-04 1.19328E-01-6.16323E-14-2.21302E-13
 -1       189 1.94073E+01-4.30900E-03 1.69598E-04 1.14460E-01-6.21540E-14-2.64466E-13
 -1       190 1.95043E+01-5.33445E-03-1.64335E-05 1.03763E-01-7.22376E-14-2.81361E-13
 -1       191 1.95911E+01-5.47730E-03-1.08031E-04 9.12989E-02 1.12653E-14-3.16548E-13
 -1       192 1.96701E+01-5.08772E-03-1.40408E-04 7.86873E-02-2.55733E-14-3.33803E-13
 -1       193 1.97403E+01-4.33306E-03-1.34843E-04 6.72601E-02-2.40794E-14-2.86943E-13
 -1       194 1.98027E+01-3.31211E-03-9.96281E-05 5.79406E-02 5.18385E-14-2.97488E-13
 -1       195 1.98591E+01-2.06807E-03-4.00406E-05 5.14530E-02-6.13745E-15-1.73547E-13
 -1       196 1.99123E+01-5.91350E-04 4.28412E-05 4.84592E-02-1.62457E-14-1.03032E-13
 -1       197 1.99660E+01 1.18005E-03 1.51708E-04 4.96983E-02 6.75591E-14-1.34964E-13
 -1       198 2.00248E+01 3.36829E-03 2.93104E-04 5.61343E-02 2.32335E-14-1.23240E-13
 -1       199 2.00945E+01 6.17057E-03 4.76569E-04 6.91350E-02 3.63300E-14-1.47260E-13
 -1       200 2.01825E+01 9.85404E-03 7.33899E-04 9.05882E-02 4.88130E-14-2.57565E-13
 -1       201 2.03052E+01 1.53144E-02 1.06453E-03 1.25596E-01-9.54180E-14-1.65827E-13
 -1       202 2.04647E+01 2.25490E-02 1.51525E-03 1.75478E-01-7.52277E-14-7.77131E-14
 -1       203 2.06830E+01 3.28352E-02 2.09513E-03 2.47512E-01 6.57963E-14-2.69513E-13
 -1       204 2.09835E+01 4.73907E-02 2.79985E-03 3.50723E-01 6.58518E-14-2.02875E-13
 -1       205 2.13968E+01 6.76596E-02 3.54841E-03 4.96928E-01-2.43043E-14-6.55907E-14
 -1       206 2.19613E+01 9.46706E-02 4.07895E-03 7.00413E-01 5.06986E-14 5.55687E-14
 -1       207 2.27224E+01 1.27218E-01 3.83171E-03 9.74455E-01 7.71783E-14 3.81775E-14
 -1       208 2.37250E+01 1.57183E-01 1.97616E-03 1.32045E+00-4.37311E-14 6.24947E-14
 -1       209 2.49975E+01 1.59412E-01-1.89961E-03 1.70099E+00-1.19061E-13-4.17786E-14
 -1       210 2.65180E+01 7.48032E-02-6.32117E-03 1.98557E+00-7.65236E-14-9.87066E-14
 -1       211 2.81677E+01-1.92096E-01-3.73546E-03 1.87502E+00-2.54928E-13-2.02930E-13
 -1       212 2.97379E+01-7.58871E-01 8.95739E-03 8.00274E-01-1.79643E-13-1.58515E-13
 -1       213 3.05418E+01-1.29896E+00-3.24654E-03-1.47749E+00 1.05454E-13-1.48284E-13
 -1       214 3.01195E+01-8.73467E-01-6.76532E-02-4.00851E+00 1.28921E-13-3.63836E-13
 -1       215 2.87514E+01 7.23742E-01-1.76781E-01-4.23659E+00 3.84276E-13-7.98146E-14
 -1       216 2.74830E+01 2.30673E+00-2.43000E-01-9.54307E-01 3.02675E-13 3.46987E-13
 -1       217 2.80124E+01 1.51009E+00-2.15874E-01 3.27336E+00-6.16174E-15 2.43533E-13
 -1       218 2.96566E+01-5.78905E-01-9.33124E-02 4.27017E+00-1.27807E-13-1.18320E-13
 -1       219 3.04062E+01-1.33713E+00-6.25687E-03 1.93315E+00-2.89178E-14 1.14663E-13
 -1       220 2.97261E+01-8.74159E-01 9.22925E-03-5.10352E-01-2.68062E-13 1.73824E-13
 -1       221 2.82709E+01-3.03453E-01-3.91113E-03-1.79561E+00-5.58911E-14 4.47507E-14
 -1       222 2.65581E+01 2.41709E-02-7.17378E-03-2.08488E+00 6.77697E-14-8.57318E-14
 -1       223 2.49114E+01 1.42677E-01-3.16024E-03-1.87789E+00 6.66765E-14 5.70290E-14
 -1       224 2.34857E+01 1.56580E-01 1.45609E-03-1.51817E+00-8.37034E-14 1.21209E-13
 -1       225 2.23279E+01 1.35788E-01 4.10143E-03-1.16262E+00-5.15078E-14 7.32240E-14
 -1       226 2.14306E+01 1.14711E-01 4.77000E-03-8.53571E-01-1.48081E-13-2.47501E-13
 -1       227 2.07701E+01 1.07362E-01 3.84376E-03-5.78741E-01-1.14780E-14-5.69671E-13
 -1       228 2.03182E+01 1.17806E-01 2.74179E-03-3.10974E-01-2.51714E-13-4.96554E-13
 -1       229 2.00928E+01 1.13932E-01-2.57568E-03-1.19998E-01 7.06011E-14-3.53319E-13
 -1       230 2.09637E+01 2.78006E-01-5.08147E-02 1.16534E+00 9.41087E-14 7.00242E-13
 -1       231 1.98738E+01 1.30590E-01 1.00159E-02 4.47118E-01 8.81127E-14 6.04253E-13
 -1       232 1.93687E+01 5.63436E-02 1.34200E-02 1.49023E-01 6.26838E-14 5.10505E-13
 -1       233 1.91562E+01 2.26430E-02 7.34042E-03 7.01469E-03 6.38252E-14 5.13166E-13
 -1       234 1.91037E+01 9.91560E-03 3.58984E-03-6.15713E-02 3.75959E-14 4.65352E-13
 -1       235 1.91379E+01 3.25117E-03 1.73931E-03-9.32522E-02-1.58362E-14 3.99310E-13
 -1       236 1.92164E+01-4.89148E-04 8.80797E-04-1.04507E-01 1.32695E-14 3.50562E-13
 -1       237 1.93141E+01-2.55596E-03 4.49821E-04-1.04055E-01 3.90955E-14 2.99900E-13
 -1       238 1.94163E+01-3.57090E-03 2.10531E-04-9.71185E-02 9.23045E-14 2.90604E-13
 -1       239 1.95148E+01-3.90064E-03 7.10417E-05-8.70083E-02 5.12176E-14 2.75943E-13
 -1       240 1.96052E+01-3.77875E-03-7.94465E-06-7.58890E-02 4.58905E-14 2.38626E-13
 -1       241 1.96858E+01-3.35916E-03-4.71117E-05-6.51925E-02 2.94033E-14 1.36607E-13
 -1       242 1.97569E+01-2.74355E-03-5.94985E-05-5.58693E-02 3.49342E-14 1.19833E-13
 -1       243 1.98198E+01-1.99823E-03-5.42261E-05-4.85511E-02 8.27627E-14 1.22421E-13
 -1       244 1.98767E+01-1.16679E-03-3.81685E-05-4.36574E-02-6.31314E-14 1.17057E-13
 -1       245 1.99302E+01-2.81576E-04-1.69956E-05-4.14573E-02-5.95698E-14 5.52701E-14
 -1       246 1.99835E+01 6.24381E-04 4.05438E-06-4.20916E-02 4.45729E-14 1.21013E-13
 -1       247 2.00395E+01 1.50350E-03 1.95890E-05-4.55513E-02 8.27812E-14 2.19931E-13
 -1       248 2.01012E+01 2.27732E-03 2.37078E-05-5.16077E-02-6.80727E-14 1.32138E-13
 -1       249 2.01712E+01 2.81759E-03 1.00332E-05-5.96870E-02-3.80282E-14 9.39674E-14
 -1       250 2.02506E+01 2.92646E-03-2.76129E-05-6.86864E-02-3.13643E-14 1.79537E-13
 -1       251 2.03392E+01 2.32103E-03-9.35665E-05-7.67397E-02-7.85796E-15 2.13925E-13
 -1       252 2.04337E+01 6.32651E-04-1.87464E-04-8.09650E-02 4.35643E-14 2.22288E-13
 -1       253 2.05270E+01-2.55976E-03-3.00344E-04-7.72735E-02-3.78616E-14 1.77024E-13
 -1       254 2.06067E+01-7.63394E-03-4.10879E-04-6.03884E-02 5.43681E-14 1.81104E-13
 -1       255 2.06547E+01-1.47325E-02-4.84527E-04-2.43153E-02-2.46568E-14 2.77528E-13
 -1       256 2.06468E+01-2.34549E-02-4.79920E-04 3.64252E-02-1.16243E-14 2.38739E-13
 -1       257 2.05552E+01-3.24699E-02-3.66549E-04 1.24526E-01-4.53008E-14 1.03270E-13
 -1       258 2.03535E+01-3.92062E-02-1.51299E-04 2.36605E-01 2.58688E-14 1.48143E-13
 -1       259 2.00247E+01-3.99581E-02 9.83111E-05 3.59668E-01-7.40517E-14 4.02732E-13
 -1       260 1.95723E+01-3.08504E-02 2.64086E-04 4.69219E-01-1.07070E-13 4.30569E-13
 -1       261 1.90310E+01-9.85642E-03 2.38387E-04 5.31876E-01 7.80094E-14 2.88224E-13
 -1       262 1.84703E+01 2.07594E-02 1.65434E-05 5.14696E-01-6.95765E-15 3.04684E-13
 -1       263 1.79854E+01 5.32907E-02-2.31321E-04 3.99961E-01-3.36823E-14 4.01698E-13
 -1       264 1.76740E+01 7.66131E-02-2.56313E-04 1.98748E-01 1.85708E-13 4.51975E-13
 -1       265 1.76033E+01 8.14674E-02 9.29869E-05-4.65028E-02 1.10024E-13 2.21577E-13
 -1       266 1.77850E+01 6.57337E-02 6.98715E-04-2.75627E-01-6.72260E-14 1.47658E-13
 -1       267 1.81698E+01 3.57274E-02 1.22900E-03-4.34599E-01-7.68385E-14 2.23016E-13
 -1       268 1.86668E+01 2.50213E-03 1.37932E-03-4.95931E-01-5.48666E-15 2.21591E-13
 -1       269 1.91751E+01-2.39898E-02 1.07275E-03-4.64480E-01 3.68821E-14 3.01473E-13
 -1       270 1.96128E+01-3.86958E-02 4.82628E-04-3.68401E-01-7.77395E-15 1.74778E-13
 -1       271 1.99324E+01-4.16638E-02-1.32128E-04-2.43890E-01 2.40686E-13-1.78550E-13
 -1       272 2.01218E+01-3.59751E-02-5.75031E-04-1.22657E-01 3.04112E-13-4.32836E-13
 -1       273 2.01960E+01-2.53938E-02-7.91765E-04-2.60234E-02 2.27314E-13-6.13824E-13
 -1       274 2.01866E+01-1.29329E-02-8.62201E-04 3.52187E-02 4.87299E-14-4.53295E-13
 -1       275 2.01317E+01-7.80336E-04-9.05156E-04 5.85903E-02-1.09271E-13-4.11331E-13
 -1       276 2.00667E+01 9.88431E-03-7.47579E-04 4.72428E-02-1.03487E-13-4.98339E-13
 -1       277 2.00193E+01 1.31905E-02 4.41351E-04 1.51731E-02-1.01547E-13-3.95697E-13
 -1       278 2.00189E+01 4.50582E-02 6.37457E-04 3.76293E-02-1.76321E-13 5.13361E-13
 -1       279 2.00229E+01 1.17560E-01 5.97833E-04 8.87297E-02-1.30343E-13-2.57637E-13
 -1       280 2.00268E+01 2.38920E-01 9.52201E-04 1.50352E-01-2.57869E-13 1.23295E-13
 -1       281 2.00286E+01 4.17220E-01 8.28100E-04 2.20212E-01-1.10122E-13 1.19297E-13
 -1       282 2.00250E+01 6.51291E-01 4.60543E-04 2.86320E-01-5.07916E-15-4.28480E-13
 -1       283 2.00131E+01 9.38813E-01-1.21961E-04 3.33710E-01-8.83285E-14-1.73735E-13
 -1       284 1.99923E+01 1.24883E+00-8.61565E-04 3.40198E-01-1.55105E-13 3.27719E-13
 -1       285 1.99653E+01 1.53704E+00-1.58478E-03 2.87088E-01 9.04235E-14 4.00620E-13
 -1       286 1.99379E+01 1.74801E+00-2.12189E-03 1.66426E-01-4.44226E-14 3.19380E-14
 -1       287 1.99187E+01 1.82748E+00-2.26545E-03-1.19536E-02-2.17679E-14 5.56729E-14
 -1       288 1.99164E+01 1.74251E+00-1.95600E-03-2.13093E-01 6.97195E-14 1.24283E-13
 -1       289 1.99373E+01 1.48808E+00-1.35534E-03-3.94594E-01 1.58949E-13-1.00149E-13
 -1       290 1.99832E+01 1.10536E+00-5.32372E-04-4.95157E-01 2.29418E-13 3.18539E-13
 -1       291 2.00442E+01 6.76647E-01 3.00965E-04-4.64212E-01 2.14130E-13 1.15327E-13
 -1       292 2.00836E+01 3.66733E-01 7.31094E-06-3.19322E-01-7.38827E-14-9.68164E-14
 -1       293-6.25804E-01-1.03970E+01-7.93705E-01 2.38116E+00 9.92539E-14 9.10105E-14
 -1       294 4.60805E+00-7.64339E+00-4.77737E-01 5.43556E+00 4.98213E-14 3.76914E-13
 -1       295 1.12665E+01-4.34551E+00-3.78888E-01 6.57947E+00 2.75557E-13 4.70041E-14
 -1       296 2.00267E+01-3.08852E-02-2.66709E-02 8.03981E+00 2.43527E-13-4.76952E-13
 -1       297 3.12897E+01 1.99934E+00 2.66046E-01 6.70904E+00-1.49700E-13-1.75387E-13
 -1       298 4.04836E+01 5.62551E+00 7.25049E-01 6.74739E+00 7.54171E-15-4.54164E-13
 -1       299 4.68860E+01 6.81548E+00 9.82875E-01 3.65798E+00 2.13815E-13-7.20438E-13
 -1       300 4.51085E+01 7.82636E+00 6.63903E-01-5.59063E-01 4.16361E-13-7.84164E-13
 -1       301 4.42429E+01 6.53797E+00 8.11901E-01-4.69246E+00 3.87634E-13-9.28591E-13
 -1       302 3.73684E+01 5.09938E+00 6.27617E-01-7.66240E+00 4.12136E-13-9.44689E-13
 -1       303 2.78957E+01 1.82926E+00 2.08962E-01-7.79630E+00 8.92064E-14-9.43801E-13
 -1       304 1.87662E+01-2.35326E+00-9.14356E-02-7.62264E+00-3.40561E-14-7.04214E-13
 -1       305 9.06271E+00-5.59497E+00-3.86503E-01-6.51742E+00-9.26481E-14-4.17718E-13
 -1       306 1.78747E+00-9.35927E+00-8.00559E-01-3.67686E+00-3.77393E-13-1.14977E-13
 -1       307-1.21351E+00-1.12156E+01-9.29176E-01-1.73729E+00-2.17243E-13 1.86934E-13
 -1       308-1.09652E+00-1.20148E+01-1.05810E+00 3.19968E-01-1.17129E-13 2.09999E-13
 -1       309 3.24684E+00-9.31786E+00-7.85424E-01 3.17942E+00 1.30118E-13 1.78704E-13
 -1       310 1.00005E+01-6.45047E+00-7.18646E-01 4.76236E+00 1.20681E-13 2.31190E-13
 -1       311 2.20983E+01-3.31283E+00-2.62644E-01 6.13060E+00 8.41271E-14 3.74895E-13
 -1       312 3.40926E+01 9.58721E-01 3.06205E-01 6.29774E+00 2.17104E-13 8.11573E-14
 -1       313 4.36721E+01 3.80502E+00 6.91078E-01 2.23809E+00 4.28824E-14-8.95950E-14
 -1       314 5.24045E+01 6.74707E+00 1.52867E+00 1.58283E+00 1.58706E-13-2.97873E-13
 -1       315 5.10478E+01 7.10873E+00 1.30843E+00-9.09158E-01 6.08402E-14-4.70193E-13
 -1       316 4.77954E+01 5.09046E+00 1.15976E+00-3.84483E+00-1.21056E-13-3.88523E-13
 -1       317 3.83515E+01 2.00242E+00 5.24448E-01-5.43197E+00 3.80224E-13-2.28872E-13
 -1       318 2.69493E+01-8.77234E-01-1.03498E-02-6.68883E+00 3.94212E-13-1.63813E-13
 -1       319 1.58560E+01-4.25724E+00-5.14808E-01-5.95788E+00-2.30316E-13-6.16340E-13
 -1       320 6.98532E+00-7.76006E+00-8.27656E-01-4.07041E+00 2.67120E-13 1.58120E-13
 -1       321 1.13045E+00-1.07730E+01-1.01549E+00-1.92620E+00 3.58935E-13 1.55015E-14
 -1       322-1.36631E+00-1.15283E+01-9.56491E-01-4.75860E-02 5.89459E-14-4.43534E-14
 -1       323 2.01453E+01 3.01522E+00-1.78516E-02-2.11026E+00-9.70784E-14-2.24885E-13
 -1       324 2.07556E+01 2.20817E+00-1.78141E-02-2.36345E+00-1.39104E-13-1.61121E-13
 -1       325 1.95843E+01 3.69194E+00-1.51420E-02-1.31717E+00-5.99542E-15-2.86799E-13
 -1       326 1.94609E+01 3.84867E+00-1.35888E-02-9.23638E-01 2.88027E-14-2.72860E-13
 -1       327 1.93919E+01 3.93954E+00-1.26851E-02-5.43889E-01 8.02287E-14-2.28897E-13
 -1       328 1.93614E+01 3.98086E+00-1.22889E-02-1.73248E-01 1.20889E-13-1.99723E-13
 -1       329 1.93627E+01 3.97925E+00-1.23123E-02 1.94424E-01 1.43353E-13-1.76949E-13
 -1       330 1.93961E+01 3.93432E+00-1.27606E-02 5.65414E-01 1.71256E-13-1.60383E-13
 -1       331 1.94668E+01 3.84095E+00-1.37724E-02 9.39393E-01 1.85326E-13-1.26759E-13
 -1       332 1.95936E+01 3.67845E+00-1.56860E-02 1.33368E+00 2.20004E-13-5.64566E-14
 -1       333 1.98082E+01 3.40989E+00-1.90565E-02 1.73983E+00 2.38951E-13 1.65380E-14
 -1       334 2.01753E+01 2.95099E+00-2.32774E-02 2.12401E+00 2.28414E-13 1.16557E-13
 -1       335 2.07592E+01 2.10608E+00-2.94942E-02 2.30731E+00 1.99038E-13 2.97300E-13
 -1       336 2.10926E+01 1.18624E+00-2.41304E-02 1.91476E+00 1.55922E-13 4.56240E-13
 -1       337 2.03813E+01 4.93719E-01 7.80995E-03 9.25484E-01 1.21962E-13 3.92637E-13
 -1       338 2.04575E+01 6.75721E-01 1.23548E-02-1.02550E+00-1.15938E-13-9.59846E-14
 -1       339 2.00364E+01 3.36730E-01 7.10733E-03-4.57999E-01-1.07307E-13-8.95556E-14
 -1       340 1.97821E+01 1.76495E-01 4.12662E-03-1.49047E-01-8.85227E-14-8.43967E-14
 -1       341 1.96466E+01 9.05218E-02 1.89728E-03 2.22058E-02-6.84599E-14-1.13097E-13
 -1       342 1.95913E+01 4.14740E-02 7.91403E-04 1.13493E-01-3.85837E-14-1.16804E-13
 -1       343 1.95863E+01 1.26233E-02 2.70278E-04 1.56925E-01-8.73573E-14-1.49742E-13
 -1       344 1.96108E+01-4.17801E-03 1.57853E-05 1.71436E-01-8.80714E-14-1.92543E-13
 -1       345 1.96533E+01-1.36561E-02-1.08586E-04 1.68489E-01-7.71394E-14-1.67210E-13
 -1       346 1.97005E+01-1.76687E-02-1.76871E-04 1.56255E-01-1.73932E-14-1.24230E-13
 -1       347 1.97492E+01-1.83906E-02-1.90928E-04 1.40030E-01 1.83113E-14-1.43816E-13
 -1       348 1.97965E+01-1.68984E-02-1.79747E-04 1.23244E-01 6.08798E-15-1.22692E-13
 -1       349 1.98413E+01-1.38382E-02-1.47579E-04 1.08285E-01 4.55197E-14-6.41975E-14
 -1       350 1.98837E+01-9.56936E-03-9.91421E-05 9.69120E-02 2.60082E-14-3.71637E-14
 -1       351 1.99249E+01-4.21252E-03-3.58761E-05 9.05600E-02 6.80755E-14-3.91814E-14
 -1       352 1.99665E+01 2.33079E-03 4.37026E-05 9.05993E-02 6.85917E-15-1.92295E-15
 -1       353 2.00113E+01 1.03852E-02 1.44004E-04 9.85800E-02 1.79261E-14-1.82134E-14
 -1       354 2.00624E+01 2.05374E-02 2.72316E-04 1.16490E-01 7.58407E-14-4.68714E-14
 -1       355 2.01240E+01 3.36693E-02 4.49167E-04 1.46967E-01-7.13028E-14-1.08704E-13
 -1       356 2.02051E+01 5.22502E-02 6.86659E-04 1.96842E-01-3.16053E-14-2.04685E-13
 -1       357 2.03045E+01 7.65885E-02 1.00925E-03 2.67106E-01-1.42022E-14-2.76355E-13
 -1       358 2.04326E+01 1.10107E-01 1.45797E-03 3.67117E-01-5.38961E-14-1.86617E-13
 -1       359 2.05977E+01 1.56451E-01 2.06041E-03 5.07410E-01 1.36476E-13-1.27021E-13
 -1       360 2.08089E+01 2.19783E-01 2.83963E-03 7.01649E-01 7.42489E-14-7.33479E-14
 -1       361 2.10756E+01 3.03538E-01 3.75093E-03 9.66347E-01 3.02005E-15 3.20891E-14
 -1       362 2.14063E+01 4.06594E-01 4.59141E-03 1.31836E+00 1.09635E-14-9.98848E-14
 -1       363 2.18093E+01 5.13832E-01 4.88328E-03 1.76744E+00-1.14266E-14-1.88364E-13
 -1       364 2.22987E+01 5.75937E-01 3.92583E-03 2.29897E+00-6.26040E-15-1.14411E-13
 -1       365 2.29157E+01 4.73132E-01 1.47225E-03 2.84023E+00-1.49904E-13-6.22889E-14
 -1       366 2.37847E+01-2.09027E-02-1.11192E-03 3.19386E+00-1.52491E-13-8.90961E-14
 -1       367 2.52706E+01-1.27499E+00 6.54263E-03 2.94750E+00-1.59863E-13-4.44800E-14
 -1       368 2.77585E+01-3.18171E+00 2.87377E-04 1.48343E+00-3.39208E-14 1.23322E-13
 -1       369 3.09301E+01-3.94805E+00-5.20665E-02-1.52012E+00 6.46965E-15 2.05391E-13
 -1       370 3.38005E+01-1.24861E+00-1.26111E-01-3.88346E+00 3.12007E-13 6.18394E-14
 -1       371 3.36159E+01 3.91845E+00-1.71330E-01-3.15089E+00 6.37448E-13 1.97758E-15
 -1       372 3.52331E+01 5.60869E+00-7.22799E-02 1.38152E+00-9.89486E-14-1.18155E-13
 -1       373 3.38846E+01 8.81879E-01-1.88704E-01 4.35461E+00-1.32172E-13-3.49998E-14
 -1       374 3.15547E+01-3.33879E+00-8.13374E-02 2.53437E+00-8.10211E-14 1.76033E-13
 -1       375 2.81854E+01-3.43694E+00 4.47651E-03-1.08284E+00-2.82926E-13-4.45295E-14
 -1       376 2.55567E+01-1.60172E+00 2.34417E-04-2.84517E+00-4.37189E-13-1.57360E-13
 -1       377 2.39247E+01-2.56355E-01-3.54432E-03-3.31070E+00 1.35938E-13-2.82359E-13
 -1       378 2.29026E+01 3.68080E-01-3.27616E-04-3.07968E+00 9.07343E-14-2.29281E-13
 -1       379 2.21740E+01 5.43817E-01 3.22263E-03-2.58454E+00 8.23022E-14-2.86083E-13
 -1       380 2.15946E+01 5.22291E-01 4.88255E-03-2.05344E+00 2.05198E-14-7.44397E-14
 -1       381 2.11142E+01 4.50365E-01 5.34382E-03-1.57299E+00-3.89521E-13 5.05526E-14
 -1       382 2.07172E+01 3.98532E-01 5.43840E-03-1.15541E+00-3.66904E-13-1.54676E-13
 -1       383 2.03844E+01 3.90035E-01 4.54957E-03-7.75628E-01-5.28189E-14-2.35064E-13
 -1       384 1.98403E+01 2.25218E-01 6.86846E-03 2.75649E-01 8.50773E-14 2.64211E-13
 -1       385 1.96461E+01 1.12660E-01 3.30225E-03 4.81098E-02 8.61755E-14 2.48225E-13
 -1       386 1.95557E+01 5.52821E-02 1.48824E-03-7.39718E-02 6.41114E-14 2.16942E-13
 -1       387 1.95332E+01 2.21188E-02 6.01776E-04-1.35809E-01 4.87609E-14 1.59062E-13
 -1       388 1.95512E+01 2.74458E-03 1.71383E-04-1.61682E-01 6.17364E-14 9.44068E-14
 -1       389 1.95915E+01-8.23053E-03-4.82930E-05-1.66123E-01 5.06311E-14 1.02169E-13
 -1       390 1.96424E+01-1.38233E-02-1.59523E-04-1.58318E-01 7.98264E-14 1.20360E-13
 -1       391 1.96966E+01-1.58737E-02-2.06718E-04-1.44289E-01 6.97488E-14 7.15465E-14
 -1       392 1.97499E+01-1.55665E-02-2.12834E-04-1.28057E-01 7.91657E-14 8.02320E-14
 -1       393 1.98003E+01-1.36854E-02-1.91830E-04-1.12329E-01 5.82414E-15 3.04695E-14
 -1       394 1.98472E+01-1.07523E-02-1.52931E-04-9.89326E-02 3.88307E-14 1.05377E-13
 -1       395 1.98910E+01-7.11887E-03-1.02549E-04-8.90985E-02-5.45916E-15 1.55145E-13
 -1       396 1.99329E+01-3.03604E-03-4.55428E-05-8.36405E-02-1.29867E-14 1.06155E-13
 -1       397 1.99745E+01 1.28145E-03 1.36941E-05-8.30501E-02-1.15507E-14 1.23907E-15
 -1       398 2.00177E+01 5.58810E-03 7.01756E-05-8.75089E-02 5.64247E-14 2.14865E-14
 -1       399 2.00644E+01 9.53308E-03 1.17230E-04-9.68177E-02-2.53907E-14 7.41325E-14
 -1       400 2.01166E+01 1.25766E-02 1.45421E-04-1.10232E-01-7.07841E-14 1.82172E-13
 -1       401 2.01756E+01 1.39026E-02 1.41680E-04-1.26201E-01-5.40806E-14 2.20328E-13
 -1       402 2.02420E+01 1.23444E-02 8.90498E-05-1.42014E-01 5.37936E-15 2.45905E-13
 -1       403 2.03153E+01 6.36140E-03-3.22687E-05-1.53402E-01-1.44426E-14 2.17787E-13
 -1       404 2.03930E+01-5.86631E-03-2.41542E-04-1.54167E-01 1.08383E-15 3.11719E-13
 -1       405 2.04700E+01-2.61200E-02-5.50668E-04-1.36059E-01-1.04282E-14 2.31959E-13
 -1       406 2.05379E+01-5.54679E-02-9.53190E-04-8.91875E-02-3.38929E-14 3.56513E-13
 -1       407 2.05844E+01-9.31233E-02-1.41001E-03-3.44087E-03 4.97276E-14 1.22064E-13
 -1       408 2.05934E+01-1.34877E-01-1.83591E-03 1.28584E-01-8.51971E-15 1.54302E-13
 -1       409 2.05459E+01-1.71531E-01-2.09670E-03 3.06848E-01-9.25187E-14 2.32973E-13
 -1       410 2.04231E+01-1.88420E-01-2.02674E-03 5.17805E-01-9.86855E-14 2.76826E-13
 -1       411 2.02123E+01-1.67781E-01-1.48687E-03 7.29045E-01-6.82167E-14 1.52289E-13
 -1       412 1.99156E+01-9.55900E-02-4.39875E-04 8.88810E-01 2.55111E-14 2.41247E-13
 -1       413 1.95597E+01 2.78814E-02 9.74337E-04 9.35601E-01-5.33951E-14 5.15820E-13
 -1       414 1.91998E+01 1.79070E-01 2.41779E-03 8.20159E-01-3.33972E-14 4.53666E-13
 -1       415 1.89120E+01 3.12549E-01 3.53603E-03 5.33697E-01 1.06120E-13 4.30059E-13
 -1       416 1.87681E+01 3.78621E-01 4.00135E-03 1.25913E-01 2.25849E-13 4.40989E-13
 -1       417 1.88055E+01 3.49938E-01 3.73101E-03-3.04970E-01 3.62536E-14 5.38734E-13
 -1       418 1.90083E+01 2.37739E-01 2.78230E-03-6.50457E-01-8.94944E-15 4.68201E-13
 -1       419 1.93151E+01 8.53148E-02 1.38657E-03-8.36466E-01 9.62229E-17 1.16854E-13
 -1       420 1.96470E+01-5.63959E-02-1.06930E-04-8.47584E-01 2.57203E-14 5.34369E-14
 -1       421 1.99370E+01-1.52466E-01-1.31493E-03-7.20000E-01 5.09212E-14-4.11777E-14
 -1       422 2.01461E+01-1.92369E-01-2.01726E-03-5.15342E-01 3.16150E-13-2.08572E-13
 -1       423 2.02636E+01-1.84465E-01-2.16680E-03-2.94650E-01 4.31521E-13-3.72074E-13
 -1       424 2.02992E+01-1.45332E-01-1.87094E-03-1.03093E-01 1.62038E-13-3.16849E-13
 -1       425 2.02735E+01-9.10763E-02-1.30179E-03 3.37146E-02 4.04726E-14-1.16976E-13
 -1       426 2.02100E+01-3.36319E-02-6.49557E-04 1.06169E-01-1.60973E-13 1.18659E-14
 -1       427 2.01329E+01 1.63978E-02 3.24238E-04 1.17110E-01-1.66721E-13 2.59516E-13
 -1       428 2.00677E+01 4.28538E-02 4.23859E-04 8.61216E-02-2.04335E-13 3.43821E-13
 -1       429 2.01102E+01 2.34409E-01 1.06988E-03 3.18153E-01-7.95339E-14 1.93930E-13
 -1       430 2.00981E+01 1.29834E-01 1.06236E-03 2.09597E-01-8.27665E-14-1.74605E-13
 -1       431 2.01078E+01 3.78281E-01 9.22534E-04 4.33529E-01 6.39807E-15-1.69969E-13
 -1       432 2.00774E+01 5.73822E-01 4.84013E-04 5.35322E-01 8.23236E-14-2.81514E-13
 -1       433 2.00131E+01 8.10188E-01-2.34028E-04 5.87922E-01 1.79492E-13 6.19565E-15
 -1       434 1.99186E+01 1.06390E+00-1.08348E-03 5.56345E-01-1.15582E-13 4.28874E-13
 -1       435 1.98104E+01 1.29656E+00-1.92948E-03 4.15996E-01-2.83997E-13 9.77396E-14
 -1       436 1.97172E+01 1.46047E+00-2.53268E-03 1.65887E-01-2.94160E-13-1.96706E-13
 -1       437 1.96732E+01 1.51087E+00-2.61101E-03-1.55133E-01-2.59541E-13 1.93017E-13
 -1       438 1.97059E+01 1.42146E+00-2.26369E-03-4.92152E-01-1.34788E-13 3.00721E-13
 -1       439 1.98312E+01 1.19165E+00-1.44652E-03-7.52222E-01 2.18525E-13 5.61507E-14
 -1       440 2.00344E+01 8.56222E-01 3.74416E-04-8.50207E-01 5.42971E-14 3.51002E-13
 -1       441 2.00395E+01 3.28856E-01 1.04960E-02 5.37353E-01 1.16274E-13 3.40769E-13
 -1       442 1.25441E+01-5.62879E+00-1.66073E-02 7.88200E+00-2.90684E-13 1.66568E-14
 -1       443 2.71226E+01-2.92017E+00-2.09292E-02 5.13741E+00 5.40679E-14-4.60451E-13
 -1       444 1.63289E+00-3.46079E+00 5.42613E-02 1.18091E+00-4.35502E-14-2.68258E-13
 -1       445 2.08819E+01-4.90335E+00 3.44541E-03 7.19060E+00 1.07636E-13-5.22714E-13
 -1       446 1.97875E+01 3.43986E+00-2.06953E-02-1.72612E+00-4.14521E-14-2.71365E-13
 -1       447 3.33462E+01 2.02439E+00-1.67646E-02 1.21713E+00-1.00697E-13-6.29080E-13
 -1       448 3.57913E+01 5.79132E+00 1.25945E-02 2.98045E-01 1.50532E-13-7.38437E-13
 -1       449 3.59697E+01 8.39334E+00-3.41670E-02-2.00690E-01 2.15272E-13-4.32428E-13
 -1       450 3.66860E+01 7.70687E+00 2.47906E-02 4.45166E-02 3.46820E-13-1.35697E-13
 -1       451 3.52053E+01 4.44866E+00 3.46532E-02-8.60056E-01 1.39305E-13-3.48110E-13
 -1       452 3.23936E+01 6.99229E-01 4.12220E-02-2.73042E+00 7.21923E-14-4.31072E-13
 -1       453 2.65365E+01-3.48365E+00 9.65147E-03-5.33922E+00-2.04725E-13-7.30485E-13
 -1       454 1.74861E+01-5.33612E+00-1.53115E-02-7.76962E+00 3.54994E-14-5.60808E-13
 -1       455 8.95978E+00-4.88307E+00 3.10345E-02-7.52594E+00 3.56937E-14-5.86781E-13
 -1       456 3.75491E+00-4.03407E+00 6.40448E-02-5.12928E+00 2.08292E-13-1.13243E-14
 -1       457 9.55767E-01-4.45962E+00-4.11031E-02-2.28663E-01 6.07895E-14 3.13916E-13
 -1       458 3.38544E+00-5.04868E+00-6.71147E-02 3.52545E+00 9.14824E-14 4.97935E-13
 -1       459 1.18075E+01-6.41396E+00-8.95255E-02 6.22864E+00 2.94820E-13 2.54893E-13
 -1       460 2.12651E+01-6.75388E+00-7.73007E-02 5.72143E+00 2.18409E-13 3.52020E-13
 -1       461 3.15779E+01-4.76340E+00-2.45557E-02 1.78048E+00 2.55296E-13-2.30371E-14
 -1       462 3.87135E+01 4.96680E+00 9.62133E-02-2.58798E+00 4.84557E-13-6.09651E-14
 -1       463 3.96498E+01 5.59519E+00 2.10096E-01 1.74660E+00-1.45106E-13-1.62190E-13
 -1       464 3.89895E+01 1.80488E+00 1.80782E-01 1.54842E+00 3.01842E-15-2.05114E-13
 -1       465 3.36363E+01-3.44128E+00-2.59647E-02-9.24847E-01 1.29029E-13 1.19987E-13
 -1       466 2.61829E+01-5.82945E+00-5.02501E-02-4.50465E+00-1.56902E-13-2.14440E-13
 -1       467 1.79538E+01-6.81537E+00-6.16762E-02-6.47379E+00-1.98452E-13-1.63624E-13
 -1       468 8.47177E+00-6.22785E+00-1.12582E-01-5.90070E+00 1.31811E-13 3.22756E-13
 -1       469 3.21086E+00-4.68915E+00 7.41679E-04-3.25112E+00-2.82482E-14-1.09940E-13
 -1       470 4.50927E+00-4.35627E+00 5.23524E-02 5.51436E+00-1.05749E-13 1.03015E-13
 -1       471 3.04475E+01-1.85431E+00-3.84978E-02 1.42647E+00 2.30493E-14-6.63539E-13
 -1       472 1.03267E+01-3.85722E+00 1.35217E-01 7.35959E+00-2.75439E-13 1.90958E-14
 -1       473 9.57489E+00-3.95094E+00 1.12205E-01 5.78312E+00 1.14089E-13 2.13454E-13
 -1       474 3.22222E+01 8.43324E+00-1.47785E-01 1.70880E-01-2.56739E-14 2.76509E-13
 -1       475 3.65952E+01-1.02728E+00 1.58950E-02-9.85524E-01 2.41390E-13 6.98885E-14
 -1       476 4.28615E+01 7.65344E+00 4.82100E-01 6.66140E-02 1.62037E-13-5.57884E-13
 -1       477 1.97335E+01 3.10416E+00-5.32070E-03-6.33979E-01 5.12483E-14-2.16362E-13
 -1       478 1.98297E+01 2.93089E+00-5.70039E-03-9.50193E-01 2.18402E-14-2.49758E-13
 -1       479 1.96659E+01 3.22677E+00-5.02001E-03 8.83420E-03 1.24887E-13-1.66007E-13
 -1       480 1.96844E+01 3.19378E+00-5.10626E-03 3.30472E-01 1.49767E-13-1.56831E-13
 -1       481 1.97381E+01 3.09697E+00-5.41988E-03 6.45885E-01 1.76921E-13-1.37312E-13
 -1       482 1.98365E+01 2.91919E+00-5.94129E-03 9.61375E-01 2.09111E-13-6.79522E-14
 -1       483 1.99924E+01 2.63308E+00-6.56252E-03 1.25633E+00 2.14436E-13-2.35654E-14
 -1       484 2.02224E+01 2.19377E+00-5.81617E-03 1.49018E+00 2.00671E-13 3.64038E-14
 -1       485 2.04780E+01 1.54596E+00-3.25779E-03 1.54257E+00 1.62475E-13 1.50790E-13
 -1       486 2.05331E+01 9.90586E-01 3.19770E-03 1.29810E+00 1.44216E-13 2.77076E-13
 -1       487 2.03447E+01 9.71277E-01 2.41756E-03-9.42374E-01-8.63016E-14-1.60687E-13
 -1       488 2.01714E+01 5.44046E-01 2.04472E-03-4.67889E-01-7.78197E-14-1.23116E-13
 -1       489 2.00242E+01 3.03747E-01 1.11284E-03-1.66577E-01-8.54295E-14-9.15059E-14
 -1       490 1.99235E+01 1.61893E-01 4.60484E-04 1.50076E-02-8.62255E-14-1.14495E-13
 -1       491 1.98650E+01 7.58374E-02 1.57289E-04 1.17931E-01-7.98932E-14-1.36442E-13
 -1       492 1.98379E+01 2.34676E-02 1.92859E-05 1.69830E-01-1.09422E-13-8.51906E-14
 -1       493 1.98326E+01-8.62155E-03-3.75394E-05 1.89725E-01-2.81161E-14 1.82370E-14
 -1       494 1.98413E+01-2.49253E-02-8.08070E-05 1.88843E-01-6.84571E-14 8.79989E-16
 -1       495 1.98578E+01-3.19709E-02-8.94629E-05 1.77427E-01-2.06965E-14-1.64371E-14
 -1       496 1.98786E+01-3.26953E-02-8.76768E-05 1.61391E-01-1.00844E-14-6.49830E-14
 -1       497 1.99014E+01-2.90108E-02-7.63868E-05 1.44883E-01 1.96694E-14-7.89071E-14
 -1       498 1.99253E+01-2.20892E-02-5.78486E-05 1.30895E-01 1.35507E-14-1.88826E-13
 -1       499 1.99498E+01-1.25304E-02-3.32214E-05 1.21711E-01 3.93031E-14-1.26951E-13
 -1       500 1.99753E+01-4.50487E-04-2.43059E-06 1.19265E-01-2.30621E-14-2.03426E-13
 -1       501 2.00026E+01 1.44887E-02 3.57284E-05 1.25454E-01 3.34016E-14-1.51161E-13
 -1       502 2.00329E+01 3.31022E-02 8.36585E-05 1.42421E-01 2.34335E-14-1.09065E-13
 -1       503 2.00672E+01 5.67133E-02 1.47978E-04 1.72786E-01-2.29810E-14-1.78273E-13
 -1       504 2.01090E+01 8.92470E-02 2.37369E-04 2.23067E-01-1.23772E-14-8.18896E-14
 -1       505 2.01550E+01 1.30762E-01 3.51757E-04 2.93494E-01-1.70542E-13-1.23185E-14
 -1       506 2.02071E+01 1.86583E-01 5.17113E-04 3.92241E-01-5.13543E-14-1.41290E-13
 -1       507 2.02634E+01 2.62173E-01 7.43723E-04 5.27793E-01 1.50952E-15-1.53233E-13
 -1       508 2.03192E+01 3.63951E-01 1.05004E-03 7.10826E-01 1.01761E-13-3.52779E-13
 -1       509 2.03651E+01 4.98127E-01 1.44034E-03 9.54183E-01 4.08884E-14-4.51079E-13
 -1       510 2.03857E+01 6.66999E-01 1.87616E-03 1.27198E+00 3.09462E-14-3.83534E-13
 -1       511 2.03601E+01 8.59977E-01 2.24384E-03 1.67743E+00-3.11647E-14-2.55272E-13
 -1       512 2.02684E+01 1.03438E+00 2.42256E-03 2.17897E+00-2.65759E-14-1.42216E-13
 -1       513 2.01168E+01 1.07959E+00 2.99364E-03 2.77469E+00 4.05782E-15-3.68259E-14
 -1       514 1.99888E+01 7.68140E-01 6.13751E-03 3.45157E+00-1.23859E-13-2.44052E-14
 -1       515 2.02903E+01-4.11108E-01 1.53206E-02 4.11468E+00-1.42436E-13-6.22215E-14
 -1       516 2.16900E+01-2.77486E+00 6.43328E-02 4.53318E+00-1.27932E-13 4.89634E-14
 -1       517 1.90949E+01-5.41669E+00 5.93146E-02 7.27588E+00-1.71189E-13-2.57877E-13
 -1       518 2.04416E+01-8.01097E-01 2.52632E-02-4.36405E+00-1.74351E-13 3.51334E-13
 -1       519 1.99749E+01 5.28035E-01 5.66398E-03-3.77561E+00 1.56015E-13 3.40673E-13
 -1       520 2.00126E+01 9.94665E-01 3.40740E-03-3.11907E+00 1.20329E-13 1.79566E-13
 -1       521 2.01312E+01 1.03158E+00 2.42231E-03-2.51770E+00-1.59043E-13 6.83454E-14
 -1       522 2.02090E+01 9.15023E-01 2.20655E-03-1.99083E+00-2.28526E-13-2.70276E-13
 -1       523 2.02185E+01 7.95934E-01 2.30667E-03-1.53694E+00-2.45436E-13-2.47910E-13
 -1       524 2.01039E+01 8.01940E-01 1.95035E-03-1.18458E+00-3.35665E-13 2.03751E-14
 -1       525 1.98528E+01 1.07616E-01 3.94727E-04-7.30698E-02 8.70305E-14 5.57466E-14
 -1       526 1.99338E+01 2.12039E-01 9.81127E-04 6.56004E-02 9.66864E-14 7.20112E-14
 -1       527 2.00667E+01 3.87544E-01 1.13541E-03 3.05379E-01 1.10939E-13 9.72824E-14
 -1       528 1.98123E+01 4.44039E-02 1.32094E-04-1.47713E-01 8.18070E-14 3.62120E-14
 -1       529 1.98001E+01 6.43354E-03 5.35455E-06-1.81529E-01 8.23442E-14 3.82709E-14
 -1       530 1.98061E+01-1.53110E-02-5.92035E-05-1.90006E-01 5.31556E-14-1.67331E-14
 -1       531 1.98229E+01-2.63187E-02-8.98302E-05-1.83649E-01 3.65725E-14 1.14208E-14
 -1       532 1.98456E+01-3.01169E-02-9.90778E-05-1.69644E-01 7.29722E-14 5.78982E-14
 -1       533 1.98709E+01-2.90467E-02-9.41061E-05-1.52924E-01 4.04697E-14 7.46983E-14
 -1       534 1.98970E+01-2.46837E-02-7.96259E-05-1.36885E-01 2.60569E-14 1.35060E-13
 -1       535 1.99232E+01-1.80969E-02-5.88559E-05-1.23855E-01 5.61231E-14 4.65737E-14
 -1       536 1.99495E+01-1.00307E-02-3.41143E-05-1.15422E-01 1.05800E-14-4.73870E-14
 -1       537 1.99763E+01-1.05703E-03-7.27618E-06-1.12634E-01 1.58694E-14 3.25482E-14
 -1       538 2.00044E+01 8.27891E-03 1.97535E-05-1.16092E-01 2.61592E-14 3.19088E-14
 -1       539 2.00351E+01 1.73043E-02 4.45616E-05-1.25940E-01 2.68305E-14 5.23083E-14
 -1       540 2.00696E+01 2.50497E-02 6.36940E-05-1.41742E-01-1.49788E-13 8.96015E-14
 -1       541 2.01096E+01 3.00676E-02 7.21569E-05-1.62248E-01-8.61908E-14 5.84701E-14
 -1       542 2.01564E+01 3.02588E-02 6.30279E-05-1.85032E-01-6.66826E-14 3.87649E-14
 -1       543 2.02115E+01 2.27609E-02 2.74311E-05-2.06042E-01-1.73757E-14 1.65738E-13
 -1       544 2.02761E+01 3.99733E-03-4.47386E-05-2.19097E-01-4.15340E-14 2.03026E-13
 -1       545 2.03508E+01-2.99398E-02-1.62813E-04-2.15486E-01-9.21595E-14 2.43916E-13
 -1       546 2.04349E+01-8.23335E-02-3.31364E-04-1.83921E-01 2.90304E-14 3.31291E-13
 -1       547 2.05256E+01-1.54034E-01-5.43853E-04-1.11263E-01 9.68659E-14 1.41987E-13
 -1       548 2.06166E+01-2.40646E-01-7.74054E-04 1.53507E-02-4.91829E-15 1.88332E-13
 -1       549 2.06958E+01-3.29012E-01-9.67480E-04 2.04243E-01-8.56783E-14 1.73261E-13
 -1       550 2.07445E+01-3.94340E-01-1.04305E-03 4.52339E-01-7.06295E-14 1.37807E-13
 -1       551 2.07378E+01-4.00850E-01-8.99905E-04 7.36314E-01-4.66385E-14 1.42093E-13
 -1       552 2.06504E+01-3.10235E-01-4.80292E-04 1.00488E+00-1.26475E-13 1.89279E-13
 -1       553 2.04701E+01-1.00899E-01 1.99202E-04 1.17942E+00-2.26963E-13 1.14179E-13
 -1       554 2.02156E+01 2.06964E-01 9.87487E-04 1.17233E+00 2.91250E-14 2.94311E-13
 -1       555 1.99467E+01 5.36765E-01 1.55195E-03 9.25651E-01 3.13741E-15 2.56428E-13
 -1       556 1.97519E+01 7.73080E-01 1.86246E-03 4.56441E-01 1.34675E-14 4.71358E-13
 -1       557 1.97057E+01 8.18407E-01 1.82096E-03-1.26309E-01 1.51705E-13 4.98798E-13
 -1       558 1.98237E+01 6.51971E-01 1.56961E-03-6.60668E-01 1.19403E-13 4.90422E-13
 -1       559 2.00529E+01 3.43048E-01 1.13202E-03-1.00635E+00 1.81621E-13 3.37886E-13
 -1       560 2.03037E+01 8.61486E-03 4.60752E-04-1.10506E+00 1.77296E-15 4.42549E-13
 -1       561 2.04995E+01-2.51628E-01-2.14359E-04-9.88081E-01 1.96541E-13 3.72246E-13
 -1       562 2.06033E+01-3.91630E-01-7.54394E-04-7.37813E-01 2.94287E-13 1.01066E-13
 -1       563 2.06160E+01-4.15853E-01-1.01518E-03-4.43627E-01 4.72887E-13-4.96835E-14
 -1       564 2.05594E+01-3.56737E-01-9.90611E-04-1.73987E-01 2.40336E-13-8.37048E-14
 -1       565 2.04611E+01-2.51934E-01-7.88586E-04 3.13927E-02-6.94894E-14-7.98938E-15
 -1       566 2.03441E+01-1.31301E-01-3.82458E-04 1.56933E-01-2.18927E-15 1.77321E-13
 -1       567 2.02253E+01-1.67974E-02 9.04909E-05 2.03527E-01-1.86117E-13 2.88698E-13
 -1       568 2.02075E+01 2.38666E-01 6.01027E-04 6.37293E-01 3.45020E-13-2.05939E-13
 -1       569 2.02354E+01 1.26518E-01 6.87059E-04 4.79416E-01-1.29225E-13 1.21349E-13
 -1       570 2.02162E+01 6.04883E-02 3.19836E-04 3.24974E-01-5.20856E-14 5.65658E-14
 -1       571 5.92674E+00-1.12107E+00 1.99339E-01 3.67098E+00-6.08888E-15-5.48589E-14
 -1       572 2.01126E+01 4.12062E-01 8.57083E-05 7.63043E-01 2.05591E-13-3.01497E-13
 -1       573 1.99467E+01 6.41990E-01-3.19149E-04 8.05576E-01 5.99696E-14 3.79064E-14
 -1       574 1.97288E+01 9.04545E-01-7.16589E-04 7.17946E-01-2.54248E-13 3.06076E-13
 -1       575 1.95061E+01 1.15535E+00-1.03647E-03 4.73215E-01-3.27544E-13 7.81902E-14
 -1       576 1.93486E+01 1.33415E+00-1.22960E-03 9.25582E-02-2.31946E-13 1.60996E-13
 -1       577 1.93201E+01 1.39218E+00-1.00855E-03-3.74283E-01-1.89654E-13 1.74109E-13
 -1       578 1.94752E+01 1.29034E+00-1.01094E-03-8.17905E-01-2.70713E-13 4.17071E-13
 -1       579 1.97451E+01 1.08594E+00-4.36475E-04-1.08286E+00-1.80119E-13 1.70338E-13
 -1       580 2.03939E+01 1.77279E+00-4.99421E-03-1.54912E+00-1.03335E-13-1.85497E-13
 -1       581 6.23858E+00-4.31110E-01 1.92474E-01-1.84998E+00-3.44291E-14-2.36755E-13
 -1       582 8.94977E+00-2.18935E+00 1.90412E-01-4.86081E+00-6.39072E-15 2.58363E-13
 -1       583 2.81633E+01-5.65547E+00 4.84619E-02 2.18560E+00 9.05387E-14-4.51514E-14
 -1       584 1.59267E+01-4.72794E+00 1.02568E-01-7.82367E+00 1.56958E-14-4.66033E-13
 -1       585 3.14206E+01 5.41669E+00-1.62999E-01 1.43549E+00 2.45443E-13 1.93096E-13
 -1       586 2.52790E+01-5.21235E+00-7.81251E-05 4.92003E+00 8.85125E-14-6.92463E-13
 -1       587 2.23511E+01-3.43425E+00 1.02774E-01-4.66135E+00-3.14287E-13 1.14062E-13
 -1       588 2.80518E+01-5.70200E+00 9.87972E-03-2.24245E+00-3.44932E-13 8.56416E-14
 -1       589 1.96815E+01 3.19817E+00-5.08976E-03-3.12920E-01 8.73984E-14-1.85268E-13
 -1       590 3.02900E+01 2.95961E+00-1.71689E-01-1.65384E+00 1.42941E-15-1.90903E-13
 -1       591 2.36003E+01-5.38367E+00 2.70467E-02-5.80243E+00-1.13999E-13-5.26867E-13
 -1       592 2.99001E+01 6.26716E+00-2.05533E-01-1.57454E+00 1.86448E-13 1.58012E-13
 -1       593 3.10646E+01 1.20235E+00-1.20505E-01 6.67938E-01 6.91322E-14-2.53936E-13
 -1       594 1.93927E+01-5.02680E+00 1.11573E-01 5.88816E+00 4.43881E-14 1.82406E-13
 -1       595 2.92462E+01-2.76490E+00-4.09569E-02-1.90942E+00-1.97608E-13-4.26131E-13
 -1       596 8.91145E+00-2.37824E+00 1.71735E-01-6.41819E+00 1.72695E-13-2.01048E-13
 -1       597 4.60259E+00-1.08220E+00 1.82898E-01-2.47020E+00 1.02796E-13 4.41730E-14
 -1       598 5.24508E+00-1.43769E+00 1.98351E-01 2.14219E+00 9.03739E-14 5.59969E-13
 -1       599 1.55433E+01-4.74152E+00 9.84187E-02-6.26384E+00-1.60968E-13 1.93436E-13
 -1       600 1.99783E+01 2.66768E+00-6.06563E-03-1.25501E+00-3.41887E-14-2.58005E-13
 -1       601 2.02662E+01 6.54340E-01 6.22699E-03 7.96475E-01 1.36844E-13 2.11559E-13
 -1       602 2.92948E+01-4.57467E-02-8.85341E-02-1.21022E+00-2.40086E-15-1.90535E-13
 -1       603 9.70814E+00-1.40923E+00 1.59142E-01 5.55139E+00 6.62283E-14 2.21559E-14
 -1       604 2.01391E+01 5.01029E-01 3.55289E-03 5.18148E-01 1.16175E-13 1.67673E-13
 -1       605 1.59390E+01-4.12032E+00 1.13281E-01 7.37954E+00-4.30336E-13 1.14613E-13
 -1       606 2.89576E+01 6.76817E+00-1.75257E-01 1.21971E+00 1.85935E-13 1.12887E-13
 -1       607 1.99609E+01 2.44949E+00-1.61282E-03 3.94188E-01 1.54545E-13-1.09837E-13
 -1       608 1.99292E+01 2.52435E+00-1.52687E-03 1.35843E-01 1.26789E-13-1.35504E-13
 -1       609 2.01198E+01 2.04670E+00-1.79684E-03 8.51001E-01 2.00653E-13-5.82689E-14
 -1       610 2.02406E+01 1.68311E+00-2.00168E-03 1.00208E+00 1.78704E-13-1.15376E-14
 -1       611 2.03634E+01 1.02591E+00 3.46371E-03 1.01049E+00 1.47992E-13 1.09149E-13
 -1       612 2.02931E+01 1.12049E+00 2.96016E-04-7.65796E-01-5.93009E-14-1.75191E-13
 -1       613 1.52743E+01-1.89627E+00 1.20272E-01 5.28285E+00-5.47305E-14-4.77812E-14
 -1       614 2.26539E+01-5.04426E+00 4.37080E-02 5.37688E+00-1.31398E-13-4.52349E-13
 -1       615 2.02396E+01 6.73589E-01 5.81314E-04-3.93678E-01-5.74482E-14-1.59074E-13
 -1       616 2.01676E+01 3.92039E-01 2.30718E-04-1.39886E-01-9.15222E-14-1.52854E-13
 -1       617 2.01023E+01 2.12979E-01 6.07152E-05 2.22708E-02-5.47814E-14-1.21043E-13
 -1       618 2.00522E+01 9.91790E-02 4.25116E-06 1.17840E-01-3.93186E-14-7.90463E-14
 -1       619 2.00163E+01 2.55832E-02-5.19391E-06 1.68979E-01-5.85827E-14-5.60252E-14
 -1       620 1.99950E+01-1.53338E-02-2.79810E-05 1.87182E-01-7.95287E-14-1.24486E-13
 -1       621 1.99833E+01-3.70832E-02-2.92964E-05 1.87308E-01-7.11590E-14-1.43664E-13
 -1       622 1.99785E+01-4.55989E-02-2.98298E-05 1.77487E-01-1.67668E-14-1.61339E-13
 -1       623 1.99786E+01-4.48893E-02-2.71328E-05 1.63564E-01-7.61429E-14-2.05965E-13
 -1       624 1.99822E+01-3.75670E-02-2.21554E-05 1.49759E-01-7.50267E-14-1.98219E-13
 -1       625 1.99882E+01-2.51922E-02-1.52910E-05 1.39191E-01 1.45991E-14-2.20873E-13
 -1       626 1.99960E+01-8.47994E-03-6.70852E-06 1.34300E-01 4.46906E-15-2.42141E-13
 -1       627 2.00051E+01 1.25887E-02 3.69877E-06 1.37200E-01 7.40971E-14-1.12301E-13
 -1       628 2.00150E+01 3.87319E-02 1.64595E-05 1.49954E-01-1.49222E-14-1.63269E-13
 -1       629 2.00250E+01 7.13555E-02 3.15887E-05 1.74793E-01-5.33543E-14-2.36472E-13
 -1       630 2.00341E+01 1.15207E-01 5.79053E-05 2.16890E-01-4.61504E-14-1.64270E-13
 -1       631 2.00387E+01 1.69663E-01 8.32738E-05 2.75720E-01-7.34979E-15-2.20499E-13
 -1       632 2.00352E+01 2.41023E-01 1.24641E-04 3.56876E-01-1.08894E-13-5.66101E-14
 -1       633 2.00161E+01 3.35384E-01 1.81333E-04 4.65340E-01-5.53404E-14 4.02138E-15
 -1       634 1.99694E+01 4.60046E-01 2.59011E-04 6.06834E-01-1.18270E-13 1.85352E-15
 -1       635 1.98764E+01 6.22737E-01 3.59932E-04 7.87616E-01-5.33153E-14-1.82431E-13
 -1       636 1.97092E+01 8.29053E-01 4.72611E-04 1.01409E+00-4.68549E-14-2.83662E-13
 -1       637 1.94286E+01 1.07646E+00 5.63640E-04 1.29274E+00-6.23992E-14-4.73125E-13
 -1       638 1.89841E+01 1.34184E+00 6.60502E-04 1.63197E+00 7.61649E-14-4.62106E-13
 -1       639 1.83209E+01 1.55832E+00 1.38134E-03 2.04963E+00 8.54473E-15-5.21192E-13
 -1       640 1.73998E+01 1.57675E+00 5.10485E-03 2.59886E+00-3.91243E-14-4.96485E-13
 -1       641 1.61987E+01 1.11989E+00 3.51664E-02 3.44921E+00-6.33061E-14-2.85081E-13
 -1       642 1.72250E+01 1.44082E+00 9.48530E-03-2.96755E+00-2.05823E-14 2.26598E-13
 -1       643 1.81844E+01 1.53530E+00 2.40063E-03-2.38802E+00-1.60169E-13 4.41438E-14
 -1       644 1.89027E+01 1.38869E+00 4.78256E-05-1.94277E+00-2.09032E-13-2.12408E-13
 -1       645 1.93920E+01 1.20467E+00 4.62378E-04-1.57282E+00-3.74837E-13 1.30355E-13
 -1       646 1.95947E+01 1.12495E+00 1.39754E-03-1.31741E+00-3.02352E-13-7.60150E-15
 -1       647 2.01113E+01 2.85829E-01 1.82462E-04 5.37927E-02 7.41216E-14-2.25398E-14
 -1       648 2.00502E+01 1.46881E-01 5.54459E-05-7.53802E-02 9.43148E-14-3.31916E-14
 -1       649 2.01894E+01 5.05404E-01 5.25906E-04 2.65287E-01 1.15032E-13-3.33120E-14
 -1       650 1.99813E+01 6.04457E-03-1.87586E-05-1.81307E-01 6.60888E-14-5.00604E-14
 -1       651 1.99668E+01-2.44929E-02-3.03301E-05-1.90672E-01 3.61540E-14 8.94309E-15
 -1       652 1.99610E+01-3.94427E-02-3.48067E-05-1.85562E-01 1.45033E-14 3.05254E-14
 -1       653 1.99611E+01-4.37271E-02-3.43293E-05-1.73074E-01 4.89812E-14 1.05655E-14
 -1       654 1.99652E+01-4.07086E-02-3.03989E-05-1.58218E-01 3.39760E-14 5.90212E-15
 -1       655 1.99719E+01-3.26940E-02-2.41257E-05-1.44512E-01 3.18104E-14 5.35940E-15
 -1       656 1.99806E+01-2.12793E-02-1.62870E-05-1.34416E-01 8.71199E-14 4.17680E-14
 -1       657 1.99909E+01-7.61929E-03-7.49230E-06-1.29638E-01-2.73771E-14 6.61307E-14
 -1       658 2.00028E+01 7.33018E-03 1.70279E-06-1.31325E-01-2.73986E-14 8.28275E-14
 -1       659 2.00167E+01 2.25682E-02 1.06817E-05-1.40137E-01 1.27487E-14 1.16581E-13
 -1       660 2.00336E+01 3.67908E-02 1.85713E-05-1.56218E-01-7.29843E-14 1.93748E-13
 -1       661 2.00545E+01 4.81091E-02 2.40808E-05-1.79045E-01-9.74492E-14 1.71397E-13
 -1       662 2.00815E+01 5.37578E-02 2.52831E-05-2.07143E-01-9.19853E-14 1.76187E-13
 -1       663 2.01170E+01 4.98425E-02 1.94553E-05-2.37679E-01-6.89169E-14 1.08236E-13
 -1       664 2.01646E+01 3.12284E-02 3.04924E-06-2.65919E-01-5.85919E-14 9.51828E-14
 -1       665 2.02288E+01-8.23747E-03-2.81242E-05-2.84624E-01 3.07947E-14 1.52518E-13
 -1       666 2.03151E+01-7.48677E-02-7.83240E-05-2.83476E-01-5.70385E-14 1.03465E-13
 -1       667 2.04288E+01-1.73211E-01-1.50172E-04-2.48838E-01 6.40629E-14 1.01247E-13
 -1       668 2.05735E+01-3.02605E-01-2.41362E-04-1.64301E-01 1.79694E-13 1.25893E-13
 -1       669 2.07474E+01-4.51995E-01-3.38264E-04-1.29327E-02 4.12125E-14 4.41492E-15
 -1       670 2.09388E+01-5.93720E-01-4.06930E-04 2.17498E-01-5.17692E-14-5.47231E-14
 -1       671 2.11211E+01-6.79031E-01-4.06047E-04 5.24929E-01-8.35588E-14-8.42133E-14
 -1       672 2.12506E+01-6.41219E-01-2.62293E-04 8.78969E-01-1.79682E-13-1.27682E-13
 -1       673 2.12760E+01-4.15207E-01 5.58666E-06 1.20644E+00-1.25745E-13 1.17607E-14
 -1       674 2.11650E+01 2.00190E-02 4.29759E-04 1.39104E+00-1.31659E-13-2.41585E-14
 -1       675 2.09388E+01 5.94096E-01 8.38550E-04 1.30722E+00-1.53242E-13 1.48381E-13
 -1       676 2.06910E+01 1.12841E+00 6.01616E-04 8.89102E-01-1.24428E-13 2.18028E-13
 -1       677 2.05539E+01 1.40079E+00 5.72798E-04 2.09892E-01 1.33173E-13 2.65332E-13
 -1       678 2.06050E+01 1.28474E+00 3.13130E-04-5.22483E-01 8.83535E-14 3.49612E-13
 -1       679 2.08132E+01 8.31720E-01 3.29500E-04-1.06900E+00 7.25036E-14 2.84882E-13
 -1       680 2.10581E+01 2.39000E-01 2.76236E-04-1.28913E+00-1.00760E-13 4.34105E-13
 -1       681 2.12193E+01-2.77639E-01 2.57482E-04-1.19593E+00 1.27902E-13 3.84703E-13
 -1       682 2.12431E+01-5.97871E-01-6.54022E-05-9.00618E-01 3.98140E-13 3.42221E-13
 -1       683 2.11414E+01-7.04371E-01-3.55416E-04-5.33029E-01 3.84961E-13 5.09048E-13
 -1       684 2.09611E+01-6.46707E-01-4.13591E-04-1.91019E-01 3.68703E-13 7.36319E-13
 -1       685 2.07506E+01-4.92760E-01-3.33785E-04 7.26688E-02 2.44679E-13 6.85717E-13
 -1       686 2.05443E+01-2.99524E-01-2.10680E-04 2.39694E-01-1.14480E-13 2.80444E-13
 -1       687 2.03685E+01-1.12229E-01-1.84639E-04 3.22719E-01-1.55768E-13 3.97135E-13
 -1       688 2.01014E+01 2.07914E-01-6.26039E-05 1.00122E+00 2.80981E-13-2.33120E-13
 -1       689 2.04192E+01-1.19975E-01 2.31789E-04 5.17511E-01-1.27411E-14 2.24717E-14
 -1       690 2.03083E+01 2.25130E-02 4.83448E-06 8.44312E-01 1.31066E-13-4.40888E-13
 -1       691 1.93871E+01 8.13614E-01-3.75096E-04 8.73922E-01-1.75955E-13-4.85339E-15
 -1       692 1.90366E+01 1.12967E+00-3.81042E-04 5.06763E-01-3.24090E-13 7.79199E-14
 -1       693 1.88380E+01 1.35579E+00-6.94275E-04-4.59555E-02-4.22872E-13 2.14595E-13
 -1       694 1.89055E+01 1.41259E+00-7.84974E-04-6.69527E-01-2.64348E-13 1.30769E-13
 -1       695 1.13205E+01 1.91428E-01 1.50895E-01-3.66431E+00-7.82534E-14 9.83692E-14
 -1       696 1.43960E+01-2.72291E+00 1.09374E-01-6.78460E+00 1.14977E-13-3.27145E-13
 -1       697 1.09039E+01 2.12876E-01 1.52649E-01 3.46709E+00 7.39877E-14 2.11491E-13
 -1       698 1.54680E+01-1.96873E+00 1.32172E-01-5.53900E+00-7.50788E-15 3.17191E-13
 -1       699 2.06340E+01-4.58677E+00 6.88008E-02-6.15469E+00-1.12396E-13-2.98870E-13
 -1       700 9.01224E+00 1.06268E+00 1.46093E-01 1.00933E+00-1.58302E-14-3.35357E-14
 -1       701 2.82718E+01 2.51972E+00-1.18428E-01 2.05982E+00 2.44436E-13 3.40471E-13
 -1       702 2.76424E+01 3.78542E+00-1.28131E-01-2.03561E+00-8.77631E-14-3.60930E-13
 -1       703 2.87076E+01-1.37105E+00-7.24400E-02 5.17364E-01-3.65957E-14-1.52073E-13
 -1       704 2.63705E+01-4.37152E+00-3.34608E-02-2.73259E+00-3.31379E-13-3.81079E-13
 -1       705 2.00246E+01 2.29499E+00-1.71189E-03 6.38035E-01 1.85357E-13-6.85271E-14
 -1       706 2.00192E+01 2.30505E+00-1.61387E-03-6.29519E-01 1.87625E-14-2.02171E-13
 -1       707 8.39398E+00 9.61369E-01 1.73124E-01 3.71779E-01 2.61190E-13 3.19529E-13
 -1       708 2.76736E+01 6.89081E+00-1.71163E-01-3.53850E-01 2.51535E-14-7.17767E-14
 -1       709 8.58916E+00-1.59944E-01 1.49265E-01-4.01411E+00 1.76244E-13-3.86774E-14
 -1       710 1.97771E+01 4.82502E-01-2.76533E-04 1.03211E+00-1.54874E-15-4.70595E-14
 -1       711 2.03948E+01-7.36649E-02 1.67877E-04 6.85032E-01-1.26675E-13 2.38396E-13
 -1       712 2.00078E+01 5.94669E-02 4.53961E-06-1.47491E-01 9.21185E-14-5.92872E-14
 -1       713 1.61067E+01 8.12862E-01 3.89434E-02-3.77481E+00-1.33794E-13 3.50083E-13
 -1       714 2.77056E+01-3.76238E+00-2.22570E-02 1.47661E+00 1.85901E-13-3.75033E-13
 -1       715 1.99283E+01 2.52604E+00-1.51816E-03-1.26548E-01 7.14118E-14-1.50862E-13
 -1       716 2.74219E+01 1.44543E+00-7.48075E-02-2.03084E+00-1.81005E-13-3.50900E-13
 -1       717 1.26336E+01-7.43228E-01 9.41844E-02-5.24978E+00 2.70512E-13-2.20546E-13
 -1       718 2.38481E+01-4.42516E+00 1.50830E-02-3.82484E+00-2.29087E-13-1.55471E-13
 -1       719 1.39581E+01-2.09687E+00 1.08631E-01 6.23399E+00 1.92353E-13-2.03913E-13
 -1       720 2.02639E+01 1.68889E+00-1.93107E-03-1.12936E+00-5.49843E-14-1.82979E-13
 -1       721 1.91986E+01 1.31322E+00 4.12095E-04-1.04974E+00-3.22998E-13 5.09637E-13
 -1       722 2.02744E+01 8.55470E-01 1.71990E-03 5.85653E-01 1.39887E-13 5.07366E-15
 -1       723 2.01177E+01 2.06405E+00-1.88808E-03-8.54254E-01-2.35838E-14-2.30107E-13
 -1       724 2.59846E+01 5.24824E+00-1.02892E-01-1.31728E+00-1.72157E-13-4.59056E-13
 -1       725 1.02016E+01-2.04043E-01 1.30397E-01 4.17542E+00 2.26765E-13 1.80751E-13
 -1       726 2.66695E+01 4.20751E+00-1.08574E-01 2.00732E+00 1.05006E-13 1.34944E-14
 -1       727 1.99579E+01 2.45515E+00-1.54939E-03-3.84475E-01 5.42847E-14-1.67533E-13
 -1       728 2.02651E+01 1.30912E+00-7.26648E-04 6.31474E-01 1.55316E-13-6.39060E-14
 -1       729 1.96065E+01-3.72187E+00 6.38255E-02 5.77982E+00-1.35995E-13-2.50891E-13
 -1       730 2.02898E+01 7.29228E-01-1.77975E-04-2.91106E-01-5.06947E-14-1.71487E-13
 -1       731 2.02628E+01 4.33564E-01 1.50835E-06-9.35699E-02-5.10252E-14-1.30565E-13
 -1       732 2.02227E+01 2.35287E-01-1.75008E-05 3.64642E-02-5.04608E-14-1.26010E-13
 -1       733 2.01796E+01 1.00753E-01-3.89216E-06 1.17104E-01-4.14152E-14-1.64382E-13
 -1       734 2.01425E+01 2.12399E-02-1.21971E-05 1.56237E-01-9.33408E-14-1.57650E-13
 -1       735 2.01112E+01-2.55201E-02-8.86150E-06 1.71108E-01-8.47672E-14-1.32691E-13
 -1       736 2.00858E+01-4.92474E-02-8.04847E-06 1.70988E-01-6.12087E-14-8.58235E-14
 -1       737 2.00658E+01-5.67834E-02-7.01593E-06 1.62865E-01-6.30769E-14-9.28759E-14
 -1       738 2.00502E+01-5.27974E-02-5.74991E-06 1.51880E-01-5.24467E-14-6.15132E-14
 -1       739 2.00382E+01-4.03213E-02-4.21135E-06 1.41806E-01-2.88762E-15-9.55476E-14
 -1       740 2.00287E+01-2.10983E-02-2.42347E-06 1.35476E-01-4.96960E-14-9.79235E-14
 -1       741 2.00206E+01 4.19031E-03-4.13805E-07 1.35119E-01 6.04641E-14-1.10708E-13
 -1       742 2.00125E+01 3.57965E-02 1.98891E-06 1.42629E-01 2.91011E-14-1.03138E-13
 -1       743 2.00024E+01 7.48136E-02 2.24315E-06 1.59743E-01-2.82172E-14 6.63947E-14
 -1       744 1.99867E+01 1.26101E-01 1.08331E-05 1.89987E-01-1.79897E-14 1.23837E-13
 -1       745 1.99625E+01 1.88057E-01 1.10563E-05 2.32340E-01-7.16535E-14 1.11126E-13
 -1       746 1.99233E+01 2.66978E-01 1.61944E-05 2.89616E-01-5.10731E-14 2.34979E-14
 -1       747 1.98595E+01 3.68439E-01 2.28666E-05 3.63317E-01-1.33274E-13 4.42300E-16
 -1       748 1.97572E+01 4.99093E-01 3.06676E-05 4.54268E-01-1.34326E-13-2.36558E-14
 -1       749 1.95955E+01 6.66170E-01 3.68438E-05 5.62007E-01-1.65716E-13-2.41273E-14
 -1       750 1.93442E+01 8.75877E-01 2.85746E-05 6.84015E-01-7.21260E-14-1.28278E-13
 -1       751 1.89606E+01 1.12991E+00-2.49302E-05 8.15249E-01-1.07681E-13-7.66030E-14
 -1       752 1.83850E+01 1.41884E+00-1.30274E-04 9.49212E-01 2.02009E-14-4.10845E-14
 -1       753 1.75357E+01 1.71075E+00 1.28431E-04 1.08345E+00-4.36545E-14 4.47483E-14
 -1       754 1.63011E+01 1.93271E+00 2.38480E-03 1.23816E+00-4.54858E-14-5.63902E-14
 -1       755 1.44083E+01 1.92752E+00 2.59784E-02 1.49042E+00 1.63169E-13-5.15625E-14
 -1       756 1.82125E+01 1.49222E+00 1.51589E-03-2.77147E-01-2.26872E-13 3.74954E-13
 -1       757 1.60706E+01 1.89406E+00 5.37524E-03-1.48173E+00-1.23749E-13-2.74335E-13
 -1       758 1.40738E+01 1.87454E+00 2.12472E-02-1.78565E+00-2.32829E-13-1.04276E-13
 -1       759 1.75011E+01 1.73598E+00 1.02437E-02-1.34556E+00-3.10926E-13-1.62318E-14
 -1       760 1.84092E+01 1.53563E+00-1.39742E-03-1.19661E+00-3.63815E-14 3.06358E-13
 -1       761 2.02283E+01 3.23766E-01 9.90402E-06 2.70262E-02 1.12509E-13-1.33239E-13
 -1       762 2.02683E+01 5.64928E-01-1.57307E-08 1.96533E-01 1.17693E-13-5.97751E-14
 -1       763 2.00832E+01-3.56509E-02-1.01424E-05-1.75962E-01-1.31456E-14 8.18874E-14
 -1       764 2.01105E+01-3.52826E-04-9.96099E-06-1.68254E-01-2.51784E-14 1.10873E-14
 -1       765 2.00456E+01-5.45987E-02-8.63196E-06-1.61090E-01 3.07353E-14 8.01311E-15
 -1       766 2.00333E+01-4.81793E-02-7.13346E-06-1.49257E-01 4.26660E-14 3.73571E-14
 -1       767 2.00244E+01-3.53723E-02-5.36433E-06-1.39232E-01 2.68711E-14 5.08608E-14
 -1       768 2.00180E+01-1.81838E-02-3.21970E-06-1.33335E-01-2.99953E-14 1.71654E-13
 -1       769 2.00137E+01 1.87684E-03-8.71521E-07-1.33246E-01-3.81309E-14 2.23843E-13
 -1       770 2.00112E+01 2.34614E-02 1.55166E-06-1.40162E-01 1.01368E-14 1.25272E-13
 -1       771 2.00107E+01 4.50426E-02 3.90637E-06-1.54868E-01-6.90868E-14 1.49330E-13
 -1       772 2.00130E+01 6.45481E-02 6.05283E-06-1.77704E-01-1.38072E-13 1.69114E-13
 -1       773 2.00196E+01 7.89566E-02 7.67764E-06-2.08414E-01-1.13920E-13 1.39875E-13
 -1       774 2.00332E+01 8.38947E-02 8.18983E-06-2.45861E-01-6.35761E-14 1.24459E-13
 -1       775 2.00585E+01 7.33063E-02 6.65935E-06-2.87583E-01 1.81200E-14 1.94746E-13
 -1       776 2.01019E+01 3.93568E-02 1.61000E-06-3.29144E-01-1.01652E-14 5.13490E-14
 -1       777 2.01725E+01-2.71398E-02-9.36046E-06-3.63293E-01-4.92170E-14 6.85300E-14
 -1       778 2.02818E+01-1.35301E-01-3.03323E-05-3.78933E-01 6.27714E-14 1.57987E-13
 -1       779 2.04427E+01-2.91089E-01-6.59190E-05-3.60107E-01 3.95438E-14 1.87953E-13
 -1       780 2.06663E+01-4.91774E-01-1.18063E-04-2.85534E-01 1.53992E-13 3.08527E-13
 -1       781 2.09558E+01-7.17429E-01-1.76452E-04-1.30032E-01 1.82937E-14 2.97485E-13
 -1       782 2.12977E+01-9.20395E-01-2.08941E-04 1.29571E-01-2.08477E-14 1.99191E-13
 -1       783 2.16502E+01-1.01746E+00-2.38398E-04 5.00252E-01-1.98446E-13 3.61835E-13
 -1       784 2.19385E+01-8.95520E-01-1.96391E-04 9.48259E-01-1.41968E-13 2.54401E-13
 -1       785 2.20669E+01-4.49182E-01-3.83890E-04 1.36668E+00-5.39220E-14-1.14374E-14
 -1       786 2.19826E+01 3.23136E-01-4.09370E-04 1.57189E+00-3.36162E-13-1.81655E-14
 -1       787 2.17212E+01 1.25982E+00-4.39028E-05 1.37270E+00-1.24223E-13-1.17699E-13
 -1       788 2.14656E+01 1.97718E+00-1.03579E-03 7.07010E-01-8.14717E-14-1.37412E-13
 -1       789 2.14096E+01 2.12338E+00-1.12979E-04-2.20518E-01 2.73141E-14 3.05219E-14
 -1       790 2.16024E+01 1.60771E+00-1.46762E-03-1.03715E+00 1.33850E-13 4.08656E-14
 -1       791 2.18925E+01 7.02591E-01-2.10589E-03-1.44669E+00-1.38683E-13 2.85717E-13
 -1       792 2.20748E+01-1.83113E-01 1.10363E-04-1.38439E+00 3.93300E-14 3.64246E-13
 -1       793 2.20427E+01-7.87113E-01 2.97624E-04-1.01881E+00 1.67264E-13 3.41752E-13
 -1       794 2.18157E+01-1.03827E+00-1.24370E-04-5.48568E-01 1.76025E-13 4.52712E-13
 -1       795 2.14791E+01-1.00599E+00-2.74097E-04-1.21719E-01 3.32599E-13 2.56943E-13
 -1       796 2.11205E+01-8.05476E-01-8.90054E-05 1.94843E-01 4.15827E-13 2.35946E-13
 -1       797 2.07934E+01-5.31241E-01-3.34055E-05 3.86401E-01 3.86008E-13 3.44321E-13
 -1       798 2.05950E+01-3.27679E-01 1.09949E-04 4.80462E-01-1.04902E-13 8.39969E-14
 -1       799 2.04002E+01-2.50913E-01-9.09917E-05 1.08688E+00 2.87941E-13-2.63348E-14
 -1       800 1.83607E+01 1.23205E+00 4.87823E-04 5.07215E-01-2.97254E-13 1.41775E-13
 -1       801 1.88485E+01 8.11248E-01-6.21994E-05 1.05635E+00-1.82955E-13-8.91415E-14
 -1       802 2.00200E+01-1.64077E-02-1.52628E-04 1.29458E+00 2.49883E-13-3.83080E-13
 -1       803 1.94654E+01 3.56898E-01-3.08092E-04 1.31372E+00 1.52342E-13-1.62641E-13
 -1       804 2.02848E+01 1.16726E+00 1.30668E-04-5.69532E-01-3.02278E-14-2.06479E-13
 -1       805 2.49117E+01-4.15424E+00-1.34377E-02 2.41892E+00-5.90522E-14-4.86079E-13
 -1       806 2.00619E+01-5.17846E-02-9.69836E-06-1.71494E-01 6.35060E-14 4.62417E-14
 -1       807 1.83732E+01-2.95135E+00 5.40662E-02-5.67390E+00-9.60152E-14-3.07235E-13
 -1       808 2.69457E+01-4.74809E-02-5.44460E-02 1.68332E+00 2.75179E-13 1.25969E-13
 -1       809 1.05469E+01 1.26595E+00 9.66753E-02-1.91422E+00 3.37687E-13 6.07916E-14
 -1       810 2.01399E+01 1.88901E+00-3.34735E-04 1.99345E-01 1.23521E-13-7.61507E-14
 -1       811 2.66254E+01-2.93162E+00-3.75139E-02-4.05709E-01-2.37623E-13-1.02417E-13
 -1       812 2.56585E+01 5.62194E+00-9.77530E-02 8.10577E-01 4.52832E-14-3.10105E-13
 -1       813 2.71876E+01-1.81235E+00-3.69013E-02-7.46724E-01 7.84962E-15-5.96575E-13
 -1       814 1.18526E+01 1.72293E+00 7.17104E-02 1.12533E+00 2.01014E-13 2.69278E-13
 -1       815 2.29244E+01-3.79894E+00 1.38180E-02 3.52542E+00-8.26409E-14-4.12507E-13
 -1       816 2.02172E+01 1.58488E+00-6.05952E-04 5.33270E-01 1.60830E-13-6.41506E-14
 -1       817 2.52435E+01 2.74595E+00-5.62418E-02-1.98048E+00-1.64929E-13-5.94739E-13
 -1       818 2.01677E+01 1.78407E+00-4.80442E-04-3.74797E-01 1.94962E-14-1.70398E-13
 -1       819 2.14502E+01-3.49353E+00 1.88089E-02-4.29453E+00-4.48595E-14-7.70698E-14
 -1       820 2.01845E+01 1.64725E-01-7.60112E-06-7.95401E-02 7.70252E-14-1.20743E-13
 -1       821 2.01444E+01 6.24540E-02-9.54735E-06-1.39872E-01 7.16009E-14-4.50395E-14
 -1       822 2.05849E+01-3.28206E-01-6.07537E-04 6.93635E-01 3.07968E-16 1.50173E-13
 -1       823 1.31434E+01 1.59780E+00 4.22990E-02 1.24760E+00-1.08879E-13 2.31224E-13
 -1       824 1.63437E+01-1.41835E+00 5.10290E-02-5.09611E+00-3.95066E-14-1.17493E-14
 -1       825 2.02883E+01 9.30083E-01 5.30771E-04 4.46219E-01 1.53760E-13-4.27665E-14
 -1       826 2.02150E+01 1.59479E+00-6.41940E-04-5.29069E-01-1.68791E-14-1.68451E-13
 -1       827 2.44425E+01 4.91957E+00-5.67650E-02-1.37521E-01-1.22626E-13-7.18420E-13
 -1       828 2.01709E+01 1.77667E+00-5.27789E-04 3.80236E-01 1.46528E-13-6.55768E-14
 -1       829 2.59585E+01 1.72498E+00-5.47357E-02 2.13199E+00 2.02708E-13-4.94743E-14
 -1       830 2.01276E+01 1.92744E+00-4.85716E-04 3.89197E-03 6.61947E-14-9.51014E-14
 -1       831 2.49902E+01-3.58902E+00-1.44160E-03-1.66245E+00-2.54048E-13-1.38891E-13
 -1       832 2.05403E+01-3.16445E-01 6.07361E-04 8.93230E-01 2.43139E-13 7.55412E-15
 -1       833 2.01375E+01 1.89295E+00-4.92257E-04-1.91118E-01 4.70124E-14-1.40473E-13
 -1       834 1.32805E+01 6.06938E-01 4.38657E-02-3.45645E+00 1.96940E-13 3.50622E-14
 -1       835 2.52079E+01-2.68314E+00-1.70379E-02 7.04749E-02-2.18324E-13-8.75050E-13
 -1       836 2.03315E+01 4.31828E-01 4.34415E-05-4.58720E-02-3.33983E-14-1.02756E-13
 -1       837 2.03040E+01 2.21342E-01-1.40810E-05 5.20909E-02-2.52215E-14-5.92100E-14
 -1       838 2.02674E+01 9.06756E-02-8.31652E-06 1.07026E-01-6.92555E-14-3.82836E-14
 -1       839 2.02280E+01 8.63338E-03-5.85736E-06 1.35075E-01-3.92266E-14-2.62533E-14
 -1       840 2.01897E+01-3.83128E-02-4.54097E-06 1.45075E-01-2.81015E-14-1.95741E-14
 -1       841 2.01545E+01-6.01936E-02-3.40953E-06 1.44145E-01-3.60517E-14-2.31988E-15
 -1       842 2.01231E+01-6.41676E-02-2.54250E-06 1.37719E-01-5.28023E-14-8.21140E-15
 -1       843 2.00954E+01-5.51589E-02-1.92252E-06 1.29842E-01-6.82646E-14-6.19191E-14
 -1       844 2.00706E+01-3.63260E-02-1.67856E-06 1.23499E-01-4.81318E-14-1.25070E-13
 -1       845 2.00476E+01-9.40007E-03-1.41777E-06 1.20910E-01 3.31414E-14-1.13651E-13
 -1       846 2.00245E+01 2.50697E-02-1.12007E-06 1.23748E-01 7.19185E-14-6.33985E-14
 -1       847 1.99990E+01 6.75246E-02-4.02497E-06 1.33288E-01 1.16170E-13-5.04514E-14
 -1       848 1.99661E+01 1.22339E-01 1.39411E-06 1.51536E-01 1.28284E-14 9.66476E-14
 -1       849 1.99241E+01 1.86816E-01-2.74425E-06 1.77294E-01-1.22667E-15 1.08808E-13
 -1       850 1.98654E+01 2.66497E-01-4.56697E-06 2.11084E-01-5.59996E-14 7.43117E-14
 -1       851 1.97810E+01 3.65646E-01-6.88282E-06 2.51761E-01-1.41915E-13 1.34944E-13
 -1       852 1.96579E+01 4.89173E-01-1.12447E-05 2.96503E-01-1.58818E-13 1.51787E-13
 -1       853 1.94780E+01 6.42183E-01-2.04557E-05 3.39874E-01-1.16152E-13 4.24065E-14
 -1       854 1.92160E+01 8.28802E-01-4.40227E-05 3.72589E-01-1.26143E-13 6.80681E-14
 -1       855 1.88364E+01 1.04991E+00-1.06160E-04 3.80122E-01-2.72218E-14 7.25586E-14
 -1       856 1.82904E+01 1.29926E+00-2.28145E-04 3.41598E-01-1.03363E-13 1.94961E-13
 -1       857 1.75090E+01 1.55747E+00-2.16394E-04 2.29787E-01-3.27517E-14 5.23193E-14
 -1       858 1.63912E+01 1.78509E+00 1.11467E-03 1.58276E-02-5.80758E-14 4.43393E-14
 -1       859 1.46750E+01 1.90617E+00 1.40885E-02-3.53258E-01 5.42924E-14 2.05806E-13
 -1       860 2.58626E+01 2.05305E-01-3.17085E-02-1.86117E+00-1.42010E-13-6.14621E-13
 -1       861 1.52663E+01 1.71993E+00 8.42372E-03 6.03364E-01-1.07247E-13 4.10210E-13
 -1       862 2.02952E+01 1.14992E+00 6.50559E-04-3.86995E-01-2.02264E-14-1.66686E-13
 -1       863 1.68032E+01 1.66946E+00-1.04696E-03 9.97611E-02-7.06296E-14 3.88030E-13
 -1       864 2.00769E+01-5.00724E-02-7.22687E-07-1.29767E-01-2.00777E-14 2.55790E-14
 -1       865 2.01017E+01-6.13011E-02-1.28431E-06-1.38095E-01 7.74505E-15 5.80631E-15
 -1       866 2.00359E+01-7.85275E-03-4.67737E-07-1.22520E-01-7.47798E-14-3.37177E-14
 -1       867 2.00182E+01 1.91517E-02-7.20081E-09-1.27251E-01-5.09315E-14-2.24468E-14
 -1       868 2.00019E+01 4.78136E-02 3.30115E-07-1.39390E-01-3.39619E-14 7.16745E-14
 -1       869 1.99868E+01 7.61026E-02 7.64709E-07-1.60026E-01-1.11254E-13-1.19896E-14
 -1       870 1.99738E+01 1.01152E-01 1.40285E-06-1.90037E-01-1.45962E-13 4.49348E-14
 -1       871 1.99649E+01 1.18739E-01 2.17741E-06-2.29980E-01-9.55622E-14 1.18470E-14
 -1       872 1.99642E+01 1.22759E-01 2.99152E-06-2.79833E-01-1.15512E-13 8.64927E-15
 -1       873 1.99781E+01 1.04787E-01 3.57374E-06-3.38533E-01-7.37323E-14 1.32952E-13
 -1       874 2.00170E+01 5.39263E-02 3.08104E-06-4.03180E-01 5.07726E-14 1.72377E-13
 -1       875 2.00951E+01-4.26523E-02-1.03762E-06-4.67769E-01-4.07797E-14 1.17612E-13
 -1       876 2.02316E+01-1.97860E-01-1.57393E-05-5.21286E-01-1.65912E-14 1.99319E-13
 -1       877 2.04489E+01-4.20455E-01-4.72522E-05-5.45127E-01 7.33925E-14 1.24963E-13
 -1       878 2.07690E+01-7.06990E-01-9.40213E-05-5.10332E-01 8.43187E-14 5.26638E-14
 -1       879 2.12042E+01-1.02840E+00-1.15963E-04-3.76590E-01-6.43113E-14 2.29487E-13
 -1       880 2.17408E+01-1.31134E+00-8.97731E-05-9.77836E-02-1.81318E-13 4.28122E-13
 -1       881 2.23178E+01-1.42302E+00-5.29192E-04 3.55677E-01-1.01075E-13 2.09144E-13
 -1       882 2.28147E+01-1.17497E+00-1.00325E-03 9.53025E-01-4.52854E-14 1.16170E-13
 -1       883 2.30592E+01-3.90337E-01 9.49406E-04 1.52897E+00-2.81947E-13 3.29025E-13
 -1       884 2.29292E+01 9.24174E-01-1.24451E-02 1.77802E+00-6.54208E-16-1.65397E-13
 -1       885 2.26323E+01 2.28285E+00-4.33977E-03 1.35820E+00-5.01008E-14-2.50444E-13
 -1       886 2.23382E+01 3.08613E+00-1.26221E-02 3.22735E-01-1.70983E-13-9.21865E-14
 -1       887 2.25189E+01 2.68944E+00-1.00932E-02-8.74370E-01 1.00389E-13-1.11892E-13
 -1       888 2.28395E+01 1.53291E+00-6.94998E-04-1.59361E+00-1.03998E-13-1.66763E-13
 -1       889 2.30921E+01 8.11567E-02-5.73345E-03-1.58988E+00-2.32006E-13-3.02017E-13
 -1       890 2.30259E+01-9.55319E-01 3.58009E-04-1.11335E+00 2.42216E-14-3.57525E-14
 -1       891 2.26356E+01-1.43195E+00-5.96389E-04-4.79043E-01 1.73250E-13-5.50965E-14
 -1       892 2.20869E+01-1.44049E+00-5.27683E-04 6.70981E-02 3.73643E-13-1.53276E-13
 -1       893 2.15293E+01-1.18101E+00-3.76549E-05 4.36556E-01 3.10830E-13-1.47128E-13
 -1       894 2.10552E+01-8.17597E-01 2.66651E-04 6.32775E-01 3.59781E-13-7.25748E-14
 -1       895 2.07961E+01-5.67693E-01-1.02704E-03 6.84330E-01 2.82652E-13 1.21048E-13
 -1       896 1.74266E+01 1.42786E+00-5.88563E-03 4.46149E-01-1.37377E-13 5.55927E-13
 -1       897 2.04822E+01-5.81313E-01 5.24897E-04 1.41011E+00 3.09761E-13-2.79306E-13
 -1       898 1.80398E+01 9.07322E-01 1.00108E-03 1.26971E+00-1.59233E-13-1.24533E-13
 -1       899 1.42838E+01 8.12980E-02 4.63048E-02 3.86294E+00 1.57055E-13-1.51672E-13
 -1       900 1.28911E+01 1.75782E+00 3.76521E-02-9.89533E-01 2.45807E-13 5.87620E-14
 -1       901 2.56369E+01-1.58160E+00-2.43110E-02 8.99820E-01-1.54486E-14-1.62881E-13
 -1       902 2.44035E+01 3.72934E+00-5.31314E-02 1.58169E+00-1.28978E-13-4.16824E-13
 -1       903 2.01989E+01-1.25328E-02-3.20752E-06-1.45483E-01-1.60371E-14-2.56927E-14
 -1       904 2.03284E+01 5.71138E-01-1.04935E-04 1.23235E-01 1.54427E-13-8.45168E-14
 -1       905 1.75396E+01-1.52863E+00 2.20942E-02 4.62363E+00 2.01361E-13-2.94056E-13
 -1       906 2.03365E+01 7.22674E-01-4.03953E-04-1.90033E-01-2.46993E-14-1.59547E-13
 -1       907 2.00552E+01-3.15086E-02-4.07295E-07-1.23894E-01-2.44634E-14 6.21487E-14
 -1       908 2.03158E+01 9.28466E-01-1.58758E-04 3.04265E-01 1.45092E-13-5.22333E-14
 -1       909 2.02831E+01 1.23414E+00 9.52273E-04 4.19416E-01 1.47308E-13-5.65812E-14
 -1       910 1.98390E+01-2.55698E-01-9.75208E-05 1.69376E+00 4.35741E-13-3.04161E-13
 -1       911 2.43232E+01-3.12497E+00 4.69770E-03 1.22917E+00 1.91021E-14-8.69775E-13
 -1       912 2.04615E+01-2.35168E+00 4.31205E-03 3.69749E+00-7.67676E-14-7.08756E-13
 -1       913 2.51971E+01-2.23871E-01-1.75905E-02 1.69864E+00 2.37773E-13-2.27873E-14
 -1       914 2.39444E+01 1.12622E+00-2.20511E-02-1.89957E+00-1.88441E-13-4.61732E-13
 -1       915 2.31555E+01-3.35900E+00 5.56163E-03-2.58989E+00-2.87429E-14-1.09593E-13
 -1       916 1.57040E+01 7.93211E-01 1.05320E-02 2.46212E+00 1.14282E-13 5.41130E-14
 -1       917 2.02826E+01 1.32692E+00 1.50138E-04-2.93352E-01 1.69403E-15-1.31025E-13
 -1       918 2.02610E+01 1.45225E+00 8.31325E-04-1.68915E-01 4.42177E-14-1.45907E-13
 -1       919 2.02377E+01 5.28162E-02-4.51880E-06-1.25104E-01-2.65143E-14 2.11553E-14
 -1       920 2.01302E+01-6.20661E-02-1.69587E-06-1.46159E-01 8.22298E-14 5.43449E-14
 -1       921 2.07395E+01-6.68553E-01 1.04628E-03 1.13751E+00 7.02137E-14-1.26884E-13
 -1       922 1.92917E+01-2.36913E+00 2.33570E-02-4.52923E+00-1.26467E-13-2.74914E-13
 -1       923 1.89515E+01 2.75824E-01-1.84529E-04 1.69031E+00 3.33441E-13-5.81002E-13
 -1       924 2.01627E+01-4.79039E-02-1.93992E-06-1.50288E-01 4.17389E-14-7.11814E-14
 -1       925 2.03097E+01 3.25826E-01 7.24132E-06-1.60509E-03 8.24707E-14-5.02250E-14
 -1       926 2.38182E+01 3.84469E+00-3.01385E-02-1.08249E+00 6.43253E-14-4.46092E-13
 -1       927 2.48373E+01-2.48275E+00 1.93399E-03-6.82286E-02-1.77735E-13-1.75351E-13
 -1       928 2.02771E+01 1.40690E+00 2.19176E-04 6.96372E-02 8.10511E-14-4.51494E-14
 -1       929 2.02870E+01 1.33895E+00 1.67116E-04 1.97280E-01 1.22119E-13-5.46223E-14
 -1       930 2.03811E+01 3.89035E-01-5.07771E-05-6.85946E-03 1.29926E-14-7.14375E-14
 -1       931 2.03597E+01 1.96925E-01 2.27472E-06 5.30918E-02-3.85762E-14-6.71230E-14
 -1       932 2.03238E+01 7.00808E-02 5.92974E-06 8.83702E-02-3.64947E-14-6.71717E-14
 -1       933 2.02813E+01-8.20626E-03 4.13448E-06 1.05717E-01-3.96893E-14-7.34428E-14
 -1       934 2.02374E+01-5.10472E-02 2.46502E-06 1.11198E-01-3.75297E-14-1.18510E-14
 -1       935 2.01949E+01-6.82686E-02 2.75769E-06 1.09725E-01-2.60056E-14-4.23984E-14
 -1       936 2.01551E+01-6.69722E-02 3.60637E-06 1.05057E-01-9.63321E-14-6.28056E-15
 -1       937 2.01180E+01-5.20475E-02 1.94286E-06 9.99967E-02-3.88241E-14 4.76677E-14
 -1       938 2.00830E+01-2.65715E-02 2.61767E-07 9.65551E-02 2.60415E-14 5.52652E-14
 -1       939 2.00485E+01 7.82786E-03-9.89654E-08 9.61273E-02 8.51926E-14 1.51242E-14
 -1       940 2.00121E+01 5.06715E-02-3.27127E-06 9.95779E-02 5.77337E-14-2.69285E-15
 -1       941 1.99686E+01 1.05406E-01 1.04123E-06 1.07737E-01 1.37467E-13-6.32882E-14
 -1       942 1.99176E+01 1.68294E-01-2.64851E-06 1.19488E-01 8.69570E-16-4.45896E-14
 -1       943 1.98518E+01 2.43678E-01-4.38361E-06 1.33853E-01-6.13759E-14-1.18539E-13
 -1       944 1.97636E+01 3.34162E-01-5.39179E-06 1.48166E-01-7.36983E-14-8.19302E-14
 -1       945 1.96430E+01 4.42476E-01-6.28155E-06 1.57661E-01-6.05315E-14 2.45528E-14
 -1       946 1.94769E+01 5.70936E-01-7.29362E-06 1.54437E-01-1.87831E-13 8.15745E-14
 -1       947 1.92475E+01 7.20371E-01-1.10532E-05 1.26087E-01-1.82805E-13 1.04196E-13
 -1       948 1.89320E+01 8.88262E-01-2.72102E-05 5.39605E-02-5.13647E-14 6.33499E-14
 -1       949 1.85004E+01 1.06572E+00-7.26141E-05-8.88991E-02-3.41336E-14-5.62492E-14
 -1       950 1.79138E+01 1.23290E+00-8.41390E-05-3.40203E-01-7.14527E-14-1.33859E-13
 -1       951 1.71205E+01 1.35326E+00 2.57178E-04-7.50098E-01-3.48634E-14 2.46167E-14
 -1       952 1.59913E+01 1.35415E+00 5.32445E-03-1.43230E+00 1.17655E-13 1.03180E-13
 -1       953 2.01328E+01-6.28231E-02 9.98278E-07-1.07270E-01 5.37607E-14-5.75648E-14
 -1       954 2.03520E+01 8.74761E-01 1.40204E-05 1.83260E-01 1.42567E-13-3.20641E-14
 -1       955 2.02763E+01 1.60182E-01-3.39622E-06-8.06000E-02 2.59590E-14-3.38588E-14
 -1       956 2.00064E+01 4.41410E-02-5.14267E-07-1.12253E-01-1.11355E-13 1.16176E-13
 -1       957 2.00361E+01 9.82886E-03-8.31208E-07-1.03308E-01-3.77477E-14 9.34814E-14
 -1       958 1.99465E+01 1.16003E-01-1.40398E-06-1.55063E-01-1.27259E-13 9.26257E-14
 -1       959 1.99169E+01 1.47606E-01-1.38738E-06-1.92451E-01-1.25083E-13 9.13251E-15
 -1       960 1.98901E+01 1.69842E-01-8.55303E-07-2.43133E-01-9.28533E-14 2.31139E-14
 -1       961 1.98711E+01 1.74956E-01 5.63489E-07-3.09137E-01-1.01893E-13-7.74777E-14
 -1       962 1.98685E+01 1.52101E-01 3.34086E-06-3.92042E-01-1.16226E-13-5.34509E-14
 -1       963 1.98958E+01 8.69742E-02 7.37499E-06-4.92026E-01-8.87695E-14 1.20428E-13
 -1       964 1.99733E+01-3.78564E-02 9.24869E-06-6.06044E-01-4.91312E-14 1.56462E-13
 -1       965 2.01290E+01-2.41092E-01-4.87769E-06-7.24651E-01 5.02985E-14 1.37974E-13
 -1       966 2.03988E+01-5.37725E-01-2.29890E-05-8.26908E-01 1.02345E-13 2.04799E-13
 -1       967 2.08222E+01-9.28249E-01-2.47808E-05-8.73262E-01-7.18246E-14 1.24171E-13
 -1       968 2.14305E+01-1.37741E+00 1.20608E-04-8.00551E-01-1.89340E-13 2.06143E-13
 -1       969 2.22282E+01-1.78253E+00 2.39424E-03-5.21405E-01-1.45590E-13 1.65288E-13
 -1       970 2.31203E+01-1.92223E+00 9.27128E-04 5.72025E-02 1.05537E-14 1.99110E-13
 -1       971 2.39228E+01-1.50061E+00-1.37482E-03 8.85228E-01-2.30803E-13 1.66089E-13
 -1       972 2.42467E+01-1.11067E+00-8.10086E-03-1.20847E+00-2.92034E-13-5.47797E-13
 -1       973 2.36350E+01-1.92516E+00-3.20380E-03-3.06402E-01 1.15553E-13-4.32170E-13
 -1       974 2.27536E+01-1.97307E+00 1.82707E-03 4.37964E-01 4.46751E-13-4.95897E-13
 -1       975 2.19133E+01-1.62063E+00 8.60156E-04 8.60047E-01 1.47039E-13-4.87808E-13
 -1       976 2.12390E+01-1.12306E+00 3.45498E-04 1.01615E+00 2.79409E-13-1.63645E-13
 -1       977 2.02657E+01 1.45248E+00 2.57061E-04-4.78888E-02 4.98829E-14-1.16932E-13
 -1       978 1.46043E+01 1.22291E+00 1.62973E-02-2.18218E+00 9.55065E-14 1.74953E-13
 -1       979 1.75951E+01-3.70963E-01 7.10814E-03 3.29636E+00 8.83154E-14-7.07137E-13
 -1       980 2.02827E+01 1.31139E+00 4.76770E-04 3.13127E-01 1.36167E-13-3.70474E-14
 -1       981 1.61742E+01-2.23723E-01 1.23920E-02-3.76839E+00 3.56655E-14 1.67956E-13
 -1       982 1.99766E+01 8.03355E-02-1.07297E-06-1.28947E-01-4.81542E-14 1.36185E-13
 -1       983 2.03792E+01 6.63236E-01 9.40505E-05-9.91362E-02-2.22678E-14-1.04751E-13
 -1       984 2.14607E+01-2.80784E+00 7.41658E-03-3.34864E+00 1.16634E-13-2.98689E-13
 -1       985 2.24084E+01-2.67732E+00 5.14216E-03 2.24348E+00-1.05107E-13-3.58206E-13
 -1       986 2.49211E+01-1.57870E+00-1.36024E-02 9.05566E-01-8.66310E-14-4.54081E-14
 -1       987 2.03782E+01 5.32969E-01-1.51723E-04 6.24672E-02 1.14565E-13 6.59000E-15
 -1       988 2.37387E+01-2.81024E+00-3.70107E-03-1.04552E+00-9.73028E-14-3.21838E-13
 -1       989 2.00984E+01-4.57264E-02 8.10141E-07-1.02470E-01-6.05631E-14-1.02686E-13
 -1       990 2.05415E+01-9.91587E-01 2.60218E-04 1.87295E+00 2.12579E-13-1.23349E-13
 -1       991 2.02970E+01 3.30252E-02-4.10136E-07-1.02358E-01 1.38058E-14-5.10184E-14
 -1       992 2.01703E+01-6.89659E-02-1.38245E-07-1.12841E-01 5.81260E-14-2.37193E-14
 -1       993 1.68451E+01 1.09759E+00 2.35888E-03 1.49226E+00 3.00392E-14 1.36389E-13
 -1       994 2.00665E+01-2.07529E-02-3.50600E-06-1.00574E-01-5.82648E-14-4.66741E-14
 -1       995 2.40222E+01 1.43350E+00-2.64894E-02 1.92486E+00 2.41174E-14-2.53231E-13
 -1       996 2.10415E+01-1.14627E+00-2.42153E-04 1.42758E+00 6.35863E-14 3.20331E-14
 -1       997 2.03534E+01 1.03693E+00-6.07318E-04-1.17836E-01 1.84715E-14-1.43587E-13
 -1       998 1.82905E+01-1.12792E+00-2.94810E-04-3.72796E+00 3.83092E-14-3.47078E-13
 -1       999 1.81429E+01 2.38149E-01-2.60728E-04 2.20964E+00 1.44543E-13-8.06862E-13
 -1      1000 2.03653E+01 1.01746E+00-2.23743E-04 6.20051E-04 7.90481E-14-4.58295E-14
 -1      1001 2.02539E+01-2.85810E-02-2.37332E-06-1.14534E-01 1.90783E-14-4.72888E-14
 -1      1002 2.03688E+01 9.85559E-01-1.79545E-05 8.46822E-02 1.09413E-13-3.30699E-14
 -1      1003 2.03901E+01 1.52284E-01-3.04007E-05 4.34959E-02-4.80231E-14-1.11191E-13
 -1      1004 2.03514E+01 3.86762E-02-1.35612E-05 6.14852E-02-9.83718E-15-8.80246E-14
 -1      1005 2.03052E+01-2.90395E-02-5.61656E-06 6.96226E-02 1.43710E-14-1.12762E-13
 -1      1006 2.02568E+01-6.30965E-02-5.84827E-07 7.14949E-02-2.04726E-14 1.63011E-16
 -1      1007 2.02093E+01-7.27541E-02 4.77298E-07 6.98986E-02-2.41879E-14 7.83392E-14
 -1      1008 2.01638E+01-6.45664E-02 1.27808E-06 6.69329E-02-5.94370E-14 1.12070E-13
 -1      1009 2.01203E+01-4.30652E-02-5.61158E-07 6.40901E-02-8.95163E-15 1.91275E-13
 -1      1010 2.00779E+01-1.10688E-02-6.67824E-07 6.23170E-02 7.30810E-14 2.36810E-13
 -1      1011 2.00347E+01 2.98797E-02-4.91347E-06 6.20758E-02-6.56947E-15 1.84957E-13
 -1      1012 1.99855E+01 8.21816E-02-1.72286E-06 6.33297E-02 3.01483E-14 5.77055E-14
 -1      1013 1.99312E+01 1.41220E-01-7.45859E-06 6.51175E-02-2.93684E-14-1.24815E-13
 -1      1014 1.98654E+01 2.10030E-01-1.16822E-05 6.56720E-02 2.20557E-15-1.93916E-13
 -1      1015 1.97823E+01 2.89623E-01-1.60253E-05 6.17432E-02-2.18716E-14-1.50222E-13
 -1      1016 1.96751E+01 3.80675E-01-2.09669E-05 4.80019E-02-6.68913E-14-9.61555E-14
 -1      1017 1.95353E+01 4.82872E-01-2.60760E-05 1.61160E-02-1.85174E-13-1.51450E-13
 -1      1018 1.93529E+01 5.93820E-01-3.08663E-05-4.64467E-02-1.37131E-13-1.61993E-13
 -1      1019 1.91164E+01 7.07332E-01-3.58408E-05-1.57907E-01-1.20707E-13-9.08552E-14
 -1      1020 1.88136E+01 8.10758E-01-4.23114E-05-3.43935E-01-5.58385E-14-1.06107E-13
 -1      1021 1.84327E+01 8.80919E-01-4.52607E-05-6.39565E-01-1.66968E-13-1.22634E-13
 -1      1022 1.79662E+01 8.78278E-01 1.15392E-04-1.09103E+00 6.52584E-15-1.95959E-13
 -1      1023 1.73926E+01 7.22017E-01 1.76173E-03-1.80238E+00 1.75001E-13-6.81719E-14
 -1      1024 1.97224E+01-1.19190E+00 5.43745E-04 2.89260E+00-5.87657E-14-7.39915E-13
 -1      1025 2.00219E+01 3.42019E-02 1.38901E-06-7.66130E-02-6.70940E-14-3.88409E-14
 -1      1026 2.28262E+01-2.40527E+00 3.26837E-03 1.23920E+00 3.43802E-13-4.60676E-13
 -1      1027 1.98435E+01 2.05243E-01-8.16214E-06-1.82902E-01-8.16599E-14 7.09618E-14
 -1      1028 1.98922E+01 1.64872E-01-7.85021E-06-1.38673E-01-1.82334E-13 8.77351E-14
 -1      1029 1.97493E+01 2.46904E-01-1.78535E-06-3.30388E-01-1.11602E-13 1.78519E-13
 -1      1030 1.97185E+01 2.26018E-01 8.92439E-06-4.44350E-01-8.46517E-14 8.47132E-14
 -1      1031 1.97177E+01 1.54968E-01 2.68914E-05-5.92217E-01-9.61297E-14 5.94994E-14
 -1      1032 1.97724E+01 1.04802E-02 4.58936E-05-7.76489E-01-1.97309E-14-5.76470E-14
 -1      1033 1.99207E+01-2.34984E-01 1.45625E-05-9.92424E-01 5.63813E-14-6.53249E-14
 -1      1034 2.02171E+01-6.09446E-01 7.60162E-05-1.21997E+00 8.85351E-14 2.54766E-14
 -1      1035 2.07270E+01-1.12374E+00-2.35980E-05-1.40699E+00-7.72546E-14 1.27665E-16
 -1      1036 2.15286E+01-1.75185E+00 1.12550E-03-1.46578E+00 1.78067E-14-1.67910E-13
 -1      1037 2.04119E+01 5.82610E-01 3.59036E-04-3.69015E-02 3.46518E-15-9.53014E-14
 -1      1038 2.17726E+01-1.79479E+00-8.00490E-04 1.46784E+00 3.72369E-16-4.92888E-14
 -1      1039 1.97942E+01 2.35614E-01-6.68678E-06-2.45118E-01-1.12505E-13 1.26923E-13
 -1      1040 2.02109E+01-5.96796E-02-7.90569E-06-1.16468E-01-4.26459E-14-1.30902E-14
 -1      1041 1.99812E+01 7.61361E-02-5.33621E-06-8.84092E-02-5.14194E-14 4.07789E-14
 -1      1042 1.67961E+01 4.31031E-01 1.25333E-02-2.64194E+00 1.48352E-13 6.83698E-15
 -1      1043 1.99382E+01 1.20538E-01-6.69007E-06-1.08265E-01-6.88567E-14 7.19830E-14
 -1      1044 2.03365E+01 1.36702E-01-2.33810E-08-7.39397E-02 4.81395E-15-3.54832E-14
 -1      1045 1.94947E+01-5.21965E-01 2.72590E-04 2.27072E+00 2.46286E-13-7.58604E-13
 -1      1046 2.04136E+01 3.27858E-01 1.69097E-05 1.17864E-02 6.58699E-15-8.84470E-14
 -1      1047 2.00614E+01-3.31413E-03-1.34361E-05-7.09556E-02-1.74353E-13-9.58088E-14
 -1      1048 2.26524E+01-2.71945E+00 1.36317E-03-1.95110E+00 2.78659E-14-8.90695E-14
 -1      1049 2.01862E+01-7.13277E-02 4.09241E-06-7.42093E-02 5.77361E-14 5.26574E-14
 -1      1050 2.03700E+01 9.99699E-02-2.47736E-05-5.67628E-02 1.82436E-15 7.18267E-14
 -1      1051 2.03662E+01 2.97744E-01 4.31877E-05-2.20993E-02 4.83102E-14-3.62067E-15
 -1      1052 2.04168E+01 6.77869E-01-3.69157E-04 1.91047E-02 9.60148E-14 1.25091E-14
 -1      1053 2.25359E+01-2.23140E+00 2.06746E-03-1.11424E+00-9.43008E-14-2.36422E-13
 -1      1054 2.10942E+01-1.76207E+00-4.26218E-03 2.28896E+00-1.19100E-13-1.55336E-13
 -1      1055 2.03276E+01 7.15636E-03-1.20236E-05-7.12968E-02 1.39460E-14 7.54706E-14
 -1      1056 2.04225E+01 6.48595E-01 8.38690E-05-1.26330E-02 5.56946E-14-3.64056E-14
 -1      1057 2.01250E+01-1.77039E+00 2.12978E-03-3.12986E+00 1.08771E-14-3.96323E-13
 -1      1058 2.01427E+01-5.87019E-02 4.09940E-06-7.11165E-02 2.43467E-14 6.00579E-14
 -1      1059 2.03539E+01 5.07046E-03-2.62203E-05 2.58587E-02 2.39104E-15 2.79091E-14
 -1      1060 2.03040E+01-4.84819E-02-2.02963E-05 2.80111E-02 2.25671E-14 5.52932E-14
 -1      1061 2.02530E+01-7.12436E-02 2.83722E-05 2.79959E-02 2.28245E-14 3.62242E-14
 -1      1062 2.02032E+01-7.23948E-02-8.56796E-06 2.71897E-02-4.97356E-14 7.45771E-14
 -1      1063 2.01546E+01-5.71911E-02-2.08169E-05 2.59447E-02 1.25238E-14 1.04368E-13
 -1      1064 2.01077E+01-2.97680E-02-1.32191E-05 2.44121E-02 2.86911E-14 1.37019E-13
 -1      1065 2.00612E+01 7.45877E-03 1.70990E-05 2.26447E-02-4.38928E-14 5.15508E-14
 -1      1066 2.00103E+01 5.53189E-02-2.29199E-06 2.00449E-02-1.21829E-13-1.94866E-14
 -1      1067 1.99570E+01 1.08943E-01-8.54604E-06 1.57484E-02-7.87567E-14-1.75268E-13
 -1      1068 1.98956E+01 1.69993E-01-1.40245E-05 7.69836E-03-6.21596E-14-1.67057E-13
 -1      1069 1.98225E+01 2.38179E-01-2.27391E-05-7.27543E-03 4.10013E-14-2.20987E-13
 -1      1070 1.97332E+01 3.12550E-01-3.69100E-05-3.41018E-02-8.26044E-14-3.46486E-13
 -1      1071 1.96235E+01 3.90789E-01-5.88598E-05-8.01737E-02-1.46822E-13-3.47401E-13
 -1      1072 1.94892E+01 4.68161E-01-9.16013E-05-1.56210E-01-1.32035E-13-2.64754E-13
 -1      1073 1.93276E+01 5.35966E-01-1.39524E-04-2.77230E-01-1.13393E-13-2.77960E-13
 -1      1074 1.91389E+01 5.79312E-01-2.10890E-04-4.63504E-01-1.03340E-13-2.42294E-13
 -1      1075 1.89292E+01 5.73896E-01-3.24892E-04-7.41171E-01-2.62496E-14-2.95878E-13
 -1      1076 1.87165E+01 4.82059E-01-4.51969E-04-1.14187E+00-6.29959E-15-7.09509E-14
 -1      1077 1.85370E+01 2.25908E-01-7.05247E-04-1.73104E+00 7.71301E-14 4.46628E-14
 -1      1078 2.01015E+01-3.51019E-02 5.83199E-06-6.95784E-02-5.48698E-14-3.90145E-14
 -1      1079 1.97554E+01 2.75386E-01 6.10623E-05-1.58233E-01-7.35779E-14-5.13347E-14
 -1      1080 2.02326E+01-6.87274E-02 4.01760E-06-7.69747E-02 1.10000E-14 2.65890E-14
 -1      1081 2.04270E+01 2.51336E-01-6.85939E-05 1.02754E-02-3.28499E-14-5.50008E-15
 -1      1082 2.02807E+01-4.54351E-02 1.79739E-06-7.68632E-02-4.70844E-15 1.03185E-13
 -1      1083 1.99970E+01 6.41441E-02 1.58595E-05-4.30960E-02-1.82561E-13 6.87261E-15
 -1      1084 2.04016E+01 2.46806E-01-6.59436E-05-2.87169E-02 2.53302E-14 2.12646E-14
 -1      1085 1.98269E+01 2.22661E-01 4.13881E-05-1.09027E-01-1.08522E-13-1.33027E-13
 -1      1086 1.95162E+01 3.38185E-01 1.90846E-04-4.85691E-01-6.44589E-14-1.61865E-13
 -1      1087 1.95939E+01 3.45474E-01 1.32765E-04-3.36480E-01-1.06250E-13-1.43698E-13
 -1      1088 1.94516E+01 1.28896E-01 2.59263E-04-9.64996E-01 5.40608E-14-2.22215E-14
 -1      1089 1.95407E+01-1.42983E-01 9.22026E-05-1.31173E+00 1.17720E-13-9.29725E-14
 -1      1090 1.97986E+01-5.90900E-01-6.69173E-04-1.72764E+00 9.22874E-14-4.75165E-14
 -1      1091 2.03298E+01-1.24263E+00 3.66733E-04-2.13286E+00-8.20855E-14-4.09824E-14
 -1      1092 2.13054E+01-2.01858E+00-3.32090E-03-2.23880E+00-5.25589E-15 6.97291E-14
 -1      1093 1.94594E+01 2.76078E-01 2.57376E-04-6.91253E-01-3.36422E-14-1.04840E-13
 -1      1094 1.96765E+01 3.19589E-01 9.03317E-05-2.31045E-01-7.39315E-14-1.44354E-13
 -1      1095 1.99465E+01 1.14015E-01 2.00785E-05-5.57719E-02-1.33140E-13 8.16309E-14
 -1      1096 1.84208E+01-1.52247E-01 3.44338E-03-2.40379E+00 1.91405E-13-1.91286E-13
 -1      1097 1.98904E+01 1.67612E-01 2.84311E-05-7.65517E-02-1.28240E-13 3.88063E-14
 -1      1098 2.04326E+01 4.25424E-01 1.23718E-05-1.52733E-03 1.85329E-14 5.74246E-15
 -1      1099 2.04170E+01 4.78629E-01 3.66759E-04 2.08408E-02 7.37335E-14-2.15848E-14
 -1      1100 2.03974E+01 1.00413E-01-9.59492E-08 2.04254E-02-2.49020E-14 3.65435E-14
 -1      1101 2.02317E+01-7.39674E-02-1.08501E-05-3.35161E-02-7.48538E-15-3.14375E-14
 -1      1102 2.04358E+01 3.88393E-01 5.34105E-05 7.43156E-04 3.56836E-14 4.36512E-14
 -1      1103 2.04155E+01 1.84261E-01 2.49800E-05-1.86818E-02-1.17167E-14 1.99722E-14
 -1      1104 2.03792E+01 5.75209E-02 4.36810E-05-2.86604E-02-2.86474E-14 7.03217E-14
 -1      1105 2.01824E+01-6.83885E-02 1.81159E-05-3.26256E-02 4.93956E-14 6.16082E-15
 -1      1106 2.00441E+01 1.94820E-02 5.03072E-06-3.59400E-02-1.50005E-13-5.33786E-14
 -1      1107 2.02813E+01-6.31048E-02 7.67124E-06-1.64602E-02 3.30877E-14-1.39350E-15
 -1      1108 2.00856E+01-1.39657E-02-1.10934E-06-1.70820E-02-2.38444E-14 1.36267E-14
 -1      1109 2.01339E+01-4.72742E-02 1.86948E-05-2.40188E-02 3.71807E-14 6.50745E-14
 -1      1110 2.03329E+01-2.25759E-02 3.68985E-05-2.49248E-02 1.84262E-14 6.18329E-14
 -1      1111 2.79626E+01 9.08643E+00 2.32529E+00-6.69824E+00-3.04756E-14 3.86940E-13
 -1      1112 2.05472E+01 6.22708E+00 2.09728E-01-3.90415E+00-1.22125E-14-1.48874E-13
 -1      1113 1.94346E+01 5.85299E+00 7.53824E-02-2.88821E+00-6.03684E-15-3.33509E-13
 -1      1114 1.90259E+01 5.72588E+00 6.03096E-02-2.23523E+00-2.85535E-15-3.99666E-13
 -1      1115 1.88396E+01 5.66916E+00 5.75228E-02-1.70175E+00-8.79505E-16-4.17019E-13
 -1      1116 1.87463E+01 5.64056E+00 5.55709E-02-1.23442E+00 1.11369E-15-4.07916E-13
 -1      1117 1.86975E+01 5.62539E+00 5.38142E-02-8.04508E-01 1.04691E-15-3.81081E-13
 -1      1118 1.86735E+01 5.61782E+00 5.25524E-02-3.92913E-01 2.65478E-15-3.46928E-13
 -1      1119 1.86666E+01 5.61564E+00 5.21504E-02 8.49929E-03 2.70736E-15-3.19651E-13
 -1      1120 1.86745E+01 5.61816E+00 5.26632E-02 4.10318E-01 5.02506E-15-2.80743E-13
 -1      1121 1.86996E+01 5.62609E+00 5.40513E-02 8.23246E-01 4.94396E-15-2.34241E-13
 -1      1122 1.87501E+01 5.64191E+00 5.62464E-02 1.25573E+00 7.11931E-15-1.73934E-13
 -1      1123 1.88452E+01 5.67111E+00 5.84873E-02 1.72750E+00 8.13759E-15-9.82816E-14
 -1      1124 1.90319E+01 5.72779E+00 6.06742E-02 2.26858E+00 8.48627E-15 2.62915E-14
 -1      1125 1.94312E+01 5.85020E+00 6.94299E-02 2.92896E+00 9.64506E-15 2.16289E-13
 -1      1126 2.04527E+01 6.18170E+00 1.52931E-01 3.87867E+00 7.38298E-15 5.35842E-13
 -1      1127 2.52170E+01 7.99422E+00 1.43024E+00 5.84631E+00 6.99441E-15 1.09482E-12
 -1      1128 2.88122E+01 3.61630E+00 1.27127E+00-4.21707E+00-1.03695E-13 6.99663E-13
 -1      1129 2.02272E+01-1.77721E-01-6.16306E-01-1.09921E-01-3.76088E-14 4.65294E-13
 -1      1130 1.88328E+01-9.63713E-02-2.36379E-01 6.25094E-02-1.52222E-14 1.78966E-13
 -1      1131 1.84987E+01-4.80769E-02-5.96285E-02 4.05090E-02-1.88105E-14-4.16334E-15
 -1      1132 1.84435E+01-2.46109E-02-1.52082E-02 2.67894E-02 3.15329E-15-1.86337E-13
 -1      1133 1.85251E+01-1.30565E-02-4.97488E-03 1.90535E-02-2.33862E-15-2.68025E-13
 -1      1134 1.86718E+01-6.61635E-03-1.47255E-03 1.41041E-02-2.30805E-15-3.56153E-13
 -1      1135 1.88441E+01-2.85327E-03 5.59368E-04 1.06687E-02-9.82883E-16-4.47422E-13
 -1      1136 1.90195E+01-6.32833E-04 1.86612E-03 8.12112E-03-2.89178E-15-5.39282E-13
 -1      1137 1.91854E+01 6.11352E-04 2.58910E-03 6.16951E-03 2.46823E-15-6.04820E-13
 -1      1138 1.93383E+01 1.26554E-03 2.80261E-03 4.70313E-03-8.00572E-15-6.86295E-13
 -1      1139 1.94717E+01 1.59823E-03 2.84385E-03 3.31638E-03 7.15435E-15-6.98398E-13
 -1      1140 1.95821E+01 1.57635E-03 2.57344E-03 2.36912E-03-2.55535E-14-6.48241E-13
 -1      1141 1.96749E+01 1.38013E-03 2.16932E-03 1.61059E-03-6.12773E-15-7.50225E-13
 -1      1142 1.97528E+01 1.05019E-03 1.66184E-03 1.01612E-03-7.49665E-15-5.99464E-13
 -1      1143 1.98194E+01 6.09450E-04 1.06599E-03 5.58355E-04-1.91513E-14-7.31074E-13
 -1      1144 1.98787E+01 5.99352E-05 3.74233E-04 2.16651E-04 3.04111E-15-7.28604E-13
 -1      1145 1.99357E+01-6.17066E-04-4.44710E-04-2.08836E-05-4.93148E-15-5.93139E-13
 -1      1146 1.99963E+01-1.46297E-03-1.45028E-03-1.54882E-04 5.81665E-15-5.78051E-13
 -1      1147 2.00679E+01-2.54838E-03-2.74039E-03-1.71820E-04 3.44749E-14-4.04096E-13
 -1      1148 2.01595E+01-4.06044E-03-4.48923E-03-5.09244E-05 9.07645E-15-2.89188E-13
 -1      1149 2.02878E+01-5.87305E-03-6.89452E-03 1.98622E-04-1.67856E-14-4.12780E-13
 -1      1150 2.04683E+01-8.65679E-03-1.04078E-02 1.21529E-03-1.44523E-14-5.71358E-13
 -1      1151 2.07205E+01-1.23058E-02-1.53582E-02 2.73097E-03 2.86306E-14-4.58371E-13
 -1      1152 2.10827E+01-1.72851E-02-2.25390E-02 5.47462E-03-1.85147E-14-1.97325E-13
 -1      1153 2.16049E+01-2.39087E-02-3.28315E-02 1.03375E-02 1.43926E-14-3.63393E-13
 -1      1154 2.23571E+01-3.22365E-02-4.70060E-02 1.88044E-02-2.90714E-14-3.32640E-13
 -1      1155 2.34333E+01-4.14845E-02-6.46115E-02 3.31301E-02 8.37655E-15-1.49540E-13
 -1      1156 2.49479E+01-4.87505E-02-8.08583E-02 5.60772E-02 1.52695E-14-9.55069E-14
 -1      1157 2.70058E+01-4.65963E-02-7.99605E-02 8.89221E-02 3.23253E-14-2.19241E-13
 -1      1158 2.96075E+01-2.03526E-02-2.56971E-02 1.24208E-01-5.97330E-14-4.06758E-13
 -1      1159 3.24294E+01 5.26587E-02 1.34741E-01 1.32393E-01 1.69552E-14-5.70169E-13
 -1      1160 3.44562E+01 1.86666E-01 4.05691E-01 3.28572E-02-5.32317E-14-1.00303E-12
 -1      1161 3.35945E+01 3.03478E-01 5.62211E-01-2.79573E-01 4.33507E-14-8.78797E-13
 -1      1162 2.82587E+01 1.72040E-01 1.60091E-01-6.55225E-01-9.51669E-15-2.99483E-13
 -1      1163 2.08743E+01-1.73583E-01-7.58017E-01-6.49250E-01 3.81639E-15-1.38223E-13
 -1      1164 1.65145E+01-5.43534E-01-1.40336E+00-1.29294E-01 3.00732E-14 1.25525E-13
 -1      1165 1.88860E+01-3.80724E-01-1.04018E+00 5.72786E-01-1.10051E-14 6.54476E-13
 -1      1166 2.62752E+01 1.20557E-01-3.09246E-02 7.19555E-01-4.84612E-14 7.34968E-13
 -1      1167 3.25828E+01 3.09052E-01 5.38768E-01 3.79428E-01-4.26742E-14 4.18721E-13
 -1      1168 3.43009E+01 2.18751E-01 4.63680E-01 1.46686E-02-7.71258E-14 1.23193E-13
 -1      1169 3.26597E+01 7.98207E-02 1.90874E-01-1.21220E-01-4.07053E-15-2.30177E-13
 -1      1170 2.98207E+01-5.64547E-03 3.98588E-03-1.32465E-01 2.52453E-14-7.87981E-14
 -1      1171 2.70087E+01-4.11511E-02-6.97454E-02-1.01435E-01 2.59992E-15 7.86315E-14
 -1      1172 2.46774E+01-4.83646E-02-8.01928E-02-6.86175E-02 7.66804E-14 2.86313E-13
 -1      1173 2.28855E+01-4.45173E-02-6.91919E-02-4.50011E-02 2.22717E-14 2.51209E-13
 -1      1174 2.15614E+01-3.91502E-02-5.81640E-02-2.96008E-02 2.84928E-15 3.15924E-13
 -1      1175 2.06321E+01-3.61686E-02-5.43449E-02-1.72794E-02 7.14741E-14 3.78220E-13
 -1      1176 2.00822E+01-3.22274E-02-4.73194E-02 1.94712E-03-1.02644E-14 1.90670E-13
 -1      1177 1.99578E+01-2.97440E-02 6.21236E-03 3.27036E-02-9.66105E-15 1.13945E-14
 -1      1178 2.77921E+01 5.25675E-01 3.76880E-01 1.96659E+00-2.18575E-14 1.52434E-12
 -1      1179 2.00847E+01-6.66338E-02-5.73626E-01 1.29512E-01-1.40860E-15 1.39566E-12
 -1      1180 1.89063E+01-4.19546E-02-1.93195E-01 1.93190E-02 1.67488E-15 1.22082E-12
 -1      1181 1.85272E+01-2.26483E-02-5.04358E-02 1.17350E-03 2.58907E-15 1.10120E-12
 -1      1182 1.84562E+01-1.37057E-02-1.37176E-02-4.38441E-03 3.14701E-15 9.81628E-13
 -1      1183 1.85314E+01-7.89269E-03-4.90071E-03-5.63218E-03 6.57948E-15 8.50656E-13
 -1      1184 1.86752E+01-4.42811E-03-1.98742E-03-5.74897E-03-4.95507E-15 8.37497E-13
 -1      1185 1.88460E+01-2.26373E-03-2.98363E-04-5.41817E-03-1.41541E-14 9.21414E-13
 -1      1186 1.90207E+01-9.07634E-04 8.42035E-04-4.89025E-03-7.28493E-15 9.15408E-13
 -1      1187 1.91864E+01-8.21891E-05 1.53759E-03-4.26838E-03 1.95040E-14 7.66656E-13
 -1      1188 1.93362E+01 3.82797E-04 1.86840E-03-3.61393E-03 8.32565E-15 5.87068E-13
 -1      1189 1.94673E+01 5.97780E-04 1.92513E-03-2.96631E-03 7.81830E-15 4.53790E-13
 -1      1190 1.95797E+01 6.36720E-04 1.78592E-03-2.35011E-03-1.17092E-15 4.85343E-13
 -1      1191 1.96747E+01 5.49703E-04 1.50829E-03-1.77971E-03-7.93475E-15 4.85675E-13
 -1      1192 1.97552E+01 3.70869E-04 1.13108E-03-1.26326E-03 2.09527E-14 3.10527E-13
 -1      1193 1.98244E+01 1.24258E-04 6.79420E-04-8.06151E-04 3.10032E-15 1.70782E-13
 -1      1194 1.98864E+01-1.71018E-04 1.70459E-04-4.14517E-04-1.09915E-14 3.59488E-13
 -1      1195 1.99452E+01-4.95443E-04-3.79874E-04-9.87839E-05-1.19600E-14 3.81144E-13
 -1      1196 2.00053E+01-8.23035E-04-9.48662E-04 1.22820E-04 2.69004E-14 2.16584E-13
 -1      1197 2.00711E+01-1.11427E-03-1.49562E-03 2.21026E-04-2.34082E-15 8.68573E-14
 -1      1198 2.01464E+01-1.30813E-03-1.95018E-03 1.53326E-04-3.02867E-14 1.82204E-13
 -1      1199 2.02345E+01-1.31420E-03-2.19657E-03-1.35714E-04 1.53833E-14 1.70903E-13
 -1      1200 2.03366E+01-1.00737E-03-2.05924E-03-7.09037E-04-3.27333E-14 1.43110E-13
 -1      1201 2.04513E+01-2.29852E-04-1.29468E-03-1.62265E-03-1.96808E-14 6.44801E-14
 -1      1202 2.05725E+01 1.19129E-03 3.98887E-04-2.89705E-03-5.46122E-15 1.31642E-13
 -1      1203 2.06876E+01 3.39995E-03 3.33463E-03-4.46998E-03-1.66137E-14 1.79609E-13
 -1      1204 2.07754E+01 6.42860E-03 7.72805E-03-6.13045E-03 2.65601E-14 1.32204E-13
 -1      1205 2.08053E+01 1.00749E-02 1.35048E-02-7.44710E-03-6.01142E-14 1.47280E-13
 -1      1206 2.07378E+01 1.37597E-02 2.00345E-02-7.72847E-03-3.67048E-14 2.43646E-13
 -1      1207 2.05293E+01 1.64381E-02 2.58752E-02-6.08537E-03 1.65985E-14 1.66386E-13
 -1      1208 2.01424E+01 1.66921E-02 2.87269E-02-1.68407E-03 6.40679E-14-4.30107E-14
 -1      1209 1.95615E+01 1.31490E-02 2.58872E-02 5.76923E-03-3.82478E-14 9.94170E-14
 -1      1210 1.88123E+01 5.23992E-03 1.53932E-02 1.54364E-02-7.32274E-14 4.09037E-13
 -1      1211 1.79745E+01-6.00186E-03-2.40560E-03 2.50184E-02 2.49657E-14 6.06907E-13
 -1      1212 1.71797E+01-1.76976E-02-2.37578E-02 3.11817E-02-2.07074E-14 5.07882E-13
 -1      1213 1.65836E+01-2.60269E-02-4.21423E-02 3.09080E-02-2.86984E-14 2.15192E-13
 -1      1214 1.63182E+01-2.80325E-02-5.09723E-02 2.32073E-02 2.96456E-14-1.84800E-14
 -1      1215 1.64425E+01-2.32311E-02-4.70323E-02 9.98052E-03-1.43175E-14-1.12193E-13
 -1      1216 1.69186E+01-1.37960E-02-3.22331E-02-4.71559E-03 5.63787E-14-2.96603E-14
 -1      1217 1.76262E+01-3.24177E-03-1.24074E-02-1.66200E-02-2.73898E-14 1.12649E-13
 -1      1218 1.84085E+01 5.36338E-03 5.88179E-03-2.31149E-02 2.26037E-14 1.78121E-14
 -1      1219 1.91225E+01 1.04520E-02 1.82219E-02-2.38733E-02-9.85074E-15 3.24768E-13
 -1      1220 1.96742E+01 1.19499E-02 2.33356E-02-2.02859E-02 5.07303E-14 2.14400E-13
 -1      1221 2.00269E+01 1.06725E-02 2.23250E-02-1.43822E-02 1.14732E-14-3.50929E-13
 -1      1222 2.01925E+01 7.66994E-03 1.72686E-02-7.97282E-03-8.25837E-15-6.98090E-13
 -1      1223 2.02138E+01 3.85146E-03 1.01110E-02-2.30929E-03 5.61364E-14-9.99424E-13
 -1      1224 2.01483E+01-6.34015E-05 2.32010E-03 1.82521E-03 3.08182E-14-1.09041E-12
 -1      1225 2.00570E+01-3.09958E-03-4.30548E-03 3.56869E-03 1.10689E-15-8.21110E-13
 -1      1226 1.99955E+01-3.03841E-03-5.26586E-03 1.64540E-03 7.74179E-14-6.46166E-13
 -1      1227 1.99929E+01 2.67156E-03 6.16501E-03-2.42820E-03-3.13803E-14-5.07225E-13
 -1      1228 2.00020E+01-7.49139E-03 5.67177E-03-2.62516E-03-5.50379E-13-6.14672E-15
 -1      1229 1.99948E+01-6.89026E-03-6.81274E-03-3.30813E-03-5.48575E-13-1.45618E-14
 -1      1230 1.99918E+01 5.72661E-02-1.13366E-02 1.37584E-04 1.01106E-13-7.65125E-14
 -1      1231 1.99903E+01 1.99338E-01-1.32558E-02 2.93302E-03 3.32243E-15 2.86998E-14
 -1      1232 1.99899E+01 4.29524E-01-1.39785E-02 6.39825E-03 1.95941E-13-1.57695E-13
 -1      1233 1.99913E+01 7.50395E-01-1.21833E-02 1.03477E-02-4.84470E-13-1.13068E-13
 -1      1234 1.99957E+01 1.15172E+00-6.46661E-03 1.38263E-02-9.96028E-13 7.59150E-14
 -1      1235 2.00030E+01 1.59905E+00 3.59104E-03 1.56628E-02-6.90191E-13-5.30021E-14
 -1      1236 2.00123E+01 2.02164E+00 1.67018E-02 1.43784E-02-5.27998E-14 2.22593E-14
 -1      1237 2.00215E+01 2.33145E+00 2.99614E-02 9.01995E-03 5.23529E-13 2.90677E-14
 -1      1238 2.00275E+01 2.43950E+00 3.91239E-02-3.39383E-04 2.69772E-13-1.02795E-13
 -1      1239 2.00284E+01 2.28662E+00 4.00513E-02-1.22514E-02 2.73198E-13 7.07316E-14
 -1      1240 2.00210E+01 1.86707E+00 2.91343E-02-2.30930E-02 4.18610E-13-3.31074E-14
 -1      1241 2.00062E+01 1.24480E+00 5.66468E-03-2.94362E-02 4.72587E-13 9.25515E-14
 -1      1242 1.99873E+01 5.77198E-01-2.40395E-02-2.38833E-02 9.71938E-13 7.36819E-14
 -1      1243 1.99834E+01 8.18140E-02-3.52901E-02 7.71012E-03 1.29135E-12-7.19349E-14
 -1      1244 1.99794E+01-4.18492E-02 1.16151E-02 3.08423E-02 3.21371E-13 3.13086E-14
 -1      1245-1.24307E+00-2.52472E+01-3.82485E+00-2.23059E+00 6.57696E-13 7.15678E-14
 -1      1246-1.63234E+00-1.41880E+01-2.90703E+00-3.48671E+00 7.84039E-13 2.51299E-13
 -1      1247 1.20565E+00-4.77139E-01-1.60992E+00 1.22527E+00 9.82991E-13 6.60694E-13
 -1      1248 1.07758E+01 9.30310E+00 4.56812E-02 9.76174E+00 4.07452E-13 3.24851E-13
 -1      1249 2.83165E+01 1.19079E+01 1.63517E+00 1.73369E+01-8.83738E-14-1.82077E-14
 -1      1250 4.88823E+01 8.41708E+00 3.03562E+00 1.86506E+01 1.15463E-13 1.96287E-13
 -1      1251 6.46456E+01 3.33023E+00 3.95800E+00 1.08619E+01 1.00475E-14-5.23692E-13
 -1      1252 6.86206E+01 2.10964E+00 4.15540E+00-2.75782E+00 1.00288E-13-1.32394E-12
 -1      1253 5.97035E+01 5.28943E+00 3.73945E+00-1.46695E+01 5.57249E-13-1.77380E-12
 -1      1254 4.17564E+01 1.02095E+01 2.59024E+00-1.93426E+01 9.16045E-13-1.81699E-12
 -1      1255 2.22395E+01 1.19821E+01 1.11219E+00-1.57488E+01 9.62785E-13-1.46905E-12
 -1      1256 7.36167E+00 6.95342E+00-4.64663E-01-7.17783E+00 2.18048E-13-2.90212E-13
 -1      1257-1.79899E-01-4.76464E+00-1.98474E+00 9.73036E-01-1.40998E-13-3.09752E-14
 -1      1258-1.55432E+00-1.80588E+01-3.20702E+00 3.91208E+00-7.14540E-13 1.79079E-13
 -1      1259-1.00330E+00-2.61582E+01-3.81841E+00 1.13331E+00-9.73832E-13 8.57057E-14
 -1      1260-1.44428E+00-2.62730E+01-3.97626E+00-3.72064E+00-3.08253E-13 1.15047E-14
 -1      1261-2.68352E+00-1.74207E+01-3.51635E+00-5.56849E+00 8.63754E-14 4.85167E-14
 -1      1262-7.08291E-01-4.72364E+00-2.56224E+00-1.61991E+00 1.04805E-13 8.97060E-14
 -1      1263 9.70173E+00 6.25878E+00-8.77233E-01 7.84025E+00 4.57412E-13 5.84421E-13
 -1      1264 3.04111E+01 1.03626E+01 1.48291E+00 1.69090E+01 4.54081E-13 7.02105E-13
 -1      1265 5.57637E+01 7.69961E+00 3.87795E+00 1.79032E+01 1.99174E-13 4.93161E-13
 -1      1266 7.59992E+01 2.87239E+00 5.73317E+00 8.86615E+00 7.46625E-14 3.76477E-13
 -1      1267 7.73459E+01 2.65357E+00 5.79806E+00-6.19299E+00-1.24206E-14-4.91829E-14
 -1      1268 6.25126E+01 6.41012E+00 4.52303E+00-1.71146E+01-8.32667E-14 1.41220E-13
 -1      1269 3.89842E+01 1.01822E+01 2.28910E+00-1.87116E+01 1.80300E-13-3.13083E-14
 -1      1270 1.74830E+01 9.44031E+00 1.25970E-01-1.25225E+01 6.21947E-13-5.67990E-13
 -1      1271 3.70526E+00 2.41762E+00-1.65702E+00-3.39723E+00 4.46310E-14-2.14939E-13
 -1      1272-2.08015E+00-9.14824E+00-2.94234E+00 3.73149E+00-2.74003E-13 2.93765E-13
 -1      1273-2.37258E+00-2.08406E+01-3.73659E+00 5.58869E+00 1.21458E-13-4.66849E-14
 -1      1274-1.30130E+00-2.72956E+01-4.05595E+00 2.45280E+00 1.11988E-12-2.23745E-13
 -1      1275 2.22663E+01 1.83816E+00-7.25848E-01-2.79067E+00-4.14391E-14 2.33868E-13
 -1      1276 2.03590E+01 4.69015E+00-4.86409E-02-3.30715E+00-7.39686E-14-2.37185E-13
 -1      1277 2.08664E+01 4.81060E+00-1.13354E-01-4.16134E+00-1.08802E-13-1.37591E-13
 -1      1278 1.95317E+01 4.99337E+00-1.95969E-02-2.65488E+00-5.76622E-14-3.59622E-13
 -1      1279 1.98295E+01 5.09022E+00 2.72920E-04-3.04587E+00-7.31151E-14-3.12715E-13
 -1      1280 2.05256E+01 3.95281E+00-2.58823E-02-3.07516E+00-1.28099E-13-2.02754E-13
 -1      1281 1.91841E+01 5.08417E+00-3.64949E-03-2.07061E+00-2.70617E-14-4.09461E-13
 -1      1282 1.93334E+01 5.13940E+00 1.05974E-02-2.36376E+00-3.74076E-14-3.90299E-13
 -1      1283 1.97542E+01 4.36604E+00-2.42516E-02-2.48986E+00-8.05276E-14-3.10731E-13
 -1      1284 1.90091E+01 5.13092E+00 3.26502E-03-1.56506E+00-4.41574E-15-4.16831E-13
 -1      1285 1.90865E+01 5.16080E+00 1.25575E-02-1.81501E+00-1.03303E-14-4.16972E-13
 -1      1286 1.93926E+01 4.55564E+00-1.95791E-02-1.93146E+00-3.29502E-14-3.49904E-13
 -1      1287 1.89160E+01 5.16068E+00 6.59837E-03-1.11728E+00 1.39342E-14-3.99255E-13
 -1      1288 1.89582E+01 5.17695E+00 1.27176E-02-1.33879E+00 5.02983E-15-4.07150E-13
 -1      1289 1.92060E+01 4.66141E+00-1.60696E-02-1.44518E+00-4.61436E-15-3.48332E-13
 -1      1290 1.88646E+01 5.18053E+00 8.20775E-03-6.93933E-01 2.56427E-14-3.68518E-13
 -1      1291 1.88875E+01 5.18937E+00 1.20316E-02-9.04181E-01 2.12512E-14-3.88392E-13
 -1      1292 1.91034E+01 4.72679E+00-1.39571E-02-1.00442E+00 2.77270E-14-3.38275E-13
 -1      1293 1.88408E+01 5.19247E+00 9.29403E-03-2.89199E-01 4.94070E-14-3.41364E-13
 -1      1294 1.88506E+01 5.19629E+00 1.10755E-02-4.91338E-01 4.11199E-14-3.53349E-13
 -1      1295 1.90477E+01 4.76580E+00-1.29086E-02-5.88860E-01 5.25185E-14-2.99594E-13
 -1      1296 1.88371E+01 5.19742E+00 1.02243E-02 1.08245E-01 6.25603E-14-3.05768E-13
 -1      1297 1.88367E+01 5.19728E+00 1.01527E-02-9.14439E-02 5.70811E-14-3.24121E-13
 -1      1298 1.90236E+01 4.78383E+00-1.24719E-02-1.89113E-01 8.77687E-14-2.71276E-13
 -1      1299 1.88523E+01 5.19593E+00 1.11641E-02 5.08725E-01 7.57150E-14-2.71262E-13
 -1      1300 1.88417E+01 5.19183E+00 9.22806E-03 3.06167E-01 7.21506E-14-2.92776E-13
 -1      1301 1.90244E+01 4.78319E+00-1.24913E-02 2.05817E-01 1.09781E-13-2.41803E-13
 -1      1302 1.88908E+01 5.18821E+00 1.21010E-02 9.23051E-01 8.75819E-14-2.26357E-13
 -1      1303 1.88671E+01 5.17920E+00 8.13821E-03 7.11849E-01 8.42095E-14-2.53398E-13
 -1      1304 1.90503E+01 4.76373E+00-1.29766E-02 6.06260E-01 1.34770E-13-2.10835E-13
 -1      1305 1.89624E+01 5.17519E+00 1.28955E-02 1.35634E+00 9.94066E-14-1.63940E-13
 -1      1306 1.89193E+01 5.15848E+00 6.45914E-03 1.13342E+00 9.42631E-14-1.99469E-13
 -1      1307 1.91076E+01 4.72326E+00-1.39996E-02 1.01965E+00 1.46298E-13-1.67564E-13
 -1      1308 1.90949E+01 5.15682E+00 1.28938E-02 1.84095E+00 1.19333E-13-7.84338E-14
 -1      1309 1.90155E+01 5.12645E+00 3.15664E-03 1.58818E+00 1.11910E-13-1.25669E-13
 -1      1310 1.92127E+01 4.65493E+00-1.61505E-02 1.46285E+00 1.71055E-13-1.02526E-13
 -1      1311 1.93443E+01 5.13326E+00 1.04327E-02 2.39791E+00 1.29886E-13 4.46310E-14
 -1      1312 1.91938E+01 5.07641E+00-4.17869E-03 2.10060E+00 1.19217E-13-3.06560E-14
 -1      1313 1.94052E+01 4.54254E+00-1.99159E-02 1.95824E+00 1.91539E-13-1.60011E-14
 -1      1314 1.98542E+01 5.09940E+00 6.01069E-03 3.08449E+00 1.29410E-13 2.53443E-13
 -1      1315 1.95434E+01 4.98455E+00-2.02527E-02 2.69731E+00 1.19516E-13 1.32772E-13
 -1      1316 1.97738E+01 4.34574E+00-2.47809E-02 2.52854E+00 1.97956E-13 1.17170E-13
 -1      1317 2.11022E+01 4.90655E+00 7.96589E-03 4.05394E+00 8.79852E-14 5.88390E-13
 -1      1318 2.03331E+01 4.73390E+00-4.81055E-02 3.41629E+00 9.47714E-14 3.87537E-13
 -1      1319 2.05623E+01 3.91591E+00-2.28713E-02 3.17905E+00 1.77004E-13 3.38646E-13
 -1      1320 2.72021E+01 3.20531E+00 9.28882E-01 4.58231E+00 2.12191E-14 1.12349E-12
 -1      1321 2.20192E+01 3.52214E+00-1.82151E-01 3.88508E+00 3.11140E-14 7.68191E-13
 -1      1322 2.21124E+01 2.56167E+00-3.25267E-02 3.45701E+00 1.27134E-13 6.43013E-13
 -1      1323 2.14260E+01 3.59604E-01-7.63671E-01 1.18385E+00 5.10633E-14 1.12699E-12
 -1      1324 2.20003E+01 1.31366E-01-4.00861E-01-1.28584E+00-8.97199E-14 2.84273E-13
 -1      1325 2.06775E+01 3.06712E-01-1.64821E-01-8.05880E-01-7.86662E-14 1.76061E-13
 -1      1326 2.00797E+01 1.53478E-01-7.35512E-02-4.02248E-01-6.86326E-14 1.32110E-13
 -1      1327 1.96097E+01 9.11961E-02-1.49513E-02-3.30093E-01-6.90489E-14 3.63598E-14
 -1      1328 2.09714E+01 3.69201E-01-1.04235E-01-1.27416E+00-1.44745E-13 2.14551E-14
 -1      1329 1.92522E+01 6.45208E-02 3.00737E-03-1.35442E-01-5.88253E-14 9.56180E-15
 -1      1330 1.90978E+01 4.12737E-02 1.31906E-02-1.17632E-01-5.29195E-14-6.54268E-14
 -1      1331 1.99205E+01 1.33862E-01-3.51961E-02-5.04194E-01-1.13739E-13-3.58550E-14
 -1      1332 1.89374E+01 3.15187E-02 1.32233E-02-2.81138E-02-4.61727E-14-1.02657E-13
 -1      1333 1.89178E+01 1.93724E-02 1.10478E-02-1.87452E-02-4.75904E-14-1.85029E-13
 -1      1334 1.94431E+01 5.54803E-02-8.53001E-03-1.70180E-01-1.00352E-13-7.96706E-14
 -1      1335 1.88616E+01 1.60044E-02 8.77189E-03 2.48790E-02-2.68386E-14-1.97131E-13
 -1      1336 1.89038E+01 9.07544E-03 6.43600E-03 2.95067E-02-2.29985E-14-2.24449E-13
 -1      1337 1.92340E+01 2.43745E-02-3.51647E-03-1.13992E-02-7.19928E-14-1.41906E-13
 -1      1338 1.89037E+01 7.85600E-03 4.67596E-03 5.06713E-02-2.46136E-14-2.48905E-13
 -1      1339 1.89739E+01 3.51023E-03 3.64585E-03 5.25625E-02-2.26302E-14-2.72620E-13
 -1      1340 1.91770E+01 1.01907E-02-2.22030E-03 6.72679E-02-4.97677E-14-1.75956E-13
 -1      1341 1.90033E+01 3.19601E-03 2.44976E-03 6.13780E-02-1.92224E-14-2.85493E-13
 -1      1342 1.90836E+01 3.48470E-04 2.21779E-03 6.16503E-02-3.52103E-14-3.31632E-13
 -1      1343 1.92030E+01 2.78250E-03-1.32704E-03 1.04126E-01-3.94969E-14-1.68132E-13
 -1      1344 1.91272E+01 4.63373E-04 1.34236E-03 6.33823E-02-4.21751E-14-3.42571E-13
 -1      1345 1.92079E+01-1.43984E-03 1.44204E-03 6.27137E-02-2.20682E-14-3.93514E-13
 -1      1346 1.92719E+01-1.28425E-03-5.68641E-04 1.17477E-01-6.20725E-14-2.11886E-13
 -1      1347 1.92565E+01-1.06084E-03 7.75543E-04 6.04010E-02-1.24574E-14-4.19921E-13
 -1      1348 1.93323E+01-2.37446E-03 1.00889E-03 5.92547E-02-4.65558E-14-4.47847E-13
 -1      1349 1.93603E+01-3.49715E-03-2.14147E-05 1.17318E-01-4.75438E-14-2.49311E-13
 -1      1350 1.93833E+01-1.81371E-03 4.83079E-04 5.45672E-02-5.46954E-14-4.48981E-13
 -1      1351 1.94540E+01-2.76441E-03 6.71358E-04 5.31138E-02-3.26393E-14-4.98560E-13
 -1      1352 1.94561E+01-4.47208E-03 2.76482E-04 1.09424E-01-8.31884E-14-2.77771E-13
 -1      1353 1.94990E+01-2.23423E-03 2.24918E-04 4.77917E-02-1.58263E-14-4.90130E-13
 -1      1354 1.95575E+01-2.68737E-03 4.67692E-04 4.63816E-02 4.39674E-15-4.68422E-13
 -1      1355 1.95491E+01-4.75476E-03 5.13323E-04 9.76368E-02-3.04592E-14-2.91307E-13
 -1      1356 1.95981E+01-2.22379E-03 1.13876E-04 4.10419E-02-4.16480E-15-4.68743E-13
 -1      1357 1.96480E+01-2.43081E-03 3.36879E-04 3.97391E-02-3.06179E-14-5.08164E-13
 -1      1358 1.96324E+01-4.50731E-03 5.61185E-04 8.50227E-02 9.23160E-15-3.53074E-13
 -1      1359 1.96840E+01-1.98146E-03 5.55643E-05 3.49151E-02-2.70922E-14-5.06874E-13
 -1      1360 1.97261E+01-2.01010E-03 2.55813E-04 3.38075E-02 9.29126E-15-4.89725E-13
 -1      1361 1.97069E+01-3.96463E-03 5.28434E-04 7.29461E-02-3.88153E-14-3.24406E-13
 -1      1362 1.97578E+01-1.57864E-03 3.45425E-05 2.98779E-02 4.16554E-14-4.77612E-13
 -1      1363 1.97937E+01-1.46853E-03 2.16582E-04 2.90297E-02-2.17888E-14-4.77490E-13
 -1      1364 1.97730E+01-3.20271E-03 4.37017E-04 6.25266E-02 2.96260E-14-3.01056E-13
 -1      1365 1.98223E+01-1.04700E-03 4.10702E-05 2.62888E-02-3.20926E-14-4.14609E-13
 -1      1366 1.98538E+01-8.21198E-04 2.13435E-04 2.57523E-02 3.23710E-15-4.39460E-13
 -1      1367 1.98318E+01-2.27154E-03 3.00703E-04 5.45855E-02 1.66236E-14-2.38775E-13
 -1      1368 1.98806E+01-3.91117E-04 6.88252E-05 2.44707E-02-5.98074E-15-4.06390E-13
 -1      1369 1.99099E+01-5.80734E-05 2.43888E-04 2.43006E-02-5.04919E-15-4.02185E-13
 -1      1370 1.98860E+01-1.17811E-03 1.25299E-04 4.98097E-02-1.61492E-14-1.32765E-13
 -1      1371 1.99368E+01 4.10383E-04 1.13805E-04 2.47825E-02 3.03493E-14-3.73349E-13
 -1      1372 1.99667E+01 8.56340E-04 3.08338E-04 2.50486E-02 2.69393E-14-3.59542E-13
 -1      1373 1.99386E+01 1.11436E-04-9.05086E-05 4.88938E-02 2.88366E-14-1.18042E-13
 -1      1374 1.99961E+01 1.40754E-03 1.73245E-04 2.76935E-02-6.79399E-15-3.34037E-13
 -1      1375 2.00298E+01 1.98708E-03 4.09745E-04 2.84950E-02-4.89119E-15-3.21372E-13
 -1      1376 1.99938E+01 1.67572E-03-3.55189E-04 5.26828E-02 4.01948E-14-1.54104E-13
 -1      1377 2.00647E+01 2.68626E-03 2.44618E-04 3.38722E-02 3.04503E-14-2.80543E-13
 -1      1378 2.01063E+01 3.42827E-03 5.48446E-04 3.53589E-02 3.58560E-14-2.55215E-13
 -1      1379 2.00567E+01 3.64851E-03-6.85826E-04 6.23325E-02 3.06510E-14-1.28966E-13
 -1      1380 2.01503E+01 4.44394E-03 3.45080E-04 4.43036E-02 5.12906E-14-2.54040E-13
 -1      1381 2.02054E+01 5.30668E-03 7.52043E-04 4.66782E-02 3.43567E-15-2.56072E-13
 -1      1382 2.01338E+01 6.21017E-03-1.11816E-03 7.94984E-02 6.22004E-14-2.36775E-13
 -1      1383 2.02668E+01 6.75691E-03 4.03040E-04 6.10939E-02-6.20386E-14-2.33490E-13
 -1      1384 2.03471E+01 8.09967E-03 9.74085E-04 6.50926E-02-7.16059E-14-3.04002E-13
 -1      1385 2.02365E+01 9.89143E-03-1.68277E-03 1.07437E-01-2.33899E-14-2.33064E-13
 -1      1386 2.04274E+01 1.01326E-02 4.57015E-04 8.58613E-02-7.75729E-14-2.97866E-13
 -1      1387 2.05360E+01 1.18416E-02 1.28072E-03 9.12949E-02-3.44347E-14-3.41505E-13
 -1      1388 2.03748E+01 1.49479E-02-2.45182E-03 1.49837E-01-1.11408E-13-1.00743E-13
 -1      1389 2.06462E+01 1.46990E-02 3.82184E-04 1.21384E-01 5.68376E-14-4.14834E-13
 -1      1390 2.08011E+01 1.70273E-02 1.54162E-03 1.29350E-01 4.62315E-14-3.24438E-13
 -1      1391 2.05594E+01 2.21980E-02-3.43525E-03 2.10458E-01 1.12276E-14-1.66849E-13
 -1      1392 2.09534E+01 2.12266E-02 9.29736E-05 1.72552E-01 3.80945E-14-2.63530E-13
 -1      1393 2.11754E+01 2.42334E-02 1.64735E-03 1.84098E-01 3.90144E-14-2.26938E-13
 -1      1394 2.08133E+01 3.24804E-02-4.82254E-03 2.97687E-01 8.53050E-14-2.90449E-13
 -1      1395 2.13858E+01 3.03518E-02-6.88449E-04 2.45442E-01 2.46574E-14-2.41460E-13
 -1      1396 2.17038E+01 3.39935E-02 1.29796E-03 2.62048E-01 8.13715E-15-2.30319E-13
 -1      1397 2.11631E+01 4.70619E-02-6.75131E-03 4.21878E-01-7.75421E-16-8.94588E-14
 -1      1398 2.19927E+01 4.26671E-02-2.43044E-03 3.47627E-01 1.89085E-16-1.87958E-13
 -1      1399 2.24457E+01 4.64219E-02-3.99298E-05 3.71157E-01 1.75788E-14-1.68717E-13
 -1      1400 2.16433E+01 6.70806E-02-9.42520E-03 5.96150E-01 1.78746E-14-6.77137E-14
 -1      1401 2.28377E+01 5.80055E-02-5.80417E-03 4.86656E-01 7.18019E-14-1.04288E-13
 -1      1402 2.34738E+01 6.01258E-02-3.02303E-03 5.18942E-01 3.09648E-15-1.49360E-14
 -1      1403 2.22966E+01 9.25539E-02-1.30298E-02 8.34539E-01 9.42545E-14 1.00514E-13
 -1      1404 2.39936E+01 7.36677E-02-1.12641E-02 6.64957E-01-1.95772E-14-1.58484E-14
 -1      1405 2.48607E+01 6.96596E-02-7.63125E-03 7.06281E-01-1.92303E-14-4.16750E-14
 -1      1406 2.31707E+01 1.19477E-01-1.74287E-02 1.14513E+00-2.75387E-15 3.93539E-14
 -1      1407 2.55249E+01 8.04670E-02-1.74089E-02 8.66652E-01-9.65244E-14-6.59472E-14
 -1      1408 2.66404E+01 6.06099E-02-1.09210E-02 9.11556E-01-6.98833E-14-1.83235E-13
 -1      1409 2.43079E+01 1.33050E-01-2.12587E-02 1.51172E+00-7.28055E-14-6.86950E-15
 -1      1410 2.74382E+01 5.52308E-02-1.73467E-02 1.02958E+00-3.80120E-14-1.77976E-13
 -1      1411 2.87172E+01 3.02832E-03-3.11582E-03 1.05732E+00-5.52328E-14-2.68757E-13
 -1      1412 2.57211E+01 9.52587E-02-2.01306E-02 1.85392E+00-9.65521E-14-1.05981E-13
 -1      1413 2.95799E+01-4.30035E-02 6.11412E-03 1.00137E+00-8.48679E-14-2.73129E-13
 -1      1414 3.07098E+01-1.41483E-01 3.05728E-02 9.65252E-01-1.81178E-13-4.95430E-13
 -1      1415 2.73523E+01-6.70789E-02-4.50629E-03 1.96106E+00-1.55089E-13-1.45096E-13
 -1      1416 3.15134E+01-2.70879E-01 6.84435E-02 4.96885E-01-1.70624E-13-5.04749E-13
 -1      1417 3.18227E+01-3.93916E-01 8.51203E-02 2.88483E-01-6.05974E-14-6.71851E-13
 -1      1418 2.90432E+01-4.38279E-01 3.73241E-02 1.40909E+00-2.52721E-13-2.65999E-13
 -1      1419 3.21605E+01-5.49725E-01 1.28087E-01-6.96379E-01 7.09606E-14-6.72046E-13
 -1      1420 3.07819E+01-5.46160E-01 7.10257E-02-1.05545E+00 1.05128E-13-4.35374E-13
 -1      1421 3.03168E+01-9.30182E-01 8.31019E-02-2.79263E-01-1.46688E-14-1.29233E-13
 -1      1422 3.03992E+01-4.82511E-01 7.15341E-02-2.14475E+00 1.30300E-13-5.07733E-13
 -1      1423 2.73987E+01-2.08618E-01-1.21352E-01-2.38431E+00 1.51407E-14-3.28626E-13
 -1      1424 3.05135E+01-1.02242E+00 4.64587E-02-2.80640E+00 1.26427E-13-2.52361E-13
 -1      1425 2.66070E+01 1.46700E-01-1.88951E-01-2.46020E+00 1.68685E-13-2.57794E-13
 -1      1426 2.40685E+01 5.07403E-01-3.75197E-01-2.26618E+00 2.24015E-13-8.34055E-14
 -1      1427 2.94074E+01-2.18480E-02-1.17853E-01-4.29142E+00 2.24459E-13-2.27523E-13
 -1      1428 2.32579E+01 9.03003E-01-4.70071E-01-8.58384E-01 2.35978E-13 2.99483E-14
 -1      1429 2.26693E+01 1.02392E+00-5.13961E-01-1.98049E-01 1.25427E-13 3.22214E-13
 -1      1430 2.79054E+01 1.37316E+00-3.13390E-01-2.80097E+00 3.74922E-13 1.12858E-13
 -1      1431 2.29984E+01 8.20935E-01-4.76086E-01 1.63277E+00-2.13718E-14 3.41088E-13
 -1      1432 2.52271E+01 4.47209E-01-3.05894E-01 2.04531E+00-1.17406E-14 4.06453E-13
 -1      1433 2.74665E+01 1.77208E+00-3.65689E-01 1.26134E+00 1.45550E-13 3.71083E-13
 -1      1434 2.62651E+01-1.18663E-02-1.84510E-01 2.50225E+00-1.14707E-13 3.11196E-13
 -1      1435 2.94358E+01-4.09731E-01 1.47291E-02 2.33330E+00-1.44558E-13 1.36557E-13
 -1      1436 2.87874E+01 4.35373E-01-1.81247E-01 4.04526E+00-5.42344E-14 5.68382E-14
 -1      1437 3.00476E+01-5.06152E-01 6.59073E-02 1.35177E+00-6.73038E-14 2.47247E-13
 -1      1438 3.18323E+01-5.94692E-01 1.32317E-01 9.45165E-01-4.27436E-14 1.49269E-13
 -1      1439 3.02113E+01-8.66575E-01 3.23101E-02 3.20521E+00-8.74370E-14-3.02258E-14
 -1      1440 3.15591E+01-4.35576E-01 9.37929E-02-1.09707E-01-1.39569E-13 2.03892E-13
 -1      1441 3.15083E+01-3.29891E-01 8.27766E-02-3.40276E-01-1.98709E-13 1.17966E-13
 -1      1442 3.02563E+01-9.82330E-01 9.43068E-02 6.52593E-01-1.22964E-13 2.19526E-13
 -1      1443 3.07791E+01-1.95034E-01 4.16204E-02-9.03469E-01-8.05328E-14 3.61551E-14
 -1      1444 2.97290E+01-8.70980E-02 1.53843E-02-9.71562E-01-3.85594E-14 1.34476E-14
 -1      1445 2.91121E+01-5.45226E-01 4.67624E-02-1.22137E+00-1.53530E-13 1.93056E-13
 -1      1446 2.88364E+01-2.54473E-02 1.77998E-03-1.10352E+00 5.65273E-14-1.18003E-13
 -1      1447 2.75056E+01 3.70451E-02-1.45136E-02-1.08797E+00 2.95326E-14-1.05485E-13
 -1      1448 2.74420E+01-1.36767E-01 2.64046E-03-1.97833E+00-3.20299E-14-7.84164E-14
 -1      1449 2.66417E+01 4.88392E-02-1.00844E-02-1.00359E+00 3.23960E-15 7.59046E-14
 -1      1450 2.54145E+01 7.57367E-02-1.76626E-02-9.62163E-01 6.79491E-15 6.59750E-14
 -1      1451 2.57085E+01 6.53569E-02-1.74273E-02-1.99593E+00 1.07184E-13-4.38503E-14
 -1      1452 2.46688E+01 6.68175E-02-7.89515E-03-8.10816E-01-4.45824E-16 1.68920E-13
 -1      1453 2.36727E+01 7.54096E-02-1.18893E-02-7.69350E-01 3.32919E-14 3.16459E-13
 -1      1454 2.41489E+01 1.25375E-01-2.09089E-02-1.70100E+00 8.27723E-15 7.53321E-14
 -1      1455 2.30702E+01 6.21797E-02-3.05548E-03-6.19253E-01 8.58688E-16 2.28317E-13
 -1      1456 2.23107E+01 6.40478E-02-6.23518E-03-5.84969E-01-2.04507E-14 1.35576E-13
 -1      1457 2.28525E+01 1.22699E-01-1.81141E-02-1.33934E+00-1.04119E-13 1.69831E-13
 -1      1458 2.18460E+01 5.35796E-02-2.46703E-04-4.54500E-01-1.04542E-13 1.24067E-13
 -1      1459 2.12936E+01 5.46423E-02-3.55084E-03-4.26299E-01-1.02613E-13 2.49332E-14
 -1      1460 2.18281E+01 1.04518E-01-1.47235E-02-1.00672E+00-6.68181E-14-5.42374E-14
 -1      1461 2.09534E+01 4.94389E-02-7.84092E-04-3.10276E-01 7.07932E-14-1.78036E-13
 -1      1462 2.05866E+01 5.20285E-02-3.38539E-03-2.83683E-01 7.04497E-14-6.22852E-14
 -1      1463 2.10536E+01 9.20739E-02-1.31334E-02-7.15888E-01-1.06198E-13-4.49233E-13
 -1      1464 2.03564E+01 5.06168E-02-4.18717E-03-1.70162E-01-1.78505E-13-1.00319E-13
 -1      1465 2.01769E+01 5.97150E-02 3.27897E-03-1.37294E-01-1.93737E-13-2.27555E-13
 -1      1466 2.05029E+01 9.45244E-02-1.26171E-02-4.45693E-01-1.15402E-13-5.54737E-13
 -1      1467 2.00654E+01 5.23352E-02-1.90141E-03-5.10522E-02 1.08811E-14-1.88204E-13
 -1      1468 2.00392E+01 4.11484E-02 2.39761E-02-3.34746E-02 1.12639E-13-1.52418E-13
 -1      1469 2.00341E+01 5.90704E-02-6.92153E-03-5.10212E-02 4.30592E-13-1.52487E-13
 -1      1470 2.01849E+01 1.07296E-01-8.22068E-03-2.14461E-01-1.28865E-13-3.38694E-13
 -1      1471 2.02584E+01 7.58239E-02-1.51762E-01 4.83766E-01 5.38666E-14 9.83890E-13
 -1      1472 2.15293E+01 2.16077E-01-2.29252E-01 7.21262E-01 4.72261E-14 1.06706E-12
 -1      1473 2.17281E+01 8.82263E-01-8.52720E-02 2.06549E+00 8.90399E-14 7.71799E-13
 -1      1474 1.93281E+01 3.41461E-02-2.07812E-02 1.85494E-01 5.19619E-14 8.61922E-13
 -1      1475 1.97513E+01 1.14129E-01-6.19687E-02 2.39190E-01 4.28789E-14 9.20034E-13
 -1      1476 2.03022E+01 1.86275E-01-5.54984E-02 7.88513E-01 8.94007E-14 6.52343E-13
 -1      1477 1.89471E+01 1.66251E-02 6.07251E-03 5.27879E-02 3.20499E-14 7.56398E-13
 -1      1478 1.90877E+01 5.13664E-02 1.67856E-03 8.01876E-02 3.37213E-14 8.14026E-13
 -1      1479 1.95531E+01 6.68010E-02-1.53443E-02 2.97674E-01 7.87773E-14 5.64330E-13
 -1      1480 1.88367E+01 8.53917E-03 7.17852E-03-8.71731E-03 3.94749E-14 6.99704E-13
 -1      1481 1.88536E+01 2.53570E-02 1.15185E-02 6.28778E-03 3.09908E-14 7.44134E-13
 -1      1482 1.92177E+01 2.10944E-02-6.92904E-03 7.69655E-02 5.91359E-14 5.18762E-13
 -1      1483 1.88626E+01 3.77892E-03 4.81812E-03-3.90535E-02 1.18039E-14 6.21411E-13
 -1      1484 1.88199E+01 1.34697E-02 8.53117E-03-3.08214E-02 2.43581E-14 6.71496E-13
 -1      1485 1.91012E+01 6.96444E-03-4.67126E-03-2.75477E-02 5.38892E-14 5.03774E-13
 -1      1486 1.89566E+01 1.14878E-03 3.27976E-03-5.24717E-02-1.83491E-14 6.21564E-13
 -1      1487 1.88865E+01 7.11533E-03 5.30156E-03-4.80886E-02-4.97052E-15 6.06874E-13
 -1      1488 1.91037E+01 9.27181E-04-3.21685E-03-7.73793E-02 1.19761E-14 4.37894E-13
 -1      1489 1.90808E+01-3.34370E-04 2.45633E-03-5.64571E-02 6.68167E-15 6.07956E-13
 -1      1490 1.90007E+01 3.42244E-03 3.38172E-03-5.44257E-02-6.00111E-15 6.04518E-13
 -1      1491 1.91671E+01-1.99071E-03-2.08503E-03-9.87827E-02-5.81837E-15 3.75443E-13
 -1      1492 1.92135E+01-1.14411E-03 1.96375E-03-5.50534E-02 2.88743E-14 5.77228E-13
 -1      1493 1.91332E+01 1.17714E-03 2.28415E-03-5.44722E-02 1.10356E-14 5.89093E-13
 -1      1494 1.92596E+01-3.43373E-03-1.20897E-03-1.04166E-01 2.17366E-14 3.42516E-13
 -1      1495 1.93425E+01-1.52901E-03 1.60559E-03-5.07154E-02 6.04098E-14 4.61163E-13
 -1      1496 1.92673E+01-1.66205E-04 1.60936E-03-5.10027E-02 5.69728E-14 5.49717E-13
 -1      1497 1.93624E+01-4.03147E-03-5.88707E-04-1.00474E-01 6.95766E-14 3.01606E-13
 -1      1498 1.94612E+01-1.63802E-03 1.31055E-03-4.50124E-02 4.66358E-14 4.10716E-13
 -1      1499 1.93936E+01-9.15150E-04 1.15498E-03-4.57779E-02 3.07597E-14 4.49328E-13
 -1      1500 1.94644E+01-4.10677E-03-1.83648E-04-9.19562E-02 6.07721E-14 2.74516E-13
 -1      1501 1.95666E+01-1.56674E-03 1.05588E-03-3.89728E-02 1.67111E-14 3.23523E-13
 -1      1502 1.95077E+01-1.26005E-03 8.31243E-04-3.99494E-02 3.31139E-14 3.61257E-13
 -1      1503 1.95599E+01-3.85257E-03 5.82465E-05-8.13465E-02 6.07470E-14 2.77793E-13
 -1      1504 1.96582E+01-1.37832E-03 8.33398E-04-3.32760E-02 1.83161E-14 2.92060E-13
 -1      1505 1.96078E+01-1.32551E-03 5.95377E-04-3.42784E-02 2.03806E-14 3.00940E-13
 -1      1506 1.96459E+01-3.39188E-03 1.81331E-04-7.04401E-02 2.16677E-14 1.98427E-13
 -1      1507 1.97372E+01-1.11452E-03 6.38347E-04-2.83715E-02 2.70369E-14 2.74424E-13
 -1      1508 1.96944E+01-1.19482E-03 4.23177E-04-2.92693E-02-2.34158E-15 2.78146E-13
 -1      1509 1.97220E+01-2.80439E-03 2.18325E-04-6.04269E-02 3.62839E-14 1.53839E-13
 -1      1510 1.98058E+01-8.02819E-04 4.66435E-04-2.45573E-02 5.25533E-14 1.64295E-13
 -1      1511 1.97690E+01-9.23685E-04 2.98523E-04-2.52567E-02 6.23391E-14 2.59664E-13
 -1      1512 1.97890E+01-2.14097E-03 1.92030E-04-5.20970E-02 6.12544E-14 1.24325E-13
 -1      1513 1.98668E+01-4.61735E-04 3.13240E-04-2.20311E-02-7.30071E-14 1.70793E-13
 -1      1514 1.98344E+01-5.49568E-04 2.09449E-04-2.24620E-02-9.36702E-15 1.29763E-13
 -1      1515 1.98486E+01-1.43367E-03 1.17978E-04-4.59755E-02 2.15551E-14 1.26739E-13
 -1      1516 1.99237E+01-1.05551E-04 1.74427E-04-2.09203E-02-2.67425E-14 2.23207E-13
 -1      1517 1.98937E+01-9.92299E-05 1.46414E-04-2.10292E-02-4.91881E-14 1.67900E-13
 -1      1518 1.99035E+01-7.04196E-04 6.87031E-06-4.24071E-02-7.84860E-14 5.57958E-14
 -1      1519 1.99800E+01 2.50765E-04 4.64004E-05-2.12917E-02 4.13270E-14 1.87797E-13
 -1      1520 1.99504E+01 4.03745E-04 1.01387E-04-2.10385E-02 8.50939E-15 2.33855E-13
 -1      1521 1.99564E+01 2.74089E-05-1.33094E-04-4.15983E-02-1.27940E-14 1.21077E-13
 -1      1522 2.00395E+01 5.86099E-04-7.25838E-05-2.31386E-02 3.47566E-14 1.46572E-13
 -1      1523 2.00081E+01 9.30543E-04 6.73676E-05-2.25003E-02 7.65840E-14 2.29298E-13
 -1      1524 2.00105E+01 7.33033E-04-2.93710E-04-4.36187E-02 6.87464E-14 1.67524E-13
 -1      1525 2.01058E+01 8.66934E-04-1.80732E-04-2.63439E-02-1.90458E-14 9.65187E-14
 -1      1526 2.00706E+01 1.43711E-03 3.82510E-05-2.53240E-02-2.09618E-14 9.28294E-14
 -1      1527 2.00689E+01 1.36488E-03-4.63774E-04-4.83561E-02 1.04809E-14 1.98101E-13
 -1      1528 2.01817E+01 1.04042E-03-2.70271E-04-3.06124E-02-8.91214E-17 1.24426E-13
 -1      1529 2.01412E+01 1.85221E-03 9.12657E-06-2.92599E-02-5.20805E-14 1.10090E-13
 -1      1530 2.01344E+01 1.84189E-03-6.25378E-04-5.54200E-02-7.40206E-14 9.27188E-14
 -1      1531 2.02692E+01 1.02764E-03-3.24177E-04-3.53729E-02-5.86342E-14 1.06041E-13
 -1      1532 2.02222E+01 2.06424E-03-2.28124E-05-3.38111E-02 8.05503E-15 1.43037E-13
 -1      1533 2.02088E+01 2.03510E-03-7.49381E-04-6.39888E-02-1.68459E-14 1.42170E-13
 -1      1534 2.03678E+01 7.19236E-04-3.12383E-04-3.96518E-02 3.69184E-14 1.68718E-13
 -1      1535 2.03145E+01 1.90893E-03-5.65638E-05-3.81176E-02-2.71495E-14 1.51986E-13
 -1      1536 2.02930E+01 1.75493E-03-7.90349E-04-7.26009E-02-3.33888E-14 1.72052E-13
 -1      1537 2.04740E+01-2.22802E-05-1.88650E-04-4.19364E-02 2.75677E-14 1.64856E-13
 -1      1538 2.04165E+01 1.16355E-03-8.48115E-05-4.08267E-02 8.96947E-16 1.77052E-13
 -1      1539 2.03851E+01 7.47156E-04-6.82001E-04-7.89103E-02 2.13437E-14 2.22932E-13
 -1      1540 2.05794E+01-1.34617E-03 1.09039E-04-4.00667E-02-1.70338E-14 1.62030E-13
 -1      1541 2.05224E+01-4.42434E-04-9.11835E-05-3.99829E-02-2.43621E-14 1.45350E-13
 -1      1542 2.04804E+01-1.28989E-03-3.35633E-04-7.94610E-02 1.71341E-14 2.02723E-13
 -1      1543 2.06693E+01-3.37262E-03 6.49159E-04-3.12393E-02 4.05248E-14 2.14919E-13
 -1      1544 2.06212E+01-3.18399E-03-4.90423E-05-3.30066E-02-3.02433E-15 2.21279E-13
 -1      1545 2.05694E+01-4.64754E-03 3.53758E-04-6.95902E-02-1.75261E-14 1.85623E-13
 -1      1546 2.07215E+01-6.11609E-03 1.48042E-03-1.22500E-02-3.77874E-14 2.17883E-13
 -1      1547 2.06950E+01-7.24368E-03 7.45764E-05-1.68743E-02 2.74765E-14 2.65154E-13
 -1      1548 2.06368E+01-9.48416E-03 1.48616E-03-4.36551E-02 4.58088E-14 2.05926E-13
 -1      1549 2.07064E+01-9.36801E-03 2.58088E-03 1.98506E-02-1.32292E-14 2.34735E-13
 -1      1550 2.07184E+01-1.25445E-02 3.04544E-04 1.13454E-02-5.55014E-14 1.93790E-13
 -1      1551 2.06616E+01-1.56198E-02 3.11083E-03 4.14330E-03-4.79441E-14 2.94926E-13
 -1      1552 2.05893E+01-1.25577E-02 3.78369E-03 6.65328E-02-1.85503E-14 1.99539E-13
 -1      1553 2.06598E+01-1.85205E-02 6.28159E-04 5.34476E-02-2.44446E-14 1.57123E-13
 -1      1554 2.06175E+01-2.22629E-02 5.15062E-03 7.80360E-02-2.14702E-14 1.54500E-13
 -1      1555 2.03368E+01-1.46566E-02 4.70514E-03 1.26001E-01 9.89096E-15 1.17710E-13
 -1      1556 2.04848E+01-2.38947E-02 9.54207E-04 1.08505E-01 2.38581E-14 2.04938E-13
 -1      1557 2.04762E+01-2.77616E-02 7.30610E-03 1.77917E-01 8.88395E-15 1.06597E-13
 -1      1558 1.99277E+01-1.42563E-02 4.73983E-03 1.91255E-01-6.09703E-14 2.26378E-13
 -1      1559 2.01650E+01-2.66329E-02 1.08110E-03 1.71034E-01-1.50487E-14 2.01355E-13
 -1      1560 2.02144E+01-2.95896E-02 8.98315E-03 2.95886E-01-4.54302E-14 2.20104E-13
 -1      1561 1.93667E+01-9.97873E-03 3.21855E-03 2.49065E-01-9.37223E-14 3.51091E-13
 -1      1562 1.96898E+01-2.43255E-02 7.20434E-04 2.29751E-01-9.63602E-14 2.54088E-13
 -1      1563 1.98235E+01-2.48737E-02 9.33093E-03 4.13404E-01-7.98467E-14 4.80106E-13
 -1      1564 1.86980E+01-1.26743E-03-2.23986E-04 2.81428E-01 1.80511E-14 4.22537E-13
 -1      1565 1.90808E+01-1.51743E-02-3.77710E-04 2.68311E-01-2.25195E-14 2.92072E-13
 -1      1566 1.93207E+01-1.16472E-02 7.49838E-03 5.01449E-01-5.29386E-14 3.03767E-13
 -1      1567 1.80097E+01 1.07208E-02-5.18257E-03 2.70726E-01 6.38209E-14 4.18634E-13
 -1      1568 1.84010E+01 6.13755E-04-2.20758E-03 2.69295E-01-4.52719E-15 4.31700E-13
 -1      1569 1.87577E+01 9.45040E-03 3.12198E-03 5.26336E-01 3.91106E-14 3.16250E-13
 -1      1570 1.74217E+01 2.27992E-02-1.02509E-02 2.07822E-01-7.70460E-14 3.76308E-13
 -1      1571 1.77527E+01 1.98236E-02-4.30779E-03 2.21322E-01 2.34851E-14 4.29341E-13
 -1      1572 1.82185E+01 3.40018E-02-3.15431E-03 4.61853E-01 1.01919E-14 2.97748E-13
 -1      1573 1.70549E+01 3.06826E-02-1.34280E-02 9.93211E-02 6.67496E-14 2.12212E-13
 -1      1574 1.72573E+01 3.67038E-02-5.81620E-03 1.26475E-01 5.83813E-14 3.43729E-13
 -1      1575 1.78039E+01 5.45398E-02-9.54857E-03 3.03886E-01 7.95865E-14 4.92587E-13
 -1      1576 1.69904E+01 3.10963E-02-1.31324E-02-3.13708E-02 8.70363E-14 2.79616E-14
 -1      1577 1.70195E+01 4.53474E-02-5.86507E-03 3.22340E-03 1.68676E-14 7.91693E-14
 -1      1578 1.76014E+01 6.34938E-02-1.38100E-02 7.90737E-02 1.26538E-13 3.30405E-13
 -1      1579 1.72383E+01 2.36918E-02-9.21137E-03-1.51814E-01-4.62889E-14-1.82614E-14
 -1      1580 1.70901E+01 4.27401E-02-4.14335E-03-1.18701E-01-3.57943E-14 5.71765E-14
 -1      1581 1.76543E+01 5.70868E-02-1.43878E-02-1.60549E-01 2.82760E-14 2.54674E-13
 -1      1582 1.77327E+01 1.13155E-02-3.11376E-03-2.33557E-01-2.53573E-15 1.03417E-13
 -1      1583 1.74458E+01 3.03680E-02-1.17315E-03-2.09833E-01 2.99301E-14 1.53249E-13
 -1      1584 1.79440E+01 3.74804E-02-1.13269E-02-3.56757E-01-5.33002E-14 1.10131E-13
 -1      1585 1.83574E+01-1.61932E-03 2.94062E-03-2.62866E-01-2.91396E-15 1.82548E-13
 -1      1586 1.79985E+01 1.32123E-02 1.95449E-03-2.52449E-01-4.79630E-14 5.99729E-14
 -1      1587 1.83977E+01 1.16832E-02-6.12875E-03-4.67977E-01-8.03108E-14 1.94357E-13
 -1      1588 1.89863E+01-1.14071E-02 7.14491E-03-2.43338E-01 2.26327E-15 1.95680E-13
 -1      1589 1.86270E+01-3.02381E-03 4.19419E-03-2.45527E-01 5.54374E-14 2.20282E-13
 -1      1590 1.89147E+01-1.20874E-02-7.87156E-04-4.82799E-01 4.43987E-14 2.83918E-13
 -1      1591 1.95195E+01-1.63733E-02 8.81479E-03-1.90624E-01 4.56490E-14 2.52100E-13
 -1      1592 1.92163E+01-1.44070E-02 5.04384E-03-2.01577E-01-7.03283E-14 2.25861E-13
 -1      1593 1.93998E+01-2.80134E-02 3.22755E-03-4.18178E-01-3.76912E-14 3.04343E-13
 -1      1594 1.99017E+01-1.67935E-02 8.28724E-03-1.24125E-01 1.04713E-13-1.10354E-13
 -1      1595 1.96854E+01-1.96429E-02 4.63098E-03-1.39040E-01 1.65791E-13 7.36893E-14
 -1      1596 1.97860E+01-3.42713E-02 5.34585E-03-3.06841E-01 1.64223E-13-9.09776E-15
 -1      1597 2.01220E+01-1.40131E-02 6.39739E-03-6.04231E-02 2.40106E-13-4.09859E-13
 -1      1598 1.99981E+01-1.94926E-02 3.44620E-03-7.51780E-02 1.55469E-13-2.02500E-13
 -1      1599 2.00432E+01-3.22854E-02 5.72859E-03-1.83098E-01 2.50131E-13-3.56688E-13
 -1      1600 2.02025E+01-9.54458E-03 3.95027E-03-1.03970E-02 9.86169E-14-7.71406E-13
 -1      1601 2.01577E+01-1.56293E-02 2.01074E-03-2.22273E-02 1.32083E-13-5.92112E-13
 -1      1602 2.01737E+01-2.49479E-02 4.87225E-03-7.35668E-02 2.61806E-13-5.70407E-13
 -1      1603 2.01845E+01-4.56414E-03 1.44987E-03 2.06135E-02 9.24397E-14-8.26650E-13
 -1      1604 2.01948E+01-9.71294E-03 6.53746E-04 1.32105E-02 1.22901E-13-6.89870E-13
 -1      1605 2.02023E+01-1.50774E-02 3.27554E-03 5.75985E-03 1.45817E-13-4.56362E-13
 -1      1606 2.01168E+01 1.43633E-04-8.00208E-04 3.15067E-02-9.30872E-14-7.69153E-13
 -1      1607 2.01538E+01-3.06168E-03-5.03164E-04 2.90686E-02-5.91837E-14-8.36323E-13
 -1      1608 2.01649E+01-4.84386E-03 1.30005E-03 4.82689E-02-3.10184E-14-4.34499E-13
 -1      1609 2.00459E+01 3.73104E-03-2.02880E-03 2.40460E-02-8.72875E-14-6.51569E-13
 -1      1610 2.00824E+01 3.27115E-03-1.28937E-03 2.65459E-02-1.10846E-13-7.97420E-13
 -1      1611 2.00999E+01 4.23347E-03-6.06893E-04 5.45022E-02-9.32647E-14-4.87268E-13
 -1      1612 2.00070E+01 5.11879E-03 3.75126E-04 5.89716E-03 7.67398E-16-3.97966E-13
 -1      1613 2.00220E+01 6.88508E-03-8.79092E-04 1.11656E-02-2.42822E-14-5.26136E-13
 -1      1614 2.00404E+01 1.08406E-02-1.02197E-03 3.20395E-02-7.11999E-14-4.49044E-13
 -1      1615 1.99986E+01 1.04285E-03 1.75198E-03-1.99335E-03-1.74056E-13-1.43348E-13
 -1      1616 2.00087E+01 3.89897E-02-5.84017E-04 1.96399E-02-1.39866E-13 2.60600E-13
 -1      1617 2.00079E+01 2.00586E-02 9.49838E-04 1.50143E-02-4.51543E-13 1.99122E-13
 -1      1618 2.00110E+01 1.28750E-01-2.79540E-04 4.73746E-02-2.18146E-14-4.25491E-14
 -1      1619 2.00105E+01 7.54873E-02-5.25305E-04 4.17218E-02-1.52127E-14-9.24894E-14
 -1      1620 2.00201E+01 7.41970E-02-1.39965E-03 6.29149E-02-2.38492E-13 1.71948E-13
 -1      1621 2.00128E+01 2.81739E-01-2.02443E-04 8.00360E-02-1.43932E-13-1.35890E-13
 -1      1622 2.00124E+01 1.89499E-01-7.08813E-04 7.31929E-02-1.18512E-13 1.65117E-13
 -1      1623 2.00195E+01 1.67187E-01-3.63706E-03 1.19002E-01-1.30950E-13-4.05496E-14
 -1      1624 2.00129E+01 5.08079E-01-4.70727E-04 1.16632E-01-3.98466E-15-6.04486E-14
 -1      1625 2.00137E+01 3.72710E-01-9.70907E-04 1.09183E-01-7.53729E-14 3.80880E-14
 -1      1626 2.00221E+01 3.15220E-01-4.07010E-03 1.85146E-01-2.32833E-13 1.20435E-14
 -1      1627 2.00101E+01 8.01351E-01-7.66739E-04 1.50740E-01-3.90177E-13-8.55852E-14
 -1      1628 2.00128E+01 6.28249E-01-1.27531E-03 1.44220E-01 2.18055E-15-3.45381E-13
 -1      1629 2.00211E+01 5.22500E-01-4.08519E-03 2.53821E-01 1.54706E-14-2.38312E-13
 -1      1630 2.00031E+01 1.15382E+00-8.48550E-04 1.74226E-01-4.48258E-13 3.17223E-14
 -1      1631 2.00083E+01 9.49692E-01-1.36304E-03 1.70411E-01-4.85031E-13-3.38228E-14
 -1      1632 2.00150E+01 7.87101E-01-3.10588E-03 3.11582E-01-8.85245E-14-2.18106E-13
 -1      1633 1.99924E+01 1.52127E+00-5.51117E-04 1.75315E-01-2.84829E-13 1.61179E-13
 -1      1634 1.99995E+01 1.31438E+00-1.01976E-03 1.76783E-01-5.21670E-13 2.22960E-13
 -1      1635 2.00018E+01 1.09357E+00-8.72574E-04 3.39608E-01-2.08317E-13 1.10504E-13
 -1      1636 1.99795E+01 1.84381E+00 1.45063E-04 1.44519E-01 1.43224E-13 1.90796E-13
 -1      1637 1.99871E+01 1.67099E+00-2.02348E-04 1.53010E-01-2.07440E-13 2.38355E-13
 -1      1638 1.99827E+01 1.40343E+00 2.57788E-03 3.17031E-01-1.83664E-14 4.08636E-13
 -1      1639 1.99675E+01 2.05097E+00 1.07543E-03 7.83321E-02 1.86148E-13-2.58266E-14
 -1      1640 1.99737E+01 1.95364E+00 9.77036E-04 9.40701E-02 1.02867E-13 1.94194E-13
 -1      1641 1.99611E+01 1.66487E+00 6.65149E-03 2.30131E-01 1.05998E-13 1.80760E-13
 -1      1642 1.99606E+01 2.07932E+00 1.88497E-03-1.70555E-02 1.34106E-13 6.45395E-14
 -1      1643 1.99633E+01 2.09239E+00 2.25405E-03 3.93922E-03 1.62079E-13-4.38564E-14
 -1      1644 1.99426E+01 1.81995E+00 1.02615E-02 7.95722E-02-8.53944E-14-1.56463E-14
 -1      1645 1.99626E+01 1.89955E+00 2.15868E-03-1.22379E-01 3.39777E-13 1.65518E-13
 -1      1646 1.99594E+01 2.03441E+00 2.94564E-03-1.01052E-01 1.01467E-13 6.22354E-14
 -1      1647 1.99345E+01 1.82088E+00 1.21982E-02-1.12411E-01-3.63331E-14 2.10916E-14
 -1      1648 1.99759E+01 1.51986E+00 1.20012E-03-2.14634E-01 1.64455E-13-1.00175E-13
 -1      1649 1.99661E+01 1.76604E+00 2.68550E-03-1.97857E-01 2.61843E-13 7.26428E-14
 -1      1650 1.99420E+01 1.64745E+00 1.10777E-02-3.06477E-01 1.32327E-13 1.79895E-13
 -1      1651 1.99995E+01 1.01549E+00-1.41005E-03-2.60970E-01 3.95239E-13 3.43300E-13
 -1      1652 1.99846E+01 1.31909E+00 6.27333E-04-2.56153E-01 1.37956E-13 1.26533E-13
 -1      1653 1.99693E+01 1.31540E+00 6.53523E-03-4.50614E-01 1.80908E-13-2.19130E-14
 -1      1654 2.00319E+01 5.12932E-01-4.01344E-03-2.31840E-01 5.91509E-13 5.93861E-14
 -1      1655 2.00133E+01 7.89326E-01-3.66566E-03-2.48109E-01 4.05946E-13 1.50691E-13
 -1      1656 2.00151E+01 8.87805E-01-9.63602E-04-4.89199E-01 3.07936E-13 2.58461E-13
 -1      1657 2.00460E+01 1.82885E-01-1.19958E-03-1.36951E-01 5.00605E-13-7.42024E-14
 -1      1658 2.00308E+01 3.53350E-01-8.76591E-03-1.69353E-01 4.91190E-13 7.83327E-14
 -1      1659 2.00453E+01 5.09456E-01-8.76687E-03-3.92932E-01 4.94192E-14 5.29117E-14
 -1      1660 2.00884E+01 2.29120E-01-4.25584E-03-2.18427E-01-1.13960E-14-2.28762E-13
 -1      1661-4.77627E-01-1.45546E+01-1.52026E+00-3.47809E-01 3.59712E-13 1.43718E-13
 -1      1662-5.87565E-01-1.75229E+01-1.82493E+00 9.13003E-01 3.92297E-13-2.01505E-14
 -1      1663 2.60184E+00-6.88266E+00-9.20259E-01 1.94152E+00 4.64961E-13 3.29459E-13
 -1      1664 1.41986E+00-1.26537E+01-1.47906E+00 9.69789E-01 4.10005E-13 1.75110E-13
 -1      1665 8.39014E+00 7.11207E-01-3.62092E-01 5.70973E+00 5.62883E-13 3.28182E-13
 -1      1666 5.07551E+00-4.69244E+00-1.08573E+00 2.76255E+00 5.67102E-13 2.88825E-13
 -1      1667 1.85460E+01 5.81485E+00 2.70651E-01 1.06048E+01 1.90070E-13-2.43583E-13
 -1      1668 1.20049E+01 2.77956E+00-5.32385E-01 6.99129E+00 4.05009E-13 7.09433E-14
 -1      1669 3.40457E+01 6.28286E+00 9.76682E-01 1.25205E+01-9.68670E-14 4.56302E-14
 -1      1670 2.46465E+01 6.05159E+00 1.93311E-01 1.06750E+01-1.69420E-13-9.45910E-14
 -1      1671 4.75721E+01 5.65053E+00 1.64460E+00 1.14223E+01 6.43652E-14-1.96287E-13
 -1      1672 3.90501E+01 7.26655E+00 9.79164E-01 1.30104E+01 2.24265E-14-6.90559E-14
 -1      1673 5.60395E+01 3.74877E+00 1.79144E+00 4.33008E+00 6.99718E-14-8.15736E-13
 -1      1674 5.12151E+01 5.29215E+00 1.56867E+00 9.49347E+00 1.53655E-13-4.17666E-13
 -1      1675 5.39478E+01 4.52620E+00 1.50634E+00-4.47527E+00 2.57488E-13-1.20776E-12
 -1      1676 5.52766E+01 4.19055E+00 1.62051E+00 1.33877E+00 1.96954E-13-8.78297E-13
 -1      1677 4.67493E+01 6.11826E+00 1.29520E+00-1.10968E+01 5.19945E-13-1.37901E-12
 -1      1678 5.30774E+01 4.32278E+00 1.63646E+00-7.24796E+00 3.36980E-13-1.32894E-12
 -1      1679 3.39812E+01 7.68309E+00 7.56451E-01-1.31960E+01 6.29441E-13-1.38756E-12
 -1      1680 4.28613E+01 6.37666E+00 1.42504E+00-1.28112E+01 6.23224E-13-1.38001E-12
 -1      1681 2.06302E+01 5.75488E+00 1.61433E-02-1.01314E+01 3.03313E-13-9.21263E-13
 -1      1682 2.90930E+01 6.88292E+00 8.44967E-01-1.27528E+01 5.71099E-13-1.34759E-12
 -1      1683 1.06640E+01-8.15414E-04-6.53059E-01-5.75728E+00 8.88178E-14-2.83440E-13
 -1      1684 1.62960E+01 3.90644E+00 1.36563E-01-9.26842E+00 2.03171E-13-7.27418E-13
 -1      1685 3.52850E+00-7.79232E+00-1.31204E+00-1.87851E+00-2.85105E-13-2.06002E-13
 -1      1686 6.27123E+00-1.76546E+00-5.76173E-01-4.49437E+00 3.48610E-14-1.81244E-13
 -1      1687 2.21458E-01-1.49789E+01-1.79810E+00-1.50076E-01-6.11955E-13 5.46924E-14
 -1      1688 6.90254E-01-1.00096E+01-1.29577E+00-2.04934E-01-4.90941E-13 3.22520E-14
 -1      1689-7.61680E-01-1.81614E+01-1.91543E+00-1.18138E+00-4.30711E-13 1.45495E-13
 -1      1690-6.39349E-01-1.61403E+01-1.70175E+00 3.14075E-01-6.17950E-13 1.00336E-13
 -1      1691-1.05575E+00-1.64495E+01-1.87751E+00-2.22200E+00-1.27787E-13 7.63001E-14
 -1      1692-8.12917E-01-1.85265E+01-1.99766E+00-7.32722E-01-3.75144E-13 1.00864E-13
 -1      1693 1.17223E+00-9.67911E+00-1.44331E+00-4.32015E-01 1.51656E-13 8.03524E-14
 -1      1694 4.44647E-01-1.46693E+01-1.84548E+00-1.06608E+00 7.73825E-14 7.94573E-14
 -1      1695 6.75226E+00-2.08665E+00-9.43575E-01 3.51064E+00 1.71640E-13 3.01870E-13
 -1      1696 3.54294E+00-7.76592E+00-1.65992E+00 5.33160E-01 1.27454E-13 5.80647E-14
 -1      1697 2.03576E+01 3.15645E+00 6.29136E-03 9.20444E+00 2.92433E-13 5.24913E-13
 -1      1698 1.23262E+01-7.18263E-01-1.03920E+00 4.98007E+00 1.34559E-13 3.98126E-13
 -1      1699 3.68919E+01 5.28853E+00 1.04299E+00 1.22372E+01 2.84106E-13 3.82805E-13
 -1      1700 2.60018E+01 4.85797E+00-8.09217E-02 1.01067E+01 2.76001E-13 4.05675E-13
 -1      1701 5.34015E+01 4.18295E+00 2.02906E+00 8.39617E+00 1.10582E-13 1.61871E-13
 -1      1702 4.27360E+01 5.40368E+00 1.02678E+00 1.02119E+01 1.18683E-13 1.96287E-13
 -1      1703 6.37438E+01 3.69797E+00 2.81900E+00 1.92971E+00 8.70415E-14 1.97620E-14
 -1      1704 5.85141E+01 4.78398E+00 2.31978E+00 7.79014E+00 1.42442E-13 1.51656E-13
 -1      1705 5.96142E+01 4.58758E+00 2.35977E+00-6.14787E+00 1.65423E-14-1.84186E-13
 -1      1706 6.30231E+01 3.88794E+00 2.68283E+00-2.93783E-01-2.22045E-15-1.69517E-13
 -1      1707 4.85399E+01 5.78930E+00 1.58095E+00-1.13486E+01-1.54793E-13-1.40332E-13
 -1      1708 5.74166E+01 4.25950E+00 2.39235E+00-8.46101E+00-1.66742E-14-1.33005E-13
 -1      1709 3.24647E+01 5.46603E+00 4.12725E-01-1.10633E+01 3.89799E-13-2.22489E-13
 -1      1710 4.33008E+01 5.19020E+00 1.49351E+00-1.20146E+01 7.22755E-14-1.22569E-13
 -1      1711 1.79578E+01 2.83534E+00-5.76546E-01-7.86065E+00 5.07816E-13-3.72591E-13
 -1      1712 2.63863E+01 4.93562E+00 4.29447E-01-1.11587E+01 4.37650E-13-2.52687E-13
 -1      1713 7.62523E+00-3.06698E+00-1.34503E+00-3.07105E+00-2.84217E-13-3.34177E-13
 -1      1714 1.28380E+01 1.50759E+00-4.87590E-01-6.73889E+00 1.44107E-13-5.35572E-13
 -1      1715 1.99220E+00-1.04605E+01-1.81166E+00 4.32326E-01 1.06914E-13 1.56930E-13
 -1      1716 4.00800E+00-4.94700E+00-1.19953E+00-1.66279E+00-5.97300E-14 2.03670E-13
 -1      1717-2.46990E-01-1.65835E+01-2.00391E+00 1.35800E+00 3.48721E-13-1.27259E-13
 -1      1718-7.10095E-02-1.23192E+01-1.68840E+00 1.54510E+00 1.86184E-13-6.68215E-14
 -1      1719-7.93729E-01-1.81603E+01-1.86989E+00 2.98078E-01 4.22731E-13-2.18658E-13
 -1      1720-9.71625E-01-1.72160E+01-1.86618E+00 1.84946E+00 3.92464E-13-6.93612E-14
 -1      1721 1.54942E+01-2.28685E+00-2.57684E-01 7.22562E+00 2.32481E-13-1.90625E-13
 -1      1722-1.58408E+00-1.19889E+01-1.31568E+00 1.15558E+00 1.03056E-13-4.20219E-14
 -1      1723 2.00072E+01 5.61082E-03 1.73175E-04 4.43536E-03-3.42012E-13-2.03869E-13
 -1      1724 2.00183E+01 2.75278E-02-3.40139E-04 2.54277E-02-1.46347E-13 4.20495E-14
 -1      1725 1.45461E+00-9.72050E+00-9.58956E-01 3.87170E+00 2.00728E-13 1.73084E-13
 -1      1726 7.53262E+00-6.77111E+00-7.17483E-01 5.77856E+00 1.53100E-13 2.26597E-13
 -1      1727 2.62817E+01 1.44707E+00 3.89134E-01 7.84371E+00 6.78901E-14-3.11307E-13
 -1      1728 3.61629E+01 4.27884E+00 7.21056E-01 6.74570E+00-1.29174E-13-2.69118E-13
 -1      1729 4.49678E+01 6.85264E+00 1.38327E+00 5.45424E+00 1.76581E-13-5.68656E-13
 -1      1730 4.74832E+01 7.97169E+00 1.38921E+00 1.50199E+00 2.98983E-13-8.26950E-13
 -1      1731 4.61773E+01 7.75717E+00 1.29032E+00-2.69853E+00 3.83304E-13-8.92175E-13
 -1      1732 4.19467E+01 6.44705E+00 1.21128E+00-6.39794E+00 4.23217E-13-8.75966E-13
 -1      1733 3.30638E+01 3.90212E+00 6.72286E-01-7.82590E+00 3.41227E-13-9.95981E-13
 -1      1734 2.34278E+01-2.16120E-01 1.17186E-01-7.64351E+00-8.97060E-14-8.61533E-13
 -1      1735 1.38623E+01-4.10117E+00-2.86588E-01-7.12167E+00 1.38778E-14-4.60076E-13
 -1      1736 5.01505E+00-7.85635E+00-8.16095E-01-5.11585E+00-2.35367E-13-3.60975E-13
 -1      1737-2.09075E-01-1.12631E+01-1.25908E+00-2.60335E+00-3.35731E-13-1.45994E-14
 -1      1738-1.67032E+00-1.26428E+01-1.40592E+00-7.42265E-01-1.51115E-13 1.83631E-13
 -1      1739 5.14755E-01-1.13759E+01-1.25294E+00 1.65894E+00 4.01346E-14 3.43836E-13
 -1      1740 6.09711E+00-8.67973E+00-1.08007E+00 3.68579E+00 9.75886E-14 5.76136E-14
 -1      1741 1.59275E+01-4.96994E+00-5.56416E-01 5.58766E+00 7.56062E-14 3.56604E-13
 -1      1742 2.81951E+01-1.05765E+00 1.13893E-01 6.14565E+00 1.47993E-13 2.21267E-13
 -1      1743 4.02740E+01 2.82595E+00 9.68009E-01 4.60907E+00 1.81549E-13 1.11022E-14
 -1      1744 4.89581E+01 6.14370E+00 1.63197E+00 1.96360E+00 9.49796E-14-1.64313E-13
 -1      1745 5.34809E+01 7.72267E+00 2.11158E+00 2.10570E-01 8.64864E-14-3.83846E-13
 -1      1746 5.10183E+01 6.92410E+00 1.89622E+00-2.40264E+00-3.00870E-14-3.62377E-13
 -1      1747 4.40177E+01 4.15995E+00 1.28775E+00-4.77124E+00 1.09308E-13-3.51497E-13
 -1      1748 3.32554E+01 8.55413E-01 5.05214E-01-6.25064E+00 4.63463E-13-6.69464E-14
 -1      1749 2.13405E+01-2.51946E+00-2.58749E-01-6.36240E+00 5.60663E-14-4.37650E-13
 -1      1750 1.11133E+01-6.36985E+00-8.51341E-01-4.92716E+00 3.26406E-14-3.00926E-13
 -1      1751 3.56678E+00-9.98542E+00-1.24656E+00-2.83687E+00 2.92988E-13 1.75332E-13
 -1      1752-6.72306E-01-1.21887E+01-1.41821E+00-8.77778E-01 2.03615E-13 9.39249E-14
 -1      1753 2.28591E+01 1.98490E+00-2.35553E-02-2.72249E+00-1.12913E-13 1.72251E-13
 -1      1754 1.98253E+01 3.71363E+00-3.54248E-02-2.15305E+00-7.63391E-14-2.63983E-13
 -1      1755 2.00579E+01 3.56268E+00-4.02235E-02-2.44525E+00-1.04958E-13-2.34941E-13
 -1      1756 2.03633E+01 3.18147E+00-4.57851E-02-2.58500E+00-1.23412E-13-1.91375E-13
 -1      1757 2.05834E+01 2.80971E+00-1.42516E-01-2.85330E+00-1.49478E-13-1.31999E-13
 -1      1758 2.04241E+01 2.69286E+00-4.14501E-03-2.22445E+00-1.14542E-13-1.94261E-13
 -1      1759 1.93552E+01 4.18892E+00-2.00875E-02-1.27062E+00 4.55148E-16-2.93024E-13
 -1      1760 1.94291E+01 4.14946E+00-1.69170E-02-1.49498E+00-1.12315E-14-3.02102E-13
 -1      1761 1.92586E+01 4.29475E+00-1.67520E-02-8.59656E-01 3.37070E-14-2.72917E-13
 -1      1762 1.93014E+01 4.27080E+00-1.42550E-02-1.07044E+00 2.13325E-14-2.84106E-13
 -1      1763 1.95273E+01 3.78320E+00-8.98397E-03-1.11969E+00 4.80063E-15-2.80184E-13
 -1      1764 1.92072E+01 4.35520E+00-1.47924E-02-4.66784E-01 7.74343E-14-2.33081E-13
 -1      1765 1.92291E+01 4.34235E+00-1.32972E-02-6.67090E-01 5.77307E-14-2.54002E-13
 -1      1766 1.94301E+01 3.90340E+00-9.14787E-03-7.33185E-01 5.46820E-14-2.52985E-13
 -1      1767 1.91878E+01 4.38082E+00-1.36687E-02-8.36127E-02 1.17107E-13-2.03853E-13
 -1      1768 1.91942E+01 4.37690E+00-1.32149E-02-2.79068E-01 1.00033E-13-2.20829E-13
 -1      1769 1.93798E+01 3.96787E+00-9.14648E-03-3.58283E-01 9.59936E-14-2.15154E-13
 -1      1770 1.91959E+01 4.37552E+00-1.31726E-02 2.98156E-01 1.37892E-13-1.79216E-13
 -1      1771 1.91883E+01 4.37999E+00-1.37539E-02 1.02540E-01 1.26532E-13-1.95914E-13
 -1      1772 1.93650E+01 3.98728E+00-9.14310E-03 1.05769E-02 1.30677E-13-1.91302E-13
 -1      1773 1.92331E+01 4.33830E+00-1.33306E-02 6.86909E-01 1.63926E-13-1.60316E-13
 -1      1774 1.92099E+01 4.35201E+00-1.49197E-02 4.86093E-01 1.54272E-13-1.74895E-13
 -1      1775 1.93825E+01 3.96456E+00-9.18664E-03 3.79624E-01 1.55021E-13-1.66492E-13
 -1      1776 1.93066E+01 4.26487E+00-1.44023E-02 1.08461E+00 1.75674E-13-1.12734E-13
 -1      1777 1.92633E+01 4.28933E+00-1.69782E-02 8.76618E-01 1.65039E-13-1.43092E-13
 -1      1778 1.94353E+01 3.89703E+00-9.19380E-03 7.51794E-01 1.70681E-13-1.45634E-13
 -1      1779 1.94380E+01 4.13766E+00-1.74185E-02 1.51477E+00 2.10813E-13-4.54844E-14
 -1      1780 1.93617E+01 4.18017E+00-2.05062E-02 1.28520E+00 1.91705E-13-8.07410E-14
 -1      1781 1.95349E+01 3.77299E+00-9.24435E-03 1.13564E+00 1.98513E-13-8.65471E-14
 -1      1782 1.96662E+01 3.92148E+00-2.53277E-02 1.97987E+00 2.27601E-13 3.66408E-14
 -1      1783 1.95341E+01 3.99815E+00-2.69093E-02 1.72256E+00 2.13855E-13-1.18655E-14
 -1      1784 1.97079E+01 3.56577E+00-8.83967E-03 1.53569E+00 2.23703E-13-2.30909E-14
 -1      1785 2.00788E+01 3.52246E+00-4.43121E-02 2.47616E+00 2.20060E-13 1.63987E-13
 -1      1786 1.98410E+01 3.68385E+00-3.79535E-02 2.18126E+00 2.16918E-13 8.31210E-14
 -1      1787 2.00027E+01 3.22165E+00-6.25582E-03 1.93200E+00 2.30188E-13 7.18488E-14
 -1      1788 2.09185E+01 2.66958E+00-6.21225E-02 2.85544E+00 1.80298E-13 3.90910E-13
 -1      1789 2.04124E+01 3.10030E+00-4.96657E-02 2.61346E+00 1.99853E-13 2.59973E-13
 -1      1790 2.04981E+01 2.60873E+00-6.84424E-04 2.23874E+00 2.12525E-13 2.08208E-13
 -1      1791 2.17291E+01 1.21148E+00-1.23387E-01 2.32877E+00 1.26447E-13 6.33410E-13
 -1      1792 2.12768E+01 2.27251E+00 3.30139E-03 2.74171E+00 1.56845E-13 4.74551E-13
 -1      1793 2.09584E+01 1.68903E+00-1.37214E-02 2.14557E+00 1.84408E-13 3.81258E-13
 -1      1794 2.09591E+01 7.78691E-01-6.06218E-02 1.52357E+00 1.23290E-13 5.85974E-13
 -1      1795 2.17972E+01 2.45820E+00 9.09202E-02-3.04821E+00-1.40898E-13-1.32672E-14
 -1      1796 2.01190E+01 2.99539E-01-4.94725E-03 6.62912E-01 1.12257E-13 5.07868E-13
 -1      1797 2.06498E+01 4.38321E-01-1.43062E-02 1.03327E+00 1.05790E-13 5.42104E-13
 -1      1798 2.07476E+01 8.47063E-01 5.41602E-03 1.40889E+00 1.28883E-13 4.21664E-13
 -1      1799 2.15076E+01 1.74229E+00 7.94463E-02-2.33718E+00-1.39555E-13-5.37348E-14
 -1      1800 2.05211E+01 5.00710E-01 3.23917E-02-9.21709E-01-1.23710E-13-5.10497E-14
 -1      1801 2.00894E+01 3.52090E-01 7.52521E-03-6.29733E-01-1.01202E-13-8.20854E-14
 -1      1802 1.98951E+01 2.57288E-01 2.73869E-02-3.91339E-01-9.72078E-14-7.67771E-14
 -1      1803 1.97040E+01 1.77945E-01 1.03672E-02-2.53570E-01-1.00601E-13-1.05763E-13
 -1      1804 2.01995E+01 4.83742E-01-5.86755E-03-7.22631E-01-1.14837E-13-9.37041E-14
 -1      1805 1.95820E+01 1.32659E-01 1.66412E-02-1.20097E-01-9.41374E-14-9.93051E-14
 -1      1806 1.95038E+01 9.30200E-02 6.96043E-03-4.93376E-02-6.18386E-14-1.17687E-13
 -1      1807 1.98734E+01 2.43790E-01-5.80784E-03-2.95879E-01-1.00861E-13-8.67210E-14
 -1      1808 1.94389E+01 6.83444E-02 8.68833E-03 2.41603E-02-5.67229E-14-1.23935E-13
 -1      1809 1.94243E+01 4.66527E-02 4.11060E-03 6.02951E-02-5.22694E-14-1.43849E-13
 -1      1810 1.96907E+01 1.25170E-01-4.63127E-03-5.91110E-02-8.22155E-14-9.79327E-14
 -1      1811 1.93982E+01 3.23227E-02 4.23815E-03 9.89671E-02-4.83714E-14-1.29429E-13
 -1      1812 1.94179E+01 1.98959E-02 2.43445E-03 1.15707E-01-4.41665E-14-1.53352E-13
 -1      1813 1.96041E+01 6.08382E-02-3.45995E-03 7.03957E-02-4.97403E-14-1.14255E-13
 -1      1814 1.94161E+01 1.12775E-02 1.85859E-03 1.33616E-01-6.34244E-14-1.71971E-13
 -1      1815 1.94531E+01 4.11216E-03 1.44577E-03 1.39038E-01-6.41167E-14-1.74101E-13
 -1      1816 1.95798E+01 2.39934E-02-2.34406E-03 1.36751E-01-6.78555E-14-1.42679E-13
 -1      1817 1.94657E+01-9.67517E-04 5.81237E-04 1.44441E-01-7.12422E-14-1.90268E-13
 -1      1818 1.95099E+01-5.03059E-03 8.41342E-04 1.43329E-01-6.41590E-14-2.13043E-13
 -1      1819 1.95934E+01 2.50231E-03-1.45836E-03 1.65112E-01-9.03723E-14-1.65163E-13
 -1      1820 1.95314E+01-7.89790E-03-1.08539E-04 1.41156E-01-7.86948E-14-2.12764E-13
 -1      1821 1.95790E+01-1.00017E-02 4.47250E-04 1.36119E-01-6.76077E-14-2.16284E-13
 -1      1822 1.96293E+01-9.58464E-03-8.08292E-04 1.70565E-01-8.72759E-14-1.93628E-13
 -1      1823 1.96023E+01-1.12522E-02-5.33395E-04 1.30100E-01-5.45355E-14-2.05548E-13
 -1      1824 1.96456E+01-1.17638E-02 2.26748E-04 1.23589E-01 6.00350E-15-2.29366E-13
 -1      1825 1.96759E+01-1.58887E-02-3.74984E-04 1.62617E-01-5.35604E-14-1.35889E-13
 -1      1826 1.96697E+01-1.21424E-02-7.01635E-04 1.15969E-01 1.45253E-14-2.35971E-13
 -1      1827 1.97093E+01-1.17415E-02 1.16480E-04 1.09110E-01-7.68244E-15-2.34784E-13
 -1      1828 1.97248E+01-1.79156E-02-1.22358E-04 1.48232E-01 8.20719E-15-1.41318E-13
 -1      1829 1.97327E+01-1.14493E-02-7.31579E-04 1.01344E-01-2.57700E-14-2.06152E-13
 -1      1830 1.97681E+01-1.04567E-02 8.39416E-05 9.50176E-02-1.92724E-14-1.84935E-13
 -1      1831 1.97733E+01-1.73894E-02 1.19493E-05 1.31609E-01 1.12226E-14-1.53257E-13
 -1      1832 1.97902E+01-9.67560E-03-6.77105E-04 8.81378E-02-4.27458E-15-1.52675E-13
 -1      1833 1.98218E+01-8.25211E-03 1.23084E-04 8.29521E-02 4.46478E-14-1.55415E-13
 -1      1834 1.98194E+01-1.50917E-02 6.00470E-05 1.15649E-01 2.58148E-14-1.19888E-13
 -1      1835 1.98427E+01-7.09417E-03-5.68300E-04 7.77188E-02 5.88747E-14-1.43067E-13
 -1      1836 1.98714E+01-5.31202E-03 2.27985E-04 7.41454E-02 3.61505E-14-1.12148E-13
 -1      1837 1.98629E+01-1.14950E-02 4.49831E-05 1.02416E-01 2.91526E-14-5.34145E-14
 -1      1838 1.98916E+01-3.81969E-03-4.23906E-04 7.11797E-02 3.30581E-14-1.12547E-13
 -1      1839 1.99189E+01-1.67226E-03 4.01401E-04 6.96431E-02 2.33962E-14-3.92891E-14
 -1      1840 1.99043E+01-6.82035E-03-1.89587E-05 9.34951E-02 5.33800E-14-5.38295E-14
 -1      1841 1.99394E+01 1.75326E-04-2.54684E-04 6.95427E-02-1.98064E-14-5.43856E-14
 -1      1842 1.99671E+01 2.77181E-03 6.54784E-04 7.05045E-02 4.83542E-14-4.59739E-14
 -1      1843 1.99453E+01-1.06994E-03-1.23215E-04 9.02782E-02 2.43171E-14-1.84383E-14
 -1      1844 1.99890E+01 5.06053E-03-6.57400E-05 7.39525E-02 5.32604E-14-7.08161E-14
 -1      1845 2.00195E+01 8.27547E-03 1.00970E-03 7.79982E-02 5.46776E-14-5.90609E-14
 -1      1846 1.99878E+01 5.96885E-03-2.63496E-04 9.42151E-02 1.81859E-14-1.88209E-14
 -1      1847 2.00444E+01 1.11666E-02 1.41817E-04 8.58784E-02 5.76422E-14-6.95458E-14
 -1      1848 2.00806E+01 1.52724E-02 1.49940E-03 9.38193E-02 3.92997E-14-7.31419E-14
 -1      1849 2.00350E+01 1.47457E-02-4.38781E-04 1.07062E-01 3.93162E-14-2.49215E-14
 -1      1850 2.01107E+01 1.90558E-02 3.80013E-04 1.07359E-01-1.20670E-14-1.22149E-13
 -1      1851 2.01565E+01 2.44815E-02 2.23108E-03 1.20326E-01-4.16138E-15-1.80148E-13
 -1      1852 2.00902E+01 2.59932E-02-6.54565E-04 1.31153E-01 2.53839E-14-8.87158E-14
 -1      1853 2.01960E+01 2.97395E-02 6.10613E-04 1.42391E-01-1.61665E-14-2.38908E-13
 -1      1854 2.02597E+01 3.75608E-02 3.20449E-03 1.63475E-01-5.34915E-14-2.07887E-13
 -1      1855 2.01601E+01 4.11826E-02-9.60971E-04 1.70971E-01-7.18163E-14-1.45959E-13
 -1      1856 2.03080E+01 4.44469E-02 9.26405E-04 1.94784E-01-6.82164E-14-2.12729E-13
 -1      1857 2.03908E+01 5.46307E-02 4.47644E-03 2.24288E-01-3.65907E-14-1.40036E-13
 -1      1858 2.02489E+01 6.21234E-02-1.18969E-03 2.30933E-01-2.75097E-14-2.79831E-13
 -1      1859 2.04529E+01 6.41514E-02 1.18337E-03 2.69071E-01-7.54605E-14-1.11564E-13
 -1      1860 2.05662E+01 7.84308E-02 6.27357E-03 3.11406E-01-1.16112E-14-2.03279E-13
 -1      1861 2.03608E+01 9.02995E-02-1.45120E-03 3.15634E-01-3.90248E-14-2.18985E-13
 -1      1862 2.06460E+01 9.15658E-02 1.43547E-03 3.74490E-01 6.86070E-14-1.82953E-13
 -1      1863 2.08018E+01 1.11346E-01 8.64844E-03 4.34561E-01 9.37410E-14-1.46134E-13
 -1      1864 2.05052E+01 1.29316E-01-1.70551E-03 4.35260E-01 3.98423E-14-1.82197E-13
 -1      1865 2.09035E+01 1.29307E-01 1.58215E-03 5.22312E-01 6.92541E-14-1.06279E-13
 -1      1866 2.11173E+01 1.56172E-01 1.16508E-02 6.06495E-01-2.40866E-15-3.75628E-14
 -1      1867 2.06911E+01 1.83104E-01-1.88979E-03 6.01843E-01 1.13750E-13-7.95412E-14
 -1      1868 2.12452E+01 1.79947E-01 1.46674E-03 7.26730E-01-3.21423E-14 1.08225E-14
 -1      1869 2.15363E+01 2.14771E-01 1.50971E-02 8.42486E-01 5.51018E-14 6.45504E-14
 -1      1870 2.09277E+01 2.55545E-01-1.94723E-03 8.30507E-01 1.84627E-14-4.06974E-14
 -1      1871 2.16946E+01 2.44011E-01 8.39244E-04 1.00340E+00 7.13405E-14 6.45698E-14
 -1      1872 2.20851E+01 2.84780E-01 1.83053E-02 1.15722E+00 6.47590E-14-9.19273E-15
 -1      1873 2.12248E+01 3.47988E-01-1.87856E-03 1.13811E+00 3.10212E-14-1.98437E-14
 -1      1874 2.22780E+01 3.14952E-01-5.28288E-04 1.36396E+00 5.22152E-15-1.06720E-13
 -1      1875 2.27889E+01 3.51641E-01 1.97407E-02 1.55544E+00-4.23732E-14-6.13741E-14
 -1      1876 2.15911E+01 4.52658E-01-1.89291E-03 1.53844E+00-2.03830E-15-1.52205E-13
 -1      1877 2.30252E+01 3.67750E-01-2.25395E-03 1.80187E+00-2.55559E-14 1.20013E-14
 -1      1878 2.36670E+01 3.72067E-01 1.69402E-02 2.00979E+00-3.95690E-15-3.22086E-14
 -1      1879 2.20377E+01 5.37762E-01-2.68153E-03 2.03017E+00 3.72272E-15-1.91193E-13
 -1      1880 2.39726E+01 3.37265E-01-1.62136E-03 2.26117E+00-9.55954E-14-3.59608E-15
 -1      1881 2.47271E+01 2.45503E-01 6.28308E-03 2.41789E+00-1.14953E-13-2.34344E-14
 -1      1882 2.25884E+01 5.18797E-01-5.75316E-03 2.57145E+00-5.03549E-14-1.17369E-13
 -1      1883 2.51762E+01 9.08377E-02 8.95754E-03 2.57557E+00-1.50600E-13-1.20659E-13
 -1      1884 2.59712E+01-2.01270E-01-1.32903E-02 2.53271E+00-2.19649E-13-1.43399E-13
 -1      1885 2.33159E+01 2.14447E-01-1.45235E-02 3.03224E+00-1.72979E-13-1.05665E-13
 -1      1886 2.67641E+01-5.95880E-01 4.06910E-02 2.38485E+00-2.17951E-13-1.36171E-13
 -1      1887 2.75007E+01-1.19017E+00-3.23819E-02 1.86019E+00-1.66922E-13-3.98162E-14
 -1      1888 2.44355E+01-6.57340E-01-2.67093E-02 3.11913E+00-1.72274E-13-1.12150E-13
 -1      1889 2.87564E+01-1.79683E+00 6.61021E-02 1.09963E+00-9.15865E-14 5.69735E-14
 -1      1890 2.91566E+01-2.34587E+00-4.42090E-02-2.72077E-02 4.38469E-14 1.01398E-13
 -1      1891 2.62939E+01-2.22333E+00-3.26232E-02 2.31071E+00-7.98354E-14 1.19488E-14
 -1      1892 3.07478E+01-2.61654E+00 4.74243E-03-1.49747E+00 3.81275E-14 7.58699E-14
 -1      1893 3.06394E+01-2.30733E+00-8.73139E-02-2.76994E+00 7.12798E-14-3.26544E-14
 -1      1894 2.91146E+01-3.60221E+00-3.76225E-02-1.58835E-02-1.80411E-15 2.83175E-13
 -1      1895 3.19856E+01-1.36531E+00-1.02508E-01-3.98442E+00 2.45429E-13-9.39110E-14
 -1      1896 3.13460E+01 1.66572E-01-1.31465E-01-4.19233E+00 3.43836E-13 2.11220E-14
 -1      1897 3.22808E+01-2.82897E+00-1.21057E-01-2.76216E+00 1.64209E-13 1.14103E-13
 -1      1898 3.10785E+01 1.94455E+00-2.45444E-01-3.72023E+00 5.33074E-13 4.44332E-14
 -1      1899 3.03741E+01 3.43908E+00-2.01566E-01-2.10751E+00 4.66016E-13 2.38171E-13
 -1      1900 3.11710E+01 4.13635E+00-1.63230E-01 2.28303E-01 1.04694E-13 2.34202E-13
 -1      1901 3.13617E+01 3.33276E+00-2.26465E-01 2.33880E+00-4.05787E-14 1.22187E-13
 -1      1902 3.09280E+01 1.75824E+00-1.26317E-01 3.80891E+00-1.36668E-13 3.21271E-14
 -1      1903 3.16953E+01-3.37945E-01-1.83514E-01 4.27701E+00-1.12979E-13-3.92880E-14
 -1      1904 3.06170E+01-1.64279E+00-7.21153E-02 3.35275E+00-5.42136E-14 5.09315E-15
 -1      1905 3.09451E+01-2.44456E+00-3.89497E-02 2.14609E+00-4.21174E-14 7.43711E-14
 -1      1906 2.93000E+01-2.45678E+00-5.67819E-02 4.72308E-01-5.98271E-14 1.10876E-13
 -1      1907 2.90116E+01-2.00821E+00 6.42548E-02-7.42825E-01-2.64441E-13-1.92311E-14
 -1      1908 2.76262E+01-1.41080E+00-4.23961E-02-1.67120E+00-3.64153E-13-1.12447E-13
 -1      1909 2.69612E+01-8.10710E-01 4.29169E-02-2.29393E+00-2.06304E-13-1.31896E-13
 -1      1910 2.66934E+01-2.56913E+00-4.69755E-02-2.06325E+00-4.31863E-13-8.44672E-14
 -1      1911 2.60931E+01-3.86534E-01-1.91025E-02-2.54861E+00 6.35013E-14-2.51405E-13
 -1      1912 2.52685E+01-3.99290E-02 1.11277E-02-2.68284E+00 1.02359E-13-9.60967E-14
 -1      1913 2.46377E+01-9.51655E-01-3.56085E-02-3.12989E+00-1.58016E-13-2.31593E-13
 -1      1914 2.47375E+01 1.55968E-01 1.81631E-03-2.58406E+00 5.08454E-14-1.52104E-13
 -1      1915 2.39229E+01 2.84807E-01-1.43606E-03-2.46818E+00 1.09158E-13-1.15291E-13
 -1      1916 2.33725E+01 4.73100E-02-1.78247E-02-3.21546E+00 8.55219E-14-2.53060E-13
 -1      1917 2.35595E+01 3.40865E-01 1.47600E-02-2.23887E+00 8.23655E-14-1.75239E-13
 -1      1918 2.28430E+01 3.56408E-01-2.57710E-03-2.04211E+00-2.04246E-14-1.33061E-13
 -1      1919 2.25175E+01 4.50517E-01-7.50131E-03-2.83697E+00 1.13500E-13-3.07746E-13
 -1      1920 2.25614E+01 3.51972E-01 1.95955E-02-1.79627E+00-7.06180E-14-3.71335E-14
 -1      1921 2.19743E+01 3.27621E-01-2.33786E-04-1.59925E+00-4.49389E-14 1.10478E-13
 -1      1922 2.18668E+01 5.25824E-01-3.42597E-03-2.31757E+00 9.01675E-14-2.12697E-13
 -1      1923 2.17423E+01 3.08128E-01 1.92106E-02-1.37845E+00-2.30195E-13 5.60079E-14
 -1      1924 2.12854E+01 2.81641E-01 2.51644E-03-1.20461E+00-2.28704E-13-1.25657E-13
 -1      1925 2.13353E+01 4.77884E-01-2.32092E-03-1.81014E+00-1.93714E-13 1.19322E-13
 -1      1926 2.10916E+01 2.69282E-01 1.62703E-02-1.01259E+00-2.85922E-13-4.01416E-13
 -1      1927 2.07537E+01 2.55606E-01 4.16434E-03-8.56423E-01-2.14994E-13-4.84454E-13
 -1      1928 2.08937E+01 4.13899E-01-2.98319E-03-1.36151E+00-4.68616E-13-5.91984E-14
 -1      1929 2.05948E+01 2.55169E-01 1.16783E-02-6.81712E-01-6.13797E-14-4.07321E-13
 -1      1930 2.03587E+01 2.58024E-01 4.39186E-03-5.33751E-01-5.89589E-14-4.18328E-13
 -1      1931 2.05309E+01 3.80576E-01-4.98325E-03-9.62501E-01-1.55178E-13-1.14956E-13
 -1      1932 2.02062E+01 2.47545E-01 5.00780E-03-3.25178E-01-1.37271E-13-2.73066E-13
 -1      1933 1.95130E+01 1.12452E-01 9.63260E-03 1.27662E-01 7.21827E-14 3.92415E-13
 -1      1934 1.96288E+01 1.58952E-01 1.71429E-02 2.21402E-01 6.83490E-14 3.94912E-13
 -1      1935 1.93828E+01 5.75444E-02 6.10755E-03-1.34076E-02 6.49953E-14 3.66614E-13
 -1      1936 1.94189E+01 8.24765E-02 1.19780E-02 3.32544E-02 7.80877E-14 3.93110E-13
 -1      1937 1.97152E+01 1.54162E-01-4.67984E-03 1.54638E-01 8.78716E-14 2.49328E-13
 -1      1938 1.93507E+01 2.74290E-02 3.66917E-03-8.76391E-02 2.54547E-14 3.03288E-13
 -1      1939 1.93395E+01 4.14120E-02 6.24496E-03-6.45374E-02 6.06661E-14 3.35201E-13
 -1      1940 1.95809E+01 7.71679E-02-4.07484E-03-1.61854E-02 7.80684E-14 2.29237E-13
 -1      1941 1.93764E+01 9.87794E-03 2.23593E-03-1.22528E-01 3.83814E-14 2.46689E-13
 -1      1942 1.93405E+01 1.79099E-02 2.97181E-03-1.12742E-01 1.20740E-14 2.71257E-13
 -1      1943 1.95323E+01 3.45330E-02-2.90143E-03-1.06812E-01 4.28841E-14 1.99890E-13
 -1      1944 1.94328E+01-3.76401E-04 1.37095E-03-1.34170E-01 5.70573E-14 1.88325E-13
 -1      1945 1.93858E+01 4.16518E-03 1.20054E-03-1.32176E-01 4.49134E-14 2.29713E-13
 -1      1946 1.95351E+01 1.00663E-02-1.88187E-03-1.49910E-01 6.43830E-14 1.24614E-13
 -1      1947 1.95033E+01-6.10099E-03 8.22894E-04-1.32239E-01 7.60827E-14 2.04921E-13
 -1      1948 1.94531E+01-3.72885E-03 2.26328E-04-1.34708E-01 5.20603E-14 1.98965E-13
 -1      1949 1.95675E+01-3.93599E-03-1.11306E-03-1.64597E-01 6.09126E-14 1.02811E-13
 -1      1950 1.95777E+01-8.88667E-03 4.73135E-04-1.22862E-01 5.43447E-14 2.06041E-13
 -1      1951 1.95287E+01-7.91003E-03-3.05617E-04-1.27662E-01 8.19908E-14 2.23312E-13
 -1      1952 1.96152E+01-1.14767E-02-5.83437E-04-1.62607E-01 5.91357E-14 1.13019E-13
 -1      1953 1.96498E+01-9.72420E-03 2.60411E-04-1.10051E-01 5.25509E-14 1.61831E-13
 -1      1954 1.96045E+01-9.65902E-03-5.73720E-04-1.15777E-01 5.07784E-14 1.75357E-13
 -1      1955 1.96691E+01-1.48524E-02-2.43042E-04-1.51483E-01 7.99102E-14 9.16915E-14
 -1      1956 1.97169E+01-9.25956E-03 1.47748E-04-9.64794E-02 6.43883E-14 6.99160E-14
 -1      1957 1.96762E+01-9.79205E-03-6.76694E-04-1.02190E-01 8.42679E-14 1.50219E-13
 -1      1958 1.97235E+01-1.54859E-02-4.19861E-05-1.36212E-01 7.45065E-14 1.11567E-13
 -1      1959 1.97778E+01-7.92208E-03 1.10188E-04-8.39398E-02 1.16247E-14 7.23556E-14
 -1      1960 1.97418E+01-8.84641E-03-6.74829E-04-8.90033E-02 7.67892E-15 7.65567E-14
 -1      1961 1.97757E+01-1.42993E-02 5.90536E-05-1.20136E-01 5.36780E-14 3.15123E-14
 -1      1962 1.98330E+01-5.99850E-03 1.29779E-04-7.36364E-02 5.16646E-14 1.06195E-13
 -1      1963 1.98010E+01-7.17968E-03-6.07406E-04-7.76258E-02 5.09347E-14 1.03831E-13
 -1      1964 1.98244E+01-1.19017E-02 8.89104E-05-1.05509E-01 3.08824E-14 6.09174E-14
 -1      1965 1.98836E+01-3.68351E-03 1.92622E-04-6.63763E-02-1.77982E-14 1.53455E-13
 -1      1966 1.98546E+01-5.03130E-03-5.00957E-04-6.90040E-02 4.20497E-14 1.52802E-13
 -1      1967 1.98696E+01-8.69881E-03 6.83560E-05-9.38491E-02 1.85198E-15 1.49423E-13
 -1      1968 1.99316E+01-1.12084E-03 2.86349E-04-6.26866E-02-6.69288E-14 9.10973E-14
 -1      1969 1.99043E+01-2.56795E-03-3.73960E-04-6.37649E-02-4.71915E-14 1.42298E-13
 -1      1970 1.99122E+01-4.96964E-03 1.24874E-05-8.61741E-02-1.10837E-15 1.05740E-13
 -1      1971 1.99793E+01 1.55718E-03 3.97541E-04-6.28700E-02 4.06878E-15 8.70350E-14
 -1      1972 1.99522E+01 7.64695E-05-2.39989E-04-6.22967E-02-5.31808E-14 6.22034E-14
 -1      1973 1.99536E+01-9.29717E-04-6.72316E-05-8.31341E-02-3.49289E-14 5.91475E-14
 -1      1974 2.00292E+01 4.18722E-03 5.08894E-04-6.69969E-02 6.14316E-14 1.30576E-13
 -1      1975 2.00007E+01 2.76032E-03-1.10105E-04-6.47675E-02 5.19299E-14 7.58609E-14
 -1      1976 1.99955E+01 3.20624E-03-1.61165E-04-8.50668E-02 3.93605E-14-1.49465E-15
 -1      1977 2.00836E+01 6.52710E-03 5.96121E-04-7.48311E-02-5.10760E-14 1.74684E-13
 -1      1978 2.00524E+01 5.28939E-03 5.21162E-06-7.10800E-02 5.61205E-14 1.72172E-13
 -1      1979 2.00401E+01 7.15664E-03-2.59825E-04-9.19684E-02 2.60598E-14 5.10833E-14
 -1      1980 2.01447E+01 8.20247E-03 6.24854E-04-8.56815E-02-5.41921E-14 1.32251E-13
 -1      1981 2.01096E+01 7.36645E-03 9.45334E-05-8.07555E-02-8.49014E-14 1.92493E-13
 -1      1982 2.00893E+01 1.04970E-02-3.52241E-04-1.03376E-01-5.54894E-14 1.48588E-13
 -1      1983 2.02137E+01 8.65277E-03 5.48307E-04-9.81751E-02-3.45026E-14 2.34186E-13
 -1      1984 2.01741E+01 8.53680E-03 1.44441E-04-9.27416E-02-3.73139E-14 1.63420E-13
 -1      1985 2.01446E+01 1.25777E-02-4.24276E-04-1.18156E-01-7.02974E-14 1.72924E-13
 -1      1986 2.02908E+01 7.08979E-03 3.07184E-04-1.09962E-01-6.00949E-14 2.20366E-13
 -1      1987 2.02470E+01 8.13812E-03 1.39224E-04-1.05145E-01-7.66170E-15 2.41636E-13
 -1      1988 2.02074E+01 1.24454E-02-4.56943E-04-1.34195E-01-5.91026E-16 2.41235E-13
 -1      1989 2.03738E+01 2.49654E-03-1.65731E-04-1.17388E-01 1.43180E-14 2.05278E-13
 -1      1990 2.03276E+01 5.27393E-03 6.17014E-05-1.14912E-01-3.58055E-14 2.04812E-13
 -1      1991 2.02777E+01 8.79654E-03-4.24826E-04-1.48022E-01-2.46279E-14 1.81718E-13
 -1      1992 2.04578E+01-6.28533E-03-9.32815E-04-1.15225E-01-1.06901E-14 2.43809E-13
 -1      1993 2.04129E+01-1.15279E-03-1.04447E-04-1.17523E-01 2.84662E-14 2.56473E-13
 -1      1994 2.03541E+01 1.13484E-05-2.94927E-04-1.54416E-01-8.26631E-15 2.91794E-13
 -1      1995 2.05343E+01-2.03079E-02-2.02688E-03-9.66357E-02 2.29021E-15 1.23262E-13
 -1      1996 2.04969E+01-1.22865E-02-3.70625E-04-1.06825E-01-4.01931E-14 1.71942E-13
 -1      1997 2.04329E+01-1.56450E-02-2.66772E-05-1.46154E-01 4.63892E-15 2.77411E-13
 -1      1998 2.05899E+01-4.00244E-02-3.41234E-03-5.36527E-02-2.17250E-14 2.63677E-13
 -1      1999 2.05691E+01-2.89659E-02-7.37839E-04-7.52516E-02 4.32328E-14 2.20651E-13
 -1      2000 2.05076E+01-3.95392E-02 4.25149E-04-1.14130E-01-4.96379E-14 3.01703E-13
 -1      2001 2.06068E+01-6.44979E-02-4.93613E-03 2.14408E-02 2.40671E-15 1.68390E-13
 -1      2002 2.06143E+01-5.10924E-02-1.19060E-03-1.47561E-02-5.09011E-15 1.84538E-13
 -1      2003 2.05677E+01-7.17864E-02 1.10115E-03-4.82543E-02 2.79293E-14 2.42935E-13
 -1      2004 2.05637E+01-9.03848E-02-6.28496E-03 1.33440E-01-6.43847E-14 1.10626E-13
 -1      2005 2.06126E+01-7.67094E-02-1.69083E-03 8.11137E-02 7.97040E-15 1.49223E-13
 -1      2006 2.05989E+01-1.09934E-01 2.01561E-03 6.04029E-02 4.93722E-14 1.15428E-13
 -1      2007 2.04386E+01-1.11059E-01-6.98389E-03 2.80153E-01-1.30490E-14 1.66959E-13
 -1      2008 2.05411E+01-1.00983E-01-2.17102E-03 2.13730E-01-6.70861E-14 1.32440E-13
 -1      2009 2.05830E+01-1.47453E-01 3.11464E-03 2.15781E-01-8.03903E-14 1.70532E-13
 -1      2010 2.02148E+01-1.16677E-01-6.48822E-03 4.47611E-01-1.30104E-13 3.13378E-13
 -1      2011 2.03779E+01-1.15641E-01-2.52019E-03 3.74736E-01-6.07036E-14 2.15003E-13
 -1      2012 2.05005E+01-1.72780E-01 4.21198E-03 4.11391E-01-8.52859E-14 2.36144E-13
 -1      2013 1.98883E+01-9.63335E-02-4.41011E-03 6.06600E-01-4.94700E-14 2.99879E-13
 -1      2014 2.01090E+01-1.09893E-01-2.56360E-03 5.41632E-01-3.69149E-14 3.03808E-13
 -1      2015 2.03340E+01-1.70307E-01 4.92224E-03 6.24463E-01-8.11794E-14 2.33385E-13
 -1      2016 1.94774E+01-4.30456E-02-8.35278E-04 7.14094E-01 7.59148E-14 2.65996E-13
 -1      2017 1.97382E+01-7.39300E-02-2.04183E-03 6.76591E-01-4.12777E-15 3.27473E-13
 -1      2018 2.00770E+01-1.24950E-01 4.65820E-03 8.12781E-01-3.79015E-14 1.71917E-13
 -1      2019 1.90285E+01 3.95865E-02 3.44640E-03 7.23197E-01-2.53591E-14 3.96942E-13
 -1      2020 1.92962E+01-5.06528E-03-6.55609E-04 7.32488E-01 7.43724E-14 3.94846E-13
 -1      2021 1.97428E+01-3.05318E-02 2.84016E-03 9.18985E-01-1.54980E-14 4.07931E-13
 -1      2022 1.86141E+01 1.33070E-01 7.08327E-03 6.01823E-01-5.89849E-15 4.27921E-13
 -1      2023 1.88447E+01 8.60349E-02 1.75122E-03 6.68318E-01-2.75010E-14 3.81235E-13
 -1      2024 1.93728E+01 1.01036E-01-6.64930E-04 8.86380E-01-3.23936E-14 4.46638E-13
 -1      2025 1.83178E+01 2.07462E-01 8.79864E-03 3.53268E-01 1.21078E-13 4.82971E-13
 -1      2026 1.84673E+01 1.74189E-01 4.94164E-03 4.70418E-01-3.47335E-15 4.60755E-13
 -1      2027 1.90356E+01 2.36534E-01-5.04546E-03 6.84574E-01 6.73940E-16 4.33394E-13
 -1      2028 1.82078E+01 2.34343E-01 8.13593E-03 2.54240E-02 2.05695E-13 3.48846E-13
 -1      2029 1.82456E+01 2.28060E-01 8.01826E-03 1.68182E-01 2.16584E-13 4.92820E-13
 -1      2030 1.88100E+01 3.31083E-01-8.50330E-03 3.33641E-01 1.79618E-13 4.64082E-13
 -1      2031 1.83094E+01 2.02513E-01 5.72291E-03-3.02163E-01 1.11022E-14 3.79525E-13
 -1      2032 1.82295E+01 2.25997E-01 9.71062E-03-1.69109E-01 8.11434E-14 4.06803E-13
 -1      2033 1.87547E+01 3.48627E-01-9.32273E-03-9.11581E-02 1.17760E-13 4.17088E-13
 -1      2034 1.85929E+01 1.24676E-01 2.75661E-03-5.49498E-01-7.16489E-14 3.33221E-13
 -1      2035 1.84161E+01 1.68544E-01 9.02374E-03-4.57549E-01-1.03667E-14 3.45765E-13
 -1      2036 1.88814E+01 2.81726E-01-7.05624E-03-4.84130E-01 4.09707E-14 5.41103E-13
 -1      2037 1.89856E+01 3.00362E-02 2.67570E-04-6.67830E-01 8.38088E-15 2.03571E-13
 -1      2038 1.87520E+01 7.82203E-02 5.94913E-03-6.32577E-01-1.15512E-13 2.07036E-13
 -1      2039 1.91486E+01 1.55876E-01-2.93083E-03-7.52067E-01-3.65652E-14 3.04637E-13
 -1      2040 1.93996E+01-5.15775E-02-1.31067E-03-6.53488E-01 6.00514E-14 1.69453E-13
 -1      2041 1.91556E+01-1.34129E-02 1.54547E-03-6.71665E-01 8.75500E-14 2.17334E-13
 -1      2042 1.94811E+01 1.53149E-02 1.09892E-03-8.49860E-01 4.01571E-14 9.08598E-14
 -1      2043 1.97611E+01-1.02284E-01-2.00422E-03-5.39297E-01 1.13798E-15 8.96475E-14
 -1      2044 1.95462E+01-8.13729E-02-2.68658E-03-5.94407E-01 2.15019E-14 1.41989E-13
 -1      2045 1.98020E+01-9.89942E-02 3.72945E-03-7.88972E-01 3.56365E-14 3.68108E-14
 -1      2046 2.00263E+01-1.18929E-01-2.04314E-03-3.74068E-01 3.34207E-13-2.06217E-13
 -1      2047 1.98648E+01-1.15180E-01-5.60808E-03-4.45280E-01 2.11725E-13-1.06202E-13
 -1      2048 2.00568E+01-1.64909E-01 4.67798E-03-6.19746E-01 1.73359E-13-1.44964E-13
 -1      2049 2.01825E+01-1.08444E-01-1.64324E-03-2.03714E-01 3.48487E-13-4.76984E-13
 -1      2050 2.00826E+01-1.17388E-01-6.80703E-03-2.72932E-01 3.43847E-13-2.86539E-13
 -1      2051 2.02209E+01-1.80929E-01 4.34996E-03-4.04527E-01 3.94280E-13-2.37576E-13
 -1      2052 2.02411E+01-8.12895E-02-9.62256E-04-6.09758E-02 2.47944E-13-4.53295E-13
 -1      2053 2.01972E+01-9.74100E-02-6.50506E-03-1.16085E-01 2.42046E-13-4.61709E-13
 -1      2054 2.02952E+01-1.58750E-01 3.34305E-03-1.96801E-01 2.46977E-13-4.06848E-13
 -1      2055 2.02274E+01-4.67953E-02-1.29634E-04 3.63527E-02-2.47504E-14-2.42584E-13
 -1      2056 2.02252E+01-6.55671E-02-5.25314E-03 1.45121E-03 1.65984E-13-3.89556E-13
 -1      2057 2.02962E+01-1.14005E-01 2.13007E-03-3.18848E-02 1.22241E-13-1.97474E-13
 -1      2058 2.01714E+01-1.20010E-02 6.60299E-04 8.25280E-02-1.00632E-13-1.01041E-13
 -1      2059 2.01930E+01-2.99988E-02-3.64452E-03 6.92861E-02-1.23618E-13-1.78980E-13
 -1      2060 2.02474E+01-6.02105E-02 9.96998E-04 7.29785E-02-8.07945E-14-3.22080E-14
 -1      2061 2.01014E+01 1.79882E-02 1.27084E-03 8.05288E-02-7.47469E-14-5.66965E-14
 -1      2062 2.01300E+01 3.66623E-03-1.97123E-03 8.74252E-02-5.23627E-14-2.75277E-14
 -1      2063 2.01723E+01-7.65423E-03 7.33680E-06 1.14728E-01-9.80989E-14 5.38428E-14
 -1      2064 2.00426E+01 3.03465E-02 8.51156E-04 4.87737E-02-1.38983E-13-3.89072E-14
 -1      2065 2.00677E+01 2.41951E-02-8.37879E-04 6.61490E-02-7.18096E-14-4.93585E-14
 -1      2066 2.01001E+01 2.55253E-02-9.43419E-04 1.01842E-01-2.15309E-13 2.95812E-13
 -1      2067 2.00422E+01 4.43471E-02 5.73711E-05 6.12626E-02-1.95147E-13 4.85599E-13
 -1      2068 2.00721E+01 3.31163E-01 3.64758E-03 2.72259E-01-7.53593E-14 1.09178E-13
 -1      2069 2.00694E+01 2.41095E-01 1.68692E-03 2.31621E-01-2.32056E-13 2.29778E-13
 -1      2070 2.00657E+01 1.90990E-01 3.64776E-03 1.81964E-01-1.23758E-13-2.36399E-15
 -1      2071 2.00588E+01 1.26971E-01 6.28988E-04 1.45845E-01-7.45635E-14-2.79764E-13
 -1      2072 2.00994E+01 1.73816E-01-2.72590E-03 2.62991E-01-8.02763E-14-5.77281E-14
 -1      2073 2.00483E+01 8.22134E-02 2.07502E-03 8.94158E-02-2.57749E-13 3.69912E-14
 -1      2074 2.00662E+01 5.18752E-01 2.57849E-03 3.62454E-01-1.61908E-14-4.42748E-13
 -1      2075 2.00708E+01 4.02645E-01 1.87484E-03 3.23997E-01-6.01471E-14 3.38414E-14
 -1      2076 2.01044E+01 2.96983E-01-2.84005E-03 3.75764E-01-2.73086E-14 5.95417E-14
 -1      2077 2.00409E+01 7.57137E-01 4.58169E-04 4.35568E-01 4.14876E-14-2.62854E-13
 -1      2078 2.00565E+01 6.17230E-01 1.92075E-03 4.07992E-01-9.38323E-15-2.83076E-13
 -1      2079 2.00886E+01 4.67736E-01-2.75606E-03 4.85871E-01 2.97407E-14-2.99003E-13
 -1      2080 1.99937E+01 1.02571E+00-2.54273E-03 4.62683E-01 2.10179E-14 1.57426E-13
 -1      2081 2.00209E+01 8.77563E-01 1.48485E-03 4.58897E-01 4.90343E-14-1.83675E-13
 -1      2082 2.00426E+01 6.87334E-01-2.06976E-03 5.64767E-01 1.24654E-13-2.96767E-13
 -1      2083 1.99292E+01 1.29141E+00-5.78190E-03 4.17379E-01-2.62808E-14 3.76107E-13
 -1      2084 1.99645E+01 1.15636E+00 4.03316E-04 4.48153E-01-1.04269E-13 3.40694E-13
 -1      2085 1.99660E+01 9.38698E-01-3.98204E-04 5.76845E-01 7.52358E-14 3.36614E-13
 -1      2086 1.98601E+01 1.50870E+00-8.39574E-03 2.84071E-01-7.80049E-14 2.02486E-15
 -1      2087 1.98959E+01 1.41250E+00-1.33197E-03 3.54027E-01-5.69896E-14 2.75834E-13
 -1      2088 1.98685E+01 1.19020E+00 2.13268E-03 4.91667E-01-2.35578E-13 3.34446E-13
 -1      2089 1.98064E+01 1.62823E+00-9.38932E-03 6.82129E-02-1.58132E-13-8.07843E-14
 -1      2090 1.98316E+01 1.59520E+00-3.48580E-03 1.71628E-01-2.16867E-13-5.12871E-14
 -1      2091 1.97720E+01 1.39707E+00 4.99057E-03 2.95826E-01-2.99714E-13-3.67970E-14
 -1      2092 1.97899E+01 1.61218E+00-8.07993E-03-1.92547E-01-1.74373E-13 6.59113E-14
 -1      2093 1.97931E+01 1.65601E+00-5.64200E-03-7.60136E-02-2.54862E-13 1.64454E-13
 -1      2094 1.97067E+01 1.51007E+00 7.34810E-03 7.73802E-03-2.75826E-13-3.82637E-15
 -1      2095 1.98263E+01 1.44528E+00-4.70725E-03-4.49283E-01 6.56263E-14 1.56086E-13
 -1      2096 1.98006E+01 1.56720E+00-7.04804E-03-3.43613E-01-8.60608E-14 3.11718E-13
 -1      2097 1.97019E+01 1.49257E+00 8.37043E-03-3.24987E-01-2.04874E-13 1.97846E-13
 -1      2098 1.99222E+01 1.14611E+00 2.37096E-04-6.25408E-01 3.35647E-13 1.44849E-13
 -1      2099 1.98659E+01 1.32681E+00-7.19600E-03-5.65533E-01 2.64619E-13-1.00724E-13
 -1      2100 1.97768E+01 1.32904E+00 6.99784E-03-6.27685E-01 7.30663E-14 1.41072E-13
 -1      2101 2.00590E+01 7.71271E-01 5.75359E-03-6.55934E-01 2.19068E-13 2.18631E-13
 -1      2102 1.99841E+01 9.73808E-01-5.91036E-03-6.65968E-01 2.32936E-13 3.71629E-13
 -1      2103 1.99395E+01 1.03964E+00 5.70645E-03-8.08598E-01 1.62414E-13 2.29761E-13
 -1      2104 1.97247E+01 1.78597E-01 1.26165E-02 3.27209E-01 9.15969E-14 4.23068E-13
 -1      2105 1.99796E+01 2.56110E-01 1.69776E-02 5.05318E-01 1.01185E-13 4.82140E-13
 -1      2106 2.01770E+01 4.15272E-01-3.91273E-04 7.32416E-01 1.23708E-13 3.75778E-13
 -1      2107 1.99070E+01 2.63772E-01-3.77697E-03 4.03387E-01 1.00610E-13 3.07207E-13
 -1      2108 1.20401E+01-4.96431E+00-1.06779E-01 7.36512E+00 2.83107E-14-6.95902E-14
 -1      2109 8.55127E+00-6.24856E+00-1.92066E-01 6.64860E+00-1.46994E-13 1.98383E-13
 -1      2110 2.87354E+01-4.79992E-01 3.89316E-02 5.82596E+00 2.08167E-15-4.53748E-13
 -1      2111 2.37844E+01-1.81947E+00-1.19550E-01 6.48718E+00 1.86073E-13-4.62075E-13
 -1      2112 6.53315E-01-6.56947E+00-2.34193E-01 1.99905E+00-8.55704E-14-9.80327E-14
 -1      2113 2.86613E-01-7.09901E+00-3.24935E-01 3.18155E-01 2.64302E-14-2.58960E-13
 -1      2114 2.05424E+01-2.53044E+00 4.66029E-02 7.59833E+00 2.07057E-13-6.02629E-13
 -1      2115 1.60285E+01-4.58942E+00-2.58842E-01 6.92150E+00 1.44551E-13-2.78250E-13
 -1      2116 2.42900E+01-3.87483E+00 7.88271E-02 6.15952E+00 1.42553E-13-4.90802E-13
 -1      2117 1.95188E+01 4.01559E+00-2.70288E-02-1.70281E+00-2.63773E-14-2.95139E-13
 -1      2118 1.96468E+01 3.94590E+00-2.46218E-02-1.95436E+00-5.58702E-14-2.80775E-13
 -1      2119 1.99720E+01 3.24685E+00-1.37561E-02-1.91863E+00-6.96383E-14-2.43951E-13
 -1      2120 1.96978E+01 3.58539E+00-7.07699E-03-1.52068E+00-1.89985E-14-2.82482E-13
 -1      2121 3.67834E+01 3.97479E+00 4.11093E-01 4.05743E+00-4.10713E-14-6.71907E-13
 -1      2122 3.23672E+01 1.91477E+00 4.62671E-02 3.97070E+00-6.38309E-14-4.18110E-13
 -1      2123 4.06628E+01 6.25474E+00 3.26265E-01 2.17547E+00 2.05724E-13-7.79654E-13
 -1      2124 3.78583E+01 5.26521E+00 1.36212E-01 3.22146E+00 1.31450E-13-6.83675E-13
 -1      2125 3.50851E+01 4.18642E+00 2.18593E-01 7.98997E-01 8.10463E-15-6.89060E-13
 -1      2126 4.00636E+01 7.96784E+00 1.51942E-01-1.52682E-01 3.44891E-13-5.84269E-13
 -1      2127 4.12847E+01 7.51307E+00 4.11961E-01 1.23757E+00 2.13496E-13-5.55223E-13
 -1      2128 4.04962E+01 6.95355E+00 3.60726E-01-1.98803E+00 3.61822E-13-6.04017E-13
 -1      2129 4.04455E+01 7.63498E+00 1.90819E-01-4.79324E-01 3.93463E-13-4.55719E-13
 -1      2130 3.61629E+01 4.32556E+00 1.36875E-01-3.95267E+00 2.72532E-13-5.91416E-13
 -1      2131 3.91727E+01 5.44123E+00 2.97939E-01-2.90358E+00 2.66259E-13-5.91249E-13
 -1      2132 3.00481E+01 1.02359E+00-3.34826E-02-5.20601E+00 1.21014E-13-6.84564E-13
 -1      2133 3.46425E+01 2.93575E+00 3.26620E-01-5.17253E+00 2.23946E-13-6.13953E-13
 -1      2134 3.42659E+01 2.84404E+00 2.39404E-01-1.81806E+00 1.22111E-13-3.69815E-13
 -1      2135 2.26274E+01-2.95481E+00-1.21755E-01-6.40983E+00-2.02449E-13-7.53286E-13
 -1      2136 2.72056E+01-8.29752E-01 1.60024E-01-6.58715E+00-9.42579E-14-8.37941E-13
 -1      2137 1.32282E+01-5.40758E+00-2.45248E-01-7.02859E+00-3.36398E-14-4.39954E-13
 -1      2138 1.79926E+01-3.70075E+00-1.41707E-02-7.75189E+00 3.56937E-14-6.31550E-13
 -1      2139 5.46190E+00-6.83274E+00-3.48068E-01-5.66471E+00-1.50380E-13-3.74811E-13
 -1      2140 9.10616E+00-5.16135E+00-7.55357E-02-7.13991E+00-5.97855E-14-5.48186E-13
 -1      2141 1.30417E+00-7.13228E+00-3.20790E-01-3.32475E+00 1.74305E-14 6.04516E-14
 -1      2142 3.05859E+00-6.43256E+00-2.13456E-01-4.70094E+00-9.20375E-14-9.62008E-14
 -1      2143 6.28967E+00-4.72857E+00-6.26202E-02-6.33820E+00 8.15459E-14-3.44891E-13
 -1      2144 1.36494E-01-7.94913E+00-4.29369E-01 3.11557E-01 6.43929E-15 2.48690E-13
 -1      2145-8.26003E-02-7.44386E+00-3.63527E-01-1.17040E+00-5.17364E-14 2.80387E-13
 -1      2146 3.41193E+00-7.16455E+00-3.78320E-01 3.45361E+00 1.22680E-13 4.54137E-13
 -1      2147 1.12233E+00-8.34645E+00-5.49617E-01 1.75939E+00 3.34177E-14 4.22717E-13
 -1      2148 1.98831E+00-5.16586E+00-2.02802E-01 1.66933E+00 4.87943E-14 4.18443E-13
 -1      2149 1.11277E+01-6.46101E+00-3.07483E-01 5.62184E+00 1.82965E-13 2.76730E-13
 -1      2150 7.44677E+00-7.50581E+00-4.00417E-01 4.76225E+00 1.63203E-13 1.33615E-13
 -1      2151 2.16231E+01-5.01263E+00-1.12751E-01 5.95828E+00 1.44884E-13 3.00593E-13
 -1      2152 1.57078E+01-6.64248E+00-4.61453E-01 5.29528E+00 1.62093E-13 2.81414E-13
 -1      2153 3.26462E+01-2.04210E+00 1.43105E-01 4.01372E+00 2.32370E-13-3.05311E-14
 -1      2154 2.67636E+01-4.11590E+00-2.57908E-01 3.92399E+00 1.68199E-13 1.15019E-13
 -1      2155 4.52732E+01 5.75782E+00 7.72950E-01-1.56624E-01 3.29403E-13-2.83162E-13
 -1      2156 4.08895E+01 4.25371E+00 2.18876E-01-5.07588E-01 2.42473E-13-2.42029E-14
 -1      2157 4.35630E+01 5.02317E+00 5.25454E-01-5.88740E-01-1.48992E-13-3.27849E-13
 -1      2158 4.47987E+01 6.15265E+00 5.90369E-01 1.78511E-01-7.66054E-15-4.28657E-13
 -1      2159 3.83057E+01 1.73704E+00 1.46948E-01-1.71506E+00 2.16015E-13-3.05977E-13
 -1      2160 4.29271E+01 3.40602E+00 5.96664E-01-1.28008E+00-6.96943E-14-3.11084E-13
 -1      2161 3.98588E+01 3.86826E+00 4.03606E-01 1.56858E+00-1.15463E-13-7.07767E-14
 -1      2162 3.02871E+01-2.46424E+00-1.60626E-01-3.71780E+00 2.12996E-13 3.11973E-14
 -1      2163 3.55868E+01-7.70237E-01 2.00545E-01-3.28071E+00 2.77528E-13-8.27116E-14
 -1      2164 2.07365E+01-5.09274E+00-4.34531E-01-5.21818E+00-1.66644E-13-3.48999E-13
 -1      2165 2.65142E+01-3.22323E+00 4.49051E-02-5.56838E+00 7.68274E-14-1.77969E-13
 -1      2166 1.23827E+01-7.03470E+00-4.43670E-01-5.32869E+00 6.81677E-14-1.19196E-13
 -1      2167 1.70918E+01-5.49949E+00-1.49207E-01-6.24526E+00-2.13163E-13-3.18773E-13
 -1      2168 4.75235E+00-8.11998E+00-5.13736E-01-3.88528E+00 2.50133E-13 2.16521E-13
 -1      2169 8.01547E+00-6.84501E+00-3.22397E-01-5.12608E+00 1.96176E-13 2.24543E-13
 -1      2170 9.33043E-01-7.64001E+00-3.64222E-01-1.53398E+00 5.61218E-14-2.35367E-14
 -1      2171 2.47429E+00-7.50131E+00-3.49946E-01-2.88304E+00 1.49214E-13-5.51781E-14
 -1      2172 4.54959E+00-6.00297E+00-1.87926E-01 5.54710E+00-5.58442E-14 2.25431E-13
 -1      2173 1.90723E+00-7.23980E+00-3.68215E-01 3.76630E+00 2.98650E-14 8.53206E-14
 -1      2174 3.40926E+01 1.41378E+00-5.92423E-02-3.71402E+00 4.54359E-13-5.67324E-14
 -1      2175 3.46039E+01 5.17642E+00-4.31434E-02-9.11961E-01 3.00093E-13-2.22461E-14
 -1      2176 2.07356E+01 1.10844E+00-2.07518E-02-1.61600E+00-1.34236E-13-8.65558E-14
 -1      2177 3.46838E+01 3.47475E+00-6.81963E-02 3.06207E+00-1.52878E-13-1.76220E-13
 -1      2178 1.65837E+01-5.50171E+00-7.97950E-02 7.59731E+00-1.44440E-13-1.94122E-13
 -1      2179 3.16254E+01-9.47881E-02-1.38108E-01 1.23966E+00-5.72320E-14-5.54223E-13
 -1      2180 3.09266E+01-1.83231E-01 8.01912E-02 3.76833E+00-6.49897E-14-4.86944E-13
 -1      2181 2.91995E+01-2.16462E+00 1.18991E-01 3.28480E+00-1.69031E-14-6.38517E-13
 -1      2182 2.06263E+01 1.33014E+00-1.86201E-02-1.67793E+00-1.28913E-13-1.19977E-13
 -1      2183 3.27066E+01-1.45456E+00-1.57522E-01 3.67029E+00-8.95395E-14 1.15796E-13
 -1      2184 2.97688E+01-3.46463E+00-5.62185E-02 6.85627E-01-1.23183E-13 9.52294E-14
 -1      2185 2.02289E+01 3.77789E-01 1.53928E-03-5.43331E-01-3.08139E-14-1.90318E-13
 -1      2186 2.00835E+01 8.33371E-02 7.96372E-04 1.45053E-01-2.17732E-13 1.54728E-13
 -1      2187 2.80379E+00-4.32114E+00-7.87545E-02 3.37295E+00-5.44564E-14 3.99680E-15
 -1      2188 2.01856E+01 5.32131E-01-4.56165E-04-6.22477E-01 6.93274E-14 3.83558E-15
 -1      2189 1.11358E+01-5.03093E+00-7.75327E-02 7.55017E+00-3.18245E-13 8.05467E-14
 -1      2190 7.75515E+00-5.62219E+00-1.11437E-01 6.56120E+00-1.74638E-13 2.69368E-13
 -1      2191 7.57190E+00-3.96878E+00 1.58468E-01 6.57933E+00-1.89598E-13 5.49005E-14
 -1      2192 2.11649E+00-4.48998E+00-1.45435E-01-9.90003E-01 1.36210E-14-1.36835E-13
 -1      2193 5.55146E+00-5.91752E+00-2.32155E-01-4.57097E+00 1.62093E-14 1.21458E-13
 -1      2194 1.30810E+01-6.59479E+00-1.15884E-01-6.29288E+00 4.65183E-14 8.62366E-14
 -1      2195 2.17742E+01-6.63516E+00-2.05992E-01-5.36594E+00-1.90292E-13-2.65593E-13
 -1      2196 3.66119E+01-6.28806E-01 1.55441E-01 3.85149E-01 1.34483E-13-1.29008E-13
 -1      2197 2.67271E+01-5.82207E+00 4.11603E-02 3.90088E+00 1.87017E-13 1.58318E-13
 -1      2198 6.84949E+00-6.39316E+00-2.09375E-01 4.65411E+00 1.16795E-13 1.83104E-13
 -1      2199 6.57472E+00-4.32243E+00 9.23300E-02 4.70612E+00 9.80327E-14 2.66398E-13
 -1      2200 1.04056E+01-5.50231E+00-1.46971E-01 5.99200E+00 2.14773E-13 2.33702E-13
 -1      2201 1.98905E+00-4.63523E+00-1.42273E-01-2.73682E+00 1.64257E-13 1.57097E-13
 -1      2202 1.31444E+01-5.35776E+00-1.94781E-02-7.67923E+00 1.52656E-14-5.38930E-13
 -1      2203 2.96891E+01-1.38059E+00 9.30968E-02-3.99748E+00-4.75175E-14-5.94025E-13
 -1      2204 3.66553E+01 6.44248E+00 2.93991E-01-4.68494E-01 2.26430E-13-3.28959E-13
 -1      2205 3.66735E+01 7.53840E+00 3.03334E-01 7.69779E-02 1.75637E-13-6.45262E-13
 -1      2206 3.81028E+01 8.18448E+00 2.06005E-01-1.08664E-01 2.60236E-13-1.93387E-13
 -1      2207 3.40735E+01 8.47074E+00-7.85996E-02 2.81279E-02 4.62963E-14-8.95464E-15
 -1      2208 3.45488E+01 8.16868E+00-4.15594E-03 1.40721E-01 2.28040E-13 1.07747E-13
 -1      2209 2.22282E+01-4.48195E+00 2.88459E-02-6.69083E+00-6.62248E-14-6.77625E-13
 -1      2210 1.65928E+01-6.66960E+00-8.08134E-02 6.07744E+00 3.08586E-13 3.12085E-13
 -1      2211 3.95760E+01 1.34084E+00 2.41456E-01 8.90371E-01 1.77497E-13 1.36557E-14
 -1      2212 3.53732E+01-3.19386E-01 5.74988E-02 2.34522E+00 2.57350E-13 9.65894E-14
 -1      2213 4.18775E+01 6.86488E+00 5.86470E-01 9.15002E-01-2.37588E-14-3.60101E-13
 -1      2214 4.66556E+01 7.00814E+00 7.37954E-01-2.55393E-01 1.15130E-13-5.94136E-13
 -1      2215 4.74275E+01 6.98068E+00 8.59545E-01 3.85767E-01 1.37890E-13-5.68739E-13
 -1      2216 3.02425E+01-4.51686E+00 1.10368E-01-3.00384E+00-3.03091E-14 7.23310E-14
 -1      2217 2.02104E+01 6.26500E-01 4.99585E-03-8.29737E-01-6.78008E-14-2.41890E-14
 -1      2218 3.82911E+01 2.17926E+00 2.15679E-01-1.72058E+00 3.26295E-13 5.21250E-14
 -1      2219 3.41999E+01-2.69577E+00 7.85235E-02 3.19930E-01 2.47358E-13-1.22680E-14
 -1      2220 4.11741E+01 6.76479E+00 4.96928E-01-1.11379E+00 3.77698E-13-3.76976E-13
 -1      2221 1.95605E+01 3.51624E+00-1.10778E-02-5.91569E-01 6.84428E-14-2.19984E-13
 -1      2222 1.95960E+01 3.47035E+00-1.04302E-02-7.75954E-01 3.89180E-14-2.49101E-13
 -1      2223 1.96426E+01 3.38220E+00-1.26705E-02-9.40298E-01 3.11902E-14-2.62594E-13
 -1      2224 1.97039E+01 3.30158E+00-1.24806E-02-1.12973E+00 4.77537E-15-2.64223E-13
 -1      2225 1.97873E+01 3.03358E+00 3.54954E-04-7.92285E-01 3.67143E-14-2.34182E-13
 -1      2226 1.95132E+01 3.59873E+00-9.61993E-03 9.94839E-02 1.36260E-13-1.75145E-13
 -1      2227 1.95126E+01 3.59955E+00-9.62282E-03-8.00481E-02 1.23020E-13-1.82939E-13
 -1      2228 1.95393E+01 3.55931E+00-9.72530E-03 4.45629E-01 1.62619E-13-1.53927E-13
 -1      2229 1.95219E+01 3.58189E+00-1.01408E-02 2.64752E-01 1.44065E-13-1.67481E-13
 -1      2230 1.96794E+01 3.22148E+00-8.99235E-04 1.69647E-01 1.32166E-13-1.63880E-13
 -1      2231 1.96011E+01 3.46272E+00-1.06235E-02 7.89698E-01 1.82882E-13-1.36454E-13
 -1      2232 1.95649E+01 3.50978E+00-1.12157E-02 6.08204E-01 1.69909E-13-1.51818E-13
 -1      2233 1.97162E+01 3.15797E+00-5.03554E-04 4.88168E-01 1.62022E-13-1.47353E-13
 -1      2234 1.97118E+01 3.28885E+00-1.29539E-02 1.14312E+00 2.18164E-13-6.19314E-14
 -1      2235 1.96491E+01 3.37229E+00-1.28937E-02 9.53765E-01 1.94443E-13-9.75444E-14
 -1      2236 1.97932E+01 3.02434E+00 2.71147E-04 8.03894E-01 1.84894E-13-1.02702E-13
 -1      2237 1.98911E+01 3.00304E+00-1.81511E-02 1.49017E+00 2.31114E-13-3.72879E-15
 -1      2238 1.97915E+01 3.14416E+00-1.52676E-02 1.29989E+00 2.16439E-13-4.58626E-14
 -1      2239 1.99226E+01 2.79912E+00 2.02718E-03 1.10999E+00 2.09848E-13-4.69945E-14
 -1      2240 2.01673E+01 2.53716E+00-2.87172E-02 1.78669E+00 2.15718E-13 7.55403E-14
 -1      2241 2.00147E+01 2.78343E+00-1.80982E-02 1.62224E+00 2.27182E-13 2.14186E-14
 -1      2242 2.01175E+01 2.44789E+00 5.83527E-03 1.37803E+00 2.12196E-13 6.17388E-15
 -1      2243 2.05845E+01 1.79489E+00-2.65798E-02 1.89104E+00 1.80049E-13 2.18261E-13
 -1      2244 2.03636E+01 2.22505E+00-1.08107E-02 1.85335E+00 1.97341E-13 1.32979E-13
 -1      2245 2.03880E+01 1.91173E+00 1.40469E-02 1.53258E+00 1.74945E-13 9.62511E-14
 -1      2246 2.07914E+01 1.06701E+00-1.78378E-02 1.59094E+00 1.45536E-13 3.64923E-13
 -1      2247 2.06779E+01 1.53573E+00 8.82575E-04 1.79217E+00 1.67220E-13 2.88311E-13
 -1      2248 2.05037E+01 1.27986E+00 4.42762E-04 1.42086E+00 1.53114E-13 2.15066E-13
 -1      2249 2.04488E+01 7.43419E-01-1.85669E-03 1.11178E+00 1.31417E-13 3.35778E-13
 -1      2250 2.04016E+01 8.54542E-01 1.30458E-02-1.00031E+00-9.53048E-14-1.31108E-13
 -1      2251 2.01894E+01 6.26354E-01-4.80891E-03-6.91708E-01-9.65989E-14-1.26475E-13
 -1      2252 2.01244E+01 4.69519E-01 1.62371E-02-4.75491E-01-9.87543E-14-9.36026E-14
 -1      2253 1.99829E+01 3.44559E-01 2.69577E-05-3.03859E-01-8.29935E-14-1.00259E-13
 -1      2254 2.02436E+01 7.46234E-01-1.88120E-03-6.94201E-01-8.94536E-14-1.37451E-13
 -1      2255 1.99197E+01 2.59532E-01 1.08924E-02-1.66299E-01-9.19488E-14-6.95703E-14
 -1      2256 1.98409E+01 1.88031E-01 7.14153E-04-6.90969E-02-8.67869E-14-9.49648E-14
 -1      2257 2.00800E+01 4.16475E-01-3.64049E-03-3.10591E-01-7.66381E-14-1.08220E-13
 -1      2258 1.97966E+01 1.38579E-01 6.39616E-03 1.29706E-02-7.33776E-14-1.06272E-13
 -1      2259 1.97615E+01 9.62938E-02 7.25171E-04 6.62968E-02-5.09847E-14-1.15831E-13
 -1      2260 1.99594E+01 2.27273E-01-3.62300E-03-7.16727E-02-9.07219E-14-1.02274E-13
 -1      2261 1.97357E+01 6.64487E-02 3.58261E-03 1.12071E-01-5.51418E-14-1.44093E-13
 -1      2262 1.97284E+01 4.09802E-02 6.20169E-04 1.38706E-01-7.61202E-14-1.59774E-13
 -1      2263 1.98837E+01 1.14998E-01-2.93587E-03 6.91241E-02-8.84908E-14-1.40033E-13
 -1      2264 1.97168E+01 2.29133E-02 1.88503E-03 1.61066E-01-1.09738E-13-1.37871E-13
 -1      2265 1.97261E+01 7.59089E-03 4.74504E-04 1.71431E-01-1.01495E-13-1.52638E-13
 -1      2266 1.98443E+01 4.70314E-02-2.13805E-03 1.45556E-01-9.52090E-14-1.18528E-13
 -1      2267 1.97246E+01-3.49422E-03 8.29870E-04 1.79199E-01-6.88137E-14-1.11198E-13
 -1      2268 1.97440E+01-1.23406E-02 3.69294E-04 1.79540E-01-5.31884E-14-7.50145E-14
 -1      2269 1.98305E+01 5.96673E-03-1.38278E-03 1.80896E-01-7.52898E-14-4.71845E-14
 -1      2270 1.97487E+01-1.78000E-02 1.48759E-04 1.77921E-01-7.58274E-14-6.96701E-14
 -1      2271 1.97715E+01-2.17913E-02 3.27544E-04 1.72724E-01-3.98984E-14-5.60854E-14
 -1      2272 1.98341E+01-1.77797E-02-9.27962E-04 1.89855E-01-4.39304E-14 2.24031E-14
 -1      2273 1.97798E+01-2.42531E-02-2.42235E-04 1.66508E-01-2.16777E-14-5.63929E-14
 -1      2274 1.98039E+01-2.52689E-02 2.91467E-04 1.58796E-01 1.09109E-14-7.99917E-14
 -1      2275 1.98479E+01-2.89870E-02-5.72218E-04 1.83434E-01-5.77360E-14-5.99038E-15
 -1      2276 1.98141E+01-2.55415E-02-4.40138E-04 1.50617E-01 1.82736E-14-9.56050E-14
 -1      2277 1.98378E+01-2.45866E-02 2.83045E-04 1.42342E-01 1.41001E-14-6.48688E-14
 -1      2278 1.98673E+01-3.26061E-02-3.41707E-04 1.69507E-01-4.16761E-16-7.52159E-14
 -1      2279 1.98489E+01-2.33210E-02-5.25663E-04 1.34097E-01 1.24581E-14-1.11073E-13
 -1      2280 1.98717E+01-2.09692E-02 3.12032E-04 1.26620E-01 5.62717E-14-8.92063E-14
 -1      2281 1.98895E+01-3.09793E-02-2.04273E-04 1.53088E-01-1.40653E-14-5.58987E-14
 -1      2282 1.98831E+01-1.85711E-02-5.39421E-04 1.19675E-01 3.91393E-14-1.18282E-13
 -1      2283 1.99049E+01-1.51472E-02 3.81849E-04 1.13995E-01 3.12786E-15-1.09264E-13
 -1      2284 1.99130E+01-2.56192E-02-1.36225E-04 1.37731E-01 2.92486E-14-1.52209E-13
 -1      2285 1.99165E+01-1.18249E-02-5.10993E-04 1.09392E-01 1.94554E-14-8.53215E-14
 -1      2286 1.99378E+01-7.45034E-03 4.98541E-04 1.06320E-01 5.13719E-14-9.23187E-14
 -1      2287 1.99372E+01-1.73895E-02-1.19947E-04 1.26059E-01 3.74834E-14-1.54940E-13
 -1      2288 1.99499E+01-3.24411E-03-4.62060E-04 1.04947E-01 1.56480E-14-1.10785E-13
 -1      2289 1.99717E+01 2.14207E-03 6.72188E-04 1.05247E-01-6.34278E-15-1.18107E-13
 -1      2290 1.99621E+01-6.63269E-03-1.41982E-04 1.20165E-01-2.29991E-15-1.55639E-13
 -1      2291 1.99845E+01 7.35156E-03-4.09751E-04 1.07985E-01 1.58176E-14-1.05110E-13
 -1      2292 2.00081E+01 1.39933E-02 9.17929E-04 1.12501E-01 1.00865E-14-1.11960E-13
 -1      2293 1.99883E+01 6.77314E-03-1.91258E-04 1.21954E-01-2.96675E-15-2.01497E-13
 -1      2294 2.00222E+01 2.04947E-02-3.69690E-04 1.20358E-01 2.09400E-14-7.58009E-14
 -1      2295 2.00492E+01 2.88430E-02 1.25827E-03 1.30150E-01 6.68061E-14-1.00408E-13
 -1      2296 2.00167E+01 2.34134E-02-2.57115E-04 1.33434E-01 3.95323E-14-1.14960E-13
 -1      2297 2.00651E+01 3.71275E-02-3.57272E-04 1.44412E-01 3.74631E-14-1.14180E-13
 -1      2298 2.00978E+01 4.79380E-02 1.78461E-03 1.60871E-01-3.22041E-14-1.52235E-13
 -1      2299 2.00486E+01 4.43946E-02-3.28380E-04 1.56999E-01-1.33649E-14-1.30280E-13
 -1      2300 2.01170E+01 5.93400E-02-4.16629E-04 1.84460E-01-6.46717E-14-1.15165E-13
 -1      2301 2.01599E+01 7.43957E-02 2.44547E-03 2.11314E-01-8.97278E-15-1.02619E-13
 -1      2302 2.00861E+01 7.20592E-02-4.62289E-04 1.97014E-01-6.83510E-15-1.61348E-13
 -1      2303 2.01807E+01 8.89576E-02-5.09357E-04 2.44684E-01-8.94585E-14-1.18991E-13
 -1      2304 2.02333E+01 1.08301E-01 3.24187E-03 2.81959E-01-8.53115E-14-1.40475E-13
 -1      2305 2.01298E+01 1.09136E-01-3.89793E-04 2.57271E-01-7.96650E-14-3.49612E-15
 -1      2306 2.02564E+01 1.28071E-01-7.61135E-04 3.29035E-01-7.49845E-15-2.06735E-13
 -1      2307 2.03243E+01 1.54419E-01 4.38372E-03 3.81740E-01-2.56095E-14-1.57903E-13
 -1      2308 2.01787E+01 1.57668E-01-2.80606E-04 3.41504E-01-1.17883E-13-7.09768E-14
 -1      2309 2.03484E+01 1.81333E-01-1.18809E-03 4.46769E-01-1.68292E-14-2.29262E-13
 -1      2310 2.04360E+01 2.17193E-01 5.85783E-03 5.20059E-01 1.02479E-13-1.67923E-13
 -1      2311 2.02331E+01 2.23377E-01 8.13326E-06 4.58242E-01-4.94575E-14-1.67503E-13
 -1      2312 2.04582E+01 2.53653E-01-1.88212E-03 6.08517E-01 1.36338E-13-2.56835E-13
 -1      2313 2.05703E+01 3.01873E-01 7.69839E-03 7.08986E-01 7.27500E-14-1.90741E-13
 -1      2314 2.02901E+01 3.12297E-01 6.03901E-04 6.17017E-01 6.61330E-14-2.30858E-13
 -1      2315 2.05856E+01 3.50226E-01-2.94097E-03 8.27633E-01 6.73088E-14-2.53456E-13
 -1      2316 2.07269E+01 4.13056E-01 9.85892E-03 9.63018E-01 1.24276E-14-1.97140E-13
 -1      2317 2.03430E+01 4.30927E-01 1.66513E-03 8.29605E-01 6.60025E-14-3.95983E-13
 -1      2318 2.07273E+01 4.74157E-01-4.44403E-03 1.11956E+00-1.37531E-14-1.85044E-13
 -1      2319 2.09022E+01 5.50768E-01 1.21445E-02 1.29737E+00-2.61822E-14-2.29597E-13
 -1      2320 2.03802E+01 5.83785E-01 3.33780E-03 1.10955E+00 3.82409E-14-3.95767E-13
 -1      2321 2.08774E+01 6.20344E-01-6.32657E-03 1.49941E+00-1.01186E-14-1.88284E-13
 -1      2322 2.10900E+01 7.01030E-01 1.41781E-02 1.72326E+00 1.00909E-14-1.50191E-13
 -1      2323 2.03836E+01 7.67028E-01 5.61116E-03 1.47064E+00-2.78120E-15-3.27708E-13
 -1      2324 2.10316E+01 7.61669E-01-7.98402E-03 1.97599E+00-2.14069E-14-1.60818E-13
 -1      2325 2.12887E+01 8.15915E-01 1.56106E-02 2.23774E+00-3.21475E-14-1.63811E-13
 -1      2326 2.03323E+01 9.54159E-01 8.00765E-03 1.92392E+00-3.62323E-14-1.80018E-13
 -1      2327 2.12046E+01 8.21775E-01-7.11686E-03 2.53963E+00-2.40261E-14-8.93721E-14
 -1      2328 2.15275E+01 7.77410E-01 1.73659E-02 2.80485E+00-6.75486E-14-9.23791E-14
 -1      2329 2.02148E+01 1.06781E+00 9.15542E-03 2.47289E+00-9.54239E-15-7.00455E-14
 -1      2330 2.14746E+01 6.34944E-01 4.31055E-03 3.14155E+00-1.45155E-13-4.46041E-14
 -1      2331 2.19157E+01 3.36381E-01 1.55439E-02 3.33134E+00-8.97832E-14 3.45918E-14
 -1      2332 2.00647E+01 9.32616E-01 6.12267E-03 3.10600E+00-6.84019E-14-5.56519E-14
 -1      2333 2.21132E+01-1.35532E-01 4.31481E-02 3.63180E+00-1.50094E-13-2.43671E-14
 -1      2334 2.28272E+01-9.18289E-01 2.53167E-02 3.58111E+00-1.91489E-13-4.46353E-14
 -1      2335 2.00681E+01 1.47932E-01-1.50000E-02 3.80910E+00-1.12571E-13-4.49259E-14
 -1      2336 2.36232E+01-1.92297E+00 9.08728E-02 3.64589E+00-1.26180E-13-1.29168E-14
 -1      2337 2.48825E+01-3.06727E+00 3.86621E-02 3.06372E+00-8.03455E-14 1.30590E-14
 -1      2338 2.07388E+01-1.61734E+00-4.02347E-02 4.35987E+00-1.39277E-13-1.77844E-14
 -1      2339 1.98105E+01-5.22268E+00 5.18003E-03 7.31438E+00-8.01581E-14-3.39791E-13
 -1      2340 1.58977E+01-5.35336E+00 5.43634E-02 7.59468E+00-2.72560E-13-9.87613E-14
 -1      2341 2.01164E+01 6.32853E-02-7.11268E-04 1.63367E-01-2.79316E-13 1.63007E-13
 -1      2342 2.30724E+01-1.29006E+00 2.65835E-02-3.66028E+00-2.87256E-13 5.17420E-14
 -1      2343 2.22770E+01-4.45503E-01 4.88711E-02-3.80357E+00-1.15194E-14 3.23613E-14
 -1      2344 2.19899E+01 9.86040E-02 1.79417E-02-3.55320E+00 1.25715E-13-5.41123E-14
 -1      2345 2.14700E+01 4.70664E-01 6.42453E-03-3.42038E+00 1.07104E-13 5.47661E-14
 -1      2346 2.01266E+01-1.72900E-01-1.79087E-02-4.08491E+00-7.15400E-15 3.55261E-13
 -1      2347 2.14719E+01 6.77192E-01 1.72478E-02-3.09837E+00 1.27362E-13 3.13033E-14
 -1      2348 2.10949E+01 7.68165E-01-5.67495E-03-2.85374E+00 1.32480E-13-3.34274E-14
 -1      2349 1.99942E+01 7.71823E-01 2.81160E-03-3.44322E+00 1.16180E-13 2.94416E-13
 -1      2350 2.11589E+01 7.95038E-01 1.58422E-02-2.55022E+00-4.64793E-14-5.92754E-14
 -1      2351 2.08584E+01 7.67844E-01-7.43051E-03-2.28792E+00-3.74679E-14-1.59778E-13
 -1      2352 2.00907E+01 1.02362E+00 8.15949E-03-2.81539E+00 1.60697E-14 1.55092E-13
 -1      2353 2.09073E+01 7.29923E-01 1.44440E-02-2.02301E+00-4.95810E-14-2.54872E-13
 -1      2354 2.06588E+01 6.73893E-01-5.13925E-03-1.78257E+00-2.05017E-13-1.89777E-13
 -1      2355 2.01869E+01 9.80126E-01 7.57931E-03-2.25078E+00-1.79084E-13-1.56305E-13
 -1      2356 2.06743E+01 6.33863E-01 1.33196E-02-1.55460E+00-3.34531E-13-1.15157E-13
 -1      2357 2.04716E+01 5.91369E-01-5.12131E-04-1.34157E+00-3.33493E-13-8.20468E-14
 -1      2358 2.02216E+01 8.55956E-01 4.38567E-03-1.76108E+00-1.85999E-13-2.65591E-13
 -1      2359 2.04195E+01 6.11816E-01 1.22784E-02-1.17933E+00-3.38577E-13-4.00268E-14
 -1      2360 2.02614E+01 5.97063E-01 3.32564E-03-9.81989E-01-2.35219E-13-9.60786E-14
 -1      2361 2.00503E+01 8.13233E-01-8.19118E-03-1.01433E+00-1.56071E-13 2.70559E-13
 -1      2362 2.01412E+01 7.89666E-01-4.50315E-03-1.35565E+00-3.64602E-13-8.65900E-14
 -1      2363 1.96966E+01 6.09162E-02 9.88425E-04-1.06171E-01 6.31748E-14 1.13859E-13
 -1      2364 1.97139E+01 9.13647E-02 5.02626E-03-6.88627E-02 6.94162E-14 1.46159E-13
 -1      2365 1.97501E+01 1.26946E-01 1.28435E-03-6.96843E-03 7.57395E-14 1.44489E-13
 -1      2366 1.98045E+01 1.78001E-01 8.85684E-03 6.41342E-02 8.67325E-14 1.57453E-13
 -1      2367 1.98800E+01 1.54834E-01-3.45124E-03-7.14561E-03 9.34170E-14 6.45717E-14
 -1      2368 1.98628E+01 2.39901E-01 1.71802E-03 1.71462E-01 9.36551E-14 1.68744E-13
 -1      2369 1.99667E+01 3.24932E-01 1.09561E-02 3.01110E-01 9.57602E-14 1.81374E-13
 -1      2370 1.99816E+01 2.92452E-01-4.24247E-03 1.78305E-01 1.06699E-13 8.41382E-14
 -1      2371 1.96841E+01 2.12398E-02 7.46390E-04-1.55724E-01 6.74655E-14 7.22913E-14
 -1      2372 1.96788E+01 3.94176E-02 2.68265E-03-1.38845E-01 7.35691E-14 9.16775E-14
 -1      2373 1.98233E+01 7.26889E-02-2.60356E-03-1.12530E-01 8.41897E-14 3.12324E-14
 -1      2374 1.96972E+01-2.23810E-03 5.53292E-04-1.74381E-01 6.64042E-14 5.86116E-14
 -1      2375 1.96793E+01 8.28826E-03 1.26379E-03-1.69860E-01 7.10716E-14 7.23724E-14
 -1      2376 1.98002E+01 2.32903E-02-1.80607E-03-1.65968E-01 8.19759E-14 5.25318E-14
 -1      2377 1.97250E+01-1.52611E-02 4.09272E-04-1.74418E-01 5.46888E-14 3.81135E-14
 -1      2378 1.97008E+01-9.69452E-03 4.01333E-04-1.77095E-01 3.60825E-14 4.28826E-14
 -1      2379 1.97993E+01-5.72804E-03-1.17964E-03-1.86584E-01 7.20802E-14 1.02972E-14
 -1      2380 1.97602E+01-2.13515E-02 3.13360E-04-1.64048E-01 5.80111E-14 4.55744E-14
 -1      2381 1.97336E+01-1.90694E-02-1.11818E-04-1.70519E-01 7.24569E-14 5.19003E-14
 -1      2382 1.98123E+01-2.15352E-02-7.29071E-04-1.87282E-01 4.55953E-14-1.59454E-14
 -1      2383 1.97980E+01-2.27862E-02 2.61982E-04-1.48841E-01 5.56283E-14 9.34994E-14
 -1      2384 1.97714E+01-2.26993E-02-3.98232E-04-1.56816E-01 8.81411E-14 7.88514E-14
 -1      2385 1.98331E+01-2.85708E-02-4.23843E-04-1.76852E-01 4.80915E-14 5.58206E-14
 -1      2386 1.98357E+01-2.10803E-02 2.50044E-04-1.32592E-01 3.31627E-14 8.01389E-14
 -1      2387 1.98103E+01-2.24645E-02-5.35847E-04-1.40522E-01 4.58842E-14 8.80040E-14
 -1      2388 1.98577E+01-2.97157E-02-2.30101E-04-1.61317E-01 7.06687E-14 5.33551E-14
 -1      2389 1.98723E+01-1.72533E-02 2.72181E-04-1.17893E-01 2.90305E-14 1.43529E-13
 -1      2390 1.98484E+01-1.96238E-02-5.76678E-04-1.24727E-01 2.13008E-14 1.04993E-13
 -1      2391 1.98837E+01-2.68879E-02-1.19335E-04-1.44820E-01 2.54003E-14 9.31138E-14
 -1      2392 1.99073E+01-1.19976E-02 3.23014E-04-1.06510E-01 1.17882E-14 7.67628E-14
 -1      2393 1.98849E+01-1.50266E-02-5.56088E-04-1.11538E-01 3.32660E-14 9.81473E-14
 -1      2394 1.99100E+01-2.13797E-02-6.94024E-05-1.30204E-01 3.28322E-14 1.27745E-13
 -1      2395 1.99415E+01-5.80296E-03 3.96429E-04-9.96346E-02 2.15799E-14 2.40149E-14
 -1      2396 1.99199E+01-9.25641E-03-4.97999E-04-1.02383E-01 5.23237E-15 2.95843E-14
 -1      2397 1.99363E+01-1.40754E-02-6.36510E-05-1.19417E-01 4.29505E-14-1.96374E-14
 -1      2398 1.99759E+01 9.35667E-04 4.84175E-04-9.80252E-02 2.77361E-15-2.34061E-15
 -1      2399 1.99544E+01-2.74544E-03-4.18062E-04-9.82078E-02 2.45589E-14 5.90718E-14
 -1      2400 1.99626E+01-5.61654E-03-8.97466E-05-1.13771E-01 1.07181E-14 7.85557E-16
 -1      2401 2.00117E+01 7.81022E-03 5.73946E-04-1.02063E-01 3.88251E-14-1.14769E-14
 -1      2402 1.99894E+01 4.11892E-03-3.25695E-04-9.95685E-02 3.56178E-14-1.69429E-14
 -1      2403 1.99899E+01 3.45135E-03-1.38549E-04-1.14089E-01 3.16713E-14 4.32194E-14
 -1      2404 2.00505E+01 1.42832E-02 6.47061E-04-1.11708E-01-4.95435E-15 1.17205E-14
 -1      2405 2.00264E+01 1.08829E-02-2.25433E-04-1.06636E-01 5.63708E-14 2.82497E-14
 -1      2406 2.00191E+01 1.25302E-02-2.03150E-04-1.20746E-01 2.26781E-14 3.85506E-14
 -1      2407 2.00939E+01 1.95594E-02 6.75876E-04-1.26354E-01-1.21611E-13 1.11797E-13
 -1      2408 2.00673E+01 1.69043E-02-1.17791E-04-1.19100E-01-1.05318E-13 5.21181E-14
 -1      2409 2.00515E+01 2.08092E-02-2.78217E-04-1.33604E-01-6.02677E-14 8.47414E-14
 -1      2410 2.01433E+01 2.24503E-02 6.21485E-04-1.44580E-01-8.79022E-14 1.16937E-13
 -1      2411 2.01135E+01 2.12200E-02 1.09515E-07-1.35968E-01-6.95246E-14 1.40707E-13
 -1      2412 2.00885E+01 2.70908E-02-3.59348E-04-1.51833E-01-1.08767E-13 8.96116E-14
 -1      2413 2.01997E+01 2.12529E-02 4.32650E-04-1.63794E-01-1.02250E-14 1.46433E-13
 -1      2414 2.01665E+01 2.24128E-02 1.33784E-04-1.55262E-01-4.96865E-14 1.39074E-13
 -1      2415 2.01317E+01 2.96143E-02-4.42343E-04-1.73614E-01-1.01069E-13 2.42073E-15
 -1      2416 2.02635E+01 1.36907E-02 4.77498E-05-1.79804E-01-2.19390E-14 2.08443E-13
 -1      2417 2.02274E+01 1.85125E-02 2.89920E-04-1.73609E-01 9.35502E-15 2.19189E-13
 -1      2418 2.01826E+01 2.59141E-02-5.22002E-04-1.95728E-01-2.95872E-14 7.68106E-14
 -1      2419 2.03340E+01-2.99411E-03-5.97516E-04-1.86397E-01-3.42226E-14 2.44698E-13
 -1      2420 2.02965E+01 6.99416E-03 4.73257E-04-1.85797E-01-3.53940E-14 2.66634E-13
 -1      2421 2.02425E+01 1.27897E-02-5.89755E-04-2.13082E-01-4.03486E-14 2.02007E-13
 -1      2422 2.04088E+01-3.16531E-02-1.55285E-03-1.75070E-01-1.14506E-14 3.15398E-13
 -1      2423 2.03727E+01-1.50103E-02 6.80414E-04-1.84395E-01-7.62110E-15 2.73783E-13
 -1      2424 2.03124E+01-1.34767E-02-6.29093E-04-2.18244E-01-3.82339E-14 1.83051E-13
 -1      2425 2.04834E+01-7.43555E-02-2.82226E-03-1.35235E-01-8.94790E-14 3.83309E-13
 -1      2426 2.04532E+01-5.01189E-02 8.89190E-04-1.59662E-01-3.56140E-14 3.40266E-13
 -1      2427 2.03924E+01-5.64477E-02-6.07870E-04-2.01207E-01-6.09839E-14 3.15147E-13
 -1      2428 2.05504E+01-1.30831E-01-4.31661E-03-5.52997E-02 8.05207E-14 1.53591E-13
 -1      2429 2.05322E+01-9.95207E-02 1.04301E-03-1.00135E-01 4.92679E-14 2.36518E-13
 -1      2430 2.04807E+01-1.18144E-01-4.67864E-04-1.49704E-01 7.10940E-14 2.02013E-13
 -1      2431 2.05987E+01-1.96196E-01-5.79422E-03 7.47769E-02 1.39233E-15 1.80526E-13
 -1      2432 2.06003E+01-1.61064E-01 1.03455E-03 5.60148E-03 4.11322E-14 1.28811E-13
 -1      2433 2.05729E+01-1.96728E-01-1.16497E-04-5.06036E-02 5.82856E-14 1.94848E-13
 -1      2434 2.06134E+01-2.58382E-01-6.81227E-03 2.58965E-01-1.05050E-13 2.21416E-13
 -1      2435 2.06433E+01-2.26743E-01 7.02241E-04 1.65324E-01-3.58958E-14 2.26185E-13
 -1      2436 2.06600E+01-2.83349E-01 5.65057E-04 1.06929E-01-3.89632E-14 2.10873E-13
 -1      2437 2.05763E+01-2.96594E-01-6.73935E-03 4.88681E-01-8.31583E-14 1.96287E-13
 -1      2438 2.06422E+01-2.80385E-01-1.35015E-04 3.77410E-01-1.05335E-13 2.29328E-13
 -1      2439 2.07266E+01-3.58986E-01 1.66860E-03 3.25889E-01-8.61515E-14 1.19586E-13
 -1      2440 2.04693E+01-2.83281E-01-4.91892E-03 7.35685E-01-4.69353E-14 1.64598E-13
 -1      2441 2.05751E+01-2.97395E-01-1.55980E-03 6.23481E-01-1.62223E-14 2.49833E-13
 -1      2442 2.07505E+01-3.93445E-01 3.13173E-03 5.93520E-01-7.52350E-14 1.17745E-13
 -1      2443 2.02815E+01-1.92657E-01-1.07285E-03 9.48065E-01-8.25096E-14 1.82428E-13
 -1      2444 2.04237E+01-2.49504E-01-3.36369E-03 8.62033E-01-1.10537E-13 1.57231E-13
 -1      2445 2.07056E+01-3.50089E-01 4.54471E-03 8.72825E-01-7.38879E-14 1.72497E-13
 -1      2446 2.00197E+01-1.64728E-02 4.18193E-03 1.05567E+00-1.39404E-13 3.25091E-13
 -1      2447 2.01841E+01-1.17021E-01-4.83042E-03 1.02863E+00-6.74826E-14 2.02092E-13
 -1      2448 2.05711E+01-1.99956E-01 5.00365E-03 1.09856E+00-1.71658E-13 1.62887E-13
 -1      2449 1.97191E+01 2.19001E-01 9.06714E-03 9.90667E-01 1.73185E-14 4.10603E-13
 -1      2450 1.98804E+01 9.34896E-02-4.81735E-03 1.04967E+00-3.29204E-14 4.42894E-13
 -1      2451 2.03486E+01 5.65210E-02 3.49427E-03 1.18627E+00-1.29254E-13 1.89356E-13
 -1      2452 1.94447E+01 4.48279E-01 1.12534E-02 7.21188E-01 1.05993E-13 3.08977E-13
 -1      2453 1.95710E+01 3.36050E-01-2.37459E-03 8.72053E-01-8.08425E-15 3.44361E-13
 -1      2454 2.00773E+01 3.70553E-01-3.37763E-04 1.06093E+00 4.11823E-14 2.98472E-13
 -1      2455 1.92743E+01 5.87871E-01 9.44896E-03 2.82436E-01 1.18856E-13 5.19909E-13
 -1      2456 1.93373E+01 5.31895E-01 2.47016E-03 4.99031E-01 1.19646E-13 4.81377E-13
 -1      2457 1.98347E+01 6.47539E-01-5.16263E-03 6.99973E-01-5.08491E-17 3.52408E-13
 -1      2458 1.92640E+01 5.79765E-01 4.53329E-03-2.21430E-01 4.84274E-14 5.16067E-13
 -1      2459 1.92493E+01 6.03949E-01 7.84578E-03 7.71525E-03 1.27438E-13 4.86954E-13
 -1      2460 1.97082E+01 7.84997E-01-7.92657E-03 1.66832E-01 1.17739E-13 4.81699E-13
 -1      2461 1.94164E+01 4.26526E-01-9.48431E-04-6.56562E-01 3.64580E-14 4.30800E-13
 -1      2462 1.93303E+01 5.21078E-01 1.11558E-02-4.73767E-01 9.15843E-14 4.68918E-13
 -1      2463 1.97466E+01 7.25806E-01-6.88611E-03-3.99794E-01 1.29008E-13 4.63432E-13
 -1      2464 1.96780E+01 1.89954E-01-4.56401E-03-9.18114E-01 7.59568E-14 1.78079E-13
 -1      2465 1.95442E+01 3.17232E-01 1.06343E-02-8.21359E-01 5.28904E-14 3.06441E-13
 -1      2466 1.99296E+01 4.93535E-01-2.58619E-03-8.44912E-01 1.63644E-13 4.57393E-13
 -1      2467 1.99664E+01-4.55279E-02-5.51684E-03-9.70877E-01-3.04507E-14 1.53800E-13
 -1      2468 1.98171E+01 7.09959E-02 6.62789E-03-9.67426E-01 5.90782E-14 2.08085E-13
 -1      2469 2.01806E+01 1.77651E-01 2.07566E-03-1.06736E+00 1.11697E-13 4.02927E-13
 -1      2470 2.02096E+01-2.16000E-01-4.42790E-03-8.48560E-01 1.50725E-13 1.06769E-13
 -1      2471 2.00741E+01-1.38904E-01 1.22116E-03-9.18034E-01 5.63998E-14 1.55069E-13
 -1      2472 2.04112E+01-1.16319E-01 4.74774E-03-1.05492E+00 3.84107E-14 4.24665E-13
 -1      2473 2.03682E+01-2.97270E-01-2.48857E-03-6.22345E-01 2.40958E-13-6.06192E-14
 -1      2474 2.02657E+01-2.67185E-01-3.45222E-03-7.31515E-01 2.05685E-13-2.55171E-14
 -1      2475 2.05633E+01-3.15735E-01 5.08126E-03-8.66855E-01 2.90019E-13 2.52211E-13
 -1      2476 2.04361E+01-2.98461E-01-5.90665E-04-3.66539E-01 4.33258E-13-1.62875E-13
 -1      2477 2.03737E+01-3.07424E-01-6.24371E-03-4.83173E-01 3.35389E-13-7.68736E-14
 -1      2478 2.06202E+01-3.98875E-01 3.90134E-03-5.90828E-01 3.49819E-13-4.04834E-14
 -1      2479 2.04281E+01-2.44986E-01 8.60431E-04-1.37423E-01 1.48228E-13-2.36372E-13
 -1      2480 2.04036E+01-2.78771E-01-7.06604E-03-2.38067E-01 3.46339E-13-2.51670E-13
 -1      2481 2.05952E+01-3.83014E-01 2.30762E-03-3.06493E-01 3.99967E-13-5.21357E-14
 -1      2482 2.03680E+01-1.63425E-01 1.83300E-03 3.25742E-02 1.13717E-14-2.58066E-14
 -1      2483 2.03731E+01-2.08681E-01-6.48280E-03-3.90395E-02 3.18819E-14-1.26693E-13
 -1      2484 2.05146E+01-3.02565E-01 9.41651E-04-6.78556E-02 3.87524E-14-9.26610E-14
 -1      2485 2.02789E+01-7.39577E-02 2.46699E-03 1.31083E-01-8.84371E-14 3.83072E-14
 -1      2486 2.03032E+01-1.21178E-01-5.18192E-03 9.29900E-02 2.12732E-14 9.81880E-14
 -1      2487 2.04044E+01-1.90864E-01 1.14656E-04 9.78647E-02-1.57744E-14 2.06929E-13
 -1      2488 2.01816E+01 6.71596E-03 2.87179E-03 1.60635E-01-1.87474E-13 2.10271E-13
 -1      2489 2.02136E+01-3.43721E-02-3.86327E-03 1.53208E-01-1.57200E-13 1.36665E-13
 -1      2490 2.02858E+01-7.30865E-02 2.37857E-04 1.82877E-01-1.12005E-13 1.62129E-13
 -1      2491 2.01386E+01 4.07518E-01 9.31594E-04 5.87548E-01 2.23740E-13-2.33471E-13
 -1      2492 2.01620E+01 3.12829E-01 2.38365E-03 5.32929E-01 2.03274E-13-1.77391E-13
 -1      2493 2.01727E+01 2.55209E-01 2.79360E-03 4.58545E-01-7.65820E-14 1.02028E-13
 -1      2494 2.01733E+01 1.83292E-01 1.28202E-03 3.96910E-01-5.14950E-14 8.77242E-14
 -1      2495 2.02188E+01 1.72831E-01-3.02754E-03 5.58780E-01 3.61008E-14 9.55220E-14
 -1      2496 2.01673E+01 1.52439E-01 3.82256E-03 3.23704E-01-5.11382E-14 1.02504E-13
 -1      2497 2.01582E+01 1.01544E-01 2.31729E-03 2.67535E-01 1.99521E-15-1.37926E-13
 -1      2498 2.02213E+01 8.41260E-02-3.47301E-03 4.00569E-01-1.04506E-13-2.36925E-14
 -1      2499 5.22108E+00-2.77727E+00 1.17896E-01 4.66239E+00-4.21330E-14 5.12923E-14
 -1      2500 3.76250E+00-2.26835E+00 1.19739E-01 2.37425E+00 2.71519E-14-1.35725E-13
 -1      2501 2.00534E+01 6.09568E-01-1.92168E-03 6.75199E-01 1.65917E-13-1.07962E-13
 -1      2502 2.01042E+01 4.98438E-01 3.41422E-03 6.46081E-01 1.13995E-13-2.93744E-13
 -1      2503 2.01567E+01 3.16837E-01-3.23447E-03 7.02706E-01 2.68963E-13-2.90503E-13
 -1      2504 1.99175E+01 8.46984E-01-5.38087E-03 6.78496E-01 4.74111E-15 2.77786E-13
 -1      2505 1.99932E+01 7.31454E-01 3.99177E-03 6.93765E-01 1.27968E-13 2.09309E-13
 -1      2506 2.00266E+01 5.21388E-01-2.87507E-03 7.89233E-01 1.71644E-13-2.46461E-14
 -1      2507 1.97512E+01 1.09027E+00-8.42388E-03 5.62149E-01-3.13592E-13 2.09451E-13
 -1      2508 1.98390E+01 9.87865E-01 3.64293E-03 6.35320E-01-2.23912E-13 4.33640E-13
 -1      2509 1.98370E+01 7.72784E-01-1.09502E-03 7.68695E-01-1.07319E-13 1.69622E-13
 -1      2510 1.95946E+01 1.29502E+00-9.82815E-03 3.13060E-01-3.15317E-13-1.35197E-13
 -1      2511 1.96715E+01 1.22601E+00 1.88234E-03 4.45141E-01-3.43226E-13-2.55356E-14
 -1      2512 1.96203E+01 1.03690E+00 1.86762E-03 6.03128E-01-2.52686E-13 1.32121E-13
 -1      2513 1.95008E+01 1.40985E+00-8.73879E-03-3.80747E-02-1.68586E-13 2.86825E-13
 -1      2514 1.95390E+01 1.39224E+00-1.31890E-03 1.32310E-01-2.24439E-13-8.55442E-14
 -1      2515 1.94340E+01 1.25921E+00 5.12027E-03 2.88548E-01-3.21819E-13 3.52302E-14
 -1      2516 1.95141E+01 1.39753E+00-5.31691E-03-4.38531E-01-1.69492E-13 2.32544E-13
 -1      2517 1.94920E+01 1.44133E+00-5.04868E-03-2.58453E-01-1.61534E-13 2.52055E-13
 -1      2518 1.93439E+01 1.38379E+00 7.93470E-03-1.39173E-01-1.92462E-13 2.42824E-13
 -1      2519 1.96638E+01 1.23433E+00-2.03583E-03-7.84509E-01-5.14593E-14 2.47807E-13
 -1      2520 1.95740E+01 1.34261E+00-7.87679E-03-6.47257E-01-1.59128E-13 2.90601E-13
 -1      2521 1.94043E+01 1.36447E+00 8.53131E-03-6.00929E-01-2.48413E-13 2.65567E-13
 -1      2522 1.99075E+01 9.69838E-01 1.18059E-03-9.63260E-01-7.07897E-14 2.76348E-13
 -1      2523 1.97671E+01 1.12541E+00-8.61676E-03-9.10969E-01-2.48282E-14 8.36190E-14
 -1      2524 1.96180E+01 1.20634E+00 7.85549E-03-9.56624E-01-2.16951E-13 2.96079E-13
 -1      2525 1.99426E+01 9.58948E-01 1.05696E-02-1.13832E+00-2.12661E-13 1.32934E-13
 -1      2526 2.05472E+01 1.95498E+00-1.37255E-02-1.89836E+00-1.08242E-13-1.80009E-13
 -1      2527 2.04102E+01 1.21472E+00-7.17911E-03-1.28741E+00-1.07443E-13-1.49989E-13
 -1      2528 2.03832E+01 1.37976E+00 7.65414E-03-1.23608E+00-9.88077E-14-1.72595E-13
 -1      2529 2.02888E+01 2.38455E+00-5.07097E-03-1.84299E+00-9.77317E-14-2.01141E-13
 -1      2530 3.94788E+00-1.81817E+00 1.40994E-01-3.39547E-01 1.86916E-14-1.29896E-13
 -1      2531 4.87690E+00-2.44078E+00 1.32736E-01-2.62329E+00-2.67980E-14-1.14242E-13
 -1      2532 6.16313E+00-3.26851E+00 1.23183E-01-3.97498E+00 2.35645E-14-1.35447E-14
 -1      2533 8.65236E+00-4.18307E+00 5.33251E-02-5.47249E+00 3.19189E-14 2.88491E-13
 -1      2534 7.64351E+00-1.46891E+00 1.58370E-01-3.26148E+00-1.43358E-14-5.08482E-14
 -1      2535 2.94280E+01-5.41720E+00-6.67716E-02 1.97945E+00 1.80467E-13 1.94289E-15
 -1      2536 2.48702E+01-6.19250E+00-3.17016E-02 3.75098E+00 1.47243E-13 1.09260E-13
 -1      2537 1.25237E+01-4.66577E+00 9.95275E-02-7.59351E+00 3.37230E-14-5.29243E-13
 -1      2538 1.65147E+01-5.15957E+00-2.07134E-02-7.89026E+00 1.69309E-14-4.99510E-13
 -1      2539 3.32918E+01 4.95096E+00-9.51350E-02 4.16316E-01 2.03337E-13-9.67282E-14
 -1      2540 3.37082E+01 6.47436E+00-1.75618E-01 5.99775E-01 2.79998E-13 1.03778E-13
 -1      2541 2.60409E+01-4.19999E+00-5.35693E-02 5.13870E+00 5.98965E-14-4.81004E-13
 -1      2542 2.32703E+01-4.99346E+00 2.91122E-02 5.95334E+00 9.35085E-14-6.49703E-13
 -1      2543 2.52507E+01-3.56774E+00 3.40612E-02-3.01367E+00-3.53523E-13-4.35567E-14
 -1      2544 2.40408E+01-2.30460E+00 1.15804E-01-3.62272E+00-3.40658E-13-2.63669E-14
 -1      2545 2.09959E+01-2.15085E+00-5.89734E-02-4.49160E+00-2.41425E-13 1.98955E-13
 -1      2546 3.00358E+01-4.52360E+00-1.74304E-02 7.47400E-02-1.49290E-13 1.99729E-13
 -1      2547 2.83485E+01-4.53563E+00 9.22927E-02-1.60844E+00-2.80928E-13 9.64645E-14
 -1      2548 1.95199E+01 3.58492E+00-1.00854E-02-2.45333E-01 1.04291E-13-1.96527E-13
 -1      2549 1.95359E+01 3.56424E+00-9.65005E-03-4.26100E-01 8.67688E-14-2.09590E-13
 -1      2550 1.97122E+01 3.16371E+00-5.43059E-04-4.73461E-01 7.32263E-14-1.97012E-13
 -1      2551 1.96780E+01 3.22359E+00-9.05755E-04-1.52035E-01 1.02988E-13-1.77985E-13
 -1      2552 3.28013E+01 4.26074E+00-1.30939E-01-6.29633E-01 7.88258E-14-4.01013E-13
 -1      2553 3.17426E+01 2.43529E+00-1.60978E-01-3.60616E-01-5.41234E-14-3.81750E-13
 -1      2554 2.07908E+01-5.19611E+00 6.63996E-02-6.70055E+00-5.80647E-14-6.08458E-13
 -1      2555 2.47081E+01-4.61509E+00-8.74086E-02-5.67732E+00-1.44107E-13-6.47371E-13
 -1      2556 3.26980E+01 7.21314E+00-1.95783E-01-7.24097E-01 2.33924E-13-1.73903E-13
 -1      2557 3.27471E+01 5.94959E+00-1.46125E-01-8.43095E-01 2.00256E-13-2.08528E-13
 -1      2558 3.04472E+01 4.74164E+00-7.15621E-02-1.63757E+00 1.42164E-13 1.53488E-14
 -1      2559 3.17042E+01 9.27727E-01-7.13564E-02-8.77861E-01 5.00572E-14-3.80140E-13
 -1      2560 3.28318E+01 2.68980E+00-1.23962E-01-1.98824E-01 1.07081E-13-2.48856E-13
 -1      2561 3.73753E+01 5.69570E+00 5.78729E-02 1.65952E+00-1.34670E-13-1.91819E-13
 -1      2562 3.88348E+01 6.40789E+00 1.01418E-01 5.21506E-01 2.57572E-14-2.98796E-13
 -1      2563 1.99609E+01-6.00838E+00-6.75519E-02 5.88635E+00 2.21767E-13 2.98449E-13
 -1      2564 1.58456E+01-5.65989E+00 6.18189E-02 5.95779E+00 1.78135E-13 2.19796E-13
 -1      2565 2.79815E+01-3.00334E+00 7.68880E-03-3.46530E+00-2.05683E-13-5.27772E-13
 -1      2566 3.05360E+01-1.19504E+00-7.95417E-02-2.38155E+00-7.55923E-14-4.74620E-13
 -1      2567 3.03836E+01-7.30217E-01-1.50205E-02-6.07504E-01-2.88068E-14-4.34291E-13
 -1      2568 6.52039E+00-3.13847E+00 1.52584E-01-5.64981E+00 2.08472E-13-1.23873E-13
 -1      2569 8.80047E+00-3.61451E+00 6.94080E-02-7.02759E+00 1.44468E-13-4.36401E-13
 -1      2570 2.88997E+00-2.70144E+00 9.81867E-02-1.27352E+00 6.53644E-14 1.52101E-13
 -1      2571 4.02315E+00-2.58678E+00 8.65811E-02-3.81709E+00 1.80606E-13 6.59472E-14
 -1      2572 4.41590E+00-3.30085E+00 7.97410E-02 2.98008E+00 9.50073E-14 5.48284E-13
 -1      2573 3.12743E+00-2.85856E+00 8.46908E-02 8.90040E-01 3.04548E-14 4.71401E-13
 -1      2574 2.75162E+01-5.86680E+00 6.47650E-02-3.31724E+00-2.47496E-13-1.48659E-13
 -1      2575 3.02069E+01-4.89863E+00-1.13515E-01-1.49203E+00-8.41549E-14 8.87901E-14
 -1      2576 2.34743E+01-6.14746E+00 1.31920E-02-4.54287E+00-3.82055E-13-1.01155E-13
 -1      2577 1.21417E+01-5.51967E+00-1.38402E-02-6.01300E+00 4.77396E-15 2.31259E-13
 -1      2578 1.66208E+01-5.87360E+00-1.89130E-02-6.28379E+00-1.59206E-13 5.95080E-14
 -1      2579 2.01638E+01 5.54134E-02 8.50702E-04 2.12734E-01-1.85407E-13 8.57164E-14
 -1      2580 3.78923E+01 5.86256E+00 8.34001E-02-1.27358E+00 4.29434E-13-2.37588E-13
 -1      2581 1.99142E+01 2.81389E+00 2.09262E-03-1.09892E+00-1.09791E-14-2.54150E-13
 -1      2582 1.97806E+01 3.15947E+00-1.54604E-02-1.28587E+00-1.33633E-14-2.67893E-13
 -1      2583 1.98765E+01 3.03897E+00-1.70477E-02-1.48279E+00-3.64871E-14-2.61209E-13
 -1      2584 5.82060E+00-8.57242E-01 1.77217E-01 8.82716E-01 3.83634E-14-8.90954E-14
 -1      2585 2.03313E+01 5.89929E-01 9.12582E-03 8.71714E-01 1.26305E-13 3.05146E-13
 -1      2586 2.03927E+01 8.35818E-01 6.83013E-03 1.04790E+00 1.40910E-13 2.44733E-13
 -1      2587 2.01611E+01 4.88560E-01 7.89449E-03 6.63015E-01 1.27266E-13 2.78943E-13
 -1      2588 3.12097E+01 7.88588E-01-9.15160E-02-1.44860E-01-8.75966E-14-3.58047E-13
 -1      2589 2.98673E+01-7.06465E-01-2.47688E-02 1.00922E-01 4.32779E-14-3.48332E-13
 -1      2590 2.98061E+01 1.48019E+00-1.07305E-01-1.44858E+00-1.14631E-14-2.34784E-13
 -1      2591 2.06572E+01-3.91361E+00 9.27423E-02 5.09639E+00-9.23567E-14 1.11966E-13
 -1      2592 2.41086E+01-4.20861E+00 6.66602E-02 3.65050E+00 6.78624E-15-3.13465E-14
 -1      2593 3.63103E+01 2.91526E+00-1.34801E-01 2.86247E+00-1.03584E-13-4.31877E-14
 -1      2594 3.45226E+01-9.06478E-01 2.05016E-03 1.84549E+00 3.92880E-14 4.41314E-14
 -1      2595 3.27590E+01-3.68035E+00-5.60452E-02 1.09186E+00-1.02349E-14 1.71252E-13
 -1      2596 2.23895E+01-5.37495E+00 6.91169E-02 6.24006E+00-7.20535E-14-5.96335E-13
 -1      2597 2.79592E+01-4.48210E+00 1.33337E-02 1.81385E+00 3.76504E-14 7.02945E-14
 -1      2598 2.96203E+01-4.73768E+00 2.95647E-02 4.72166E-01 3.56659E-14 1.08344E-13
 -1      2599 3.13876E+01-4.52778E+00-3.50967E-02-8.75027E-02 1.29910E-13 7.95752E-14
 -1      2600 3.31756E+01-2.77846E+00-5.27080E-03-1.02792E+00 2.70145E-13 7.50511E-14
 -1      2601 2.47932E+01-4.81331E+00-5.65610E-02-3.49185E+00-4.17180E-13 1.01242E-13
 -1      2602 2.02160E+01 1.03929E-02-4.00128E-03 2.63996E-01-1.15173E-13 1.76678E-13
 -1      2603 3.59074E+01 4.29461E+00-1.12542E-01-3.02513E+00 5.71432E-13-4.70735E-14
 -1      2604 7.38568E+00-2.80658E+00 1.37515E-01 5.57936E+00-4.97935E-14 4.96825E-14
 -1      2605 7.97761E+00-1.31465E+00 1.95404E-01 4.71260E+00-3.37369E-14-4.13281E-14
 -1      2606 9.83561E+00-2.68236E+00 9.44510E-02 6.33009E+00-2.91434E-14 2.04281E-14
 -1      2607 2.01138E+01 2.61970E+00-1.19233E-02-1.67879E+00-7.17012E-14-2.25412E-13
 -1      2608 1.23007E+01-3.65766E+00 1.27049E-01-7.21478E+00 5.74540E-14-3.92270E-13
 -1      2609 2.00021E+01 3.64839E-01 8.24602E-03 3.93843E-01 1.07940E-13 2.12247E-13
 -1      2610 2.00965E+01 4.32797E-01 1.16990E-02 5.36230E-01 1.14940E-13 2.49375E-13
 -1      2611 2.01846E+01 5.65235E-01-3.11968E-03 6.53727E-01 1.24801E-13 1.92433E-13
 -1      2612 2.00843E+01 4.36909E-01-5.38506E-03 4.08748E-01 1.14645E-13 1.30260E-13
 -1      2613 1.44548E+01-4.90967E+00 7.89513E-02 7.64236E+00-3.62488E-13 9.44383E-14
 -1      2614 1.32073E+01-3.75739E+00 2.02436E-01 7.43805E+00-3.65763E-13 1.09218E-13
 -1      2615 1.72540E+01-4.96939E+00-2.65152E-02 7.32375E+00-2.84051E-13-3.66929E-14
 -1      2616 2.79870E+01-3.65635E+00-1.15429E-03 3.11489E+00 9.76164E-14-6.66606E-13
 -1      2617 1.21483E+01-3.61233E+00 1.42051E-01-5.67319E+00-8.90121E-14 2.79526E-13
 -1      2618 7.14861E+00-2.88305E+00 9.32009E-02 3.94253E+00 1.39777E-13 3.30735E-13
 -1      2619 4.83241E+00-1.34547E+00 1.72222E-01-1.68960E-01 5.35266E-14 2.86604E-13
 -1      2620 2.65967E+01-4.24519E+00 2.60208E-04-3.91876E+00-1.73833E-13-4.51306E-13
 -1      2621 2.40481E+01-5.44690E+00 1.30300E-01 4.08896E+00 1.44190E-13 1.12410E-15
 -1      2622 1.99150E+01-5.08135E+00 1.07621E-01-6.90987E+00-4.06897E-14-5.50865E-13
 -1      2623 1.45185E+01-4.44759E+00 1.37561E-01 6.05091E+00 3.88856E-14 2.91211E-13
 -1      2624 3.65318E+01 1.21961E+00-1.77727E-02 2.97712E+00-5.44009E-14-1.62093E-14
 -1      2625 3.53653E+01-1.21260E+00-1.83733E-02-2.40104E+00 2.71269E-13 7.93254E-14
 -1      2626 3.12429E+01 7.51348E+00-1.37977E-01-7.62645E-01-4.71845E-15 1.60871E-13
 -1      2627 3.03856E+01 6.23130E+00-8.03326E-02 1.31087E+00 2.18270E-13 2.17520E-13
 -1      2628 3.26903E+01 7.22029E+00-5.91999E-02 6.92216E-01 2.68507E-13 1.11133E-13
 -1      2629 3.03907E+01 7.52021E+00-2.34578E-01 7.36210E-01 1.29119E-13 1.91791E-13
 -1      2630 3.15883E+01 3.47088E+00-3.15752E-02 1.08651E+00 1.77552E-13-4.01346E-14
 -1      2631 6.62771E+00-1.77105E+00 1.74247E-01-4.52277E+00 1.58359E-13 1.64035E-14
 -1      2632 2.06494E+01-5.15881E+00 9.21409E-02-5.49222E+00-3.17718E-13 3.46008E-14
 -1      2633 3.58188E+01 1.67023E+00-1.11569E-01-3.19155E+00 3.68039E-13-1.68199E-14
 -1      2634 1.98458E+01 2.76513E+00-6.30356E-03 5.16339E-01 1.65386E-13-1.23430E-13
 -1      2635 1.98210E+01 2.81488E+00-5.70981E-03 3.65461E-01 1.53521E-13-1.35606E-13
 -1      2636 1.98041E+01 2.85238E+00-5.62336E-03 2.29936E-01 1.37650E-13-1.52126E-13
 -1      2637 1.97956E+01 2.86926E+00-5.43677E-03 7.52837E-02 1.25976E-13-1.52726E-13
 -1      2638 1.99505E+01 2.50113E+00 3.61734E-03 2.65321E-01 1.40419E-13-1.23739E-13
 -1      2639 2.00438E+01 2.32374E+00-1.09576E-02 1.04602E+00 2.06312E-13-4.65546E-14
 -1      2640 1.99796E+01 2.47341E+00-6.36364E-03 9.10632E-01 2.08113E-13-6.59559E-14
 -1      2641 2.02062E+01 1.91410E+00-1.65148E-02 1.23452E+00 1.90244E-13 1.57511E-14
 -1      2642 2.01249E+01 2.14668E+00-4.77688E-03 1.13230E+00 1.96118E-13-1.81339E-14
 -1      2643 2.01902E+01 1.89126E+00 7.77218E-03 9.27989E-01 1.89527E-13-3.62299E-14
 -1      2644 2.04433E+01 1.01297E+00 2.22061E-03 1.15456E+00 1.51991E-13 1.91493E-13
 -1      2645 2.04003E+01 1.27476E+00-7.16883E-03 1.26706E+00 1.57733E-13 1.38388E-13
 -1      2646 2.03134E+01 8.46323E-01 6.14071E-03 8.99315E-01 1.47304E-13 1.55151E-13
 -1      2647 2.03215E+01 1.05987E+00 6.04621E-03-8.57388E-01-6.91550E-14-1.62934E-13
 -1      2648 2.02273E+01 8.15411E-01-5.44754E-03-6.13987E-01-6.33146E-14-1.53373E-13
 -1      2649 1.84831E+01-2.43685E+00 7.88106E-02 5.04095E+00-8.24479E-14-2.94764E-14
 -1      2650 1.69424E+01-3.47858E+00 6.47331E-02 5.57041E+00-5.15143E-14 1.71002E-13
 -1      2651 1.26691E+01-2.71498E+00 2.04455E-01 5.46405E+00-8.88178E-16 1.72945E-13
 -1      2652 2.36000E+01-5.32791E+00-1.01842E-01 5.26193E+00-1.42802E-14-6.22589E-13
 -1      2653 2.11741E+01-5.10660E+00 1.45966E-01 6.24464E+00-1.65243E-13-4.24796E-13
 -1      2654 2.02166E+01 6.27938E-01 8.71349E-03-4.37024E-01-6.21299E-14-1.46610E-13
 -1      2655 2.01322E+01 4.75477E-01-3.29050E-03-2.78548E-01-6.19835E-14-1.39149E-13
 -1      2656 2.02628E+01 8.94039E-01 1.38717E-03-5.72988E-01-6.17575E-14-1.55694E-13
 -1      2657 2.01063E+01 3.62761E-01 6.68060E-03-1.58758E-01-8.19908E-14-1.27846E-13
 -1      2658 2.00471E+01 2.68125E-01-1.74318E-03-6.10025E-02-9.16812E-14-1.38799E-13
 -1      2659 2.01955E+01 5.29201E-01-1.48572E-03-2.62038E-01-7.41904E-14-1.51759E-13
 -1      2660 2.00211E+01 1.98026E-01 4.53287E-03 1.44686E-02-7.56375E-14-1.19569E-13
 -1      2661 1.99854E+01 1.38648E-01-8.24424E-04 7.12401E-02-6.90833E-14-1.05913E-13
 -1      2662 2.01267E+01 2.99230E-01-2.06473E-03-5.54114E-02-8.28699E-14-1.43776E-13
 -1      2663 1.99646E+01 9.47907E-02 2.91889E-03 1.14861E-01-6.41441E-14-6.93204E-14
 -1      2664 1.99466E+01 5.75179E-02-3.45202E-04 1.44722E-01-6.98025E-14-5.79573E-14
 -1      2665 2.00704E+01 1.53484E-01-1.89332E-03 7.23677E-02-4.09911E-14-9.61330E-14
 -1      2666 1.99313E+01 2.92781E-02 1.74089E-03 1.67406E-01-7.41507E-14-4.81698E-14
 -1      2667 1.99257E+01 6.18076E-03-2.32706E-05 1.80023E-01-3.43072E-14-1.82826E-14
 -1      2668 2.00290E+01 6.06365E-02-1.40184E-03 1.45050E-01-5.38170E-14-6.78380E-14
 -1      2669 1.99164E+01-9.06474E-03 9.14639E-04 1.87101E-01-4.81363E-14-4.49508E-14
 -1      2670 1.99191E+01-2.12707E-02 2.10880E-04 1.88445E-01-6.87744E-14-5.40045E-14
 -1      2671 2.00018E+01 3.70690E-03-1.14634E-03 1.79017E-01-6.47583E-14-9.60157E-14
 -1      2672 1.99139E+01-2.94251E-02 3.55648E-04 1.87248E-01-7.20737E-14-7.20658E-14
 -1      2673 1.99213E+01-3.49721E-02 3.17977E-04 1.82686E-01-4.55357E-14-7.68209E-14
 -1      2674 1.99864E+01-2.71918E-02-8.33033E-04 1.87810E-01-7.71134E-14-1.27665E-13
 -1      2675 1.99191E+01-3.80752E-02 8.40646E-06 1.76968E-01-1.82011E-14-8.87333E-14
 -1      2676 1.99292E+01-3.91090E-02 3.79650E-04 1.69688E-01-2.29726E-14-1.31440E-13
 -1      2677 1.99789E+01-4.20227E-02-5.94516E-04 1.82679E-01-4.91263E-14-1.38461E-13
 -1      2678 1.99290E+01-3.86868E-02-2.09097E-04 1.62212E-01-4.64617E-14-1.21986E-13
 -1      2679 1.99406E+01-3.65550E-02 4.29682E-04 1.54442E-01-3.10870E-14-1.18863E-13
 -1      2680 1.99772E+01-4.57159E-02-4.22638E-04 1.70599E-01-3.99219E-14-1.85721E-13
 -1      2681 1.99420E+01-3.36072E-02-3.41064E-04 1.47197E-01-3.17320E-14-1.37966E-13
 -1      2682 1.99543E+01-2.91502E-02 4.83385E-04 1.40547E-01-2.42541E-14-2.06473E-13
 -1      2683 1.99794E+01-4.15623E-02-3.04177E-04 1.56585E-01-8.53954E-14-2.21451E-13
 -1      2684 1.99567E+01-2.42684E-02-4.21293E-04 1.35003E-01 2.58232E-14-1.96804E-13
 -1      2685 1.99696E+01-1.79336E-02 5.53121E-04 1.30699E-01 3.42131E-14-1.87553E-13
 -1      2686 1.99845E+01-3.16307E-02-2.26307E-04 1.44284E-01-8.33571E-15-1.74112E-13
 -1      2687 1.99728E+01-1.13815E-02-4.76968E-04 1.28009E-01 1.27806E-14-1.82394E-13
 -1      2688 1.99864E+01-3.28676E-03 6.49621E-04 1.27082E-01-1.27051E-14-2.05378E-13
 -1      2689 1.99915E+01-1.70436E-02-1.76553E-04 1.36461E-01-1.75966E-15-2.69486E-13
 -1      2690 1.99900E+01 4.95950E-03-5.31370E-04 1.28254E-01 2.25645E-14-1.35597E-13
 -1      2691 2.00048E+01 1.49981E-02 7.83117E-04 1.31698E-01 5.65699E-14-1.11502E-13
 -1      2692 2.00001E+01 1.86520E-03-1.42143E-04 1.35380E-01 3.79683E-14-1.86430E-13
 -1      2693 2.00086E+01 2.52407E-02-6.07063E-04 1.37733E-01 3.01729E-14-1.20943E-13
 -1      2694 2.00250E+01 3.77179E-02 9.65737E-04 1.46645E-01-2.47394E-14-1.31597E-13
 -1      2695 2.00096E+01 2.54796E-02-1.08267E-04 1.43119E-01 4.78196E-14-1.16654E-13
 -1      2696 2.00286E+01 5.05432E-02-7.32952E-04 1.58671E-01-2.54422E-14-1.64322E-13
 -1      2697 2.00475E+01 6.63587E-02 1.26341E-03 1.74365E-01-3.14228E-14-2.18178E-13
 -1      2698 2.00196E+01 5.49175E-02-5.49617E-05 1.61833E-01-4.63648E-14-2.25673E-13
 -1      2699 2.00502E+01 8.36595E-02-9.45732E-04 1.94801E-01-3.04904E-14-1.53539E-13
 -1      2700 2.00731E+01 1.05127E-01 1.59380E-03 2.20675E-01-1.22403E-14-1.63976E-13
 -1      2701 2.00292E+01 9.29606E-02-3.32591E-05 1.95075E-01-4.21207E-14-1.76625E-13
 -1      2702 2.00730E+01 1.26692E-01-1.24848E-03 2.49596E-01-1.71723E-14-1.43802E-13
 -1      2703 2.00984E+01 1.53631E-01 1.92283E-03 2.85310E-01-9.82479E-14-1.18729E-13
 -1      2704 2.00365E+01 1.42498E-01 2.43087E-04 2.45483E-01-2.01124E-14-2.16088E-13
 -1      2705 2.00937E+01 1.82232E-01-1.72875E-03 3.25533E-01-1.42880E-13-7.24792E-14
 -1      2706 2.01227E+01 2.17988E-01 2.39840E-03 3.75232E-01-7.60943E-14-1.11761E-13
 -1      2707 2.00379E+01 2.05638E-01 5.94886E-04 3.15256E-01-7.07540E-14-1.40783E-13
 -1      2708 2.01092E+01 2.56142E-01-2.44709E-03 4.29485E-01-8.49565E-14-7.47733E-14
 -1      2709 2.01410E+01 3.03814E-01 2.94338E-03 4.97048E-01-5.73496E-14-7.87706E-14
 -1      2710 2.00281E+01 2.89011E-01 1.20175E-03 4.09835E-01-8.79815E-14-5.31318E-15
 -1      2711 2.01124E+01 3.54694E-01-3.49464E-03 5.68618E-01-6.26202E-14-4.03854E-14
 -1      2712 2.01447E+01 4.17884E-01 3.52761E-03 6.58822E-01-2.56032E-14-1.85520E-13
 -1      2713 1.99978E+01 3.99423E-01 2.20494E-03 5.34553E-01-8.35928E-14-2.77201E-15
 -1      2714 2.00914E+01 4.84892E-01-4.98285E-03 7.51549E-01 5.23228E-14-2.91177E-13
 -1      2715 2.01194E+01 5.67019E-01 4.09466E-03 8.69904E-01-6.98009E-16-3.52643E-13
 -1      2716 1.99323E+01 5.44609E-01 3.79655E-03 6.95415E-01-6.71687E-14-1.12855E-13
 -1      2717 2.00270E+01 6.52593E-01-7.03757E-03 9.88096E-01-1.00158E-14-3.95868E-13
 -1      2718 2.00431E+01 7.54982E-01 4.58391E-03 1.14030E+00 1.61665E-14-3.56076E-13
 -1      2719 1.98089E+01 7.31531E-01 6.20635E-03 8.98777E-01-5.79707E-14-2.27610E-13
 -1      2720 1.98918E+01 8.57640E-01-9.77540E-03 1.28878E+00 2.81102E-14-4.66507E-13
 -1      2721 1.98856E+01 9.75169E-01 5.05224E-03 1.47963E+00-5.53672E-14-4.38933E-13
 -1      2722 1.95950E+01 9.62092E-01 9.65113E-03 1.15108E+00-7.44843E-14-3.63959E-13
 -1      2723 1.96505E+01 1.08306E+00-1.31927E-02 1.66454E+00 1.85561E-14-3.80333E-13
 -1      2724 1.96130E+01 1.19524E+00 6.09702E-03 1.89637E+00 6.33786E-14-3.03611E-13
 -1      2725 1.92463E+01 1.22384E+00 1.42457E-02 1.45964E+00 7.14121E-15-4.83578E-13
 -1      2726 1.92676E+01 1.27366E+00-1.66836E-02 2.12825E+00 1.36079E-14-2.43861E-13
 -1      2727 1.92044E+01 1.32855E+00 1.02627E-02 2.39948E+00-5.22932E-15-2.05216E-13
 -1      2728 1.87101E+01 1.47188E+00 2.00154E-02 1.83705E+00 6.52611E-14-4.67519E-13
 -1      2729 1.87334E+01 1.29821E+00-1.67781E-02 2.70185E+00-2.75513E-14-2.52140E-13
 -1      2730 1.86927E+01 1.18131E+00 2.15610E-02 3.00679E+00-1.22753E-13-2.39913E-13
 -1      2731 1.79356E+01 1.59768E+00 2.76306E-02 2.31475E+00-2.12019E-14-5.61257E-13
 -1      2732 1.81041E+01 9.35620E-01 1.88064E-02 3.44041E+00-1.11713E-13-2.28055E-13
 -1      2733 1.82389E+01 3.14953E-01 3.84130E-02 3.81224E+00-6.52707E-14-1.89488E-13
 -1      2734 1.69004E+01 1.34936E+00 4.55642E-02 2.99689E+00-7.73756E-14-4.01289E-13
 -1      2735 1.79540E+01-1.01896E+00 8.88283E-02 4.60448E+00-6.47329E-14-1.08955E-13
 -1      2736 1.86001E+01 9.97861E-01 2.65863E-02-3.36045E+00 1.26613E-13 2.87719E-13
 -1      2737 1.85973E+01 1.19013E+00-1.46701E-02-3.05712E+00 5.58958E-14 2.05082E-13
 -1      2738 1.90872E+01 1.27454E+00 1.31602E-02-2.74063E+00 4.01719E-15 5.93900E-14
 -1      2739 1.91320E+01 1.26153E+00-1.65979E-02-2.46609E+00-1.17732E-13 4.89264E-14
 -1      2740 1.77784E+01 1.51927E+00 2.91809E-02-2.66732E+00-9.84842E-14 1.75264E-13
 -1      2741 1.95034E+01 1.21738E+00 6.72440E-03-2.22064E+00-1.89648E-13 5.31152E-14
 -1      2742 1.95353E+01 1.13683E+00-1.33436E-02-1.97694E+00-3.03503E-13-1.38760E-13
 -1      2743 1.86007E+01 1.48493E+00 2.01382E-02-2.16048E+00-1.69825E-13-1.36196E-13
 -1      2744 1.97917E+01 1.06343E+00 4.63006E-03-1.77490E+00-3.78246E-13 2.67289E-14
 -1      2745 1.97988E+01 9.91079E-01-7.01605E-03-1.56295E+00-2.57178E-13-1.35815E-13
 -1      2746 1.91866E+01 1.31231E+00 1.39173E-02-1.75708E+00-2.71311E-13-5.54296E-14
 -1      2747 1.99098E+01 9.72686E-01 8.16360E-03-1.43301E+00-2.80097E-13-6.74277E-14
 -1      2748 1.98561E+01 9.57491E-01-1.85371E-03-1.25052E+00-3.27730E-13-3.09858E-14
 -1      2749 1.96586E+01 1.09104E+00-7.44398E-03-1.19724E+00-2.78540E-13 6.25083E-14
 -1      2750 1.95023E+01 1.16756E+00 5.19570E-03-1.44070E+00-3.26197E-13 1.69589E-13
 -1      2751 1.99841E+01 1.89545E-01-1.00834E-03-1.10756E-02 8.23978E-14 1.88503E-14
 -1      2752 2.00325E+01 2.61980E-01 5.92969E-03 6.47200E-02 9.03782E-14 3.03725E-14
 -1      2753 1.99332E+01 9.10593E-02-3.73914E-04-1.12628E-01 8.54104E-14 8.01799E-15
 -1      2754 1.99589E+01 1.36232E-01 3.82534E-03-7.05400E-02 9.21762E-14 1.43906E-14
 -1      2755 2.00725E+01 2.13183E-01-2.21484E-03-1.37086E-02 8.18977E-14-3.98556E-14
 -1      2756 2.00637E+01 3.47928E-01-1.87083E-03 1.63422E-01 1.10578E-13 1.32045E-14
 -1      2757 2.01410E+01 4.61860E-01 7.99306E-03 2.90028E-01 1.25041E-13 3.23174E-14
 -1      2758 2.01408E+01 3.91550E-01-2.22547E-03 1.54999E-01 9.60509E-14-3.40950E-14
 -1      2759 1.98949E+01-6.26267E-03 1.77683E-04-1.86185E-01 7.08139E-14-1.99059E-14
 -1      2760 1.98941E+01 1.00014E-02 1.30440E-03-1.79731E-01 8.12574E-14-3.78305E-16
 -1      2761 1.98958E+01-2.62176E-02 2.81637E-04-1.87522E-01 3.17641E-14 1.00063E-14
 -1      2762 1.98886E+01-1.76801E-02 6.09211E-04-1.89267E-01 5.05609E-14-6.05372E-15
 -1      2763 1.99707E+01-1.04360E-02-1.02022E-03-1.86784E-01 4.47616E-14-1.67077E-14
 -1      2764 1.99040E+01-3.50250E-02 3.39819E-04-1.77855E-01 2.38555E-14 2.52249E-14
 -1      2765 1.98932E+01-3.17308E-02 1.54208E-04-1.83962E-01 1.86242E-14 6.72569E-15
 -1      2766 1.99616E+01-3.27903E-02-7.17197E-04-1.88558E-01 3.25200E-14 2.24474E-14
 -1      2767 1.99166E+01-3.62339E-02 3.77673E-04-1.63189E-01 3.77947E-14 3.66601E-14
 -1      2768 1.99040E+01-3.65080E-02-1.31620E-04-1.71006E-01 5.94572E-14 1.05921E-14
 -1      2769 1.99595E+01-4.21311E-02-4.93897E-04-1.79509E-01 3.66225E-14 7.87325E-15
 -1      2770 1.99316E+01-3.22580E-02 4.09866E-04-1.47714E-01 2.25535E-14 3.67600E-14
 -1      2771 1.99183E+01-3.49609E-02-3.00742E-04-1.55407E-01 3.19192E-14 1.87185E-14
 -1      2772 1.99621E+01-4.25779E-02-3.37885E-04-1.65662E-01 5.26081E-14 8.04819E-15
 -1      2773 1.99481E+01-2.47478E-02 4.44820E-04-1.34346E-01 4.31106E-14 4.30217E-14
 -1      2774 1.99345E+01-2.91012E-02-3.91298E-04-1.40649E-01 2.99224E-14 8.42971E-14
 -1      2775 1.99678E+01-3.69443E-02-2.35502E-04-1.51257E-01 1.59087E-14 1.83122E-14
 -1      2776 1.99656E+01-1.48503E-02 4.86718E-04-1.25099E-01 3.33575E-14 2.75425E-14
 -1      2777 1.99518E+01-2.03110E-02-4.30202E-04-1.29147E-01 7.67002E-14 4.98409E-14
 -1      2778 1.99757E+01-2.71651E-02-1.74991E-04-1.39270E-01 6.46881E-14-1.14700E-14
 -1      2779 1.99841E+01-3.41744E-03 5.36035E-04-1.21347E-01-5.59760E-15 4.36481E-14
 -1      2780 1.99700E+01-9.57185E-03-4.35314E-04-1.22564E-01-1.55616E-15 1.61032E-14
 -1      2781 1.99853E+01-1.46029E-02-1.47315E-04-1.31774E-01 3.49005E-14 8.11820E-14
 -1      2782 2.00042E+01 8.79936E-03 5.89154E-04-1.23956E-01 1.09733E-14 7.23427E-14
 -1      2783 1.99893E+01 2.33588E-03-4.16704E-04-1.22007E-01 2.22631E-15 4.63207E-14
 -1      2784 1.99964E+01-3.03903E-04-1.46558E-04-1.30190E-01-3.25393E-14 5.12698E-14
 -1      2785 2.00266E+01 2.09496E-02 6.37581E-04-1.33323E-01-7.55527E-15 9.84488E-14
 -1      2786 2.00104E+01 1.46380E-02-3.77285E-04-1.28112E-01 8.68827E-15 7.57280E-14
 -1      2787 2.00093E+01 1.47595E-02-1.69774E-04-1.35421E-01 1.21394E-14 9.18399E-14
 -1      2788 2.00524E+01 3.18690E-02 6.66603E-04-1.49293E-01-1.00245E-13 1.61630E-13
 -1      2789 2.00343E+01 2.63607E-02-3.12910E-04-1.41026E-01-3.53683E-14 1.45766E-13
 -1      2790 2.00245E+01 2.94374E-02-2.17428E-04-1.47874E-01-5.00269E-14 1.57628E-13
 -1      2791 2.00828E+01 3.98458E-02 6.53725E-04-1.70972E-01-1.07257E-13 1.52228E-13
 -1      2792 2.00622E+01 3.61057E-02-2.11991E-04-1.60266E-01-1.31150E-13 1.25185E-13
 -1      2793 2.00433E+01 4.21321E-02-2.93846E-04-1.67367E-01-6.59939E-14 1.22128E-13
 -1      2794 2.01197E+01 4.23892E-02 5.67215E-04-1.96401E-01-9.84003E-14 1.21951E-13
 -1      2795 2.00959E+01 4.18144E-02-5.52502E-05-1.84465E-01-9.67484E-14 1.11660E-13
 -1      2796 2.00670E+01 5.05115E-02-4.07370E-04-1.92916E-01-9.81515E-14 2.06303E-13
 -1      2797 2.01648E+01 3.60497E-02 3.65388E-04-2.22126E-01-5.52493E-14 1.29562E-13
 -1      2798 2.01373E+01 4.05522E-02 1.83641E-04-2.10985E-01-4.73524E-14 9.63646E-14
 -1      2799 2.00978E+01 5.12361E-02-5.70028E-04-2.22389E-01-6.56158E-14 1.62868E-13
 -1      2800 2.02207E+01 1.63980E-02-2.25874E-06-2.42683E-01-1.04835E-14 1.73630E-13
 -1      2801 2.01891E+01 2.83889E-02 5.35169E-04-2.35419E-01-2.37463E-14 1.65559E-13
 -1      2802 2.01389E+01 3.97784E-02-7.95351E-04-2.52028E-01-9.75015E-14 8.29377E-14
 -1      2803 2.02898E+01-2.16527E-02-5.90092E-04-2.50086E-01-5.30409E-14 1.77472E-13
 -1      2804 2.02541E+01 5.16392E-04 1.02647E-03-2.51048E-01 8.89532E-15 1.76585E-13
 -1      2805 2.01943E+01 1.04817E-02-1.09248E-03-2.75873E-01-1.10238E-15 1.29934E-13
 -1      2806 2.03743E+01-8.28989E-02-1.44395E-03-2.33526E-01 2.24317E-15 2.21631E-13
 -1      2807 2.03353E+01-4.81675E-02 1.66587E-03-2.48361E-01-1.42778E-13 1.58265E-13
 -1      2808 2.02688E+01-4.28904E-02-1.45385E-03-2.85168E-01-1.95619E-14 9.23352E-14
 -1      2809 2.04757E+01-1.69914E-01-2.57524E-03-1.79602E-01 5.79505E-14 1.39766E-13
 -1      2810 2.04350E+01-1.21682E-01 2.41600E-03-2.14926E-01 1.29026E-13 1.75835E-13
 -1      2811 2.03680E+01-1.25744E-01-1.83354E-03-2.67939E-01 2.37606E-14 1.11724E-13
 -1      2812 2.05923E+01-2.79813E-01-3.91312E-03-7.36680E-02 6.22399E-14 1.84315E-13
 -1      2813 2.05533E+01-2.20432E-01 3.15406E-03-1.36064E-01 1.17777E-13 1.63825E-13
 -1      2814 2.04965E+01-2.39937E-01-2.11558E-03-2.09119E-01 1.00367E-13 9.83366E-14
 -1      2815 2.07176E+01-3.99772E-01-5.22775E-03 9.69096E-02-2.53565E-14 5.66964E-14
 -1      2816 2.06859E+01-3.37332E-01 3.62704E-03 2.93612E-03 2.78328E-14 9.97956E-14
 -1      2817 2.06557E+01-3.79428E-01-2.08141E-03-9.18995E-02 1.06813E-13 7.87942E-14
 -1      2818 2.08365E+01-5.02390E-01-6.04356E-03 3.36668E-01-6.76077E-14 8.61428E-15
 -1      2819 2.08202E+01-4.53026E-01 3.43105E-03 2.12052E-01-1.04422E-13-2.51485E-14
 -1      2820 2.08398E+01-5.24545E-01-1.40713E-03 9.86057E-02-1.79276E-15-7.87716E-14
 -1      2821 2.09240E+01-5.43894E-01-5.60393E-03 6.32748E-01-9.99869E-14 6.14057E-15
 -1      2822 2.09331E+01-5.32120E-01 2.06715E-03 4.88365E-01-5.13596E-14-3.98314E-15
 -1      2823 2.10300E+01-6.36682E-01 2.37365E-04 3.68017E-01-7.55792E-14-5.90770E-14
 -1      2824 2.09466E+01-4.70597E-01-3.05286E-03 9.43907E-01-1.59953E-13 4.51690E-14
 -1      2825 2.09899E+01-5.24548E-01-7.95010E-04 8.04837E-01-1.04336E-13-1.53862E-16
 -1      2826 2.11914E+01-6.57900E-01 2.91009E-03 7.00856E-01-1.30654E-13-1.00532E-13
 -1      2827 2.08736E+01-2.40046E-01 1.84908E-03 1.19352E+00-2.14371E-13 8.25182E-14
 -1      2828 2.09534E+01-3.78337E-01-4.87739E-03 1.09970E+00-1.15579E-13 9.51967E-14
 -1      2829 2.12752E+01-5.22599E-01 5.95825E-03 1.04605E+00-1.58871E-13-1.13162E-13
 -1      2830 2.06975E+01 1.43812E-01 7.92088E-03 1.27940E+00-8.75416E-14 7.32524E-14
 -1      2831 2.08035E+01-6.87480E-02-8.68769E-03 1.27701E+00-2.27298E-13 2.58874E-14
 -1      2832 2.12357E+01-1.89860E-01 7.51298E-03 1.30830E+00-1.31918E-13 3.14409E-14
 -1      2833 2.04557E+01 5.99922E-01 1.20833E-02 1.11041E+00-7.55586E-14 2.10113E-13
 -1      2834 2.05633E+01 3.65487E-01-9.82612E-03 1.23208E+00 4.60005E-15 1.41842E-13
 -1      2835 2.10639E+01 3.13682E-01 5.81717E-03 1.36436E+00-1.24683E-13 7.33002E-14
 -1      2836 2.02352E+01 9.74763E-01 1.09310E-02 6.64850E-01-3.94480E-14 3.74458E-13
 -1      2837 2.03113E+01 8.03749E-01-6.49513E-03 9.04250E-01-9.99466E-14 3.03379E-13
 -1      2838 2.08162E+01 8.61912E-01-2.68874E-05 1.11419E+00-1.86199E-13 2.05964E-13
 -1      2839 2.01369E+01 1.11131E+00 4.44933E-03 3.62551E-02 1.57842E-13 3.55828E-13
 -1      2840 2.01558E+01 1.07818E+00 1.11827E-03 3.36377E-01 4.27558E-14 3.11962E-13
 -1      2841 2.06124E+01 1.25805E+00-6.41746E-03 5.58062E-01 3.59167E-14 1.74788E-13
 -1      2842 2.02110E+01 9.46423E-01-4.01425E-03-5.91130E-01 6.81616E-14 3.79103E-13
 -1      2843 2.01672E+01 1.06718E+00 8.76409E-03-3.16850E-01 1.49668E-13 4.07320E-13
 -1      2844 2.05668E+01 1.33475E+00-7.87753E-03-1.59838E-01 1.33211E-13 3.64567E-13
 -1      2845 2.04209E+01 5.52574E-01-9.59936E-03-1.03148E+00 1.71458E-13 3.65718E-13
 -1      2846 2.03328E+01 7.74108E-01 1.23741E-02-8.57444E-01 1.28027E-13 4.33315E-13
 -1      2847 2.07050E+01 1.05556E+00-3.40940E-03-8.09540E-01 4.83783E-14 2.98363E-13
 -1      2848 2.06659E+01 9.09307E-02-1.01946E-02-1.18856E+00-7.52787E-14 5.36571E-13
 -1      2849 2.05659E+01 3.25162E-01 1.02952E-02-1.14382E+00 5.54286E-14 4.57690E-13
 -1      2850 2.09437E+01 5.39720E-01 3.21234E-03-1.19583E+00 1.88787E-16 3.29085E-13
 -1      2851 2.08472E+01-2.86320E-01-6.97396E-03-1.08477E+00 1.21471E-13 4.40955E-13
 -1      2852 2.07649E+01-1.10415E-01 4.71750E-03-1.14996E+00 1.56986E-14 5.09641E-13
 -1      2853 2.11535E+01-1.14667E-02 7.20759E-03-1.25497E+00-6.08113E-15 4.41281E-13
 -1      2854 2.09165E+01-5.03030E-01-2.62668E-03-8.15055E-01 3.59436E-13 3.03657E-13
 -1      2855 2.08690E+01-4.14321E-01-9.80055E-04-9.45956E-01 3.21627E-13 3.97364E-13
 -1      2856 2.12452E+01-4.30826E-01 7.14064E-03-1.05427E+00 2.78406E-13 3.13748E-13
 -1      2857 2.08774E+01-5.57813E-01 1.01084E-03-4.87216E-01 4.71578E-13 1.69933E-13
 -1      2858 2.08672E+01-5.49051E-01-4.77916E-03-6.37687E-01 3.83342E-13 2.93463E-13
 -1      2859 2.12007E+01-6.47403E-01 4.42293E-03-7.17239E-01 4.12635E-13 4.41128E-13
 -1      2860 2.07628E+01-4.93191E-01 3.26768E-03-1.83448E-01 3.05503E-13 3.55479E-13
 -1      2861 2.07828E+01-5.39243E-01-6.23146E-03-3.19426E-01 4.35672E-13 3.23714E-13
 -1      2862 2.10535E+01-6.74902E-01 1.37534E-03-3.59175E-01 3.34718E-13 5.34569E-13
 -1      2863 2.06103E+01-3.61378E-01 4.19610E-03 5.00780E-02 8.19213E-14 3.13166E-13
 -1      2864 2.06500E+01-4.35604E-01-6.03539E-03-5.23268E-02 2.27046E-13 3.19124E-13
 -1      2865 2.08537E+01-5.70954E-01-7.02797E-04-5.49611E-02 3.04597E-13 7.19284E-13
 -1      2866 2.04492E+01-2.04977E-01 4.19607E-03 1.96951E-01-2.35519E-15 2.28309E-13
 -1      2867 2.04988E+01-2.87593E-01-5.21609E-03 1.34826E-01-8.34714E-14 1.65284E-13
 -1      2868 2.06437E+01-3.98285E-01-1.51133E-03 1.60598E-01 2.61900E-14 5.15837E-13
 -1      2869 2.03012E+01-5.39476E-02 4.12309E-03 2.60535E-01-1.74057E-13 3.05046E-13
 -1      2870 2.03535E+01-1.33347E-01-4.19323E-03 2.38511E-01-7.85242E-14 2.72733E-13
 -1      2871 2.04554E+01-2.05077E-01 2.63383E-05 2.84932E-01-1.10994E-13 3.53605E-13
 -1      2872 2.02926E+01-2.14732E-02 1.41513E-03 3.28057E-01-9.40922E-14 2.14285E-13
 -1      2873 2.00092E+01 4.22417E-01-3.85153E-03 9.02973E-01 1.64513E-13-1.64900E-13
 -1      2874 2.01212E+01 3.18703E-01 5.66997E-03 8.77582E-01 2.96109E-13-2.62081E-13
 -1      2875 2.03265E+01 1.02276E-02 2.42237E-03 5.00903E-01-5.47353E-14 4.61631E-14
 -1      2876 2.03192E+01-2.16463E-02 1.99270E-03 4.18180E-01-6.22242E-14 5.92771E-14
 -1      2877 2.03896E+01-1.25358E-01-4.13169E-03 4.18183E-01-5.78215E-14 1.70456E-13
 -1      2878 2.02029E+01 2.18031E-01-6.16821E-04 8.05400E-01 1.62579E-13-5.13820E-13
 -1      2879 2.02651E+01 1.38092E-01 3.88935E-03 7.38264E-01 2.56143E-13-3.69459E-13
 -1      2880 2.02012E+01 1.04072E-01-4.66053E-03 9.26915E-01 2.29051E-13-2.93584E-13
 -1      2881 1.94229E+01 9.73014E-01-1.02047E-02 6.68323E-01-2.39492E-13 1.07859E-13
 -1      2882 1.95804E+01 8.67250E-01 7.33857E-03 7.92047E-01-1.88512E-13 1.70148E-13
 -1      2883 1.91736E+01 1.21871E+00-1.02772E-02 2.93186E-01-3.33956E-13 5.86101E-14
 -1      2884 1.92894E+01 1.14585E+00 4.85631E-03 4.88631E-01-3.50520E-13 2.22067E-13
 -1      2885 1.92140E+01 9.76188E-01 2.13121E-03 7.00087E-01-2.40881E-13 3.63995E-14
 -1      2886 1.90722E+01 1.36257E+00-7.34190E-03-2.16099E-01-2.87687E-13 1.53937E-13
 -1      2887 1.91003E+01 1.34097E+00-8.26793E-05 2.66822E-02-3.46579E-13 2.40856E-13
 -1      2888 1.89443E+01 1.25692E+00 6.75165E-03 2.37234E-01-4.04985E-13 9.40661E-14
 -1      2889 1.91974E+01 1.34601E+00-3.00017E-03-7.48848E-01-3.20430E-13 2.49994E-13
 -1      2890 1.91060E+01 1.39151E+00-5.01443E-03-5.15098E-01-2.70779E-13 9.16799E-14
 -1      2891 1.88792E+01 1.40407E+00 8.70584E-03-3.57941E-01-3.41936E-13 1.81651E-13
 -1      2892 8.77319E+00-1.53667E-01 1.47862E-01-2.74372E+00-1.34573E-13-1.05277E-13
 -1      2893 1.02808E+01-1.05879E+00 1.66357E-01-4.28683E+00-4.93910E-14 3.10141E-13
 -1      2894 1.17437E+01-2.49207E+00 1.58159E-01-6.60480E+00 1.46813E-13-3.36092E-13
 -1      2895 1.49157E+01-3.78596E+00 4.44342E-02-7.36298E+00 6.50591E-14-4.00388E-13
 -1      2896 1.00226E+01-1.80146E+00 9.11849E-02 4.61327E+00 7.86315E-14 2.42695E-13
 -1      2897 8.17267E+00-4.37483E-01 2.15753E-01 2.81000E+00 9.54861E-14 3.63987E-13
 -1      2898 1.31078E+01-9.71902E-01 1.33733E-01 4.44984E+00-8.71525E-15 3.71231E-14
 -1      2899 1.21832E+01-2.02239E+00 1.58511E-01-5.23470E+00-5.47062E-14 3.71925E-13
 -1      2900 1.54272E+01-3.39742E+00 9.55198E-02-6.00345E+00-1.20765E-13 2.63789E-13
 -1      2901 1.33651E+01-9.19745E-01 1.57196E-01-4.61443E+00-1.53488E-14 2.77806E-13
 -1      2902 1.90433E+01-2.83568E+00 1.16943E-01-5.17341E+00-1.28786E-13 2.81636E-13
 -1      2903 1.81526E+01-1.29532E+00 1.10189E-01-4.85179E+00-9.55694E-14 3.20070E-13
 -1      2904 2.01810E+01 2.27395E+00 1.59714E-04-1.42522E+00-6.89433E-14-2.18904E-13
 -1      2905 1.85072E+01-4.57787E+00 1.34172E-01-6.90378E+00-2.52715E-14-3.81889E-13
 -1      2906 2.17928E+01-5.06663E+00-3.36081E-02-6.00185E+00-1.27939E-13-3.73179E-13
 -1      2907 7.47681E+00-4.58770E-02 1.62997E-01 2.38462E+00-3.74561E-14-1.00475E-14
 -1      2908 7.49868E+00 3.29702E-01 1.50303E-01-3.77532E-01-3.75481E-14-3.13388E-13
 -1      2909 2.96674E+01 2.01169E+00-9.82149E-02 1.48555E+00 9.25926E-14 1.06387E-13
 -1      2910 2.96170E+01 3.84805E+00-2.02112E-01 1.69770E+00 2.08777E-13 2.11137E-13
 -1      2911 2.86912E+01 4.95106E+00-1.83544E-01-1.72927E+00 4.38261E-14-1.09621E-13
 -1      2912 2.89780E+01 3.41761E+00-1.46634E-01-1.88383E+00-4.25215E-14-2.39184E-13
 -1      2913 2.90725E+01-1.87478E+00 5.67988E-03-5.60370E-01-1.15956E-13-2.75724E-13
 -1      2914 2.96507E+01-2.29216E-01-1.75828E-01 5.03901E-01 4.02456E-16-2.21947E-13
 -1      2915 2.51689E+01-4.70736E+00 5.49029E-02-4.20966E+00-2.46650E-13-3.74749E-13
 -1      2916 2.75903E+01-3.75612E+00-1.13911E-01-2.44522E+00-2.75210E-13-4.37650E-13
 -1      2917 1.99242E+01 2.59616E+00-7.87961E-03 7.94615E-01 1.97511E-13-7.31080E-14
 -1      2918 1.98804E+01 2.68822E+00-6.13764E-03 6.45676E-01 1.87358E-13-1.02394E-13
 -1      2919 1.99990E+01 2.38851E+00 4.24936E-03 5.16895E-01 1.69267E-13-9.48875E-14
 -1      2920 2.00800E+01 2.19079E+00 5.44879E-03 7.46188E-01 1.88652E-13-6.00900E-14
 -1      2921 1.98755E+01 2.69683E+00-6.04018E-03-6.35381E-01 3.82610E-14-2.17474E-13
 -1      2922 1.99182E+01 2.60713E+00-7.66897E-03-7.84754E-01 1.94814E-14-2.27611E-13
 -1      2923 6.84027E+00-1.86176E-01 1.65140E-01 1.30117E+00 1.62825E-13 3.99986E-13
 -1      2924 6.46822E+00 2.65939E-02 1.73612E-01-1.01064E+00 2.12545E-13 1.65368E-13
 -1      2925 9.64539E+00 4.84871E-01 1.51643E-01 1.97165E+00 1.46286E-13 2.78069E-13
 -1      2926 2.99732E+01 7.58698E+00-1.63781E-01-4.20133E-02-3.84970E-14 7.38385E-14
 -1      2927 2.88663E+01 6.70174E+00-1.65149E-01-9.16554E-01-1.01308E-14 5.14380E-14
 -1      2928 6.67813E+00-6.14114E-01 1.68261E-01-3.23810E+00 1.15227E-13 1.08802E-14
 -1      2929 8.61443E+00-1.26414E+00 1.24611E-01-5.17245E+00 1.57735E-13-3.47777E-14
 -1      2930 1.97314E+01 6.86124E-01-7.65829E-03 8.72290E-01-1.11349E-13 1.44126E-13
 -1      2931 1.98821E+01 5.71956E-01 7.32043E-03 9.13754E-01 2.45458E-14-1.42635E-13
 -1      2932 1.95795E+01 6.43767E-01-2.23411E-03 9.63025E-01-7.34512E-14 9.23627E-14
 -1      2933 2.02983E+01 8.67929E-02 1.51402E-03 6.62825E-01 1.21744E-13 8.35591E-14
 -1      2934 2.03195E+01 3.41539E-02 2.96724E-03 5.80157E-01-1.15716E-13 3.36402E-13
 -1      2935 2.04040E+01-1.07142E-01-3.69499E-03 6.01633E-01-8.83494E-14 2.06045E-13
 -1      2936 2.03476E+01-3.51161E-02-3.92501E-03 7.65786E-01 1.42620E-14-1.05985E-13
 -1      2937 1.99055E+01 3.01273E-02-1.62061E-05-1.65277E-01 7.93195E-14-6.98749E-15
 -1      2938 1.99152E+01 5.78818E-02 2.33500E-03-1.45061E-01 8.47340E-14 1.10122E-14
 -1      2939 2.00226E+01 1.00770E-01-1.84422E-03-1.13418E-01 9.35347E-14-3.94202E-14
 -1      2940 1.99898E+01 3.10195E-02-1.40596E-03-1.65690E-01 8.07415E-14-7.59246E-14
 -1      2941 1.82852E+01-1.13857E-02 5.91030E-02-4.12217E+00-1.55889E-13 3.94705E-13
 -1      2942 1.80444E+01 6.57085E-01 1.55082E-02-3.79302E+00 4.30940E-14 3.69873E-13
 -1      2943 1.67368E+01 1.12221E+00 3.78999E-02-3.35643E+00-3.07601E-14 2.13553E-13
 -1      2944 2.87498E+01-2.96149E+00-1.27784E-01 1.57831E+00 1.66200E-13-5.60066E-13
 -1      2945 2.67023E+01-4.27968E+00 6.57401E-02 3.08839E+00 1.64271E-13-5.53182E-13
 -1      2946 1.99339E+01 2.53865E+00 3.40317E-03 4.63578E-03 9.98523E-14-1.39512E-13
 -1      2947 1.97950E+01 2.87011E+00-5.48239E-03-6.19030E-02 9.99723E-14-1.63069E-13
 -1      2948 1.98024E+01 2.85546E+00-5.53662E-03-2.16635E-01 7.72210E-14-1.75956E-13
 -1      2949 2.03234E+01 1.60347E+00 1.62852E-03 1.27085E+00 1.65631E-13 8.12059E-14
 -1      2950 1.94224E+01-4.52197E+00 1.16530E-01 6.49133E+00-3.69496E-13-2.30607E-13
 -1      2951 2.88145E+01 2.07395E+00-1.36710E-01-1.78239E+00-1.48132E-13-2.58724E-13
 -1      2952 2.83315E+01 8.54194E-01-5.49312E-02-1.61031E+00-1.18586E-13-2.81226E-13
 -1      2953 2.75699E+01 2.66174E+00-7.43486E-02-2.06003E+00-1.29174E-13-3.14346E-13
 -1      2954 2.53504E+01-4.60739E+00 1.59878E-02 3.51490E+00 8.22051E-14-4.16889E-13
 -1      2955 2.77300E+01-3.00613E+00-4.13249E-02-1.13084E+00-1.82319E-13-3.46362E-13
 -1      2956 2.86669E+01 6.46831E-01-6.19828E-02 1.35257E+00 1.15394E-13 1.16310E-13
 -1      2957 1.55773E+01-2.71913E-01 2.94361E-02 4.33211E+00-4.81525E-14-1.28605E-13
 -1      2958 1.10457E+01-1.54777E+00 1.46452E-01-5.80120E+00 2.04128E-13-2.33286E-13
 -1      2959 1.34657E+01-1.71232E+00 9.26762E-02-5.90930E+00 2.17076E-13-2.35562E-13
 -1      2960 1.05816E+01-4.80132E-01 8.76602E-02-4.72151E+00 2.37588E-13-1.72612E-13
 -1      2961 2.23541E+01-4.49106E+00 5.25221E-02-5.03201E+00-2.40807E-13-1.60198E-13
 -1      2962 2.38308E+01-4.89105E+00 3.73581E-02-4.74976E+00-2.08639E-13-2.61208E-13
 -1      2963 2.49822E+01-4.41744E+00-2.95878E-02-3.24457E+00-2.75424E-13-2.24782E-13
 -1      2964 1.46274E+01-3.25310E+00-4.69897E-03 6.73374E+00-1.48770E-13 6.93334E-14
 -1      2965 1.23281E+01-2.93067E+00 1.52568E-01 6.73360E+00-5.45120E-14-7.46764E-14
 -1      2966 1.18590E+01-1.68418E+00 1.69623E-01 5.93217E+00 1.73389E-13-1.07164E-13
 -1      2967 1.56414E+01-5.08185E-01 4.38611E-02-4.62494E+00-5.63924E-14 2.64497E-13
 -1      2968 1.99343E+01 3.35493E-01-4.70309E-03 1.02392E+00 1.42673E-13-1.70281E-13
 -1      2969 2.03019E+01 1.73012E+00-9.30441E-03-1.32323E+00-8.38960E-14-1.80891E-13
 -1      2970 2.02879E+01 1.32783E+00-6.62584E-03-1.03907E+00-7.51654E-14-1.68337E-13
 -1      2971 9.89516E+00 6.95053E-01 1.61697E-01-1.36044E+00-1.02519E-13-1.07039E-13
 -1      2972 1.94769E+01 1.19766E+00-2.25518E-03-1.06858E+00-2.64627E-13 4.39833E-13
 -1      2973 1.93287E+01 1.28587E+00-7.38945E-03-9.31732E-01-3.38702E-13 4.88894E-13
 -1      2974 1.90671E+01 1.37424E+00 7.54194E-03-8.70985E-01-3.24300E-13 3.34286E-13
 -1      2975 1.93835E+01 1.22955E+00 1.60992E-03-1.18443E+00-2.90497E-13 2.93433E-13
 -1      2976 2.02194E+01 6.74923E-01-1.90336E-03 4.19147E-01 1.33374E-13 1.20889E-15
 -1      2977 2.01785E+01 6.16877E-01 1.49851E-03 4.46930E-01 1.26105E-13 5.44756E-14
 -1      2978 2.02100E+01 6.97553E-01 6.56676E-03 5.59057E-01 1.25645E-13 8.65727E-14
 -1      2979 2.86280E+01-1.94361E+00-4.00630E-02 4.34141E-02 1.18863E-13-3.14276E-13
 -1      2980 2.00738E+01 2.20410E+00 5.70734E-03-7.38993E-01 2.02670E-15-2.07834E-13
 -1      2981 1.99726E+01 2.48732E+00-6.15216E-03-9.01464E-01 1.75500E-15-2.32810E-13
 -1      2982 2.00270E+01 2.35082E+00-1.16820E-02-1.04157E+00-3.63388E-14-2.42904E-13
 -1      2983 1.75753E+01-3.75034E+00 1.12060E-01-6.60449E+00 9.25648E-15-3.64458E-13
 -1      2984 2.67689E+01 6.08026E+00-1.42255E-01-8.67770E-01-1.03362E-13-2.51580E-13
 -1      2985 2.79113E+01 5.67793E+00-1.52860E-01-1.44152E+00-7.09433E-14-9.80674E-14
 -1      2986 2.68987E+01 4.59204E+00-9.04417E-02-1.66762E+00-1.54807E-13-4.11029E-13
 -1      2987 1.93954E+01-3.84158E+00 2.20928E-01-5.54486E+00-2.81081E-13 2.21073E-13
 -1      2988 9.86751E+00-9.11008E-01 1.03197E-01 4.87961E+00 1.59844E-13 1.45467E-13
 -1      2989 8.19239E+00-6.40081E-01 1.68576E-01 3.89491E+00 5.23401E-14 3.73590E-14
 -1      2990 9.66660E+00 3.86023E-01 1.61776E-01 2.64858E+00 7.63382E-14 1.50366E-13
 -1      2991 1.20113E+01-1.18857E+00 1.29894E-01 5.27902E+00 2.98650E-13-1.38042E-13
 -1      2992 2.89533E+01 4.75993E+00-1.26521E-01 1.76711E+00 1.78024E-13 1.64729E-13
 -1      2993 2.76327E+01 5.41443E+00-1.95917E-01 1.62197E+00 1.35225E-13 7.48429E-14
 -1      2994 2.75470E+01 3.44678E+00-7.10056E-02 1.99034E+00 1.95732E-13 1.81841E-13
 -1      2995 2.03167E+01 1.39026E+00 8.87794E-03 1.02415E+00 1.58567E-13 4.92949E-14
 -1      2996 1.98180E+01 2.81997E+00-5.67824E-03-3.51861E-01 7.36362E-14-1.68971E-13
 -1      2997 1.98421E+01 2.77169E+00-6.15748E-03-5.05497E-01 5.43838E-14-1.93245E-13
 -1      2998 1.99949E+01 2.39614E+00 4.27571E-03-5.07759E-01 3.30730E-14-1.95138E-13
 -1      2999 1.99485E+01 2.50460E+00 3.59089E-03-2.55814E-01 6.35267E-14-1.56683E-13
 -1      3000 2.84820E+01 6.92079E+00-1.41838E-01 3.60773E-01 1.20653E-13 9.53664E-15
 -1      3001 8.38555E+00 4.24659E-01 1.89522E-01-1.81792E+00 2.48017E-13 1.35003E-13
 -1      3002 2.02777E+01 1.41254E+00 2.19369E-03-9.43328E-01-5.81545E-14-1.79850E-13
 -1      3003 2.02361E+01 1.47597E+00-9.94482E-03 8.07803E-01 1.68753E-13-3.91104E-14
 -1      3004 2.02010E+01 1.66641E+00-1.43830E-03 7.44918E-01 1.77243E-13-6.02009E-14
 -1      3005 2.02584E+01 7.55126E-01 6.69838E-03 7.55816E-01 1.28712E-13 1.39973E-13
 -1      3006 2.08261E+01-4.42970E+00-2.68398E-02 5.58398E+00-2.19540E-13-3.04477E-13
 -1      3007 1.80442E+01-3.80375E+00 1.76146E-01 6.53029E+00-3.48721E-13-1.04153E-13
 -1      3008 1.68782E+01-2.97054E+00 1.06337E-01 6.16009E+00 2.94209E-15-1.61794E-13
 -1      3009 2.02701E+01 7.13480E-01 4.39896E-03-3.45982E-01-5.39598E-14-1.76056E-13
 -1      3010 2.02269E+01 5.50873E-01-3.70550E-03-2.15438E-01-6.88190E-14-1.72944E-13
 -1      3011 2.02215E+01 4.23551E-01 4.15995E-03-1.20218E-01-7.01454E-14-1.51116E-13
 -1      3012 2.01822E+01 3.15838E-01-2.30918E-03-3.52369E-02-5.33690E-14-1.33152E-13
 -1      3013 2.02728E+01 5.80122E-01-3.27710E-04-1.88947E-01-5.20496E-14-1.50468E-13
 -1      3014 2.01681E+01 2.32469E-01 3.17844E-03 2.64068E-02-5.81709E-14-1.28660E-13
 -1      3015 2.01379E+01 1.61882E-01-1.38389E-03 7.77041E-02-4.62400E-14-1.23898E-13
 -1      3016 2.02384E+01 3.32832E-01-8.20294E-04-2.60185E-02-5.64752E-14-1.17280E-13
 -1      3017 2.01203E+01 1.05880E-01 2.21678E-03 1.15355E-01-4.11303E-14-1.28718E-13
 -1      3018 2.00986E+01 5.97164E-02-6.71992E-04 1.43649E-01-5.39717E-14-1.19395E-13
 -1      3019 2.01970E+01 1.66524E-01-8.60639E-04 7.87415E-02-4.60487E-14-1.43576E-13
 -1      3020 2.00826E+01 2.74516E-02 1.44132E-03 1.60915E-01-7.99431E-14-1.19589E-13
 -1      3021 2.00696E+01 1.00089E-03-1.48908E-04 1.72204E-01-8.80166E-14-1.38344E-13
 -1      3022 2.01573E+01 5.96225E-02-9.72271E-04 1.37892E-01-5.75550E-14-1.78460E-13
 -1      3023 2.00554E+01-1.79210E-02 8.35163E-04 1.77981E-01-9.67364E-14-1.43187E-13
 -1      3024 2.00481E+01-3.22884E-02 1.36484E-04 1.79648E-01-8.12488E-14-1.49514E-13
 -1      3025 2.01238E+01-3.28468E-03-8.46525E-04 1.64480E-01-9.68878E-14-1.29759E-13
 -1      3026 2.00361E+01-4.17285E-02 4.09637E-04 1.78347E-01-6.51212E-14-1.34261E-13
 -1      3027 2.00330E+01-4.77342E-02 3.07768E-04 1.74627E-01-3.65901E-14-1.48138E-13
 -1      3028 2.00961E+01-3.82947E-02-6.99603E-04 1.71516E-01-6.42885E-14-1.05199E-13
 -1      3029 2.00231E+01-5.05346E-02 1.08599E-04 1.69644E-01-4.46974E-14-1.66782E-13
 -1      3030 2.00230E+01-5.06647E-02 4.15577E-04 1.63565E-01-7.99222E-14-1.89542E-13
 -1      3031 2.00739E+01-5.37279E-02-5.61530E-04 1.67143E-01-6.84000E-14-8.74054E-14
 -1      3032 2.00150E+01-4.87549E-02-1.03263E-04 1.57388E-01-8.80744E-14-1.65630E-13
 -1      3033 2.00169E+01-4.46587E-02 4.87174E-04 1.51143E-01-8.17801E-14-1.74948E-13
 -1      3034 2.00565E+01-5.53399E-02-4.39497E-04 1.57404E-01-5.80945E-14-7.28600E-14
 -1      3035 2.00104E+01-3.92774E-02-2.56963E-04 1.45593E-01-3.76381E-14-1.19891E-13
 -1      3036 2.00139E+01-3.19630E-02 5.42200E-04 1.40805E-01-7.49856E-15-1.29398E-13
 -1      3037 2.00431E+01-4.69760E-02-3.32815E-04 1.46739E-01-2.27547E-14-9.30908E-14
 -1      3038 2.00085E+01-2.38093E-02-3.79194E-04 1.37252E-01-3.83555E-14-1.53658E-13
 -1      3039 2.00131E+01-1.37694E-02 5.94460E-04 1.35187E-01-2.29193E-14-1.45485E-13
 -1      3040 2.00326E+01-3.10150E-02-2.36015E-04 1.38433E-01-3.05923E-14-1.20902E-13
 -1      3041 2.00081E+01-3.09492E-03-4.93607E-04 1.34715E-01 3.74968E-14-1.69758E-13
 -1      3042 2.00136E+01 9.61860E-03 6.53033E-04 1.36455E-01 6.25632E-14-1.42584E-13
 -1      3043 2.00241E+01-8.65777E-03-1.39965E-04 1.35005E-01 7.72625E-15-6.86977E-14
 -1      3044 2.00084E+01 2.29611E-02-6.22904E-04 1.40001E-01 6.31903E-14-9.15281E-14
 -1      3045 2.00145E+01 3.87083E-02 7.24421E-04 1.46580E-01 1.07890E-14-1.19355E-13
 -1      3046 2.00163E+01 1.98963E-02-3.11500E-05 1.38507E-01 6.34030E-14-1.06351E-13
 -1      3047 2.00081E+01 5.52318E-02-7.97841E-04 1.55042E-01-3.71605E-14-6.49089E-14
 -1      3048 2.00144E+01 7.48403E-02 8.52173E-04 1.67543E-01-6.79168E-14-8.23651E-14
 -1      3049 2.00075E+01 5.53770E-02 1.11695E-04 1.50759E-01-1.05702E-14-1.91006E-14
 -1      3050 2.00050E+01 9.66797E-02-1.04111E-03 1.82634E-01-4.84869E-14-2.95796E-14
 -1      3051 2.00110E+01 1.22671E-01 9.50002E-04 2.03663E-01-3.69243E-14-4.58908E-14
 -1      3052 1.99951E+01 1.00495E-01 2.49151E-04 1.74298E-01-1.54149E-14 1.27899E-13
 -1      3053 1.99968E+01 1.49226E-01-1.37271E-03 2.25153E-01-8.96863E-14-2.45013E-14
 -1      3054 2.00008E+01 1.80986E-01 9.67150E-04 2.54079E-01-3.15803E-14-3.68657E-14
 -1      3055 1.99760E+01 1.57647E-01 6.33376E-04 2.10586E-01-5.23497E-14 6.24202E-14
 -1      3056 1.99788E+01 2.15277E-01-1.83846E-03 2.83489E-01-3.70590E-16-1.10997E-13
 -1      3057 1.99789E+01 2.56280E-01 9.94532E-04 3.23009E-01-7.12038E-14-2.35236E-14
 -1      3058 1.99456E+01 2.28492E-01 1.10532E-03 2.60312E-01-4.87761E-14 6.14183E-14
 -1      3059 1.99439E+01 3.00896E-01-2.50418E-03 3.61405E-01-9.91137E-14-4.51507E-14
 -1      3060 1.99364E+01 3.54197E-01 9.22922E-04 4.13575E-01-4.38129E-14 8.43509E-16
 -1      3061 1.98961E+01 3.19397E-01 1.83845E-03 3.25744E-01-9.77662E-14 3.91642E-15
 -1      3062 1.98814E+01 4.12403E-01-3.43476E-03 4.61880E-01-6.21294E-14-4.44847E-15
 -1      3063 1.98601E+01 4.81576E-01 6.68076E-04 5.28911E-01-1.12107E-13 2.11695E-14
 -1      3064 1.98161E+01 4.36571E-01 2.95841E-03 4.08054E-01-1.23373E-13-2.64356E-15
 -1      3065 1.97745E+01 5.57019E-01-4.72346E-03 5.87686E-01-1.54930E-13-2.68757E-15
 -1      3066 1.97298E+01 6.45715E-01 1.15424E-04 6.71714E-01-1.58306E-13-1.13373E-13
 -1      3067 1.96888E+01 5.87154E-01 4.64280E-03 5.07457E-01-1.42714E-13 3.19222E-14
 -1      3068 1.95984E+01 7.41622E-01-6.50429E-03 7.40901E-01-1.05344E-13-1.46806E-13
 -1      3069 1.95160E+01 8.52350E-01-8.66051E-04 8.43665E-01-4.50228E-14-2.07819E-13
 -1      3070 1.94895E+01 7.78144E-01 7.12566E-03 6.22501E-01-1.33681E-13-1.33254E-13
 -1      3071 1.93171E+01 9.69626E-01-8.99545E-03 9.22499E-01-8.32603E-14-1.99527E-13
 -1      3072 1.91771E+01 1.10110E+00-2.35080E-03 1.04518E+00-1.23972E-13-2.53942E-13
 -1      3073 1.91827E+01 1.01387E+00 1.07041E-02 7.49425E-01-6.86443E-14-1.29304E-13
 -1      3074 1.88805E+01 1.23436E+00-1.25779E-02 1.13289E+00-4.80586E-14-2.32168E-13
 -1      3075 1.86578E+01 1.37641E+00-4.09492E-03 1.27690E+00 2.79529E-15-2.64883E-13
 -1      3076 1.87187E+01 1.29094E+00 1.57819E-02 8.82376E-01-6.12790E-14-2.74312E-14
 -1      3077 1.82214E+01 1.50659E+00-1.77929E-02 1.37569E+00 1.03448E-14-2.14357E-13
 -1      3078 1.78893E+01 1.63125E+00-4.65367E-03 1.54635E+00 9.06176E-16-2.65494E-13
 -1      3079 1.80292E+01 1.58931E+00 2.31495E-02 1.01654E+00 6.87113E-15-6.25507E-14
 -1      3080 1.72538E+01 1.71188E+00-2.50055E-02 1.66961E+00-1.84583E-14-3.37276E-13
 -1      3081 1.67939E+01 1.75631E+00-1.32427E-03 1.88703E+00 9.08908E-15-3.06273E-13
 -1      3082 1.70203E+01 1.85798E+00 3.51406E-02 1.15845E+00-3.47335E-14 2.96204E-14
 -1      3083 1.58210E+01 1.71531E+00-2.55573E-02 2.07773E+00 4.22752E-14-2.61940E-13
 -1      3084 1.51333E+01 1.45377E+00-7.03033E-03 2.45070E+00 2.12061E-14-1.79898E-13
 -1      3085 1.55226E+01 1.97511E+00 5.78836E-02 1.35530E+00 6.34744E-14-1.11858E-13
 -1      3086 1.85408E+01 1.43492E+00-9.84171E-03-4.65316E-01-2.17660E-13 1.86771E-13
 -1      3087 1.85269E+01 1.41826E+00 3.13879E-04-1.53868E-01-3.28167E-13 3.44928E-13
 -1      3088 1.66102E+01 1.67784E+00 8.52754E-03-2.19701E+00-1.03277E-13-2.10253E-14
 -1      3089 1.70786E+01 1.67080E+00-2.76545E-02-1.97101E+00-1.96331E-13-8.99528E-14
 -1      3090 1.51343E+01 1.30739E+00 5.10696E-02-2.76249E+00-2.27881E-13 1.35621E-13
 -1      3091 1.55965E+01 1.56806E+00-2.18220E-02-2.44075E+00-1.89990E-13-9.53751E-15
 -1      3092 1.52734E+01 1.92509E+00 7.61596E-02-1.59679E+00-1.59836E-13-3.29804E-13
 -1      3093 1.77909E+01 1.64404E+00 9.55613E-04-1.84205E+00-3.09792E-13 2.96924E-14
 -1      3094 1.81426E+01 1.54976E+00-1.81716E-02-1.65426E+00-2.76242E-13-1.24755E-13
 -1      3095 1.68935E+01 1.83557E+00 3.66295E-02-1.39975E+00-2.46070E-13-2.32759E-13
 -1      3096 1.86323E+01 1.44684E+00-6.14247E-03-1.54905E+00-1.29328E-13 1.71694E-15
 -1      3097 1.88902E+01 1.35692E+00-9.40435E-03-1.39302E+00-1.56755E-13 1.30882E-13
 -1      3098 1.79999E+01 1.64666E+00 1.64394E-02-1.28867E+00-2.01754E-13 2.41143E-13
 -1      3099 2.01396E+01 2.28908E-01-1.70746E-03-2.47884E-02 9.90418E-14-8.79655E-14
 -1      3100 2.01764E+01 3.14761E-01 3.94225E-03 4.38254E-02 8.88134E-14-7.34995E-14
 -1      3101 2.01892E+01 4.16318E-01-2.91220E-03 1.24659E-01 9.32225E-14-3.77115E-14
 -1      3102 2.02357E+01 5.47371E-01 4.80801E-03 2.34566E-01 1.07178E-13-4.14282E-14
 -1      3103 2.02437E+01 4.42506E-01-7.81495E-04 1.08542E-01 1.15659E-13-9.63501E-14
 -1      3104 2.00230E+01-3.82508E-02 2.20594E-04-1.81163E-01 1.82791E-14 6.53662E-14
 -1      3105 2.00270E+01-2.80296E-02 6.33920E-04-1.82316E-01 2.18085E-14 5.05395E-14
 -1      3106 2.00396E+01-1.39488E-02 8.17588E-06-1.79933E-01-5.08962E-15-1.20495E-14
 -1      3107 2.00487E+01 6.19340E-03 1.16778E-03-1.73336E-01 1.35670E-14-2.50293E-14
 -1      3108 2.00940E+01-1.90535E-02-8.01869E-04-1.72781E-01-2.92128E-14 5.17988E-14
 -1      3109 2.00061E+01-4.73732E-02 4.29742E-04-1.59958E-01 3.55817E-14 3.96008E-14
 -1      3110 2.00041E+01-4.87512E-02-3.00409E-06-1.66660E-01 3.80799E-14 2.58128E-14
 -1      3111 2.00033E+01-3.98697E-02 4.81101E-04-1.47160E-01 3.72429E-14 2.00850E-14
 -1      3112 1.99997E+01-4.45130E-02-1.77217E-04-1.53491E-01 4.27319E-14 4.79340E-14
 -1      3113 2.00382E+01-5.18534E-02-3.81505E-04-1.55157E-01 4.07098E-14 4.62238E-14
 -1      3114 2.00031E+01-2.75535E-02 5.19249E-04-1.37082E-01 5.90268E-14 1.98110E-14
 -1      3115 1.99983E+01-3.44389E-02-2.92438E-04-1.41747E-01 4.64032E-14-3.74487E-15
 -1      3116 2.00279E+01-4.21227E-02-2.89584E-04-1.44113E-01 3.57945E-14 3.22090E-14
 -1      3117 2.00051E+01-1.19796E-02 5.53877E-04-1.31738E-01-4.85512E-14 1.49419E-13
 -1      3118 1.99993E+01-2.03704E-02-3.67418E-04-1.33833E-01 3.00789E-14 1.11361E-13
 -1      3119 2.00205E+01-2.70381E-02-2.20234E-04-1.36070E-01-1.15220E-14 9.04294E-14
 -1      3120 2.00089E+01 5.63271E-03 5.90065E-04-1.32539E-01-4.91089E-14 1.71413E-13
 -1      3121 2.00021E+01-3.66502E-03-4.13865E-04-1.31451E-01-3.96650E-14 1.59213E-13
 -1      3122 2.00153E+01-8.35287E-03-1.72408E-04-1.33018E-01-3.15475E-14 2.01647E-13
 -1      3123 2.00146E+01 2.41103E-02 6.28876E-04-1.40412E-01 2.56155E-14 1.14618E-13
 -1      3124 2.00068E+01 1.45150E-02-4.36149E-04-1.35778E-01-1.40255E-14 1.01543E-13
 -1      3125 2.00120E+01 1.25051E-02-1.48048E-04-1.36389E-01 6.24377E-15 1.64460E-13
 -1      3126 2.00229E+01 4.20275E-02 6.67332E-04-1.55820E-01-6.24453E-14 1.56885E-13
 -1      3127 2.00135E+01 3.29106E-02-4.31089E-04-1.47536E-01-1.26895E-14 1.63739E-13
 -1      3128 2.00105E+01 3.40964E-02-1.52074E-04-1.47176E-01-5.60448E-14 1.46764E-13
 -1      3129 2.00345E+01 5.73801E-02 6.97605E-04-1.78673E-01-1.08922E-13 1.58533E-13
 -1      3130 2.00232E+01 4.98554E-02-3.86758E-04-1.66962E-01-1.01172E-13 2.14504E-13
 -1      3131 2.00113E+01 5.46122E-02-1.95348E-04-1.65943E-01-9.24939E-14 1.33661E-13
 -1      3132 2.00514E+01 6.72360E-02 7.05788E-04-2.08109E-01-1.03748E-13 1.16681E-13
 -1      3133 2.00371E+01 6.29363E-02-2.81077E-04-1.93652E-01-9.27646E-14 2.01784E-13
 -1      3134 2.00156E+01 7.14908E-02-2.95048E-04-1.92742E-01-1.26479E-13 1.67307E-13
 -1      3135 2.00761E+01 6.74060E-02 6.69965E-04-2.42148E-01-6.09638E-14 1.24222E-13
 -1      3136 2.00577E+01 6.86470E-02-8.08187E-05-2.26283E-01-7.40818E-14 1.31710E-13
 -1      3137 2.00253E+01 8.10104E-02-4.76329E-04-2.26892E-01-9.54740E-14 9.62524E-14
 -1      3138 2.01126E+01 5.22220E-02 5.57351E-04-2.77198E-01-5.06836E-14 8.29966E-14
 -1      3139 2.00886E+01 6.20970E-02 2.58465E-04-2.62175E-01-1.97952E-14 1.40108E-13
 -1      3140 2.00441E+01 7.79212E-02-7.72020E-04-2.66615E-01-1.14452E-14 1.94996E-13
 -1      3141 2.01666E+01 1.46014E-02 3.20511E-04-3.07429E-01 1.76904E-14 8.56349E-14
 -1      3142 2.01349E+01 3.69038E-02 7.89347E-04-2.96711E-01-5.72808E-14 4.26704E-14
 -1      3143 2.00774E+01 5.52342E-02-1.21905E-03-3.08493E-01-9.03128E-15 1.13110E-13
 -1      3144 2.02451E+01-5.32989E-02-1.06349E-04-3.24059E-01-2.37584E-14 9.83148E-14
 -1      3145 2.02035E+01-1.44989E-02 1.56279E-03-3.22607E-01 1.89626E-14 1.03456E-13
 -1      3146 2.01328E+01 4.39299E-03-1.84834E-03-3.46725E-01-5.66775E-15 2.64022E-14
 -1      3147 2.03566E+01-1.58381E-01-8.06488E-04-3.14701E-01 5.99639E-14 1.31308E-13
 -1      3148 2.03029E+01-9.97599E-02 2.60602E-03-3.29143E-01 4.26392E-14 1.61260E-13
 -1      3149 2.02208E+01-8.37845E-02-2.66320E-03-3.72186E-01 3.58510E-15 1.17322E-13
 -1      3150 2.05090E+01-3.03265E-01-1.86303E-03-2.63118E-01 1.42912E-13 1.23294E-13
 -1      3151 2.04419E+01-2.24187E-01 3.88099E-03-3.01556E-01 8.93776E-14 1.48865E-13
 -1      3152 2.03534E+01-2.16817E-01-3.59936E-03-3.71394E-01 6.11761E-14 1.91162E-13
 -1      3153 2.07068E+01-4.80767E-01-3.30028E-03-1.50089E-01 1.00217E-13 1.38056E-13
 -1      3154 2.06276E+01-3.86406E-01 5.21525E-03-2.21151E-01 2.31370E-13 2.53657E-13
 -1      3155 2.05432E+01-3.96183E-01-4.46134E-03-3.25741E-01 8.49635E-14 2.10010E-13
 -1      3156 2.09457E+01-6.66262E-01-4.94842E-03 4.32596E-02 2.04827E-15 1.32728E-13
 -1      3157 2.08601E+01-5.71757E-01 6.20995E-03-6.72207E-02-2.49857E-15 1.67156E-13
 -1      3158 2.07983E+01-6.10205E-01-4.84610E-03-2.11894E-01 6.77231E-14 2.80490E-13
 -1      3159 2.12057E+01-8.09850E-01-6.24611E-03 3.27623E-01-9.40820E-14 8.80525E-14
 -1      3160 2.11257E+01-7.44192E-01 6.16491E-03 1.77331E-01-3.87883E-14 1.53189E-13
 -1      3161 2.11150E+01-8.24448E-01-4.10880E-03-5.30718E-03 3.63671E-15 2.21701E-13
 -1      3162 2.14451E+01-8.33975E-01-6.07445E-03 6.91191E-01-2.04118E-13 1.69211E-13
 -1      3163 2.13888E+01-8.40140E-01 4.09573E-03 5.14177E-01-1.37179E-13 1.63843E-13
 -1      3164 2.14674E+01-9.72485E-01-1.52859E-03 3.09942E-01-1.09163E-13 2.35829E-13
 -1      3165 2.16028E+01-6.46873E-01-2.85113E-03 1.07994E+00-1.25650E-13 1.20190E-13
 -1      3166 2.15898E+01-7.72243E-01-7.56557E-04 9.10664E-01-1.35137E-13 1.04819E-13
 -1      3167 2.17982E+01-9.55715E-01 3.09566E-03 7.21853E-01-1.70872E-13 3.68905E-13
 -1      3168 2.16168E+01-1.87416E-01 3.70520E-03 1.38027E+00-1.09517E-13-7.52924E-15
 -1      3169 2.16568E+01-4.55393E-01-8.07618E-03 1.27756E+00-1.12811E-13 6.96235E-14
 -1      3170 2.20201E+01-6.64382E-01 8.76758E-03 1.16220E+00-1.03520E-13 1.57830E-13
 -1      3171 2.14696E+01 5.03488E-01 1.16615E-02 1.43771E+00-2.82831E-13 8.85790E-14
 -1      3172 2.15504E+01 1.29939E-01-1.47860E-02 1.46809E+00-2.03668E-13 3.58210E-15
 -1      3173 2.20490E+01-4.95509E-02 1.11480E-02 1.48316E+00-1.53499E-13-7.64673E-14
 -1      3174 2.12215E+01 1.23640E+00 1.46297E-02 1.12431E+00-1.58275E-13 1.36654E-14
 -1      3175 2.13085E+01 8.75320E-01-1.61328E-02 1.32856E+00-2.06377E-13 3.70431E-14
 -1      3176 2.18735E+01 8.01553E-01 7.51989E-03 1.49740E+00-2.78620E-13-4.43764E-14
 -1      3177 2.10206E+01 1.70530E+00 8.08731E-03 4.50814E-01 3.56629E-14 6.10564E-14
 -1      3178 2.10675E+01 1.51788E+00-9.54137E-03 7.94669E-01-1.27860E-13-3.63858E-14
 -1      3179 2.16023E+01 1.62339E+00-1.54099E-04 1.06102E+00-1.01166E-13-1.74462E-13
 -1      3180 2.10035E+01 1.68233E+00-4.31143E-03-3.72555E-01 6.35048E-14 1.54989E-13
 -1      3181 2.09874E+01 1.76175E+00 3.46490E-03 4.90330E-04 8.20845E-14 1.39450E-13
 -1      3182 2.14347E+01 2.04212E+00-8.45498E-03 2.48395E-01-2.61240E-14-6.23801E-15
 -1      3183 2.11896E+01 1.17336E+00-1.48751E-02-1.04515E+00 7.56535E-14 1.64584E-13
 -1      3184 2.11178E+01 1.48146E+00 1.27220E-02-7.73109E-01 1.45773E-13 2.24228E-13
 -1      3185 2.15081E+01 1.86806E+00-3.58483E-03-6.45400E-01 1.08786E-13 6.02445E-14
 -1      3186 2.14516E+01 4.22537E-01-1.73439E-02-1.35315E+00-1.16274E-13 3.27514E-13
 -1      3187 2.13653E+01 8.15554E-01 1.33453E-02-1.25298E+00-4.90877E-14 3.05987E-13
 -1      3188 2.17603E+01 1.15865E+00 3.97731E-04-1.26634E+00-3.52947E-14 1.60166E-13
 -1      3189 2.16275E+01-2.62773E-01-1.14632E-02-1.27874E+00 1.27918E-13 2.94015E-13
 -1      3190 2.15708E+01 6.40655E-02 7.54735E-03-1.33658E+00 1.78418E-14 3.68965E-13
 -1      3191 2.20086E+01 2.72249E-01 9.75207E-03-1.43434E+00-5.77507E-14 3.69739E-13
 -1      3192 2.16336E+01-7.04272E-01-3.76409E-03-9.54148E-01 2.59896E-13 3.22544E-13
 -1      3193 2.16284E+01-5.15752E-01 2.16240E-04-1.10972E+00 1.87415E-13 3.00775E-13
 -1      3194 2.20801E+01-4.73848E-01 1.11421E-02-1.21063E+00 1.11285E-13 3.11129E-13
 -1      3195 2.14788E+01-8.67075E-01 2.29733E-03-5.40793E-01 2.56332E-13 5.18580E-13
 -1      3196 2.15240E+01-8.18097E-01-4.90713E-03-7.26775E-01 2.74066E-13 4.34406E-13
 -1      3197 2.19388E+01-9.08826E-01 6.04449E-03-7.83823E-01 1.71305E-13 4.12102E-13
 -1      3198 2.12265E+01-8.13830E-01 5.66018E-03-1.59700E-01 3.67169E-13 5.04947E-13
 -1      3199 2.13055E+01-8.64389E-01-6.55495E-03-3.28362E-01 3.41026E-13 4.43317E-13
 -1      3200 2.16446E+01-1.02418E+00 3.52241E-04-3.30670E-01 2.49952E-13 3.88446E-13
 -1      3201 2.09442E+01-6.34012E-01 6.73624E-03 1.29311E-01 3.05252E-13 4.41312E-13
 -1      3202 2.10377E+01-7.38173E-01-5.89735E-03 1.87708E-03 3.71521E-13 4.95869E-13
 -1      3203 2.12894E+01-9.10701E-01-3.16202E-03 4.20971E-02 3.63565E-13 1.90279E-13
 -1      3204 2.06762E+01-4.04329E-01 5.09811E-03 3.09654E-01 8.29998E-14 3.03025E-13
 -1      3205 2.07706E+01-5.24866E-01-4.62075E-03 2.31569E-01 3.13372E-13 4.80611E-13
 -1      3206 2.09454E+01-6.74246E-01-3.92803E-03 2.97075E-01 3.86653E-13 3.65489E-13
 -1      3207 2.04842E+01-2.11826E-01 2.65765E-03 3.98082E-01-1.52762E-13 2.90451E-13
 -1      3208 2.05671E+01-3.23195E-01-3.81497E-03 3.59012E-01-1.67186E-13 2.23852E-13
 -1      3209 2.06899E+01-4.29789E-01-8.39398E-04 4.36125E-01 1.24960E-13 1.80879E-13
 -1      3210 2.05058E+01-2.20025E-01 1.46532E-03 5.01096E-01-2.76102E-14 4.73823E-14
 -1      3211 2.01407E+01 2.18083E+00-3.61644E-04-1.20937E+00-4.16143E-14-2.27362E-13
 -1      3212 1.37369E+01 5.30529E-01 5.89969E-02-3.64803E+00-8.03368E-14 1.55917E-13
 -1      3213 2.02020E+01 1.89861E+00 4.85852E-03-1.00208E+00-4.06993E-14-2.16232E-13
 -1      3214 2.02397E+01-2.16308E-02-1.80276E-03 1.04752E+00 2.64609E-13-1.10292E-13
 -1      3215 2.03637E+01-1.05247E-01 4.61552E-03 9.61863E-01 2.35877E-13-1.32246E-13
 -1      3216 1.85786E+01 1.27903E+00-1.13628E-02 2.23265E-01-3.78684E-13 6.84949E-14
 -1      3217 1.87224E+01 1.18514E+00 7.01297E-03 5.04984E-01-2.62539E-13 3.34256E-14
 -1      3218 1.82851E+01 1.37594E+00 8.13386E-03 1.19277E-01-3.13935E-13 3.02895E-13
 -1      3219 1.89119E+01 9.56046E-01-1.30143E-02 7.75284E-01-2.33542E-13 7.09328E-15
 -1      3220 1.91494E+01 8.25359E-01 1.12402E-02 9.58561E-01-1.85520E-13-7.29132E-14
 -1      3221 1.86078E+01 1.02545E+00 3.91104E-03 7.95058E-01-1.57942E-13 1.03142E-14
 -1      3222 1.98769E+01 2.29875E-01-5.87015E-03 1.16322E+00 1.14386E-13-2.39249E-13
 -1      3223 2.00821E+01 1.09336E-01 8.96252E-03 1.14076E+00 2.18869E-13-3.89817E-13
 -1      3224 2.02054E+01-1.51146E-01-7.16320E-03 1.19737E+00 1.80908E-13-2.44428E-13
 -1      3225 2.02898E+01 9.29496E-01-7.27191E-03 7.82119E-01 1.41744E-13 4.99063E-14
 -1      3226 1.93961E+01 5.75907E-01-1.05866E-02 1.09081E+00-8.58937E-15-1.08470E-13
 -1      3227 1.96512E+01 4.35341E-01 1.15828E-02 1.16469E+00 9.78421E-14-5.49080E-14
 -1      3228 1.97346E+01 1.54180E-01-7.42232E-03 1.31489E+00 2.59011E-13-2.22911E-13
 -1      3229 1.91521E+01 5.75746E-01-3.32340E-03 1.19947E+00-2.60418E-14-1.36419E-13
 -1      3230 2.02861E+01 1.14811E+00 1.59539E-04-6.70271E-01-5.03707E-14-1.90302E-13
 -1      3231 2.02545E+01 9.10045E-01-5.18123E-03-4.79113E-01-4.96964E-14-1.88253E-13
 -1      3232 2.02854E+01 9.45956E-01 5.70028E-04-4.23845E-01-4.23391E-14-1.89826E-13
 -1      3233 1.27418E+01 1.12974E+00 7.86008E-02-2.70436E+00-1.26277E-13-5.17364E-14
 -1      3234 2.02759E+01 1.25963E+00 3.50776E-03 8.00047E-01 1.56950E-13-3.96037E-15
 -1      3235 2.60523E+01-4.18739E+00-1.14358E-01 2.08806E+00 4.21364E-14-3.78230E-13
 -1      3236 2.39341E+01-4.45966E+00 6.35244E-02 3.80840E+00-5.03347E-14-4.09174E-13
 -1      3237 2.00123E+01-4.78813E-02 3.50263E-04-1.72630E-01 4.20944E-14 5.06382E-14
 -1      3238 2.00127E+01-4.45217E-02 2.56366E-04-1.77862E-01 3.70447E-14 6.96517E-14
 -1      3239 2.00703E+01-4.45297E-02-6.38900E-04-1.74093E-01 3.20331E-14 5.68030E-14
 -1      3240 2.00520E+01-5.38088E-02-4.97509E-04-1.66435E-01 4.73486E-14 4.55732E-15
 -1      3241 1.38140E+01 8.18278E-01 1.51738E-01 3.36851E+00 5.30999E-15-3.49096E-14
 -1      3242 1.65246E+01-2.82188E+00 1.03167E-01-6.23222E+00 2.34535E-15-2.48496E-13
 -1      3243 1.93292E+01-3.82491E+00 2.02804E-02-5.94417E+00-8.14210E-14-2.70360E-13
 -1      3244 2.79121E+01-5.49551E-01-8.60122E-03 1.18727E+00 1.02342E-13 1.75276E-14
 -1      3245 2.75069E+01 1.15185E+00-1.25280E-01 1.83695E+00 3.16386E-13 1.95302E-13
 -1      3246 9.31096E+00 1.06495E+00 7.21832E-02-8.15863E-01 2.66176E-13 2.08514E-13
 -1      3247 9.64672E+00 6.10147E-01 1.58914E-01-2.96158E+00 2.82913E-13 9.97813E-15
 -1      3248 2.00458E+01 2.16085E+00-4.31178E-03 2.92811E-01 1.44747E-13-9.69660E-14
 -1      3249 2.00327E+01 2.19956E+00-3.34490E-03 1.70963E-01 1.24451E-13-1.09606E-13
 -1      3250 2.02805E+01 1.09453E+00 5.01877E-03 6.16098E-01 1.46917E-13-3.14395E-14
 -1      3251 2.66318E+01-3.53523E+00 9.87537E-03-1.51281E+00-2.85791E-13-2.57905E-13
 -1      3252 2.75130E+01-2.31270E+00-1.18380E-01-2.48139E-02-1.46237E-13-1.51767E-13
 -1      3253 2.72956E+01 6.15591E+00-1.37025E-01 1.02954E+00 6.39488E-14-1.29348E-13
 -1      3254 2.66072E+01 6.27724E+00-1.41631E-01 2.49696E-01 7.36217E-14-1.78935E-13
 -1      3255 2.62956E+01 4.93035E+00-8.60235E-02 1.36841E+00 3.47777E-14-1.29015E-13
 -1      3256 2.80369E+01-1.08844E+00-1.45076E-01-8.67002E-01 5.48381E-14-4.04204E-13
 -1      3257 2.75497E+01-2.54311E+00 4.47230E-02 2.43609E-01 4.94466E-14-4.60923E-13
 -1      3258 1.39898E+01 1.33650E+00 3.35535E-02 2.42877E+00 8.18963E-14-4.55053E-14
 -1      3259 1.12036E+01 9.43913E-01 4.89033E-02 2.24789E+00 1.74598E-13 2.07390E-13
 -1      3260 1.03705E+01 1.38444E+00 1.78195E-01 6.90533E-01 1.88310E-13 3.24921E-13
 -1      3261 1.33395E+01 1.91582E+00 1.25250E-01 1.31700E+00 1.80852E-13 1.32193E-13
 -1      3262 2.28831E+01-4.36663E+00 5.37060E-02 4.41293E+00-6.90697E-14-4.08831E-13
 -1      3263 2.13030E+01-3.81019E+00 1.21322E-02 4.69353E+00-9.35051E-14-3.09162E-13
 -1      3264 2.38415E+01-3.90990E+00 5.93486E-04 2.95024E+00-7.61305E-14-4.57127E-13
 -1      3265 1.15396E+01 1.56477E+00 6.37091E-02-5.10748E-01-6.52742E-14-9.31200E-15
 -1      3266 2.02471E+01 1.45979E+00 3.74569E-03 5.84696E-01 1.63870E-13-6.50758E-14
 -1      3267 2.01595E+01 1.80216E+00-6.68732E-03 6.86999E-01 1.85216E-13-6.13807E-14
 -1      3268 2.01247E+01 1.93046E+00-2.55362E-03 5.89837E-01 1.67131E-13-5.99765E-14
 -1      3269 2.64095E+01 3.15314E+00-1.16463E-01-1.99608E+00-1.29695E-13-4.49772E-13
 -1      3270 2.63386E+01 2.23322E+00-4.01516E-02-2.00552E+00-1.76623E-13-4.46681E-13
 -1      3271 2.00635E+01 2.11138E+00-2.96785E-03-3.83373E-01 3.75490E-14-1.72345E-13
 -1      3272 2.00878E+01 2.03369E+00-5.10446E-03-4.98323E-01 1.71844E-14-1.79260E-13
 -1      3273 1.14653E+01 2.93204E-01 1.17668E-01-3.62104E+00 3.27911E-13-1.03459E-13
 -1      3274 1.86557E+01 1.47222E+00 8.98768E-04-9.14256E-01-7.66440E-14 3.02357E-13
 -1      3275 1.82668E+01 1.52508E+00-4.14292E-03-7.29500E-01-1.56002E-13 3.12377E-13
 -1      3276 2.11805E+01-3.98474E+00 7.48586E-02-5.15191E+00-7.54223E-14-1.72222E-13
 -1      3277 2.25119E+01-3.98873E+00-1.38987E-02-4.04843E+00-1.37845E-13-1.00913E-13
 -1      3278 1.99719E+01-3.27038E+00 3.02004E-02-5.04451E+00-8.86929E-14-2.19061E-13
 -1      3279 2.73823E+01-1.65846E-01-3.47148E-02-1.45871E+00-3.66894E-14-4.74280E-13
 -1      3280 2.01226E+01 1.63130E-01 2.83001E-03-7.47646E-02 8.83949E-14-6.21706E-14
 -1      3281 2.02016E+01 2.42373E-01-1.11104E-03-2.85936E-02 9.18409E-14-1.36257E-13
 -1      3282 2.00969E+01 1.07815E-01-8.78366E-04-1.14121E-01 8.63875E-14-6.78720E-14
 -1      3283 1.92707E+01 1.25367E+00-3.97501E-03-1.30058E+00-3.15703E-13 2.92428E-13
 -1      3284 2.69407E+01-1.55379E+00-3.88744E-02 6.79902E-01-2.74624E-14-6.31439E-16
 -1      3285 2.01239E+01 2.97189E-02-9.71666E-04-1.55153E-01 2.86229E-14-3.00954E-15
 -1      3286 2.00637E+01 3.15665E-02-3.35244E-04-1.61134E-01 6.76963E-14-4.78063E-14
 -1      3287 2.00801E+01 6.60537E-02 1.89416E-03-1.41669E-01 8.31666E-14-5.14280E-14
 -1      3288 2.05081E+01-2.18598E-01 2.79607E-03 6.03542E-01-6.83157E-14 5.35155E-14
 -1      3289 2.05912E+01-3.35198E-01-2.32633E-03 5.87073E-01-4.30397E-14 1.14212E-13
 -1      3290 2.04887E+01-1.95840E-01 1.40054E-03 6.89282E-01-9.75844E-14 9.74737E-14
 -1      3291 1.12155E+01 1.32585E+00 7.51181E-02 1.03827E+00 3.90955E-14 1.53405E-13
 -1      3292 1.35067E+01 1.70833E+00 2.39196E-02-2.88621E-01-9.86954E-14 8.87276E-14
 -1      3293 1.44718E+01-1.09960E+00 5.04207E-02-5.20916E+00 9.30922E-14-5.68920E-14
 -1      3294 1.54884E+01-2.05831E+00 8.52483E-02-5.91088E+00 2.76029E-14-1.37022E-13
 -1      3295 1.73108E+01-2.21138E+00 4.03616E-02-5.34216E+00-3.41081E-14-2.05155E-13
 -1      3296 2.02373E+01 7.06367E-01-3.35178E-03 3.54574E-01 1.32564E-13-2.92398E-14
 -1      3297 2.02798E+01 8.97492E-01 1.20214E-03 5.17840E-01 1.52935E-13-1.31923E-14
 -1      3298 2.01206E+01 1.94009E+00-2.60401E-03-5.83337E-01 1.49056E-15-1.75815E-13
 -1      3299 2.01556E+01 1.81221E+00-7.20449E-03-6.82526E-01-1.83903E-14-1.99400E-13
 -1      3300 2.01967E+01 1.70227E+00 4.03494E-03-4.52785E-01-5.65991E-15-1.68872E-13
 -1      3301 2.59784E+01 5.77803E+00-1.24041E-01-2.63611E-01-3.81917E-14-4.50842E-13
 -1      3302 2.52231E+01 5.09558E+00-7.60549E-02-6.71549E-01-1.48520E-13-6.15285E-13
 -1      3303 2.50898E+01 5.34103E+00-4.83949E-02 3.27383E-01-4.96825E-14-5.57897E-13
 -1      3304 2.00664E+01 2.10518E+00-3.05881E-03 3.91269E-01 1.52992E-13-9.14724E-14
 -1      3305 2.01618E+01 1.84724E+00 4.96024E-03 2.90629E-01 1.38257E-13-8.22545E-14
 -1      3306 2.00916E+01 2.02560E+00-5.20795E-03 5.05223E-01 1.68987E-13-6.50580E-14
 -1      3307 2.71248E+01 2.06178E+00-7.68285E-02 2.08637E+00 2.69090E-13 1.34386E-13
 -1      3308 2.62895E+01 2.97935E+00-8.70383E-02 2.07627E+00 1.76317E-13-6.94028E-14
 -1      3309 2.64489E+01 8.62313E-01-5.25692E-02 1.85926E+00 2.80942E-13 3.33622E-14
 -1      3310 2.55953E+01 4.05796E+00-6.56808E-02-1.68035E+00-1.05742E-13-5.34305E-13
 -1      3311 1.88508E+01 1.41577E+00 7.38097E-03-1.11339E+00-9.95050E-14 3.67559E-13
 -1      3312 2.62406E+01-3.19337E+00-1.58447E-02 8.72303E-01-7.59670E-14-6.00880E-13
 -1      3313 1.11512E+01 1.45959E+00 7.22239E-02-3.30097E-01 2.01434E-13 1.87655E-13
 -1      3314 2.02775E+01 1.12871E+00 2.75819E-03 5.42802E-01 1.51868E-13-4.75415E-14
 -1      3315 2.02181E+01 1.59645E+00-1.10667E-03-8.29320E-01-4.55952E-14-2.18848E-13
 -1      3316 2.01394E+01 1.92235E+00 4.73378E-03 1.01821E-01 9.27814E-14-8.18421E-14
 -1      3317 2.00259E+01 2.21835E+00-3.63536E-03 6.60686E-02 9.86350E-14-1.13825E-13
 -1      3318 2.00254E+01 2.21937E+00-3.58853E-03-5.83528E-02 7.08978E-14-1.22913E-13
 -1      3319 2.44476E+01-3.97348E+00 1.08526E-02-2.76473E+00-1.78982E-13-2.08960E-13
 -1      3320 2.56925E+01-4.00674E+00-1.45753E-02-2.18854E+00-2.65532E-13-2.19106E-13
 -1      3321 2.57853E+01-3.26158E+00-1.20089E-02-1.01529E+00-2.51511E-13-7.04541E-14
 -1      3322 2.04186E+01-1.41049E-01 1.06243E-03 8.68665E-01 1.59440E-13-1.66429E-13
 -1      3323 2.04723E+01-1.89782E-01 2.72806E-03 7.85309E-01 1.64300E-14 8.17306E-14
 -1      3324 2.05663E+01-3.27345E-01-5.62017E-04 7.92348E-01 1.56608E-13 8.68804E-14
 -1      3325 2.04606E+01-2.90912E-01-5.05805E-03 9.91195E-01 3.24782E-13-6.09544E-14
 -1      3326 2.02148E+01 1.60849E+00 1.48745E-03-7.18510E-01-2.45759E-14-2.16769E-13
 -1      3327 1.15950E+01 7.91266E-01 6.16125E-02 2.65696E+00 7.17898E-14 1.88093E-13
 -1      3328 2.02764E+01 7.42646E-01 5.19791E-05 3.16318E-01 1.36576E-13-4.68503E-14
 -1      3329 2.00440E+01 2.16529E+00-4.14324E-03-2.84946E-01 5.14632E-14-1.53856E-13
 -1      3330 2.01571E+01 1.85117E+00 3.81245E-03-2.83267E-01 3.60785E-14-1.61544E-13
 -1      3331 2.00319E+01 2.20198E+00-3.23064E-03-1.62708E-01 6.02907E-14-1.36830E-13
 -1      3332 1.18067E+01 8.66820E-01 1.59946E-02-2.74455E+00 2.93090E-13 1.51545E-14
 -1      3333 1.29392E+01-3.12245E-02 8.14744E-02-4.33636E+00 2.36717E-13-1.02786E-13
 -1      3334 2.60580E+01-2.47258E+00-1.02465E-01-2.60997E-01-9.91264E-14-8.13922E-13
 -1      3335 2.51906E+01-3.28918E+00 3.32530E-02 1.18644E+00-6.90238E-14-7.57699E-13
 -1      3336 2.03012E+01 4.40383E-01 2.72666E-03-7.17521E-02-4.94085E-14-1.15891E-13
 -1      3337 2.02760E+01 3.27430E-01-2.23646E-03-4.66971E-03-4.23839E-14-1.07250E-13
 -1      3338 2.02670E+01 2.34255E-01 2.11380E-03 4.25445E-02-3.56280E-14-1.01841E-13
 -1      3339 2.02415E+01 1.56884E-01-1.33892E-03 8.49240E-02-3.70104E-14-1.05171E-13
 -1      3340 2.03159E+01 3.25469E-01 2.94591E-05 5.03025E-03-3.24353E-14-7.19977E-14
 -1      3341 2.02266E+01 1.00265E-01 1.60380E-03 1.10363E-01-6.16710E-14-1.20273E-13
 -1      3342 2.02053E+01 5.33507E-02-6.17041E-04 1.32018E-01-7.60224E-14-1.29338E-13
 -1      3343 2.02830E+01 1.55060E-01-4.73537E-04 8.09440E-02-5.16692E-14-3.42987E-14
 -1      3344 2.01877E+01 1.80427E-02 1.09355E-03 1.44369E-01-8.19261E-14-9.34643E-14
 -1      3345 2.01703E+01-9.94440E-03-1.73269E-04 1.53523E-01-5.97060E-14-8.12869E-14
 -1      3346 2.02450E+01 4.86145E-02-6.15495E-04 1.22038E-01-5.18319E-14-3.48669E-14
 -1      3347 2.01523E+01-2.99100E-02 6.82637E-04 1.57109E-01-4.60581E-14-5.47101E-14
 -1      3348 2.01386E+01-4.44749E-02 1.14519E-04 1.58468E-01-4.73645E-14-3.83726E-14
 -1      3349 2.02063E+01-1.57888E-02-6.32676E-04 1.40709E-01-2.37063E-14-2.88961E-14
 -1      3350 2.01215E+01-5.35648E-02 3.63041E-04 1.56842E-01-6.12724E-14-2.95484E-14
 -1      3351 2.01110E+01-5.86046E-02 2.96871E-04 1.53923E-01-4.07330E-14-1.61544E-14
 -1      3352 2.01699E+01-5.00766E-02-5.87574E-04 1.44970E-01-4.33083E-14-1.50440E-14
 -1      3353 2.00954E+01-5.99644E-02 1.18769E-04 1.49780E-01-5.14428E-14-3.11530E-15
 -1      3354 2.00875E+01-5.81900E-02 4.07247E-04 1.45186E-01-3.91303E-14 1.38809E-14
 -1      3355 2.01370E+01-6.28648E-02-5.08519E-04 1.41088E-01-3.02569E-14 1.14545E-15
 -1      3356 2.00734E+01-5.39556E-02-7.08085E-05 1.40523E-01-4.48782E-14-1.53064E-14
 -1      3357 2.00676E+01-4.71594E-02 4.70749E-04 1.36172E-01-3.08186E-14-6.34191E-14
 -1      3358 2.01078E+01-6.02052E-02-4.10299E-04 1.33786E-01-5.95979E-14-4.77582E-14
 -1      3359 2.00547E+01-3.86803E-02-2.26442E-04 1.32462E-01-1.30589E-14-1.21845E-13
 -1      3360 2.00504E+01-2.79257E-02 5.04729E-04 1.29792E-01-3.62472E-14-1.52773E-13
 -1      3361 2.00819E+01-4.61417E-02-2.98527E-04 1.26566E-01-6.38971E-14-1.07641E-13
 -1      3362 2.00381E+01-1.59167E-02-3.67514E-04 1.28133E-01-2.17413E-14-1.28875E-13
 -1      3363 2.00347E+01-1.66896E-03 5.19572E-04 1.28266E-01 3.51004E-14-1.43096E-13
 -1      3364 2.00584E+01-2.31145E-02-1.71368E-04 1.22016E-01-7.22187E-15-1.06273E-13
 -1      3365 2.00222E+01 1.36865E-02-5.12658E-04 1.29503E-01 7.57479E-14-9.70281E-14
 -1      3366 2.00189E+01 3.14792E-02 5.20155E-04 1.33372E-01 5.07673E-14-1.20700E-13
 -1      3367 2.00358E+01 7.74668E-03-2.07897E-05 1.22078E-01 6.56506E-14-9.74582E-14
 -1      3368 2.00051E+01 5.04473E-02-6.88009E-04 1.38174E-01 4.81823E-14-1.17550E-13
 -1      3369 2.00010E+01 7.23441E-02 5.31822E-04 1.46605E-01 5.83707E-14-6.37884E-15
 -1      3370 2.00120E+01 4.64373E-02 1.70042E-04 1.28225E-01 8.42001E-14-7.38991E-14
 -1      3371 1.99833E+01 9.69942E-02-9.01603E-04 1.55996E-01 1.66034E-15 8.13121E-14
 -1      3372 1.99764E+01 1.25411E-01 4.82393E-04 1.70702E-01 2.10764E-15 1.34895E-13
 -1      3373 1.99835E+01 9.51454E-02 3.72869E-04 1.42045E-01 6.19375E-14 3.61986E-14
 -1      3374 1.99538E+01 1.54664E-01-1.17627E-03 1.84287E-01-2.99652E-14 9.00601E-14
 -1      3375 1.99427E+01 1.88439E-01 3.17896E-04 2.04497E-01-1.05290E-14 6.35504E-14
 -1      3376 1.99470E+01 1.55339E-01 7.78205E-04 1.64072E-01-1.33378E-14 1.19615E-13
 -1      3377 1.99117E+01 2.25145E-01-1.52194E-03 2.22677E-01-5.43823E-14 9.81683E-14
 -1      3378 1.98929E+01 2.67450E-01 8.52516E-05 2.49638E-01-7.41250E-14 9.62041E-14
 -1      3379 1.98980E+01 2.27862E-01 1.26112E-03 1.93854E-01 5.35338E-15 4.96047E-14
 -1      3380 1.98488E+01 3.13833E-01-1.98765E-03 2.72138E-01-1.27274E-13 1.18800E-13
 -1      3381 1.98175E+01 3.67170E-01-3.27753E-04 3.06207E-01-1.87055E-13 7.34351E-14
 -1      3382 1.98284E+01 3.17985E-01 1.96098E-03 2.31154E-01-1.00706E-13 1.02476E-13
 -1      3383 1.97538E+01 4.25983E-01-2.59852E-03 3.32070E-01-1.66888E-13 1.03811E-13
 -1      3384 1.97026E+01 4.93206E-01-1.02866E-03 3.73084E-01-1.51123E-13 4.04908E-14
 -1      3385 1.97274E+01 4.30356E-01 2.96805E-03 2.74016E-01-1.57618E-13 1.55345E-13
 -1      3386 1.96105E+01 5.67504E-01-3.39784E-03 4.00278E-01-1.38122E-13 1.08759E-15
 -1      3387 1.95287E+01 6.51497E-01-2.16484E-03 4.47152E-01-9.80510E-14 6.39296E-14
 -1      3388 1.95801E+01 5.70126E-01 4.41067E-03 3.18355E-01-1.49380E-13 6.66695E-14
 -1      3389 1.93953E+01 7.44088E-01-4.45533E-03 4.72045E-01-1.34348E-13 2.43169E-14
 -1      3390 1.92672E+01 8.46946E-01-3.93231E-03 5.22280E-01-9.69011E-14 3.14042E-15
 -1      3391 1.93651E+01 7.42110E-01 6.46022E-03 3.56872E-01-1.14933E-13 4.99828E-14
 -1      3392 1.90751E+01 9.59204E-01-5.90944E-03 5.39092E-01-2.36919E-14 8.29282E-15
 -1      3393 1.88785E+01 1.08063E+00-6.57219E-03 5.88375E-01-4.06360E-14 4.35490E-14
 -1      3394 1.90530E+01 9.49085E-01 9.34613E-03 3.77725E-01-7.13771E-14 5.54226E-14
 -1      3395 1.86031E+01 1.21023E+00-8.05397E-03 5.88845E-01-8.61641E-14 8.45915E-14
 -1      3396 1.83073E+01 1.34470E+00-1.03181E-02 6.31331E-01-3.81284E-14 1.16279E-13
 -1      3397 1.86028E+01 1.18874E+00 1.34100E-02 3.63253E-01-4.85476E-14 1.35775E-13
 -1      3398 1.79131E+01 1.48175E+00-1.14428E-02 6.05166E-01 4.32328E-14 9.10307E-15
 -1      3399 1.74765E+01 1.61418E+00-1.50179E-02 6.35613E-01-3.01133E-14 3.13794E-14
 -1      3400 1.79578E+01 1.44884E+00 1.93406E-02 2.89419E-01-9.64684E-14 1.51188E-13
 -1      3401 1.69099E+01 1.73447E+00-1.68611E-02 5.72915E-01-6.49094E-14 5.38963E-14
 -1      3402 1.62764E+01 1.83337E+00-1.94682E-02 5.93210E-01-5.83431E-14 2.45875E-14
 -1      3403 1.70368E+01 1.70065E+00 2.91404E-02 1.27182E-01-3.37049E-14 5.68295E-15
 -1      3404 1.54035E+01 1.90540E+00-1.90509E-02 4.88315E-01-4.31495E-14 7.66921E-14
 -1      3405 1.44168E+01 1.87738E+00-1.70580E-02 5.26982E-01 1.60839E-13 6.24917E-14
 -1      3406 1.56707E+01 1.88742E+00 4.68096E-02-1.60954E-01-3.73755E-14 1.21808E-13
 -1      3407 2.65359E+01 6.92254E-01-1.17650E-01-1.89666E+00-7.88224E-14-5.08558E-13
 -1      3408 2.65836E+01-5.79407E-01 2.68536E-02-1.36415E+00-2.96117E-14-5.48152E-13
 -1      3409 2.56171E+01 1.49083E+00-3.59463E-02-1.96503E+00-1.76692E-13-6.51531E-13
 -1      3410 1.44893E+01 1.77716E+00-1.82864E-02-4.88197E-01-1.72697E-13 1.53967E-13
 -1      3411 1.55143E+01 1.79539E+00-2.49736E-02-4.77612E-01-1.44244E-13 1.37085E-13
 -1      3412 1.43851E+01 1.68306E+00 7.94548E-02 9.38152E-01-1.26409E-13 2.99324E-13
 -1      3413 2.02868E+01 1.16083E+00-3.72019E-04-4.77374E-01-1.72688E-14-1.92683E-13
 -1      3414 2.02878E+01 9.30432E-01-4.19885E-03-3.37856E-01-3.06516E-14-1.67107E-13
 -1      3415 1.63096E+01 1.76708E+00-2.57701E-02-6.27822E-01-1.47605E-13 2.30663E-13
 -1      3416 1.70419E+01 1.70235E+00-1.80537E-02-6.28242E-01-1.62023E-13 2.50889E-13
 -1      3417 1.61912E+01 1.73710E+00 5.46989E-02 3.65378E-01-1.30571E-13 3.74118E-13
 -1      3418 1.75871E+01 1.63712E+00-3.72940E-03-6.09186E-01-1.01704E-13 3.09883E-13
 -1      3419 2.00514E+01-4.20751E-02 4.89987E-04-1.34824E-01 4.46426E-15 7.08761E-14
 -1      3420 2.00555E+01-4.92392E-02-1.28454E-04-1.39244E-01 1.97391E-15 5.83331E-14
 -1      3421 2.00683E+01-5.43462E-02 4.36859E-04-1.44036E-01 2.93215E-14 8.02852E-15
 -1      3422 2.00744E+01-5.76383E-02 3.27532E-05-1.49167E-01 2.44046E-14 2.95121E-15
 -1      3423 2.00880E+01-5.61777E-02-3.81446E-04-1.33878E-01-5.92883E-15 2.42626E-14
 -1      3424 2.00254E+01-2.01815E-03 5.56511E-04-1.28148E-01-8.09293E-14 7.82619E-14
 -1      3425 2.00269E+01-1.36881E-02-3.46723E-04-1.27882E-01-4.88582E-14 8.02336E-14
 -1      3426 2.00154E+01 2.23864E-02 5.91832E-04-1.33952E-01-1.06914E-15 1.03412E-13
 -1      3427 2.00158E+01 9.66301E-03-4.21541E-04-1.30277E-01-3.11340E-14 7.80192E-14
 -1      3428 2.00266E+01 5.47759E-03-1.41963E-04-1.24600E-01-8.15015E-14-9.76469E-14
 -1      3429 2.00069E+01 4.75971E-02 6.38365E-04-1.47367E-01-7.79038E-14 1.15520E-13
 -1      3430 2.00063E+01 3.46576E-02-4.75756E-04-1.39857E-01-3.22130E-14 1.36730E-13
 -1      3431 2.00098E+01 3.33826E-02-9.45000E-05-1.32986E-01-3.42770E-14 8.52220E-14
 -1      3432 2.00006E+01 7.15603E-02 7.00508E-04-1.69116E-01-1.29436E-13 7.59860E-14
 -1      3433 1.99984E+01 5.95237E-02-5.02113E-04-1.57551E-01-1.14431E-13 1.00234E-13
 -1      3434 1.99941E+01 6.18947E-02-8.33914E-05-1.49332E-01-7.23262E-14 5.14737E-15
 -1      3435 1.99975E+01 9.13179E-02 7.79903E-04-1.99519E-01-1.23108E-13 9.60559E-14
 -1      3436 1.99931E+01 8.18180E-02-4.82841E-04-1.83954E-01-1.19013E-13 9.71942E-14
 -1      3437 1.99800E+01 8.85492E-02-1.28935E-04-1.74624E-01-1.37026E-13-9.84986E-15
 -1      3438 2.00002E+01 1.02544E-01 8.73882E-04-2.38302E-01-8.06866E-14 5.28845E-14
 -1      3439 1.99922E+01 9.79672E-02-3.88385E-04-2.19194E-01-1.02674E-13 6.01048E-14
 -1      3440 1.99688E+01 1.09771E-01-2.62436E-04-2.09587E-01-1.18481E-13 4.65115E-14
 -1      3441 2.00128E+01 9.91064E-02 9.71727E-04-2.84244E-01-4.56167E-14 1.27580E-13
 -1      3442 1.99991E+01 1.02810E-01-1.74029E-04-2.62656E-01-6.11957E-14 6.81577E-14
 -1      3443 1.99634E+01 1.20353E-01-5.27919E-04-2.54500E-01-8.36146E-14-2.68207E-15
 -1      3444 2.00419E+01 7.27923E-02 1.04734E-03-3.34620E-01-3.40598E-14 1.14095E-13
 -1      3445 2.00195E+01 8.92171E-02 2.22605E-04-3.12525E-01-1.21141E-14 1.71966E-13
 -1      3446 1.99689E+01 1.12966E-01-9.82664E-04-3.08848E-01-9.98697E-14 8.69069E-14
 -1      3447 2.00973E+01 1.34302E-02 1.04675E-03-3.84379E-01-2.85779E-16 1.43878E-13
 -1      3448 2.00618E+01 4.79821E-02 8.81524E-04-3.65069E-01 2.16759E-14 1.26623E-13
 -1      3449 1.99936E+01 7.78713E-02-1.69388E-03-3.70688E-01-3.40365E-14 1.29440E-13
 -1      3450 2.01918E+01-9.01460E-02 8.69521E-04-4.24977E-01-9.73851E-15 8.42454E-14
 -1      3451 2.01379E+01-3.17060E-02 1.89335E-03-4.13589E-01-5.84133E-14 3.78431E-14
 -1      3452 2.00495E+01 3.11683E-03-2.72689E-03-4.35635E-01 4.08748E-14 1.26313E-13
 -1      3453 2.03412E+01-2.47618E-01 3.50192E-04-4.42893E-01 1.08151E-14 1.88973E-13
 -1      3454 2.02633E+01-1.60649E-01 3.33569E-03-4.46973E-01 4.79561E-14 1.23343E-13
 -1      3455 2.01532E+01-1.24245E-01-4.11695E-03-4.95279E-01-4.71860E-14 1.70562E-13
 -1      3456 2.05619E+01-4.62219E-01-7.37673E-04-4.18067E-01 6.74474E-14 1.78077E-13
 -1      3457 2.04553E+01-3.46079E-01 5.22054E-03-4.47950E-01 2.91791E-14 1.54517E-13
 -1      3458 2.03255E+01-3.15066E-01-5.80870E-03-5.34943E-01 4.42759E-14 1.90125E-13
 -1      3459 2.08659E+01-7.22188E-01-2.60348E-03-3.23180E-01 1.02225E-13 2.15860E-13
 -1      3460 2.07302E+01-5.85094E-01 7.38260E-03-3.91588E-01 1.12627E-13 2.48381E-13
 -1      3461 2.05893E+01-5.71846E-01-7.53925E-03-5.30985E-01 5.19964E-14 3.28418E-14
 -1      3462 2.12521E+01-9.88220E-01-5.20528E-03-1.26094E-01-7.07507E-15 2.37978E-13
 -1      3463 2.10945E+01-8.54174E-01 9.29548E-03-2.45676E-01-6.68817E-15 3.04109E-13
 -1      3464 2.09630E+01-8.77818E-01-8.67101E-03-4.48793E-01 3.29058E-15 1.11775E-13
 -1      3465 2.16926E+01-1.17927E+00-7.81026E-03 2.00194E-01-2.13340E-13 3.66801E-13
 -1      3466 2.15329E+01-1.09540E+00 9.82758E-03 2.33073E-02-6.68669E-14 3.49447E-13
 -1      3467 2.14490E+01-1.18091E+00-8.08457E-03-2.44744E-01-7.84990E-14 3.15754E-13
 -1      3468 2.21207E+01-1.16736E+00-8.82686E-03 6.53176E-01-1.45467E-13 2.03018E-13
 -1      3469 2.19911E+01-1.20464E+00 6.95872E-03 4.31812E-01-1.33067E-13 3.00367E-13
 -1      3470 2.20129E+01-1.37501E+00-4.40376E-03 1.20248E-01-1.57755E-13 3.34741E-13
 -1      3471 2.24318E+01-7.98434E-01-4.97751E-03 1.16442E+00-2.46217E-15 5.36194E-14
 -1      3472 2.23698E+01-1.03677E+00-8.73390E-04 9.46430E-01-6.44101E-14 1.54731E-13
 -1      3473 2.25655E+01-1.30251E+00 1.61638E-03 6.48040E-01-8.10404E-14 1.55929E-13
 -1      3474 2.25192E+01 1.49470E-02 5.61727E-03 1.55106E+00-2.80294E-13 1.40863E-13
 -1      3475 2.25367E+01-4.48853E-01-1.37820E-02 1.43192E+00-1.27971E-13 9.65905E-14
 -1      3476 2.29589E+01-7.70372E-01 1.00299E-02 1.24857E+00-1.78308E-13 2.09974E-13
 -1      3477 2.23500E+01 1.14973E+00 1.54335E-02 1.56279E+00-7.76853E-14-1.46809E-13
 -1      3478 2.24247E+01 5.44498E-01-2.89315E-02 1.64283E+00-2.16687E-13-2.06178E-14
 -1      3479 2.30321E+01 2.85061E-01 1.30921E-02 1.68478E+00-1.29767E-13 9.55052E-14
 -1      3480 2.20615E+01 2.18385E+00 1.41030E-02 1.03282E+00-8.01997E-14-1.89874E-13
 -1      3481 2.21439E+01 1.69710E+00-2.65929E-02 1.34641E+00-2.16728E-14-1.73111E-13
 -1      3482 2.28488E+01 1.63706E+00 1.54942E-02 1.60248E+00 6.54858E-15-2.56155E-13
 -1      3483 2.18867E+01 2.58381E+00-7.73149E-03 4.81197E-02-5.42188E-15-8.93870E-15
 -1      3484 2.18993E+01 2.48155E+00-1.92959E-02 5.00554E-01-1.22189E-13 4.75097E-16
 -1      3485 2.25181E+01 2.72906E+00 3.93009E-03 8.67493E-01-1.81501E-13-1.01099E-13
 -1      3486 2.20385E+01 2.10397E+00-1.88650E-02-9.42955E-01 1.03322E-13-1.09913E-13
 -1      3487 2.19663E+01 2.45558E+00 9.63683E-03-5.48845E-01 9.64580E-14-3.53112E-14
 -1      3488 2.24602E+01 2.95256E+00 1.10497E-03-2.92780E-01 3.32312E-14-1.40733E-13
 -1      3489 2.23329E+01 1.04607E+00-2.64611E-02-1.50671E+00-1.08197E-13-2.06305E-14
 -1      3490 2.22235E+01 1.63777E+00 1.31177E-02-1.30306E+00 3.16240E-14-3.99498E-14
 -1      3491 2.26795E+01 2.10462E+00-1.06172E-02-1.23663E+00 1.08546E-14-6.76206E-14
 -1      3492 2.25517E+01-9.73363E-02-2.07128E-02-1.46905E+00-1.16198E-13 1.12728E-13
 -1      3493 2.25034E+01 4.47148E-01 9.44581E-03-1.51630E+00-1.98144E-13-1.08021E-14
 -1      3494 2.30056E+01 7.78262E-01-6.93451E-04-1.62255E+00-2.14135E-13-3.08970E-13
 -1      3495 2.25179E+01-8.86113E-01-5.97537E-03-1.05774E+00 6.60730E-14 1.52323E-13
 -1      3496 2.25465E+01-5.40249E-01 1.55878E-03-1.25474E+00 1.79761E-14 1.21790E-13
 -1      3497 2.30917E+01-4.07216E-01 1.66332E-02-1.37373E+00-6.48884E-14-1.73054E-13
 -1      3498 2.22274E+01-1.22484E+00 4.14194E-03-5.14753E-01 2.08627E-13 2.04502E-13
 -1      3499 2.23311E+01-1.10881E+00-6.88845E-03-7.52322E-01 1.80390E-13 2.12888E-13
 -1      3500 2.28393E+01-1.18907E+00 7.08749E-03-7.95016E-01 5.87946E-14-1.95851E-14
 -1      3501 2.17948E+01-1.20287E+00 8.98302E-03-3.36640E-02 3.71769E-13-1.20345E-14
 -1      3502 2.19463E+01-1.25266E+00-8.62053E-03-2.40519E-01 2.76348E-13 1.73111E-13
 -1      3503 2.23497E+01-1.44355E+00-2.70194E-03-1.97208E-01 2.59571E-13-6.38249E-14
 -1      3504 2.13400E+01-9.72086E-01 1.00543E-02 3.07557E-01 3.29163E-13 4.45122E-14
 -1      3505 2.15036E+01-1.10939E+00-6.60359E-03 1.59586E-01 2.88827E-13-2.72126E-14
 -1      3506 2.17862E+01-1.32156E+00-7.17804E-03 2.60545E-01 3.74995E-13-2.17246E-13
 -1      3507 2.09354E+01-6.58436E-01 7.50397E-03 5.01612E-01 3.78830E-13 2.45890E-13
 -1      3508 2.10863E+01-8.23420E-01-4.11542E-03 4.17356E-01 3.85009E-13 1.21669E-13
 -1      3509 2.12636E+01-1.00763E+00-8.47881E-03 5.43051E-01 2.81810E-13-1.44780E-13
 -1      3510 2.07003E+01-4.40254E-01 2.76794E-03 5.78754E-01 8.43268E-14 1.10268E-13
 -1      3511 2.07973E+01-5.55241E-01-2.00141E-03 5.35213E-01 3.58818E-13 2.14178E-13
 -1      3512 2.09147E+01-7.02187E-01-6.20870E-03 6.60940E-01 3.52570E-13-8.60878E-15
 -1      3513 2.06813E+01-4.47931E-01-2.54090E-03 6.91044E-01 1.39028E-13 2.19588E-13
 -1      3514 1.78124E+01 1.46785E+00-6.83041E-03 5.89576E-02-1.36749E-13 5.11506E-13
 -1      3515 1.79228E+01 1.34384E+00 7.90655E-03 4.78923E-01-2.60740E-13 4.47360E-13
 -1      3516 2.02349E+01-2.98867E-01-2.57696E-03 1.35703E+00 2.65006E-13-3.31038E-13
 -1      3517 2.04565E+01-4.03270E-01 7.57107E-03 1.24195E+00 2.72726E-13-2.15790E-13
 -1      3518 1.81622E+01 1.05249E+00-1.54540E-02 8.79643E-01-2.10219E-13 9.01063E-14
 -1      3519 1.84893E+01 8.76623E-01 1.60766E-02 1.15422E+00-1.84671E-13-1.34015E-13
 -1      3520 1.77453E+01 1.17301E+00 6.24458E-03 8.73608E-01-1.95738E-13 2.11360E-13
 -1      3521 1.23006E+01-1.96998E-02 8.74688E-02 3.97235E+00 2.16212E-13-4.32987E-14
 -1      3522 1.36184E+01 8.55890E-01 5.28516E-02 2.57736E+00-6.00123E-14 3.56798E-14
 -1      3523 1.35475E+01 1.82886E+00 1.34474E-02 3.12939E-01 2.57447E-13 4.57655E-14
 -1      3524 1.21816E+01 1.65360E+00-1.84535E-02-4.64102E-03 2.41909E-13 1.84422E-13
 -1      3525 1.19356E+01 1.56620E+00 1.23347E-01-1.43915E+00 2.81567E-13 5.92859E-14
 -1      3526 1.39338E+01 1.90295E+00 8.21634E-02-6.64773E-01 1.82633E-13 1.43448E-13
 -1      3527 2.61939E+01-2.18127E+00-7.32813E-03 2.93748E-01-4.68930E-14-1.38988E-13
 -1      3528 2.62351E+01-9.07696E-01-6.61707E-02 1.26935E+00 1.26454E-13 1.17094E-14
 -1      3529 1.38837E+01-9.78701E-01 1.98727E-02 4.99917E+00 2.41418E-13-3.09142E-13
 -1      3530 2.55699E+01 3.94312E+00-7.99170E-02 1.78593E+00-4.12864E-14-2.66041E-13
 -1      3531 2.50010E+01 4.62884E+00-9.68580E-02 1.17184E+00-4.16472E-14-3.73580E-13
 -1      3532 2.01418E+01-2.52952E-02-3.31180E-05-1.61152E-01-3.52597E-14 3.98879E-14
 -1      3533 2.01570E+01-3.76910E-03 9.27937E-04-1.55697E-01-1.90986E-14 1.66278E-14
 -1      3534 2.02767E+01 4.40590E-01-2.73003E-03 7.53727E-02 1.33147E-13-1.03490E-13
 -1      3535 2.03025E+01 5.76651E-01 2.92990E-03 1.62017E-01 1.27787E-13-8.07831E-14
 -1      3536 1.83278E+01-2.61426E+00-6.25781E-05 5.18272E+00 1.00558E-13-2.47032E-13
 -1      3537 1.59565E+01-1.71471E+00 1.09976E-01 5.35191E+00 2.29698E-13-1.91090E-13
 -1      3538 1.60167E+01-7.56499E-01 6.31898E-02 4.31686E+00 2.18702E-13-2.17142E-13
 -1      3539 2.03178E+01 7.36173E-01 3.27322E-03-2.42856E-01-4.04917E-14-1.56969E-13
 -1      3540 2.02960E+01 5.73003E-01-3.19696E-03-1.42122E-01-4.17255E-14-1.45904E-13
 -1      3541 2.03156E+01 9.28498E-01-1.12828E-03-2.83986E-01-2.63062E-14-1.60639E-13
 -1      3542 2.00373E+01-2.40163E-02 5.25586E-04-1.28907E-01-1.97184E-14 1.06165E-13
 -1      3543 2.00400E+01-3.38712E-02-2.51136E-04-1.31419E-01 9.10023E-15 7.87619E-14
 -1      3544 2.00651E+01-4.11585E-02-2.91001E-04-1.26680E-01-1.54149E-14 3.91721E-14
 -1      3545 2.00448E+01-1.99423E-02-2.09516E-04-1.22982E-01-3.43631E-14 2.91869E-14
 -1      3546 2.02891E+01 7.38684E-01-3.43600E-03 2.50659E-01 1.37481E-13-5.77359E-14
 -1      3547 2.03020E+01 9.34856E-01 1.39336E-03 3.75279E-01 1.48498E-13-4.84466E-14
 -1      3548 2.03222E+01 7.48193E-01 7.48472E-04 2.10266E-01 1.46585E-13-6.74807E-14
 -1      3549 2.02830E+01 1.08550E+00-4.80152E-04 4.34309E-01 1.49582E-13-5.96526E-14
 -1      3550 2.02671E+01 1.26893E+00-2.98877E-03 5.22017E-01 1.53833E-13-6.10504E-14
 -1      3551 2.02516E+01 1.40886E+00 8.03974E-04 4.77879E-01 1.53979E-13-5.72306E-14
 -1      3552 2.02997E+01 1.08493E+00 1.65922E-03 3.62583E-01 1.45142E-13-4.22858E-14
 -1      3553 1.96193E+01 4.67903E-02-8.80471E-03 1.50417E+00 2.87819E-13-2.16655E-13
 -1      3554 1.99609E+01-1.15443E-01 1.34618E-02 1.48283E+00 3.46142E-13-3.20125E-13
 -1      3555 2.01538E+01-4.44744E-01-1.03700E-02 1.56094E+00 3.33736E-13-2.33337E-13
 -1      3556 2.56781E+01-1.38425E+00-1.23025E-02-9.22022E-01-2.00707E-13-7.34079E-13
 -1      3557 2.47598E+01-2.79711E+00 1.70340E-02 6.22034E-01-8.76556E-14-9.12559E-13
 -1      3558 2.46361E+01-3.61710E+00-7.90915E-03 1.81157E+00 1.21018E-14-6.95322E-13
 -1      3559 2.36692E+01-3.51949E+00-9.35171E-03 2.37946E+00-1.48683E-14-6.08422E-13
 -1      3560 2.15656E+01-3.05286E+00-1.96590E-03 3.60054E+00-6.80883E-14-5.08219E-13
 -1      3561 2.01645E+01-2.97743E+00 5.79853E-02 4.63252E+00-2.76845E-14-4.69325E-13
 -1      3562 1.90031E+01-1.99149E+00-5.52093E-03 4.20312E+00 4.61801E-14-5.78350E-13
 -1      3563 2.54565E+01-9.30863E-01-2.52479E-02 1.26274E+00 8.46875E-14-7.33545E-14
 -1      3564 2.60619E+01-1.45321E-01-2.97797E-02 1.67899E+00 2.60389E-13 3.92186E-14
 -1      3565 2.55446E+01 7.39094E-01-4.03827E-02 1.92247E+00 1.89106E-13 1.20043E-14
 -1      3566 2.45185E+01 1.78826E+00-9.35521E-02-1.91036E+00-1.75446E-13-4.75630E-13
 -1      3567 2.49040E+01 8.63693E-01 2.49491E-02-1.89114E+00-2.06314E-13-5.73016E-13
 -1      3568 2.23087E+01-3.43710E+00 4.14741E-03-3.46802E+00-1.66100E-14-1.61640E-13
 -1      3569 2.35145E+01-3.85365E+00 2.50375E-02-3.18624E+00-1.14082E-13-1.67377E-13
 -1      3570 2.40366E+01-3.48516E+00-7.37373E-04-2.12471E+00-1.89127E-13-9.45858E-14
 -1      3571 1.47688E+01-3.81113E-01 7.06291E-02-4.33311E+00 7.47249E-14 3.10064E-14
 -1      3572 2.01601E+01 1.11963E-01-1.10746E-03-1.11348E-01 7.08158E-14-8.50421E-14
 -1      3573 1.43079E+01 1.15353E+00-8.55814E-03 1.92455E+00-6.32038E-14 1.69411E-13
 -1      3574 1.54307E+01 1.27492E+00 9.48443E-03 1.49989E+00-1.50821E-14 2.33729E-13
 -1      3575 1.50149E+01 4.16087E-01 2.38430E-02 3.14716E+00 1.04982E-13-2.06675E-14
 -1      3576 2.02555E+01 1.39202E+00 2.97656E-03-5.55991E-01-1.97074E-14-1.91045E-13
 -1      3577 2.02572E+01 1.37773E+00 2.22108E-03-4.62261E-01-1.70843E-14-1.69764E-13
 -1      3578 2.02234E+01 1.55679E+00-2.99654E-04-3.36501E-01 1.27891E-14-1.54414E-13
 -1      3579 2.02394E+01 1.45960E+00-3.55987E-03-4.05205E-01-1.04645E-14-1.61539E-13
 -1      3580 2.02931E+01 1.25047E+00 4.15739E-03-3.44209E-01-2.08566E-14-1.56505E-13
 -1      3581 2.01999E+01 1.66694E+00-9.45018E-04-1.81809E-01 5.23855E-14-1.33973E-13
 -1      3582 2.02094E+01 1.61197E+00-3.09113E-03-2.67632E-01 3.31332E-14-1.53981E-13
 -1      3583 2.02690E+01 1.39980E+00 1.60084E-03-2.29231E-01 2.18801E-14-1.39310E-13
 -1      3584 2.01747E+01 2.40310E-02-3.98199E-04-1.47088E-01-2.15987E-14 3.48749E-14
 -1      3585 2.01940E+01 6.16083E-02 1.41825E-03-1.30968E-01 1.54520E-14-1.25038E-14
 -1      3586 2.02156E+01 1.91282E-02-6.43276E-04-1.36119E-01-1.48937E-14 2.09344E-14
 -1      3587 2.01143E+01-6.23084E-02-4.72839E-04-1.42206E-01 3.25361E-14 3.44306E-14
 -1      3588 2.00887E+01-5.82987E-02 3.49022E-04-1.54019E-01 6.50611E-14-8.35713E-15
 -1      3589 2.00972E+01-5.60408E-02 2.49608E-04-1.58205E-01 9.89865E-14 3.49667E-14
 -1      3590 1.30553E+01 1.21325E+00 5.22333E-02-2.18166E+00 1.77301E-13 5.71938E-14
 -1      3591 2.05968E+01-6.34016E-01-6.28534E-03 1.27350E+00 1.57315E-13-2.74526E-13
 -1      3592 2.05594E+01-4.49275E-01 1.75805E-03 1.10906E+00 1.86088E-13-1.88128E-13
 -1      3593 2.06352E+01-4.88820E-01-2.08636E-04 1.01185E+00 1.83987E-13-1.58063E-13
 -1      3594 1.78405E+01-1.92642E+00 3.53947E-02-4.85720E+00-3.22867E-14-1.59159E-13
 -1      3595 1.89361E+01-2.61574E+00 7.75789E-02-5.10686E+00-1.23387E-13-3.24248E-13
 -1      3596 2.02839E+01-2.95986E+00 1.28271E-03-4.41144E+00-1.08058E-13-1.53304E-13
 -1      3597 2.01997E+01 1.69475E+00 4.25641E-03 4.57962E-01 1.45172E-13-5.24078E-14
 -1      3598 2.01374E+01 1.92365E+00 4.22127E-03-9.35280E-02 5.42037E-14-1.19814E-13
 -1      3599 1.84881E+01 5.79145E-01-3.57385E-03 1.50224E+00 6.71793E-14-3.43086E-13
 -1      3600 1.88560E+01 5.30932E-01-1.51267E-02 1.36932E+00 4.20902E-14-3.01690E-13
 -1      3601 1.92528E+01 3.39940E-01 1.72532E-02 1.48934E+00 2.21393E-13-3.92941E-13
 -1      3602 2.44673E+01 4.42555E+00-4.61155E-02 7.66837E-01-1.32429E-13-6.01149E-13
 -1      3603 2.03318E+01 5.80928E-01 1.05783E-03-1.15001E-01-2.57374E-14-1.35475E-13
 -1      3604 2.52461E+01 2.79178E+00-4.52831E-02 1.87466E+00 3.84970E-14-2.04812E-13
 -1      3605 2.01131E+01-5.03252E-02 2.02632E-04-1.61311E-01 6.69306E-14-1.66499E-14
 -1      3606 2.01246E+01-4.01227E-02 5.41800E-04-1.62255E-01 1.11090E-14 1.30796E-14
 -1      3607 2.01784E+01-3.11131E-02-6.19513E-04-1.48387E-01 8.85976E-15-5.04235E-14
 -1      3608 2.01444E+01-5.57438E-02-5.54470E-04-1.48483E-01 7.56105E-14-2.14940E-15
 -1      3609 2.02731E+01 3.32063E-01 2.60310E-03 1.49191E-02 1.04310E-13-9.73475E-14
 -1      3610 2.03170E+01 4.47961E-01 6.94658E-05 5.85507E-02 1.18941E-13-6.70362E-14
 -1      3611 2.02466E+01 2.40133E-01-1.70210E-03-4.07008E-02 8.00409E-14-9.82355E-14
 -1      3612 2.48745E+01 4.40451E+00-9.83123E-02-1.16471E+00-2.50980E-14-5.18682E-13
 -1      3613 2.45641E+01 3.43330E+00-1.16938E-02-1.52517E+00-7.95752E-14-4.99352E-13
 -1      3614 1.75978E+01 1.57862E+00 1.36922E-02-1.18302E-01-1.22902E-13 3.60643E-13
 -1      3615 2.56860E+01-2.74202E+00-2.39128E-02-2.72463E-01-1.54089E-13-1.56149E-13
 -1      3616 2.52532E+01-2.05907E+00-7.02939E-03 4.38005E-01-1.11754E-13-1.50593E-13
 -1      3617 2.48833E+01-3.00639E+00-9.71056E-03-8.82908E-01-1.85471E-13-2.35125E-13
 -1      3618 2.02044E+01 1.64055E+00-3.06407E-03 1.30404E-01 9.91512E-14-4.40804E-14
 -1      3619 2.02002E+01 1.66082E+00-2.29600E-03 4.04050E-02 7.21746E-14-6.58408E-14
 -1      3620 2.02228E+01 1.55096E+00-3.34843E-03 2.83604E-01 1.34524E-13-6.86981E-14
 -1      3621 2.02119E+01 1.60756E+00-2.08958E-03 2.01990E-01 1.19253E-13-5.99277E-14
 -1      3622 2.02873E+01 1.38688E+00 5.12380E-03 1.34306E-01 9.68282E-14-3.78419E-14
 -1      3623 2.39243E+01 2.50678E+00-2.20259E-02-1.57062E+00-1.00697E-13-3.34330E-13
 -1      3624 2.41281E+01 4.43960E+00-2.89723E-02-6.20844E-01 1.63064E-14-5.50312E-13
 -1      3625 2.03582E+01 4.15372E-01 1.46968E-03-2.74879E-02-5.72139E-15-8.95399E-14
 -1      3626 2.03414E+01 3.00729E-01-1.76994E-03 2.23016E-02 2.85741E-16-6.66957E-14
 -1      3627 2.03342E+01 2.13483E-01 1.39418E-03 5.11911E-02-3.19870E-14-6.22155E-14
 -1      3628 2.03134E+01 1.40671E-01-1.01820E-03 8.01009E-02-5.32985E-14-3.35367E-14
 -1      3629 2.03694E+01 2.92534E-01 2.28745E-04 2.43145E-02-1.90605E-14-6.12836E-14
 -1      3630 2.02978E+01 8.36252E-02 1.10322E-03 9.65223E-02-5.46340E-14-3.22076E-14
 -1      3631 2.02762E+01 3.73616E-02-4.88241E-04 1.11978E-01-3.14446E-14-2.50864E-14
 -1      3632 2.03400E+01 1.32774E-01-1.53236E-04 7.16847E-02-4.17386E-14-7.66365E-14
 -1      3633 2.02565E+01 2.51331E-03 7.90555E-04 1.19402E-01-3.66783E-14-3.08500E-14
 -1      3634 2.02361E+01-2.43687E-02-1.15688E-04 1.25765E-01-3.47730E-14-5.45228E-14
 -1      3635 2.03005E+01 3.01191E-02-3.75345E-04 9.77003E-02-3.85351E-14-6.07632E-14
 -1      3636 2.02150E+01-4.31724E-02 5.15127E-04 1.27330E-01-3.80550E-14-2.51805E-14
 -1      3637 2.01967E+01-5.60734E-02 1.30311E-04 1.28086E-01-4.17129E-14-7.02337E-15
 -1      3638 2.02573E+01-3.04466E-02-4.77824E-04 1.08870E-01-3.36826E-14-5.38437E-14
 -1      3639 2.01758E+01-6.33550E-02 2.86481E-04 1.26308E-01-1.72062E-14-1.88716E-14
 -1      3640 2.01598E+01-6.62098E-02 2.80765E-04 1.24135E-01-3.97624E-14-1.64027E-14
 -1      3641 2.02142E+01-6.04135E-02-4.92789E-04 1.10684E-01-2.76378E-14-1.88985E-14
 -1      3642 2.01398E+01-6.51872E-02 9.78170E-05 1.20927E-01-7.02852E-14-4.32978E-14
 -1      3643 2.01260E+01-6.07461E-02 3.61668E-04 1.17831E-01-7.10039E-14-5.50274E-14
 -1      3644 2.01733E+01-6.82605E-02-4.42074E-04 1.07472E-01-6.70918E-14-2.59430E-14
 -1      3645 2.01071E+01-5.36025E-02-6.27106E-05 1.14610E-01-4.85735E-14-4.42864E-14
 -1      3646 2.00950E+01-4.36685E-02 3.91173E-04 1.12072E-01-4.38527E-14-4.59606E-14
 -1      3647 2.01352E+01-6.00115E-02-3.52342E-04 1.02505E-01-7.09764E-14 4.33241E-14
 -1      3648 2.00769E+01-3.17504E-02-2.06816E-04 1.09860E-01-7.46525E-15-3.78129E-14
 -1      3649 2.00658E+01-1.73573E-02 3.82296E-04 1.08976E-01 4.79199E-14-7.03350E-15
 -1      3650 2.00996E+01-3.96501E-02-2.29744E-04 9.81809E-02-7.49924E-15 4.44613E-14
 -1      3651 2.00478E+01-1.33489E-03-3.45864E-04 1.08493E-01 7.26581E-14-3.86758E-14
 -1      3652 2.00367E+01 1.71115E-02 3.40487E-04 1.10074E-01 7.99188E-14-2.98477E-14
 -1      3653 2.00653E+01-9.52719E-03-7.26752E-05 9.61973E-02 5.42330E-14 5.38660E-14
 -1      3654 2.00178E+01 3.71116E-02-4.98577E-04 1.11787E-01 5.95385E-14 3.34064E-15
 -1      3655 2.00056E+01 5.97569E-02 2.79241E-04 1.16426E-01 1.03185E-13-1.20207E-14
 -1      3656 2.00304E+01 2.93441E-02 1.29629E-04 9.76832E-02 6.56044E-14-1.99712E-14
 -1      3657 1.99830E+01 8.54707E-02-6.63598E-04 1.20806E-01 1.33331E-13-2.58315E-14
 -1      3658 1.99669E+01 1.14376E-01 1.45232E-04 1.29420E-01 7.19481E-14-1.45348E-14
 -1      3659 1.99912E+01 7.82761E-02 3.55304E-04 1.03465E-01 1.16022E-13-1.81032E-14
 -1      3660 1.99404E+01 1.44248E-01-8.54775E-04 1.36042E-01 1.66739E-14 3.15489E-14
 -1      3661 1.99198E+01 1.77686E-01-1.07133E-04 1.47872E-01-8.02125E-15 4.12259E-14
 -1      3662 1.99449E+01 1.37587E-01 7.26665E-04 1.13467E-01 6.91863E-14-5.70670E-14
 -1      3663 1.98859E+01 2.14096E-01-1.06016E-03 1.56378E-01-3.35195E-14 3.28856E-14
 -1      3664 1.98567E+01 2.54658E-01-4.61117E-04 1.71518E-01-5.26082E-14-3.46390E-14
 -1      3665 1.98877E+01 2.07141E-01 1.15740E-03 1.26597E-01-4.17854E-14-6.60265E-14
 -1      3666 1.98117E+01 2.99196E-01-1.30405E-03 1.80808E-01-6.46372E-14 3.80245E-15
 -1      3667 1.97690E+01 3.48552E-01-1.01143E-03 1.98379E-01-8.06204E-14 4.97910E-14
 -1      3668 1.98123E+01 2.90690E-01 1.74450E-03 1.41078E-01-6.22832E-14-1.44395E-13
 -1      3669 1.97081E+01 4.03103E-01-1.57454E-03 2.06415E-01-1.04708E-13 8.06199E-14
 -1      3670 1.96453E+01 4.63012E-01-1.85875E-03 2.24568E-01-1.39119E-13 1.32900E-13
 -1      3671 1.97102E+01 3.90930E-01 2.54020E-03 1.53231E-01-6.00681E-14-2.33295E-14
 -1      3672 1.95620E+01 5.29517E-01-1.86135E-03 2.27900E-01-1.56647E-13 9.47820E-14
 -1      3673 1.94695E+01 6.01510E-01-3.13932E-03 2.43294E-01-1.53255E-13 5.91672E-14
 -1      3674 1.95699E+01 5.10466E-01 3.61724E-03 1.56773E-01-1.24397E-13 4.85784E-14
 -1      3675 1.93553E+01 6.81514E-01-2.15174E-03 2.36430E-01-1.61498E-13 4.37413E-14
 -1      3676 1.92199E+01 7.66227E-01-5.03882E-03 2.43544E-01-1.17093E-13 7.68839E-15
 -1      3677 1.93764E+01 6.50980E-01 5.06652E-03 1.41616E-01-2.11964E-13 1.25122E-13
 -1      3678 1.90637E+01 8.60004E-01-2.44516E-03 2.18164E-01-7.80188E-14 6.86614E-14
 -1      3679 1.88667E+01 9.55999E-01-7.81094E-03 2.08512E-01-5.18286E-14 3.04144E-14
 -1      3680 1.91097E+01 8.11763E-01 6.99938E-03 9.23136E-02-1.01344E-13 7.76551E-14
 -1      3681 1.86541E+01 1.06104E+00-2.78583E-03 1.52572E-01-2.63860E-14 1.26160E-15
 -1      3682 1.83698E+01 1.16286E+00-1.17993E-02 1.13973E-01-4.75806E-14 2.16950E-14
 -1      3683 1.87440E+01 9.87293E-01 9.56133E-03-1.38393E-02-2.01696E-14 6.34508E-15
 -1      3684 1.80816E+01 1.27148E+00-3.28101E-03 1.07410E-02-1.17285E-13 2.16981E-14
 -1      3685 1.76742E+01 1.36678E+00-1.73611E-02-7.30136E-02-9.13291E-14-2.30485E-14
 -1      3686 1.82459E+01 1.16344E+00 1.30091E-02-2.09037E-01-5.85237E-14-1.09249E-13
 -1      3687 1.72842E+01 1.46211E+00-4.10860E-03-2.45966E-01-4.11910E-14 2.01137E-14
 -1      3688 1.66999E+01 1.52752E+00-2.52123E-02-3.94395E-01-5.48186E-14 4.80044E-14
 -1      3689 1.75717E+01 1.31225E+00 1.81231E-02-5.37552E-01-3.79452E-14-9.00066E-14
 -1      3690 1.61431E+01 1.58434E+00-1.99401E-03-6.80397E-01 4.39648E-14 4.91369E-14
 -1      3691 1.52673E+01 1.57571E+00-2.44843E-02-9.37818E-01 1.12423E-13 1.36333E-13
 -1      3692 1.66358E+01 1.38362E+00 2.78687E-02-1.07570E+00 1.45645E-14 9.30050E-14
 -1      3693 2.03121E+01 1.01182E+00-2.90075E-03-2.48165E-01-1.84956E-14-1.40196E-13
 -1      3694 2.01057E+01-5.59710E-02 4.15692E-04-1.18894E-01 5.37634E-15-2.62178E-14
 -1      3695 2.01179E+01-6.18808E-02 2.90148E-05-1.22291E-01 1.60970E-14-2.76871E-14
 -1      3696 2.03354E+01 7.16193E-01-3.48583E-03 1.51399E-01 1.64237E-13-5.47687E-14
 -1      3697 2.03357E+01 9.06022E-01 1.65974E-03 2.42963E-01 1.44093E-13-5.80049E-14
 -1      3698 2.02106E+01 1.07792E-01-9.39714E-04-1.10565E-01 3.95988E-14-4.99543E-14
 -1      3699 2.02340E+01 1.67991E-01 1.99796E-03-7.81807E-02 4.52989E-14-9.03688E-14
 -1      3700 2.02903E+01 2.42029E-01-3.57729E-04-4.28043E-02 5.68642E-14-4.09370E-14
 -1      3701 2.02542E+01 1.05426E-01-5.79266E-04-1.04090E-01-4.40124E-15-1.44295E-14
 -1      3702 2.00047E+01 4.70743E-02 5.58467E-04-1.26017E-01-6.30549E-14 6.70677E-14
 -1      3703 2.00121E+01 3.07191E-02-4.51465E-04-1.19841E-01-8.81787E-14 1.43230E-14
 -1      3704 2.00278E+01 1.54564E-02 5.14366E-04-1.15508E-01-7.51232E-14-5.71413E-15
 -1      3705 2.00359E+01 2.78069E-04-3.50461E-04-1.12899E-01-5.41713E-14-2.81705E-15
 -1      3706 2.00210E+01 2.69125E-02-5.59301E-05-1.07491E-01-9.20804E-14 8.47645E-14
 -1      3707 1.99608E+01 1.10006E-01 7.45464E-04-1.72753E-01-1.41651E-13 6.30074E-14
 -1      3708 1.99661E+01 9.47550E-02-6.17386E-04-1.57765E-01-1.05894E-13 5.29416E-14
 -1      3709 1.99418E+01 1.34811E-01 9.16040E-04-2.11497E-01-1.27809E-13 2.99180E-14
 -1      3710 1.99448E+01 1.22959E-01-6.51309E-04-1.91467E-01-1.65753E-13 3.59235E-14
 -1      3711 1.99318E+01 1.31907E-01 9.27717E-06-1.73246E-01-1.36381E-13 2.02156E-14
 -1      3712 1.99285E+01 1.48167E-01 1.15474E-03-2.61928E-01-1.41582E-13 2.49468E-14
 -1      3713 1.99272E+01 1.42848E-01-6.12757E-04-2.36701E-01-9.15001E-14-1.43929E-14
 -1      3714 1.99033E+01 1.58726E-01-1.44684E-04-2.17192E-01-7.26591E-14 3.13606E-14
 -1      3715 1.99266E+01 1.41937E-01 1.46559E-03-3.24567E-01-1.05033E-13 4.50714E-14
 -1      3716 1.99178E+01 1.47581E-01-4.47492E-04-2.94416E-01-1.34120E-13-2.98039E-14
 -1      3717 1.98797E+01 1.72130E-01-4.76444E-04-2.75448E-01-1.07491E-13-3.05686E-14
 -1      3718 1.99457E+01 1.05152E-01 1.83188E-03-3.98801E-01-4.01858E-14 1.68246E-14
 -1      3719 1.99244E+01 1.27669E-01-7.28678E-05-3.64796E-01-9.32848E-14 4.45156E-16
 -1      3720 1.98675E+01 1.62729E-01-1.07121E-03-3.49845E-01-1.12180E-13-9.87517E-14
 -1      3721 1.99998E+01 2.40467E-02 2.19233E-03-4.81761E-01-4.73454E-14 1.97324E-13
 -1      3722 1.99590E+01 7.07527E-02 6.30492E-04-4.46374E-01-3.81286E-15 1.37158E-13
 -1      3723 1.98774E+01 1.17825E-01-2.03750E-03-4.41313E-01-9.81762E-14-1.39613E-14
 -1      3724 2.01085E+01-1.16901E-01 2.40053E-03-5.66445E-01-6.28825E-14 2.55204E-13
 -1      3725 2.00393E+01-3.79447E-02 1.82251E-03-5.34492E-01-4.59597E-14 2.21517E-13
 -1      3726 1.99261E+01 2.13962E-02-3.50099E-03-5.48517E-01-7.23655E-14 1.54664E-13
 -1      3727 2.02968E+01-3.31967E-01 2.17334E-03-6.38801E-01 1.00559E-13 2.10734E-13
 -1      3728 2.01890E+01-2.13742E-01 3.68888E-03-6.18775E-01-9.03997E-15 2.02313E-13
 -1      3729 2.00372E+01-1.44791E-01-5.58067E-03-6.65383E-01-3.36045E-14 1.00535E-13
 -1      3730 2.05929E+01-6.27616E-01 1.07198E-03-6.73712E-01 5.61745E-14 7.95696E-14
 -1      3731 2.04373E+01-4.67991E-01 6.39718E-03-6.79351E-01 9.79978E-14 1.48526E-13
 -1      3732 2.02425E+01-3.97755E-01-8.31063E-03-7.77000E-01 1.12115E-13 2.01119E-13
 -1      3733 2.10220E+01-9.89895E-01-1.36869E-03-6.30848E-01-9.76520E-14 1.90986E-13
 -1      3734 2.08144E+01-7.98992E-01 9.91425E-03-6.82135E-01-9.73299E-15 5.97900E-14
 -1      3735 2.05802E+01-7.45129E-01-1.14025E-02-8.53532E-01 3.18064E-14 1.10298E-13
 -1      3736 2.15913E+01-1.36446E+00-5.65756E-03-4.54692E-01-1.90440E-13 3.26469E-13
 -1      3737 2.13410E+01-1.17569E+00 1.36940E-02-5.75719E-01-1.36514E-13 2.32858E-13
 -1      3738 2.10876E+01-1.16898E+00-1.39786E-02-8.43576E-01-1.50558E-13 1.62013E-13
 -1      3739 2.22720E+01-1.62696E+00-9.84903E-03-8.41101E-02-1.21000E-13 2.29832E-13
 -1      3740 2.20072E+01-1.51334E+00 1.63064E-02-2.93794E-01-1.48896E-13 3.17123E-13
 -1      3741 2.17877E+01-1.59899E+00-1.31580E-02-6.72333E-01-1.74801E-13 1.91367E-13
 -1      3742 2.29547E+01-1.56701E+00-1.32560E-02 4.94109E-01-1.13577E-14 2.08157E-13
 -1      3743 2.27286E+01-1.64222E+00 1.28393E-02 2.11474E-01-2.19862E-14 2.03415E-13
 -1      3744 2.26299E+01-1.87675E+00-1.17115E-02-2.48262E-01-7.36589E-14 1.77333E-13
 -1      3745 2.34689E+01-9.39183E-01-7.88057E-03 1.19641E+00-3.04074E-13 2.78905E-13
 -1      3746 2.33715E+01-1.32943E+00 4.63642E-03 9.16319E-01-1.79569E-13 1.80383E-13
 -1      3747 2.35057E+01-1.74742E+00-1.18782E-02 4.58425E-01-8.39749E-14 2.16164E-13
 -1      3748 2.40296E+01 4.60550E-01-1.37825E-02 1.76615E+00 1.54285E-13-1.29846E-13
 -1      3749 2.40539E+01-3.45834E-01-2.15851E-02 1.59526E+00-1.19522E-14 1.34901E-13
 -1      3750 2.33323E+01 3.50784E+00-1.30423E-02 9.01891E-01-1.70065E-13-2.86596E-13
 -1      3751 2.34623E+01 2.89425E+00-4.84434E-02 1.42973E+00-9.15908E-14-3.26898E-13
 -1      3752 2.31443E+01 3.24365E+00-2.11053E-02-9.56112E-01 8.85923E-14-2.61608E-13
 -1      3753 2.30693E+01 3.52626E+00-9.89229E-03-2.92578E-01-3.89029E-14-3.14318E-13
 -1      3754 2.33002E+01 2.59326E+00-3.38162E-02-1.37753E+00-6.68215E-15-3.00144E-13
 -1      3755 2.34743E+01 4.90572E-01-4.93776E-02-1.70769E+00-1.69680E-13-4.80564E-13
 -1      3756 2.34263E+01 1.41523E+00 2.15682E-02-1.74981E+00-1.75301E-13-3.06247E-13
 -1      3757 2.36097E+01-1.06390E+00-1.82791E-02-1.13898E+00-1.29553E-13-2.32343E-13
 -1      3758 2.37101E+01-4.31478E-01 1.54939E-02-1.41888E+00-2.77410E-13-4.24858E-13
 -1      3759 2.31320E+01-1.64761E+00 8.81749E-03-3.97299E-01 1.04219E-13-2.37764E-13
 -1      3760 2.33194E+01-1.42268E+00-4.72821E-03-7.05012E-01 4.65931E-14-1.23083E-13
 -1      3761 2.39458E+01-1.47443E+00 1.32243E-02-7.60184E-01-8.79344E-14-4.98715E-13
 -1      3762 2.24391E+01-1.66720E+00 1.55948E-02 2.33174E-01 3.62109E-13-3.14432E-13
 -1      3763 2.26903E+01-1.72226E+00-1.14579E-02-1.66455E-02 2.72601E-13-3.08479E-13
 -1      3764 2.31437E+01-1.99697E+00-2.11131E-02 9.66466E-02 2.62658E-13-4.15165E-13
 -1      3765 2.17457E+01-1.36910E+00 1.40163E-02 6.31030E-01 2.87935E-13-2.82516E-13
 -1      3766 2.20099E+01-1.55356E+00-6.90403E-03 4.66130E-01 2.89706E-13-3.01442E-13
 -1      3767 2.22916E+01-1.82799E+00-1.55444E-02 6.64000E-01 3.16162E-13-4.82080E-13
 -1      3768 2.11731E+01-9.51083E-01 1.17583E-02 8.18034E-01 2.97724E-13-1.21016E-13
 -1      3769 2.13988E+01-1.17101E+00-2.23012E-03 7.32629E-01 3.18116E-13-1.17000E-13
 -1      3770 2.15446E+01-1.38079E+00-8.09037E-03 9.48496E-01 2.06751E-13-3.61506E-13
 -1      3771 2.49565E+01-6.23705E-01-6.77088E-02-1.48223E+00-2.00934E-13-5.87751E-13
 -1      3772 2.47733E+01-1.80190E+00 1.35168E-02-6.02451E-01-2.76386E-13-6.43133E-13
 -1      3773 2.01940E+01 1.68285E+00-2.58033E-03-2.44868E-02 5.88929E-14-9.93144E-14
 -1      3774 2.01970E+01 1.66728E+00-2.79631E-03-1.15106E-01 4.79146E-14-1.34055E-13
 -1      3775 2.02647E+01 1.45971E+00 2.69515E-03-1.09497E-01 5.16882E-14-1.39948E-13
 -1      3776 2.02779E+01 1.44108E+00 5.19693E-03 1.14887E-02 6.32174E-14-7.32729E-14
 -1      3777 2.41810E+01-3.43957E-02-3.07076E-03-1.58144E+00-2.22667E-13-5.92915E-13
 -1      3778 1.36445E+01 1.41994E+00-2.48143E-02-1.61505E+00 1.14160E-13 9.68947E-14
 -1      3779 1.40295E+01 9.54405E-01 5.57351E-02-2.79324E+00 1.39496E-13 6.81850E-14
 -1      3780 1.74930E+01-9.71035E-01-9.86638E-03 3.95471E+00 1.00027E-13-5.00681E-13
 -1      3781 1.60362E+01-1.32494E-01 3.00493E-02 3.57544E+00 1.47167E-13-2.53510E-13
 -1      3782 1.67486E+01 2.09723E-01 3.61089E-02 2.87138E+00 1.43414E-13-1.88864E-13
 -1      3783 2.02431E+01 1.44377E+00-3.02141E-03 4.17926E-01 1.45810E-13-4.93355E-14
 -1      3784 2.02275E+01 1.53810E+00-1.17869E-03 3.48123E-01 1.35314E-13-4.08232E-14
 -1      3785 2.02902E+01 1.33387E+00 4.26986E-03 2.55278E-01 1.27663E-13-4.48068E-14
 -1      3786 2.02823E+01 1.27827E+00 1.81726E-03 3.66987E-01 1.38383E-13-4.90112E-14
 -1      3787 1.47133E+01 1.34494E-01-6.50383E-04-3.64402E+00 1.29952E-13 1.10929E-13
 -1      3788 1.61999E+01-8.04803E-01 2.27101E-02-4.41160E+00-1.56125E-16 1.19148E-13
 -1      3789 1.53868E+01 5.45532E-01 4.03371E-02-2.97046E+00 7.80591E-14 1.27920E-13
 -1      3790 1.45889E+01 1.56699E+00 9.42435E-03-1.23266E+00 6.04814E-14 2.37700E-13
 -1      3791 1.99823E+01 7.94684E-02 6.30959E-04-1.44668E-01-7.53456E-14 6.55858E-14
 -1      3792 1.99888E+01 6.29482E-02-5.44558E-04-1.34337E-01-4.03267E-14 5.81378E-14
 -1      3793 1.99915E+01 6.22651E-02 1.66179E-05-1.20244E-01-5.65967E-14 1.19398E-13
 -1      3794 2.06768E+01-4.41672E-01 3.13263E-03 7.89903E-01 2.50498E-13 5.91795E-14
 -1      3795 2.03610E+01 6.99859E-01 2.37607E-03-1.44041E-01-1.01746E-14-1.28196E-13
 -1      3796 2.03514E+01 5.42400E-01-3.24466E-03-7.26766E-02-1.82334E-14-1.18641E-13
 -1      3797 2.03795E+01 5.28893E-01 1.08376E-03-5.19610E-02-9.00481E-15-9.68572E-14
 -1      3798 2.03377E+01 9.81741E-01 8.68484E-04-1.93947E-01-1.00761E-14-1.00311E-13
 -1      3799 2.33146E+01 3.89466E+00-6.69368E-02 9.08399E-02-1.44816E-13-4.01229E-13
 -1      3800 2.14845E+01-3.10784E+00 3.45121E-02-3.82438E+00 4.59494E-14-1.73898E-13
 -1      3801 2.22923E+01-3.09163E+00 5.77367E-03-2.97100E+00 4.38607E-14-2.08019E-13
 -1      3802 2.03838E+01-2.63039E+00 1.52775E-03-3.96457E+00 2.28879E-14-2.69373E-13
 -1      3803 1.93828E+01-1.33911E-02-1.04307E-02 1.70837E+00 4.56465E-13-4.96307E-13
 -1      3804 1.53996E+01 1.32143E+00 4.11579E-02-1.80114E+00 1.35123E-13 1.84393E-13
 -1      3805 2.27118E+01-3.19019E+00 3.12670E-02 2.81969E+00-1.29655E-13-4.29047E-13
 -1      3806 2.14291E+01-2.57146E+00-1.88482E-02 2.99448E+00-1.27138E-13-4.44646E-13
 -1      3807 2.33435E+01-2.91260E+00 1.02539E-02 1.74281E+00-1.09340E-14-6.78113E-13
 -1      3808 2.52929E+01-1.58850E+00-1.78294E-02 8.94430E-01-7.51274E-14-1.29584E-13
 -1      3809 2.50767E+01-9.64210E-01-2.60517E-02 1.27589E+00 8.14370E-14-4.46830E-14
 -1      3810 2.49161E+01-2.01230E+00 4.47052E-03 4.36036E-01-1.55773E-13-4.00582E-14
 -1      3811 2.03567E+01 5.59165E-01 2.50265E-03 9.40670E-02 1.42983E-13-5.48900E-14
 -1      3812 2.03647E+01 7.01440E-01-1.78610E-04 1.18319E-01 1.36137E-13-1.53190E-14
 -1      3813 2.03408E+01 4.25603E-01-2.18396E-03 3.01619E-02 9.29162E-14-2.20815E-14
 -1      3814 2.34345E+01-3.05672E+00 9.69945E-05-1.82502E+00-8.97260E-14-1.89403E-13
 -1      3815 2.43471E+01-3.18400E+00 3.74498E-03-1.35773E+00-2.11192E-13-2.14581E-13
 -1      3816 2.42698E+01-2.69158E+00-1.65234E-02-5.68060E-01-1.36098E-13-2.60948E-13
 -1      3817 1.99617E+01 9.82658E-02 4.82817E-05-1.41576E-01-1.03515E-13 1.58856E-13
 -1      3818 2.00881E+01-4.80671E-02-1.13825E-04-1.15873E-01-4.18214E-14-6.75836E-14
 -1      3819 2.01144E+01-5.47352E-02-3.49006E-04-1.04792E-01 2.20685E-15-6.23261E-14
 -1      3820 2.00775E+01-3.79302E-02 4.59938E-04-1.13508E-01-6.52142E-14-2.02935E-14
 -1      3821 2.01682E+01-6.11798E-01-1.37700E-03 1.78105E+00 3.39296E-13-1.91407E-13
 -1      3822 2.05330E+01-7.70784E-01 8.38176E-03 1.62890E+00 2.67317E-13-1.54231E-13
 -1      3823 1.89892E+01-1.34872E+00 2.76744E-02 3.55936E+00-4.58661E-14-8.29320E-13
 -1      3824 2.02484E+01 8.69287E-03-3.16368E-04-1.24284E-01-1.14412E-15-4.54853E-14
 -1      3825 2.02694E+01 4.57587E-02 9.69380E-04-1.12610E-01-1.15549E-14-3.03909E-14
 -1      3826 2.01368E+01-6.49315E-02 3.41864E-04-1.25877E-01 4.00221E-14-5.22649E-15
 -1      3827 2.01512E+01-6.48820E-02 1.98008E-04-1.28940E-01 6.64013E-14 1.70550E-14
 -1      3828 2.01500E+01-6.64766E-02-4.31831E-04-1.10072E-01 5.16428E-14-6.09500E-14
 -1      3829 1.71114E+01 1.27598E+00-4.19153E-03 9.48838E-01-8.73836E-14 3.84080E-13
 -1      3830 1.75016E+01 1.01487E+00 1.79112E-02 1.37098E+00-1.63636E-14-1.19702E-14
 -1      3831 2.00508E+01-5.69103E-03-1.62397E-04-1.01708E-01-3.89315E-14 3.01646E-14
 -1      3832 2.00518E+01-1.34678E-02 4.86507E-04-1.11821E-01-2.76427E-14-9.72685E-15
 -1      3833 2.00610E+01-2.65902E-02-2.39628E-04-1.12113E-01-2.76566E-14-7.37751E-15
 -1      3834 2.42538E+01 2.58735E+00-1.75812E-02 1.80139E+00-5.15941E-14-3.04905E-13
 -1      3835 2.32932E+01 1.93394E+00-1.13505E-02 1.62888E+00 7.45931E-17-3.18677E-13
 -1      3836 2.33977E+01 1.12021E+00-6.06011E-02 1.83088E+00 6.54485E-14-1.93549E-13
 -1      3837 2.43631E+01-2.31341E+00-3.05923E-02-9.94331E-02-5.95576E-14-6.24335E-13
 -1      3838 2.09173E+01-7.57962E-01 8.68633E-04 8.88026E-01 2.68118E-13-5.74772E-14
 -1      3839 2.09756E+01-8.92645E-01-6.57153E-04 1.08019E+00 1.68196E-13 1.29360E-14
 -1      3840 2.07906E+01-6.20039E-01 3.16341E-03 9.04801E-01 2.28153E-13-6.79255E-14
 -1      3841 1.71322E+01 1.50600E+00-1.23709E-02 2.71929E-01-4.30107E-14 4.42768E-13
 -1      3842 1.60103E+01 1.34789E+00-2.68695E-02 1.07361E+00-6.58475E-14 2.77387E-13
 -1      3843 1.67941E+01 1.39436E+00 1.29680E-03 7.81425E-01-5.83694E-14 2.72794E-13
 -1      3844 2.07555E+01-8.46691E-01 4.18015E-03 1.41147E+00 2.09689E-13-1.19367E-13
 -1      3845 2.08890E+01-8.96612E-01 2.70195E-03 1.27865E+00 6.55200E-14 4.52344E-14
 -1      3846 2.11479E+01-1.13532E+00 1.04084E-03 1.21858E+00 2.19632E-13-1.37664E-13
 -1      3847 2.03072E+01 1.24573E+00 7.82040E-04-1.46394E-01 3.07315E-14-1.49214E-13
 -1      3848 2.03169E+01 1.18253E+00-1.10321E-04-2.01871E-01 2.11874E-14-1.26013E-13
 -1      3849 2.03658E+01 8.45409E-01-1.58491E-03-1.10399E-01-1.01866E-14-1.08208E-13
 -1      3850 2.03079E+01 1.24359E+00-1.79333E-03-9.04585E-02 3.90908E-14-1.39160E-13
 -1      3851 1.74165E+01-1.24575E+00 3.78049E-02-4.34161E+00-1.13494E-14-1.73899E-13
 -1      3852 1.87096E+01-1.74655E+00-9.81868E-03-4.11962E+00-2.22279E-14-3.33551E-13
 -1      3853 1.72459E+01-7.30546E-01-9.12680E-03-3.77684E+00 1.34285E-14-9.88740E-14
 -1      3854 1.80285E+01 5.60084E-01-1.82340E-02 1.72425E+00-2.29504E-15-4.46608E-13
 -1      3855 1.86108E+01 2.83640E-01 2.33969E-02 1.92245E+00 2.86817E-13-6.74976E-13
 -1      3856 1.75347E+01 6.56677E-01 9.94263E-03 1.86566E+00 8.97221E-14-3.42830E-13
 -1      3857 2.03169E+01 1.20466E+00-3.07805E-03 3.22127E-02 8.30461E-14-5.12913E-14
 -1      3858 2.03152E+01 1.23179E+00-6.70665E-04-1.99540E-02 6.11169E-14-7.79565E-14
 -1      3859 2.07981E+01-1.08355E+00-4.55746E-03 1.64390E+00 7.75318E-14-6.11924E-14
 -1      3860 2.02090E+01-3.89970E-02 7.86078E-06-1.32834E-01 8.96104E-15-8.61745E-14
 -1      3861 2.02281E+01-1.86038E-02 6.65943E-04-1.29091E-01-1.68427E-15-8.30235E-14
 -1      3862 2.02733E+01 1.42227E-03-4.46257E-04-1.09007E-01 2.81223E-14-3.83545E-14
 -1      3863 2.03223E+01 1.15826E+00-2.72755E-03 1.35089E-01 1.17557E-13-3.09205E-14
 -1      3864 2.03195E+01 1.19227E+00-1.68815E-03 7.85022E-02 8.93138E-14-3.21994E-14
 -1      3865 2.03703E+01 1.01586E+00 4.56763E-03 4.16004E-02 8.76970E-14-3.42801E-14
 -1      3866 1.63199E+01 9.40223E-01 1.25722E-02 1.96445E+00 6.63612E-14 1.42304E-14
 -1      3867 2.50085E+01 1.55599E+00-3.55132E-02 2.03904E+00 6.96110E-14-1.89548E-13
 -1      3868 2.39931E+01-2.46198E+00 7.35249E-03 4.04628E-01 6.22523E-14-7.13271E-13
 -1      3869 2.03764E+01 1.77115E-01 7.04218E-04 4.74644E-02-4.78315E-14-9.73835E-14
 -1      3870 2.03568E+01 1.09447E-01-6.88075E-04 6.61133E-02-4.00874E-14-9.74427E-14
 -1      3871 2.03391E+01 5.63857E-02 6.27249E-04 7.41019E-02-1.16920E-14-8.96670E-14
 -1      3872 2.03167E+01 1.42133E-02-2.86879E-04 8.39326E-02-2.05386E-14-8.41843E-14
 -1      3873 2.03693E+01 9.49817E-02-6.60499E-05 5.30264E-02-2.36884E-14-1.01180E-13
 -1      3874 2.02946E+01-1.71853E-02 4.84933E-04 8.69021E-02-8.93076E-15-9.98208E-14
 -1      3875 2.02720E+01-4.05145E-02-5.02523E-06 9.08293E-02-6.19048E-15-6.99286E-14
 -1      3876 2.03265E+01 4.15148E-03-3.03238E-04 6.58854E-02-9.25480E-15-9.42304E-14
 -1      3877 2.02483E+01-5.61191E-02 3.42700E-04 9.06852E-02-2.75622E-14-2.59025E-14
 -1      3878 2.02266E+01-6.57579E-02 1.72037E-04 9.10605E-02-2.40158E-14-1.18203E-14
 -1      3879 2.02791E+01-4.67674E-02-4.15461E-04 7.07550E-02 2.38886E-15-7.32706E-14
 -1      3880 2.02030E+01-6.99526E-02 2.12341E-04 8.92802E-02-2.68164E-14-7.30519E-15
 -1      3881 2.01830E+01-6.96699E-02 2.70740E-04 8.78951E-02-6.29452E-14 4.35550E-14
 -1      3882 2.02313E+01-6.86197E-02-4.51050E-04 7.07948E-02-2.33219E-14 4.40606E-14
 -1      3883 2.01601E+01-6.55247E-02 8.75980E-05 8.55932E-02-7.75874E-14 5.85003E-14
 -1      3884 2.01416E+01-5.79545E-02 3.04176E-04 8.38164E-02-4.17674E-14 1.12517E-13
 -1      3885 2.01850E+01-6.92641E-02-4.11332E-04 6.84418E-02-4.64205E-14 7.88605E-14
 -1      3886 2.01196E+01-4.75730E-02-3.47568E-05 8.17759E-02-3.70768E-14 1.29379E-13
 -1      3887 2.01022E+01-3.44044E-02 2.87464E-04 8.05840E-02-3.36542E-15 1.31721E-13
 -1      3888 2.01409E+01-5.42716E-02-3.13898E-04 6.54803E-02-3.05096E-14 1.71098E-13
 -1      3889 2.00806E+01-1.90491E-02-1.53298E-04 7.93148E-02 3.87364E-14 1.57352E-13
 -1      3890 2.00635E+01-1.23018E-03 2.28735E-04 7.93715E-02 8.18139E-14 1.34869E-13
 -1      3891 2.00984E+01-2.73357E-02-1.66517E-04 6.31391E-02 2.87600E-14 2.26388E-13
 -1      3892 2.00414E+01 1.84696E-02-2.75307E-04 7.91335E-02 5.41675E-14 1.00933E-13
 -1      3893 2.00234E+01 4.05888E-02 1.35064E-04 8.08220E-02 3.50049E-14 4.81182E-14
 -1      3894 2.00561E+01 9.36018E-03 1.65676E-05 6.21312E-02 2.81077E-14 1.99922E-13
 -1      3895 1.99983E+01 6.58921E-02-3.97266E-04 8.16682E-02 2.65618E-14 3.22347E-14
 -1      3896 1.99766E+01 9.38788E-02-2.86060E-05 8.53189E-02 7.05255E-14 5.47734E-15
 -1      3897 2.00106E+01 5.61529E-02 2.31703E-04 6.26460E-02 1.22109E-14 1.20403E-13
 -1      3898 1.99490E+01 1.22783E-01-5.21568E-04 8.68404E-02 6.43276E-14-9.69963E-14
 -1      3899 1.99234E+01 1.54427E-01-2.94717E-04 9.18172E-02 8.29324E-15-1.31732E-13
 -1      3900 1.99597E+01 1.12237E-01 5.37303E-04 6.42251E-02-2.51299E-15-8.85144E-15
 -1      3901 1.98902E+01 1.88692E-01-6.25754E-04 9.32287E-02-2.19226E-14-1.08566E-13
 -1      3902 1.98568E+01 2.25901E-01-6.65610E-04 9.89089E-02-2.39245E-14-1.52874E-13
 -1      3903 1.99006E+01 1.76511E-01 8.82917E-04 6.55012E-02-2.05212E-14-1.73785E-13
 -1      3904 1.98151E+01 2.66399E-01-7.15389E-04 9.87374E-02-5.88852E-14-1.31138E-13
 -1      3905 1.97700E+01 3.09981E-01-1.21055E-03 1.03591E-01-7.73924E-14-1.29937E-13
 -1      3906 1.98274E+01 2.51189E-01 1.32092E-03 6.39895E-02 4.98958E-15-1.82375E-13
 -1      3907 1.97168E+01 3.57624E-01-7.57706E-04 9.93873E-02-7.23291E-14-7.37067E-14
 -1      3908 1.96546E+01 4.08218E-01-2.00857E-03 1.00761E-01-4.26376E-14-5.52160E-14
 -1      3909 1.97338E+01 3.37117E-01 1.87010E-03 5.54383E-02-3.13347E-14-1.02696E-13
 -1      3910 1.95858E+01 4.63693E-01-7.10881E-04 8.86512E-02-1.00607E-13-5.92289E-14
 -1      3911 1.94995E+01 5.21416E-01-3.16210E-03 8.22323E-02-1.88887E-13-2.88673E-14
 -1      3912 1.96123E+01 4.34508E-01 2.55387E-03 3.30625E-02-1.30945E-13-9.91924E-14
 -1      3913 1.94105E+01 5.84727E-01-5.12558E-04 5.63403E-02-1.63198E-13-1.47936E-14
 -1      3914 1.92907E+01 6.48550E-01-4.80393E-03 3.54505E-02-1.43638E-13 2.69446E-14
 -1      3915 1.94537E+01 5.42042E-01 3.39161E-03-1.35090E-02-1.65434E-13-1.85553E-13
 -1      3916 1.91764E+01 7.18245E-01-7.53642E-05-1.28261E-02-1.70064E-13 4.70143E-14
 -1      3917 1.90108E+01 7.84972E-01-7.10394E-03-5.81191E-02-1.01497E-13 4.03713E-14
 -1      3918 1.92474E+01 6.55458E-01 4.38844E-03-9.95777E-02-1.37273E-13-1.37968E-13
 -1      3919 1.88658E+01 8.56905E-01 7.18412E-04-1.40962E-01-5.91187E-14-4.52966E-14
 -1      3920 1.86384E+01 9.19574E-01-1.02747E-02-2.24900E-01-6.53058E-14-3.09514E-14
 -1      3921 1.89814E+01 7.65341E-01 5.51920E-03-2.46998E-01-7.55779E-14-1.10926E-13
 -1      3922 1.84577E+01 9.84973E-01 2.04394E-03-3.58998E-01-1.51011E-13-7.81905E-14
 -1      3923 1.81479E+01 1.03035E+00-1.45762E-02-5.01354E-01-1.07904E-13-1.15032E-13
 -1      3924 1.86437E+01 8.53769E-01 6.70840E-03-4.86035E-01-1.31701E-13-1.22018E-13
 -1      3925 1.79289E+01 1.07279E+00 4.26277E-03-7.09245E-01 1.61134E-14-1.76480E-13
 -1      3926 1.75078E+01 1.07749E+00-2.08793E-02-9.36619E-01 1.90984E-14-1.28224E-13
 -1      3927 1.82244E+01 8.88799E-01 7.83924E-03-8.57368E-01-7.26496E-14-1.78475E-13
 -1      3928 1.72384E+01 1.06685E+00 8.63456E-03-1.26478E+00 5.51954E-14-9.37607E-15
 -1      3929 1.66497E+01 9.89293E-01-2.35702E-02-1.63910E+00 9.37035E-14 4.42272E-14
 -1      3930 1.77080E+01 8.16328E-01 1.04645E-02-1.43264E+00 9.35223E-14-1.23380E-13
 -1      3931 2.00433E+01-1.74839E+00 2.14339E-03 3.29742E+00-1.29486E-13-7.72708E-13
 -1      3932 1.86194E+01-8.26452E-01-2.24238E-02 3.10231E+00 2.49697E-15-8.69185E-13
 -1      3933 2.03183E+01 1.08949E+00 4.57937E-04 2.47142E-01 1.37440E-13-3.42679E-14
 -1      3934 2.02975E+01 1.11811E+00-1.88223E-03 3.11974E-01 1.39651E-13-5.68272E-14
 -1      3935 2.00146E+01 4.00942E-02 4.35808E-04-9.45837E-02-1.10557E-13 9.49656E-14
 -1      3936 2.00288E+01 2.12824E-02-3.62227E-04-9.00187E-02-5.70878E-14 8.17438E-14
 -1      3937 2.33013E+01-2.19198E+00 9.65155E-03 4.56291E-01 2.79069E-13-4.71372E-13
 -1      3938 2.34934E+01-2.79702E+00-1.44776E-02 1.25353E+00 1.51661E-13-6.61756E-13
 -1      3939 2.25972E+01-2.50104E+00 7.36177E-03 1.70756E+00 1.08011E-13-3.97091E-13
 -1      3940 2.28523E+01-2.14223E+00 2.85464E-02 8.05358E-01 4.63278E-13-5.23642E-13
 -1      3941 1.98677E+01 1.89738E-01 1.08511E-03-2.13239E-01-7.74823E-14 5.74566E-14
 -1      3942 1.98792E+01 1.74398E-01-9.43319E-04-1.88138E-01-9.03894E-14 5.20472E-14
 -1      3943 1.99051E+01 1.57949E-01 7.91267E-04-1.65673E-01-1.52685E-13 4.73469E-14
 -1      3944 1.99184E+01 1.38767E-01-8.07487E-04-1.47274E-01-1.59282E-13 7.42952E-14
 -1      3945 1.98687E+01 1.85466E-01 2.57563E-04-1.60117E-01-1.54826E-13 8.84316E-14
 -1      3946 1.98115E+01 2.03059E-01 2.11694E-03-3.62081E-01-1.26021E-13 1.06877E-13
 -1      3947 1.98097E+01 2.08350E-01-1.01431E-03-3.20023E-01-1.02686E-13 9.10569E-14
 -1      3948 1.98113E+01 1.60796E-01 2.88861E-03-4.69721E-01-1.19696E-13 8.44659E-14
 -1      3949 1.97939E+01 1.86559E-01-7.86189E-04-4.18032E-01-1.25287E-13 6.44893E-14
 -1      3950 1.97322E+01 2.36014E-01-8.64766E-04-3.85986E-01-7.47514E-14 8.17071E-14
 -1      3951 1.98518E+01 6.33407E-02 3.78269E-03-6.01669E-01-8.51166E-14 1.11670E-13
 -1      3952 1.98090E+01 1.19183E-01-1.77777E-04-5.41125E-01-1.22774E-13 8.22425E-14
 -1      3953 1.97136E+01 1.89003E-01-2.00904E-03-5.16671E-01-9.32758E-14 4.65656E-14
 -1      3954 1.99600E+01-1.10824E-01 4.62518E-03-7.54541E-01-2.12532E-14 1.94849E-14
 -1      3955 1.98781E+01-1.35577E-02 1.07414E-03-6.88799E-01-2.06657E-14 2.37405E-14
 -1      3956 1.97357E+01 7.94540E-02-3.86608E-03-6.82676E-01-4.87454E-14 1.00001E-14
 -1      3957 2.01723E+01-3.83953E-01 5.00417E-03-9.15565E-01 8.28927E-14 1.23010E-13
 -1      3958 2.00351E+01-2.33873E-01 3.34198E-03-8.53663E-01 5.71208E-14 5.05981E-14
 -1      3959 1.98295E+01-1.18379E-01-6.73798E-03-8.83130E-01 1.87494E-15-7.09745E-14
 -1      3960 2.05354E+01-7.71753E-01 4.23640E-03-1.05464E+00 3.05054E-14 8.77034E-14
 -1      3961 2.03252E+01-5.61838E-01 7.14589E-03-1.01470E+00 1.15753E-13 1.17199E-13
 -1      3962 2.00402E+01-4.32690E-01-1.09419E-02-1.10620E+00 8.15282E-14-3.75820E-14
 -1      3963 2.10960E+01-1.26393E+00 1.09336E-03-1.11362E+00-1.32289E-13 6.91352E-14
 -1      3964 2.08023E+01-1.00333E+00 1.27075E-02-1.12619E+00-9.77966E-14 6.96343E-14
 -1      3965 2.04294E+01-8.83753E-01-1.60750E-02-1.31597E+00 1.99060E-15 2.77621E-14
 -1      3966 2.18904E+01-1.79671E+00-5.20815E-03-1.00040E+00-9.68149E-14-7.00736E-14
 -1      3967 2.15148E+01-1.52628E+00 1.92466E-02-1.10996E+00-5.99902E-14-1.14577E-14
 -1      3968 2.10698E+01-1.45939E+00-1.98534E-02-1.44561E+00-2.12974E-14-8.69695E-14
 -1      3969 2.39289E+01-2.18503E+00-4.67446E-03-3.19233E-02-1.20653E-13-5.09692E-14
 -1      3970 2.34853E+01-2.30387E+00 2.25455E-02-4.50351E-01-4.86975E-14-5.89554E-14
 -1      3971 2.45241E+01-9.29165E-01-6.43803E-03 1.25989E+00-1.91895E-14-2.54911E-14
 -1      3972 2.14937E+01-1.38858E+00 7.05318E-03 1.16010E+00 8.35260E-14-2.61584E-13
 -1      3973 2.46902E+01 6.80818E-01 3.92135E-03 1.85956E+00 1.29756E-13-6.42524E-14
 -1      3974 2.03941E+01 6.27059E-01 3.41160E-04-7.05628E-02-2.20706E-14-8.92984E-14
 -1      3975 2.03949E+01 4.82734E-01-1.52249E-03-2.22900E-02 9.52642E-15-8.07234E-14
 -1      3976 1.69879E+01 5.01116E-01 2.12776E-03 2.34516E+00 1.01408E-13-3.63786E-13
 -1      3977 2.18783E+01-1.68867E+00 1.30197E-02 1.14930E+00 7.34752E-14-3.53970E-13
 -1      3978 2.23010E+01-1.90205E+00 8.60478E-03 9.62377E-01 2.94444E-13-3.59213E-13
 -1      3979 2.22228E+01-2.14495E+00-3.10807E-02 1.37715E+00 1.89538E-13-2.37770E-13
 -1      3980 2.13676E+01-1.47688E+00-1.17919E-02 1.46073E+00 1.09136E-15 3.51715E-15
 -1      3981 2.11790E+01-1.37687E+00 1.55370E-02 1.68385E+00 5.61493E-14-8.30833E-14
 -1      3982 1.98342E+01 2.08104E-01 1.51784E-03-2.77581E-01-7.14135E-14 5.14975E-14
 -1      3983 1.98412E+01 2.00367E-01-1.03219E-03-2.44560E-01-6.76596E-14 8.54556E-14
 -1      3984 1.97717E+01 2.41369E-01-2.06792E-04-2.86635E-01-1.12383E-13 1.55252E-13
 -1      3985 2.01714E+01-6.10692E-02 2.15654E-04-1.31739E-01 1.04990E-14 2.19579E-14
 -1      3986 2.01881E+01-5.25766E-02 4.07055E-04-1.32649E-01 1.34969E-15-6.95014E-14
 -1      3987 2.01888E+01-6.50592E-02-5.07834E-04-1.14799E-01 1.00853E-14-6.75745E-15
 -1      3988 1.99793E+01 7.93363E-02 4.93828E-04-1.08781E-01-3.83793E-14 1.14890E-13
 -1      3989 1.99933E+01 5.91109E-02-5.09968E-04-1.00518E-01-6.71130E-14 1.11246E-13
 -1      3990 2.00017E+01 5.52351E-02 7.30185E-05-8.22100E-02-5.87648E-14-1.55129E-14
 -1      3991 1.63781E+01 8.98319E-01 1.31704E-02-2.03413E+00 9.96486E-14 8.08884E-14
 -1      3992 1.56683E+01 7.66497E-01-1.70917E-02-2.46222E+00 1.27601E-13 1.26782E-13
 -1      3993 1.65353E+01 1.59133E-01 4.09730E-02-3.18446E+00 9.14806E-14 8.60336E-14
 -1      3994 1.71302E+01 5.72389E-01 1.22994E-02-2.21213E+00 1.57520E-13-4.08874E-14
 -1      3995 1.78670E+01-7.64977E-02-4.35979E-03 2.72388E+00 1.09427E-13-8.41793E-13
 -1      3996 2.03620E+01 1.04234E+00 3.09546E-03-5.82696E-02 4.77615E-14-1.08808E-13
 -1      3997 1.99428E+01 1.19625E-01 6.04105E-04-1.31746E-01-1.14074E-13 7.09049E-14
 -1      3998 1.99567E+01 9.91045E-02-6.57262E-04-1.18912E-01-7.07675E-14 1.09578E-13
 -1      3999 1.99160E+01 1.43054E-01 2.58938E-04-1.22958E-01-1.09892E-13 6.61479E-14
 -1      4000 2.03148E+01 8.41305E-02-2.71425E-04-8.89872E-02-6.19798E-15-6.52525E-14
 -1      4001 2.02871E+01 9.21770E-02-7.83835E-04-9.97497E-02-2.05058E-14-3.25087E-14
 -1      4002 2.03088E+01 1.52310E-01 1.30374E-03-7.59886E-02 1.61291E-14-3.14927E-14
 -1      4003 1.91772E+01-1.21518E-01-1.16980E-02 1.97246E+00 3.24096E-13-6.89165E-13
 -1      4004 1.97160E+01-3.65640E-01 1.64267E-02 1.96006E+00 4.12719E-13-5.45989E-13
 -1      4005 2.00153E+01-7.91959E-01-1.34040E-02 2.07710E+00 2.78329E-13-4.10833E-13
 -1      4006 1.87848E+01-1.80203E-01-1.78536E-02 2.26018E+00 2.52908E-13-7.78016E-13
 -1      4007 2.03210E+01 1.10135E+00-1.54650E-03 1.96213E-01 1.26545E-13-4.43487E-14
 -1      4008 2.03981E+01 3.60869E-01 4.86111E-04 1.41702E-03 1.16877E-14-8.00090E-14
 -1      4009 2.03860E+01 2.59750E-01-1.10201E-03 3.24084E-02-1.43865E-14-6.95353E-14
 -1      4010 2.04133E+01 4.53694E-01 5.75135E-04-1.17655E-02 1.51934E-14-9.84884E-14
 -1      4011 2.03640E+01 9.45017E-01 3.18501E-03 1.38727E-01 1.25675E-13-3.77704E-14
 -1      4012 2.00492E+01 4.04124E-03 4.11185E-04-8.72752E-02-1.07620E-13 4.76927E-14
 -1      4013 2.00639E+01-1.25835E-02-2.64982E-04-8.55458E-02-1.42508E-13-4.83176E-14
 -1      4014 2.00413E+01 1.53125E-02-7.93070E-05-7.35804E-02-1.15176E-13-6.86267E-14
 -1      4015 2.04013E+01 2.39276E-01 2.59495E-04 2.84694E-02-2.70961E-14-8.70525E-14
 -1      4016 1.98195E+01 2.20784E-01 1.28793E-04-2.13136E-01-9.12066E-14 7.11621E-14
 -1      4017 1.89127E+01-4.44390E-01 1.30038E-02 2.55988E+00 1.07209E-13-7.94003E-13
 -1      4018 2.10754E+01-1.96914E+00 1.35469E-02 2.65109E+00-1.42542E-13-4.70939E-13
 -1      4019 2.28996E+01-3.02871E+00 3.84308E-03-2.26792E+00 3.99212E-14-5.07771E-14
 -1      4020 2.31994E+01-2.76211E+00 5.67475E-03-1.50734E+00-4.42988E-14-1.95957E-13
 -1      4021 2.20573E+01-2.79218E+00-1.03501E-02-2.65459E+00 4.50824E-14-1.63509E-13
 -1      4022 2.01603E+01-6.67384E-02 3.28529E-04-9.11426E-02 7.38319E-14-9.29486E-15
 -1      4023 2.01791E+01-6.97242E-02 1.59092E-04-9.30429E-02 6.14128E-14 2.99921E-14
 -1      4024 2.00816E+01-3.35750E-02-2.57641E-04-1.01353E-01-7.40189E-14-1.01961E-13
 -1      4025 2.03336E+01 6.49623E-02-5.21034E-04-7.97874E-02 4.92736E-15 1.75945E-14
 -1      4026 2.03547E+01 1.20799E-01 7.20666E-04-6.44844E-02-3.91736E-16 3.13644E-14
 -1      4027 2.03205E+01 2.25163E-01-1.40567E-03-5.13723E-02 4.39763E-14-3.30255E-14
 -1      4028 2.03407E+01 3.16850E-01 1.74549E-03-1.05098E-02 6.03281E-14-3.92754E-14
 -1      4029 2.03700E+01 4.17319E-01 7.34920E-04 1.78370E-02 7.36482E-14 1.38756E-14
 -1      4030 2.03498E+01 2.16764E-01 8.58364E-05-4.92131E-02 3.49362E-14-1.14470E-14
 -1      4031 2.03907E+01 8.23419E-01-2.38471E-03 4.85708E-02 9.95977E-14-1.88367E-14
 -1      4032 2.03908E+01 8.40070E-01-2.17438E-03 1.24168E-02 9.16633E-14-1.32250E-14
 -1      4033 2.02303E+01-4.49260E-02-5.18405E-04-1.15814E-01-1.25174E-14-3.79815E-14
 -1      4034 2.30416E+01-2.52350E+00-2.07908E-02-1.10828E+00-8.98413E-14-2.94880E-13
 -1      4035 2.28670E+01-2.10643E+00 1.29434E-03-5.24834E-01-8.24614E-14-5.91486E-14
 -1      4036 2.24372E+01-1.96222E+00 2.95256E-02-8.01499E-01-1.15408E-13-9.30797E-14
 -1      4037 2.26222E+01-2.43133E+00 2.19863E-02-1.50779E+00-6.89084E-14-1.99951E-13
 -1      4038 2.19725E+01-2.02661E+00-2.23761E-02-1.30778E+00-3.64815E-14-1.65759E-13
 -1      4039 2.44451E+01-1.91763E+00 2.40020E-02 4.44584E-01-1.88662E-13 2.51604E-14
 -1      4040 2.07917E+01-1.36070E+00-5.50010E-03 2.08198E+00 5.07541E-14-1.86156E-13
 -1      4041 2.14673E+01-1.77221E+00 2.39891E-03 1.85578E+00-9.12035E-14-8.99364E-14
 -1      4042 2.19944E+01-2.09261E+00 1.12025E-02 1.79279E+00 7.40926E-14-2.52208E-13
 -1      4043 2.02995E+01-1.11169E+00 1.54765E-02 2.29581E+00 1.90714E-14-4.32096E-13
 -1      4044 2.03844E+01 8.04672E-01 4.53322E-04-7.62729E-02 3.06801E-15-1.02787E-13
 -1      4045 2.02912E+01-1.15319E-02-1.23817E-04-9.33906E-02 2.64104E-14 5.14885E-14
 -1      4046 2.03136E+01 2.19690E-02 5.91852E-04-8.60454E-02 3.26580E-14 3.52304E-14
 -1      4047 2.03470E+01 5.29749E-02-2.10736E-04-6.44787E-02 2.08697E-14 5.21629E-14
 -1      4048 2.03934E+01 8.25615E-01-1.81706E-03-9.51059E-03 6.97587E-14-4.60582E-14
 -1      4049 2.03863E+01 8.38129E-01-1.57477E-03-5.81397E-02 3.60205E-14-1.02594E-13
 -1      4050 2.04185E+01 6.22288E-01 1.99961E-03-2.43322E-02 3.15839E-14-7.97735E-14
 -1      4051 2.04240E+01 6.72682E-01 3.24896E-03 3.47199E-03 7.41241E-14-7.27752E-15
 -1      4052 1.91730E+01-1.48074E+00-1.76090E-02-3.46670E+00 2.93012E-14-3.86995E-13
 -1      4053 1.97979E+01-2.02294E+00 3.81135E-02-3.76486E+00-1.94352E-14-3.75281E-13
 -1      4054 2.07433E+01-2.29244E+00-5.38714E-03-3.23052E+00 1.34531E-13-3.75020E-13
 -1      4055 1.99602E+01 9.85641E-02 1.85971E-04-9.79483E-02-7.06242E-14 1.03673E-13
 -1      4056 2.01382E+01-6.06544E-02 1.30974E-05-8.88781E-02 4.54254E-14 2.70416E-14
 -1      4057 2.01629E+01-6.55496E-02-4.12673E-04-7.26173E-02 3.87964E-14 5.63097E-14
 -1      4058 2.01213E+01-5.16491E-02 4.05848E-04-8.72059E-02-1.50465E-14 2.62225E-15
 -1      4059 2.03780E+01 7.54332E-01-1.22999E-03 8.14432E-02 1.18901E-13-2.76190E-14
 -1      4060 1.75127E+01-3.11943E-01 2.37918E-02-3.17270E+00 1.21569E-13-1.55974E-13
 -1      4061 2.03536E+01 2.29785E-02 3.92921E-04 4.28793E-02-9.12292E-15-4.03153E-14
 -1      4062 2.03297E+01-1.22327E-02-5.85879E-05 4.82213E-02 7.06835E-15-6.01718E-14
 -1      4063 2.03056E+01-3.79124E-02 3.16567E-04 4.80966E-02 2.05124E-14-4.49518E-14
 -1      4064 2.02811E+01-5.57171E-02 1.19354E-04 5.01673E-02 1.76489E-15 3.14024E-15
 -1      4065 2.03267E+01-2.24451E-02-4.51401E-04 2.72347E-02 1.03849E-14 4.83500E-14
 -1      4066 2.02557E+01-6.66245E-02 2.35420E-04 4.93102E-02-1.23009E-15 2.38835E-15
 -1      4067 2.02318E+01-7.19141E-02 2.22312E-04 4.96170E-02 6.50464E-15 3.61929E-14
 -1      4068 2.02762E+01-6.05598E-02-4.86339E-04 2.80477E-02 2.27744E-14 5.54839E-14
 -1      4069 2.02068E+01-7.21260E-02 2.17639E-04 4.79966E-02-4.90220E-14 1.00851E-13
 -1      4070 2.01839E+01-6.81698E-02 2.46393E-04 4.75353E-02-7.34872E-14 7.78349E-14
 -1      4071 2.02261E+01-7.28260E-02-6.04665E-04 2.76971E-02-1.51102E-14 5.88258E-14
 -1      4072 2.01597E+01-6.05814E-02 1.43889E-04 4.59395E-02-2.36140E-14 1.28295E-13
 -1      4073 2.01378E+01-4.97867E-02 2.08169E-04 4.52907E-02 1.61745E-14 1.31358E-13
 -1      4074 2.01770E+01-6.55831E-02-5.73778E-04 2.67153E-02-1.77723E-14 8.41159E-14
 -1      4075 2.01144E+01-3.63079E-02 3.18733E-05 4.39571E-02 7.68226E-15 1.65783E-13
 -1      4076 2.00931E+01-2.01846E-02 1.36186E-04 4.35138E-02 5.42108E-14 1.85505E-13
 -1      4077 2.01299E+01-4.39294E-02-3.62540E-04 2.52613E-02 2.44861E-14 1.18217E-13
 -1      4078 2.00696E+01-1.84166E-03-6.08285E-05 4.24004E-02 1.78947E-14 1.54933E-13
 -1      4079 2.00479E+01 1.86747E-02 2.08416E-05 4.24531E-02-4.59136E-14 1.17752E-13
 -1      4080 2.00838E+01-1.13475E-02-1.13639E-04 2.35288E-02 8.15090E-16 1.11827E-13
 -1      4081 2.00224E+01 4.25076E-02-1.27904E-04 4.11376E-02-5.91247E-14 1.06710E-13
 -1      4082 1.99974E+01 6.85281E-02-1.56625E-04 4.15915E-02-1.11334E-14 1.43109E-14
 -1      4083 2.00359E+01 3.12188E-02 5.57576E-05 2.14420E-02-8.93613E-14-5.58220E-15
 -1      4084 1.99708E+01 9.55274E-02-1.87924E-04 3.98123E-02-1.53056E-14-4.98624E-14
 -1      4085 1.99432E+01 1.24407E-01-4.24147E-04 4.01361E-02-9.21669E-14-9.23498E-14
 -1      4086 1.99845E+01 8.23791E-02 3.31692E-04 1.80872E-02-9.39382E-14-9.21846E-14
 -1      4087 1.99129E+01 1.55713E-01-2.10332E-04 3.69323E-02-8.42802E-14-1.25070E-13
 -1      4088 1.98790E+01 1.88701E-01-7.87889E-04 3.61501E-02-2.10623E-14-1.82875E-13
 -1      4089 1.99281E+01 1.40025E-01 6.47347E-04 1.20283E-02-9.57221E-14-1.76006E-13
 -1      4090 1.98431E+01 2.24554E-01-1.77032E-04 3.00142E-02 1.39362E-14-2.19858E-13
 -1      4091 1.98000E+01 2.61683E-01-1.29546E-03 2.64070E-02 2.24308E-14-2.31099E-13
 -1      4092 1.98619E+01 2.04996E-01 9.86367E-04 7.04497E-04 9.96044E-15-1.72206E-13
 -1      4093 1.97568E+01 3.02177E-01-4.36835E-05 1.49820E-02-2.54187E-14-2.32457E-13
 -1      4094 1.97005E+01 3.43113E-01-2.00226E-03 5.76704E-03-6.40328E-14-2.13181E-13
 -1      4095 1.97819E+01 2.76630E-01 1.32633E-03-1.98983E-02-1.28049E-14-2.93845E-13
 -1      4096 1.96481E+01 3.87901E-01 2.49739E-04-1.45155E-02-1.18782E-13-2.38372E-13
 -1      4097 1.95742E+01 4.31554E-01-2.97444E-03-3.36378E-02-1.68554E-13-2.60871E-13
 -1      4098 1.96835E+01 3.53263E-01 1.63066E-03-5.59002E-02-1.15144E-13-3.48677E-13
 -1      4099 1.95110E+01 4.79386E-01 7.90360E-04-6.79976E-02-1.81936E-13-2.41619E-13
 -1      4100 1.94138E+01 5.23310E-01-4.28654E-03-1.03425E-01-1.58573E-13-2.23587E-13
 -1      4101 1.95626E+01 4.31310E-01 1.83207E-03-1.16306E-01-1.43284E-13-3.17121E-13
 -1      4102 1.93391E+01 5.71321E-01 1.70151E-03-1.59244E-01-1.60262E-13-2.03941E-13
 -1      4103 1.92121E+01 6.10815E-01-6.01192E-03-2.20179E-01-1.21177E-13-2.18954E-13
 -1      4104 1.94153E+01 5.03950E-01 1.81067E-03-2.13927E-01-1.12674E-13-2.44766E-13
 -1      4105 1.91268E+01 6.53457E-01 3.15519E-03-3.07525E-01-7.32015E-14-1.68625E-13
 -1      4106 1.89630E+01 6.80227E-01-8.20148E-03-4.06783E-01-5.04913E-14-1.35550E-13
 -1      4107 1.92398E+01 5.59212E-01 1.35814E-03-3.66352E-01-9.24626E-14-2.78351E-13
 -1      4108 1.88712E+01 7.07660E-01 5.39587E-03-5.38833E-01-6.58096E-14-1.98673E-13
 -1      4109 1.86641E+01 7.07852E-01-1.08469E-02-6.93659E-01-8.73762E-14-1.71184E-13
 -1      4110 1.90384E+01 5.77211E-01 1.16537E-04-5.96756E-01-9.92703E-14-2.53614E-13
 -1      4111 1.85758E+01 7.03983E-01 8.89882E-03-8.86748E-01-8.03840E-14-5.51985E-14
 -1      4112 1.83198E+01 6.54484E-01-1.42327E-02-1.11922E+00-4.40930E-14-8.82481E-14
 -1      4113 1.88215E+01 5.26253E-01-2.49367E-03-9.34149E-01-1.07658E-14-1.83353E-13
 -1      4114 1.82523E+01 5.85829E-01 1.39896E-02-1.40718E+00 2.59370E-14-3.26294E-14
 -1      4115 1.79443E+01 4.45899E-01-1.49883E-02-1.76848E+00 1.42489E-13-3.76548E-14
 -1      4116 1.86113E+01 3.51668E-01-7.06134E-03-1.42566E+00 3.35380E-14 4.39355E-14
 -1      4117 2.00846E+01-2.71802E-02 4.53681E-04-8.53915E-02-8.88007E-14-5.77625E-14
 -1      4118 2.01000E+01-4.06011E-02-1.23307E-04-8.57592E-02-4.48191E-14-4.99192E-14
 -1      4119 2.00806E+01-1.96758E-02-2.72776E-04-7.00629E-02-1.37420E-13-9.23465E-14
 -1      4120 1.97762E+01 2.58475E-01 1.41718E-03-2.01316E-01-1.49122E-13 6.88082E-14
 -1      4121 1.97976E+01 2.37278E-01-1.49620E-03-1.70894E-01-7.65172E-14 1.96146E-14
 -1      4122 2.02073E+01-7.07813E-02-5.19689E-04-7.56939E-02 3.28026E-14 3.19719E-14
 -1      4123 2.02021E+01-6.87881E-02 2.41095E-04-9.52254E-02 3.95283E-14 1.90749E-15
 -1      4124 2.02227E+01-6.35066E-02 2.83373E-04-9.58474E-02-8.63286E-15 2.15651E-14
 -1      4125 2.04208E+01 2.90569E-01 1.55773E-04 1.08675E-02-2.11014E-14-4.82117E-14
 -1      4126 2.04078E+01 2.00482E-01-6.63348E-04 2.72818E-02-3.34378E-14-6.11409E-14
 -1      4127 2.02464E+01-5.28146E-02 1.61336E-04-9.72501E-02-2.06293E-14 4.63703E-14
 -1      4128 2.02682E+01-3.56997E-02 4.34480E-04-9.49308E-02 3.01835E-14 5.82701E-14
 -1      4129 2.03018E+01-1.98964E-02-4.99502E-04-7.42438E-02 2.36034E-15 1.06886E-13
 -1      4130 2.02546E+01-5.81775E-02-6.16960E-04-7.70009E-02-2.25878E-15 6.52030E-14
 -1      4131 2.16785E+01-2.23616E+00-1.74904E-02 2.29964E+00-7.74636E-14-2.46480E-13
 -1      4132 1.99895E+01 7.09654E-02 3.70508E-04-6.57054E-02-1.11013E-13-2.15869E-14
 -1      4133 2.00090E+01 4.83271E-02-4.12666E-04-5.98606E-02-1.01893E-13-3.83514E-14
 -1      4134 2.03846E+01 1.73186E-01 1.47332E-04-4.34455E-02 5.04732E-15 6.74493E-14
 -1      4135 2.03683E+01 1.89452E-01-1.04971E-03-5.14178E-02 2.23771E-14 1.24208E-14
 -1      4136 2.03851E+01 2.75148E-01 7.36522E-04-2.45592E-02 3.63212E-14 2.11455E-14
 -1      4137 1.98360E+01 2.16021E-01 9.33462E-04-1.45608E-01-1.04484E-13 7.83961E-15
 -1      4138 1.98581E+01 1.91427E-01-1.16797E-03-1.24163E-01-1.54153E-13 1.21880E-14
 -1      4139 1.97937E+01 2.49933E-01 8.77652E-04-1.32593E-01-1.06862E-13-1.09922E-13
 -1      4140 1.96228E+01 2.54560E-01 4.62093E-03-5.39629E-01-6.37585E-14-4.17791E-14
 -1      4141 1.96152E+01 2.77086E-01-2.29138E-03-4.64298E-01-5.51245E-14-1.67222E-14
 -1      4142 1.96600E+01 2.91674E-01 3.19557E-03-3.90479E-01-5.08377E-14-3.11442E-14
 -1      4143 1.96693E+01 2.91648E-01-2.14441E-03-3.33356E-01-7.09369E-14-1.97060E-14
 -1      4144 1.95550E+01 3.41423E-01-4.03450E-04-4.08359E-01-1.03988E-13-1.58292E-13
 -1      4145 1.96987E+01-4.12030E-02 8.40257E-03-9.82308E-01 4.55489E-14 9.77273E-16
 -1      4146 1.96131E+01 6.67907E-02-1.05575E-03-8.66681E-01 2.79202E-14-1.67128E-14
 -1      4147 1.98960E+01-3.63370E-01 1.06556E-02-1.27293E+00 6.87365E-14-5.44337E-15
 -1      4148 1.97360E+01-1.86351E-01 1.54834E-03-1.14475E+00 5.44423E-14-9.51343E-14
 -1      4149 1.94706E+01-1.81434E-02-1.04300E-02-1.13375E+00 9.61355E-14-7.80876E-14
 -1      4150 2.02837E+01-8.53594E-01 9.17608E-03-1.57626E+00 5.43489E-15 2.65875E-14
 -1      4151 2.00223E+01-5.88966E-01 5.81187E-03-1.45929E+00 9.99053E-14-5.69192E-14
 -1      4152 1.96210E+01-3.84866E-01-1.90652E-02-1.51450E+00 1.23088E-13-6.76204E-14
 -1      4153 2.09414E+01-1.50546E+00 3.18247E-03-1.81141E+00-2.87615E-14-7.62836E-14
 -1      4154 2.05655E+01-1.15549E+00 1.57169E-02-1.74444E+00-4.67581E-14-3.32050E-14
 -1      4155 2.00070E+01-9.58595E-01-2.71235E-02-1.93886E+00-7.49747E-15-2.52531E-14
 -1      4156 2.19388E+01-2.16283E+00-6.12753E-03-1.69142E+00-2.61744E-14-7.04382E-14
 -1      4157 2.14768E+01-1.84147E+00 2.70842E-02-1.84057E+00 1.78126E-14-6.27184E-14
 -1      4158 2.19277E+01-2.38644E+00-1.42201E-02-2.11253E+00 2.62966E-14-2.86678E-14
 -1      4159 1.96247E+01 1.53471E-01 6.43113E-03-7.35632E-01-9.16968E-15-7.11838E-14
 -1      4160 1.95873E+01 2.10761E-01-2.05895E-03-6.39805E-01-3.88321E-14-3.36517E-14
 -1      4161 1.94836E+01 3.04963E-01-2.08418E-03-5.84944E-01-5.12245E-14-1.32860E-13
 -1      4162 1.94437E+01 1.97170E-01-5.11336E-03-8.23793E-01 1.00783E-14-5.67754E-14
 -1      4163 1.96105E+01-8.16979E-01 1.08445E-02 2.56995E+00 1.02765E-13-7.40392E-13
 -1      4164 1.97152E+01 2.87493E-01 2.14757E-03-2.80472E-01-1.11705E-13-4.91901E-15
 -1      4165 1.97332E+01 2.73798E-01-1.84032E-03-2.38308E-01-1.30143E-13-3.78778E-14
 -1      4166 1.96371E+01 3.33021E-01 4.55111E-04-2.81738E-01-7.92980E-14-1.55158E-13
 -1      4167 1.99427E+01 1.18341E-01 4.57274E-04-8.18452E-02-9.95390E-14 9.86069E-14
 -1      4168 1.99631E+01 9.38218E-02-6.30534E-04-7.22217E-02-1.07328E-13 5.04527E-14
 -1      4169 1.99726E+01 8.93721E-02 3.43332E-04-4.90649E-02-1.65438E-13 4.19683E-14
 -1      4170 2.43767E+01-1.54148E+00-1.28463E-02 8.79996E-01-1.68180E-13 3.57657E-15
 -1      4171 1.79334E+01 3.01327E-01 1.87822E-02-2.09900E+00 1.76831E-13-1.25046E-13
 -1      4172 1.75875E+01 9.54464E-02-1.81171E-02-2.52487E+00 1.52151E-13-1.32683E-13
 -1      4173 1.84606E+01 8.89680E-03-1.49875E-02-2.05131E+00 1.38045E-13-4.75798E-14
 -1      4174 1.83707E+01-5.72962E-01 2.50454E-02-3.03761E+00 1.23652E-13-2.98277E-13
 -1      4175 1.98918E+01 1.67699E-01 6.31363E-04-1.07328E-01-1.85960E-13 8.39451E-14
 -1      4176 1.99132E+01 1.42330E-01-8.77844E-04-9.26457E-02-9.64071E-14 7.06381E-14
 -1      4177 1.99200E+01 1.41376E-01 5.78215E-04-6.56486E-02-1.11011E-13 8.39082E-14
 -1      4178 1.98608E+01 1.95920E-01 7.72412E-04-9.20606E-02-1.25620E-13-5.85387E-14
 -1      4179 2.04082E+01-1.50969E+00-1.33347E-02 2.58829E+00-8.16368E-14-3.99387E-13
 -1      4180 2.04221E+01 5.01092E-01-1.06424E-03-1.79584E-02 2.17783E-14-6.32439E-14
 -1      4181 2.04228E+01 3.76907E-01-3.72048E-04 5.53587E-03 1.06463E-14-5.45640E-14
 -1      4182 2.04293E+01 3.39134E-01 4.30924E-04 5.00299E-03-2.03413E-14 8.71814E-15
 -1      4183 2.04259E+01 5.35238E-01-6.22786E-04-9.21800E-03 4.40854E-14-2.12536E-15
 -1      4184 2.03980E+01 5.08718E-01 4.43207E-04 4.26604E-02 9.05395E-14 9.99370E-16
 -1      4185 2.03965E+01 7.22350E-01 2.77265E-04 5.35023E-02 9.63961E-14-2.63708E-14
 -1      4186 2.04175E+01 5.80270E-01 5.90039E-04 2.10117E-02 8.28374E-14-1.13799E-14
 -1      4187 2.03893E+01 3.84917E-01-1.85063E-03-1.37594E-03 6.11919E-14-8.19860E-16
 -1      4188 2.03945E+01 1.27617E-01 4.08915E-04 3.13594E-02-2.26321E-14-3.61927E-14
 -1      4189 2.03741E+01 6.87053E-02-3.33659E-04 4.15420E-02-1.75775E-14-2.74252E-14
 -1      4190 2.04108E+01 1.75380E-01 1.14294E-04 1.60520E-02-1.49197E-14 1.65366E-14
 -1      4191 2.01207E+01-4.73836E-02-3.78856E-04-7.01741E-02 2.08677E-15 1.47049E-14
 -1      4192 2.14193E+01-2.37126E+00 1.99290E-02-2.75181E+00 4.34819E-14-1.02207E-13
 -1      4193 2.02097E+01-7.23837E-02 3.27018E-04-5.44750E-02 7.03114E-15 1.12437E-14
 -1      4194 2.02334E+01-7.08558E-02 3.59008E-04-5.49914E-02-1.20945E-14 7.29934E-15
 -1      4195 1.97185E+01 2.98344E-01 8.14470E-04-1.93177E-01-7.92395E-14-7.32417E-14
 -1      4196 2.04262E+01 4.35307E-01 2.12988E-04 1.08978E-02 5.26891E-14-8.37465E-15
 -1      4197 2.04254E+01 5.33651E-01 3.88918E-04 8.87129E-03 6.60815E-14 3.56304E-14
 -1      4198 2.03736E+01 5.19788E-02-3.02789E-04 2.36423E-02-2.43076E-14 2.65571E-14
 -1      4199 2.07389E+01-1.62673E+00-2.13311E-02-2.18811E+00-8.61282E-14 2.05468E-14
 -1      4200 2.03924E+01 1.40895E-01-4.52594E-04-3.81693E-02-2.26474E-15 2.88846E-14
 -1      4201 2.04086E+01 2.16523E-01 1.03964E-04-2.28408E-02 5.11979E-15 1.93244E-14
 -1      4202 2.04280E+01 5.16502E-01-9.54418E-04-2.14332E-03 4.73690E-14 2.31761E-14
 -1      4203 2.03539E+01 3.16181E-02-3.44440E-05-5.03752E-02-1.03104E-14 6.02073E-14
 -1      4204 2.03751E+01 7.98211E-02 2.95351E-04-4.18118E-02 6.10296E-15 4.96828E-14
 -1      4205 2.03956E+01 1.20069E-01-9.02887E-05-2.37781E-02-1.05150E-14 2.19413E-14
 -1      4206 1.91560E+01-9.44495E-01-8.50963E-03-2.78809E+00 7.18839E-14-3.21681E-13
 -1      4207 2.07205E+01-1.93534E+00-1.58736E-02-2.70093E+00-2.29878E-14-1.33595E-13
 -1      4208 2.01633E+01-6.30815E-02 3.96024E-04-5.22429E-02 4.55661E-14 4.71237E-14
 -1      4209 2.01848E+01-6.96319E-02 1.29022E-04-5.28969E-02 4.76942E-14 3.19286E-14
 -1      4210 2.02048E+01-7.20960E-02-6.18709E-04-3.30044E-02 1.36248E-14-3.32377E-14
 -1      4211 2.00206E+01 4.18108E-02 8.45996E-05-3.92333E-02-1.67169E-13-9.35788E-15
 -1      4212 2.00334E+01 2.74601E-02 3.40903E-04-5.63432E-02-9.31063E-14-9.27375E-14
 -1      4213 2.00529E+01 7.65841E-03-1.38229E-04-5.34858E-02-1.33786E-13-9.53432E-14
 -1      4214 2.04231E+01 2.19742E-01 2.92497E-04-4.57062E-03-1.49405E-14 2.31707E-14
 -1      4215 2.04084E+01 1.42188E-01-1.96929E-04 4.08803E-04-1.31926E-14 2.44065E-14
 -1      4216 2.03904E+01 8.03325E-02 2.54438E-04-4.78554E-03-3.78074E-14 5.07445E-14
 -1      4217 2.02937E+01-5.55257E-02 3.25117E-04 5.23408E-03 2.22955E-14 4.48993E-14
 -1      4218 2.02683E+01-6.68238E-02 4.24848E-04 6.10807E-03 1.49840E-14 4.97914E-14
 -1      4219 2.02440E+01-7.18996E-02 2.84239E-04-3.40128E-03 3.87125E-15 1.30446E-14
 -1      4220 2.02193E+01-7.29360E-02 3.06336E-04-2.79917E-03-1.79681E-14 7.28520E-15
 -1      4221 2.01946E+01-6.97479E-02 3.87839E-04-3.27411E-03 7.19674E-15 1.89653E-14
 -1      4222 2.01700E+01-6.27327E-02 1.90775E-04-3.01074E-03 2.03798E-14 5.29666E-14
 -1      4223 2.00971E+01-2.16075E-02 1.85839E-04 3.56362E-03 4.95708E-15 8.79612E-14
 -1      4224 2.00735E+01-3.29625E-03 4.18069E-05 2.90783E-03-2.67106E-14 5.03160E-14
 -1      4225 2.00528E+01 1.39676E-02 1.00144E-04-6.88082E-03-1.05117E-13 3.00767E-15
 -1      4226 2.00271E+01 3.69271E-02-1.96284E-04-8.28217E-03-1.57837E-13-1.51364E-14
 -1      4227 2.00035E+01 6.03718E-02 9.37272E-05-1.16898E-02-1.80357E-13-1.47301E-14
 -1      4228 1.99763E+01 8.56780E-02-4.45522E-04-1.43147E-02-1.30833E-13-7.82746E-14
 -1      4229 1.99510E+01 1.12314E-01 5.74019E-05-2.01269E-02-8.74565E-14-7.22696E-14
 -1      4230 1.99196E+01 1.40632E-01-7.45502E-04-2.50829E-02-8.96788E-14-6.61888E-14
 -1      4231 1.98917E+01 1.69984E-01 8.10817E-05-3.45659E-02-6.03929E-14-9.41983E-14
 -1      4232 1.98542E+01 2.00834E-01-1.09760E-03-4.34764E-02-1.43652E-14-1.02294E-13
 -1      4233 1.98229E+01 2.32147E-01 2.10550E-04-5.84112E-02-1.66290E-14-2.20791E-13
 -1      4234 1.97772E+01 2.64621E-01-1.50194E-03-7.37823E-02-1.03063E-13-2.71492E-13
 -1      4235 1.97422E+01 2.96508E-01 5.07666E-04-9.66999E-02-8.63962E-14-2.66495E-13
 -1      4236 1.96860E+01 3.28897E-01-1.94638E-03-1.22241E-01-9.40989E-14-1.97119E-13
 -1      4237 1.96481E+01 3.58890E-01 1.06114E-03-1.56647E-01-1.01450E-13-2.08406E-13
 -1      4238 1.95794E+01 3.88161E-01-2.39383E-03-1.97661E-01-7.66528E-14-1.87545E-13
 -1      4239 1.95405E+01 4.12103E-01 1.99556E-03-2.48234E-01-1.27460E-13-1.81046E-13
 -1      4240 1.94582E+01 4.33188E-01-2.75924E-03-3.12039E-01-1.15611E-13-2.02618E-13
 -1      4241 1.94229E+01 4.44422E-01 3.48155E-03-3.84710E-01-8.34405E-14-2.26112E-13
 -1      4242 1.93273E+01 4.49246E-01-2.87095E-03-4.80991E-01-8.48369E-14-2.29412E-13
 -1      4243 1.93043E+01 4.37546E-01 5.74391E-03-5.82714E-01-1.06026E-13-1.90054E-13
 -1      4244 1.91994E+01 4.13754E-01-2.40586E-03-7.23622E-01-3.52020E-14-2.27685E-13
 -1      4245 1.92032E+01 3.64004E-01 9.05957E-03-8.61464E-01 2.52222E-14-2.24796E-13
 -1      4246 1.90998E+01 2.93525E-01-7.30817E-04-1.06123E+00 4.40162E-14-1.36403E-13
 -1      4247 1.91554E+01 1.83949E-01 1.36841E-02-1.23958E+00 1.07160E-13-1.65089E-13
 -1      4248 1.90749E+01 3.24459E-02 3.03241E-03-1.52471E+00 1.01031E-13-1.97582E-14
 -1      4249 2.00742E+01-7.88450E-03 3.06411E-04-4.45105E-02-1.03068E-13-8.02491E-14
 -1      4250 2.00943E+01-2.48412E-02-4.15889E-05-4.33769E-02-4.85743E-14-2.14954E-14
 -1      4251 2.04087E+01 3.63060E-01 7.14316E-04-5.59147E-03 5.21806E-14-1.04910E-14
 -1      4252 2.04178E+01 3.16633E-01-7.80227E-04-1.42934E-02 3.24641E-14-1.21574E-15
 -1      4253 2.03686E+01 3.13673E-02 1.00144E-05-1.25203E-03-2.00928E-14 6.37725E-14
 -1      4254 2.04320E+01 3.19371E-01-5.29044E-04 2.99972E-03 2.55507E-15 2.90291E-14
 -1      4255 2.04243E+01 2.85617E-01 2.63129E-04-9.43597E-03 5.03889E-15 4.57065E-14
 -1      4256 1.92157E+01-1.67829E-01 1.90694E-02-1.74802E+00 1.09788E-13-5.25574E-14
 -1      4257 2.02540E+01-6.92574E-02-6.96597E-04-2.46773E-02 1.47649E-14-9.24721E-15
 -1      4258 2.02585E+01-6.53128E-02 2.26422E-04-4.74474E-02 2.46721E-14 1.34489E-14
 -1      4259 2.01187E+01-4.05638E-02 4.03127E-04-4.72134E-02 5.48331E-15 4.04654E-15
 -1      4260 2.01389E+01-5.30938E-02 5.64317E-06-4.72368E-02 4.66308E-14 4.11327E-14
 -1      4261 2.01566E+01-5.86263E-02-4.67625E-04-2.82548E-02 4.76686E-14 4.53192E-14
 -1      4262 2.01087E+01-3.12015E-02-3.12541E-04-2.04163E-02 1.55481E-14 4.03103E-14
 -1      4263 1.91756E+01-3.73948E-01 1.14035E-02-2.06385E+00 1.64927E-13-5.29107E-14
 -1      4264 2.03451E+01-8.10176E-03 3.11079E-04-9.38411E-05 2.37865E-14 5.60469E-14
 -1      4265 2.03195E+01-3.54250E-02 8.53190E-05 2.23809E-03 3.36427E-14 7.16294E-14
 -1      4266 2.03046E+01-4.40116E-02-5.64642E-04-2.07357E-02 2.58418E-14 4.31100E-14
 -1      4267 2.03539E+01 1.62144E-02-3.92172E-04-2.71133E-02-1.14813E-14 7.58489E-14
 -1      4268 2.02794E+01-1.45359E+00 2.84246E-02-2.62113E+00-9.35640E-14-1.82398E-13
 -1      4269 1.93852E+01-7.33678E-01 5.29247E-04-2.32486E+00 8.33344E-14-1.63647E-13
 -1      4270 2.01454E+01-5.17643E-02 3.24975E-04 6.63390E-04 5.60676E-15 9.73693E-14
 -1      4271 2.00640E+01 2.68999E-03-1.88930E-04-2.62585E-02-8.93173E-14-3.96154E-14
 -1      4272 2.01213E+01-3.85373E-02 6.42503E-05 5.23659E-04 2.69733E-14 9.57357E-14
 -1      4273 2.04361E+01 4.12323E-01 1.43233E-03 3.97381E-04 2.71899E-14 4.01145E-14
 -1      4274 2.03084E+01-3.38191E-02 2.99855E-04-5.13906E-02-1.70346E-14 7.44857E-14
 -1      4275 2.03316E+01-6.80982E-03 3.05011E-04-4.73713E-02-5.43238E-15 5.73174E-14
 -1      4276 2.02831E+01-5.36434E-02 2.79849E-04-4.61636E-02 1.01574E-14 2.71099E-14
 -3
    1PSTEP                         3           1           1          
  100CL  101 1.000000000        4276                     0    1           1
 -4  TOSTRAIN    6    1
 -5  EXX         1    4    1    1
 -5  EYY         1    4    2    2
 -5  EZZ         1    4    3    3
 -5  EXY         1    4    1    2
 -5  EYZ         1    4    2    3
 -5  EZX         1    4    3    1
 -1         1 3.23449E-04-9.06312E-05-8.37381E-05-7.94730E-05 1.96618E-19 2.28699E-20
 -1         2 3.92185E-05-1.20494E-04 2.24474E-05 1.12746E-07 5.05128E-18-1.51148E-18
 -1         3 9.52105E-05-2.85986E-05-2.85094E-05-2.21922E-08-2.55485E-18-2.08428E-18
 -1         4 9.50837E-05-2.87879E-05-2.82618E-05 2.83206E-07 2.54294E-19 3.73896E-19
 -1         5 1.43343E-04-2.14780E-05-4.25275E-05 3.85301E-05-1.48072E-19 9.18597E-18
 -1         6 1.45404E-04 2.57561E-10-4.41856E-05-5.35257E-05-5.81912E-19 5.30116E-18
 -1         7 9.06049E-05-5.10995E-07-3.90667E-05-2.92528E-05-9.69853E-20-3.79630E-19
 -1         8 8.51229E-05 8.64775E-08-3.63380E-05-2.02727E-05-5.18543E-20-1.80337E-18
 -1         9 8.28150E-05 7.60056E-08-3.53508E-05-1.56411E-05-3.56680E-20-2.40675E-18
 -1        10 8.17719E-05 3.96249E-08-3.48818E-05-1.20793E-05-8.86076E-21-2.62048E-18
 -1        11 8.12541E-05 1.92772E-08-3.46536E-05-9.01520E-06 4.89029E-21-2.61925E-18
 -1        12 8.09856E-05 9.10951E-09-3.45393E-05-6.28510E-06 1.11984E-20-2.49099E-18
 -1        13 8.08445E-05 4.55156E-09-3.44817E-05-3.68587E-06 1.84594E-20-2.28326E-18
 -1        14 8.07854E-05 2.70681E-09-3.44582E-05-1.18367E-06 4.11771E-20-2.11618E-18
 -1        15 8.07875E-05 2.69450E-09-3.44590E-05 1.28914E-06 6.33790E-20-1.90617E-18
 -1        16 8.08508E-05 4.48183E-09-3.44839E-05 3.79646E-06 6.19194E-20-1.64586E-18
 -1        17 8.09971E-05 8.38966E-09-3.45429E-05 6.40769E-06 8.13466E-20-1.32468E-18
 -1        18 8.12711E-05 1.82196E-08-3.46585E-05 9.15679E-06 9.13472E-20-9.13717E-19
 -1        19 8.17974E-05 3.83038E-08-3.48897E-05 1.22584E-05 1.13483E-19-3.57200E-19
 -1        20 8.28382E-05 8.05490E-08-3.53628E-05 1.58727E-05 1.33699E-19 5.63130E-19
 -1        21 8.50858E-05 1.70011E-07-3.63762E-05 2.04837E-05 1.35949E-19 2.04520E-18
 -1        22 9.16416E-05-9.90746E-08-3.87392E-05 2.79988E-05 3.38813E-21 4.56138E-18
 -1        23 1.12973E-04-3.81257E-05-3.53963E-05-4.40254E-06-3.84315E-19 3.34959E-18
 -1        24 9.28048E-05-2.76971E-05-2.89993E-05 3.91250E-07-9.99333E-20 1.86523E-18
 -1        25 8.91203E-05-2.68523E-05-2.69297E-05 3.75856E-07-1.04592E-19 5.09331E-19
 -1        26 8.80178E-05-2.64890E-05-2.63925E-05 2.04128E-07-1.53252E-20-5.77107E-19
 -1        27 8.80450E-05-2.64676E-05-2.63847E-05 1.39857E-07-1.34313E-20-1.51039E-18
 -1        28 8.85792E-05-2.66041E-05-2.65544E-05 1.00821E-07 1.98062E-20-1.91482E-18
 -1        29 8.93345E-05-2.68169E-05-2.67871E-05 7.51051E-08-2.78212E-21-2.41836E-18
 -1        30 9.01598E-05-2.70568E-05-2.70373E-05 5.67531E-08-6.46525E-20-2.98387E-18
 -1        31 9.09703E-05-2.72956E-05-2.72819E-05 4.29309E-08 1.35995E-19-3.59450E-18
 -1        32 9.17217E-05-2.75183E-05-2.75082E-05 3.23612E-08-1.60074E-19-3.82959E-18
 -1        33 9.24170E-05-2.77257E-05-2.77180E-05 2.33953E-08-4.77489E-20-4.48435E-18
 -1        34 9.29879E-05-2.78959E-05-2.78903E-05 1.67435E-08 2.75187E-20-3.85175E-18
 -1        35 9.34712E-05-2.80406E-05-2.80363E-05 1.15568E-08-2.24209E-19-4.40338E-18
 -1        36 9.38773E-05-2.81625E-05-2.81592E-05 7.46218E-09 1.95247E-19-4.05012E-18
 -1        37 9.42209E-05-2.82659E-05-2.82633E-05 4.27575E-09-3.92150E-19-4.05580E-18
 -1        38 9.45202E-05-2.83563E-05-2.83541E-05 1.83652E-09 6.49397E-20-4.50942E-18
 -1        39 9.47969E-05-2.84401E-05-2.84383E-05 3.18523E-11 1.14439E-20-4.21569E-18
 -1        40 9.50769E-05-2.85251E-05-2.85235E-05-1.19396E-09-6.54218E-20-3.52266E-18
 -1        41 9.53914E-05-2.86208E-05-2.86194E-05-1.82296E-09 9.78018E-20-2.98988E-18
 -1        42 9.57797E-05-2.87390E-05-2.87380E-05-1.67786E-09 2.26676E-19-1.95355E-18
 -1        43 9.62935E-05-2.88961E-05-2.88948E-05-1.87897E-09-1.67631E-19-1.90639E-18
 -1        44 9.70446E-05-2.91235E-05-2.91249E-05 2.82753E-09-1.41072E-19-3.06826E-18
 -1        45 9.80658E-05-2.94338E-05-2.94378E-05 8.36641E-09 1.29222E-19-3.61740E-18
 -1        46 9.95259E-05-2.98763E-05-2.98862E-05 1.94539E-08-8.05839E-21-1.74449E-18
 -1        47 1.01626E-04-3.05111E-05-3.05328E-05 3.97802E-08 1.71691E-19-2.02695E-18
 -1        48 1.04651E-04-3.14224E-05-3.14659E-05 7.63543E-08-1.73179E-19-2.00959E-18
 -1        49 1.08988E-04-3.27238E-05-3.28051E-05 1.40816E-07 1.69141E-19-1.95551E-18
 -1        50 1.15129E-04-3.45593E-05-3.46975E-05 2.50499E-07-9.01958E-20-4.88989E-19
 -1        51 1.23597E-04-3.70813E-05-3.72814E-05 4.24840E-07-4.32913E-20-6.12034E-19
 -1        52 1.34661E-04-4.03751E-05-4.05744E-05 6.63432E-07 1.03855E-19-1.76429E-18
 -1        53 1.47618E-04-4.42586E-05-4.42244E-05 8.74567E-07 4.94451E-20-2.73859E-18
 -1        54 1.59484E-04-4.78639E-05-4.71821E-05 7.99571E-07-7.37293E-19-4.76583E-18
 -1        55 1.63199E-04-4.91812E-05-4.75037E-05-4.72354E-07 1.03550E-19-7.11031E-18
 -1        56 1.48948E-04-4.49066E-05-4.34039E-05-2.99216E-06 3.82230E-19-3.66130E-18
 -1        57 1.16859E-04-3.45892E-05-3.61252E-05-4.86063E-06-3.74762E-19-1.66103E-18
 -1        58 8.88471E-05-2.55879E-05-3.05013E-05-3.24098E-06 6.40357E-19-4.75397E-19
 -1        59 8.25227E-05-2.34155E-05-2.93202E-05 1.77570E-06-1.91138E-19 2.87303E-18
 -1        60 1.07214E-04-3.15978E-05-3.40505E-05 4.85623E-06-3.42665E-19 4.64619E-18
 -1        61 1.41761E-04-4.26777E-05-4.15418E-05 3.68362E-06-4.66093E-19 2.87652E-18
 -1        62 1.60793E-04-4.85167E-05-4.66698E-05 8.19240E-07-1.39324E-19 1.36563E-18
 -1        63 1.59798E-04-4.80081E-05-4.70924E-05-6.06716E-07-4.91458E-19-7.24848E-19
 -1        64 1.48728E-04-4.45950E-05-4.44491E-05-9.03649E-07 3.11891E-19-7.42848E-19
 -1        65 1.35181E-04-4.05260E-05-4.06906E-05-7.39996E-07-3.09035E-19 4.56471E-19
 -1        66 1.22957E-04-3.68849E-05-3.70827E-05-5.04865E-07-9.93593E-20 6.68680E-19
 -1        67 1.13179E-04-3.39746E-05-3.41172E-05-3.25519E-07 5.97741E-19 2.49176E-18
 -1        68 1.05788E-04-3.17688E-05-3.18589E-05-2.12250E-07-4.38273E-20 1.84498E-18
 -1        69 1.00433E-04-3.01630E-05-3.02343E-05-1.38758E-07 1.26998E-19 1.33377E-18
 -1        70 9.68841E-05-2.90967E-05-2.91732E-05-6.72838E-08 3.10300E-20 2.79897E-18
 -1        71 9.51954E-05-2.85637E-05-2.86060E-05 1.37827E-07-3.26176E-19-2.99499E-19
 -1        72 1.02179E-04-3.05881E-05-3.41503E-05-1.92915E-06 3.38019E-20 9.11026E-18
 -1        73 9.25618E-05-2.75170E-05-2.89050E-05-3.33428E-07 1.01942E-20 7.95723E-18
 -1        74 8.91063E-05-2.67056E-05-2.69685E-05-1.30146E-07 4.46016E-20 7.09254E-18
 -1        75 8.80503E-05-2.64436E-05-2.64350E-05-9.94328E-08 1.58389E-20 6.32073E-18
 -1        76 8.80809E-05-2.64487E-05-2.64117E-05-7.86752E-08 7.31691E-20 5.59196E-18
 -1        77 8.86136E-05-2.65986E-05-2.65718E-05-6.30613E-08-7.30152E-21 5.02541E-18
 -1        78 8.93665E-05-2.68181E-05-2.67997E-05-5.14888E-08-1.19126E-19 5.38930E-18
 -1        79 9.01890E-05-2.70614E-05-2.70472E-05-4.22053E-08-4.09495E-20 5.55315E-18
 -1        80 9.09971E-05-2.73019E-05-2.72900E-05-3.43487E-08 6.49657E-20 5.37595E-18
 -1        81 9.17450E-05-2.75251E-05-2.75149E-05-2.75658E-08 1.01161E-19 4.03177E-18
 -1        82 9.24104E-05-2.77241E-05-2.77153E-05-2.16960E-08 1.36214E-19 3.26626E-18
 -1        83 9.29865E-05-2.78966E-05-2.78892E-05-1.66438E-08-1.75245E-20 2.84558E-18
 -1        84 9.34769E-05-2.80435E-05-2.80374E-05-1.23354E-08-1.01187E-19 2.82856E-18
 -1        85 9.38916E-05-2.81678E-05-2.81630E-05-8.70789E-09 1.75711E-19 2.70938E-18
 -1        86 9.42452E-05-2.82739E-05-2.82703E-05-5.71204E-09 1.75818E-19 1.05298E-18
 -1        87 9.45550E-05-2.83669E-05-2.83645E-05-3.32143E-09-2.86773E-19 1.71981E-18
 -1        88 9.48404E-05-2.84526E-05-2.84515E-05-1.54451E-09-1.15446E-19 2.41035E-18
 -1        89 9.51220E-05-2.85371E-05-2.85373E-05-4.37331E-10 2.48708E-19 1.88864E-18
 -1        90 9.54205E-05-2.86266E-05-2.86282E-05-1.14117E-10-1.04583E-19 4.96841E-19
 -1        91 9.57558E-05-2.87270E-05-2.87301E-05-7.51487E-10-2.20690E-19 7.14229E-19
 -1        92 9.61450E-05-2.88434E-05-2.88478E-05-2.57858E-09 2.19408E-19 1.13705E-18
 -1        93 9.65989E-05-2.89789E-05-2.89845E-05-5.84039E-09-5.05691E-19 6.59810E-19
 -1        94 9.71175E-05-2.91336E-05-2.91397E-05-1.07155E-08-1.99381E-20 6.84711E-19
 -1        95 9.76826E-05-2.93019E-05-2.93073E-05-1.71650E-08-5.18987E-20 5.19953E-19
 -1        96 9.82500E-05-2.94707E-05-2.94732E-05-2.46906E-08-6.40814E-20 1.12607E-18
 -1        97 9.87391E-05-2.96162E-05-2.96126E-05-3.20044E-08 2.69814E-19 1.25363E-18
 -1        98 9.90259E-05-2.97017E-05-2.96878E-05-3.66715E-08-3.30280E-19 5.03511E-19
 -1        99 9.89417E-05-2.96771E-05-2.96484E-05-3.49104E-08-1.82236E-19 1.23073E-18
 -1       100 9.82859E-05-2.94830E-05-2.94364E-05-2.19076E-08-7.33614E-20 1.63203E-18
 -1       101 9.68619E-05-2.90605E-05-2.89970E-05 6.86235E-09 2.31961E-19 3.72532E-19
 -1       102 9.45395E-05-2.83701E-05-2.82975E-05 5.29798E-08-1.53989E-19-2.59172E-19
 -1       103 9.13398E-05-2.74164E-05-2.73512E-05 1.11568E-07-3.13247E-19 1.71803E-18
 -1       104 8.75151E-05-2.62724E-05-2.62376E-05 1.68896E-07-1.43855E-19 3.48692E-18
 -1       105 8.35779E-05-2.50894E-05-2.51065E-05 2.04206E-07 4.70011E-19 3.65120E-18
 -1       106 8.02284E-05-2.40772E-05-2.41548E-05 1.97678E-07-5.33828E-19 1.99804E-18
 -1       107 7.81704E-05-2.34492E-05-2.35747E-05 1.41973E-07-2.76215E-19 3.39353E-19
 -1       108 7.78683E-05-2.33491E-05-2.34905E-05 4.94635E-08 3.26941E-19-7.30546E-19
 -1       109 7.93662E-05-2.37939E-05-2.39124E-05-5.17010E-08 1.55799E-19-3.13674E-19
 -1       110 8.22664E-05-2.46651E-05-2.47325E-05-1.31187E-07-6.60851E-20-2.81281E-19
 -1       111 8.58837E-05-2.57553E-05-2.57637E-05-1.70580E-07 1.27382E-19 8.69572E-19
 -1       112 8.94872E-05-2.68422E-05-2.68032E-05-1.68763E-07-2.31642E-19 6.92628E-19
 -1       113 9.25089E-05-2.77533E-05-2.76881E-05-1.37404E-07 5.10767E-19 1.99852E-18
 -1       114 9.46445E-05-2.83965E-05-2.83263E-05-9.23364E-08-2.67163E-19-1.61836E-19
 -1       115 9.58468E-05-2.87582E-05-2.86981E-05-4.68425E-08 5.48496E-19-3.00154E-18
 -1       116 9.62567E-05-2.88810E-05-2.88393E-05-9.11686E-09 1.73672E-19-5.44813E-18
 -1       117 9.61202E-05-2.88389E-05-2.88194E-05 1.67381E-08 2.94126E-19-7.12610E-18
 -1       118 9.57218E-05-2.87168E-05-2.87208E-05 2.85107E-08-2.44816E-19-6.22599E-18
 -1       119 9.53400E-05-2.85992E-05-2.86194E-05 2.05058E-08 6.00501E-20-4.41499E-18
 -1       120 9.51853E-05-2.85462E-05-2.85590E-05-1.39276E-08 1.17547E-18-3.23712E-18
 -1       121 9.52471E-05-2.86101E-05-2.85587E-05-2.93804E-08-4.07575E-18 4.63837E-19
 -1       122 9.51987E-05-2.84615E-05-2.86232E-05-9.43204E-09-2.58105E-20-1.83342E-19
 -1       123 9.50471E-05-2.79641E-05-2.87763E-05 8.04884E-09 2.32759E-19 9.28707E-19
 -1       124 9.47818E-05-2.70804E-05-2.90445E-05 2.68481E-08 1.56172E-19-7.49958E-19
 -1       125 9.43889E-05-2.57636E-05-2.94404E-05 5.16227E-08 1.14389E-19-1.60989E-18
 -1       126 9.38810E-05-2.40585E-05-2.99467E-05 7.57637E-08-5.61693E-18 3.41611E-19
 -1       127 9.32777E-05-2.20285E-05-3.05415E-05 9.56346E-08-5.40189E-18 9.03462E-19
 -1       128 9.26608E-05-1.99509E-05-3.11420E-05 9.99390E-08-2.74012E-18 2.86461E-19
 -1       129 9.21407E-05-1.81976E-05-3.16404E-05 8.05457E-08 1.52739E-18 7.39813E-19
 -1       130 9.18432E-05-1.71925E-05-3.19168E-05 3.39634E-08 2.84147E-18-1.04895E-18
 -1       131 9.18742E-05-1.72988E-05-3.18717E-05-3.76585E-08 9.52894E-19 4.60200E-19
 -1       132 9.22770E-05-1.86498E-05-3.14745E-05-1.11442E-07 3.09051E-18 7.44359E-19
 -1       133 9.30185E-05-2.11431E-05-3.07627E-05-1.75048E-07 1.43924E-18-5.95582E-19
 -1       134 9.39387E-05-2.42419E-05-2.98969E-05-1.95770E-07 4.06860E-18 1.66932E-18
 -1       135 9.48157E-05-2.70897E-05-2.91130E-05-9.61314E-08 7.28335E-18 4.13273E-19
 -1       136 9.52700E-05-2.86806E-05-2.85883E-05 1.50787E-07 5.90016E-18 1.84956E-19
 -1       137 2.55277E-05-8.82481E-05 1.62248E-05-2.31113E-05 4.02023E-18 1.09333E-18
 -1       138 7.80835E-06-2.59480E-05 7.43507E-07-1.09223E-05 5.54764E-18 2.89262E-18
 -1       139 1.47895E-05 2.14208E-05-1.82209E-05 3.27546E-05 4.81411E-18 4.02383E-18
 -1       140 6.68098E-05 2.87882E-05-3.88353E-05 8.71894E-05 6.05629E-20-4.23940E-19
 -1       141 1.64861E-04-7.80100E-06-6.02072E-05 1.20144E-04 3.49825E-19 1.46452E-18
 -1       142 2.58133E-04-6.03761E-05-7.42140E-05 9.95314E-05 5.45648E-19-3.89212E-19
 -1       143 3.15591E-04-9.58745E-05-8.18121E-05 2.68191E-05-1.52678E-19-5.65003E-18
 -1       144 3.00034E-04-8.59126E-05-7.99556E-05-5.88305E-05 1.52171E-18-1.03315E-17
 -1       145 2.25540E-04-4.09184E-05-6.97415E-05-1.12999E-04 4.96446E-18-1.13613E-17
 -1       146 1.29313E-04 9.09908E-06-5.37584E-05-1.15714E-04 6.12257E-18-1.12969E-17
 -1       147 4.83175E-05 3.09404E-05-3.31904E-05-7.34417E-05 3.41608E-18-5.02756E-18
 -1       148 9.77643E-06 9.08665E-06-1.21577E-05-1.72874E-05 8.91926E-19 2.66180E-19
 -1       149 1.18268E-05-4.78077E-05 6.93307E-06 2.13234E-05-3.44573E-18 7.21566E-19
 -1       150 3.11666E-05-9.97167E-05 1.81955E-05 1.90777E-05-5.81382E-18 6.42779E-19
 -1       151 3.94834E-05-1.21079E-04 2.25257E-05-7.65777E-06-4.04749E-18 5.23334E-19
 -1       152 2.64408E-05-9.71213E-05 1.82892E-05-3.35101E-05-2.17476E-19-3.85241E-19
 -1       153 7.42725E-06-4.23450E-05 5.09756E-06-2.66652E-05 8.27975E-19-6.94567E-20
 -1       154 1.14662E-05 7.88088E-06-1.43334E-05 1.64044E-05 1.49374E-18 2.27301E-18
 -1       155 7.38081E-05 1.95588E-05-3.97951E-05 8.24117E-05 2.97647E-18 4.18985E-18
 -1       156 1.82719E-04-1.88319E-05-6.24962E-05 1.16849E-04 1.86432E-18 3.57194E-18
 -1       157 3.04730E-04-7.99794E-05-8.12636E-05 9.30062E-05 9.73770E-19 3.05355E-18
 -1       158 3.63030E-04-1.13283E-04-8.87089E-05 8.06348E-06 7.80064E-20 9.30042E-19
 -1       159 2.23655E-04-3.69317E-05-6.97246E-05-1.19962E-04-1.20215E-18 6.64921E-19
 -1       160 1.09909E-04 1.09871E-05-4.86842E-05-1.02128E-04 2.87568E-18-1.88719E-18
 -1       161 3.46809E-05 2.17195E-05-2.71186E-05-5.07163E-05 3.79471E-18-3.30343E-18
 -1       162 5.05837E-06-8.16859E-06-6.34845E-06 4.07474E-06-2.51950E-18 1.37812E-18
 -1       163 1.25976E-05-6.12685E-05 1.00809E-05 3.35005E-05 4.23516E-22 2.34416E-19
 -1       164 3.22245E-05-1.08187E-04 2.01961E-05 2.75905E-05 3.84129E-18-1.00369E-18
 -1       165 9.48666E-05-1.23465E-05-3.55686E-05-2.23496E-05-9.69614E-19-9.24219E-19
 -1       166 8.92481E-05-8.45591E-06-3.47869E-05-1.73922E-05-7.04665E-19-1.73850E-18
 -1       167 8.65492E-05-6.50576E-06-3.44161E-05-1.35846E-05-3.57286E-19-2.12846E-18
 -1       168 8.51905E-05-5.51394E-06-3.42312E-05-1.03727E-05-8.33467E-20-2.23420E-18
 -1       169 8.44493E-05-4.94555E-06-3.41420E-05-7.54772E-06 9.27485E-20-2.13863E-18
 -1       170 8.40224E-05-4.59996E-06-3.40998E-05-4.90376E-06 2.37755E-19-2.00655E-18
 -1       171 8.38042E-05-4.41547E-06-3.40818E-05-2.39520E-06 4.86091E-19-1.78843E-18
 -1       172 8.37399E-05-4.35969E-06-3.40771E-05 5.12932E-08 6.48823E-19-1.59226E-18
 -1       173 8.38141E-05-4.42391E-06-3.40826E-05 2.49988E-06 7.95496E-19-1.41933E-18
 -1       174 8.40440E-05-4.61913E-06-3.41012E-05 5.01513E-06 9.22760E-19-1.22346E-18
 -1       175 8.44762E-05-4.97204E-06-3.41428E-05 7.62495E-06 1.01497E-18-8.88273E-19
 -1       176 8.52505E-05-5.57332E-06-3.42322E-05 1.05140E-05 1.21244E-18-4.16793E-19
 -1       177 8.66479E-05-6.60860E-06-3.44179E-05 1.37793E-05 1.30115E-18 1.63226E-19
 -1       178 8.93874E-05-8.59784E-06-3.47910E-05 1.76307E-05 1.28114E-18 1.23898E-18
 -1       179 9.57783E-05-1.36133E-05-3.54260E-05 2.18917E-05 9.79924E-19 2.91072E-18
 -1       180 1.05604E-04-2.61008E-05-3.52634E-05 1.86632E-05 5.17550E-19 4.94699E-18
 -1       181 1.03397E-04-2.73014E-05-3.26102E-05-1.21278E-05-8.46292E-19 3.22931E-19
 -1       182 9.71073E-05-2.82895E-05-2.95288E-05-4.73164E-06-8.08427E-19-7.60278E-20
 -1       183 9.35066E-05-2.76365E-05-2.81822E-05-1.76911E-06-5.86378E-19-3.49514E-19
 -1       184 9.19716E-05-2.74057E-05-2.76358E-05-4.21505E-07-6.08325E-19-7.18317E-19
 -1       185 9.13955E-05-2.73305E-05-2.74382E-05 2.42469E-07-2.89424E-19-9.36597E-19
 -1       186 9.13538E-05-2.73694E-05-2.74133E-05 5.68342E-07-2.96984E-19-1.08346E-18
 -1       187 9.15978E-05-2.74721E-05-2.74784E-05 7.07319E-07-3.03250E-19-1.14712E-18
 -1       188 9.19824E-05-2.76045E-05-2.75887E-05 7.38699E-07-3.81533E-19-1.36997E-18
 -1       189 9.24216E-05-2.77455E-05-2.77178E-05 7.08560E-07-3.84762E-19-1.63717E-18
 -1       190 9.28851E-05-2.78886E-05-2.78557E-05 6.42344E-07-4.47185E-19-1.74176E-18
 -1       191 9.32991E-05-2.80133E-05-2.79800E-05 5.65184E-07 6.97378E-20-1.95958E-18
 -1       192 9.36746E-05-2.81242E-05-2.80935E-05 4.87112E-07-1.58311E-19-2.06640E-18
 -1       193 9.40080E-05-2.82209E-05-2.81949E-05 4.16372E-07-1.49063E-19-1.77631E-18
 -1       194 9.43034E-05-2.83052E-05-2.82853E-05 3.58680E-07 3.20905E-19-1.84159E-18
 -1       195 9.45701E-05-2.83799E-05-2.83673E-05 3.18518E-07-3.79938E-20-1.07434E-18
 -1       196 9.48212E-05-2.84490E-05-2.84451E-05 2.99985E-07-1.00569E-19-6.37819E-19
 -1       197 9.50743E-05-2.85175E-05-2.85238E-05 3.07656E-07 4.18223E-19-8.35493E-19
 -1       198 9.53510E-05-2.85913E-05-2.86103E-05 3.47498E-07 1.43827E-19-7.62916E-19
 -1       199 9.56787E-05-2.86778E-05-2.87130E-05 4.27979E-07 2.24900E-19-9.11611E-19
 -1       200 9.60922E-05-2.87863E-05-2.88428E-05 5.60784E-07 3.02176E-19-1.59445E-18
 -1       201 9.66682E-05-2.89361E-05-2.90243E-05 7.77501E-07-5.90684E-19-1.02655E-18
 -1       202 9.74166E-05-2.91301E-05-2.92603E-05 1.08629E-06-4.65695E-19-4.81081E-19
 -1       203 9.84407E-05-2.93938E-05-2.95841E-05 1.53222E-06 4.07310E-19-1.66841E-18
 -1       204 9.98500E-05-2.97548E-05-3.00309E-05 2.17114E-06 4.07651E-19-1.25589E-18
 -1       205 1.01788E-04-3.02497E-05-3.06466E-05 3.07622E-06-1.50459E-19-4.06036E-19
 -1       206 1.04437E-04-3.09283E-05-3.14891E-05 4.33589E-06 3.13855E-19 3.43997E-19
 -1       207 1.08014E-04-3.18602E-05-3.26240E-05 6.03234E-06 4.77775E-19 2.36342E-19
 -1       208 1.12749E-04-3.31472E-05-3.41080E-05 8.17421E-06-2.70713E-19 3.86876E-19
 -1       209 1.18811E-04-3.49489E-05-3.59475E-05 1.05299E-05-7.37049E-19-2.58646E-19
 -1       210 1.26178E-04-3.75176E-05-3.80198E-05 1.22916E-05-4.73718E-19-6.11048E-19
 -1       211 1.34412E-04-4.11490E-05-3.99829E-05 1.16073E-05-1.57812E-18-1.25625E-18
 -1       212 1.42680E-04-4.61092E-05-4.13560E-05 4.95408E-06-1.11207E-18-9.81281E-19
 -1       213 1.47297E-04-4.98120E-05-4.17909E-05-9.14635E-06 6.52804E-19-9.17959E-19
 -1       214 1.44770E-04-4.70905E-05-4.21022E-05-2.48146E-05 7.98077E-19-2.25235E-18
 -1       215 1.36130E-04-3.73744E-05-4.29491E-05-2.62265E-05 2.37894E-18-4.94125E-19
 -1       216 1.27923E-04-2.79298E-05-4.37138E-05-5.90761E-06 1.87353E-18 2.14804E-18
 -1       217 1.31544E-04-3.25185E-05-4.32030E-05 2.02637E-05-3.81165E-20 1.50757E-18
 -1       218 1.42182E-04-4.49900E-05-4.19839E-05 2.64344E-05-7.91129E-19-7.32472E-19
 -1       219 1.46711E-04-4.97958E-05-4.15571E-05 1.19671E-05-1.79015E-19 7.09886E-19
 -1       220 1.42789E-04-4.66418E-05-4.11732E-05-3.15932E-06-1.65948E-18 1.07608E-18
 -1       221 1.35063E-04-4.18265E-05-3.99722E-05-1.11157E-05-3.45993E-19 2.77072E-19
 -1       222 1.26443E-04-3.78148E-05-3.80088E-05-1.29064E-05 4.19524E-19-5.30719E-19
 -1       223 1.18427E-04-3.49038E-05-3.58066E-05-1.16250E-05 4.12760E-19 3.53034E-19
 -1       224 1.11611E-04-3.28075E-05-3.37678E-05-9.39820E-06-5.18169E-19 7.50355E-19
 -1       225 1.06124E-04-3.12563E-05-3.20715E-05-7.19719E-06-3.18862E-19 4.53292E-19
 -1       226 1.01880E-04-3.00757E-05-3.07563E-05-5.28401E-06-9.16691E-19-1.53215E-18
 -1       227 9.87466E-05-2.91659E-05-2.98067E-05-3.58268E-06-7.10565E-20-3.52653E-18
 -1       228 9.65813E-05-2.84690E-05-2.91813E-05-1.92508E-06-1.55823E-18-3.07390E-18
 -1       229 9.55207E-05-2.81577E-05-2.88790E-05-7.42844E-07 4.37054E-19-2.18722E-18
 -1       230 9.95025E-05-2.85517E-05-3.05872E-05 7.21402E-06 5.82547E-19 4.33484E-18
 -1       231 9.44364E-05-2.77836E-05-2.85300E-05 2.76788E-06 5.45463E-19 3.74062E-18
 -1       232 9.21322E-05-2.74204E-05-2.76861E-05 9.22524E-07 3.88054E-19 3.16027E-18
 -1       233 9.11773E-05-2.72687E-05-2.73634E-05 4.34243E-08 3.95108E-19 3.17674E-18
 -1       234 9.09507E-05-2.72489E-05-2.72881E-05-3.81155E-07 2.32739E-19 2.88076E-18
 -1       235 9.11259E-05-2.73269E-05-2.73363E-05-5.77276E-07-9.80333E-20 2.47192E-18
 -1       236 9.15061E-05-2.74556E-05-2.74471E-05-6.46949E-07 8.21441E-20 2.17015E-18
 -1       237 9.19748E-05-2.76044E-05-2.75858E-05-6.44151E-07 2.42019E-19 1.85653E-18
 -1       238 9.24635E-05-2.77549E-05-2.77315E-05-6.01210E-07 5.71409E-19 1.79898E-18
 -1       239 9.29330E-05-2.78969E-05-2.78724E-05-5.38623E-07 3.17062E-19 1.70822E-18
 -1       240 9.33633E-05-2.80253E-05-2.80020E-05-4.69789E-07 2.84084E-19 1.47721E-18
 -1       241 9.37468E-05-2.81385E-05-2.81180E-05-4.03573E-07 1.82021E-19 8.45660E-19
 -1       242 9.40845E-05-2.82371E-05-2.82205E-05-3.45857E-07 2.16259E-19 7.41821E-19
 -1       243 9.43830E-05-2.83234E-05-2.83114E-05-3.00555E-07 5.12341E-19 7.57847E-19
 -1       244 9.46526E-05-2.84008E-05-2.83938E-05-2.70260E-07-3.90814E-19 7.24640E-19
 -1       245 9.49063E-05-2.84731E-05-2.84714E-05-2.56640E-07-3.68765E-19 3.42148E-19
 -1       246 9.51584E-05-2.85448E-05-2.85487E-05-2.60567E-07 2.75928E-19 7.49131E-19
 -1       247 9.54239E-05-2.86207E-05-2.86299E-05-2.81984E-07 5.12455E-19 1.36148E-18
 -1       248 9.57169E-05-2.87052E-05-2.87192E-05-3.19477E-07-4.21402E-19 8.17998E-19
 -1       249 9.60492E-05-2.88026E-05-2.88199E-05-3.69491E-07-2.35413E-19 5.81703E-19
 -1       250 9.64275E-05-2.89155E-05-2.89338E-05-4.25201E-07-1.94160E-19 1.11142E-18
 -1       251 9.68503E-05-2.90449E-05-2.90598E-05-4.75055E-07-4.86445E-20 1.32430E-18
 -1       252 9.73028E-05-2.91878E-05-2.91928E-05-5.01212E-07 2.69684E-19 1.37607E-18
 -1       253 9.77516E-05-2.93360E-05-2.93220E-05-4.78359E-07-2.34382E-19 1.09586E-18
 -1       254 9.81387E-05-2.94739E-05-2.94292E-05-3.73833E-07 3.36565E-19 1.12112E-18
 -1       255 9.83773E-05-2.95761E-05-2.94879E-05-1.50524E-07-1.52637E-19 1.71803E-18
 -1       256 9.83522E-05-2.96064E-05-2.94642E-05 2.25489E-07-7.19614E-20 1.47791E-18
 -1       257 9.79290E-05-2.95187E-05-2.93200E-05 7.70874E-07-2.80432E-19 6.39293E-19
 -1       258 9.69777E-05-2.92629E-05-2.90212E-05 1.46470E-06 1.60142E-19 9.17072E-19
 -1       259 9.54125E-05-2.87971E-05-2.85491E-05 2.22652E-06-4.58414E-19 2.49310E-18
 -1       260 9.32451E-05-2.81077E-05-2.79151E-05 2.90469E-06-6.62816E-19 2.66542E-18
 -1       261 9.06377E-05-2.72345E-05-2.71720E-05 3.29257E-06 4.82916E-19 1.78426E-18
 -1       262 8.79240E-05-2.62873E-05-2.64157E-05 3.18621E-06-4.30721E-20 1.88615E-18
 -1       263 8.55690E-05-2.54393E-05-2.57707E-05 2.47595E-06-2.08504E-19 2.48670E-18
 -1       264 8.40526E-05-2.48833E-05-2.53592E-05 1.23035E-06 1.14962E-18 2.79795E-18
 -1       265 8.37087E-05-2.47597E-05-2.52635E-05-2.87875E-07 6.81099E-19 1.37167E-18
 -1       266 8.45953E-05-2.50951E-05-2.54976E-05-1.70626E-06-4.16160E-19 9.14083E-19
 -1       267 8.64699E-05-2.57884E-05-2.60020E-05-2.69038E-06-4.75669E-19 1.38059E-18
 -1       268 8.88838E-05-2.66569E-05-2.66638E-05-3.07005E-06-3.39653E-20 1.37175E-18
 -1       269 9.13426E-05-2.75087E-05-2.73536E-05-2.87535E-06 2.28317E-19 1.86626E-18
 -1       270 9.34488E-05-2.82032E-05-2.79607E-05-2.28058E-06-4.81245E-20 1.08196E-18
 -1       271 9.49759E-05-2.86731E-05-2.84160E-05-1.50980E-06 1.48996E-18-1.10531E-18
 -1       272 9.58701E-05-2.89159E-05-2.86967E-05-7.59305E-07 1.88260E-18-2.67946E-18
 -1       273 9.62088E-05-2.89712E-05-2.88189E-05-1.61097E-07 1.40719E-18-3.79986E-18
 -1       274 9.61464E-05-2.88984E-05-2.88236E-05 2.18020E-07 3.01662E-19-2.80611E-18
 -1       275 9.58676E-05-2.87620E-05-2.87627E-05 3.62702E-07-6.76441E-19-2.54634E-18
 -1       276 9.55426E-05-2.86186E-05-2.86844E-05 2.92456E-07-6.40632E-19-3.08495E-18
 -1       277 9.53104E-05-2.85368E-05-2.86157E-05 9.39289E-08-6.28625E-19-2.44955E-18
 -1       278 9.52629E-05-2.83848E-05-2.86598E-05 2.32943E-07-1.09151E-18 3.17795E-18
 -1       279 9.51781E-05-2.80451E-05-2.87692E-05 5.49279E-07-8.06886E-19-1.59490E-18
 -1       280 9.50229E-05-2.74733E-05-2.89465E-05 9.30750E-07-1.59633E-18 7.63258E-19
 -1       281 9.47773E-05-2.66268E-05-2.92044E-05 1.36322E-06-6.81707E-19 7.38503E-19
 -1       282 9.44260E-05-2.55064E-05-2.95354E-05 1.77246E-06-3.14399E-20-2.65249E-18
 -1       283 9.39595E-05-2.41194E-05-2.99319E-05 2.06583E-06-5.46793E-19-1.07550E-18
 -1       284 9.34188E-05-2.26124E-05-3.03486E-05 2.10599E-06-9.60174E-19 2.02874E-18
 -1       285 9.28792E-05-2.12003E-05-3.07251E-05 1.77721E-06 5.59764E-19 2.48003E-18
 -1       286 9.24480E-05-2.01558E-05-3.09899E-05 1.03026E-06-2.74995E-19 1.97713E-19
 -1       287 9.22434E-05-1.97497E-05-3.10767E-05-7.39985E-08-1.34755E-19 3.44640E-19
 -1       288 9.23536E-05-2.01516E-05-3.09507E-05-1.31915E-06 4.31596E-19 7.69371E-19
 -1       289 9.28157E-05-2.13939E-05-3.06142E-05-2.44273E-06 9.83969E-19-6.19971E-19
 -1       290 9.35798E-05-2.32831E-05-3.01290E-05-3.06526E-06 1.42020E-18 1.97191E-18
 -1       291 9.44815E-05-2.54129E-05-2.95998E-05-2.87369E-06 1.32557E-18 7.13929E-19
 -1       292 9.51123E-05-2.69445E-05-2.92147E-05-1.97675E-06-4.57369E-19-5.99337E-19
 -1       293 1.30066E-05-4.74814E-05 1.19673E-05 1.47405E-05 6.14417E-19 5.62959E-19
 -1       294 3.35447E-05-4.22975E-05 2.06126E-06 3.36487E-05 3.08955E-19 2.33315E-18
 -1       295 6.03991E-05-3.62466E-05-1.16914E-05 4.07300E-05 1.70444E-18 2.90744E-19
 -1       296 9.54476E-05-2.87186E-05-2.86925E-05 4.97702E-05 1.50835E-18-2.95212E-18
 -1       297 1.45762E-04-3.55589E-05-4.62888E-05 4.15322E-05-9.27078E-19-1.08590E-18
 -1       298 1.83707E-04-3.20814E-05-6.24176E-05 4.17696E-05 4.67522E-20-2.81194E-18
 -1       299 2.12126E-04-3.59295E-05-7.20361E-05 2.26446E-05 1.32370E-18-4.45963E-18
 -1       300 2.02673E-04-2.81207E-05-7.24597E-05-3.46087E-06 2.57763E-18-4.85437E-18
 -1       301 2.00181E-04-3.32308E-05-6.86779E-05-2.90486E-05 2.39964E-18-5.74881E-18
 -1       302 1.69763E-04-2.99973E-05-5.76796E-05-4.74339E-05 2.55129E-18-5.84813E-18
 -1       303 1.29925E-04-3.14388E-05-4.14692E-05-4.82628E-05 5.51948E-19-5.84177E-18
 -1       304 9.28553E-05-3.78842E-05-2.38825E-05-4.71878E-05-2.10911E-19-4.35926E-18
 -1       305 5.17007E-05-3.90373E-05-6.79441E-06-4.03459E-05-5.73865E-19-2.58599E-18
 -1       306 2.30258E-05-4.59778E-05 7.00467E-06-2.27615E-05-2.33612E-18-7.11719E-19
 -1       307 1.15711E-05-5.03469E-05 1.33313E-05-1.07546E-05-1.34493E-18 1.15726E-18
 -1       308 1.34541E-05-5.41354E-05 1.36919E-05 1.98076E-06-7.25325E-19 1.29977E-18
 -1       309 2.98944E-05-4.78871E-05 4.93277E-06 1.96821E-05 8.05317E-19 1.10633E-18
 -1       310 5.78632E-05-4.39763E-05-8.49364E-06 2.94813E-05 7.47718E-19 1.43085E-18
 -1       311 1.10338E-04-4.69693E-05-2.80871E-05 3.79513E-05 5.20290E-19 2.32045E-18
 -1       312 1.60539E-04-4.45758E-05-4.86152E-05 3.89860E-05 1.34403E-18 5.03561E-19
 -1       313 2.01540E-04-4.52569E-05-6.45336E-05 1.38548E-05 2.65492E-19-5.53960E-19
 -1       314 2.37723E-04-4.49184E-05-7.72228E-05 9.79845E-06 9.82558E-19-1.84378E-18
 -1       315 2.31060E-04-4.09435E-05-7.68501E-05-5.62812E-06 3.76294E-19-2.91093E-18
 -1       316 2.18668E-04-4.56956E-05-7.00285E-05-2.38013E-05-7.49412E-19-2.40557E-18
 -1       317 1.79016E-04-4.60018E-05-5.51511E-05-3.36265E-05 2.35396E-18-1.41666E-18
 -1       318 1.29598E-04-4.26615E-05-3.72950E-05-4.14071E-05 2.44094E-18-1.01453E-18
 -1       319 8.23222E-05-4.21886E-05-1.90212E-05-3.68821E-05-1.42619E-18-3.81525E-18
 -1       320 4.55316E-05-4.57493E-05-2.83446E-06-2.51978E-05 1.65341E-18 9.78694E-19
 -1       321 2.22238E-05-5.14641E-05 8.93937E-06-1.19241E-05 2.22219E-18 9.59265E-20
 -1       322 1.13292E-05-5.15784E-05 1.38662E-05-2.94580E-07 3.65018E-19-2.74227E-19
 -1       323 9.16481E-05-1.43953E-05-3.31715E-05-1.30635E-05-6.00962E-19-1.39214E-18
 -1       324 9.57073E-05-1.91104E-05-3.28903E-05-1.46309E-05-8.61128E-19-9.97441E-19
 -1       325 8.80059E-05-1.03753E-05-3.33238E-05-8.15388E-06-3.71156E-20-1.77543E-18
 -1       326 8.71921E-05-9.45481E-06-3.33640E-05-5.71776E-06 1.78302E-19-1.68912E-18
 -1       327 8.67327E-05-8.92493E-06-3.33911E-05-3.36693E-06 4.96654E-19-1.41698E-18
 -1       328 8.65279E-05-8.68516E-06-3.34046E-05-1.07248E-06 7.48362E-19-1.23638E-18
 -1       329 8.65365E-05-8.69467E-06-3.34043E-05 1.20358E-06 8.87421E-19-1.09540E-18
 -1       330 8.67601E-05-8.95560E-06-3.33899E-05 3.50018E-06 1.06015E-18-9.92845E-19
 -1       331 8.72318E-05-9.49983E-06-3.33624E-05 5.81529E-06 1.14726E-18-7.84703E-19
 -1       332 8.80704E-05-1.04520E-05-3.33205E-05 8.25612E-06 1.36193E-18-3.49490E-19
 -1       333 8.94806E-05-1.20326E-05-3.32594E-05 1.07704E-05 1.47922E-18 1.02378E-19
 -1       334 9.18903E-05-1.47362E-05-3.31484E-05 1.31486E-05 1.41399E-18 7.21533E-19
 -1       335 9.58867E-05-1.95849E-05-3.28051E-05 1.42833E-05 1.23215E-18 1.84047E-18
 -1       336 9.87807E-05-2.44490E-05-3.19418E-05 1.18533E-05 9.65234E-19 2.82436E-18
 -1       337 9.63375E-05-2.67763E-05-2.97843E-05 5.72919E-06 7.54984E-19 2.43061E-18
 -1       338 9.64339E-05-2.60250E-05-3.01316E-05-6.34836E-06-7.17731E-19-5.94189E-19
 -1       339 9.49205E-05-2.70302E-05-2.90707E-05-2.83523E-06-6.64281E-19-5.54394E-19
 -1       340 9.39422E-05-2.74255E-05-2.84926E-05-9.22674E-07-5.47999E-19-5.22456E-19
 -1       341 9.34234E-05-2.76383E-05-2.81869E-05 1.37465E-07-4.23800E-19-7.00126E-19
 -1       342 9.32317E-05-2.77913E-05-2.80431E-05 7.02576E-07-2.38852E-19-7.23072E-19
 -1       343 9.32495E-05-2.79207E-05-2.79971E-05 9.71438E-07-5.40783E-19-9.26971E-19
 -1       344 9.33906E-05-2.80353E-05-2.80093E-05 1.06127E-06-5.45204E-19-1.19194E-18
 -1       345 9.36067E-05-2.81410E-05-2.80571E-05 1.04303E-06-4.77529E-19-1.03511E-18
 -1       346 9.38375E-05-2.82275E-05-2.81192E-05 9.67291E-07-1.07672E-19-7.69043E-19
 -1       347 9.40705E-05-2.83005E-05-2.81878E-05 8.66855E-07 1.13355E-19-8.90288E-19
 -1       348 9.42936E-05-2.83610E-05-2.82575E-05 7.62938E-07 3.76875E-20-7.59523E-19
 -1       349 9.45025E-05-2.84104E-05-2.83257E-05 6.70334E-07 2.81789E-19-3.97413E-19
 -1       350 9.46983E-05-2.84508E-05-2.83921E-05 5.99931E-07 1.61003E-19-2.30061E-19
 -1       351 9.48863E-05-2.84841E-05-2.84582E-05 5.60610E-07 4.21420E-19-2.42552E-19
 -1       352 9.50753E-05-2.85126E-05-2.85267E-05 5.60853E-07 4.24615E-20-1.19041E-20
 -1       353 9.52769E-05-2.85383E-05-2.86017E-05 6.10257E-07 1.10971E-19-1.12749E-19
 -1       354 9.55057E-05-2.85632E-05-2.86887E-05 7.21127E-07 4.69490E-19-2.90156E-19
 -1       355 9.57797E-05-2.85888E-05-2.87945E-05 9.09796E-07-4.41399E-19-6.72933E-19
 -1       356 9.61392E-05-2.86166E-05-2.89358E-05 1.21854E-06-1.95651E-19-1.26710E-18
 -1       357 9.65771E-05-2.86431E-05-2.91110E-05 1.65351E-06-8.79188E-20-1.71077E-18
 -1       358 9.71386E-05-2.86671E-05-2.93397E-05 2.27263E-06-3.33642E-19-1.15525E-18
 -1       359 9.78578E-05-2.86832E-05-2.96390E-05 3.14111E-06 8.44851E-19-7.86321E-19
 -1       360 9.87722E-05-2.86845E-05-3.00275E-05 4.34354E-06 4.59635E-19-4.54058E-19
 -1       361 9.99210E-05-2.86679E-05-3.05237E-05 5.98215E-06 1.86968E-20 1.98646E-19
 -1       362 1.01347E-04-2.86508E-05-3.11394E-05 8.16126E-06 6.78669E-20-6.18335E-19
 -1       363 1.03113E-04-2.87163E-05-3.18670E-05 1.09413E-05-7.07372E-20-1.16606E-18
 -1       364 1.05356E-04-2.91183E-05-3.26593E-05 1.42317E-05-3.87584E-20-7.08258E-19
 -1       365 1.08444E-04-3.04858E-05-3.34056E-05 1.75824E-05-9.27979E-19-3.85601E-19
 -1       366 1.13292E-04-3.40761E-05-3.39536E-05 1.97715E-05-9.43988E-19-5.51545E-19
 -1       367 1.22148E-04-4.21816E-05-3.42482E-05 1.82464E-05-9.89612E-19-2.75358E-19
 -1       368 1.36728E-04-5.48065E-05-3.51084E-05 9.18314E-06-2.10011E-19 7.63435E-19
 -1       369 1.53001E-04-6.29118E-05-3.87937E-05-9.41029E-06 4.00422E-20 1.27148E-18
 -1       370 1.62919E-04-5.40520E-05-4.71032E-05-2.40405E-05 1.93155E-18 3.82753E-19
 -1       371 1.54723E-04-2.91187E-05-5.44364E-05-1.95055E-05 3.94559E-18 1.21761E-20
 -1       372 1.59868E-04-2.35217E-05-5.86896E-05 8.55227E-06-6.12511E-19-7.31519E-19
 -1       373 1.60365E-04-4.39376E-05-5.05650E-05 2.69571E-05-8.18128E-19-2.16576E-19
 -1       374 1.55146E-04-6.08610E-05-4.06958E-05 1.56889E-05-5.01549E-19 1.08965E-18
 -1       375 1.39120E-04-5.66377E-05-3.53337E-05-6.70329E-06-1.75145E-18-2.75683E-19
 -1       376 1.23986E-04-4.41371E-05-3.42202E-05-1.76129E-05-2.70642E-18-9.74134E-19
 -1       377 1.14298E-04-3.53938E-05-3.38288E-05-2.04948E-05 8.41524E-19-1.74794E-18
 -1       378 1.08535E-04-3.09648E-05-3.32454E-05-1.90647E-05 5.61686E-19-1.41936E-18
 -1       379 1.04809E-04-2.90922E-05-3.24387E-05-1.59996E-05 5.09490E-19-1.77099E-18
 -1       380 1.02079E-04-2.83694E-05-3.15724E-05-1.27118E-05 1.27027E-19-4.60817E-19
 -1       381 9.98929E-05-2.80262E-05-3.07811E-05-9.73756E-06-2.41132E-18 3.12946E-19
 -1       382 9.80761E-05-2.77060E-05-3.01394E-05-7.15257E-06-2.27131E-18-9.57516E-19
 -1       383 9.65051E-05-2.72698E-05-2.96562E-05-4.80151E-06-3.26975E-19-1.45516E-18
 -1       384 9.41462E-05-2.72807E-05-2.86324E-05 1.70640E-06 5.26665E-19 1.63559E-18
 -1       385 9.33872E-05-2.75341E-05-2.82111E-05 2.97823E-07 5.33467E-19 1.53663E-18
 -1       386 9.30412E-05-2.76756E-05-2.80086E-05-4.57921E-07 3.96879E-19 1.34298E-18
 -1       387 9.29827E-05-2.78001E-05-2.79333E-05-8.40722E-07 3.01853E-19 9.84670E-19
 -1       388 9.30966E-05-2.79174E-05-2.79333E-05-1.00089E-06 3.82178E-19 5.84423E-19
 -1       389 9.33045E-05-2.80269E-05-2.79763E-05-1.02838E-06 3.13431E-19 6.32473E-19
 -1       390 9.35550E-05-2.81261E-05-2.80415E-05-9.80063E-07 4.94164E-19 7.45083E-19
 -1       391 9.38162E-05-2.82133E-05-2.81163E-05-8.93217E-07 4.31778E-19 4.42907E-19
 -1       392 9.40698E-05-2.82880E-05-2.81929E-05-7.92733E-07 4.90073E-19 4.96674E-19
 -1       393 9.43071E-05-2.83511E-05-2.82675E-05-6.95370E-07 3.60542E-20 1.88621E-19
 -1       394 9.45261E-05-2.84041E-05-2.83385E-05-6.12440E-07 2.40380E-19 6.52332E-19
 -1       395 9.47295E-05-2.84495E-05-2.84061E-05-5.51562E-07-3.37949E-20 9.60421E-19
 -1       396 9.49230E-05-2.84900E-05-2.84715E-05-5.17775E-07-8.03942E-20 6.57149E-19
 -1       397 9.51149E-05-2.85289E-05-2.85368E-05-5.14120E-07-7.15042E-20 7.67042E-21
 -1       398 9.53143E-05-2.85702E-05-2.86044E-05-5.41722E-07 3.49296E-19 1.33011E-19
 -1       399 9.55312E-05-2.86183E-05-2.86765E-05-5.99348E-07-1.57181E-19 4.58916E-19
 -1       400 9.57751E-05-2.86783E-05-2.87553E-05-6.82388E-07-4.38187E-19 1.12773E-18
 -1       401 9.60541E-05-2.87562E-05-2.88414E-05-7.81242E-07-3.34784E-19 1.36393E-18
 -1       402 9.63728E-05-2.88585E-05-2.89344E-05-8.79137E-07 3.33009E-20 1.52227E-18
 -1       403 9.67307E-05-2.89916E-05-2.90312E-05-9.49630E-07-8.94064E-20 1.34821E-18
 -1       404 9.71185E-05-2.91605E-05-2.91257E-05-9.54367E-07 6.70942E-21 1.92969E-18
 -1       405 9.75144E-05-2.93665E-05-2.92082E-05-8.42270E-07-6.45552E-20 1.43594E-18
 -1       406 9.78801E-05-2.96026E-05-2.92652E-05-5.52113E-07-2.09813E-19 2.20698E-18
 -1       407 9.81561E-05-2.98477E-05-2.92800E-05-2.13006E-08 3.07837E-19 7.55633E-19
 -1       408 9.82591E-05-3.00588E-05-2.92352E-05 7.95998E-07-5.27423E-20 9.55202E-19
 -1       409 9.80856E-05-3.01651E-05-2.91162E-05 1.89954E-06-5.72734E-19 1.44221E-18
 -1       410 9.75248E-05-3.00702E-05-2.89163E-05 3.20546E-06-6.10910E-19 1.71368E-18
 -1       411 9.64906E-05-2.96715E-05-2.86420E-05 4.51314E-06-4.22293E-19 9.42742E-19
 -1       412 9.49733E-05-2.89054E-05-2.83164E-05 5.50216E-06 1.57926E-19 1.49344E-18
 -1       413 9.31000E-05-2.78110E-05-2.79776E-05 5.79181E-06-3.30540E-19 3.19317E-18
 -1       414 9.11684E-05-2.65791E-05-2.76726E-05 5.07717E-06-2.06746E-19 2.80841E-18
 -1       415 8.96055E-05-2.55338E-05-2.74468E-05 3.30384E-06 6.56935E-19 2.66227E-18
 -1       416 8.88255E-05-2.50144E-05-2.73335E-05 7.79460E-07 1.39811E-18 2.72993E-18
 -1       417 8.90449E-05-2.52040E-05-2.73472E-05-1.88791E-06 2.24424E-19 3.33502E-18
 -1       418 9.01721E-05-2.60266E-05-2.74811E-05-4.02664E-06-5.54037E-20 2.89839E-18
 -1       419 9.18528E-05-2.71887E-05-2.77083E-05-5.17812E-06 5.95570E-22 7.23381E-19
 -1       420 9.36378E-05-2.83355E-05-2.79871E-05-5.24695E-06 1.59222E-19 3.30800E-19
 -1       421 9.51578E-05-2.92056E-05-2.82699E-05-4.45714E-06 3.15227E-19-2.54910E-19
 -1       422 9.62114E-05-2.96933E-05-2.85149E-05-3.19021E-06 1.95712E-18-1.29116E-18
 -1       423 9.67598E-05-2.98233E-05-2.86947E-05-1.82402E-06 2.67132E-18-2.30332E-18
 -1       424 9.68732E-05-2.96883E-05-2.88002E-05-6.38195E-07 1.00309E-18-1.96145E-18
 -1       425 9.66726E-05-2.93940E-05-2.88383E-05 2.08709E-07 2.50545E-19-7.24136E-19
 -1       426 9.62873E-05-2.90307E-05-2.88265E-05 6.57237E-07-9.96498E-19 7.34553E-20
 -1       427 9.58472E-05-2.86837E-05-2.87832E-05 7.24965E-07-1.03208E-18 1.60653E-18
 -1       428 9.54985E-05-2.84646E-05-2.87273E-05 5.33134E-07-1.26493E-18 2.12842E-18
 -1       429 9.54264E-05-2.76141E-05-2.90586E-05 1.96952E-06-4.92353E-19 1.20052E-18
 -1       430 9.55184E-05-2.80949E-05-2.88920E-05 1.29750E-06-5.12364E-19-1.08089E-18
 -1       431 9.52097E-05-2.69254E-05-2.92614E-05 2.68375E-06 3.96071E-20-1.05219E-18
 -1       432 9.47861E-05-2.59502E-05-2.94994E-05 3.31390E-06 5.09622E-19-1.74271E-18
 -1       433 9.41432E-05-2.47317E-05-2.97486E-05 3.63951E-06 1.11114E-18 3.83544E-20
 -1       434 9.33321E-05-2.33874E-05-2.99801E-05 3.44404E-06-7.15507E-19 2.65493E-18
 -1       435 9.24859E-05-2.21238E-05-3.01620E-05 2.57521E-06-1.75807E-18 6.05054E-19
 -1       436 9.18086E-05-2.12092E-05-3.02659E-05 1.02692E-06-1.82099E-18-1.21770E-18
 -1       437 9.15270E-05-2.09061E-05-3.02753E-05-9.60345E-07-1.60668E-18 1.19486E-18
 -1       438 9.18102E-05-2.13792E-05-3.01927E-05-3.04665E-06-8.34399E-19 1.86161E-18
 -1       439 9.27341E-05-2.26537E-05-3.00396E-05-4.65661E-06 1.35278E-18 3.47600E-19
 -1       440 9.41781E-05-2.45438E-05-2.98419E-05-5.26319E-06 3.36124E-19 2.17287E-18
 -1       441 9.49412E-05-2.70768E-05-2.90476E-05 3.32647E-06 7.19793E-19 2.10953E-18
 -1       442 6.77987E-05-4.47002E-05-9.95811E-06 4.87933E-05-1.79920E-18 1.03100E-19
 -1       443 1.33357E-04-5.26223E-05-3.46746E-05 3.18030E-05 3.34525E-19-2.85037E-18
 -1       444 1.26421E-05-1.88902E-05 2.86968E-06 7.31039E-06-2.69595E-19-1.66071E-18
 -1       445 1.06438E-04-5.31855E-05-2.28101E-05 4.45132E-05 6.66191E-19-3.23588E-18
 -1       446 8.93417E-05-1.18580E-05-3.32805E-05-1.06855E-05-2.56610E-19-1.67989E-18
 -1       447 1.55923E-04-3.79735E-05-5.06092E-05 7.53463E-06-6.23125E-19-3.89402E-18
 -1       448 1.62144E-04-2.35707E-05-5.93438E-05 1.84504E-06 9.31842E-19-4.57133E-18
 -1       449 1.59342E-04-1.13681E-05-6.35384E-05-1.24237E-06 1.33291E-18-2.67697E-18
 -1       450 1.63650E-04-1.57447E-05-6.33004E-05 2.75579E-07 2.14702E-18-8.39939E-19
 -1       451 1.61240E-04-2.91588E-05-5.64835E-05-5.32416E-06 8.62121E-19-2.15485E-18
 -1       452 1.53197E-04-4.30058E-05-4.70792E-05-1.69026E-05 4.46889E-19-2.66847E-18
 -1       453 1.31327E-04-5.45119E-05-3.28867E-05-3.30523E-05-1.26758E-18-4.52252E-18
 -1       454 9.09121E-05-5.03684E-05-1.74300E-05-4.80977E-05 2.19487E-19-3.47172E-18
 -1       455 4.95971E-05-3.60967E-05-5.67609E-06-4.65892E-05 2.20758E-19-3.63234E-18
 -1       456 2.35520E-05-2.46655E-05 7.03776E-07-3.17527E-05 1.28961E-18-6.96685E-20
 -1       457 1.09809E-05-2.25429E-05 4.80977E-06-1.41553E-06 3.76354E-19 1.94405E-18
 -1       458 2.34294E-05-2.87818E-05 2.05647E-06 2.18242E-05 5.66083E-19 3.08288E-18
 -1       459 6.55170E-05-4.72827E-05-8.13141E-06 3.85582E-05 1.82536E-18 1.57797E-18
 -1       460 1.11021E-04-6.24296E-05-2.10984E-05 3.54184E-05 1.35218E-18 2.17920E-18
 -1       461 1.57211E-04-6.77591E-05-3.84234E-05 1.10220E-05 1.58040E-18-1.41984E-19
 -1       462 1.77117E-04-3.17910E-05-6.19422E-05-1.60208E-05 2.99956E-18-3.77459E-19
 -1       463 1.80515E-04-3.02989E-05-6.36352E-05 1.08123E-05-8.98278E-19-1.00426E-18
 -1       464 1.82828E-04-4.73630E-05-5.74169E-05 9.58546E-06 1.89524E-20-1.27055E-18
 -1       465 1.65126E-04-6.44017E-05-4.32593E-05-5.72524E-06 7.98593E-19 7.42954E-19
 -1       466 1.33080E-04-6.50916E-05-2.93156E-05-2.78859E-05-9.71441E-19-1.32762E-18
 -1       467 9.53188E-05-5.80144E-05-1.62058E-05-4.00759E-05-1.22852E-18-1.01301E-18
 -1       468 4.93995E-05-4.15981E-05-3.74171E-06-3.65282E-05 8.16434E-19 1.99810E-18
 -1       469 2.19876E-05-2.69173E-05 2.11537E-06-2.01260E-05-1.74859E-19-6.80909E-19
 -1       470 2.76211E-05-2.72607E-05 3.07285E-08 3.41365E-05-6.54333E-19 6.37604E-19
 -1       471 1.47692E-04-5.22715E-05-4.10307E-05 8.83050E-06 1.42699E-19-4.10763E-18
 -1       472 5.44921E-05-3.33133E-05-8.59828E-06 4.55593E-05-1.70513E-18 1.18161E-19
 -1       473 5.10786E-05-3.26527E-05-7.49991E-06 3.58002E-05 7.06161E-19 1.32169E-18
 -1       474 1.41603E-04-5.66234E-06-5.87829E-05 1.05783E-06-1.58819E-19 1.71177E-18
 -1       475 1.75708E-04-5.71934E-05-5.07356E-05-6.10086E-06 1.49434E-18 4.32410E-19
 -1       476 1.92480E-04-2.54744E-05-6.98685E-05 4.12372E-07 1.00246E-18-3.45355E-18
 -1       477 8.95419E-05-1.34013E-05-3.26505E-05-3.92463E-06 3.17251E-19-1.33938E-18
 -1       478 9.02482E-05-1.43633E-05-3.25422E-05-5.88214E-06 1.35201E-19-1.54612E-18
 -1       479 8.90448E-05-1.27214E-05-3.27278E-05 5.46879E-08 7.73109E-19-1.02767E-18
 -1       480 8.91798E-05-1.29047E-05-3.27074E-05 2.04578E-06 9.27129E-19-9.70857E-19
 -1       481 8.95743E-05-1.34420E-05-3.26473E-05 3.99834E-06 1.09522E-18-8.50030E-19
 -1       482 9.02978E-05-1.44285E-05-3.25364E-05 5.95137E-06 1.29450E-18-4.20657E-19
 -1       483 9.14499E-05-1.60127E-05-3.23534E-05 7.77731E-06 1.32746E-18-1.45885E-19
 -1       484 9.31717E-05-1.84344E-05-3.20509E-05 9.22495E-06 1.24225E-18 2.25362E-19
 -1       485 9.53103E-05-2.18879E-05-3.14783E-05 9.54926E-06 1.00580E-18 9.33457E-19
 -1       486 9.63570E-05-2.46205E-05-3.07329E-05 8.03585E-06 8.92756E-19 1.71523E-18
 -1       487 9.54885E-05-2.44422E-05-3.04399E-05-5.83374E-06-5.34254E-19-9.94731E-19
 -1       488 9.52740E-05-2.62285E-05-2.95837E-05-2.89646E-06-4.81742E-19-7.62149E-19
 -1       489 9.49179E-05-2.71612E-05-2.90346E-05-1.03119E-06-5.28849E-19-5.66464E-19
 -1       490 9.46420E-05-2.76919E-05-2.86913E-05 9.29043E-08-5.33777E-19-7.08777E-19
 -1       491 9.44865E-05-2.80176E-05-2.84861E-05 7.30052E-07-4.94577E-19-8.44639E-19
 -1       492 9.44328E-05-2.82282E-05-2.83733E-05 1.05133E-06-6.77377E-19-5.27370E-19
 -1       493 9.44535E-05-2.83733E-05-2.83202E-05 1.17449E-06-1.74052E-19 1.12896E-19
 -1       494 9.45179E-05-2.84632E-05-2.83094E-05 1.16903E-06-4.23782E-19 5.44761E-21
 -1       495 9.46069E-05-2.85204E-05-2.83231E-05 1.09836E-06-1.28121E-19-1.01753E-19
 -1       496 9.47069E-05-2.85536E-05-2.83517E-05 9.99089E-07-6.24269E-20-4.02275E-19
 -1       497 9.48103E-05-2.85687E-05-2.83896E-05 8.96895E-07 1.21763E-19-4.88473E-19
 -1       498 9.49138E-05-2.85698E-05-2.84334E-05 8.10304E-07 8.38850E-20-1.16892E-18
 -1       499 9.50168E-05-2.85593E-05-2.84819E-05 7.53447E-07 2.43305E-19-7.85887E-19
 -1       500 9.51211E-05-2.85383E-05-2.85355E-05 7.38305E-07-1.42765E-19-1.25930E-18
 -1       501 9.52299E-05-2.85063E-05-2.85957E-05 7.76620E-07 2.06772E-19-9.35761E-19
 -1       502 9.53472E-05-2.84609E-05-2.86653E-05 8.81655E-07 1.45064E-19-6.75165E-19
 -1       503 9.54770E-05-2.83976E-05-2.87478E-05 1.06963E-06-1.42263E-19-1.10359E-18
 -1       504 9.56291E-05-2.83024E-05-2.88535E-05 1.38089E-06-7.66205E-20-5.06936E-19
 -1       505 9.57888E-05-2.81706E-05-2.89779E-05 1.81687E-06-1.05574E-18-7.62574E-20
 -1       506 9.59569E-05-2.79795E-05-2.91313E-05 2.42816E-06-3.17908E-19-8.74655E-19
 -1       507 9.61168E-05-2.77004E-05-2.93187E-05 3.26729E-06 9.34445E-21-9.48586E-19
 -1       508 9.62367E-05-2.72958E-05-2.95424E-05 4.40035E-06 6.29948E-19-2.18387E-18
 -1       509 9.62630E-05-2.67230E-05-2.97978E-05 5.90685E-06 2.53119E-19-2.79240E-18
 -1       510 9.61194E-05-2.59490E-05-3.00664E-05 7.87417E-06 1.91572E-19-2.37426E-18
 -1       511 9.57209E-05-2.49939E-05-3.03037E-05 1.03841E-05-1.92924E-19-1.58026E-18
 -1       512 9.50351E-05-2.40327E-05-3.04210E-05 1.34889E-05-1.64517E-19-8.80384E-19
 -1       513 9.42477E-05-2.36017E-05-3.02663E-05 1.71766E-05 2.51186E-20-2.27968E-19
 -1       514 9.40786E-05-2.49064E-05-2.96235E-05 2.13669E-05-7.66745E-19-1.51080E-19
 -1       515 9.71860E-05-3.09657E-05-2.83259E-05 2.54718E-05-8.81735E-19-3.85182E-19
 -1       516 1.07158E-04-4.42913E-05-2.67153E-05 2.80626E-05-7.91949E-19 3.03099E-19
 -1       517 9.85816E-05-5.31570E-05-1.92579E-05 4.50411E-05-1.05953E-18-1.59640E-18
 -1       518 9.84493E-05-3.30531E-05-2.79376E-05-2.70156E-05-1.07931E-18 2.17492E-18
 -1       519 9.43564E-05-2.60293E-05-2.92630E-05-2.33728E-05 9.65805E-19 2.10893E-18
 -1       520 9.38723E-05-2.38578E-05-2.99942E-05-1.93085E-05 7.44893E-19 1.11160E-18
 -1       521 9.43858E-05-2.38501E-05-3.02210E-05-1.55858E-05-9.84551E-19 4.23091E-19
 -1       522 9.49230E-05-2.45159E-05-3.01667E-05-1.23242E-05-1.41469E-18-1.67314E-18
 -1       523 9.51383E-05-2.50967E-05-3.00097E-05-9.51442E-06-1.51937E-18-1.53468E-18
 -1       524 9.45843E-05-2.49038E-05-2.98561E-05-7.33313E-06-2.07792E-18 1.26132E-19
 -1       525 9.43827E-05-2.78492E-05-2.85130E-05-4.52337E-07 5.38760E-19 3.45098E-19
 -1       526 9.46184E-05-2.74685E-05-2.87751E-05 4.06098E-07 5.98535E-19 4.45783E-19
 -1       527 9.50003E-05-2.68228E-05-2.92149E-05 1.89044E-06 6.86768E-19 6.02225E-19
 -1       528 9.42808E-05-2.80921E-05-2.83661E-05-9.14414E-07 5.06424E-19 2.24169E-19
 -1       529 9.42771E-05-2.82553E-05-2.82951E-05-1.12375E-06 5.09750E-19 2.36915E-19
 -1       530 9.43368E-05-2.83673E-05-2.82729E-05-1.17623E-06 3.29058E-19-1.03586E-19
 -1       531 9.44326E-05-2.84437E-05-2.82813E-05-1.13688E-06 2.26401E-19 7.07001E-20
 -1       532 9.45459E-05-2.84941E-05-2.83083E-05-1.05017E-06 4.51733E-19 3.58418E-19
 -1       533 9.46648E-05-2.85251E-05-2.83459E-05-9.46675E-07 2.50527E-19 4.62418E-19
 -1       534 9.47831E-05-2.85417E-05-2.83894E-05-8.47385E-07 1.61304E-19 8.36087E-19
 -1       535 9.48985E-05-2.85479E-05-2.84362E-05-7.66723E-07 3.47429E-19 2.88313E-19
 -1       536 9.50120E-05-2.85470E-05-2.84851E-05-7.14519E-07 6.54950E-20-2.93348E-19
 -1       537 9.51265E-05-2.85425E-05-2.85360E-05-6.97259E-07 9.82394E-20 2.01489E-19
 -1       538 9.52472E-05-2.85383E-05-2.85894E-05-7.18665E-07 1.61938E-19 1.97531E-19
 -1       539 9.53803E-05-2.85392E-05-2.86460E-05-7.79626E-07 1.66094E-19 3.23813E-19
 -1       540 9.55338E-05-2.85517E-05-2.87064E-05-8.77450E-07-9.27261E-19 5.54676E-19
 -1       541 9.57167E-05-2.85849E-05-2.87705E-05-1.00439E-06-5.33562E-19 3.61958E-19
 -1       542 9.59393E-05-2.86508E-05-2.88377E-05-1.14544E-06-4.12797E-19 2.39973E-19
 -1       543 9.62126E-05-2.87652E-05-2.89059E-05-1.27550E-06-1.07564E-19 1.02599E-18
 -1       544 9.65472E-05-2.89467E-05-2.89718E-05-1.35631E-06-2.57115E-19 1.25683E-18
 -1       545 9.69514E-05-2.92149E-05-2.90305E-05-1.33396E-06-5.70511E-19 1.50995E-18
 -1       546 9.74271E-05-2.95843E-05-2.90766E-05-1.13856E-06 1.79712E-19 2.05085E-18
 -1       547 9.79619E-05-3.00551E-05-2.91049E-05-6.88768E-07 5.99646E-19 8.78965E-19
 -1       548 9.85191E-05-3.05971E-05-2.91122E-05 9.50280E-08-3.04463E-20 1.16587E-18
 -1       549 9.90229E-05-3.11308E-05-2.91000E-05 1.26436E-06-5.30390E-19 1.07257E-18
 -1       550 9.93484E-05-3.15114E-05-2.90767E-05 2.80019E-06-4.37230E-19 8.53088E-19
 -1       551 9.93255E-05-3.15330E-05-2.90571E-05 4.55813E-06-2.88714E-19 8.79622E-19
 -1       552 9.87791E-05-3.09772E-05-2.90597E-05 6.22069E-06-7.82938E-19 1.17173E-18
 -1       553 9.76206E-05-2.97238E-05-2.90979E-05 7.30117E-06-1.40501E-18 7.06823E-19
 -1       554 9.59675E-05-2.78952E-05-2.91703E-05 7.25727E-06 1.80297E-19 1.82192E-18
 -1       555 9.42151E-05-2.59414E-05-2.92547E-05 5.73022E-06 1.94218E-20 1.58741E-18
 -1       556 9.29498E-05-2.45384E-05-2.93126E-05 2.82559E-06 8.33703E-20 2.91793E-18
 -1       557 9.26648E-05-2.42564E-05-2.93115E-05-7.81916E-07 9.39128E-19 3.08780E-18
 -1       558 9.34649E-05-2.52172E-05-2.92435E-05-4.08985E-06 7.39164E-19 3.03595E-18
 -1       559 9.49982E-05-2.70150E-05-2.91316E-05-6.22977E-06 1.12432E-18 2.09168E-18
 -1       560 9.66712E-05-2.89649E-05-2.90154E-05-6.84082E-06 1.09751E-20 2.73959E-18
 -1       561 9.79763E-05-3.04829E-05-2.89265E-05-6.11669E-06 1.21668E-18 2.30438E-18
 -1       562 9.86717E-05-3.12972E-05-2.88775E-05-4.56742E-06 1.82178E-18 6.25648E-19
 -1       563 9.87668E-05-3.14302E-05-2.88621E-05-2.74626E-06 2.92740E-18-3.07565E-19
 -1       564 9.84132E-05-3.10680E-05-2.88657E-05-1.07706E-06 1.48780E-18-5.18173E-19
 -1       565 9.77947E-05-3.04287E-05-2.88739E-05 1.94336E-07-4.30173E-19-4.94585E-20
 -1       566 9.70650E-05-2.96878E-05-2.88773E-05 9.71489E-07-1.35527E-20 1.09770E-18
 -1       567 9.63350E-05-2.89735E-05-2.88689E-05 1.25993E-06-1.15216E-18 1.78718E-18
 -1       568 9.58844E-05-2.77322E-05-2.92060E-05 3.94515E-06 2.13584E-18-1.27486E-18
 -1       569 9.61775E-05-2.83063E-05-2.90852E-05 2.96781E-06-7.99965E-19 7.51207E-19
 -1       570 9.61806E-05-2.85927E-05-2.89651E-05 2.01174E-06-3.22435E-19 3.50169E-19
 -1       571 2.95393E-05-1.40900E-05-5.91602E-06 2.27251E-05-3.76665E-20-3.39872E-19
 -1       572 9.51854E-05-2.67702E-05-2.93205E-05 4.72360E-06 1.27271E-18-1.86641E-18
 -1       573 9.40674E-05-2.54377E-05-2.94139E-05 4.98690E-06 3.71241E-19 2.34658E-19
 -1       574 9.26553E-05-2.38756E-05-2.94796E-05 4.44443E-06-1.57391E-18 1.89475E-18
 -1       575 9.12373E-05-2.23628E-05-2.95213E-05 2.92943E-06-2.02765E-18 4.84035E-19
 -1       576 9.02318E-05-2.12860E-05-2.95526E-05 5.72979E-07-1.43586E-18 9.96641E-19
 -1       577 9.00133E-05-2.09693E-05-2.95938E-05-2.31699E-06-1.17405E-18 1.07782E-18
 -1       578 9.08972E-05-2.16758E-05-2.96699E-05-5.06322E-06-1.67584E-18 2.58187E-18
 -1       579 9.24737E-05-2.30355E-05-2.97607E-05-6.70339E-06-1.11502E-18 1.05447E-18
 -1       580 9.45886E-05-2.06852E-05-3.16905E-05-9.58981E-06-6.39705E-19-1.14831E-18
 -1       581 3.00484E-05-1.12401E-05-7.37984E-06-1.14523E-05-2.13161E-19-1.46558E-18
 -1       582 4.54736E-05-2.34829E-05-8.75103E-06-3.00908E-05-3.97047E-20 1.59925E-18
 -1       583 1.42121E-04-6.72333E-05-3.19233E-05 1.35299E-05 5.60524E-19-2.79389E-19
 -1       584 8.24491E-05-4.54130E-05-1.55098E-05-4.84322E-05 9.71970E-20-2.88494E-18
 -1       585 1.42117E-04-1.88600E-05-5.34010E-05 8.88638E-06 1.51937E-18 1.19527E-18
 -1       586 1.27823E-04-6.09335E-05-2.86671E-05 3.04573E-05 5.47977E-19-4.28660E-18
 -1       587 1.11193E-04-4.84305E-05-2.65346E-05-2.88560E-05-1.94553E-18 7.06128E-19
 -1       588 1.41712E-04-6.72405E-05-3.18812E-05-1.38818E-05-2.13526E-18 5.30216E-19
 -1       589 8.91601E-05-1.28798E-05-3.27095E-05-1.93713E-06 5.41038E-19-1.14690E-18
 -1       590 1.40255E-04-2.89327E-05-4.83170E-05-1.02380E-05 8.73503E-21-1.18193E-18
 -1       591 1.20035E-04-5.93899E-05-2.58950E-05-3.59198E-05-7.05737E-19-3.26153E-18
 -1       592 1.33722E-04-1.25771E-05-5.26462E-05-9.74715E-06 1.15419E-18 9.78350E-19
 -1       593 1.46381E-04-3.84804E-05-4.66695E-05 4.13486E-06 4.28175E-19-1.57204E-18
 -1       594 9.93678E-05-5.18004E-05-1.99914E-05 3.64505E-05 2.74862E-19 1.12925E-18
 -1       595 1.43276E-04-5.48880E-05-3.80255E-05-1.18202E-05-1.22328E-18-2.63803E-18
 -1       596 4.55876E-05-2.43009E-05-8.51537E-06-3.97316E-05 1.06901E-18-1.24471E-18
 -1       597 2.32018E-05-1.19897E-05-4.15818E-06-1.52917E-05 6.36439E-19 2.73062E-19
 -1       598 2.67471E-05-1.46225E-05-4.49459E-06 1.32612E-05 5.59465E-19 3.46616E-18
 -1       599 8.06486E-05-4.49239E-05-1.49624E-05-3.87762E-05-9.96428E-19 1.19755E-18
 -1       600 9.13325E-05-1.58286E-05-3.23803E-05-7.76913E-06-2.11646E-19-1.59717E-18
 -1       601 9.55621E-05-2.58447E-05-2.98569E-05 4.93056E-06 8.47134E-19 1.30965E-18
 -1       602 1.39691E-04-4.19411E-05-4.22060E-05-7.49186E-06-1.48231E-20-1.17965E-18
 -1       603 4.80150E-05-2.08067E-05-1.10978E-05 3.43658E-05 4.10096E-19 1.37113E-19
 -1       604 9.51794E-05-2.63893E-05-2.94689E-05 3.20759E-06 7.19179E-19 1.03797E-18
 -1       605 8.16244E-05-4.25524E-05-1.63444E-05 4.56829E-05-2.66392E-18 7.09522E-19
 -1       606 1.28475E-04-8.88820E-06-5.18714E-05 7.55059E-06 1.15106E-18 6.98855E-19
 -1       607 9.15551E-05-1.68491E-05-3.20226E-05 2.44021E-06 9.56705E-19-6.79944E-19
 -1       608 9.12971E-05-1.64475E-05-3.20838E-05 8.40931E-07 7.84883E-19-8.38832E-19
 -1       609 9.28871E-05-1.89937E-05-3.16749E-05 5.26810E-06 1.24214E-18-3.60712E-19
 -1       610 9.39824E-05-2.08976E-05-3.13292E-05 6.20336E-06 1.10626E-18-7.14225E-20
 -1       611 9.54981E-05-2.42102E-05-3.05397E-05 6.25543E-06 9.16144E-19 6.75685E-19
 -1       612 9.50327E-05-2.36549E-05-3.05895E-05-4.74064E-06-3.67101E-19-1.08452E-18
 -1       613 7.52718E-05-3.10221E-05-1.85387E-05 3.27034E-05-3.38800E-19-2.95800E-19
 -1       614 1.15019E-04-5.64454E-05-2.49484E-05 3.32854E-05-8.13496E-19-2.80026E-18
 -1       615 9.54162E-05-2.57070E-05-2.98733E-05-2.43705E-06-3.55631E-19-9.84746E-19
 -1       616 9.54757E-05-2.69443E-05-2.93698E-05-8.65961E-07-5.66567E-19-9.46241E-19
 -1       617 9.54207E-05-2.77034E-05-2.90215E-05 1.37867E-07-3.39123E-19-7.49314E-19
 -1       618 9.53451E-05-2.81738E-05-2.87877E-05 7.29483E-07-2.43401E-19-4.89334E-19
 -1       619 9.52793E-05-2.84729E-05-2.86313E-05 1.04606E-06-3.62655E-19-3.46823E-19
 -1       620 9.52361E-05-2.86372E-05-2.85425E-05 1.15875E-06-4.92321E-19-7.70628E-19
 -1       621 9.52114E-05-2.87241E-05-2.84947E-05 1.15953E-06-4.40508E-19-8.89349E-19
 -1       622 9.52008E-05-2.87578E-05-2.84757E-05 1.09873E-06-1.03795E-19-9.98766E-19
 -1       623 9.52004E-05-2.87546E-05-2.84769E-05 1.01254E-06-4.71361E-19-1.27502E-18
 -1       624 9.52069E-05-2.87248E-05-2.84924E-05 9.27081E-07-4.64451E-19-1.22707E-18
 -1       625 9.52179E-05-2.86745E-05-2.85187E-05 8.61656E-07 9.03752E-20-1.36731E-18
 -1       626 9.52313E-05-2.86061E-05-2.85537E-05 8.31383E-07 2.76656E-20-1.49897E-18
 -1       627 9.52446E-05-2.85188E-05-2.85967E-05 8.49335E-07 4.58696E-19-6.95197E-19
 -1       628 9.52544E-05-2.84085E-05-2.86482E-05 9.28287E-07-9.23758E-20-1.01072E-18
 -1       629 9.52553E-05-2.82675E-05-2.87090E-05 1.08205E-06-3.30288E-19-1.46387E-18
 -1       630 9.52357E-05-2.80716E-05-2.87844E-05 1.34265E-06-2.85693E-19-1.01691E-18
 -1       631 9.51798E-05-2.78189E-05-2.88687E-05 1.70684E-06-4.54986E-20-1.36499E-18
 -1       632 9.50611E-05-2.74741E-05-2.89654E-05 2.20923E-06-6.74106E-19-3.50443E-19
 -1       633 9.48352E-05-2.69976E-05-2.90726E-05 2.88068E-06-3.42584E-19 2.48944E-20
 -1       634 9.44348E-05-2.63374E-05-2.91837E-05 3.75659E-06-7.32147E-19 1.14739E-20
 -1       635 9.37596E-05-2.54300E-05-2.92828E-05 4.87572E-06-3.30047E-19-1.12933E-18
 -1       636 9.26685E-05-2.42089E-05-2.93382E-05 6.27771E-06-2.90056E-19-1.75600E-18
 -1       637 9.09784E-05-2.26299E-05-2.92902E-05 8.00269E-06-3.86281E-19-2.92887E-18
 -1       638 8.84825E-05-2.07313E-05-2.90339E-05 1.01027E-05 4.71494E-19-2.86066E-18
 -1       639 8.50145E-05-1.87542E-05-2.83924E-05 1.26882E-05 5.28978E-20-3.22643E-18
 -1       640 8.05962E-05-1.73557E-05-2.70850E-05 1.60882E-05-2.42195E-19-3.07348E-18
 -1       641 7.54868E-05-1.78585E-05-2.45735E-05 2.13522E-05-3.91895E-19-1.76480E-18
 -1       642 7.99518E-05-1.77596E-05-2.66202E-05-1.83706E-05-1.27417E-19 1.40275E-18
 -1       643 8.43957E-05-1.86702E-05-2.81596E-05-1.47830E-05-9.91521E-19 2.73270E-19
 -1       644 8.80291E-05-2.03912E-05-2.89875E-05-1.20267E-05-1.29401E-18-1.31490E-18
 -1       645 9.06211E-05-2.19670E-05-2.94216E-05-9.73648E-06-2.32042E-18 8.06960E-19
 -1       646 9.16992E-05-2.26376E-05-2.95929E-05-8.15542E-06-1.87170E-18-4.70567E-20
 -1       647 9.53595E-05-2.73696E-05-2.91379E-05 3.33003E-07 4.58848E-19-1.39532E-19
 -1       648 9.52673E-05-2.79438E-05-2.88527E-05-4.66639E-07 5.83854E-19-2.05472E-19
 -1       649 9.54171E-05-2.64360E-05-2.95614E-05 1.64225E-06 7.12103E-19-2.06218E-19
 -1       650 9.51404E-05-2.85159E-05-2.85534E-05-1.12238E-06 4.09121E-19-3.09897E-19
 -1       651 9.51152E-05-2.86406E-05-2.84892E-05-1.18035E-06 2.23811E-19 5.53620E-20
 -1       652 9.51089E-05-2.87035E-05-2.84596E-05-1.14872E-06 8.97825E-20 1.88967E-19
 -1       653 9.51155E-05-2.87241E-05-2.84536E-05-1.07141E-06 3.03217E-19 6.54055E-20
 -1       654 9.51306E-05-2.87155E-05-2.84637E-05-9.79446E-07 2.10327E-19 3.65369E-20
 -1       655 9.51512E-05-2.86870E-05-2.84848E-05-8.94599E-07 1.96922E-19 3.31772E-20
 -1       656 9.51761E-05-2.86450E-05-2.85134E-05-8.32098E-07 5.39314E-19 2.58564E-19
 -1       657 9.52054E-05-2.85946E-05-2.85475E-05-8.02522E-07-1.69477E-19 4.09381E-19
 -1       658 9.52408E-05-2.85405E-05-2.85858E-05-8.12962E-07-1.69611E-19 5.12742E-19
 -1       659 9.52855E-05-2.84879E-05-2.86275E-05-8.67514E-07 7.89207E-20 7.21692E-19
 -1       660 9.53454E-05-2.84442E-05-2.86719E-05-9.67066E-07-4.51807E-19 1.19939E-18
 -1       661 9.54290E-05-2.84203E-05-2.87179E-05-1.10837E-06-6.03257E-19 1.06103E-18
 -1       662 9.55491E-05-2.84318E-05-2.87645E-05-1.28231E-06-5.69433E-19 1.09068E-18
 -1       663 9.57238E-05-2.85012E-05-2.88096E-05-1.47134E-06-4.26628E-19 6.70034E-19
 -1       664 9.59771E-05-2.86578E-05-2.88511E-05-1.64617E-06-3.62712E-19 5.89227E-19
 -1       665 9.63396E-05-2.89375E-05-2.88867E-05-1.76196E-06 1.90634E-19 9.44160E-19
 -1       666 9.68458E-05-2.93780E-05-2.89151E-05-1.75485E-06-3.53096E-19 6.40499E-19
 -1       667 9.75278E-05-3.00087E-05-2.89373E-05-1.54042E-06 3.96580E-19 6.26765E-19
 -1       668 9.84015E-05-3.08313E-05-2.89595E-05-1.01710E-06 1.11239E-18 7.79340E-19
 -1       669 9.94431E-05-3.17910E-05-2.89950E-05-8.00594E-08 2.55125E-19 2.73300E-20
 -1       670 1.00558E-04-3.27393E-05-2.90664E-05 1.34642E-06-3.20476E-19-3.38763E-19
 -1       671 1.01547E-04-3.34059E-05-2.92049E-05 3.24956E-06-5.17269E-19-5.21320E-19
 -1       672 1.02110E-04-3.34110E-05-2.94432E-05 5.44124E-06-1.11232E-18-7.90414E-19
 -1       673 1.01907E-04-3.23715E-05-2.98011E-05 7.46846E-06-7.78422E-19 7.28052E-20
 -1       674 1.00757E-04-3.01410E-05-3.02623E-05 8.61121E-06-8.15033E-19-1.49554E-19
 -1       675 9.88588E-05-2.70848E-05-3.07573E-05 8.09231E-06-9.48642E-19 9.18552E-19
 -1       676 9.69159E-05-2.41861E-05-3.11678E-05 5.50397E-06-7.70269E-19 1.34970E-18
 -1       677 9.58736E-05-2.26930E-05-3.13611E-05 1.29933E-06 8.24406E-19 1.64253E-18
 -1       678 9.62832E-05-2.33184E-05-3.12696E-05-3.23442E-06 5.46950E-19 2.16427E-18
 -1       679 9.79216E-05-2.57730E-05-3.09197E-05-6.61764E-06 4.48832E-19 1.76355E-18
 -1       680 9.99350E-05-2.89454E-05-3.04232E-05-7.98034E-06-6.23751E-19 2.68732E-18
 -1       681 1.01440E-04-3.16357E-05-2.99154E-05-7.40338E-06 7.91776E-19 2.38150E-18
 -1       682 1.02012E-04-3.31942E-05-2.94935E-05-5.57525E-06 2.46468E-18 2.11851E-18
 -1       683 1.01680E-04-3.35557E-05-2.91975E-05-3.29970E-06 2.38309E-18 3.15125E-18
 -1       684 1.00739E-04-3.30234E-05-2.90226E-05-1.18250E-06 2.28245E-18 4.55817E-18
 -1       685 9.95168E-05-3.19897E-05-2.89414E-05 4.49854E-07 1.51468E-18 4.24491E-18
 -1       686 9.82583E-05-3.07750E-05-2.89221E-05 1.48382E-06-7.08685E-19 1.73608E-18
 -1       687 9.71532E-05-2.96320E-05-2.89383E-05 1.99778E-06-9.64279E-19 2.45845E-18
 -1       688 9.54240E-05-2.77261E-05-2.90136E-05 6.19804E-06 1.73941E-18-1.44312E-18
 -1       689 9.74053E-05-2.97419E-05-2.89978E-05 3.20364E-06-7.88731E-20 1.39111E-19
 -1       690 9.66740E-05-2.89046E-05-2.90440E-05 5.22669E-06 8.11360E-19-2.72931E-18
 -1       691 9.11576E-05-2.38209E-05-2.88599E-05 5.40999E-06-1.08925E-18-3.00453E-20
 -1       692 8.90370E-05-2.18152E-05-2.88107E-05 3.13711E-06-2.00627E-18 4.82360E-19
 -1       693 8.77689E-05-2.04543E-05-2.88516E-05-2.84487E-07-2.61778E-18 1.32844E-18
 -1       694 8.80094E-05-2.02801E-05-2.90296E-05-4.14469E-06-1.63644E-18 8.09523E-19
 -1       695 5.34183E-05-1.54762E-05-1.57271E-05-2.26838E-05-4.84397E-19 6.09017E-19
 -1       696 7.22860E-05-3.36882E-05-1.61550E-05-4.19999E-05 7.11825E-19-2.02507E-18
 -1       697 5.14011E-05-1.47814E-05-1.51542E-05 2.14629E-05 4.57993E-19 1.30925E-18
 -1       698 7.62809E-05-3.16609E-05-1.86553E-05-3.42891E-05-4.65339E-20 1.96361E-18
 -1       699 1.04712E-04-5.14172E-05-2.25970E-05-3.81004E-05-6.95705E-19-1.85015E-18
 -1       700 4.11886E-05-8.02294E-06-1.36971E-05 6.24821E-06-9.79812E-20-2.07708E-19
 -1       701 1.31197E-04-2.82205E-05-4.45519E-05 1.27513E-05 1.51312E-18 2.10764E-18
 -1       702 1.26406E-04-2.12803E-05-4.55071E-05-1.26014E-05-5.43266E-19-2.23430E-18
 -1       703 1.38765E-04-4.74362E-05-3.93972E-05 3.20273E-06-2.26555E-19-9.41318E-19
 -1       704 1.31867E-04-5.84411E-05-3.15864E-05-1.69160E-05-2.05139E-18-2.35907E-18
 -1       705 9.20789E-05-1.76755E-05-3.18932E-05 3.94974E-06 1.14745E-18-4.24215E-19
 -1       706 9.20391E-05-1.76202E-05-3.18995E-05-3.89702E-06 1.16149E-19-1.25154E-18
 -1       707 3.83507E-05-7.66078E-06-1.25404E-05 2.30149E-06 1.61689E-18 1.97809E-18
 -1       708 1.22180E-04-6.47585E-06-5.01928E-05-2.19050E-06 1.55642E-19-4.44325E-19
 -1       709 4.09160E-05-1.32451E-05-1.13310E-05-2.48493E-05 1.09099E-18-2.39604E-19
 -1       710 9.34877E-05-2.59550E-05-2.89436E-05 6.38922E-06-9.58728E-21-2.91321E-19
 -1       711 9.72230E-05-2.94864E-05-2.90294E-05 4.24067E-06-7.84180E-19 1.47578E-18
 -1       712 9.51903E-05-2.82994E-05-2.86675E-05-9.13040E-07 5.70257E-19-3.67016E-19
 -1       713 7.54818E-05-1.91945E-05-2.39854E-05-2.33679E-05-8.28242E-19 2.16717E-18
 -1       714 1.37338E-04-5.74637E-05-3.43105E-05 9.14094E-06 1.15081E-18-2.32161E-18
 -1       715 9.12901E-05-1.64381E-05-3.20848E-05-7.83392E-07 4.42073E-19-9.33906E-19
 -1       716 1.28622E-04-3.21843E-05-4.15952E-05-1.25719E-05-1.12056E-18-2.17227E-18
 -1       717 6.10873E-05-2.17218E-05-1.65378E-05-3.24986E-05 1.67458E-18-1.36539E-18
 -1       718 1.19863E-04-5.51625E-05-2.76753E-05-2.36776E-05-1.41813E-18-9.62438E-19
 -1       719 6.93073E-05-3.00804E-05-1.64273E-05 3.85914E-05 1.19069E-18-1.26240E-18
 -1       720 9.40848E-05-2.09033E-05-3.13703E-05-6.99127E-06-3.40381E-19-1.13273E-18
 -1       721 8.95451E-05-2.11737E-05-2.93006E-05-6.49840E-06-1.99951E-18 3.15489E-18
 -1       722 9.53204E-05-2.48923E-05-3.01774E-05 3.62547E-06 8.65965E-19 3.14073E-20
 -1       723 9.28527E-05-1.89081E-05-3.16972E-05-5.28824E-06-1.45995E-19-1.42447E-18
 -1       724 1.16386E-04-1.19822E-05-4.51083E-05-8.15458E-06-1.06575E-18-2.84178E-18
 -1       725 4.86842E-05-1.57316E-05-1.36613E-05 2.58479E-05 1.40379E-18 1.11901E-18
 -1       726 1.21142E-04-1.79084E-05-4.46270E-05 1.24263E-05 6.50098E-19 8.35386E-20
 -1       727 9.15325E-05-1.68179E-05-3.20260E-05-2.38008E-06 3.36048E-19-1.03711E-18
 -1       728 9.46312E-05-2.27152E-05-3.08237E-05 3.90913E-06 9.61478E-19-3.95608E-19
 -1       729 9.85902E-05-4.58237E-05-2.23884E-05 3.57798E-05-8.41898E-19-1.55320E-18
 -1       730 9.55768E-05-2.55127E-05-3.00281E-05-1.80209E-06-3.13824E-19-1.06159E-18
 -1       731 9.58700E-05-2.68822E-05-2.95662E-05-5.79242E-07-3.15870E-19-8.08257E-19
 -1       732 9.59626E-05-2.77692E-05-2.92258E-05 2.25731E-07-3.12377E-19-7.80060E-19
 -1       733 9.59493E-05-2.83482E-05-2.89719E-05 7.24927E-07-2.56380E-19-1.01760E-18
 -1       734 9.58863E-05-2.86738E-05-2.88054E-05 9.67185E-07-5.77824E-19-9.75926E-19
 -1       735 9.58043E-05-2.88518E-05-2.86939E-05 1.05924E-06-5.24749E-19-8.21420E-19
 -1       736 9.57172E-05-2.89286E-05-2.86237E-05 1.05850E-06-3.78911E-19-5.31288E-19
 -1       737 9.56324E-05-2.89358E-05-2.85843E-05 1.00821E-06-3.90476E-19-5.74946E-19
 -1       738 9.55526E-05-2.88946E-05-2.85677E-05 9.40207E-07-3.24670E-19-3.80796E-19
 -1       739 9.54776E-05-2.88180E-05-2.85684E-05 8.77847E-07-1.78758E-20-5.91485E-19
 -1       740 9.54050E-05-2.87129E-05-2.85823E-05 8.38660E-07-3.07642E-19-6.06193E-19
 -1       741 9.53303E-05-2.85809E-05-2.86069E-05 8.36452E-07 3.74301E-19-6.85338E-19
 -1       742 9.52463E-05-2.84188E-05-2.86404E-05 8.82941E-07 1.80149E-19-6.38473E-19
 -1       743 9.51426E-05-2.82186E-05-2.86817E-05 9.88886E-07-1.74678E-19 4.11015E-19
 -1       744 9.49946E-05-2.79520E-05-2.87325E-05 1.17611E-06-1.11365E-19 7.66607E-19
 -1       745 9.47911E-05-2.76224E-05-2.87865E-05 1.43830E-06-4.43569E-19 6.87925E-19
 -1       746 9.44915E-05-2.71906E-05-2.88432E-05 1.79286E-06-3.16167E-19 1.45463E-19
 -1       747 9.40429E-05-2.66163E-05-2.88970E-05 2.24911E-06-8.25032E-19 2.73815E-21
 -1       748 9.33689E-05-2.58480E-05-2.89374E-05 2.81214E-06-8.31541E-19-1.46441E-19
 -1       749 9.23601E-05-2.48214E-05-2.89450E-05 3.47909E-06-1.02586E-18-1.49360E-19
 -1       750 9.08640E-05-2.34638E-05-2.88857E-05 4.23438E-06-4.46495E-19-7.94099E-19
 -1       751 8.86744E-05-2.17060E-05-2.87008E-05 5.04678E-06-6.66594E-19-4.74209E-19
 -1       752 8.55209E-05-1.95077E-05-2.82918E-05 5.87607E-06 1.25053E-19-2.54332E-19
 -1       753 8.10593E-05-1.69048E-05-2.74944E-05 6.70708E-06-2.70245E-19 2.77015E-19
 -1       754 7.48599E-05-1.40874E-05-2.60370E-05 7.66482E-06-2.81576E-19-3.49081E-19
 -1       755 6.58202E-05-1.14417E-05-2.32132E-05 9.22642E-06 1.01009E-18-3.19192E-19
 -1       756 8.45925E-05-1.89143E-05-2.81425E-05-1.71567E-06-1.40445E-18 2.32115E-18
 -1       757 7.38131E-05-1.39463E-05-2.56382E-05-9.17264E-06-7.66063E-19-1.69826E-18
 -1       758 6.43099E-05-1.12094E-05-2.26822E-05-1.10540E-05-1.44133E-18-6.45519E-19
 -1       759 8.08440E-05-1.67496E-05-2.74328E-05-8.32964E-06-1.92478E-18-1.00484E-19
 -1       760 8.54711E-05-1.89843E-05-2.84993E-05-7.40762E-06-2.25218E-19 1.89650E-18
 -1       761 9.58626E-05-2.73558E-05-2.93600E-05 1.67305E-07 6.96487E-19-8.24811E-19
 -1       762 9.57087E-05-2.62646E-05-2.97618E-05 1.21663E-06 7.28577E-19-3.70036E-19
 -1       763 9.56853E-05-2.88601E-05-2.86394E-05-1.08929E-06-8.13779E-20 5.06922E-19
 -1       764 9.57649E-05-2.87310E-05-2.87289E-05-1.04157E-06-1.55866E-19 6.86355E-20
 -1       765 9.55330E-05-2.88965E-05-2.85585E-05-9.97222E-07 1.90266E-19 4.96050E-20
 -1       766 9.54657E-05-2.88485E-05-2.85503E-05-9.23975E-07 2.64123E-19 2.31258E-19
 -1       767 9.54048E-05-2.87747E-05-2.85558E-05-8.61910E-07 1.66345E-19 3.14852E-19
 -1       768 9.53497E-05-2.86837E-05-2.85712E-05-8.25410E-07-1.85685E-19 1.06262E-18
 -1       769 9.53004E-05-2.85820E-05-2.85936E-05-8.24855E-07-2.36048E-19 1.38570E-18
 -1       770 9.52577E-05-2.84757E-05-2.86209E-05-8.67670E-07 6.27519E-20 7.75491E-19
 -1       771 9.52246E-05-2.83722E-05-2.86510E-05-9.58708E-07-4.27680E-19 9.24425E-19
 -1       772 9.52076E-05-2.82826E-05-2.86821E-05-1.10007E-06-8.54734E-19 1.04690E-18
 -1       773 9.52184E-05-2.82234E-05-2.87121E-05-1.29018E-06-7.05218E-19 8.65893E-19
 -1       774 9.52766E-05-2.82194E-05-2.87387E-05-1.52200E-06-3.93566E-19 7.70463E-19
 -1       775 9.54119E-05-2.83059E-05-2.87597E-05-1.78027E-06 1.12171E-19 1.20557E-18
 -1       776 9.56669E-05-2.85295E-05-2.87732E-05-2.03756E-06-6.29277E-20 3.17875E-19
 -1       777 9.60982E-05-2.89470E-05-2.87791E-05-2.24895E-06-3.04677E-19 4.24234E-19
 -1       778 9.67735E-05-2.96183E-05-2.87809E-05-2.34578E-06 3.88585E-19 9.78016E-19
 -1       779 9.77623E-05-3.05900E-05-2.87884E-05-2.22924E-06 2.44795E-19 1.16352E-18
 -1       780 9.91135E-05-3.18649E-05-2.88213E-05-1.76759E-06 9.53281E-19 1.90993E-18
 -1       781 1.00815E-04-3.33530E-05-2.89128E-05-8.04957E-07 1.13247E-19 1.84158E-18
 -1       782 1.02733E-04-3.48078E-05-2.91114E-05 8.02105E-07-1.29058E-19 1.23309E-18
 -1       783 1.04550E-04-3.57736E-05-2.94765E-05 3.09680E-06-1.22848E-18 2.23993E-18
 -1       784 1.05749E-04-3.56049E-05-3.00624E-05 5.87017E-06-8.78847E-19 1.57486E-18
 -1       785 1.05723E-04-3.36626E-05-3.08843E-05 8.46038E-06-3.33802E-19-7.08025E-20
 -1       786 1.04218E-04-2.98644E-05-3.18673E-05 9.73075E-06-2.08100E-18-1.12454E-19
 -1       787 1.01635E-04-2.50311E-05-3.28302E-05 8.49766E-06-7.69001E-19-7.28611E-19
 -1       788 9.93942E-05-2.12486E-05-3.34947E-05 4.37673E-06-5.04349E-19-8.50647E-19
 -1       789 9.89171E-05-2.04736E-05-3.36191E-05-1.36511E-06 1.69087E-19 1.88945E-19
 -1       790 1.00574E-04-2.32028E-05-3.31643E-05-6.42043E-06 8.28600E-19 2.52980E-19
 -1       791 1.03249E-04-2.79263E-05-3.22887E-05-8.95570E-06-8.58516E-19 1.76873E-18
 -1       792 1.05380E-04-3.24076E-05-3.12733E-05-8.57003E-06 2.43470E-19 2.25486E-18
 -1       793 1.06089E-04-3.52381E-05-3.03637E-05-6.30692E-06 1.03544E-18 2.11561E-18
 -1       794 1.05367E-04-3.61092E-05-2.96826E-05-3.39590E-06 1.08968E-18 2.80251E-18
 -1       795 1.03719E-04-3.54744E-05-2.92486E-05-7.53498E-07 2.05895E-18 1.59060E-18
 -1       796 1.01724E-04-3.40076E-05-2.90218E-05 1.20617E-06 2.57417E-18 1.46062E-18
 -1       797 9.97751E-05-3.22345E-05-2.89461E-05 2.39201E-06 2.38957E-18 2.13151E-18
 -1       798 9.85392E-05-3.09819E-05-2.89527E-05 2.97429E-06-6.49394E-19 5.19981E-19
 -1       799 9.75025E-05-3.03379E-05-2.87852E-05 6.72832E-06 1.78249E-18-1.63025E-19
 -1       800 8.56711E-05-2.03634E-05-2.79873E-05 3.13991E-06-1.84014E-18 8.77655E-19
 -1       801 8.85958E-05-2.30632E-05-2.80856E-05 6.53931E-06-1.13258E-18-5.51829E-19
 -1       802 9.53571E-05-2.86780E-05-2.85773E-05 8.01407E-06 1.54689E-18-2.37145E-18
 -1       803 9.21827E-05-2.61077E-05-2.83190E-05 8.13254E-06 9.43069E-19-1.00683E-18
 -1       804 9.49265E-05-2.34201E-05-3.06451E-05-3.52568E-06-1.87124E-19-1.27820E-18
 -1       805 1.24581E-04-5.53511E-05-2.97176E-05 1.49743E-05-3.65559E-19-3.00907E-18
 -1       806 9.56067E-05-2.89064E-05-2.85859E-05-1.06163E-06 3.93133E-19 2.86258E-19
 -1       807 9.16302E-05-4.03787E-05-2.17737E-05-3.51241E-05-5.94346E-19-1.90192E-18
 -1       808 1.28458E-04-3.86421E-05-3.86852E-05 1.04205E-05 1.70349E-18 7.79826E-19
 -1       809 4.82767E-05-9.17677E-06-1.64151E-05-1.18500E-05 2.09046E-18 3.76400E-19
 -1       810 9.32061E-05-1.97755E-05-3.14714E-05 1.23404E-06 7.64651E-19-4.71409E-19
 -1       811 1.31029E-04-5.19428E-05-3.40270E-05-2.51153E-06-1.47100E-18-6.34011E-19
 -1       812 1.14292E-04-9.74423E-06-4.51518E-05 5.01786E-06 2.80341E-19-1.91968E-18
 -1       813 1.32107E-04-4.74170E-05-3.64261E-05-4.62258E-06 4.85853E-20-3.69310E-18
 -1       814 5.38774E-05-8.83037E-06-1.90522E-05 6.96636E-06 1.24435E-18 1.66695E-18
 -1       815 1.14571E-04-5.08591E-05-2.72563E-05 2.18240E-05-5.11596E-19-2.55363E-18
 -1       816 9.40092E-05-2.13338E-05-3.11487E-05 3.30120E-06 9.95617E-19-3.97123E-19
 -1       817 1.16365E-04-2.29058E-05-4.02527E-05-1.22601E-05-1.02105E-18-3.68171E-18
 -1       818 9.34886E-05-2.03147E-05-3.13619E-05-2.32017E-06 1.20691E-19-1.05484E-18
 -1       819 1.07108E-04-4.73058E-05-2.55628E-05-2.65852E-05-2.77701E-19-4.77105E-19
 -1       820 9.58812E-05-2.80505E-05-2.90703E-05-4.92391E-07 4.76823E-19-7.47453E-19
 -1       821 9.58364E-05-2.84803E-05-2.88669E-05-8.65874E-07 4.43243E-19-2.78816E-19
 -1       822 9.84933E-05-3.09691E-05-2.89411E-05 4.29393E-06 1.90639E-21 9.29640E-19
 -1       823 6.02446E-05-1.12281E-05-2.08574E-05 7.72325E-06-6.74010E-19 1.43137E-18
 -1       824 7.97803E-05-3.01750E-05-2.10789E-05-3.15473E-05-2.44584E-19-7.27390E-20
 -1       825 9.52817E-05-2.45551E-05-3.03095E-05 2.76231E-06 9.51846E-19-2.64745E-19
 -1       826 9.39844E-05-2.12834E-05-3.11598E-05-3.27519E-06-1.04490E-19-1.04279E-18
 -1       827 1.09446E-04-1.14103E-05-4.22161E-05-8.51323E-07-7.59114E-19-4.44737E-18
 -1       828 9.35144E-05-2.03544E-05-3.13561E-05 2.35384E-06 9.07079E-19-4.05952E-19
 -1       829 1.21226E-04-2.87912E-05-3.98085E-05 1.31980E-05 1.25485E-18-3.06275E-19
 -1       830 9.30930E-05-1.95747E-05-3.15095E-05 2.40932E-08 4.09777E-19-5.88723E-19
 -1       831 1.24130E-04-5.27888E-05-3.05799E-05-1.02914E-05-1.57267E-18-8.59806E-19
 -1       832 9.82624E-05-3.08511E-05-2.88884E-05 5.52952E-06 1.50515E-18 4.67635E-20
 -1       833 9.31894E-05-1.97531E-05-3.14744E-05-1.18311E-06 2.91029E-19-8.69597E-19
 -1       834 6.23107E-05-1.61446E-05-1.96303E-05-2.13971E-05 1.21915E-18 2.17092E-19
 -1       835 1.23895E-04-4.87639E-05-3.22594E-05 4.36273E-07-1.35153E-18-5.41698E-18
 -1       836 9.61995E-05-2.69887E-05-2.96616E-05-2.83970E-07-2.06751E-19-6.36112E-19
 -1       837 9.63694E-05-2.79516E-05-2.93219E-05 3.22467E-07-1.56133E-19-3.66538E-19
 -1       838 9.63819E-05-2.85216E-05-2.90830E-05 6.62545E-07-4.28725E-19-2.36994E-19
 -1       839 9.63115E-05-2.88560E-05-2.89095E-05 8.36181E-07-2.42832E-19-1.62520E-19
 -1       840 9.61962E-05-2.90249E-05-2.87877E-05 8.98080E-07-1.73962E-19-1.21173E-19
 -1       841 9.60598E-05-2.90788E-05-2.87062E-05 8.92323E-07-2.23177E-19-1.43612E-20
 -1       842 9.59160E-05-2.90529E-05-2.86556E-05 8.52543E-07-3.26872E-19-5.08324E-20
 -1       843 9.57711E-05-2.89704E-05-2.86289E-05 8.03782E-07-4.22591E-19-3.83308E-19
 -1       844 9.56263E-05-2.88453E-05-2.86204E-05 7.64521E-07-2.97958E-19-7.74241E-19
 -1       845 9.54780E-05-2.86841E-05-2.86259E-05 7.48493E-07 2.05161E-19-7.03556E-19
 -1       846 9.53187E-05-2.84870E-05-2.86422E-05 7.66060E-07 4.45210E-19-3.92467E-19
 -1       847 9.51368E-05-2.82484E-05-2.86665E-05 8.25117E-07 7.19149E-19-3.12318E-19
 -1       848 9.49018E-05-2.79404E-05-2.86977E-05 9.38080E-07 7.94142E-20 5.98295E-19
 -1       849 9.46098E-05-2.75734E-05-2.87299E-05 1.09753E-06-7.59366E-21 6.73575E-19
 -1       850 9.42166E-05-2.71102E-05-2.87599E-05 1.30671E-06-3.46665E-19 4.60025E-19
 -1       851 9.36728E-05-2.65174E-05-2.87809E-05 1.55852E-06-8.78519E-19 8.35371E-19
 -1       852 9.29102E-05-2.57533E-05-2.87816E-05 1.83549E-06-9.83162E-19 9.39635E-19
 -1       853 9.18351E-05-2.47677E-05-2.87432E-05 2.10398E-06-7.19034E-19 2.62517E-19
 -1       854 9.03207E-05-2.35047E-05-2.86356E-05 2.30650E-06-7.80887E-19 4.21374E-19
 -1       855 8.81976E-05-2.19095E-05-2.84096E-05 2.35314E-06-1.68516E-19 4.49172E-19
 -1       856 8.52414E-05-1.99419E-05-2.79863E-05 2.11466E-06-6.39864E-19 1.20690E-18
 -1       857 8.11515E-05-1.75960E-05-2.72388E-05 1.42249E-06-2.02749E-19 3.23880E-19
 -1       858 7.55015E-05-1.49171E-05-2.59608E-05 9.79806E-08-3.59518E-19 2.74478E-19
 -1       859 6.71378E-05-1.19075E-05-2.36203E-05-2.18683E-06 3.36095E-19 1.27403E-18
 -1       860 1.22907E-04-3.59236E-05-3.73908E-05-1.15216E-05-8.79108E-19-3.80479E-18
 -1       861 7.02277E-05-1.36309E-05-2.42259E-05 3.73511E-06-6.63913E-19 2.53939E-18
 -1       862 9.50002E-05-2.35183E-05-3.06328E-05-2.39568E-06-1.25211E-19-1.03187E-18
 -1       863 7.76319E-05-1.60533E-05-2.63945E-05 6.17569E-07-4.37229E-19 2.40209E-18
 -1       864 9.56759E-05-2.89197E-05-2.86098E-05-8.03322E-07-1.24290E-19 1.58346E-19
 -1       865 9.58100E-05-2.90086E-05-2.86292E-05-8.54872E-07 4.79456E-20 3.59439E-20
 -1       866 9.54202E-05-2.86601E-05-2.86115E-05-7.58456E-07-4.62923E-19-2.08729E-19
 -1       867 9.52976E-05-2.85063E-05-2.86249E-05-7.87745E-07-3.15291E-19-1.38957E-19
 -1       868 9.51788E-05-2.83464E-05-2.86424E-05-8.62889E-07-2.10240E-19 4.43699E-19
 -1       869 9.50664E-05-2.81902E-05-2.86613E-05-9.90635E-07-6.88718E-19-7.42213E-20
 -1       870 9.49687E-05-2.80523E-05-2.86785E-05-1.17642E-06-9.03576E-19 2.78168E-19
 -1       871 9.49014E-05-2.79559E-05-2.86909E-05-1.42369E-06-5.91575E-19 7.33384E-20
 -1       872 9.48920E-05-2.79357E-05-2.86956E-05-1.73230E-06-7.15072E-19 5.35432E-20
 -1       873 9.49842E-05-2.80412E-05-2.86899E-05-2.09568E-06-4.56438E-19 8.23036E-19
 -1       874 9.52418E-05-2.83389E-05-2.86727E-05-2.49587E-06 3.14306E-19 1.06709E-18
 -1       875 9.57520E-05-2.89104E-05-2.86464E-05-2.89571E-06-2.52446E-19 7.28073E-19
 -1       876 9.66237E-05-2.98445E-05-2.86197E-05-3.22701E-06-1.02708E-19 1.23388E-18
 -1       877 9.79767E-05-3.12149E-05-2.86124E-05-3.37460E-06 4.54334E-19 7.73583E-19
 -1       878 9.99102E-05-3.30365E-05-2.86605E-05-3.15920E-06 5.21974E-19 3.26013E-19
 -1       879 1.02442E-04-3.51886E-05-2.88231E-05-2.33127E-06-3.98116E-19 1.42064E-18
 -1       880 1.05401E-04-3.73026E-05-2.91853E-05-6.05327E-07-1.12245E-18 2.65028E-18
 -1       881 1.08309E-04-3.86581E-05-2.98522E-05 2.20181E-06-6.25704E-19 1.29470E-18
 -1       882 1.10321E-04-3.81860E-05-3.09186E-05 5.89968E-06-2.80341E-19 7.19152E-19
 -1       883 1.10362E-04-3.48018E-05-3.23795E-05 9.46505E-06-1.74539E-18 2.03682E-18
 -1       884 1.07884E-04-2.83374E-05-3.41355E-05 1.10068E-05-4.05484E-21-1.02389E-18
 -1       885 1.04518E-04-2.14550E-05-3.56138E-05 8.40789E-06-3.10157E-19-1.55038E-18
 -1       886 1.01982E-04-1.71978E-05-3.63805E-05 1.99788E-06-1.05847E-18-5.70676E-19
 -1       887 1.03405E-04-1.93486E-05-3.60600E-05-5.41276E-06 6.21457E-19-6.92668E-19
 -1       888 1.06570E-04-2.53272E-05-3.48210E-05-9.86522E-06-6.43808E-19-1.03234E-18
 -1       889 1.09855E-04-3.25941E-05-3.31320E-05-9.84211E-06-1.43623E-18-1.86963E-18
 -1       890 1.11011E-04-3.74438E-05-3.15277E-05-6.89215E-06 1.49947E-19-2.21325E-19
 -1       891 1.09835E-04-3.91546E-05-3.02938E-05-2.96550E-06 1.07250E-18-3.41075E-19
 -1       892 1.07234E-04-3.84115E-05-2.94974E-05 4.15369E-07 2.31303E-18-9.48849E-19
 -1       893 1.04208E-04-3.63799E-05-2.90692E-05 2.70249E-06 1.92419E-18-9.10789E-19
 -1       894 1.01430E-04-3.39725E-05-2.89096E-05 3.91718E-06 2.22721E-18-4.49272E-19
 -1       895 9.98414E-05-3.24105E-05-2.89026E-05 4.23633E-06 1.74975E-18 7.49347E-19
 -1       896 8.09524E-05-1.80874E-05-2.69630E-05 2.76187E-06-8.50431E-19 3.44146E-18
 -1       897 9.83639E-05-3.20292E-05-2.84273E-05 8.72927E-06 1.91757E-18-1.72904E-18
 -1       898 8.46063E-05-2.14520E-05-2.70626E-05 7.86010E-06-9.85724E-19-7.70920E-19
 -1       899 6.78357E-05-2.00844E-05-2.03010E-05 2.39135E-05 9.72258E-19-9.38910E-19
 -1       900 5.88215E-05-1.00992E-05-2.07478E-05-6.12568E-06 1.52167E-18 3.63728E-19
 -1       901 1.24375E-04-4.41209E-05-3.44805E-05 5.57031E-06-9.56353E-20-1.00831E-18
 -1       902 1.10955E-04-1.70275E-05-4.04428E-05 9.79142E-06-7.98434E-19-2.58033E-18
 -1       903 9.62032E-05-2.89153E-05-2.88377E-05-9.00610E-07-9.92772E-20-1.59050E-19
 -1       904 9.59862E-05-2.63207E-05-2.98570E-05 7.62884E-07 9.55978E-19-5.23199E-19
 -1       905 8.56742E-05-3.23674E-05-2.27676E-05 2.86225E-05 1.24651E-18-1.82036E-18
 -1       906 9.58084E-05-2.56102E-05-3.00864E-05-1.17640E-06-1.52900E-19-9.87670E-19
 -1       907 9.55460E-05-2.88003E-05-2.86053E-05-7.66963E-07-1.51440E-19 3.84730E-19
 -1       908 9.54159E-05-2.46011E-05-3.03498E-05 1.88355E-06 8.98191E-19-3.23349E-19
 -1       909 9.48220E-05-2.31004E-05-3.07344E-05 2.59639E-06 9.11908E-19-3.50265E-19
 -1       910 9.48369E-05-2.95589E-05-2.79766E-05 1.04852E-05 2.69745E-18-1.88290E-18
 -1       911 1.20282E-04-4.96350E-05-3.02608E-05 7.60914E-06 1.18254E-19-5.38433E-18
 -1       912 1.00789E-04-4.04353E-05-2.58506E-05 2.28893E-05-4.75227E-19-4.38753E-18
 -1       913 1.20331E-04-3.70368E-05-3.57598E-05 1.05154E-05 1.47193E-18-1.41067E-19
 -1       914 1.12444E-04-2.88118E-05-3.59202E-05-1.17592E-05-1.16653E-18-2.85835E-18
 -1       915 1.15055E-04-4.90825E-05-2.82543E-05-1.60327E-05-1.77930E-19-6.78430E-19
 -1       916 7.36327E-05-1.86721E-05-2.35173E-05 1.52417E-05 7.07453E-19 3.34987E-19
 -1       917 9.46878E-05-2.26566E-05-3.08700E-05-1.81599E-06 1.04867E-20-8.11107E-19
 -1       918 9.44050E-05-2.20300E-05-3.10149E-05-1.04566E-06 2.73729E-19-9.03232E-19
 -1       919 9.62945E-05-2.86595E-05-2.89865E-05-7.74454E-07-1.64136E-19 1.30961E-19
 -1       920 9.59468E-05-2.90530E-05-2.86688E-05-9.04796E-07 5.09042E-19 3.36421E-19
 -1       921 9.97133E-05-3.28130E-05-2.86679E-05 7.04170E-06 4.34657E-19-7.85471E-19
 -1       922 9.52164E-05-3.88745E-05-2.40639E-05-2.80381E-05-7.82874E-19-1.70186E-18
 -1       923 8.98514E-05-2.57598E-05-2.74685E-05 1.04639E-05 2.06416E-18-3.59668E-18
 -1       924 9.60813E-05-2.90320E-05-2.87354E-05-9.30355E-07 2.58384E-19-4.40647E-19
 -1       925 9.62473E-05-2.74623E-05-2.94793E-05-9.93628E-09 5.10533E-19-3.10916E-19
 -1       926 1.07971E-04-1.56749E-05-3.96619E-05-6.70110E-06 3.98231E-19-2.76152E-18
 -1       927 1.21817E-04-4.73072E-05-3.19258E-05-4.22367E-07-1.10026E-18-1.08551E-18
 -1       928 9.45473E-05-2.22680E-05-3.09760E-05 4.31088E-07 5.01745E-19-2.79496E-19
 -1       929 9.46919E-05-2.26057E-05-3.08935E-05 1.22126E-06 7.55975E-19-3.38138E-19
 -1       930 9.64971E-05-2.72632E-05-2.96718E-05-4.24633E-08 8.04307E-20-4.42232E-19
 -1       931 9.66696E-05-2.81476E-05-2.93666E-05 3.28663E-07-2.38805E-19-4.15523E-19
 -1       932 9.66799E-05-2.87003E-05-2.91341E-05 5.47054E-07-2.25919E-19-4.15825E-19
 -1       933 9.65896E-05-2.90124E-05-2.89616E-05 6.54441E-07-2.45696E-19-4.54646E-19
 -1       934 9.64416E-05-2.91537E-05-2.88377E-05 6.88368E-07-2.32327E-19-7.33631E-20
 -1       935 9.62637E-05-2.91749E-05-2.87523E-05 6.79250E-07-1.60987E-19-2.62466E-19
 -1       936 9.60721E-05-2.91119E-05-2.86972E-05 6.50355E-07-5.96342E-19-3.88796E-20
 -1       937 9.58745E-05-2.89879E-05-2.86657E-05 6.19027E-07-2.40340E-19 2.95085E-19
 -1       938 9.56713E-05-2.88165E-05-2.86520E-05 5.97722E-07 1.61209E-19 3.42118E-19
 -1       939 9.54577E-05-2.86034E-05-2.86518E-05 5.95074E-07 5.27383E-19 9.36262E-20
 -1       940 9.52235E-05-2.83475E-05-2.86612E-05 6.16435E-07 3.57399E-19-1.66701E-20
 -1       941 9.49381E-05-2.80247E-05-2.86772E-05 6.66946E-07 8.50986E-19-3.91784E-19
 -1       942 9.46054E-05-2.76524E-05-2.86942E-05 7.39689E-07 5.38304E-21-2.76031E-19
 -1       943 9.41842E-05-2.71993E-05-2.87078E-05 8.28614E-07-3.79946E-19-7.33811E-19
 -1       944 9.36349E-05-2.66424E-05-2.87111E-05 9.17219E-07-4.56227E-19-5.07187E-19
 -1       945 9.29062E-05-2.59545E-05-2.86936E-05 9.75994E-07-3.74719E-19 1.51994E-19
 -1       946 9.19315E-05-2.51054E-05-2.86398E-05 9.56037E-07-1.16276E-18 5.04985E-19
 -1       947 9.06258E-05-2.40661E-05-2.85256E-05 7.80540E-07-1.13165E-18 6.45023E-19
 -1       948 8.88834E-05-2.28158E-05-2.83148E-05 3.34041E-07-3.17972E-19 3.92166E-19
 -1       949 8.65746E-05-2.13541E-05-2.79519E-05-5.50328E-07-2.11303E-19-3.48209E-19
 -1       950 8.35427E-05-1.97201E-05-2.73528E-05-2.10602E-06-4.42327E-19-8.28649E-19
 -1       951 7.95928E-05-1.80142E-05-2.63899E-05-4.64346E-06-2.15820E-19 1.52391E-19
 -1       952 7.42068E-05-1.64039E-05-2.47538E-05-8.86663E-06 7.28342E-19 6.38735E-19
 -1       953 9.59604E-05-2.90604E-05-2.86714E-05-6.64051E-07 3.32805E-19-3.56353E-19
 -1       954 9.56645E-05-2.49088E-05-3.03239E-05 1.13447E-06 8.82557E-19-1.98492E-19
 -1       955 9.63251E-05-2.82034E-05-2.91950E-05-4.98952E-07 1.60698E-19-2.09602E-19
 -1       956 9.52057E-05-2.83704E-05-2.86437E-05-6.94902E-07-6.89338E-19 7.19187E-19
 -1       957 9.53961E-05-2.85762E-05-2.86371E-05-6.39523E-07-2.33676E-19 5.78694E-19
 -1       958 9.48177E-05-2.79426E-05-2.86607E-05-9.59915E-07-7.87795E-19 5.73397E-19
 -1       959 9.46314E-05-2.77498E-05-2.86635E-05-1.19137E-06-7.74321E-19 5.65346E-20
 -1       960 9.44721E-05-2.76057E-05-2.86571E-05-1.50511E-06-5.74806E-19 1.43086E-19
 -1       961 9.43744E-05-2.75542E-05-2.86372E-05-1.91370E-06-6.30767E-19-4.79624E-19
 -1       962 9.43945E-05-2.76593E-05-2.86008E-05-2.42693E-06-7.19494E-19-3.30887E-19
 -1       963 9.46177E-05-2.80084E-05-2.85468E-05-3.04588E-06-5.49526E-19 7.45504E-19
 -1       964 9.51651E-05-2.87136E-05-2.84792E-05-3.75170E-06-3.04145E-19 9.68576E-19
 -1       965 9.61970E-05-2.99038E-05-2.84114E-05-4.48593E-06 3.11372E-19 8.54124E-19
 -1       966 9.79052E-05-3.17017E-05-2.83730E-05-5.11896E-06 6.33563E-19 1.26780E-18
 -1       967 1.00479E-04-3.41662E-05-2.84200E-05-5.40591E-06-4.44627E-19 7.68681E-19
 -1       968 1.04018E-04-3.71743E-05-2.86467E-05-4.95579E-06-1.17211E-18 1.27612E-18
 -1       969 1.08391E-04-4.02462E-05-2.91966E-05-3.22774E-06-9.01270E-19 1.02321E-18
 -1       970 1.12842E-04-4.21839E-05-3.02786E-05 3.54111E-07 6.53299E-20 1.23259E-18
 -1       971 1.16064E-04-4.13193E-05-3.20383E-05 5.47999E-06-1.42878E-18 1.02817E-18
 -1       972 1.17059E-04-3.99155E-05-3.30900E-05-7.48102E-06-1.80784E-18-3.39112E-18
 -1       973 1.15302E-04-4.29271E-05-3.10292E-05-1.89678E-06 7.15324E-19-2.67534E-18
 -1       974 1.11167E-04-4.19033E-05-2.96778E-05 2.71121E-06 2.76560E-18-3.06984E-18
 -1       975 1.06663E-04-3.90233E-05-2.89855E-05 5.32410E-06 9.10245E-19-3.01976E-18
 -1       976 1.02742E-04-3.56897E-05-2.87354E-05 6.29046E-06 1.72967E-18-1.01304E-18
 -1       977 9.44279E-05-2.20348E-05-3.10247E-05-2.96454E-07 3.08799E-19-7.23865E-19
 -1       978 6.77739E-05-1.50631E-05-2.25327E-05-1.35087E-05 5.91232E-19 1.08305E-18
 -1       979 8.43059E-05-2.69125E-05-2.45720E-05 2.04060E-05 5.46711E-19-4.37751E-18
 -1       980 9.47100E-05-2.27312E-05-3.08464E-05 1.93840E-06 8.42936E-19-2.29341E-19
 -1       981 7.73221E-05-2.41891E-05-2.27274E-05-2.33281E-05 2.20781E-19 1.03972E-18
 -1       982 9.50120E-05-2.81555E-05-2.86528E-05-7.98243E-07-2.98097E-19 8.43048E-19
 -1       983 9.60963E-05-2.59551E-05-3.00602E-05-6.13700E-07-1.37848E-19-6.48460E-19
 -1       984 1.06194E-04-4.40394E-05-2.66116E-05-2.07297E-05 7.22019E-19-1.84903E-18
 -1       985 1.10524E-04-4.47684E-05-2.81627E-05 1.38882E-05-6.50661E-19-2.21747E-18
 -1       986 1.20947E-04-4.30997E-05-3.34111E-05 5.60589E-06-5.36290E-19-2.81106E-19
 -1       987 9.62780E-05-2.65736E-05-2.98739E-05 3.86702E-07 7.09214E-19 4.07950E-20
 -1       988 1.17061E-04-4.72893E-05-2.99154E-05-6.47224E-06-6.02356E-19-1.99233E-18
 -1       989 9.57722E-05-2.89298E-05-2.86467E-05-6.34335E-07-3.74915E-19-6.35675E-19
 -1       990 9.92331E-05-3.40673E-05-2.79273E-05 1.15944E-05 1.31597E-18-7.63590E-19
 -1       991 9.66051E-05-2.88384E-05-2.90429E-05-6.33643E-07 8.54647E-20-3.15828E-19
 -1       992 9.61477E-05-2.91432E-05-2.87162E-05-6.98541E-07 3.59828E-19-1.46834E-19
 -1       993 7.86436E-05-1.88413E-05-2.56212E-05 9.23783E-06 1.85963E-19 8.44310E-19
 -1       994 9.55844E-05-2.87652E-05-2.86368E-05-6.22603E-07-3.60687E-19-2.88935E-19
 -1       995 1.12381E-04-2.74534E-05-3.64914E-05 1.19158E-05 1.49303E-19-1.56762E-18
 -1       996 1.01836E-04-3.55174E-05-2.84229E-05 8.83740E-06 3.93630E-19 1.98302E-19
 -1       997 9.54403E-05-2.41376E-05-3.05605E-05-7.29460E-07 1.14347E-19-8.88872E-19
 -1       998 8.87094E-05-3.14999E-05-2.45194E-05-2.30778E-05 2.37158E-19-2.14857E-18
 -1       999 8.60551E-05-2.47841E-05-2.62599E-05 1.36787E-05 8.94792E-19-4.99486E-18
 -1      1000 9.55244E-05-2.42479E-05-3.05479E-05 3.83841E-09 4.89346E-19-2.83707E-19
 -1      1001 9.64878E-05-2.90702E-05-2.88933E-05-7.09019E-07 1.18104E-19-2.92740E-19
 -1      1002 9.55865E-05-2.44052E-05-3.05064E-05 5.24223E-07 6.77316E-19-2.04718E-19
 -1      1003 9.68783E-05-2.84036E-05-2.93465E-05 2.69260E-07-2.97286E-19-6.88328E-19
 -1      1004 9.68560E-05-2.88892E-05-2.91287E-05 3.80623E-07-6.08967E-20-5.44914E-19
 -1      1005 9.67329E-05-2.91457E-05-2.89660E-05 4.30997E-07 8.89634E-20-6.98051E-19
 -1      1006 9.65513E-05-2.92388E-05-2.88482E-05 4.42587E-07-1.26735E-19 1.00912E-21
 -1      1007 9.63386E-05-2.92169E-05-2.87665E-05 4.32706E-07-1.49735E-19 4.84957E-19
 -1      1008 9.61103E-05-2.91129E-05-2.87132E-05 4.14347E-07-3.67943E-19 6.93767E-19
 -1      1009 9.58726E-05-2.89484E-05-2.86818E-05 3.96748E-07-5.54149E-20 1.18409E-18
 -1      1010 9.56248E-05-2.87354E-05-2.86669E-05 3.85772E-07 4.52406E-19 1.46597E-18
 -1      1011 9.53606E-05-2.84787E-05-2.86637E-05 3.84279E-07-4.06681E-20 1.14497E-18
 -1      1012 9.50515E-05-2.81593E-05-2.86681E-05 3.92041E-07 1.86632E-19 3.57225E-19
 -1      1013 9.47089E-05-2.78007E-05-2.86750E-05 4.03108E-07-1.81804E-19-7.72666E-19
 -1      1014 9.42971E-05-2.73790E-05-2.86792E-05 4.06541E-07 1.36535E-20-1.20043E-18
 -1      1015 9.37877E-05-2.68812E-05-2.86743E-05 3.82220E-07-1.35396E-19-9.29947E-19
 -1      1016 9.31470E-05-2.62945E-05-2.86512E-05 2.97155E-07-4.14089E-19-5.95248E-19
 -1      1017 9.23353E-05-2.56081E-05-2.85975E-05 9.97656E-08-1.14631E-18-9.37546E-19
 -1      1018 9.13083E-05-2.48192E-05-2.84954E-05-2.87527E-07-8.48905E-19-1.00281E-18
 -1      1019 9.00202E-05-2.39409E-05-2.83198E-05-9.77521E-07-7.47232E-19-5.62437E-19
 -1      1020 8.84303E-05-2.30157E-05-2.80350E-05-2.12912E-06-3.45667E-19-6.56852E-19
 -1      1021 8.65163E-05-2.21375E-05-2.75911E-05-3.95921E-06-1.03361E-18-7.59165E-19
 -1      1022 8.42983E-05-2.14838E-05-2.69201E-05-6.75397E-06 4.03982E-20-1.21308E-18
 -1      1023 8.17879E-05-2.14109E-05-2.58696E-05-1.11576E-05 1.08334E-18-4.22019E-19
 -1      1024 9.56183E-05-3.38514E-05-2.64696E-05 1.79066E-05-3.63786E-19-4.58043E-18
 -1      1025 9.52934E-05-2.84398E-05-2.86515E-05-4.74271E-07-4.15344E-19-2.40444E-19
 -1      1026 1.12128E-04-4.40672E-05-2.91572E-05 7.67126E-06 2.12830E-18-2.85180E-18
 -1      1027 9.41995E-05-2.73704E-05-2.86410E-05-1.13225E-06-5.05514E-19 4.39288E-19
 -1      1028 9.44892E-05-2.76323E-05-2.86530E-05-8.58452E-07-1.12874E-18 5.43122E-19
 -1      1029 9.36918E-05-2.70376E-05-2.85661E-05-2.04526E-06-6.90867E-19 1.10512E-18
 -1      1030 9.35748E-05-2.70930E-05-2.84921E-05-2.75074E-06-5.24035E-19 5.24415E-19
 -1      1031 9.36725E-05-2.74303E-05-2.83894E-05-3.66610E-06-5.95089E-19 3.68329E-19
 -1      1032 9.41395E-05-2.81965E-05-2.82611E-05-4.80684E-06-1.22144E-19-3.56862E-19
 -1      1033 9.51960E-05-2.95771E-05-2.81223E-05-6.14357E-06 3.49027E-19-4.04392E-19
 -1      1034 9.71425E-05-3.17838E-05-2.80106E-05-7.55221E-06 5.48074E-19 1.57712E-19
 -1      1035 1.00305E-04-3.49611E-05-2.80047E-05-8.70992E-06-4.78242E-19 7.89957E-22
 -1      1036 1.05018E-04-3.90990E-05-2.82472E-05-9.07390E-06 1.10231E-19-1.03944E-18
 -1      1037 9.63668E-05-2.63861E-05-2.99905E-05-2.28438E-07 2.14511E-20-5.89961E-19
 -1      1038 1.06244E-04-3.96492E-05-2.85436E-05 9.08666E-06 2.30701E-21-3.05121E-19
 -1      1039 9.39213E-05-2.71554E-05-2.86140E-05-1.51740E-06-6.96459E-19 7.85716E-19
 -1      1040 9.63278E-05-2.91569E-05-2.87875E-05-7.20991E-07-2.63998E-19-8.10347E-20
 -1      1041 9.50398E-05-2.81820E-05-2.86534E-05-5.47295E-07-3.18311E-19 2.52441E-19
 -1      1042 7.93476E-05-2.19598E-05-2.45505E-05-1.63549E-05 9.18370E-19 4.23268E-20
 -1      1043 9.47717E-05-2.79092E-05-2.86554E-05-6.70211E-07-4.26256E-19 4.45609E-19
 -1      1044 9.66452E-05-2.84012E-05-2.92474E-05-4.57722E-07 2.98005E-20-2.19658E-19
 -1      1045 9.35771E-05-3.03355E-05-2.71026E-05 1.40569E-05 1.52463E-18-4.69612E-18
 -1      1046 9.67392E-05-2.76011E-05-2.96306E-05 7.29633E-08 4.07765E-20-5.47529E-19
 -1      1047 9.55352E-05-2.86749E-05-2.86545E-05-4.39249E-07-1.07933E-18-5.93102E-19
 -1      1048 1.11751E-04-4.53122E-05-2.84691E-05-1.20782E-05 1.72503E-19-5.51384E-19
 -1      1049 9.62267E-05-2.91771E-05-2.87355E-05-4.59391E-07 3.57414E-19 3.25974E-19
 -1      1050 9.68570E-05-2.86239E-05-2.92429E-05-3.51389E-07 1.12936E-20 4.44641E-19
 -1      1051 9.65566E-05-2.76768E-05-2.95197E-05-1.36805E-07 2.99063E-19-2.24138E-20
 -1      1052 9.62550E-05-2.59384E-05-3.01370E-05 1.18267E-07 5.94377E-19 7.74373E-20
 -1      1053 1.10499E-04-4.28228E-05-2.89966E-05-6.89769E-06-5.83767E-19-1.46357E-18
 -1      1054 1.02972E-04-3.85192E-05-2.76376E-05 1.41698E-05-7.37289E-19-9.61604E-19
 -1      1055 9.67878E-05-2.90053E-05-2.90497E-05-4.41361E-07 8.63323E-20 4.67199E-19
 -1      1056 9.63234E-05-2.60866E-05-3.01012E-05-7.82043E-08 3.44776E-19-2.25368E-19
 -1      1057 9.83596E-05-3.71835E-05-2.62108E-05-1.93753E-05 6.73350E-20-2.45343E-18
 -1      1058 9.60013E-05-2.90548E-05-2.86913E-05-4.40245E-07 1.50718E-19 3.71787E-19
 -1      1059 9.69162E-05-2.90528E-05-2.90844E-05 1.60078E-07 1.48016E-20 1.72771E-19
 -1      1060 9.67551E-05-2.92366E-05-2.89366E-05 1.73402E-07 1.39701E-19 3.42291E-19
 -1      1061 9.65446E-05-2.92721E-05-2.88309E-05 1.73308E-07 1.41294E-19 2.24245E-19
 -1      1062 9.63089E-05-2.92064E-05-2.87583E-05 1.68317E-07-3.07887E-19 4.61668E-19
 -1      1063 9.60562E-05-2.90647E-05-2.87107E-05 1.60610E-07 7.75282E-20 6.46085E-19
 -1      1064 9.57934E-05-2.88670E-05-2.86828E-05 1.51123E-07 1.77612E-19 8.48215E-19
 -1      1065 9.55186E-05-2.86233E-05-2.86694E-05 1.40182E-07-2.71717E-19 3.19124E-19
 -1      1066 9.52082E-05-2.83227E-05-2.86652E-05 1.24088E-07-7.54180E-19-1.20631E-19
 -1      1067 9.48775E-05-2.79912E-05-2.86656E-05 9.74903E-08-4.87542E-19-1.08499E-18
 -1      1068 9.44983E-05-2.76128E-05-2.86653E-05 4.76565E-08-3.84798E-19-1.03416E-18
 -1      1069 9.40525E-05-2.71836E-05-2.86582E-05-4.50384E-08 2.53817E-19-1.36801E-18
 -1      1070 9.35212E-05-2.67019E-05-2.86370E-05-2.11106E-07-5.11360E-19-2.14491E-18
 -1      1071 9.28871E-05-2.61726E-05-2.85921E-05-4.96313E-07-9.08897E-19-2.15058E-18
 -1      1072 9.21373E-05-2.56123E-05-2.85110E-05-9.67014E-07-8.17363E-19-1.63895E-18
 -1      1073 9.12709E-05-2.50585E-05-2.83772E-05-1.71619E-06-7.01955E-19-1.72071E-18
 -1      1074 9.03101E-05-2.45823E-05-2.81698E-05-2.86931E-06-6.39724E-19-1.49992E-18
 -1      1075 8.93196E-05-2.43084E-05-2.78631E-05-4.58820E-06-1.62498E-19-1.83163E-18
 -1      1076 8.84381E-05-2.44417E-05-2.74286E-05-7.06873E-06-3.89983E-20-4.39220E-19
 -1      1077 8.79498E-05-2.54047E-05-2.68075E-05-1.07160E-05 4.77471E-19 2.76485E-19
 -1      1078 9.57714E-05-2.88835E-05-2.86662E-05-4.30723E-07-3.39670E-19-2.41519E-19
 -1      1079 9.36797E-05-2.69107E-05-2.86151E-05-9.79538E-07-4.55482E-19-3.17786E-19
 -1      1080 9.64439E-05-2.92310E-05-2.88055E-05-4.76510E-07 6.80955E-20 1.64599E-19
 -1      1081 9.69124E-05-2.79845E-05-2.95408E-05 6.36096E-08-2.03357E-19-3.40480E-20
 -1      1082 9.66398E-05-2.91888E-05-2.89075E-05-4.75820E-07-2.91475E-20 6.38767E-19
 -1      1083 9.51324E-05-2.82618E-05-2.86588E-05-2.66785E-07-1.13014E-18 4.25447E-20
 -1      1084 9.67978E-05-2.79697E-05-2.94980E-05-1.77771E-07 1.56806E-19 1.31638E-19
 -1      1085 9.40958E-05-2.72639E-05-2.86421E-05-6.74927E-07-6.71804E-19-8.23499E-19
 -1      1086 9.24509E-05-2.62701E-05-2.83625E-05-3.00666E-06-3.99031E-19-1.00202E-18
 -1      1087 9.28108E-05-2.63464E-05-2.84843E-05-2.08297E-06-6.57739E-19-8.89556E-19
 -1      1088 9.24423E-05-2.71746E-05-2.79709E-05-5.97378E-06 3.34662E-19-1.37562E-19
 -1      1089 9.32549E-05-2.85962E-05-2.77105E-05-8.12025E-06 7.28742E-19-5.75545E-19
 -1      1090 9.51241E-05-3.10965E-05-2.74427E-05-1.06949E-05 5.71306E-19-2.94149E-19
 -1      1091 9.85833E-05-3.49604E-05-2.72657E-05-1.32034E-05-5.08149E-19-2.53701E-19
 -1      1092 1.04343E-04-4.00438E-05-2.75684E-05-1.38593E-05-3.25363E-20 4.31655E-19
 -1      1093 9.22688E-05-2.64848E-05-2.81923E-05-4.27919E-06-2.08261E-19-6.49011E-19
 -1      1094 9.32409E-05-2.65875E-05-2.85654E-05-1.43028E-06-4.57671E-19-8.93620E-19
 -1      1095 9.48204E-05-2.79521E-05-2.86578E-05-3.45255E-07-8.24201E-19 5.05334E-19
 -1      1096 8.79307E-05-2.70454E-05-2.60816E-05-1.48806E-05 1.18489E-18-1.18415E-18
 -1      1097 9.44765E-05-2.76167E-05-2.86541E-05-4.73891E-07-7.93864E-19 2.40230E-19
 -1      1098 9.66903E-05-2.71636E-05-2.97971E-05-9.45489E-09 1.14727E-19 3.55485E-20
 -1      1099 9.65393E-05-2.68884E-05-2.98491E-05 1.29014E-07 4.56446E-19-1.33620E-19
 -1      1100 9.69870E-05-2.86610E-05-2.92826E-05 1.26443E-07-1.54155E-19 2.26222E-19
 -1      1101 9.64473E-05-2.92547E-05-2.87969E-05-2.07481E-07-4.63380E-20-1.94613E-19
 -1      1102 9.67583E-05-2.73445E-05-2.97486E-05 4.60049E-09 2.20899E-19 2.70222E-19
 -1      1103 9.69532E-05-2.82875E-05-2.94280E-05-1.15649E-07-7.25318E-20 1.23637E-19
 -1      1104 9.69618E-05-2.88394E-05-2.91952E-05-1.77422E-07-1.77341E-19 4.35325E-19
 -1      1105 9.62045E-05-2.91577E-05-2.87343E-05-2.01968E-07 3.05783E-19 3.81384E-20
 -1      1106 9.54200E-05-2.85416E-05-2.86622E-05-2.22486E-07-9.28601E-19-3.30439E-19
 -1      1107 9.66678E-05-2.92738E-05-2.88831E-05-1.01896E-07 2.04829E-19-8.62647E-21
 -1      1108 9.56657E-05-2.87602E-05-2.86738E-05-1.05746E-07-1.47608E-19 8.43556E-20
 -1      1109 9.59434E-05-2.89879E-05-2.86951E-05-1.48688E-07 2.30166E-19 4.02842E-19
 -1      1110 9.68555E-05-2.91546E-05-2.90146E-05-1.54297E-07 1.14067E-19 3.82775E-19
 -1      1111 1.16853E-04 2.57561E-10-4.18544E-05-4.14653E-05-1.88888E-19 2.39499E-18
 -1      1112 8.86482E-05 7.19149E-11-3.72502E-05-2.41685E-05-7.58094E-20-9.21731E-19
 -1      1113 8.40764E-05 4.14516E-11-3.57661E-05-1.78794E-05-3.74283E-20-2.06459E-18
 -1      1114 8.23338E-05 3.20265E-11-3.50726E-05-1.38372E-05-1.76818E-20-2.47413E-18
 -1      1115 8.15316E-05 2.73301E-11-3.47387E-05-1.05347E-05-5.47924E-21-2.58155E-18
 -1      1116 8.11306E-05 2.46111E-11-3.45737E-05-7.64166E-06 6.87553E-21-2.52520E-18
 -1      1117 8.09224E-05 2.29551E-11-3.44907E-05-4.98029E-06 6.48510E-21-2.35908E-18
 -1      1118 8.08209E-05 2.20599E-11-3.44516E-05-2.43232E-06 1.64344E-20-2.14765E-18
 -1      1119 8.07919E-05 2.17893E-11-3.44407E-05 5.26146E-08 1.67620E-20-1.97878E-18
 -1      1120 8.08251E-05 2.21039E-11-3.44531E-05 2.54007E-06 3.11086E-20-1.73794E-18
 -1      1121 8.09311E-05 2.30541E-11-3.44936E-05 5.09628E-06 3.06057E-20-1.45006E-18
 -1      1122 8.11460E-05 2.47689E-11-3.45779E-05 7.77355E-06 4.40788E-20-1.07671E-18
 -1      1123 8.15539E-05 2.76375E-11-3.47448E-05 1.06941E-05 5.03323E-20-6.08408E-19
 -1      1124 8.23591E-05 3.25083E-11-3.50821E-05 1.40436E-05 5.26219E-20 1.62776E-19
 -1      1125 8.40730E-05 4.19130E-11-3.57857E-05 1.81317E-05 5.97688E-20 1.33891E-18
 -1      1126 8.83444E-05 6.67390E-11-3.73209E-05 2.40108E-05 4.54221E-20 3.31714E-18
 -1      1127 1.06618E-04 1.63921E-10-4.06340E-05 3.61914E-05 4.34104E-20 6.77732E-18
 -1      1128 1.30219E-04-2.57560E-05-4.02728E-05-2.61057E-05-6.41839E-19 4.33173E-18
 -1      1129 9.74541E-05-2.88618E-05-3.15768E-05-6.80461E-07-2.32802E-19 2.88044E-18
 -1      1130 9.01554E-05-2.70252E-05-2.78920E-05 3.86963E-07-9.42324E-20 1.10791E-18
 -1      1131 8.82429E-05-2.65705E-05-2.66420E-05 2.50770E-07-1.16444E-19-2.57551E-20
 -1      1132 8.78831E-05-2.64433E-05-2.63851E-05 1.65839E-07 1.95198E-20-1.15350E-18
 -1      1133 8.82406E-05-2.65195E-05-2.64695E-05 1.17950E-07-1.44781E-20-1.65921E-18
 -1      1134 8.89247E-05-2.67034E-05-2.66715E-05 8.73111E-08-1.42895E-20-2.20475E-18
 -1      1135 8.97370E-05-2.69345E-05-2.69134E-05 6.60445E-08-6.08433E-21-2.76976E-18
 -1      1136 9.05674E-05-2.71764E-05-2.71610E-05 5.02736E-08-1.79013E-20-3.33842E-18
 -1      1137 9.13544E-05-2.74085E-05-2.73963E-05 3.81922E-08 1.52795E-20-3.74413E-18
 -1      1138 9.20816E-05-2.76242E-05-2.76147E-05 2.91146E-08-4.95593E-20-4.24849E-18
 -1      1139 9.27159E-05-2.78131E-05-2.78054E-05 2.05300E-08 4.42890E-20-4.32341E-18
 -1      1140 9.32421E-05-2.79706E-05-2.79644E-05 1.46660E-08-1.58188E-19-4.01292E-18
 -1      1141 9.36850E-05-2.81036E-05-2.80987E-05 9.97035E-09-3.79336E-20-4.64425E-18
 -1      1142 9.40573E-05-2.82157E-05-2.82119E-05 6.29024E-09-4.64077E-20-3.71097E-18
 -1      1143 9.43755E-05-2.83120E-05-2.83092E-05 3.45648E-09-1.18555E-19-4.52569E-18
 -1      1144 9.46597E-05-2.83983E-05-2.83964E-05 1.34117E-09 1.88259E-20-4.51041E-18
 -1      1145 9.49334E-05-2.84819E-05-2.84808E-05-1.29279E-10-3.05283E-20-3.67182E-18
 -1      1146 9.52248E-05-2.85711E-05-2.85710E-05-9.58792E-10 3.60078E-20-3.57841E-18
 -1      1147 9.55688E-05-2.86766E-05-2.86778E-05-1.06365E-09 2.13417E-19-2.50154E-18
 -1      1148 9.60100E-05-2.88123E-05-2.88149E-05-3.15246E-10 5.61875E-20-1.79021E-18
 -1      1149 9.66267E-05-2.90006E-05-2.90070E-05 1.22956E-09-1.03911E-19-2.55530E-18
 -1      1150 9.74951E-05-2.92667E-05-2.92776E-05 7.52321E-09-8.94654E-20-3.53698E-18
 -1      1151 9.87084E-05-2.96373E-05-2.96562E-05 1.69060E-08 1.77234E-19-2.83753E-18
 -1      1152 1.00451E-04-3.01683E-05-3.02008E-05 3.38905E-08-1.14614E-19-1.22153E-18
 -1      1153 1.02962E-04-3.09311E-05-3.09864E-05 6.39941E-08 8.90956E-20-2.24959E-18
 -1      1154 1.06575E-04-3.20250E-05-3.21164E-05 1.16408E-07-1.79971E-19-2.05919E-18
 -1      1155 1.11739E-04-3.35813E-05-3.37245E-05 2.05091E-07 5.18609E-20-9.25701E-19
 -1      1156 1.18985E-04-3.57565E-05-3.59552E-05 3.47145E-07 9.45269E-20-5.91229E-19
 -1      1157 1.28780E-04-3.86874E-05-3.88939E-05 5.50470E-07 2.00112E-19-1.35716E-18
 -1      1158 1.41054E-04-4.23567E-05-4.23898E-05 7.68909E-07-3.69777E-19-2.51781E-18
 -1      1159 1.54158E-04-4.62694E-05-4.57613E-05 8.19573E-07 1.04966E-19-3.52948E-18
 -1      1160 1.63231E-04-4.89138E-05-4.75580E-05 2.03401E-07-3.29549E-19-6.20933E-18
 -1      1161 1.58737E-04-4.73501E-05-4.57485E-05-1.73069E-06 2.68351E-19-5.44070E-18
 -1      1162 1.34091E-04-3.97790E-05-3.98530E-05-4.05616E-06-5.88953E-20-1.85458E-18
 -1      1163 1.00732E-04-2.95642E-05-3.31821E-05-4.01917E-06 2.37434E-20-8.56350E-19
 -1      1164 8.14216E-05-2.41756E-05-2.94983E-05-8.00388E-07 1.86030E-19 7.76941E-19
 -1      1165 9.19632E-05-2.73070E-05-3.13893E-05 3.54582E-06-6.82391E-20 4.05221E-18
 -1      1166 1.24992E-04-3.69177E-05-3.78555E-05 4.45439E-06-2.99982E-19 4.54899E-18
 -1      1167 1.53945E-04-4.58448E-05-4.44227E-05 2.34884E-06-2.64142E-19 2.59234E-18
 -1      1168 1.62363E-04-4.86220E-05-4.71058E-05 9.08056E-08-4.77475E-19 7.62700E-19
 -1      1169 1.55136E-04-4.65493E-05-4.58618E-05-7.50406E-07-2.51926E-20-1.42471E-18
 -1      1170 1.42006E-04-4.26336E-05-4.25740E-05-8.20023E-07 1.56281E-19-4.87679E-19
 -1      1171 1.28771E-04-3.86802E-05-3.88572E-05-6.27933E-07 1.61002E-20 4.86832E-19
 -1      1172 1.17695E-04-3.53692E-05-3.55662E-05-4.24775E-07 4.74679E-19 1.77242E-18
 -1      1173 1.09141E-04-3.28068E-05-3.29595E-05-2.78578E-07 1.37868E-19 1.55515E-18
 -1      1174 1.02812E-04-3.09053E-05-3.10230E-05-1.83243E-07 1.76388E-20 1.95575E-18
 -1      1175 9.83772E-05-2.95690E-05-2.96815E-05-1.06968E-07 4.42456E-19 2.34137E-18
 -1      1176 9.57431E-05-2.87747E-05-2.88681E-05 1.20536E-08-6.35440E-20 1.18034E-18
 -1      1177 9.50706E-05-2.86616E-05-2.84390E-05 2.02451E-07-5.98072E-20 7.05353E-20
 -1      1178 1.31054E-04-3.77382E-05-3.86593E-05 1.21741E-05-1.35102E-19 9.43722E-18
 -1      1179 9.65560E-05-2.81902E-05-3.13288E-05 8.01743E-07-8.73503E-21 8.63995E-18
 -1      1180 9.03659E-05-2.69328E-05-2.78690E-05 1.19594E-07 1.03431E-20 7.55744E-18
 -1      1181 8.83292E-05-2.65032E-05-2.66753E-05 7.26451E-09 1.60308E-20 6.81692E-18
 -1      1182 8.79258E-05-2.64117E-05-2.64117E-05-2.71416E-08 1.94834E-20 6.07677E-18
 -1      1183 8.82633E-05-2.65041E-05-2.64856E-05-3.48659E-08 4.07295E-20 5.26600E-18
 -1      1184 8.89386E-05-2.66971E-05-2.66820E-05-3.55889E-08-3.06743E-20 5.18448E-18
 -1      1185 8.97465E-05-2.69332E-05-2.69210E-05-3.35410E-08-8.76203E-20 5.70400E-18
 -1      1186 9.05750E-05-2.71780E-05-2.71672E-05-3.02730E-08-4.50970E-20 5.66682E-18
 -1      1187 9.13617E-05-2.74117E-05-2.74017E-05-2.64233E-08 1.20739E-19 4.74597E-18
 -1      1188 9.20739E-05-2.76240E-05-2.76148E-05-2.23719E-08 5.15397E-20 3.63423E-18
 -1      1189 9.26980E-05-2.78104E-05-2.78022E-05-1.83629E-08 4.83989E-20 2.80917E-18
 -1      1190 9.32331E-05-2.79705E-05-2.79634E-05-1.45483E-08-7.24874E-21 3.00450E-18
 -1      1191 9.36863E-05-2.81063E-05-2.81004E-05-1.10173E-08-4.91201E-20 3.00656E-18
 -1      1192 9.40702E-05-2.82215E-05-2.82168E-05-7.82021E-09 1.29707E-19 1.92232E-18
 -1      1193 9.44009E-05-2.83210E-05-2.83175E-05-4.99046E-09 1.91925E-20 1.05723E-18
 -1      1194 9.46969E-05-2.84101E-05-2.84080E-05-2.56606E-09-6.80426E-20 2.22540E-18
 -1      1195 9.49783E-05-2.84949E-05-2.84942E-05-6.11519E-10-7.40381E-20 2.35946E-18
 -1      1196 9.52659E-05-2.85816E-05-2.85824E-05 7.60314E-10 1.66527E-19 1.34076E-18
 -1      1197 9.55802E-05-2.86761E-05-2.86785E-05 1.36825E-09-1.44909E-20 5.37689E-19
 -1      1198 9.59399E-05-2.87840E-05-2.87880E-05 9.49158E-10-1.87489E-19 1.12793E-18
 -1      1199 9.63596E-05-2.89095E-05-2.89150E-05-8.40134E-10 9.52300E-20 1.05797E-18
 -1      1200 9.68455E-05-2.90542E-05-2.90607E-05-4.38928E-09-2.02635E-19 8.85919E-19
 -1      1201 9.73895E-05-2.92154E-05-2.92220E-05-1.00450E-08-1.21834E-19 3.99164E-19
 -1      1202 9.79622E-05-2.93842E-05-2.93891E-05-1.79341E-08-3.38076E-20 8.14925E-19
 -1      1203 9.85027E-05-2.95423E-05-2.95427E-05-2.76713E-08-1.02847E-19 1.11187E-18
 -1      1204 9.89104E-05-2.96596E-05-2.96516E-05-3.79504E-08 1.64420E-19 8.18409E-19
 -1      1205 9.90393E-05-2.96932E-05-2.96720E-05-4.61011E-08-3.72137E-19 9.11730E-19
 -1      1206 9.87033E-05-2.95886E-05-2.95497E-05-4.78429E-08-2.27222E-19 1.50828E-18
 -1      1207 9.76983E-05-2.92863E-05-2.92279E-05-3.76713E-08 1.02752E-19 1.03001E-18
 -1      1208 9.58512E-05-2.87364E-05-2.86619E-05-1.04252E-08 3.96612E-19-2.66286E-19
 -1      1209 9.30944E-05-2.79194E-05-2.78406E-05 3.57143E-08-2.36771E-19 6.15449E-19
 -1      1210 8.95529E-05-2.68718E-05-2.68089E-05 9.55587E-08-4.53313E-19 2.53215E-18
 -1      1211 8.56049E-05-2.57030E-05-2.56807E-05 1.54876E-07 1.54550E-19 3.75704E-18
 -1      1212 8.18672E-05-2.45927E-05-2.46302E-05 1.93030E-07-1.28188E-19 3.14397E-18
 -1      1213 7.90667E-05-2.37545E-05-2.38543E-05 1.91335E-07-1.77660E-19 1.33216E-18
 -1      1214 7.78184E-05-2.33723E-05-2.35143E-05 1.43664E-07 1.83525E-19-1.14389E-19
 -1      1215 7.83980E-05-2.35327E-05-2.36801E-05 6.17842E-08-8.86291E-20-6.94527E-19
 -1      1216 8.06304E-05-2.41890E-05-2.43032E-05-2.91917E-08 3.49014E-19-1.83674E-19
 -1      1217 8.39568E-05-2.51780E-05-2.52348E-05-1.02886E-07-1.69556E-19 6.97373E-19
 -1      1218 8.76433E-05-2.62807E-05-2.62774E-05-1.43092E-07 1.39928E-19 1.10273E-19
 -1      1219 9.10187E-05-2.72942E-05-2.72461E-05-1.47787E-07-6.09806E-20 2.01049E-18
 -1      1220 9.36361E-05-2.80824E-05-2.80119E-05-1.25579E-07 3.14044E-19 1.32723E-18
 -1      1221 9.53189E-05-2.85909E-05-2.85188E-05-8.90329E-08 7.10242E-20-2.17243E-18
 -1      1222 9.61190E-05-2.88345E-05-2.87751E-05-4.93555E-08-5.11239E-20-4.32151E-18
 -1      1223 9.62362E-05-2.88729E-05-2.88342E-05-1.42956E-08 3.47511E-19-6.18691E-18
 -1      1224 9.59413E-05-2.87870E-05-2.87722E-05 1.12989E-08 1.90779E-19-6.75014E-18
 -1      1225 9.55200E-05-2.86614E-05-2.86689E-05 2.20919E-08 6.85195E-21-5.08306E-18
 -1      1226 9.52286E-05-2.85720E-05-2.85858E-05 1.01858E-08 4.79254E-19-4.00007E-18
 -1      1227 9.51917E-05-2.85574E-05-2.85357E-05-1.50317E-08-1.94260E-19-3.13996E-18
 -1      1228 9.52502E-05-2.86181E-05-2.85366E-05-1.62510E-08-3.40711E-18-3.80511E-20
 -1      1229 9.52330E-05-2.85871E-05-2.85866E-05-2.04789E-08-3.39594E-18-9.01441E-20
 -1      1230 9.51336E-05-2.82709E-05-2.86956E-05 8.51710E-10 6.25891E-19-4.73649E-19
 -1      1231 9.49259E-05-2.75894E-05-2.89054E-05 1.81568E-08 2.05571E-20 1.77666E-19
 -1      1232 9.45963E-05-2.64917E-05-2.92372E-05 3.96082E-08 1.21296E-18-9.76204E-19
 -1      1233 9.41419E-05-2.49682E-05-2.96890E-05 6.40575E-08-2.99911E-18-6.99946E-19
 -1      1234 9.35816E-05-2.30717E-05-3.02414E-05 8.55914E-08-6.16588E-18 4.69950E-19
 -1      1235 9.29629E-05-2.09663E-05-3.08430E-05 9.69602E-08-4.27259E-18-3.28108E-19
 -1      1236 9.23846E-05-1.89860E-05-3.13975E-05 8.90092E-08-3.26822E-19 1.37794E-19
 -1      1237 9.19668E-05-1.75428E-05-3.17900E-05 5.58378E-08 3.24089E-18 1.79947E-19
 -1      1238 9.18281E-05-1.70499E-05-3.19094E-05-2.10094E-09 1.67002E-18-6.36353E-19
 -1      1239 9.20497E-05-1.77806E-05-3.16879E-05-7.58422E-08 1.69121E-18 4.37863E-19
 -1      1240 9.26292E-05-1.97522E-05-3.11299E-05-1.42957E-07 2.59142E-18-2.04949E-19
 -1      1241 9.34811E-05-2.26607E-05-3.03315E-05-1.82224E-07 2.92557E-18 5.72938E-19
 -1      1242 9.43872E-05-2.57703E-05-2.94923E-05-1.47849E-07 6.01679E-18 4.56126E-19
 -1      1243 9.50926E-05-2.81077E-05-2.88326E-05 4.77293E-08 7.99407E-18-4.45309E-19
 -1      1244 9.51831E-05-2.87578E-05-2.84269E-05 1.90928E-07 1.98944E-18 1.93815E-19
 -1      1245 3.56120E-05-1.12985E-04 1.96296E-05-1.38084E-05 4.07042E-18 4.42919E-19
 -1      1246 1.66484E-05-6.10771E-05 8.75749E-06-2.15844E-05 4.85265E-18 1.55558E-18
 -1      1247 8.72271E-06-1.69456E-06-8.70703E-06 7.58498E-06 6.08508E-18 4.08863E-18
 -1      1248 3.79578E-05 2.88413E-05-2.84666E-05 6.04298E-05 2.52077E-18 2.01086E-18
 -1      1249 1.15494E-04 1.39159E-05-4.96769E-05 1.07324E-04-5.47183E-19-1.11808E-19
 -1      1250 2.16412E-04-3.40871E-05-6.74009E-05 1.15456E-04 7.15319E-19 1.21634E-18
 -1      1251 2.97424E-04-8.21469E-05-7.82607E-05 6.72403E-05 6.23628E-20-3.24244E-18
 -1      1252 3.17815E-04-9.39198E-05-8.12555E-05-1.70722E-05 6.20822E-19-8.19578E-18
 -1      1253 2.71404E-04-6.54451E-05-7.50402E-05-9.08110E-05 3.44997E-18-1.09809E-17
 -1      1254 1.80554E-04-1.47357E-05-6.19024E-05-1.19740E-04 5.67173E-18-1.12486E-17
 -1      1255 8.71961E-05 2.36982E-05-4.35919E-05-9.74926E-05 5.95972E-18-9.09544E-18
 -1      1256 2.57859E-05 2.32587E-05-2.26628E-05-4.44342E-05 1.34848E-18-1.79656E-18
 -1      1257 8.78532E-06-1.95964E-05-2.38753E-06 6.02356E-06-8.74138E-19-1.91429E-19
 -1      1258 2.29783E-05-7.91926E-05 1.27473E-05 2.42177E-05-4.42405E-18 1.10877E-18
 -1      1259 3.80461E-05-1.17675E-04 2.06193E-05 7.01576E-06-6.02876E-18 5.30507E-19
 -1      1260 3.63357E-05-1.17366E-04 2.06616E-05-2.30325E-05-1.90794E-18 7.12302E-20
 -1      1261 1.71313E-05-7.40985E-05 1.19757E-05-3.44716E-05 5.36172E-19 3.01544E-19
 -1      1262 7.03559E-06-1.78213E-05-4.44126E-06-1.00280E-05 6.48827E-19 5.53960E-19
 -1      1263 3.85108E-05 1.71973E-05-2.69780E-05 4.85349E-05 2.83248E-18 3.61683E-18
 -1      1264 1.27893E-04 3.78279E-06-5.11867E-05 1.04674E-04 2.81384E-18 4.34528E-18
 -1      1265 2.49002E-04-4.85375E-05-7.21954E-05 1.10829E-04 1.23328E-18 3.05271E-18
 -1      1266 3.49607E-04-1.03083E-04-8.53729E-05 5.48857E-05 4.62215E-19 2.33188E-18
 -1      1267 3.56240E-04-1.06141E-04-8.66751E-05-3.83376E-05-7.68418E-20-3.03661E-19
 -1      1268 2.82061E-04-6.52409E-05-7.69229E-05-1.05947E-04-5.14996E-19 8.74138E-19
 -1      1269 1.67823E-04-1.04751E-05-5.93373E-05-1.15834E-04 1.11724E-18-1.93124E-19
 -1      1270 6.95861E-05 1.97983E-05-3.78620E-05-7.75204E-05 3.84892E-18-3.51349E-18
 -1      1271 1.65575E-05 8.58642E-06-1.66375E-05-2.10305E-05 2.77827E-19-1.32984E-18
 -1      1272 7.36679E-06-3.63881E-05 2.02942E-06 2.30997E-05-1.69745E-18 1.81858E-18
 -1      1273 2.38122E-05-9.05134E-05 1.53683E-05 3.45967E-05 7.51318E-19-2.88838E-19
 -1      1274 3.85912E-05-1.22326E-04 2.15386E-05 1.51840E-05 6.93275E-18-1.38487E-18
 -1      1275 1.04441E-04-2.20189E-05-3.78913E-05-1.72756E-05-2.56651E-19 1.44758E-18
 -1      1276 9.03169E-05-6.68074E-06-3.60161E-05-2.04729E-05-4.57874E-19-1.46833E-18
 -1      1277 9.26533E-05-6.73953E-06-3.72212E-05-2.57607E-05-6.73391E-19-8.51903E-19
 -1      1278 8.59027E-05-4.09650E-06-3.51291E-05-1.64350E-05-3.57024E-19-2.22621E-18
 -1      1279 8.71541E-05-4.08912E-06-3.55983E-05-1.88554E-05-4.52527E-19-1.93589E-18
 -1      1280 9.21311E-05-1.04624E-05-3.50924E-05-1.90367E-05-7.92982E-19-1.25525E-18
 -1      1281 8.40951E-05-3.19037E-06-3.46864E-05-1.28181E-05-1.67501E-19-2.53477E-18
 -1      1282 8.47065E-05-3.16091E-06-3.49106E-05-1.46328E-05-2.31584E-19-2.41614E-18
 -1      1283 8.78650E-05-7.39495E-06-3.45729E-05-1.54135E-05-4.98532E-19-1.92353E-18
 -1      1284 8.31848E-05-2.72750E-06-3.44701E-05-9.68849E-06-2.73300E-20-2.58041E-18
 -1      1285 8.34976E-05-2.70914E-06-3.45792E-05-1.12358E-05-6.39510E-20-2.58123E-18
 -1      1286 8.58655E-05-5.98217E-06-3.43050E-05-1.19567E-05-2.03963E-19-2.16610E-18
 -1      1287 8.26942E-05-2.45755E-06-3.43638E-05-6.91648E-06 8.62485E-20-2.47158E-18
 -1      1288 8.28632E-05-2.44915E-06-3.44182E-05-8.28772E-06 3.11285E-20-2.52047E-18
 -1      1289 8.48209E-05-5.21697E-06-3.41728E-05-8.94634E-06-2.85675E-20-2.15631E-18
 -1      1290 8.24192E-05-2.29205E-06-3.43112E-05-4.29578E-06 1.58743E-19-2.28130E-18
 -1      1291 8.25101E-05-2.28813E-06-3.43383E-05-5.59731E-06 1.31551E-19-2.40432E-18
 -1      1292 8.42357E-05-4.76203E-06-3.41095E-05-6.21784E-06 1.71643E-19-2.09410E-18
 -1      1293 8.22868E-05-2.20260E-06-3.42889E-05-1.79028E-06 3.05853E-19-2.11321E-18
 -1      1294 8.23257E-05-2.20103E-06-3.43000E-05-3.04161E-06 2.54553E-19-2.18740E-18
 -1      1295 8.39135E-05-4.49826E-06-3.40808E-05-3.64533E-06 3.25117E-19-1.85459E-18
 -1      1296 8.22608E-05-2.17507E-06-3.42863E-05 6.70088E-07 3.87280E-19-1.89284E-18
 -1      1297 8.22594E-05-2.17511E-06-3.42859E-05-5.66081E-07 3.53358E-19-2.00646E-18
 -1      1298 8.37722E-05-4.37857E-06-3.40700E-05-1.17070E-06 5.43330E-19-1.67935E-18
 -1      1299 8.23343E-05-2.20533E-06-3.43015E-05 3.14925E-06 4.68710E-19-1.67926E-18
 -1      1300 8.22925E-05-2.20696E-06-3.42897E-05 1.89532E-06 4.46648E-19-1.81244E-18
 -1      1301 8.37771E-05-4.38278E-06-3.40703E-05 1.27411E-06 6.79597E-19-1.49689E-18
 -1      1302 8.25271E-05-2.29835E-06-3.43409E-05 5.71412E-06 5.42174E-19-1.40127E-18
 -1      1303 8.24328E-05-2.30174E-06-3.43131E-05 4.40668E-06 5.21293E-19-1.56868E-18
 -1      1304 8.39289E-05-4.51174E-06-3.40818E-05 3.75304E-06 8.34292E-19-1.30515E-18
 -1      1305 8.28858E-05-2.46389E-06-3.44209E-05 8.39636E-06 6.15369E-19-1.01485E-18
 -1      1306 8.27135E-05-2.47264E-06-3.43661E-05 7.01641E-06 5.83540E-19-1.23479E-18
 -1      1307 8.42609E-05-4.78481E-06-3.41107E-05 6.31214E-06 9.05654E-19-1.03730E-18
 -1      1308 8.35430E-05-2.74064E-06-3.45840E-05 1.13964E-05 7.38745E-19-4.85562E-19
 -1      1309 8.32220E-05-2.75781E-06-3.44735E-05 9.83156E-06 6.92767E-19-7.77947E-19
 -1      1310 8.48624E-05-5.25737E-06-3.41736E-05 9.05574E-06 1.05891E-18-6.34692E-19
 -1      1311 8.47675E-05-3.20550E-06-3.49182E-05 1.48442E-05 8.04046E-19 2.76292E-19
 -1      1312 8.41529E-05-3.24031E-06-3.46916E-05 1.30037E-05 7.38057E-19-1.89775E-19
 -1      1313 8.59449E-05-6.06216E-06-3.43059E-05 1.21225E-05 1.18573E-18-9.90499E-20
 -1      1314 8.72504E-05-4.08888E-06-3.56194E-05 1.90945E-05 8.01081E-19 1.56897E-18
 -1      1315 8.59719E-05-4.15422E-06-3.51363E-05 1.66976E-05 7.39804E-19 8.21940E-19
 -1      1316 8.79881E-05-7.51889E-06-3.45745E-05 1.56528E-05 1.22542E-18 7.25325E-19
 -1      1317 9.34661E-05-6.79291E-06-3.71175E-05 2.50958E-05 5.44536E-19 3.64251E-18
 -1      1318 9.01304E-05-6.43621E-06-3.60391E-05 2.11485E-05 5.86570E-19 2.39906E-18
 -1      1319 9.23545E-05-1.06949E-05-3.50779E-05 1.96798E-05 1.09572E-18 2.09635E-18
 -1      1320 1.23628E-04-2.49237E-05-3.90158E-05 2.83667E-05 1.31396E-19 6.95499E-18
 -1      1321 1.00082E-04-1.44238E-05-3.73551E-05 2.40505E-05 1.92700E-19 4.75567E-18
 -1      1322 1.01684E-04-1.93443E-05-3.54036E-05 2.14005E-05 7.87079E-19 3.98063E-18
 -1      1323 1.02606E-04-2.78052E-05-3.47588E-05 7.32860E-06 3.16155E-19 6.97701E-18
 -1      1324 1.05148E-04-3.02308E-05-3.35255E-05-7.95995E-06-5.55548E-19 1.75971E-18
 -1      1325 9.82614E-05-2.78432E-05-3.07623E-05-4.98878E-06-4.86938E-19 1.08981E-18
 -1      1326 9.55033E-05-2.78493E-05-2.92547E-05-2.49011E-06-4.24840E-19 8.17827E-19
 -1      1327 9.32707E-05-2.75583E-05-2.82154E-05-2.04343E-06-4.27460E-19 2.25099E-19
 -1      1328 9.94855E-05-2.80522E-05-3.09830E-05-7.88764E-06-8.96055E-19 1.32825E-19
 -1      1329 9.15809E-05-2.72003E-05-2.75811E-05-8.38452E-07-3.64158E-19 5.92129E-20
 -1      1330 9.08641E-05-2.71049E-05-2.72787E-05-7.28200E-07-3.27603E-19-4.05014E-19
 -1      1331 9.47185E-05-2.77701E-05-2.88167E-05-3.12120E-06-7.04149E-19-2.21976E-19
 -1      1332 9.01140E-05-2.69222E-05-2.70354E-05-1.74038E-07-2.85834E-19-6.35486E-19
 -1      1333 9.00413E-05-2.69490E-05-2.70005E-05-1.16041E-07-2.94609E-19-1.14540E-18
 -1      1334 9.25192E-05-2.74995E-05-2.78958E-05-1.05350E-06-6.21232E-19-4.93225E-19
 -1      1335 8.97818E-05-2.68815E-05-2.69263E-05 1.54013E-07-1.66144E-19-1.22032E-18
 -1      1336 8.99960E-05-2.69714E-05-2.69878E-05 1.82660E-07-1.42369E-19-1.38945E-18
 -1      1337 9.15608E-05-2.73561E-05-2.75287E-05-7.05667E-08-4.45672E-19-8.78459E-19
 -1      1338 8.99998E-05-2.69746E-05-2.69943E-05 3.13679E-07-1.52368E-19-1.54087E-18
 -1      1339 9.03416E-05-2.70940E-05-2.70932E-05 3.25387E-07-1.40092E-19-1.68763E-18
 -1      1340 9.13076E-05-2.73440E-05-2.74208E-05 4.16420E-07-3.08082E-19-1.08926E-18
 -1      1341 9.04838E-05-2.71358E-05-2.71404E-05 3.79959E-07-1.18996E-19-1.76733E-18
 -1      1342 9.08708E-05-2.72639E-05-2.72523E-05 3.81645E-07-2.17969E-19-2.05296E-18
 -1      1343 9.14406E-05-2.74177E-05-2.74431E-05 6.44590E-07-2.44505E-19-1.04081E-18
 -1      1344 9.10793E-05-2.73243E-05-2.73188E-05 3.92366E-07-2.61084E-19-2.12067E-18
 -1      1345 9.14660E-05-2.74487E-05-2.74309E-05 3.88228E-07-1.36613E-19-2.43605E-18
 -1      1346 9.17737E-05-2.75366E-05-2.75322E-05 7.27238E-07-3.84258E-19-1.31168E-18
 -1      1347 9.16981E-05-2.75155E-05-2.75041E-05 3.73911E-07-7.71172E-20-2.59952E-18
 -1      1348 9.20604E-05-2.76303E-05-2.76093E-05 3.66815E-07-2.88203E-19-2.77239E-18
 -1      1349 9.21967E-05-2.76741E-05-2.76526E-05 7.26255E-07-2.94319E-19-1.54336E-18
 -1      1350 9.23033E-05-2.76997E-05-2.76855E-05 3.37797E-07-3.38591E-19-2.77940E-18
 -1      1351 9.26410E-05-2.78055E-05-2.77843E-05 3.28799E-07-2.02053E-19-3.08632E-18
 -1      1352 9.26541E-05-2.78161E-05-2.77867E-05 6.77385E-07-5.14975E-19-1.71954E-18
 -1      1353 9.28551E-05-2.78666E-05-2.78514E-05 2.95854E-07-9.79721E-20-3.03413E-18
 -1      1354 9.31339E-05-2.79527E-05-2.79332E-05 2.87124E-07 2.72178E-20-2.89975E-18
 -1      1355 9.30968E-05-2.79506E-05-2.79180E-05 6.04419E-07-1.88557E-19-1.80333E-18
 -1      1356 9.33275E-05-2.80081E-05-2.79936E-05 2.54069E-07-2.57822E-20-2.90174E-18
 -1      1357 9.35649E-05-2.80806E-05-2.80635E-05 2.46004E-07-1.89539E-19-3.14578E-18
 -1      1358 9.34931E-05-2.80685E-05-2.80371E-05 5.26331E-07 5.71478E-20-2.18570E-18
 -1      1359 9.37359E-05-2.81295E-05-2.81168E-05 2.16141E-07-1.67714E-19-3.13779E-18
 -1      1360 9.39363E-05-2.81901E-05-2.81761E-05 2.09285E-07 5.75174E-20-3.03163E-18
 -1      1361 9.38475E-05-2.81724E-05-2.81446E-05 4.51571E-07-2.40286E-19-2.00822E-18
 -1      1362 9.40872E-05-2.82331E-05-2.82231E-05 1.84958E-07 2.57867E-19-2.95665E-18
 -1      1363 9.42577E-05-2.82841E-05-2.82736E-05 1.79708E-07-1.34883E-19-2.95589E-18
 -1      1364 9.41609E-05-2.82630E-05-2.82404E-05 3.87069E-07 1.83399E-19-1.86368E-18
 -1      1365 9.43932E-05-2.83226E-05-2.83158E-05 1.62740E-07-1.98668E-19-2.56663E-18
 -1      1366 9.45427E-05-2.83668E-05-2.83604E-05 1.59419E-07 2.00393E-20-2.72047E-18
 -1      1367 9.44401E-05-2.83424E-05-2.83265E-05 3.37910E-07 1.02908E-19-1.47813E-18
 -1      1368 9.46698E-05-2.84028E-05-2.83999E-05 1.51485E-07-3.70236E-20-2.51575E-18
 -1      1369 9.48089E-05-2.84434E-05-2.84415E-05 1.50433E-07-3.12569E-20-2.48972E-18
 -1      1370 9.46966E-05-2.84143E-05-2.84063E-05 3.08346E-07-9.99711E-20-8.21881E-19
 -1      1371 9.49366E-05-2.84794E-05-2.84813E-05 1.53415E-07 1.87877E-19-2.31121E-18
 -1      1372 9.50780E-05-2.85203E-05-2.85237E-05 1.55063E-07 1.66767E-19-2.22574E-18
 -1      1373 9.49456E-05-2.84830E-05-2.84843E-05 3.02676E-07 1.78512E-19-7.30733E-19
 -1      1374 9.52174E-05-2.85594E-05-2.85671E-05 1.71436E-07-4.20580E-20-2.06785E-18
 -1      1375 9.53767E-05-2.86052E-05-2.86149E-05 1.76398E-07-3.02785E-20-1.98944E-18
 -1      1376 9.52066E-05-2.85541E-05-2.85666E-05 3.26132E-07 2.48825E-19-9.53976E-19
 -1      1377 9.55418E-05-2.86513E-05-2.86665E-05 2.09685E-07 1.88502E-19-1.73669E-18
 -1      1378 9.57385E-05-2.87077E-05-2.87256E-05 2.18889E-07 2.21965E-19-1.57990E-18
 -1      1379 9.55038E-05-2.86341E-05-2.86609E-05 3.85868E-07 1.89744E-19-7.98358E-19
 -1      1380 9.59472E-05-2.87655E-05-2.87909E-05 2.74261E-07 3.17513E-19-1.57263E-18
 -1      1381 9.62073E-05-2.88406E-05-2.88688E-05 2.88960E-07 2.12689E-20-1.58520E-18
 -1      1382 9.58680E-05-2.87314E-05-2.87768E-05 4.92133E-07 3.85049E-19-1.46575E-18
 -1      1383 9.64983E-05-2.89209E-05-2.89603E-05 3.78201E-07-3.84048E-19-1.44541E-18
 -1      1384 9.68780E-05-2.90301E-05-2.90742E-05 4.02954E-07-4.43275E-19-1.88191E-18
 -1      1385 9.63528E-05-2.88598E-05-2.89315E-05 6.65089E-07-1.44796E-19-1.44278E-18
 -1      1386 9.72580E-05-2.91344E-05-2.91943E-05 5.31523E-07-4.80212E-19-1.84393E-18
 -1      1387 9.77718E-05-2.92826E-05-2.93480E-05 5.65159E-07-2.13168E-19-2.11408E-18
 -1      1388 9.70048E-05-2.90321E-05-2.91398E-05 9.27561E-07-6.89668E-19-6.23644E-19
 -1      1389 9.82937E-05-2.94251E-05-2.95138E-05 7.51427E-07 3.51853E-19-2.56802E-18
 -1      1390 9.90264E-05-2.96370E-05-2.97329E-05 8.00738E-07 2.86196E-19-2.00842E-18
 -1      1391 9.78753E-05-2.92600E-05-2.94187E-05 1.30284E-06 6.95047E-20-1.03287E-18
 -1      1392 9.97478E-05-2.98325E-05-2.99634E-05 1.06818E-06 2.35826E-19-1.63138E-18
 -1      1393 1.00798E-04-3.01375E-05-3.02773E-05 1.13965E-06 2.41519E-19-1.40485E-18
 -1      1394 9.90717E-05-2.95718E-05-2.98027E-05 1.84282E-06 5.28072E-19-1.79802E-18
 -1      1395 1.01795E-04-3.04056E-05-3.05978E-05 1.51940E-06 1.52635E-19-1.49475E-18
 -1      1396 1.03301E-04-3.08454E-05-3.10478E-05 1.62220E-06 5.03687E-20-1.42578E-18
 -1      1397 1.00719E-04-2.99992E-05-3.03324E-05 2.61163E-06-4.80426E-21-5.53792E-19
 -1      1398 1.04670E-04-3.12115E-05-3.14907E-05 2.15198E-06 1.17129E-21-1.16355E-18
 -1      1399 1.06818E-04-3.18442E-05-3.21318E-05 2.29764E-06 1.08821E-19-1.04444E-18
 -1      1400 1.02981E-04-3.05861E-05-3.10597E-05 3.69045E-06 1.10657E-19-4.19181E-19
 -1      1401 1.08676E-04-3.23407E-05-3.27357E-05 3.01263E-06 4.44487E-19-6.45585E-19
 -1      1402 1.11698E-04-3.32433E-05-3.36342E-05 3.21250E-06 1.91774E-20-9.24589E-20
 -1      1403 1.06061E-04-3.13929E-05-3.20465E-05 5.16619E-06 5.83487E-19 6.22231E-19
 -1      1404 1.14166E-04-3.39097E-05-3.44355E-05 4.11640E-06-1.21192E-19-9.81499E-20
 -1      1405 1.18296E-04-3.51727E-05-3.56512E-05 4.37222E-06-1.19035E-19-2.58027E-19
 -1      1406 1.10191E-04-3.25072E-05-3.33547E-05 7.08889E-06-1.70465E-20 2.43628E-19
 -1      1407 1.21457E-04-3.60561E-05-3.66620E-05 5.36499E-06-5.97535E-19-4.08270E-19
 -1      1408 1.26788E-04-3.77535E-05-3.81963E-05 5.64296E-06-4.32609E-19-1.13428E-18
 -1      1409 1.15592E-04-3.40616E-05-3.50168E-05 9.35826E-06-4.50708E-19-4.25369E-20
 -1      1410 1.30604E-04-3.89097E-05-3.93590E-05 6.37361E-06-2.35311E-19-1.10162E-18
 -1      1411 1.36749E-04-4.10057E-05-4.10438E-05 6.54534E-06-3.41919E-19-1.66368E-18
 -1      1412 1.22374E-04-3.62621E-05-3.69764E-05 1.14767E-05-5.97707E-19-6.56080E-19
 -1      1413 1.40909E-04-4.24705E-05-4.21664E-05 6.19893E-06-5.25366E-19-1.69078E-18
 -1      1414 1.46396E-04-4.45885E-05-4.35234E-05 5.97537E-06-1.12160E-18-3.06689E-18
 -1      1415 1.30351E-04-3.93877E-05-3.90004E-05 1.21399E-05-9.60059E-19-8.98199E-19
 -1      1416 1.50353E-04-4.64068E-05-4.43062E-05 3.07596E-06-1.05628E-18-3.12460E-18
 -1      1417 1.51978E-04-4.74583E-05-4.44929E-05 1.78585E-06-3.75156E-19-4.15909E-18
 -1      1418 1.38874E-04-4.36307E-05-4.06865E-05 8.72297E-06-1.56444E-18-1.64668E-18
 -1      1419 1.53748E-04-4.87443E-05-4.45484E-05-4.31092E-06 4.39292E-19-4.16031E-18
 -1      1420 1.47259E-04-4.66764E-05-4.28557E-05-6.53371E-06 6.50786E-19-2.69568E-18
 -1      1421 1.45576E-04-4.78579E-05-4.15852E-05-1.72877E-06-9.08178E-20-7.99996E-19
 -1      1422 1.45345E-04-4.58273E-05-4.23975E-05-1.32770E-05 8.06640E-19-3.14334E-18
 -1      1423 1.30942E-04-3.99611E-05-3.94209E-05-1.47600E-05 9.37030E-20-2.03394E-18
 -1      1424 1.46697E-04-4.85258E-05-4.19089E-05-1.73729E-05 7.82645E-19-1.56225E-18
 -1      1425 1.26760E-04-3.70415E-05-3.91193E-05-1.52298E-05 1.04418E-18-1.59581E-18
 -1      1426 1.14423E-04-3.14313E-05-3.68950E-05-1.40287E-05 1.38680E-18-5.16267E-19
 -1      1427 1.40235E-04-4.19462E-05-4.25406E-05-2.65660E-05 1.38977E-18-1.40855E-18
 -1      1428 1.10134E-04-2.82541E-05-3.67540E-05-5.31381E-06 1.46050E-18 1.85288E-19
 -1      1429 1.07221E-04-2.67747E-05-3.62949E-05-1.22602E-06 7.76306E-19 1.99476E-18
 -1      1430 1.31369E-04-3.28783E-05-4.33189E-05-1.73393E-05 2.32087E-18 6.98637E-19
 -1      1431 1.09023E-04-2.82655E-05-3.62947E-05 1.01076E-05-1.32137E-19 2.11165E-18
 -1      1432 1.19927E-04-3.34721E-05-3.81342E-05 1.26614E-05-7.26331E-20 2.51611E-18
 -1      1433 1.28784E-04-3.02770E-05-4.35108E-05 7.80828E-06 9.01243E-19 2.29719E-18
 -1      1434 1.25353E-04-3.73146E-05-3.83833E-05 1.54901E-05-7.10184E-19 1.92636E-18
 -1      1435 1.40735E-04-4.40233E-05-4.13957E-05 1.44443E-05-8.94864E-19 8.45339E-19
 -1      1436 1.36720E-04-3.87928E-05-4.26099E-05 2.50421E-05-3.35743E-19 3.51883E-19
 -1      1437 1.43713E-04-4.54295E-05-4.18882E-05 8.36809E-06-4.16634E-19 1.53059E-18
 -1      1438 1.52243E-04-4.84956E-05-4.39951E-05 5.85102E-06-2.64592E-19 9.23901E-19
 -1      1439 1.45055E-04-4.73318E-05-4.17672E-05 1.98418E-05-5.41201E-19-1.87062E-19
 -1      1440 1.50770E-04-4.72925E-05-4.40155E-05-6.79141E-07-8.64027E-19 1.26224E-18
 -1      1441 1.50393E-04-4.67011E-05-4.41465E-05-2.10647E-06-1.23013E-18 7.30301E-19
 -1      1442 1.45346E-04-4.80358E-05-4.13709E-05 4.03986E-06-7.61218E-19 1.35896E-18
 -1      1443 1.46786E-04-4.49584E-05-4.34934E-05-5.59291E-06-4.98545E-19 2.23855E-19
 -1      1444 1.41669E-04-4.29067E-05-4.22723E-05-6.01443E-06-2.38704E-19 8.32739E-20
 -1      1445 1.39341E-04-4.42518E-05-4.05871E-05-7.56088E-06-9.50424E-19 1.19511E-18
 -1      1446 1.37350E-04-4.13186E-05-4.11500E-05-6.83132E-06 3.49932E-19-7.30407E-19
 -1      1447 1.30947E-04-3.90965E-05-3.94157E-05-6.73505E-06 1.82820E-19-6.52904E-19
 -1      1448 1.30868E-04-3.98578E-05-3.89949E-05-1.22468E-05-1.98298E-19-4.85403E-19
 -1      1449 1.26810E-04-3.78126E-05-3.81774E-05-6.21269E-06 2.00575E-20 4.69944E-19
 -1      1450 1.20939E-04-3.59206E-05-3.64987E-05-5.95625E-06 4.20704E-20 4.08376E-19
 -1      1451 1.22353E-04-3.63903E-05-3.69028E-05-1.23558E-05 6.63516E-19-2.71448E-19
 -1      1452 1.17386E-04-3.49116E-05-3.53741E-05-5.01934E-06-2.75947E-21 1.04561E-18
 -1      1453 1.12636E-04-3.34421E-05-3.39825E-05-4.76264E-06 2.06087E-19 1.95905E-18
 -1      1454 1.14846E-04-3.38716E-05-3.47771E-05-1.05300E-05 5.12521E-20 4.66345E-19
 -1      1455 1.09774E-04-3.26570E-05-3.30608E-05-3.83347E-06 5.32043E-21 1.41341E-18
 -1      1456 1.06159E-04-3.15585E-05-3.19936E-05-3.62124E-06-1.26598E-19 8.39251E-19
 -1      1457 1.08672E-04-3.20363E-05-3.29080E-05-8.29116E-06-6.44533E-19 1.05134E-18
 -1      1458 1.03953E-04-3.09531E-05-3.12863E-05-2.81357E-06-6.47166E-19 7.68021E-19
 -1      1459 1.01325E-04-3.01542E-05-3.05144E-05-2.63899E-06-6.35222E-19 1.54372E-19
 -1      1460 1.03815E-04-3.06643E-05-3.14025E-05-6.23208E-06-4.13643E-19-3.35759E-19
 -1      1461 9.97087E-05-2.96969E-05-3.00078E-05-1.92076E-06 4.38240E-19-1.10214E-18
 -1      1462 9.79618E-05-2.91568E-05-2.94998E-05-1.75613E-06 4.36106E-19-3.85572E-19
 -1      1463 1.00143E-04-2.96194E-05-3.02707E-05-4.43169E-06-6.57417E-19-2.78097E-18
 -1      1464 9.68688E-05-2.88335E-05-2.91728E-05-1.05338E-06-1.10503E-18-6.21019E-19
 -1      1465 9.59906E-05-2.85445E-05-2.88939E-05-8.49915E-07-1.19933E-18-1.40867E-18
 -1      1466 9.75158E-05-2.88217E-05-2.94849E-05-2.75905E-06-7.14380E-19-3.43408E-18
 -1      1467 9.54775E-05-2.84129E-05-2.87487E-05-3.16038E-07 6.73590E-20-1.16507E-18
 -1      1468 9.53319E-05-2.84658E-05-2.85721E-05-2.07224E-07 6.97288E-19-9.43538E-19
 -1      1469 9.53259E-05-2.83289E-05-2.87375E-05-3.15846E-07 2.66557E-18-9.43969E-19
 -1      1470 9.59769E-05-2.83129E-05-2.90280E-05-1.32762E-06-7.97735E-19-2.09668E-18
 -1      1471 9.65770E-05-2.83627E-05-2.97716E-05 2.99474E-06 3.33413E-19 6.09072E-18
 -1      1472 1.02539E-04-2.93997E-05-3.21565E-05 4.46496E-06 2.92491E-19 6.60580E-18
 -1      1473 1.02329E-04-2.67171E-05-3.27066E-05 1.27864E-05 5.51207E-19 4.77780E-18
 -1      1474 9.20195E-05-2.74193E-05-2.77593E-05 1.14829E-06 3.21661E-19 5.33567E-18
 -1      1475 9.39793E-05-2.75841E-05-2.86743E-05 1.48070E-06 2.65386E-19 5.69544E-18
 -1      1476 9.64905E-05-2.80369E-05-2.95336E-05 4.88127E-06 5.53430E-19 4.03833E-18
 -1      1477 9.01920E-05-2.69968E-05-2.70622E-05 3.26782E-07 1.98398E-19 4.68248E-18
 -1      1478 9.08178E-05-2.70259E-05-2.73335E-05 4.96399E-07 2.08747E-19 5.03921E-18
 -1      1479 9.30366E-05-2.75930E-05-2.81015E-05 1.84274E-06 4.87679E-19 3.49347E-18
 -1      1480 8.96762E-05-2.68792E-05-2.68876E-05-5.39643E-08 2.44362E-19 4.33150E-18
 -1      1481 8.97263E-05-2.68294E-05-2.69151E-05 3.89244E-08 1.91848E-19 4.60660E-18
 -1      1482 9.14926E-05-2.73435E-05-2.75170E-05 4.76453E-07 3.66084E-19 3.21138E-18
 -1      1483 8.98099E-05-2.69355E-05-2.69291E-05-2.41760E-07 7.30731E-20 3.84683E-18
 -1      1484 8.95870E-05-2.68336E-05-2.68641E-05-1.90799E-07 1.50788E-19 4.15691E-18
 -1      1485 9.09546E-05-2.72475E-05-2.73196E-05-1.70534E-07 3.33602E-19 3.11861E-18
 -1      1486 9.02632E-05-2.70801E-05-2.70669E-05-3.24825E-07-1.13591E-19 3.84778E-18
 -1      1487 8.99178E-05-2.69543E-05-2.69656E-05-2.97691E-07-3.07695E-20 3.75682E-18
 -1      1488 9.09732E-05-2.72820E-05-2.73076E-05-4.79015E-07 7.41385E-20 2.71077E-18
 -1      1489 9.08578E-05-2.72633E-05-2.72461E-05-3.49496E-07 4.13632E-20 3.76355E-18
 -1      1490 9.04698E-05-2.71324E-05-2.71326E-05-3.36921E-07-3.71503E-20 3.74226E-18
 -1      1491 9.12779E-05-2.73881E-05-2.73887E-05-6.11512E-07-3.60196E-20 2.32417E-18
 -1      1492 9.14918E-05-2.74561E-05-2.74369E-05-3.40807E-07 1.78745E-19 3.57331E-18
 -1      1493 9.11055E-05-2.73308E-05-2.73239E-05-3.37209E-07 6.83154E-20 3.64677E-18
 -1      1494 9.17191E-05-2.75284E-05-2.75146E-05-6.44840E-07 1.34560E-19 2.12034E-18
 -1      1495 9.21071E-05-2.76417E-05-2.76223E-05-3.13952E-07 3.73965E-19 2.85482E-18
 -1      1496 9.17468E-05-2.75278E-05-2.75168E-05-3.15731E-07 3.52688E-19 3.40301E-18
 -1      1497 9.22083E-05-2.76789E-05-2.76576E-05-6.21979E-07 4.30712E-19 1.86709E-18
 -1      1498 9.26727E-05-2.78113E-05-2.77931E-05-2.78648E-07 2.88697E-19 2.54253E-18
 -1      1499 9.23503E-05-2.77112E-05-2.76984E-05-2.83387E-07 1.90417E-19 2.78155E-18
 -1      1500 9.26940E-05-2.78256E-05-2.78014E-05-5.69253E-07 3.76208E-19 1.69938E-18
 -1      1501 9.31749E-05-2.79612E-05-2.79450E-05-2.41260E-07 1.03450E-19 2.00276E-18
 -1      1502 9.28944E-05-2.78753E-05-2.78624E-05-2.47306E-07 2.04991E-19 2.23635E-18
 -1      1503 9.31477E-05-2.79611E-05-2.79369E-05-5.03573E-07 3.76053E-19 1.71967E-18
 -1      1504 9.36114E-05-2.80909E-05-2.80772E-05-2.05994E-07 1.13385E-19 1.80799E-18
 -1      1505 9.33716E-05-2.80183E-05-2.80064E-05-2.12199E-07 1.26166E-19 1.86296E-18
 -1      1506 9.35567E-05-2.80820E-05-2.80599E-05-4.36058E-07 1.34133E-19 1.22836E-18
 -1      1507 9.39875E-05-2.82023E-05-2.81914E-05-1.75633E-07 1.67371E-19 1.69882E-18
 -1      1508 9.37838E-05-2.81411E-05-2.81311E-05-1.81191E-07-1.44955E-20 1.72186E-18
 -1      1509 9.39181E-05-2.81880E-05-2.81693E-05-3.74071E-07 2.24615E-19 9.52334E-19
 -1      1510 9.43138E-05-2.82985E-05-2.82906E-05-1.52022E-07 3.25330E-19 1.01707E-18
 -1      1511 9.41392E-05-2.82463E-05-2.82387E-05-1.56351E-07 3.85909E-19 1.60745E-18
 -1      1512 9.42359E-05-2.82804E-05-2.82660E-05-3.22505E-07 3.79194E-19 7.69629E-19
 -1      1513 9.46041E-05-2.83838E-05-2.83790E-05-1.36383E-07-4.51949E-19 1.05729E-18
 -1      1514 9.44502E-05-2.83378E-05-2.83331E-05-1.39051E-07-5.79864E-20 8.03297E-19
 -1      1515 9.45191E-05-2.83622E-05-2.83526E-05-2.84610E-07 1.33437E-19 7.84574E-19
 -1      1516 9.48745E-05-2.84631E-05-2.84614E-05-1.29507E-07-1.65549E-19 1.38176E-18
 -1      1517 9.47319E-05-2.84203E-05-2.84187E-05-1.30181E-07-3.04498E-19 1.03938E-18
 -1      1518 9.47794E-05-2.84369E-05-2.84325E-05-2.62520E-07-4.85866E-19 3.45403E-19
 -1      1519 9.51423E-05-2.85417E-05-2.85430E-05-1.31805E-07 2.55834E-19 1.16255E-18
 -1      1520 9.50010E-05-2.84988E-05-2.85006E-05-1.30238E-07 5.26772E-20 1.44767E-18
 -1      1521 9.50307E-05-2.85088E-05-2.85098E-05-2.57514E-07-7.92013E-20 7.49526E-19
 -1      1522 9.54254E-05-2.86250E-05-2.86290E-05-1.43239E-07 2.15160E-19 9.07353E-19
 -1      1523 9.52754E-05-2.85787E-05-2.85841E-05-1.39288E-07 4.74091E-19 1.41946E-18
 -1      1524 9.52876E-05-2.85826E-05-2.85889E-05-2.70021E-07 4.25573E-19 1.03705E-18
 -1      1525 9.57407E-05-2.87181E-05-2.87246E-05-1.63082E-07-1.17903E-19 5.97497E-19
 -1      1526 9.55724E-05-2.86656E-05-2.86742E-05-1.56768E-07-1.29763E-19 5.74658E-19
 -1      1527 9.55650E-05-2.86627E-05-2.86741E-05-2.99347E-07 6.48820E-20 1.22634E-18
 -1      1528 9.61024E-05-2.88257E-05-2.88338E-05-1.89505E-07-5.51833E-22 7.70257E-19
 -1      1529 9.59078E-05-2.87643E-05-2.87757E-05-1.81133E-07-3.22403E-19 6.81512E-19
 -1      1530 9.58762E-05-2.87537E-05-2.87690E-05-3.43076E-07-4.58223E-19 5.73974E-19
 -1      1531 9.65188E-05-2.89506E-05-2.89590E-05-2.18975E-07-3.62974E-19 6.56449E-19
 -1      1532 9.62933E-05-2.88790E-05-2.88919E-05-2.09307E-07 4.98645E-20 8.85464E-19
 -1      1533 9.62307E-05-2.88590E-05-2.88762E-05-3.96121E-07-1.04284E-19 8.80101E-19
 -1      1534 9.69888E-05-2.90930E-05-2.90993E-05-2.45464E-07 2.28542E-19 1.04445E-18
 -1      1535 9.67332E-05-2.90116E-05-2.90238E-05-2.35966E-07-1.68069E-19 9.40866E-19
 -1      1536 9.66317E-05-2.89804E-05-2.89962E-05-4.49434E-07-2.06693E-19 1.06509E-18
 -1      1537 9.74954E-05-2.92484E-05-2.92494E-05-2.59606E-07 1.70657E-19 1.02053E-18
 -1      1538 9.72198E-05-2.91607E-05-2.91685E-05-2.52737E-07 5.55258E-21 1.09604E-18
 -1      1539 9.70720E-05-2.91171E-05-2.91259E-05-4.88493E-07 1.32128E-19 1.38005E-18
 -1      1540 9.79988E-05-2.94057E-05-2.93967E-05-2.48032E-07-1.05447E-19 1.00304E-18
 -1      1541 9.77263E-05-2.93196E-05-2.93175E-05-2.47513E-07-1.50813E-19 8.99784E-19
 -1      1542 9.75282E-05-2.92634E-05-2.92575E-05-4.91901E-07 1.06068E-19 1.25495E-18
 -1      1543 9.84291E-05-2.95445E-05-2.95196E-05-1.93386E-07 2.50867E-19 1.33046E-18
 -1      1544 9.82006E-05-2.94739E-05-2.94545E-05-2.04326E-07-1.87228E-20 1.36982E-18
 -1      1545 9.79555E-05-2.94074E-05-2.93765E-05-4.30797E-07-1.08496E-19 1.14910E-18
 -1      1546 9.86805E-05-2.96334E-05-2.95864E-05-7.58332E-08-2.33923E-19 1.34880E-18
 -1      1547 9.85577E-05-2.95988E-05-2.95535E-05-1.04460E-07 1.70093E-19 1.64144E-18
 -1      1548 9.82820E-05-2.95285E-05-2.94605E-05-2.70246E-07 2.83579E-19 1.27478E-18
 -1      1549 9.86115E-05-2.96288E-05-2.95549E-05 1.22885E-07-8.18975E-20 1.45312E-18
 -1      1550 9.86767E-05-2.96579E-05-2.95784E-05 7.02334E-08-3.43579E-19 1.19965E-18
 -1      1551 9.84066E-05-2.95954E-05-2.94795E-05 2.56490E-08-2.96796E-19 1.82573E-18
 -1      1552 9.80566E-05-2.94784E-05-2.93773E-05 4.11870E-07-1.14836E-19 1.23524E-18
 -1      1553 9.84054E-05-2.96030E-05-2.94845E-05 3.30866E-07-1.51324E-19 9.72667E-19
 -1      1554 9.82028E-05-2.95669E-05-2.93972E-05 4.83080E-07-1.32918E-19 9.56428E-19
 -1      1555 9.68561E-05-2.91291E-05-2.90092E-05 7.80003E-07 6.12312E-20 7.28667E-19
 -1      1556 9.75793E-05-2.93791E-05-2.92253E-05 6.71699E-07 1.47695E-19 1.26866E-18
 -1      1557 9.75347E-05-2.93943E-05-2.91772E-05 1.10139E-06 5.50042E-20 6.59890E-19
 -1      1558 9.49073E-05-2.85428E-05-2.84252E-05 1.18396E-06-3.77434E-19 1.40138E-18
 -1      1559 9.60601E-05-2.89355E-05-2.87639E-05 1.05878E-06-9.31571E-20 1.24648E-18
 -1      1560 9.62884E-05-2.90314E-05-2.87926E-05 1.83168E-06-2.81235E-19 1.36255E-18
 -1      1561 9.22320E-05-2.77188E-05-2.76371E-05 1.54183E-06-5.80186E-19 2.17346E-18
 -1      1562 9.37949E-05-2.82452E-05-2.80902E-05 1.42227E-06-5.96515E-19 1.57294E-18
 -1      1563 9.44197E-05-2.84510E-05-2.82393E-05 2.55916E-06-4.94287E-19 2.97210E-18
 -1      1564 8.90403E-05-2.67172E-05-2.67107E-05 1.74217E-06 1.11745E-19 2.61568E-18
 -1      1565 9.08833E-05-2.73300E-05-2.72384E-05 1.66097E-06-1.39406E-19 1.80812E-18
 -1      1566 9.20095E-05-2.76672E-05-2.75487E-05 3.10421E-06-3.27712E-19 1.88046E-18
 -1      1567 8.57526E-05-2.56697E-05-2.57681E-05 1.67592E-06 3.95084E-19 2.59154E-18
 -1      1568 8.76259E-05-2.62810E-05-2.62985E-05 1.66706E-06-2.80241E-20 2.67243E-18
 -1      1569 8.93044E-05-2.67562E-05-2.67954E-05 3.25827E-06 2.42112E-19 1.95774E-18
 -1      1570 8.29424E-05-2.47649E-05-2.49695E-05 1.28651E-06-4.76949E-19 2.32955E-18
 -1      1571 8.45143E-05-2.52604E-05-2.54098E-05 1.37009E-06 1.45385E-19 2.65779E-18
 -1      1572 8.67109E-05-2.58601E-05-2.60901E-05 2.85909E-06 6.30973E-20 1.84320E-18
 -1      1573 8.11890E-05-2.41988E-05-2.44719E-05 6.14845E-07 4.13213E-19 1.31368E-18
 -1      1574 8.21334E-05-2.44702E-05-2.47334E-05 7.82938E-07 3.61402E-19 2.12787E-18
 -1      1575 8.47163E-05-2.51608E-05-2.55575E-05 1.88120E-06 4.92682E-19 3.04935E-18
 -1      1576 8.08811E-05-2.41052E-05-2.43790E-05-1.94200E-07 5.38796E-19 1.73096E-19
 -1      1577 8.09889E-05-2.40893E-05-2.44063E-05 1.99544E-08 1.04417E-19 4.90095E-19
 -1      1578 8.37453E-05-2.48228E-05-2.53013E-05 4.89504E-07 7.83327E-19 2.04537E-18
 -1      1579 8.20664E-05-2.45002E-05-2.47038E-05-9.39802E-07-2.86552E-19-1.13026E-19
 -1      1580 8.13261E-05-2.42049E-05-2.44951E-05-7.34815E-07-2.21588E-19 3.53961E-19
 -1      1581 8.40069E-05-2.49280E-05-2.53704E-05-9.93876E-07 1.75025E-19 1.57655E-18
 -1      1582 8.44299E-05-2.52741E-05-2.53635E-05-1.44583E-06-1.56966E-20 6.40211E-19
 -1      1583 8.30335E-05-2.47763E-05-2.49715E-05-1.29897E-06 1.85282E-19 9.48690E-19
 -1      1584 8.54103E-05-2.54396E-05-2.57418E-05-2.20850E-06-3.29959E-19 6.81775E-19
 -1      1585 8.74144E-05-2.62368E-05-2.62086E-05-1.62727E-06-1.80387E-20 1.13003E-18
 -1      1586 8.56855E-05-2.56520E-05-2.57217E-05-1.56278E-06-2.96914E-19 3.71278E-19
 -1      1587 8.75999E-05-2.62180E-05-2.63282E-05-2.89700E-06-4.97162E-19 1.20316E-18
 -1      1588 9.04169E-05-2.71878E-05-2.70729E-05-1.50638E-06 1.40108E-20 1.21138E-18
 -1      1589 8.86985E-05-2.66304E-05-2.65858E-05-1.51993E-06 3.43185E-19 1.36366E-18
 -1      1590 9.00884E-05-2.70774E-05-2.70075E-05-2.98876E-06 2.74848E-19 1.75758E-18
 -1      1591 9.29608E-05-2.79756E-05-2.78196E-05-1.18006E-06 2.82588E-19 1.56063E-18
 -1      1592 9.15196E-05-2.75277E-05-2.74073E-05-1.24786E-06-4.35367E-19 1.39821E-18
 -1      1593 9.24154E-05-2.78520E-05-2.76586E-05-2.58872E-06-2.33331E-19 1.88403E-18
 -1      1594 9.47824E-05-2.85229E-05-2.83676E-05-7.68394E-07 6.48225E-19-6.83145E-19
 -1      1595 9.37616E-05-2.82222E-05-2.80719E-05-8.60723E-07 1.02632E-18 4.56167E-19
 -1      1596 9.42605E-05-2.84366E-05-2.81913E-05-1.89949E-06 1.01662E-18-5.63145E-20
 -1      1597 9.58300E-05-2.88216E-05-2.86952E-05-3.74048E-07 1.48637E-18-2.53722E-18
 -1      1598 9.52521E-05-2.86665E-05-2.85245E-05-4.65387E-07 9.62423E-19-1.25359E-18
 -1      1599 9.54818E-05-2.87951E-05-2.85597E-05-1.13346E-06 1.54843E-18-2.20807E-18
 -1      1600 9.62103E-05-2.89118E-05-2.88282E-05-6.43623E-08 6.10489E-19-4.77537E-18
 -1      1601 9.60087E-05-2.88741E-05-2.87649E-05-1.37598E-07 8.17656E-19-3.66546E-18
 -1      1602 9.60941E-05-2.89454E-05-2.87608E-05-4.55414E-07 1.62070E-18-3.53109E-18
 -1      1603 9.61213E-05-2.88589E-05-2.88216E-05 1.27608E-07 5.72245E-19-5.11736E-18
 -1      1604 9.61786E-05-2.88969E-05-2.88327E-05 8.17790E-08 7.60814E-19-4.27062E-18
 -1      1605 9.62181E-05-2.89369E-05-2.88232E-05 3.56562E-08 9.02681E-19-2.82509E-18
 -1      1606 9.57951E-05-2.87364E-05-2.87423E-05 1.95042E-07-5.76254E-19-4.76142E-18
 -1      1607 9.59758E-05-2.88051E-05-2.87892E-05 1.79948E-07-3.66376E-19-5.17724E-18
 -1      1608 9.60283E-05-2.88319E-05-2.87939E-05 2.98807E-07-1.92019E-19-2.68975E-18
 -1      1609 9.54541E-05-2.86163E-05-2.86520E-05 1.48856E-07-5.40351E-19-4.03352E-18
 -1      1610 9.56277E-05-2.86717E-05-2.87000E-05 1.64332E-07-6.86190E-19-4.93641E-18
 -1      1611 9.57087E-05-2.86931E-05-2.87231E-05 3.37395E-07-5.77352E-19-3.01642E-18
 -1      1612 9.52635E-05-2.85576E-05-2.85869E-05 3.65062E-08 4.75091E-21-2.46360E-18
 -1      1613 9.53344E-05-2.85689E-05-2.86169E-05 6.91205E-08-1.50318E-19-3.25703E-18
 -1      1614 9.54163E-05-2.85760E-05-2.86494E-05 1.98340E-07-4.40762E-19-2.77979E-18
 -1      1615 9.52275E-05-2.85670E-05-2.85626E-05-1.23398E-08-1.07749E-18-8.87395E-19
 -1      1616 9.52246E-05-2.83973E-05-2.86423E-05 1.21581E-07-8.65838E-19 1.61324E-18
 -1      1617 9.52458E-05-2.84886E-05-2.86069E-05 9.29455E-08-2.79527E-18 1.23266E-18
 -1      1618 9.51069E-05-2.79736E-05-2.87724E-05 2.93272E-07-1.35043E-19-2.63400E-19
 -1      1619 9.51809E-05-2.82262E-05-2.86967E-05 2.58278E-07-9.41737E-20-5.72552E-19
 -1      1620 9.52298E-05-2.82448E-05-2.87128E-05 3.89473E-07-1.47638E-18 1.06444E-18
 -1      1621 9.48967E-05-2.72478E-05-2.89931E-05 4.95461E-07-8.91012E-19-8.41222E-19
 -1      1622 9.50273E-05-2.76857E-05-2.88632E-05 4.53099E-07-7.33645E-19 1.02215E-18
 -1      1623 9.50973E-05-2.77979E-05-2.88554E-05 7.36680E-07-8.10646E-19-2.51023E-19
 -1      1624 9.45744E-05-2.61698E-05-2.93179E-05 7.22008E-07-2.46632E-20-3.74205E-19
 -1      1625 9.47723E-05-2.68148E-05-2.91281E-05 6.75893E-07-4.66593E-19 2.35783E-19
 -1      1626 9.48987E-05-2.70961E-05-2.90727E-05 1.14614E-06-1.44135E-18 7.45521E-20
 -1      1627 9.41423E-05-2.47688E-05-2.97342E-05 9.33154E-07-2.41537E-18-5.29813E-19
 -1      1628 9.44036E-05-2.55963E-05-2.94933E-05 8.92791E-07 1.34996E-20-2.13807E-18
 -1      1629 9.45980E-05-2.61077E-05-2.93675E-05 1.57127E-06 9.57701E-20-1.47527E-18
 -1      1630 9.36059E-05-2.30803E-05-3.02283E-05 1.07854E-06-2.77493E-18 1.96376E-19
 -1      1631 9.39228E-05-2.40590E-05-2.99465E-05 1.05492E-06-3.00257E-18-2.09379E-19
 -1      1632 9.41894E-05-2.48403E-05-2.97320E-05 1.92884E-06-5.48007E-19-1.35018E-18
 -1      1633 9.30295E-05-2.13156E-05-3.07365E-05 1.08528E-06-1.76323E-18 9.97778E-19
 -1      1634 9.33594E-05-2.23103E-05-3.04532E-05 1.09437E-06-3.22939E-18 1.38023E-18
 -1      1635 9.36858E-05-2.33653E-05-3.01404E-05 2.10234E-06-1.28957E-18 6.84074E-19
 -1      1636 9.25062E-05-1.97623E-05-3.11755E-05 8.94640E-07 8.86625E-19 1.18112E-18
 -1      1637 9.27901E-05-2.05957E-05-3.09412E-05 9.47207E-07-1.28414E-18 1.47553E-18
 -1      1638 9.31473E-05-2.18674E-05-3.05394E-05 1.96257E-06-1.13698E-19 2.52965E-18
 -1      1639 9.21521E-05-1.87601E-05-3.14499E-05 4.84913E-07 1.15235E-18-1.59877E-19
 -1      1640 9.23208E-05-1.92323E-05-3.13202E-05 5.82339E-07 6.36783E-19 1.20215E-18
 -1      1641 9.26648E-05-2.05974E-05-3.08625E-05 1.42462E-06 6.56176E-19 1.11899E-18
 -1      1642 9.20773E-05-1.86163E-05-3.14766E-05-1.05582E-07 8.30182E-19 3.99538E-19
 -1      1643 9.20708E-05-1.85584E-05-3.14973E-05 2.43857E-08 1.00335E-18-2.71494E-19
 -1      1644 9.23499E-05-1.98376E-05-3.10404E-05 4.92590E-07-5.28632E-19-9.68562E-20
 -1      1645 9.23434E-05-1.94757E-05-3.12214E-05-7.57583E-07 2.10338E-18 1.02463E-18
 -1      1646 9.21342E-05-1.88300E-05-3.14057E-05-6.25561E-07 6.28141E-19 3.85268E-19
 -1      1647 9.23076E-05-1.98245E-05-3.10211E-05-6.95879E-07-2.24921E-19 1.30572E-19
 -1      1648 9.29502E-05-2.13012E-05-3.07025E-05-1.32869E-06 1.01805E-18-6.20129E-19
 -1      1649 9.25502E-05-2.01172E-05-3.10332E-05-1.22483E-06 1.62094E-18 4.49693E-19
 -1      1650 9.25925E-05-2.06594E-05-3.07893E-05-1.89724E-06 8.19170E-19 1.11363E-18
 -1      1651 9.37871E-05-2.37331E-05-3.00281E-05-1.61553E-06 2.44669E-18 2.12519E-18
 -1      1652 9.32793E-05-2.22689E-05-3.04308E-05-1.58571E-06 8.54021E-19 7.83297E-19
 -1      1653 9.32035E-05-2.22731E-05-3.03756E-05-2.78952E-06 1.11991E-18-1.35651E-19
 -1      1654 9.46628E-05-2.61687E-05-2.93688E-05-1.43520E-06 3.66175E-18 3.67629E-19
 -1      1655 9.41790E-05-2.48265E-05-2.97355E-05-1.53591E-06 2.51299E-18 9.32846E-19
 -1      1656 9.40432E-05-2.43640E-05-2.98659E-05-3.02838E-06 1.90626E-18 1.60000E-18
 -1      1657 9.51976E-05-2.77645E-05-2.89041E-05-8.47790E-07 3.09898E-18-4.59350E-19
 -1      1658 9.48926E-05-2.69203E-05-2.91620E-05-1.04837E-06 3.04069E-18 4.84916E-19
 -1      1659 9.47387E-05-2.61977E-05-2.94057E-05-2.43243E-06 3.05934E-19 3.27550E-19
 -1      1660 9.53376E-05-2.76005E-05-2.90452E-05-1.35217E-06-7.05467E-20-1.41614E-18
 -1      1661 2.06897E-05-6.64535E-05 1.42353E-05-2.15311E-06 2.22685E-18 8.89385E-19
 -1      1662 2.48418E-05-7.99958E-05 1.71819E-05 5.65192E-06 2.42844E-18-1.24937E-19
 -1      1663 2.35367E-05-3.51768E-05 1.73328E-06 1.20189E-05 2.87822E-18 2.03923E-18
 -1      1664 2.69509E-05-6.01711E-05 9.00517E-06 6.00346E-06 2.53940E-18 1.08386E-18
 -1      1665 3.94543E-05-8.08194E-06-1.47262E-05 3.53460E-05 3.48385E-18 2.03034E-18
 -1      1666 3.24236E-05-2.80446E-05-5.71736E-06 1.71015E-05 3.50926E-18 1.78724E-18
 -1      1667 7.96205E-05 8.08889E-07-3.35123E-05 6.56487E-05 1.17822E-18-1.50772E-18
 -1      1668 5.39561E-05-3.15333E-06-2.36559E-05 4.32794E-05 2.50722E-18 4.38763E-19
 -1      1669 1.51751E-04-2.01135E-05-5.29613E-05 7.75079E-05-6.00123E-19 2.82909E-19
 -1      1670 1.08443E-04-6.66841E-06-4.29339E-05 6.60833E-05-1.04778E-18-5.86147E-19
 -1      1671 2.16112E-04-4.34023E-05-6.82009E-05 7.07094E-05 3.98529E-19-1.21549E-18
 -1      1672 1.74173E-04-2.25820E-05-6.15039E-05 8.05406E-05 1.39125E-19-4.26905E-19
 -1      1673 2.58940E-04-6.47643E-05-7.68812E-05 2.68053E-05 4.33046E-19-5.04959E-18
 -1      1674 2.34080E-04-5.02047E-05-7.32547E-05 5.87691E-05 9.51430E-19-2.58514E-18
 -1      1675 2.48276E-04-5.76668E-05-7.63612E-05-2.77041E-05 1.59412E-18-7.47761E-18
 -1      1676 2.54920E-04-6.13266E-05-7.72363E-05 8.28765E-06 1.21930E-18-5.43726E-18
 -1      1677 2.12025E-04-3.95005E-05-6.93575E-05-6.86944E-05 3.21862E-18-8.53809E-18
 -1      1678 2.44237E-04-5.75781E-05-7.42076E-05-4.48683E-05 2.08635E-18-8.22765E-18
 -1      1679 1.49759E-04-1.30391E-05-5.59183E-05-8.16897E-05 3.89678E-18-8.58976E-18
 -1      1680 1.92956E-04-3.29011E-05-6.35540E-05-7.93075E-05 3.85760E-18-8.54402E-18
 -1      1681 8.99949E-05-2.09064E-06-3.76161E-05-6.27181E-05 1.87703E-18-5.70392E-18
 -1      1682 1.27498E-04-9.99270E-06-4.73705E-05-7.89460E-05 3.53552E-18-8.34497E-18
 -1      1683 5.17152E-05-1.43053E-05-1.83430E-05-3.56403E-05 5.50571E-19-1.75505E-18
 -1      1684 7.18245E-05-4.87304E-06-2.82104E-05-5.73759E-05 1.25784E-18-4.50367E-18
 -1      1685 2.98086E-05-4.02727E-05-1.56630E-07-1.16289E-05-1.76691E-18-1.27563E-18
 -1      1686 3.32082E-05-1.65428E-05-9.18050E-06-2.78223E-05 2.15993E-19-1.12147E-18
 -1      1687 2.50218E-05-6.90760E-05 1.25197E-05-9.29041E-07-3.78793E-18 3.38707E-19
 -1      1688 1.94375E-05-4.67999E-05 7.14307E-06-1.26864E-06-3.04085E-18 2.00006E-19
 -1      1689 2.50541E-05-8.26583E-05 1.79119E-05-7.31334E-06-2.66604E-18 9.00608E-19
 -1      1690 2.24441E-05-7.35141E-05 1.58674E-05 1.94428E-06-3.82478E-18 6.21510E-19
 -1      1691 2.11541E-05-7.41407E-05 1.60670E-05-1.37552E-05-7.91552E-19 4.72221E-19
 -1      1692 2.54492E-05-8.42065E-05 1.81151E-05-4.53590E-06-2.32235E-18 6.24687E-19
 -1      1693 2.14712E-05-4.57037E-05 5.27979E-06-2.67438E-06 9.38513E-19 4.97208E-19
 -1      1694 2.57099E-05-6.78524E-05 1.15329E-05-6.59957E-06 4.79421E-19 4.92073E-19
 -1      1695 3.64825E-05-1.82345E-05-1.11584E-05 2.17326E-05 1.06303E-18 1.86855E-18
 -1      1696 3.03366E-05-3.96706E-05-1.87156E-06 3.30052E-06 7.89435E-19 3.58718E-19
 -1      1697 9.24226E-05-1.40605E-05-3.35615E-05 5.69799E-05 1.80926E-18 3.24837E-18
 -1      1698 6.12069E-05-1.95446E-05-2.15313E-05 3.08290E-05 8.32633E-19 2.46487E-18
 -1      1699 1.66631E-04-2.90092E-05-5.52911E-05 7.57540E-05 1.75929E-18 2.37000E-18
 -1      1700 1.16994E-04-1.38966E-05-4.44707E-05 6.25656E-05 1.70931E-18 2.50891E-18
 -1      1701 2.45418E-04-5.92677E-05-7.26013E-05 5.19763E-05 6.84429E-19 9.99499E-19
 -1      1702 1.94319E-04-3.67865E-05-6.38816E-05 6.32164E-05 7.34801E-19 1.21465E-18
 -1      1703 2.94232E-04-7.74804E-05-8.29216E-05 1.19458E-05 5.38925E-19 1.22396E-19
 -1      1704 2.68490E-04-6.41247E-05-7.93793E-05 4.82246E-05 8.81550E-19 9.38513E-19
 -1      1705 2.73952E-04-6.66886E-05-8.04798E-05-3.80583E-05 1.02491E-19-1.14011E-18
 -1      1706 2.90723E-04-7.53516E-05-8.28118E-05-1.81866E-06-1.35525E-20-1.04937E-18
 -1      1707 2.20613E-04-4.40331E-05-7.00848E-05-7.02534E-05-9.58418E-19-8.69056E-19
 -1      1708 2.63910E-04-6.51580E-05-7.67165E-05-5.23777E-05-1.03126E-19-8.23316E-19
 -1      1709 1.46196E-04-2.09390E-05-5.22214E-05-6.84870E-05 2.41320E-18-1.37558E-18
 -1      1710 1.96646E-04-3.92766E-05-6.21609E-05-7.43763E-05 4.48080E-19-7.58942E-19
 -1      1711 8.22866E-05-1.13288E-05-3.24500E-05-4.86612E-05 3.14080E-18-2.30732E-18
 -1      1712 1.17985E-04-1.48052E-05-4.27006E-05-6.90774E-05 2.71135E-18-1.56362E-18
 -1      1713 4.26135E-05-2.35764E-05-1.29167E-05-1.90113E-05-1.75844E-18-2.07015E-18
 -1      1714 5.96764E-05-1.04645E-05-2.28156E-05-4.17169E-05 8.89385E-19-3.31529E-18
 -1      1715 2.70184E-05-5.00700E-05 3.47067E-06 2.67630E-06 6.59839E-19 9.71547E-19
 -1      1716 2.78665E-05-2.75692E-05-4.37062E-06-1.02935E-05-3.67612E-19 1.25996E-18
 -1      1717 2.53773E-05-7.57536E-05 1.45012E-05 8.40666E-06 2.15866E-18-7.87952E-19
 -1      1718 1.96727E-05-5.61492E-05 9.66024E-06 9.56490E-06 1.15366E-18-4.13723E-19
 -1      1719 2.48349E-05-8.26726E-05 1.81730E-05 1.84525E-06 2.61709E-18-1.35335E-18
 -1      1720 2.26335E-05-7.79271E-05 1.70958E-05 1.14490E-05 2.42971E-18-4.29234E-19
 -1      1721 7.74169E-05-3.26562E-05-2.00947E-05 4.47300E-05 1.43741E-18-1.18034E-18
 -1      1722 1.14633E-05-5.29474E-05 1.31248E-05 7.15357E-06 6.37922E-19-2.59616E-19
 -1      1723 9.52642E-05-2.85553E-05-2.85889E-05 2.74570E-08-2.11722E-18-1.26205E-18
 -1      1724 9.52863E-05-2.84660E-05-2.86385E-05 1.57409E-07-9.05959E-19 2.60306E-19
 -1      1725 2.21831E-05-4.69962E-05 7.24196E-06 2.39677E-05 1.24302E-18 1.07150E-18
 -1      1726 4.65676E-05-4.19793E-05-4.50446E-06 3.57721E-05 9.46983E-19 1.40269E-18
 -1      1727 1.22528E-04-3.12104E-05-3.77596E-05 4.85563E-05 4.21822E-19-1.92615E-18
 -1      1728 1.65062E-04-3.23160E-05-5.43404E-05 4.17591E-05-7.99599E-19-1.66611E-18
 -1      1729 2.02367E-04-3.35841E-05-6.74422E-05 3.37644E-05 1.09310E-18-3.52069E-18
 -1      1730 2.12738E-04-3.18573E-05-7.26060E-05 9.29803E-06 1.85077E-18-5.11926E-18
 -1      1731 2.06967E-04-3.08719E-05-7.09048E-05-1.67052E-05 2.37339E-18-5.52350E-18
 -1      1732 1.88806E-04-3.09540E-05-6.33659E-05-3.96063E-05 2.61977E-18-5.42270E-18
 -1      1733 1.50912E-04-2.96129E-05-4.96071E-05-4.84460E-05 2.11208E-18-6.16386E-18
 -1      1734 1.11702E-04-3.46649E-05-3.26016E-05-4.73170E-05-5.55230E-19-5.33207E-18
 -1      1735 7.22790E-05-3.89232E-05-1.53091E-05-4.40865E-05 8.63974E-20-2.84815E-18
 -1      1736 3.62704E-05-4.34097E-05 1.72842E-07-3.16696E-05-1.45605E-18-2.23463E-18
 -1      1737 1.68933E-05-5.15366E-05 1.03933E-05-1.61160E-05-2.07862E-18-8.97855E-20
 -1      1738 1.21157E-05-5.58092E-05 1.37525E-05-4.59497E-06-9.35760E-19 1.13587E-18
 -1      1739 2.04925E-05-5.31165E-05 9.54958E-06 1.02696E-05 2.48181E-19 2.12859E-18
 -1      1740 4.29764E-05-4.84992E-05-1.45376E-06 2.28168E-05 6.03934E-19 3.56707E-19
 -1      1741 8.37399E-05-4.56250E-05-1.83032E-05 3.45903E-05 4.67562E-19 2.20737E-18
 -1      1742 1.35611E-04-4.54779E-05-3.82255E-05 3.80445E-05 9.15643E-19 1.37050E-18
 -1      1743 1.86361E-04-4.54602E-05-5.69617E-05 2.85323E-05 1.12391E-18 6.86097E-20
 -1      1744 2.22026E-04-4.30158E-05-7.09456E-05 1.21556E-05 5.87841E-19-1.01729E-18
 -1      1745 2.40622E-04-4.26432E-05-7.73786E-05 1.30353E-06 5.35325E-19-2.37614E-18
 -1      1746 2.30344E-04-4.26203E-05-7.37452E-05-1.48735E-05-1.86771E-19-2.24421E-18
 -1      1747 2.01825E-04-4.49127E-05-6.26930E-05-2.95362E-05 6.76621E-19-2.17687E-18
 -1      1748 1.56415E-04-4.41560E-05-4.63239E-05-3.86945E-05 2.86975E-18-4.14199E-19
 -1      1749 1.05590E-04-4.21142E-05-2.81193E-05-3.93863E-05 3.47284E-19-2.70966E-18
 -1      1750 6.32364E-05-4.49925E-05-1.08303E-05-3.05015E-05 2.00747E-19-1.86347E-18
 -1      1751 3.30303E-05-5.08642E-05 3.23349E-06-1.75616E-05 1.81350E-18 1.08542E-18
 -1      1752 1.62370E-05-5.50551E-05 1.16196E-05-5.43386E-06 1.26123E-18 5.81488E-19
 -1      1753 1.06051E-04-2.31704E-05-3.56036E-05-1.68535E-05-6.99054E-19 1.06641E-18
 -1      1754 8.91518E-05-1.05874E-05-3.37958E-05-1.33284E-05-4.72578E-19-1.63419E-18
 -1      1755 9.04816E-05-1.16315E-05-3.39352E-05-1.51373E-05-6.49727E-19-1.45438E-18
 -1      1756 9.24885E-05-1.38751E-05-3.38534E-05-1.60024E-05-7.63991E-19-1.18468E-18
 -1      1757 9.42058E-05-1.58217E-05-3.40973E-05-1.76633E-05-9.25331E-19-8.17228E-19
 -1      1758 9.34167E-05-1.63482E-05-3.30440E-05-1.37704E-05-7.09076E-19-1.20255E-18
 -1      1759 8.62121E-05-7.67432E-06-3.37301E-05-7.86572E-06 2.81572E-21-1.81397E-18
 -1      1760 8.66157E-05-7.97229E-06-3.37641E-05-9.25466E-06-6.95295E-20-1.87014E-18
 -1      1761 8.55964E-05-7.03724E-06-3.37275E-05-5.32168E-06 2.08663E-19-1.68951E-18
 -1      1762 8.58306E-05-7.21588E-06-3.37424E-05-6.62651E-06 1.32060E-19-1.75876E-18
 -1      1763 8.75955E-05-9.86811E-06-3.33435E-05-6.93141E-06 2.97181E-20-1.73446E-18
 -1      1764 8.52622E-05-6.67864E-06-3.37310E-05-2.88962E-06 4.79356E-19-1.44289E-18
 -1      1765 8.53828E-05-6.77330E-06-3.37368E-05-4.12960E-06 3.57381E-19-1.57238E-18
 -1      1766 8.69608E-05-9.15653E-06-3.33771E-05-4.53876E-06 3.38508E-19-1.56609E-18
 -1      1767 8.51317E-05-6.53057E-06-3.37346E-05-5.17602E-07 7.24948E-19-1.26195E-18
 -1      1768 8.51672E-05-6.55907E-06-3.37360E-05-1.72756E-06 6.19250E-19-1.36705E-18
 -1      1769 8.66294E-05-8.77771E-06-3.33974E-05-2.21794E-06 5.94246E-19-1.33190E-18
 -1      1770 8.51770E-05-6.56805E-06-3.37361E-05 1.84573E-06 8.53616E-19-1.10944E-18
 -1      1771 8.51353E-05-6.53511E-06-3.37345E-05 6.34773E-07 7.83295E-19-1.21281E-18
 -1      1772 8.65314E-05-8.66421E-06-3.34040E-05 6.54759E-08 8.08950E-19-1.18426E-18
 -1      1773 8.54078E-05-6.79828E-06-3.37370E-05 4.25230E-06 1.01478E-18-9.92392E-19
 -1      1774 8.52800E-05-6.69758E-06-3.37310E-05 3.00915E-06 9.55018E-19-1.08272E-18
 -1      1775 8.66470E-05-8.79725E-06-3.33967E-05 2.35005E-06 9.59654E-19-1.03067E-18
 -1      1776 8.58642E-05-7.25142E-06-3.37421E-05 6.71426E-06 1.08751E-18-6.97876E-19
 -1      1777 8.56265E-05-7.06932E-06-3.37274E-05 5.42668E-06 1.02167E-18-8.85798E-19
 -1      1778 8.69949E-05-9.19426E-06-3.33756E-05 4.65396E-06 1.05659E-18-9.01554E-19
 -1      1779 8.66759E-05-8.04055E-06-3.37625E-05 9.37715E-06 1.30503E-18-2.81586E-19
 -1      1780 8.62562E-05-7.72470E-06-3.37289E-05 7.95601E-06 1.18675E-18-4.99829E-19
 -1      1781 8.76467E-05-9.92722E-06-3.33411E-05 7.03014E-06 1.22889E-18-5.35775E-19
 -1      1782 8.80828E-05-9.38470E-06-3.38173E-05 1.22563E-05 1.40895E-18 2.26820E-19
 -1      1783 8.73465E-05-8.82865E-06-3.37457E-05 1.06635E-05 1.32387E-18-7.34536E-20
 -1      1784 8.87656E-05-1.11616E-05-3.32901E-05 9.50663E-06 1.38483E-18-1.42950E-19
 -1      1785 9.06444E-05-1.18470E-05-3.39270E-05 1.53286E-05 1.36229E-18 1.01514E-18
 -1      1786 8.92725E-05-1.07479E-05-3.37876E-05 1.35031E-05 1.34283E-18 5.14573E-19
 -1      1787 9.06577E-05-1.32252E-05-3.32075E-05 1.19600E-05 1.42497E-18 4.44772E-19
 -1      1788 9.58870E-05-1.70825E-05-3.39931E-05 1.76765E-05 1.11615E-18 2.41987E-18
 -1      1789 9.28437E-05-1.43262E-05-3.38260E-05 1.61786E-05 1.23720E-18 1.60939E-18
 -1      1790 9.38843E-05-1.68595E-05-3.30130E-05 1.38589E-05 1.31563E-18 1.28895E-18
 -1      1791 1.01917E-04-2.50964E-05-3.33598E-05 1.44162E-05 7.82764E-19 3.92113E-18
 -1      1792 9.80669E-05-1.95787E-05-3.36261E-05 1.69725E-05 9.70971E-19 2.93756E-18
 -1      1793 9.74084E-05-2.18779E-05-3.24188E-05 1.32821E-05 1.14156E-18 2.36020E-18
 -1      1794 9.87794E-05-2.61469E-05-3.13427E-05 9.43163E-06 7.63177E-19 3.62747E-18
 -1      1795 1.00155E-04-1.95630E-05-3.42176E-05-1.88699E-05-8.72206E-19-8.21622E-20
 -1      1796 9.53840E-05-2.73080E-05-2.91929E-05 4.10374E-06 6.94911E-19 3.14395E-18
 -1      1797 9.77266E-05-2.73920E-05-3.01940E-05 6.39645E-06 6.54836E-19 3.35588E-18
 -1      1798 9.75805E-05-2.56136E-05-3.08238E-05 8.72170E-06 7.97799E-19 2.61031E-18
 -1      1799 9.98145E-05-2.25420E-05-3.28357E-05-1.44683E-05-8.63921E-19-3.32619E-19
 -1      1800 9.69580E-05-2.69778E-05-2.98769E-05-5.70582E-06-7.65824E-19-3.16028E-19
 -1      1801 9.51500E-05-2.70333E-05-2.91663E-05-3.89835E-06-6.26513E-19-5.08173E-19
 -1      1802 9.43318E-05-2.72355E-05-2.86587E-05-2.42257E-06-6.01764E-19-4.75298E-19
 -1      1803 9.35597E-05-2.73161E-05-2.83535E-05-1.56972E-06-6.22774E-19-6.54733E-19
 -1      1804 9.55056E-05-2.65446E-05-2.95755E-05-4.47343E-06-7.10886E-19-5.80077E-19
 -1      1805 9.30341E-05-2.73663E-05-2.80845E-05-7.43457E-07-5.82749E-19-6.14747E-19
 -1      1806 9.27322E-05-2.74295E-05-2.79622E-05-3.05423E-07-3.82819E-19-7.28536E-19
 -1      1807 9.42953E-05-2.72214E-05-2.87665E-05-1.83163E-06-6.24382E-19-5.36840E-19
 -1      1808 9.24560E-05-2.74568E-05-2.78261E-05 1.49564E-07-3.51140E-19-7.67218E-19
 -1      1809 9.24240E-05-2.75327E-05-2.77960E-05 3.73255E-07-3.23573E-19-8.90497E-19
 -1      1810 9.35928E-05-2.75268E-05-2.83304E-05-3.65925E-07-5.08954E-19-6.06252E-19
 -1      1811 9.23201E-05-2.75638E-05-2.77377E-05 6.12654E-07-2.99442E-19-8.01230E-19
 -1      1812 9.24341E-05-2.76485E-05-2.77566E-05 7.16282E-07-2.73412E-19-9.49323E-19
 -1      1813 9.32708E-05-2.77112E-05-2.81092E-05 4.35783E-07-3.07916E-19-7.07293E-19
 -1      1814 9.24390E-05-2.76863E-05-2.77446E-05 8.27150E-07-3.92628E-19-1.06458E-18
 -1      1815 9.26257E-05-2.77726E-05-2.77891E-05 8.60710E-07-3.96913E-19-1.07777E-18
 -1      1816 9.32063E-05-2.78536E-05-2.80166E-05 8.46551E-07-4.20058E-19-8.83252E-19
 -1      1817 9.26942E-05-2.78135E-05-2.78039E-05 8.94158E-07-4.41023E-19-1.17785E-18
 -1      1818 9.29103E-05-2.78965E-05-2.78601E-05 8.87278E-07-3.97175E-19-1.31884E-18
 -1      1819 9.33006E-05-2.79766E-05-2.80012E-05 1.02212E-06-5.59447E-19-1.02243E-18
 -1      1820 9.30183E-05-2.79395E-05-2.78913E-05 8.73822E-07-4.87158E-19-1.31711E-18
 -1      1821 9.32468E-05-2.80182E-05-2.79535E-05 8.42643E-07-4.18523E-19-1.33890E-18
 -1      1822 9.34878E-05-2.80864E-05-2.80320E-05 1.05588E-06-5.40279E-19-1.19865E-18
 -1      1823 9.33613E-05-2.80561E-05-2.79898E-05 8.05381E-07-3.37601E-19-1.27244E-18
 -1      1824 9.35669E-05-2.81215E-05-2.80473E-05 7.65075E-07 3.71646E-20-1.41988E-18
 -1      1825 9.37182E-05-2.81836E-05-2.80876E-05 1.00668E-06-3.31564E-19-8.41218E-19
 -1      1826 9.36838E-05-2.81564E-05-2.80856E-05 7.17904E-07 8.99183E-20-1.46077E-18
 -1      1827 9.38704E-05-2.82122E-05-2.81388E-05 6.75443E-07-4.75583E-20-1.45342E-18
 -1      1828 9.39535E-05-2.82635E-05-2.81533E-05 9.17628E-07 5.08064E-20-8.74823E-19
 -1      1829 9.39825E-05-2.82430E-05-2.81767E-05 6.27367E-07-1.59529E-19-1.27618E-18
 -1      1830 9.41486E-05-2.82900E-05-2.82248E-05 5.88204E-07-1.19305E-19-1.14484E-18
 -1      1831 9.41833E-05-2.83304E-05-2.82226E-05 8.14719E-07 6.94732E-20-9.48733E-19
 -1      1832 9.42537E-05-2.83168E-05-2.82611E-05 5.45615E-07-2.64615E-20-9.45129E-19
 -1      1833 9.44011E-05-2.83563E-05-2.83045E-05 5.13513E-07 2.76391E-19-9.62094E-19
 -1      1834 9.43997E-05-2.83854E-05-2.82916E-05 7.15921E-07 1.59806E-19-7.42164E-19
 -1      1835 9.44999E-05-2.83796E-05-2.83392E-05 4.81116E-07 3.64462E-19-8.85651E-19
 -1      1836 9.46332E-05-2.84134E-05-2.83791E-05 4.58995E-07 2.23789E-19-6.94247E-19
 -1      1837 9.46016E-05-2.84304E-05-2.83589E-05 6.34003E-07 1.80469E-19-3.30661E-19
 -1      1838 9.47281E-05-2.84342E-05-2.84132E-05 4.40636E-07 2.04646E-19-6.96717E-19
 -1      1839 9.48539E-05-2.84642E-05-2.84513E-05 4.31124E-07 1.44834E-19-2.43219E-19
 -1      1840 9.47924E-05-2.84672E-05-2.84251E-05 5.78779E-07 3.30448E-19-3.33230E-19
 -1      1841 9.49495E-05-2.84836E-05-2.84863E-05 4.30502E-07-1.22611E-19-3.36673E-19
 -1      1842 9.50765E-05-2.85121E-05-2.85252E-05 4.36456E-07 2.99336E-19-2.84601E-19
 -1      1843 9.49791E-05-2.84981E-05-2.84923E-05 5.58865E-07 1.50534E-19-1.14142E-19
 -1      1844 9.51786E-05-2.85315E-05-2.85633E-05 4.57801E-07 3.29708E-19-4.38385E-19
 -1      1845 9.53175E-05-2.85613E-05-2.86062E-05 4.82846E-07 3.38480E-19-3.65615E-19
 -1      1846 9.51720E-05-2.85252E-05-2.85638E-05 5.83236E-07 1.12579E-19-1.16510E-19
 -1      1847 9.54336E-05-2.85820E-05-2.86502E-05 5.31628E-07 3.56832E-19-4.30522E-19
 -1      1848 9.55981E-05-2.86160E-05-2.87013E-05 5.80786E-07 2.43284E-19-4.52783E-19
 -1      1849 9.53841E-05-2.85505E-05-2.86445E-05 6.62767E-07 2.43386E-19-1.54276E-19
 -1      1850 9.57373E-05-2.86393E-05-2.87549E-05 6.64604E-07-7.47006E-20-7.56161E-19
 -1      1851 9.59452E-05-2.86816E-05-2.88193E-05 7.44873E-07-2.57609E-20-1.11520E-18
 -1      1852 9.56317E-05-2.85756E-05-2.87406E-05 8.11899E-07 1.57139E-19-5.49193E-19
 -1      1853 9.61282E-05-2.87107E-05-2.88910E-05 8.81469E-07-1.00079E-19-1.47895E-18
 -1      1854 9.64167E-05-2.87682E-05-2.89809E-05 1.01199E-06-3.31139E-19-1.28692E-18
 -1      1855 9.59429E-05-2.86026E-05-2.88635E-05 1.05839E-06-4.44576E-19-9.03554E-19
 -1      1856 9.66401E-05-2.88012E-05-2.90706E-05 1.20580E-06-4.22292E-19-1.31689E-18
 -1      1857 9.70146E-05-2.88760E-05-2.91864E-05 1.38845E-06-2.26513E-19-8.66890E-19
 -1      1858 9.63365E-05-2.86295E-05-2.90215E-05 1.42959E-06-1.70300E-19-1.73229E-18
 -1      1859 9.73013E-05-2.89146E-05-2.93044E-05 1.66568E-06-4.67135E-19-6.90631E-19
 -1      1860 9.78133E-05-2.90158E-05-2.94625E-05 1.92775E-06-7.18787E-20-1.25840E-18
 -1      1861 9.68292E-05-2.86548E-05-2.92228E-05 1.95393E-06-2.41581E-19-1.35562E-18
 -1      1862 9.81814E-05-2.90603E-05-2.96183E-05 2.31827E-06 4.24706E-19-1.13256E-18
 -1      1863 9.88848E-05-2.91990E-05-2.98347E-05 2.69014E-06 5.80300E-19-9.04637E-19
 -1      1864 9.74616E-05-2.86750E-05-2.94860E-05 2.69447E-06 2.46642E-19-1.12789E-18
 -1      1865 9.93536E-05-2.92487E-05-3.00394E-05 3.23336E-06 4.28714E-19-6.57916E-19
 -1      1866 1.00319E-04-2.94405E-05-3.03352E-05 3.75449E-06-1.49157E-20-2.32531E-19
 -1      1867 9.82699E-05-2.86840E-05-2.98292E-05 3.72569E-06 7.04162E-19-4.92398E-19
 -1      1868 1.00909E-04-2.94955E-05-3.06004E-05 4.49880E-06-1.98977E-19 6.69958E-20
 -1      1869 1.02226E-04-2.97650E-05-3.10011E-05 5.21539E-06 3.41116E-19 3.99597E-19
 -1      1870 9.92936E-05-2.86771E-05-3.02711E-05 5.14123E-06 1.14297E-19-2.51936E-19
 -1      1871 1.02958E-04-2.98315E-05-3.13368E-05 6.21150E-06 4.41635E-19 3.99718E-19
 -1      1872 1.04734E-04-3.02202E-05-3.18698E-05 7.16373E-06 4.00891E-19-5.69092E-20
 -1      1873 1.00576E-04-2.86613E-05-3.08271E-05 7.04544E-06 1.92035E-19-1.22841E-19
 -1      1874 1.05637E-04-3.03252E-05-3.22782E-05 8.44358E-06 3.23196E-20-6.60645E-19
 -1      1875 1.07988E-04-3.09092E-05-3.29639E-05 9.62889E-06-2.62309E-19-3.79934E-19
 -1      1876 1.02171E-04-2.86862E-05-3.15001E-05 9.52368E-06-1.26195E-20-9.42219E-19
 -1      1877 1.09122E-04-3.11387E-05-3.34292E-05 1.11544E-05-1.58203E-19 7.42974E-20
 -1      1878 1.12144E-04-3.20624E-05-3.42608E-05 1.24416E-05-2.44978E-20-1.99397E-19
 -1      1879 1.04177E-04-2.89178E-05-3.22634E-05 1.25677E-05 2.30419E-20-1.18357E-18
 -1      1880 1.13676E-04-3.26383E-05-3.47361E-05 1.39977E-05-5.91785E-19-2.22743E-20
 -1      1881 1.17389E-04-3.41644E-05-3.56453E-05 1.49679E-05-7.11616E-19-1.45054E-19
 -1      1882 1.06831E-04-2.97904E-05-3.30376E-05 1.59185E-05-3.11720E-19-7.26567E-19
 -1      1883 1.19744E-04-3.55463E-05-3.60532E-05 1.59440E-05-9.32282E-19-7.46924E-19
 -1      1884 1.23979E-04-3.80412E-05-3.68775E-05 1.56787E-05-1.35971E-18-8.87717E-19
 -1      1885 1.10742E-04-3.22664E-05-3.36839E-05 1.87710E-05-1.07082E-18-6.54120E-19
 -1      1886 1.28241E-04-4.11300E-05-3.71894E-05 1.47634E-05-1.34919E-18-8.42957E-19
 -1      1887 1.32702E-04-4.49079E-05-3.77406E-05 1.15155E-05-1.03333E-18-2.46472E-19
 -1      1888 1.17337E-04-3.79999E-05-3.40960E-05 1.93089E-05-1.06648E-18-6.94269E-19
 -1      1889 1.39407E-04-4.97313E-05-3.81988E-05 6.80724E-06-5.66983E-19 3.52703E-19
 -1      1890 1.42255E-04-5.27600E-05-3.85116E-05-1.68429E-07 2.71474E-19 6.27731E-19
 -1      1891 1.28432E-04-4.81034E-05-3.45419E-05 1.43044E-05-4.94244E-19 7.39566E-20
 -1      1892 1.50149E-04-5.63919E-05-4.01649E-05-9.27004E-06 2.36031E-19 4.69627E-19
 -1      1893 1.49323E-04-5.46332E-05-4.08902E-05-1.71473E-05 4.41225E-19-2.02176E-19
 -1      1894 1.43841E-04-5.86919E-05-3.66255E-05-9.83266E-08-1.11438E-20 1.75300E-18
 -1      1895 1.54409E-04-5.20487E-05-4.42313E-05-2.46654E-05 1.51937E-18-5.81382E-19
 -1      1896 1.49217E-04-4.37990E-05-4.56440E-05-2.59525E-05 2.12881E-18 1.30655E-19
 -1      1897 1.57932E-04-5.94137E-05-4.26505E-05-1.70991E-05 1.01649E-18 7.06320E-19
 -1      1898 1.45566E-04-3.47875E-05-4.83446E-05-2.30300E-05 3.29983E-18 2.75233E-19
 -1      1899 1.40013E-04-2.67270E-05-4.92644E-05-1.30465E-05 2.88372E-18 1.47442E-18
 -1      1900 1.42758E-04-2.46000E-05-5.12164E-05 1.41330E-06 6.47557E-19 1.44980E-18
 -1      1901 1.44904E-04-2.86087E-05-5.06420E-05 1.44783E-05-2.51145E-19 7.56321E-19
 -1      1902 1.44945E-04-3.56298E-05-4.72961E-05 2.35790E-05-8.46186E-19 1.98841E-19
 -1      1903 1.51675E-04-4.66261E-05-4.56701E-05 2.64767E-05-6.99332E-19-2.43310E-19
 -1      1904 1.48245E-04-5.14584E-05-4.17351E-05 2.07551E-05-3.35478E-19 3.14726E-20
 -1      1905 1.50906E-04-5.57925E-05-4.09006E-05 1.32853E-05-2.60727E-19 4.60362E-19
 -1      1906 1.43115E-04-5.34750E-05-3.86178E-05 2.92381E-06-3.70365E-19 6.86391E-19
 -1      1907 1.40928E-04-5.10999E-05-3.82703E-05-4.59844E-06-1.63694E-18-1.19035E-19
 -1      1908 1.33629E-04-4.61236E-05-3.76525E-05-1.03455E-05-2.25430E-18-6.96092E-19
 -1      1909 1.29483E-04-4.24378E-05-3.71534E-05-1.42005E-05-1.27714E-18-8.16513E-19
 -1      1910 1.30849E-04-5.03002E-05-3.46869E-05-1.27725E-05-2.67345E-18-5.22897E-19
 -1      1911 1.24832E-04-3.90892E-05-3.68146E-05-1.57771E-05 3.93116E-19-1.55632E-18
 -1      1912 1.20367E-04-3.63039E-05-3.59878E-05-1.66081E-05 6.33647E-19-5.94908E-19
 -1      1913 1.18733E-04-3.96775E-05-3.40067E-05-1.93755E-05-9.78204E-19-1.43368E-18
 -1      1914 1.17572E-04-3.45992E-05-3.55535E-05-1.59966E-05 3.14755E-19-9.41623E-19
 -1      1915 1.13514E-04-3.28172E-05-3.45892E-05-1.52792E-05 6.75735E-19-7.13711E-19
 -1      1916 1.11255E-04-3.31385E-05-3.35417E-05-1.99052E-05 5.29419E-19-1.56656E-18
 -1      1917 1.11680E-04-3.20543E-05-3.40730E-05-1.38597E-05 5.09884E-19-1.08482E-18
 -1      1918 1.08271E-04-3.09320E-05-3.31543E-05-1.26416E-05-1.26443E-19-8.23720E-19
 -1      1919 1.06593E-04-3.00119E-05-3.28472E-05-1.75622E-05 7.02614E-19-1.90510E-18
 -1      1920 1.06904E-04-3.05825E-05-3.26400E-05-1.11198E-05-4.37168E-19-2.29877E-19
 -1      1921 1.04172E-04-2.98314E-05-3.18610E-05-9.90011E-06-2.78197E-19 6.83915E-19
 -1      1922 1.03381E-04-2.87294E-05-3.20057E-05-1.43468E-05 5.58175E-19-1.31670E-18
 -1      1923 1.03067E-04-2.96206E-05-3.14091E-05-8.53323E-06-1.42502E-18 3.46719E-19
 -1      1924 1.00953E-04-2.90702E-05-3.07981E-05-7.45710E-06-1.41579E-18-7.77873E-19
 -1      1925 1.00917E-04-2.82001E-05-3.11727E-05-1.12057E-05-1.19918E-18 7.38659E-19
 -1      1926 1.00028E-04-2.88718E-05-3.04380E-05-6.26844E-06-1.76999E-18-2.48496E-18
 -1      1927 9.84562E-05-2.84370E-05-2.99935E-05-5.30167E-06-1.33091E-18-2.99900E-18
 -1      1928 9.89067E-05-2.78729E-05-3.04536E-05-8.42839E-06-2.90096E-18-3.66466E-19
 -1      1929 9.76892E-05-2.82227E-05-2.97300E-05-4.22012E-06-3.79974E-19-2.52151E-18
 -1      1930 9.65712E-05-2.78614E-05-2.94315E-05-3.30417E-06-3.64988E-19-2.58965E-18
 -1      1931 9.72298E-05-2.75105E-05-2.98973E-05-5.95834E-06-9.60628E-19-7.11630E-19
 -1      1932 9.58591E-05-2.76943E-05-2.91958E-05-2.01301E-06-8.49774E-19-1.69041E-18
 -1      1933 9.27444E-05-2.73539E-05-2.79904E-05 7.90290E-07 4.46846E-19 2.42923E-18
 -1      1934 9.32190E-05-2.73087E-05-2.81866E-05 1.37058E-06 4.23119E-19 2.44468E-18
 -1      1935 9.22079E-05-2.74244E-05-2.77428E-05-8.29996E-08 4.02354E-19 2.26952E-18
 -1      1936 9.23358E-05-2.73656E-05-2.78020E-05 2.05860E-07 4.83399E-19 2.43354E-18
 -1      1937 9.36682E-05-2.74237E-05-2.84070E-05 9.57284E-07 5.43967E-19 1.54346E-18
 -1      1938 9.21019E-05-2.75185E-05-2.76656E-05-5.42528E-07 1.57578E-19 1.87750E-18
 -1      1939 9.20250E-05-2.74396E-05-2.76573E-05-3.99517E-07 3.75553E-19 2.07505E-18
 -1      1940 9.31382E-05-2.75995E-05-2.81024E-05-1.00195E-07 4.83280E-19 1.41908E-18
 -1      1941 9.22511E-05-2.76367E-05-2.76840E-05-7.58506E-07 2.37599E-19 1.52713E-18
 -1      1942 9.20677E-05-2.75482E-05-2.76407E-05-6.97928E-07 7.47440E-20 1.67921E-18
 -1      1943 9.29658E-05-2.77347E-05-2.79664E-05-6.61216E-07 2.65473E-19 1.23741E-18
 -1      1944 9.25358E-05-2.77649E-05-2.77541E-05-8.30575E-07 3.53211E-19 1.16582E-18
 -1      1945 9.23056E-05-2.76759E-05-2.76942E-05-8.18235E-07 2.78035E-19 1.42203E-18
 -1      1946 9.30127E-05-2.78567E-05-2.79306E-05-9.28017E-07 3.98562E-19 7.71420E-19
 -1      1947 9.28806E-05-2.78921E-05-2.78493E-05-8.18624E-07 4.70988E-19 1.26856E-18
 -1      1948 9.26387E-05-2.78082E-05-2.77837E-05-8.33908E-07 3.22278E-19 1.23169E-18
 -1      1949 9.31860E-05-2.79708E-05-2.79533E-05-1.01894E-06 3.77078E-19 6.36448E-19
 -1      1950 9.32389E-05-2.80111E-05-2.79531E-05-7.60574E-07 3.36420E-19 1.27549E-18
 -1      1951 9.30054E-05-2.79353E-05-2.78883E-05-7.90291E-07 5.07562E-19 1.38241E-18
 -1      1952 9.34231E-05-2.80756E-05-2.80081E-05-1.00662E-06 3.66078E-19 6.99643E-19
 -1      1953 9.35842E-05-2.81179E-05-2.80561E-05-6.81268E-07 3.25315E-19 1.00181E-18
 -1      1954 9.33696E-05-2.80517E-05-2.79954E-05-7.16713E-07 3.14342E-19 1.08554E-18
 -1      1955 9.36838E-05-2.81690E-05-2.80786E-05-9.37753E-07 4.94682E-19 5.67614E-19
 -1      1956 9.39031E-05-2.82113E-05-2.81531E-05-5.97253E-07 3.98594E-19 4.32813E-19
 -1      1957 9.37113E-05-2.81546E-05-2.80981E-05-6.32606E-07 5.21658E-19 9.29928E-19
 -1      1958 9.39438E-05-2.82502E-05-2.81546E-05-8.43217E-07 4.61231E-19 6.90653E-19
 -1      1959 9.41913E-05-2.82919E-05-2.82422E-05-5.19628E-07 7.19626E-20 4.47915E-19
 -1      1960 9.40222E-05-2.82437E-05-2.81932E-05-5.50973E-07 4.75362E-20 4.73922E-19
 -1      1961 9.41905E-05-2.83192E-05-2.82303E-05-7.43701E-07 3.32292E-19 1.95076E-19
 -1      1962 9.44511E-05-2.83616E-05-2.83236E-05-4.55845E-07 3.19828E-19 6.57396E-19
 -1      1963 9.43015E-05-2.83204E-05-2.82797E-05-4.80541E-07 3.15310E-19 6.42766E-19
 -1      1964 9.44188E-05-2.83774E-05-2.83032E-05-6.53149E-07 1.91177E-19 3.77108E-19
 -1      1965 9.46888E-05-2.84230E-05-2.83990E-05-4.10901E-07-1.10179E-19 9.49962E-19
 -1      1966 9.45536E-05-2.83869E-05-2.83589E-05-4.27168E-07 2.60307E-19 9.45915E-19
 -1      1967 9.46295E-05-2.84267E-05-2.83724E-05-5.80971E-07 1.14647E-20 9.24999E-19
 -1      1968 9.49137E-05-2.84795E-05-2.84708E-05-3.88060E-07-4.14321E-19 5.63936E-19
 -1      1969 9.47865E-05-2.84464E-05-2.84328E-05-3.94735E-07-2.92138E-19 8.80895E-19
 -1      1970 9.48270E-05-2.84696E-05-2.84388E-05-5.33459E-07-6.86136E-21 6.54583E-19
 -1      1971 9.51369E-05-2.85351E-05-2.85422E-05-3.89195E-07 2.51877E-20 5.38788E-19
 -1      1972 9.50106E-05-2.85024E-05-2.85044E-05-3.85646E-07-3.29215E-19 3.85069E-19
 -1      1973 9.50184E-05-2.85094E-05-2.85041E-05-5.14640E-07-2.16226E-19 3.66151E-19
 -1      1974 9.53704E-05-2.85939E-05-2.86167E-05-4.14742E-07 3.80291E-19 8.08330E-19
 -1      1975 9.52377E-05-2.85591E-05-2.85769E-05-4.00942E-07 3.21471E-19 4.69615E-19
 -1      1976 9.52125E-05-2.85496E-05-2.85704E-05-5.26604E-07 2.43660E-19-9.25264E-21
 -1      1977 9.56262E-05-2.86607E-05-2.86974E-05-4.63240E-07-3.16185E-19 1.08138E-18
 -1      1978 9.54800E-05-2.86211E-05-2.86538E-05-4.40019E-07 3.47413E-19 1.06583E-18
 -1      1979 9.54193E-05-2.85943E-05-2.86402E-05-5.69328E-07 1.61323E-19 3.16230E-19
 -1      1980 9.59146E-05-2.87400E-05-2.87869E-05-5.30409E-07-3.35474E-19 8.18700E-19
 -1      1981 9.57491E-05-2.86930E-05-2.87380E-05-4.99915E-07-5.25580E-19 1.19163E-18
 -1      1982 9.56486E-05-2.86484E-05-2.87156E-05-6.39948E-07-3.43506E-19 9.19829E-19
 -1      1983 9.62428E-05-2.88364E-05-2.88865E-05-6.07751E-07-2.13588E-19 1.44972E-18
 -1      1984 9.60547E-05-2.87797E-05-2.88317E-05-5.74114E-07-2.30991E-19 1.01165E-18
 -1      1985 9.59095E-05-2.87175E-05-2.87980E-05-7.31443E-07-4.35174E-19 1.07048E-18
 -1      1986 9.66121E-05-2.89535E-05-2.89955E-05-6.80718E-07-3.72016E-19 1.36417E-18
 -1      1987 9.64023E-05-2.88857E-05-2.89352E-05-6.50897E-07-4.74297E-20 1.49584E-18
 -1      1988 9.62086E-05-2.88078E-05-2.88877E-05-8.30733E-07-3.65872E-21 1.49336E-18
 -1      1989 9.70146E-05-2.90933E-05-2.91097E-05-7.26687E-07 8.86352E-20 1.27076E-18
 -1      1990 9.67903E-05-2.90143E-05-2.90466E-05-7.11362E-07-2.21653E-19 1.26789E-18
 -1      1991 9.65485E-05-2.89256E-05-2.89827E-05-9.16326E-07-1.52458E-19 1.12492E-18
 -1      1992 9.74286E-05-2.92541E-05-2.92209E-05-7.13297E-07-6.61763E-20 1.50930E-18
 -1      1993 9.72062E-05-2.91667E-05-2.91602E-05-7.27523E-07 1.76219E-19 1.58769E-18
 -1      1994 9.69247E-05-2.90768E-05-2.90787E-05-9.55910E-07-5.11722E-20 1.80634E-18
 -1      1995 9.78142E-05-2.94285E-05-2.93153E-05-5.98221E-07 1.41779E-20 7.63050E-19
 -1      1996 9.76223E-05-2.93392E-05-2.92655E-05-6.61299E-07-2.48815E-19 1.06440E-18
 -1      1997 9.73221E-05-2.92644E-05-2.91677E-05-9.04762E-07 2.87168E-20 1.71731E-18
 -1      1998 9.81091E-05-2.95998E-05-2.93732E-05-3.32136E-07-1.34489E-19 1.63229E-18
 -1      1999 9.79903E-05-2.95213E-05-2.93465E-05-4.65843E-07 2.67632E-19 1.36593E-18
 -1      2000 9.77110E-05-2.94854E-05-2.92380E-05-7.06521E-07-3.07282E-19 1.86768E-18
 -1      2001 9.82268E-05-2.97384E-05-2.93696E-05 1.32729E-07 1.48975E-20 1.04241E-18
 -1      2002 9.82378E-05-2.96905E-05-2.93816E-05-9.13475E-08-3.15106E-20 1.14238E-18
 -1      2003 9.80424E-05-2.97258E-05-2.92746E-05-2.98717E-07 1.72896E-19 1.50388E-18
 -1      2004 9.80603E-05-2.97981E-05-2.92775E-05 8.26057E-07-3.98575E-19 6.84830E-19
 -1      2005 9.82672E-05-2.98094E-05-2.93450E-05 5.02132E-07 4.93380E-20 9.23761E-19
 -1      2006 9.82440E-05-2.99533E-05-2.92603E-05 3.73923E-07 3.05635E-19 7.14556E-19
 -1      2007 9.74954E-05-2.97169E-05-2.90726E-05 1.73428E-06-8.07791E-20 1.03356E-18
 -1      2008 9.79623E-05-2.98222E-05-2.92106E-05 1.32309E-06-4.15291E-19 8.19868E-19
 -1      2009 9.82207E-05-3.01110E-05-2.91789E-05 1.33579E-06-4.97655E-19 1.05567E-18
 -1      2010 9.64368E-05-2.94246E-05-2.87425E-05 2.77092E-06-8.05409E-19 1.93996E-18
 -1      2011 9.72066E-05-2.96584E-05-2.89581E-05 2.31980E-06-3.75785E-19 1.33097E-18
 -1      2012 9.78621E-05-3.01152E-05-2.90195E-05 2.54670E-06-5.27961E-19 1.46184E-18
 -1      2013 9.48503E-05-2.88643E-05-2.82953E-05 3.75514E-06-3.06242E-19 1.85639E-18
 -1      2014 9.59180E-05-2.92468E-05-2.85824E-05 3.35296E-06-2.28524E-19 1.88072E-18
 -1      2015 9.70650E-05-2.98667E-05-2.87819E-05 3.86572E-06-5.02540E-19 1.44477E-18
 -1      2016 9.28125E-05-2.80287E-05-2.77674E-05 4.42058E-06 4.69948E-19 1.64664E-18
 -1      2017 9.40999E-05-2.85465E-05-2.81015E-05 4.18842E-06-2.55516E-20 2.02721E-18
 -1      2018 9.57767E-05-2.92831E-05-2.84808E-05 5.03150E-06-2.34631E-19 1.06425E-18
 -1      2019 9.05505E-05-2.70000E-05-2.72237E-05 4.47693E-06-1.56985E-19 2.45726E-18
 -1      2020 9.18948E-05-2.75892E-05-2.75619E-05 4.53445E-06 4.60401E-19 2.44429E-18
 -1      2021 9.40527E-05-2.83534E-05-2.81468E-05 5.68896E-06-9.59399E-20 2.52528E-18
 -1      2022 8.84383E-05-2.59680E-05-2.67479E-05 3.72557E-06-3.65051E-20 2.64904E-18
 -1      2023 8.96113E-05-2.65138E-05-2.70356E-05 4.13721E-06-1.70244E-19 2.36003E-18
 -1      2024 9.21080E-05-2.71933E-05-2.78229E-05 5.48711E-06-2.00532E-19 2.76490E-18
 -1      2025 8.69186E-05-2.51929E-05-2.64228E-05 2.18690E-06 7.49532E-19 2.98982E-18
 -1      2026 8.76834E-05-2.55594E-05-2.66071E-05 2.91211E-06-2.15001E-20 2.85229E-18
 -1      2027 9.03151E-05-2.60602E-05-2.75557E-05 4.23784E-06 4.17395E-21 2.68292E-18
 -1      2028 8.63574E-05-2.49068E-05-2.63072E-05 1.57387E-07 1.27335E-18 2.15952E-18
 -1      2029 8.65466E-05-2.49906E-05-2.63528E-05 1.04113E-06 1.34075E-18 3.05079E-18
 -1      2030 8.91106E-05-2.52827E-05-2.73849E-05 2.06540E-06 1.11192E-18 2.87289E-18
 -1      2031 8.68899E-05-2.52001E-05-2.64183E-05-1.87053E-06 6.87288E-20 2.34944E-18
 -1      2032 8.64703E-05-2.49798E-05-2.63187E-05-1.04686E-06 5.02310E-19 2.51831E-18
 -1      2033 8.88235E-05-2.51190E-05-2.73349E-05-5.64312E-07 7.28991E-19 2.58198E-18
 -1      2034 8.83556E-05-2.59715E-05-2.67263E-05-3.40166E-06-4.43544E-19 2.06280E-18
 -1      2035 8.74421E-05-2.55190E-05-2.65065E-05-2.83245E-06-6.41760E-20 2.14046E-18
 -1      2036 8.95192E-05-2.56219E-05-2.74096E-05-2.99699E-06 2.53630E-19 3.34968E-18
 -1      2037 9.03641E-05-2.69796E-05-2.71639E-05-4.13419E-06 5.18824E-20 1.26019E-18
 -1      2038 8.91751E-05-2.64246E-05-2.68720E-05-3.91595E-06-7.15078E-19 1.28165E-18
 -1      2039 9.09653E-05-2.66087E-05-2.75918E-05-4.65565E-06-2.26356E-19 1.88585E-18
 -1      2040 9.24545E-05-2.79574E-05-2.76462E-05-4.04540E-06 3.71745E-19 1.04899E-18
 -1      2041 9.12343E-05-2.74313E-05-2.73387E-05-4.15792E-06 5.41975E-19 1.34540E-18
 -1      2042 9.27436E-05-2.77588E-05-2.78468E-05-5.26104E-06 2.48592E-19 5.62465E-19
 -1      2043 9.42496E-05-2.87144E-05-2.80936E-05-3.33850E-06 7.04592E-21 5.54959E-19
 -1      2044 9.31971E-05-2.83068E-05-2.78197E-05-3.67966E-06 1.33107E-19 8.78975E-19
 -1      2045 9.44315E-05-2.87653E-05-2.81294E-05-4.88411E-06 2.20607E-19 2.27879E-19
 -1      2046 9.55360E-05-2.91724E-05-2.84488E-05-2.31566E-06 2.06890E-18-1.27658E-18
 -1      2047 9.47670E-05-2.89188E-05-2.82405E-05-2.75650E-06 1.31067E-18-6.57443E-19
 -1      2048 9.57375E-05-2.94445E-05-2.83947E-05-3.83652E-06 1.07317E-18-8.97395E-19
 -1      2049 9.62644E-05-2.93462E-05-2.86850E-05-1.26109E-06 2.15730E-18-2.95276E-18
 -1      2050 9.58087E-05-2.92387E-05-2.85541E-05-1.68958E-06 2.12858E-18-1.77381E-18
 -1      2051 9.65421E-05-2.97547E-05-2.86078E-05-2.50421E-06 2.44078E-18-1.47071E-18
 -1      2052 9.65039E-05-2.93016E-05-2.88044E-05-3.77469E-07 1.53489E-18-2.80611E-18
 -1      2053 9.63255E-05-2.93077E-05-2.87449E-05-7.18620E-07 1.49838E-18-2.85820E-18
 -1      2054 9.68656E-05-2.97538E-05-2.87504E-05-1.21829E-06 1.52891E-18-2.51858E-18
 -1      2055 9.63878E-05-2.91189E-05-2.88300E-05 2.25041E-07-1.53217E-19-1.50171E-18
 -1      2056 9.64116E-05-2.91979E-05-2.88245E-05 8.98368E-09 1.02752E-18-2.41154E-18
 -1      2057 9.68085E-05-2.95405E-05-2.88216E-05-1.97382E-07 7.56731E-19-1.22246E-18
 -1      2058 9.60704E-05-2.88744E-05-2.87960E-05 5.10887E-07-6.22960E-19-6.25493E-19
 -1      2059 9.62052E-05-2.89848E-05-2.88216E-05 4.28914E-07-7.65253E-19-1.10797E-18
 -1      2060 9.65007E-05-2.92130E-05-2.88341E-05 4.51772E-07-5.00156E-19-1.99384E-19
 -1      2061 9.56932E-05-2.86324E-05-2.87359E-05 4.98511E-07-4.62719E-19-3.50978E-19
 -1      2062 9.58547E-05-2.87368E-05-2.87717E-05 5.41204E-07-3.24150E-19-1.70411E-19
 -1      2063 9.60694E-05-2.88540E-05-2.88066E-05 7.10220E-07-6.07279E-19 3.33312E-19
 -1      2064 9.53962E-05-2.84889E-05-2.86715E-05 3.01932E-07-8.60372E-19-2.40854E-19
 -1      2065 9.55271E-05-2.85517E-05-2.87067E-05 4.09494E-07-4.44535E-19-3.05553E-19
 -1      2066 9.56796E-05-2.85915E-05-2.87554E-05 6.30448E-07-1.33286E-18 1.83122E-18
 -1      2067 9.53757E-05-2.84206E-05-2.86948E-05 3.79245E-07-1.20805E-18 3.00609E-18
 -1      2068 9.51031E-05-2.71027E-05-2.91301E-05 1.68541E-06-4.66510E-19 6.75864E-19
 -1      2069 9.52216E-05-2.75249E-05-2.90069E-05 1.43385E-06-1.43654E-18 1.42244E-18
 -1      2070 9.52727E-05-2.77610E-05-2.89207E-05 1.12644E-06-7.66121E-19-1.46345E-20
 -1      2071 9.53360E-05-2.80518E-05-2.88339E-05 9.02852E-07-4.61583E-19-1.73187E-18
 -1      2072 9.54670E-05-2.78818E-05-2.89747E-05 1.62804E-06-4.96948E-19-3.57365E-19
 -1      2073 9.53478E-05-2.82519E-05-2.87480E-05 5.53527E-07-1.59559E-18 2.28994E-19
 -1      2074 9.48085E-05-2.61994E-05-2.93948E-05 2.24376E-06-1.00229E-19-2.74082E-18
 -1      2075 9.49974E-05-2.67579E-05-2.92389E-05 2.00569E-06-3.72339E-19 2.09493E-19
 -1      2076 9.53151E-05-2.73023E-05-2.91584E-05 2.32616E-06-1.69054E-19 3.68591E-19
 -1      2077 9.43508E-05-2.50251E-05-2.97094E-05 2.69637E-06 2.56828E-19-1.62719E-18
 -1      2078 9.46224E-05-2.57156E-05-2.95247E-05 2.52566E-06-5.80871E-20-1.75238E-18
 -1      2079 9.49958E-05-2.64668E-05-2.93793E-05 3.00777E-06 1.84110E-19-1.85097E-18
 -1      2080 9.37466E-05-2.36745E-05-3.00399E-05 2.86423E-06 1.30111E-19 9.74541E-19
 -1      2081 9.40817E-05-2.44245E-05-2.98479E-05 2.84079E-06 3.03546E-19-1.13703E-18
 -1      2082 9.44619E-05-2.53563E-05-2.96240E-05 3.49618E-06 7.71667E-19-1.83713E-18
 -1      2083 9.30642E-05-2.23124E-05-3.03427E-05 2.58378E-06-1.62693E-19 2.32828E-18
 -1      2084 9.34166E-05-2.30148E-05-3.01708E-05 2.77428E-06-6.45479E-19 2.10906E-18
 -1      2085 9.37355E-05-2.40522E-05-2.98657E-05 3.57095E-06 4.65745E-19 2.08380E-18
 -1      2086 9.24286E-05-2.11753E-05-3.05668E-05 1.75854E-06-4.82887E-19 1.25334E-20
 -1      2087 9.27262E-05-2.16946E-05-3.04469E-05 2.19160E-06-3.52793E-19 1.70754E-18
 -1      2088 9.29088E-05-2.27191E-05-3.00738E-05 3.04365E-06-1.45834E-18 2.07038E-18
 -1      2089 9.20035E-05-2.05280E-05-3.06656E-05 4.22271E-07-9.78915E-19-5.00097E-19
 -1      2090 9.21624E-05-2.07297E-05-3.06263E-05 1.06246E-06-1.34251E-18-3.17495E-19
 -1      2091 9.21495E-05-2.16001E-05-3.02178E-05 1.83131E-06-1.85537E-18-2.27791E-19
 -1      2092 9.19461E-05-2.05827E-05-3.06129E-05-1.19196E-06-1.07946E-18 4.08025E-19
 -1      2093 9.18954E-05-2.03821E-05-3.06685E-05-4.70560E-07-1.57772E-18 1.01804E-18
 -1      2094 9.16736E-05-2.09721E-05-3.02747E-05 4.79020E-08-1.70749E-18-2.36855E-20
 -1      2095 9.23531E-05-2.14343E-05-3.04104E-05-2.78127E-06 4.06261E-19 9.66250E-19
 -1      2096 9.20596E-05-2.08136E-05-3.05589E-05-2.12713E-06-5.32759E-19 1.92968E-18
 -1      2097 9.16744E-05-2.10500E-05-3.02380E-05-2.01183E-06-1.26827E-18 1.22476E-18
 -1      2098 9.32298E-05-2.30029E-05-3.00964E-05-3.87157E-06 2.07781E-18 8.96684E-19
 -1      2099 9.27142E-05-2.20514E-05-3.03095E-05-3.50092E-06 1.63811E-18-6.23527E-19
 -1      2100 9.22666E-05-2.19338E-05-3.01179E-05-3.88567E-06 4.52316E-19 8.73303E-19
 -1      2101 9.44089E-05-2.49912E-05-2.97301E-05-4.06055E-06 1.35614E-18 1.35343E-18
 -1      2102 9.37797E-05-2.39031E-05-2.99680E-05-4.12266E-06 1.44197E-18 2.30056E-18
 -1      2103 9.34566E-05-2.35425E-05-2.99430E-05-5.00560E-06 1.00542E-18 1.42233E-18
 -1      2104 9.36540E-05-2.73457E-05-2.83732E-05 2.02558E-06 5.67029E-19 2.61900E-18
 -1      2105 9.47507E-05-2.73469E-05-2.88273E-05 3.12816E-06 6.26381E-19 2.98468E-18
 -1      2106 9.54885E-05-2.68463E-05-2.94195E-05 4.53401E-06 7.65810E-19 2.32624E-18
 -1      2107 9.44237E-05-2.71771E-05-2.88333E-05 2.49716E-06 6.22827E-19 1.90176E-18
 -1      2108 6.45784E-05-4.06872E-05-1.06168E-05 4.55936E-05 1.75336E-19-4.30822E-19
 -1      2109 4.99212E-05-4.16968E-05-4.20419E-06 4.11580E-05-9.09713E-19 1.22809E-18
 -1      2110 1.37465E-04-4.33918E-05-4.01794E-05 3.60655E-05 1.27055E-20-2.80918E-18
 -1      2111 1.16029E-04-4.24710E-05-3.19478E-05 4.01587E-05 1.15154E-18-2.86001E-18
 -1      2112 1.28305E-05-3.18819E-05 7.33645E-06 1.23751E-05-5.30243E-19-6.06899E-19
 -1      2113 1.19705E-05-3.37501E-05 8.18469E-06 1.96953E-06 1.63557E-19-1.60259E-18
 -1      2114 1.01370E-04-4.14626E-05-2.55095E-05 4.70373E-05 1.28156E-18-3.73033E-18
 -1      2115 8.32525E-05-4.43825E-05-1.75742E-05 4.28474E-05 8.94890E-19-1.72265E-18
 -1      2116 1.21090E-04-5.32642E-05-2.87892E-05 3.81303E-05 8.81973E-19-3.03810E-18
 -1      2117 8.72486E-05-8.72352E-06-3.37492E-05-1.05412E-05-1.63289E-19-1.82708E-18
 -1      2118 8.79542E-05-9.24162E-06-3.38210E-05-1.20984E-05-3.45864E-19-1.73814E-18
 -1      2119 9.04859E-05-1.30505E-05-3.32352E-05-1.18773E-05-4.31093E-19-1.51019E-18
 -1      2120 8.86871E-05-1.10563E-05-3.32954E-05-9.41373E-06-1.17612E-19-1.74870E-18
 -1      2121 1.68894E-04-3.42074E-05-5.62684E-05 2.51174E-05-2.54216E-19-4.16020E-18
 -1      2122 1.51328E-04-3.71870E-05-4.87539E-05 2.45805E-05-3.95247E-19-2.58811E-18
 -1      2123 1.84231E-04-2.87714E-05-6.54714E-05 1.34672E-05 1.27330E-18-4.82682E-18
 -1      2124 1.72561E-04-2.92054E-05-6.09563E-05 1.99424E-05 8.13575E-19-4.23305E-18
 -1      2125 1.60779E-04-3.04985E-05-5.50612E-05 4.94617E-06 4.99749E-20-4.26566E-18
 -1      2126 1.79179E-04-1.95087E-05-6.78928E-05-9.45174E-07 2.13537E-18-3.61695E-18
 -1      2127 1.85272E-04-2.37901E-05-6.77494E-05 7.66112E-06 1.32179E-18-3.43705E-18
 -1      2128 1.82390E-04-2.52549E-05-6.60676E-05-1.23069E-05 2.23956E-18-3.73923E-18
 -1      2129 1.81418E-04-2.16949E-05-6.77778E-05-2.96724E-06 2.43607E-18-2.82115E-18
 -1      2130 1.65829E-04-3.12589E-05-5.71888E-05-2.44689E-05 1.68697E-18-3.66088E-18
 -1      2131 1.78338E-04-3.04760E-05-6.23154E-05-1.79746E-05 1.64833E-18-3.66088E-18
 -1      2132 1.41672E-04-3.80038E-05-4.45475E-05-3.22277E-05 7.49201E-19-4.23686E-18
 -1      2133 1.60304E-04-3.59761E-05-5.21279E-05-3.20204E-05 1.38628E-18-3.80064E-18
 -1      2134 1.58766E-04-3.57502E-05-5.18742E-05-1.12547E-05 7.56083E-19-2.28911E-18
 -1      2135 1.12144E-04-4.62214E-05-2.86834E-05-3.96799E-05-1.25319E-18-4.66292E-18
 -1      2136 1.30507E-04-4.30449E-05-3.69178E-05-4.07776E-05-5.83182E-19-5.18765E-18
 -1      2137 7.10671E-05-4.42975E-05-1.23402E-05-4.35103E-05-2.08370E-19-2.72353E-18
 -1      2138 9.09860E-05-4.33061E-05-2.04844E-05-4.79879E-05 2.21076E-19-3.90969E-18
 -1      2139 3.62674E-05-3.98424E-05 3.00874E-07-3.50672E-05-9.30466E-19-2.32045E-18
 -1      2140 5.08439E-05-3.74788E-05-5.99514E-06-4.41995E-05-3.70153E-19-3.39364E-18
 -1      2141 1.68576E-05-3.53681E-05 6.79831E-06-2.05818E-05 1.07785E-19 3.74389E-19
 -1      2142 2.40590E-05-3.46957E-05 3.80349E-06-2.91011E-05-5.69206E-19-5.95041E-19
 -1      2143 3.67954E-05-3.14128E-05-2.52833E-06-3.92365E-05 5.05255E-19-2.13495E-18
 -1      2144 1.26193E-05-3.74346E-05 9.11630E-06 1.92869E-06 3.98105E-20 1.53906E-18
 -1      2145 1.07601E-05-3.48096E-05 9.02100E-06-7.24533E-06-3.20284E-19 1.73642E-18
 -1      2146 2.70228E-05-3.84506E-05 3.55935E-06 2.13795E-05 7.59365E-19 2.81194E-18
 -1      2147 1.80531E-05-4.05632E-05 7.70295E-06 1.08915E-05 2.06888E-19 2.61691E-18
 -1      2148 1.71377E-05-2.71500E-05 3.57362E-06 1.03340E-05 3.01967E-19 2.59150E-18
 -1      2149 6.26582E-05-4.62241E-05-8.13086E-06 3.48019E-05 1.13164E-18 1.71339E-18
 -1      2150 4.67554E-05-4.58082E-05-1.82241E-06 2.94806E-05 1.01051E-18 8.27128E-19
 -1      2151 1.10289E-04-5.45987E-05-2.42662E-05 3.68846E-05 8.97855E-19 1.86114E-18
 -1      2152 8.49473E-05-5.34113E-05-1.51478E-05 3.27803E-05 1.00246E-18 1.74192E-18
 -1      2153 1.58171E-04-5.65662E-05-4.30387E-05 2.48468E-05 1.43826E-18-1.88041E-19
 -1      2154 1.33694E-04-5.74648E-05-3.35819E-05 2.42913E-05 1.04143E-18 7.12355E-19
 -1      2155 2.06257E-04-3.83620E-05-6.92208E-05-9.69576E-07 2.03966E-18-1.75209E-18
 -1      2156 1.88323E-04-3.84705E-05-6.34481E-05-3.14221E-06 1.50094E-18-1.49925E-19
 -1      2157 1.99516E-04-3.90636E-05-6.69066E-05-3.64458E-06-9.21572E-19-2.03034E-18
 -1      2158 2.03694E-04-3.55431E-05-6.99763E-05 1.10507E-06-4.82809E-20-2.65418E-18
 -1      2159 1.79717E-04-4.66608E-05-5.65042E-05-1.06171E-05 1.33739E-18-1.89566E-18
 -1      2160 1.98697E-04-4.59576E-05-6.33489E-05-7.92432E-06-4.31563E-19-1.92615E-18
 -1      2161 1.83701E-04-3.90975E-05-6.05453E-05 9.71024E-06-7.14896E-19-4.38763E-19
 -1      2162 1.47974E-04-5.47723E-05-4.05118E-05-2.30149E-05 1.31841E-18 1.93124E-19
 -1      2163 1.70275E-04-5.47925E-05-4.87829E-05-2.03092E-05 1.71821E-18-5.11608E-19
 -1      2164 1.06642E-04-5.32540E-05-2.44175E-05-3.23030E-05-1.03169E-18-2.15993E-18
 -1      2165 1.30799E-04-5.32903E-05-3.30590E-05-3.44709E-05 4.75185E-19-1.10241E-18
 -1      2166 6.96486E-05-5.05544E-05-9.75272E-06-3.29871E-05 4.20975E-19-7.37872E-19
 -1      2167 8.94589E-05-5.03917E-05-1.72709E-05-3.86611E-05-1.31798E-18-1.97338E-18
 -1      2168 3.49641E-05-4.47217E-05 2.36453E-06-2.40517E-05 1.54880E-18 1.34022E-18
 -1      2169 4.84081E-05-4.35854E-05-3.20731E-06-3.17329E-05 1.21465E-18 1.39009E-18
 -1      2170 1.58777E-05-3.71936E-05 7.84698E-06-9.49606E-06 3.47284E-19-1.46537E-19
 -1      2171 2.29984E-05-3.87553E-05 5.51503E-06-1.78474E-05 9.24113E-19-3.41778E-19
 -1      2172 3.05089E-05-3.48165E-05 1.18138E-06 3.43392E-05-3.46013E-19 1.39528E-18
 -1      2173 1.99507E-05-3.66738E-05 5.86455E-06 2.33152E-05 1.85077E-19 5.27702E-19
 -1      2174 1.60411E-04-4.18868E-05-5.10056E-05-2.29916E-05 2.81257E-18-3.51095E-19
 -1      2175 1.57447E-04-2.47229E-05-5.70344E-05-5.64547E-06 1.85670E-18-1.37802E-19
 -1      2176 9.71872E-05-2.43144E-05-3.13046E-05-1.00038E-05-8.31019E-19-5.35854E-19
 -1      2177 1.60295E-04-3.29045E-05-5.48370E-05 1.89557E-05-9.46136E-19-1.09098E-18
 -1      2178 8.69434E-05-4.97756E-05-1.62113E-05 4.70309E-05-8.94467E-19-1.20189E-18
 -1      2179 1.50930E-04-4.54332E-05-4.57014E-05 7.67407E-06-3.54219E-19-3.43112E-18
 -1      2180 1.47417E-04-4.51679E-05-4.35372E-05 2.33278E-05-4.02552E-19-3.01459E-18
 -1      2181 1.41968E-04-5.21913E-05-3.80547E-05 2.03345E-05-1.04662E-19-3.95310E-18
 -1      2182 9.63467E-05-2.31055E-05-3.14550E-05-1.03872E-05-7.98024E-19-7.42716E-19
 -1      2183 1.58049E-04-5.34252E-05-4.53959E-05 2.27208E-05-5.54171E-19 7.16802E-19
 -1      2184 1.46786E-04-5.89449E-05-3.78451E-05 4.24436E-06-7.62594E-19 5.89482E-19
 -1      2185 9.57861E-05-2.71016E-05-2.94308E-05-3.36348E-06-1.90756E-19-1.17816E-18
 -1      2186 9.55157E-05-2.82951E-05-2.88060E-05 8.97945E-07-1.34786E-18 9.57841E-19
 -1      2187 1.96369E-05-2.44697E-05 1.79262E-06 2.08801E-05-3.36907E-19 2.45640E-20
 -1      2188 9.53621E-05-2.63019E-05-2.95989E-05-3.85343E-06 4.29174E-19 2.37442E-20
 -1      2189 6.03256E-05-3.97544E-05-9.09049E-06 4.67392E-05-1.97062E-18 4.98691E-19
 -1      2190 4.51202E-05-3.76919E-05-3.57774E-06 4.06169E-05-1.08124E-18 1.66728E-18
 -1      2191 4.15000E-05-2.99423E-05-4.39271E-06 4.07292E-05-1.17356E-18 3.39660E-19
 -1      2192 1.67006E-05-2.41966E-05 2.69814E-06-6.12859E-06 8.44915E-20-8.47456E-19
 -1      2193 3.52208E-05-3.57777E-05-5.82561E-07-2.82965E-05 9.97381E-20 7.51742E-19
 -1      2194 7.18771E-05-4.99253E-05-9.81784E-06-3.89559E-05 2.87568E-19 5.33843E-19
 -1      2195 1.13460E-04-6.24077E-05-2.26081E-05-3.32177E-05-1.17780E-18-1.64451E-18
 -1      2196 1.75019E-04-5.55191E-05-5.06642E-05 2.38425E-06 8.32819E-19-8.00023E-19
 -1      2197 1.35530E-04-6.59645E-05-2.96683E-05 2.41483E-05 1.15789E-18 9.80229E-19
 -1      2198 4.20488E-05-3.99295E-05-1.64893E-06 2.88112E-05 7.23366E-19 1.13375E-18
 -1      2199 3.73512E-05-3.01073E-05-2.77790E-06 2.91331E-05 6.06687E-19 1.64917E-18
 -1      2200 5.76207E-05-4.08566E-05-7.70452E-06 3.70933E-05 1.32963E-18 1.44673E-18
 -1      2201 1.62967E-05-2.47108E-05 3.10275E-06-1.69422E-05 1.01697E-18 9.73664E-19
 -1      2202 7.02741E-05-4.42630E-05-1.12165E-05-4.75381E-05 9.44442E-20-3.33625E-18
 -1      2203 1.43216E-04-4.91201E-05-3.99974E-05-2.47463E-05-2.94026E-19-3.67782E-18
 -1      2204 1.64926E-04-2.21062E-05-6.01683E-05-2.90020E-06 1.40163E-18-2.03648E-18
 -1      2205 1.63433E-04-1.69270E-05-6.17155E-05 4.76530E-07 1.08674E-18-3.99440E-18
 -1      2206 1.69455E-04-1.57531E-05-6.51437E-05-6.72684E-07 1.61063E-18-1.19707E-18
 -1      2207 1.50266E-04-8.22723E-06-6.11517E-05 1.74125E-07 2.86721E-19-5.54542E-20
 -1      2208 1.52854E-04-1.04509E-05-6.10447E-05 8.71130E-07 1.41158E-18 6.67038E-19
 -1      2209 1.12210E-04-5.31385E-05-2.52145E-05-4.14194E-05-4.09964E-19-4.19514E-18
 -1      2210 8.86567E-05-5.53485E-05-1.45608E-05 3.76223E-05 1.91048E-18 1.93210E-18
 -1      2211 1.86197E-04-5.04971E-05-5.73028E-05 5.51182E-06 1.09881E-18 8.47033E-20
 -1      2212 1.68818E-04-5.21362E-05-4.98031E-05 1.45180E-05 1.59306E-18 5.99699E-19
 -1      2213 1.88772E-04-2.79729E-05-6.68392E-05 5.66430E-06-1.47807E-19-2.22918E-18
 -1      2214 2.11104E-04-3.43330E-05-7.31485E-05-1.58100E-06 7.12778E-19-3.67824E-18
 -1      2215 2.14645E-04-3.57402E-05-7.36329E-05 2.38808E-06 8.54233E-19-3.52069E-18
 -1      2216 1.50307E-04-6.48701E-05-3.62254E-05-1.85952E-05-1.87194E-19 4.47657E-19
 -1      2217 9.53380E-05-2.58958E-05-2.97433E-05-5.13647E-06-4.19716E-19-1.49741E-19
 -1      2218 1.78917E-04-4.46323E-05-5.67878E-05-1.06512E-05 2.01975E-18 3.22296E-19
 -1      2219 1.66596E-04-6.18062E-05-4.46320E-05 1.98052E-06 1.53091E-18-7.53859E-20
 -1      2220 1.85693E-04-2.73167E-05-6.61178E-05-6.89487E-06 2.33866E-18-2.33400E-18
 -1      2221 8.81377E-05-1.11837E-05-3.30195E-05-3.66209E-06 4.23694E-19-1.36181E-18
 -1      2222 8.83713E-05-1.14539E-05-3.30015E-05-4.80352E-06 2.40921E-19-1.54206E-18
 -1      2223 8.87226E-05-1.19370E-05-3.29529E-05-5.82089E-06 1.93082E-19-1.62557E-18
 -1      2224 8.91296E-05-1.24088E-05-3.29245E-05-6.99356E-06 2.95618E-20-1.63567E-18
 -1      2225 8.98912E-05-1.38225E-05-3.25996E-05-4.90462E-06 2.27279E-19-1.44969E-18
 -1      2226 8.77929E-05-1.07255E-05-3.30629E-05 6.15853E-07 8.43512E-19-1.08424E-18
 -1      2227 8.77885E-05-1.07206E-05-3.30631E-05-4.95536E-07 7.61552E-19-1.13248E-18
 -1      2228 8.79735E-05-1.09503E-05-3.30443E-05 2.75865E-06 1.00669E-18-9.52886E-19
 -1      2229 8.78589E-05-1.08173E-05-3.30537E-05 1.63894E-06 8.91833E-19-1.03678E-18
 -1      2230 8.91106E-05-1.27717E-05-3.27198E-05 1.05020E-06 8.18168E-19-1.01450E-18
 -1      2231 8.84072E-05-1.14973E-05-3.29990E-05 4.88861E-06 1.13212E-18-8.44723E-19
 -1      2232 8.81680E-05-1.12205E-05-3.30172E-05 3.76507E-06 1.05182E-18-9.39823E-19
 -1      2233 8.93759E-05-1.31273E-05-3.26797E-05 3.02199E-06 1.00299E-18-9.12185E-19
 -1      2234 8.91861E-05-1.24801E-05-3.29198E-05 7.07644E-06 1.35054E-18-3.83388E-19
 -1      2235 8.87682E-05-1.19932E-05-3.29492E-05 5.90426E-06 1.20370E-18-6.03842E-19
 -1      2236 8.99323E-05-1.38747E-05-3.25951E-05 4.97649E-06 1.14458E-18-6.35774E-19
 -1      2237 9.04556E-05-1.40898E-05-3.27924E-05 9.22486E-06 1.43070E-18-2.30883E-20
 -1      2238 8.97754E-05-1.32796E-05-3.28379E-05 8.04691E-06 1.33986E-18-2.83915E-19
 -1      2239 9.08679E-05-1.51346E-05-3.24500E-05 6.87139E-06 1.29906E-18-2.90919E-19
 -1      2240 9.24515E-05-1.66878E-05-3.25717E-05 1.10605E-05 1.33540E-18 4.67628E-19
 -1      2241 9.13575E-05-1.53121E-05-3.26549E-05 1.00424E-05 1.40636E-18 1.32607E-19
 -1      2242 9.22923E-05-1.70910E-05-3.22085E-05 8.53067E-06 1.31360E-18 3.82224E-20
 -1      2243 9.54955E-05-2.08214E-05-3.20972E-05 1.17064E-05 1.11460E-18 1.35116E-18
 -1      2244 9.38064E-05-1.84800E-05-3.23210E-05 1.14731E-05 1.22164E-18 8.23184E-19
 -1      2245 9.43348E-05-2.00424E-05-3.17899E-05 9.48737E-06 1.08299E-18 5.95841E-19
 -1      2246 9.75076E-05-2.45955E-05-3.13112E-05 9.84865E-06 9.00925E-19 2.25905E-18
 -1      2247 9.62712E-05-2.22282E-05-3.17296E-05 1.10944E-05 1.03518E-18 1.78480E-18
 -1      2248 9.58075E-05-2.31970E-05-3.11172E-05 8.79579E-06 9.47856E-19 1.33135E-18
 -1      2249 9.63156E-05-2.56698E-05-3.02834E-05 6.88247E-06 8.13535E-19 2.07863E-18
 -1      2250 9.59113E-05-2.50946E-05-3.03039E-05-6.19241E-06-5.89995E-19-8.11621E-19
 -1      2251 9.52520E-05-2.58525E-05-2.97597E-05-4.28200E-06-5.97999E-19-7.82937E-19
 -1      2252 9.51365E-05-2.65365E-05-2.93426E-05-2.94351E-06-6.11338E-19-5.79445E-19
 -1      2253 9.46645E-05-2.69063E-05-2.90391E-05-1.88103E-06-5.13767E-19-6.20653E-19
 -1      2254 9.53346E-05-2.53632E-05-2.99944E-05-4.29743E-06-5.53764E-19-8.50888E-19
 -1      2255 9.44694E-05-2.72364E-05-2.87756E-05-1.02947E-06-5.69205E-19-4.30673E-19
 -1      2256 9.42109E-05-2.74498E-05-2.86094E-05-4.27743E-07-5.37255E-19-5.87877E-19
 -1      2257 9.50292E-05-2.66973E-05-2.92980E-05-1.92271E-06-4.74428E-19-6.69934E-19
 -1      2258 9.40622E-05-2.76300E-05-2.84483E-05 8.02942E-08-4.54243E-19-6.57875E-19
 -1      2259 9.39637E-05-2.77732E-05-2.83648E-05 4.10409E-07-3.15619E-19-7.17053E-19
 -1      2260 9.47251E-05-2.74260E-05-2.88553E-05-4.43688E-07-5.61612E-19-6.33127E-19
 -1      2261 9.38794E-05-2.78825E-05-2.82717E-05 6.93771E-07-3.41354E-19-8.92006E-19
 -1      2262 9.38852E-05-2.79891E-05-2.82390E-05 8.58654E-07-4.71220E-19-9.89080E-19
 -1      2263 9.45242E-05-2.78535E-05-2.85836E-05 4.27911E-07-5.47800E-19-8.66874E-19
 -1      2264 9.38543E-05-2.80605E-05-2.81907E-05 9.97075E-07-6.79330E-19-8.53486E-19
 -1      2265 9.39224E-05-2.81447E-05-2.81888E-05 1.06124E-06-6.28303E-19-9.44902E-19
 -1      2266 9.44324E-05-2.81220E-05-2.84263E-05 9.01063E-07-5.89389E-19-7.33747E-19
 -1      2267 9.39307E-05-2.81959E-05-2.81691E-05 1.10933E-06-4.25989E-19-6.88366E-19
 -1      2268 9.40362E-05-2.82650E-05-2.81863E-05 1.11144E-06-3.29262E-19-4.64375E-19
 -1      2269 9.44243E-05-2.82989E-05-2.83444E-05 1.11983E-06-4.66080E-19-2.92094E-19
 -1      2270 9.40665E-05-2.82974E-05-2.81863E-05 1.10142E-06-4.69407E-19-4.31291E-19
 -1      2271 9.41807E-05-2.83493E-05-2.82123E-05 1.06925E-06-2.46990E-19-3.47196E-19
 -1      2272 9.44748E-05-2.84178E-05-2.83134E-05 1.17529E-06-2.71950E-19 1.38686E-19
 -1      2273 9.42245E-05-2.83720E-05-2.82234E-05 1.03077E-06-1.34195E-19-3.49099E-19
 -1      2274 9.43400E-05-2.84120E-05-2.82538E-05 9.83021E-07 6.75434E-20-4.95186E-19
 -1      2275 9.45558E-05-2.84913E-05-2.83154E-05 1.13554E-06-3.57413E-19-3.70833E-20
 -1      2276 9.43898E-05-2.84268E-05-2.82714E-05 9.32388E-07 1.13123E-19-5.91841E-19
 -1      2277 9.45006E-05-2.84573E-05-2.83033E-05 8.81163E-07 8.72861E-20-4.01569E-19
 -1      2278 9.46531E-05-2.85366E-05-2.83369E-05 1.04933E-06-2.57998E-21-4.65622E-19
 -1      2279 9.45525E-05-2.84658E-05-2.83247E-05 8.30125E-07 7.71217E-20-6.87595E-19
 -1      2280 9.46564E-05-2.84884E-05-2.83566E-05 7.83837E-07 3.48349E-19-5.52229E-19
 -1      2281 9.47565E-05-2.85608E-05-2.83703E-05 9.47685E-07-8.70708E-20-3.46040E-19
 -1      2282 9.47085E-05-2.84920E-05-2.83804E-05 7.40844E-07 2.42291E-19-7.32220E-19
 -1      2283 9.48061E-05-2.85082E-05-2.84121E-05 7.05684E-07 1.93629E-20-6.76396E-19
 -1      2284 9.48607E-05-2.85690E-05-2.84112E-05 8.52623E-07 1.81063E-19-9.42248E-19
 -1      2285 9.48581E-05-2.85077E-05-2.84377E-05 6.77187E-07 1.20438E-19-5.28181E-19
 -1      2286 9.49520E-05-2.85188E-05-2.84696E-05 6.58174E-07 3.18016E-19-5.71497E-19
 -1      2287 9.49640E-05-2.85643E-05-2.84574E-05 7.80364E-07 2.32040E-19-9.59155E-19
 -1      2288 9.50049E-05-2.85147E-05-2.84974E-05 6.49674E-07 9.68685E-20-6.85814E-19
 -1      2289 9.50993E-05-2.85218E-05-2.85309E-05 6.51532E-07-3.92648E-20-7.31140E-19
 -1      2290 9.50672E-05-2.85486E-05-2.85085E-05 7.43878E-07-1.42376E-20-9.63479E-19
 -1      2291 9.51546E-05-2.85138E-05-2.85618E-05 6.68477E-07 9.79184E-20-6.50682E-19
 -1      2292 9.52554E-05-2.85177E-05-2.85986E-05 6.96437E-07 6.24399E-20-6.93087E-19
 -1      2293 9.51729E-05-2.85222E-05-2.85653E-05 7.54952E-07-1.83656E-20-1.24736E-18
 -1      2294 9.53151E-05-2.85050E-05-2.86342E-05 7.45072E-07 1.29629E-19-4.69243E-19
 -1      2295 9.54295E-05-2.85062E-05-2.86769E-05 8.05692E-07 4.13562E-19-6.21576E-19
 -1      2296 9.52847E-05-2.84835E-05-2.86300E-05 8.26017E-07 2.44724E-19-7.11659E-19
 -1      2297 9.54956E-05-2.84871E-05-2.87192E-05 8.93976E-07 2.31915E-19-7.06827E-19
 -1      2298 9.56329E-05-2.84854E-05-2.87712E-05 9.95871E-07-1.99359E-19-9.42409E-19
 -1      2299 9.54066E-05-2.84290E-05-2.87059E-05 9.71896E-07-8.27347E-20-8.06494E-19
 -1      2300 9.57111E-05-2.84554E-05-2.88254E-05 1.14189E-06-4.00349E-19-7.12924E-19
 -1      2301 9.58900E-05-2.84491E-05-2.88946E-05 1.30814E-06-5.55456E-20-6.35258E-19
 -1      2302 9.55459E-05-2.83506E-05-2.87996E-05 1.21961E-06-4.23126E-20-9.98821E-19
 -1      2303 9.59720E-05-2.84052E-05-2.89590E-05 1.51471E-06-5.53790E-19-7.36612E-19
 -1      2304 9.61899E-05-2.83937E-05-2.90441E-05 1.74546E-06-5.28120E-19-8.69605E-19
 -1      2305 9.57007E-05-2.82366E-05-2.89146E-05 1.59263E-06-4.93164E-19-2.16427E-20
 -1      2306 9.62770E-05-2.83267E-05-2.91242E-05 2.03688E-06-4.64189E-20-1.27979E-18
 -1      2307 9.65557E-05-2.83057E-05-2.92345E-05 2.36315E-06-1.58536E-19-9.77497E-19
 -1      2308 9.58641E-05-2.80755E-05-2.90533E-05 2.11407E-06-7.29750E-19-4.39380E-19
 -1      2309 9.66396E-05-2.82039E-05-2.93338E-05 2.76571E-06-1.04183E-19-1.41924E-18
 -1      2310 9.69956E-05-2.81684E-05-2.94767E-05 3.21941E-06 6.34389E-19-1.03952E-18
 -1      2311 9.60289E-05-2.78407E-05-2.92235E-05 2.83673E-06-3.06166E-19-1.03692E-18
 -1      2312 9.70604E-05-2.80154E-05-2.95973E-05 3.76701E-06 8.43998E-19-1.58993E-18
 -1      2313 9.75114E-05-2.79596E-05-2.97807E-05 4.38896E-06 4.50355E-19-1.18078E-18
 -1      2314 9.61723E-05-2.74995E-05-2.94291E-05 3.81963E-06 4.09395E-19-1.42912E-18
 -1      2315 9.75305E-05-2.77360E-05-2.99223E-05 5.12344E-06 4.16674E-19-1.56902E-18
 -1      2316 9.80954E-05-2.76570E-05-3.01530E-05 5.96154E-06 7.69328E-20-1.22039E-18
 -1      2317 9.62535E-05-2.70118E-05-2.96691E-05 5.13565E-06 4.08588E-19-2.45132E-18
 -1      2318 9.80304E-05-2.73462E-05-3.03090E-05 6.93062E-06-8.51367E-20-1.14551E-18
 -1      2319 9.87303E-05-2.72550E-05-3.05893E-05 8.03134E-06-1.62081E-19-1.42132E-18
 -1      2320 9.62096E-05-2.63393E-05-2.99326E-05 6.86861E-06 2.36729E-19-2.44999E-18
 -1      2321 9.85389E-05-2.68618E-05-3.07412E-05 9.28206E-06-6.26407E-20-1.16557E-18
 -1      2322 9.94068E-05-2.68106E-05-3.10625E-05 1.06678E-05 6.24720E-20-9.29751E-19
 -1      2323 9.59612E-05-2.54750E-05-3.01885E-05 9.10396E-06-1.72145E-20-2.02867E-18
 -1      2324 9.90739E-05-2.64068E-05-3.11713E-05 1.22323E-05-1.32516E-19-9.95538E-19
 -1      2325 1.00187E-04-2.65494E-05-3.15037E-05 1.38526E-05-1.99010E-19-1.01407E-18
 -1      2326 9.54460E-05-2.45140E-05-3.03711E-05 1.19100E-05-2.24297E-19-1.11440E-18
 -1      2327 9.98104E-05-2.63689E-05-3.15001E-05 1.57215E-05-1.48735E-19-5.53257E-19
 -1      2328 1.01377E-04-2.70765E-05-3.17815E-05 1.73634E-05-4.18160E-19-5.71872E-19
 -1      2329 9.47222E-05-2.38065E-05-3.03601E-05 1.53084E-05-5.90723E-20-4.33616E-19
 -1      2330 1.01347E-04-2.76606E-05-3.15645E-05 1.94477E-05-8.98581E-19-2.76119E-19
 -1      2331 1.03858E-04-2.97286E-05-3.17147E-05 2.06226E-05-5.55799E-19 2.14144E-19
 -1      2332 9.42052E-05-2.42316E-05-2.99670E-05 1.92276E-05-4.23439E-19-3.44514E-19
 -1      2333 1.05433E-04-3.22973E-05-3.11912E-05 2.24826E-05-9.29155E-19-1.50841E-19
 -1      2334 1.09977E-04-3.70193E-05-3.11780E-05 2.21688E-05-1.18540E-18-2.76313E-19
 -1      2335 9.53724E-05-2.79428E-05-2.89515E-05 2.35802E-05-6.96850E-19-2.78105E-19
 -1      2336 1.15109E-04-4.30342E-05-3.05676E-05 2.25698E-05-7.81123E-19-7.99652E-20
 -1      2337 1.22815E-04-5.02078E-05-3.09806E-05 1.89659E-05-4.97314E-19 8.08586E-20
 -1      2338 1.01124E-04-3.72710E-05-2.75079E-05 2.69897E-05-8.62174E-19-1.10141E-19
 -1      2339 1.01789E-04-5.31780E-05-2.08150E-05 4.52795E-05-4.96150E-19-2.10350E-18
 -1      2340 8.32732E-05-4.82808E-05-1.48044E-05 4.70147E-05-1.68750E-18-6.11452E-19
 -1      2341 9.57030E-05-2.84353E-05-2.88315E-05 1.01132E-06-1.72910E-18 1.00909E-18
 -1      2342 1.11673E-04-3.91417E-05-3.09910E-05-2.26589E-05-1.77829E-18 3.20304E-19
 -1      2343 1.06647E-04-3.40155E-05-3.09551E-05-2.35459E-05-7.13162E-20 2.00323E-19
 -1      2344 1.04547E-04-3.09702E-05-3.14695E-05-2.19960E-05 7.78238E-19-3.34983E-19
 -1      2345 1.01557E-04-2.84394E-05-3.13133E-05-2.11738E-05 6.63025E-19 3.39029E-19
 -1      2346 9.61137E-05-2.95501E-05-2.85906E-05-2.52875E-05-4.42839E-20 2.19923E-18
 -1      2347 1.01255E-04-2.74741E-05-3.15595E-05-1.91804E-05 7.88430E-19 1.93781E-19
 -1      2348 9.93625E-05-2.64695E-05-3.12599E-05-1.76660E-05 8.20109E-19-2.06931E-19
 -1      2349 9.41037E-05-2.48918E-05-2.96523E-05-2.13152E-05 7.19204E-19 1.82258E-18
 -1      2350 9.95981E-05-2.64637E-05-3.12873E-05-1.57871E-05-2.87727E-19-3.66944E-19
 -1      2351 9.82392E-05-2.61306E-05-3.09299E-05-1.41633E-05-2.31943E-19-9.89105E-19
 -1      2352 9.41960E-05-2.38383E-05-3.01245E-05-1.74286E-05 9.94805E-20 9.60095E-19
 -1      2353 9.84952E-05-2.64124E-05-3.08415E-05-1.25234E-05-3.06924E-19-1.57778E-18
 -1      2354 9.74199E-05-2.62962E-05-3.04998E-05-1.10350E-05-1.26915E-18-1.17481E-18
 -1      2355 9.47172E-05-2.41820E-05-3.02026E-05-1.39334E-05-1.10862E-18-9.67602E-19
 -1      2356 9.75245E-05-2.65353E-05-3.03768E-05-9.62372E-06-2.07091E-18-7.12874E-19
 -1      2357 9.66395E-05-2.64283E-05-3.00923E-05-8.30494E-06-2.06448E-18-5.07908E-19
 -1      2358 9.50643E-05-2.48183E-05-3.00899E-05-1.09019E-05-1.15142E-18-1.64414E-18
 -1      2359 9.63439E-05-2.62748E-05-2.99862E-05-7.30061E-06-2.09595E-18-2.47784E-19
 -1      2360 9.56251E-05-2.61064E-05-2.97820E-05-6.07898E-06-1.45612E-18-5.94773E-19
 -1      2361 9.43275E-05-2.47590E-05-2.98440E-05-6.27918E-06-9.66160E-19 1.67489E-18
 -1      2362 9.47888E-05-2.50064E-05-2.99227E-05-8.39209E-06-2.25706E-18-5.36034E-19
 -1      2363 9.37050E-05-2.78494E-05-2.82203E-05-6.57249E-07 3.91081E-19 7.04844E-19
 -1      2364 9.37378E-05-2.77348E-05-2.82692E-05-4.26293E-07 4.29719E-19 9.04791E-19
 -1      2365 9.38647E-05-2.76117E-05-2.83896E-05-4.31379E-08 4.68863E-19 8.94453E-19
 -1      2366 9.40400E-05-2.74571E-05-2.85042E-05 3.97021E-07 5.36915E-19 9.74707E-19
 -1      2367 9.44503E-05-2.76577E-05-2.86376E-05-4.42347E-08 5.78296E-19 3.99730E-19
 -1      2368 9.42397E-05-2.72355E-05-2.87100E-05 1.06143E-06 5.79771E-19 1.04461E-18
 -1      2369 9.45995E-05-2.69921E-05-2.89358E-05 1.86402E-06 5.92799E-19 1.12279E-18
 -1      2370 9.47389E-05-2.71465E-05-2.89832E-05 1.10379E-06 6.60519E-19 5.20855E-19
 -1      2371 9.37023E-05-2.80200E-05-2.81469E-05-9.64007E-07 4.17643E-19 4.47518E-19
 -1      2372 9.36486E-05-2.79287E-05-2.81561E-05-8.59516E-07 4.55428E-19 5.67527E-19
 -1      2373 9.42967E-05-2.79692E-05-2.84353E-05-6.96613E-07 5.21174E-19 1.93344E-19
 -1      2374 9.37986E-05-2.81503E-05-2.81330E-05-1.07950E-06 4.11073E-19 3.62834E-19
 -1      2375 9.36972E-05-2.80756E-05-2.81191E-05-1.05152E-06 4.39967E-19 4.48020E-19
 -1      2376 9.42558E-05-2.81725E-05-2.83278E-05-1.02742E-06 5.07470E-19 3.25197E-19
 -1      2377 9.39500E-05-2.82519E-05-2.81549E-05-1.07973E-06 3.38550E-19 2.35941E-19
 -1      2378 9.38265E-05-2.81907E-05-2.81282E-05-1.09631E-06 2.23368E-19 2.65464E-19
 -1      2379 9.42924E-05-2.83104E-05-2.82822E-05-1.15504E-06 4.46211E-19 6.37445E-20
 -1      2380 9.41261E-05-2.83309E-05-2.81968E-05-1.01553E-06 3.59116E-19 2.82127E-19
 -1      2381 9.39968E-05-2.82815E-05-2.81641E-05-1.05559E-06 4.48542E-19 3.21287E-19
 -1      2382 9.43761E-05-2.84048E-05-2.82760E-05-1.15936E-06 2.82256E-19-9.87098E-20
 -1      2383 9.43082E-05-2.83917E-05-2.82490E-05-9.21394E-07 3.44366E-19 5.78806E-19
 -1      2384 9.41823E-05-2.83523E-05-2.82143E-05-9.70763E-07 5.45636E-19 4.88128E-19
 -1      2385 9.44845E-05-2.84684E-05-2.82941E-05-1.09480E-06 2.97710E-19 3.45556E-19
 -1      2386 9.44856E-05-2.84375E-05-2.83054E-05-8.20805E-07 2.05293E-19 4.96098E-19
 -1      2387 9.43676E-05-2.84066E-05-2.82709E-05-8.69898E-07 2.84045E-19 5.44787E-19
 -1      2388 9.46030E-05-2.85093E-05-2.83267E-05-9.98631E-07 4.37473E-19 3.30294E-19
 -1      2389 9.46540E-05-2.84715E-05-2.83630E-05-7.29812E-07 1.79713E-19 8.88513E-19
 -1      2390 9.45449E-05-2.84474E-05-2.83295E-05-7.72121E-07 1.31862E-19 6.49959E-19
 -1      2391 9.47229E-05-2.85332E-05-2.83675E-05-8.96503E-07 1.57240E-19 5.76419E-19
 -1      2392 9.48136E-05-2.84967E-05-2.84204E-05-6.59350E-07 7.29742E-20 4.75199E-19
 -1      2393 9.47121E-05-2.84777E-05-2.83881E-05-6.90473E-07 2.05933E-19 6.07578E-19
 -1      2394 9.48403E-05-2.85446E-05-2.84127E-05-8.06023E-07 2.03247E-19 7.90801E-19
 -1      2395 9.49674E-05-2.85161E-05-2.84777E-05-6.16786E-07 1.33590E-19 1.48664E-19
 -1      2396 9.48708E-05-2.85004E-05-2.84462E-05-6.33800E-07 3.23908E-20 1.83141E-19
 -1      2397 9.49548E-05-2.85473E-05-2.84606E-05-7.39248E-07 2.65884E-19-1.21565E-19
 -1      2398 9.51211E-05-2.85332E-05-2.85360E-05-6.06822E-07 1.71700E-20-1.44895E-20
 -1      2399 9.50253E-05-2.85187E-05-2.85043E-05-6.07953E-07 1.52031E-19 3.65683E-19
 -1      2400 9.50684E-05-2.85447E-05-2.85105E-05-7.04298E-07 6.63503E-20 4.86297E-21
 -1      2401 9.52816E-05-2.85517E-05-2.85965E-05-6.31819E-07 2.40346E-19-7.10473E-20
 -1      2402 9.51820E-05-2.85361E-05-2.85637E-05-6.16376E-07 2.20491E-19-1.04885E-19
 -1      2403 9.51853E-05-2.85404E-05-2.85626E-05-7.06266E-07 1.96060E-19 2.67549E-19
 -1      2404 9.54572E-05-2.85765E-05-2.86609E-05-6.91526E-07-3.06697E-20 7.25553E-20
 -1      2405 9.53488E-05-2.85570E-05-2.86258E-05-6.60127E-07 3.48962E-19 1.74879E-19
 -1      2406 9.53114E-05-2.85387E-05-2.86176E-05-7.47476E-07 1.40388E-19 2.38647E-19
 -1      2407 9.56563E-05-2.86134E-05-2.87303E-05-7.82193E-07-7.52828E-19 6.92076E-19
 -1      2408 9.55344E-05-2.85868E-05-2.86922E-05-7.37284E-07-6.51967E-19 3.22636E-19
 -1      2409 9.54539E-05-2.85455E-05-2.86760E-05-8.27073E-07-3.73086E-19 5.24590E-19
 -1      2410 9.58875E-05-2.86701E-05-2.88053E-05-8.95019E-07-5.44157E-19 7.23893E-19
 -1      2411 9.57481E-05-2.86325E-05-2.87638E-05-8.41709E-07-4.30390E-19 8.71044E-19
 -1      2412 9.56214E-05-2.85684E-05-2.87383E-05-9.39920E-07-6.73322E-19 5.54739E-19
 -1      2413 9.61582E-05-2.87562E-05-2.88851E-05-1.01396E-06-6.32973E-20 9.06491E-19
 -1      2414 9.59988E-05-2.87028E-05-2.88407E-05-9.61147E-07-3.07583E-19 8.60934E-19
 -1      2415 9.58237E-05-2.86179E-05-2.88040E-05-1.07475E-06-6.25666E-19 1.49854E-20
 -1      2416 9.64733E-05-2.88828E-05-2.89672E-05-1.11307E-06-1.35813E-19 1.29036E-18
 -1      2417 9.62942E-05-2.88086E-05-2.89214E-05-1.07472E-06 5.79119E-20 1.35688E-18
 -1      2418 9.60714E-05-2.87082E-05-2.88718E-05-1.21165E-06-1.83159E-19 4.75494E-19
 -1      2419 9.68335E-05-2.90619E-05-2.90471E-05-1.15388E-06-2.11854E-19 1.51480E-18
 -1      2420 9.66393E-05-2.89624E-05-2.90027E-05-1.15017E-06-2.19106E-19 1.65059E-18
 -1      2421 9.63757E-05-2.88562E-05-2.89390E-05-1.31908E-06-2.49777E-19 1.25052E-18
 -1      2422 9.72320E-05-2.93039E-05-2.91175E-05-1.08377E-06-7.08843E-20 1.95246E-18
 -1      2423 9.70334E-05-2.91763E-05-2.90792E-05-1.14149E-06-4.71782E-20 1.69485E-18
 -1      2424 9.67461E-05-2.90811E-05-2.90015E-05-1.35103E-06-2.36686E-19 1.13318E-18
 -1      2425 9.76501E-05-2.96120E-05-2.91692E-05-8.37169E-07-5.53917E-19 2.37287E-18
 -1      2426 9.74664E-05-2.94588E-05-2.91430E-05-9.88386E-07-2.20468E-19 2.10641E-18
 -1      2427 9.71880E-05-2.93999E-05-2.90542E-05-1.24557E-06-3.77519E-19 1.95091E-18
 -1      2428 9.80521E-05-2.99745E-05-2.91914E-05-3.42331E-07 4.98461E-19 9.50801E-19
 -1      2429 9.79131E-05-2.98071E-05-2.91846E-05-6.19885E-07 3.04992E-19 1.46416E-18
 -1      2430 9.76965E-05-2.98200E-05-2.90916E-05-9.26736E-07 4.40106E-19 1.25055E-18
 -1      2431 9.83778E-05-3.03528E-05-2.91741E-05 4.62905E-07 8.61757E-21 1.11754E-18
 -1      2432 9.83253E-05-3.01975E-05-2.91940E-05 3.46758E-08 2.54628E-19 7.97403E-19
 -1      2433 9.82474E-05-3.03265E-05-2.91094E-05-3.13260E-07 3.60817E-19 1.20620E-18
 -1      2434 9.85379E-05-3.06684E-05-2.91110E-05 1.60312E-06-6.50311E-19 1.37067E-18
 -1      2435 9.86244E-05-3.05712E-05-2.91632E-05 1.02344E-06-2.22213E-19 1.40020E-18
 -1      2436 9.87849E-05-3.08644E-05-2.91068E-05 6.61940E-07-2.41201E-19 1.30541E-18
 -1      2437 9.84155E-05-3.07974E-05-2.90030E-05 3.02517E-06-5.14788E-19 1.21511E-18
 -1      2438 9.86967E-05-3.08238E-05-2.90889E-05 2.33635E-06-6.52073E-19 1.41965E-18
 -1      2439 9.92086E-05-3.13213E-05-2.90887E-05 2.01741E-06-5.33319E-19 7.40295E-19
 -1      2440 9.78845E-05-3.05838E-05-2.88606E-05 4.55424E-06-2.90552E-19 1.01894E-18
 -1      2441 9.84038E-05-3.08070E-05-2.89756E-05 3.85965E-06-1.00422E-19 1.54658E-18
 -1      2442 9.93696E-05-3.15216E-05-2.90666E-05 3.67417E-06-4.65739E-19 7.28895E-19
 -1      2443 9.68553E-05-2.98895E-05-2.87035E-05 5.86897E-06-5.10773E-19 1.12931E-18
 -1      2444 9.76170E-05-3.03600E-05-2.88363E-05 5.33640E-06-6.84279E-19 9.73335E-19
 -1      2445 9.90915E-05-3.12530E-05-2.90576E-05 5.40320E-06-4.57401E-19 1.06784E-18
 -1      2446 9.53495E-05-2.86840E-05-2.85561E-05 6.53511E-06-8.62975E-19 2.01246E-18
 -1      2447 9.62889E-05-2.93848E-05-2.86903E-05 6.36773E-06-4.17750E-19 1.25104E-18
 -1      2448 9.82363E-05-3.03467E-05-2.90779E-05 6.80058E-06-1.06265E-18 1.00835E-18
 -1      2449 9.35747E-05-2.71402E-05-2.84398E-05 6.13270E-06 1.07210E-19 2.54183E-18
 -1      2450 9.45418E-05-2.79485E-05-2.85570E-05 6.49798E-06-2.03793E-19 2.74173E-18
 -1      2451 9.68125E-05-2.88053E-05-2.91336E-05 7.34358E-06-8.00141E-19 1.17220E-18
 -1      2452 9.19372E-05-2.56595E-05-2.83649E-05 4.46449E-06 6.56151E-19 1.91272E-18
 -1      2453 9.27186E-05-2.63549E-05-2.84500E-05 5.39843E-06-5.00477E-20 2.13176E-18
 -1      2454 9.50771E-05-2.69168E-05-2.92128E-05 6.56766E-06 2.54937E-19 1.84768E-18
 -1      2455 9.09290E-05-2.47488E-05-2.83295E-05 1.74841E-06 7.35774E-19 3.21848E-18
 -1      2456 9.13190E-05-2.50954E-05-2.83728E-05 3.08924E-06 7.40669E-19 2.97995E-18
 -1      2457 9.35331E-05-2.52443E-05-2.92849E-05 4.33317E-06-3.15983E-22 2.18157E-18
 -1      2458 9.08985E-05-2.47657E-05-2.83266E-05-1.37076E-06 2.99783E-19 3.19470E-18
 -1      2459 9.07895E-05-2.46343E-05-2.83245E-05 4.77611E-08 7.88905E-19 3.01447E-18
 -1      2460 9.27383E-05-2.44051E-05-2.93137E-05 1.03277E-06 7.28857E-19 2.98195E-18
 -1      2461 9.18513E-05-2.57053E-05-2.83516E-05-4.06443E-06 2.25691E-19 2.66686E-18
 -1      2462 9.12887E-05-2.51493E-05-2.83060E-05-2.93284E-06 5.66953E-19 2.90282E-18
 -1      2463 9.30042E-05-2.47433E-05-2.92790E-05-2.47491E-06 7.98621E-19 2.86886E-18
 -1      2464 9.34399E-05-2.72004E-05-2.84045E-05-5.68357E-06 4.70209E-19 1.10240E-18
 -1      2465 9.25993E-05-2.64249E-05-2.83229E-05-5.08461E-06 3.27416E-19 1.89702E-18
 -1      2466 9.42017E-05-2.61171E-05-2.91883E-05-5.23041E-06 1.01303E-18 2.83148E-18
 -1      2467 9.51508E-05-2.87323E-05-2.84846E-05-6.01019E-06-1.88505E-19 9.52096E-19
 -1      2468 9.42562E-05-2.79815E-05-2.83800E-05-5.98883E-06 3.65722E-19 1.28815E-18
 -1      2469 9.58412E-05-2.79864E-05-2.90733E-05-6.60748E-06 6.91455E-19 2.49431E-18
 -1      2470 9.65509E-05-2.98931E-05-2.85833E-05-5.25299E-06 9.33059E-19 6.60951E-19
 -1      2471 9.57875E-05-2.93404E-05-2.84730E-05-5.68307E-06 3.49142E-19 9.59951E-19
 -1      2472 9.73555E-05-2.97195E-05-2.89700E-05-6.53048E-06 2.37780E-19 2.62888E-18
 -1      2473 9.74199E-05-3.05095E-05-2.86847E-05-3.85261E-06 1.49164E-18-3.75262E-19
 -1      2474 9.68898E-05-3.02183E-05-2.85857E-05-4.52843E-06 1.27329E-18-1.57963E-19
 -1      2475 9.83644E-05-3.08870E-05-2.89009E-05-5.36625E-06 1.79536E-18 1.56131E-18
 -1      2476 9.77418E-05-3.06148E-05-2.87708E-05-2.26905E-06 2.68208E-18-1.00827E-18
 -1      2477 9.74656E-05-3.05603E-05-2.86958E-05-2.99107E-06 2.07622E-18-4.75884E-19
 -1      2478 9.87557E-05-3.13624E-05-2.88690E-05-3.65751E-06 2.16555E-18-2.50612E-19
 -1      2479 9.76254E-05-3.03508E-05-2.88289E-05-8.50713E-07 9.17600E-19-1.46325E-18
 -1      2480 9.75682E-05-3.04653E-05-2.87834E-05-1.47375E-06 2.14400E-18-1.55796E-18
 -1      2481 9.86164E-05-3.12489E-05-2.88636E-05-1.89734E-06 2.47599E-18-3.22745E-19
 -1      2482 9.72211E-05-2.98779E-05-2.88549E-05 2.01650E-07 7.03964E-20-1.59755E-19
 -1      2483 9.73222E-05-3.00889E-05-2.88372E-05-2.41673E-07 1.97365E-19-7.84289E-19
 -1      2484 9.81197E-05-3.07488E-05-2.88699E-05-4.20059E-07 2.39897E-19-5.73616E-19
 -1      2485 9.66683E-05-2.93256E-05-2.88525E-05 8.11464E-07-5.47468E-19 2.37140E-19
 -1      2486 9.68626E-05-2.95743E-05-2.88562E-05 5.75652E-07 1.31693E-19 6.07830E-19
 -1      2487 9.74364E-05-3.00582E-05-2.88760E-05 6.05829E-07-9.76507E-20 1.28099E-18
 -1      2488 9.60893E-05-2.88030E-05-2.88268E-05 9.94405E-07-1.16055E-18 1.30168E-18
 -1      2489 9.63100E-05-2.90348E-05-2.88459E-05 9.48433E-07-9.73142E-19 8.46018E-19
 -1      2490 9.67032E-05-2.93281E-05-2.88742E-05 1.13209E-06-6.93364E-19 1.00366E-18
 -1      2491 9.53147E-05-2.68302E-05-2.93472E-05 3.63720E-06 1.38506E-18-1.44530E-18
 -1      2492 9.55593E-05-2.73166E-05-2.92384E-05 3.29908E-06 1.25836E-18-1.09814E-18
 -1      2493 9.56918E-05-2.76068E-05-2.91694E-05 2.83861E-06-4.74079E-19 6.31599E-19
 -1      2494 9.57996E-05-2.79480E-05-2.90747E-05 2.45706E-06-3.18778E-19 5.43055E-19
 -1      2495 9.60374E-05-2.80567E-05-2.91453E-05 3.45911E-06 2.23481E-19 5.91326E-19
 -1      2496 9.58113E-05-2.80899E-05-2.90099E-05 2.00388E-06-3.16569E-19 6.34549E-19
 -1      2497 9.58431E-05-2.83172E-05-2.89315E-05 1.65617E-06 1.23515E-20-8.53827E-19
 -1      2498 9.61769E-05-2.84821E-05-2.90243E-05 2.47971E-06-6.46944E-19-1.46668E-19
 -1      2499 2.86614E-05-2.08522E-05-2.92974E-06 2.88624E-05-2.60780E-19 3.17426E-19
 -1      2500 2.09861E-05-1.63477E-05-1.56432E-06 1.46978E-05 1.68030E-19-8.40680E-19
 -1      2501 9.46241E-05-2.57422E-05-2.95276E-05 4.17980E-06 1.02711E-18-6.68336E-19
 -1      2502 9.50172E-05-2.63516E-05-2.94160E-05 3.99955E-06 7.05684E-19-1.81842E-18
 -1      2503 9.55361E-05-2.72819E-05-2.92633E-05 4.35009E-06 1.66501E-18-1.79835E-18
 -1      2504 9.36428E-05-2.44126E-05-2.96891E-05 4.20022E-06 2.93500E-20 1.71963E-18
 -1      2505 9.41549E-05-2.50843E-05-2.95876E-05 4.29473E-06 7.92182E-19 1.29572E-18
 -1      2506 9.46241E-05-2.61225E-05-2.93680E-05 4.88573E-06 1.06256E-18-1.52571E-19
 -1      2507 9.25077E-05-2.30122E-05-2.98136E-05 3.47997E-06-1.94128E-18 1.29660E-18
 -1      2508 9.30548E-05-2.36424E-05-2.97353E-05 3.93293E-06-1.38612E-18 2.68444E-18
 -1      2509 9.33593E-05-2.46570E-05-2.94477E-05 4.75859E-06-6.64357E-19 1.05004E-18
 -1      2510 9.14718E-05-2.18115E-05-2.98892E-05 1.93799E-06-1.95196E-18-8.36931E-19
 -1      2511 9.19196E-05-2.22667E-05-2.98446E-05 2.75563E-06-2.12473E-18-1.58078E-19
 -1      2512 9.19459E-05-2.30940E-05-2.95013E-05 3.73365E-06-1.56425E-18 8.17893E-19
 -1      2513 9.08594E-05-2.11322E-05-2.99140E-05-2.35701E-07-1.04363E-18 1.77559E-18
 -1      2514 9.10557E-05-2.12812E-05-2.99080E-05 8.19065E-07-1.38938E-18-5.29559E-19
 -1      2515 9.07367E-05-2.17740E-05-2.95374E-05 1.78625E-06-1.99221E-18 2.18090E-19
 -1      2516 9.09353E-05-2.12148E-05-2.98991E-05-2.71471E-06-1.04923E-18 1.43956E-18
 -1      2517 9.07670E-05-2.09750E-05-2.99287E-05-1.59995E-06-9.99972E-19 1.56034E-18
 -1      2518 9.01256E-05-2.10560E-05-2.95732E-05-8.61544E-07-1.19143E-18 1.50319E-18
 -1      2519 9.18766E-05-2.22104E-05-2.98641E-05-4.85649E-06-3.18557E-19 1.53404E-18
 -1      2520 9.13027E-05-2.15582E-05-2.99184E-05-4.00683E-06-9.85075E-19 1.79896E-18
 -1      2521 9.04400E-05-2.12351E-05-2.96290E-05-3.72004E-06-1.53780E-18 1.64398E-18
 -1      2522 9.34105E-05-2.38227E-05-2.98192E-05-5.96304E-06-4.38222E-19 1.71073E-18
 -1      2523 9.25337E-05-2.28673E-05-2.98875E-05-5.63933E-06-1.53698E-19 5.17642E-19
 -1      2524 9.16843E-05-2.22924E-05-2.97116E-05-5.92196E-06-1.34303E-18 1.83287E-18
 -1      2525 9.35798E-05-2.39381E-05-2.98090E-05-7.04676E-06-1.31648E-18 8.22925E-19
 -1      2526 9.50705E-05-2.00241E-05-3.22113E-05-1.17518E-05-6.70096E-19-1.11432E-18
 -1      2527 9.54665E-05-2.33628E-05-3.09270E-05-7.96966E-06-6.65133E-19-9.28498E-19
 -1      2528 9.50808E-05-2.25595E-05-3.10535E-05-7.65193E-06-6.11670E-19-1.06844E-18
 -1      2529 9.32142E-05-1.76218E-05-3.24147E-05-1.14090E-05-6.05020E-19-1.24516E-18
 -1      2530 2.11954E-05-1.44992E-05-2.37104E-06-2.10196E-06 1.15719E-19-8.04258E-19
 -1      2531 2.65205E-05-1.87794E-05-2.84808E-06-1.62394E-05-1.65595E-19-7.07273E-19
 -1      2532 3.38416E-05-2.45448E-05-3.54859E-06-2.46070E-05 1.45690E-19-8.42798E-20
 -1      2533 4.71013E-05-3.23561E-05-6.13077E-06-3.38773E-05 1.97782E-19 1.78597E-18
 -1      2534 3.82698E-05-1.81404E-05-8.06671E-06-2.01901E-05-8.88326E-20-3.14884E-19
 -1      2535 1.47968E-04-6.77408E-05-3.46191E-05 1.22538E-05 1.11766E-18 1.22820E-20
 -1      2536 1.27321E-04-6.49717E-05-2.68334E-05 2.32203E-05 9.11407E-19 6.76462E-19
 -1      2537 6.61597E-05-4.02511E-05-1.07516E-05-4.70074E-05 2.08582E-19-3.27632E-18
 -1      2538 8.60417E-05-4.81322E-05-1.63202E-05-4.88445E-05 1.04397E-19-3.09220E-18
 -1      2539 1.51595E-04-2.38478E-05-5.50855E-05 2.57719E-06 1.25827E-18-5.98852E-19
 -1      2540 1.51517E-04-1.70735E-05-5.82400E-05 3.71290E-06 1.73303E-18 6.42051E-19
 -1      2541 1.30081E-04-5.71246E-05-3.14563E-05 3.18110E-05 3.70789E-19-2.97753E-18
 -1      2542 1.17903E-04-5.70633E-05-2.59712E-05 3.68540E-05 5.78947E-19-4.02182E-18
 -1      2543 1.25289E-04-5.31103E-05-3.08134E-05-1.86561E-05-2.18852E-18-2.69618E-19
 -1      2544 1.17607E-04-4.54837E-05-3.05003E-05-2.24264E-05-2.10882E-18-1.63219E-19
 -1      2545 1.03137E-04-4.01521E-05-2.72024E-05-2.78051E-05-1.49451E-18 1.23167E-18
 -1      2546 1.49515E-04-6.44243E-05-3.65290E-05 4.62676E-07-9.24272E-19 1.23635E-18
 -1      2547 1.41340E-04-6.22279E-05-3.35789E-05-9.95701E-06-1.73896E-18 5.97105E-19
 -1      2548 8.78448E-05-1.08001E-05-3.30549E-05-1.51873E-06 6.45609E-19-1.21660E-18
 -1      2549 8.79499E-05-1.09220E-05-3.30461E-05-2.63776E-06 5.37140E-19-1.29746E-18
 -1      2550 8.93489E-05-1.30943E-05-3.26825E-05-2.93095E-06 4.53306E-19-1.21960E-18
 -1      2551 8.91010E-05-1.27597E-05-3.27209E-05-9.41169E-07 6.37547E-19-1.10181E-18
 -1      2552 1.50297E-04-2.63827E-05-5.35693E-05-3.89773E-06 4.88103E-19-2.48244E-18
 -1      2553 1.47906E-04-3.35200E-05-4.95921E-05-2.23238E-06-3.35002E-19-2.36237E-18
 -1      2554 1.06332E-04-5.45394E-05-2.19619E-05-4.14796E-05-3.59777E-19-3.76654E-18
 -1      2555 1.24376E-04-5.71491E-05-2.91206E-05-3.51453E-05-8.92349E-19-4.00784E-18
 -1      2556 1.45680E-04-1.20834E-05-5.79482E-05-4.48250E-06 1.44821E-18-1.07647E-18
 -1      2557 1.47648E-04-1.82414E-05-5.59768E-05-5.21916E-06 1.23963E-18-1.29045E-18
 -1      2558 1.38315E-04-2.08146E-05-5.06106E-05-1.01374E-05 8.80491E-19 9.50794E-20
 -1      2559 1.49749E-04-4.07721E-05-4.69569E-05-5.43437E-06 3.10014E-19-2.35306E-18
 -1      2560 1.52676E-04-3.39169E-05-5.13354E-05-1.23081E-06 6.63015E-19-1.54118E-18
 -1      2561 1.69758E-04-2.63536E-05-6.12545E-05 1.02732E-05-8.33480E-19-1.18712E-18
 -1      2562 1.75629E-04-2.51094E-05-6.41495E-05 3.22837E-06 1.58819E-19-1.84971E-18
 -1      2563 1.03732E-04-5.70304E-05-2.02539E-05 3.64393E-05 1.37304E-18 1.84748E-18
 -1      2564 8.34527E-05-4.96768E-05-1.42567E-05 3.68815E-05 1.10305E-18 1.36076E-18
 -1      2565 1.37525E-04-5.42861E-05-3.56464E-05-2.14519E-05-1.27336E-18-3.26743E-18
 -1      2566 1.47230E-04-4.91999E-05-4.22945E-05-1.47429E-05-4.67880E-19-2.93836E-18
 -1      2567 1.45749E-04-4.68609E-05-4.24335E-05-3.76074E-06-1.78274E-19-2.68869E-18
 -1      2568 3.53150E-05-2.44779E-05-4.10472E-06-3.49750E-05 1.29056E-18-7.66777E-19
 -1      2569 4.69715E-05-2.98832E-05-7.07800E-06-4.35041E-05 8.94467E-19-2.70119E-18
 -1      2570 1.74807E-05-1.71328E-05 1.98218E-07-7.88371E-06 4.04644E-19 9.41901E-19
 -1      2571 2.27296E-05-1.81890E-05-1.63966E-06-2.36296E-05 1.11787E-18 4.08693E-19
 -1      2572 2.56297E-05-2.21407E-05-1.21321E-06 1.84481E-05 5.88264E-19 3.39406E-18
 -1      2573 1.88552E-05-1.82009E-05 1.91914E-08 5.50977E-06 1.88571E-19 2.91888E-18
 -1      2574 1.39318E-04-6.73385E-05-3.06193E-05-2.05353E-05-1.53186E-18-9.20090E-19
 -1      2575 1.51002E-04-6.63173E-05-3.66952E-05-9.23640E-06-5.20925E-19 5.49513E-19
 -1      2576 1.20546E-04-6.28272E-05-2.46898E-05-2.81225E-05-2.36534E-18-6.26196E-19
 -1      2577 6.57224E-05-4.36096E-05-9.52589E-06-3.72233E-05 3.00697E-20 1.43127E-18
 -1      2578 8.75646E-05-5.16865E-05-1.54432E-05-3.88996E-05-9.85735E-19 3.68459E-19
 -1      2579 9.59376E-05-2.85427E-05-2.88805E-05 1.31692E-06-1.14776E-18 5.30625E-19
 -1      2580 1.71946E-04-2.63341E-05-6.21099E-05-7.88407E-06 2.65841E-18-1.47108E-18
 -1      2581 9.08067E-05-1.50524E-05-3.24587E-05-6.80285E-06-6.79661E-20-1.57332E-18
 -1      2582 8.97017E-05-1.31908E-05-3.28451E-05-7.96015E-06-8.27259E-20-1.65839E-18
 -1      2583 9.03329E-05-1.38994E-05-3.28176E-05-9.17918E-06-2.25870E-19-1.61701E-18
 -1      2584 2.86886E-05-1.26504E-05-6.24662E-06 5.46443E-06 2.37474E-19-5.51418E-19
 -1      2585 9.59598E-05-2.62485E-05-2.98440E-05 5.39633E-06 7.81891E-19 1.88900E-18
 -1      2586 9.59041E-05-2.51620E-05-3.02939E-05 6.48701E-06 8.72298E-19 1.51502E-18
 -1      2587 9.52960E-05-2.64864E-05-2.94619E-05 4.10438E-06 7.87860E-19 1.72680E-18
 -1      2588 1.47622E-04-4.06993E-05-4.61476E-05-8.96753E-07-5.42207E-19-2.21626E-18
 -1      2589 1.43270E-04-4.59964E-05-4.17763E-05 6.24752E-07 2.67927E-19-2.15633E-18
 -1      2590 1.39972E-04-3.53783E-05-4.52056E-05-8.96738E-06-7.11508E-20-1.45361E-18
 -1      2591 1.03826E-04-4.82790E-05-2.34778E-05 3.15491E-05-5.71747E-19 6.93138E-19
 -1      2592 1.20720E-04-5.45770E-05-2.81111E-05 2.25983E-05 4.19811E-20-1.94023E-19
 -1      2593 1.68934E-04-3.77970E-05-5.66784E-05 1.77201E-05-6.40780E-19-2.66815E-19
 -1      2594 1.65685E-04-5.36375E-05-4.80132E-05 1.14245E-05 2.43204E-19 2.73168E-19
 -1      2595 1.61333E-04-6.42439E-05-4.18078E-05 6.75913E-06-6.33157E-20 1.06027E-18
 -1      2596 1.14197E-04-5.76788E-05-2.39774E-05 3.86289E-05-4.45963E-19-3.69158E-18
 -1      2597 1.39523E-04-6.13041E-05-3.34752E-05 1.12286E-05 2.32934E-19 4.35150E-19
 -1      2598 1.47775E-04-6.49174E-05-3.54059E-05 2.92293E-06 2.20864E-19 6.70744E-19
 -1      2599 1.55983E-04-6.63502E-05-3.85383E-05-5.41683E-07 8.04152E-19 4.92550E-19
 -1      2600 1.61956E-04-6.06169E-05-4.34496E-05-6.36329E-06 1.67225E-18 4.65021E-19
 -1      2601 1.25020E-04-5.82586E-05-2.88121E-05-2.16162E-05-2.58244E-18 6.26751E-19
 -1      2602 9.62573E-05-2.88247E-05-2.89138E-05 1.63426E-06-7.12973E-19 1.09372E-18
 -1      2603 1.65013E-04-3.06850E-05-5.79674E-05-1.87270E-05 3.53763E-18-2.91591E-19
 -1      2604 3.89829E-05-2.41121E-05-5.88675E-06 3.45389E-05-3.08002E-19 3.07473E-19
 -1      2605 3.95876E-05-1.79360E-05-8.58803E-06 2.91732E-05-2.08900E-19-2.55804E-19
 -1      2606 5.05332E-05-2.69589E-05-9.76916E-06 3.91863E-05-1.80312E-19 1.26420E-19
 -1      2607 9.20544E-05-1.62421E-05-3.25331E-05-1.03925E-05-4.43863E-19-1.39541E-18
 -1      2608 6.36187E-05-3.51714E-05-1.17423E-05-4.46629E-05 3.55754E-19-2.42844E-18
 -1      2609 9.47150E-05-2.68488E-05-2.90563E-05 2.43807E-06 6.68193E-19 1.31391E-18
 -1      2610 9.50627E-05-2.66651E-05-2.92719E-05 3.31952E-06 7.11537E-19 1.54375E-18
 -1      2611 9.53143E-05-2.61391E-05-2.96575E-05 4.04688E-06 7.72573E-19 1.19125E-18
 -1      2612 9.50229E-05-2.66036E-05-2.93416E-05 2.53035E-06 7.09701E-19 8.06370E-19
 -1      2613 7.57332E-05-4.41418E-05-1.32599E-05 4.73099E-05-2.24379E-18 5.84559E-19
 -1      2614 6.79702E-05-3.70490E-05-1.25358E-05 4.60451E-05-2.26412E-18 6.76144E-19
 -1      2615 8.92991E-05-4.82745E-05-1.76758E-05 4.53375E-05-1.75844E-18-2.27217E-19
 -1      2616 1.38497E-04-5.73911E-05-3.47636E-05 1.92827E-05 6.04199E-19-4.12632E-18
 -1      2617 6.28066E-05-3.47592E-05-1.15178E-05-3.51197E-05-5.50889E-19 1.73049E-18
 -1      2618 3.80265E-05-2.40743E-05-5.64984E-06 2.44061E-05 8.65350E-19 2.04770E-18
 -1      2619 2.46875E-05-1.35565E-05-4.16124E-06-1.04594E-06 3.31335E-19 1.77326E-18
 -1      2620 1.32715E-04-5.82109E-05-3.19295E-05-2.42590E-05-1.07605E-18-2.79373E-18
 -1      2621 1.22110E-04-6.04782E-05-2.59527E-05 2.53126E-05 8.92773E-19 7.06743E-21
 -1      2622 1.01939E-04-5.28006E-05-2.06784E-05-4.27754E-05-2.52204E-19-3.41008E-18
 -1      2623 7.52928E-05-4.21162E-05-1.37319E-05 3.74580E-05 2.40981E-19 1.80291E-18
 -1      2624 1.72244E-04-4.63553E-05-5.40153E-05 1.84298E-05-3.36484E-19-1.01220E-19
 -1      2625 1.70165E-04-5.62699E-05-4.88770E-05-1.48636E-05 1.67935E-18 4.90432E-19
 -1      2626 1.38239E-04-8.65715E-06-5.60233E-05-4.72114E-06-2.92226E-20 9.95899E-19
 -1      2627 1.35906E-04-1.36203E-05-5.26923E-05 8.11492E-06 1.35102E-18 1.34657E-18
 -1      2628 1.45438E-04-1.22334E-05-5.72970E-05 4.28515E-06 1.66167E-18 6.87897E-19
 -1      2629 1.34309E-04-7.26963E-06-5.52754E-05 4.55749E-06 7.99599E-19 1.18728E-18
 -1      2630 1.45507E-04-2.85530E-05-5.02349E-05 6.72600E-06 1.09903E-18-2.48604E-19
 -1      2631 3.38417E-05-1.81507E-05-6.10833E-06-2.79981E-05 9.80547E-19 1.01432E-19
 -1      2632 1.05569E-04-5.41966E-05-2.16907E-05-3.39994E-05-1.96681E-18 2.14141E-19
 -1      2633 1.68339E-04-4.30568E-05-5.40870E-05-1.97572E-05 2.27852E-18-1.04185E-19
 -1      2634 9.05626E-05-1.51748E-05-3.23313E-05 3.19638E-06 1.02382E-18-7.64095E-19
 -1      2635 9.03725E-05-1.49033E-05-3.23641E-05 2.26238E-06 9.50369E-19-8.39463E-19
 -1      2636 9.02384E-05-1.47007E-05-3.23932E-05 1.42341E-06 8.52119E-19-9.41732E-19
 -1      2637 9.01736E-05-1.46085E-05-3.24043E-05 4.66042E-07 7.79849E-19-9.45446E-19
 -1      2638 9.14242E-05-1.65958E-05-3.20565E-05 1.64246E-06 8.69259E-19-7.66006E-19
 -1      2639 9.21429E-05-1.75530E-05-3.20059E-05 6.47533E-06 1.27717E-18-2.88198E-19
 -1      2640 9.16167E-05-1.67551E-05-3.21061E-05 5.63725E-06 1.28832E-18-4.08301E-19
 -1      2641 9.35093E-05-1.97277E-05-3.16791E-05 7.64227E-06 1.17770E-18 9.75081E-20
 -1      2642 9.27729E-05-1.85207E-05-3.18393E-05 7.00946E-06 1.21406E-18-1.12258E-19
 -1      2643 9.34307E-05-1.98482E-05-3.15079E-05 5.74469E-06 1.17326E-18-2.24282E-19
 -1      2644 9.58989E-05-2.43842E-05-3.06413E-05 7.14729E-06 9.40901E-19 1.18543E-18
 -1      2645 9.53334E-05-2.30628E-05-3.09985E-05 7.84370E-06 9.76444E-19 8.56683E-19
 -1      2646 9.55128E-05-2.49978E-05-3.01990E-05 5.56719E-06 9.11877E-19 9.60461E-19
 -1      2647 9.52464E-05-2.39924E-05-3.05161E-05-5.30764E-06-4.28104E-19-1.00864E-18
 -1      2648 9.51635E-05-2.50055E-05-3.00870E-05-3.80087E-06-3.91950E-19-9.49454E-19
 -1      2649 9.13834E-05-3.81211E-05-2.25479E-05 3.12059E-05-5.10443E-19-1.82536E-19
 -1      2650 8.55552E-05-4.08606E-05-1.89258E-05 3.44835E-05-3.18802E-19 1.05858E-18
 -1      2651 6.39156E-05-3.13193E-05-1.32466E-05 3.38251E-05-5.50571E-21 1.07044E-18
 -1      2652 1.20138E-04-5.89399E-05-2.65880E-05 3.25738E-05-8.86208E-20-3.85408E-18
 -1      2653 1.07916E-04-5.47743E-05-2.22585E-05 3.86573E-05-1.02290E-18-2.62968E-18
 -1      2654 9.53600E-05-2.59031E-05-2.97364E-05-2.70538E-06-3.84612E-19-9.07588E-19
 -1      2655 9.51932E-05-2.64915E-05-2.94553E-05-1.72435E-06-3.83708E-19-8.61400E-19
 -1      2656 9.52104E-05-2.46915E-05-3.02175E-05-3.54707E-06-3.82308E-19-9.63820E-19
 -1      2657 9.52166E-05-2.70054E-05-2.92097E-05-9.82785E-07-5.07562E-19-7.91430E-19
 -1      2658 9.50819E-05-2.73595E-05-2.90301E-05-3.77634E-07-5.67551E-19-8.59235E-19
 -1      2659 9.54154E-05-2.63287E-05-2.96139E-05-1.62214E-06-4.59274E-19-9.39461E-19
 -1      2660 9.50492E-05-2.76651E-05-2.88629E-05 8.95673E-08-4.68232E-19-7.40191E-19
 -1      2661 9.49716E-05-2.78891E-05-2.87525E-05 4.41010E-07-4.27658E-19-6.55650E-19
 -1      2662 9.54170E-05-2.73246E-05-2.91898E-05-3.43023E-07-5.13004E-19-8.90039E-19
 -1      2663 9.49298E-05-2.80736E-05-2.86423E-05 7.11044E-07-3.97083E-19-4.29126E-19
 -1      2664 9.49022E-05-2.82208E-05-2.85790E-05 8.95901E-07-4.32111E-19-3.58784E-19
 -1      2665 9.53570E-05-2.79385E-05-2.89003E-05 4.47990E-07-2.53754E-19-5.95109E-19
 -1      2666 9.48665E-05-2.83363E-05-2.85068E-05 1.03632E-06-4.59028E-19-2.98194E-19
 -1      2667 9.48753E-05-2.84358E-05-2.84742E-05 1.11443E-06-2.12378E-19-1.13178E-19
 -1      2668 9.52915E-05-2.83221E-05-2.87061E-05 8.97931E-07-3.33153E-19-4.19950E-19
 -1      2669 9.48516E-05-2.84965E-05-2.84347E-05 1.15824E-06-2.97986E-19-2.78267E-19
 -1      2670 9.48829E-05-2.85574E-05-2.84245E-05 1.16657E-06-4.25746E-19-3.34314E-19
 -1      2671 9.52431E-05-2.85547E-05-2.85848E-05 1.10820E-06-4.00884E-19-5.94383E-19
 -1      2672 9.48695E-05-2.85890E-05-2.84047E-05 1.15915E-06-4.46171E-19-4.46122E-19
 -1      2673 9.49130E-05-2.86260E-05-2.84076E-05 1.13092E-06-2.81888E-19-4.75558E-19
 -1      2674 9.52132E-05-2.86802E-05-2.85171E-05 1.16263E-06-4.77369E-19-7.90308E-19
 -1      2675 9.49070E-05-2.86371E-05-2.84014E-05 1.09551E-06-1.12673E-19-5.49301E-19
 -1      2676 9.49563E-05-2.86571E-05-2.84126E-05 1.05045E-06-1.42211E-19-8.13675E-19
 -1      2677 9.51986E-05-2.87406E-05-2.84841E-05 1.13087E-06-3.04115E-19-8.57138E-19
 -1      2678 9.49558E-05-2.86540E-05-2.84158E-05 1.00417E-06-2.87620E-19-7.55149E-19
 -1      2679 9.50070E-05-2.86613E-05-2.84323E-05 9.56069E-07-1.92443E-19-7.35817E-19
 -1      2680 9.51953E-05-2.87559E-05-2.84755E-05 1.05609E-06-2.47136E-19-1.14970E-18
 -1      2681 9.50102E-05-2.86481E-05-2.84421E-05 9.11222E-07-1.96436E-19-8.54075E-19
 -1      2682 9.50615E-05-2.86457E-05-2.84622E-05 8.70053E-07-1.50144E-19-1.27817E-18
 -1      2683 9.51999E-05-2.87395E-05-2.84841E-05 9.69333E-07-5.28638E-19-1.37089E-18
 -1      2684 9.50672E-05-2.86245E-05-2.84769E-05 8.35732E-07 1.59858E-19-1.21831E-18
 -1      2685 9.51183E-05-2.86142E-05-2.84998E-05 8.09086E-07 2.11795E-19-1.16104E-18
 -1      2686 9.52096E-05-2.86995E-05-2.85051E-05 8.93186E-07-5.16019E-20-1.07784E-18
 -1      2687 9.51253E-05-2.85860E-05-2.85185E-05 7.92436E-07 7.91181E-20-1.12911E-18
 -1      2688 9.51772E-05-2.85686E-05-2.85442E-05 7.86699E-07-7.86508E-20-1.27139E-18
 -1      2689 9.52223E-05-2.86402E-05-2.85358E-05 8.44760E-07-1.08931E-20-1.66824E-18
 -1      2690 9.51842E-05-2.85328E-05-2.85668E-05 7.93954E-07 1.39685E-19-8.39407E-19
 -1      2691 9.52383E-05-2.85080E-05-2.85960E-05 8.15274E-07 3.50194E-19-6.90250E-19
 -1      2692 9.52359E-05-2.85624E-05-2.85748E-05 8.38069E-07 2.35042E-19-1.15409E-18
 -1      2693 9.52438E-05-2.84626E-05-2.86226E-05 8.52633E-07 1.86785E-19-7.48695E-19
 -1      2694 9.53020E-05-2.84289E-05-2.86565E-05 9.07802E-07-1.53149E-19-8.14649E-19
 -1      2695 9.52476E-05-2.84637E-05-2.86221E-05 8.85976E-07 2.96026E-19-7.22146E-19
 -1      2696 9.53030E-05-2.83705E-05-2.86879E-05 9.82250E-07-1.57500E-19-1.01723E-18
 -1      2697 9.53677E-05-2.83251E-05-2.87281E-05 1.07940E-06-1.94522E-19-1.35062E-18
 -1      2698 9.52531E-05-2.83378E-05-2.86781E-05 1.00182E-06-2.87020E-19-1.39702E-18
 -1      2699 9.53591E-05-2.82435E-05-2.87672E-05 1.20591E-06-1.88750E-19-9.50483E-19
 -1      2700 9.54336E-05-2.81775E-05-2.88184E-05 1.36608E-06-7.57733E-20-1.01509E-18
 -1      2701 9.52445E-05-2.81705E-05-2.87461E-05 1.20761E-06-2.60747E-19-1.09340E-18
 -1      2702 9.54064E-05-2.80706E-05-2.88626E-05 1.54512E-06-1.06305E-19-8.90205E-19
 -1      2703 9.54846E-05-2.79832E-05-2.89224E-05 1.76620E-06-6.08202E-19-7.34990E-19
 -1      2704 9.52082E-05-2.79454E-05-2.88260E-05 1.51966E-06-1.24505E-19-1.33769E-18
 -1      2705 9.54263E-05-2.78350E-05-2.89738E-05 2.01521E-06-8.84498E-19-4.48680E-19
 -1      2706 9.55076E-05-2.77121E-05-2.90467E-05 2.32287E-06-4.71060E-19-6.91853E-19
 -1      2707 9.51241E-05-2.76473E-05-2.89166E-05 1.95159E-06-4.38001E-19-8.71513E-19
 -1      2708 9.53957E-05-2.75042E-05-2.91050E-05 2.65872E-06-5.25921E-19-4.62882E-19
 -1      2709 9.54713E-05-2.73303E-05-2.91928E-05 3.07696E-06-3.55021E-19-4.87628E-19
 -1      2710 9.49574E-05-2.72371E-05-2.90188E-05 2.53708E-06-5.44647E-19-3.28910E-20
 -1      2711 9.52718E-05-2.70380E-05-2.92554E-05 3.52002E-06-3.87649E-19-2.50005E-19
 -1      2712 9.53249E-05-2.67932E-05-2.93583E-05 4.07842E-06-1.58494E-19-1.14845E-18
 -1      2713 9.46540E-05-2.66695E-05-2.91284E-05 3.30914E-06-5.17479E-19-1.71602E-20
 -1      2714 9.49875E-05-2.63858E-05-2.94184E-05 4.65244E-06 3.23904E-19-1.80252E-18
 -1      2715 9.49906E-05-2.60477E-05-2.95325E-05 5.38512E-06-4.32119E-21-2.18303E-18
 -1      2716 9.41321E-05-2.58867E-05-2.92346E-05 4.30495E-06-4.15806E-19-6.98626E-19
 -1      2717 9.44444E-05-2.54923E-05-2.95758E-05 6.11678E-06-6.20026E-20-2.45061E-18
 -1      2718 9.43581E-05-2.50444E-05-2.96897E-05 7.05900E-06 1.00078E-19-2.20428E-18
 -1      2719 9.32741E-05-2.48238E-05-2.93139E-05 5.56386E-06-3.58867E-19-1.40901E-18
 -1      2720 9.35118E-05-2.43190E-05-2.96887E-05 7.97818E-06 1.74015E-19-2.88790E-18
 -1      2721 9.32932E-05-2.37716E-05-2.97771E-05 9.15960E-06-3.42749E-19-2.71721E-18
 -1      2722 9.19211E-05-2.34252E-05-2.93213E-05 7.12576E-06-4.61096E-19-2.25308E-18
 -1      2723 9.20456E-05-2.28959E-05-2.96823E-05 1.03043E-05 1.14872E-19-2.35444E-18
 -1      2724 9.16789E-05-2.23356E-05-2.96970E-05 1.17394E-05 3.92342E-19-1.87950E-18
 -1      2725 8.98806E-05-2.16873E-05-2.91753E-05 9.03585E-06 4.42054E-20-2.99358E-18
 -1      2726 8.99549E-05-2.14363E-05-2.94241E-05 1.31749E-05 8.42397E-20-1.50961E-18
 -1      2727 8.95371E-05-2.11231E-05-2.92840E-05 1.48539E-05-3.23692E-20-1.27038E-18
 -1      2728 8.69644E-05-1.97483E-05-2.87361E-05 1.13722E-05 4.03994E-19-2.89417E-18
 -1      2729 8.73762E-05-2.05561E-05-2.86965E-05 1.67258E-05-1.70551E-19-1.56087E-18
 -1      2730 8.72946E-05-2.11094E-05-2.82888E-05 1.86134E-05-7.59898E-19-1.48518E-18
 -1      2731 8.30856E-05-1.80537E-05-2.77731E-05 1.43294E-05-1.31247E-19-3.47445E-18
 -1      2732 8.48467E-05-2.14346E-05-2.71101E-05 2.12978E-05-6.91569E-19-1.41177E-18
 -1      2733 8.63470E-05-2.46107E-05-2.63226E-05 2.35996E-05-4.04061E-19-1.17303E-18
 -1      2734 7.84853E-05-1.77830E-05-2.58541E-05 1.85522E-05-4.78984E-19-2.48419E-18
 -1      2735 8.68241E-05-3.06277E-05-2.37699E-05 2.85039E-05-4.00792E-19-6.74476E-19
 -1      2736 8.71083E-05-2.18578E-05-2.78705E-05-2.08028E-05 7.83798E-19 1.78111E-18
 -1      2737 8.68792E-05-2.08793E-05-2.83376E-05-1.89250E-05 3.46026E-19 1.26956E-18
 -1      2738 8.90519E-05-2.12170E-05-2.90256E-05-1.69658E-05 2.48708E-20 3.67652E-19
 -1      2739 8.93263E-05-2.13004E-05-2.92127E-05-1.52663E-05-7.28818E-19 3.02877E-19
 -1      2740 8.24471E-05-1.82048E-05-2.74292E-05-1.65120E-05-6.09655E-19 1.08496E-18
 -1      2741 9.11247E-05-2.20746E-05-2.95691E-05-1.37468E-05-1.17401E-18 3.28809E-19
 -1      2742 9.14203E-05-2.24751E-05-2.95952E-05-1.22382E-05-1.87883E-18-8.58991E-19
 -1      2743 8.64248E-05-1.95302E-05-2.85979E-05-1.33744E-05-1.05130E-18-8.43114E-19
 -1      2744 9.27203E-05-2.32165E-05-2.97710E-05-1.09875E-05-2.34152E-18 1.65466E-19
 -1      2745 9.28742E-05-2.35545E-05-2.97332E-05-9.67543E-06-1.59206E-18-8.40758E-19
 -1      2746 8.94700E-05-2.11802E-05-2.92178E-05-1.08772E-05-1.67954E-18-3.43134E-19
 -1      2747 9.34074E-05-2.38224E-05-2.97933E-05-8.87102E-06-1.73393E-18-4.17410E-19
 -1      2748 9.31876E-05-2.38037E-05-2.97425E-05-7.74130E-06-2.02881E-18-1.91817E-19
 -1      2749 9.20646E-05-2.28777E-05-2.96779E-05-7.41148E-06-1.72430E-18 3.86958E-19
 -1      2750 9.11929E-05-2.23081E-05-2.95037E-05-8.91865E-06-2.01932E-18 1.04983E-18
 -1      2751 9.48933E-05-2.76447E-05-2.88244E-05-6.85629E-08 5.10082E-19 1.16692E-19
 -1      2752 9.50102E-05-2.73788E-05-2.89639E-05 4.00647E-07 5.59484E-19 1.88020E-19
 -1      2753 9.47903E-05-2.80418E-05-2.86078E-05-6.97223E-07 5.28731E-19 4.96350E-20
 -1      2754 9.48421E-05-2.78694E-05-2.86890E-05-4.36676E-07 5.70615E-19 8.90845E-20
 -1      2755 9.52819E-05-2.76567E-05-2.89901E-05-8.48628E-08 5.06986E-19-2.46725E-19
 -1      2756 9.50472E-05-2.70030E-05-2.91684E-05 1.01166E-06 6.84530E-19 8.17418E-20
 -1      2757 9.52384E-05-2.65850E-05-2.93946E-05 1.79541E-06 7.74064E-19 2.00060E-19
 -1      2758 9.53525E-05-2.69049E-05-2.93426E-05 9.59519E-07 5.94601E-19-2.11064E-19
 -1      2759 9.47461E-05-2.84513E-05-2.84114E-05-1.15257E-06 4.38372E-19-1.23227E-19
 -1      2760 9.47176E-05-2.83744E-05-2.84282E-05-1.11262E-06 5.03022E-19-2.34177E-21
 -1      2761 9.47788E-05-2.85478E-05-2.83837E-05-1.16085E-06 1.96635E-19 6.19436E-20
 -1      2762 9.47320E-05-2.84973E-05-2.83841E-05-1.17165E-06 3.12996E-19-3.74755E-20
 -1      2763 9.51148E-05-2.85778E-05-2.85195E-05-1.15628E-06 2.77095E-19-1.03428E-19
 -1      2764 9.48304E-05-2.86015E-05-2.83826E-05-1.10101E-06 1.47677E-19 1.56154E-19
 -1      2765 9.47747E-05-2.85702E-05-2.83728E-05-1.13881E-06 1.15293E-19 4.16353E-20
 -1      2766 9.51031E-05-2.86717E-05-2.84731E-05-1.16726E-06 2.01314E-19 1.38960E-19
 -1      2767 9.48919E-05-2.86253E-05-2.83987E-05-1.01022E-06 2.33967E-19 2.26943E-19
 -1      2768 9.48332E-05-2.86079E-05-2.83827E-05-1.05861E-06 3.68068E-19 6.55701E-20
 -1      2769 9.51061E-05-2.87135E-05-2.84557E-05-1.11125E-06 2.26711E-19 4.87391E-20
 -1      2770 9.49579E-05-2.86279E-05-2.84257E-05-9.14423E-07 1.39617E-19 2.27562E-19
 -1      2771 9.48993E-05-2.86207E-05-2.84062E-05-9.62044E-07 1.97595E-19 1.15876E-19
 -1      2772 9.51189E-05-2.87196E-05-2.84581E-05-1.02552E-06 3.25669E-19 4.98221E-20
 -1      2773 9.50256E-05-2.86157E-05-2.84598E-05-8.31663E-07 2.66875E-19 2.66325E-19
 -1      2774 9.49682E-05-2.86158E-05-2.84381E-05-8.70685E-07 1.85234E-19 5.21840E-19
 -1      2775 9.51381E-05-2.87011E-05-2.84738E-05-9.36356E-07 9.84826E-20 1.13361E-19
 -1      2776 9.50946E-05-2.85936E-05-2.84987E-05-7.74424E-07 2.06499E-19 1.70501E-19
 -1      2777 9.50382E-05-2.85987E-05-2.84756E-05-7.99482E-07 4.74811E-19 3.08539E-19
 -1      2778 9.51616E-05-2.86659E-05-2.84988E-05-8.62149E-07 4.00450E-19-7.10046E-20
 -1      2779 9.51666E-05-2.85658E-05-2.85413E-05-7.51196E-07-3.46518E-20 2.70203E-19
 -1      2780 9.51095E-05-2.85735E-05-2.85170E-05-7.58730E-07-9.63341E-21 9.96862E-20
 -1      2781 9.51891E-05-2.86197E-05-2.85302E-05-8.15742E-07 2.16051E-19 5.02555E-19
 -1      2782 9.52447E-05-2.85364E-05-2.85872E-05-7.67348E-07 6.79302E-20 4.47836E-19
 -1      2783 9.51846E-05-2.85445E-05-2.85615E-05-7.55279E-07 1.37819E-20 2.86747E-19
 -1      2784 9.52215E-05-2.85675E-05-2.85665E-05-8.05937E-07-2.01434E-19 3.17384E-19
 -1      2785 9.53340E-05-2.85106E-05-2.86363E-05-8.25331E-07-4.67707E-20 6.09445E-19
 -1      2786 9.52675E-05-2.85161E-05-2.86091E-05-7.93074E-07 5.37845E-20 4.68792E-19
 -1      2787 9.52613E-05-2.85141E-05-2.86065E-05-8.38321E-07 7.51485E-20 5.68533E-19
 -1      2788 9.54410E-05-2.84954E-05-2.86886E-05-9.24197E-07-6.20563E-19 1.00057E-18
 -1      2789 9.53642E-05-2.84945E-05-2.86596E-05-8.73016E-07-2.18947E-19 9.02358E-19
 -1      2790 9.53133E-05-2.84660E-05-2.86496E-05-9.15410E-07-3.09690E-19 9.75793E-19
 -1      2791 9.55747E-05-2.85009E-05-2.87436E-05-1.05840E-06-6.63969E-19 9.42366E-19
 -1      2792 9.54831E-05-2.84881E-05-2.87129E-05-9.92124E-07-8.11884E-19 7.74957E-19
 -1      2793 9.53844E-05-2.84322E-05-2.86948E-05-1.03608E-06-4.08534E-19 7.56032E-19
 -1      2794 9.57465E-05-2.85413E-05-2.88002E-05-1.21581E-06-6.09145E-19 7.54937E-19
 -1      2795 9.56349E-05-2.85092E-05-2.87684E-05-1.14193E-06-5.98918E-19 6.91227E-19
 -1      2796 9.54854E-05-2.84260E-05-2.87412E-05-1.19424E-06-6.07604E-19 1.27711E-18
 -1      2797 9.59710E-05-2.86358E-05-2.88567E-05-1.37507E-06-3.42020E-19 8.02051E-19
 -1      2798 9.58338E-05-2.85747E-05-2.88246E-05-1.30610E-06-2.93134E-19 5.96543E-19
 -1      2799 9.56316E-05-2.84664E-05-2.87871E-05-1.37670E-06-4.06193E-19 1.00823E-18
 -1      2800 9.62656E-05-2.88086E-05-2.89101E-05-1.50232E-06-6.48980E-20 1.07485E-18
 -1      2801 9.60973E-05-2.87072E-05-2.88796E-05-1.45736E-06-1.47001E-19 1.02489E-18
 -1      2802 9.58440E-05-2.85793E-05-2.88305E-05-1.56017E-06-6.03581E-19 5.13424E-19
 -1      2803 9.66496E-05-2.90876E-05-2.89572E-05-1.54815E-06-3.28348E-19 1.09863E-18
 -1      2804 9.64461E-05-2.89335E-05-2.89303E-05-1.55410E-06 5.50663E-20 1.09315E-18
 -1      2805 9.61497E-05-2.87975E-05-2.88691E-05-1.70778E-06-6.82429E-21 8.04354E-19
 -1      2806 9.71411E-05-2.94989E-05-2.89946E-05-1.44563E-06 1.38864E-20 1.37200E-18
 -1      2807 9.69014E-05-2.92822E-05-2.89737E-05-1.53747E-06-8.83866E-19 9.79738E-19
 -1      2808 9.65814E-05-2.91576E-05-2.89011E-05-1.76533E-06-1.21097E-19 5.71599E-19
 -1      2809 9.77496E-05-3.00564E-05-2.90205E-05-1.11182E-06 3.58741E-19 8.65216E-19
 -1      2810 9.74800E-05-2.97758E-05-2.90075E-05-1.33050E-06 7.98731E-19 1.08850E-18
 -1      2811 9.71726E-05-2.96933E-05-2.89262E-05-1.65867E-06 1.47089E-19 6.91628E-19
 -1      2812 9.84640E-05-3.07444E-05-2.90365E-05-4.56040E-07 3.85295E-19 1.14099E-18
 -1      2813 9.81834E-05-3.04161E-05-2.90320E-05-8.42298E-07 7.29095E-19 1.01415E-18
 -1      2814 9.79481E-05-3.04202E-05-2.89480E-05-1.29455E-06 6.21322E-19 6.08751E-19
 -1      2815 9.92337E-05-3.14927E-05-2.90503E-05 5.99916E-07-1.56969E-19 3.50977E-19
 -1      2816 9.89808E-05-3.11627E-05-2.90520E-05 1.81760E-08 1.72298E-19 6.17782E-19
 -1      2817 9.89057E-05-3.13120E-05-2.89761E-05-5.68901E-07 6.61224E-19 4.87774E-19
 -1      2818 9.99478E-05-3.21502E-05-2.90775E-05 2.08414E-06-4.18523E-19 5.33269E-20
 -1      2819 9.97863E-05-3.19054E-05-2.90797E-05 1.31271E-06-6.46421E-19-1.55681E-19
 -1      2820 9.99883E-05-3.22669E-05-2.90284E-05 6.10416E-07-1.10983E-20-4.87634E-19
 -1      2821 1.00423E-04-3.24733E-05-2.91411E-05 3.91701E-06-6.18966E-19 3.80135E-20
 -1      2822 1.00439E-04-3.24413E-05-2.91344E-05 3.02321E-06-3.17940E-19-2.46568E-20
 -1      2823 1.01052E-04-3.30750E-05-2.91322E-05 2.27820E-06-4.67872E-19-3.65715E-19
 -1      2824 1.00423E-04-3.21603E-05-2.92660E-05 5.84323E-06-9.90187E-19 2.79617E-19
 -1      2825 1.00703E-04-3.24824E-05-2.92401E-05 4.98232E-06-6.45887E-19-9.52654E-22
 -1      2826 1.01847E-04-3.34105E-05-2.93198E-05 4.33863E-06-8.08812E-19-6.22344E-19
 -1      2827 9.97385E-05-3.09652E-05-2.94677E-05 7.38848E-06-1.32706E-18 5.10827E-19
 -1      2828 1.00326E-04-3.17281E-05-2.94162E-05 6.80765E-06-7.15491E-19 5.89313E-19
 -1      2829 1.02048E-04-3.28902E-05-2.96182E-05 6.47552E-06-9.83485E-19-7.00525E-19
 -1      2830 9.83426E-05-2.88943E-05-2.97355E-05 7.92011E-06-5.41924E-19 4.53467E-19
 -1      2831 9.91748E-05-3.00342E-05-2.96624E-05 7.90528E-06-1.40709E-18 1.60255E-19
 -1      2832 1.01383E-04-3.12516E-05-3.00298E-05 8.09901E-06-8.16633E-19 1.94635E-19
 -1      2833 9.65340E-05-2.63830E-05-3.00220E-05 6.87396E-06-4.67743E-19 1.30070E-18
 -1      2834 9.74122E-05-2.76216E-05-2.99450E-05 7.62715E-06 2.84761E-20 8.78066E-19
 -1      2835 9.98478E-05-2.86058E-05-3.05117E-05 8.44606E-06-7.71848E-19 4.53763E-19
 -1      2836 9.49500E-05-2.42813E-05-3.02479E-05 4.11574E-06-2.44201E-19 2.31807E-18
 -1      2837 9.55817E-05-2.51795E-05-3.01953E-05 5.59774E-06-6.18717E-19 1.87806E-18
 -1      2838 9.78935E-05-2.56331E-05-3.09689E-05 6.89738E-06-1.15266E-18 1.27501E-18
 -1      2839 9.42959E-05-2.34813E-05-3.03334E-05 2.24436E-07 9.77114E-19 2.20274E-18
 -1      2840 9.44383E-05-2.36615E-05-3.03290E-05 2.08233E-06 2.64680E-19 1.93119E-18
 -1      2841 9.63664E-05-2.34464E-05-3.12741E-05 3.45467E-06 2.22342E-19 1.08202E-18
 -1      2842 9.48967E-05-2.43604E-05-3.02441E-05-3.65938E-06 4.21953E-19 2.34683E-18
 -1      2843 9.44972E-05-2.37410E-05-3.02931E-05-1.96145E-06 9.26518E-19 2.52150E-18
 -1      2844 9.60415E-05-2.30139E-05-3.13254E-05-9.89473E-07 8.24643E-19 2.25684E-18
 -1      2845 9.64668E-05-2.65277E-05-3.00078E-05-6.38538E-06 1.06141E-18 2.26397E-18
 -1      2846 9.56994E-05-2.53783E-05-3.00938E-05-5.30798E-06 7.92548E-19 2.68243E-18
 -1      2847 9.70920E-05-2.45472E-05-3.11027E-05-5.01144E-06 2.99484E-19 1.84701E-18
 -1      2848 9.82938E-05-2.90752E-05-2.97012E-05-7.35776E-06-4.66011E-19 3.32163E-18
 -1      2849 9.74534E-05-2.78461E-05-2.97953E-05-7.08080E-06 3.43129E-19 2.83332E-18
 -1      2850 9.89562E-05-2.73540E-05-3.06753E-05-7.40273E-06 1.16829E-21 2.03719E-18
 -1      2851 9.96912E-05-3.11351E-05-2.94058E-05-6.71524E-06 7.51965E-19 2.72972E-18
 -1      2852 9.90313E-05-3.01966E-05-2.94839E-05-7.11882E-06 9.71816E-20 3.15492E-18
 -1      2853 1.00737E-04-3.02842E-05-3.01686E-05-7.76884E-06-3.76440E-20 2.73174E-18
 -1      2854 1.00325E-04-3.22724E-05-2.91746E-05-5.04558E-06 2.22508E-18 1.87978E-18
 -1      2855 9.99695E-05-3.17844E-05-2.92256E-05-5.85592E-06 1.99103E-18 2.45987E-18
 -1      2856 1.01773E-04-3.24120E-05-2.97008E-05-6.52641E-06 1.72347E-18 1.94225E-18
 -1      2857 1.00212E-04-3.24826E-05-2.90232E-05-3.01610E-06 2.91929E-18 1.05197E-18
 -1      2858 1.00159E-04-3.24179E-05-2.90486E-05-3.94759E-06 2.37307E-18 1.81668E-18
 -1      2859 1.01874E-04-3.33759E-05-2.93408E-05-4.44005E-06 2.55441E-18 2.73079E-18
 -1      2860 9.95703E-05-3.20143E-05-2.89410E-05-1.13563E-06 1.89121E-18 2.20059E-18
 -1      2861 9.97449E-05-3.22486E-05-2.89490E-05-1.97740E-06 2.69702E-18 2.00394E-18
 -1      2862 1.01217E-04-3.32922E-05-2.91057E-05-2.22347E-06 2.07206E-18 3.30923E-18
 -1      2863 9.86544E-05-3.11701E-05-2.89070E-05 3.10006E-07 5.07132E-19 1.93865E-18
 -1      2864 9.89644E-05-3.15657E-05-2.89065E-05-3.23928E-07 1.40552E-18 1.97553E-18
 -1      2865 1.00120E-04-3.25088E-05-2.89787E-05-3.40235E-07 1.88560E-18 4.45271E-18
 -1      2866 9.76640E-05-3.01952E-05-2.89003E-05 1.21922E-06-1.45798E-20 1.41334E-18
 -1      2867 9.80317E-05-3.06461E-05-2.88980E-05 8.34637E-07-5.16728E-19 1.02319E-18
 -1      2868 9.88746E-05-3.13855E-05-2.89293E-05 9.94176E-07 1.62129E-19 3.19328E-18
 -1      2869 9.67434E-05-2.92645E-05-2.89050E-05 1.61284E-06-1.07749E-18 1.88838E-18
 -1      2870 9.71178E-05-2.97054E-05-2.89058E-05 1.47650E-06-4.86102E-19 1.68835E-18
 -1      2871 9.76996E-05-3.01986E-05-2.89289E-05 1.76387E-06-6.87105E-19 2.18898E-18
 -1      2872 9.66600E-05-2.90937E-05-2.89520E-05 2.03083E-06-5.82476E-19 1.32652E-18
 -1      2873 9.46840E-05-2.65676E-05-2.92064E-05 5.58983E-06 1.01842E-18-1.02081E-18
 -1      2874 9.53518E-05-2.72350E-05-2.91729E-05 5.43265E-06 1.83305E-18-1.62241E-18
 -1      2875 9.67748E-05-2.89926E-05-2.90409E-05 3.10083E-06-3.38838E-19 2.85771E-19
 -1      2876 9.67861E-05-2.91333E-05-2.89870E-05 2.58873E-06-3.85197E-19 3.66954E-19
 -1      2877 9.72783E-05-2.97190E-05-2.89686E-05 2.58875E-06-3.57943E-19 1.05520E-18
 -1      2878 9.58937E-05-2.78222E-05-2.91757E-05 4.98581E-06 1.00644E-18-3.18079E-18
 -1      2879 9.62977E-05-2.82981E-05-2.91289E-05 4.57020E-06 1.58565E-18-2.28713E-18
 -1      2880 9.60544E-05-2.83567E-05-2.90298E-05 5.73804E-06 1.41793E-18-1.81743E-18
 -1      2881 9.11145E-05-2.30990E-05-2.91856E-05 4.13724E-06-1.48257E-18 6.67701E-19
 -1      2882 9.19905E-05-2.38527E-05-2.91759E-05 4.90315E-06-1.16698E-18 1.05330E-18
 -1      2883 8.95765E-05-2.15728E-05-2.91808E-05 1.81496E-06-2.06735E-18 3.62825E-19
 -1      2884 9.02103E-05-2.21068E-05-2.91700E-05 3.02486E-06-2.16989E-18 1.37470E-18
 -1      2885 9.00976E-05-2.28031E-05-2.88330E-05 4.33387E-06-1.49117E-18 2.25329E-19
 -1      2886 8.88842E-05-2.07472E-05-2.92276E-05-1.33775E-06-1.78092E-18 9.52943E-19
 -1      2887 8.90382E-05-2.09004E-05-2.92022E-05 1.65176E-07-2.14549E-18 1.49101E-18
 -1      2888 8.84058E-05-2.10876E-05-2.88268E-05 1.46859E-06-2.50705E-18 5.82313E-19
 -1      2889 8.94976E-05-2.10110E-05-2.93620E-05-4.63573E-06-1.98361E-18 1.54758E-18
 -1      2890 8.90001E-05-2.06608E-05-2.93060E-05-3.18870E-06-1.67625E-18 5.67544E-19
 -1      2891 8.78827E-05-2.02967E-05-2.89346E-05-2.21582E-06-2.11675E-18 1.12451E-18
 -1      2892 4.17854E-05-1.34761E-05-1.16095E-05-1.69849E-05-8.33057E-19-6.51368E-19
 -1      2893 5.02310E-05-1.99663E-05-1.23821E-05-2.65375E-05-3.05673E-19 1.91959E-18
 -1      2894 5.92565E-05-2.88697E-05-1.24635E-05-4.08868E-05 9.08866E-19-2.08063E-18
 -1      2895 7.63721E-05-3.94000E-05-1.56880E-05-4.55804E-05 4.02976E-19-2.47842E-18
 -1      2896 5.01700E-05-2.30267E-05-1.13103E-05 2.85584E-05 4.86726E-19 1.50264E-18
 -1      2897 3.92342E-05-1.40667E-05-1.00229E-05 1.73952E-05 5.91097E-19 2.25353E-18
 -1      2898 6.36155E-05-2.35446E-05-1.67002E-05 2.75466E-05-5.38925E-20 2.29864E-19
 -1      2899 6.06781E-05-2.72615E-05-1.37607E-05-3.24053E-05-3.38813E-19 2.30202E-18
 -1      2900 7.81800E-05-3.83535E-05-1.67306E-05-3.71642E-05-7.47612E-19 1.63287E-18
 -1      2901 6.47328E-05-2.36973E-05-1.70306E-05-2.85655E-05-9.48148E-20 1.71979E-18
 -1      2902 9.45665E-05-4.08751E-05-2.25969E-05-3.20258E-05-7.97270E-19 1.74356E-18
 -1      2903 8.81338E-05-3.22578E-05-2.35571E-05-3.00349E-05-5.91520E-19 1.98132E-18
 -1      2904 9.28513E-05-1.80019E-05-3.20778E-05-8.82281E-06-4.26795E-19-1.35512E-18
 -1      2905 9.44775E-05-4.84298E-05-1.92601E-05-4.27377E-05-1.56383E-19-2.36404E-18
 -1      2906 1.11061E-04-5.52113E-05-2.40545E-05-3.71543E-05-7.91976E-19-2.31014E-18
 -1      2907 3.54365E-05-1.11325E-05-9.83944E-06 1.47620E-05-2.31822E-19-6.22569E-20
 -1      2908 3.50223E-05-9.35711E-06-1.04677E-05-2.33710E-06-2.32444E-19-1.94013E-18
 -1      2909 1.38540E-04-3.26622E-05-4.57235E-05 9.19626E-06 5.73335E-19 6.58568E-19
 -1      2910 1.35825E-04-2.36972E-05-4.87696E-05 1.05096E-05 1.29236E-18 1.30676E-18
 -1      2911 1.29814E-04-1.71487E-05-4.89343E-05-1.07050E-05 2.71262E-19-6.78579E-19
 -1      2912 1.33318E-04-2.49134E-05-4.69777E-05-1.16618E-05-2.63215E-19-1.48051E-18
 -1      2913 1.41111E-04-5.04678E-05-3.88269E-05-3.46896E-06-7.17834E-19-1.70656E-18
 -1      2914 1.41773E-04-4.31985E-05-4.28680E-05 3.11939E-06 2.54110E-21-1.37410E-18
 -1      2915 1.26498E-04-5.84500E-05-2.89694E-05-2.60598E-05-1.52683E-18-2.31981E-18
 -1      2916 1.36911E-04-5.71383E-05-3.45913E-05-1.51371E-05-1.70370E-18-2.70934E-18
 -1      2917 9.11794E-05-1.60892E-05-3.22094E-05 4.91905E-06 1.22269E-18-4.52572E-19
 -1      2918 9.08371E-05-1.55908E-05-3.22701E-05 3.99704E-06 1.15984E-18-6.33867E-19
 -1      2919 9.18152E-05-1.72023E-05-3.19619E-05 3.19983E-06 1.04784E-18-5.87399E-19
 -1      2920 9.24818E-05-1.82612E-05-3.17895E-05 4.61926E-06 1.16784E-18-3.71986E-19
 -1      2921 9.08011E-05-1.55429E-05-3.22749E-05-3.93331E-06 2.36854E-19-1.34627E-18
 -1      2922 9.11351E-05-1.60287E-05-3.22156E-05-4.85800E-06 1.20600E-19-1.40902E-18
 -1      2923 3.26028E-05-1.08943E-05-8.71947E-06 8.05488E-06 1.00797E-18 2.47588E-18
 -1      2924 3.05150E-05-9.36169E-06-8.45158E-06-6.25633E-06 1.31575E-18 1.02364E-18
 -1      2925 4.50211E-05-1.16868E-05-1.37497E-05 1.22055E-05 9.05584E-19 1.72138E-18
 -1      2926 1.32125E-04-6.45644E-06-5.44374E-05-2.60082E-07-2.38440E-19 4.57107E-19
 -1      2927 1.28120E-04-9.08853E-06-5.15978E-05-5.67390E-06-6.26804E-20 3.18484E-19
 -1      2928 3.24376E-05-1.27049E-05-7.86164E-06-2.00454E-05 7.13308E-19 6.71274E-20
 -1      2929 4.26490E-05-1.85041E-05-9.90703E-06-3.20200E-05 9.76417E-19-2.15570E-19
 -1      2930 9.29898E-05-2.49095E-05-2.92044E-05 5.39989E-06-6.89306E-19 8.92210E-19
 -1      2931 9.38494E-05-2.56899E-05-2.91853E-05 5.65657E-06 1.51951E-19-8.82980E-19
 -1      2932 9.23193E-05-2.49020E-05-2.89010E-05 5.96158E-06-4.54699E-19 5.71768E-19
 -1      2933 9.65326E-05-2.85865E-05-2.91144E-05 4.10320E-06 7.53656E-19 5.17271E-19
 -1      2934 9.67067E-05-2.88695E-05-2.90626E-05 3.59145E-06-7.16335E-19 2.08249E-18
 -1      2935 9.73205E-05-2.96536E-05-2.90132E-05 3.72439E-06-5.46925E-19 1.27551E-18
 -1      2936 9.69493E-05-2.92297E-05-2.90366E-05 4.74058E-06 8.82885E-20-6.56096E-19
 -1      2937 9.47450E-05-2.82929E-05-2.84795E-05-1.02314E-06 4.91025E-19-4.32559E-20
 -1      2938 9.47482E-05-2.81780E-05-2.85218E-05-8.97996E-07 5.24544E-19 6.81706E-20
 -1      2939 9.52042E-05-2.81212E-05-2.87564E-05-7.02108E-07 5.79025E-19-2.44030E-19
 -1      2940 9.51471E-05-2.84071E-05-2.86078E-05-1.02570E-06 4.99829E-19-4.70009E-19
 -1      2941 8.70044E-05-2.62604E-05-2.58241E-05-2.55182E-05-9.65009E-19 2.44343E-18
 -1      2942 8.49651E-05-2.26710E-05-2.66426E-05-2.34806E-05 2.66772E-19 2.28969E-18
 -1      2943 7.80418E-05-1.86200E-05-2.53324E-05-2.07779E-05-1.90424E-19 1.32197E-18
 -1      2944 1.41317E-04-5.49909E-05-3.74489E-05 9.77049E-06 1.02885E-18-3.46691E-18
 -1      2945 1.33174E-04-5.86194E-05-3.17192E-05 1.91186E-05 1.01689E-18-3.42445E-18
 -1      2946 9.12920E-05-1.63931E-05-3.20875E-05 2.86977E-08 6.18133E-19-8.63647E-19
 -1      2947 9.01694E-05-1.46035E-05-3.24048E-05-3.83209E-07 6.18876E-19-1.00947E-18
 -1      2948 9.02260E-05-1.46838E-05-3.23948E-05-1.34107E-06 4.78034E-19-1.08925E-18
 -1      2949 9.44849E-05-2.14001E-05-3.13163E-05 7.86719E-06 1.02534E-18 5.02704E-19
 -1      2950 9.87809E-05-4.94459E-05-2.07314E-05 4.01844E-05-2.28741E-18-1.42757E-18
 -1      2951 1.34444E-04-3.10923E-05-4.47774E-05-1.10339E-05-9.17125E-19-1.60158E-18
 -1      2952 1.33770E-04-3.63276E-05-4.19555E-05-9.96859E-06-7.34113E-19-1.74102E-18
 -1      2953 1.27589E-04-2.66044E-05-4.35420E-05-1.27526E-05-7.99811E-19-1.94595E-18
 -1      2954 1.27275E-04-5.81776E-05-2.95567E-05 2.17589E-05 5.08855E-19-2.58075E-18
 -1      2955 1.36401E-04-5.38701E-05-3.55165E-05-7.00041E-06-1.12862E-18-2.14416E-18
 -1      2956 1.35674E-04-3.77840E-05-4.21719E-05 8.37306E-06 7.14419E-19 7.20031E-19
 -1      2957 7.45241E-05-2.35902E-05-2.17247E-05 2.68178E-05-2.98050E-19-7.96052E-19
 -1      2958 5.46005E-05-2.33591E-05-1.28711E-05-3.59122E-05 1.26356E-18-1.44419E-18
 -1      2959 6.64360E-05-2.75230E-05-1.63492E-05-3.65814E-05 1.34382E-18-1.45838E-18
 -1      2960 5.09492E-05-1.75281E-05-1.40132E-05-2.92284E-05 1.47077E-18-1.06874E-18
 -1      2961 1.12789E-04-5.33955E-05-2.52686E-05-3.11505E-05-1.49067E-18-9.91730E-19
 -1      2962 1.20414E-04-5.73881E-05-2.68789E-05-2.94033E-05-1.29151E-18-1.61699E-18
 -1      2963 1.25316E-04-5.66820E-05-2.95192E-05-2.00855E-05-1.70500E-18-1.39152E-18
 -1      2964 7.43081E-05-3.63805E-05-1.62713E-05 4.16850E-05-9.20725E-19 4.29234E-19
 -1      2965 6.26738E-05-3.17850E-05-1.26984E-05 4.16842E-05-3.37649E-19-4.62374E-19
 -1      2966 5.86350E-05-2.52036E-05-1.37277E-05 3.67230E-05 1.07330E-18-6.63333E-19
 -1      2967 7.51463E-05-2.48275E-05-2.14101E-05-2.86306E-05-3.49110E-19 1.63747E-18
 -1      2968 9.44528E-05-2.68733E-05-2.89793E-05 6.33854E-06 8.83214E-19-1.05412E-18
 -1      2969 9.42176E-05-2.07508E-05-3.15187E-05-8.19141E-06-5.19357E-19-1.11980E-18
 -1      2970 9.47214E-05-2.26502E-05-3.09111E-05-6.43237E-06-4.65311E-19-1.04209E-18
 -1      2971 4.58959E-05-1.10572E-05-1.43589E-05-8.42174E-06-6.34653E-19-6.62697E-19
 -1      2972 9.10396E-05-2.21178E-05-2.95459E-05-6.61500E-06-1.63817E-18 2.72277E-18
 -1      2973 9.02150E-05-2.14787E-05-2.94846E-05-5.76787E-06-2.09673E-18 3.02649E-18
 -1      2974 8.88219E-05-2.07055E-05-2.91661E-05-5.39181E-06-2.00757E-18 2.06939E-18
 -1      2975 9.05438E-05-2.18381E-05-2.94396E-05-7.33220E-06-1.79831E-18 1.81649E-18
 -1      2976 9.53212E-05-2.56682E-05-2.98581E-05 2.59472E-06 8.25651E-19 7.48350E-21
 -1      2977 9.52047E-05-2.58911E-05-2.97005E-05 2.76671E-06 7.80647E-19 3.37229E-19
 -1      2978 9.52324E-05-2.55592E-05-2.98367E-05 3.46083E-06 7.77802E-19 5.35926E-19
 -1      2979 1.39157E-04-5.00952E-05-3.83113E-05 2.68754E-07 7.35807E-19-1.94563E-18
 -1      2980 9.24324E-05-1.81892E-05-3.17983E-05-4.57472E-06 1.25465E-20-1.28659E-18
 -1      2981 9.15630E-05-1.66791E-05-3.21149E-05-5.58049E-06 1.08644E-20-1.44121E-18
 -1      2982 9.20248E-05-1.73989E-05-3.20239E-05-6.44779E-06-2.24955E-19-1.50370E-18
 -1      2983 8.88896E-05-4.31265E-05-1.92164E-05-4.08849E-05 5.73865E-20-2.25607E-18
 -1      2984 1.18988E-04-9.08436E-06-4.76047E-05-5.37191E-06-6.39933E-19-1.55738E-18
 -1      2985 1.25018E-04-1.26171E-05-4.87125E-05-8.92368E-06-4.39187E-19-6.07058E-19
 -1      2986 1.21658E-04-1.64306E-05-4.54174E-05-1.03234E-05-9.58312E-19-2.54451E-18
 -1      2987 9.75315E-05-4.63166E-05-2.11677E-05-3.43253E-05-1.73991E-18 1.36865E-18
 -1      2988 4.81422E-05-1.85820E-05-1.23036E-05 3.02071E-05 9.89546E-19 9.00820E-19
 -1      2989 3.96850E-05-1.49922E-05-9.98627E-06 2.41114E-05 3.24096E-19 2.31664E-19
 -1      2990 4.52489E-05-1.22023E-05-1.35905E-05 1.63960E-05 4.72591E-19 9.30889E-19
 -1      2991 5.87090E-05-2.30044E-05-1.48425E-05 3.26796E-05 1.84876E-18-8.54656E-19
 -1      2992 1.31254E-04-1.85147E-05-4.87642E-05 1.09393E-05 1.10199E-18 1.01977E-18
 -1      2993 1.24129E-04-1.34124E-05-4.81431E-05 1.00408E-05 8.37186E-19 4.63353E-19
 -1      2994 1.26354E-04-2.28382E-05-4.46149E-05 1.23211E-05 1.21179E-18 1.12568E-18
 -1      2995 9.47476E-05-2.24163E-05-3.09677E-05 6.33999E-06 9.81611E-19 3.05158E-19
 -1      2996 9.03510E-05-1.48749E-05-3.23670E-05-2.17819E-06 4.55843E-19-1.04601E-18
 -1      2997 9.05352E-05-1.51385E-05-3.23347E-05-3.12927E-06 3.36662E-19-1.19628E-18
 -1      2998 9.17845E-05-1.71600E-05-3.19668E-05-3.14327E-06 2.04738E-19-1.20800E-18
 -1      2999 9.14097E-05-1.65763E-05-3.20588E-05-1.58361E-06 3.93261E-19-9.69945E-19
 -1      3000 1.25945E-04-7.52986E-06-5.12509E-05 2.23336E-06 7.46660E-19 5.90276E-20
 -1      3001 3.90538E-05-1.02279E-05-1.16835E-05-1.12538E-05 1.53535E-18 8.35598E-19
 -1      3002 9.45395E-05-2.22449E-05-3.09756E-05-5.83965E-06-3.60006E-19-1.11336E-18
 -1      3003 9.42683E-05-2.18661E-05-3.10647E-05 5.00069E-06 1.04466E-18-2.42113E-19
 -1      3004 9.38165E-05-2.09212E-05-3.12459E-05 4.61140E-06 1.09722E-18-3.72673E-19
 -1      3005 9.53803E-05-2.53543E-05-2.99874E-05 4.67886E-06 7.96787E-19 8.66502E-19
 -1      3006 1.05538E-04-5.08070E-05-2.35512E-05 3.45675E-05-1.35901E-18-1.88485E-18
 -1      3007 9.11073E-05-4.41422E-05-1.95048E-05 4.04256E-05-2.15866E-18-6.44698E-19
 -1      3008 8.44641E-05-3.84091E-05-1.93617E-05 3.81339E-05 1.82112E-20-1.00167E-18
 -1      3009 9.54989E-05-2.55661E-05-2.99557E-05-2.14179E-06-3.34037E-19-1.08987E-18
 -1      3010 9.55368E-05-2.62670E-05-2.97001E-05-1.33367E-06-4.26023E-19-1.07061E-18
 -1      3011 9.56820E-05-2.68769E-05-2.94732E-05-7.44204E-07-4.34234E-19-9.35480E-19
 -1      3012 9.56576E-05-2.73244E-05-2.92939E-05-2.18133E-07-3.30380E-19-8.24277E-19
 -1      3013 9.57090E-05-2.61982E-05-2.97915E-05-1.16967E-06-3.22212E-19-9.31469E-19
 -1      3014 9.57019E-05-2.77091E-05-2.91285E-05 1.63470E-07-3.60106E-19-7.96468E-19
 -1      3015 9.56654E-05-2.79956E-05-2.90062E-05 4.81025E-07-2.86248E-19-7.66989E-19
 -1      3016 9.58991E-05-2.73259E-05-2.93914E-05-1.61067E-07-3.49609E-19-7.26018E-19
 -1      3017 9.56564E-05-2.82422E-05-2.88840E-05 7.14103E-07-2.54616E-19-7.96829E-19
 -1      3018 9.56232E-05-2.84269E-05-2.88008E-05 8.89258E-07-3.34110E-19-7.39115E-19
 -1      3019 9.59395E-05-2.80587E-05-2.90948E-05 4.87448E-07-2.85064E-19-8.88804E-19
 -1      3020 9.55901E-05-2.85608E-05-2.87218E-05 9.96141E-07-4.94886E-19-7.40314E-19
 -1      3021 9.55683E-05-2.86659E-05-2.86730E-05 1.06602E-06-5.44865E-19-8.56416E-19
 -1      3022 9.59034E-05-2.85109E-05-2.88860E-05 8.53619E-07-3.56292E-19-1.10475E-18
 -1      3023 9.55261E-05-2.87371E-05-2.86209E-05 1.10178E-06-5.98844E-19-8.86397E-19
 -1      3024 9.55132E-05-2.87941E-05-2.85934E-05 1.11210E-06-5.02969E-19-9.25561E-19
 -1      3025 9.58334E-05-2.87627E-05-2.87476E-05 1.01821E-06-5.99782E-19-8.03271E-19
 -1      3026 9.54689E-05-2.88222E-05-2.85614E-05 1.10405E-06-4.03131E-19-8.31141E-19
 -1      3027 9.54630E-05-2.88463E-05-2.85489E-05 1.08103E-06-2.26510E-19-9.17045E-19
 -1      3028 9.57512E-05-2.88900E-05-2.86573E-05 1.06177E-06-3.97977E-19-6.51234E-19
 -1      3029 9.54201E-05-2.88452E-05-2.85317E-05 1.05018E-06-2.76698E-19-1.03246E-18
 -1      3030 9.54193E-05-2.88461E-05-2.85299E-05 1.01255E-06-4.94756E-19-1.17335E-18
 -1      3031 9.56674E-05-2.89320E-05-2.86029E-05 1.03469E-06-4.23428E-19-5.41081E-19
 -1      3032 9.53791E-05-2.88248E-05-2.85236E-05 9.74306E-07-5.45222E-19-1.02533E-18
 -1      3033 9.53819E-05-2.88090E-05-2.85295E-05 9.35645E-07-5.06258E-19-1.08301E-18
 -1      3034 9.55868E-05-2.89150E-05-2.85752E-05 9.74409E-07-3.59632E-19-4.51038E-19
 -1      3035 9.53443E-05-2.87730E-05-2.85315E-05 9.01291E-07-2.32998E-19-7.42183E-19
 -1      3036 9.53493E-05-2.87443E-05-2.85431E-05 8.71651E-07-4.64196E-20-8.01033E-19
 -1      3037 9.55107E-05-2.88562E-05-2.85674E-05 9.08385E-07-1.40862E-19-5.76276E-19
 -1      3038 9.53131E-05-2.86964E-05-2.85513E-05 8.49653E-07-2.37439E-19-9.51218E-19
 -1      3039 9.53193E-05-2.86566E-05-2.85676E-05 8.36875E-07-1.41881E-19-9.00620E-19
 -1      3040 9.54381E-05-2.87654E-05-2.85749E-05 8.56968E-07-1.89381E-19-7.48441E-19
 -1      3041 9.52820E-05-2.85971E-05-2.85810E-05 8.33949E-07 2.32123E-19-1.05089E-18
 -1      3042 9.52881E-05-2.85460E-05-2.86015E-05 8.44724E-07 3.87296E-19-8.82665E-19
 -1      3043 9.53655E-05-2.86469E-05-2.85942E-05 8.35745E-07 4.78292E-20-4.25271E-19
 -1      3044 9.52463E-05-2.84732E-05-2.86192E-05 8.66675E-07 3.91178E-19-5.66603E-19
 -1      3045 9.52506E-05-2.84088E-05-2.86439E-05 9.07398E-07 6.67890E-20-7.38864E-19
 -1      3046 9.52873E-05-2.84999E-05-2.86233E-05 8.57425E-07 3.92495E-19-6.58364E-19
 -1      3047 9.51988E-05-2.83188E-05-2.86657E-05 9.59784E-07-2.30041E-19-4.01817E-19
 -1      3048 9.51987E-05-2.82369E-05-2.86949E-05 1.03717E-06-4.20438E-19-5.09879E-19
 -1      3049 9.51946E-05-2.83186E-05-2.86607E-05 9.33268E-07-6.54345E-20-1.18242E-19
 -1      3050 9.51253E-05-2.81167E-05-2.87217E-05 1.13059E-06-3.00157E-19-1.83112E-19
 -1      3051 9.51137E-05-2.80043E-05-2.87578E-05 1.26077E-06-2.28579E-19-2.84086E-19
 -1      3052 9.50710E-05-2.80863E-05-2.87068E-05 1.07899E-06-9.54253E-20 7.91754E-19
 -1      3053 9.50116E-05-2.78543E-05-2.87866E-05 1.39381E-06-5.55201E-19-1.51675E-19
 -1      3054 9.49821E-05-2.77121E-05-2.88265E-05 1.57287E-06-1.95497E-19-2.28217E-19
 -1      3055 9.48978E-05-2.77874E-05-2.87594E-05 1.30363E-06-3.24070E-19 3.86411E-19
 -1      3056 9.48320E-05-2.75133E-05-2.88574E-05 1.75493E-06-2.29406E-21-6.87123E-19
 -1      3057 9.47699E-05-2.73223E-05-2.89026E-05 1.99958E-06-4.40785E-19-1.45622E-19
 -1      3058 9.46512E-05-2.74073E-05-2.88149E-05 1.61146E-06-3.01948E-19 3.80209E-19
 -1      3059 9.45448E-05-2.70549E-05-2.89331E-05 2.23727E-06-6.13561E-19-2.79504E-19
 -1      3060 9.44278E-05-2.67952E-05-2.89821E-05 2.56023E-06-2.71222E-19 5.22189E-21
 -1      3061 9.42845E-05-2.69047E-05-2.88705E-05 2.01651E-06-6.05219E-19 2.42445E-20
 -1      3062 9.40891E-05-2.64333E-05-2.90075E-05 2.85925E-06-3.84610E-19-2.75381E-20
 -1      3063 9.38828E-05-2.60792E-05-2.90563E-05 3.27421E-06-6.93996E-19 1.31049E-19
 -1      3064 9.37347E-05-2.62341E-05-2.89184E-05 2.52605E-06-7.63738E-19-1.63648E-20
 -1      3065 9.33753E-05-2.55901E-05-2.90675E-05 3.63805E-06-9.59092E-19-1.66376E-20
 -1      3066 9.30287E-05-2.51107E-05-2.91073E-05 4.15823E-06-9.79991E-19-7.01834E-19
 -1      3067 9.29109E-05-2.53376E-05-2.89436E-05 3.14140E-06-8.83469E-19 1.97614E-19
 -1      3068 9.22755E-05-2.44569E-05-2.90881E-05 4.58653E-06-6.52129E-19-9.08798E-19
 -1      3069 9.17169E-05-2.38199E-05-2.91017E-05 5.22269E-06-2.78713E-19-1.28650E-18
 -1      3070 9.16853E-05-2.41469E-05-2.89198E-05 3.85358E-06-8.27553E-19-8.24909E-19
 -1      3071 9.06139E-05-2.29658E-05-2.90239E-05 5.71071E-06-5.15423E-19-1.23516E-18
 -1      3072 8.97500E-05-2.21492E-05-2.89801E-05 6.47014E-06-7.67445E-19-1.57202E-18
 -1      3073 8.98825E-05-2.25912E-05-2.88012E-05 4.63930E-06-4.24942E-19-8.00452E-19
 -1      3074 8.81619E-05-2.10763E-05-2.87955E-05 7.01314E-06-2.97506E-19-1.43723E-18
 -1      3075 8.68860E-05-2.00938E-05-2.86397E-05 7.90460E-06 1.73013E-20-1.63975E-18
 -1      3076 8.72700E-05-2.06162E-05-2.85101E-05 5.46233E-06-3.79345E-19-1.69814E-19
 -1      3077 8.46418E-05-1.88310E-05-2.82676E-05 8.51617E-06 6.40362E-20-1.32697E-18
 -1      3078 8.28635E-05-1.77817E-05-2.79087E-05 9.57266E-06 5.60828E-21-1.64353E-18
 -1      3079 8.35499E-05-1.82209E-05-2.79162E-05 6.29289E-06 4.25336E-20-3.87220E-19
 -1      3080 7.97513E-05-1.64608E-05-2.72130E-05 1.03357E-05-1.14267E-19-2.08790E-18
 -1      3081 7.74640E-05-1.56261E-05-2.65066E-05 1.16816E-05 5.62648E-20-1.89598E-18
 -1      3082 7.83446E-05-1.55174E-05-2.68016E-05 7.17134E-06-2.15021E-19 1.83369E-19
 -1      3083 7.29244E-05-1.43968E-05-2.51736E-05 1.28621E-05 2.61710E-19-1.62153E-18
 -1      3084 6.99965E-05-1.46862E-05-2.37293E-05 1.51710E-05 1.31280E-19-1.11365E-18
 -1      3085 7.10127E-05-1.28525E-05-2.47210E-05 8.38996E-06 3.92939E-19-6.92446E-19
 -1      3086 8.62536E-05-1.96398E-05-2.85836E-05-2.88053E-06-1.34742E-18 1.15620E-18
 -1      3087 8.61966E-05-1.97138E-05-2.84915E-05-9.52514E-07-2.03151E-18 2.13527E-18
 -1      3088 7.66871E-05-1.57513E-05-2.60852E-05-1.36005E-05-6.39328E-19-1.30142E-19
 -1      3089 7.89794E-05-1.64023E-05-2.69166E-05-1.22015E-05-1.21538E-18-5.56851E-19
 -1      3090 7.01277E-05-1.54678E-05-2.32450E-05-1.71011E-05-1.41069E-18 8.39529E-19
 -1      3091 7.20601E-05-1.47826E-05-2.46247E-05-1.51094E-05-1.17614E-18-5.90276E-20
 -1      3092 6.98713E-05-1.27608E-05-2.42065E-05-9.88491E-06-9.89464E-19-2.04163E-18
 -1      3093 8.23688E-05-1.75883E-05-2.77597E-05-1.14032E-05-1.91776E-18 1.83811E-19
 -1      3094 8.42053E-05-1.85122E-05-2.82185E-05-1.02407E-05-1.71007E-18-7.72289E-19
 -1      3095 7.77706E-05-1.54451E-05-2.65814E-05-8.66510E-06-1.52329E-18-1.44089E-18
 -1      3096 8.66671E-05-1.97191E-05-2.87138E-05-9.58937E-06-8.00600E-19 1.06293E-20
 -1      3097 8.80285E-05-2.05111E-05-2.89693E-05-8.62344E-06-9.70386E-19 8.10220E-19
 -1      3098 8.33382E-05-1.78965E-05-2.79883E-05-7.97750E-06-1.24895E-18 1.49279E-18
 -1      3099 9.55782E-05-2.76784E-05-2.91060E-05-1.53452E-07 6.13116E-19-5.44548E-19
 -1      3100 9.56226E-05-2.73301E-05-2.92543E-05 2.71300E-07 5.49797E-19-4.54997E-19
 -1      3101 9.55485E-05-2.68551E-05-2.94503E-05 7.71699E-07 5.77091E-19-2.33452E-19
 -1      3102 9.55715E-05-2.63084E-05-2.96672E-05 1.45208E-06 6.63480E-19-2.56460E-19
 -1      3103 9.57677E-05-2.68113E-05-2.95555E-05 6.71925E-07 7.15982E-19-5.96453E-19
 -1      3104 9.54018E-05-2.87867E-05-2.85485E-05-1.12149E-06 1.13156E-19 4.04648E-19
 -1      3105 9.54056E-05-2.87443E-05-2.85669E-05-1.12863E-06 1.35005E-19 3.12864E-19
 -1      3106 9.54465E-05-2.86944E-05-2.86080E-05-1.11387E-06-3.15073E-20-7.45921E-20
 -1      3107 9.54597E-05-2.86132E-05-2.86443E-05-1.07303E-06 8.39860E-20-1.54944E-19
 -1      3108 9.57141E-05-2.87953E-05-2.86823E-05-1.06959E-06-1.80841E-19 3.20659E-19
 -1      3109 9.53342E-05-2.88063E-05-2.85104E-05-9.90215E-07 2.20268E-19 2.45148E-19
 -1      3110 9.53272E-05-2.88094E-05-2.85076E-05-1.03170E-06 2.35733E-19 1.59793E-19
 -1      3111 9.53102E-05-2.87667E-05-2.85169E-05-9.10990E-07 2.30552E-19 1.24336E-19
 -1      3112 9.53003E-05-2.87827E-05-2.85082E-05-9.50180E-07 2.64531E-19 2.96734E-19
 -1      3113 9.54945E-05-2.88723E-05-2.85537E-05-9.60494E-07 2.52013E-19 2.86147E-19
 -1      3114 9.52917E-05-2.87079E-05-2.85341E-05-8.48604E-07 3.65404E-19 1.22640E-19
 -1      3115 9.52796E-05-2.87326E-05-2.85212E-05-8.77481E-07 2.87258E-19-2.31826E-20
 -1      3116 9.54316E-05-2.88115E-05-2.85525E-05-8.92130E-07 2.21585E-19 1.99389E-19
 -1      3117 9.52785E-05-2.86365E-05-2.85589E-05-8.15524E-07-3.00555E-19 9.24976E-19
 -1      3118 9.52642E-05-2.86669E-05-2.85430E-05-8.28491E-07 1.86202E-19 6.89375E-19
 -1      3119 9.53745E-05-2.87291E-05-2.85631E-05-8.42339E-07-7.13267E-20 5.59801E-19
 -1      3120 9.52714E-05-2.85581E-05-2.85893E-05-8.20478E-07-3.04008E-19 1.06113E-18
 -1      3121 9.52540E-05-2.85913E-05-2.85712E-05-8.13745E-07-2.45545E-19 9.85602E-19
 -1      3122 9.53230E-05-2.86328E-05-2.85821E-05-8.23443E-07-1.95294E-19 1.24829E-18
 -1      3123 9.52724E-05-2.84784E-05-2.86238E-05-8.69214E-07 1.58572E-19 7.09543E-19
 -1      3124 9.52502E-05-2.85114E-05-2.86039E-05-8.40529E-07-8.68243E-20 6.28597E-19
 -1      3125 9.52774E-05-2.85288E-05-2.86071E-05-8.44315E-07 3.86520E-20 1.01808E-18
 -1      3126 9.52860E-05-2.84049E-05-2.86610E-05-9.64602E-07-3.86566E-19 9.71191E-19
 -1      3127 9.52561E-05-2.84334E-05-2.86398E-05-9.13318E-07-7.85543E-20 1.01363E-18
 -1      3128 9.52396E-05-2.84239E-05-2.86359E-05-9.11090E-07-3.46944E-19 9.08537E-19
 -1      3129 9.53196E-05-2.83485E-05-2.86994E-05-1.10607E-06-6.74281E-19 9.81397E-19
 -1      3130 9.52777E-05-2.83666E-05-2.86776E-05-1.03357E-06-6.26300E-19 1.32788E-18
 -1      3131 9.52143E-05-2.83273E-05-2.86666E-05-1.02727E-06-5.72581E-19 8.27426E-19
 -1      3132 9.53857E-05-2.83257E-05-2.87375E-05-1.28829E-06-6.42248E-19 7.22309E-19
 -1      3133 9.53253E-05-2.83243E-05-2.87157E-05-1.19880E-06-5.74257E-19 1.24914E-18
 -1      3134 9.52105E-05-2.82528E-05-2.86972E-05-1.19316E-06-7.82964E-19 1.03571E-18
 -1      3135 9.55031E-05-2.83601E-05-2.87732E-05-1.49901E-06-3.77395E-19 7.68994E-19
 -1      3136 9.54151E-05-2.83269E-05-2.87524E-05-1.40080E-06-4.58601E-19 8.15346E-19
 -1      3137 9.52436E-05-2.82211E-05-2.87256E-05-1.40457E-06-5.91029E-19 5.95848E-19
 -1      3138 9.56990E-05-2.84844E-05-2.88043E-05-1.71599E-06-3.13756E-19 5.13788E-19
 -1      3139 9.55711E-05-2.84027E-05-2.87855E-05-1.62299E-06-1.22542E-19 8.67338E-19
 -1      3140 9.53379E-05-2.82623E-05-2.87494E-05-1.65047E-06-7.08513E-20 1.20712E-18
 -1      3141 9.60099E-05-2.87403E-05-2.88287E-05-1.90313E-06 1.09512E-19 5.30121E-19
 -1      3142 9.58268E-05-2.85896E-05-2.88132E-05-1.83678E-06-3.54596E-19 2.64150E-19
 -1      3143 9.55293E-05-2.84172E-05-2.87667E-05-1.90972E-06-5.59079E-20 7.00207E-19
 -1      3144 9.64815E-05-2.91752E-05-2.88459E-05-2.00608E-06-1.47076E-19 6.08615E-19
 -1      3145 9.62258E-05-2.89335E-05-2.88340E-05-1.99709E-06 1.17388E-19 6.40444E-19
 -1      3146 9.58670E-05-2.87376E-05-2.87763E-05-2.14640E-06-3.50861E-20 1.63443E-19
 -1      3147 9.71634E-05-2.98338E-05-2.88584E-05-1.94815E-06 3.71205E-19 8.12859E-19
 -1      3148 9.68191E-05-2.94828E-05-2.88492E-05-2.03755E-06 2.63957E-19 9.98278E-19
 -1      3149 9.64128E-05-2.92820E-05-2.87798E-05-2.30401E-06 2.21934E-20 7.26279E-19
 -1      3150 9.80976E-05-3.07400E-05-2.88742E-05-1.62882E-06 8.84692E-19 7.63247E-19
 -1      3151 9.76570E-05-3.02758E-05-2.88639E-05-1.86677E-06 5.53289E-19 9.21543E-19
 -1      3152 9.72360E-05-3.01037E-05-2.87837E-05-2.29911E-06 3.78709E-19 1.18338E-18
 -1      3153 9.92953E-05-3.18658E-05-2.89100E-05-9.29122E-07 6.20388E-19 8.54632E-19
 -1      3154 9.87711E-05-3.13154E-05-2.88911E-05-1.36903E-06 1.43229E-18 1.57026E-18
 -1      3155 9.83972E-05-3.12277E-05-2.88027E-05-2.01649E-06 5.25965E-19 1.30006E-18
 -1      3156 1.00700E-04-3.30881E-05-2.89942E-05 2.67798E-07 1.26796E-20 8.21647E-19
 -1      3157 1.00142E-04-3.25317E-05-2.89538E-05-4.16128E-07-1.54675E-20 1.03477E-18
 -1      3158 9.99181E-05-3.26106E-05-2.88632E-05-1.31173E-06 4.19237E-19 1.73637E-18
 -1      3159 1.02145E-04-3.41413E-05-2.91667E-05 2.02814E-06-5.82413E-19 5.45087E-19
 -1      3160 1.01653E-04-3.37322E-05-2.90871E-05 1.09776E-06-2.40118E-19 9.48313E-19
 -1      3161 1.01731E-04-3.40843E-05-2.90060E-05-3.28540E-08 2.25133E-20 1.37244E-18
 -1      3162 1.03319E-04-3.45984E-05-2.94733E-05 4.27880E-06-1.26359E-18 1.04750E-18
 -1      3163 1.03046E-04-3.45620E-05-2.93358E-05 3.18300E-06-8.49205E-19 1.01427E-18
 -1      3164 1.03617E-04-3.52964E-05-2.92857E-05 1.91869E-06-6.75773E-19 1.45990E-18
 -1      3165 1.03799E-04-3.39374E-05-2.99506E-05 6.68536E-06-7.77835E-19 7.44034E-19
 -1      3166 1.03913E-04-3.45188E-05-2.97429E-05 5.63745E-06-8.36565E-19 6.48879E-19
 -1      3167 1.05162E-04-3.56957E-05-2.97602E-05 4.46861E-06-1.05778E-18 2.28370E-18
 -1      3168 1.03200E-04-3.17789E-05-3.05958E-05 8.54456E-06-6.77960E-19-4.66120E-20
 -1      3169 1.03790E-04-3.30952E-05-3.03261E-05 7.90871E-06-6.98351E-19 4.31003E-19
 -1      3170 1.05794E-04-3.46335E-05-3.04664E-05 7.19455E-06-6.40835E-19 9.77045E-19
 -1      3171 1.01500E-04-2.82899E-05-3.13346E-05 8.90011E-06-1.75086E-18 5.48346E-19
 -1      3172 1.02456E-04-3.01463E-05-3.10423E-05 9.08818E-06-1.26080E-18 2.21726E-20
 -1      3173 1.05050E-04-3.17504E-05-3.13747E-05 9.18146E-06-9.50230E-19-4.73369E-19
 -1      3174 9.92674E-05-2.44497E-05-3.20130E-05 6.96001E-06-9.79795E-19 8.45958E-20
 -1      3175 1.00241E-04-2.62494E-05-3.17679E-05 8.22442E-06-1.27757E-18 2.29316E-19
 -1      3176 1.03004E-04-2.74417E-05-3.23572E-05 9.26963E-06-1.72479E-18-2.74710E-19
 -1      3177 9.76506E-05-2.19206E-05-3.24271E-05 2.79076E-06 2.20770E-19 3.77968E-19
 -1      3178 9.81668E-05-2.28549E-05-3.23103E-05 4.91938E-06-7.91512E-19-2.25245E-19
 -1      3179 1.00549E-04-2.31298E-05-3.31803E-05 6.56820E-06-6.26265E-19-1.08000E-18
 -1      3180 9.76195E-05-2.19877E-05-3.24289E-05-2.30629E-06 3.93126E-19 9.59457E-19
 -1      3181 9.74183E-05-2.15977E-05-3.24823E-05 3.03538E-09 5.08142E-19 8.63261E-19
 -1      3182 9.91649E-05-2.08846E-05-3.35786E-05 1.53768E-06-1.61719E-19-3.86154E-20
 -1      3183 9.92481E-05-2.46622E-05-3.20180E-05-6.47000E-06 4.68331E-19 1.01885E-18
 -1      3184 9.84266E-05-2.31320E-05-3.22241E-05-4.78591E-06 9.02404E-19 1.38808E-18
 -1      3185 9.97561E-05-2.18252E-05-3.34116E-05-3.99533E-06 6.73433E-19 3.72939E-19
 -1      3186 1.01572E-04-2.86083E-05-3.13313E-05-8.37667E-06-7.19791E-19 2.02747E-18
 -1      3187 1.00556E-04-2.66574E-05-3.16234E-05-7.75656E-06-3.03876E-19 1.89420E-18
 -1      3188 1.01965E-04-2.55694E-05-3.27395E-05-7.83926E-06-2.18490E-19 9.91507E-19
 -1      3189 1.03380E-04-3.21314E-05-3.05756E-05-7.91600E-06 7.91877E-19 1.82009E-18
 -1      3190 1.02616E-04-3.05211E-05-3.08710E-05-8.27406E-06 1.10451E-19 2.28407E-18
 -1      3191 1.04400E-04-3.01583E-05-3.17833E-05-8.87922E-06-3.57508E-19 2.28886E-18
 -1      3192 1.04029E-04-3.42535E-05-2.99170E-05-5.90663E-06 1.60888E-18 1.99670E-18
 -1      3193 1.03729E-04-3.33540E-05-3.01600E-05-6.86969E-06 1.16019E-18 1.86194E-18
 -1      3194 1.05804E-04-3.38154E-05-3.08130E-05-7.49437E-06 6.88907E-19 1.92604E-18
 -1      3195 1.03515E-04-3.48162E-05-2.94344E-05-3.34777E-06 1.58682E-18 3.21026E-18
 -1      3196 1.03671E-04-3.46373E-05-2.96032E-05-4.49908E-06 1.69660E-18 2.68918E-18
 -1      3197 1.05760E-04-3.56775E-05-3.00140E-05-4.85224E-06 1.06046E-18 2.55111E-18
 -1      3198 1.02233E-04-3.42070E-05-2.91340E-05-9.88616E-07 2.27295E-18 3.12586E-18
 -1      3199 1.02699E-04-3.45432E-05-2.92328E-05-2.03271E-06 2.11112E-18 2.74434E-18
 -1      3200 1.04532E-04-3.57985E-05-2.94561E-05-2.04701E-06 1.54732E-18 2.40467E-18
 -1      3201 1.00631E-04-3.29491E-05-2.89825E-05 8.00496E-07 1.88966E-18 2.73193E-18
 -1      3202 1.01243E-04-3.35606E-05-2.90275E-05 1.16200E-08 2.29989E-18 3.06966E-18
 -1      3203 1.02683E-04-3.47455E-05-2.91274E-05 2.60601E-07 2.25064E-18 1.17792E-18
 -1      3204 9.90286E-05-3.14701E-05-2.89356E-05 1.91691E-06 5.13808E-19 1.87587E-18
 -1      3205 9.96639E-05-3.21650E-05-2.89445E-05 1.43352E-06 1.93992E-18 2.97521E-18
 -1      3206 1.00709E-04-3.31271E-05-2.89775E-05 1.83904E-06 2.39357E-18 2.26255E-18
 -1      3207 9.78427E-05-3.02757E-05-2.89479E-05 2.46432E-06-9.45672E-19 1.79803E-18
 -1      3208 9.84056E-05-3.09151E-05-2.89380E-05 2.22246E-06-1.03496E-18 1.38575E-18
 -1      3209 9.91385E-05-3.16024E-05-2.89470E-05 2.69982E-06 7.73565E-19 1.11973E-18
 -1      3210 9.79589E-05-3.03438E-05-2.89727E-05 3.10203E-06-1.70920E-19 2.93319E-19
 -1      3211 9.27934E-05-1.83871E-05-3.18897E-05-7.48655E-06-2.57615E-19-1.40748E-18
 -1      3212 6.45716E-05-1.71821E-05-2.01011E-05-2.25830E-05-4.97321E-19 9.65300E-19
 -1      3213 9.34807E-05-1.98259E-05-3.15491E-05-6.20337E-06-2.51948E-19-1.33858E-18
 -1      3214 9.64129E-05-2.90143E-05-2.88915E-05 6.48466E-06 1.63806E-18-6.82757E-19
 -1      3215 9.71136E-05-2.95987E-05-2.89186E-05 5.95439E-06 1.46019E-18-8.18667E-19
 -1      3216 8.66585E-05-2.04340E-05-2.84221E-05 1.38212E-06-2.34423E-18 4.24017E-19
 -1      3217 8.74510E-05-2.11127E-05-2.84059E-05 3.12609E-06-1.62524E-18 2.06920E-19
 -1      3218 8.50946E-05-1.95811E-05-2.80485E-05 7.38379E-07-1.94341E-18 1.87506E-18
 -1      3219 8.87095E-05-2.24458E-05-2.84448E-05 4.79938E-06-1.44574E-18 4.39092E-20
 -1      3220 8.99927E-05-2.34421E-05-2.84819E-05 5.93395E-06-1.14846E-18-4.51368E-19
 -1      3221 8.71382E-05-2.17051E-05-2.80289E-05 4.92179E-06-9.77737E-19 6.38495E-20
 -1      3222 9.43319E-05-2.72925E-05-2.87519E-05 7.20090E-06 7.08105E-19-1.48107E-18
 -1      3223 9.54599E-05-2.81808E-05-2.88022E-05 7.06182E-06 1.35490E-18-2.41315E-18
 -1      3224 9.64425E-05-2.95744E-05-2.86831E-05 7.41228E-06 1.11990E-18-1.51313E-18
 -1      3225 9.53005E-05-2.45488E-05-3.03479E-05 4.84169E-06 8.77467E-19 3.08942E-19
 -1      3226 9.15548E-05-2.49512E-05-2.85818E-05 6.75262E-06-5.31724E-20-6.71482E-19
 -1      3227 9.29389E-05-2.60167E-05-2.86400E-05 7.20999E-06 6.05691E-19-3.39907E-19
 -1      3228 9.37647E-05-2.74475E-05-2.84479E-05 8.13980E-06 1.60340E-18-1.37992E-18
 -1      3229 9.03826E-05-2.46137E-05-2.81984E-05 7.42528E-06-1.61210E-19-8.44499E-19
 -1      3230 9.49601E-05-2.35132E-05-3.06195E-05-4.14930E-06-3.11819E-19-1.17806E-18
 -1      3231 9.51574E-05-2.45941E-05-3.02598E-05-2.96594E-06-3.07644E-19-1.16537E-18
 -1      3232 9.52450E-05-2.44754E-05-3.03278E-05-2.62380E-06-2.62099E-19-1.17511E-18
 -1      3233 5.89489E-05-1.29351E-05-1.94422E-05-1.67413E-05-7.81732E-19-3.20231E-19
 -1      3234 9.47476E-05-2.29724E-05-3.07484E-05 4.95267E-06 9.71595E-19-2.45176E-20
 -1      3235 1.30204E-04-5.69942E-05-3.17802E-05 1.29261E-05 2.60860E-19-2.34141E-18
 -1      3236 1.20252E-04-5.55189E-05-2.75182E-05 2.35758E-05-3.11576E-19-2.53300E-18
 -1      3237 9.53645E-05-2.88175E-05-2.85189E-05-1.06866E-06 2.60584E-19 3.13475E-19
 -1      3238 9.53618E-05-2.88019E-05-2.85247E-05-1.10105E-06 2.29324E-19 4.31177E-19
 -1      3239 9.56375E-05-2.88830E-05-2.86113E-05-1.07772E-06 1.98300E-19 3.51638E-19
 -1      3240 9.55634E-05-2.89013E-05-2.85712E-05-1.03031E-06 2.93110E-19 2.82120E-20
 -1      3241 6.43950E-05-1.60544E-05-2.01806E-05 2.08527E-05 3.28622E-20-2.16152E-19
 -1      3242 8.25724E-05-3.71915E-05-1.90840E-05-3.85804E-05 1.46113E-20-1.53832E-18
 -1      3243 9.74791E-05-4.58560E-05-2.20524E-05-3.67973E-05-5.03985E-19-1.67368E-18
 -1      3244 1.33712E-04-4.24791E-05-3.91304E-05 7.34978E-06 6.33581E-19 1.08632E-19
 -1      3245 1.29519E-04-3.36315E-05-4.15376E-05 1.13716E-05 1.95855E-18 1.20903E-18
 -1      3246 4.27134E-05-8.33329E-06-1.44790E-05-5.05058E-06 1.64776E-18 1.29109E-18
 -1      3247 4.48381E-05-1.11026E-05-1.38959E-05-1.83336E-05 1.75140E-18 6.17275E-20
 -1      3248 9.23754E-05-1.83409E-05-3.17443E-05 1.81264E-06 8.96051E-19-6.00266E-19
 -1      3249 9.22565E-05-1.81393E-05-3.17763E-05 1.05834E-06 7.70414E-19-6.78516E-19
 -1      3250 9.50029E-05-2.37672E-05-3.05118E-05 3.81394E-06 9.09488E-19-1.94626E-19
 -1      3251 1.31854E-04-5.48940E-05-3.29481E-05-9.36503E-06-1.76918E-18-1.59658E-18
 -1      3252 1.34487E-04-5.01480E-05-3.65641E-05-1.53610E-07-9.05293E-19-9.39518E-19
 -1      3253 1.21380E-04-9.48404E-06-4.84403E-05 6.37336E-06 3.95882E-19-8.00711E-19
 -1      3254 1.17936E-04-7.91638E-06-4.76523E-05 1.54574E-06 4.55810E-19-1.10771E-18
 -1      3255 1.18297E-04-1.39644E-05-4.50181E-05 8.47111E-06 2.15252E-19-7.98673E-19
 -1      3256 1.35271E-04-4.50285E-05-3.91886E-05-5.36715E-06 3.39448E-19-2.50219E-18
 -1      3257 1.34758E-04-5.15307E-05-3.55108E-05 1.50805E-06 3.06097E-19-2.85328E-18
 -1      3258 6.46610E-05-1.36691E-05-2.17350E-05 1.50353E-05 5.06949E-19-2.81691E-19
 -1      3259 5.19321E-05-1.15802E-05-1.71207E-05 1.39155E-05 1.08083E-18 1.28378E-18
 -1      3260 4.71512E-05-8.47707E-06-1.59443E-05 4.27473E-06 1.16572E-18 2.01149E-18
 -1      3261 6.06058E-05-1.01125E-05-2.11969E-05 8.15286E-06 1.11955E-18 8.18287E-19
 -1      3262 1.15129E-04-5.35603E-05-2.61964E-05 2.73181E-05-4.27593E-19-2.53087E-18
 -1      3263 1.06869E-04-4.85939E-05-2.49319E-05 2.90552E-05-5.78894E-19-1.91390E-18
 -1      3264 1.19116E-04-5.26787E-05-2.84709E-05 1.82634E-05-4.71288E-19-2.82983E-18
 -1      3265 5.26240E-05-9.12483E-06-1.84171E-05-3.16177E-06-4.04061E-19-5.77041E-20
 -1      3266 9.43238E-05-2.19783E-05-3.09919E-05 3.61955E-06 1.01444E-18-4.02850E-19
 -1      3267 9.34327E-05-2.02080E-05-3.14057E-05 4.25285E-06 1.14657E-18-3.79976E-19
 -1      3268 9.30776E-05-1.95532E-05-3.15195E-05 3.65137E-06 1.03462E-18-3.71283E-19
 -1      3269 1.21421E-04-2.25465E-05-4.27869E-05-1.23567E-05-8.02828E-19-2.78433E-18
 -1      3270 1.22289E-04-2.69348E-05-4.10080E-05-1.24151E-05-1.09341E-18-2.76517E-18
 -1      3271 9.25284E-05-1.86037E-05-3.16925E-05-2.37326E-06 2.32446E-19-1.06690E-18
 -1      3272 9.27582E-05-1.90053E-05-3.16264E-05-3.08485E-06 1.06380E-19-1.10970E-18
 -1      3273 5.40095E-05-1.51508E-05-1.62375E-05-2.24160E-05 2.02994E-18-6.40622E-19
 -1      3274 8.67322E-05-1.96417E-05-2.87499E-05-5.65968E-06-4.74462E-19 1.87173E-18
 -1      3275 8.48119E-05-1.88272E-05-2.82938E-05-4.51595E-06-9.65728E-19 1.93376E-18
 -1      3276 1.06445E-04-4.93397E-05-2.42089E-05-3.18928E-05-4.66927E-19-1.06615E-18
 -1      3277 1.12918E-04-5.11340E-05-2.65279E-05-2.50617E-05-8.53306E-19-6.24697E-19
 -1      3278 9.97330E-05-4.41477E-05-2.37155E-05-3.12279E-05-5.49036E-19-1.35610E-18
 -1      3279 1.30678E-04-3.98577E-05-3.90459E-05-9.03011E-06-2.27164E-19-2.93608E-18
 -1      3280 9.55850E-05-2.79738E-05-2.89662E-05-4.62828E-07 5.47207E-19-3.84866E-19
 -1      3281 9.58533E-05-2.77036E-05-2.92109E-05-1.77008E-07 5.68539E-19-8.43493E-19
 -1      3282 9.55468E-05-2.81952E-05-2.88681E-05-7.06462E-07 5.34780E-19-4.20160E-19
 -1      3283 8.99800E-05-2.15540E-05-2.93395E-05-8.05119E-06-1.95435E-18 1.81027E-18
 -1      3284 1.30564E-04-4.58302E-05-3.64521E-05 4.20892E-06-1.69989E-19-3.86459E-21
 -1      3285 9.57868E-05-2.86055E-05-2.87954E-05-9.60473E-07 1.77189E-19-1.86306E-20
 -1      3286 9.54970E-05-2.85117E-05-2.87092E-05-9.97494E-07 4.19072E-19-2.95944E-19
 -1      3287 9.55223E-05-2.83740E-05-2.87712E-05-8.76996E-07 5.14841E-19-3.18363E-19
 -1      3288 9.79657E-05-3.03422E-05-2.89716E-05 3.73621E-06-4.22907E-19 3.31286E-19
 -1      3289 9.85356E-05-3.10089E-05-2.89483E-05 3.63426E-06-2.66436E-19 7.07027E-19
 -1      3290 9.78432E-05-3.02042E-05-2.89832E-05 4.26699E-06-6.04094E-19 6.03408E-19
 -1      3291 5.14056E-05-9.81584E-06-1.75585E-05 6.42739E-06 2.42026E-19 9.49630E-19
 -1      3292 6.18428E-05-1.11945E-05-2.16218E-05-1.78670E-06-6.10975E-19 5.49248E-19
 -1      3293 7.04121E-05-2.59822E-05-1.88630E-05-3.22472E-05 5.76327E-19-3.52260E-19
 -1      3294 7.65729E-05-3.20495E-05-1.87799E-05-3.65912E-05 1.70968E-19-8.48198E-19
 -1      3295 8.55339E-05-3.53178E-05-2.13784E-05-3.30705E-05-2.11136E-19-1.26997E-18
 -1      3296 9.53639E-05-2.55420E-05-2.99355E-05 2.19498E-06 8.20632E-19-1.81008E-19
 -1      3297 9.52867E-05-2.46991E-05-3.02476E-05 3.20568E-06 9.46743E-19-8.16669E-20
 -1      3298 9.30444E-05-1.95014E-05-3.15276E-05-3.61113E-06 9.22720E-21-1.08838E-18
 -1      3299 9.34002E-05-2.01538E-05-3.14168E-05-4.22516E-06-1.13845E-19-1.23438E-18
 -1      3300 9.37370E-05-2.07521E-05-3.12650E-05-2.80296E-06-3.50376E-20-1.04540E-18
 -1      3301 1.15630E-04-9.42043E-06-4.59570E-05-1.63188E-06-2.36322E-19-2.79092E-18
 -1      3302 1.12939E-04-1.16597E-05-4.36746E-05-4.15721E-06-9.19454E-19-3.80891E-18
 -1      3303 1.11914E-04-1.03399E-05-4.37030E-05 2.02666E-06-3.07526E-19-3.45364E-18
 -1      3304 9.25515E-05-1.86373E-05-3.16883E-05 2.42214E-06 9.47096E-19-5.66258E-19
 -1      3305 9.33625E-05-2.00133E-05-3.14178E-05 1.79913E-06 8.55876E-19-5.09194E-19
 -1      3306 9.27880E-05-1.90491E-05-3.16208E-05 3.12757E-06 1.04611E-18-4.02740E-19
 -1      3307 1.26330E-04-2.88220E-05-4.20609E-05 1.29157E-05 1.66569E-18 8.31945E-19
 -1      3308 1.21056E-04-2.32447E-05-4.22271E-05 1.28531E-05 1.09151E-18-4.29605E-19
 -1      3309 1.24790E-04-3.36027E-05-3.92663E-05 1.15097E-05 1.73917E-18 2.06544E-19
 -1      3310 1.16179E-04-1.71472E-05-4.26745E-05-1.04021E-05-6.54651E-19-3.30758E-18
 -1      3311 8.77327E-05-2.01985E-05-2.89171E-05-6.89240E-06-6.15982E-19 2.27536E-18
 -1      3312 1.29540E-04-5.26705E-05-3.30001E-05 5.39997E-06-4.70315E-19-3.71975E-18
 -1      3313 5.09129E-05-9.08311E-06-1.76716E-05-2.04346E-06 1.24698E-18 1.16181E-18
 -1      3314 9.49429E-05-2.35969E-05-3.05671E-05 3.36020E-06 9.40137E-19-2.94305E-19
 -1      3315 9.39976E-05-2.12793E-05-3.11689E-05-5.13389E-06-2.82256E-19-1.35478E-18
 -1      3316 9.31489E-05-1.96233E-05-3.14942E-05 6.30320E-07 5.74361E-19-5.06641E-19
 -1      3317 9.21975E-05-1.80397E-05-3.17948E-05 4.08996E-07 6.10598E-19-7.04628E-19
 -1      3318 9.21935E-05-1.80341E-05-3.17953E-05-3.61232E-07 4.38891E-19-7.60892E-19
 -1      3319 1.22078E-04-5.38620E-05-2.91971E-05-1.71150E-05-1.10797E-18-1.29356E-18
 -1      3320 1.28090E-04-5.57625E-05-3.10491E-05-1.35481E-05-1.64376E-18-1.35638E-18
 -1      3321 1.27464E-04-5.23504E-05-3.22339E-05-6.28511E-06-1.55697E-18-4.36143E-19
 -1      3322 9.74314E-05-2.98426E-05-2.89629E-05 5.37745E-06 9.87009E-19-1.03028E-18
 -1      3323 9.77544E-05-3.01538E-05-2.89621E-05 4.86144E-06 1.01709E-19 5.05951E-19
 -1      3324 9.84030E-05-3.09384E-05-2.89154E-05 4.90501E-06 9.69481E-19 5.37830E-19
 -1      3325 9.78543E-05-3.06075E-05-2.88379E-05 6.13597E-06 2.01056E-18-3.77336E-19
 -1      3326 9.39610E-05-2.12210E-05-3.11690E-05-4.44792E-06-1.52136E-19-1.34191E-18
 -1      3327 5.39960E-05-1.28844E-05-1.74013E-05 1.64479E-05 4.44454E-19 1.16435E-18
 -1      3328 9.54934E-05-2.54300E-05-3.00270E-05 1.95816E-06 8.45469E-19-2.90026E-19
 -1      3329 9.23603E-05-1.83175E-05-3.17473E-05-1.76395E-06 3.18582E-19-9.52442E-19
 -1      3330 9.33362E-05-1.99862E-05-3.14222E-05-1.75356E-06 2.23343E-19-1.00003E-18
 -1      3331 9.22489E-05-1.81268E-05-3.17781E-05-1.00724E-06 3.73228E-19-8.47045E-19
 -1      3332 5.49611E-05-1.27618E-05-1.80288E-05-1.69900E-05 1.81440E-18 9.39148E-20
 -1      3333 6.15435E-05-1.87497E-05-1.80520E-05-2.68442E-05 1.46542E-18-6.36281E-19
 -1      3334 1.27765E-04-4.88536E-05-3.41814E-05-1.61570E-06-6.13642E-19-5.03858E-18
 -1      3335 1.24606E-04-5.16968E-05-3.11294E-05 7.34463E-06-4.27295E-19-4.69052E-18
 -1      3336 9.60395E-05-2.69086E-05-2.96179E-05-4.44179E-07-3.05862E-19-7.17422E-19
 -1      3337 9.60878E-05-2.74033E-05-2.94441E-05-2.89077E-08-2.62376E-19-6.63931E-19
 -1      3338 9.61718E-05-2.78404E-05-2.92774E-05 2.63371E-07-2.20554E-19-6.30445E-19
 -1      3339 9.61657E-05-2.81674E-05-2.91469E-05 5.25720E-07-2.29112E-19-6.51058E-19
 -1      3340 9.62772E-05-2.74728E-05-2.94875E-05 3.11397E-08-2.00790E-19-4.45700E-19
 -1      3341 9.61716E-05-2.84200E-05-2.90307E-05 6.83200E-07-3.81772E-19-7.44546E-19
 -1      3342 9.61405E-05-2.86098E-05-2.89439E-05 8.17255E-07-4.70615E-19-8.00664E-19
 -1      3343 9.63648E-05-2.82366E-05-2.91995E-05 5.01082E-07-3.19857E-19-2.12325E-19
 -1      3344 9.61047E-05-2.87552E-05-2.88602E-05 8.93711E-07-5.07161E-19-5.78588E-19
 -1      3345 9.60634E-05-2.88618E-05-2.88013E-05 9.50383E-07-3.69608E-19-5.03205E-19
 -1      3346 9.63361E-05-2.86890E-05-2.89938E-05 7.55472E-07-3.20864E-19-2.15843E-19
 -1      3347 9.60052E-05-2.89324E-05-2.87431E-05 9.72579E-07-2.85122E-19-3.38682E-19
 -1      3348 9.59613E-05-2.89813E-05-2.87053E-05 9.80991E-07-2.93209E-19-2.37545E-19
 -1      3349 9.62441E-05-2.89405E-05-2.88467E-05 8.71055E-07-1.46753E-19-1.78880E-19
 -1      3350 9.58927E-05-2.90006E-05-2.86668E-05 9.70924E-07-3.79305E-19-1.82919E-19
 -1      3351 9.58499E-05-2.90095E-05-2.86448E-05 9.52855E-07-2.52156E-19-1.00003E-19
 -1      3352 9.61196E-05-2.90518E-05-2.87454E-05 8.97435E-07-2.68099E-19-9.31295E-20
 -1      3353 9.57777E-05-2.89934E-05-2.86214E-05 9.27209E-07-3.18455E-19-1.92851E-20
 -1      3354 9.57372E-05-2.89741E-05-2.86113E-05 8.98768E-07-2.42235E-19 8.59294E-20
 -1      3355 9.59809E-05-2.90658E-05-2.86797E-05 8.73403E-07-1.87305E-19 7.09090E-21
 -1      3356 9.56646E-05-2.89331E-05-2.85995E-05 8.69906E-07-2.77818E-19-9.47536E-20
 -1      3357 9.56266E-05-2.88932E-05-2.85983E-05 8.42971E-07-1.90782E-19-3.92595E-19
 -1      3358 9.58381E-05-2.90115E-05-2.86414E-05 8.28200E-07-3.68940E-19-2.95646E-19
 -1      3359 9.55540E-05-2.88334E-05-2.85953E-05 8.20004E-07-8.08406E-20-7.54278E-19
 -1      3360 9.55172E-05-2.87771E-05-2.86011E-05 8.03474E-07-2.24388E-19-9.45736E-19
 -1      3361 9.56946E-05-2.89078E-05-2.86240E-05 7.83502E-07-3.95553E-19-6.66347E-19
 -1      3362 9.54429E-05-2.87012E-05-2.86049E-05 7.93207E-07-1.34589E-19-7.97798E-19
 -1      3363 9.54049E-05-2.86297E-05-2.86161E-05 7.94030E-07 2.17288E-19-8.85832E-19
 -1      3364 9.55495E-05-2.87647E-05-2.86227E-05 7.55340E-07-4.47068E-20-6.57878E-19
 -1      3365 9.53252E-05-2.85373E-05-2.86252E-05 8.01684E-07 4.68916E-19-6.00650E-19
 -1      3366 9.52825E-05-2.84493E-05-2.86410E-05 8.25636E-07 3.14274E-19-7.47191E-19
 -1      3367 9.53973E-05-2.85856E-05-2.86337E-05 7.55722E-07 4.06408E-19-6.03313E-19
 -1      3368 9.51913E-05-2.83375E-05-2.86541E-05 8.55365E-07 2.98272E-19-7.27689E-19
 -1      3369 9.51388E-05-2.82291E-05-2.86737E-05 9.07554E-07 3.61343E-19-3.94880E-20
 -1      3370 9.52285E-05-2.83676E-05-2.86541E-05 7.93772E-07 5.21239E-19-4.57471E-19
 -1      3371 9.50214E-05-2.80845E-05-2.86905E-05 9.65688E-07 1.02783E-20 5.03361E-19
 -1      3372 9.49456E-05-2.79411E-05-2.87145E-05 1.05673E-06 1.30473E-20 8.35067E-19
 -1      3373 9.50229E-05-2.80953E-05-2.86820E-05 8.79329E-07 3.83422E-19 2.24087E-19
 -1      3374 9.47989E-05-2.77673E-05-2.87320E-05 1.14082E-06-1.85499E-19 5.57515E-19
 -1      3375 9.46956E-05-2.75927E-05-2.87573E-05 1.26593E-06-6.51792E-20 3.93407E-19
 -1      3376 9.47625E-05-2.77571E-05-2.87139E-05 1.01568E-06-8.25674E-20 7.40475E-19
 -1      3377 9.44982E-05-2.73710E-05-2.87742E-05 1.37848E-06-3.36652E-19 6.07708E-19
 -1      3378 9.43459E-05-2.71450E-05-2.88001E-05 1.54538E-06-4.58869E-19 5.95550E-19
 -1      3379 9.44252E-05-2.73425E-05-2.87453E-05 1.20005E-06 3.31401E-20 3.07077E-19
 -1      3380 9.40726E-05-2.68581E-05-2.88132E-05 1.68466E-06-7.87889E-19 7.35425E-19
 -1      3381 9.38448E-05-2.65618E-05-2.88367E-05 1.89557E-06-1.15796E-18 4.54598E-19
 -1      3382 9.39638E-05-2.68149E-05-2.87712E-05 1.43095E-06-6.23421E-19 6.34377E-19
 -1      3383 9.34609E-05-2.61875E-05-2.88407E-05 2.05567E-06-1.03312E-18 6.42643E-19
 -1      3384 9.31190E-05-2.57966E-05-2.88561E-05 2.30957E-06-9.35526E-19 2.50657E-19
 -1      3385 9.33211E-05-2.61370E-05-2.87827E-05 1.69629E-06-9.75732E-19 9.61662E-19
 -1      3386 9.25773E-05-2.53077E-05-2.88418E-05 2.47791E-06-8.55039E-19 6.73268E-21
 -1      3387 9.20660E-05-2.47926E-05-2.88391E-05 2.76809E-06-6.06982E-19 3.95755E-19
 -1      3388 9.24177E-05-2.52629E-05-2.87650E-05 1.97077E-06-9.24733E-19 4.12716E-19
 -1      3389 9.13020E-05-2.41580E-05-2.87918E-05 2.92219E-06-8.31677E-19 1.50533E-19
 -1      3390 9.05443E-05-2.34859E-05-2.87532E-05 3.23316E-06-5.99863E-19 1.94405E-20
 -1      3391 9.11454E-05-2.41398E-05-2.86938E-05 2.20921E-06-7.11493E-19 3.09417E-19
 -1      3392 8.94721E-05-2.26741E-05-2.86486E-05 3.33724E-06-1.46664E-19 5.13365E-20
 -1      3393 8.83635E-05-2.18141E-05-2.85444E-05 3.64232E-06-2.51557E-19 2.69589E-19
 -1      3394 8.93593E-05-2.27124E-05-2.85299E-05 2.33829E-06-4.41857E-19 3.43092E-19
 -1      3395 8.68687E-05-2.08013E-05-2.83431E-05 3.64523E-06-5.33396E-19 5.23662E-19
 -1      3396 8.52716E-05-1.97353E-05-2.81235E-05 3.90824E-06-2.36032E-19 7.19821E-19
 -1      3397 8.68674E-05-2.09339E-05-2.82098E-05 2.24871E-06-3.00533E-19 8.40513E-19
 -1      3398 8.32002E-05-1.85179E-05-2.77615E-05 3.74626E-06 2.67633E-19 5.63521E-20
 -1      3399 8.09368E-05-1.72583E-05-2.73439E-05 3.93475E-06-1.86415E-19 1.94252E-19
 -1      3400 8.34157E-05-1.87823E-05-2.76316E-05 1.79164E-06-5.97184E-19 9.35925E-19
 -1      3401 7.80696E-05-1.58735E-05-2.67151E-05 3.54662E-06-4.01821E-19 3.33644E-19
 -1      3402 7.49152E-05-1.44938E-05-2.59637E-05 3.67226E-06-3.61172E-19 1.52206E-19
 -1      3403 7.86566E-05-1.62816E-05-2.66290E-05 7.87318E-07-2.08652E-19 3.51783E-20
 -1      3404 7.06554E-05-1.29045E-05-2.48178E-05 3.02290E-06-2.67116E-19 4.74755E-19
 -1      3405 6.59937E-05-1.16311E-05-2.33586E-05 3.26227E-06 9.95677E-19 3.86856E-19
 -1      3406 7.18592E-05-1.34659E-05-2.48601E-05-9.96382E-07-2.31375E-19 7.54041E-19
 -1      3407 1.25540E-04-3.44439E-05-3.94576E-05-1.17412E-05-4.87970E-19-3.14821E-18
 -1      3408 1.27378E-04-4.07741E-05-3.70210E-05-8.44473E-06-1.83330E-19-3.39335E-18
 -1      3409 1.19908E-04-2.94452E-05-3.88967E-05-1.21645E-05-1.09381E-18-4.03328E-18
 -1      3410 6.64838E-05-1.22102E-05-2.33248E-05-3.02217E-06-1.06908E-18 9.53150E-19
 -1      3411 7.13483E-05-1.35781E-05-2.48470E-05-2.95665E-06-8.92940E-19 8.48634E-19
 -1      3412 6.59827E-05-1.26491E-05-2.25762E-05 5.80761E-06-7.82543E-19 1.85296E-18
 -1      3413 9.49460E-05-2.34528E-05-3.06412E-05-2.95517E-06-1.06902E-19-1.19280E-18
 -1      3414 9.52855E-05-2.45460E-05-3.03318E-05-2.09149E-06-1.89748E-19-1.03447E-18
 -1      3415 7.51771E-05-1.48479E-05-2.59465E-05-3.88652E-06-9.13747E-19 1.42791E-18
 -1      3416 7.87459E-05-1.62134E-05-2.68635E-05-3.88912E-06-1.00300E-18 1.55312E-18
 -1      3417 7.45414E-05-1.49366E-05-2.53514E-05 2.26187E-06-8.08294E-19 2.31597E-18
 -1      3418 8.14146E-05-1.73232E-05-2.74809E-05-3.77115E-06-6.29597E-19 1.91832E-18
 -1      3419 9.55422E-05-2.88459E-05-2.85824E-05-8.34625E-07 2.76359E-20 4.38757E-19
 -1      3420 9.55731E-05-2.88851E-05-2.85810E-05-8.61988E-07 1.22195E-20 3.61110E-19
 -1      3421 9.56404E-05-2.89284E-05-2.85893E-05-8.91653E-07 1.81514E-19 4.97004E-20
 -1      3422 9.56745E-05-2.89522E-05-2.85952E-05-9.23414E-07 1.51076E-19 1.82695E-20
 -1      3423 9.57380E-05-2.89641E-05-2.86187E-05-8.28771E-07-3.67023E-20 1.50197E-19
 -1      3424 9.53613E-05-2.86182E-05-2.86022E-05-7.93295E-07-5.00991E-19 4.84479E-19
 -1      3425 9.53863E-05-2.86746E-05-2.85920E-05-7.91652E-07-3.02456E-19 4.96684E-19
 -1      3426 9.52784E-05-2.84876E-05-2.86225E-05-8.29226E-07-6.61849E-21 6.40168E-19
 -1      3427 9.53000E-05-2.85474E-05-2.86098E-05-8.06479E-07-1.92734E-19 4.82976E-19
 -1      3428 9.53571E-05-2.85831E-05-2.86179E-05-7.71336E-07-5.04533E-19-6.04481E-19
 -1      3429 9.52023E-05-2.83556E-05-2.86463E-05-9.12275E-07-4.82262E-19 7.15126E-19
 -1      3430 9.52190E-05-2.84146E-05-2.86321E-05-8.65781E-07-1.99414E-19 8.46422E-19
 -1      3431 9.52371E-05-2.84263E-05-2.86335E-05-8.23249E-07-2.12191E-19 5.27565E-19
 -1      3432 9.51377E-05-2.82325E-05-2.86712E-05-1.04691E-06-8.01272E-19 4.70389E-19
 -1      3433 9.51463E-05-2.82850E-05-2.86566E-05-9.75313E-07-7.08382E-19 6.20498E-19
 -1      3434 9.51218E-05-2.82682E-05-2.86518E-05-9.24436E-07-4.47734E-19 3.18647E-20
 -1      3435 9.50947E-05-2.81342E-05-2.86946E-05-1.23512E-06-7.62095E-19 5.94632E-19
 -1      3436 9.50891E-05-2.81713E-05-2.86808E-05-1.13876E-06-7.36747E-19 6.01679E-19
 -1      3437 9.50166E-05-2.81210E-05-2.86700E-05-1.08101E-06-8.48256E-19-6.09753E-20
 -1      3438 9.50911E-05-2.80846E-05-2.87140E-05-1.47520E-06-4.99489E-19 3.27380E-19
 -1      3439 9.50615E-05-2.80932E-05-2.87021E-05-1.35691E-06-6.35603E-19 3.72077E-19
 -1      3440 9.49331E-05-2.80038E-05-2.86849E-05-1.29744E-06-7.33454E-19 2.87928E-19
 -1      3441 9.51559E-05-2.81191E-05-2.87266E-05-1.75960E-06-2.82389E-19 7.89779E-19
 -1      3442 9.50872E-05-2.80803E-05-2.87178E-05-1.62596E-06-3.78831E-19 4.21928E-19
 -1      3443 9.48927E-05-2.79453E-05-2.86936E-05-1.57548E-06-5.17614E-19-1.66032E-20
 -1      3444 9.53323E-05-2.82862E-05-2.87303E-05-2.07146E-06-2.10847E-19 7.06305E-19
 -1      3445 9.52030E-05-2.81747E-05-2.87256E-05-1.93468E-06-7.49923E-20 1.06455E-18
 -1      3446 9.49302E-05-2.79877E-05-2.86931E-05-1.91191E-06-6.18241E-19 5.37995E-19
 -1      3447 9.56808E-05-2.86480E-05-2.87246E-05-2.37949E-06-1.76922E-21 8.90670E-19
 -1      3448 9.54624E-05-2.84324E-05-2.87240E-05-2.25995E-06 1.34184E-19 7.83860E-19
 -1      3449 9.50988E-05-2.81890E-05-2.86816E-05-2.29474E-06-2.10702E-19 8.01296E-19
 -1      3450 9.62791E-05-2.92760E-05-2.87125E-05-2.63081E-06-6.02861E-20 5.21519E-19
 -1      3451 9.59375E-05-2.89221E-05-2.87141E-05-2.56031E-06-3.61607E-19 2.34267E-19
 -1      3452 9.54731E-05-2.86234E-05-2.86595E-05-2.69679E-06 2.53034E-19 7.81936E-19
 -1      3453 9.72162E-05-3.02385E-05-2.87035E-05-2.74172E-06 6.69510E-20 1.16984E-18
 -1      3454 9.67165E-05-2.97173E-05-2.87021E-05-2.76697E-06 2.96871E-19 7.63554E-19
 -1      3455 9.61509E-05-2.93760E-05-2.86324E-05-3.06601E-06-2.92104E-19 1.05586E-18
 -1      3456 9.85751E-05-3.15741E-05-2.87173E-05-2.58804E-06 4.17532E-19 1.10238E-18
 -1      3457 9.78934E-05-3.08774E-05-2.87027E-05-2.77303E-06 1.80632E-19 9.56536E-19
 -1      3458 9.72467E-05-3.05285E-05-2.86141E-05-3.31155E-06 2.74089E-19 1.17697E-18
 -1      3459 1.00397E-04-3.32437E-05-2.87892E-05-2.00064E-06 6.32822E-19 1.33628E-18
 -1      3460 9.95405E-05-3.24113E-05-2.87435E-05-2.42411E-06 6.97214E-19 1.53760E-18
 -1      3461 9.88720E-05-3.21256E-05-2.86323E-05-3.28705E-06 3.21882E-19 2.03307E-19
 -1      3462 1.02619E-04-3.50584E-05-2.89731E-05-7.80582E-07-4.37976E-20 1.47320E-18
 -1      3463 1.01657E-04-3.42158E-05-2.88705E-05-1.52085E-06-4.14025E-20 1.88258E-18
 -1      3464 1.01090E-04-3.41149E-05-2.87345E-05-2.77824E-06 2.03714E-20 6.91942E-19
 -1      3465 1.04994E-04-3.65939E-05-2.93420E-05 1.23930E-06-1.32068E-18 2.27067E-18
 -1      3466 1.04088E-04-3.59915E-05-2.91496E-05 1.44283E-07-4.13939E-19 2.16325E-18
 -1      3467 1.03837E-04-3.62532E-05-2.89929E-05-1.51508E-06-4.85945E-19 1.95467E-18
 -1      3468 1.07017E-04-3.71473E-05-2.99754E-05 4.04347E-06-9.00507E-19 1.25678E-18
 -1      3469 1.06430E-04-3.71621E-05-2.96617E-05 2.67312E-06-8.23751E-19 1.85942E-18
 -1      3470 1.06794E-04-3.79884E-05-2.95037E-05 7.44395E-07-9.76577E-19 2.07221E-18
 -1      3471 1.07966E-04-3.58404E-05-3.09285E-05 7.20833E-06-1.52429E-20 3.31931E-19
 -1      3472 1.08005E-04-3.68926E-05-3.04799E-05 5.85885E-06-3.98728E-19 9.57858E-19
 -1      3473 1.09313E-04-3.84412E-05-3.03680E-05 4.01168E-06-5.01679E-19 9.65276E-19
 -1      3474 1.07205E-04-3.21071E-05-3.21649E-05 9.60177E-06-1.73515E-18 8.72008E-19
 -1      3475 1.07978E-04-3.43130E-05-3.16197E-05 8.86427E-06-7.92197E-19 5.97941E-19
 -1      3476 1.10414E-04-3.64811E-05-3.16501E-05 7.72927E-06-1.10381E-18 1.29984E-18
 -1      3477 1.04764E-04-2.64757E-05-3.34975E-05 9.67441E-06-4.80906E-19-9.08815E-19
 -1      3478 1.06048E-04-2.94012E-05-3.29510E-05 1.01699E-05-1.34140E-18-1.27635E-19
 -1      3479 1.09251E-04-3.15642E-05-3.32478E-05 1.04296E-05-8.03323E-19 5.91222E-19
 -1      3480 1.01915E-04-2.11373E-05-3.45690E-05 6.39367E-06-4.96474E-19-1.17542E-18
 -1      3481 1.03061E-04-2.35147E-05-3.41852E-05 8.33490E-06-1.34162E-19-1.07164E-18
 -1      3482 1.06443E-04-2.48677E-05-3.49060E-05 9.92008E-06 4.05285E-20-1.58573E-18
 -1      3483 1.00542E-04-1.89517E-05-3.49946E-05 2.97884E-07-3.35571E-20-5.53334E-20
 -1      3484 1.00765E-04-1.94402E-05-3.49216E-05 3.09867E-06-7.56410E-19 2.93649E-21
 -1      3485 1.03325E-04-1.91789E-05-3.60487E-05 5.37019E-06-1.12359E-18-6.25858E-19
 -1      3486 1.01966E-04-2.14377E-05-3.45790E-05-5.83734E-06 6.39616E-19-6.80406E-19
 -1      3487 1.01079E-04-1.97009E-05-3.48424E-05-3.39761E-06 5.97124E-19-2.18594E-19
 -1      3488 1.02734E-04-1.80277E-05-3.62987E-05-1.81245E-06 2.05718E-19-8.71203E-19
 -1      3489 1.04891E-04-2.68851E-05-3.35245E-05-9.32727E-06-6.69801E-19-1.27708E-19
 -1      3490 1.03468E-04-2.39676E-05-3.40250E-05-8.06654E-06 1.95770E-19-2.47307E-19
 -1      3491 1.05006E-04-2.23621E-05-3.54564E-05-7.65534E-06 6.71886E-20-4.18606E-19
 -1      3492 1.07558E-04-3.26506E-05-3.21763E-05-9.09412E-06-7.19324E-19 6.97836E-19
 -1      3493 1.06507E-04-3.00319E-05-3.27415E-05-9.38664E-06-1.22661E-18-6.68693E-20
 -1      3494 1.08440E-04-2.91581E-05-3.39802E-05-1.00444E-05-1.32560E-18-1.91267E-18
 -1      3495 1.08503E-04-3.63795E-05-3.09310E-05-6.54794E-06 4.09024E-19 9.42953E-19
 -1      3496 1.08134E-04-3.47841E-05-3.14300E-05-7.76743E-06 1.11280E-19 7.53942E-19
 -1      3497 1.10519E-04-3.49511E-05-3.23273E-05-8.50401E-06-4.01681E-19-1.07128E-18
 -1      3498 1.07589E-04-3.75919E-05-2.99839E-05-3.18656E-06 1.29150E-18 1.26596E-18
 -1      3499 1.07932E-04-3.71717E-05-3.03503E-05-4.65723E-06 1.11670E-18 1.31788E-18
 -1      3500 1.10447E-04-3.82999E-05-3.08952E-05-4.92153E-06 3.63967E-19-1.21243E-19
 -1      3501 1.05490E-04-3.68762E-05-2.93743E-05-2.08396E-07 2.30143E-18-7.44992E-20
 -1      3502 1.06308E-04-3.73046E-05-2.96034E-05-1.48893E-06 1.71073E-18 1.07164E-18
 -1      3503 1.08493E-04-3.87983E-05-2.98788E-05-1.22081E-06 1.60686E-18-3.95107E-19
 -1      3504 1.02994E-04-3.51291E-05-2.90492E-05 1.90393E-06 2.03768E-18 2.75552E-19
 -1      3505 1.03992E-04-3.59928E-05-2.91660E-05 9.87912E-07 1.78798E-18-1.68459E-19
 -1      3506 1.05642E-04-3.74061E-05-2.92694E-05 1.61290E-06 2.32140E-18-1.34485E-18
 -1      3507 1.00622E-04-3.30539E-05-2.89314E-05 3.10521E-06 2.34514E-18 1.52218E-18
 -1      3508 1.01593E-04-3.40385E-05-2.89666E-05 2.58363E-06 2.38339E-18 7.53188E-19
 -1      3509 1.02707E-04-3.51627E-05-2.89775E-05 3.36175E-06 1.74454E-18-8.96255E-19
 -1      3510 9.91977E-05-3.16722E-05-2.89297E-05 3.58276E-06 5.22023E-19 6.82609E-19
 -1      3511 9.98309E-05-3.23516E-05-2.89268E-05 3.31322E-06 2.22126E-18 1.32587E-18
 -1      3512 1.00606E-04-3.32130E-05-2.89045E-05 4.09154E-06 2.18258E-18-5.32919E-20
 -1      3513 9.91260E-05-3.16741E-05-2.89169E-05 4.27789E-06 8.60651E-19 1.35935E-18
 -1      3514 8.27336E-05-1.84467E-05-2.75757E-05 3.64976E-07-8.46538E-19 3.16647E-18
 -1      3515 8.34154E-05-1.92160E-05-2.74861E-05 2.96476E-06-1.61411E-18 2.76938E-18
 -1      3516 9.67872E-05-3.03265E-05-2.84923E-05 8.40067E-06 1.64051E-18-2.04928E-18
 -1      3517 9.79772E-05-3.11547E-05-2.86114E-05 7.68829E-06 1.68830E-18-1.33584E-18
 -1      3518 8.50053E-05-2.09121E-05-2.75232E-05 5.44541E-06-1.30135E-18 5.57803E-19
 -1      3519 8.67689E-05-2.22618E-05-2.75890E-05 7.14518E-06-1.14320E-18-8.29618E-19
 -1      3520 8.28168E-05-1.97736E-05-2.69964E-05 5.40805E-06-1.21171E-18 1.30842E-18
 -1      3521 5.84773E-05-1.77910E-05-1.71276E-05 2.45907E-05 1.33846E-18-2.68033E-19
 -1      3522 6.35514E-05-1.54547E-05-2.04259E-05 1.59551E-05-3.71497E-19 2.20837E-19
 -1      3523 6.18799E-05-1.06639E-05-2.19021E-05 1.93724E-06 1.59372E-18 2.83280E-19
 -1      3524 5.56716E-05-9.50162E-06-1.98524E-05-2.87301E-08 1.49755E-18 1.14164E-18
 -1      3525 5.44227E-05-9.76903E-06-1.87010E-05-8.90901E-06 1.74304E-18 3.67030E-19
 -1      3526 6.35157E-05-1.09612E-05-2.22327E-05-4.11526E-06 1.13058E-18 8.87995E-19
 -1      3527 1.27859E-04-4.77964E-05-3.43387E-05 1.81844E-06-2.90241E-19-8.60413E-19
 -1      3528 1.26320E-04-4.17065E-05-3.64970E-05 7.85790E-06 7.82791E-19 7.24743E-20
 -1      3529 6.74826E-05-2.45227E-05-1.83411E-05 3.09472E-05 1.49448E-18-1.91387E-18
 -1      3530 1.16243E-04-1.76376E-05-4.25421E-05 1.10558E-05-2.55539E-19-1.64690E-18
 -1      3531 1.12578E-04-1.35353E-05-4.27896E-05 7.25428E-06-2.57763E-19-2.31261E-18
 -1      3532 9.59496E-05-2.88944E-05-2.87380E-05-9.97609E-07-2.18275E-19 2.46925E-19
 -1      3533 9.59896E-05-2.88149E-05-2.87859E-05-9.63840E-07-1.18229E-19 1.02934E-19
 -1      3534 9.59304E-05-2.68648E-05-2.96092E-05 4.66593E-07 8.24243E-19-6.40651E-19
 -1      3535 9.58506E-05-2.62618E-05-2.98134E-05 1.00296E-06 7.91061E-19-5.00086E-19
 -1      3536 9.10102E-05-3.86314E-05-2.24483E-05 3.20835E-05 6.22463E-19-1.52934E-18
 -1      3537 7.82760E-05-3.11175E-05-1.98218E-05 3.31309E-05 1.42190E-18-1.18301E-18
 -1      3538 7.72604E-05-2.65736E-05-2.14994E-05 2.67234E-05 1.35386E-18-1.34419E-18
 -1      3539 9.56951E-05-2.55245E-05-3.00615E-05-1.50340E-06-2.50663E-19-9.71715E-19
 -1      3540 9.58336E-05-2.62611E-05-2.98281E-05-8.79803E-07-2.58301E-19-9.03217E-19
 -1      3541 9.54163E-05-2.45993E-05-3.03541E-05-1.75801E-06-1.62848E-19-9.94429E-19
 -1      3542 9.54492E-05-2.87398E-05-2.85879E-05-7.97995E-07-1.22066E-19 6.57213E-19
 -1      3543 9.54771E-05-2.87895E-05-2.85813E-05-8.13546E-07 5.63347E-20 4.87573E-19
 -1      3544 9.56072E-05-2.88600E-05-2.86070E-05-7.84209E-07-9.54253E-20 2.42494E-19
 -1      3545 9.54804E-05-2.87301E-05-2.86080E-05-7.61319E-07-2.12724E-19 1.80681E-19
 -1      3546 9.55646E-05-2.54620E-05-3.00561E-05 1.55170E-06 8.51072E-19-3.57412E-19
 -1      3547 9.53386E-05-2.45531E-05-3.03317E-05 2.32315E-06 9.19271E-19-2.99907E-19
 -1      3548 9.57026E-05-2.54700E-05-3.00971E-05 1.30165E-06 9.07433E-19-4.17738E-19
 -1      3549 9.50355E-05-2.38059E-05-3.05287E-05 2.68858E-06 9.25982E-19-3.69278E-19
 -1      3550 9.47014E-05-2.29062E-05-3.07800E-05 3.23154E-06 9.52298E-19-3.77931E-19
 -1      3551 9.44224E-05-2.22232E-05-3.09397E-05 2.95830E-06 9.53204E-19-3.54285E-19
 -1      3552 9.51131E-05-2.38357E-05-3.05416E-05 2.24456E-06 8.98500E-19-2.61769E-19
 -1      3553 9.33709E-05-2.77922E-05-2.81363E-05 9.31151E-06 1.78174E-18-1.34120E-18
 -1      3554 9.51976E-05-2.90845E-05-2.82866E-05 9.17942E-06 2.14278E-18-1.98173E-18
 -1      3555 9.66208E-05-3.08942E-05-2.82052E-05 9.66295E-06 2.06599E-18-1.44447E-18
 -1      3556 1.24272E-04-4.32570E-05-3.47640E-05-5.70775E-06-1.24248E-18-4.54428E-18
 -1      3557 1.21875E-04-4.87150E-05-3.12941E-05 3.85069E-06-5.42630E-19-5.64918E-18
 -1      3558 1.22493E-04-5.24074E-05-3.00648E-05 1.12145E-05 7.49165E-20-4.30437E-18
 -1      3559 1.17752E-04-5.05592E-05-2.88298E-05 1.47300E-05-9.20453E-20-3.76642E-18
 -1      3560 1.07057E-04-4.53426E-05-2.64561E-05 2.22891E-05-4.21503E-19-3.14613E-18
 -1      3561 1.00192E-04-4.30674E-05-2.42768E-05 2.86775E-05-1.71392E-19-2.90538E-18
 -1      3562 9.33436E-05-3.66226E-05-2.43285E-05 2.60193E-05 2.85880E-19-3.58025E-18
 -1      3563 1.22587E-04-4.07630E-05-3.51568E-05 7.81696E-06 5.24274E-19-4.54096E-19
 -1      3564 1.24355E-04-3.78808E-05-3.71655E-05 1.03938E-05 1.61193E-18 2.42768E-19
 -1      3565 1.20643E-04-3.29151E-05-3.77404E-05 1.19010E-05 1.17071E-18 7.43007E-20
 -1      3566 1.14334E-04-2.63772E-05-3.80265E-05-1.18260E-05-1.08609E-18-2.94437E-18
 -1      3567 1.17321E-04-3.15000E-05-3.66922E-05-1.17071E-05-1.27717E-18-3.54726E-18
 -1      3568 1.11136E-04-4.82427E-05-2.69397E-05-2.14687E-05-1.02822E-19-1.00063E-18
 -1      3569 1.17443E-04-5.19786E-05-2.79677E-05-1.97243E-05-7.06214E-19-1.03614E-18
 -1      3570 1.19440E-04-5.09330E-05-2.93627E-05-1.31530E-05-1.17078E-18-5.85538E-19
 -1      3571 7.07711E-05-2.30140E-05-2.02175E-05-2.68240E-05 4.62533E-19 1.91959E-19
 -1      3572 9.58422E-05-2.82654E-05-2.89654E-05-6.89299E-07 4.38383E-19-5.26451E-19
 -1      3573 6.64972E-05-1.49347E-05-2.21285E-05 1.19139E-05-3.91270E-19 1.04873E-18
 -1      3574 7.16445E-05-1.59863E-05-2.38200E-05 9.28504E-06-9.33688E-20 1.44689E-18
 -1      3575 7.08709E-05-1.95025E-05-2.19307E-05 1.94824E-05 6.49886E-19-1.27928E-19
 -1      3576 9.44618E-05-2.23120E-05-3.09108E-05-3.44185E-06-1.21998E-19-1.18266E-18
 -1      3577 9.44914E-05-2.23814E-05-3.08964E-05-2.86162E-06-1.05760E-19-1.05092E-18
 -1      3578 9.40786E-05-2.14769E-05-3.11160E-05-2.08310E-06 7.91705E-20-9.55896E-19
 -1      3579 9.42981E-05-2.19579E-05-3.10155E-05-2.50841E-06-6.47800E-20-1.00001E-18
 -1      3580 9.48414E-05-2.30414E-05-3.07567E-05-2.13082E-06-1.29112E-19-9.68838E-19
 -1      3581 9.38102E-05-2.09179E-05-3.12429E-05-1.12548E-06 3.24291E-19-8.29354E-19
 -1      3582 9.39367E-05-2.11901E-05-3.11880E-05-1.65677E-06 2.05110E-19-9.53218E-19
 -1      3583 9.45171E-05-2.22923E-05-3.09478E-05-1.41905E-06 1.35449E-19-8.62392E-19
 -1      3584 9.60361E-05-2.87060E-05-2.88572E-05-9.10544E-07-1.33706E-19 2.15892E-19
 -1      3585 9.60717E-05-2.85572E-05-2.89298E-05-8.10754E-07 9.56555E-20-7.74046E-20
 -1      3586 9.62384E-05-2.87874E-05-2.89098E-05-8.42643E-07-9.21988E-20 1.29594E-19
 -1      3587 9.58721E-05-2.90308E-05-2.86480E-05-8.80325E-07 2.01414E-19 2.13142E-19
 -1      3588 9.57433E-05-2.89763E-05-2.86132E-05-9.53452E-07 4.02759E-19-5.17345E-20
 -1      3589 9.57805E-05-2.89775E-05-2.86290E-05-9.79362E-07 6.12773E-19 2.16461E-19
 -1      3590 6.03601E-05-1.29476E-05-2.01349E-05-1.35055E-05 1.09758E-18 3.54060E-19
 -1      3591 9.89945E-05-3.24341E-05-2.85481E-05 7.88358E-06 9.73858E-19-1.69945E-18
 -1      3592 9.85412E-05-3.15125E-05-2.87204E-05 6.86564E-06 1.15197E-18-1.16460E-18
 -1      3593 9.89612E-05-3.18062E-05-2.87815E-05 6.26381E-06 1.13897E-18-9.78486E-19
 -1      3594 8.76564E-05-3.47105E-05-2.25659E-05-3.00684E-05-1.99873E-19-9.85271E-19
 -1      3595 9.37980E-05-3.96183E-05-2.29454E-05-3.16139E-05-7.63799E-19-2.00723E-18
 -1      3596 1.00816E-04-4.30733E-05-2.47425E-05-2.73089E-05-6.68931E-19-9.49034E-19
 -1      3597 9.37618E-05-2.07925E-05-3.12575E-05 2.83500E-06 8.98683E-19-3.24430E-19
 -1      3598 9.31384E-05-1.96135E-05-3.14957E-05-5.78983E-07 3.35547E-19-7.41703E-19
 -1      3599 8.72162E-05-2.36486E-05-2.72559E-05 9.29957E-06 4.15873E-19-2.12387E-18
 -1      3600 8.90538E-05-2.43873E-05-2.77677E-05 8.47677E-06 2.60558E-19-1.86760E-18
 -1      3601 9.11697E-05-2.59099E-05-2.79074E-05 9.21975E-06 1.37053E-18-2.43249E-18
 -1      3602 1.10254E-04-1.38133E-05-4.14951E-05 4.74709E-06-8.19822E-19-3.72141E-18
 -1      3603 9.59866E-05-2.62806E-05-2.98703E-05-7.11912E-07-1.59327E-19-8.38655E-19
 -1      3604 1.16296E-04-2.27070E-05-4.02698E-05 1.16050E-05 2.38307E-19-1.26790E-18
 -1      3605 9.58483E-05-2.89729E-05-2.86601E-05-9.98594E-07 4.14332E-19-1.03071E-19
 -1      3606 9.58879E-05-2.89412E-05-2.86895E-05-1.00443E-06 6.87701E-20 8.09688E-20
 -1      3607 9.61330E-05-2.89736E-05-2.87848E-05-9.18587E-07 5.48463E-20-3.12146E-19
 -1      3608 9.60063E-05-2.90424E-05-2.87008E-05-9.19182E-07 4.68065E-19-1.33059E-20
 -1      3609 9.60606E-05-2.73841E-05-2.94236E-05 9.23565E-08 6.45729E-19-6.02627E-19
 -1      3610 9.61075E-05-2.68912E-05-2.96639E-05 3.62456E-07 7.36305E-19-4.14986E-19
 -1      3611 9.60716E-05-2.77778E-05-2.92748E-05-2.51957E-07 4.95491E-19-6.08124E-19
 -1      3612 1.12298E-04-1.44206E-05-4.22952E-05-7.21010E-06-1.55431E-19-3.21090E-18
 -1      3613 1.12084E-04-1.87258E-05-4.00520E-05-9.44152E-06-4.92656E-19-3.09124E-18
 -1      3614 8.15245E-05-1.76421E-05-2.73297E-05-7.32344E-07-7.60824E-19 2.23255E-18
 -1      3615 1.26266E-04-4.97174E-05-3.28910E-05-1.68668E-06-9.53875E-19-9.66650E-19
 -1      3616 1.23205E-04-4.58711E-05-3.31680E-05 2.71146E-06-6.91801E-19-9.32239E-19
 -1      3617 1.22801E-04-4.98499E-05-3.12990E-05-5.46562E-06-1.14815E-18-1.45554E-18
 -1      3618 9.38723E-05-2.10469E-05-3.12217E-05 8.07266E-07 6.13793E-19-2.72879E-19
 -1      3619 9.38219E-05-2.09454E-05-3.12409E-05 2.50126E-07 4.46795E-19-4.07586E-19
 -1      3620 9.40880E-05-2.14994E-05-3.11213E-05 1.75564E-06 8.32767E-19-4.25274E-19
 -1      3621 9.39534E-05-2.12161E-05-3.11805E-05 1.25042E-06 7.38232E-19-3.70981E-19
 -1      3622 9.46174E-05-2.23849E-05-3.09387E-05 8.31421E-07 5.99413E-19-2.34260E-19
 -1      3623 1.10375E-04-2.22090E-05-3.78635E-05-9.72286E-06-6.23337E-19-2.06966E-18
 -1      3624 1.08595E-04-1.32864E-05-4.09489E-05-3.84332E-06 1.00929E-19-3.40670E-18
 -1      3625 9.63484E-05-2.71073E-05-2.96696E-05-1.70163E-07-3.54179E-20-5.54294E-19
 -1      3626 9.64368E-05-2.76246E-05-2.94972E-05 1.38058E-07 1.76887E-21-4.12878E-19
 -1      3627 9.65225E-05-2.80343E-05-2.93472E-05 3.16897E-07-1.98015E-19-3.85144E-19
 -1      3628 9.65308E-05-2.83478E-05-2.92249E-05 4.95863E-07-3.29943E-19-2.07608E-19
 -1      3629 9.65788E-05-2.77064E-05-2.95159E-05 1.50518E-07-1.17994E-19-3.79375E-19
 -1      3630 9.65350E-05-2.86002E-05-2.91110E-05 5.97519E-07-3.38210E-19-1.99380E-19
 -1      3631 9.65007E-05-2.87874E-05-2.90217E-05 6.93197E-07-1.94657E-19-1.55297E-19
 -1      3632 9.66677E-05-2.84247E-05-2.92476E-05 4.43762E-07-2.58382E-19-4.74416E-19
 -1      3633 9.64548E-05-2.89270E-05-2.89377E-05 7.39155E-07-2.27056E-19-1.90976E-19
 -1      3634 9.63975E-05-2.90246E-05-2.88745E-05 7.78543E-07-2.15261E-19-3.37522E-19
 -1      3635 9.66267E-05-2.88568E-05-2.90456E-05 6.04812E-07-2.38551E-19-3.76153E-19
 -1      3636 9.63229E-05-2.90849E-05-2.88144E-05 7.88235E-07-2.35579E-19-1.55880E-19
 -1      3637 9.62547E-05-2.91197E-05-2.87717E-05 7.92914E-07-2.58223E-19-4.34780E-20
 -1      3638 9.65076E-05-2.90833E-05-2.88978E-05 6.73957E-07-2.08511E-19-3.33318E-19
 -1      3639 9.61652E-05-2.91246E-05-2.87307E-05 7.81904E-07-1.06514E-19-1.16824E-19
 -1      3640 9.60932E-05-2.91154E-05-2.87038E-05 7.68454E-07-2.46148E-19-1.01540E-19
 -1      3641 9.63453E-05-2.91645E-05-2.87935E-05 6.85185E-07-1.71091E-19-1.16990E-19
 -1      3642 9.59969E-05-2.90817E-05-2.86776E-05 7.48594E-07-4.35099E-19-2.68034E-19
 -1      3643 9.59242E-05-2.90412E-05-2.86629E-05 7.29427E-07-4.39548E-19-3.40646E-19
 -1      3644 9.61616E-05-2.91435E-05-2.87236E-05 6.65300E-07-4.15330E-19-1.60600E-19
 -1      3645 9.58249E-05-2.89796E-05-2.86482E-05 7.09488E-07-3.00693E-19-2.74154E-19
 -1      3646 9.57521E-05-2.89156E-05-2.86428E-05 6.93776E-07-2.71469E-19-2.84518E-19
 -1      3647 9.59683E-05-2.90499E-05-2.86806E-05 6.34558E-07-4.39378E-19 2.68197E-19
 -1      3648 9.56502E-05-2.88322E-05-2.86370E-05 6.80086E-07-4.62134E-20-2.34080E-19
 -1      3649 9.55755E-05-2.87486E-05-2.86388E-05 6.74613E-07 2.96647E-19-4.35408E-20
 -1      3650 9.57694E-05-2.89022E-05-2.86582E-05 6.07786E-07-4.64239E-20 2.75236E-19
 -1      3651 9.54683E-05-2.86456E-05-2.86395E-05 6.71621E-07 4.49789E-19-2.39422E-19
 -1      3652 9.53881E-05-2.85429E-05-2.86467E-05 6.81409E-07 4.94736E-19-1.84771E-19
 -1      3653 9.55628E-05-2.87100E-05-2.86515E-05 5.95507E-07 3.35728E-19 3.33456E-19
 -1      3654 9.52704E-05-2.84194E-05-2.86522E-05 6.92017E-07 3.68571E-19 2.06802E-20
 -1      3655 9.51789E-05-2.82952E-05-2.86634E-05 7.20730E-07 6.38765E-19-7.44141E-20
 -1      3656 9.53409E-05-2.84753E-05-2.86562E-05 6.04706E-07 4.06123E-19-1.23631E-19
 -1      3657 9.50358E-05-2.81391E-05-2.86724E-05 7.47845E-07 8.25379E-19-1.59909E-19
 -1      3658 9.49170E-05-2.79797E-05-2.86869E-05 8.01170E-07 4.45393E-19-8.99774E-20
 -1      3659 9.50840E-05-2.81867E-05-2.86690E-05 6.40499E-07 7.18230E-19-1.12068E-19
 -1      3660 9.47495E-05-2.77982E-05-2.86965E-05 8.42167E-07 1.03219E-19 1.95303E-19
 -1      3661 9.46025E-05-2.76106E-05-2.87112E-05 9.15398E-07-4.96554E-20 2.55208E-19
 -1      3662 9.47780E-05-2.78385E-05-2.86858E-05 7.02416E-07 4.28296E-19-3.53272E-19
 -1      3663 9.43906E-05-2.73875E-05-2.87194E-05 9.68053E-07-2.07502E-19 2.03577E-19
 -1      3664 9.41924E-05-2.71533E-05-2.87327E-05 1.06178E-06-3.25670E-19-2.14432E-19
 -1      3665 9.44057E-05-2.74262E-05-2.87014E-05 7.83694E-07-2.58672E-19-4.08735E-19
 -1      3666 9.39157E-05-2.68758E-05-2.87360E-05 1.11929E-06-4.00135E-19 2.35389E-20
 -1      3667 9.36417E-05-2.65803E-05-2.87442E-05 1.22806E-06-4.99078E-19 3.08230E-19
 -1      3668 9.39265E-05-2.69215E-05-2.87102E-05 8.73340E-07-3.85563E-19-8.93876E-19
 -1      3669 9.32744E-05-2.62326E-05-2.87377E-05 1.27781E-06-6.48192E-19 4.99076E-19
 -1      3670 9.28903E-05-2.58573E-05-2.87350E-05 1.39018E-06-8.61213E-19 8.22715E-19
 -1      3671 9.32958E-05-2.62994E-05-2.87037E-05 9.48575E-07-3.71850E-19-1.44421E-19
 -1      3672 9.23984E-05-2.54215E-05-2.87110E-05 1.41081E-06-9.69718E-19 5.86746E-19
 -1      3673 9.18572E-05-2.49448E-05-2.86879E-05 1.50611E-06-9.48722E-19 3.66273E-19
 -1      3674 9.24555E-05-2.55314E-05-2.86690E-05 9.70498E-07-7.70078E-19 3.00723E-19
 -1      3675 9.11977E-05-2.44021E-05-2.86343E-05 1.46361E-06-9.99749E-19 2.70780E-19
 -1      3676 9.04358E-05-2.38011E-05-2.85756E-05 1.50766E-06-7.24860E-19 4.75947E-20
 -1      3677 9.13311E-05-2.45878E-05-2.85863E-05 8.76668E-07-1.31216E-18 7.74567E-19
 -1      3678 8.95545E-05-2.31351E-05-2.84741E-05 1.35054E-06-4.82973E-19 4.25046E-19
 -1      3679 8.84868E-05-2.23889E-05-2.83553E-05 1.29079E-06-3.20843E-19 1.88279E-19
 -1      3680 8.98288E-05-2.34440E-05-2.84259E-05 5.71465E-07-6.27367E-19 4.80721E-19
 -1      3681 8.73172E-05-2.15921E-05-2.81777E-05 9.44494E-07-1.63342E-19 7.80869E-21
 -1      3682 8.58310E-05-2.06884E-05-2.79600E-05 7.05545E-07-2.94547E-19 1.34303E-19
 -1      3683 8.78331E-05-2.20894E-05-2.81420E-05-8.56718E-08-1.24859E-19 3.92803E-20
 -1      3684 8.42913E-05-1.97715E-05-2.76629E-05 6.64919E-08-7.26051E-19 1.34323E-19
 -1      3685 8.22351E-05-1.87156E-05-2.72841E-05-4.51989E-07-5.65370E-19-1.42682E-19
 -1      3686 8.52045E-05-2.05439E-05-2.76657E-05-1.29404E-06-3.62290E-19-6.76303E-19
 -1      3687 8.02227E-05-1.77234E-05-2.68000E-05-1.52265E-06-2.54992E-19 1.24515E-19
 -1      3688 7.73772E-05-1.65471E-05-2.61592E-05-2.44149E-06-3.39349E-19 2.97173E-19
 -1      3689 8.17741E-05-1.88795E-05-2.68907E-05-3.32771E-06-2.34897E-19-5.57184E-19
 -1      3690 7.46114E-05-1.55142E-05-2.53344E-05-4.21198E-06 2.72159E-19 3.04179E-19
 -1      3691 7.04853E-05-1.42720E-05-2.41780E-05-5.80554E-06 6.95953E-19 8.43969E-19
 -1      3692 7.72019E-05-1.72166E-05-2.56094E-05-6.65910E-06 9.01602E-20 5.75747E-19
 -1      3693 9.52828E-05-2.41949E-05-3.04765E-05-1.53626E-06-1.14497E-19-8.67881E-19
 -1      3694 9.58206E-05-2.89895E-05-2.86404E-05-7.36012E-07 3.32821E-20-1.62301E-19
 -1      3695 9.58880E-05-2.90346E-05-2.86514E-05-7.57037E-07 9.96483E-20-1.71397E-19
 -1      3696 9.58169E-05-2.56351E-05-3.00902E-05 9.37231E-07 1.01671E-18-3.39044E-19
 -1      3697 9.55399E-05-2.47390E-05-3.03374E-05 1.50406E-06 8.92005E-19-3.59078E-19
 -1      3698 9.60881E-05-2.83576E-05-2.90307E-05-6.84450E-07 2.45136E-19-3.09241E-19
 -1      3699 9.61098E-05-2.81087E-05-2.91363E-05-4.83976E-07 2.80421E-19-5.59426E-19
 -1      3700 9.62751E-05-2.78331E-05-2.93336E-05-2.64979E-07 3.52017E-19-2.53420E-19
 -1      3701 9.62986E-05-2.84316E-05-2.90879E-05-6.44366E-07-2.72458E-20-8.93258E-20
 -1      3702 9.51925E-05-2.83548E-05-2.86427E-05-7.80103E-07-3.90340E-19 4.15181E-19
 -1      3703 9.52523E-05-2.84417E-05-2.86347E-05-7.41875E-07-5.45868E-19 8.86660E-20
 -1      3704 9.53475E-05-2.85382E-05-2.86307E-05-7.15049E-07-4.65048E-19-3.53732E-20
 -1      3705 9.54092E-05-2.86209E-05-2.86248E-05-6.98899E-07-3.35346E-19-1.74389E-20
 -1      3706 9.52999E-05-2.84732E-05-2.86402E-05-6.65418E-07-5.70021E-19 5.24733E-19
 -1      3707 9.48933E-05-2.79927E-05-2.86691E-05-1.06943E-06-8.76890E-19 3.90046E-19
 -1      3708 9.49423E-05-2.80709E-05-2.86613E-05-9.76639E-07-6.55537E-19 3.27734E-19
 -1      3709 9.47671E-05-2.78476E-05-2.86765E-05-1.30927E-06-7.91200E-19 1.85207E-19
 -1      3710 9.48006E-05-2.79061E-05-2.86713E-05-1.18527E-06-1.02609E-18 2.22384E-19
 -1      3711 9.47251E-05-2.78459E-05-2.86624E-05-1.07247E-06-8.44264E-19 1.25144E-19
 -1      3712 9.46842E-05-2.77653E-05-2.86754E-05-1.62146E-06-8.76457E-19 1.54433E-19
 -1      3713 9.46882E-05-2.77863E-05-2.86744E-05-1.46529E-06-5.66429E-19-8.90987E-20
 -1      3714 9.45512E-05-2.76773E-05-2.86608E-05-1.34452E-06-4.49794E-19 1.94137E-19
 -1      3715 9.46839E-05-2.77928E-05-2.86624E-05-2.00923E-06-6.50207E-19 2.79013E-19
 -1      3716 9.46365E-05-2.77506E-05-2.86670E-05-1.82258E-06-8.30264E-19-1.84501E-19
 -1      3717 9.44201E-05-2.75792E-05-2.86478E-05-1.70516E-06-6.65423E-19-1.89234E-19
 -1      3718 9.48269E-05-2.79958E-05-2.86354E-05-2.46877E-06-2.48769E-19 1.04153E-19
 -1      3719 9.46958E-05-2.78554E-05-2.86462E-05-2.25826E-06-5.77477E-19 2.75578E-21
 -1      3720 9.43761E-05-2.76057E-05-2.86197E-05-2.16571E-06-6.94450E-19-6.11320E-19
 -1      3721 9.51999E-05-2.84598E-05-2.85951E-05-2.98233E-06-2.93091E-19 1.22153E-18
 -1      3722 9.49411E-05-2.81769E-05-2.86110E-05-2.76327E-06-2.36034E-20 8.49075E-19
 -1      3723 9.44889E-05-2.78323E-05-2.85743E-05-2.73194E-06-6.07757E-19-8.64268E-20
 -1      3724 9.59184E-05-2.92866E-05-2.85480E-05-3.50657E-06-3.89273E-19 1.57983E-18
 -1      3725 9.54770E-05-2.88109E-05-2.85647E-05-3.30876E-06-2.84512E-19 1.37130E-18
 -1      3726 9.48605E-05-2.83589E-05-2.85130E-05-3.39558E-06-4.47977E-19 9.57445E-19
 -1      3727 9.71225E-05-3.05793E-05-2.85108E-05-3.95448E-06 6.22506E-19 1.30455E-18
 -1      3728 9.64382E-05-2.98645E-05-2.85185E-05-3.83051E-06-5.59619E-20 1.25241E-18
 -1      3729 9.56299E-05-2.93060E-05-2.84443E-05-4.11904E-06-2.08028E-19 6.22359E-19
 -1      3730 9.89566E-05-3.24086E-05-2.85168E-05-4.17060E-06 3.47747E-19 4.92573E-19
 -1      3731 9.79797E-05-3.14338E-05-2.84971E-05-4.20551E-06 6.06653E-19 9.19448E-19
 -1      3732 9.69729E-05-3.08000E-05-2.83892E-05-4.81000E-06 6.94044E-19 1.24502E-18
 -1      3733 1.01521E-04-3.47433E-05-2.86238E-05-3.90525E-06-6.04512E-19 1.18230E-18
 -1      3734 1.00244E-04-3.35538E-05-2.85463E-05-4.22274E-06-6.02514E-20 3.70128E-19
 -1      3735 9.90816E-05-3.29322E-05-2.83901E-05-5.28377E-06 1.96898E-19 6.82794E-19
 -1      3736 1.04773E-04-3.73341E-05-2.89225E-05-2.81476E-06-1.17891E-18 2.02100E-18
 -1      3737 1.03284E-04-3.61052E-05-2.87424E-05-3.56398E-06-8.45085E-19 1.44151E-18
 -1      3738 1.02107E-04-3.56718E-05-2.85218E-05-5.22214E-06-9.32023E-19 1.00294E-18
 -1      3739 1.08395E-04-3.95504E-05-2.95398E-05-5.20681E-07-7.49046E-19 1.42277E-18
 -1      3740 1.06935E-04-3.86685E-05-2.91992E-05-1.81872E-06-9.21738E-19 1.96314E-18
 -1      3741 1.06054E-04-3.87207E-05-2.89036E-05-4.16206E-06-1.08210E-18 1.18465E-18
 -1      3742 1.11566E-04-4.02355E-05-3.06170E-05 3.05877E-06-7.03112E-20 1.28859E-18
 -1      3743 1.10559E-04-4.03079E-05-3.00622E-05 1.30913E-06-1.36105E-19 1.25924E-18
 -1      3744 1.10459E-04-4.12486E-05-2.97031E-05-1.53686E-06-4.55982E-19 1.09778E-18
 -1      3745 1.13109E-04-3.79880E-05-3.22228E-05 7.40637E-06-1.88236E-18 1.72655E-18
 -1      3746 1.13185E-04-3.97251E-05-3.14665E-05 5.67245E-06-1.11162E-18 1.11666E-18
 -1      3747 1.14445E-04-4.18836E-05-3.11398E-05 2.83787E-06-5.19848E-19 1.33816E-18
 -1      3748 1.13788E-04-3.21152E-05-3.50516E-05 1.09333E-05 9.55056E-19-8.03808E-19
 -1      3749 1.15067E-04-3.59788E-05-3.39715E-05 9.87541E-06-7.39913E-20 8.35103E-19
 -1      3750 1.06114E-04-1.66092E-05-3.84052E-05 5.58314E-06-1.05281E-18-1.77417E-18
 -1      3751 1.07660E-04-1.96662E-05-3.78828E-05 8.85073E-06-5.67016E-19-2.02365E-18
 -1      3752 1.05607E-04-1.75872E-05-3.77975E-05-5.91879E-06 5.48421E-19-1.61947E-18
 -1      3753 1.04830E-04-1.61502E-05-3.80407E-05-1.81120E-06-2.40862E-19-1.94578E-18
 -1      3754 1.07297E-04-2.08889E-05-3.71517E-05-8.52758E-06-4.13590E-20-1.85803E-18
 -1      3755 1.11152E-04-3.11281E-05-3.44706E-05-1.05714E-05-1.05040E-18-2.97493E-18
 -1      3756 1.09501E-04-2.67578E-05-3.53853E-05-1.08321E-05-1.08518E-18-1.89582E-18
 -1      3757 1.13973E-04-3.87682E-05-3.22953E-05-7.05084E-06-8.01990E-19-1.43832E-18
 -1      3758 1.13500E-04-3.59484E-05-3.31814E-05-8.78355E-06-1.71729E-18-2.63007E-18
 -1      3759 1.12494E-04-4.09041E-05-3.06501E-05-2.45947E-06 6.45166E-19-1.47188E-18
 -1      3760 1.13084E-04-4.00814E-05-3.13036E-05-4.36436E-06 2.88436E-19-7.61943E-19
 -1      3761 1.16115E-04-4.12483E-05-3.20390E-05-4.70590E-06-5.44364E-19-3.08728E-18
 -1      3762 1.09212E-04-4.00173E-05-2.95999E-05 1.44346E-06 2.24163E-18-1.94648E-18
 -1      3763 1.10526E-04-4.05996E-05-3.00089E-05-1.03044E-07 1.68753E-18-1.90963E-18
 -1      3764 1.13091E-04-4.25416E-05-3.03101E-05 5.98289E-07 1.62598E-18-2.57007E-18
 -1      3765 1.05487E-04-3.76048E-05-2.90427E-05 3.90638E-06 1.78246E-18-1.74891E-18
 -1      3766 1.07038E-04-3.88307E-05-2.92562E-05 2.88556E-06 1.79342E-18-1.86607E-18
 -1      3767 1.08784E-04-4.05276E-05-2.93077E-05 4.11048E-06 1.95719E-18-2.98431E-18
 -1      3768 1.02166E-04-3.47930E-05-2.88326E-05 5.06402E-06 1.84305E-18-7.49145E-19
 -1      3769 1.03575E-04-3.61428E-05-2.89075E-05 4.53532E-06 1.96929E-18-7.24281E-19
 -1      3770 1.04577E-04-3.73416E-05-2.88440E-05 5.87164E-06 1.27989E-18-2.23789E-18
 -1      3771 1.19828E-04-3.85254E-05-3.50835E-05-9.17568E-06-1.24387E-18-3.63843E-18
 -1      3772 1.20523E-04-4.39902E-05-3.27519E-05-3.72946E-06-1.71096E-18-3.98130E-18
 -1      3773 9.37617E-05-2.08314E-05-3.12650E-05-1.51585E-07 3.64575E-19-6.14804E-19
 -1      3774 9.37986E-05-2.09095E-05-3.12481E-05-7.12560E-07 2.96614E-19-8.29866E-19
 -1      3775 9.44095E-05-2.20025E-05-3.10221E-05-6.77835E-07 3.19974E-19-8.66343E-19
 -1      3776 9.44951E-05-2.21135E-05-3.10023E-05 7.11205E-08 3.91346E-19-4.53594E-19
 -1      3777 1.15201E-04-3.47036E-05-3.45097E-05-9.78984E-06-1.37841E-18-3.67045E-18
 -1      3778 6.29809E-05-1.26951E-05-2.16388E-05-9.99791E-06 7.06713E-19 5.99805E-19
 -1      3779 6.53642E-05-1.55770E-05-2.11402E-05-1.72915E-05 8.63550E-19 4.22127E-19
 -1      3780 8.47013E-05-2.95999E-05-2.36498E-05 2.44816E-05 6.19214E-19-3.09945E-18
 -1      3781 7.65090E-05-2.35827E-05-2.25764E-05 2.21337E-05 9.11030E-19-1.56935E-18
 -1      3782 7.94040E-05-2.29795E-05-2.40542E-05 1.77752E-05 8.87788E-19-1.16916E-18
 -1      3783 9.43374E-05-2.20393E-05-3.09956E-05 2.58716E-06 9.02635E-19-3.05410E-19
 -1      3784 9.41261E-05-2.15705E-05-3.10994E-05 2.15505E-06 8.37660E-19-2.52715E-19
 -1      3785 9.47086E-05-2.26404E-05-3.08712E-05 1.58029E-06 7.90292E-19-2.77376E-19
 -1      3786 9.47536E-05-2.28903E-05-3.07921E-05 2.27183E-06 8.56655E-19-3.03403E-19
 -1      3787 6.98720E-05-2.03776E-05-2.12142E-05-2.25582E-05 8.04470E-19 6.86705E-19
 -1      3788 7.82598E-05-2.70076E-05-2.18849E-05-2.73099E-05-9.79382E-22 7.37594E-19
 -1      3789 7.24337E-05-1.94410E-05-2.25684E-05-1.83886E-05 4.83219E-19 7.91870E-19
 -1      3790 6.72191E-05-1.33929E-05-2.30350E-05-7.63073E-06 3.74407E-19 1.47149E-18
 -1      3791 9.50393E-05-2.81686E-05-2.86566E-05-8.95563E-07-4.66425E-19 4.06008E-19
 -1      3792 9.50957E-05-2.82549E-05-2.86480E-05-8.31613E-07-2.49642E-19 3.59900E-19
 -1      3793 9.51089E-05-2.82629E-05-2.86482E-05-7.44368E-07-3.50360E-19 7.39131E-19
 -1      3794 9.90872E-05-3.16459E-05-2.88923E-05 4.88988E-06 1.55070E-18 3.66349E-19
 -1      3795 9.59540E-05-2.57579E-05-3.00756E-05-8.91683E-07-6.29856E-20-7.93596E-19
 -1      3796 9.61412E-05-2.64859E-05-2.98637E-05-4.49903E-07-1.12874E-19-7.34446E-19
 -1      3797 9.62879E-05-2.65965E-05-2.98639E-05-3.21663E-07-5.57442E-20-5.99592E-19
 -1      3798 9.54425E-05-2.43802E-05-3.04522E-05-1.20062E-06-6.23759E-20-6.20970E-19
 -1      3799 1.05554E-04-1.46650E-05-3.91892E-05 5.62343E-07-8.96478E-19-2.48381E-18
 -1      3800 1.06697E-04-4.55406E-05-2.60880E-05-2.36747E-05 2.84457E-19-1.07652E-18
 -1      3801 1.10562E-04-4.65764E-05-2.74020E-05-1.83919E-05 2.71520E-19-1.28773E-18
 -1      3802 1.00821E-04-4.16476E-05-2.53548E-05-2.45426E-05 1.41693E-19-1.66754E-18
 -1      3803 9.23333E-05-2.77386E-05-2.77203E-05 1.05756E-05 2.82574E-18-3.07237E-18
 -1      3804 7.13846E-05-1.57656E-05-2.36911E-05-1.11499E-05 8.36473E-19 1.14149E-18
 -1      3805 1.12664E-04-4.76815E-05-2.77392E-05 1.74552E-05-8.02628E-19-2.65602E-18
 -1      3806 1.05744E-04-4.28312E-05-2.70293E-05 1.85373E-05-7.87039E-19-2.75258E-18
 -1      3807 1.15306E-04-4.72320E-05-2.91381E-05 1.07888E-05-6.76898E-20-4.19784E-18
 -1      3808 1.22737E-04-4.36716E-05-3.39484E-05 5.53695E-06-4.65061E-19-8.02180E-19
 -1      3809 1.20827E-04-4.03781E-05-3.45704E-05 7.89840E-06 5.04137E-19-2.76622E-19
 -1      3810 1.21516E-04-4.51832E-05-3.26983E-05 2.69927E-06-9.64311E-19-2.47969E-19
 -1      3811 9.61342E-05-2.64219E-05-2.98679E-05 5.82320E-07 8.85132E-19-3.39795E-19
 -1      3812 9.59728E-05-2.57519E-05-3.00953E-05 7.32448E-07 8.42756E-19-9.48319E-20
 -1      3813 9.62561E-05-2.70285E-05-2.96767E-05 1.86717E-07 5.75196E-19-1.36695E-19
 -1      3814 1.15959E-04-4.80338E-05-2.91106E-05-1.12977E-05-5.55455E-19-1.17250E-18
 -1      3815 1.20482E-04-4.99489E-05-3.02152E-05-8.40499E-06-1.30738E-18-1.32836E-18
 -1      3816 1.19439E-04-4.74646E-05-3.09048E-05-3.51656E-06-8.42513E-19-1.61538E-18
 -1      3817 9.49154E-05-2.80489E-05-2.86569E-05-8.76422E-07-6.40809E-19 9.83396E-19
 -1      3818 9.57262E-05-2.89259E-05-2.86291E-05-7.17310E-07-2.58894E-19-4.18374E-19
 -1      3819 9.58616E-05-2.89950E-05-2.86583E-05-6.48713E-07 1.36615E-20-3.85828E-19
 -1      3820 9.56609E-05-2.88635E-05-2.86258E-05-7.02667E-07-4.03707E-19-1.25626E-19
 -1      3821 9.69152E-05-3.17231E-05-2.79443E-05 1.10255E-05 2.10040E-18-1.18490E-18
 -1      3822 9.88654E-05-3.30152E-05-2.81918E-05 1.00837E-05 1.65482E-18-9.54762E-19
 -1      3823 9.23118E-05-3.35894E-05-2.50688E-05 2.20341E-05-2.83931E-19-5.13389E-18
 -1      3824 9.64090E-05-2.88844E-05-2.89402E-05-7.69378E-07-7.08263E-21-2.81576E-19
 -1      3825 9.64543E-05-2.87398E-05-2.90171E-05-6.97112E-07-7.15304E-20-1.88134E-19
 -1      3826 9.59820E-05-2.90766E-05-2.86725E-05-7.79240E-07 2.47756E-19-3.23545E-20
 -1      3827 9.60507E-05-2.90967E-05-2.86938E-05-7.98199E-07 4.11056E-19 1.05579E-19
 -1      3828 9.60480E-05-2.91017E-05-2.86928E-05-6.81399E-07 3.19693E-19-3.77310E-19
 -1      3829 7.96659E-05-1.83627E-05-2.62876E-05 5.87376E-06-5.40946E-19 2.37764E-18
 -1      3830 8.18655E-05-2.01951E-05-2.63668E-05 8.48700E-06-1.01296E-19-7.41038E-20
 -1      3831 9.54881E-05-2.86708E-05-2.86366E-05-6.29620E-07-2.41005E-19 1.86733E-19
 -1      3832 9.55035E-05-2.87103E-05-2.86239E-05-6.92224E-07-1.71122E-19-6.02139E-20
 -1      3833 9.55668E-05-2.87848E-05-2.86217E-05-6.94030E-07-1.71208E-19-4.56703E-20
 -1      3834 1.11823E-04-2.23025E-05-3.84282E-05 1.11514E-05-3.19384E-19-1.88749E-18
 -1      3835 1.08174E-04-2.40506E-05-3.60929E-05 1.00835E-05 4.56604E-22-1.97277E-18
 -1      3836 1.09904E-04-2.80044E-05-3.53141E-05 1.13340E-05 4.05160E-19-1.19816E-18
 -1      3837 1.19363E-04-4.57769E-05-3.16452E-05-6.15539E-07-3.68693E-19-3.86493E-18
 -1      3838 1.00688E-04-3.34925E-05-2.87950E-05 5.49730E-06 1.65978E-18-3.55810E-19
 -1      3839 1.01160E-04-3.42149E-05-2.86931E-05 6.68691E-06 1.04121E-18 8.00794E-20
 -1      3840 9.98841E-05-3.26580E-05-2.88000E-05 5.60115E-06 1.41238E-18-4.20491E-19
 -1      3841 7.94481E-05-1.72854E-05-2.66849E-05 1.68337E-06-2.66257E-19 2.74095E-18
 -1      3842 7.43526E-05-1.64150E-05-2.49254E-05 6.64617E-06-4.07623E-19 1.71715E-18
 -1      3843 7.79779E-05-1.73536E-05-2.59773E-05 4.83739E-06-3.61333E-19 1.68872E-18
 -1      3844 1.00039E-04-3.36885E-05-2.84212E-05 8.73767E-06 1.29808E-18-7.38940E-19
 -1      3845 1.00748E-04-3.41148E-05-2.85476E-05 7.91543E-06 4.05599E-19 2.80022E-19
 -1      3846 1.02325E-04-3.56190E-05-2.85844E-05 7.54356E-06 1.35963E-18-8.52205E-19
 -1      3847 9.49202E-05-2.30794E-05-3.07862E-05-9.06251E-07 1.90243E-19-9.23705E-19
 -1      3848 9.50581E-05-2.33929E-05-3.07140E-05-1.24968E-06 1.31160E-19-7.80083E-19
 -1      3849 9.57747E-05-2.50660E-05-3.03093E-05-6.83423E-07-6.30601E-20-6.69860E-19
 -1      3850 9.49304E-05-2.30869E-05-3.07964E-05-5.59981E-07 2.41991E-19-8.61466E-19
 -1      3851 8.46613E-05-3.08668E-05-2.29210E-05-2.68767E-05-7.02706E-20-1.07653E-18
 -1      3852 9.16025E-05-3.50309E-05-2.42797E-05-2.55024E-05-1.37600E-19-2.06485E-18
 -1      3853 8.31799E-05-2.81027E-05-2.36368E-05-2.33804E-05 8.31283E-20-6.12067E-19
 -1      3854 8.50761E-05-2.30620E-05-2.66420E-05 1.06739E-05-1.42077E-20-2.76472E-18
 -1      3855 8.81844E-05-2.52697E-05-2.68807E-05 1.19009E-05 1.77553E-18-4.17843E-18
 -1      3856 8.25463E-05-2.19368E-05-2.59403E-05 1.15493E-05 5.55427E-19-2.12228E-18
 -1      3857 9.50307E-05-2.32833E-05-3.07598E-05 1.99412E-07 5.14095E-19-3.17517E-19
 -1      3858 9.49802E-05-2.31550E-05-3.07846E-05-1.23525E-07 3.78343E-19-4.82588E-19
 -1      3859 1.00593E-04-3.48648E-05-2.81853E-05 1.01765E-05 4.79959E-19-3.78809E-19
 -1      3860 9.62889E-05-2.90557E-05-2.88142E-05-8.22305E-07 5.54732E-20-5.33461E-19
 -1      3861 9.63499E-05-2.89868E-05-2.88675E-05-7.99133E-07-1.04265E-20-5.13955E-19
 -1      3862 9.65379E-05-2.89544E-05-2.89660E-05-6.74806E-07 1.74090E-19-2.37432E-19
 -1      3863 9.51220E-05-2.35124E-05-3.06995E-05 8.36267E-07 7.27733E-19-1.91413E-19
 -1      3864 9.50589E-05-2.33480E-05-3.07392E-05 4.85966E-07 5.52895E-19-1.99329E-19
 -1      3865 9.55438E-05-2.42695E-05-3.05300E-05 2.57526E-07 5.42886E-19-2.12210E-19
 -1      3866 7.63528E-05-1.88549E-05-2.45975E-05 1.21609E-05 4.10814E-19 8.80931E-20
 -1      3867 1.16916E-04-2.82662E-05-3.81183E-05 1.26226E-05 4.30928E-19-1.17339E-18
 -1      3868 1.17760E-04-4.60101E-05-3.07238E-05 2.50484E-06 3.85374E-19-4.41549E-18
 -1      3869 9.67762E-05-2.82667E-05-2.93587E-05 2.93827E-07-2.96100E-19-6.02850E-19
 -1      3870 9.67820E-05-2.85591E-05-2.92408E-05 4.09273E-07-2.48160E-19-6.03217E-19
 -1      3871 9.67712E-05-2.87882E-05-2.91334E-05 4.58726E-07-7.23793E-20-5.55082E-19
 -1      3872 9.67264E-05-2.89558E-05-2.90456E-05 5.19583E-07-1.27144E-19-5.21141E-19
 -1      3873 9.68612E-05-2.86467E-05-2.92351E-05 3.28259E-07-1.46642E-19-6.26355E-19
 -1      3874 9.66650E-05-2.90749E-05-2.89655E-05 5.37966E-07-5.52857E-20-6.17938E-19
 -1      3875 9.65911E-05-2.91529E-05-2.89021E-05 5.62276E-07-3.83219E-20-4.32891E-19
 -1      3876 9.67873E-05-2.90177E-05-2.90452E-05 4.07862E-07-5.72917E-20-5.83331E-19
 -1      3877 9.65002E-05-2.91939E-05-2.88443E-05 5.61384E-07-1.70623E-19-1.60348E-19
 -1      3878 9.64111E-05-2.92086E-05-2.88005E-05 5.63708E-07-1.48670E-19-7.31730E-20
 -1      3879 9.66347E-05-2.91923E-05-2.89054E-05 4.38007E-07 1.47882E-20-4.53580E-19
 -1      3880 9.63046E-05-2.91949E-05-2.87605E-05 5.52687E-07-1.66007E-19-4.52226E-20
 -1      3881 9.62085E-05-2.91649E-05-2.87320E-05 5.44113E-07-3.89661E-19 2.69626E-19
 -1      3882 9.64381E-05-2.92280E-05-2.88060E-05 4.38253E-07-1.44374E-19 2.72756E-19
 -1      3883 9.60940E-05-2.91123E-05-2.87061E-05 5.29863E-07-4.80303E-19 3.62145E-19
 -1      3884 9.59947E-05-2.90501E-05-2.86895E-05 5.18863E-07-2.58560E-19 6.96535E-19
 -1      3885 9.62186E-05-2.91650E-05-2.87387E-05 4.23687E-07-2.87365E-19 4.88184E-19
 -1      3886 9.58756E-05-2.89688E-05-2.86745E-05 5.06232E-07-2.29523E-19 8.00918E-19
 -1      3887 9.57735E-05-2.88817E-05-2.86669E-05 4.98853E-07-2.08335E-20 8.15418E-19
 -1      3888 9.59870E-05-2.90307E-05-2.86967E-05 4.05355E-07-1.88869E-19 1.05918E-18
 -1      3889 9.56493E-05-2.87771E-05-2.86601E-05 4.90997E-07 2.39797E-19 9.74082E-19
 -1      3890 9.55419E-05-2.86683E-05-2.86593E-05 4.91347E-07 5.06467E-19 8.34904E-19
 -1      3891 9.57460E-05-2.88419E-05-2.86737E-05 3.90861E-07 1.78038E-19 1.40145E-18
 -1      3892 9.54093E-05-2.85422E-05-2.86583E-05 4.89874E-07 3.35322E-19 6.24824E-19
 -1      3893 9.52915E-05-2.84118E-05-2.86622E-05 5.00327E-07 2.16697E-19 2.97874E-19
 -1      3894 9.54920E-05-2.86071E-05-2.86649E-05 3.84622E-07 1.74000E-19 1.23761E-18
 -1      3895 9.51366E-05-2.82547E-05-2.86651E-05 5.05565E-07 1.64430E-19 1.99548E-19
 -1      3896 9.49927E-05-2.80910E-05-2.86723E-05 5.28164E-07 4.36586E-19 3.39074E-20
 -1      3897 9.52080E-05-2.83195E-05-2.86657E-05 3.87808E-07 7.55912E-20 7.45350E-19
 -1      3898 9.48206E-05-2.79131E-05-2.86765E-05 5.37584E-07 3.98218E-19-6.00453E-19
 -1      3899 9.46532E-05-2.77262E-05-2.86840E-05 5.68392E-07 5.13391E-20-8.15483E-19
 -1      3900 9.48849E-05-2.79801E-05-2.86716E-05 3.97584E-07-1.55566E-20-5.47946E-20
 -1      3901 9.44463E-05-2.75151E-05-2.86870E-05 5.77130E-07-1.35712E-19-6.72074E-19
 -1      3902 9.42343E-05-2.72901E-05-2.86927E-05 6.12293E-07-1.48104E-19-9.46363E-19
 -1      3903 9.45114E-05-2.75902E-05-2.86774E-05 4.05483E-07-1.27036E-19-1.07581E-18
 -1      3904 9.39783E-05-2.70378E-05-2.86913E-05 6.11231E-07-3.64527E-19-8.11805E-19
 -1      3905 9.37018E-05-2.67651E-05-2.86915E-05 6.41279E-07-4.79096E-19-8.04373E-19
 -1      3906 9.40554E-05-2.71306E-05-2.86774E-05 3.96126E-07 3.08878E-20-1.12899E-18
 -1      3907 9.33795E-05-2.64627E-05-2.86813E-05 6.15254E-07-4.47752E-19-4.56280E-19
 -1      3908 9.30130E-05-2.61312E-05-2.86707E-05 6.23759E-07-2.63947E-19-3.41813E-19
 -1      3909 9.34863E-05-2.65885E-05-2.86639E-05 3.43189E-07-1.93977E-19-6.35740E-19
 -1      3910 9.26042E-05-2.57706E-05-2.86455E-05 5.48793E-07-6.22803E-19-3.66655E-19
 -1      3911 9.21143E-05-2.53689E-05-2.86163E-05 5.09057E-07-1.16930E-18-1.78703E-19
 -1      3912 9.27676E-05-2.59521E-05-2.86261E-05 2.04673E-07-8.10613E-19-6.14048E-19
 -1      3913 9.15965E-05-2.49442E-05-2.85671E-05 3.48773E-07-1.01027E-18-9.15798E-20
 -1      3914 9.09408E-05-2.44629E-05-2.85075E-05 2.19455E-07-8.89187E-19 1.66800E-19
 -1      3915 9.18577E-05-2.52147E-05-2.85493E-05-8.36274E-08-1.02412E-18-1.14866E-18
 -1      3916 9.02904E-05-2.39746E-05-2.84213E-05-7.93998E-08-1.05278E-18 2.91041E-19
 -1      3917 8.94162E-05-2.34101E-05-2.83134E-05-3.59785E-07-6.28316E-19 2.49918E-19
 -1      3918 9.07117E-05-2.43813E-05-2.84118E-05-6.16434E-07-8.49786E-19-8.54087E-19
 -1      3919 8.86118E-05-2.28716E-05-2.81718E-05-8.72622E-07-3.65974E-19-2.80407E-19
 -1      3920 8.74551E-05-2.22326E-05-2.79888E-05-1.39224E-06-4.04274E-19-1.91604E-19
 -1      3921 8.92866E-05-2.34798E-05-2.81834E-05-1.52903E-06-4.67863E-19-6.86688E-19
 -1      3922 8.64837E-05-2.16807E-05-2.77655E-05-2.22237E-06-9.34832E-19-4.84037E-19
 -1      3923 8.49675E-05-2.09983E-05-2.74669E-05-3.10362E-06-6.67981E-19-7.12101E-19
 -1      3924 8.75504E-05-2.25779E-05-2.78216E-05-3.00879E-06-8.15295E-19-7.55348E-19
 -1      3925 8.38369E-05-2.05103E-05-2.71249E-05-4.39056E-06 9.97497E-20-1.09250E-18
 -1      3926 8.18610E-05-1.98504E-05-2.66498E-05-5.79812E-06 1.18229E-19-7.93768E-19
 -1      3927 8.55019E-05-2.18137E-05-2.72672E-05-5.30752E-06-4.49736E-19-1.10484E-18
 -1      3928 8.05512E-05-1.95584E-05-2.61092E-05-7.82960E-06 3.41684E-19-5.80449E-20
 -1      3929 7.79048E-05-1.90407E-05-2.53108E-05-1.01468E-05 5.80070E-19 2.73784E-19
 -1      3930 8.31425E-05-2.14248E-05-2.64134E-05-8.86872E-06 5.78948E-19-7.63778E-19
 -1      3931 9.79387E-05-3.69620E-05-2.61253E-05 2.04126E-05-8.01571E-19-4.78343E-18
 -1      3932 8.98764E-05-3.05026E-05-2.55253E-05 1.92048E-05 1.54571E-20-5.38067E-18
 -1      3933 9.51967E-05-2.38387E-05-3.05804E-05 1.52993E-06 8.50819E-19-2.12134E-19
 -1      3934 9.50600E-05-2.36694E-05-3.06026E-05 1.93127E-06 8.64509E-19-3.51788E-19
 -1      3935 9.52496E-05-2.84019E-05-2.86474E-05-5.85518E-07-6.84403E-19 5.87882E-19
 -1      3936 9.53452E-05-2.85107E-05-2.86447E-05-5.57258E-07-3.53401E-19 5.06033E-19
 -1      3937 1.14076E-04-4.37393E-05-3.01102E-05 2.82466E-06 1.72758E-18-2.91802E-18
 -1      3938 1.15890E-04-4.68604E-05-2.96351E-05 7.75992E-06 9.38859E-19-4.09659E-18
 -1      3939 1.11168E-04-4.42020E-05-2.86738E-05 1.05706E-05 6.68637E-19-2.45818E-18
 -1      3940 1.11840E-04-4.28881E-05-2.94499E-05 4.98555E-06 2.86791E-18-3.24159E-18
 -1      3941 9.43355E-05-2.74805E-05-2.86483E-05-1.32005E-06-4.79653E-19 3.55684E-19
 -1      3942 9.44149E-05-2.75670E-05-2.86524E-05-1.16466E-06-5.59554E-19 3.22197E-19
 -1      3943 9.45594E-05-2.76848E-05-2.86577E-05-1.02560E-06-9.45191E-19 2.93100E-19
 -1      3944 9.46527E-05-2.77930E-05-2.86570E-05-9.11693E-07-9.86033E-19 4.59923E-19
 -1      3945 9.43475E-05-2.75010E-05-2.86476E-05-9.91199E-07-9.58448E-19 5.47434E-19
 -1      3946 9.40473E-05-2.73382E-05-2.85821E-05-2.24146E-06-7.80132E-19 6.61617E-19
 -1      3947 9.40358E-05-2.73060E-05-2.86021E-05-1.98109E-06-6.35678E-19 5.63685E-19
 -1      3948 9.41056E-05-2.75403E-05-2.85178E-05-2.90780E-06-7.40977E-19 5.22884E-19
 -1      3949 9.39913E-05-2.73875E-05-2.85473E-05-2.58782E-06-7.75584E-19 3.99219E-19
 -1      3950 9.36272E-05-2.70638E-05-2.85302E-05-2.38943E-06-4.62747E-19 5.05806E-19
 -1      3951 9.44367E-05-2.80636E-05-2.84323E-05-3.72462E-06-5.26913E-19 6.91288E-19
 -1      3952 9.41583E-05-2.77307E-05-2.84696E-05-3.34982E-06-7.60028E-19 5.09120E-19
 -1      3953 9.36070E-05-2.72593E-05-2.84418E-05-3.19844E-06-5.77422E-19 2.88263E-19
 -1      3954 9.51992E-05-2.90486E-05-2.83339E-05-4.67096E-06-1.31567E-19 1.20621E-19
 -1      3955 9.46756E-05-2.84634E-05-2.83728E-05-4.26399E-06-1.27931E-19 1.46965E-19
 -1      3956 9.38716E-05-2.78100E-05-2.83258E-05-4.22609E-06-3.01757E-19 6.19050E-20
 -1      3957 9.66001E-05-3.06531E-05-2.82453E-05-5.66778E-06 5.13145E-19 7.61489E-19
 -1      3958 9.57344E-05-2.97400E-05-2.82715E-05-5.28458E-06 3.53604E-19 3.13226E-19
 -1      3959 9.46051E-05-2.88820E-05-2.81909E-05-5.46699E-06 1.16072E-20-4.39366E-19
 -1      3960 9.88839E-05-3.30173E-05-2.82135E-05-6.52874E-06 1.88842E-19 5.42926E-19
 -1      3961 9.75792E-05-3.17217E-05-2.81994E-05-6.28147E-06 7.16565E-19 7.25520E-19
 -1      3962 9.60634E-05-3.06737E-05-2.80629E-05-6.84791E-06 5.04699E-19-2.32651E-19
 -1      3963 1.02261E-04-3.61574E-05-2.83263E-05-6.89384E-06-8.18932E-19 4.27977E-19
 -1      3964 1.00474E-04-3.45135E-05-2.82237E-05-6.97165E-06-6.05404E-19 4.31069E-19
 -1      3965 9.85684E-05-3.33703E-05-2.79989E-05-8.14646E-06 1.23229E-20 1.71859E-19
 -1      3966 1.06814E-04-3.98203E-05-2.87300E-05-6.19295E-06-5.99329E-19-4.33788E-19
 -1      3967 1.04604E-04-3.80310E-05-2.84634E-05-6.87116E-06-3.71368E-19-7.09307E-20
 -1      3968 1.02446E-04-3.70209E-05-2.81095E-05-8.94902E-06-1.31840E-19-5.38384E-19
 -1      3969 1.17075E-04-4.45823E-05-3.10849E-05-1.97621E-07-7.46898E-19-3.15520E-19
 -1      3970 1.15094E-04-4.45535E-05-3.01518E-05-2.78789E-06-3.01463E-19-3.64959E-19
 -1      3971 1.18118E-04-3.94498E-05-3.37377E-05 7.79935E-06-1.18803E-19-1.57803E-19
 -1      3972 1.04325E-04-3.73276E-05-2.86880E-05 7.18158E-06 5.17066E-19-1.61933E-18
 -1      3973 1.16594E-04-3.20353E-05-3.62256E-05 1.15115E-05 8.03252E-19-3.97748E-19
 -1      3974 9.62183E-05-2.61489E-05-3.00285E-05-4.36817E-07-1.36627E-19-5.52799E-19
 -1      3975 9.64312E-05-2.68347E-05-2.98325E-05-1.37986E-07 5.89731E-20-4.99716E-19
 -1      3976 8.01757E-05-2.18852E-05-2.49741E-05 1.45177E-05 6.27762E-19-2.25201E-18
 -1      3977 1.06576E-04-3.93145E-05-2.87803E-05 7.11472E-06 4.54848E-19-2.19124E-18
 -1      3978 1.08900E-04-4.09282E-05-2.91003E-05 5.95757E-06 1.82274E-18-2.22370E-18
 -1      3979 1.08931E-04-4.19165E-05-2.88306E-05 8.52523E-06 1.17333E-18-1.47191E-18
 -1      3980 1.03877E-04-3.75410E-05-2.84714E-05 9.04261E-06 6.75807E-21 2.17747E-20
 -1      3981 1.02797E-04-3.68345E-05-2.82148E-05 1.04238E-05 3.47592E-19-5.14325E-19
 -1      3982 9.41490E-05-2.73457E-05-2.86246E-05-1.71836E-06-4.42084E-19 3.18794E-19
 -1      3983 9.41972E-05-2.73890E-05-2.86357E-05-1.51395E-06-4.18845E-19 5.29011E-19
 -1      3984 9.38062E-05-2.70955E-05-2.85910E-05-1.77441E-06-6.95706E-19 9.61084E-19
 -1      3985 9.61412E-05-2.91074E-05-2.87280E-05-8.15530E-07 6.49938E-20 1.35930E-19
 -1      3986 9.62085E-05-2.90912E-05-2.87632E-05-8.21162E-07 8.35525E-21-4.30247E-19
 -1      3987 9.62306E-05-2.91502E-05-2.87506E-05-7.10659E-07 6.24329E-20-4.18319E-20
 -1      3988 9.50254E-05-2.81648E-05-2.86528E-05-6.73407E-07-2.37586E-19 7.11226E-19
 -1      3989 9.51226E-05-2.82797E-05-2.86488E-05-6.22254E-07-4.15461E-19 6.88667E-19
 -1      3990 9.51669E-05-2.83109E-05-2.86523E-05-5.08919E-07-3.63782E-19-9.60319E-20
 -1      3991 7.66890E-05-1.91384E-05-2.46179E-05-1.25922E-05 6.16868E-19 5.00742E-19
 -1      3992 7.35405E-05-1.87089E-05-2.35597E-05-1.52423E-05 7.89906E-19 7.84855E-19
 -1      3993 7.84536E-05-2.29226E-05-2.36541E-05-1.97133E-05 5.66294E-19 5.32592E-19
 -1      3994 8.07371E-05-2.17636E-05-2.52308E-05-1.36941E-05 9.75122E-19-2.53114E-19
 -1      3995 8.51966E-05-2.58824E-05-2.54358E-05 1.68621E-05 6.77408E-19-5.21110E-18
 -1      3996 9.54683E-05-2.41294E-05-3.05629E-05-3.60716E-07 2.95666E-19-6.73573E-19
 -1      3997 9.47938E-05-2.79209E-05-2.86577E-05-8.15570E-07-7.06171E-19 4.38935E-19
 -1      3998 9.48913E-05-2.80367E-05-2.86543E-05-7.36124E-07-4.38084E-19 6.78341E-19
 -1      3999 9.46332E-05-2.77705E-05-2.86545E-05-7.61167E-07-6.80284E-19 4.09487E-19
 -1      4000 9.66171E-05-2.86201E-05-2.91426E-05-5.50873E-07-3.83683E-20-4.03944E-19
 -1      4001 9.64749E-05-2.85416E-05-2.91170E-05-6.17498E-07-1.26941E-19-2.01245E-19
 -1      4002 9.64893E-05-2.82892E-05-2.92240E-05-4.70406E-07 9.98467E-20-1.94955E-19
 -1      4003 9.15102E-05-2.79579E-05-2.72781E-05 1.22105E-05 2.00631E-18-4.26626E-18
 -1      4004 9.43847E-05-2.99304E-05-2.75652E-05 1.21337E-05 2.55493E-18-3.37993E-18
 -1      4005 9.64614E-05-3.23453E-05-2.75257E-05 1.28582E-05 1.72299E-18-2.54325E-18
 -1      4006 8.97342E-05-2.76680E-05-2.66630E-05 1.39916E-05 1.56562E-18-4.81629E-18
 -1      4007 9.51953E-05-2.37832E-05-3.06107E-05 1.21465E-06 7.83372E-19-2.74540E-19
 -1      4008 9.66177E-05-2.74224E-05-2.96534E-05 8.77204E-09 7.23523E-20-4.95294E-19
 -1      4009 9.67067E-05-2.78844E-05-2.94992E-05 2.00624E-07-8.90591E-20-4.30457E-19
 -1      4010 9.65570E-05-2.70022E-05-2.98072E-05-7.28343E-08 9.40545E-20-6.09690E-19
 -1      4011 9.56170E-05-2.45959E-05-3.04263E-05 8.58788E-07 7.77989E-19-2.33817E-19
 -1      4012 9.54662E-05-2.86231E-05-2.86456E-05-5.40275E-07-6.66219E-19 2.95241E-19
 -1      4013 9.55607E-05-2.87222E-05-2.86460E-05-5.29569E-07-8.82191E-19-2.99109E-19
 -1      4014 9.54128E-05-2.85573E-05-2.86526E-05-4.55497E-07-7.12993E-19-4.24832E-19
 -1      4015 9.68070E-05-2.80057E-05-2.94853E-05 1.76239E-07-1.67738E-19-5.38896E-19
 -1      4016 9.40627E-05-2.72623E-05-2.86283E-05-1.31942E-06-5.64612E-19 4.40527E-19
 -1      4017 9.06769E-05-2.91529E-05-2.63214E-05 1.58469E-05 6.63677E-19-4.91526E-18
 -1      4018 1.03153E-04-3.95040E-05-2.72302E-05 1.64115E-05-8.82397E-19-2.91533E-18
 -1      4019 1.13367E-04-4.71416E-05-2.83686E-05-1.40395E-05 2.47128E-19-3.14332E-19
 -1      4020 1.14411E-04-4.63030E-05-2.91691E-05-9.33113E-06-2.74230E-19-1.21306E-18
 -1      4021 1.09038E-04-4.47917E-05-2.75709E-05-1.64332E-05 2.79087E-19-1.01220E-18
 -1      4022 9.60964E-05-2.91187E-05-2.87035E-05-5.64216E-07 4.57055E-19-5.75396E-20
 -1      4023 9.61903E-05-2.91595E-05-2.87269E-05-5.75980E-07 3.80174E-19 1.85666E-19
 -1      4024 9.56749E-05-2.88475E-05-2.86412E-05-6.27422E-07-4.58212E-19-6.31185E-19
 -1      4025 9.67346E-05-2.87379E-05-2.91433E-05-4.93922E-07 3.05028E-20 1.08918E-19
 -1      4026 9.67536E-05-2.85040E-05-2.92473E-05-3.99189E-07-2.42509E-21 1.94161E-19
 -1      4027 9.64447E-05-2.79551E-05-2.93577E-05-3.18019E-07 2.72234E-19-2.04444E-19
 -1      4028 9.64054E-05-2.75519E-05-2.95025E-05-6.50604E-08 3.73460E-19-2.43134E-19
 -1      4029 9.64029E-05-2.71139E-05-2.96927E-05 1.10419E-07 4.55917E-19 8.58963E-20
 -1      4030 9.65941E-05-2.80391E-05-2.93804E-05-3.04653E-07 2.16272E-19-7.08621E-20
 -1      4031 9.59255E-05-2.52051E-05-3.03172E-05 3.00676E-07 6.16557E-19-1.16608E-19
 -1      4032 9.59021E-05-2.51263E-05-3.03402E-05 7.68659E-08 5.67439E-19-8.18691E-20
 -1      4033 9.63997E-05-2.91136E-05-2.88387E-05-7.16942E-07-7.74887E-20-2.35124E-19
 -1      4034 1.13356E-04-4.49035E-05-2.94105E-05-6.86080E-06-5.56166E-19-1.82545E-18
 -1      4035 1.11898E-04-4.26996E-05-2.96518E-05-3.24897E-06-5.10471E-19-3.66156E-19
 -1      4036 1.09605E-04-4.14392E-05-2.91094E-05-4.96166E-06-7.14431E-19-5.76207E-19
 -1      4037 1.11167E-04-4.39266E-05-2.87394E-05-9.33394E-06-4.26577E-19-1.23779E-18
 -1      4038 1.07558E-04-4.10079E-05-2.86007E-05-8.09576E-06-2.25840E-19-1.02613E-18
 -1      4039 1.19110E-04-4.40874E-05-3.20678E-05 2.75219E-06-1.16790E-18 1.55755E-19
 -1      4040 1.00960E-04-3.61741E-05-2.77848E-05 1.28885E-05 3.14193E-19-1.15240E-18
 -1      4041 1.04754E-04-3.91102E-05-2.81245E-05 1.14881E-05-5.64594E-19-5.56751E-19
 -1      4042 1.07709E-04-4.14014E-05-2.83778E-05 1.10982E-05 4.58665E-19-1.56129E-18
 -1      4043 9.82304E-05-3.43152E-05-2.73375E-05 1.42122E-05 1.18061E-19-2.67488E-18
 -1      4044 9.59183E-05-2.52894E-05-3.02679E-05-4.72165E-07 1.89925E-20-6.36302E-19
 -1      4045 9.66415E-05-2.90422E-05-2.89716E-05-5.78132E-07 1.63493E-19 3.18738E-19
 -1      4046 9.66992E-05-2.89157E-05-2.90480E-05-5.32662E-07 2.02169E-19 2.18093E-19
 -1      4047 9.68149E-05-2.88145E-05-2.91438E-05-3.99154E-07 1.29193E-19 3.22913E-19
 -1      4048 9.59345E-05-2.51993E-05-3.03215E-05-5.88751E-08 4.31839E-19-2.85123E-19
 -1      4049 9.58825E-05-2.51299E-05-3.03281E-05-3.59912E-07 2.22983E-19-6.35106E-19
 -1      4050 9.63389E-05-2.62088E-05-3.00487E-05-1.50628E-07 1.95520E-19-4.93836E-19
 -1      4051 9.62915E-05-2.59785E-05-3.01226E-05 2.14933E-08 4.58864E-19-4.50512E-20
 -1      4052 9.34404E-05-3.44160E-05-2.53585E-05-2.14605E-05 1.81391E-19-2.39568E-18
 -1      4053 9.71113E-05-3.79702E-05-2.52113E-05-2.33063E-05-1.20310E-19-2.32318E-18
 -1      4054 1.02060E-04-4.05419E-05-2.63840E-05-1.99985E-05 8.32816E-19-2.32155E-18
 -1      4055 9.49075E-05-2.80455E-05-2.86545E-05-6.06347E-07-4.37197E-19 6.41782E-19
 -1      4056 9.59829E-05-2.90577E-05-2.86822E-05-5.50198E-07 2.81205E-19 1.67400E-19
 -1      4057 9.61079E-05-2.91157E-05-2.87124E-05-4.49535E-07 2.40168E-19 3.48584E-19
 -1      4058 9.58889E-05-2.89912E-05-2.86690E-05-5.39846E-07-9.31449E-20 1.62330E-20
 -1      4059 9.59621E-05-2.55176E-05-3.01949E-05 5.04172E-07 7.36057E-19-1.70975E-19
 -1      4060 8.38057E-05-2.65376E-05-2.44593E-05-1.96405E-05 7.52564E-19-9.65558E-19
 -1      4061 9.68883E-05-2.89676E-05-2.91075E-05 2.65443E-07-5.64752E-20-2.49571E-19
 -1      4062 9.68258E-05-2.91006E-05-2.90253E-05 2.98513E-07 4.37565E-20-3.72492E-19
 -1      4063 9.67472E-05-2.91890E-05-2.89524E-05 2.97741E-07 1.26981E-19-2.78273E-19
 -1      4064 9.66559E-05-2.92384E-05-2.88928E-05 3.10560E-07 1.09256E-20 1.94396E-20
 -1      4065 9.68267E-05-2.91444E-05-2.90083E-05 1.68596E-07 6.42874E-20 2.99309E-19
 -1      4066 9.65503E-05-2.92542E-05-2.88403E-05 3.05254E-07-7.61482E-21 1.47850E-20
 -1      4067 9.64445E-05-2.92454E-05-2.87988E-05 3.07153E-07 4.02668E-20 2.24052E-19
 -1      4068 9.66406E-05-2.92537E-05-2.88818E-05 1.73629E-07 1.40985E-19 3.43472E-19
 -1      4069 9.63256E-05-2.92106E-05-2.87628E-05 2.97122E-07-3.03470E-19 6.24314E-19
 -1      4070 9.62109E-05-2.91591E-05-2.87356E-05 2.94266E-07-4.54921E-19 4.81835E-19
 -1      4071 9.64196E-05-2.92403E-05-2.87933E-05 1.71458E-07-9.35391E-20 3.64160E-19
 -1      4072 9.60851E-05-2.90883E-05-2.87124E-05 2.84387E-07-1.46182E-19 7.94209E-19
 -1      4073 9.59653E-05-2.90057E-05-2.86962E-05 2.80371E-07 1.00128E-19 8.13168E-19
 -1      4074 9.61756E-05-2.91358E-05-2.87334E-05 1.65380E-07-1.10019E-19 5.20718E-19
 -1      4075 9.58345E-05-2.89077E-05-2.86828E-05 2.72115E-07 4.75568E-20 1.02628E-18
 -1      4076 9.57098E-05-2.88007E-05-2.86749E-05 2.69371E-07 3.35590E-19 1.14836E-18
 -1      4077 9.59198E-05-2.89656E-05-2.86959E-05 1.56379E-07 1.51581E-19 7.31818E-19
 -1      4078 9.55722E-05-2.86795E-05-2.86685E-05 2.62479E-07 1.10776E-19 9.59106E-19
 -1      4079 9.54395E-05-2.85510E-05-2.86664E-05 2.62805E-07-2.84227E-19 7.28942E-19
 -1      4080 9.56536E-05-2.87450E-05-2.86755E-05 1.45654E-07 5.04578E-21 6.92262E-19
 -1      4081 9.52841E-05-2.84008E-05-2.86647E-05 2.54661E-07-3.66010E-19 6.60585E-19
 -1      4082 9.51283E-05-2.82412E-05-2.86664E-05 2.57471E-07-6.89210E-20 8.85915E-20
 -1      4083 9.53642E-05-2.84741E-05-2.86670E-05 1.32736E-07-5.53189E-19-3.45565E-20
 -1      4084 9.49630E-05-2.80746E-05-2.86671E-05 2.46457E-07-9.47491E-20-3.08672E-19
 -1      4085 9.47904E-05-2.78972E-05-2.86700E-05 2.48462E-07-5.70557E-19-5.71689E-19
 -1      4086 9.50461E-05-2.81575E-05-2.86654E-05 1.11968E-07-5.81522E-19-5.70667E-19
 -1      4087 9.46010E-05-2.77052E-05-2.86704E-05 2.28628E-07-5.21734E-19-7.74242E-19
 -1      4088 9.43933E-05-2.74988E-05-2.86718E-05 2.23787E-07-1.30385E-19-1.13208E-18
 -1      4089 9.46949E-05-2.78029E-05-2.86657E-05 7.44606E-08-5.92566E-19-1.08956E-18
 -1      4090 9.41706E-05-2.72778E-05-2.86690E-05 1.85802E-07 8.62718E-20-1.36102E-18
 -1      4091 9.39135E-05-2.70377E-05-2.86657E-05 1.63472E-07 1.38857E-19-1.43061E-18
 -1      4092 9.42864E-05-2.73994E-05-2.86624E-05 4.36117E-09 6.16599E-20-1.06604E-18
 -1      4093 9.36483E-05-2.67850E-05-2.86559E-05 9.27455E-08-1.57354E-19-1.43902E-18
 -1      4094 9.33248E-05-2.65069E-05-2.86433E-05 3.57007E-08-3.96394E-19-1.31969E-18
 -1      4095 9.38023E-05-2.69444E-05-2.86487E-05-1.23180E-07-7.92684E-20-1.81904E-18
 -1      4096 9.30081E-05-2.62220E-05-2.86217E-05-8.98580E-08-7.35319E-19-1.47564E-18
 -1      4097 9.25982E-05-2.59039E-05-2.85938E-05-2.08234E-07-1.04343E-18-1.61492E-18
 -1      4098 9.32242E-05-2.64395E-05-2.86163E-05-3.46049E-07-7.12798E-19-2.15848E-18
 -1      4099 9.22238E-05-2.55913E-05-2.85540E-05-4.20937E-07-1.12627E-18-1.49574E-18
 -1      4100 9.17052E-05-2.52359E-05-2.85020E-05-6.40250E-07-9.81644E-19-1.38411E-18
 -1      4101 9.25364E-05-2.58953E-05-2.85540E-05-7.19989E-07-8.86999E-19-1.96313E-18
 -1      4102 9.12724E-05-2.49091E-05-2.84354E-05-9.85794E-07-9.92101E-19-1.26249E-18
 -1      4103 9.06222E-05-2.45286E-05-2.83471E-05-1.36302E-06-7.50145E-19-1.35543E-18
 -1      4104 9.17312E-05-2.53389E-05-2.84474E-05-1.32431E-06-6.97506E-19-1.51522E-18
 -1      4105 9.01418E-05-2.42168E-05-2.82424E-05-1.90373E-06-4.53152E-19-1.04387E-18
 -1      4106 8.93402E-05-2.38392E-05-2.81009E-05-2.51818E-06-3.12565E-19-8.39117E-19
 -1      4107 9.08172E-05-2.48244E-05-2.82778E-05-2.26789E-06-5.72388E-19-1.72312E-18
 -1      4108 8.88442E-05-2.35967E-05-2.79441E-05-3.33563E-06-4.07393E-19-1.22988E-18
 -1      4109 8.78812E-05-2.32768E-05-2.77259E-05-4.29408E-06-5.40901E-19-1.05971E-18
 -1      4110 8.98341E-05-2.44492E-05-2.80217E-05-3.69421E-06-6.14530E-19-1.56999E-18
 -1      4111 8.74379E-05-2.31973E-05-2.75002E-05-5.48940E-06-4.97615E-19-3.41705E-19
 -1      4112 8.63223E-05-2.30342E-05-2.71738E-05-6.92853E-06-2.72957E-19-5.46298E-19
 -1      4113 8.88781E-05-2.43784E-05-2.76516E-05-5.78283E-06-6.66459E-20-1.13504E-18
 -1      4114 8.60589E-05-2.33051E-05-2.68450E-05-8.71111E-06 1.60562E-19-2.01990E-19
 -1      4115 8.48336E-05-2.34900E-05-2.63431E-05-1.09477E-05 8.82074E-19-2.33097E-19
 -1      4116 8.81331E-05-2.49029E-05-2.71236E-05-8.82554E-06 2.07615E-19 2.71982E-19
 -1      4117 9.56792E-05-2.88224E-05-2.86513E-05-5.28614E-07-5.49719E-19-3.57578E-19
 -1      4118 9.57727E-05-2.89075E-05-2.86569E-05-5.30890E-07-2.77452E-19-3.09023E-19
 -1      4119 9.56506E-05-2.87799E-05-2.86598E-05-4.33723E-07-8.50697E-19-5.71669E-19
 -1      4120 9.38009E-05-2.70228E-05-2.86142E-05-1.24624E-06-9.23139E-19 4.25956E-19
 -1      4121 9.39373E-05-2.71502E-05-2.86283E-05-1.05792E-06-4.73678E-19 1.21424E-19
 -1      4122 9.63273E-05-2.92040E-05-2.87690E-05-4.68581E-07 2.03063E-19 1.97922E-19
 -1      4123 9.62982E-05-2.91880E-05-2.87607E-05-5.89491E-07 2.44699E-19 1.18083E-20
 -1      4124 9.63889E-05-2.91924E-05-2.87975E-05-5.93341E-07-5.34415E-20 1.33498E-19
 -1      4125 9.68266E-05-2.77891E-05-2.95869E-05 6.72751E-08-1.30628E-19-2.98453E-19
 -1      4126 9.68944E-05-2.81983E-05-2.94435E-05 1.68887E-07-2.06996E-19-3.78491E-19
 -1      4127 9.64868E-05-2.91752E-05-2.88473E-05-6.02025E-07-1.27705E-19 2.87055E-19
 -1      4128 9.65657E-05-2.91252E-05-2.89015E-05-5.87667E-07 1.86850E-19 3.60720E-19
 -1      4129 9.67043E-05-2.90966E-05-2.89765E-05-4.59604E-07 1.46117E-20 6.61678E-19
 -1      4130 9.65344E-05-2.92113E-05-2.88549E-05-4.76672E-07-1.39828E-20 4.03638E-19
 -1      4131 1.06450E-04-4.15926E-05-2.78580E-05 1.42359E-05-4.79540E-19-1.52583E-18
 -1      4132 9.50860E-05-2.82190E-05-2.86560E-05-4.06748E-07-6.87225E-19-1.33633E-19
 -1      4133 9.52126E-05-2.83536E-05-2.86553E-05-3.70566E-07-6.30766E-19-2.37414E-19
 -1      4134 9.68219E-05-2.82964E-05-2.93676E-05-2.68948E-07 3.12452E-20 4.17543E-19
 -1      4135 9.67229E-05-2.81940E-05-2.93732E-05-3.18300E-07 1.38525E-19 7.68904E-20
 -1      4136 9.66776E-05-2.78123E-05-2.95111E-05-1.52033E-07 2.24845E-19 1.30901E-19
 -1      4137 9.41473E-05-2.73098E-05-2.86413E-05-9.01381E-07-6.46806E-19 4.85310E-20
 -1      4138 9.42905E-05-2.74555E-05-2.86477E-05-7.68627E-07-9.54279E-19 7.54495E-20
 -1      4139 9.38975E-05-2.70878E-05-2.86296E-05-8.20816E-07-6.61528E-19-6.80469E-19
 -1      4140 9.30716E-05-2.68270E-05-2.83742E-05-3.34056E-06-3.94695E-19-2.58633E-19
 -1      4141 9.30133E-05-2.66990E-05-2.84285E-05-2.87422E-06-3.41247E-19-1.03519E-19
 -1      4142 9.31977E-05-2.67013E-05-2.84871E-05-2.41725E-06-3.14710E-19-1.92798E-19
 -1      4143 9.32498E-05-2.67072E-05-2.85259E-05-2.06363E-06-4.39133E-19-1.21989E-19
 -1      4144 9.26319E-05-2.63093E-05-2.84254E-05-2.52794E-06-6.43735E-19-9.79905E-19
 -1      4145 9.38502E-05-2.83492E-05-2.80421E-05-6.08095E-06 2.81969E-19 6.05000E-21
 -1      4146 9.33018E-05-2.76992E-05-2.81192E-05-5.36517E-06 1.72839E-19-1.03460E-19
 -1      4147 9.52468E-05-3.01684E-05-2.78530E-05-7.88003E-06 4.25511E-19-3.36981E-20
 -1      4148 9.42448E-05-2.90838E-05-2.79207E-05-7.08655E-06 3.37024E-19-5.88927E-19
 -1      4149 9.27579E-05-2.78866E-05-2.78389E-05-7.01847E-06 5.95125E-19-4.83400E-19
 -1      4150 9.77956E-05-3.30546E-05-2.77137E-05-9.75778E-06 3.36472E-20 1.64590E-19
 -1      4151 9.61772E-05-3.14161E-05-2.77342E-05-9.03373E-06 6.18462E-19-3.52357E-19
 -1      4152 9.40104E-05-2.98355E-05-2.75710E-05-9.37550E-06 7.61972E-19-4.18605E-19
 -1      4153 1.01867E-04-3.70897E-05-2.77505E-05-1.12135E-05-1.78047E-19-4.72227E-19
 -1      4154 9.95590E-05-3.49040E-05-2.76537E-05-1.07989E-05-2.89454E-19-2.05554E-19
 -1      4155 9.66795E-05-3.31074E-05-2.73411E-05-1.20025E-05-4.64098E-20-1.56327E-19
 -1      4156 1.07569E-04-4.16315E-05-2.82805E-05-1.04707E-05-1.62028E-19-4.36048E-19
 -1      4157 1.04862E-04-3.94888E-05-2.79215E-05-1.13940E-05 1.10268E-19-3.88256E-19
 -1      4158 1.07847E-04-4.26690E-05-2.79838E-05-1.30776E-05 1.62787E-19-1.77467E-19
 -1      4159 9.32223E-05-2.73136E-05-2.82238E-05-4.55391E-06-5.67646E-20-4.40661E-19
 -1      4160 9.29749E-05-2.69753E-05-2.82928E-05-3.96070E-06-2.40389E-19-2.08320E-19
 -1      4161 9.23464E-05-2.63785E-05-2.82793E-05-3.62108E-06-3.17103E-19-8.22469E-19
 -1      4162 9.23146E-05-2.68305E-05-2.80827E-05-5.09967E-06 6.23891E-20-3.51467E-19
 -1      4163 9.45351E-05-3.19209E-05-2.67963E-05 1.59092E-05 6.36161E-19-4.58338E-18
 -1      4164 9.34683E-05-2.67987E-05-2.85651E-05-1.73626E-06-6.91510E-19-3.04511E-20
 -1      4165 9.35789E-05-2.68838E-05-2.85901E-05-1.47524E-06-8.05648E-19-2.34482E-19
 -1      4166 9.30337E-05-2.64679E-05-2.85266E-05-1.74409E-06-4.90892E-19-9.60500E-19
 -1      4167 9.47956E-05-2.79267E-05-2.86565E-05-5.06661E-07-6.16194E-19 6.10424E-19
 -1      4168 9.49292E-05-2.80710E-05-2.86557E-05-4.47087E-07-6.64410E-19 3.12326E-19
 -1      4169 9.49794E-05-2.81072E-05-2.86583E-05-3.03735E-07-1.02414E-18 2.59804E-19
 -1      4170 1.18300E-04-4.21458E-05-3.26829E-05 5.44759E-06-1.04112E-18 2.21354E-20
 -1      4171 8.49399E-05-2.42111E-05-2.59602E-05-1.29938E-05 1.09467E-18-7.74093E-19
 -1      4172 8.36398E-05-2.46447E-05-2.53477E-05-1.56302E-05 9.41884E-19-8.21374E-19
 -1      4173 8.79162E-05-2.63085E-05-2.64563E-05-1.26986E-05 8.54560E-19-2.94540E-19
 -1      4174 8.82623E-05-2.90080E-05-2.53061E-05-1.88042E-05 7.65468E-19-1.84648E-18
 -1      4175 9.44823E-05-2.76192E-05-2.86534E-05-6.64413E-07-1.15118E-18 5.19660E-19
 -1      4176 9.46226E-05-2.77684E-05-2.86549E-05-5.73521E-07-5.96806E-19 4.37283E-19
 -1      4177 9.46541E-05-2.77847E-05-2.86563E-05-4.06396E-07-6.87212E-19 5.19432E-19
 -1      4178 9.42942E-05-2.74407E-05-2.86488E-05-5.69899E-07-7.77649E-19-3.62382E-19
 -1      4179 9.93579E-05-3.63246E-05-2.70614E-05 1.60228E-05-5.05370E-19-2.47240E-18
 -1      4180 9.65340E-05-2.67868E-05-2.98954E-05-1.11171E-07 1.34818E-19-3.91510E-19
 -1      4181 9.67137E-05-2.73802E-05-2.97157E-05 3.42696E-08 6.59056E-20-3.37777E-19
 -1      4182 9.67972E-05-2.75704E-05-2.96671E-05 3.09709E-08-1.25922E-19 5.39695E-20
 -1      4183 9.65027E-05-2.66303E-05-2.99475E-05-5.70638E-08 2.72909E-19-1.31570E-20
 -1      4184 9.64058E-05-2.67181E-05-2.98646E-05 2.64088E-07 5.60483E-19 6.18643E-21
 -1      4185 9.60937E-05-2.56984E-05-3.01684E-05 3.31205E-07 5.96738E-19-1.63248E-19
 -1      4186 9.63965E-05-2.64055E-05-2.99940E-05 1.30072E-07 5.12803E-19-7.04473E-20
 -1      4187 9.65446E-05-2.72920E-05-2.96863E-05-8.51775E-09 3.78807E-19-5.07537E-21
 -1      4188 9.69336E-05-2.85278E-05-2.93153E-05 1.94130E-07-1.40104E-19-2.24050E-19
 -1      4189 9.69216E-05-2.87781E-05-2.92055E-05 2.57165E-07-1.08813E-19-1.69775E-19
 -1      4190 9.69437E-05-2.83233E-05-2.94083E-05 9.93692E-08-9.23598E-20 1.02370E-19
 -1      4191 9.58812E-05-2.89690E-05-2.86780E-05-4.34411E-07 1.29182E-20 9.10301E-20
 -1      4192 1.05356E-04-4.19192E-05-2.71166E-05-1.70350E-05 2.69177E-19-6.32712E-19
 -1      4193 9.63395E-05-2.92161E-05-2.87660E-05-3.37226E-07 4.35261E-20 6.96040E-20
 -1      4194 9.64503E-05-2.92428E-05-2.88019E-05-3.40423E-07-7.48709E-20 4.51865E-20
 -1      4195 9.34704E-05-2.67498E-05-2.85917E-05-1.19586E-06-4.90530E-19-4.53401E-19
 -1      4196 9.66455E-05-2.71077E-05-2.98011E-05 6.74623E-08 3.26171E-19-5.18430E-20
 -1      4197 9.65008E-05-2.66385E-05-2.99396E-05 5.49175E-08 4.09076E-19 2.20569E-19
 -1      4198 9.69433E-05-2.88572E-05-2.91808E-05 1.46357E-07-1.50476E-19 1.64401E-19
 -1      4199 1.01111E-04-3.73429E-05-2.74047E-05-1.35455E-05-5.33173E-19 1.27193E-19
 -1      4200 9.69060E-05-2.84604E-05-2.93354E-05-2.36286E-07-1.40199E-20 1.78809E-19
 -1      4201 9.68744E-05-2.81242E-05-2.94640E-05-1.41395E-07 3.16939E-20 1.19627E-19
 -1      4202 9.65396E-05-2.67219E-05-2.99252E-05-1.32682E-08 2.93237E-19 1.43471E-19
 -1      4203 9.68782E-05-2.89264E-05-2.91223E-05-3.11846E-07-6.38267E-20 3.72712E-19
 -1      4204 9.69096E-05-2.87275E-05-2.92198E-05-2.58835E-07 3.77802E-20 3.07560E-19
 -1      4205 9.69504E-05-2.85646E-05-2.93085E-05-1.47198E-07-6.50928E-20 1.35827E-19
 -1      4206 9.25807E-05-3.18512E-05-2.60570E-05-1.72596E-05 4.44998E-19-1.99135E-18
 -1      4207 1.01456E-04-3.87939E-05-2.69115E-05-1.67201E-05-1.42305E-19-8.27019E-19
 -1      4208 9.61052E-05-2.91057E-05-2.87127E-05-3.23408E-07 2.82076E-19 2.91718E-19
 -1      4209 9.62172E-05-2.91672E-05-2.87353E-05-3.27457E-07 2.95250E-19 1.97653E-19
 -1      4210 9.63174E-05-2.92065E-05-2.87640E-05-2.04313E-07 8.43440E-20-2.05757E-19
 -1      4211 9.52764E-05-2.84019E-05-2.86602E-05-2.42873E-07-1.03485E-18-5.79297E-20
 -1      4212 9.53575E-05-2.84889E-05-2.86568E-05-3.48791E-07-5.76372E-19-5.74089E-19
 -1      4213 9.54793E-05-2.86104E-05-2.86586E-05-3.31103E-07-8.28202E-19-5.90220E-19
 -1      4214 9.69387E-05-2.81299E-05-2.94884E-05-2.82943E-08-9.24889E-20 1.43438E-19
 -1      4215 9.69802E-05-2.84775E-05-2.93590E-05 2.53068E-09-8.16687E-20 1.51088E-19
 -1      4216 9.69822E-05-2.87470E-05-2.92427E-05-2.96248E-08-2.34046E-19 3.14133E-19
 -1      4217 9.67154E-05-2.92558E-05-2.89101E-05 3.24015E-08 1.38020E-19 2.77948E-19
 -1      4218 9.66108E-05-2.92736E-05-2.88573E-05 3.78119E-08 9.27581E-20 3.08232E-19
 -1      4219 9.65022E-05-2.92628E-05-2.88159E-05-2.10555E-08 2.39649E-20 8.07527E-20
 -1      4220 9.63862E-05-2.92325E-05-2.87791E-05-1.73282E-08-1.11231E-19 4.50989E-20
 -1      4221 9.62639E-05-2.91821E-05-2.87480E-05-2.02683E-08 4.45512E-20 1.17404E-19
 -1      4222 9.61369E-05-2.91133E-05-2.87237E-05-1.86379E-08 1.26161E-19 3.27889E-19
 -1      4223 9.57312E-05-2.88133E-05-2.86784E-05 2.20605E-08 3.06867E-20 5.44521E-19
 -1      4224 9.55929E-05-2.86922E-05-2.86716E-05 1.80009E-08-1.65351E-19 3.11480E-19
 -1      4225 9.54692E-05-2.85804E-05-2.86663E-05-4.25955E-08-6.50726E-19 1.86190E-20
 -1      4226 9.53146E-05-2.84340E-05-2.86638E-05-5.12706E-08-9.77086E-19-9.37013E-20
 -1      4227 9.51684E-05-2.82891E-05-2.86622E-05-7.23653E-08-1.11649E-18-9.11866E-20
 -1      4228 9.50034E-05-2.81289E-05-2.86621E-05-8.86148E-08-8.09916E-19-4.84557E-19
 -1      4229 9.48441E-05-2.79667E-05-2.86616E-05-1.24595E-07-5.41397E-19-4.47383E-19
 -1      4230 9.46554E-05-2.77858E-05-2.86610E-05-1.55275E-07-5.55155E-19-4.09740E-19
 -1      4231 9.44793E-05-2.76073E-05-2.86591E-05-2.13980E-07-3.73861E-19-5.83132E-19
 -1      4232 9.42584E-05-2.74052E-05-2.86553E-05-2.69140E-07-8.89272E-20-6.33250E-19
 -1      4233 9.40628E-05-2.72133E-05-2.86491E-05-3.61593E-07-1.02941E-19-1.36680E-18
 -1      4234 9.38011E-05-2.69909E-05-2.86383E-05-4.56748E-07-6.38006E-19-1.68067E-18
 -1      4235 9.35863E-05-2.67920E-05-2.86244E-05-5.98618E-07-5.34834E-19-1.64973E-18
 -1      4236 9.32760E-05-2.65540E-05-2.86020E-05-7.56728E-07-5.82517E-19-1.22026E-18
 -1      4237 9.30480E-05-2.63612E-05-2.85763E-05-9.69717E-07-6.28025E-19-1.29013E-18
 -1      4238 9.26842E-05-2.61188E-05-2.85365E-05-1.22361E-06-4.74518E-19-1.16099E-18
 -1      4239 9.24585E-05-2.59555E-05-2.84942E-05-1.53669E-06-7.89036E-19-1.12076E-18
 -1      4240 9.20430E-05-2.57306E-05-2.84294E-05-1.93167E-06-7.15689E-19-1.25431E-18
 -1      4241 9.18502E-05-2.56357E-05-2.83653E-05-2.38154E-06-5.16537E-19-1.39974E-18
 -1      4242 9.13973E-05-2.54671E-05-2.82659E-05-2.97756E-06-5.25181E-19-1.42017E-18
 -1      4243 9.12917E-05-2.55022E-05-2.81752E-05-3.60728E-06-6.56350E-19-1.17653E-18
 -1      4244 9.08383E-05-2.54541E-05-2.80303E-05-4.47956E-06-2.17917E-19-1.40948E-18
 -1      4245 9.09109E-05-2.57127E-05-2.79100E-05-5.33287E-06 1.56138E-19-1.39159E-18
 -1      4246 9.05333E-05-2.58867E-05-2.77083E-05-6.56950E-06 2.72481E-19-8.44403E-19
 -1      4247 9.09337E-05-2.65084E-05-2.75624E-05-7.67362E-06 6.63369E-19-1.02198E-18
 -1      4248 9.07820E-05-2.70996E-05-2.72817E-05-9.43866E-06 6.25426E-19-1.22315E-19
 -1      4249 9.56023E-05-2.87154E-05-2.86647E-05-2.75541E-07-6.38039E-19-4.96780E-19
 -1      4250 9.57228E-05-2.88244E-05-2.86709E-05-2.68523E-07-3.00698E-19-1.33067E-19
 -1      4251 9.66646E-05-2.74274E-05-2.96705E-05-3.46139E-08 3.23023E-19-6.49442E-20
 -1      4252 9.67764E-05-2.76594E-05-2.96243E-05-8.84827E-08 2.00968E-19-7.52600E-21
 -1      4253 9.69485E-05-2.89487E-05-2.91428E-05-7.75065E-09-1.24384E-19 3.94782E-19
 -1      4254 9.68396E-05-2.76670E-05-2.96473E-05 1.85697E-08 1.58171E-20 1.79704E-19
 -1      4255 9.68503E-05-2.78179E-05-2.95844E-05-5.84131E-08 3.11931E-20 2.82945E-19
 -1      4256 9.17159E-05-2.82774E-05-2.71204E-05-1.08211E-05 6.79636E-19-3.25357E-19
 -1      4257 9.65478E-05-2.92632E-05-2.88387E-05-1.52764E-07 9.14020E-20-5.72446E-20
 -1      4258 9.65622E-05-2.92521E-05-2.88464E-05-2.93722E-07 1.52732E-19 8.32552E-20
 -1      4259 9.58605E-05-2.89347E-05-2.86811E-05-2.92273E-07 3.39443E-20 2.50500E-20
 -1      4260 9.59754E-05-2.90227E-05-2.86940E-05-2.92418E-07 2.88667E-19 2.54631E-19
 -1      4261 9.60680E-05-2.90736E-05-2.87136E-05-1.74911E-07 2.95091E-19 2.80548E-19
 -1      4262 9.58007E-05-2.88748E-05-2.86836E-05-1.26386E-07 9.62502E-20 2.49540E-19
 -1      4263 9.18304E-05-2.91907E-05-2.68052E-05-1.27762E-05 1.02097E-18-3.27542E-19
 -1      4264 9.68924E-05-2.91034E-05-2.90513E-05-5.80921E-10 1.47250E-19 3.46957E-19
 -1      4265 9.68100E-05-2.91967E-05-2.89768E-05 1.38548E-08 2.08264E-19 4.43420E-19
 -1      4266 9.67523E-05-2.92154E-05-2.89464E-05-1.28364E-07 1.59973E-19 2.66871E-19
 -1      4267 9.69007E-05-2.89992E-05-2.91020E-05-1.67844E-07-7.10749E-20 4.69541E-19
 -1      4268 9.86044E-05-3.59330E-05-2.67586E-05-1.62260E-05-5.79208E-19-1.12913E-18
 -1      4269 9.33577E-05-3.11876E-05-2.66425E-05-1.43920E-05 5.15876E-19-1.01305E-18
 -1      4270 9.60042E-05-2.90262E-05-2.87037E-05 4.10670E-09 3.47085E-20 6.02762E-19
 -1      4271 9.55394E-05-2.86498E-05-2.86676E-05-1.62552E-07-5.52916E-19-2.45238E-19
 -1      4272 9.58708E-05-2.89284E-05-2.86894E-05 3.24170E-09 1.66978E-19 5.92650E-19
 -1      4273 9.67237E-05-2.72330E-05-2.97766E-05 2.45998E-09 1.68318E-19 2.48328E-19
 -1      4274 9.67547E-05-2.91735E-05-2.89623E-05-3.18132E-07-1.05452E-19 4.61102E-19
 -1      4275 9.68266E-05-2.90781E-05-2.90340E-05-2.93251E-07-3.36290E-20 3.54822E-19
 -1      4276 9.66624E-05-2.92317E-05-2.88979E-05-2.85775E-07 6.28794E-20 1.67823E-19
 -3
    1PSTEP                         4           1           1          
  100CL  101 1.000000000        4276                     0    1           1
 -4  ERROR       1    1
 -5  STR(%)      1    1    0    0
 -1         1 1.34586E+01
 -1         2 2.53634E+01
 -1         3 2.15310E-02
 -1         4 2.41440E-01
 -1         5 1.40399E+01
 -1         6 1.31441E+01
 -1         7 1.31441E+01
 -1         8 3.66341E+00
 -1         9 1.82336E+00
 -1        10 1.29147E+00
 -1        11 1.04581E+00
 -1        12 8.99213E-01
 -1        13 8.08815E-01
 -1        14 7.54001E-01
 -1        15 7.55944E-01
 -1        16 8.13093E-01
 -1        17 9.00661E-01
 -1        18 1.05265E+00
 -1        19 1.30618E+00
 -1        20 1.83110E+00
 -1        21 3.50840E+00
 -1        22 8.64233E+00
 -1        23 1.31441E+01
 -1        24 4.31854E+00
 -1        25 3.34197E+00
 -1        26 2.11254E+00
 -1        27 1.36397E+00
 -1        28 1.01526E+00
 -1        29 7.76758E-01
 -1        30 5.97576E-01
 -1        31 4.58186E-01
 -1        32 3.51009E-01
 -1        33 2.79458E-01
 -1        34 2.08375E-01
 -1        35 1.60896E-01
 -1        36 1.25004E-01
 -1        37 9.90895E-02
 -1        38 8.16439E-02
 -1        39 7.38083E-02
 -1        40 8.27804E-02
 -1        41 1.03794E-01
 -1        42 1.38983E-01
 -1        43 2.01845E-01
 -1        44 2.72878E-01
 -1        45 3.83026E-01
 -1        46 5.35893E-01
 -1        47 7.42320E-01
 -1        48 1.00933E+00
 -1        49 1.33053E+00
 -1        50 1.82117E+00
 -1        51 2.50819E+00
 -1        52 3.33024E+00
 -1        53 4.25931E+00
 -1        54 4.42548E+00
 -1        55 4.42548E+00
 -1        56 4.84189E+00
 -1        57 1.05646E+01
 -1        58 1.27149E+01
 -1        59 1.27149E+01
 -1        60 1.20165E+01
 -1        61 5.71281E+00
 -1        62 4.26758E+00
 -1        63 4.40875E+00
 -1        64 4.40875E+00
 -1        65 3.57211E+00
 -1        66 2.65646E+00
 -1        67 1.91858E+00
 -1        68 1.61717E+00
 -1        69 1.28862E+00
 -1        70 9.36971E-01
 -1        71 7.06973E-01
 -1        72 1.40399E+01
 -1        73 3.39628E+00
 -1        74 2.41823E+00
 -1        75 1.66830E+00
 -1        76 1.14852E+00
 -1        77 9.07267E-01
 -1        78 7.32832E-01
 -1        79 5.89830E-01
 -1        80 4.71073E-01
 -1        81 3.72722E-01
 -1        82 2.98887E-01
 -1        83 2.38661E-01
 -1        84 1.89614E-01
 -1        85 1.50975E-01
 -1        86 1.21733E-01
 -1        87 1.00770E-01
 -1        88 8.69072E-02
 -1        89 8.05558E-02
 -1        90 8.30276E-02
 -1        91 9.60920E-02
 -1        92 1.10498E-01
 -1        93 1.23170E-01
 -1        94 1.29484E-01
 -1        95 1.35121E-01
 -1        96 1.65252E-01
 -1        97 2.10020E-01
 -1        98 2.55482E-01
 -1        99 3.77374E-01
 -1       100 4.84939E-01
 -1       101 5.91575E-01
 -1       102 7.96354E-01
 -1       103 9.42855E-01
 -1       104 1.12500E+00
 -1       105 1.59490E+00
 -1       106 1.93436E+00
 -1       107 2.03402E+00
 -1       108 2.24797E+00
 -1       109 2.24797E+00
 -1       110 2.21205E+00
 -1       111 1.88802E+00
 -1       112 1.42541E+00
 -1       113 9.93674E-01
 -1       114 5.97080E-01
 -1       115 3.42910E-01
 -1       116 1.49389E-01
 -1       117 1.10936E-01
 -1       118 1.10936E-01
 -1       119 9.33215E-02
 -1       120 6.55250E-02
 -1       121 3.54486E-02
 -1       122 4.82659E-02
 -1       123 5.97687E-02
 -1       124 6.50548E-02
 -1       125 6.50548E-02
 -1       126 6.05740E-02
 -1       127 3.80003E-02
 -1       128 7.40088E-02
 -1       129 1.35041E-01
 -1       130 1.75090E-01
 -1       131 1.78932E-01
 -1       132 1.78932E-01
 -1       133 1.30950E-01
 -1       134 1.26466E-01
 -1       135 1.70701E-01
 -1       136 1.70701E-01
 -1       137 2.53634E+01
 -1       138 4.45447E+01
 -1       139 4.45447E+01
 -1       140 1.77740E+01
 -1       141 1.17224E+01
 -1       142 1.20697E+01
 -1       143 1.29355E+01
 -1       144 1.29355E+01
 -1       145 1.25605E+01
 -1       146 1.15459E+01
 -1       147 2.25622E+01
 -1       148 3.22097E+01
 -1       149 3.22097E+01
 -1       150 2.43083E+01
 -1       151 2.42032E+01
 -1       152 2.55074E+01
 -1       153 3.27753E+01
 -1       154 3.27753E+01
 -1       155 2.38860E+01
 -1       156 1.36862E+01
 -1       157 1.36862E+01
 -1       158 1.34586E+01
 -1       159 1.28926E+01
 -1       160 1.41117E+01
 -1       161 3.66373E+01
 -1       162 3.66373E+01
 -1       163 2.49932E+01
 -1       164 2.45971E+01
 -1       165 6.07768E+00
 -1       166 2.29769E+00
 -1       167 1.50806E+00
 -1       168 1.15735E+00
 -1       169 9.73126E-01
 -1       170 8.64114E-01
 -1       171 7.96097E-01
 -1       172 7.55944E-01
 -1       173 7.99487E-01
 -1       174 8.67120E-01
 -1       175 9.80896E-01
 -1       176 1.17143E+00
 -1       177 1.52696E+00
 -1       178 2.25896E+00
 -1       179 3.93328E+00
 -1       180 1.40399E+01
 -1       181 4.31854E+00
 -1       182 3.34197E+00
 -1       183 2.11254E+00
 -1       184 1.44832E+00
 -1       185 1.02697E+00
 -1       186 7.76758E-01
 -1       187 5.97576E-01
 -1       188 4.70460E-01
 -1       189 3.71343E-01
 -1       190 2.96319E-01
 -1       191 2.34512E-01
 -1       192 1.87757E-01
 -1       193 1.49437E-01
 -1       194 1.18924E-01
 -1       195 9.52611E-02
 -1       196 7.73566E-02
 -1       197 7.38083E-02
 -1       198 8.89014E-02
 -1       199 1.15010E-01
 -1       200 1.61880E-01
 -1       201 2.12899E-01
 -1       202 2.92415E-01
 -1       203 4.24975E-01
 -1       204 6.38681E-01
 -1       205 9.41822E-01
 -1       206 1.35502E+00
 -1       207 1.88269E+00
 -1       208 2.48590E+00
 -1       209 3.04354E+00
 -1       210 3.50159E+00
 -1       211 4.25931E+00
 -1       212 4.42548E+00
 -1       213 3.96133E+00
 -1       214 5.24953E+00
 -1       215 1.05646E+01
 -1       216 1.27149E+01
 -1       217 1.20165E+01
 -1       218 6.41686E+00
 -1       219 3.64908E+00
 -1       220 4.26758E+00
 -1       221 4.40875E+00
 -1       222 3.57211E+00
 -1       223 3.03398E+00
 -1       224 2.50080E+00
 -1       225 1.86384E+00
 -1       226 1.28862E+00
 -1       227 9.36971E-01
 -1       228 7.06973E-01
 -1       229 3.00098E-01
 -1       230 3.39628E+00
 -1       231 2.41823E+00
 -1       232 1.66830E+00
 -1       233 1.14852E+00
 -1       234 9.07267E-01
 -1       235 7.32832E-01
 -1       236 5.89830E-01
 -1       237 4.71073E-01
 -1       238 3.72722E-01
 -1       239 2.98887E-01
 -1       240 2.38661E-01
 -1       241 1.90903E-01
 -1       242 1.53409E-01
 -1       243 1.23841E-01
 -1       244 1.01426E-01
 -1       245 8.69072E-02
 -1       246 8.04545E-02
 -1       247 8.05558E-02
 -1       248 8.48442E-02
 -1       249 9.60920E-02
 -1       250 1.10498E-01
 -1       251 1.31099E-01
 -1       252 1.58475E-01
 -1       253 1.79406E-01
 -1       254 1.82290E-01
 -1       255 2.10020E-01
 -1       256 2.55482E-01
 -1       257 3.77374E-01
 -1       258 4.84939E-01
 -1       259 7.24322E-01
 -1       260 1.02873E+00
 -1       261 1.36694E+00
 -1       262 1.66406E+00
 -1       263 1.81191E+00
 -1       264 1.93436E+00
 -1       265 2.03402E+00
 -1       266 2.24797E+00
 -1       267 2.21205E+00
 -1       268 1.88802E+00
 -1       269 1.42541E+00
 -1       270 1.02682E+00
 -1       271 6.80217E-01
 -1       272 3.85428E-01
 -1       273 2.06377E-01
 -1       274 1.46125E-01
 -1       275 1.14653E-01
 -1       276 9.33215E-02
 -1       277 6.82797E-02
 -1       278 5.66290E-02
 -1       279 1.07467E-01
 -1       280 1.19882E-01
 -1       281 1.24658E-01
 -1       282 1.24658E-01
 -1       283 1.12267E-01
 -1       284 1.09475E-01
 -1       285 2.22141E-01
 -1       286 3.18049E-01
 -1       287 3.43091E-01
 -1       288 3.43091E-01
 -1       289 3.33318E-01
 -1       290 2.22248E-01
 -1       291 5.02942E-01
 -1       292 5.02942E-01
 -1       293 3.21534E+01
 -1       294 3.66031E+01
 -1       295 4.45447E+01
 -1       296 1.81400E+01
 -1       297 1.09655E+01
 -1       298 1.17224E+01
 -1       299 1.20697E+01
 -1       300 1.29355E+01
 -1       301 1.25605E+01
 -1       302 1.15270E+01
 -1       303 1.15459E+01
 -1       304 2.52866E+01
 -1       305 3.22097E+01
 -1       306 3.05198E+01
 -1       307 3.06129E+01
 -1       308 3.06129E+01
 -1       309 3.04705E+01
 -1       310 3.27753E+01
 -1       311 2.60103E+01
 -1       312 1.23924E+01
 -1       313 1.36862E+01
 -1       314 1.29893E+01
 -1       315 1.34586E+01
 -1       316 1.28926E+01
 -1       317 1.14581E+01
 -1       318 1.41117E+01
 -1       319 3.66373E+01
 -1       320 3.39324E+01
 -1       321 2.58098E+01
 -1       322 3.21534E+01
 -1       323 1.04615E+00
 -1       324 2.47974E+00
 -1       325 7.91587E-01
 -1       326 6.94012E-01
 -1       327 6.31661E-01
 -1       328 5.87613E-01
 -1       329 5.90840E-01
 -1       330 6.34477E-01
 -1       331 7.01109E-01
 -1       332 7.96253E-01
 -1       333 9.30320E-01
 -1       334 1.14441E+00
 -1       335 1.32923E+00
 -1       336 2.19705E+00
 -1       337 1.91339E+00
 -1       338 1.72999E+00
 -1       339 1.26842E+00
 -1       340 9.08309E-01
 -1       341 6.57483E-01
 -1       342 5.40207E-01
 -1       343 4.43632E-01
 -1       344 3.58645E-01
 -1       345 2.96319E-01
 -1       346 2.36166E-01
 -1       347 1.89750E-01
 -1       348 1.53220E-01
 -1       349 1.24049E-01
 -1       350 9.92027E-02
 -1       351 7.81505E-02
 -1       352 6.66642E-02
 -1       353 7.24607E-02
 -1       354 8.89014E-02
 -1       355 1.15010E-01
 -1       356 1.74859E-01
 -1       357 2.64074E-01
 -1       358 3.91425E-01
 -1       359 5.72332E-01
 -1       360 8.26262E-01
 -1       361 1.17528E+00
 -1       362 1.63857E+00
 -1       363 2.21933E+00
 -1       364 2.88103E+00
 -1       365 3.52386E+00
 -1       366 4.00282E+00
 -1       367 5.08300E+00
 -1       368 7.91913E+00
 -1       369 4.80856E+00
 -1       370 4.72828E+00
 -1       371 9.43184E+00
 -1       372 8.39751E+00
 -1       373 6.52566E+00
 -1       374 5.36978E+00
 -1       375 7.20578E+00
 -1       376 5.26592E+00
 -1       377 3.91033E+00
 -1       378 3.52921E+00
 -1       379 2.91828E+00
 -1       380 2.22739E+00
 -1       381 1.58906E+00
 -1       382 1.05639E+00
 -1       383 6.90639E-01
 -1       384 1.13540E+00
 -1       385 8.16093E-01
 -1       386 6.32284E-01
 -1       387 5.18530E-01
 -1       388 4.19350E-01
 -1       389 3.38381E-01
 -1       390 2.74472E-01
 -1       391 2.20461E-01
 -1       392 1.76850E-01
 -1       393 1.43152E-01
 -1       394 1.14219E-01
 -1       395 8.97528E-02
 -1       396 6.91191E-02
 -1       397 6.20020E-02
 -1       398 6.67491E-02
 -1       399 7.46617E-02
 -1       400 8.48442E-02
 -1       401 9.56900E-02
 -1       402 1.14238E-01
 -1       403 1.35896E-01
 -1       404 1.58475E-01
 -1       405 1.79406E-01
 -1       406 1.82290E-01
 -1       407 1.57689E-01
 -1       408 1.69239E-01
 -1       409 3.49133E-01
 -1       410 5.65744E-01
 -1       411 8.06305E-01
 -1       412 1.10360E+00
 -1       413 1.36694E+00
 -1       414 1.66406E+00
 -1       415 1.81191E+00
 -1       416 1.77595E+00
 -1       417 1.79624E+00
 -1       418 1.74355E+00
 -1       419 1.51996E+00
 -1       420 1.23933E+00
 -1       421 9.75105E-01
 -1       422 7.24054E-01
 -1       423 5.13729E-01
 -1       424 3.31942E-01
 -1       425 2.36654E-01
 -1       426 1.71974E-01
 -1       427 1.61136E-01
 -1       428 8.99361E-02
 -1       429 1.70203E-01
 -1       430 1.61136E-01
 -1       431 1.87685E-01
 -1       432 1.87685E-01
 -1       433 1.79756E-01
 -1       434 2.51012E-01
 -1       435 4.13476E-01
 -1       436 5.02042E-01
 -1       437 5.29724E-01
 -1       438 5.29724E-01
 -1       439 4.85687E-01
 -1       440 5.06491E-01
 -1       441 1.35887E+00
 -1       442 2.47556E+01
 -1       443 7.95053E+00
 -1       444 3.90845E+01
 -1       445 1.50479E+01
 -1       446 9.18305E-01
 -1       447 7.65456E+00
 -1       448 1.02911E+01
 -1       449 1.06499E+01
 -1       450 9.01872E+00
 -1       451 9.03356E+00
 -1       452 7.28372E+00
 -1       453 1.02958E+01
 -1       454 1.71217E+01
 -1       455 3.05198E+01
 -1       456 3.19372E+01
 -1       457 3.24249E+01
 -1       458 3.24249E+01
 -1       459 3.04705E+01
 -1       460 1.84285E+01
 -1       461 1.02887E+01
 -1       462 1.05107E+01
 -1       463 9.76189E+00
 -1       464 7.87398E+00
 -1       465 7.47357E+00
 -1       466 1.36520E+01
 -1       467 2.27227E+01
 -1       468 2.28239E+01
 -1       469 3.90845E+01
 -1       470 2.79868E+01
 -1       471 5.15193E+00
 -1       472 2.08115E+01
 -1       473 2.58956E+01
 -1       474 9.54647E+00
 -1       475 6.24774E+00
 -1       476 9.56860E+00
 -1       477 4.86103E-01
 -1       478 5.09840E-01
 -1       479 4.31603E-01
 -1       480 4.57473E-01
 -1       481 4.87050E-01
 -1       482 5.10876E-01
 -1       483 5.10876E-01
 -1       484 5.03624E-01
 -1       485 6.39267E-01
 -1       486 1.31615E+00
 -1       487 8.03041E-01
 -1       488 7.03128E-01
 -1       489 5.89859E-01
 -1       490 4.77663E-01
 -1       491 3.79127E-01
 -1       492 3.24928E-01
 -1       493 2.75866E-01
 -1       494 2.26271E-01
 -1       495 1.87227E-01
 -1       496 1.53726E-01
 -1       497 1.24290E-01
 -1       498 9.92027E-02
 -1       499 7.81505E-02
 -1       500 6.20152E-02
 -1       501 5.62413E-02
 -1       502 6.64549E-02
 -1       503 9.18196E-02
 -1       504 1.43719E-01
 -1       505 2.13473E-01
 -1       506 3.09305E-01
 -1       507 4.41446E-01
 -1       508 6.23643E-01
 -1       509 8.74499E-01
 -1       510 1.21976E+00
 -1       511 1.69695E+00
 -1       512 2.36505E+00
 -1       513 3.30532E+00
 -1       514 4.77870E+00
 -1       515 5.93845E+00
 -1       516 9.23361E+00
 -1       517 1.18354E+01
 -1       518 5.97855E+00
 -1       519 4.97018E+00
 -1       520 3.47275E+00
 -1       521 2.42937E+00
 -1       522 1.67463E+00
 -1       523 1.11900E+00
 -1       524 7.60871E-01
 -1       525 4.45667E-01
 -1       526 5.63176E-01
 -1       527 6.92662E-01
 -1       528 3.68639E-01
 -1       529 3.14259E-01
 -1       530 2.61731E-01
 -1       531 2.15383E-01
 -1       532 1.77550E-01
 -1       533 1.43842E-01
 -1       534 1.14621E-01
 -1       535 8.97528E-02
 -1       536 6.91191E-02
 -1       537 5.17450E-02
 -1       538 5.21003E-02
 -1       539 5.71403E-02
 -1       540 6.39451E-02
 -1       541 8.27581E-02
 -1       542 1.02616E-01
 -1       543 1.22663E-01
 -1       544 1.37334E-01
 -1       545 1.47845E-01
 -1       546 1.46078E-01
 -1       547 1.78344E-01
 -1       548 2.22119E-01
 -1       549 3.00076E-01
 -1       550 4.70111E-01
 -1       551 6.53927E-01
 -1       552 9.11427E-01
 -1       553 1.11886E+00
 -1       554 1.25335E+00
 -1       555 1.36017E+00
 -1       556 1.34868E+00
 -1       557 1.29696E+00
 -1       558 1.36259E+00
 -1       559 1.32096E+00
 -1       560 1.20196E+00
 -1       561 1.05148E+00
 -1       562 8.24702E-01
 -1       563 6.48184E-01
 -1       564 4.89382E-01
 -1       565 3.49031E-01
 -1       566 2.42894E-01
 -1       567 1.94334E-01
 -1       568 2.79540E-01
 -1       569 2.63082E-01
 -1       570 2.63082E-01
 -1       571 2.79868E+01
 -1       572 2.79540E-01
 -1       573 3.53505E-01
 -1       574 4.51755E-01
 -1       575 6.48525E-01
 -1       576 7.12485E-01
 -1       577 7.79719E-01
 -1       578 7.79719E-01
 -1       579 7.09437E-01
 -1       580 8.74304E-01
 -1       581 3.90845E+01
 -1       582 2.28239E+01
 -1       583 9.55234E+00
 -1       584 1.41600E+01
 -1       585 6.65652E+00
 -1       586 7.84599E+00
 -1       587 1.03260E+01
 -1       588 1.22964E+01
 -1       589 4.57336E-01
 -1       590 5.92882E+00
 -1       591 9.45148E+00
 -1       592 7.79012E+00
 -1       593 4.54115E+00
 -1       594 1.65985E+01
 -1       595 6.40946E+00
 -1       596 1.88657E+01
 -1       597 3.19372E+01
 -1       598 3.24249E+01
 -1       599 1.60003E+01
 -1       600 7.20771E-01
 -1       601 7.47493E-01
 -1       602 3.53946E+00
 -1       603 1.47206E+01
 -1       604 6.30731E-01
 -1       605 1.20653E+01
 -1       606 8.21344E+00
 -1       607 3.58421E-01
 -1       608 3.42862E-01
 -1       609 3.61273E-01
 -1       610 3.42428E-01
 -1       611 5.93745E-01
 -1       612 4.05178E-01
 -1       613 1.17499E+01
 -1       614 9.09890E+00
 -1       615 3.97968E-01
 -1       616 3.84841E-01
 -1       617 3.44086E-01
 -1       618 2.94384E-01
 -1       619 2.43722E-01
 -1       620 2.11507E-01
 -1       621 1.78414E-01
 -1       622 1.46750E-01
 -1       623 1.20066E-01
 -1       624 9.66379E-02
 -1       625 7.60569E-02
 -1       626 5.76611E-02
 -1       627 4.03705E-02
 -1       628 4.16152E-02
 -1       629 6.26061E-02
 -1       630 1.00730E-01
 -1       631 1.48753E-01
 -1       632 2.17575E-01
 -1       633 3.28270E-01
 -1       634 4.91057E-01
 -1       635 7.25338E-01
 -1       636 1.06165E+00
 -1       637 1.54268E+00
 -1       638 2.22643E+00
 -1       639 3.26272E+00
 -1       640 5.06228E+00
 -1       641 9.23721E+00
 -1       642 5.02424E+00
 -1       643 3.39837E+00
 -1       644 2.22092E+00
 -1       645 1.44399E+00
 -1       646 9.41333E-01
 -1       647 3.88134E-01
 -1       648 3.34519E-01
 -1       649 4.30193E-01
 -1       650 2.37691E-01
 -1       651 2.02464E-01
 -1       652 1.68410E-01
 -1       653 1.38538E-01
 -1       654 1.11851E-01
 -1       655 8.84880E-02
 -1       656 6.81402E-02
 -1       657 5.02279E-02
 -1       658 3.50108E-02
 -1       659 3.84145E-02
 -1       660 4.70491E-02
 -1       661 6.87674E-02
 -1       662 9.11001E-02
 -1       663 1.14306E-01
 -1       664 1.35144E-01
 -1       665 1.58306E-01
 -1       666 1.79860E-01
 -1       667 1.95399E-01
 -1       668 2.75668E-01
 -1       669 3.66247E-01
 -1       670 4.70111E-01
 -1       671 6.46157E-01
 -1       672 8.48673E-01
 -1       673 9.82989E-01
 -1       674 1.13697E+00
 -1       675 1.25290E+00
 -1       676 1.36428E+00
 -1       677 1.21990E+00
 -1       678 1.34593E+00
 -1       679 1.34776E+00
 -1       680 1.20761E+00
 -1       681 1.10408E+00
 -1       682 9.82101E-01
 -1       683 8.16154E-01
 -1       684 6.48184E-01
 -1       685 4.89382E-01
 -1       686 3.49031E-01
 -1       687 2.88113E-01
 -1       688 4.78366E-01
 -1       689 2.88113E-01
 -1       690 4.24910E-01
 -1       691 7.36199E-01
 -1       692 9.77468E-01
 -1       693 1.02085E+00
 -1       694 1.02085E+00
 -1       695 1.46966E+01
 -1       696 1.19647E+01
 -1       697 1.63578E+01
 -1       698 1.29577E+01
 -1       699 8.43310E+00
 -1       700 1.29579E+01
 -1       701 3.94908E+00
 -1       702 3.94979E+00
 -1       703 3.37432E+00
 -1       704 4.53525E+00
 -1       705 3.61273E-01
 -1       706 3.62371E-01
 -1       707 1.41354E+01
 -1       708 5.65582E+00
 -1       709 1.52616E+01
 -1       710 6.03528E-01
 -1       711 3.08296E-01
 -1       712 2.79053E-01
 -1       713 7.62711E+00
 -1       714 5.85287E+00
 -1       715 3.42547E-01
 -1       716 2.66283E+00
 -1       717 9.85953E+00
 -1       718 4.86098E+00
 -1       719 9.86273E+00
 -1       720 4.27692E-01
 -1       721 1.09052E+00
 -1       722 4.16657E-01
 -1       723 4.17202E-01
 -1       724 5.08628E+00
 -1       725 1.06246E+01
 -1       726 5.79294E+00
 -1       727 3.57844E-01
 -1       728 2.41562E-01
 -1       729 8.68888E+00
 -1       730 2.34763E-01
 -1       731 2.56048E-01
 -1       732 2.48987E-01
 -1       733 2.26183E-01
 -1       734 1.96910E-01
 -1       735 1.70481E-01
 -1       736 1.48496E-01
 -1       737 1.25135E-01
 -1       738 1.02105E-01
 -1       739 8.01895E-02
 -1       740 5.95232E-02
 -1       741 3.97627E-02
 -1       742 3.26755E-02
 -1       743 4.62558E-02
 -1       744 8.04957E-02
 -1       745 1.28370E-01
 -1       746 1.94769E-01
 -1       747 2.86742E-01
 -1       748 4.15202E-01
 -1       749 5.95922E-01
 -1       750 8.52761E-01
 -1       751 1.22449E+00
 -1       752 1.77970E+00
 -1       753 2.65345E+00
 -1       754 4.20401E+00
 -1       755 6.31567E+00
 -1       756 1.91827E+00
 -1       757 4.43932E+00
 -1       758 1.05521E+01
 -1       759 2.76226E+00
 -1       760 2.61664E+00
 -1       761 2.69792E-01
 -1       762 2.68960E-01
 -1       763 1.66232E-01
 -1       764 1.88883E-01
 -1       765 1.17657E-01
 -1       766 9.42803E-02
 -1       767 7.23874E-02
 -1       768 5.19096E-02
 -1       769 3.24128E-02
 -1       770 2.14885E-02
 -1       771 3.05530E-02
 -1       772 5.22593E-02
 -1       773 7.70391E-02
 -1       774 1.04083E-01
 -1       775 1.32289E-01
 -1       776 1.59035E-01
 -1       777 1.97938E-01
 -1       778 2.42263E-01
 -1       779 2.87650E-01
 -1       780 3.92200E-01
 -1       781 5.42330E-01
 -1       782 6.86609E-01
 -1       783 8.48673E-01
 -1       784 1.06965E+00
 -1       785 1.20700E+00
 -1       786 1.26065E+00
 -1       787 1.57074E+00
 -1       788 1.68779E+00
 -1       789 1.57999E+00
 -1       790 1.64038E+00
 -1       791 1.38794E+00
 -1       792 1.22409E+00
 -1       793 1.20265E+00
 -1       794 9.87349E-01
 -1       795 8.16154E-01
 -1       796 6.16237E-01
 -1       797 4.34473E-01
 -1       798 3.04915E-01
 -1       799 6.53119E-01
 -1       800 1.43023E+00
 -1       801 1.15981E+00
 -1       802 7.89377E-01
 -1       803 9.77680E-01
 -1       804 2.65270E-01
 -1       805 3.94911E+00
 -1       806 1.42052E-01
 -1       807 6.77793E+00
 -1       808 2.29116E+00
 -1       809 9.07806E+00
 -1       810 2.88540E-01
 -1       811 2.37667E+00
 -1       812 4.87578E+00
 -1       813 3.17274E+00
 -1       814 9.23721E+00
 -1       815 4.59716E+00
 -1       816 2.79310E-01
 -1       817 3.10636E+00
 -1       818 2.88376E-01
 -1       819 4.24785E+00
 -1       820 2.50380E-01
 -1       821 2.21282E-01
 -1       822 2.57332E-01
 -1       823 1.01014E+01
 -1       824 6.42095E+00
 -1       825 2.27903E-01
 -1       826 2.81259E-01
 -1       827 3.88925E+00
 -1       828 2.88540E-01
 -1       829 2.74170E+00
 -1       830 2.81522E-01
 -1       831 3.27183E+00
 -1       832 4.48518E-01
 -1       833 2.88376E-01
 -1       834 6.85760E+00
 -1       835 2.30354E+00
 -1       836 1.74640E-01
 -1       837 1.82595E-01
 -1       838 1.74512E-01
 -1       839 1.58023E-01
 -1       840 1.37463E-01
 -1       841 1.21059E-01
 -1       842 1.03504E-01
 -1       843 8.53094E-02
 -1       844 6.73757E-02
 -1       845 5.00397E-02
 -1       846 4.47749E-02
 -1       847 5.15943E-02
 -1       848 6.79478E-02
 -1       849 1.05634E-01
 -1       850 1.54879E-01
 -1       851 2.19798E-01
 -1       852 3.05711E-01
 -1       853 4.19588E-01
 -1       854 5.70930E-01
 -1       855 7.84264E-01
 -1       856 1.13978E+00
 -1       857 1.72901E+00
 -1       858 2.81559E+00
 -1       859 3.76378E+00
 -1       860 2.12488E+00
 -1       861 4.11906E+00
 -1       862 1.44510E-01
 -1       863 2.61664E+00
 -1       864 7.99270E-02
 -1       865 9.87442E-02
 -1       866 4.38915E-02
 -1       867 3.70206E-02
 -1       868 3.62607E-02
 -1       869 4.90184E-02
 -1       870 7.01354E-02
 -1       871 9.36952E-02
 -1       872 1.20558E-01
 -1       873 1.59882E-01
 -1       874 2.02746E-01
 -1       875 2.56647E-01
 -1       876 3.34772E-01
 -1       877 4.29289E-01
 -1       878 5.42330E-01
 -1       879 7.50401E-01
 -1       880 1.00068E+00
 -1       881 1.13642E+00
 -1       882 1.39693E+00
 -1       883 2.24450E+00
 -1       884 2.54835E+00
 -1       885 2.07529E+00
 -1       886 2.98784E+00
 -1       887 1.64038E+00
 -1       888 1.64038E+00
 -1       889 1.40422E+00
 -1       890 1.46652E+00
 -1       891 1.20265E+00
 -1       892 1.03021E+00
 -1       893 8.09429E-01
 -1       894 6.28409E-01
 -1       895 3.34038E-01
 -1       896 1.91827E+00
 -1       897 9.73419E-01
 -1       898 1.84101E+00
 -1       899 6.90618E+00
 -1       900 5.65655E+00
 -1       901 1.85402E+00
 -1       902 3.28994E+00
 -1       903 1.54278E-01
 -1       904 1.73753E-01
 -1       905 5.51533E+00
 -1       906 1.43473E-01
 -1       907 6.16228E-02
 -1       908 1.23079E-01
 -1       909 1.25618E-01
 -1       910 1.24656E+00
 -1       911 2.53836E+00
 -1       912 4.06916E+00
 -1       913 2.54835E+00
 -1       914 2.12488E+00
 -1       915 3.14910E+00
 -1       916 4.77617E+00
 -1       917 1.71336E-01
 -1       918 1.86421E-01
 -1       919 1.74411E-01
 -1       920 1.17475E-01
 -1       921 7.28372E-01
 -1       922 4.51262E+00
 -1       923 1.51227E+00
 -1       924 1.34822E-01
 -1       925 1.90993E-01
 -1       926 2.87573E+00
 -1       927 2.37667E+00
 -1       928 2.17464E-01
 -1       929 2.15862E-01
 -1       930 1.24781E-01
 -1       931 1.37362E-01
 -1       932 1.35963E-01
 -1       933 1.26279E-01
 -1       934 1.11975E-01
 -1       935 9.76766E-02
 -1       936 8.43336E-02
 -1       937 7.02433E-02
 -1       938 5.62804E-02
 -1       939 5.25223E-02
 -1       940 5.78203E-02
 -1       941 6.19600E-02
 -1       942 7.78993E-02
 -1       943 1.07696E-01
 -1       944 1.48012E-01
 -1       945 2.10497E-01
 -1       946 2.99990E-01
 -1       947 4.26707E-01
 -1       948 6.04048E-01
 -1       949 8.48779E-01
 -1       950 1.17908E+00
 -1       951 1.96594E+00
 -1       952 3.18696E+00
 -1       953 8.01624E-02
 -1       954 1.23140E-01
 -1       955 1.88522E-01
 -1       956 4.89403E-02
 -1       957 4.83872E-02
 -1       958 7.01354E-02
 -1       959 9.36952E-02
 -1       960 1.19855E-01
 -1       961 1.55511E-01
 -1       962 1.97059E-01
 -1       963 2.68136E-01
 -1       964 3.61293E-01
 -1       965 4.63216E-01
 -1       966 6.23611E-01
 -1       967 8.07227E-01
 -1       968 1.00068E+00
 -1       969 1.29479E+00
 -1       970 1.39693E+00
 -1       971 2.24450E+00
 -1       972 1.86537E+00
 -1       973 1.94516E+00
 -1       974 1.28144E+00
 -1       975 1.05169E+00
 -1       976 8.50668E-01
 -1       977 2.17464E-01
 -1       978 4.30639E+00
 -1       979 4.49866E+00
 -1       980 1.78451E-01
 -1       981 5.09536E+00
 -1       982 5.21548E-02
 -1       983 1.41737E-01
 -1       984 2.95377E+00
 -1       985 3.11210E+00
 -1       986 1.47078E+00
 -1       987 1.18193E-01
 -1       988 2.30777E+00
 -1       989 6.54076E-02
 -1       990 1.89204E+00
 -1       991 1.36668E-01
 -1       992 9.46153E-02
 -1       993 3.44056E+00
 -1       994 5.08186E-02
 -1       995 2.54835E+00
 -1       996 1.29884E+00
 -1       997 1.53326E-01
 -1       998 2.92395E+00
 -1       999 3.44056E+00
 -1      1000 1.53326E-01
 -1      1001 1.23880E-01
 -1      1002 1.48266E-01
 -1      1003 1.02096E-01
 -1      1004 1.02936E-01
 -1      1005 9.69722E-02
 -1      1006 8.69631E-02
 -1      1007 7.49555E-02
 -1      1008 6.40618E-02
 -1      1009 5.78435E-02
 -1      1010 5.62444E-02
 -1      1011 5.93940E-02
 -1      1012 6.19600E-02
 -1      1013 7.72895E-02
 -1      1014 1.00713E-01
 -1      1015 1.34006E-01
 -1      1016 1.79953E-01
 -1      1017 2.41746E-01
 -1      1018 3.22490E-01
 -1      1019 4.26707E-01
 -1      1020 6.40363E-01
 -1      1021 9.87123E-01
 -1      1022 1.49439E+00
 -1      1023 2.11614E+00
 -1      1024 3.57093E+00
 -1      1025 5.66978E-02
 -1      1026 2.27663E+00
 -1      1027 1.19855E-01
 -1      1028 8.97976E-02
 -1      1029 1.99915E-01
 -1      1030 2.66513E-01
 -1      1031 3.47911E-01
 -1      1032 5.05164E-01
 -1      1033 6.96861E-01
 -1      1034 8.94320E-01
 -1      1035 1.17014E+00
 -1      1036 1.61149E+00
 -1      1037 1.09896E-01
 -1      1038 1.54317E+00
 -1      1039 1.55511E-01
 -1      1040 1.07768E-01
 -1      1041 6.04440E-02
 -1      1042 3.35126E+00
 -1      1043 6.98800E-02
 -1      1044 1.43028E-01
 -1      1045 2.27814E+00
 -1      1046 9.08217E-02
 -1      1047 5.08186E-02
 -1      1048 2.09329E+00
 -1      1049 7.27483E-02
 -1      1050 1.08449E-01
 -1      1051 1.38481E-01
 -1      1052 1.11385E-01
 -1      1053 1.69775E+00
 -1      1054 2.72387E+00
 -1      1055 1.05586E-01
 -1      1056 1.11385E-01
 -1      1057 2.63060E+00
 -1      1058 6.30292E-02
 -1      1059 7.57224E-02
 -1      1060 7.16519E-02
 -1      1061 6.94428E-02
 -1      1062 6.60556E-02
 -1      1063 6.13294E-02
 -1      1064 5.78435E-02
 -1      1065 6.00787E-02
 -1      1066 6.13326E-02
 -1      1067 7.19067E-02
 -1      1068 8.84701E-02
 -1      1069 1.11023E-01
 -1      1070 1.49989E-01
 -1      1071 2.21501E-01
 -1      1072 3.27306E-01
 -1      1073 4.79827E-01
 -1      1074 6.92419E-01
 -1      1075 9.74552E-01
 -1      1076 1.33078E+00
 -1      1077 1.73069E+00
 -1      1078 6.03901E-02
 -1      1079 1.75143E-01
 -1      1080 8.55355E-02
 -1      1081 6.59887E-02
 -1      1082 9.71847E-02
 -1      1083 6.13326E-02
 -1      1084 1.02138E-01
 -1      1085 1.26813E-01
 -1      1086 4.79827E-01
 -1      1087 3.29114E-01
 -1      1088 9.74552E-01
 -1      1089 1.33078E+00
 -1      1090 1.86929E+00
 -1      1091 2.63060E+00
 -1      1092 1.85157E+00
 -1      1093 6.92419E-01
 -1      1094 2.41104E-01
 -1      1095 7.19067E-02
 -1      1096 2.63060E+00
 -1      1097 9.19343E-02
 -1      1098 5.34290E-02
 -1      1099 9.49406E-02
 -1      1100 7.46504E-02
 -1      1101 6.94428E-02
 -1      1102 6.21642E-02
 -1      1103 7.50406E-02
 -1      1104 8.07207E-02
 -1      1105 6.43378E-02
 -1      1106 6.00787E-02
 -1      1107 7.60745E-02
 -1      1108 6.03901E-02
 -1      1109 6.30292E-02
 -1      1110 8.21879E-02
 -1      1111 1.31441E+01
 -1      1112 8.40375E+00
 -1      1113 2.74338E+00
 -1      1114 1.55741E+00
 -1      1115 1.16864E+00
 -1      1116 9.72511E-01
 -1      1117 8.54014E-01
 -1      1118 7.81408E-01
 -1      1119 7.54973E-01
 -1      1120 7.84518E-01
 -1      1121 8.56877E-01
 -1      1122 9.76654E-01
 -1      1123 1.17941E+00
 -1      1124 1.56864E+00
 -1      1125 2.66975E+00
 -1      1126 6.07537E+00
 -1      1127 1.13411E+01
 -1      1128 1.31441E+01
 -1      1129 8.73132E+00
 -1      1130 3.83025E+00
 -1      1131 2.72726E+00
 -1      1132 1.73825E+00
 -1      1133 1.18961E+00
 -1      1134 8.96009E-01
 -1      1135 6.87167E-01
 -1      1136 5.27881E-01
 -1      1137 4.04597E-01
 -1      1138 3.15233E-01
 -1      1139 2.43916E-01
 -1      1140 1.84636E-01
 -1      1141 1.42950E-01
 -1      1142 1.12047E-01
 -1      1143 9.03667E-02
 -1      1144 7.77261E-02
 -1      1145 7.82944E-02
 -1      1146 9.32873E-02
 -1      1147 1.21389E-01
 -1      1148 1.70414E-01
 -1      1149 2.37361E-01
 -1      1150 3.27952E-01
 -1      1151 4.59459E-01
 -1      1152 6.39106E-01
 -1      1153 8.75823E-01
 -1      1154 1.16993E+00
 -1      1155 1.57585E+00
 -1      1156 2.16468E+00
 -1      1157 2.91922E+00
 -1      1158 3.79478E+00
 -1      1159 4.34240E+00
 -1      1160 4.42548E+00
 -1      1161 4.63368E+00
 -1      1162 7.70324E+00
 -1      1163 1.16398E+01
 -1      1164 1.27149E+01
 -1      1165 1.23657E+01
 -1      1166 8.86466E+00
 -1      1167 4.99019E+00
 -1      1168 4.33816E+00
 -1      1169 4.40875E+00
 -1      1170 3.99043E+00
 -1      1171 3.11428E+00
 -1      1172 2.28752E+00
 -1      1173 1.76788E+00
 -1      1174 1.45290E+00
 -1      1175 1.11280E+00
 -1      1176 8.21972E-01
 -1      1177 4.74206E-01
 -1      1178 1.40399E+01
 -1      1179 8.71810E+00
 -1      1180 2.90726E+00
 -1      1181 2.04326E+00
 -1      1182 1.40841E+00
 -1      1183 1.02789E+00
 -1      1184 8.20049E-01
 -1      1185 6.61331E-01
 -1      1186 5.30451E-01
 -1      1187 4.21898E-01
 -1      1188 3.35805E-01
 -1      1189 2.68774E-01
 -1      1190 2.14137E-01
 -1      1191 1.70294E-01
 -1      1192 1.36354E-01
 -1      1193 1.11251E-01
 -1      1194 9.38386E-02
 -1      1195 8.37315E-02
 -1      1196 8.17917E-02
 -1      1197 8.95598E-02
 -1      1198 1.03295E-01
 -1      1199 1.16834E-01
 -1      1200 1.26327E-01
 -1      1201 1.32303E-01
 -1      1202 1.50187E-01
 -1      1203 1.87636E-01
 -1      1204 2.32751E-01
 -1      1205 3.16428E-01
 -1      1206 4.31156E-01
 -1      1207 5.38257E-01
 -1      1208 6.93964E-01
 -1      1209 8.69605E-01
 -1      1210 1.03393E+00
 -1      1211 1.35995E+00
 -1      1212 1.76463E+00
 -1      1213 1.98419E+00
 -1      1214 2.14099E+00
 -1      1215 2.24797E+00
 -1      1216 2.23001E+00
 -1      1217 2.05004E+00
 -1      1218 1.65672E+00
 -1      1219 1.20954E+00
 -1      1220 7.95377E-01
 -1      1221 4.69995E-01
 -1      1222 2.46150E-01
 -1      1223 1.30162E-01
 -1      1224 1.10936E-01
 -1      1225 1.02129E-01
 -1      1226 7.94232E-02
 -1      1227 4.35280E-02
 -1      1228 2.84898E-02
 -1      1229 4.18572E-02
 -1      1230 5.40173E-02
 -1      1231 6.24118E-02
 -1      1232 6.50548E-02
 -1      1233 6.28144E-02
 -1      1234 4.92871E-02
 -1      1235 5.60045E-02
 -1      1236 1.04525E-01
 -1      1237 1.55066E-01
 -1      1238 1.77011E-01
 -1      1239 1.78932E-01
 -1      1240 1.54941E-01
 -1      1241 1.28708E-01
 -1      1242 1.48583E-01
 -1      1243 1.70701E-01
 -1      1244 2.06070E-01
 -1      1245 2.53634E+01
 -1      1246 3.49541E+01
 -1      1247 4.45447E+01
 -1      1248 3.11593E+01
 -1      1249 1.47482E+01
 -1      1250 1.18960E+01
 -1      1251 1.25026E+01
 -1      1252 1.29355E+01
 -1      1253 1.27480E+01
 -1      1254 1.20532E+01
 -1      1255 1.70541E+01
 -1      1256 2.73859E+01
 -1      1257 3.22097E+01
 -1      1258 2.82590E+01
 -1      1259 2.42557E+01
 -1      1260 2.48553E+01
 -1      1261 2.91414E+01
 -1      1262 3.27753E+01
 -1      1263 2.83306E+01
 -1      1264 1.87861E+01
 -1      1265 1.36862E+01
 -1      1266 1.35724E+01
 -1      1267 1.34586E+01
 -1      1268 1.31756E+01
 -1      1269 1.35022E+01
 -1      1270 2.53745E+01
 -1      1271 3.66373E+01
 -1      1272 3.08153E+01
 -1      1273 2.47951E+01
 -1      1274 2.49802E+01
 -1      1275 1.31441E+01
 -1      1276 4.87054E+00
 -1      1277 9.61089E+00
 -1      1278 2.06052E+00
 -1      1279 2.98055E+00
 -1      1280 4.18768E+00
 -1      1281 1.39976E+00
 -1      1282 1.66571E+00
 -1      1283 1.90287E+00
 -1      1284 1.10158E+00
 -1      1285 1.22441E+00
 -1      1286 1.33271E+00
 -1      1287 9.36170E-01
 -1      1288 1.00947E+00
 -1      1289 1.06524E+00
 -1      1290 8.36465E-01
 -1      1291 8.81664E-01
 -1      1292 9.18620E-01
 -1      1293 7.75049E-01
 -1      1294 8.02456E-01
 -1      1295 8.30106E-01
 -1      1296 7.55944E-01
 -1      1297 7.54973E-01
 -1      1298 7.76021E-01
 -1      1299 8.06290E-01
 -1      1300 7.77715E-01
 -1      1301 7.77715E-01
 -1      1302 8.83891E-01
 -1      1303 8.40107E-01
 -1      1304 8.33304E-01
 -1      1305 1.01677E+00
 -1      1306 9.40779E-01
 -1      1307 9.24008E-01
 -1      1308 1.23881E+00
 -1      1309 1.11204E+00
 -1      1310 1.07616E+00
 -1      1311 1.67903E+00
 -1      1312 1.41657E+00
 -1      1313 1.34920E+00
 -1      1314 2.88368E+00
 -1      1315 2.04503E+00
 -1      1316 1.89296E+00
 -1      1317 6.28780E+00
 -1      1318 3.72084E+00
 -1      1319 3.09612E+00
 -1      1320 1.40399E+01
 -1      1321 1.13411E+01
 -1      1322 8.98660E+00
 -1      1323 1.40399E+01
 -1      1324 8.73132E+00
 -1      1325 4.31854E+00
 -1      1326 3.83025E+00
 -1      1327 3.34197E+00
 -1      1328 3.83025E+00
 -1      1329 2.72726E+00
 -1      1330 2.11254E+00
 -1      1331 2.72726E+00
 -1      1332 1.78043E+00
 -1      1333 1.40614E+00
 -1      1334 1.78043E+00
 -1      1335 1.19547E+00
 -1      1336 1.02111E+00
 -1      1337 1.23764E+00
 -1      1338 8.96009E-01
 -1      1339 7.76758E-01
 -1      1340 9.01864E-01
 -1      1341 6.87167E-01
 -1      1342 5.97576E-01
 -1      1343 6.87167E-01
 -1      1344 5.34018E-01
 -1      1345 4.64323E-01
 -1      1346 5.34018E-01
 -1      1347 4.14764E-01
 -1      1348 3.61176E-01
 -1      1349 4.20901E-01
 -1      1350 3.23664E-01
 -1      1351 2.87889E-01
 -1      1352 3.33831E-01
 -1      1353 2.56985E-01
 -1      1354 2.21443E-01
 -1      1355 2.65415E-01
 -1      1356 1.98066E-01
 -1      1357 1.74327E-01
 -1      1358 2.11135E-01
 -1      1359 1.55167E-01
 -1      1360 1.37221E-01
 -1      1361 1.68597E-01
 -1      1362 1.21964E-01
 -1      1363 1.09007E-01
 -1      1364 1.34181E-01
 -1      1365 9.71753E-02
 -1      1366 8.84525E-02
 -1      1367 1.07093E-01
 -1      1368 7.95002E-02
 -1      1369 7.55824E-02
 -1      1370 8.63088E-02
 -1      1371 7.38083E-02
 -1      1372 7.82944E-02
 -1      1373 7.55824E-02
 -1      1374 8.58409E-02
 -1      1375 9.63478E-02
 -1      1376 8.13548E-02
 -1      1377 1.09402E-01
 -1      1378 1.26997E-01
 -1      1379 1.01956E-01
 -1      1380 1.50431E-01
 -1      1381 1.81862E-01
 -1      1382 1.38445E-01
 -1      1383 2.07372E-01
 -1      1384 2.42889E-01
 -1      1385 1.87389E-01
 -1      1386 2.82646E-01
 -1      1387 3.37720E-01
 -1      1388 2.52657E-01
 -1      1389 4.04000E-01
 -1      1390 4.80434E-01
 -1      1391 3.58695E-01
 -1      1392 5.87287E-01
 -1      1393 6.90501E-01
 -1      1394 5.31828E-01
 -1      1395 8.42071E-01
 -1      1396 9.75574E-01
 -1      1397 7.90251E-01
 -1      1398 1.18217E+00
 -1      1399 1.34277E+00
 -1      1400 1.14842E+00
 -1      1401 1.60661E+00
 -1      1402 1.85193E+00
 -1      1403 1.61885E+00
 -1      1404 2.15353E+00
 -1      1405 2.49705E+00
 -1      1406 2.18429E+00
 -1      1407 2.77587E+00
 -1      1408 3.18689E+00
 -1      1409 2.76472E+00
 -1      1410 3.41591E+00
 -1      1411 3.88045E+00
 -1      1412 3.27256E+00
 -1      1413 4.25931E+00
 -1      1414 4.34240E+00
 -1      1415 3.88045E+00
 -1      1416 4.42548E+00
 -1      1417 4.42548E+00
 -1      1418 4.34240E+00
 -1      1419 4.19340E+00
 -1      1420 4.40161E+00
 -1      1421 4.19340E+00
 -1      1422 5.04571E+00
 -1      1423 7.90706E+00
 -1      1424 4.60543E+00
 -1      1425 1.05646E+01
 -1      1426 1.16398E+01
 -1      1427 7.90706E+00
 -1      1428 1.27149E+01
 -1      1429 1.27149E+01
 -1      1430 1.16398E+01
 -1      1431 1.23657E+01
 -1      1432 1.20165E+01
 -1      1433 1.23657E+01
 -1      1434 9.21669E+00
 -1      1435 6.06484E+00
 -1      1436 9.21669E+00
 -1      1437 4.68094E+00
 -1      1438 3.95833E+00
 -1      1439 5.03297E+00
 -1      1440 4.26758E+00
 -1      1441 4.33816E+00
 -1      1442 3.95833E+00
 -1      1443 4.40875E+00
 -1      1444 4.40875E+00
 -1      1445 4.33816E+00
 -1      1446 3.99043E+00
 -1      1447 3.57211E+00
 -1      1448 3.99043E+00
 -1      1449 3.30304E+00
 -1      1450 2.84522E+00
 -1      1451 3.30304E+00
 -1      1452 2.57863E+00
 -1      1453 2.20969E+00
 -1      1454 2.76739E+00
 -1      1455 1.89121E+00
 -1      1456 1.74051E+00
 -1      1457 2.18232E+00
 -1      1458 1.45290E+00
 -1      1459 1.28862E+00
 -1      1460 1.57623E+00
 -1      1461 1.11280E+00
 -1      1462 9.36971E-01
 -1      1463 1.11280E+00
 -1      1464 8.21972E-01
 -1      1465 7.06973E-01
 -1      1466 8.21972E-01
 -1      1467 5.03535E-01
 -1      1468 2.70769E-01
 -1      1469 2.35399E-01
 -1      1470 5.03535E-01
 -1      1471 3.39628E+00
 -1      1472 8.71810E+00
 -1      1473 8.71810E+00
 -1      1474 2.41823E+00
 -1      1475 2.90726E+00
 -1      1476 2.90726E+00
 -1      1477 1.66830E+00
 -1      1478 2.04326E+00
 -1      1479 2.04326E+00
 -1      1480 1.14852E+00
 -1      1481 1.40841E+00
 -1      1482 1.40841E+00
 -1      1483 9.07267E-01
 -1      1484 1.02789E+00
 -1      1485 1.02789E+00
 -1      1486 7.32832E-01
 -1      1487 8.20049E-01
 -1      1488 8.20049E-01
 -1      1489 5.89830E-01
 -1      1490 6.61331E-01
 -1      1491 6.61331E-01
 -1      1492 4.71073E-01
 -1      1493 5.30451E-01
 -1      1494 5.30451E-01
 -1      1495 3.72722E-01
 -1      1496 4.21898E-01
 -1      1497 4.21898E-01
 -1      1498 2.98887E-01
 -1      1499 3.35805E-01
 -1      1500 3.35805E-01
 -1      1501 2.38661E-01
 -1      1502 2.68774E-01
 -1      1503 2.68774E-01
 -1      1504 1.90259E-01
 -1      1505 2.14782E-01
 -1      1506 2.14782E-01
 -1      1507 1.52192E-01
 -1      1508 1.71511E-01
 -1      1509 1.72156E-01
 -1      1510 1.22787E-01
 -1      1511 1.37408E-01
 -1      1512 1.38625E-01
 -1      1513 1.01098E-01
 -1      1514 1.11580E-01
 -1      1515 1.12634E-01
 -1      1516 8.69072E-02
 -1      1517 9.38386E-02
 -1      1518 9.41668E-02
 -1      1519 8.05051E-02
 -1      1520 8.36808E-02
 -1      1521 8.36808E-02
 -1      1522 8.17917E-02
 -1      1523 8.05558E-02
 -1      1524 8.05051E-02
 -1      1525 9.04681E-02
 -1      1526 8.39359E-02
 -1      1527 8.27000E-02
 -1      1528 1.03295E-01
 -1      1529 9.60920E-02
 -1      1530 9.04681E-02
 -1      1531 1.16834E-01
 -1      1532 1.10498E-01
 -1      1533 1.03295E-01
 -1      1534 1.30292E-01
 -1      1535 1.27135E-01
 -1      1536 1.20799E-01
 -1      1537 1.46798E-01
 -1      1538 1.43980E-01
 -1      1539 1.44787E-01
 -1      1540 1.72329E-01
 -1      1541 1.57264E-01
 -1      1542 1.68941E-01
 -1      1543 1.96155E-01
 -1      1544 1.73771E-01
 -1      1545 1.80848E-01
 -1      1546 2.32751E-01
 -1      1547 2.10020E-01
 -1      1548 1.96155E-01
 -1      1549 3.16428E-01
 -1      1550 2.55482E-01
 -1      1551 2.32751E-01
 -1      1552 4.31156E-01
 -1      1553 3.77374E-01
 -1      1554 3.16428E-01
 -1      1555 5.38257E-01
 -1      1556 4.84939E-01
 -1      1557 4.31156E-01
 -1      1558 7.60338E-01
 -1      1559 6.57948E-01
 -1      1560 6.04630E-01
 -1      1561 9.85794E-01
 -1      1562 9.12543E-01
 -1      1563 8.76527E-01
 -1      1564 1.24597E+00
 -1      1565 1.15490E+00
 -1      1566 1.19784E+00
 -1      1567 1.62948E+00
 -1      1568 1.39453E+00
 -1      1569 1.51550E+00
 -1      1570 1.87313E+00
 -1      1571 1.70341E+00
 -1      1572 1.73798E+00
 -1      1573 1.98419E+00
 -1      1574 1.93436E+00
 -1      1575 1.87313E+00
 -1      1576 2.14099E+00
 -1      1577 2.03402E+00
 -1      1578 1.98419E+00
 -1      1579 2.24797E+00
 -1      1580 2.24797E+00
 -1      1581 2.14099E+00
 -1      1582 2.21205E+00
 -1      1583 2.23001E+00
 -1      1584 2.23001E+00
 -1      1585 1.88802E+00
 -1      1586 2.05004E+00
 -1      1587 2.05004E+00
 -1      1588 1.42541E+00
 -1      1589 1.65672E+00
 -1      1590 1.65672E+00
 -1      1591 1.01025E+00
 -1      1592 1.22612E+00
 -1      1593 1.22612E+00
 -1      1594 6.38649E-01
 -1      1595 8.36945E-01
 -1      1596 8.53521E-01
 -1      1597 3.64169E-01
 -1      1598 4.91254E-01
 -1      1599 5.32823E-01
 -1      1600 1.77883E-01
 -1      1601 2.74644E-01
 -1      1602 2.95903E-01
 -1      1603 1.28530E-01
 -1      1604 1.47757E-01
 -1      1605 1.76251E-01
 -1      1606 1.12794E-01
 -1      1607 1.12794E-01
 -1      1608 1.30389E-01
 -1      1609 9.33215E-02
 -1      1610 1.02129E-01
 -1      1611 1.03987E-01
 -1      1612 6.69024E-02
 -1      1613 8.08006E-02
 -1      1614 8.08006E-02
 -1      1615 5.04868E-02
 -1      1616 5.24475E-02
 -1      1617 4.60388E-02
 -1      1618 8.36179E-02
 -1      1619 7.78665E-02
 -1      1620 8.20481E-02
 -1      1621 9.24684E-02
 -1      1622 8.98254E-02
 -1      1623 1.13675E-01
 -1      1624 9.48563E-02
 -1      1625 9.48563E-02
 -1      1626 1.22270E-01
 -1      1627 9.26159E-02
 -1      1628 9.48563E-02
 -1      1629 1.24658E-01
 -1      1630 7.51337E-02
 -1      1631 8.64206E-02
 -1      1632 1.18462E-01
 -1      1633 9.17417E-02
 -1      1634 7.37374E-02
 -1      1635 1.10871E-01
 -1      1636 1.78591E-01
 -1      1637 1.48075E-01
 -1      1638 1.65808E-01
 -1      1639 2.46570E-01
 -1      1640 2.26545E-01
 -1      1641 2.70095E-01
 -1      1642 2.61012E-01
 -1      1643 2.59090E-01
 -1      1644 3.30570E-01
 -1      1645 2.61012E-01
 -1      1646 2.61012E-01
 -1      1647 3.43091E-01
 -1      1648 2.32134E-01
 -1      1649 2.56125E-01
 -1      1650 3.38204E-01
 -1      1651 1.74357E-01
 -1      1652 1.76599E-01
 -1      1653 2.77783E-01
 -1      1654 3.36822E-01
 -1      1655 3.14704E-01
 -1      1656 3.62595E-01
 -1      1657 3.36822E-01
 -1      1658 3.36822E-01
 -1      1659 5.02942E-01
 -1      1660 4.01520E-01
 -1      1661 2.87584E+01
 -1      1662 2.87584E+01
 -1      1663 4.05739E+01
 -1      1664 3.09833E+01
 -1      1665 4.45447E+01
 -1      1666 4.45447E+01
 -1      1667 1.79570E+01
 -1      1668 3.13423E+01
 -1      1669 1.13439E+01
 -1      1670 1.43697E+01
 -1      1671 1.18960E+01
 -1      1672 1.17224E+01
 -1      1673 1.25026E+01
 -1      1674 1.20697E+01
 -1      1675 1.29355E+01
 -1      1676 1.29355E+01
 -1      1677 1.25605E+01
 -1      1678 1.27480E+01
 -1      1679 1.15365E+01
 -1      1680 1.20437E+01
 -1      1681 1.70541E+01
 -1      1682 1.15459E+01
 -1      1683 2.87481E+01
 -1      1684 2.39244E+01
 -1      1685 3.22097E+01
 -1      1686 3.22097E+01
 -1      1687 2.74140E+01
 -1      1688 3.13647E+01
 -1      1689 2.74080E+01
 -1      1690 2.74606E+01
 -1      1691 2.80602E+01
 -1      1692 2.74080E+01
 -1      1693 3.16229E+01
 -1      1694 2.79890E+01
 -1      1695 3.27753E+01
 -1      1696 3.27753E+01
 -1      1697 2.49482E+01
 -1      1698 2.93928E+01
 -1      1699 1.30393E+01
 -1      1700 1.81392E+01
 -1      1701 1.36862E+01
 -1      1702 1.36862E+01
 -1      1703 1.32239E+01
 -1      1704 1.33377E+01
 -1      1705 1.34586E+01
 -1      1706 1.34586E+01
 -1      1707 1.28926E+01
 -1      1708 1.31756E+01
 -1      1709 1.27849E+01
 -1      1710 1.21753E+01
 -1      1711 2.53745E+01
 -1      1712 1.41117E+01
 -1      1713 3.66373E+01
 -1      1714 3.66373E+01
 -1      1715 2.94628E+01
 -1      1716 3.52848E+01
 -1      1717 2.52035E+01
 -1      1718 2.54015E+01
 -1      1719 2.87584E+01
 -1      1720 2.83752E+01
 -1      1721 3.13423E+01
 -1      1722 3.21534E+01
 -1      1723 5.18642E-02
 -1      1724 6.24544E-02
 -1      1725 3.43782E+01
 -1      1726 4.05739E+01
 -1      1727 1.45527E+01
 -1      1728 1.13439E+01
 -1      1729 1.18960E+01
 -1      1730 1.25026E+01
 -1      1731 1.27480E+01
 -1      1732 1.20437E+01
 -1      1733 1.15365E+01
 -1      1734 1.84163E+01
 -1      1735 2.87481E+01
 -1      1736 3.13647E+01
 -1      1737 3.05663E+01
 -1      1738 3.06129E+01
 -1      1739 3.05417E+01
 -1      1740 3.16229E+01
 -1      1741 2.93928E+01
 -1      1742 1.92014E+01
 -1      1743 1.30393E+01
 -1      1744 1.33377E+01
 -1      1745 1.32239E+01
 -1      1746 1.31756E+01
 -1      1747 1.21753E+01
 -1      1748 1.27849E+01
 -1      1749 2.53745E+01
 -1      1750 3.52848E+01
 -1      1751 2.98711E+01
 -1      1752 2.89816E+01
 -1      1753 9.61089E+00
 -1      1754 1.27710E+00
 -1      1755 1.67192E+00
 -1      1756 2.38871E+00
 -1      1757 4.27871E+00
 -1      1758 1.76294E+00
 -1      1759 8.82357E-01
 -1      1760 9.74469E-01
 -1      1761 7.79063E-01
 -1      1762 8.33569E-01
 -1      1763 7.42799E-01
 -1      1764 7.13879E-01
 -1      1765 7.47888E-01
 -1      1766 6.62837E-01
 -1      1767 6.71778E-01
 -1      1768 6.91855E-01
 -1      1769 6.09637E-01
 -1      1770 6.95163E-01
 -1      1771 6.73392E-01
 -1      1772 5.89226E-01
 -1      1773 7.50799E-01
 -1      1774 7.16982E-01
 -1      1775 6.12659E-01
 -1      1776 8.41003E-01
 -1      1777 7.84115E-01
 -1      1778 6.67793E-01
 -1      1779 9.83842E-01
 -1      1780 8.88575E-01
 -1      1781 7.48681E-01
 -1      1782 1.22864E+00
 -1      1783 1.05088E+00
 -1      1784 8.63287E-01
 -1      1785 1.70169E+00
 -1      1786 1.33568E+00
 -1      1787 1.03736E+00
 -1      1788 2.63126E+00
 -1      1789 1.79410E+00
 -1      1790 1.23682E+00
 -1      1791 8.11849E+00
 -1      1792 3.06516E+00
 -1      1793 1.76314E+00
 -1      1794 2.79667E+00
 -1      1795 5.19811E+00
 -1      1796 2.16581E+00
 -1      1797 2.65484E+00
 -1      1798 2.05522E+00
 -1      1799 3.39914E+00
 -1      1800 2.53598E+00
 -1      1801 1.92127E+00
 -1      1802 1.69048E+00
 -1      1803 1.35837E+00
 -1      1804 1.49921E+00
 -1      1805 1.17831E+00
 -1      1806 9.67640E-01
 -1      1807 1.08837E+00
 -1      1808 8.42227E-01
 -1      1809 7.17121E-01
 -1      1810 7.82896E-01
 -1      1811 6.58483E-01
 -1      1812 5.68891E-01
 -1      1813 5.98845E-01
 -1      1814 5.20604E-01
 -1      1815 4.57046E-01
 -1      1816 4.91920E-01
 -1      1817 4.14553E-01
 -1      1818 3.64994E-01
 -1      1819 4.01139E-01
 -1      1820 3.33831E-01
 -1      1821 2.96319E-01
 -1      1822 3.27482E-01
 -1      1823 2.66242E-01
 -1      1824 2.35339E-01
 -1      1825 2.66242E-01
 -1      1826 2.12131E-01
 -1      1827 1.88753E-01
 -1      1828 2.12958E-01
 -1      1829 1.70489E-01
 -1      1830 1.51329E-01
 -1      1831 1.71485E-01
 -1      1832 1.36743E-01
 -1      1833 1.21487E-01
 -1      1834 1.38635E-01
 -1      1835 1.09064E-01
 -1      1836 9.72319E-02
 -1      1837 1.11626E-01
 -1      1838 8.67058E-02
 -1      1839 7.77535E-02
 -1      1840 8.86766E-02
 -1      1841 7.20104E-02
 -1      1842 7.02362E-02
 -1      1843 7.24073E-02
 -1      1844 7.31345E-02
 -1      1845 8.06810E-02
 -1      1846 6.95624E-02
 -1      1847 8.89014E-02
 -1      1848 1.01956E-01
 -1      1849 8.06810E-02
 -1      1850 1.15010E-01
 -1      1851 1.38445E-01
 -1      1852 1.01956E-01
 -1      1853 1.68369E-01
 -1      1854 1.93879E-01
 -1      1855 1.44935E-01
 -1      1856 2.38487E-01
 -1      1857 2.78245E-01
 -1      1858 2.19467E-01
 -1      1859 3.41920E-01
 -1      1860 4.08200E-01
 -1      1861 3.27749E-01
 -1      1862 4.98653E-01
 -1      1863 6.05506E-01
 -1      1864 4.81878E-01
 -1      1865 7.32472E-01
 -1      1866 8.84042E-01
 -1      1867 6.99297E-01
 -1      1868 1.05855E+00
 -1      1869 1.26515E+00
 -1      1870 1.00077E+00
 -1      1871 1.49679E+00
 -1      1872 1.76063E+00
 -1      1873 1.40693E+00
 -1      1874 2.05101E+00
 -1      1875 2.35261E+00
 -1      1876 1.92895E+00
 -1      1877 2.68346E+00
 -1      1878 2.96229E+00
 -1      1879 2.55018E+00
 -1      1880 3.28370E+00
 -1      1881 3.51272E+00
 -1      1882 3.20244E+00
 -1      1883 3.75220E+00
 -1      1884 4.13107E+00
 -1      1885 3.76334E+00
 -1      1886 4.67115E+00
 -1      1887 4.75424E+00
 -1      1888 4.54291E+00
 -1      1889 6.17230E+00
 -1      1890 5.94023E+00
 -1      1891 6.50106E+00
 -1      1892 4.38495E+00
 -1      1893 5.02905E+00
 -1      1894 6.36385E+00
 -1      1895 4.98890E+00
 -1      1896 7.64643E+00
 -1      1897 4.76842E+00
 -1      1898 9.99821E+00
 -1      1899 1.10734E+01
 -1      1900 1.05562E+01
 -1      1901 1.02070E+01
 -1      1902 9.27109E+00
 -1      1903 6.47126E+00
 -1      1904 5.89332E+00
 -1      1905 4.50943E+00
 -1      1906 5.42743E+00
 -1      1907 5.73668E+00
 -1      1908 4.76675E+00
 -1      1909 4.83734E+00
 -1      1910 6.23585E+00
 -1      1911 4.15954E+00
 -1      1912 3.74122E+00
 -1      1913 4.58813E+00
 -1      1914 3.55066E+00
 -1      1915 3.28160E+00
 -1      1916 3.71977E+00
 -1      1917 2.97613E+00
 -1      1918 2.70954E+00
 -1      1919 3.22375E+00
 -1      1920 2.36410E+00
 -1      1921 2.04562E+00
 -1      1922 2.57284E+00
 -1      1923 1.72645E+00
 -1      1924 1.43884E+00
 -1      1925 1.90823E+00
 -1      1926 1.17251E+00
 -1      1927 9.96680E-01
 -1      1928 1.32272E+00
 -1      1929 8.13805E-01
 -1      1930 6.98806E-01
 -1      1931 8.73514E-01
 -1      1932 6.04958E-01
 -1      1933 1.14196E+00
 -1      1934 1.40185E+00
 -1      1935 8.61680E-01
 -1      1936 9.82307E-01
 -1      1937 9.75748E-01
 -1      1938 6.82558E-01
 -1      1939 7.69776E-01
 -1      1940 7.24189E-01
 -1      1941 5.54180E-01
 -1      1942 6.25681E-01
 -1      1943 5.75407E-01
 -1      1944 4.45211E-01
 -1      1945 5.04590E-01
 -1      1946 4.68940E-01
 -1      1947 3.55552E-01
 -1      1948 4.04727E-01
 -1      1949 3.78865E-01
 -1      1950 2.86679E-01
 -1      1951 3.23597E-01
 -1      1952 3.06426E-01
 -1      1953 2.29561E-01
 -1      1954 2.59674E-01
 -1      1955 2.47466E-01
 -1      1956 1.83877E-01
 -1      1957 2.07756E-01
 -1      1958 1.98656E-01
 -1      1959 1.48280E-01
 -1      1960 1.67028E-01
 -1      1961 1.60001E-01
 -1      1962 1.19030E-01
 -1      1963 1.33814E-01
 -1      1964 1.28685E-01
 -1      1965 9.55896E-02
 -1      1966 1.06797E-01
 -1      1967 1.01986E-01
 -1      1968 7.80132E-02
 -1      1969 8.52728E-02
 -1      1970 7.94360E-02
 -1      1971 7.12282E-02
 -1      1972 7.44546E-02
 -1      1973 6.55606E-02
 -1      1974 7.36525E-02
 -1      1975 7.36018E-02
 -1      1976 6.43756E-02
 -1      1977 7.97530E-02
 -1      1978 7.76088E-02
 -1      1979 7.07054E-02
 -1      1980 9.04681E-02
 -1      1981 8.48442E-02
 -1      1982 7.97530E-02
 -1      1983 1.03094E-01
 -1      1984 9.58910E-02
 -1      1985 9.02671E-02
 -1      1986 1.22668E-01
 -1      1987 1.12368E-01
 -1      1988 1.04964E-01
 -1      1989 1.47186E-01
 -1      1990 1.33498E-01
 -1      1991 1.25067E-01
 -1      1992 1.68941E-01
 -1      1993 1.58475E-01
 -1      1994 1.47186E-01
 -1      1995 1.80848E-01
 -1      1996 1.79406E-01
 -1      1997 1.68941E-01
 -1      1998 1.96155E-01
 -1      1999 1.82290E-01
 -1      2000 1.80848E-01
 -1      2001 2.06585E-01
 -1      2002 1.83855E-01
 -1      2003 1.69990E-01
 -1      2004 2.73307E-01
 -1      2005 2.12361E-01
 -1      2006 1.63464E-01
 -1      2007 4.17036E-01
 -1      2008 3.63253E-01
 -1      2009 2.59186E-01
 -1      2010 6.45033E-01
 -1      2011 5.25342E-01
 -1      2012 4.57439E-01
 -1      2013 9.17519E-01
 -1      2014 7.65313E-01
 -1      2015 6.86025E-01
 -1      2016 1.23527E+00
 -1      2017 1.06616E+00
 -1      2018 9.54951E-01
 -1      2019 1.51550E+00
 -1      2020 1.36694E+00
 -1      2021 1.23527E+00
 -1      2022 1.73798E+00
 -1      2023 1.66406E+00
 -1      2024 1.51550E+00
 -1      2025 1.87313E+00
 -1      2026 1.81191E+00
 -1      2027 1.73798E+00
 -1      2028 1.90498E+00
 -1      2029 1.85515E+00
 -1      2030 1.79393E+00
 -1      2031 2.02210E+00
 -1      2032 1.91513E+00
 -1      2033 1.78609E+00
 -1      2034 1.97780E+00
 -1      2035 1.99576E+00
 -1      2036 1.76990E+00
 -1      2037 1.70399E+00
 -1      2038 1.86601E+00
 -1      2039 1.63176E+00
 -1      2040 1.33237E+00
 -1      2041 1.56368E+00
 -1      2042 1.37965E+00
 -1      2043 1.00096E+00
 -1      2044 1.20026E+00
 -1      2045 1.10722E+00
 -1      2046 7.02135E-01
 -1      2047 8.75439E-01
 -1      2048 8.49579E-01
 -1      2049 4.49579E-01
 -1      2050 5.96973E-01
 -1      2051 6.18891E-01
 -1      2052 2.69160E-01
 -1      2053 3.58685E-01
 -1      2054 4.22835E-01
 -1      2055 1.91390E-01
 -1      2056 2.21516E-01
 -1      2057 2.84298E-01
 -1      2058 1.43314E-01
 -1      2059 1.59050E-01
 -1      2060 2.04314E-01
 -1      2061 1.27229E-01
 -1      2062 1.37895E-01
 -1      2063 1.66555E-01
 -1      2064 7.91079E-02
 -1      2065 9.16288E-02
 -1      2066 1.25536E-01
 -1      2067 7.32826E-02
 -1      2068 1.47430E-01
 -1      2069 1.45043E-01
 -1      2070 1.40509E-01
 -1      2071 1.34302E-01
 -1      2072 1.65670E-01
 -1      2073 9.87016E-02
 -1      2074 1.56171E-01
 -1      2075 1.56171E-01
 -1      2076 1.78944E-01
 -1      2077 1.49976E-01
 -1      2078 1.56171E-01
 -1      2079 1.87685E-01
 -1      2080 1.44615E-01
 -1      2081 1.46012E-01
 -1      2082 1.83721E-01
 -1      2083 2.36577E-01
 -1      2084 1.80243E-01
 -1      2085 2.15384E-01
 -1      2086 3.65763E-01
 -1      2087 3.17809E-01
 -1      2088 3.32244E-01
 -1      2089 4.22566E-01
 -1      2090 4.10046E-01
 -1      2091 4.57759E-01
 -1      2092 4.36407E-01
 -1      2093 4.36407E-01
 -1      2094 5.15883E-01
 -1      2095 4.31521E-01
 -1      2096 4.36407E-01
 -1      2097 5.29724E-01
 -1      2098 3.53967E-01
 -1      2099 4.09502E-01
 -1      2100 5.07705E-01
 -1      2101 5.04717E-01
 -1      2102 3.64369E-01
 -1      2103 4.96089E-01
 -1      2104 1.51358E+00
 -1      2105 1.88855E+00
 -1      2106 1.63613E+00
 -1      2107 1.24714E+00
 -1      2108 3.46502E+01
 -1      2109 3.06793E+01
 -1      2110 9.45800E+00
 -1      2111 1.30452E+01
 -1      2112 3.56189E+01
 -1      2113 3.56189E+01
 -1      2114 1.65939E+01
 -1      2115 2.97963E+01
 -1      2116 1.14992E+01
 -1      2117 1.03783E+00
 -1      2118 1.21318E+00
 -1      2119 9.82225E-01
 -1      2120 8.54946E-01
 -1      2121 9.68847E+00
 -1      2122 9.31002E+00
 -1      2123 1.11804E+01
 -1      2124 1.10067E+01
 -1      2125 8.97283E+00
 -1      2126 1.17927E+01
 -1      2127 1.13598E+01
 -1      2128 1.07896E+01
 -1      2129 1.09771E+01
 -1      2130 1.02803E+01
 -1      2131 1.07970E+01
 -1      2132 9.41483E+00
 -1      2133 9.40534E+00
 -1      2134 8.15864E+00
 -1      2135 1.77912E+01
 -1      2136 1.09209E+01
 -1      2137 2.46657E+01
 -1      2138 2.12041E+01
 -1      2139 3.05198E+01
 -1      2140 3.13647E+01
 -1      2141 3.12750E+01
 -1      2142 3.12285E+01
 -1      2143 3.12285E+01
 -1      2144 3.15189E+01
 -1      2145 3.15189E+01
 -1      2146 3.14477E+01
 -1      2147 3.15189E+01
 -1      2148 3.24249E+01
 -1      2149 3.16229E+01
 -1      2150 3.04705E+01
 -1      2151 2.22194E+01
 -1      2152 2.56019E+01
 -1      2153 1.13406E+01
 -1      2154 1.81495E+01
 -1      2155 1.17500E+01
 -1      2156 1.20985E+01
 -1      2157 1.13272E+01
 -1      2158 1.16103E+01
 -1      2159 9.66602E+00
 -1      2160 1.03833E+01
 -1      2161 8.81794E+00
 -1      2162 1.07927E+01
 -1      2163 9.46581E+00
 -1      2164 2.51447E+01
 -1      2165 1.38819E+01
 -1      2166 2.83275E+01
 -1      2167 2.96800E+01
 -1      2168 2.43169E+01
 -1      2169 2.83781E+01
 -1      2170 3.56189E+01
 -1      2171 3.24472E+01
 -1      2172 3.22950E+01
 -1      2173 3.00701E+01
 -1      2174 7.08006E+00
 -1      2175 8.91468E+00
 -1      2176 2.91085E+00
 -1      2177 7.46159E+00
 -1      2178 1.99017E+01
 -1      2179 6.40324E+00
 -1      2180 8.05870E+00
 -1      2181 6.55123E+00
 -1      2182 2.10486E+00
 -1      2183 5.94772E+00
 -1      2184 6.28778E+00
 -1      2185 5.96791E-01
 -1      2186 1.25536E-01
 -1      2187 3.35356E+01
 -1      2188 5.96791E-01
 -1      2189 2.27835E+01
 -1      2190 2.87073E+01
 -1      2191 2.43991E+01
 -1      2192 3.90845E+01
 -1      2193 3.09542E+01
 -1      2194 2.27733E+01
 -1      2195 1.81873E+01
 -1      2196 7.67378E+00
 -1      2197 1.43586E+01
 -1      2198 2.81831E+01
 -1      2199 2.91603E+01
 -1      2200 2.81831E+01
 -1      2201 3.21811E+01
 -1      2202 2.38207E+01
 -1      2203 8.78975E+00
 -1      2204 9.02614E+00
 -1      2205 1.04705E+01
 -1      2206 1.12410E+01
 -1      2207 1.00982E+01
 -1      2208 9.28260E+00
 -1      2209 1.37087E+01
 -1      2210 2.44495E+01
 -1      2211 9.96695E+00
 -1      2212 9.32008E+00
 -1      2213 9.66524E+00
 -1      2214 1.15136E+01
 -1      2215 1.12789E+01
 -1      2216 1.05628E+01
 -1      2217 5.98565E-01
 -1      2218 8.37924E+00
 -1      2219 8.26824E+00
 -1      2220 1.00397E+01
 -1      2221 5.58882E-01
 -1      2222 5.90057E-01
 -1      2223 6.01926E-01
 -1      2224 6.50713E-01
 -1      2225 4.97971E-01
 -1      2226 5.11222E-01
 -1      2227 5.09608E-01
 -1      2228 5.45975E-01
 -1      2229 5.24157E-01
 -1      2230 4.44538E-01
 -1      2231 5.94079E-01
 -1      2232 5.60763E-01
 -1      2233 4.72261E-01
 -1      2234 6.53565E-01
 -1      2235 6.05993E-01
 -1      2236 4.98963E-01
 -1      2237 7.20598E-01
 -1      2238 6.53565E-01
 -1      2239 5.10876E-01
 -1      2240 8.24015E-01
 -1      2241 7.16972E-01
 -1      2242 5.07250E-01
 -1      2243 9.84249E-01
 -1      2244 8.91836E-01
 -1      2245 5.71445E-01
 -1      2246 1.75660E+00
 -1      2247 1.32269E+00
 -1      2248 9.77711E-01
 -1      2249 1.61477E+00
 -1      2250 1.26652E+00
 -1      2251 1.03573E+00
 -1      2252 9.85775E-01
 -1      2253 8.05719E-01
 -1      2254 7.53085E-01
 -1      2255 7.49084E-01
 -1      2256 6.23671E-01
 -1      2257 6.46494E-01
 -1      2258 5.67573E-01
 -1      2259 5.08935E-01
 -1      2260 5.33761E-01
 -1      2261 4.59667E-01
 -1      2262 4.11379E-01
 -1      2263 4.28395E-01
 -1      2264 3.84280E-01
 -1      2265 3.41787E-01
 -1      2266 3.52028E-01
 -1      2267 3.17256E-01
 -1      2268 2.86093E-01
 -1      2269 3.00397E-01
 -1      2270 2.61295E-01
 -1      2271 2.31218E-01
 -1      2272 2.51069E-01
 -1      2273 2.11696E-01
 -1      2274 1.88488E-01
 -1      2275 2.06749E-01
 -1      2276 1.71738E-01
 -1      2277 1.53473E-01
 -1      2278 1.70476E-01
 -1      2279 1.38755E-01
 -1      2280 1.24170E-01
 -1      2281 1.39008E-01
 -1      2282 1.11626E-01
 -1      2283 9.92027E-02
 -1      2284 1.11747E-01
 -1      2285 8.86766E-02
 -1      2286 7.81505E-02
 -1      2287 8.86766E-02
 -1      2288 7.00829E-02
 -1      2289 6.43397E-02
 -1      2290 7.00829E-02
 -1      2291 6.14527E-02
 -1      2292 6.43510E-02
 -1      2293 5.91282E-02
 -1      2294 6.94578E-02
 -1      2295 7.76782E-02
 -1      2296 6.13481E-02
 -1      2297 9.03605E-02
 -1      2298 1.03415E-01
 -1      2299 7.91373E-02
 -1      2300 1.29364E-01
 -1      2301 1.59289E-01
 -1      2302 1.17769E-01
 -1      2303 1.94166E-01
 -1      2304 2.38774E-01
 -1      2305 1.78596E-01
 -1      2306 2.86690E-01
 -1      2307 3.50365E-01
 -1      2308 2.61389E-01
 -1      2309 4.16435E-01
 -1      2310 5.06889E-01
 -1      2311 3.75376E-01
 -1      2312 5.97987E-01
 -1      2313 7.24953E-01
 -1      2314 5.32545E-01
 -1      2315 8.50381E-01
 -1      2316 1.02489E+00
 -1      2317 7.49071E-01
 -1      2318 1.19752E+00
 -1      2319 1.42917E+00
 -1      2320 1.04713E+00
 -1      2321 1.66776E+00
 -1      2322 1.95814E+00
 -1      2323 1.45835E+00
 -1      2324 2.29219E+00
 -1      2325 2.62304E+00
 -1      2326 2.03100E+00
 -1      2327 3.09317E+00
 -1      2328 3.41459E+00
 -1      2329 2.83518E+00
 -1      2330 4.15128E+00
 -1      2331 4.39076E+00
 -1      2332 4.04201E+00
 -1      2333 4.97064E+00
 -1      2334 5.51072E+00
 -1      2335 5.35857E+00
 -1      2336 7.15831E+00
 -1      2337 8.57637E+00
 -1      2338 7.58603E+00
 -1      2339 1.34417E+01
 -1      2340 1.82955E+01
 -1      2341 1.61136E-01
 -1      2342 5.62224E+00
 -1      2343 4.94444E+00
 -1      2344 4.44026E+00
 -1      2345 4.24970E+00
 -1      2346 5.47436E+00
 -1      2347 3.50098E+00
 -1      2348 3.19552E+00
 -1      2349 4.22146E+00
 -1      2350 2.67383E+00
 -1      2351 2.32838E+00
 -1      2352 2.95106E+00
 -1      2353 1.95101E+00
 -1      2354 1.63185E+00
 -1      2355 2.05200E+00
 -1      2356 1.35403E+00
 -1      2357 1.08769E+00
 -1      2358 1.39681E+00
 -1      2359 9.08630E-01
 -1      2360 7.25755E-01
 -1      2361 6.33681E-01
 -1      2362 9.39933E-01
 -1      2363 4.82098E-01
 -1      2364 5.38976E-01
 -1      2365 5.97730E-01
 -1      2366 6.89634E-01
 -1      2367 5.04421E-01
 -1      2368 7.54378E-01
 -1      2369 9.14033E-01
 -1      2370 6.27919E-01
 -1      2371 3.93995E-01
 -1      2372 4.43585E-01
 -1      2373 4.07153E-01
 -1      2374 3.26320E-01
 -1      2375 3.66805E-01
 -1      2376 3.41449E-01
 -1      2377 2.68101E-01
 -1      2378 3.00056E-01
 -1      2379 2.87995E-01
 -1      2380 2.17922E-01
 -1      2381 2.44927E-01
 -1      2382 2.38557E-01
 -1      2383 1.77200E-01
 -1      2384 1.99006E-01
 -1      2385 1.96466E-01
 -1      2386 1.43497E-01
 -1      2387 1.60346E-01
 -1      2388 1.60696E-01
 -1      2389 1.14420E-01
 -1      2390 1.28886E-01
 -1      2391 1.29231E-01
 -1      2392 8.97528E-02
 -1      2393 1.01986E-01
 -1      2394 1.02187E-01
 -1      2395 6.91191E-02
 -1      2396 7.94360E-02
 -1      2397 7.94360E-02
 -1      2398 5.68735E-02
 -1      2399 6.04321E-02
 -1      2400 6.04321E-02
 -1      2401 5.94247E-02
 -1      2402 5.70512E-02
 -1      2403 5.19227E-02
 -1      2404 6.59010E-02
 -1      2405 6.19447E-02
 -1      2406 5.46203E-02
 -1      2407 7.43947E-02
 -1      2408 6.93034E-02
 -1      2409 6.05427E-02
 -1      2410 8.92241E-02
 -1      2411 8.38012E-02
 -1      2412 7.33516E-02
 -1      2413 1.08427E-01
 -1      2414 9.91530E-02
 -1      2415 9.26871E-02
 -1      2416 1.29280E-01
 -1      2417 1.18450E-01
 -1      2418 1.12639E-01
 -1      2419 1.47905E-01
 -1      2420 1.36615E-01
 -1      2421 1.29998E-01
 -1      2422 1.63626E-01
 -1      2423 1.53160E-01
 -1      2424 1.42590E-01
 -1      2425 1.64184E-01
 -1      2426 1.62742E-01
 -1      2427 1.46962E-01
 -1      2428 1.68016E-01
 -1      2429 1.80317E-01
 -1      2430 1.62211E-01
 -1      2431 1.95679E-01
 -1      2432 1.89904E-01
 -1      2433 2.00232E-01
 -1      2434 3.24604E-01
 -1      2435 2.34658E-01
 -1      2436 2.61098E-01
 -1      2437 5.17928E-01
 -1      2438 4.09622E-01
 -1      2439 3.85093E-01
 -1      2440 7.30116E-01
 -1      2441 6.09836E-01
 -1      2442 5.62019E-01
 -1      2443 1.00751E+00
 -1      2444 8.58866E-01
 -1      2445 7.82677E-01
 -1      2446 1.24290E+00
 -1      2447 1.11123E+00
 -1      2448 1.01514E+00
 -1      2449 1.45870E+00
 -1      2450 1.31014E+00
 -1      2451 1.18610E+00
 -1      2452 1.58604E+00
 -1      2453 1.51211E+00
 -1      2454 1.30676E+00
 -1      2455 1.56231E+00
 -1      2456 1.58029E+00
 -1      2457 1.35443E+00
 -1      2458 1.54660E+00
 -1      2459 1.53646E+00
 -1      2460 1.32282E+00
 -1      2461 1.55307E+00
 -1      2462 1.57942E+00
 -1      2463 1.32978E+00
 -1      2464 1.42046E+00
 -1      2465 1.53226E+00
 -1      2466 1.34177E+00
 -1      2467 1.22064E+00
 -1      2468 1.36096E+00
 -1      2469 1.26146E+00
 -1      2470 1.01329E+00
 -1      2471 1.14541E+00
 -1      2472 1.12672E+00
 -1      2473 7.74378E-01
 -1      2474 8.99903E-01
 -1      2475 9.38093E-01
 -1      2476 5.80957E-01
 -1      2477 6.86119E-01
 -1      2478 7.36443E-01
 -1      2479 4.10662E-01
 -1      2480 5.01555E-01
 -1      2481 5.68783E-01
 -1      2482 2.92843E-01
 -1      2483 3.40486E-01
 -1      2484 4.19206E-01
 -1      2485 2.07434E-01
 -1      2486 2.39774E-01
 -1      2487 2.95962E-01
 -1      2488 1.77735E-01
 -1      2489 1.83154E-01
 -1      2490 2.18614E-01
 -1      2491 2.33613E-01
 -1      2492 2.33613E-01
 -1      2493 2.25384E-01
 -1      2494 2.16643E-01
 -1      2495 2.71311E-01
 -1      2496 2.16643E-01
 -1      2497 2.12109E-01
 -1      2498 2.63082E-01
 -1      2499 2.79868E+01
 -1      2500 3.35356E+01
 -1      2501 2.29648E-01
 -1      2502 2.33613E-01
 -1      2503 2.79540E-01
 -1      2504 3.02258E-01
 -1      2505 2.66631E-01
 -1      2506 3.16523E-01
 -1      2507 4.32616E-01
 -1      2508 3.51384E-01
 -1      2509 4.02630E-01
 -1      2510 5.75284E-01
 -1      2511 5.31000E-01
 -1      2512 5.50140E-01
 -1      2513 6.21104E-01
 -1      2514 6.07263E-01
 -1      2515 6.80505E-01
 -1      2516 6.54721E-01
 -1      2517 6.54721E-01
 -1      2518 7.46102E-01
 -1      2519 6.32703E-01
 -1      2520 6.54721E-01
 -1      2521 7.79719E-01
 -1      2522 6.07964E-01
 -1      2523 5.97562E-01
 -1      2524 7.44578E-01
 -1      2525 7.35154E-01
 -1      2526 1.67702E+00
 -1      2527 1.30215E+00
 -1      2528 8.38673E-01
 -1      2529 9.60225E-01
 -1      2530 3.90845E+01
 -1      2531 3.90845E+01
 -1      2532 3.09542E+01
 -1      2533 2.28239E+01
 -1      2534 3.09542E+01
 -1      2535 9.92054E+00
 -1      2536 1.39904E+01
 -1      2537 2.23399E+01
 -1      2538 1.56408E+01
 -1      2539 7.84504E+00
 -1      2540 7.83762E+00
 -1      2541 7.89826E+00
 -1      2542 1.14469E+01
 -1      2543 8.76590E+00
 -1      2544 7.79597E+00
 -1      2545 8.15229E+00
 -1      2546 8.83311E+00
 -1      2547 9.75111E+00
 -1      2548 5.22474E-01
 -1      2549 5.44499E-01
 -1      2550 4.71720E-01
 -1      2551 4.44469E-01
 -1      2552 8.10997E+00
 -1      2553 6.79169E+00
 -1      2554 1.32866E+01
 -1      2555 9.87363E+00
 -1      2556 9.22003E+00
 -1      2557 9.04062E+00
 -1      2558 6.85947E+00
 -1      2559 5.91244E+00
 -1      2560 6.78735E+00
 -1      2561 9.07970E+00
 -1      2562 8.98306E+00
 -1      2563 1.75135E+01
 -1      2564 2.35345E+01
 -1      2565 8.35262E+00
 -1      2566 6.84659E+00
 -1      2567 5.47530E+00
 -1      2568 2.54014E+01
 -1      2569 2.46927E+01
 -1      2570 3.21811E+01
 -1      2571 3.19372E+01
 -1      2572 3.24249E+01
 -1      2573 3.24249E+01
 -1      2574 1.29742E+01
 -1      2575 9.88500E+00
 -1      2576 1.75096E+01
 -1      2577 1.94121E+01
 -1      2578 1.93615E+01
 -1      2579 1.77735E-01
 -1      2580 9.50022E+00
 -1      2581 6.15305E-01
 -1      2582 7.56179E-01
 -1      2583 8.19538E-01
 -1      2584 3.35356E+01
 -1      2585 1.33044E+00
 -1      2586 1.03182E+00
 -1      2587 1.05318E+00
 -1      2588 5.59701E+00
 -1      2589 4.34569E+00
 -1      2590 4.73414E+00
 -1      2591 1.29160E+01
 -1      2592 1.22588E+01
 -1      2593 8.14377E+00
 -1      2594 6.99961E+00
 -1      2595 6.42167E+00
 -1      2596 9.84071E+00
 -1      2597 8.73573E+00
 -1      2598 7.18045E+00
 -1      2599 7.54866E+00
 -1      2600 7.50851E+00
 -1      2601 1.13112E+01
 -1      2602 2.28708E-01
 -1      2603 9.97129E+00
 -1      2604 2.13537E+01
 -1      2605 2.13537E+01
 -1      2606 1.77661E+01
 -1      2607 8.96305E-01
 -1      2608 1.65128E+01
 -1      2609 8.83067E-01
 -1      2610 9.94799E-01
 -1      2611 6.89112E-01
 -1      2612 6.61697E-01
 -1      2613 1.84104E+01
 -1      2614 1.64384E+01
 -1      2615 1.19503E+01
 -1      2616 6.49896E+00
 -1      2617 1.94121E+01
 -1      2618 2.91603E+01
 -1      2619 3.21811E+01
 -1      2620 7.93047E+00
 -1      2621 1.30754E+01
 -1      2622 1.18057E+01
 -1      2623 2.12471E+01
 -1      2624 7.19982E+00
 -1      2625 5.48801E+00
 -1      2626 8.66829E+00
 -1      2627 7.43498E+00
 -1      2628 8.61608E+00
 -1      2629 8.87995E+00
 -1      2630 5.59884E+00
 -1      2631 2.54014E+01
 -1      2632 1.65244E+01
 -1      2633 7.61951E+00
 -1      2634 4.22735E-01
 -1      2635 4.07947E-01
 -1      2636 4.00168E-01
 -1      2637 3.87233E-01
 -1      2638 3.50641E-01
 -1      2639 4.36075E-01
 -1      2640 4.36075E-01
 -1      2641 4.23026E-01
 -1      2642 4.26652E-01
 -1      2643 3.51851E-01
 -1      2644 9.54950E-01
 -1      2645 6.16506E-01
 -1      2646 6.70619E-01
 -1      2647 6.04110E-01
 -1      2648 5.54153E-01
 -1      2649 1.04918E+01
 -1      2650 1.41742E+01
 -1      2651 1.88228E+01
 -1      2652 8.47245E+00
 -1      2653 1.04672E+01
 -1      2654 5.50548E-01
 -1      2655 4.93914E-01
 -1      2656 4.01573E-01
 -1      2657 4.87350E-01
 -1      2658 4.31252E-01
 -1      2659 3.91405E-01
 -1      2660 4.10874E-01
 -1      2661 3.61606E-01
 -1      2662 3.64464E-01
 -1      2663 3.36756E-01
 -1      2664 3.09656E-01
 -1      2665 3.19235E-01
 -1      2666 2.84325E-01
 -1      2667 2.59794E-01
 -1      2668 2.69053E-01
 -1      2669 2.43686E-01
 -1      2670 2.18889E-01
 -1      2671 2.27614E-01
 -1      2672 2.02342E-01
 -1      2673 1.82820E-01
 -1      2674 1.94960E-01
 -1      2675 1.66988E-01
 -1      2676 1.50238E-01
 -1      2677 1.62582E-01
 -1      2678 1.36896E-01
 -1      2679 1.22178E-01
 -1      2680 1.33408E-01
 -1      2681 1.10464E-01
 -1      2682 9.79203E-02
 -1      2683 1.08352E-01
 -1      2684 8.76298E-02
 -1      2685 7.71037E-02
 -1      2686 8.63474E-02
 -1      2687 6.79058E-02
 -1      2688 5.98381E-02
 -1      2689 6.68590E-02
 -1      2690 5.11928E-02
 -1      2691 4.83059E-02
 -1      2692 4.90158E-02
 -1      2693 4.89282E-02
 -1      2694 5.40351E-02
 -1      2695 4.09928E-02
 -1      2696 6.45305E-02
 -1      2697 7.72129E-02
 -1      2698 5.21107E-02
 -1      2699 9.62747E-02
 -1      2700 1.22224E-01
 -1      2701 8.16679E-02
 -1      2702 1.46236E-01
 -1      2703 1.81113E-01
 -1      2704 1.24741E-01
 -1      2705 2.15524E-01
 -1      2706 2.63440E-01
 -1      2707 1.83164E-01
 -1      2708 3.18787E-01
 -1      2709 3.84858E-01
 -1      2710 2.72922E-01
 -1      2711 4.66251E-01
 -1      2712 5.57350E-01
 -1      2713 4.09663E-01
 -1      2714 6.74491E-01
 -1      2715 7.99919E-01
 -1      2716 6.08197E-01
 -1      2717 9.68077E-01
 -1      2718 1.14071E+00
 -1      2719 8.93496E-01
 -1      2720 1.38122E+00
 -1      2721 1.61981E+00
 -1      2722 1.30217E+00
 -1      2723 1.96169E+00
 -1      2724 2.29574E+00
 -1      2725 1.88456E+00
 -1      2726 2.81389E+00
 -1      2727 3.28402E+00
 -1      2728 2.74458E+00
 -1      2729 4.18380E+00
 -1      2730 4.92049E+00
 -1      2731 4.16250E+00
 -1      2732 7.00795E+00
 -1      2733 7.58783E+00
 -1      2734 7.14975E+00
 -1      2735 8.84417E+00
 -1      2736 4.99721E+00
 -1      2737 4.24849E+00
 -1      2738 3.43556E+00
 -1      2739 2.91387E+00
 -1      2740 4.21130E+00
 -1      2741 2.32515E+00
 -1      2742 1.94778E+00
 -1      2743 2.80965E+00
 -1      2744 1.55931E+00
 -1      2745 1.28149E+00
 -1      2746 1.83246E+00
 -1      2747 1.03016E+00
 -1      2748 8.51102E-01
 -1      2749 8.25385E-01
 -1      2750 1.19266E+00
 -1      2751 4.16900E-01
 -1      2752 4.75655E-01
 -1      2753 3.51579E-01
 -1      2754 3.90093E-01
 -1      2755 3.61326E-01
 -1      2756 4.96684E-01
 -1      2757 5.61428E-01
 -1      2758 4.09163E-01
 -1      2759 2.49711E-01
 -1      2760 2.75975E-01
 -1      2761 2.08923E-01
 -1      2762 2.32097E-01
 -1      2763 2.20077E-01
 -1      2764 1.72980E-01
 -1      2765 1.91896E-01
 -1      2766 1.85437E-01
 -1      2767 1.41190E-01
 -1      2768 1.58044E-01
 -1      2769 1.53474E-01
 -1      2770 1.13236E-01
 -1      2771 1.27846E-01
 -1      2772 1.25194E-01
 -1      2773 8.91204E-02
 -1      2774 1.01554E-01
 -1      2775 1.00169E-01
 -1      2776 6.86297E-02
 -1      2777 7.89465E-02
 -1      2778 7.83141E-02
 -1      2779 5.09865E-02
 -1      2780 5.96735E-02
 -1      2781 5.91840E-02
 -1      2782 4.35556E-02
 -1      2783 4.33779E-02
 -1      2784 4.26194E-02
 -1      2785 4.77774E-02
 -1      2786 4.52574E-02
 -1      2787 3.67127E-02
 -1      2788 5.54971E-02
 -1      2789 5.20947E-02
 -1      2790 4.27318E-02
 -1      2791 7.57628E-02
 -1      2792 6.63563E-02
 -1      2793 5.79083E-02
 -1      2794 9.68581E-02
 -1      2795 8.69291E-02
 -1      2796 7.99338E-02
 -1      2797 1.18485E-01
 -1      2798 1.08461E-01
 -1      2799 1.02703E-01
 -1      2800 1.36239E-01
 -1      2801 1.28903E-01
 -1      2802 1.24725E-01
 -1      2803 1.53076E-01
 -1      2804 1.47820E-01
 -1      2805 1.46725E-01
 -1      2806 1.62969E-01
 -1      2807 1.63853E-01
 -1      2808 1.69083E-01
 -1      2809 1.86871E-01
 -1      2810 1.70739E-01
 -1      2811 1.87630E-01
 -1      2812 2.48894E-01
 -1      2813 2.27006E-01
 -1      2814 2.35533E-01
 -1      2815 3.33162E-01
 -1      2816 2.94183E-01
 -1      2817 3.20957E-01
 -1      2818 4.70111E-01
 -1      2819 3.85093E-01
 -1      2820 4.18179E-01
 -1      2821 6.50042E-01
 -1      2822 5.58134E-01
 -1      2823 5.58134E-01
 -1      2824 8.80050E-01
 -1      2825 7.51300E-01
 -1      2826 7.47415E-01
 -1      2827 1.05092E+00
 -1      2828 9.47208E-01
 -1      2829 9.15831E-01
 -1      2830 1.19516E+00
 -1      2831 1.12791E+00
 -1      2832 1.05998E+00
 -1      2833 1.30653E+00
 -1      2834 1.25312E+00
 -1      2835 1.19493E+00
 -1      2836 1.35648E+00
 -1      2837 1.36223E+00
 -1      2838 1.30859E+00
 -1      2839 1.25843E+00
 -1      2840 1.28429E+00
 -1      2841 1.29209E+00
 -1      2842 1.35426E+00
 -1      2843 1.32144E+00
 -1      2844 1.28291E+00
 -1      2845 1.33436E+00
 -1      2846 1.35517E+00
 -1      2847 1.34684E+00
 -1      2848 1.20478E+00
 -1      2849 1.26429E+00
 -1      2850 1.27769E+00
 -1      2851 1.07778E+00
 -1      2852 1.15302E+00
 -1      2853 1.15585E+00
 -1      2854 9.03402E-01
 -1      2855 1.01679E+00
 -1      2856 1.04309E+00
 -1      2857 7.32169E-01
 -1      2858 8.20428E-01
 -1      2859 8.99128E-01
 -1      2860 5.68783E-01
 -1      2861 6.48184E-01
 -1      2862 7.32169E-01
 -1      2863 4.19206E-01
 -1      2864 4.89382E-01
 -1      2865 5.68783E-01
 -1      2866 2.95962E-01
 -1      2867 3.49031E-01
 -1      2868 4.19206E-01
 -1      2869 2.41223E-01
 -1      2870 2.65504E-01
 -1      2871 3.18572E-01
 -1      2872 2.75598E-01
 -1      2873 4.15935E-01
 -1      2874 3.78953E-01
 -1      2875 2.75598E-01
 -1      2876 2.75598E-01
 -1      2877 2.88113E-01
 -1      2878 3.52225E-01
 -1      2879 3.52225E-01
 -1      2880 4.51638E-01
 -1      2881 6.92362E-01
 -1      2882 5.93977E-01
 -1      2883 8.44976E-01
 -1      2884 8.12997E-01
 -1      2885 8.56834E-01
 -1      2886 9.00284E-01
 -1      2887 8.66667E-01
 -1      2888 9.99159E-01
 -1      2889 9.00284E-01
 -1      2890 9.00284E-01
 -1      2891 1.02085E+00
 -1      2892 2.68905E+01
 -1      2893 1.87602E+01
 -1      2894 1.54152E+01
 -1      2895 1.30623E+01
 -1      2896 2.11267E+01
 -1      2897 2.43914E+01
 -1      2898 1.40538E+01
 -1      2899 1.78908E+01
 -1      2900 1.44790E+01
 -1      2901 1.38272E+01
 -1      2902 1.16419E+01
 -1      2903 9.46814E+00
 -1      2904 7.97538E-01
 -1      2905 1.12965E+01
 -1      2906 8.94229E+00
 -1      2907 2.04724E+01
 -1      2908 2.60212E+01
 -1      2909 4.24512E+00
 -1      2910 5.30280E+00
 -1      2911 5.86996E+00
 -1      2912 4.93930E+00
 -1      2913 4.89189E+00
 -1      2914 3.95774E+00
 -1      2915 6.99336E+00
 -1      2916 5.47235E+00
 -1      2917 4.36075E-01
 -1      2918 4.24161E-01
 -1      2919 3.59847E-01
 -1      2920 3.61273E-01
 -1      2921 4.24237E-01
 -1      2922 4.36105E-01
 -1      2923 2.32802E+01
 -1      2924 2.30363E+01
 -1      2925 1.52466E+01
 -1      2926 7.60115E+00
 -1      2927 6.72297E+00
 -1      2928 2.35994E+01
 -1      2929 1.70636E+01
 -1      2930 5.27642E-01
 -1      2931 4.78516E-01
 -1      2932 6.69863E-01
 -1      2933 2.93918E-01
 -1      2934 2.85689E-01
 -1      2935 2.98204E-01
 -1      2936 3.66603E-01
 -1      2937 2.96656E-01
 -1      2938 3.23846E-01
 -1      2939 3.06786E-01
 -1      2940 2.58372E-01
 -1      2941 6.80283E+00
 -1      2942 6.29865E+00
 -1      2943 6.32568E+00
 -1      2944 5.50240E+00
 -1      2945 6.84943E+00
 -1      2946 3.42705E-01
 -1      2947 3.87075E-01
 -1      2948 3.99942E-01
 -1      2949 5.48684E-01
 -1      2950 1.05821E+01
 -1      2951 4.29583E+00
 -1      2952 3.10115E+00
 -1      2953 3.30631E+00
 -1      2954 7.47588E+00
 -1      2955 3.95478E+00
 -1      2956 3.66170E+00
 -1      2957 1.04935E+01
 -1      2958 1.43626E+01
 -1      2959 1.09121E+01
 -1      2960 1.25606E+01
 -1      2961 6.64704E+00
 -1      2962 7.15623E+00
 -1      2963 4.69811E+00
 -1      2964 1.09640E+01
 -1      2965 1.53371E+01
 -1      2966 1.22917E+01
 -1      2967 1.02924E+01
 -1      2968 5.40947E-01
 -1      2969 6.50998E-01
 -1      2970 6.15367E-01
 -1      2971 1.38272E+01
 -1      2972 8.99977E-01
 -1      2973 9.35118E-01
 -1      2974 1.05568E+00
 -1      2975 1.01592E+00
 -1      2976 4.23425E-01
 -1      2977 5.54659E-01
 -1      2978 5.23694E-01
 -1      2979 4.69616E+00
 -1      2980 3.89786E-01
 -1      2981 4.63521E-01
 -1      2982 5.68987E-01
 -1      2983 1.01989E+01
 -1      2984 5.37105E+00
 -1      2985 6.43820E+00
 -1      2986 4.51803E+00
 -1      2987 1.31632E+01
 -1      2988 1.26726E+01
 -1      2989 1.93057E+01
 -1      2990 1.17912E+01
 -1      2991 1.02437E+01
 -1      2992 6.22473E+00
 -1      2993 7.00319E+00
 -1      2994 4.87101E+00
 -1      2995 4.68087E-01
 -1      2996 4.07590E-01
 -1      2997 4.21974E-01
 -1      2998 3.60107E-01
 -1      2999 3.50196E-01
 -1      3000 6.93463E+00
 -1      3001 1.46985E+01
 -1      3002 4.16435E-01
 -1      3003 2.91995E-01
 -1      3004 3.01417E-01
 -1      3005 6.12238E-01
 -1      3006 8.89389E+00
 -1      3007 1.03771E+01
 -1      3008 9.27580E+00
 -1      3009 3.16366E-01
 -1      3010 3.09802E-01
 -1      3011 3.20445E-01
 -1      3012 3.00067E-01
 -1      3013 2.45406E-01
 -1      3014 2.96536E-01
 -1      3015 2.71686E-01
 -1      3016 2.52518E-01
 -1      3017 2.60284E-01
 -1      3018 2.34953E-01
 -1      3019 2.37585E-01
 -1      3020 2.20316E-01
 -1      3021 2.04208E-01
 -1      3022 2.11547E-01
 -1      3023 1.90994E-01
 -1      3024 1.74448E-01
 -1      3025 1.83696E-01
 -1      3026 1.63455E-01
 -1      3027 1.47623E-01
 -1      3028 1.59488E-01
 -1      3029 1.35942E-01
 -1      3030 1.22601E-01
 -1      3031 1.36815E-01
 -1      3032 1.11086E-01
 -1      3033 9.93715E-02
 -1      3034 1.13620E-01
 -1      3035 8.84137E-02
 -1      3036 7.81232E-02
 -1      3037 9.11473E-02
 -1      3038 6.77901E-02
 -1      3039 5.85922E-02
 -1      3040 6.98564E-02
 -1      3041 4.87119E-02
 -1      3042 4.00666E-02
 -1      3043 4.96430E-02
 -1      3044 3.65230E-02
 -1      3045 3.71454E-02
 -1      3046 3.62191E-02
 -1      3047 4.39355E-02
 -1      3048 5.44310E-02
 -1      3049 3.94657E-02
 -1      3050 7.15509E-02
 -1      3051 9.06127E-02
 -1      3052 6.33757E-02
 -1      3053 1.14550E-01
 -1      3054 1.38562E-01
 -1      3055 1.04433E-01
 -1      3056 1.71761E-01
 -1      3057 2.06172E-01
 -1      3058 1.61569E-01
 -1      3059 2.52158E-01
 -1      3060 3.07506E-01
 -1      3061 2.40755E-01
 -1      3062 3.71736E-01
 -1      3063 4.53130E-01
 -1      3064 3.50972E-01
 -1      3065 5.43489E-01
 -1      3066 6.60630E-01
 -1      3067 5.05562E-01
 -1      3068 7.89050E-01
 -1      3069 9.57208E-01
 -1      3070 7.24342E-01
 -1      3071 1.14307E+00
 -1      3072 1.38359E+00
 -1      3073 1.03863E+00
 -1      3074 1.66119E+00
 -1      3075 2.00307E+00
 -1      3076 1.50210E+00
 -1      3077 2.43994E+00
 -1      3078 2.95809E+00
 -1      3079 2.21658E+00
 -1      3080 3.73337E+00
 -1      3081 4.63315E+00
 -1      3082 3.42873E+00
 -1      3083 5.68898E+00
 -1      3084 7.77644E+00
 -1      3085 5.25984E+00
 -1      3086 1.46956E+00
 -1      3087 1.46956E+00
 -1      3088 4.73178E+00
 -1      3089 3.91885E+00
 -1      3090 9.08960E+00
 -1      3091 7.78816E+00
 -1      3092 7.49570E+00
 -1      3093 3.08031E+00
 -1      3094 2.49159E+00
 -1      3095 3.60079E+00
 -1      3096 2.41878E+00
 -1      3097 2.03031E+00
 -1      3098 2.68945E+00
 -1      3099 3.02155E-01
 -1      3100 3.28963E-01
 -1      3101 3.28547E-01
 -1      3102 3.49577E-01
 -1      3103 2.69376E-01
 -1      3104 1.67321E-01
 -1      3105 1.84348E-01
 -1      3106 1.95674E-01
 -1      3107 2.13287E-01
 -1      3108 1.77557E-01
 -1      3109 1.14754E-01
 -1      3110 1.28097E-01
 -1      3111 9.13841E-02
 -1      3112 1.03066E-01
 -1      3113 1.05969E-01
 -1      3114 7.02638E-02
 -1      3115 8.04377E-02
 -1      3116 8.33339E-02
 -1      3117 5.10688E-02
 -1      3118 6.00249E-02
 -1      3119 6.21485E-02
 -1      3120 3.37118E-02
 -1      3121 4.13203E-02
 -1      3122 4.21612E-02
 -1      3123 2.99515E-02
 -1      3124 2.82497E-02
 -1      3125 2.69506E-02
 -1      3126 3.88010E-02
 -1      3127 3.44837E-02
 -1      3128 2.60207E-02
 -1      3129 6.05134E-02
 -1      3130 4.96542E-02
 -1      3131 4.14062E-02
 -1      3132 8.40696E-02
 -1      3133 7.29033E-02
 -1      3134 6.46492E-02
 -1      3135 1.09195E-01
 -1      3136 9.75914E-02
 -1      3137 9.05609E-02
 -1      3138 1.33716E-01
 -1      3139 1.23298E-01
 -1      3140 1.18186E-01
 -1      3141 1.58671E-01
 -1      3142 1.47090E-01
 -1      3143 1.45662E-01
 -1      3144 1.88899E-01
 -1      3145 1.78122E-01
 -1      3146 1.78486E-01
 -1      3147 2.18831E-01
 -1      3148 2.11062E-01
 -1      3149 2.20100E-01
 -1      3150 2.81659E-01
 -1      3151 2.41525E-01
 -1      3152 2.64956E-01
 -1      3153 3.79224E-01
 -1      3154 3.33934E-01
 -1      3155 3.39925E-01
 -1      3156 5.06220E-01
 -1      3157 4.54288E-01
 -1      3158 4.67265E-01
 -1      3159 6.66383E-01
 -1      3160 5.78360E-01
 -1      3161 6.14470E-01
 -1      3162 8.48673E-01
 -1      3163 7.47415E-01
 -1      3164 7.67641E-01
 -1      3165 1.02632E+00
 -1      3166 9.59159E-01
 -1      3167 9.59159E-01
 -1      3168 1.17199E+00
 -1      3169 1.09500E+00
 -1      3170 1.13832E+00
 -1      3171 1.25678E+00
 -1      3172 1.19881E+00
 -1      3173 1.23383E+00
 -1      3174 1.46751E+00
 -1      3175 1.41182E+00
 -1      3176 1.41570E+00
 -1      3177 1.45385E+00
 -1      3178 1.52604E+00
 -1      3179 1.62927E+00
 -1      3180 1.46296E+00
 -1      3181 1.39995E+00
 -1      3182 1.63389E+00
 -1      3183 1.49407E+00
 -1      3184 1.49315E+00
 -1      3185 1.61018E+00
 -1      3186 1.29778E+00
 -1      3187 1.36785E+00
 -1      3188 1.51416E+00
 -1      3189 1.16409E+00
 -1      3190 1.21585E+00
 -1      3191 1.30602E+00
 -1      3192 1.09238E+00
 -1      3193 1.15337E+00
 -1      3194 1.21337E+00
 -1      3195 9.01752E-01
 -1      3196 9.84725E-01
 -1      3197 1.09500E+00
 -1      3198 7.32169E-01
 -1      3199 8.16154E-01
 -1      3200 9.01752E-01
 -1      3201 5.52809E-01
 -1      3202 6.32210E-01
 -1      3203 7.16196E-01
 -1      3204 3.91752E-01
 -1      3205 4.61927E-01
 -1      3206 5.25355E-01
 -1      3207 2.96514E-01
 -1      3208 3.26973E-01
 -1      3209 3.69694E-01
 -1      3210 2.96514E-01
 -1      3211 5.74232E-01
 -1      3212 1.11618E+01
 -1      3213 4.22447E-01
 -1      3214 5.65742E-01
 -1      3215 5.39014E-01
 -1      3216 1.22554E+00
 -1      3217 1.20385E+00
 -1      3218 1.67425E+00
 -1      3219 1.06864E+00
 -1      3220 9.48005E-01
 -1      3221 1.29502E+00
 -1      3222 6.96452E-01
 -1      3223 6.33871E-01
 -1      3224 7.21248E-01
 -1      3225 5.05201E-01
 -1      3226 8.56939E-01
 -1      3227 7.90604E-01
 -1      3228 8.83528E-01
 -1      3229 1.06875E+00
 -1      3230 3.35224E-01
 -1      3231 3.31619E-01
 -1      3232 2.50016E-01
 -1      3233 1.26243E+01
 -1      3234 3.79542E-01
 -1      3235 4.90099E+00
 -1      3236 6.52400E+00
 -1      3237 1.40295E-01
 -1      3238 1.55231E-01
 -1      3239 1.54142E-01
 -1      3240 1.29854E-01
 -1      3241 1.27975E+01
 -1      3242 9.37132E+00
 -1      3243 7.60551E+00
 -1      3244 2.83274E+00
 -1      3245 3.12012E+00
 -1      3246 1.16067E+01
 -1      3247 1.21698E+01
 -1      3248 3.23480E-01
 -1      3249 3.15701E-01
 -1      3250 3.29109E-01
 -1      3251 3.45596E+00
 -1      3252 2.87550E+00
 -1      3253 6.54461E+00
 -1      3254 5.26580E+00
 -1      3255 5.33436E+00
 -1      3256 3.35610E+00
 -1      3257 4.51280E+00
 -1      3258 9.23721E+00
 -1      3259 1.27975E+01
 -1      3260 1.16863E+01
 -1      3261 7.77644E+00
 -1      3262 6.84803E+00
 -1      3263 6.64302E+00
 -1      3264 4.27313E+00
 -1      3265 1.17550E+01
 -1      3266 2.60436E-01
 -1      3267 3.20292E-01
 -1      3268 3.20292E-01
 -1      3269 3.52808E+00
 -1      3270 2.88460E+00
 -1      3271 3.23110E-01
 -1      3272 3.25373E-01
 -1      3273 9.46880E+00
 -1      3274 1.81875E+00
 -1      3275 2.26746E+00
 -1      3276 6.34047E+00
 -1      3277 4.55441E+00
 -1      3278 5.51289E+00
 -1      3279 2.91779E+00
 -1      3280 2.92450E-01
 -1      3281 2.60086E-01
 -1      3282 2.64716E-01
 -1      3283 1.26725E+00
 -1      3284 2.33392E+00
 -1      3285 2.05082E-01
 -1      3286 2.29486E-01
 -1      3287 2.50167E-01
 -1      3288 2.72723E-01
 -1      3289 2.81124E-01
 -1      3290 2.82814E-01
 -1      3291 1.15296E+01
 -1      3292 1.03267E+01
 -1      3293 8.14024E+00
 -1      3294 9.19283E+00
 -1      3295 6.59944E+00
 -1      3296 3.29048E-01
 -1      3297 3.22280E-01
 -1      3298 3.21815E-01
 -1      3299 3.49231E-01
 -1      3300 2.84817E-01
 -1      3301 4.77254E+00
 -1      3302 4.48776E+00
 -1      3303 4.38252E+00
 -1      3304 3.23480E-01
 -1      3305 2.88540E-01
 -1      3306 3.24906E-01
 -1      3307 3.34539E+00
 -1      3308 4.26732E+00
 -1      3309 2.51643E+00
 -1      3310 4.09632E+00
 -1      3311 1.85358E+00
 -1      3312 3.56092E+00
 -1      3313 9.15764E+00
 -1      3314 2.34732E-01
 -1      3315 4.11190E-01
 -1      3316 2.85031E-01
 -1      3317 3.12192E-01
 -1      3318 3.12035E-01
 -1      3319 4.06641E+00
 -1      3320 3.90354E+00
 -1      3321 2.82425E+00
 -1      3322 4.36714E-01
 -1      3323 3.78407E-01
 -1      3324 3.52925E-01
 -1      3325 5.50819E-01
 -1      3326 3.41236E-01
 -1      3327 1.03630E+01
 -1      3328 2.48432E-01
 -1      3329 3.23110E-01
 -1      3330 2.88376E-01
 -1      3331 3.15462E-01
 -1      3332 7.96783E+00
 -1      3333 8.35857E+00
 -1      3334 2.73814E+00
 -1      3335 3.12632E+00
 -1      3336 2.15344E-01
 -1      3337 2.11813E-01
 -1      3338 2.15791E-01
 -1      3339 2.04389E-01
 -1      3340 1.78617E-01
 -1      3341 2.00348E-01
 -1      3342 1.85711E-01
 -1      3343 1.78554E-01
 -1      3344 1.77466E-01
 -1      3345 1.64252E-01
 -1      3346 1.66268E-01
 -1      3347 1.53972E-01
 -1      3348 1.42979E-01
 -1      3349 1.47743E-01
 -1      3350 1.34777E-01
 -1      3351 1.23097E-01
 -1      3352 1.29261E-01
 -1      3353 1.14319E-01
 -1      3354 1.02804E-01
 -1      3355 1.12281E-01
 -1      3356 9.37072E-02
 -1      3357 8.27495E-02
 -1      3358 9.44066E-02
 -1      3359 7.37826E-02
 -1      3360 6.34494E-02
 -1      3361 7.63425E-02
 -1      3362 5.47815E-02
 -1      3363 4.49012E-02
 -1      3364 5.87077E-02
 -1      3365 4.22688E-02
 -1      3366 3.87252E-02
 -1      3367 4.74073E-02
 -1      3368 4.21349E-02
 -1      3369 4.89251E-02
 -1      3370 4.81846E-02
 -1      3371 5.71018E-02
 -1      3372 7.42218E-02
 -1      3373 5.97711E-02
 -1      3374 9.30647E-02
 -1      3375 1.17002E-01
 -1      3376 8.67908E-02
 -1      3377 1.41625E-01
 -1      3378 1.74824E-01
 -1      3379 1.30257E-01
 -1      3380 2.07283E-01
 -1      3381 2.53270E-01
 -1      3382 1.87339E-01
 -1      3383 2.96227E-01
 -1      3384 3.60457E-01
 -1      3385 2.62755E-01
 -1      3386 4.17395E-01
 -1      3387 5.07755E-01
 -1      3388 3.62650E-01
 -1      3389 5.83426E-01
 -1      3390 7.11846E-01
 -1      3391 4.95259E-01
 -1      3392 8.18513E-01
 -1      3393 1.00438E+00
 -1      3394 6.77597E-01
 -1      3395 1.18214E+00
 -1      3396 1.45974E+00
 -1      3397 9.62021E-01
 -1      3398 1.75436E+00
 -1      3399 2.19123E+00
 -1      3400 1.43439E+00
 -1      3401 2.73452E+00
 -1      3402 3.50980E+00
 -1      3403 2.27230E+00
 -1      3404 3.98390E+00
 -1      3405 5.03973E+00
 -1      3406 3.28969E+00
 -1      3407 2.39386E+00
 -1      3408 2.64881E+00
 -1      3409 2.61562E+00
 -1      3410 7.33557E+00
 -1      3411 4.27919E+00
 -1      3412 7.11021E+00
 -1      3413 2.04890E-01
 -1      3414 1.89637E-01
 -1      3415 3.52798E+00
 -1      3416 2.68945E+00
 -1      3417 3.36785E+00
 -1      3418 2.61664E+00
 -1      3419 7.61572E-02
 -1      3420 8.71036E-02
 -1      3421 9.65123E-02
 -1      3422 1.08201E-01
 -1      3423 8.93356E-02
 -1      3424 3.81522E-02
 -1      3425 4.79006E-02
 -1      3426 2.92545E-02
 -1      3427 3.47167E-02
 -1      3428 4.04560E-02
 -1      3429 3.34068E-02
 -1      3430 2.88746E-02
 -1      3431 3.66406E-02
 -1      3432 5.06389E-02
 -1      3433 3.97857E-02
 -1      3434 4.26395E-02
 -1      3435 7.35873E-02
 -1      3436 6.11974E-02
 -1      3437 5.95769E-02
 -1      3438 9.88889E-02
 -1      3439 8.53672E-02
 -1      3440 8.19153E-02
 -1      3441 1.26423E-01
 -1      3442 1.12320E-01
 -1      3443 1.07127E-01
 -1      3444 1.59459E-01
 -1      3445 1.46085E-01
 -1      3446 1.40220E-01
 -1      3447 2.00342E-01
 -1      3448 1.80891E-01
 -1      3449 1.81314E-01
 -1      3450 2.49455E-01
 -1      3451 2.27292E-01
 -1      3452 2.29697E-01
 -1      3453 3.11211E-01
 -1      3454 2.88517E-01
 -1      3455 2.95710E-01
 -1      3456 4.10744E-01
 -1      3457 3.58469E-01
 -1      3458 3.82030E-01
 -1      3459 5.42330E-01
 -1      3460 4.67265E-01
 -1      3461 4.85809E-01
 -1      3462 7.18505E-01
 -1      3463 6.46365E-01
 -1      3464 6.46365E-01
 -1      3465 9.24678E-01
 -1      3466 8.43646E-01
 -1      3467 8.75542E-01
 -1      3468 1.10303E+00
 -1      3469 9.92547E-01
 -1      3470 1.06855E+00
 -1      3471 1.30197E+00
 -1      3472 1.23329E+00
 -1      3473 1.26668E+00
 -1      3474 1.75258E+00
 -1      3475 1.72575E+00
 -1      3476 1.82072E+00
 -1      3477 2.05954E+00
 -1      3478 1.90450E+00
 -1      3479 2.39642E+00
 -1      3480 1.88154E+00
 -1      3481 1.82301E+00
 -1      3482 2.31182E+00
 -1      3483 2.28392E+00
 -1      3484 2.33782E+00
 -1      3485 2.53156E+00
 -1      3486 1.64038E+00
 -1      3487 1.61018E+00
 -1      3488 2.31411E+00
 -1      3489 1.51416E+00
 -1      3490 1.64038E+00
 -1      3491 1.64038E+00
 -1      3492 1.31416E+00
 -1      3493 1.39608E+00
 -1      3494 1.52230E+00
 -1      3495 1.33459E+00
 -1      3496 1.34531E+00
 -1      3497 1.43537E+00
 -1      3498 1.09500E+00
 -1      3499 1.20265E+00
 -1      3500 1.33459E+00
 -1      3501 9.23184E-01
 -1      3502 1.00878E+00
 -1      3503 1.11643E+00
 -1      3504 7.12833E-01
 -1      3505 8.12792E-01
 -1      3506 9.19821E-01
 -1      3507 5.31441E-01
 -1      3508 6.22323E-01
 -1      3509 7.18919E-01
 -1      3510 3.19477E-01
 -1      3511 3.84255E-01
 -1      3512 4.81224E-01
 -1      3513 2.95685E-01
 -1      3514 1.91827E+00
 -1      3515 1.67425E+00
 -1      3516 8.81398E-01
 -1      3517 8.13269E-01
 -1      3518 1.63562E+00
 -1      3519 1.50041E+00
 -1      3520 1.87964E+00
 -1      3521 8.76538E+00
 -1      3522 8.50377E+00
 -1      3523 5.98611E+00
 -1      3524 7.44688E+00
 -1      3525 7.36731E+00
 -1      3526 4.71016E+00
 -1      3527 2.11534E+00
 -1      3528 2.07259E+00
 -1      3529 8.38445E+00
 -1      3530 4.54144E+00
 -1      3531 4.08286E+00
 -1      3532 1.60255E-01
 -1      3533 1.71581E-01
 -1      3534 2.21772E-01
 -1      3535 2.21357E-01
 -1      3536 7.10211E+00
 -1      3537 7.68903E+00
 -1      3538 6.21076E+00
 -1      3539 1.89118E-01
 -1      3540 1.99761E-01
 -1      3541 1.43992E-01
 -1      3542 5.67662E-02
 -1      3543 6.70051E-02
 -1      3544 7.07749E-02
 -1      3545 5.27572E-02
 -1      3546 1.96019E-01
 -1      3547 1.75491E-01
 -1      3548 1.48416E-01
 -1      3549 1.76760E-01
 -1      3550 1.83590E-01
 -1      3551 2.02464E-01
 -1      3552 1.24348E-01
 -1      3553 1.11212E+00
 -1      3554 1.01797E+00
 -1      3555 1.10999E+00
 -1      3556 2.21421E+00
 -1      3557 2.42095E+00
 -1      3558 3.24373E+00
 -1      3559 3.56776E+00
 -1      3560 4.33316E+00
 -1      3561 6.37902E+00
 -1      3562 4.79225E+00
 -1      3563 2.20118E+00
 -1      3564 2.41975E+00
 -1      3565 2.64503E+00
 -1      3566 2.61562E+00
 -1      3567 2.12488E+00
 -1      3568 3.69847E+00
 -1      3569 4.00504E+00
 -1      3570 3.21047E+00
 -1      3571 6.63927E+00
 -1      3572 2.35831E-01
 -1      3573 7.43876E+00
 -1      3574 4.44762E+00
 -1      3575 5.84118E+00
 -1      3576 2.73264E-01
 -1      3577 2.12885E-01
 -1      3578 2.29856E-01
 -1      3579 2.26297E-01
 -1      3580 1.57923E-01
 -1      3581 2.37398E-01
 -1      3582 2.37398E-01
 -1      3583 1.78878E-01
 -1      3584 1.81647E-01
 -1      3585 1.97847E-01
 -1      3586 1.64345E-01
 -1      3587 1.08110E-01
 -1      3588 1.17566E-01
 -1      3589 1.29763E-01
 -1      3590 6.25707E+00
 -1      3591 8.50896E-01
 -1      3592 6.90746E-01
 -1      3593 5.88445E-01
 -1      3594 5.46679E+00
 -1      3595 5.64528E+00
 -1      3596 4.38024E+00
 -1      3597 2.83925E-01
 -1      3598 2.84949E-01
 -1      3599 1.67664E+00
 -1      3600 1.33604E+00
 -1      3601 1.24497E+00
 -1      3602 3.58959E+00
 -1      3603 1.59056E-01
 -1      3604 3.01582E+00
 -1      3605 1.38437E-01
 -1      3606 1.50527E-01
 -1      3607 1.44550E-01
 -1      3608 1.26148E-01
 -1      3609 2.30393E-01
 -1      3610 1.82373E-01
 -1      3611 2.20687E-01
 -1      3612 3.98100E+00
 -1      3613 2.99105E+00
 -1      3614 2.26746E+00
 -1      3615 2.37667E+00
 -1      3616 2.11534E+00
 -1      3617 2.82425E+00
 -1      3618 2.53002E-01
 -1      3619 2.49493E-01
 -1      3620 2.52201E-01
 -1      3621 2.52201E-01
 -1      3622 2.16663E-01
 -1      3623 2.50031E+00
 -1      3624 3.38249E+00
 -1      3625 1.49710E-01
 -1      3626 1.53688E-01
 -1      3627 1.59979E-01
 -1      3628 1.55937E-01
 -1      3629 1.31072E-01
 -1      3630 1.55237E-01
 -1      3631 1.46993E-01
 -1      3632 1.36662E-01
 -1      3633 1.42151E-01
 -1      3634 1.31871E-01
 -1      3635 1.31121E-01
 -1      3636 1.24719E-01
 -1      3637 1.16517E-01
 -1      3638 1.19127E-01
 -1      3639 1.09368E-01
 -1      3640 1.00590E-01
 -1      3641 1.04826E-01
 -1      3642 9.39187E-02
 -1      3643 8.48215E-02
 -1      3644 9.10051E-02
 -1      3645 7.77763E-02
 -1      3646 6.88095E-02
 -1      3647 7.72884E-02
 -1      3648 6.18281E-02
 -1      3649 5.31601E-02
 -1      3650 6.32619E-02
 -1      3651 5.12810E-02
 -1      3652 4.86486E-02
 -1      3653 5.44014E-02
 -1      3654 5.12976E-02
 -1      3655 5.47073E-02
 -1      3656 5.51713E-02
 -1      3657 5.67772E-02
 -1      3658 6.49539E-02
 -1      3659 5.98902E-02
 -1      3660 7.29236E-02
 -1      3661 9.17666E-02
 -1      3662 6.99296E-02
 -1      3663 1.06665E-01
 -1      3664 1.31288E-01
 -1      3665 9.27976E-02
 -1      3666 1.51446E-01
 -1      3667 1.83905E-01
 -1      3668 1.27854E-01
 -1      3669 2.15147E-01
 -1      3670 2.58104E-01
 -1      3671 1.79254E-01
 -1      3672 3.02851E-01
 -1      3673 3.59789E-01
 -1      3674 2.55244E-01
 -1      3675 4.23148E-01
 -1      3676 4.98819E-01
 -1      3677 3.63349E-01
 -1      3678 5.87489E-01
 -1      3679 6.94156E-01
 -1      3680 5.15378E-01
 -1      3681 8.16522E-01
 -1      3682 9.94279E-01
 -1      3683 7.26414E-01
 -1      3684 1.15943E+00
 -1      3685 1.45404E+00
 -1      3686 1.01393E+00
 -1      3687 1.84747E+00
 -1      3688 2.39077E+00
 -1      3689 1.57251E+00
 -1      3690 3.00128E+00
 -1      3691 3.47537E+00
 -1      3692 2.57645E+00
 -1      3693 1.57404E-01
 -1      3694 8.00447E-02
 -1      3695 8.94533E-02
 -1      3696 1.48446E-01
 -1      3697 1.23109E-01
 -1      3698 2.04902E-01
 -1      3699 2.19451E-01
 -1      3700 1.89758E-01
 -1      3701 1.81467E-01
 -1      3702 4.26005E-02
 -1      3703 4.29804E-02
 -1      3704 4.27039E-02
 -1      3705 4.61393E-02
 -1      3706 4.86637E-02
 -1      3707 7.01354E-02
 -1      3708 5.95769E-02
 -1      3709 9.36952E-02
 -1      3710 8.19153E-02
 -1      3711 8.19153E-02
 -1      3712 1.20206E-01
 -1      3713 1.06775E-01
 -1      3714 1.06775E-01
 -1      3715 1.57696E-01
 -1      3716 1.38034E-01
 -1      3717 1.37683E-01
 -1      3718 1.99902E-01
 -1      3719 1.78470E-01
 -1      3720 1.76285E-01
 -1      3721 2.62392E-01
 -1      3722 2.35441E-01
 -1      3723 2.32597E-01
 -1      3724 3.48033E-01
 -1      3725 3.08970E-01
 -1      3726 3.14715E-01
 -1      3727 4.46252E-01
 -1      3728 3.98994E-01
 -1      3729 4.12255E-01
 -1      3730 5.82970E-01
 -1      3731 5.26450E-01
 -1      3732 5.43413E-01
 -1      3733 7.78814E-01
 -1      3734 6.74778E-01
 -1      3735 7.15419E-01
 -1      3736 1.00068E+00
 -1      3737 8.75542E-01
 -1      3738 9.03955E-01
 -1      3739 1.21560E+00
 -1      3740 1.14774E+00
 -1      3741 1.14774E+00
 -1      3742 1.39693E+00
 -1      3743 1.26668E+00
 -1      3744 1.34586E+00
 -1      3745 2.24450E+00
 -1      3746 1.82072E+00
 -1      3747 1.82072E+00
 -1      3748 2.54835E+00
 -1      3749 2.39642E+00
 -1      3750 3.13889E+00
 -1      3751 2.68261E+00
 -1      3752 2.25805E+00
 -1      3753 2.93178E+00
 -1      3754 2.25805E+00
 -1      3755 1.76455E+00
 -1      3756 1.88263E+00
 -1      3757 1.66595E+00
 -1      3758 1.63480E+00
 -1      3759 1.57391E+00
 -1      3760 1.70584E+00
 -1      3761 1.90527E+00
 -1      3762 1.15583E+00
 -1      3763 1.24205E+00
 -1      3764 1.61330E+00
 -1      3765 9.30559E-01
 -1      3766 1.04095E+00
 -1      3767 1.16657E+00
 -1      3768 7.39539E-01
 -1      3769 8.30048E-01
 -1      3770 9.51178E-01
 -1      3771 1.99513E+00
 -1      3772 2.08446E+00
 -1      3773 2.49493E-01
 -1      3774 2.52920E-01
 -1      3775 2.01942E-01
 -1      3776 2.17464E-01
 -1      3777 1.99513E+00
 -1      3778 4.98147E+00
 -1      3779 5.58199E+00
 -1      3780 5.00700E+00
 -1      3781 5.70242E+00
 -1      3782 4.63742E+00
 -1      3783 2.28881E-01
 -1      3784 2.33496E-01
 -1      3785 1.97157E-01
 -1      3786 1.52035E-01
 -1      3787 5.97648E+00
 -1      3788 5.75816E+00
 -1      3789 4.70088E+00
 -1      3790 4.03509E+00
 -1      3791 5.05866E-02
 -1      3792 4.42077E-02
 -1      3793 5.05475E-02
 -1      3794 3.91278E-01
 -1      3795 1.42605E-01
 -1      3796 1.58189E-01
 -1      3797 1.33259E-01
 -1      3798 1.56537E-01
 -1      3799 3.43855E+00
 -1      3800 3.60081E+00
 -1      3801 3.05143E+00
 -1      3802 3.73320E+00
 -1      3803 1.37941E+00
 -1      3804 3.74668E+00
 -1      3805 3.85463E+00
 -1      3806 3.59063E+00
 -1      3807 2.82523E+00
 -1      3808 1.66240E+00
 -1      3809 2.00956E+00
 -1      3810 1.92372E+00
 -1      3811 1.45973E-01
 -1      3812 1.20667E-01
 -1      3813 1.54593E-01
 -1      3814 2.72844E+00
 -1      3815 2.78980E+00
 -1      3816 2.34222E+00
 -1      3817 6.11451E-02
 -1      3818 7.26673E-02
 -1      3819 7.27850E-02
 -1      3820 6.35152E-02
 -1      3821 1.56930E+00
 -1      3822 1.43273E+00
 -1      3823 4.28391E+00
 -1      3824 1.45473E-01
 -1      3825 1.55540E-01
 -1      3826 9.66798E-02
 -1      3827 1.06045E-01
 -1      3828 8.73889E-02
 -1      3829 2.67942E+00
 -1      3830 2.64078E+00
 -1      3831 4.96029E-02
 -1      3832 4.73551E-02
 -1      3833 5.62207E-02
 -1      3834 2.91914E+00
 -1      3835 2.31182E+00
 -1      3836 2.54835E+00
 -1      3837 2.12435E+00
 -1      3838 6.78391E-01
 -1      3839 7.89520E-01
 -1      3840 5.31205E-01
 -1      3841 2.26746E+00
 -1      3842 3.77981E+00
 -1      3843 3.02860E+00
 -1      3844 1.13613E+00
 -1      3845 1.01361E+00
 -1      3846 1.07475E+00
 -1      3847 1.69873E-01
 -1      3848 1.62331E-01
 -1      3849 1.47531E-01
 -1      3850 1.85395E-01
 -1      3851 4.67245E+00
 -1      3852 3.71829E+00
 -1      3853 4.00966E+00
 -1      3854 2.64078E+00
 -1      3855 2.47641E+00
 -1      3856 3.44056E+00
 -1      3857 1.85395E-01
 -1      3858 1.85395E-01
 -1      3859 1.59544E+00
 -1      3860 1.29351E-01
 -1      3861 1.39079E-01
 -1      3862 1.30274E-01
 -1      3863 1.82064E-01
 -1      3864 1.82865E-01
 -1      3865 1.50796E-01
 -1      3866 4.10836E+00
 -1      3867 2.64503E+00
 -1      3868 2.24176E+00
 -1      3869 1.19729E-01
 -1      3870 1.19029E-01
 -1      3871 1.19449E-01
 -1      3872 1.14607E-01
 -1      3873 1.02516E-01
 -1      3874 1.11626E-01
 -1      3875 1.04474E-01
 -1      3876 9.99539E-02
 -1      3877 9.94690E-02
 -1      3878 9.23198E-02
 -1      3879 9.19676E-02
 -1      3880 8.63160E-02
 -1      3881 7.96445E-02
 -1      3882 8.09593E-02
 -1      3883 7.41977E-02
 -1      3884 6.71525E-02
 -1      3885 6.95086E-02
 -1      3886 6.40434E-02
 -1      3887 5.70620E-02
 -1      3888 6.09526E-02
 -1      3889 5.62624E-02
 -1      3890 5.43833E-02
 -1      3891 5.70439E-02
 -1      3892 5.59582E-02
 -1      3893 5.86072E-02
 -1      3894 5.78192E-02
 -1      3895 5.98902E-02
 -1      3896 6.19600E-02
 -1      3897 6.06770E-02
 -1      3898 6.96247E-02
 -1      3899 7.75944E-02
 -1      3900 6.96247E-02
 -1      3901 8.93059E-02
 -1      3902 1.04204E-01
 -1      3903 8.90010E-02
 -1      3904 1.20851E-01
 -1      3905 1.41009E-01
 -1      3906 1.17359E-01
 -1      3907 1.63983E-01
 -1      3908 1.95225E-01
 -1      3909 1.56980E-01
 -1      3910 2.26121E-01
 -1      3911 2.70868E-01
 -1      3912 2.10849E-01
 -1      3913 3.11240E-01
 -1      3914 3.74599E-01
 -1      3915 2.82118E-01
 -1      3916 4.26707E-01
 -1      3917 5.15378E-01
 -1      3918 3.74599E-01
 -1      3919 6.22205E-01
 -1      3920 7.44571E-01
 -1      3921 5.33535E-01
 -1      3922 9.17951E-01
 -1      3923 1.08310E+00
 -1      3924 8.13743E-01
 -1      3925 1.33673E+00
 -1      3926 1.73016E+00
 -1      3927 1.24076E+00
 -1      3928 2.04104E+00
 -1      3929 2.65155E+00
 -1      3930 1.80526E+00
 -1      3931 3.82005E+00
 -1      3932 4.03480E+00
 -1      3933 1.50796E-01
 -1      3934 1.50765E-01
 -1      3935 5.28190E-02
 -1      3936 5.25425E-02
 -1      3937 2.11090E+00
 -1      3938 2.40750E+00
 -1      3939 2.69436E+00
 -1      3940 1.77904E+00
 -1      3941 1.19855E-01
 -1      3942 1.06775E-01
 -1      3943 9.17464E-02
 -1      3944 7.99665E-02
 -1      3945 1.04826E-01
 -1      3946 1.98487E-01
 -1      3947 1.77713E-01
 -1      3948 2.67325E-01
 -1      3949 2.31786E-01
 -1      3950 2.33214E-01
 -1      3951 3.54602E-01
 -1      3952 3.08024E-01
 -1      3953 3.07212E-01
 -1      3954 4.84190E-01
 -1      3955 4.33229E-01
 -1      3956 4.26537E-01
 -1      3957 6.60236E-01
 -1      3958 5.80038E-01
 -1      3959 6.01012E-01
 -1      3960 8.50773E-01
 -1      3961 7.58966E-01
 -1      3962 7.95590E-01
 -1      3963 1.08541E+00
 -1      3964 9.88685E-01
 -1      3965 1.03223E+00
 -1      3966 1.45314E+00
 -1      3967 1.30608E+00
 -1      3968 1.39081E+00
 -1      3969 2.27613E+00
 -1      3970 1.85235E+00
 -1      3971 2.39642E+00
 -1      3972 1.17526E+00
 -1      3973 2.54835E+00
 -1      3974 1.25816E-01
 -1      3975 1.17338E-01
 -1      3976 4.10836E+00
 -1      3977 1.29743E+00
 -1      3978 1.41231E+00
 -1      3979 1.90990E+00
 -1      3980 1.42101E+00
 -1      3981 1.71761E+00
 -1      3982 1.55511E-01
 -1      3983 1.37683E-01
 -1      3984 1.77713E-01
 -1      3985 1.12622E-01
 -1      3986 1.21295E-01
 -1      3987 1.01192E-01
 -1      3988 5.62994E-02
 -1      3989 5.46922E-02
 -1      3990 5.85709E-02
 -1      3991 3.26911E+00
 -1      3992 3.82883E+00
 -1      3993 4.22331E+00
 -1      3994 2.73370E+00
 -1      3995 3.96961E+00
 -1      3996 1.53326E-01
 -1      3997 7.00077E-02
 -1      3998 6.10174E-02
 -1      3999 7.98388E-02
 -1      4000 1.39848E-01
 -1      4001 1.58720E-01
 -1      4002 1.65775E-01
 -1      4003 1.89520E+00
 -1      4004 1.76235E+00
 -1      4005 2.08509E+00
 -1      4006 2.85935E+00
 -1      4007 1.69501E-01
 -1      4008 1.07801E-01
 -1      4009 1.14092E-01
 -1      4010 1.00359E-01
 -1      4011 1.35703E-01
 -1      4012 4.96029E-02
 -1      4013 5.08186E-02
 -1      4014 5.37582E-02
 -1      4015 9.64589E-02
 -1      4016 1.37683E-01
 -1      4017 3.50575E+00
 -1      4018 3.34152E+00
 -1      4019 2.62120E+00
 -1      4020 2.20053E+00
 -1      4021 2.52353E+00
 -1      4022 7.64554E-02
 -1      4023 8.36818E-02
 -1      4024 5.81131E-02
 -1      4025 1.22559E-01
 -1      4026 1.25739E-01
 -1      4027 1.63501E-01
 -1      4028 1.64737E-01
 -1      4029 1.28337E-01
 -1      4030 1.40755E-01
 -1      4031 1.29826E-01
 -1      4032 1.32355E-01
 -1      4033 1.15824E-01
 -1      4034 2.00276E+00
 -1      4035 1.54734E+00
 -1      4036 1.49627E+00
 -1      4037 1.89552E+00
 -1      4038 1.65462E+00
 -1      4039 2.31058E+00
 -1      4040 2.30796E+00
 -1      4041 2.13352E+00
 -1      4042 2.50025E+00
 -1      4043 2.50101E+00
 -1      4044 1.31611E-01
 -1      4045 1.14733E-01
 -1      4046 1.21127E-01
 -1      4047 1.07017E-01
 -1      4048 1.32355E-01
 -1      4049 1.32355E-01
 -1      4050 1.10640E-01
 -1      4051 1.11385E-01
 -1      4052 2.77728E+00
 -1      4053 3.57161E+00
 -1      4054 2.79218E+00
 -1      4055 6.51620E-02
 -1      4056 7.15958E-02
 -1      4057 6.78888E-02
 -1      4058 6.42184E-02
 -1      4059 1.33230E-01
 -1      4060 3.13761E+00
 -1      4061 8.93289E-02
 -1      4062 8.63473E-02
 -1      4063 8.43121E-02
 -1      4064 7.93075E-02
 -1      4065 7.36871E-02
 -1      4066 7.82029E-02
 -1      4067 7.21992E-02
 -1      4068 7.05474E-02
 -1      4069 7.05055E-02
 -1      4070 6.50587E-02
 -1      4071 6.77492E-02
 -1      4072 6.26956E-02
 -1      4073 5.95864E-02
 -1      4074 6.36925E-02
 -1      4075 5.78435E-02
 -1      4076 5.70439E-02
 -1      4077 5.95864E-02
 -1      4078 5.81616E-02
 -1      4079 5.97364E-02
 -1      4080 5.89611E-02
 -1      4081 6.03633E-02
 -1      4082 6.16463E-02
 -1      4083 6.07057E-02
 -1      4084 6.69334E-02
 -1      4085 7.45981E-02
 -1      4086 6.66197E-02
 -1      4087 8.28798E-02
 -1      4088 9.45913E-02
 -1      4089 8.01884E-02
 -1      4090 1.05868E-01
 -1      4091 1.22514E-01
 -1      4092 9.97464E-02
 -1      4093 1.41997E-01
 -1      4094 1.64971E-01
 -1      4095 1.30506E-01
 -1      4096 2.00727E-01
 -1      4097 2.31623E-01
 -1      4098 1.85745E-01
 -1      4099 2.84526E-01
 -1      4100 3.24898E-01
 -1      4101 2.74404E-01
 -1      4102 4.01158E-01
 -1      4103 4.53267E-01
 -1      4104 4.03566E-01
 -1      4105 5.59563E-01
 -1      4106 6.66391E-01
 -1      4107 5.86123E-01
 -1      4108 8.07458E-01
 -1      4109 9.80838E-01
 -1      4110 8.33486E-01
 -1      4111 1.15895E+00
 -1      4112 1.41258E+00
 -1      4113 1.15266E+00
 -1      4114 1.61254E+00
 -1      4115 1.92342E+00
 -1      4116 1.53073E+00
 -1      4117 5.56043E-02
 -1      4118 6.28988E-02
 -1      4119 5.56043E-02
 -1      4120 1.65327E-01
 -1      4121 1.47499E-01
 -1      4122 7.91419E-02
 -1      4123 9.00754E-02
 -1      4124 9.66518E-02
 -1      4125 7.84052E-02
 -1      4126 8.40424E-02
 -1      4127 1.02476E-01
 -1      4128 1.10533E-01
 -1      4129 1.01385E-01
 -1      4130 9.13601E-02
 -1      4131 2.91799E+00
 -1      4132 6.08883E-02
 -1      4133 5.90152E-02
 -1      4134 1.05293E-01
 -1      4135 1.22583E-01
 -1      4136 1.20309E-01
 -1      4137 1.23334E-01
 -1      4138 1.08305E-01
 -1      4139 1.50978E-01
 -1      4140 4.13869E-01
 -1      4141 3.73170E-01
 -1      4142 2.97814E-01
 -1      4143 2.64514E-01
 -1      4144 4.04470E-01
 -1      4145 8.35706E-01
 -1      4146 7.39858E-01
 -1      4147 1.11255E+00
 -1      4148 1.01382E+00
 -1      4149 1.15266E+00
 -1      4150 1.51972E+00
 -1      4151 1.38181E+00
 -1      4152 1.60004E+00
 -1      4153 2.12104E+00
 -1      4154 1.90037E+00
 -1      4155 2.24995E+00
 -1      4156 1.77466E+00
 -1      4157 1.73153E+00
 -1      4158 1.97243E+00
 -1      4159 5.98792E-01
 -1      4160 5.20165E-01
 -1      4161 5.86123E-01
 -1      4162 8.33486E-01
 -1      4163 2.92454E+00
 -1      4164 2.20509E-01
 -1      4165 1.98308E-01
 -1      4166 2.85109E-01
 -1      4167 7.08934E-02
 -1      4168 6.61754E-02
 -1      4169 6.66197E-02
 -1      4170 1.85764E+00
 -1      4171 2.37337E+00
 -1      4172 2.99093E+00
 -1      4173 2.18065E+00
 -1      4174 2.77728E+00
 -1      4175 9.08659E-02
 -1      4176 8.09072E-02
 -1      4177 8.19205E-02
 -1      4178 1.09373E-01
 -1      4179 3.14740E+00
 -1      4180 8.16623E-02
 -1      4181 7.21253E-02
 -1      4182 5.97088E-02
 -1      4183 8.24068E-02
 -1      4184 1.06567E-01
 -1      4185 1.21603E-01
 -1      4186 1.03163E-01
 -1      4187 1.16711E-01
 -1      4188 8.83733E-02
 -1      4189 8.87930E-02
 -1      4190 7.03196E-02
 -1      4191 6.17096E-02
 -1      4192 2.40267E+00
 -1      4193 7.10956E-02
 -1      4194 7.74892E-02
 -1      4195 2.08124E-01
 -1      4196 7.85524E-02
 -1      4197 8.67744E-02
 -1      4198 7.51864E-02
 -1      4199 2.24108E+00
 -1      4200 9.17446E-02
 -1      4201 8.85891E-02
 -1      4202 8.67744E-02
 -1      4203 9.31535E-02
 -1      4204 9.45847E-02
 -1      4205 7.78807E-02
 -1      4206 2.63060E+00
 -1      4207 2.24108E+00
 -1      4208 6.36835E-02
 -1      4209 6.85430E-02
 -1      4210 6.68903E-02
 -1      4211 6.07057E-02
 -1      4212 5.83883E-02
 -1      4213 5.54487E-02
 -1      4214 7.05146E-02
 -1      4215 7.48455E-02
 -1      4216 7.76856E-02
 -1      4217 7.38632E-02
 -1      4218 7.27587E-02
 -1      4219 6.94428E-02
 -1      4220 6.77492E-02
 -1      4221 6.51967E-02
 -1      4222 6.28336E-02
 -1      4223 5.91168E-02
 -1      4224 6.02344E-02
 -1      4225 6.00787E-02
 -1      4226 6.07057E-02
 -1      4227 6.13326E-02
 -1      4228 6.66197E-02
 -1      4229 7.19067E-02
 -1      4230 8.01884E-02
 -1      4231 9.02022E-02
 -1      4232 1.01478E-01
 -1      4233 1.18918E-01
 -1      4234 1.38401E-01
 -1      4235 1.62566E-01
 -1      4236 1.98322E-01
 -1      4237 2.31303E-01
 -1      4238 2.84205E-01
 -1      4239 3.28210E-01
 -1      4240 4.04470E-01
 -1      4241 4.79827E-01
 -1      4242 5.86123E-01
 -1      4243 6.92419E-01
 -1      4244 8.33486E-01
 -1      4245 9.74552E-01
 -1      4246 1.15266E+00
 -1      4247 1.33078E+00
 -1      4248 1.53073E+00
 -1      4249 5.56043E-02
 -1      4250 6.03901E-02
 -1      4251 9.85391E-02
 -1      4252 8.21509E-02
 -1      4253 7.82215E-02
 -1      4254 6.40764E-02
 -1      4255 6.86024E-02
 -1      4256 1.79999E+00
 -1      4257 7.27587E-02
 -1      4258 8.08050E-02
 -1      4259 6.17096E-02
 -1      4260 6.30292E-02
 -1      4261 6.36835E-02
 -1      4262 6.17096E-02
 -1      4263 2.24995E+00
 -1      4264 7.89551E-02
 -1      4265 7.69199E-02
 -1      4266 7.91312E-02
 -1      4267 8.14543E-02
 -1      4268 2.63060E+00
 -1      4269 2.63060E+00
 -1      4270 6.21793E-02
 -1      4271 6.02344E-02
 -1      4272 6.04363E-02
 -1      4273 5.77966E-02
 -1      4274 8.96863E-02
 -1      4275 9.38871E-02
 -1      4276 8.66296E-02
 -3
 9999
