    1C
    1UUSER                                                              
    1UDATE              27.october.2022                                 
    1UTIME              00:38:59                                        
    1UHOST                                                              
    1UPGM               CalculiX                                        
    1UVERSION           Version 2.17                             
    1UCOMPILETIME       Thu Jul 23 21:43:50 CEST 2020                    
    1UDIR                                                               
    1UDBN                                                               
    1UMAT    1SOLIDMATERIAL                                             
    2C                          4276                                     1
 -1         1 1.25446E+02 3.14132E+01 0.00000E+00
 -1         2 1.39255E+02 2.97896E+01 0.00000E+00
 -1         3 1.50000E+02 0.00000E+00 0.00000E+00
 -1         4 1.50000E+02 5.00000E+01 0.00000E+00
 -1         5 0.00000E+00 0.00000E+00 0.00000E+00
 -1         6 0.00000E+00 5.00000E+01 0.00000E+00
 -1         7 0.00000E+00 4.70500E+01 0.00000E+00
 -1         8 0.00000E+00 4.41000E+01 0.00000E+00
 -1         9 0.00000E+00 4.11500E+01 0.00000E+00
 -1        10 0.00000E+00 3.82000E+01 0.00000E+00
 -1        11 0.00000E+00 3.52500E+01 0.00000E+00
 -1        12 0.00000E+00 3.23500E+01 0.00000E+00
 -1        13 0.00000E+00 2.94000E+01 0.00000E+00
 -1        14 0.00000E+00 2.64500E+01 0.00000E+00
 -1        15 0.00000E+00 2.35000E+01 0.00000E+00
 -1        16 0.00000E+00 2.05500E+01 0.00000E+00
 -1        17 0.00000E+00 1.76000E+01 0.00000E+00
 -1        18 0.00000E+00 1.47000E+01 0.00000E+00
 -1        19 0.00000E+00 1.17500E+01 0.00000E+00
 -1        20 0.00000E+00 8.80000E+00 0.00000E+00
 -1        21 0.00000E+00 5.85000E+00 0.00000E+00
 -1        22 0.00000E+00 2.90000E+00 0.00000E+00
 -1        23 3.15000E+00 5.00000E+01 0.00000E+00
 -1        24 6.15000E+00 5.00000E+01 0.00000E+00
 -1        25 9.15000E+00 5.00000E+01 0.00000E+00
 -1        26 1.21500E+01 5.00000E+01 0.00000E+00
 -1        27 1.51500E+01 5.00000E+01 0.00000E+00
 -1        28 1.81500E+01 5.00000E+01 0.00000E+00
 -1        29 2.11500E+01 5.00000E+01 0.00000E+00
 -1        30 2.41500E+01 5.00000E+01 0.00000E+00
 -1        31 2.71500E+01 5.00000E+01 0.00000E+00
 -1        32 3.01500E+01 5.00000E+01 0.00000E+00
 -1        33 3.31500E+01 5.00000E+01 0.00000E+00
 -1        34 3.61500E+01 5.00000E+01 0.00000E+00
 -1        35 3.91500E+01 5.00000E+01 0.00000E+00
 -1        36 4.21500E+01 5.00000E+01 0.00000E+00
 -1        37 4.51500E+01 5.00000E+01 0.00000E+00
 -1        38 4.81500E+01 5.00000E+01 0.00000E+00
 -1        39 5.11500E+01 5.00000E+01 0.00000E+00
 -1        40 5.41500E+01 5.00000E+01 0.00000E+00
 -1        41 5.71500E+01 5.00000E+01 0.00000E+00
 -1        42 6.01500E+01 5.00000E+01 0.00000E+00
 -1        43 6.31500E+01 5.00000E+01 0.00000E+00
 -1        44 6.61500E+01 5.00000E+01 0.00000E+00
 -1        45 6.91500E+01 5.00000E+01 0.00000E+00
 -1        46 7.21500E+01 5.00000E+01 0.00000E+00
 -1        47 7.51500E+01 5.00000E+01 0.00000E+00
 -1        48 7.81500E+01 5.00000E+01 0.00000E+00
 -1        49 8.11500E+01 5.00000E+01 0.00000E+00
 -1        50 8.41500E+01 5.00000E+01 0.00000E+00
 -1        51 8.71500E+01 5.00000E+01 0.00000E+00
 -1        52 9.01500E+01 5.00000E+01 0.00000E+00
 -1        53 9.31500E+01 5.00000E+01 0.00000E+00
 -1        54 9.61500E+01 5.00000E+01 0.00000E+00
 -1        55 9.91500E+01 5.00000E+01 0.00000E+00
 -1        56 1.02150E+02 5.00000E+01 0.00000E+00
 -1        57 1.05150E+02 5.00000E+01 0.00000E+00
 -1        58 1.08150E+02 5.00000E+01 0.00000E+00
 -1        59 1.11150E+02 5.00000E+01 0.00000E+00
 -1        60 1.14150E+02 5.00000E+01 0.00000E+00
 -1        61 1.17150E+02 5.00000E+01 0.00000E+00
 -1        62 1.20150E+02 5.00000E+01 0.00000E+00
 -1        63 1.23150E+02 5.00000E+01 0.00000E+00
 -1        64 1.26150E+02 5.00000E+01 0.00000E+00
 -1        65 1.29150E+02 5.00000E+01 0.00000E+00
 -1        66 1.32150E+02 5.00000E+01 0.00000E+00
 -1        67 1.35150E+02 5.00000E+01 0.00000E+00
 -1        68 1.38150E+02 5.00000E+01 0.00000E+00
 -1        69 1.41150E+02 5.00000E+01 0.00000E+00
 -1        70 1.44150E+02 5.00000E+01 0.00000E+00
 -1        71 1.47150E+02 5.00000E+01 0.00000E+00
 -1        72 3.15000E+00 0.00000E+00 0.00000E+00
 -1        73 6.15000E+00 0.00000E+00 0.00000E+00
 -1        74 9.15000E+00 0.00000E+00 0.00000E+00
 -1        75 1.21500E+01 0.00000E+00 0.00000E+00
 -1        76 1.51500E+01 0.00000E+00 0.00000E+00
 -1        77 1.81500E+01 0.00000E+00 0.00000E+00
 -1        78 2.11500E+01 0.00000E+00 0.00000E+00
 -1        79 2.41500E+01 0.00000E+00 0.00000E+00
 -1        80 2.71500E+01 0.00000E+00 0.00000E+00
 -1        81 3.01500E+01 0.00000E+00 0.00000E+00
 -1        82 3.31500E+01 0.00000E+00 0.00000E+00
 -1        83 3.61500E+01 0.00000E+00 0.00000E+00
 -1        84 3.91500E+01 0.00000E+00 0.00000E+00
 -1        85 4.21500E+01 0.00000E+00 0.00000E+00
 -1        86 4.51500E+01 0.00000E+00 0.00000E+00
 -1        87 4.81500E+01 0.00000E+00 0.00000E+00
 -1        88 5.11500E+01 0.00000E+00 0.00000E+00
 -1        89 5.41500E+01 0.00000E+00 0.00000E+00
 -1        90 5.71500E+01 0.00000E+00 0.00000E+00
 -1        91 6.01500E+01 0.00000E+00 0.00000E+00
 -1        92 6.31500E+01 0.00000E+00 0.00000E+00
 -1        93 6.61500E+01 0.00000E+00 0.00000E+00
 -1        94 6.91500E+01 0.00000E+00 0.00000E+00
 -1        95 7.21500E+01 0.00000E+00 0.00000E+00
 -1        96 7.51500E+01 0.00000E+00 0.00000E+00
 -1        97 7.81500E+01 0.00000E+00 0.00000E+00
 -1        98 8.11500E+01 0.00000E+00 0.00000E+00
 -1        99 8.41500E+01 0.00000E+00 0.00000E+00
 -1       100 8.71500E+01 0.00000E+00 0.00000E+00
 -1       101 9.01500E+01 0.00000E+00 0.00000E+00
 -1       102 9.31500E+01 0.00000E+00 0.00000E+00
 -1       103 9.61500E+01 0.00000E+00 0.00000E+00
 -1       104 9.91500E+01 0.00000E+00 0.00000E+00
 -1       105 1.02150E+02 0.00000E+00 0.00000E+00
 -1       106 1.05150E+02 0.00000E+00 0.00000E+00
 -1       107 1.08150E+02 0.00000E+00 0.00000E+00
 -1       108 1.11150E+02 0.00000E+00 0.00000E+00
 -1       109 1.14150E+02 0.00000E+00 0.00000E+00
 -1       110 1.17150E+02 0.00000E+00 0.00000E+00
 -1       111 1.20150E+02 0.00000E+00 0.00000E+00
 -1       112 1.23150E+02 0.00000E+00 0.00000E+00
 -1       113 1.26150E+02 0.00000E+00 0.00000E+00
 -1       114 1.29150E+02 0.00000E+00 0.00000E+00
 -1       115 1.32150E+02 0.00000E+00 0.00000E+00
 -1       116 1.35150E+02 0.00000E+00 0.00000E+00
 -1       117 1.38150E+02 0.00000E+00 0.00000E+00
 -1       118 1.41150E+02 0.00000E+00 0.00000E+00
 -1       119 1.44150E+02 0.00000E+00 0.00000E+00
 -1       120 1.47150E+02 0.00000E+00 0.00000E+00
 -1       121 1.50000E+02 3.05000E+00 0.00000E+00
 -1       122 1.50000E+02 6.10000E+00 0.00000E+00
 -1       123 1.50000E+02 9.15000E+00 0.00000E+00
 -1       124 1.50000E+02 1.21500E+01 0.00000E+00
 -1       125 1.50000E+02 1.52000E+01 0.00000E+00
 -1       126 1.50000E+02 1.82500E+01 0.00000E+00
 -1       127 1.50000E+02 2.12500E+01 0.00000E+00
 -1       128 1.50000E+02 2.42500E+01 0.00000E+00
 -1       129 1.50000E+02 2.69000E+01 0.00000E+00
 -1       130 1.50000E+02 2.97000E+01 0.00000E+00
 -1       131 1.50000E+02 3.22500E+01 0.00000E+00
 -1       132 1.50000E+02 3.48500E+01 0.00000E+00
 -1       133 1.50000E+02 3.79000E+01 0.00000E+00
 -1       134 1.50000E+02 4.09000E+01 0.00000E+00
 -1       135 1.50000E+02 4.39500E+01 0.00000E+00
 -1       136 1.50000E+02 4.70000E+01 0.00000E+00
 -1       137 1.39115E+02 2.83954E+01 0.00000E+00
 -1       138 1.38672E+02 2.69916E+01 0.00000E+00
 -1       139 1.37907E+02 2.56600E+01 0.00000E+00
 -1       140 1.36904E+02 2.45557E+01 0.00000E+00
 -1       141 1.35724E+02 2.37096E+01 0.00000E+00
 -1       142 1.34372E+02 2.31174E+01 0.00000E+00
 -1       143 1.32987E+02 2.28280E+01 0.00000E+00
 -1       144 1.31457E+02 2.28353E+01 0.00000E+00
 -1       145 1.29921E+02 2.31904E+01 0.00000E+00
 -1       146 1.28645E+02 2.37923E+01 0.00000E+00
 -1       147 1.27442E+02 2.47072E+01 0.00000E+00
 -1       148 1.26457E+02 2.58682E+01 0.00000E+00
 -1       149 1.25762E+02 2.71751E+01 0.00000E+00
 -1       150 1.25375E+02 2.85033E+01 0.00000E+00
 -1       151 1.25256E+02 2.98983E+01 0.00000E+00
 -1       152 1.25907E+02 3.27382E+01 0.00000E+00
 -1       153 1.26693E+02 3.40394E+01 0.00000E+00
 -1       154 1.27742E+02 3.51402E+01 0.00000E+00
 -1       155 1.28916E+02 3.59417E+01 0.00000E+00
 -1       156 1.30282E+02 3.65059E+01 0.00000E+00
 -1       157 1.31741E+02 3.67707E+01 0.00000E+00
 -1       158 1.33126E+02 3.67353E+01 0.00000E+00
 -1       159 1.34470E+02 3.64302E+01 0.00000E+00
 -1       160 1.35801E+02 3.58253E+01 0.00000E+00
 -1       161 1.37011E+02 3.49261E+01 0.00000E+00
 -1       162 1.37964E+02 3.38406E+01 0.00000E+00
 -1       163 1.38700E+02 3.25223E+01 0.00000E+00
 -1       164 1.39121E+02 3.11533E+01 0.00000E+00
 -1       165 2.59800E+00 4.55750E+01 0.00000E+00
 -1       166 2.59800E+00 4.26250E+01 0.00000E+00
 -1       167 2.59800E+00 3.96750E+01 0.00000E+00
 -1       168 2.59800E+00 3.67250E+01 0.00000E+00
 -1       169 2.59800E+00 3.38250E+01 0.00000E+00
 -1       170 2.59800E+00 3.08750E+01 0.00000E+00
 -1       171 2.59800E+00 2.79250E+01 0.00000E+00
 -1       172 2.59800E+00 2.49750E+01 0.00000E+00
 -1       173 2.59800E+00 2.20250E+01 0.00000E+00
 -1       174 2.59800E+00 1.90750E+01 0.00000E+00
 -1       175 2.59800E+00 1.61750E+01 0.00000E+00
 -1       176 2.59800E+00 1.32250E+01 0.00000E+00
 -1       177 2.59800E+00 1.02750E+01 0.00000E+00
 -1       178 2.59800E+00 7.32500E+00 0.00000E+00
 -1       179 2.59800E+00 4.37500E+00 0.00000E+00
 -1       180 2.87400E+00 2.18750E+00 0.00000E+00
 -1       181 4.65000E+00 4.74020E+01 0.00000E+00
 -1       182 7.65000E+00 4.74020E+01 0.00000E+00
 -1       183 1.06500E+01 4.74020E+01 0.00000E+00
 -1       184 1.36500E+01 4.74020E+01 0.00000E+00
 -1       185 1.66500E+01 4.74020E+01 0.00000E+00
 -1       186 1.96500E+01 4.74020E+01 0.00000E+00
 -1       187 2.26500E+01 4.74020E+01 0.00000E+00
 -1       188 2.56500E+01 4.74020E+01 0.00000E+00
 -1       189 2.86500E+01 4.74020E+01 0.00000E+00
 -1       190 3.16500E+01 4.74020E+01 0.00000E+00
 -1       191 3.46500E+01 4.74020E+01 0.00000E+00
 -1       192 3.76500E+01 4.74020E+01 0.00000E+00
 -1       193 4.06500E+01 4.74020E+01 0.00000E+00
 -1       194 4.36500E+01 4.74020E+01 0.00000E+00
 -1       195 4.66500E+01 4.74020E+01 0.00000E+00
 -1       196 4.96500E+01 4.74020E+01 0.00000E+00
 -1       197 5.26500E+01 4.74020E+01 0.00000E+00
 -1       198 5.56500E+01 4.74020E+01 0.00000E+00
 -1       199 5.86500E+01 4.74020E+01 0.00000E+00
 -1       200 6.16500E+01 4.74020E+01 0.00000E+00
 -1       201 6.46500E+01 4.74020E+01 0.00000E+00
 -1       202 6.76500E+01 4.74020E+01 0.00000E+00
 -1       203 7.06500E+01 4.74020E+01 0.00000E+00
 -1       204 7.36500E+01 4.74020E+01 0.00000E+00
 -1       205 7.66500E+01 4.74020E+01 0.00000E+00
 -1       206 7.96500E+01 4.74020E+01 0.00000E+00
 -1       207 8.26500E+01 4.74020E+01 0.00000E+00
 -1       208 8.56500E+01 4.74020E+01 0.00000E+00
 -1       209 8.86500E+01 4.74020E+01 0.00000E+00
 -1       210 9.16500E+01 4.74020E+01 0.00000E+00
 -1       211 9.46500E+01 4.74020E+01 0.00000E+00
 -1       212 9.76500E+01 4.74020E+01 0.00000E+00
 -1       213 1.00650E+02 4.74020E+01 0.00000E+00
 -1       214 1.03650E+02 4.74020E+01 0.00000E+00
 -1       215 1.06650E+02 4.74020E+01 0.00000E+00
 -1       216 1.09650E+02 4.74020E+01 0.00000E+00
 -1       217 1.12650E+02 4.74020E+01 0.00000E+00
 -1       218 1.15650E+02 4.74020E+01 0.00000E+00
 -1       219 1.18650E+02 4.74020E+01 0.00000E+00
 -1       220 1.21650E+02 4.74020E+01 0.00000E+00
 -1       221 1.24650E+02 4.74020E+01 0.00000E+00
 -1       222 1.27650E+02 4.74020E+01 0.00000E+00
 -1       223 1.30650E+02 4.74020E+01 0.00000E+00
 -1       224 1.33650E+02 4.74020E+01 0.00000E+00
 -1       225 1.36650E+02 4.74020E+01 0.00000E+00
 -1       226 1.39650E+02 4.74020E+01 0.00000E+00
 -1       227 1.42650E+02 4.74020E+01 0.00000E+00
 -1       228 1.45650E+02 4.74020E+01 0.00000E+00
 -1       229 5.87400E+00 2.18750E+00 0.00000E+00
 -1       230 8.87400E+00 2.18750E+00 0.00000E+00
 -1       231 1.18740E+01 2.18750E+00 0.00000E+00
 -1       232 1.48740E+01 2.18750E+00 0.00000E+00
 -1       233 1.78740E+01 2.18750E+00 0.00000E+00
 -1       234 2.08740E+01 2.18750E+00 0.00000E+00
 -1       235 2.38740E+01 2.18750E+00 0.00000E+00
 -1       236 2.68740E+01 2.18750E+00 0.00000E+00
 -1       237 2.98740E+01 2.18750E+00 0.00000E+00
 -1       238 3.28740E+01 2.18750E+00 0.00000E+00
 -1       239 3.58740E+01 2.18750E+00 0.00000E+00
 -1       240 3.88740E+01 2.18750E+00 0.00000E+00
 -1       241 4.18740E+01 2.18750E+00 0.00000E+00
 -1       242 4.48740E+01 2.18750E+00 0.00000E+00
 -1       243 4.78740E+01 2.18750E+00 0.00000E+00
 -1       244 5.08740E+01 2.18750E+00 0.00000E+00
 -1       245 5.38740E+01 2.18750E+00 0.00000E+00
 -1       246 5.68740E+01 2.18750E+00 0.00000E+00
 -1       247 5.98740E+01 2.18750E+00 0.00000E+00
 -1       248 6.28740E+01 2.18750E+00 0.00000E+00
 -1       249 6.58740E+01 2.18750E+00 0.00000E+00
 -1       250 6.88740E+01 2.18750E+00 0.00000E+00
 -1       251 7.18740E+01 2.18750E+00 0.00000E+00
 -1       252 7.48740E+01 2.18750E+00 0.00000E+00
 -1       253 7.78740E+01 2.18750E+00 0.00000E+00
 -1       254 8.08740E+01 2.18750E+00 0.00000E+00
 -1       255 8.38740E+01 2.18750E+00 0.00000E+00
 -1       256 8.68740E+01 2.18750E+00 0.00000E+00
 -1       257 8.98740E+01 2.18750E+00 0.00000E+00
 -1       258 9.28740E+01 2.18750E+00 0.00000E+00
 -1       259 9.58740E+01 2.18750E+00 0.00000E+00
 -1       260 9.88740E+01 2.18750E+00 0.00000E+00
 -1       261 1.01874E+02 2.18750E+00 0.00000E+00
 -1       262 1.04874E+02 2.18750E+00 0.00000E+00
 -1       263 1.07874E+02 2.18750E+00 0.00000E+00
 -1       264 1.10874E+02 2.18750E+00 0.00000E+00
 -1       265 1.13874E+02 2.18750E+00 0.00000E+00
 -1       266 1.16874E+02 2.18750E+00 0.00000E+00
 -1       267 1.19874E+02 2.18750E+00 0.00000E+00
 -1       268 1.22874E+02 2.18750E+00 0.00000E+00
 -1       269 1.25874E+02 2.18750E+00 0.00000E+00
 -1       270 1.28874E+02 2.18750E+00 0.00000E+00
 -1       271 1.31874E+02 2.18750E+00 0.00000E+00
 -1       272 1.34874E+02 2.18750E+00 0.00000E+00
 -1       273 1.37874E+02 2.18750E+00 0.00000E+00
 -1       274 1.40874E+02 2.18750E+00 0.00000E+00
 -1       275 1.43874E+02 2.18750E+00 0.00000E+00
 -1       276 1.46874E+02 2.18750E+00 0.00000E+00
 -1       277 1.47402E+02 4.57500E+00 0.00000E+00
 -1       278 1.47402E+02 7.62500E+00 0.00000E+00
 -1       279 1.47402E+02 1.06250E+01 0.00000E+00
 -1       280 1.47402E+02 1.36750E+01 0.00000E+00
 -1       281 1.47402E+02 1.67250E+01 0.00000E+00
 -1       282 1.47402E+02 1.97250E+01 0.00000E+00
 -1       283 1.47402E+02 2.27250E+01 0.00000E+00
 -1       284 1.47402E+02 2.53750E+01 0.00000E+00
 -1       285 1.47402E+02 2.81750E+01 0.00000E+00
 -1       286 1.47402E+02 3.07250E+01 0.00000E+00
 -1       287 1.47402E+02 3.33250E+01 0.00000E+00
 -1       288 1.47402E+02 3.63750E+01 0.00000E+00
 -1       289 1.47402E+02 3.93750E+01 0.00000E+00
 -1       290 1.47402E+02 4.24250E+01 0.00000E+00
 -1       291 1.46526E+02 4.49135E+01 0.00000E+00
 -1       292 1.40392E+02 2.89712E+01 0.00000E+00
 -1       293 1.40130E+02 2.73032E+01 0.00000E+00
 -1       294 1.39559E+02 2.55971E+01 0.00000E+00
 -1       295 1.38427E+02 2.41796E+01 0.00000E+00
 -1       296 1.37021E+02 2.31476E+01 0.00000E+00
 -1       297 1.35568E+02 2.22263E+01 0.00000E+00
 -1       298 1.33928E+02 2.17859E+01 0.00000E+00
 -1       299 1.32216E+02 2.14517E+01 0.00000E+00
 -1       300 1.30341E+02 2.15051E+01 0.00000E+00
 -1       301 1.28766E+02 2.23949E+01 0.00000E+00
 -1       302 1.27107E+02 2.30178E+01 0.00000E+00
 -1       303 1.26122E+02 2.41788E+01 0.00000E+00
 -1       304 1.25039E+02 2.59524E+01 0.00000E+00
 -1       305 1.24404E+02 2.74997E+01 0.00000E+00
 -1       306 1.24107E+02 2.90983E+01 0.00000E+00
 -1       307 1.23982E+02 3.08276E+01 0.00000E+00
 -1       308 1.24531E+02 3.24737E+01 0.00000E+00
 -1       309 1.25119E+02 3.41025E+01 0.00000E+00
 -1       310 1.26279E+02 3.54839E+01 0.00000E+00
 -1       311 1.27645E+02 3.65422E+01 0.00000E+00
 -1       312 1.29073E+02 3.74993E+01 0.00000E+00
 -1       313 1.30780E+02 3.79136E+01 0.00000E+00
 -1       314 1.32465E+02 3.79650E+01 0.00000E+00
 -1       315 1.34066E+02 3.77650E+01 0.00000E+00
 -1       316 1.35672E+02 3.73078E+01 0.00000E+00
 -1       317 1.37129E+02 3.63489E+01 0.00000E+00
 -1       318 1.38399E+02 3.51833E+01 0.00000E+00
 -1       319 1.39537E+02 3.38540E+01 0.00000E+00
 -1       320 1.40149E+02 3.22191E+01 0.00000E+00
 -1       321 1.40395E+02 3.05901E+01 0.00000E+00
 -1       322 5.19600E+00 4.11500E+01 0.00000E+00
 -1       323 5.19600E+00 4.41000E+01 0.00000E+00
 -1       324 5.19600E+00 3.52750E+01 0.00000E+00
 -1       325 5.19600E+00 3.23250E+01 0.00000E+00
 -1       326 5.19600E+00 2.93750E+01 0.00000E+00
 -1       327 5.19600E+00 2.64250E+01 0.00000E+00
 -1       328 5.19600E+00 2.34750E+01 0.00000E+00
 -1       329 5.19600E+00 2.05250E+01 0.00000E+00
 -1       330 5.19600E+00 1.76250E+01 0.00000E+00
 -1       331 5.19600E+00 1.46750E+01 0.00000E+00
 -1       332 5.19600E+00 1.17250E+01 0.00000E+00
 -1       333 5.19600E+00 8.77500E+00 0.00000E+00
 -1       334 5.19600E+00 5.82500E+00 0.00000E+00
 -1       335 5.53500E+00 4.00625E+00 0.00000E+00
 -1       336 8.53500E+00 4.00625E+00 0.00000E+00
 -1       337 1.24188E+02 2.42154E+01 0.00000E+00
 -1       338 9.15000E+00 4.48040E+01 0.00000E+00
 -1       339 1.21500E+01 4.48040E+01 0.00000E+00
 -1       340 1.51500E+01 4.48040E+01 0.00000E+00
 -1       341 1.81500E+01 4.48040E+01 0.00000E+00
 -1       342 2.11500E+01 4.48040E+01 0.00000E+00
 -1       343 2.41500E+01 4.48040E+01 0.00000E+00
 -1       344 2.71500E+01 4.48040E+01 0.00000E+00
 -1       345 3.01500E+01 4.48040E+01 0.00000E+00
 -1       346 3.31500E+01 4.48040E+01 0.00000E+00
 -1       347 3.61500E+01 4.48040E+01 0.00000E+00
 -1       348 3.91500E+01 4.48040E+01 0.00000E+00
 -1       349 4.21500E+01 4.48040E+01 0.00000E+00
 -1       350 4.51500E+01 4.48040E+01 0.00000E+00
 -1       351 4.81500E+01 4.48040E+01 0.00000E+00
 -1       352 5.11500E+01 4.48040E+01 0.00000E+00
 -1       353 5.41500E+01 4.48040E+01 0.00000E+00
 -1       354 5.71500E+01 4.48040E+01 0.00000E+00
 -1       355 6.01500E+01 4.48040E+01 0.00000E+00
 -1       356 6.31500E+01 4.48040E+01 0.00000E+00
 -1       357 6.61500E+01 4.48040E+01 0.00000E+00
 -1       358 6.91500E+01 4.48040E+01 0.00000E+00
 -1       359 7.21500E+01 4.48040E+01 0.00000E+00
 -1       360 7.51500E+01 4.48040E+01 0.00000E+00
 -1       361 7.81500E+01 4.48040E+01 0.00000E+00
 -1       362 8.11500E+01 4.48040E+01 0.00000E+00
 -1       363 8.41500E+01 4.48040E+01 0.00000E+00
 -1       364 8.71500E+01 4.48040E+01 0.00000E+00
 -1       365 9.01500E+01 4.48040E+01 0.00000E+00
 -1       366 9.31500E+01 4.48040E+01 0.00000E+00
 -1       367 9.61500E+01 4.48040E+01 0.00000E+00
 -1       368 9.91500E+01 4.48040E+01 0.00000E+00
 -1       369 1.02150E+02 4.48040E+01 0.00000E+00
 -1       370 1.05150E+02 4.48040E+01 0.00000E+00
 -1       371 1.08150E+02 4.48040E+01 0.00000E+00
 -1       372 1.11150E+02 4.48040E+01 0.00000E+00
 -1       373 1.14150E+02 4.48040E+01 0.00000E+00
 -1       374 1.17150E+02 4.48040E+01 0.00000E+00
 -1       375 1.20150E+02 4.48040E+01 0.00000E+00
 -1       376 1.23150E+02 4.48040E+01 0.00000E+00
 -1       377 1.26150E+02 4.48040E+01 0.00000E+00
 -1       378 1.29150E+02 4.48040E+01 0.00000E+00
 -1       379 1.32150E+02 4.48040E+01 0.00000E+00
 -1       380 1.35150E+02 4.48040E+01 0.00000E+00
 -1       381 1.38150E+02 4.48040E+01 0.00000E+00
 -1       382 1.41150E+02 4.48040E+01 0.00000E+00
 -1       383 1.43838E+02 4.48587E+01 0.00000E+00
 -1       384 1.15350E+01 4.00625E+00 0.00000E+00
 -1       385 1.45350E+01 4.00625E+00 0.00000E+00
 -1       386 1.75350E+01 4.00625E+00 0.00000E+00
 -1       387 2.05350E+01 4.00625E+00 0.00000E+00
 -1       388 2.35350E+01 4.00625E+00 0.00000E+00
 -1       389 2.65350E+01 4.00625E+00 0.00000E+00
 -1       390 2.95350E+01 4.00625E+00 0.00000E+00
 -1       391 3.25350E+01 4.00625E+00 0.00000E+00
 -1       392 3.55350E+01 4.00625E+00 0.00000E+00
 -1       393 3.85350E+01 4.00625E+00 0.00000E+00
 -1       394 4.15350E+01 4.00625E+00 0.00000E+00
 -1       395 4.45350E+01 4.00625E+00 0.00000E+00
 -1       396 4.75350E+01 4.00625E+00 0.00000E+00
 -1       397 5.05350E+01 4.00625E+00 0.00000E+00
 -1       398 5.35350E+01 4.00625E+00 0.00000E+00
 -1       399 5.65350E+01 4.00625E+00 0.00000E+00
 -1       400 5.95350E+01 4.00625E+00 0.00000E+00
 -1       401 6.25350E+01 4.00625E+00 0.00000E+00
 -1       402 6.55350E+01 4.00625E+00 0.00000E+00
 -1       403 6.85350E+01 4.00625E+00 0.00000E+00
 -1       404 7.15350E+01 4.00625E+00 0.00000E+00
 -1       405 7.45350E+01 4.00625E+00 0.00000E+00
 -1       406 7.75350E+01 4.00625E+00 0.00000E+00
 -1       407 8.05350E+01 4.00625E+00 0.00000E+00
 -1       408 8.35350E+01 4.00625E+00 0.00000E+00
 -1       409 8.65350E+01 4.00625E+00 0.00000E+00
 -1       410 8.95350E+01 4.00625E+00 0.00000E+00
 -1       411 9.25350E+01 4.00625E+00 0.00000E+00
 -1       412 9.55350E+01 4.00625E+00 0.00000E+00
 -1       413 9.85350E+01 4.00625E+00 0.00000E+00
 -1       414 1.01535E+02 4.00625E+00 0.00000E+00
 -1       415 1.04535E+02 4.00625E+00 0.00000E+00
 -1       416 1.07535E+02 4.00625E+00 0.00000E+00
 -1       417 1.10535E+02 4.00625E+00 0.00000E+00
 -1       418 1.13535E+02 4.00625E+00 0.00000E+00
 -1       419 1.16535E+02 4.00625E+00 0.00000E+00
 -1       420 1.19535E+02 4.00625E+00 0.00000E+00
 -1       421 1.22535E+02 4.00625E+00 0.00000E+00
 -1       422 1.25535E+02 4.00625E+00 0.00000E+00
 -1       423 1.28535E+02 4.00625E+00 0.00000E+00
 -1       424 1.31535E+02 4.00625E+00 0.00000E+00
 -1       425 1.34535E+02 4.00625E+00 0.00000E+00
 -1       426 1.37535E+02 4.00625E+00 0.00000E+00
 -1       427 1.40535E+02 4.00625E+00 0.00000E+00
 -1       428 1.43535E+02 4.00625E+00 0.00000E+00
 -1       429 1.45469E+02 4.29063E+00 0.00000E+00
 -1       430 1.44804E+02 1.21500E+01 0.00000E+00
 -1       431 1.44804E+02 9.15000E+00 0.00000E+00
 -1       432 1.45136E+02 6.72031E+00 0.00000E+00
 -1       433 1.44804E+02 1.52000E+01 0.00000E+00
 -1       434 1.44804E+02 1.82000E+01 0.00000E+00
 -1       435 1.44804E+02 2.12000E+01 0.00000E+00
 -1       436 1.44804E+02 2.38500E+01 0.00000E+00
 -1       437 1.44804E+02 2.66500E+01 0.00000E+00
 -1       438 1.44804E+02 2.92000E+01 0.00000E+00
 -1       439 1.45519E+02 3.20250E+01 0.00000E+00
 -1       440 1.45017E+02 3.48500E+01 0.00000E+00
 -1       441 1.45017E+02 3.78500E+01 0.00000E+00
 -1       442 1.45017E+02 4.09000E+01 0.00000E+00
 -1       443 1.41391E+02 2.59329E+01 0.00000E+00
 -1       444 1.41941E+02 2.97774E+01 0.00000E+00
 -1       445 1.41541E+02 2.79360E+01 0.00000E+00
 -1       446 1.40071E+02 2.40270E+01 0.00000E+00
 -1       447 1.25498E+02 2.26513E+01 0.00000E+00
 -1       448 1.22981E+02 2.80623E+01 0.00000E+00
 -1       449 1.38540E+02 2.25512E+01 0.00000E+00
 -1       450 5.19600E+00 3.82125E+01 0.00000E+00
 -1       451 1.35171E+02 2.04305E+01 0.00000E+00
 -1       452 1.33459E+02 2.00963E+01 0.00000E+00
 -1       453 1.31234E+02 1.99315E+01 0.00000E+00
 -1       454 1.28874E+02 2.07485E+01 0.00000E+00
 -1       455 1.27216E+02 2.13715E+01 0.00000E+00
 -1       456 1.23445E+02 2.62024E+01 0.00000E+00
 -1       457 1.22501E+02 2.98511E+01 0.00000E+00
 -1       458 1.22789E+02 3.21404E+01 0.00000E+00
 -1       459 1.23376E+02 3.37693E+01 0.00000E+00
 -1       460 1.24514E+02 3.57885E+01 0.00000E+00
 -1       461 1.26168E+02 3.70377E+01 0.00000E+00
 -1       462 1.27637E+02 3.80973E+01 0.00000E+00
 -1       463 1.29621E+02 3.89661E+01 0.00000E+00
 -1       464 1.31573E+02 3.95699E+01 0.00000E+00
 -1       465 1.33436E+02 3.92344E+01 0.00000E+00
 -1       466 1.35247E+02 3.88636E+01 0.00000E+00
 -1       467 1.37343E+02 3.82612E+01 0.00000E+00
 -1       468 1.38613E+02 3.70955E+01 0.00000E+00
 -1       469 1.40016E+02 3.54163E+01 0.00000E+00
 -1       470 1.41292E+02 3.35794E+01 0.00000E+00
 -1       471 1.41637E+02 3.16102E+01 0.00000E+00
 -1       472 1.37079E+02 2.14509E+01 0.00000E+00
 -1       473 1.44427E+02 4.28794E+01 0.00000E+00
 -1       474 1.29768E+02 1.91749E+01 0.00000E+00
 -1       475 1.00350E+01 6.60425E+00 0.00000E+00
 -1       476 7.79400E+00 3.08500E+01 0.00000E+00
 -1       477 7.79400E+00 3.38000E+01 0.00000E+00
 -1       478 7.79400E+00 2.49500E+01 0.00000E+00
 -1       479 7.79400E+00 2.20000E+01 0.00000E+00
 -1       480 7.79400E+00 1.91000E+01 0.00000E+00
 -1       481 7.79400E+00 1.61500E+01 0.00000E+00
 -1       482 7.79400E+00 1.32000E+01 0.00000E+00
 -1       483 7.79400E+00 1.02500E+01 0.00000E+00
 -1       484 1.06500E+01 4.22060E+01 0.00000E+00
 -1       485 1.30350E+01 6.60425E+00 0.00000E+00
 -1       486 7.92300E+00 4.16780E+01 0.00000E+00
 -1       487 1.43481E+02 3.09745E+01 0.00000E+00
 -1       488 1.36500E+01 4.22060E+01 0.00000E+00
 -1       489 1.66500E+01 4.22060E+01 0.00000E+00
 -1       490 1.96500E+01 4.22060E+01 0.00000E+00
 -1       491 2.26500E+01 4.22060E+01 0.00000E+00
 -1       492 2.56500E+01 4.22060E+01 0.00000E+00
 -1       493 2.86500E+01 4.22060E+01 0.00000E+00
 -1       494 3.16500E+01 4.22060E+01 0.00000E+00
 -1       495 3.46500E+01 4.22060E+01 0.00000E+00
 -1       496 3.76500E+01 4.22060E+01 0.00000E+00
 -1       497 4.06500E+01 4.22060E+01 0.00000E+00
 -1       498 4.36500E+01 4.22060E+01 0.00000E+00
 -1       499 4.66500E+01 4.22060E+01 0.00000E+00
 -1       500 4.96500E+01 4.22060E+01 0.00000E+00
 -1       501 5.26500E+01 4.22060E+01 0.00000E+00
 -1       502 5.56500E+01 4.22060E+01 0.00000E+00
 -1       503 5.86500E+01 4.22060E+01 0.00000E+00
 -1       504 6.16500E+01 4.22060E+01 0.00000E+00
 -1       505 6.46500E+01 4.22060E+01 0.00000E+00
 -1       506 6.76500E+01 4.22060E+01 0.00000E+00
 -1       507 7.06500E+01 4.22060E+01 0.00000E+00
 -1       508 7.36500E+01 4.22060E+01 0.00000E+00
 -1       509 7.66500E+01 4.22060E+01 0.00000E+00
 -1       510 7.96500E+01 4.22060E+01 0.00000E+00
 -1       511 8.26500E+01 4.22060E+01 0.00000E+00
 -1       512 8.56500E+01 4.22060E+01 0.00000E+00
 -1       513 8.86500E+01 4.22060E+01 0.00000E+00
 -1       514 9.16500E+01 4.22060E+01 0.00000E+00
 -1       515 9.46500E+01 4.22060E+01 0.00000E+00
 -1       516 9.76500E+01 4.22060E+01 0.00000E+00
 -1       517 1.00650E+02 4.22060E+01 0.00000E+00
 -1       518 1.03650E+02 4.22060E+01 0.00000E+00
 -1       519 1.06650E+02 4.22060E+01 0.00000E+00
 -1       520 1.09650E+02 4.22060E+01 0.00000E+00
 -1       521 1.12650E+02 4.22060E+01 0.00000E+00
 -1       522 1.15650E+02 4.22060E+01 0.00000E+00
 -1       523 1.18650E+02 4.22060E+01 0.00000E+00
 -1       524 1.21650E+02 4.22060E+01 0.00000E+00
 -1       525 1.24650E+02 4.22060E+01 0.00000E+00
 -1       526 1.27650E+02 4.22060E+01 0.00000E+00
 -1       527 1.30650E+02 4.22060E+01 0.00000E+00
 -1       528 1.33650E+02 4.22060E+01 0.00000E+00
 -1       529 1.36650E+02 4.22060E+01 0.00000E+00
 -1       530 1.39650E+02 4.22060E+01 0.00000E+00
 -1       531 1.90350E+01 6.60425E+00 0.00000E+00
 -1       532 2.20350E+01 6.60425E+00 0.00000E+00
 -1       533 2.50350E+01 6.60425E+00 0.00000E+00
 -1       534 2.80350E+01 6.60425E+00 0.00000E+00
 -1       535 3.10350E+01 6.60425E+00 0.00000E+00
 -1       536 3.40350E+01 6.60425E+00 0.00000E+00
 -1       537 3.70350E+01 6.60425E+00 0.00000E+00
 -1       538 4.00350E+01 6.60425E+00 0.00000E+00
 -1       539 4.30350E+01 6.60425E+00 0.00000E+00
 -1       540 4.60350E+01 6.60425E+00 0.00000E+00
 -1       541 4.90350E+01 6.60425E+00 0.00000E+00
 -1       542 5.20350E+01 6.60425E+00 0.00000E+00
 -1       543 5.50350E+01 6.60425E+00 0.00000E+00
 -1       544 5.80350E+01 6.60425E+00 0.00000E+00
 -1       545 6.10350E+01 6.60425E+00 0.00000E+00
 -1       546 6.40350E+01 6.60425E+00 0.00000E+00
 -1       547 6.70350E+01 6.60425E+00 0.00000E+00
 -1       548 7.00350E+01 6.60425E+00 0.00000E+00
 -1       549 7.30350E+01 6.60425E+00 0.00000E+00
 -1       550 7.60350E+01 6.60425E+00 0.00000E+00
 -1       551 7.90350E+01 6.60425E+00 0.00000E+00
 -1       552 8.20350E+01 6.60425E+00 0.00000E+00
 -1       553 8.50350E+01 6.60425E+00 0.00000E+00
 -1       554 8.80350E+01 6.60425E+00 0.00000E+00
 -1       555 9.10350E+01 6.60425E+00 0.00000E+00
 -1       556 9.40350E+01 6.60425E+00 0.00000E+00
 -1       557 9.70350E+01 6.60425E+00 0.00000E+00
 -1       558 1.00035E+02 6.60425E+00 0.00000E+00
 -1       559 1.03035E+02 6.60425E+00 0.00000E+00
 -1       560 1.06035E+02 6.60425E+00 0.00000E+00
 -1       561 1.09035E+02 6.60425E+00 0.00000E+00
 -1       562 1.12035E+02 6.60425E+00 0.00000E+00
 -1       563 1.15035E+02 6.60425E+00 0.00000E+00
 -1       564 1.18035E+02 6.60425E+00 0.00000E+00
 -1       565 1.21035E+02 6.60425E+00 0.00000E+00
 -1       566 1.24035E+02 6.60425E+00 0.00000E+00
 -1       567 1.27035E+02 6.60425E+00 0.00000E+00
 -1       568 1.30035E+02 6.60425E+00 0.00000E+00
 -1       569 1.33035E+02 6.60425E+00 0.00000E+00
 -1       570 1.36035E+02 6.60425E+00 0.00000E+00
 -1       571 1.39035E+02 6.60425E+00 0.00000E+00
 -1       572 1.42035E+02 6.60425E+00 0.00000E+00
 -1       573 1.42206E+02 1.67000E+01 0.00000E+00
 -1       574 1.42206E+02 1.97000E+01 0.00000E+00
 -1       575 1.42206E+02 1.06500E+01 0.00000E+00
 -1       576 1.42206E+02 1.36750E+01 0.00000E+00
 -1       577 1.42419E+02 3.93750E+01 0.00000E+00
 -1       578 1.42206E+02 2.23500E+01 0.00000E+00
 -1       579 1.42921E+02 2.52500E+01 0.00000E+00
 -1       580 1.43579E+02 3.31370E+01 0.00000E+00
 -1       581 1.42003E+02 2.40986E+01 0.00000E+00
 -1       582 1.42999E+02 3.62560E+01 0.00000E+00
 -1       583 1.60350E+01 6.60425E+00 0.00000E+00
 -1       584 1.22210E+02 2.46080E+01 0.00000E+00
 -1       585 1.25382E+02 2.07034E+01 0.00000E+00
 -1       586 1.36815E+02 4.03718E+01 0.00000E+00
 -1       587 1.20943E+02 3.12094E+01 0.00000E+00
 -1       588 1.36894E+02 1.95022E+01 0.00000E+00
 -1       589 1.43093E+02 2.68130E+01 0.00000E+00
 -1       590 1.43287E+02 2.88937E+01 0.00000E+00
 -1       591 1.32794E+02 4.10076E+01 0.00000E+00
 -1       592 7.79400E+00 2.79000E+01 0.00000E+00
 -1       593 1.34627E+02 1.86623E+01 0.00000E+00
 -1       594 1.24308E+02 3.77819E+01 0.00000E+00
 -1       595 1.27501E+02 1.96113E+01 0.00000E+00
 -1       596 1.34804E+02 4.06897E+01 0.00000E+00
 -1       597 1.32473E+02 1.83034E+01 0.00000E+00
 -1       598 1.38740E+02 2.07647E+01 0.00000E+00
 -1       599 1.21706E+02 3.34515E+01 0.00000E+00
 -1       600 1.22597E+02 3.55386E+01 0.00000E+00
 -1       601 1.26095E+02 3.86866E+01 0.00000E+00
 -1       602 1.28008E+02 3.99492E+01 0.00000E+00
 -1       603 1.29960E+02 4.05530E+01 0.00000E+00
 -1       604 1.40322E+02 2.22353E+01 0.00000E+00
 -1       605 1.21874E+02 2.67987E+01 0.00000E+00
 -1       606 1.39251E+02 3.90652E+01 0.00000E+00
 -1       607 1.40654E+02 3.73859E+01 0.00000E+00
 -1       608 1.21394E+02 2.85875E+01 0.00000E+00
 -1       609 7.61550E+00 6.21462E+00 0.00000E+00
 -1       610 1.23593E+02 2.23859E+01 0.00000E+00
 -1       611 7.79400E+00 3.67375E+01 0.00000E+00
 -1       612 1.31007E+02 1.75469E+01 0.00000E+00
 -1       613 1.42039E+02 4.25427E+01 0.00000E+00
 -1       614 1.22390E+02 3.75319E+01 0.00000E+00
 -1       615 1.42200E+02 3.55722E+01 0.00000E+00
 -1       616 1.03920E+01 2.05500E+01 0.00000E+00
 -1       617 1.03920E+01 2.35000E+01 0.00000E+00
 -1       618 1.03920E+01 1.46750E+01 0.00000E+00
 -1       619 1.03920E+01 1.17250E+01 0.00000E+00
 -1       620 1.15350E+01 9.20225E+00 0.00000E+00
 -1       621 1.21500E+01 3.96080E+01 0.00000E+00
 -1       622 1.51500E+01 3.96080E+01 0.00000E+00
 -1       623 1.81500E+01 3.96080E+01 0.00000E+00
 -1       624 2.11500E+01 3.96080E+01 0.00000E+00
 -1       625 2.41500E+01 3.96080E+01 0.00000E+00
 -1       626 2.71500E+01 3.96080E+01 0.00000E+00
 -1       627 3.01500E+01 3.96080E+01 0.00000E+00
 -1       628 3.31500E+01 3.96080E+01 0.00000E+00
 -1       629 3.61500E+01 3.96080E+01 0.00000E+00
 -1       630 3.91500E+01 3.96080E+01 0.00000E+00
 -1       631 4.21500E+01 3.96080E+01 0.00000E+00
 -1       632 4.51500E+01 3.96080E+01 0.00000E+00
 -1       633 4.81500E+01 3.96080E+01 0.00000E+00
 -1       634 5.11500E+01 3.96080E+01 0.00000E+00
 -1       635 5.41500E+01 3.96080E+01 0.00000E+00
 -1       636 5.71500E+01 3.96080E+01 0.00000E+00
 -1       637 6.01500E+01 3.96080E+01 0.00000E+00
 -1       638 6.31500E+01 3.96080E+01 0.00000E+00
 -1       639 6.61500E+01 3.96080E+01 0.00000E+00
 -1       640 6.91500E+01 3.96080E+01 0.00000E+00
 -1       641 7.21500E+01 3.96080E+01 0.00000E+00
 -1       642 7.51500E+01 3.96080E+01 0.00000E+00
 -1       643 7.81500E+01 3.96080E+01 0.00000E+00
 -1       644 8.11500E+01 3.96080E+01 0.00000E+00
 -1       645 8.41500E+01 3.96080E+01 0.00000E+00
 -1       646 8.71500E+01 3.96080E+01 0.00000E+00
 -1       647 9.01500E+01 3.96080E+01 0.00000E+00
 -1       648 9.31500E+01 3.96080E+01 0.00000E+00
 -1       649 9.61500E+01 3.96080E+01 0.00000E+00
 -1       650 9.91500E+01 3.96080E+01 0.00000E+00
 -1       651 1.02150E+02 3.96080E+01 0.00000E+00
 -1       652 1.05150E+02 3.96080E+01 0.00000E+00
 -1       653 1.08150E+02 3.96080E+01 0.00000E+00
 -1       654 1.11150E+02 3.96080E+01 0.00000E+00
 -1       655 1.14150E+02 3.96080E+01 0.00000E+00
 -1       656 1.17150E+02 3.96080E+01 0.00000E+00
 -1       657 1.20150E+02 3.96080E+01 0.00000E+00
 -1       658 2.35350E+01 9.20225E+00 0.00000E+00
 -1       659 1.20139E+02 2.72918E+01 0.00000E+00
 -1       660 2.05350E+01 9.20225E+00 0.00000E+00
 -1       661 2.95350E+01 9.20225E+00 0.00000E+00
 -1       662 3.25350E+01 9.20225E+00 0.00000E+00
 -1       663 3.55350E+01 9.20225E+00 0.00000E+00
 -1       664 3.85350E+01 9.20225E+00 0.00000E+00
 -1       665 4.15350E+01 9.20225E+00 0.00000E+00
 -1       666 4.45350E+01 9.20225E+00 0.00000E+00
 -1       667 4.75350E+01 9.20225E+00 0.00000E+00
 -1       668 5.05350E+01 9.20225E+00 0.00000E+00
 -1       669 5.35350E+01 9.20225E+00 0.00000E+00
 -1       670 5.65350E+01 9.20225E+00 0.00000E+00
 -1       671 5.95350E+01 9.20225E+00 0.00000E+00
 -1       672 6.25350E+01 9.20225E+00 0.00000E+00
 -1       673 6.55350E+01 9.20225E+00 0.00000E+00
 -1       674 6.85350E+01 9.20225E+00 0.00000E+00
 -1       675 7.15350E+01 9.20225E+00 0.00000E+00
 -1       676 7.45350E+01 9.20225E+00 0.00000E+00
 -1       677 7.75350E+01 9.20225E+00 0.00000E+00
 -1       678 8.05350E+01 9.20225E+00 0.00000E+00
 -1       679 8.35350E+01 9.20225E+00 0.00000E+00
 -1       680 8.65350E+01 9.20225E+00 0.00000E+00
 -1       681 8.95350E+01 9.20225E+00 0.00000E+00
 -1       682 9.25350E+01 9.20225E+00 0.00000E+00
 -1       683 9.55350E+01 9.20225E+00 0.00000E+00
 -1       684 9.85350E+01 9.20225E+00 0.00000E+00
 -1       685 1.01535E+02 9.20225E+00 0.00000E+00
 -1       686 1.04535E+02 9.20225E+00 0.00000E+00
 -1       687 1.07535E+02 9.20225E+00 0.00000E+00
 -1       688 1.10535E+02 9.20225E+00 0.00000E+00
 -1       689 1.13535E+02 9.20225E+00 0.00000E+00
 -1       690 1.16535E+02 9.20225E+00 0.00000E+00
 -1       691 1.19535E+02 9.20225E+00 0.00000E+00
 -1       692 1.22535E+02 9.20225E+00 0.00000E+00
 -1       693 1.25535E+02 9.20225E+00 0.00000E+00
 -1       694 1.28535E+02 9.20225E+00 0.00000E+00
 -1       695 1.31535E+02 9.20225E+00 0.00000E+00
 -1       696 1.34535E+02 9.20225E+00 0.00000E+00
 -1       697 1.37535E+02 9.20225E+00 0.00000E+00
 -1       698 1.39870E+02 9.92612E+00 0.00000E+00
 -1       699 1.45350E+01 9.20225E+00 0.00000E+00
 -1       700 1.39608E+02 1.82000E+01 0.00000E+00
 -1       701 1.19313E+02 2.95795E+01 0.00000E+00
 -1       702 1.25373E+02 4.04463E+01 0.00000E+00
 -1       703 1.23585E+02 3.95416E+01 0.00000E+00
 -1       704 1.20475E+02 2.51011E+01 0.00000E+00
 -1       705 1.75350E+01 9.20225E+00 0.00000E+00
 -1       706 1.33818E+02 1.68737E+01 0.00000E+00
 -1       707 2.65350E+01 9.20225E+00 0.00000E+00
 -1       708 1.22968E+02 1.99288E+01 0.00000E+00
 -1       709 1.21018E+02 2.23253E+01 0.00000E+00
 -1       710 1.03920E+01 1.76125E+01 0.00000E+00
 -1       711 1.20420E+02 3.52344E+01 0.00000E+00
 -1       712 1.25425E+02 1.81860E+01 0.00000E+00
 -1       713 1.03920E+01 3.23250E+01 0.00000E+00
 -1       714 1.28326E+02 1.77912E+01 0.00000E+00
 -1       715 1.19657E+02 3.29923E+01 0.00000E+00
 -1       716 1.36357E+02 1.74740E+01 0.00000E+00
 -1       717 1.03920E+01 3.52625E+01 0.00000E+00
 -1       718 1.03920E+01 2.64500E+01 0.00000E+00
 -1       719 1.40927E+02 1.99986E+01 0.00000E+00
 -1       720 1.32352E+02 1.61172E+01 0.00000E+00
 -1       721 1.18027E+02 3.13624E+01 0.00000E+00
 -1       722 1.38203E+02 1.87364E+01 0.00000E+00
 -1       723 1.39870E+02 1.29511E+01 0.00000E+00
 -1       724 1.05210E+01 3.87342E+01 0.00000E+00
 -1       725 1.39739E+02 1.55756E+01 0.00000E+00
 -1       726 1.03920E+01 2.93875E+01 0.00000E+00
 -1       727 1.20213E+02 3.72278E+01 0.00000E+00
 -1       728 1.29900E+01 1.32000E+01 0.00000E+00
 -1       729 1.18113E+02 2.78530E+01 0.00000E+00
 -1       730 1.66500E+01 3.70100E+01 0.00000E+00
 -1       731 1.96500E+01 3.70100E+01 0.00000E+00
 -1       732 2.26500E+01 3.70100E+01 0.00000E+00
 -1       733 2.56500E+01 3.70100E+01 0.00000E+00
 -1       734 2.86500E+01 3.70100E+01 0.00000E+00
 -1       735 3.16500E+01 3.70100E+01 0.00000E+00
 -1       736 3.46500E+01 3.70100E+01 0.00000E+00
 -1       737 3.76500E+01 3.70100E+01 0.00000E+00
 -1       738 4.06500E+01 3.70100E+01 0.00000E+00
 -1       739 4.36500E+01 3.70100E+01 0.00000E+00
 -1       740 4.66500E+01 3.70100E+01 0.00000E+00
 -1       741 4.96500E+01 3.70100E+01 0.00000E+00
 -1       742 5.26500E+01 3.70100E+01 0.00000E+00
 -1       743 5.56500E+01 3.70100E+01 0.00000E+00
 -1       744 5.86500E+01 3.70100E+01 0.00000E+00
 -1       745 6.16500E+01 3.70100E+01 0.00000E+00
 -1       746 6.46500E+01 3.70100E+01 0.00000E+00
 -1       747 6.76500E+01 3.70100E+01 0.00000E+00
 -1       748 7.06500E+01 3.70100E+01 0.00000E+00
 -1       749 7.36500E+01 3.70100E+01 0.00000E+00
 -1       750 7.66500E+01 3.70100E+01 0.00000E+00
 -1       751 7.96500E+01 3.70100E+01 0.00000E+00
 -1       752 8.26500E+01 3.70100E+01 0.00000E+00
 -1       753 8.56500E+01 3.70100E+01 0.00000E+00
 -1       754 8.86500E+01 3.70100E+01 0.00000E+00
 -1       755 9.16500E+01 3.70100E+01 0.00000E+00
 -1       756 9.46500E+01 3.70100E+01 0.00000E+00
 -1       757 9.76500E+01 3.70100E+01 0.00000E+00
 -1       758 1.00650E+02 3.70100E+01 0.00000E+00
 -1       759 1.03650E+02 3.70100E+01 0.00000E+00
 -1       760 1.06650E+02 3.70100E+01 0.00000E+00
 -1       761 1.09650E+02 3.70100E+01 0.00000E+00
 -1       762 1.12650E+02 3.70100E+01 0.00000E+00
 -1       763 1.15650E+02 3.70100E+01 0.00000E+00
 -1       764 3.40350E+01 1.18003E+01 0.00000E+00
 -1       765 3.10350E+01 1.18003E+01 0.00000E+00
 -1       766 4.00350E+01 1.18003E+01 0.00000E+00
 -1       767 4.30350E+01 1.18003E+01 0.00000E+00
 -1       768 4.60350E+01 1.18003E+01 0.00000E+00
 -1       769 4.90350E+01 1.18003E+01 0.00000E+00
 -1       770 5.20350E+01 1.18003E+01 0.00000E+00
 -1       771 5.50350E+01 1.18003E+01 0.00000E+00
 -1       772 5.80350E+01 1.18003E+01 0.00000E+00
 -1       773 6.10350E+01 1.18003E+01 0.00000E+00
 -1       774 6.40350E+01 1.18003E+01 0.00000E+00
 -1       775 6.70350E+01 1.18003E+01 0.00000E+00
 -1       776 7.00350E+01 1.18003E+01 0.00000E+00
 -1       777 7.30350E+01 1.18003E+01 0.00000E+00
 -1       778 7.60350E+01 1.18003E+01 0.00000E+00
 -1       779 7.90350E+01 1.18003E+01 0.00000E+00
 -1       780 8.20350E+01 1.18003E+01 0.00000E+00
 -1       781 8.50350E+01 1.18003E+01 0.00000E+00
 -1       782 8.80350E+01 1.18003E+01 0.00000E+00
 -1       783 9.10350E+01 1.18003E+01 0.00000E+00
 -1       784 9.40350E+01 1.18003E+01 0.00000E+00
 -1       785 9.70350E+01 1.18003E+01 0.00000E+00
 -1       786 1.00035E+02 1.18003E+01 0.00000E+00
 -1       787 1.03035E+02 1.18003E+01 0.00000E+00
 -1       788 1.06035E+02 1.18003E+01 0.00000E+00
 -1       789 1.09035E+02 1.18003E+01 0.00000E+00
 -1       790 1.12035E+02 1.18003E+01 0.00000E+00
 -1       791 1.15035E+02 1.18003E+01 0.00000E+00
 -1       792 1.18035E+02 1.18003E+01 0.00000E+00
 -1       793 1.21035E+02 1.18003E+01 0.00000E+00
 -1       794 1.24035E+02 1.18003E+01 0.00000E+00
 -1       795 1.27035E+02 1.18003E+01 0.00000E+00
 -1       796 1.30035E+02 1.18003E+01 0.00000E+00
 -1       797 1.33035E+02 1.18003E+01 0.00000E+00
 -1       798 1.36035E+02 1.18003E+01 0.00000E+00
 -1       799 1.37953E+02 1.23757E+01 0.00000E+00
 -1       800 1.36500E+01 3.70100E+01 0.00000E+00
 -1       801 1.18449E+02 2.56623E+01 0.00000E+00
 -1       802 1.20273E+02 1.97273E+01 0.00000E+00
 -1       803 3.70350E+01 1.18003E+01 0.00000E+00
 -1       804 1.20210E+01 3.61362E+01 0.00000E+00
 -1       805 1.29480E+02 1.56273E+01 0.00000E+00
 -1       806 2.20350E+01 1.18003E+01 0.00000E+00
 -1       807 1.22914E+02 1.72484E+01 0.00000E+00
 -1       808 1.35521E+02 1.53417E+01 0.00000E+00
 -1       809 1.37625E+01 1.12011E+01 0.00000E+00
 -1       810 1.29900E+01 2.20250E+01 0.00000E+00
 -1       811 1.17939E+02 3.48273E+01 0.00000E+00
 -1       812 1.18992E+02 2.28865E+01 0.00000E+00
 -1       813 1.26554E+02 1.56250E+01 0.00000E+00
 -1       814 1.29900E+01 2.49750E+01 0.00000E+00
 -1       815 1.34054E+02 1.45852E+01 0.00000E+00
 -1       816 1.16309E+02 3.31974E+01 0.00000E+00
 -1       817 1.38532E+02 1.62745E+01 0.00000E+00
 -1       818 1.67625E+01 1.12011E+01 0.00000E+00
 -1       819 2.80350E+01 1.18003E+01 0.00000E+00
 -1       820 1.16827E+02 2.96359E+01 0.00000E+00
 -1       821 1.29900E+01 1.61375E+01 0.00000E+00
 -1       822 1.93988E+01 1.15007E+01 0.00000E+00
 -1       823 2.50350E+01 1.18003E+01 0.00000E+00
 -1       824 1.29900E+01 1.90812E+01 0.00000E+00
 -1       825 1.20210E+01 3.31987E+01 0.00000E+00
 -1       826 1.20210E+01 3.02612E+01 0.00000E+00
 -1       827 2.11500E+01 3.44120E+01 0.00000E+00
 -1       828 2.41500E+01 3.44120E+01 0.00000E+00
 -1       829 2.71500E+01 3.44120E+01 0.00000E+00
 -1       830 3.01500E+01 3.44120E+01 0.00000E+00
 -1       831 3.31500E+01 3.44120E+01 0.00000E+00
 -1       832 3.61500E+01 3.44120E+01 0.00000E+00
 -1       833 3.91500E+01 3.44120E+01 0.00000E+00
 -1       834 4.21500E+01 3.44120E+01 0.00000E+00
 -1       835 4.51500E+01 3.44120E+01 0.00000E+00
 -1       836 4.81500E+01 3.44120E+01 0.00000E+00
 -1       837 5.11500E+01 3.44120E+01 0.00000E+00
 -1       838 5.41500E+01 3.44120E+01 0.00000E+00
 -1       839 5.71500E+01 3.44120E+01 0.00000E+00
 -1       840 6.01500E+01 3.44120E+01 0.00000E+00
 -1       841 6.31500E+01 3.44120E+01 0.00000E+00
 -1       842 6.61500E+01 3.44120E+01 0.00000E+00
 -1       843 6.91500E+01 3.44120E+01 0.00000E+00
 -1       844 7.21500E+01 3.44120E+01 0.00000E+00
 -1       845 7.51500E+01 3.44120E+01 0.00000E+00
 -1       846 7.81500E+01 3.44120E+01 0.00000E+00
 -1       847 8.11500E+01 3.44120E+01 0.00000E+00
 -1       848 8.41500E+01 3.44120E+01 0.00000E+00
 -1       849 8.71500E+01 3.44120E+01 0.00000E+00
 -1       850 9.01500E+01 3.44120E+01 0.00000E+00
 -1       851 9.31500E+01 3.44120E+01 0.00000E+00
 -1       852 9.61500E+01 3.44120E+01 0.00000E+00
 -1       853 9.91500E+01 3.44120E+01 0.00000E+00
 -1       854 1.02150E+02 3.44120E+01 0.00000E+00
 -1       855 1.05150E+02 3.44120E+01 0.00000E+00
 -1       856 1.08150E+02 3.44120E+01 0.00000E+00
 -1       857 1.11150E+02 3.44120E+01 0.00000E+00
 -1       858 1.14544E+02 3.46197E+01 0.00000E+00
 -1       859 1.43355E+01 3.51044E+01 0.00000E+00
 -1       860 4.45350E+01 1.43982E+01 0.00000E+00
 -1       861 4.15350E+01 1.43982E+01 0.00000E+00
 -1       862 5.05350E+01 1.43982E+01 0.00000E+00
 -1       863 5.35350E+01 1.43982E+01 0.00000E+00
 -1       864 5.65350E+01 1.43982E+01 0.00000E+00
 -1       865 5.95350E+01 1.43982E+01 0.00000E+00
 -1       866 6.25350E+01 1.43982E+01 0.00000E+00
 -1       867 6.55350E+01 1.43982E+01 0.00000E+00
 -1       868 6.85350E+01 1.43982E+01 0.00000E+00
 -1       869 7.15350E+01 1.43982E+01 0.00000E+00
 -1       870 7.45350E+01 1.43982E+01 0.00000E+00
 -1       871 7.75350E+01 1.43982E+01 0.00000E+00
 -1       872 8.05350E+01 1.43982E+01 0.00000E+00
 -1       873 8.35350E+01 1.43982E+01 0.00000E+00
 -1       874 8.65350E+01 1.43982E+01 0.00000E+00
 -1       875 8.95350E+01 1.43982E+01 0.00000E+00
 -1       876 9.25350E+01 1.43982E+01 0.00000E+00
 -1       877 9.55350E+01 1.43982E+01 0.00000E+00
 -1       878 9.85350E+01 1.43982E+01 0.00000E+00
 -1       879 1.01535E+02 1.43982E+01 0.00000E+00
 -1       880 1.04535E+02 1.43982E+01 0.00000E+00
 -1       881 1.07535E+02 1.43982E+01 0.00000E+00
 -1       882 1.10535E+02 1.43982E+01 0.00000E+00
 -1       883 1.13535E+02 1.43982E+01 0.00000E+00
 -1       884 1.16535E+02 1.43982E+01 0.00000E+00
 -1       885 1.19535E+02 1.43982E+01 0.00000E+00
 -1       886 1.16089E+02 2.64214E+01 0.00000E+00
 -1       887 1.19961E+02 1.67487E+01 0.00000E+00
 -1       888 1.38242E+02 1.43251E+01 0.00000E+00
 -1       889 1.25055E+01 2.76181E+01 0.00000E+00
 -1       890 2.35350E+01 1.43982E+01 0.00000E+00
 -1       891 1.59900E+01 1.32000E+01 0.00000E+00
 -1       892 4.75350E+01 1.43982E+01 0.00000E+00
 -1       893 1.16632E+02 2.36456E+01 0.00000E+00
 -1       894 3.25350E+01 1.43982E+01 0.00000E+00
 -1       895 1.81500E+01 3.44120E+01 0.00000E+00
 -1       896 1.17267E+02 2.03476E+01 0.00000E+00
 -1       897 2.95350E+01 1.43982E+01 0.00000E+00
 -1       898 1.15109E+02 3.14709E+01 0.00000E+00
 -1       899 3.85350E+01 1.43982E+01 0.00000E+00
 -1       900 2.08988E+01 1.40987E+01 0.00000E+00
 -1       901 1.55880E+01 2.35000E+01 0.00000E+00
 -1       902 3.55350E+01 1.43982E+01 0.00000E+00
 -1       903 1.48296E+01 3.21459E+01 0.00000E+00
 -1       904 2.65350E+01 1.43982E+01 0.00000E+00
 -1       905 1.55880E+01 2.05562E+01 0.00000E+00
 -1       906 1.36737E+02 1.38587E+01 0.00000E+00
 -1       907 2.26500E+01 3.18140E+01 0.00000E+00
 -1       908 2.56500E+01 3.18140E+01 0.00000E+00
 -1       909 2.86500E+01 3.18140E+01 0.00000E+00
 -1       910 3.16500E+01 3.18140E+01 0.00000E+00
 -1       911 3.46500E+01 3.18140E+01 0.00000E+00
 -1       912 3.76500E+01 3.18140E+01 0.00000E+00
 -1       913 4.06500E+01 3.18140E+01 0.00000E+00
 -1       914 4.36500E+01 3.18140E+01 0.00000E+00
 -1       915 4.66500E+01 3.18140E+01 0.00000E+00
 -1       916 4.96500E+01 3.18140E+01 0.00000E+00
 -1       917 5.26500E+01 3.18140E+01 0.00000E+00
 -1       918 5.56500E+01 3.18140E+01 0.00000E+00
 -1       919 5.86500E+01 3.18140E+01 0.00000E+00
 -1       920 6.16500E+01 3.18140E+01 0.00000E+00
 -1       921 6.46500E+01 3.18140E+01 0.00000E+00
 -1       922 6.76500E+01 3.18140E+01 0.00000E+00
 -1       923 7.06500E+01 3.18140E+01 0.00000E+00
 -1       924 7.36500E+01 3.18140E+01 0.00000E+00
 -1       925 7.66500E+01 3.18140E+01 0.00000E+00
 -1       926 7.96500E+01 3.18140E+01 0.00000E+00
 -1       927 8.26500E+01 3.18140E+01 0.00000E+00
 -1       928 8.56500E+01 3.18140E+01 0.00000E+00
 -1       929 8.86500E+01 3.18140E+01 0.00000E+00
 -1       930 9.16500E+01 3.18140E+01 0.00000E+00
 -1       931 9.46500E+01 3.18140E+01 0.00000E+00
 -1       932 9.76500E+01 3.18140E+01 0.00000E+00
 -1       933 1.00650E+02 3.18140E+01 0.00000E+00
 -1       934 1.03650E+02 3.18140E+01 0.00000E+00
 -1       935 1.06650E+02 3.18140E+01 0.00000E+00
 -1       936 1.09650E+02 3.18140E+01 0.00000E+00
 -1       937 1.12979E+02 3.25057E+01 0.00000E+00
 -1       938 5.80350E+01 1.69963E+01 0.00000E+00
 -1       939 4.30350E+01 1.69963E+01 0.00000E+00
 -1       940 5.50350E+01 1.69963E+01 0.00000E+00
 -1       941 5.20350E+01 1.69963E+01 0.00000E+00
 -1       942 6.10350E+01 1.69963E+01 0.00000E+00
 -1       943 6.40350E+01 1.69963E+01 0.00000E+00
 -1       944 6.70350E+01 1.69963E+01 0.00000E+00
 -1       945 7.00350E+01 1.69963E+01 0.00000E+00
 -1       946 7.30350E+01 1.69963E+01 0.00000E+00
 -1       947 7.60350E+01 1.69963E+01 0.00000E+00
 -1       948 7.90350E+01 1.69963E+01 0.00000E+00
 -1       949 8.20350E+01 1.69963E+01 0.00000E+00
 -1       950 8.50350E+01 1.69963E+01 0.00000E+00
 -1       951 8.80350E+01 1.69963E+01 0.00000E+00
 -1       952 9.10350E+01 1.69963E+01 0.00000E+00
 -1       953 9.40350E+01 1.69963E+01 0.00000E+00
 -1       954 9.70350E+01 1.69963E+01 0.00000E+00
 -1       955 1.00035E+02 1.69963E+01 0.00000E+00
 -1       956 1.03035E+02 1.69963E+01 0.00000E+00
 -1       957 1.06035E+02 1.69963E+01 0.00000E+00
 -1       958 1.09035E+02 1.69963E+01 0.00000E+00
 -1       959 1.12035E+02 1.69963E+01 0.00000E+00
 -1       960 1.15035E+02 1.69963E+01 0.00000E+00
 -1       961 1.55717E+01 2.64968E+01 0.00000E+00
 -1       962 1.14133E+02 2.85627E+01 0.00000E+00
 -1       963 1.14398E+02 2.15056E+01 0.00000E+00
 -1       964 1.53141E+01 2.95028E+01 0.00000E+00
 -1       965 1.55880E+01 1.76125E+01 0.00000E+00
 -1       966 1.82320E+01 3.19574E+01 0.00000E+00
 -1       967 1.84444E+01 1.36493E+01 0.00000E+00
 -1       968 1.13855E+02 2.42814E+01 0.00000E+00
 -1       969 4.90350E+01 1.69963E+01 0.00000E+00
 -1       970 4.60350E+01 1.69963E+01 0.00000E+00
 -1       971 4.00350E+01 1.69963E+01 0.00000E+00
 -1       972 1.81778E+01 2.50125E+01 0.00000E+00
 -1       973 1.11900E+02 2.64227E+01 0.00000E+00
 -1       974 2.19235E+01 1.68299E+01 0.00000E+00
 -1       975 3.10350E+01 1.69963E+01 0.00000E+00
 -1       976 3.40350E+01 1.69963E+01 0.00000E+00
 -1       977 2.49235E+01 1.68299E+01 0.00000E+00
 -1       978 1.81778E+01 2.20688E+01 0.00000E+00
 -1       979 2.41500E+01 2.92160E+01 0.00000E+00
 -1       980 2.71500E+01 2.92160E+01 0.00000E+00
 -1       981 3.01500E+01 2.92160E+01 0.00000E+00
 -1       982 3.31500E+01 2.92160E+01 0.00000E+00
 -1       983 3.61500E+01 2.92160E+01 0.00000E+00
 -1       984 3.91500E+01 2.92160E+01 0.00000E+00
 -1       985 4.21500E+01 2.92160E+01 0.00000E+00
 -1       986 4.51500E+01 2.92160E+01 0.00000E+00
 -1       987 4.81500E+01 2.92160E+01 0.00000E+00
 -1       988 5.11500E+01 2.92160E+01 0.00000E+00
 -1       989 5.41500E+01 2.92160E+01 0.00000E+00
 -1       990 5.71500E+01 2.92160E+01 0.00000E+00
 -1       991 6.01500E+01 2.92160E+01 0.00000E+00
 -1       992 6.31500E+01 2.92160E+01 0.00000E+00
 -1       993 6.61500E+01 2.92160E+01 0.00000E+00
 -1       994 6.91500E+01 2.92160E+01 0.00000E+00
 -1       995 7.21500E+01 2.92160E+01 0.00000E+00
 -1       996 7.51500E+01 2.92160E+01 0.00000E+00
 -1       997 7.81500E+01 2.92160E+01 0.00000E+00
 -1       998 8.11500E+01 2.92160E+01 0.00000E+00
 -1       999 8.41500E+01 2.92160E+01 0.00000E+00
 -1      1000 8.71500E+01 2.92160E+01 0.00000E+00
 -1      1001 9.01500E+01 2.92160E+01 0.00000E+00
 -1      1002 9.31500E+01 2.92160E+01 0.00000E+00
 -1      1003 9.61500E+01 2.92160E+01 0.00000E+00
 -1      1004 9.91500E+01 2.92160E+01 0.00000E+00
 -1      1005 1.02150E+02 2.92160E+01 0.00000E+00
 -1      1006 1.05150E+02 2.92160E+01 0.00000E+00
 -1      1007 1.08150E+02 2.92160E+01 0.00000E+00
 -1      1008 1.11843E+02 2.96162E+01 0.00000E+00
 -1      1009 5.95350E+01 1.95942E+01 0.00000E+00
 -1      1010 5.35350E+01 1.95942E+01 0.00000E+00
 -1      1011 6.55350E+01 1.95942E+01 0.00000E+00
 -1      1012 6.85350E+01 1.95942E+01 0.00000E+00
 -1      1013 7.15350E+01 1.95942E+01 0.00000E+00
 -1      1014 7.45350E+01 1.95942E+01 0.00000E+00
 -1      1015 7.75350E+01 1.95942E+01 0.00000E+00
 -1      1016 8.05350E+01 1.95942E+01 0.00000E+00
 -1      1017 8.35350E+01 1.95942E+01 0.00000E+00
 -1      1018 8.65350E+01 1.95942E+01 0.00000E+00
 -1      1019 8.95350E+01 1.95942E+01 0.00000E+00
 -1      1020 9.25350E+01 1.95942E+01 0.00000E+00
 -1      1021 9.55350E+01 1.95942E+01 0.00000E+00
 -1      1022 9.85350E+01 1.95942E+01 0.00000E+00
 -1      1023 1.01535E+02 1.95942E+01 0.00000E+00
 -1      1024 1.04535E+02 1.95942E+01 0.00000E+00
 -1      1025 1.07535E+02 1.95942E+01 0.00000E+00
 -1      1026 1.10535E+02 1.95942E+01 0.00000E+00
 -1      1027 1.79202E+01 2.80185E+01 0.00000E+00
 -1      1028 2.80350E+01 1.69963E+01 0.00000E+00
 -1      1029 3.70350E+01 1.69963E+01 0.00000E+00
 -1      1030 6.25350E+01 1.95942E+01 0.00000E+00
 -1      1031 1.81778E+01 1.91250E+01 0.00000E+00
 -1      1032 1.94692E+01 1.63805E+01 0.00000E+00
 -1      1033 5.65350E+01 1.95942E+01 0.00000E+00
 -1      1034 2.10351E+01 2.86173E+01 0.00000E+00
 -1      1035 1.11577E+02 2.23948E+01 0.00000E+00
 -1      1036 5.05350E+01 1.95942E+01 0.00000E+00
 -1      1037 4.15350E+01 1.95942E+01 0.00000E+00
 -1      1038 2.07758E+01 2.35407E+01 0.00000E+00
 -1      1039 2.09055E+01 2.60790E+01 0.00000E+00
 -1      1040 2.95350E+01 1.95942E+01 0.00000E+00
 -1      1041 2.06322E+01 1.95744E+01 0.00000E+00
 -1      1042 4.45350E+01 1.95942E+01 0.00000E+00
 -1      1043 3.25350E+01 1.95942E+01 0.00000E+00
 -1      1044 2.36322E+01 1.95744E+01 0.00000E+00
 -1      1045 4.75350E+01 1.95942E+01 0.00000E+00
 -1      1046 2.86500E+01 2.66180E+01 0.00000E+00
 -1      1047 3.16500E+01 2.66180E+01 0.00000E+00
 -1      1048 3.46500E+01 2.66180E+01 0.00000E+00
 -1      1049 3.76500E+01 2.66180E+01 0.00000E+00
 -1      1050 4.06500E+01 2.66180E+01 0.00000E+00
 -1      1051 4.36500E+01 2.66180E+01 0.00000E+00
 -1      1052 4.66500E+01 2.66180E+01 0.00000E+00
 -1      1053 4.96500E+01 2.66180E+01 0.00000E+00
 -1      1054 5.26500E+01 2.66180E+01 0.00000E+00
 -1      1055 5.56500E+01 2.66180E+01 0.00000E+00
 -1      1056 5.86500E+01 2.66180E+01 0.00000E+00
 -1      1057 6.16500E+01 2.66180E+01 0.00000E+00
 -1      1058 6.46500E+01 2.66180E+01 0.00000E+00
 -1      1059 6.76500E+01 2.66180E+01 0.00000E+00
 -1      1060 7.06500E+01 2.66180E+01 0.00000E+00
 -1      1061 7.36500E+01 2.66180E+01 0.00000E+00
 -1      1062 7.66500E+01 2.66180E+01 0.00000E+00
 -1      1063 7.96500E+01 2.66180E+01 0.00000E+00
 -1      1064 8.26500E+01 2.66180E+01 0.00000E+00
 -1      1065 8.56500E+01 2.66180E+01 0.00000E+00
 -1      1066 8.86500E+01 2.66180E+01 0.00000E+00
 -1      1067 9.16500E+01 2.66180E+01 0.00000E+00
 -1      1068 9.46500E+01 2.66180E+01 0.00000E+00
 -1      1069 9.76500E+01 2.66180E+01 0.00000E+00
 -1      1070 1.00650E+02 2.66180E+01 0.00000E+00
 -1      1071 1.03650E+02 2.66180E+01 0.00000E+00
 -1      1072 1.06650E+02 2.66180E+01 0.00000E+00
 -1      1073 6.10350E+01 2.21922E+01 0.00000E+00
 -1      1074 6.70350E+01 2.21922E+01 0.00000E+00
 -1      1075 7.60350E+01 2.21922E+01 0.00000E+00
 -1      1076 7.90350E+01 2.21922E+01 0.00000E+00
 -1      1077 8.20350E+01 2.21922E+01 0.00000E+00
 -1      1078 8.50350E+01 2.21922E+01 0.00000E+00
 -1      1079 8.80350E+01 2.21922E+01 0.00000E+00
 -1      1080 9.10350E+01 2.21922E+01 0.00000E+00
 -1      1081 9.40350E+01 2.21922E+01 0.00000E+00
 -1      1082 9.70350E+01 2.21922E+01 0.00000E+00
 -1      1083 1.00035E+02 2.21922E+01 0.00000E+00
 -1      1084 1.03035E+02 2.21922E+01 0.00000E+00
 -1      1085 1.06035E+02 2.21922E+01 0.00000E+00
 -1      1086 1.08806E+02 2.22935E+01 0.00000E+00
 -1      1087 3.85350E+01 1.95942E+01 0.00000E+00
 -1      1088 5.50350E+01 2.21922E+01 0.00000E+00
 -1      1089 2.65836E+01 1.95843E+01 0.00000E+00
 -1      1090 7.30350E+01 2.21922E+01 0.00000E+00
 -1      1091 5.80350E+01 2.21922E+01 0.00000E+00
 -1      1092 7.00350E+01 2.21922E+01 0.00000E+00
 -1      1093 2.56500E+01 2.66180E+01 0.00000E+00
 -1      1094 6.40350E+01 2.21922E+01 0.00000E+00
 -1      1095 3.10350E+01 2.21922E+01 0.00000E+00
 -1      1096 2.32777E+01 2.63485E+01 0.00000E+00
 -1      1097 4.00350E+01 2.21922E+01 0.00000E+00
 -1      1098 2.80836E+01 2.21823E+01 0.00000E+00
 -1      1099 2.31481E+01 2.38102E+01 0.00000E+00
 -1      1100 5.20350E+01 2.21922E+01 0.00000E+00
 -1      1101 1.09149E+02 2.46161E+01 0.00000E+00
 -1      1102 3.55350E+01 1.95942E+01 0.00000E+00
 -1      1103 4.30350E+01 2.21922E+01 0.00000E+00
 -1      1104 3.40350E+01 2.21922E+01 0.00000E+00
 -1      1105 3.91500E+01 2.40200E+01 0.00000E+00
 -1      1106 4.81500E+01 2.40200E+01 0.00000E+00
 -1      1107 2.56158E+01 2.29962E+01 0.00000E+00
 -1      1108 3.61500E+01 2.40200E+01 0.00000E+00
 -1      1109 4.55925E+01 2.31061E+01 0.00000E+00
 -1      1110 3.70351E+01 2.21923E+01 0.00000E+00
 -1      1111 0.00000E+00 4.85250E+01 0.00000E+00
 -1      1112 0.00000E+00 4.55750E+01 0.00000E+00
 -1      1113 0.00000E+00 4.26250E+01 0.00000E+00
 -1      1114 0.00000E+00 3.96750E+01 0.00000E+00
 -1      1115 0.00000E+00 3.67250E+01 0.00000E+00
 -1      1116 0.00000E+00 3.38000E+01 0.00000E+00
 -1      1117 0.00000E+00 3.08750E+01 0.00000E+00
 -1      1118 0.00000E+00 2.79250E+01 0.00000E+00
 -1      1119 0.00000E+00 2.49750E+01 0.00000E+00
 -1      1120 0.00000E+00 2.20250E+01 0.00000E+00
 -1      1121 0.00000E+00 1.90750E+01 0.00000E+00
 -1      1122 0.00000E+00 1.61500E+01 0.00000E+00
 -1      1123 0.00000E+00 1.32250E+01 0.00000E+00
 -1      1124 0.00000E+00 1.02750E+01 0.00000E+00
 -1      1125 0.00000E+00 7.32500E+00 0.00000E+00
 -1      1126 0.00000E+00 4.37500E+00 0.00000E+00
 -1      1127 0.00000E+00 1.45000E+00 0.00000E+00
 -1      1128 1.57500E+00 5.00000E+01 0.00000E+00
 -1      1129 4.65000E+00 5.00000E+01 0.00000E+00
 -1      1130 7.65000E+00 5.00000E+01 0.00000E+00
 -1      1131 1.06500E+01 5.00000E+01 0.00000E+00
 -1      1132 1.36500E+01 5.00000E+01 0.00000E+00
 -1      1133 1.66500E+01 5.00000E+01 0.00000E+00
 -1      1134 1.96500E+01 5.00000E+01 0.00000E+00
 -1      1135 2.26500E+01 5.00000E+01 0.00000E+00
 -1      1136 2.56500E+01 5.00000E+01 0.00000E+00
 -1      1137 2.86500E+01 5.00000E+01 0.00000E+00
 -1      1138 3.16500E+01 5.00000E+01 0.00000E+00
 -1      1139 3.46500E+01 5.00000E+01 0.00000E+00
 -1      1140 3.76500E+01 5.00000E+01 0.00000E+00
 -1      1141 4.06500E+01 5.00000E+01 0.00000E+00
 -1      1142 4.36500E+01 5.00000E+01 0.00000E+00
 -1      1143 4.66500E+01 5.00000E+01 0.00000E+00
 -1      1144 4.96500E+01 5.00000E+01 0.00000E+00
 -1      1145 5.26500E+01 5.00000E+01 0.00000E+00
 -1      1146 5.56500E+01 5.00000E+01 0.00000E+00
 -1      1147 5.86500E+01 5.00000E+01 0.00000E+00
 -1      1148 6.16500E+01 5.00000E+01 0.00000E+00
 -1      1149 6.46500E+01 5.00000E+01 0.00000E+00
 -1      1150 6.76500E+01 5.00000E+01 0.00000E+00
 -1      1151 7.06500E+01 5.00000E+01 0.00000E+00
 -1      1152 7.36500E+01 5.00000E+01 0.00000E+00
 -1      1153 7.66500E+01 5.00000E+01 0.00000E+00
 -1      1154 7.96500E+01 5.00000E+01 0.00000E+00
 -1      1155 8.26500E+01 5.00000E+01 0.00000E+00
 -1      1156 8.56500E+01 5.00000E+01 0.00000E+00
 -1      1157 8.86500E+01 5.00000E+01 0.00000E+00
 -1      1158 9.16500E+01 5.00000E+01 0.00000E+00
 -1      1159 9.46500E+01 5.00000E+01 0.00000E+00
 -1      1160 9.76500E+01 5.00000E+01 0.00000E+00
 -1      1161 1.00650E+02 5.00000E+01 0.00000E+00
 -1      1162 1.03650E+02 5.00000E+01 0.00000E+00
 -1      1163 1.06650E+02 5.00000E+01 0.00000E+00
 -1      1164 1.09650E+02 5.00000E+01 0.00000E+00
 -1      1165 1.12650E+02 5.00000E+01 0.00000E+00
 -1      1166 1.15650E+02 5.00000E+01 0.00000E+00
 -1      1167 1.18650E+02 5.00000E+01 0.00000E+00
 -1      1168 1.21650E+02 5.00000E+01 0.00000E+00
 -1      1169 1.24650E+02 5.00000E+01 0.00000E+00
 -1      1170 1.27650E+02 5.00000E+01 0.00000E+00
 -1      1171 1.30650E+02 5.00000E+01 0.00000E+00
 -1      1172 1.33650E+02 5.00000E+01 0.00000E+00
 -1      1173 1.36650E+02 5.00000E+01 0.00000E+00
 -1      1174 1.39650E+02 5.00000E+01 0.00000E+00
 -1      1175 1.42650E+02 5.00000E+01 0.00000E+00
 -1      1176 1.45650E+02 5.00000E+01 0.00000E+00
 -1      1177 1.48575E+02 5.00000E+01 0.00000E+00
 -1      1178 1.57500E+00 0.00000E+00 0.00000E+00
 -1      1179 4.65000E+00 0.00000E+00 0.00000E+00
 -1      1180 7.65000E+00 0.00000E+00 0.00000E+00
 -1      1181 1.06500E+01 0.00000E+00 0.00000E+00
 -1      1182 1.36500E+01 0.00000E+00 0.00000E+00
 -1      1183 1.66500E+01 0.00000E+00 0.00000E+00
 -1      1184 1.96500E+01 0.00000E+00 0.00000E+00
 -1      1185 2.26500E+01 0.00000E+00 0.00000E+00
 -1      1186 2.56500E+01 0.00000E+00 0.00000E+00
 -1      1187 2.86500E+01 0.00000E+00 0.00000E+00
 -1      1188 3.16500E+01 0.00000E+00 0.00000E+00
 -1      1189 3.46500E+01 0.00000E+00 0.00000E+00
 -1      1190 3.76500E+01 0.00000E+00 0.00000E+00
 -1      1191 4.06500E+01 0.00000E+00 0.00000E+00
 -1      1192 4.36500E+01 0.00000E+00 0.00000E+00
 -1      1193 4.66500E+01 0.00000E+00 0.00000E+00
 -1      1194 4.96500E+01 0.00000E+00 0.00000E+00
 -1      1195 5.26500E+01 0.00000E+00 0.00000E+00
 -1      1196 5.56500E+01 0.00000E+00 0.00000E+00
 -1      1197 5.86500E+01 0.00000E+00 0.00000E+00
 -1      1198 6.16500E+01 0.00000E+00 0.00000E+00
 -1      1199 6.46500E+01 0.00000E+00 0.00000E+00
 -1      1200 6.76500E+01 0.00000E+00 0.00000E+00
 -1      1201 7.06500E+01 0.00000E+00 0.00000E+00
 -1      1202 7.36500E+01 0.00000E+00 0.00000E+00
 -1      1203 7.66500E+01 0.00000E+00 0.00000E+00
 -1      1204 7.96500E+01 0.00000E+00 0.00000E+00
 -1      1205 8.26500E+01 0.00000E+00 0.00000E+00
 -1      1206 8.56500E+01 0.00000E+00 0.00000E+00
 -1      1207 8.86500E+01 0.00000E+00 0.00000E+00
 -1      1208 9.16500E+01 0.00000E+00 0.00000E+00
 -1      1209 9.46500E+01 0.00000E+00 0.00000E+00
 -1      1210 9.76500E+01 0.00000E+00 0.00000E+00
 -1      1211 1.00650E+02 0.00000E+00 0.00000E+00
 -1      1212 1.03650E+02 0.00000E+00 0.00000E+00
 -1      1213 1.06650E+02 0.00000E+00 0.00000E+00
 -1      1214 1.09650E+02 0.00000E+00 0.00000E+00
 -1      1215 1.12650E+02 0.00000E+00 0.00000E+00
 -1      1216 1.15650E+02 0.00000E+00 0.00000E+00
 -1      1217 1.18650E+02 0.00000E+00 0.00000E+00
 -1      1218 1.21650E+02 0.00000E+00 0.00000E+00
 -1      1219 1.24650E+02 0.00000E+00 0.00000E+00
 -1      1220 1.27650E+02 0.00000E+00 0.00000E+00
 -1      1221 1.30650E+02 0.00000E+00 0.00000E+00
 -1      1222 1.33650E+02 0.00000E+00 0.00000E+00
 -1      1223 1.36650E+02 0.00000E+00 0.00000E+00
 -1      1224 1.39650E+02 0.00000E+00 0.00000E+00
 -1      1225 1.42650E+02 0.00000E+00 0.00000E+00
 -1      1226 1.45650E+02 0.00000E+00 0.00000E+00
 -1      1227 1.48575E+02 0.00000E+00 0.00000E+00
 -1      1228 1.50000E+02 1.52500E+00 0.00000E+00
 -1      1229 1.50000E+02 4.57500E+00 0.00000E+00
 -1      1230 1.50000E+02 7.62500E+00 0.00000E+00
 -1      1231 1.50000E+02 1.06500E+01 0.00000E+00
 -1      1232 1.50000E+02 1.36750E+01 0.00000E+00
 -1      1233 1.50000E+02 1.67250E+01 0.00000E+00
 -1      1234 1.50000E+02 1.97500E+01 0.00000E+00
 -1      1235 1.50000E+02 2.27500E+01 0.00000E+00
 -1      1236 1.50000E+02 2.55750E+01 0.00000E+00
 -1      1237 1.50000E+02 2.83000E+01 0.00000E+00
 -1      1238 1.50000E+02 3.09750E+01 0.00000E+00
 -1      1239 1.50000E+02 3.35500E+01 0.00000E+00
 -1      1240 1.50000E+02 3.63750E+01 0.00000E+00
 -1      1241 1.50000E+02 3.94000E+01 0.00000E+00
 -1      1242 1.50000E+02 4.24250E+01 0.00000E+00
 -1      1243 1.50000E+02 4.54750E+01 0.00000E+00
 -1      1244 1.50000E+02 4.85000E+01 0.00000E+00
 -1      1245 1.39220E+02 2.90890E+01 0.00000E+00
 -1      1246 1.38930E+02 2.76818E+01 0.00000E+00
 -1      1247 1.38326E+02 2.63048E+01 0.00000E+00
 -1      1248 1.37435E+02 2.50810E+01 0.00000E+00
 -1      1249 1.36336E+02 2.41020E+01 0.00000E+00
 -1      1250 1.35064E+02 2.33778E+01 0.00000E+00
 -1      1251 1.33687E+02 2.29376E+01 0.00000E+00
 -1      1252 1.32222E+02 2.27897E+01 0.00000E+00
 -1      1253 1.30679E+02 2.29694E+01 0.00000E+00
 -1      1254 1.29268E+02 2.34592E+01 0.00000E+00
 -1      1255 1.28019E+02 2.42172E+01 0.00000E+00
 -1      1256 1.26918E+02 2.52608E+01 0.00000E+00
 -1      1257 1.26075E+02 2.65032E+01 0.00000E+00
 -1      1258 1.25535E+02 2.78296E+01 0.00000E+00
 -1      1259 1.25280E+02 2.91979E+01 0.00000E+00
 -1      1260 1.25310E+02 3.06610E+01 0.00000E+00
 -1      1261 1.25643E+02 3.20873E+01 0.00000E+00
 -1      1262 1.26264E+02 3.34102E+01 0.00000E+00
 -1      1263 1.27187E+02 3.46183E+01 0.00000E+00
 -1      1264 1.28308E+02 3.55708E+01 0.00000E+00
 -1      1265 1.29584E+02 3.62599E+01 0.00000E+00
 -1      1266 1.31005E+02 3.66770E+01 0.00000E+00
 -1      1267 1.32434E+02 3.67874E+01 0.00000E+00
 -1      1268 1.33805E+02 3.66159E+01 0.00000E+00
 -1      1269 1.35151E+02 3.61626E+01 0.00000E+00
 -1      1270 1.36430E+02 3.54084E+01 0.00000E+00
 -1      1271 1.37516E+02 3.44080E+01 0.00000E+00
 -1      1272 1.38368E+02 3.32013E+01 0.00000E+00
 -1      1273 1.38946E+02 3.18486E+01 0.00000E+00
 -1      1274 1.39222E+02 3.04748E+01 0.00000E+00
 -1      1275 1.57500E+00 4.85250E+01 0.00000E+00
 -1      1276 1.29900E+00 4.48375E+01 0.00000E+00
 -1      1277 1.29900E+00 4.63125E+01 0.00000E+00
 -1      1278 1.29900E+00 4.18875E+01 0.00000E+00
 -1      1279 1.29900E+00 4.33625E+01 0.00000E+00
 -1      1280 2.59800E+00 4.41000E+01 0.00000E+00
 -1      1281 1.29900E+00 3.89375E+01 0.00000E+00
 -1      1282 1.29900E+00 4.04125E+01 0.00000E+00
 -1      1283 2.59800E+00 4.11500E+01 0.00000E+00
 -1      1284 1.29900E+00 3.59875E+01 0.00000E+00
 -1      1285 1.29900E+00 3.74625E+01 0.00000E+00
 -1      1286 2.59800E+00 3.82000E+01 0.00000E+00
 -1      1287 1.29900E+00 3.30875E+01 0.00000E+00
 -1      1288 1.29900E+00 3.45375E+01 0.00000E+00
 -1      1289 2.59800E+00 3.52750E+01 0.00000E+00
 -1      1290 1.29900E+00 3.01375E+01 0.00000E+00
 -1      1291 1.29900E+00 3.16125E+01 0.00000E+00
 -1      1292 2.59800E+00 3.23500E+01 0.00000E+00
 -1      1293 1.29900E+00 2.71875E+01 0.00000E+00
 -1      1294 1.29900E+00 2.86625E+01 0.00000E+00
 -1      1295 2.59800E+00 2.94000E+01 0.00000E+00
 -1      1296 1.29900E+00 2.42375E+01 0.00000E+00
 -1      1297 1.29900E+00 2.57125E+01 0.00000E+00
 -1      1298 2.59800E+00 2.64500E+01 0.00000E+00
 -1      1299 1.29900E+00 2.12875E+01 0.00000E+00
 -1      1300 1.29900E+00 2.27625E+01 0.00000E+00
 -1      1301 2.59800E+00 2.35000E+01 0.00000E+00
 -1      1302 1.29900E+00 1.83375E+01 0.00000E+00
 -1      1303 1.29900E+00 1.98125E+01 0.00000E+00
 -1      1304 2.59800E+00 2.05500E+01 0.00000E+00
 -1      1305 1.29900E+00 1.54375E+01 0.00000E+00
 -1      1306 1.29900E+00 1.68875E+01 0.00000E+00
 -1      1307 2.59800E+00 1.76250E+01 0.00000E+00
 -1      1308 1.29900E+00 1.24875E+01 0.00000E+00
 -1      1309 1.29900E+00 1.39625E+01 0.00000E+00
 -1      1310 2.59800E+00 1.47000E+01 0.00000E+00
 -1      1311 1.29900E+00 9.53750E+00 0.00000E+00
 -1      1312 1.29900E+00 1.10125E+01 0.00000E+00
 -1      1313 2.59800E+00 1.17500E+01 0.00000E+00
 -1      1314 1.29900E+00 6.58750E+00 0.00000E+00
 -1      1315 1.29900E+00 8.06250E+00 0.00000E+00
 -1      1316 2.59800E+00 8.80000E+00 0.00000E+00
 -1      1317 1.29900E+00 3.63750E+00 0.00000E+00
 -1      1318 1.29900E+00 5.11250E+00 0.00000E+00
 -1      1319 2.59800E+00 5.85000E+00 0.00000E+00
 -1      1320 1.43700E+00 1.09375E+00 0.00000E+00
 -1      1321 1.43700E+00 2.54375E+00 0.00000E+00
 -1      1322 2.73600E+00 3.28125E+00 0.00000E+00
 -1      1323 3.01200E+00 1.09375E+00 0.00000E+00
 -1      1324 3.90000E+00 4.87010E+01 0.00000E+00
 -1      1325 5.40000E+00 4.87010E+01 0.00000E+00
 -1      1326 6.90000E+00 4.87010E+01 0.00000E+00
 -1      1327 8.40000E+00 4.87010E+01 0.00000E+00
 -1      1328 6.15000E+00 4.74020E+01 0.00000E+00
 -1      1329 9.90000E+00 4.87010E+01 0.00000E+00
 -1      1330 1.14000E+01 4.87010E+01 0.00000E+00
 -1      1331 9.15000E+00 4.74020E+01 0.00000E+00
 -1      1332 1.29000E+01 4.87010E+01 0.00000E+00
 -1      1333 1.44000E+01 4.87010E+01 0.00000E+00
 -1      1334 1.21500E+01 4.74020E+01 0.00000E+00
 -1      1335 1.59000E+01 4.87010E+01 0.00000E+00
 -1      1336 1.74000E+01 4.87010E+01 0.00000E+00
 -1      1337 1.51500E+01 4.74020E+01 0.00000E+00
 -1      1338 1.89000E+01 4.87010E+01 0.00000E+00
 -1      1339 2.04000E+01 4.87010E+01 0.00000E+00
 -1      1340 1.81500E+01 4.74020E+01 0.00000E+00
 -1      1341 2.19000E+01 4.87010E+01 0.00000E+00
 -1      1342 2.34000E+01 4.87010E+01 0.00000E+00
 -1      1343 2.11500E+01 4.74020E+01 0.00000E+00
 -1      1344 2.49000E+01 4.87010E+01 0.00000E+00
 -1      1345 2.64000E+01 4.87010E+01 0.00000E+00
 -1      1346 2.41500E+01 4.74020E+01 0.00000E+00
 -1      1347 2.79000E+01 4.87010E+01 0.00000E+00
 -1      1348 2.94000E+01 4.87010E+01 0.00000E+00
 -1      1349 2.71500E+01 4.74020E+01 0.00000E+00
 -1      1350 3.09000E+01 4.87010E+01 0.00000E+00
 -1      1351 3.24000E+01 4.87010E+01 0.00000E+00
 -1      1352 3.01500E+01 4.74020E+01 0.00000E+00
 -1      1353 3.39000E+01 4.87010E+01 0.00000E+00
 -1      1354 3.54000E+01 4.87010E+01 0.00000E+00
 -1      1355 3.31500E+01 4.74020E+01 0.00000E+00
 -1      1356 3.69000E+01 4.87010E+01 0.00000E+00
 -1      1357 3.84000E+01 4.87010E+01 0.00000E+00
 -1      1358 3.61500E+01 4.74020E+01 0.00000E+00
 -1      1359 3.99000E+01 4.87010E+01 0.00000E+00
 -1      1360 4.14000E+01 4.87010E+01 0.00000E+00
 -1      1361 3.91500E+01 4.74020E+01 0.00000E+00
 -1      1362 4.29000E+01 4.87010E+01 0.00000E+00
 -1      1363 4.44000E+01 4.87010E+01 0.00000E+00
 -1      1364 4.21500E+01 4.74020E+01 0.00000E+00
 -1      1365 4.59000E+01 4.87010E+01 0.00000E+00
 -1      1366 4.74000E+01 4.87010E+01 0.00000E+00
 -1      1367 4.51500E+01 4.74020E+01 0.00000E+00
 -1      1368 4.89000E+01 4.87010E+01 0.00000E+00
 -1      1369 5.04000E+01 4.87010E+01 0.00000E+00
 -1      1370 4.81500E+01 4.74020E+01 0.00000E+00
 -1      1371 5.19000E+01 4.87010E+01 0.00000E+00
 -1      1372 5.34000E+01 4.87010E+01 0.00000E+00
 -1      1373 5.11500E+01 4.74020E+01 0.00000E+00
 -1      1374 5.49000E+01 4.87010E+01 0.00000E+00
 -1      1375 5.64000E+01 4.87010E+01 0.00000E+00
 -1      1376 5.41500E+01 4.74020E+01 0.00000E+00
 -1      1377 5.79000E+01 4.87010E+01 0.00000E+00
 -1      1378 5.94000E+01 4.87010E+01 0.00000E+00
 -1      1379 5.71500E+01 4.74020E+01 0.00000E+00
 -1      1380 6.09000E+01 4.87010E+01 0.00000E+00
 -1      1381 6.24000E+01 4.87010E+01 0.00000E+00
 -1      1382 6.01500E+01 4.74020E+01 0.00000E+00
 -1      1383 6.39000E+01 4.87010E+01 0.00000E+00
 -1      1384 6.54000E+01 4.87010E+01 0.00000E+00
 -1      1385 6.31500E+01 4.74020E+01 0.00000E+00
 -1      1386 6.69000E+01 4.87010E+01 0.00000E+00
 -1      1387 6.84000E+01 4.87010E+01 0.00000E+00
 -1      1388 6.61500E+01 4.74020E+01 0.00000E+00
 -1      1389 6.99000E+01 4.87010E+01 0.00000E+00
 -1      1390 7.14000E+01 4.87010E+01 0.00000E+00
 -1      1391 6.91500E+01 4.74020E+01 0.00000E+00
 -1      1392 7.29000E+01 4.87010E+01 0.00000E+00
 -1      1393 7.44000E+01 4.87010E+01 0.00000E+00
 -1      1394 7.21500E+01 4.74020E+01 0.00000E+00
 -1      1395 7.59000E+01 4.87010E+01 0.00000E+00
 -1      1396 7.74000E+01 4.87010E+01 0.00000E+00
 -1      1397 7.51500E+01 4.74020E+01 0.00000E+00
 -1      1398 7.89000E+01 4.87010E+01 0.00000E+00
 -1      1399 8.04000E+01 4.87010E+01 0.00000E+00
 -1      1400 7.81500E+01 4.74020E+01 0.00000E+00
 -1      1401 8.19000E+01 4.87010E+01 0.00000E+00
 -1      1402 8.34000E+01 4.87010E+01 0.00000E+00
 -1      1403 8.11500E+01 4.74020E+01 0.00000E+00
 -1      1404 8.49000E+01 4.87010E+01 0.00000E+00
 -1      1405 8.64000E+01 4.87010E+01 0.00000E+00
 -1      1406 8.41500E+01 4.74020E+01 0.00000E+00
 -1      1407 8.79000E+01 4.87010E+01 0.00000E+00
 -1      1408 8.94000E+01 4.87010E+01 0.00000E+00
 -1      1409 8.71500E+01 4.74020E+01 0.00000E+00
 -1      1410 9.09000E+01 4.87010E+01 0.00000E+00
 -1      1411 9.24000E+01 4.87010E+01 0.00000E+00
 -1      1412 9.01500E+01 4.74020E+01 0.00000E+00
 -1      1413 9.39000E+01 4.87010E+01 0.00000E+00
 -1      1414 9.54000E+01 4.87010E+01 0.00000E+00
 -1      1415 9.31500E+01 4.74020E+01 0.00000E+00
 -1      1416 9.69000E+01 4.87010E+01 0.00000E+00
 -1      1417 9.84000E+01 4.87010E+01 0.00000E+00
 -1      1418 9.61500E+01 4.74020E+01 0.00000E+00
 -1      1419 9.99000E+01 4.87010E+01 0.00000E+00
 -1      1420 1.01400E+02 4.87010E+01 0.00000E+00
 -1      1421 9.91500E+01 4.74020E+01 0.00000E+00
 -1      1422 1.02900E+02 4.87010E+01 0.00000E+00
 -1      1423 1.04400E+02 4.87010E+01 0.00000E+00
 -1      1424 1.02150E+02 4.74020E+01 0.00000E+00
 -1      1425 1.05900E+02 4.87010E+01 0.00000E+00
 -1      1426 1.07400E+02 4.87010E+01 0.00000E+00
 -1      1427 1.05150E+02 4.74020E+01 0.00000E+00
 -1      1428 1.08900E+02 4.87010E+01 0.00000E+00
 -1      1429 1.10400E+02 4.87010E+01 0.00000E+00
 -1      1430 1.08150E+02 4.74020E+01 0.00000E+00
 -1      1431 1.11900E+02 4.87010E+01 0.00000E+00
 -1      1432 1.13400E+02 4.87010E+01 0.00000E+00
 -1      1433 1.11150E+02 4.74020E+01 0.00000E+00
 -1      1434 1.14900E+02 4.87010E+01 0.00000E+00
 -1      1435 1.16400E+02 4.87010E+01 0.00000E+00
 -1      1436 1.14150E+02 4.74020E+01 0.00000E+00
 -1      1437 1.17900E+02 4.87010E+01 0.00000E+00
 -1      1438 1.19400E+02 4.87010E+01 0.00000E+00
 -1      1439 1.17150E+02 4.74020E+01 0.00000E+00
 -1      1440 1.20900E+02 4.87010E+01 0.00000E+00
 -1      1441 1.22400E+02 4.87010E+01 0.00000E+00
 -1      1442 1.20150E+02 4.74020E+01 0.00000E+00
 -1      1443 1.23900E+02 4.87010E+01 0.00000E+00
 -1      1444 1.25400E+02 4.87010E+01 0.00000E+00
 -1      1445 1.23150E+02 4.74020E+01 0.00000E+00
 -1      1446 1.26900E+02 4.87010E+01 0.00000E+00
 -1      1447 1.28400E+02 4.87010E+01 0.00000E+00
 -1      1448 1.26150E+02 4.74020E+01 0.00000E+00
 -1      1449 1.29900E+02 4.87010E+01 0.00000E+00
 -1      1450 1.31400E+02 4.87010E+01 0.00000E+00
 -1      1451 1.29150E+02 4.74020E+01 0.00000E+00
 -1      1452 1.32900E+02 4.87010E+01 0.00000E+00
 -1      1453 1.34400E+02 4.87010E+01 0.00000E+00
 -1      1454 1.32150E+02 4.74020E+01 0.00000E+00
 -1      1455 1.35900E+02 4.87010E+01 0.00000E+00
 -1      1456 1.37400E+02 4.87010E+01 0.00000E+00
 -1      1457 1.35150E+02 4.74020E+01 0.00000E+00
 -1      1458 1.38900E+02 4.87010E+01 0.00000E+00
 -1      1459 1.40400E+02 4.87010E+01 0.00000E+00
 -1      1460 1.38150E+02 4.74020E+01 0.00000E+00
 -1      1461 1.41900E+02 4.87010E+01 0.00000E+00
 -1      1462 1.43400E+02 4.87010E+01 0.00000E+00
 -1      1463 1.41150E+02 4.74020E+01 0.00000E+00
 -1      1464 1.44900E+02 4.87010E+01 0.00000E+00
 -1      1465 1.46400E+02 4.87010E+01 0.00000E+00
 -1      1466 1.44150E+02 4.74020E+01 0.00000E+00
 -1      1467 1.48575E+02 4.85000E+01 0.00000E+00
 -1      1468 1.47825E+02 4.72010E+01 0.00000E+00
 -1      1469 6.01200E+00 1.09375E+00 0.00000E+00
 -1      1470 4.51200E+00 1.09375E+00 0.00000E+00
 -1      1471 4.37400E+00 2.18750E+00 0.00000E+00
 -1      1472 9.01200E+00 1.09375E+00 0.00000E+00
 -1      1473 7.51200E+00 1.09375E+00 0.00000E+00
 -1      1474 7.37400E+00 2.18750E+00 0.00000E+00
 -1      1475 1.20120E+01 1.09375E+00 0.00000E+00
 -1      1476 1.05120E+01 1.09375E+00 0.00000E+00
 -1      1477 1.03740E+01 2.18750E+00 0.00000E+00
 -1      1478 1.50120E+01 1.09375E+00 0.00000E+00
 -1      1479 1.35120E+01 1.09375E+00 0.00000E+00
 -1      1480 1.33740E+01 2.18750E+00 0.00000E+00
 -1      1481 1.80120E+01 1.09375E+00 0.00000E+00
 -1      1482 1.65120E+01 1.09375E+00 0.00000E+00
 -1      1483 1.63740E+01 2.18750E+00 0.00000E+00
 -1      1484 2.10120E+01 1.09375E+00 0.00000E+00
 -1      1485 1.95120E+01 1.09375E+00 0.00000E+00
 -1      1486 1.93740E+01 2.18750E+00 0.00000E+00
 -1      1487 2.40120E+01 1.09375E+00 0.00000E+00
 -1      1488 2.25120E+01 1.09375E+00 0.00000E+00
 -1      1489 2.23740E+01 2.18750E+00 0.00000E+00
 -1      1490 2.70120E+01 1.09375E+00 0.00000E+00
 -1      1491 2.55120E+01 1.09375E+00 0.00000E+00
 -1      1492 2.53740E+01 2.18750E+00 0.00000E+00
 -1      1493 3.00120E+01 1.09375E+00 0.00000E+00
 -1      1494 2.85120E+01 1.09375E+00 0.00000E+00
 -1      1495 2.83740E+01 2.18750E+00 0.00000E+00
 -1      1496 3.30120E+01 1.09375E+00 0.00000E+00
 -1      1497 3.15120E+01 1.09375E+00 0.00000E+00
 -1      1498 3.13740E+01 2.18750E+00 0.00000E+00
 -1      1499 3.60120E+01 1.09375E+00 0.00000E+00
 -1      1500 3.45120E+01 1.09375E+00 0.00000E+00
 -1      1501 3.43740E+01 2.18750E+00 0.00000E+00
 -1      1502 3.90120E+01 1.09375E+00 0.00000E+00
 -1      1503 3.75120E+01 1.09375E+00 0.00000E+00
 -1      1504 3.73740E+01 2.18750E+00 0.00000E+00
 -1      1505 4.20120E+01 1.09375E+00 0.00000E+00
 -1      1506 4.05120E+01 1.09375E+00 0.00000E+00
 -1      1507 4.03740E+01 2.18750E+00 0.00000E+00
 -1      1508 4.50120E+01 1.09375E+00 0.00000E+00
 -1      1509 4.35120E+01 1.09375E+00 0.00000E+00
 -1      1510 4.33740E+01 2.18750E+00 0.00000E+00
 -1      1511 4.80120E+01 1.09375E+00 0.00000E+00
 -1      1512 4.65120E+01 1.09375E+00 0.00000E+00
 -1      1513 4.63740E+01 2.18750E+00 0.00000E+00
 -1      1514 5.10120E+01 1.09375E+00 0.00000E+00
 -1      1515 4.95120E+01 1.09375E+00 0.00000E+00
 -1      1516 4.93740E+01 2.18750E+00 0.00000E+00
 -1      1517 5.40120E+01 1.09375E+00 0.00000E+00
 -1      1518 5.25120E+01 1.09375E+00 0.00000E+00
 -1      1519 5.23740E+01 2.18750E+00 0.00000E+00
 -1      1520 5.70120E+01 1.09375E+00 0.00000E+00
 -1      1521 5.55120E+01 1.09375E+00 0.00000E+00
 -1      1522 5.53740E+01 2.18750E+00 0.00000E+00
 -1      1523 6.00120E+01 1.09375E+00 0.00000E+00
 -1      1524 5.85120E+01 1.09375E+00 0.00000E+00
 -1      1525 5.83740E+01 2.18750E+00 0.00000E+00
 -1      1526 6.30120E+01 1.09375E+00 0.00000E+00
 -1      1527 6.15120E+01 1.09375E+00 0.00000E+00
 -1      1528 6.13740E+01 2.18750E+00 0.00000E+00
 -1      1529 6.60120E+01 1.09375E+00 0.00000E+00
 -1      1530 6.45120E+01 1.09375E+00 0.00000E+00
 -1      1531 6.43740E+01 2.18750E+00 0.00000E+00
 -1      1532 6.90120E+01 1.09375E+00 0.00000E+00
 -1      1533 6.75120E+01 1.09375E+00 0.00000E+00
 -1      1534 6.73740E+01 2.18750E+00 0.00000E+00
 -1      1535 7.20120E+01 1.09375E+00 0.00000E+00
 -1      1536 7.05120E+01 1.09375E+00 0.00000E+00
 -1      1537 7.03740E+01 2.18750E+00 0.00000E+00
 -1      1538 7.50120E+01 1.09375E+00 0.00000E+00
 -1      1539 7.35120E+01 1.09375E+00 0.00000E+00
 -1      1540 7.33740E+01 2.18750E+00 0.00000E+00
 -1      1541 7.80120E+01 1.09375E+00 0.00000E+00
 -1      1542 7.65120E+01 1.09375E+00 0.00000E+00
 -1      1543 7.63740E+01 2.18750E+00 0.00000E+00
 -1      1544 8.10120E+01 1.09375E+00 0.00000E+00
 -1      1545 7.95120E+01 1.09375E+00 0.00000E+00
 -1      1546 7.93740E+01 2.18750E+00 0.00000E+00
 -1      1547 8.40120E+01 1.09375E+00 0.00000E+00
 -1      1548 8.25120E+01 1.09375E+00 0.00000E+00
 -1      1549 8.23740E+01 2.18750E+00 0.00000E+00
 -1      1550 8.70120E+01 1.09375E+00 0.00000E+00
 -1      1551 8.55120E+01 1.09375E+00 0.00000E+00
 -1      1552 8.53740E+01 2.18750E+00 0.00000E+00
 -1      1553 9.00120E+01 1.09375E+00 0.00000E+00
 -1      1554 8.85120E+01 1.09375E+00 0.00000E+00
 -1      1555 8.83740E+01 2.18750E+00 0.00000E+00
 -1      1556 9.30120E+01 1.09375E+00 0.00000E+00
 -1      1557 9.15120E+01 1.09375E+00 0.00000E+00
 -1      1558 9.13740E+01 2.18750E+00 0.00000E+00
 -1      1559 9.60120E+01 1.09375E+00 0.00000E+00
 -1      1560 9.45120E+01 1.09375E+00 0.00000E+00
 -1      1561 9.43740E+01 2.18750E+00 0.00000E+00
 -1      1562 9.90120E+01 1.09375E+00 0.00000E+00
 -1      1563 9.75120E+01 1.09375E+00 0.00000E+00
 -1      1564 9.73740E+01 2.18750E+00 0.00000E+00
 -1      1565 1.02012E+02 1.09375E+00 0.00000E+00
 -1      1566 1.00512E+02 1.09375E+00 0.00000E+00
 -1      1567 1.00374E+02 2.18750E+00 0.00000E+00
 -1      1568 1.05012E+02 1.09375E+00 0.00000E+00
 -1      1569 1.03512E+02 1.09375E+00 0.00000E+00
 -1      1570 1.03374E+02 2.18750E+00 0.00000E+00
 -1      1571 1.08012E+02 1.09375E+00 0.00000E+00
 -1      1572 1.06512E+02 1.09375E+00 0.00000E+00
 -1      1573 1.06374E+02 2.18750E+00 0.00000E+00
 -1      1574 1.11012E+02 1.09375E+00 0.00000E+00
 -1      1575 1.09512E+02 1.09375E+00 0.00000E+00
 -1      1576 1.09374E+02 2.18750E+00 0.00000E+00
 -1      1577 1.14012E+02 1.09375E+00 0.00000E+00
 -1      1578 1.12512E+02 1.09375E+00 0.00000E+00
 -1      1579 1.12374E+02 2.18750E+00 0.00000E+00
 -1      1580 1.17012E+02 1.09375E+00 0.00000E+00
 -1      1581 1.15512E+02 1.09375E+00 0.00000E+00
 -1      1582 1.15374E+02 2.18750E+00 0.00000E+00
 -1      1583 1.20012E+02 1.09375E+00 0.00000E+00
 -1      1584 1.18512E+02 1.09375E+00 0.00000E+00
 -1      1585 1.18374E+02 2.18750E+00 0.00000E+00
 -1      1586 1.23012E+02 1.09375E+00 0.00000E+00
 -1      1587 1.21512E+02 1.09375E+00 0.00000E+00
 -1      1588 1.21374E+02 2.18750E+00 0.00000E+00
 -1      1589 1.26012E+02 1.09375E+00 0.00000E+00
 -1      1590 1.24512E+02 1.09375E+00 0.00000E+00
 -1      1591 1.24374E+02 2.18750E+00 0.00000E+00
 -1      1592 1.29012E+02 1.09375E+00 0.00000E+00
 -1      1593 1.27512E+02 1.09375E+00 0.00000E+00
 -1      1594 1.27374E+02 2.18750E+00 0.00000E+00
 -1      1595 1.32012E+02 1.09375E+00 0.00000E+00
 -1      1596 1.30512E+02 1.09375E+00 0.00000E+00
 -1      1597 1.30374E+02 2.18750E+00 0.00000E+00
 -1      1598 1.35012E+02 1.09375E+00 0.00000E+00
 -1      1599 1.33512E+02 1.09375E+00 0.00000E+00
 -1      1600 1.33374E+02 2.18750E+00 0.00000E+00
 -1      1601 1.38012E+02 1.09375E+00 0.00000E+00
 -1      1602 1.36512E+02 1.09375E+00 0.00000E+00
 -1      1603 1.36374E+02 2.18750E+00 0.00000E+00
 -1      1604 1.41012E+02 1.09375E+00 0.00000E+00
 -1      1605 1.39512E+02 1.09375E+00 0.00000E+00
 -1      1606 1.39374E+02 2.18750E+00 0.00000E+00
 -1      1607 1.44012E+02 1.09375E+00 0.00000E+00
 -1      1608 1.42512E+02 1.09375E+00 0.00000E+00
 -1      1609 1.42374E+02 2.18750E+00 0.00000E+00
 -1      1610 1.47012E+02 1.09375E+00 0.00000E+00
 -1      1611 1.45512E+02 1.09375E+00 0.00000E+00
 -1      1612 1.45374E+02 2.18750E+00 0.00000E+00
 -1      1613 1.48575E+02 1.52500E+00 0.00000E+00
 -1      1614 1.48701E+02 5.33750E+00 0.00000E+00
 -1      1615 1.48701E+02 3.81250E+00 0.00000E+00
 -1      1616 1.48701E+02 8.38750E+00 0.00000E+00
 -1      1617 1.48701E+02 6.86250E+00 0.00000E+00
 -1      1618 1.47402E+02 6.10000E+00 0.00000E+00
 -1      1619 1.48701E+02 1.13875E+01 0.00000E+00
 -1      1620 1.48701E+02 9.88750E+00 0.00000E+00
 -1      1621 1.47402E+02 9.12500E+00 0.00000E+00
 -1      1622 1.48701E+02 1.44375E+01 0.00000E+00
 -1      1623 1.48701E+02 1.29125E+01 0.00000E+00
 -1      1624 1.47402E+02 1.21500E+01 0.00000E+00
 -1      1625 1.48701E+02 1.74875E+01 0.00000E+00
 -1      1626 1.48701E+02 1.59625E+01 0.00000E+00
 -1      1627 1.47402E+02 1.52000E+01 0.00000E+00
 -1      1628 1.48701E+02 2.04875E+01 0.00000E+00
 -1      1629 1.48701E+02 1.89875E+01 0.00000E+00
 -1      1630 1.47402E+02 1.82250E+01 0.00000E+00
 -1      1631 1.48701E+02 2.34875E+01 0.00000E+00
 -1      1632 1.48701E+02 2.19875E+01 0.00000E+00
 -1      1633 1.47402E+02 2.12250E+01 0.00000E+00
 -1      1634 1.48701E+02 2.61375E+01 0.00000E+00
 -1      1635 1.48701E+02 2.48125E+01 0.00000E+00
 -1      1636 1.47402E+02 2.40500E+01 0.00000E+00
 -1      1637 1.48701E+02 2.89375E+01 0.00000E+00
 -1      1638 1.48701E+02 2.75375E+01 0.00000E+00
 -1      1639 1.47402E+02 2.67750E+01 0.00000E+00
 -1      1640 1.48701E+02 3.14875E+01 0.00000E+00
 -1      1641 1.48701E+02 3.02125E+01 0.00000E+00
 -1      1642 1.47402E+02 2.94500E+01 0.00000E+00
 -1      1643 1.48701E+02 3.40875E+01 0.00000E+00
 -1      1644 1.48701E+02 3.27875E+01 0.00000E+00
 -1      1645 1.47402E+02 3.20250E+01 0.00000E+00
 -1      1646 1.48701E+02 3.71375E+01 0.00000E+00
 -1      1647 1.48701E+02 3.56125E+01 0.00000E+00
 -1      1648 1.47402E+02 3.48500E+01 0.00000E+00
 -1      1649 1.48701E+02 4.01375E+01 0.00000E+00
 -1      1650 1.48701E+02 3.86375E+01 0.00000E+00
 -1      1651 1.47402E+02 3.78750E+01 0.00000E+00
 -1      1652 1.48701E+02 4.31875E+01 0.00000E+00
 -1      1653 1.48701E+02 4.16625E+01 0.00000E+00
 -1      1654 1.47402E+02 4.09000E+01 0.00000E+00
 -1      1655 1.48263E+02 4.59567E+01 0.00000E+00
 -1      1656 1.48263E+02 4.44318E+01 0.00000E+00
 -1      1657 1.46964E+02 4.36693E+01 0.00000E+00
 -1      1658 1.46088E+02 4.61577E+01 0.00000E+00
 -1      1659 1.39753E+02 2.86833E+01 0.00000E+00
 -1      1660 1.39823E+02 2.93804E+01 0.00000E+00
 -1      1661 1.39401E+02 2.71474E+01 0.00000E+00
 -1      1662 1.39622E+02 2.78493E+01 0.00000E+00
 -1      1663 1.38733E+02 2.56285E+01 0.00000E+00
 -1      1664 1.39115E+02 2.62943E+01 0.00000E+00
 -1      1665 1.37665E+02 2.43677E+01 0.00000E+00
 -1      1666 1.38167E+02 2.49198E+01 0.00000E+00
 -1      1667 1.36373E+02 2.34286E+01 0.00000E+00
 -1      1668 1.36962E+02 2.38517E+01 0.00000E+00
 -1      1669 1.34970E+02 2.26719E+01 0.00000E+00
 -1      1670 1.35646E+02 2.29679E+01 0.00000E+00
 -1      1671 1.33457E+02 2.23070E+01 0.00000E+00
 -1      1672 1.34150E+02 2.24517E+01 0.00000E+00
 -1      1673 1.31836E+02 2.21435E+01 0.00000E+00
 -1      1674 1.32601E+02 2.21398E+01 0.00000E+00
 -1      1675 1.30131E+02 2.23477E+01 0.00000E+00
 -1      1676 1.30899E+02 2.21702E+01 0.00000E+00
 -1      1677 1.28706E+02 2.30936E+01 0.00000E+00
 -1      1678 1.29343E+02 2.27927E+01 0.00000E+00
 -1      1679 1.27275E+02 2.38625E+01 0.00000E+00
 -1      1680 1.27876E+02 2.34051E+01 0.00000E+00
 -1      1681 1.26289E+02 2.50235E+01 0.00000E+00
 -1      1682 1.26782E+02 2.44430E+01 0.00000E+00
 -1      1683 1.26615E+02 2.35983E+01 0.00000E+00
 -1      1684 1.25400E+02 2.65638E+01 0.00000E+00
 -1      1685 1.25748E+02 2.59103E+01 0.00000E+00
 -1      1686 1.24889E+02 2.80015E+01 0.00000E+00
 -1      1687 1.25083E+02 2.73374E+01 0.00000E+00
 -1      1688 1.24682E+02 2.94983E+01 0.00000E+00
 -1      1689 1.24741E+02 2.88008E+01 0.00000E+00
 -1      1690 1.24714E+02 3.11204E+01 0.00000E+00
 -1      1691 1.24619E+02 3.03630E+01 0.00000E+00
 -1      1692 1.25219E+02 3.26059E+01 0.00000E+00
 -1      1693 1.24989E+02 3.19435E+01 0.00000E+00
 -1      1694 1.25906E+02 3.40709E+01 0.00000E+00
 -1      1695 1.25513E+02 3.34204E+01 0.00000E+00
 -1      1696 1.27010E+02 3.53120E+01 0.00000E+00
 -1      1697 1.26486E+02 3.47616E+01 0.00000E+00
 -1      1698 1.28281E+02 3.62419E+01 0.00000E+00
 -1      1699 1.27694E+02 3.58412E+01 0.00000E+00
 -1      1700 1.29677E+02 3.70026E+01 0.00000E+00
 -1      1701 1.28994E+02 3.67205E+01 0.00000E+00
 -1      1702 1.31261E+02 3.73422E+01 0.00000E+00
 -1      1703 1.30531E+02 3.72097E+01 0.00000E+00
 -1      1704 1.32795E+02 3.73502E+01 0.00000E+00
 -1      1705 1.32103E+02 3.73679E+01 0.00000E+00
 -1      1706 1.34268E+02 3.70976E+01 0.00000E+00
 -1      1707 1.33596E+02 3.72502E+01 0.00000E+00
 -1      1708 1.35736E+02 3.65666E+01 0.00000E+00
 -1      1709 1.35071E+02 3.68690E+01 0.00000E+00
 -1      1710 1.37070E+02 3.56375E+01 0.00000E+00
 -1      1711 1.36465E+02 3.60871E+01 0.00000E+00
 -1      1712 1.38181E+02 3.45119E+01 0.00000E+00
 -1      1713 1.37705E+02 3.50547E+01 0.00000E+00
 -1      1714 1.39118E+02 3.31882E+01 0.00000E+00
 -1      1715 1.38751E+02 3.38473E+01 0.00000E+00
 -1      1716 1.39635E+02 3.16862E+01 0.00000E+00
 -1      1717 1.39425E+02 3.23707E+01 0.00000E+00
 -1      1718 1.39825E+02 3.01899E+01 0.00000E+00
 -1      1719 1.39758E+02 3.08717E+01 0.00000E+00
 -1      1720 1.37724E+02 2.36636E+01 0.00000E+00
 -1      1721 1.38993E+02 2.48883E+01 0.00000E+00
 -1      1722 1.48437E+02 2.61875E+00 0.00000E+00
 -1      1723 1.47138E+02 3.38125E+00 0.00000E+00
 -1      1724 1.40261E+02 2.81372E+01 0.00000E+00
 -1      1725 1.39844E+02 2.64501E+01 0.00000E+00
 -1      1726 1.40393E+02 2.97806E+01 0.00000E+00
 -1      1727 1.36295E+02 2.26869E+01 0.00000E+00
 -1      1728 1.34748E+02 2.20061E+01 0.00000E+00
 -1      1729 1.33072E+02 2.16188E+01 0.00000E+00
 -1      1730 1.31278E+02 2.14784E+01 0.00000E+00
 -1      1731 1.29553E+02 2.19500E+01 0.00000E+00
 -1      1732 1.27936E+02 2.27064E+01 0.00000E+00
 -1      1733 1.24722E+02 2.67261E+01 0.00000E+00
 -1      1734 1.24256E+02 2.82990E+01 0.00000E+00
 -1      1735 1.24045E+02 2.99629E+01 0.00000E+00
 -1      1736 1.24257E+02 3.16506E+01 0.00000E+00
 -1      1737 1.24825E+02 3.32881E+01 0.00000E+00
 -1      1738 1.25699E+02 3.47932E+01 0.00000E+00
 -1      1739 1.26962E+02 3.60130E+01 0.00000E+00
 -1      1740 1.28359E+02 3.70207E+01 0.00000E+00
 -1      1741 1.29926E+02 3.77065E+01 0.00000E+00
 -1      1742 1.31622E+02 3.79393E+01 0.00000E+00
 -1      1743 1.33265E+02 3.78650E+01 0.00000E+00
 -1      1744 1.34869E+02 3.75364E+01 0.00000E+00
 -1      1745 1.36400E+02 3.68284E+01 0.00000E+00
 -1      1746 1.37764E+02 3.57661E+01 0.00000E+00
 -1      1747 1.38968E+02 3.45186E+01 0.00000E+00
 -1      1748 1.39843E+02 3.30365E+01 0.00000E+00
 -1      1749 1.40272E+02 3.14046E+01 0.00000E+00
 -1      1750 2.87400E+00 4.77875E+01 0.00000E+00
 -1      1751 1.25581E+02 2.50656E+01 0.00000E+00
 -1      1752 3.89700E+00 4.04125E+01 0.00000E+00
 -1      1753 3.89700E+00 4.18875E+01 0.00000E+00
 -1      1754 3.89700E+00 4.33625E+01 0.00000E+00
 -1      1755 3.89700E+00 4.48375E+01 0.00000E+00
 -1      1756 5.19600E+00 4.26250E+01 0.00000E+00
 -1      1757 3.89700E+00 3.45500E+01 0.00000E+00
 -1      1758 3.89700E+00 3.60000E+01 0.00000E+00
 -1      1759 3.89700E+00 3.16000E+01 0.00000E+00
 -1      1760 3.89700E+00 3.30750E+01 0.00000E+00
 -1      1761 5.19600E+00 3.38000E+01 0.00000E+00
 -1      1762 3.89700E+00 2.86500E+01 0.00000E+00
 -1      1763 3.89700E+00 3.01250E+01 0.00000E+00
 -1      1764 5.19600E+00 3.08500E+01 0.00000E+00
 -1      1765 3.89700E+00 2.57000E+01 0.00000E+00
 -1      1766 3.89700E+00 2.71750E+01 0.00000E+00
 -1      1767 5.19600E+00 2.79000E+01 0.00000E+00
 -1      1768 3.89700E+00 2.27500E+01 0.00000E+00
 -1      1769 3.89700E+00 2.42250E+01 0.00000E+00
 -1      1770 5.19600E+00 2.49500E+01 0.00000E+00
 -1      1771 3.89700E+00 1.98000E+01 0.00000E+00
 -1      1772 3.89700E+00 2.12750E+01 0.00000E+00
 -1      1773 5.19600E+00 2.20000E+01 0.00000E+00
 -1      1774 3.89700E+00 1.69000E+01 0.00000E+00
 -1      1775 3.89700E+00 1.83500E+01 0.00000E+00
 -1      1776 5.19600E+00 1.90750E+01 0.00000E+00
 -1      1777 3.89700E+00 1.39500E+01 0.00000E+00
 -1      1778 3.89700E+00 1.54250E+01 0.00000E+00
 -1      1779 5.19600E+00 1.61500E+01 0.00000E+00
 -1      1780 3.89700E+00 1.10000E+01 0.00000E+00
 -1      1781 3.89700E+00 1.24750E+01 0.00000E+00
 -1      1782 5.19600E+00 1.32000E+01 0.00000E+00
 -1      1783 3.89700E+00 8.05000E+00 0.00000E+00
 -1      1784 3.89700E+00 9.52500E+00 0.00000E+00
 -1      1785 5.19600E+00 1.02500E+01 0.00000E+00
 -1      1786 3.89700E+00 5.10000E+00 0.00000E+00
 -1      1787 3.89700E+00 6.57500E+00 0.00000E+00
 -1      1788 5.19600E+00 7.30000E+00 0.00000E+00
 -1      1789 4.20450E+00 3.09687E+00 0.00000E+00
 -1      1790 4.06650E+00 4.19063E+00 0.00000E+00
 -1      1791 5.36550E+00 4.91563E+00 0.00000E+00
 -1      1792 5.70450E+00 3.09687E+00 0.00000E+00
 -1      1793 3.62400E+00 4.64885E+01 0.00000E+00
 -1      1794 8.70450E+00 3.09687E+00 0.00000E+00
 -1      1795 7.20450E+00 3.09687E+00 0.00000E+00
 -1      1796 7.03500E+00 4.00625E+00 0.00000E+00
 -1      1797 1.24614E+02 2.50839E+01 0.00000E+00
 -1      1798 1.25155E+02 2.41971E+01 0.00000E+00
 -1      1799 4.92300E+00 4.57510E+01 0.00000E+00
 -1      1800 8.40000E+00 4.61030E+01 0.00000E+00
 -1      1801 9.90000E+00 4.61030E+01 0.00000E+00
 -1      1802 1.14000E+01 4.61030E+01 0.00000E+00
 -1      1803 1.29000E+01 4.61030E+01 0.00000E+00
 -1      1804 1.06500E+01 4.48040E+01 0.00000E+00
 -1      1805 1.44000E+01 4.61030E+01 0.00000E+00
 -1      1806 1.59000E+01 4.61030E+01 0.00000E+00
 -1      1807 1.36500E+01 4.48040E+01 0.00000E+00
 -1      1808 1.74000E+01 4.61030E+01 0.00000E+00
 -1      1809 1.89000E+01 4.61030E+01 0.00000E+00
 -1      1810 1.66500E+01 4.48040E+01 0.00000E+00
 -1      1811 2.04000E+01 4.61030E+01 0.00000E+00
 -1      1812 2.19000E+01 4.61030E+01 0.00000E+00
 -1      1813 1.96500E+01 4.48040E+01 0.00000E+00
 -1      1814 2.34000E+01 4.61030E+01 0.00000E+00
 -1      1815 2.49000E+01 4.61030E+01 0.00000E+00
 -1      1816 2.26500E+01 4.48040E+01 0.00000E+00
 -1      1817 2.64000E+01 4.61030E+01 0.00000E+00
 -1      1818 2.79000E+01 4.61030E+01 0.00000E+00
 -1      1819 2.56500E+01 4.48040E+01 0.00000E+00
 -1      1820 2.94000E+01 4.61030E+01 0.00000E+00
 -1      1821 3.09000E+01 4.61030E+01 0.00000E+00
 -1      1822 2.86500E+01 4.48040E+01 0.00000E+00
 -1      1823 3.24000E+01 4.61030E+01 0.00000E+00
 -1      1824 3.39000E+01 4.61030E+01 0.00000E+00
 -1      1825 3.16500E+01 4.48040E+01 0.00000E+00
 -1      1826 3.54000E+01 4.61030E+01 0.00000E+00
 -1      1827 3.69000E+01 4.61030E+01 0.00000E+00
 -1      1828 3.46500E+01 4.48040E+01 0.00000E+00
 -1      1829 3.84000E+01 4.61030E+01 0.00000E+00
 -1      1830 3.99000E+01 4.61030E+01 0.00000E+00
 -1      1831 3.76500E+01 4.48040E+01 0.00000E+00
 -1      1832 4.14000E+01 4.61030E+01 0.00000E+00
 -1      1833 4.29000E+01 4.61030E+01 0.00000E+00
 -1      1834 4.06500E+01 4.48040E+01 0.00000E+00
 -1      1835 4.44000E+01 4.61030E+01 0.00000E+00
 -1      1836 4.59000E+01 4.61030E+01 0.00000E+00
 -1      1837 4.36500E+01 4.48040E+01 0.00000E+00
 -1      1838 4.74000E+01 4.61030E+01 0.00000E+00
 -1      1839 4.89000E+01 4.61030E+01 0.00000E+00
 -1      1840 4.66500E+01 4.48040E+01 0.00000E+00
 -1      1841 5.04000E+01 4.61030E+01 0.00000E+00
 -1      1842 5.19000E+01 4.61030E+01 0.00000E+00
 -1      1843 4.96500E+01 4.48040E+01 0.00000E+00
 -1      1844 5.34000E+01 4.61030E+01 0.00000E+00
 -1      1845 5.49000E+01 4.61030E+01 0.00000E+00
 -1      1846 5.26500E+01 4.48040E+01 0.00000E+00
 -1      1847 5.64000E+01 4.61030E+01 0.00000E+00
 -1      1848 5.79000E+01 4.61030E+01 0.00000E+00
 -1      1849 5.56500E+01 4.48040E+01 0.00000E+00
 -1      1850 5.94000E+01 4.61030E+01 0.00000E+00
 -1      1851 6.09000E+01 4.61030E+01 0.00000E+00
 -1      1852 5.86500E+01 4.48040E+01 0.00000E+00
 -1      1853 6.24000E+01 4.61030E+01 0.00000E+00
 -1      1854 6.39000E+01 4.61030E+01 0.00000E+00
 -1      1855 6.16500E+01 4.48040E+01 0.00000E+00
 -1      1856 6.54000E+01 4.61030E+01 0.00000E+00
 -1      1857 6.69000E+01 4.61030E+01 0.00000E+00
 -1      1858 6.46500E+01 4.48040E+01 0.00000E+00
 -1      1859 6.84000E+01 4.61030E+01 0.00000E+00
 -1      1860 6.99000E+01 4.61030E+01 0.00000E+00
 -1      1861 6.76500E+01 4.48040E+01 0.00000E+00
 -1      1862 7.14000E+01 4.61030E+01 0.00000E+00
 -1      1863 7.29000E+01 4.61030E+01 0.00000E+00
 -1      1864 7.06500E+01 4.48040E+01 0.00000E+00
 -1      1865 7.44000E+01 4.61030E+01 0.00000E+00
 -1      1866 7.59000E+01 4.61030E+01 0.00000E+00
 -1      1867 7.36500E+01 4.48040E+01 0.00000E+00
 -1      1868 7.74000E+01 4.61030E+01 0.00000E+00
 -1      1869 7.89000E+01 4.61030E+01 0.00000E+00
 -1      1870 7.66500E+01 4.48040E+01 0.00000E+00
 -1      1871 8.04000E+01 4.61030E+01 0.00000E+00
 -1      1872 8.19000E+01 4.61030E+01 0.00000E+00
 -1      1873 7.96500E+01 4.48040E+01 0.00000E+00
 -1      1874 8.34000E+01 4.61030E+01 0.00000E+00
 -1      1875 8.49000E+01 4.61030E+01 0.00000E+00
 -1      1876 8.26500E+01 4.48040E+01 0.00000E+00
 -1      1877 8.64000E+01 4.61030E+01 0.00000E+00
 -1      1878 8.79000E+01 4.61030E+01 0.00000E+00
 -1      1879 8.56500E+01 4.48040E+01 0.00000E+00
 -1      1880 8.94000E+01 4.61030E+01 0.00000E+00
 -1      1881 9.09000E+01 4.61030E+01 0.00000E+00
 -1      1882 8.86500E+01 4.48040E+01 0.00000E+00
 -1      1883 9.24000E+01 4.61030E+01 0.00000E+00
 -1      1884 9.39000E+01 4.61030E+01 0.00000E+00
 -1      1885 9.16500E+01 4.48040E+01 0.00000E+00
 -1      1886 9.54000E+01 4.61030E+01 0.00000E+00
 -1      1887 9.69000E+01 4.61030E+01 0.00000E+00
 -1      1888 9.46500E+01 4.48040E+01 0.00000E+00
 -1      1889 9.84000E+01 4.61030E+01 0.00000E+00
 -1      1890 9.99000E+01 4.61030E+01 0.00000E+00
 -1      1891 9.76500E+01 4.48040E+01 0.00000E+00
 -1      1892 1.01400E+02 4.61030E+01 0.00000E+00
 -1      1893 1.02900E+02 4.61030E+01 0.00000E+00
 -1      1894 1.00650E+02 4.48040E+01 0.00000E+00
 -1      1895 1.04400E+02 4.61030E+01 0.00000E+00
 -1      1896 1.05900E+02 4.61030E+01 0.00000E+00
 -1      1897 1.03650E+02 4.48040E+01 0.00000E+00
 -1      1898 1.07400E+02 4.61030E+01 0.00000E+00
 -1      1899 1.08900E+02 4.61030E+01 0.00000E+00
 -1      1900 1.06650E+02 4.48040E+01 0.00000E+00
 -1      1901 1.10400E+02 4.61030E+01 0.00000E+00
 -1      1902 1.11900E+02 4.61030E+01 0.00000E+00
 -1      1903 1.09650E+02 4.48040E+01 0.00000E+00
 -1      1904 1.13400E+02 4.61030E+01 0.00000E+00
 -1      1905 1.14900E+02 4.61030E+01 0.00000E+00
 -1      1906 1.12650E+02 4.48040E+01 0.00000E+00
 -1      1907 1.16400E+02 4.61030E+01 0.00000E+00
 -1      1908 1.17900E+02 4.61030E+01 0.00000E+00
 -1      1909 1.15650E+02 4.48040E+01 0.00000E+00
 -1      1910 1.19400E+02 4.61030E+01 0.00000E+00
 -1      1911 1.20900E+02 4.61030E+01 0.00000E+00
 -1      1912 1.18650E+02 4.48040E+01 0.00000E+00
 -1      1913 1.22400E+02 4.61030E+01 0.00000E+00
 -1      1914 1.23900E+02 4.61030E+01 0.00000E+00
 -1      1915 1.21650E+02 4.48040E+01 0.00000E+00
 -1      1916 1.25400E+02 4.61030E+01 0.00000E+00
 -1      1917 1.26900E+02 4.61030E+01 0.00000E+00
 -1      1918 1.24650E+02 4.48040E+01 0.00000E+00
 -1      1919 1.28400E+02 4.61030E+01 0.00000E+00
 -1      1920 1.29900E+02 4.61030E+01 0.00000E+00
 -1      1921 1.27650E+02 4.48040E+01 0.00000E+00
 -1      1922 1.31400E+02 4.61030E+01 0.00000E+00
 -1      1923 1.32900E+02 4.61030E+01 0.00000E+00
 -1      1924 1.30650E+02 4.48040E+01 0.00000E+00
 -1      1925 1.34400E+02 4.61030E+01 0.00000E+00
 -1      1926 1.35900E+02 4.61030E+01 0.00000E+00
 -1      1927 1.33650E+02 4.48040E+01 0.00000E+00
 -1      1928 1.37400E+02 4.61030E+01 0.00000E+00
 -1      1929 1.38900E+02 4.61030E+01 0.00000E+00
 -1      1930 1.36650E+02 4.48040E+01 0.00000E+00
 -1      1931 1.40400E+02 4.61030E+01 0.00000E+00
 -1      1932 1.41900E+02 4.61030E+01 0.00000E+00
 -1      1933 1.39650E+02 4.48040E+01 0.00000E+00
 -1      1934 1.43244E+02 4.61304E+01 0.00000E+00
 -1      1935 1.44744E+02 4.61304E+01 0.00000E+00
 -1      1936 1.45182E+02 4.48861E+01 0.00000E+00
 -1      1937 1.42494E+02 4.48314E+01 0.00000E+00
 -1      1938 1.17045E+01 3.09687E+00 0.00000E+00
 -1      1939 1.02045E+01 3.09687E+00 0.00000E+00
 -1      1940 1.00350E+01 4.00625E+00 0.00000E+00
 -1      1941 1.47045E+01 3.09687E+00 0.00000E+00
 -1      1942 1.32045E+01 3.09687E+00 0.00000E+00
 -1      1943 1.30350E+01 4.00625E+00 0.00000E+00
 -1      1944 1.77045E+01 3.09687E+00 0.00000E+00
 -1      1945 1.62045E+01 3.09687E+00 0.00000E+00
 -1      1946 1.60350E+01 4.00625E+00 0.00000E+00
 -1      1947 2.07045E+01 3.09687E+00 0.00000E+00
 -1      1948 1.92045E+01 3.09687E+00 0.00000E+00
 -1      1949 1.90350E+01 4.00625E+00 0.00000E+00
 -1      1950 2.37045E+01 3.09687E+00 0.00000E+00
 -1      1951 2.22045E+01 3.09687E+00 0.00000E+00
 -1      1952 2.20350E+01 4.00625E+00 0.00000E+00
 -1      1953 2.67045E+01 3.09687E+00 0.00000E+00
 -1      1954 2.52045E+01 3.09687E+00 0.00000E+00
 -1      1955 2.50350E+01 4.00625E+00 0.00000E+00
 -1      1956 2.97045E+01 3.09687E+00 0.00000E+00
 -1      1957 2.82045E+01 3.09687E+00 0.00000E+00
 -1      1958 2.80350E+01 4.00625E+00 0.00000E+00
 -1      1959 3.27045E+01 3.09687E+00 0.00000E+00
 -1      1960 3.12045E+01 3.09687E+00 0.00000E+00
 -1      1961 3.10350E+01 4.00625E+00 0.00000E+00
 -1      1962 3.57045E+01 3.09687E+00 0.00000E+00
 -1      1963 3.42045E+01 3.09687E+00 0.00000E+00
 -1      1964 3.40350E+01 4.00625E+00 0.00000E+00
 -1      1965 3.87045E+01 3.09687E+00 0.00000E+00
 -1      1966 3.72045E+01 3.09687E+00 0.00000E+00
 -1      1967 3.70350E+01 4.00625E+00 0.00000E+00
 -1      1968 4.17045E+01 3.09687E+00 0.00000E+00
 -1      1969 4.02045E+01 3.09687E+00 0.00000E+00
 -1      1970 4.00350E+01 4.00625E+00 0.00000E+00
 -1      1971 4.47045E+01 3.09687E+00 0.00000E+00
 -1      1972 4.32045E+01 3.09687E+00 0.00000E+00
 -1      1973 4.30350E+01 4.00625E+00 0.00000E+00
 -1      1974 4.77045E+01 3.09687E+00 0.00000E+00
 -1      1975 4.62045E+01 3.09687E+00 0.00000E+00
 -1      1976 4.60350E+01 4.00625E+00 0.00000E+00
 -1      1977 5.07045E+01 3.09687E+00 0.00000E+00
 -1      1978 4.92045E+01 3.09687E+00 0.00000E+00
 -1      1979 4.90350E+01 4.00625E+00 0.00000E+00
 -1      1980 5.37045E+01 3.09687E+00 0.00000E+00
 -1      1981 5.22045E+01 3.09687E+00 0.00000E+00
 -1      1982 5.20350E+01 4.00625E+00 0.00000E+00
 -1      1983 5.67045E+01 3.09687E+00 0.00000E+00
 -1      1984 5.52045E+01 3.09687E+00 0.00000E+00
 -1      1985 5.50350E+01 4.00625E+00 0.00000E+00
 -1      1986 5.97045E+01 3.09687E+00 0.00000E+00
 -1      1987 5.82045E+01 3.09687E+00 0.00000E+00
 -1      1988 5.80350E+01 4.00625E+00 0.00000E+00
 -1      1989 6.27045E+01 3.09687E+00 0.00000E+00
 -1      1990 6.12045E+01 3.09687E+00 0.00000E+00
 -1      1991 6.10350E+01 4.00625E+00 0.00000E+00
 -1      1992 6.57045E+01 3.09687E+00 0.00000E+00
 -1      1993 6.42045E+01 3.09687E+00 0.00000E+00
 -1      1994 6.40350E+01 4.00625E+00 0.00000E+00
 -1      1995 6.87045E+01 3.09687E+00 0.00000E+00
 -1      1996 6.72045E+01 3.09687E+00 0.00000E+00
 -1      1997 6.70350E+01 4.00625E+00 0.00000E+00
 -1      1998 7.17045E+01 3.09687E+00 0.00000E+00
 -1      1999 7.02045E+01 3.09687E+00 0.00000E+00
 -1      2000 7.00350E+01 4.00625E+00 0.00000E+00
 -1      2001 7.47045E+01 3.09687E+00 0.00000E+00
 -1      2002 7.32045E+01 3.09687E+00 0.00000E+00
 -1      2003 7.30350E+01 4.00625E+00 0.00000E+00
 -1      2004 7.77045E+01 3.09687E+00 0.00000E+00
 -1      2005 7.62045E+01 3.09687E+00 0.00000E+00
 -1      2006 7.60350E+01 4.00625E+00 0.00000E+00
 -1      2007 8.07045E+01 3.09687E+00 0.00000E+00
 -1      2008 7.92045E+01 3.09687E+00 0.00000E+00
 -1      2009 7.90350E+01 4.00625E+00 0.00000E+00
 -1      2010 8.37045E+01 3.09687E+00 0.00000E+00
 -1      2011 8.22045E+01 3.09687E+00 0.00000E+00
 -1      2012 8.20350E+01 4.00625E+00 0.00000E+00
 -1      2013 8.67045E+01 3.09687E+00 0.00000E+00
 -1      2014 8.52045E+01 3.09687E+00 0.00000E+00
 -1      2015 8.50350E+01 4.00625E+00 0.00000E+00
 -1      2016 8.97045E+01 3.09687E+00 0.00000E+00
 -1      2017 8.82045E+01 3.09687E+00 0.00000E+00
 -1      2018 8.80350E+01 4.00625E+00 0.00000E+00
 -1      2019 9.27045E+01 3.09687E+00 0.00000E+00
 -1      2020 9.12045E+01 3.09687E+00 0.00000E+00
 -1      2021 9.10350E+01 4.00625E+00 0.00000E+00
 -1      2022 9.57045E+01 3.09687E+00 0.00000E+00
 -1      2023 9.42045E+01 3.09687E+00 0.00000E+00
 -1      2024 9.40350E+01 4.00625E+00 0.00000E+00
 -1      2025 9.87045E+01 3.09687E+00 0.00000E+00
 -1      2026 9.72045E+01 3.09687E+00 0.00000E+00
 -1      2027 9.70350E+01 4.00625E+00 0.00000E+00
 -1      2028 1.01704E+02 3.09687E+00 0.00000E+00
 -1      2029 1.00204E+02 3.09687E+00 0.00000E+00
 -1      2030 1.00035E+02 4.00625E+00 0.00000E+00
 -1      2031 1.04704E+02 3.09687E+00 0.00000E+00
 -1      2032 1.03204E+02 3.09687E+00 0.00000E+00
 -1      2033 1.03035E+02 4.00625E+00 0.00000E+00
 -1      2034 1.07704E+02 3.09687E+00 0.00000E+00
 -1      2035 1.06204E+02 3.09687E+00 0.00000E+00
 -1      2036 1.06035E+02 4.00625E+00 0.00000E+00
 -1      2037 1.10704E+02 3.09687E+00 0.00000E+00
 -1      2038 1.09204E+02 3.09687E+00 0.00000E+00
 -1      2039 1.09035E+02 4.00625E+00 0.00000E+00
 -1      2040 1.13704E+02 3.09687E+00 0.00000E+00
 -1      2041 1.12204E+02 3.09687E+00 0.00000E+00
 -1      2042 1.12035E+02 4.00625E+00 0.00000E+00
 -1      2043 1.16704E+02 3.09687E+00 0.00000E+00
 -1      2044 1.15204E+02 3.09687E+00 0.00000E+00
 -1      2045 1.15035E+02 4.00625E+00 0.00000E+00
 -1      2046 1.19704E+02 3.09687E+00 0.00000E+00
 -1      2047 1.18204E+02 3.09687E+00 0.00000E+00
 -1      2048 1.18035E+02 4.00625E+00 0.00000E+00
 -1      2049 1.22704E+02 3.09687E+00 0.00000E+00
 -1      2050 1.21204E+02 3.09687E+00 0.00000E+00
 -1      2051 1.21035E+02 4.00625E+00 0.00000E+00
 -1      2052 1.25704E+02 3.09687E+00 0.00000E+00
 -1      2053 1.24204E+02 3.09687E+00 0.00000E+00
 -1      2054 1.24035E+02 4.00625E+00 0.00000E+00
 -1      2055 1.28704E+02 3.09687E+00 0.00000E+00
 -1      2056 1.27204E+02 3.09687E+00 0.00000E+00
 -1      2057 1.27035E+02 4.00625E+00 0.00000E+00
 -1      2058 1.31704E+02 3.09687E+00 0.00000E+00
 -1      2059 1.30204E+02 3.09687E+00 0.00000E+00
 -1      2060 1.30035E+02 4.00625E+00 0.00000E+00
 -1      2061 1.34704E+02 3.09687E+00 0.00000E+00
 -1      2062 1.33204E+02 3.09687E+00 0.00000E+00
 -1      2063 1.33035E+02 4.00625E+00 0.00000E+00
 -1      2064 1.37704E+02 3.09687E+00 0.00000E+00
 -1      2065 1.36204E+02 3.09687E+00 0.00000E+00
 -1      2066 1.36035E+02 4.00625E+00 0.00000E+00
 -1      2067 1.40704E+02 3.09687E+00 0.00000E+00
 -1      2068 1.39204E+02 3.09687E+00 0.00000E+00
 -1      2069 1.39035E+02 4.00625E+00 0.00000E+00
 -1      2070 1.43704E+02 3.09687E+00 0.00000E+00
 -1      2071 1.42204E+02 3.09687E+00 0.00000E+00
 -1      2072 1.42035E+02 4.00625E+00 0.00000E+00
 -1      2073 1.46171E+02 3.23906E+00 0.00000E+00
 -1      2074 1.44671E+02 3.23906E+00 0.00000E+00
 -1      2075 1.44502E+02 4.14844E+00 0.00000E+00
 -1      2076 1.46435E+02 4.43281E+00 0.00000E+00
 -1      2077 1.46103E+02 1.29125E+01 0.00000E+00
 -1      2078 1.46103E+02 1.13875E+01 0.00000E+00
 -1      2079 1.46103E+02 9.88750E+00 0.00000E+00
 -1      2080 1.46103E+02 8.38750E+00 0.00000E+00
 -1      2081 1.44804E+02 1.06500E+01 0.00000E+00
 -1      2082 1.46269E+02 7.17266E+00 0.00000E+00
 -1      2083 1.46269E+02 5.64766E+00 0.00000E+00
 -1      2084 1.45302E+02 5.50547E+00 0.00000E+00
 -1      2085 1.44970E+02 7.93516E+00 0.00000E+00
 -1      2086 1.46103E+02 1.59625E+01 0.00000E+00
 -1      2087 1.46103E+02 1.44375E+01 0.00000E+00
 -1      2088 1.44804E+02 1.36750E+01 0.00000E+00
 -1      2089 1.46103E+02 1.89625E+01 0.00000E+00
 -1      2090 1.46103E+02 1.74625E+01 0.00000E+00
 -1      2091 1.44804E+02 1.67000E+01 0.00000E+00
 -1      2092 1.46103E+02 2.19625E+01 0.00000E+00
 -1      2093 1.46103E+02 2.04625E+01 0.00000E+00
 -1      2094 1.44804E+02 1.97000E+01 0.00000E+00
 -1      2095 1.46103E+02 2.46125E+01 0.00000E+00
 -1      2096 1.46103E+02 2.32875E+01 0.00000E+00
 -1      2097 1.44804E+02 2.25250E+01 0.00000E+00
 -1      2098 1.46103E+02 2.74125E+01 0.00000E+00
 -1      2099 1.46103E+02 2.60125E+01 0.00000E+00
 -1      2100 1.44804E+02 2.52500E+01 0.00000E+00
 -1      2101 1.46103E+02 2.99625E+01 0.00000E+00
 -1      2102 1.46103E+02 2.86875E+01 0.00000E+00
 -1      2103 1.44804E+02 2.79250E+01 0.00000E+00
 -1      2104 1.46461E+02 3.26750E+01 0.00000E+00
 -1      2105 1.46461E+02 3.13750E+01 0.00000E+00
 -1      2106 1.46209E+02 3.56125E+01 0.00000E+00
 -1      2107 1.46209E+02 3.40875E+01 0.00000E+00
 -1      2108 1.46209E+02 3.86125E+01 0.00000E+00
 -1      2109 1.46209E+02 3.71125E+01 0.00000E+00
 -1      2110 1.45017E+02 3.63500E+01 0.00000E+00
 -1      2111 1.46209E+02 4.16625E+01 0.00000E+00
 -1      2112 1.46209E+02 4.01375E+01 0.00000E+00
 -1      2113 1.45017E+02 3.93750E+01 0.00000E+00
 -1      2114 1.40475E+02 2.57650E+01 0.00000E+00
 -1      2115 1.40760E+02 2.66180E+01 0.00000E+00
 -1      2116 1.41166E+02 2.93743E+01 0.00000E+00
 -1      2117 1.41168E+02 3.01838E+01 0.00000E+00
 -1      2118 1.40835E+02 2.76196E+01 0.00000E+00
 -1      2119 1.40966E+02 2.84536E+01 0.00000E+00
 -1      2120 1.39249E+02 2.41033E+01 0.00000E+00
 -1      2121 1.39815E+02 2.48120E+01 0.00000E+00
 -1      2122 1.25810E+02 2.34151E+01 0.00000E+00
 -1      2123 1.26303E+02 2.28346E+01 0.00000E+00
 -1      2124 1.23544E+02 2.85803E+01 0.00000E+00
 -1      2125 1.23693E+02 2.77810E+01 0.00000E+00
 -1      2126 1.37780E+02 2.28494E+01 0.00000E+00
 -1      2127 1.38483E+02 2.33654E+01 0.00000E+00
 -1      2128 3.89700E+00 3.74688E+01 0.00000E+00
 -1      2129 3.89700E+00 3.89437E+01 0.00000E+00
 -1      2130 5.19600E+00 3.96813E+01 0.00000E+00
 -1      2131 5.19600E+00 3.67438E+01 0.00000E+00
 -1      2132 1.34549E+02 2.11082E+01 0.00000E+00
 -1      2133 1.35370E+02 2.13284E+01 0.00000E+00
 -1      2134 1.32837E+02 2.07740E+01 0.00000E+00
 -1      2135 1.33693E+02 2.09411E+01 0.00000E+00
 -1      2136 1.34315E+02 2.02634E+01 0.00000E+00
 -1      2137 1.30787E+02 2.07183E+01 0.00000E+00
 -1      2138 1.31725E+02 2.06916E+01 0.00000E+00
 -1      2139 1.28820E+02 2.15717E+01 0.00000E+00
 -1      2140 1.29607E+02 2.11268E+01 0.00000E+00
 -1      2141 1.27161E+02 2.21946E+01 0.00000E+00
 -1      2142 1.27991E+02 2.18832E+01 0.00000E+00
 -1      2143 1.28045E+02 2.10600E+01 0.00000E+00
 -1      2144 1.23925E+02 2.68511E+01 0.00000E+00
 -1      2145 1.24242E+02 2.60774E+01 0.00000E+00
 -1      2146 1.23242E+02 3.03393E+01 0.00000E+00
 -1      2147 1.23304E+02 2.94747E+01 0.00000E+00
 -1      2148 1.23660E+02 3.23070E+01 0.00000E+00
 -1      2149 1.23385E+02 3.14840E+01 0.00000E+00
 -1      2150 1.24247E+02 3.39359E+01 0.00000E+00
 -1      2151 1.23954E+02 3.31215E+01 0.00000E+00
 -1      2152 1.23082E+02 3.29549E+01 0.00000E+00
 -1      2153 1.25396E+02 3.56362E+01 0.00000E+00
 -1      2154 1.24816E+02 3.49455E+01 0.00000E+00
 -1      2155 1.26907E+02 3.67900E+01 0.00000E+00
 -1      2156 1.26224E+02 3.62608E+01 0.00000E+00
 -1      2157 1.28355E+02 3.77983E+01 0.00000E+00
 -1      2158 1.27641E+02 3.73197E+01 0.00000E+00
 -1      2159 1.30200E+02 3.84399E+01 0.00000E+00
 -1      2160 1.29347E+02 3.82327E+01 0.00000E+00
 -1      2161 1.32019E+02 3.87674E+01 0.00000E+00
 -1      2162 1.31176E+02 3.87418E+01 0.00000E+00
 -1      2163 1.33751E+02 3.84997E+01 0.00000E+00
 -1      2164 1.32951E+02 3.85997E+01 0.00000E+00
 -1      2165 1.35459E+02 3.80857E+01 0.00000E+00
 -1      2166 1.34657E+02 3.83143E+01 0.00000E+00
 -1      2167 1.37236E+02 3.73051E+01 0.00000E+00
 -1      2168 1.36507E+02 3.77845E+01 0.00000E+00
 -1      2169 1.38506E+02 3.61394E+01 0.00000E+00
 -1      2170 1.37871E+02 3.67222E+01 0.00000E+00
 -1      2171 1.37978E+02 3.76784E+01 0.00000E+00
 -1      2172 1.39777E+02 3.46351E+01 0.00000E+00
 -1      2173 1.39207E+02 3.52998E+01 0.00000E+00
 -1      2174 1.40721E+02 3.28992E+01 0.00000E+00
 -1      2175 1.40415E+02 3.37167E+01 0.00000E+00
 -1      2176 1.41016E+02 3.11002E+01 0.00000E+00
 -1      2177 1.40893E+02 3.19146E+01 0.00000E+00
 -1      2178 1.36324E+02 2.18386E+01 0.00000E+00
 -1      2179 1.37050E+02 2.22993E+01 0.00000E+00
 -1      2180 1.24843E+02 2.34334E+01 0.00000E+00
 -1      2181 1.41741E+02 2.88567E+01 0.00000E+00
 -1      2182 1.23817E+02 2.52089E+01 0.00000E+00
 -1      2183 6.42300E+00 4.57510E+01 0.00000E+00
 -1      2184 7.17300E+00 4.44520E+01 0.00000E+00
 -1      2185 1.41466E+02 2.69344E+01 0.00000E+00
 -1      2186 1.45162E+02 3.06125E+01 0.00000E+00
 -1      2187 1.45268E+02 3.34375E+01 0.00000E+00
 -1      2188 1.40731E+02 2.49799E+01 0.00000E+00
 -1      2189 1.45477E+02 4.38964E+01 0.00000E+00
 -1      2190 1.45915E+02 4.26522E+01 0.00000E+00
 -1      2191 1.44722E+02 4.18897E+01 0.00000E+00
 -1      2192 1.44133E+02 4.38691E+01 0.00000E+00
 -1      2193 1.41789E+02 3.06938E+01 0.00000E+00
 -1      2194 1.26357E+02 2.20114E+01 0.00000E+00
 -1      2195 1.36125E+02 2.09407E+01 0.00000E+00
 -1      2196 1.41465E+02 3.25948E+01 0.00000E+00
 -1      2197 1.39314E+02 3.62559E+01 0.00000E+00
 -1      2198 1.36295E+02 3.85624E+01 0.00000E+00
 -1      2199 1.23213E+02 2.71324E+01 0.00000E+00
 -1      2200 1.34342E+02 3.90490E+01 0.00000E+00
 -1      2201 1.39306E+02 2.32891E+01 0.00000E+00
 -1      2202 1.32505E+02 3.94021E+01 0.00000E+00
 -1      2203 1.30597E+02 3.92680E+01 0.00000E+00
 -1      2204 1.28629E+02 3.85317E+01 0.00000E+00
 -1      2205 1.26903E+02 3.75675E+01 0.00000E+00
 -1      2206 1.23945E+02 3.47789E+01 0.00000E+00
 -1      2207 1.22645E+02 3.09957E+01 0.00000E+00
 -1      2208 1.37809E+02 2.20010E+01 0.00000E+00
 -1      2209 1.22741E+02 2.89567E+01 0.00000E+00
 -1      2210 1.32346E+02 2.00139E+01 0.00000E+00
 -1      2211 1.30054E+02 2.03400E+01 0.00000E+00
 -1      2212 1.30501E+02 1.95532E+01 0.00000E+00
 -1      2213 1.29321E+02 1.99617E+01 0.00000E+00
 -1      2214 1.25341E+02 3.64131E+01 0.00000E+00
 -1      2215 1.40654E+02 3.44978E+01 0.00000E+00
 -1      2216 1.07850E+01 5.30525E+00 0.00000E+00
 -1      2217 9.28500E+00 5.30525E+00 0.00000E+00
 -1      2218 6.49500E+00 3.01125E+01 0.00000E+00
 -1      2219 6.49500E+00 3.15875E+01 0.00000E+00
 -1      2220 6.49500E+00 3.30625E+01 0.00000E+00
 -1      2221 6.49500E+00 3.45375E+01 0.00000E+00
 -1      2222 7.79400E+00 3.23250E+01 0.00000E+00
 -1      2223 6.49500E+00 2.42125E+01 0.00000E+00
 -1      2224 6.49500E+00 2.56875E+01 0.00000E+00
 -1      2225 6.49500E+00 2.12625E+01 0.00000E+00
 -1      2226 6.49500E+00 2.27375E+01 0.00000E+00
 -1      2227 7.79400E+00 2.34750E+01 0.00000E+00
 -1      2228 6.49500E+00 1.83625E+01 0.00000E+00
 -1      2229 6.49500E+00 1.98125E+01 0.00000E+00
 -1      2230 7.79400E+00 2.05500E+01 0.00000E+00
 -1      2231 6.49500E+00 1.54125E+01 0.00000E+00
 -1      2232 6.49500E+00 1.68875E+01 0.00000E+00
 -1      2233 7.79400E+00 1.76250E+01 0.00000E+00
 -1      2234 6.49500E+00 1.24625E+01 0.00000E+00
 -1      2235 6.49500E+00 1.39375E+01 0.00000E+00
 -1      2236 7.79400E+00 1.46750E+01 0.00000E+00
 -1      2237 6.49500E+00 9.51250E+00 0.00000E+00
 -1      2238 6.49500E+00 1.09875E+01 0.00000E+00
 -1      2239 7.79400E+00 1.17250E+01 0.00000E+00
 -1      2240 9.90000E+00 4.35050E+01 0.00000E+00
 -1      2241 1.14000E+01 4.35050E+01 0.00000E+00
 -1      2242 1.37850E+01 5.30525E+00 0.00000E+00
 -1      2243 1.22850E+01 5.30525E+00 0.00000E+00
 -1      2244 1.15350E+01 6.60425E+00 0.00000E+00
 -1      2245 6.55950E+00 4.28890E+01 0.00000E+00
 -1      2246 8.53650E+00 4.32410E+01 0.00000E+00
 -1      2247 9.28650E+00 4.19420E+01 0.00000E+00
 -1      2248 6.55950E+00 4.14140E+01 0.00000E+00
 -1      2249 1.42711E+02 3.03760E+01 0.00000E+00
 -1      2250 1.42559E+02 3.12923E+01 0.00000E+00
 -1      2251 1.29000E+01 4.35050E+01 0.00000E+00
 -1      2252 1.44000E+01 4.35050E+01 0.00000E+00
 -1      2253 1.21500E+01 4.22060E+01 0.00000E+00
 -1      2254 1.59000E+01 4.35050E+01 0.00000E+00
 -1      2255 1.74000E+01 4.35050E+01 0.00000E+00
 -1      2256 1.51500E+01 4.22060E+01 0.00000E+00
 -1      2257 1.89000E+01 4.35050E+01 0.00000E+00
 -1      2258 2.04000E+01 4.35050E+01 0.00000E+00
 -1      2259 1.81500E+01 4.22060E+01 0.00000E+00
 -1      2260 2.19000E+01 4.35050E+01 0.00000E+00
 -1      2261 2.34000E+01 4.35050E+01 0.00000E+00
 -1      2262 2.11500E+01 4.22060E+01 0.00000E+00
 -1      2263 2.49000E+01 4.35050E+01 0.00000E+00
 -1      2264 2.64000E+01 4.35050E+01 0.00000E+00
 -1      2265 2.41500E+01 4.22060E+01 0.00000E+00
 -1      2266 2.79000E+01 4.35050E+01 0.00000E+00
 -1      2267 2.94000E+01 4.35050E+01 0.00000E+00
 -1      2268 2.71500E+01 4.22060E+01 0.00000E+00
 -1      2269 3.09000E+01 4.35050E+01 0.00000E+00
 -1      2270 3.24000E+01 4.35050E+01 0.00000E+00
 -1      2271 3.01500E+01 4.22060E+01 0.00000E+00
 -1      2272 3.39000E+01 4.35050E+01 0.00000E+00
 -1      2273 3.54000E+01 4.35050E+01 0.00000E+00
 -1      2274 3.31500E+01 4.22060E+01 0.00000E+00
 -1      2275 3.69000E+01 4.35050E+01 0.00000E+00
 -1      2276 3.84000E+01 4.35050E+01 0.00000E+00
 -1      2277 3.61500E+01 4.22060E+01 0.00000E+00
 -1      2278 3.99000E+01 4.35050E+01 0.00000E+00
 -1      2279 4.14000E+01 4.35050E+01 0.00000E+00
 -1      2280 3.91500E+01 4.22060E+01 0.00000E+00
 -1      2281 4.29000E+01 4.35050E+01 0.00000E+00
 -1      2282 4.44000E+01 4.35050E+01 0.00000E+00
 -1      2283 4.21500E+01 4.22060E+01 0.00000E+00
 -1      2284 4.59000E+01 4.35050E+01 0.00000E+00
 -1      2285 4.74000E+01 4.35050E+01 0.00000E+00
 -1      2286 4.51500E+01 4.22060E+01 0.00000E+00
 -1      2287 4.89000E+01 4.35050E+01 0.00000E+00
 -1      2288 5.04000E+01 4.35050E+01 0.00000E+00
 -1      2289 4.81500E+01 4.22060E+01 0.00000E+00
 -1      2290 5.19000E+01 4.35050E+01 0.00000E+00
 -1      2291 5.34000E+01 4.35050E+01 0.00000E+00
 -1      2292 5.11500E+01 4.22060E+01 0.00000E+00
 -1      2293 5.49000E+01 4.35050E+01 0.00000E+00
 -1      2294 5.64000E+01 4.35050E+01 0.00000E+00
 -1      2295 5.41500E+01 4.22060E+01 0.00000E+00
 -1      2296 5.79000E+01 4.35050E+01 0.00000E+00
 -1      2297 5.94000E+01 4.35050E+01 0.00000E+00
 -1      2298 5.71500E+01 4.22060E+01 0.00000E+00
 -1      2299 6.09000E+01 4.35050E+01 0.00000E+00
 -1      2300 6.24000E+01 4.35050E+01 0.00000E+00
 -1      2301 6.01500E+01 4.22060E+01 0.00000E+00
 -1      2302 6.39000E+01 4.35050E+01 0.00000E+00
 -1      2303 6.54000E+01 4.35050E+01 0.00000E+00
 -1      2304 6.31500E+01 4.22060E+01 0.00000E+00
 -1      2305 6.69000E+01 4.35050E+01 0.00000E+00
 -1      2306 6.84000E+01 4.35050E+01 0.00000E+00
 -1      2307 6.61500E+01 4.22060E+01 0.00000E+00
 -1      2308 6.99000E+01 4.35050E+01 0.00000E+00
 -1      2309 7.14000E+01 4.35050E+01 0.00000E+00
 -1      2310 6.91500E+01 4.22060E+01 0.00000E+00
 -1      2311 7.29000E+01 4.35050E+01 0.00000E+00
 -1      2312 7.44000E+01 4.35050E+01 0.00000E+00
 -1      2313 7.21500E+01 4.22060E+01 0.00000E+00
 -1      2314 7.59000E+01 4.35050E+01 0.00000E+00
 -1      2315 7.74000E+01 4.35050E+01 0.00000E+00
 -1      2316 7.51500E+01 4.22060E+01 0.00000E+00
 -1      2317 7.89000E+01 4.35050E+01 0.00000E+00
 -1      2318 8.04000E+01 4.35050E+01 0.00000E+00
 -1      2319 7.81500E+01 4.22060E+01 0.00000E+00
 -1      2320 8.19000E+01 4.35050E+01 0.00000E+00
 -1      2321 8.34000E+01 4.35050E+01 0.00000E+00
 -1      2322 8.11500E+01 4.22060E+01 0.00000E+00
 -1      2323 8.49000E+01 4.35050E+01 0.00000E+00
 -1      2324 8.64000E+01 4.35050E+01 0.00000E+00
 -1      2325 8.41500E+01 4.22060E+01 0.00000E+00
 -1      2326 8.79000E+01 4.35050E+01 0.00000E+00
 -1      2327 8.94000E+01 4.35050E+01 0.00000E+00
 -1      2328 8.71500E+01 4.22060E+01 0.00000E+00
 -1      2329 9.09000E+01 4.35050E+01 0.00000E+00
 -1      2330 9.24000E+01 4.35050E+01 0.00000E+00
 -1      2331 9.01500E+01 4.22060E+01 0.00000E+00
 -1      2332 9.39000E+01 4.35050E+01 0.00000E+00
 -1      2333 9.54000E+01 4.35050E+01 0.00000E+00
 -1      2334 9.31500E+01 4.22060E+01 0.00000E+00
 -1      2335 9.69000E+01 4.35050E+01 0.00000E+00
 -1      2336 9.84000E+01 4.35050E+01 0.00000E+00
 -1      2337 9.61500E+01 4.22060E+01 0.00000E+00
 -1      2338 9.99000E+01 4.35050E+01 0.00000E+00
 -1      2339 1.01400E+02 4.35050E+01 0.00000E+00
 -1      2340 9.91500E+01 4.22060E+01 0.00000E+00
 -1      2341 1.02900E+02 4.35050E+01 0.00000E+00
 -1      2342 1.04400E+02 4.35050E+01 0.00000E+00
 -1      2343 1.02150E+02 4.22060E+01 0.00000E+00
 -1      2344 1.05900E+02 4.35050E+01 0.00000E+00
 -1      2345 1.07400E+02 4.35050E+01 0.00000E+00
 -1      2346 1.05150E+02 4.22060E+01 0.00000E+00
 -1      2347 1.08900E+02 4.35050E+01 0.00000E+00
 -1      2348 1.10400E+02 4.35050E+01 0.00000E+00
 -1      2349 1.08150E+02 4.22060E+01 0.00000E+00
 -1      2350 1.11900E+02 4.35050E+01 0.00000E+00
 -1      2351 1.13400E+02 4.35050E+01 0.00000E+00
 -1      2352 1.11150E+02 4.22060E+01 0.00000E+00
 -1      2353 1.14900E+02 4.35050E+01 0.00000E+00
 -1      2354 1.16400E+02 4.35050E+01 0.00000E+00
 -1      2355 1.14150E+02 4.22060E+01 0.00000E+00
 -1      2356 1.17900E+02 4.35050E+01 0.00000E+00
 -1      2357 1.19400E+02 4.35050E+01 0.00000E+00
 -1      2358 1.17150E+02 4.22060E+01 0.00000E+00
 -1      2359 1.20900E+02 4.35050E+01 0.00000E+00
 -1      2360 1.22400E+02 4.35050E+01 0.00000E+00
 -1      2361 1.20150E+02 4.22060E+01 0.00000E+00
 -1      2362 1.23900E+02 4.35050E+01 0.00000E+00
 -1      2363 1.25400E+02 4.35050E+01 0.00000E+00
 -1      2364 1.23150E+02 4.22060E+01 0.00000E+00
 -1      2365 1.26900E+02 4.35050E+01 0.00000E+00
 -1      2366 1.28400E+02 4.35050E+01 0.00000E+00
 -1      2367 1.26150E+02 4.22060E+01 0.00000E+00
 -1      2368 1.29900E+02 4.35050E+01 0.00000E+00
 -1      2369 1.31400E+02 4.35050E+01 0.00000E+00
 -1      2370 1.29150E+02 4.22060E+01 0.00000E+00
 -1      2371 1.32900E+02 4.35050E+01 0.00000E+00
 -1      2372 1.34400E+02 4.35050E+01 0.00000E+00
 -1      2373 1.32150E+02 4.22060E+01 0.00000E+00
 -1      2374 1.35900E+02 4.35050E+01 0.00000E+00
 -1      2375 1.37400E+02 4.35050E+01 0.00000E+00
 -1      2376 1.35150E+02 4.22060E+01 0.00000E+00
 -1      2377 1.38900E+02 4.35050E+01 0.00000E+00
 -1      2378 1.40400E+02 4.35050E+01 0.00000E+00
 -1      2379 1.38150E+02 4.22060E+01 0.00000E+00
 -1      2380 1.97850E+01 5.30525E+00 0.00000E+00
 -1      2381 1.82850E+01 5.30525E+00 0.00000E+00
 -1      2382 2.27850E+01 5.30525E+00 0.00000E+00
 -1      2383 2.12850E+01 5.30525E+00 0.00000E+00
 -1      2384 2.05350E+01 6.60425E+00 0.00000E+00
 -1      2385 2.57850E+01 5.30525E+00 0.00000E+00
 -1      2386 2.42850E+01 5.30525E+00 0.00000E+00
 -1      2387 2.35350E+01 6.60425E+00 0.00000E+00
 -1      2388 2.87850E+01 5.30525E+00 0.00000E+00
 -1      2389 2.72850E+01 5.30525E+00 0.00000E+00
 -1      2390 2.65350E+01 6.60425E+00 0.00000E+00
 -1      2391 3.17850E+01 5.30525E+00 0.00000E+00
 -1      2392 3.02850E+01 5.30525E+00 0.00000E+00
 -1      2393 2.95350E+01 6.60425E+00 0.00000E+00
 -1      2394 3.47850E+01 5.30525E+00 0.00000E+00
 -1      2395 3.32850E+01 5.30525E+00 0.00000E+00
 -1      2396 3.25350E+01 6.60425E+00 0.00000E+00
 -1      2397 3.77850E+01 5.30525E+00 0.00000E+00
 -1      2398 3.62850E+01 5.30525E+00 0.00000E+00
 -1      2399 3.55350E+01 6.60425E+00 0.00000E+00
 -1      2400 4.07850E+01 5.30525E+00 0.00000E+00
 -1      2401 3.92850E+01 5.30525E+00 0.00000E+00
 -1      2402 3.85350E+01 6.60425E+00 0.00000E+00
 -1      2403 4.37850E+01 5.30525E+00 0.00000E+00
 -1      2404 4.22850E+01 5.30525E+00 0.00000E+00
 -1      2405 4.15350E+01 6.60425E+00 0.00000E+00
 -1      2406 4.67850E+01 5.30525E+00 0.00000E+00
 -1      2407 4.52850E+01 5.30525E+00 0.00000E+00
 -1      2408 4.45350E+01 6.60425E+00 0.00000E+00
 -1      2409 4.97850E+01 5.30525E+00 0.00000E+00
 -1      2410 4.82850E+01 5.30525E+00 0.00000E+00
 -1      2411 4.75350E+01 6.60425E+00 0.00000E+00
 -1      2412 5.27850E+01 5.30525E+00 0.00000E+00
 -1      2413 5.12850E+01 5.30525E+00 0.00000E+00
 -1      2414 5.05350E+01 6.60425E+00 0.00000E+00
 -1      2415 5.57850E+01 5.30525E+00 0.00000E+00
 -1      2416 5.42850E+01 5.30525E+00 0.00000E+00
 -1      2417 5.35350E+01 6.60425E+00 0.00000E+00
 -1      2418 5.87850E+01 5.30525E+00 0.00000E+00
 -1      2419 5.72850E+01 5.30525E+00 0.00000E+00
 -1      2420 5.65350E+01 6.60425E+00 0.00000E+00
 -1      2421 6.17850E+01 5.30525E+00 0.00000E+00
 -1      2422 6.02850E+01 5.30525E+00 0.00000E+00
 -1      2423 5.95350E+01 6.60425E+00 0.00000E+00
 -1      2424 6.47850E+01 5.30525E+00 0.00000E+00
 -1      2425 6.32850E+01 5.30525E+00 0.00000E+00
 -1      2426 6.25350E+01 6.60425E+00 0.00000E+00
 -1      2427 6.77850E+01 5.30525E+00 0.00000E+00
 -1      2428 6.62850E+01 5.30525E+00 0.00000E+00
 -1      2429 6.55350E+01 6.60425E+00 0.00000E+00
 -1      2430 7.07850E+01 5.30525E+00 0.00000E+00
 -1      2431 6.92850E+01 5.30525E+00 0.00000E+00
 -1      2432 6.85350E+01 6.60425E+00 0.00000E+00
 -1      2433 7.37850E+01 5.30525E+00 0.00000E+00
 -1      2434 7.22850E+01 5.30525E+00 0.00000E+00
 -1      2435 7.15350E+01 6.60425E+00 0.00000E+00
 -1      2436 7.67850E+01 5.30525E+00 0.00000E+00
 -1      2437 7.52850E+01 5.30525E+00 0.00000E+00
 -1      2438 7.45350E+01 6.60425E+00 0.00000E+00
 -1      2439 7.97850E+01 5.30525E+00 0.00000E+00
 -1      2440 7.82850E+01 5.30525E+00 0.00000E+00
 -1      2441 7.75350E+01 6.60425E+00 0.00000E+00
 -1      2442 8.27850E+01 5.30525E+00 0.00000E+00
 -1      2443 8.12850E+01 5.30525E+00 0.00000E+00
 -1      2444 8.05350E+01 6.60425E+00 0.00000E+00
 -1      2445 8.57850E+01 5.30525E+00 0.00000E+00
 -1      2446 8.42850E+01 5.30525E+00 0.00000E+00
 -1      2447 8.35350E+01 6.60425E+00 0.00000E+00
 -1      2448 8.87850E+01 5.30525E+00 0.00000E+00
 -1      2449 8.72850E+01 5.30525E+00 0.00000E+00
 -1      2450 8.65350E+01 6.60425E+00 0.00000E+00
 -1      2451 9.17850E+01 5.30525E+00 0.00000E+00
 -1      2452 9.02850E+01 5.30525E+00 0.00000E+00
 -1      2453 8.95350E+01 6.60425E+00 0.00000E+00
 -1      2454 9.47850E+01 5.30525E+00 0.00000E+00
 -1      2455 9.32850E+01 5.30525E+00 0.00000E+00
 -1      2456 9.25350E+01 6.60425E+00 0.00000E+00
 -1      2457 9.77850E+01 5.30525E+00 0.00000E+00
 -1      2458 9.62850E+01 5.30525E+00 0.00000E+00
 -1      2459 9.55350E+01 6.60425E+00 0.00000E+00
 -1      2460 1.00785E+02 5.30525E+00 0.00000E+00
 -1      2461 9.92850E+01 5.30525E+00 0.00000E+00
 -1      2462 9.85350E+01 6.60425E+00 0.00000E+00
 -1      2463 1.03785E+02 5.30525E+00 0.00000E+00
 -1      2464 1.02285E+02 5.30525E+00 0.00000E+00
 -1      2465 1.01535E+02 6.60425E+00 0.00000E+00
 -1      2466 1.06785E+02 5.30525E+00 0.00000E+00
 -1      2467 1.05285E+02 5.30525E+00 0.00000E+00
 -1      2468 1.04535E+02 6.60425E+00 0.00000E+00
 -1      2469 1.09785E+02 5.30525E+00 0.00000E+00
 -1      2470 1.08285E+02 5.30525E+00 0.00000E+00
 -1      2471 1.07535E+02 6.60425E+00 0.00000E+00
 -1      2472 1.12785E+02 5.30525E+00 0.00000E+00
 -1      2473 1.11285E+02 5.30525E+00 0.00000E+00
 -1      2474 1.10535E+02 6.60425E+00 0.00000E+00
 -1      2475 1.15785E+02 5.30525E+00 0.00000E+00
 -1      2476 1.14285E+02 5.30525E+00 0.00000E+00
 -1      2477 1.13535E+02 6.60425E+00 0.00000E+00
 -1      2478 1.18785E+02 5.30525E+00 0.00000E+00
 -1      2479 1.17285E+02 5.30525E+00 0.00000E+00
 -1      2480 1.16535E+02 6.60425E+00 0.00000E+00
 -1      2481 1.21785E+02 5.30525E+00 0.00000E+00
 -1      2482 1.20285E+02 5.30525E+00 0.00000E+00
 -1      2483 1.19535E+02 6.60425E+00 0.00000E+00
 -1      2484 1.24785E+02 5.30525E+00 0.00000E+00
 -1      2485 1.23285E+02 5.30525E+00 0.00000E+00
 -1      2486 1.22535E+02 6.60425E+00 0.00000E+00
 -1      2487 1.27785E+02 5.30525E+00 0.00000E+00
 -1      2488 1.26285E+02 5.30525E+00 0.00000E+00
 -1      2489 1.25535E+02 6.60425E+00 0.00000E+00
 -1      2490 1.30785E+02 5.30525E+00 0.00000E+00
 -1      2491 1.29285E+02 5.30525E+00 0.00000E+00
 -1      2492 1.28535E+02 6.60425E+00 0.00000E+00
 -1      2493 1.33785E+02 5.30525E+00 0.00000E+00
 -1      2494 1.32285E+02 5.30525E+00 0.00000E+00
 -1      2495 1.31535E+02 6.60425E+00 0.00000E+00
 -1      2496 1.36785E+02 5.30525E+00 0.00000E+00
 -1      2497 1.35285E+02 5.30525E+00 0.00000E+00
 -1      2498 1.34535E+02 6.60425E+00 0.00000E+00
 -1      2499 1.39785E+02 5.30525E+00 0.00000E+00
 -1      2500 1.38285E+02 5.30525E+00 0.00000E+00
 -1      2501 1.37535E+02 6.60425E+00 0.00000E+00
 -1      2502 1.42785E+02 5.30525E+00 0.00000E+00
 -1      2503 1.41285E+02 5.30525E+00 0.00000E+00
 -1      2504 1.40535E+02 6.60425E+00 0.00000E+00
 -1      2505 1.44336E+02 5.36328E+00 0.00000E+00
 -1      2506 1.43505E+02 1.74500E+01 0.00000E+00
 -1      2507 1.43505E+02 1.59500E+01 0.00000E+00
 -1      2508 1.43505E+02 2.04500E+01 0.00000E+00
 -1      2509 1.43505E+02 1.89500E+01 0.00000E+00
 -1      2510 1.42206E+02 1.82000E+01 0.00000E+00
 -1      2511 1.43505E+02 1.14000E+01 0.00000E+00
 -1      2512 1.43505E+02 9.90000E+00 0.00000E+00
 -1      2513 1.43505E+02 1.44375E+01 0.00000E+00
 -1      2514 1.43505E+02 1.29125E+01 0.00000E+00
 -1      2515 1.42206E+02 1.21625E+01 0.00000E+00
 -1      2516 1.42206E+02 1.51875E+01 0.00000E+00
 -1      2517 1.43718E+02 4.01375E+01 0.00000E+00
 -1      2518 1.43718E+02 3.86125E+01 0.00000E+00
 -1      2519 1.43505E+02 2.31000E+01 0.00000E+00
 -1      2520 1.43505E+02 2.17750E+01 0.00000E+00
 -1      2521 1.42206E+02 2.10250E+01 0.00000E+00
 -1      2522 1.43863E+02 2.59500E+01 0.00000E+00
 -1      2523 1.43863E+02 2.45500E+01 0.00000E+00
 -1      2524 1.44298E+02 3.39935E+01 0.00000E+00
 -1      2525 1.44549E+02 3.25810E+01 0.00000E+00
 -1      2526 1.41037E+02 2.40628E+01 0.00000E+00
 -1      2527 1.41697E+02 2.50157E+01 0.00000E+00
 -1      2528 1.44008E+02 3.70530E+01 0.00000E+00
 -1      2529 1.44008E+02 3.55530E+01 0.00000E+00
 -1      2530 1.43289E+02 3.46965E+01 0.00000E+00
 -1      2531 1.42709E+02 3.78155E+01 0.00000E+00
 -1      2532 1.67850E+01 5.30525E+00 0.00000E+00
 -1      2533 1.52850E+01 5.30525E+00 0.00000E+00
 -1      2534 1.75350E+01 6.60425E+00 0.00000E+00
 -1      2535 1.22828E+02 2.54052E+01 0.00000E+00
 -1      2536 1.23199E+02 2.44117E+01 0.00000E+00
 -1      2537 1.25440E+02 2.16773E+01 0.00000E+00
 -1      2538 1.26299E+02 2.10374E+01 0.00000E+00
 -1      2539 1.37079E+02 3.93165E+01 0.00000E+00
 -1      2540 1.36031E+02 3.96177E+01 0.00000E+00
 -1      2541 1.21866E+02 3.16749E+01 0.00000E+00
 -1      2542 1.21722E+02 3.05302E+01 0.00000E+00
 -1      2543 1.36032E+02 1.99664E+01 0.00000E+00
 -1      2544 1.36986E+02 2.04766E+01 0.00000E+00
 -1      2545 1.42242E+02 2.63729E+01 0.00000E+00
 -1      2546 1.42317E+02 2.73745E+01 0.00000E+00
 -1      2547 1.42414E+02 2.84149E+01 0.00000E+00
 -1      2548 1.42614E+02 2.93356E+01 0.00000E+00
 -1      2549 1.43384E+02 2.99341E+01 0.00000E+00
 -1      2550 1.43190E+02 2.78534E+01 0.00000E+00
 -1      2551 1.33115E+02 4.01210E+01 0.00000E+00
 -1      2552 1.32183E+02 4.02888E+01 0.00000E+00
 -1      2553 6.49500E+00 2.71625E+01 0.00000E+00
 -1      2554 6.49500E+00 2.86375E+01 0.00000E+00
 -1      2555 7.79400E+00 2.93750E+01 0.00000E+00
 -1      2556 7.79400E+00 2.64250E+01 0.00000E+00
 -1      2557 1.34043E+02 1.93793E+01 0.00000E+00
 -1      2558 1.34899E+02 1.95464E+01 0.00000E+00
 -1      2559 1.25238E+02 3.74098E+01 0.00000E+00
 -1      2560 1.24411E+02 3.67852E+01 0.00000E+00
 -1      2561 1.27358E+02 2.04914E+01 0.00000E+00
 -1      2562 1.28188E+02 2.01799E+01 0.00000E+00
 -1      2563 1.35026E+02 3.97767E+01 0.00000E+00
 -1      2564 1.34120E+02 3.99621E+01 0.00000E+00
 -1      2565 1.33799E+02 4.08487E+01 0.00000E+00
 -1      2566 1.35810E+02 4.05308E+01 0.00000E+00
 -1      2567 1.31854E+02 1.91175E+01 0.00000E+00
 -1      2568 1.32966E+02 1.91999E+01 0.00000E+00
 -1      2569 1.42608E+02 3.23736E+01 0.00000E+00
 -1      2570 1.42436E+02 3.33582E+01 0.00000E+00
 -1      2571 1.37909E+02 2.11078E+01 0.00000E+00
 -1      2572 1.38640E+02 2.16579E+01 0.00000E+00
 -1      2573 1.22541E+02 3.36104E+01 0.00000E+00
 -1      2574 1.22247E+02 3.27960E+01 0.00000E+00
 -1      2575 1.23555E+02 3.56635E+01 0.00000E+00
 -1      2576 1.22986E+02 3.46539E+01 0.00000E+00
 -1      2577 1.26866E+02 3.83920E+01 0.00000E+00
 -1      2578 1.26132E+02 3.78622E+01 0.00000E+00
 -1      2579 1.28814E+02 3.94577E+01 0.00000E+00
 -1      2580 1.27823E+02 3.90233E+01 0.00000E+00
 -1      2581 1.30766E+02 4.00615E+01 0.00000E+00
 -1      2582 1.29790E+02 3.97596E+01 0.00000E+00
 -1      2583 1.28984E+02 4.02511E+01 0.00000E+00
 -1      2584 1.39431E+02 2.23932E+01 0.00000E+00
 -1      2585 1.40196E+02 2.31311E+01 0.00000E+00
 -1      2586 1.22428E+02 2.74305E+01 0.00000E+00
 -1      2587 1.22660E+02 2.65006E+01 0.00000E+00
 -1      2588 1.38932E+02 3.80804E+01 0.00000E+00
 -1      2589 1.38297E+02 3.86632E+01 0.00000E+00
 -1      2590 1.40335E+02 3.64011E+01 0.00000E+00
 -1      2591 1.39634E+02 3.72407E+01 0.00000E+00
 -1      2592 1.39953E+02 3.82256E+01 0.00000E+00
 -1      2593 1.21948E+02 2.92193E+01 0.00000E+00
 -1      2594 1.22188E+02 2.83249E+01 0.00000E+00
 -1      2595 1.21634E+02 2.76931E+01 0.00000E+00
 -1      2596 8.07525E+00 5.11044E+00 0.00000E+00
 -1      2597 6.57525E+00 5.11044E+00 0.00000E+00
 -1      2598 6.40575E+00 6.01981E+00 0.00000E+00
 -1      2599 8.82525E+00 6.40944E+00 0.00000E+00
 -1      2600 1.23890E+02 2.33006E+01 0.00000E+00
 -1      2601 1.24546E+02 2.25186E+01 0.00000E+00
 -1      2602 1.35761E+02 1.90823E+01 0.00000E+00
 -1      2603 7.79400E+00 3.52687E+01 0.00000E+00
 -1      2604 6.49500E+00 3.60062E+01 0.00000E+00
 -1      2605 6.49500E+00 3.74750E+01 0.00000E+00
 -1      2606 1.22901E+02 2.34969E+01 0.00000E+00
 -1      2607 1.31120E+02 1.87392E+01 0.00000E+00
 -1      2608 1.31740E+02 1.79252E+01 0.00000E+00
 -1      2609 1.30387E+02 1.83609E+01 0.00000E+00
 -1      2610 6.40575E+00 7.49481E+00 0.00000E+00
 -1      2611 6.55950E+00 3.99453E+01 0.00000E+00
 -1      2612 1.41594E+02 4.36733E+01 0.00000E+00
 -1      2613 1.42938E+02 4.37007E+01 0.00000E+00
 -1      2614 1.43233E+02 4.27110E+01 0.00000E+00
 -1      2615 1.40844E+02 4.23743E+01 0.00000E+00
 -1      2616 1.43586E+02 6.66228E+00 0.00000E+00
 -1      2617 1.45350E+01 6.60425E+00 0.00000E+00
 -1      2618 1.43419E+02 7.87712E+00 0.00000E+00
 -1      2619 1.43949E+02 2.67315E+01 0.00000E+00
 -1      2620 1.43007E+02 2.60315E+01 0.00000E+00
 -1      2621 1.43530E+02 3.20558E+01 0.00000E+00
 -1      2622 1.44500E+02 3.14997E+01 0.00000E+00
 -1      2623 1.43949E+02 2.80065E+01 0.00000E+00
 -1      2624 1.31377E+02 4.07803E+01 0.00000E+00
 -1      2625 1.24487E+02 2.15446E+01 0.00000E+00
 -1      2626 1.27052E+02 3.93179E+01 0.00000E+00
 -1      2627 1.41162E+02 2.31670E+01 0.00000E+00
 -1      2628 1.22042E+02 2.57034E+01 0.00000E+00
 -1      2629 1.23452E+02 3.66602E+01 0.00000E+00
 -1      2630 1.22494E+02 3.65352E+01 0.00000E+00
 -1      2631 1.23349E+02 3.76569E+01 0.00000E+00
 -1      2632 1.26442E+02 2.01573E+01 0.00000E+00
 -1      2633 1.43528E+02 4.17213E+01 0.00000E+00
 -1      2634 1.22151E+02 3.44950E+01 0.00000E+00
 -1      2635 1.37817E+02 2.01334E+01 0.00000E+00
 -1      2636 1.33550E+02 1.84829E+01 0.00000E+00
 -1      2637 1.42229E+02 4.09588E+01 0.00000E+00
 -1      2638 1.21169E+02 2.98985E+01 0.00000E+00
 -1      2639 1.21324E+02 3.23305E+01 0.00000E+00
 -1      2640 1.38033E+02 3.97185E+01 0.00000E+00
 -1      2641 1.42120E+02 8.62712E+00 0.00000E+00
 -1      2642 1.44142E+02 3.00872E+01 0.00000E+00
 -1      2643 1.25201E+02 3.82343E+01 0.00000E+00
 -1      2644 1.28634E+02 1.93931E+01 0.00000E+00
 -1      2645 7.70475E+00 8.23231E+00 0.00000E+00
 -1      2646 1.39531E+02 2.15000E+01 0.00000E+00
 -1      2647 1.41746E+02 3.45758E+01 0.00000E+00
 -1      2648 1.41108E+02 3.54942E+01 0.00000E+00
 -1      2649 1.41427E+02 3.64790E+01 0.00000E+00
 -1      2650 9.09300E+00 1.98250E+01 0.00000E+00
 -1      2651 9.09300E+00 2.12750E+01 0.00000E+00
 -1      2652 9.09300E+00 2.27500E+01 0.00000E+00
 -1      2653 9.09300E+00 2.42250E+01 0.00000E+00
 -1      2654 1.03920E+01 2.20250E+01 0.00000E+00
 -1      2655 9.09300E+00 1.39375E+01 0.00000E+00
 -1      2656 9.09300E+00 1.54125E+01 0.00000E+00
 -1      2657 9.09300E+00 1.09875E+01 0.00000E+00
 -1      2658 9.09300E+00 1.24625E+01 0.00000E+00
 -1      2659 1.03920E+01 1.32000E+01 0.00000E+00
 -1      2660 1.22850E+01 7.90325E+00 0.00000E+00
 -1      2661 1.07850E+01 7.90325E+00 0.00000E+00
 -1      2662 1.41034E+02 4.07905E+01 0.00000E+00
 -1      2663 1.14000E+01 4.09070E+01 0.00000E+00
 -1      2664 1.29000E+01 4.09070E+01 0.00000E+00
 -1      2665 1.44000E+01 4.09070E+01 0.00000E+00
 -1      2666 1.59000E+01 4.09070E+01 0.00000E+00
 -1      2667 1.36500E+01 3.96080E+01 0.00000E+00
 -1      2668 1.74000E+01 4.09070E+01 0.00000E+00
 -1      2669 1.89000E+01 4.09070E+01 0.00000E+00
 -1      2670 1.66500E+01 3.96080E+01 0.00000E+00
 -1      2671 2.04000E+01 4.09070E+01 0.00000E+00
 -1      2672 2.19000E+01 4.09070E+01 0.00000E+00
 -1      2673 1.96500E+01 3.96080E+01 0.00000E+00
 -1      2674 2.34000E+01 4.09070E+01 0.00000E+00
 -1      2675 2.49000E+01 4.09070E+01 0.00000E+00
 -1      2676 2.26500E+01 3.96080E+01 0.00000E+00
 -1      2677 2.64000E+01 4.09070E+01 0.00000E+00
 -1      2678 2.79000E+01 4.09070E+01 0.00000E+00
 -1      2679 2.56500E+01 3.96080E+01 0.00000E+00
 -1      2680 2.94000E+01 4.09070E+01 0.00000E+00
 -1      2681 3.09000E+01 4.09070E+01 0.00000E+00
 -1      2682 2.86500E+01 3.96080E+01 0.00000E+00
 -1      2683 3.24000E+01 4.09070E+01 0.00000E+00
 -1      2684 3.39000E+01 4.09070E+01 0.00000E+00
 -1      2685 3.16500E+01 3.96080E+01 0.00000E+00
 -1      2686 3.54000E+01 4.09070E+01 0.00000E+00
 -1      2687 3.69000E+01 4.09070E+01 0.00000E+00
 -1      2688 3.46500E+01 3.96080E+01 0.00000E+00
 -1      2689 3.84000E+01 4.09070E+01 0.00000E+00
 -1      2690 3.99000E+01 4.09070E+01 0.00000E+00
 -1      2691 3.76500E+01 3.96080E+01 0.00000E+00
 -1      2692 4.14000E+01 4.09070E+01 0.00000E+00
 -1      2693 4.29000E+01 4.09070E+01 0.00000E+00
 -1      2694 4.06500E+01 3.96080E+01 0.00000E+00
 -1      2695 4.44000E+01 4.09070E+01 0.00000E+00
 -1      2696 4.59000E+01 4.09070E+01 0.00000E+00
 -1      2697 4.36500E+01 3.96080E+01 0.00000E+00
 -1      2698 4.74000E+01 4.09070E+01 0.00000E+00
 -1      2699 4.89000E+01 4.09070E+01 0.00000E+00
 -1      2700 4.66500E+01 3.96080E+01 0.00000E+00
 -1      2701 5.04000E+01 4.09070E+01 0.00000E+00
 -1      2702 5.19000E+01 4.09070E+01 0.00000E+00
 -1      2703 4.96500E+01 3.96080E+01 0.00000E+00
 -1      2704 5.34000E+01 4.09070E+01 0.00000E+00
 -1      2705 5.49000E+01 4.09070E+01 0.00000E+00
 -1      2706 5.26500E+01 3.96080E+01 0.00000E+00
 -1      2707 5.64000E+01 4.09070E+01 0.00000E+00
 -1      2708 5.79000E+01 4.09070E+01 0.00000E+00
 -1      2709 5.56500E+01 3.96080E+01 0.00000E+00
 -1      2710 5.94000E+01 4.09070E+01 0.00000E+00
 -1      2711 6.09000E+01 4.09070E+01 0.00000E+00
 -1      2712 5.86500E+01 3.96080E+01 0.00000E+00
 -1      2713 6.24000E+01 4.09070E+01 0.00000E+00
 -1      2714 6.39000E+01 4.09070E+01 0.00000E+00
 -1      2715 6.16500E+01 3.96080E+01 0.00000E+00
 -1      2716 6.54000E+01 4.09070E+01 0.00000E+00
 -1      2717 6.69000E+01 4.09070E+01 0.00000E+00
 -1      2718 6.46500E+01 3.96080E+01 0.00000E+00
 -1      2719 6.84000E+01 4.09070E+01 0.00000E+00
 -1      2720 6.99000E+01 4.09070E+01 0.00000E+00
 -1      2721 6.76500E+01 3.96080E+01 0.00000E+00
 -1      2722 7.14000E+01 4.09070E+01 0.00000E+00
 -1      2723 7.29000E+01 4.09070E+01 0.00000E+00
 -1      2724 7.06500E+01 3.96080E+01 0.00000E+00
 -1      2725 7.44000E+01 4.09070E+01 0.00000E+00
 -1      2726 7.59000E+01 4.09070E+01 0.00000E+00
 -1      2727 7.36500E+01 3.96080E+01 0.00000E+00
 -1      2728 7.74000E+01 4.09070E+01 0.00000E+00
 -1      2729 7.89000E+01 4.09070E+01 0.00000E+00
 -1      2730 7.66500E+01 3.96080E+01 0.00000E+00
 -1      2731 8.04000E+01 4.09070E+01 0.00000E+00
 -1      2732 8.19000E+01 4.09070E+01 0.00000E+00
 -1      2733 7.96500E+01 3.96080E+01 0.00000E+00
 -1      2734 8.34000E+01 4.09070E+01 0.00000E+00
 -1      2735 8.49000E+01 4.09070E+01 0.00000E+00
 -1      2736 8.26500E+01 3.96080E+01 0.00000E+00
 -1      2737 8.64000E+01 4.09070E+01 0.00000E+00
 -1      2738 8.79000E+01 4.09070E+01 0.00000E+00
 -1      2739 8.56500E+01 3.96080E+01 0.00000E+00
 -1      2740 8.94000E+01 4.09070E+01 0.00000E+00
 -1      2741 9.09000E+01 4.09070E+01 0.00000E+00
 -1      2742 8.86500E+01 3.96080E+01 0.00000E+00
 -1      2743 9.24000E+01 4.09070E+01 0.00000E+00
 -1      2744 9.39000E+01 4.09070E+01 0.00000E+00
 -1      2745 9.16500E+01 3.96080E+01 0.00000E+00
 -1      2746 9.54000E+01 4.09070E+01 0.00000E+00
 -1      2747 9.69000E+01 4.09070E+01 0.00000E+00
 -1      2748 9.46500E+01 3.96080E+01 0.00000E+00
 -1      2749 9.84000E+01 4.09070E+01 0.00000E+00
 -1      2750 9.99000E+01 4.09070E+01 0.00000E+00
 -1      2751 9.76500E+01 3.96080E+01 0.00000E+00
 -1      2752 1.01400E+02 4.09070E+01 0.00000E+00
 -1      2753 1.02900E+02 4.09070E+01 0.00000E+00
 -1      2754 1.00650E+02 3.96080E+01 0.00000E+00
 -1      2755 1.04400E+02 4.09070E+01 0.00000E+00
 -1      2756 1.05900E+02 4.09070E+01 0.00000E+00
 -1      2757 1.03650E+02 3.96080E+01 0.00000E+00
 -1      2758 1.07400E+02 4.09070E+01 0.00000E+00
 -1      2759 1.08900E+02 4.09070E+01 0.00000E+00
 -1      2760 1.06650E+02 3.96080E+01 0.00000E+00
 -1      2761 1.10400E+02 4.09070E+01 0.00000E+00
 -1      2762 1.11900E+02 4.09070E+01 0.00000E+00
 -1      2763 1.09650E+02 3.96080E+01 0.00000E+00
 -1      2764 1.13400E+02 4.09070E+01 0.00000E+00
 -1      2765 1.14900E+02 4.09070E+01 0.00000E+00
 -1      2766 1.12650E+02 3.96080E+01 0.00000E+00
 -1      2767 1.16400E+02 4.09070E+01 0.00000E+00
 -1      2768 1.17900E+02 4.09070E+01 0.00000E+00
 -1      2769 1.15650E+02 3.96080E+01 0.00000E+00
 -1      2770 1.19400E+02 4.09070E+01 0.00000E+00
 -1      2771 1.20900E+02 4.09070E+01 0.00000E+00
 -1      2772 1.18650E+02 3.96080E+01 0.00000E+00
 -1      2773 1.28805E+02 4.13795E+01 0.00000E+00
 -1      2774 1.30305E+02 4.13795E+01 0.00000E+00
 -1      2775 1.36732E+02 4.12889E+01 0.00000E+00
 -1      2776 1.38232E+02 4.12889E+01 0.00000E+00
 -1      2777 2.42850E+01 7.90325E+00 0.00000E+00
 -1      2778 2.27850E+01 7.90325E+00 0.00000E+00
 -1      2779 1.20767E+02 2.79397E+01 0.00000E+00
 -1      2780 1.21007E+02 2.70452E+01 0.00000E+00
 -1      2781 2.12850E+01 7.90325E+00 0.00000E+00
 -1      2782 1.97850E+01 7.90325E+00 0.00000E+00
 -1      2783 2.20350E+01 9.20225E+00 0.00000E+00
 -1      2784 3.02850E+01 7.90325E+00 0.00000E+00
 -1      2785 2.87850E+01 7.90325E+00 0.00000E+00
 -1      2786 3.32850E+01 7.90325E+00 0.00000E+00
 -1      2787 3.17850E+01 7.90325E+00 0.00000E+00
 -1      2788 3.10350E+01 9.20225E+00 0.00000E+00
 -1      2789 3.62850E+01 7.90325E+00 0.00000E+00
 -1      2790 3.47850E+01 7.90325E+00 0.00000E+00
 -1      2791 3.40350E+01 9.20225E+00 0.00000E+00
 -1      2792 3.92850E+01 7.90325E+00 0.00000E+00
 -1      2793 3.77850E+01 7.90325E+00 0.00000E+00
 -1      2794 3.70350E+01 9.20225E+00 0.00000E+00
 -1      2795 4.22850E+01 7.90325E+00 0.00000E+00
 -1      2796 4.07850E+01 7.90325E+00 0.00000E+00
 -1      2797 4.00350E+01 9.20225E+00 0.00000E+00
 -1      2798 4.52850E+01 7.90325E+00 0.00000E+00
 -1      2799 4.37850E+01 7.90325E+00 0.00000E+00
 -1      2800 4.30350E+01 9.20225E+00 0.00000E+00
 -1      2801 4.82850E+01 7.90325E+00 0.00000E+00
 -1      2802 4.67850E+01 7.90325E+00 0.00000E+00
 -1      2803 4.60350E+01 9.20225E+00 0.00000E+00
 -1      2804 5.12850E+01 7.90325E+00 0.00000E+00
 -1      2805 4.97850E+01 7.90325E+00 0.00000E+00
 -1      2806 4.90350E+01 9.20225E+00 0.00000E+00
 -1      2807 5.42850E+01 7.90325E+00 0.00000E+00
 -1      2808 5.27850E+01 7.90325E+00 0.00000E+00
 -1      2809 5.20350E+01 9.20225E+00 0.00000E+00
 -1      2810 5.72850E+01 7.90325E+00 0.00000E+00
 -1      2811 5.57850E+01 7.90325E+00 0.00000E+00
 -1      2812 5.50350E+01 9.20225E+00 0.00000E+00
 -1      2813 6.02850E+01 7.90325E+00 0.00000E+00
 -1      2814 5.87850E+01 7.90325E+00 0.00000E+00
 -1      2815 5.80350E+01 9.20225E+00 0.00000E+00
 -1      2816 6.32850E+01 7.90325E+00 0.00000E+00
 -1      2817 6.17850E+01 7.90325E+00 0.00000E+00
 -1      2818 6.10350E+01 9.20225E+00 0.00000E+00
 -1      2819 6.62850E+01 7.90325E+00 0.00000E+00
 -1      2820 6.47850E+01 7.90325E+00 0.00000E+00
 -1      2821 6.40350E+01 9.20225E+00 0.00000E+00
 -1      2822 6.92850E+01 7.90325E+00 0.00000E+00
 -1      2823 6.77850E+01 7.90325E+00 0.00000E+00
 -1      2824 6.70350E+01 9.20225E+00 0.00000E+00
 -1      2825 7.22850E+01 7.90325E+00 0.00000E+00
 -1      2826 7.07850E+01 7.90325E+00 0.00000E+00
 -1      2827 7.00350E+01 9.20225E+00 0.00000E+00
 -1      2828 7.52850E+01 7.90325E+00 0.00000E+00
 -1      2829 7.37850E+01 7.90325E+00 0.00000E+00
 -1      2830 7.30350E+01 9.20225E+00 0.00000E+00
 -1      2831 7.82850E+01 7.90325E+00 0.00000E+00
 -1      2832 7.67850E+01 7.90325E+00 0.00000E+00
 -1      2833 7.60350E+01 9.20225E+00 0.00000E+00
 -1      2834 8.12850E+01 7.90325E+00 0.00000E+00
 -1      2835 7.97850E+01 7.90325E+00 0.00000E+00
 -1      2836 7.90350E+01 9.20225E+00 0.00000E+00
 -1      2837 8.42850E+01 7.90325E+00 0.00000E+00
 -1      2838 8.27850E+01 7.90325E+00 0.00000E+00
 -1      2839 8.20350E+01 9.20225E+00 0.00000E+00
 -1      2840 8.72850E+01 7.90325E+00 0.00000E+00
 -1      2841 8.57850E+01 7.90325E+00 0.00000E+00
 -1      2842 8.50350E+01 9.20225E+00 0.00000E+00
 -1      2843 9.02850E+01 7.90325E+00 0.00000E+00
 -1      2844 8.87850E+01 7.90325E+00 0.00000E+00
 -1      2845 8.80350E+01 9.20225E+00 0.00000E+00
 -1      2846 9.32850E+01 7.90325E+00 0.00000E+00
 -1      2847 9.17850E+01 7.90325E+00 0.00000E+00
 -1      2848 9.10350E+01 9.20225E+00 0.00000E+00
 -1      2849 9.62850E+01 7.90325E+00 0.00000E+00
 -1      2850 9.47850E+01 7.90325E+00 0.00000E+00
 -1      2851 9.40350E+01 9.20225E+00 0.00000E+00
 -1      2852 9.92850E+01 7.90325E+00 0.00000E+00
 -1      2853 9.77850E+01 7.90325E+00 0.00000E+00
 -1      2854 9.70350E+01 9.20225E+00 0.00000E+00
 -1      2855 1.02285E+02 7.90325E+00 0.00000E+00
 -1      2856 1.00785E+02 7.90325E+00 0.00000E+00
 -1      2857 1.00035E+02 9.20225E+00 0.00000E+00
 -1      2858 1.05285E+02 7.90325E+00 0.00000E+00
 -1      2859 1.03785E+02 7.90325E+00 0.00000E+00
 -1      2860 1.03035E+02 9.20225E+00 0.00000E+00
 -1      2861 1.08285E+02 7.90325E+00 0.00000E+00
 -1      2862 1.06785E+02 7.90325E+00 0.00000E+00
 -1      2863 1.06035E+02 9.20225E+00 0.00000E+00
 -1      2864 1.11285E+02 7.90325E+00 0.00000E+00
 -1      2865 1.09785E+02 7.90325E+00 0.00000E+00
 -1      2866 1.09035E+02 9.20225E+00 0.00000E+00
 -1      2867 1.14285E+02 7.90325E+00 0.00000E+00
 -1      2868 1.12785E+02 7.90325E+00 0.00000E+00
 -1      2869 1.12035E+02 9.20225E+00 0.00000E+00
 -1      2870 1.17285E+02 7.90325E+00 0.00000E+00
 -1      2871 1.15785E+02 7.90325E+00 0.00000E+00
 -1      2872 1.15035E+02 9.20225E+00 0.00000E+00
 -1      2873 1.20285E+02 7.90325E+00 0.00000E+00
 -1      2874 1.18785E+02 7.90325E+00 0.00000E+00
 -1      2875 1.18035E+02 9.20225E+00 0.00000E+00
 -1      2876 1.23285E+02 7.90325E+00 0.00000E+00
 -1      2877 1.21785E+02 7.90325E+00 0.00000E+00
 -1      2878 1.21035E+02 9.20225E+00 0.00000E+00
 -1      2879 1.26285E+02 7.90325E+00 0.00000E+00
 -1      2880 1.24785E+02 7.90325E+00 0.00000E+00
 -1      2881 1.24035E+02 9.20225E+00 0.00000E+00
 -1      2882 1.29285E+02 7.90325E+00 0.00000E+00
 -1      2883 1.27785E+02 7.90325E+00 0.00000E+00
 -1      2884 1.27035E+02 9.20225E+00 0.00000E+00
 -1      2885 1.32285E+02 7.90325E+00 0.00000E+00
 -1      2886 1.30785E+02 7.90325E+00 0.00000E+00
 -1      2887 1.30035E+02 9.20225E+00 0.00000E+00
 -1      2888 1.35285E+02 7.90325E+00 0.00000E+00
 -1      2889 1.33785E+02 7.90325E+00 0.00000E+00
 -1      2890 1.33035E+02 9.20225E+00 0.00000E+00
 -1      2891 1.38285E+02 7.90325E+00 0.00000E+00
 -1      2892 1.36785E+02 7.90325E+00 0.00000E+00
 -1      2893 1.36035E+02 9.20225E+00 0.00000E+00
 -1      2894 1.40953E+02 8.26519E+00 0.00000E+00
 -1      2895 1.39453E+02 8.26519E+00 0.00000E+00
 -1      2896 1.38703E+02 9.56419E+00 0.00000E+00
 -1      2897 1.41038E+02 1.02881E+01 0.00000E+00
 -1      2898 1.52850E+01 7.90325E+00 0.00000E+00
 -1      2899 1.37850E+01 7.90325E+00 0.00000E+00
 -1      2900 1.30350E+01 9.20225E+00 0.00000E+00
 -1      2901 1.42564E+02 2.38000E+01 0.00000E+00
 -1      2902 1.44045E+02 2.90469E+01 0.00000E+00
 -1      2903 1.40907E+02 1.89500E+01 0.00000E+00
 -1      2904 1.40907E+02 1.74500E+01 0.00000E+00
 -1      2905 1.20128E+02 3.03945E+01 0.00000E+00
 -1      2906 1.20353E+02 2.90835E+01 0.00000E+00
 -1      2907 1.31722E+02 4.16068E+01 0.00000E+00
 -1      2908 1.27829E+02 4.10776E+01 0.00000E+00
 -1      2909 1.39451E+02 4.06356E+01 0.00000E+00
 -1      2910 1.26511E+02 4.13262E+01 0.00000E+00
 -1      2911 1.26690E+02 4.01978E+01 0.00000E+00
 -1      2912 1.25734E+02 3.95665E+01 0.00000E+00
 -1      2913 1.25011E+02 4.13262E+01 0.00000E+00
 -1      2914 1.24840E+02 3.91141E+01 0.00000E+00
 -1      2915 1.23946E+02 3.86617E+01 0.00000E+00
 -1      2916 1.24479E+02 3.99939E+01 0.00000E+00
 -1      2917 7.85850E+00 3.92077E+01 0.00000E+00
 -1      2918 1.42548E+02 2.54558E+01 0.00000E+00
 -1      2919 1.21175E+02 2.59499E+01 0.00000E+00
 -1      2920 1.21343E+02 2.48546E+01 0.00000E+00
 -1      2921 1.20307E+02 2.61965E+01 0.00000E+00
 -1      2922 1.82850E+01 7.90325E+00 0.00000E+00
 -1      2923 1.67850E+01 7.90325E+00 0.00000E+00
 -1      2924 1.60350E+01 9.20225E+00 0.00000E+00
 -1      2925 1.90350E+01 9.20225E+00 0.00000E+00
 -1      2926 1.33146E+02 1.75886E+01 0.00000E+00
 -1      2927 1.34223E+02 1.77680E+01 0.00000E+00
 -1      2928 2.72850E+01 7.90325E+00 0.00000E+00
 -1      2929 2.57850E+01 7.90325E+00 0.00000E+00
 -1      2930 2.50350E+01 9.20225E+00 0.00000E+00
 -1      2931 2.80350E+01 9.20225E+00 0.00000E+00
 -1      2932 1.23281E+02 2.11573E+01 0.00000E+00
 -1      2933 1.24175E+02 2.03161E+01 0.00000E+00
 -1      2934 1.21614E+02 2.34667E+01 0.00000E+00
 -1      2935 1.22306E+02 2.23556E+01 0.00000E+00
 -1      2936 9.09300E+00 1.68813E+01 0.00000E+00
 -1      2937 9.09300E+00 1.83563E+01 0.00000E+00
 -1      2938 1.03920E+01 1.90812E+01 0.00000E+00
 -1      2939 1.03920E+01 1.61437E+01 0.00000E+00
 -1      2940 1.21508E+02 3.53865E+01 0.00000E+00
 -1      2941 1.21063E+02 3.43430E+01 0.00000E+00
 -1      2942 1.35727E+02 4.14479E+01 0.00000E+00
 -1      2943 1.25404E+02 1.94447E+01 0.00000E+00
 -1      2944 1.26463E+02 1.88986E+01 0.00000E+00
 -1      2945 9.09300E+00 3.15875E+01 0.00000E+00
 -1      2946 9.09300E+00 3.30625E+01 0.00000E+00
 -1      2947 8.91450E+00 8.42712E+00 0.00000E+00
 -1      2948 1.27913E+02 1.87012E+01 0.00000E+00
 -1      2949 1.29047E+02 1.84831E+01 0.00000E+00
 -1      2950 1.42890E+02 3.43546E+01 0.00000E+00
 -1      2951 1.40835E+02 3.92201E+01 0.00000E+00
 -1      2952 1.20681E+02 3.32219E+01 0.00000E+00
 -1      2953 1.20300E+02 3.21009E+01 0.00000E+00
 -1      2954 1.20039E+02 3.41134E+01 0.00000E+00
 -1      2955 1.35492E+02 1.80682E+01 0.00000E+00
 -1      2956 1.36625E+02 1.84881E+01 0.00000E+00
 -1      2957 9.09300E+00 3.45313E+01 0.00000E+00
 -1      2958 9.09300E+00 3.60000E+01 0.00000E+00
 -1      2959 1.03920E+01 3.37938E+01 0.00000E+00
 -1      2960 1.03920E+01 2.49750E+01 0.00000E+00
 -1      2961 9.09300E+00 2.57000E+01 0.00000E+00
 -1      2962 9.09300E+00 2.71750E+01 0.00000E+00
 -1      2963 1.29666E+02 1.76691E+01 0.00000E+00
 -1      2964 1.39834E+02 2.03816E+01 0.00000E+00
 -1      2965 1.40624E+02 2.11170E+01 0.00000E+00
 -1      2966 1.31679E+02 1.68321E+01 0.00000E+00
 -1      2967 1.32413E+02 1.72103E+01 0.00000E+00
 -1      2968 1.33085E+02 1.64955E+01 0.00000E+00
 -1      2969 1.18842E+02 3.21774E+01 0.00000E+00
 -1      2970 1.19485E+02 3.12859E+01 0.00000E+00
 -1      2971 1.18670E+02 3.04710E+01 0.00000E+00
 -1      2972 1.37280E+02 1.81052E+01 0.00000E+00
 -1      2973 1.37548E+02 1.91193E+01 0.00000E+00
 -1      2974 1.38471E+02 1.97505E+01 0.00000E+00
 -1      2975 1.22617E+02 4.08738E+01 0.00000E+00
 -1      2976 1.24117E+02 4.08738E+01 0.00000E+00
 -1      2977 1.22988E+02 3.85367E+01 0.00000E+00
 -1      2978 1.33222E+02 4.16068E+01 0.00000E+00
 -1      2979 1.34227E+02 4.14479E+01 0.00000E+00
 -1      2980 1.24197E+02 1.90574E+01 0.00000E+00
 -1      2981 1.35087E+02 1.71739E+01 0.00000E+00
 -1      2982 1.41038E+02 1.18006E+01 0.00000E+00
 -1      2983 1.39870E+02 1.14386E+01 0.00000E+00
 -1      2984 1.41038E+02 1.33131E+01 0.00000E+00
 -1      2985 1.39565E+02 1.93675E+01 0.00000E+00
 -1      2986 1.19726E+02 2.84357E+01 0.00000E+00
 -1      2987 9.15750E+00 3.77359E+01 0.00000E+00
 -1      2988 9.22200E+00 4.02061E+01 0.00000E+00
 -1      2989 1.05855E+01 4.04701E+01 0.00000E+00
 -1      2990 1.04565E+01 3.69984E+01 0.00000E+00
 -1      2991 1.26876E+02 1.79886E+01 0.00000E+00
 -1      2992 1.20747E+02 2.37132E+01 0.00000E+00
 -1      2993 1.40973E+02 1.61378E+01 0.00000E+00
 -1      2994 1.40973E+02 1.46253E+01 0.00000E+00
 -1      2995 1.39805E+02 1.42633E+01 0.00000E+00
 -1      2996 1.39674E+02 1.68878E+01 0.00000E+00
 -1      2997 1.21993E+02 2.11271E+01 0.00000E+00
 -1      2998 9.09300E+00 2.86437E+01 0.00000E+00
 -1      2999 9.09300E+00 3.01187E+01 0.00000E+00
 -1      3000 1.03920E+01 3.08563E+01 0.00000E+00
 -1      3001 1.03920E+01 2.79188E+01 0.00000E+00
 -1      3002 9.66450E+00 9.72612E+00 0.00000E+00
 -1      3003 1.09635E+01 1.04636E+01 0.00000E+00
 -1      3004 1.13355E+01 3.91711E+01 0.00000E+00
 -1      3005 1.41537E+02 3.83805E+01 0.00000E+00
 -1      3006 1.21867E+02 3.95748E+01 0.00000E+00
 -1      3007 1.42309E+02 3.74736E+01 0.00000E+00
 -1      3008 1.21405E+02 3.63832E+01 0.00000E+00
 -1      3009 1.20317E+02 3.62311E+01 0.00000E+00
 -1      3010 1.21302E+02 3.73799E+01 0.00000E+00
 -1      3011 1.16910E+01 1.24625E+01 0.00000E+00
 -1      3012 1.16910E+01 1.39375E+01 0.00000E+00
 -1      3013 1.18713E+02 2.87162E+01 0.00000E+00
 -1      3014 1.19126E+02 2.75724E+01 0.00000E+00
 -1      3015 1.59000E+01 3.83090E+01 0.00000E+00
 -1      3016 1.74000E+01 3.83090E+01 0.00000E+00
 -1      3017 1.89000E+01 3.83090E+01 0.00000E+00
 -1      3018 2.04000E+01 3.83090E+01 0.00000E+00
 -1      3019 1.81500E+01 3.70100E+01 0.00000E+00
 -1      3020 2.19000E+01 3.83090E+01 0.00000E+00
 -1      3021 2.34000E+01 3.83090E+01 0.00000E+00
 -1      3022 2.11500E+01 3.70100E+01 0.00000E+00
 -1      3023 2.49000E+01 3.83090E+01 0.00000E+00
 -1      3024 2.64000E+01 3.83090E+01 0.00000E+00
 -1      3025 2.41500E+01 3.70100E+01 0.00000E+00
 -1      3026 2.79000E+01 3.83090E+01 0.00000E+00
 -1      3027 2.94000E+01 3.83090E+01 0.00000E+00
 -1      3028 2.71500E+01 3.70100E+01 0.00000E+00
 -1      3029 3.09000E+01 3.83090E+01 0.00000E+00
 -1      3030 3.24000E+01 3.83090E+01 0.00000E+00
 -1      3031 3.01500E+01 3.70100E+01 0.00000E+00
 -1      3032 3.39000E+01 3.83090E+01 0.00000E+00
 -1      3033 3.54000E+01 3.83090E+01 0.00000E+00
 -1      3034 3.31500E+01 3.70100E+01 0.00000E+00
 -1      3035 3.69000E+01 3.83090E+01 0.00000E+00
 -1      3036 3.84000E+01 3.83090E+01 0.00000E+00
 -1      3037 3.61500E+01 3.70100E+01 0.00000E+00
 -1      3038 3.99000E+01 3.83090E+01 0.00000E+00
 -1      3039 4.14000E+01 3.83090E+01 0.00000E+00
 -1      3040 3.91500E+01 3.70100E+01 0.00000E+00
 -1      3041 4.29000E+01 3.83090E+01 0.00000E+00
 -1      3042 4.44000E+01 3.83090E+01 0.00000E+00
 -1      3043 4.21500E+01 3.70100E+01 0.00000E+00
 -1      3044 4.59000E+01 3.83090E+01 0.00000E+00
 -1      3045 4.74000E+01 3.83090E+01 0.00000E+00
 -1      3046 4.51500E+01 3.70100E+01 0.00000E+00
 -1      3047 4.89000E+01 3.83090E+01 0.00000E+00
 -1      3048 5.04000E+01 3.83090E+01 0.00000E+00
 -1      3049 4.81500E+01 3.70100E+01 0.00000E+00
 -1      3050 5.19000E+01 3.83090E+01 0.00000E+00
 -1      3051 5.34000E+01 3.83090E+01 0.00000E+00
 -1      3052 5.11500E+01 3.70100E+01 0.00000E+00
 -1      3053 5.49000E+01 3.83090E+01 0.00000E+00
 -1      3054 5.64000E+01 3.83090E+01 0.00000E+00
 -1      3055 5.41500E+01 3.70100E+01 0.00000E+00
 -1      3056 5.79000E+01 3.83090E+01 0.00000E+00
 -1      3057 5.94000E+01 3.83090E+01 0.00000E+00
 -1      3058 5.71500E+01 3.70100E+01 0.00000E+00
 -1      3059 6.09000E+01 3.83090E+01 0.00000E+00
 -1      3060 6.24000E+01 3.83090E+01 0.00000E+00
 -1      3061 6.01500E+01 3.70100E+01 0.00000E+00
 -1      3062 6.39000E+01 3.83090E+01 0.00000E+00
 -1      3063 6.54000E+01 3.83090E+01 0.00000E+00
 -1      3064 6.31500E+01 3.70100E+01 0.00000E+00
 -1      3065 6.69000E+01 3.83090E+01 0.00000E+00
 -1      3066 6.84000E+01 3.83090E+01 0.00000E+00
 -1      3067 6.61500E+01 3.70100E+01 0.00000E+00
 -1      3068 6.99000E+01 3.83090E+01 0.00000E+00
 -1      3069 7.14000E+01 3.83090E+01 0.00000E+00
 -1      3070 6.91500E+01 3.70100E+01 0.00000E+00
 -1      3071 7.29000E+01 3.83090E+01 0.00000E+00
 -1      3072 7.44000E+01 3.83090E+01 0.00000E+00
 -1      3073 7.21500E+01 3.70100E+01 0.00000E+00
 -1      3074 7.59000E+01 3.83090E+01 0.00000E+00
 -1      3075 7.74000E+01 3.83090E+01 0.00000E+00
 -1      3076 7.51500E+01 3.70100E+01 0.00000E+00
 -1      3077 7.89000E+01 3.83090E+01 0.00000E+00
 -1      3078 8.04000E+01 3.83090E+01 0.00000E+00
 -1      3079 7.81500E+01 3.70100E+01 0.00000E+00
 -1      3080 8.19000E+01 3.83090E+01 0.00000E+00
 -1      3081 8.34000E+01 3.83090E+01 0.00000E+00
 -1      3082 8.11500E+01 3.70100E+01 0.00000E+00
 -1      3083 8.49000E+01 3.83090E+01 0.00000E+00
 -1      3084 8.64000E+01 3.83090E+01 0.00000E+00
 -1      3085 8.41500E+01 3.70100E+01 0.00000E+00
 -1      3086 8.79000E+01 3.83090E+01 0.00000E+00
 -1      3087 8.94000E+01 3.83090E+01 0.00000E+00
 -1      3088 8.71500E+01 3.70100E+01 0.00000E+00
 -1      3089 9.09000E+01 3.83090E+01 0.00000E+00
 -1      3090 9.24000E+01 3.83090E+01 0.00000E+00
 -1      3091 9.01500E+01 3.70100E+01 0.00000E+00
 -1      3092 9.39000E+01 3.83090E+01 0.00000E+00
 -1      3093 9.54000E+01 3.83090E+01 0.00000E+00
 -1      3094 9.31500E+01 3.70100E+01 0.00000E+00
 -1      3095 9.69000E+01 3.83090E+01 0.00000E+00
 -1      3096 9.84000E+01 3.83090E+01 0.00000E+00
 -1      3097 9.61500E+01 3.70100E+01 0.00000E+00
 -1      3098 9.99000E+01 3.83090E+01 0.00000E+00
 -1      3099 1.01400E+02 3.83090E+01 0.00000E+00
 -1      3100 9.91500E+01 3.70100E+01 0.00000E+00
 -1      3101 1.02900E+02 3.83090E+01 0.00000E+00
 -1      3102 1.04400E+02 3.83090E+01 0.00000E+00
 -1      3103 1.02150E+02 3.70100E+01 0.00000E+00
 -1      3104 1.05900E+02 3.83090E+01 0.00000E+00
 -1      3105 1.07400E+02 3.83090E+01 0.00000E+00
 -1      3106 1.05150E+02 3.70100E+01 0.00000E+00
 -1      3107 1.08900E+02 3.83090E+01 0.00000E+00
 -1      3108 1.10400E+02 3.83090E+01 0.00000E+00
 -1      3109 1.08150E+02 3.70100E+01 0.00000E+00
 -1      3110 1.11900E+02 3.83090E+01 0.00000E+00
 -1      3111 1.13400E+02 3.83090E+01 0.00000E+00
 -1      3112 1.11150E+02 3.70100E+01 0.00000E+00
 -1      3113 1.14900E+02 3.83090E+01 0.00000E+00
 -1      3114 1.16400E+02 3.83090E+01 0.00000E+00
 -1      3115 1.14150E+02 3.70100E+01 0.00000E+00
 -1      3116 1.18682E+02 3.84179E+01 0.00000E+00
 -1      3117 1.20182E+02 3.84179E+01 0.00000E+00
 -1      3118 3.47850E+01 1.05013E+01 0.00000E+00
 -1      3119 3.32850E+01 1.05013E+01 0.00000E+00
 -1      3120 3.17850E+01 1.05013E+01 0.00000E+00
 -1      3121 3.02850E+01 1.05013E+01 0.00000E+00
 -1      3122 3.25350E+01 1.18003E+01 0.00000E+00
 -1      3123 4.07850E+01 1.05013E+01 0.00000E+00
 -1      3124 3.92850E+01 1.05013E+01 0.00000E+00
 -1      3125 4.37850E+01 1.05013E+01 0.00000E+00
 -1      3126 4.22850E+01 1.05013E+01 0.00000E+00
 -1      3127 4.15350E+01 1.18003E+01 0.00000E+00
 -1      3128 4.67850E+01 1.05013E+01 0.00000E+00
 -1      3129 4.52850E+01 1.05013E+01 0.00000E+00
 -1      3130 4.45350E+01 1.18003E+01 0.00000E+00
 -1      3131 4.97850E+01 1.05013E+01 0.00000E+00
 -1      3132 4.82850E+01 1.05013E+01 0.00000E+00
 -1      3133 4.75350E+01 1.18003E+01 0.00000E+00
 -1      3134 5.27850E+01 1.05013E+01 0.00000E+00
 -1      3135 5.12850E+01 1.05013E+01 0.00000E+00
 -1      3136 5.05350E+01 1.18003E+01 0.00000E+00
 -1      3137 5.57850E+01 1.05013E+01 0.00000E+00
 -1      3138 5.42850E+01 1.05013E+01 0.00000E+00
 -1      3139 5.35350E+01 1.18003E+01 0.00000E+00
 -1      3140 5.87850E+01 1.05013E+01 0.00000E+00
 -1      3141 5.72850E+01 1.05013E+01 0.00000E+00
 -1      3142 5.65350E+01 1.18003E+01 0.00000E+00
 -1      3143 6.17850E+01 1.05013E+01 0.00000E+00
 -1      3144 6.02850E+01 1.05013E+01 0.00000E+00
 -1      3145 5.95350E+01 1.18003E+01 0.00000E+00
 -1      3146 6.47850E+01 1.05013E+01 0.00000E+00
 -1      3147 6.32850E+01 1.05013E+01 0.00000E+00
 -1      3148 6.25350E+01 1.18003E+01 0.00000E+00
 -1      3149 6.77850E+01 1.05013E+01 0.00000E+00
 -1      3150 6.62850E+01 1.05013E+01 0.00000E+00
 -1      3151 6.55350E+01 1.18003E+01 0.00000E+00
 -1      3152 7.07850E+01 1.05013E+01 0.00000E+00
 -1      3153 6.92850E+01 1.05013E+01 0.00000E+00
 -1      3154 6.85350E+01 1.18003E+01 0.00000E+00
 -1      3155 7.37850E+01 1.05013E+01 0.00000E+00
 -1      3156 7.22850E+01 1.05013E+01 0.00000E+00
 -1      3157 7.15350E+01 1.18003E+01 0.00000E+00
 -1      3158 7.67850E+01 1.05013E+01 0.00000E+00
 -1      3159 7.52850E+01 1.05013E+01 0.00000E+00
 -1      3160 7.45350E+01 1.18003E+01 0.00000E+00
 -1      3161 7.97850E+01 1.05013E+01 0.00000E+00
 -1      3162 7.82850E+01 1.05013E+01 0.00000E+00
 -1      3163 7.75350E+01 1.18003E+01 0.00000E+00
 -1      3164 8.27850E+01 1.05013E+01 0.00000E+00
 -1      3165 8.12850E+01 1.05013E+01 0.00000E+00
 -1      3166 8.05350E+01 1.18003E+01 0.00000E+00
 -1      3167 8.57850E+01 1.05013E+01 0.00000E+00
 -1      3168 8.42850E+01 1.05013E+01 0.00000E+00
 -1      3169 8.35350E+01 1.18003E+01 0.00000E+00
 -1      3170 8.87850E+01 1.05013E+01 0.00000E+00
 -1      3171 8.72850E+01 1.05013E+01 0.00000E+00
 -1      3172 8.65350E+01 1.18003E+01 0.00000E+00
 -1      3173 9.17850E+01 1.05013E+01 0.00000E+00
 -1      3174 9.02850E+01 1.05013E+01 0.00000E+00
 -1      3175 8.95350E+01 1.18003E+01 0.00000E+00
 -1      3176 9.47850E+01 1.05013E+01 0.00000E+00
 -1      3177 9.32850E+01 1.05013E+01 0.00000E+00
 -1      3178 9.25350E+01 1.18003E+01 0.00000E+00
 -1      3179 9.77850E+01 1.05013E+01 0.00000E+00
 -1      3180 9.62850E+01 1.05013E+01 0.00000E+00
 -1      3181 9.55350E+01 1.18003E+01 0.00000E+00
 -1      3182 1.00785E+02 1.05013E+01 0.00000E+00
 -1      3183 9.92850E+01 1.05013E+01 0.00000E+00
 -1      3184 9.85350E+01 1.18003E+01 0.00000E+00
 -1      3185 1.03785E+02 1.05013E+01 0.00000E+00
 -1      3186 1.02285E+02 1.05013E+01 0.00000E+00
 -1      3187 1.01535E+02 1.18003E+01 0.00000E+00
 -1      3188 1.06785E+02 1.05013E+01 0.00000E+00
 -1      3189 1.05285E+02 1.05013E+01 0.00000E+00
 -1      3190 1.04535E+02 1.18003E+01 0.00000E+00
 -1      3191 1.09785E+02 1.05013E+01 0.00000E+00
 -1      3192 1.08285E+02 1.05013E+01 0.00000E+00
 -1      3193 1.07535E+02 1.18003E+01 0.00000E+00
 -1      3194 1.12785E+02 1.05013E+01 0.00000E+00
 -1      3195 1.11285E+02 1.05013E+01 0.00000E+00
 -1      3196 1.10535E+02 1.18003E+01 0.00000E+00
 -1      3197 1.15785E+02 1.05013E+01 0.00000E+00
 -1      3198 1.14285E+02 1.05013E+01 0.00000E+00
 -1      3199 1.13535E+02 1.18003E+01 0.00000E+00
 -1      3200 1.18785E+02 1.05013E+01 0.00000E+00
 -1      3201 1.17285E+02 1.05013E+01 0.00000E+00
 -1      3202 1.16535E+02 1.18003E+01 0.00000E+00
 -1      3203 1.21785E+02 1.05013E+01 0.00000E+00
 -1      3204 1.20285E+02 1.05013E+01 0.00000E+00
 -1      3205 1.19535E+02 1.18003E+01 0.00000E+00
 -1      3206 1.24785E+02 1.05013E+01 0.00000E+00
 -1      3207 1.23285E+02 1.05013E+01 0.00000E+00
 -1      3208 1.22535E+02 1.18003E+01 0.00000E+00
 -1      3209 1.27785E+02 1.05013E+01 0.00000E+00
 -1      3210 1.26285E+02 1.05013E+01 0.00000E+00
 -1      3211 1.25535E+02 1.18003E+01 0.00000E+00
 -1      3212 1.30785E+02 1.05013E+01 0.00000E+00
 -1      3213 1.29285E+02 1.05013E+01 0.00000E+00
 -1      3214 1.28535E+02 1.18003E+01 0.00000E+00
 -1      3215 1.33785E+02 1.05013E+01 0.00000E+00
 -1      3216 1.32285E+02 1.05013E+01 0.00000E+00
 -1      3217 1.31535E+02 1.18003E+01 0.00000E+00
 -1      3218 1.36785E+02 1.05013E+01 0.00000E+00
 -1      3219 1.35285E+02 1.05013E+01 0.00000E+00
 -1      3220 1.34535E+02 1.18003E+01 0.00000E+00
 -1      3221 1.38912E+02 1.11509E+01 0.00000E+00
 -1      3222 1.37744E+02 1.07890E+01 0.00000E+00
 -1      3223 1.36994E+02 1.20880E+01 0.00000E+00
 -1      3224 1.38912E+02 1.26634E+01 0.00000E+00
 -1      3225 1.29000E+01 3.83090E+01 0.00000E+00
 -1      3226 1.44000E+01 3.83090E+01 0.00000E+00
 -1      3227 1.51500E+01 3.70100E+01 0.00000E+00
 -1      3228 1.41264E+02 2.22926E+01 0.00000E+00
 -1      3229 1.41264E+02 2.09676E+01 0.00000E+00
 -1      3230 1.19294E+02 2.64770E+01 0.00000E+00
 -1      3231 1.19462E+02 2.53817E+01 0.00000E+00
 -1      3232 1.18281E+02 2.67576E+01 0.00000E+00
 -1      3233 1.20646E+02 2.10263E+01 0.00000E+00
 -1      3234 1.21621E+02 1.98281E+01 0.00000E+00
 -1      3235 3.77850E+01 1.05013E+01 0.00000E+00
 -1      3236 3.62850E+01 1.05013E+01 0.00000E+00
 -1      3237 3.55350E+01 1.18003E+01 0.00000E+00
 -1      3238 3.85350E+01 1.18003E+01 0.00000E+00
 -1      3239 1.12710E+01 3.74352E+01 0.00000E+00
 -1      3240 1.20855E+01 3.78721E+01 0.00000E+00
 -1      3241 1.12065E+01 3.56994E+01 0.00000E+00
 -1      3242 1.28903E+02 1.67092E+01 0.00000E+00
 -1      3243 1.30244E+02 1.65871E+01 0.00000E+00
 -1      3244 2.27850E+01 1.05013E+01 0.00000E+00
 -1      3245 2.12850E+01 1.05013E+01 0.00000E+00
 -1      3246 1.22941E+02 1.85886E+01 0.00000E+00
 -1      3247 1.24170E+02 1.77172E+01 0.00000E+00
 -1      3248 1.34670E+02 1.61077E+01 0.00000E+00
 -1      3249 1.35939E+02 1.64079E+01 0.00000E+00
 -1      3250 1.26488E+01 1.02017E+01 0.00000E+00
 -1      3251 1.20772E+01 1.14631E+01 0.00000E+00
 -1      3252 1.33763E+01 1.22006E+01 0.00000E+00
 -1      3253 1.41488E+01 1.02017E+01 0.00000E+00
 -1      3254 1.16910E+01 2.12875E+01 0.00000E+00
 -1      3255 1.16910E+01 2.27625E+01 0.00000E+00
 -1      3256 1.42105E+02 2.32243E+01 0.00000E+00
 -1      3257 1.19179E+02 3.50309E+01 0.00000E+00
 -1      3258 1.18798E+02 3.39098E+01 0.00000E+00
 -1      3259 1.19734E+02 2.39938E+01 0.00000E+00
 -1      3260 1.20005E+02 2.26059E+01 0.00000E+00
 -1      3261 1.18721E+02 2.42744E+01 0.00000E+00
 -1      3262 1.25990E+02 1.69055E+01 0.00000E+00
 -1      3263 1.27440E+02 1.67081E+01 0.00000E+00
 -1      3264 1.16910E+01 2.42375E+01 0.00000E+00
 -1      3265 1.16910E+01 2.57125E+01 0.00000E+00
 -1      3266 1.29900E+01 2.35000E+01 0.00000E+00
 -1      3267 1.30916E+02 1.58722E+01 0.00000E+00
 -1      3268 1.21593E+02 1.84879E+01 0.00000E+00
 -1      3269 1.21270E+02 3.85700E+01 0.00000E+00
 -1      3270 1.33203E+02 1.53512E+01 0.00000E+00
 -1      3271 1.33936E+02 1.57295E+01 0.00000E+00
 -1      3272 1.34788E+02 1.49635E+01 0.00000E+00
 -1      3273 1.17983E+02 3.30949E+01 0.00000E+00
 -1      3274 1.17168E+02 3.22799E+01 0.00000E+00
 -1      3275 1.17124E+02 3.40124E+01 0.00000E+00
 -1      3276 1.37444E+02 1.68743E+01 0.00000E+00
 -1      3277 1.38367E+02 1.75055E+01 0.00000E+00
 -1      3278 1.19076E+02 3.60276E+01 0.00000E+00
 -1      3279 1.17932E+02 3.71189E+01 0.00000E+00
 -1      3280 1.28355E+01 3.65731E+01 0.00000E+00
 -1      3281 1.71488E+01 1.02017E+01 0.00000E+00
 -1      3282 1.56488E+01 1.02017E+01 0.00000E+00
 -1      3283 1.52625E+01 1.12011E+01 0.00000E+00
 -1      3284 2.95350E+01 1.18003E+01 0.00000E+00
 -1      3285 2.87850E+01 1.05013E+01 0.00000E+00
 -1      3286 2.72850E+01 1.05013E+01 0.00000E+00
 -1      3287 1.17427E+02 3.04992E+01 0.00000E+00
 -1      3288 1.18070E+02 2.96077E+01 0.00000E+00
 -1      3289 1.17470E+02 2.87444E+01 0.00000E+00
 -1      3290 1.28017E+02 1.56261E+01 0.00000E+00
 -1      3291 1.16910E+01 1.54063E+01 0.00000E+00
 -1      3292 1.16910E+01 1.68750E+01 0.00000E+00
 -1      3293 1.29900E+01 1.46687E+01 0.00000E+00
 -1      3294 1.19633E+02 2.13069E+01 0.00000E+00
 -1      3295 1.99669E+01 1.03515E+01 0.00000E+00
 -1      3296 1.84669E+01 1.03515E+01 0.00000E+00
 -1      3297 1.80806E+01 1.13509E+01 0.00000E+00
 -1      3298 2.07169E+01 1.16505E+01 0.00000E+00
 -1      3299 2.57850E+01 1.05013E+01 0.00000E+00
 -1      3300 2.42850E+01 1.05013E+01 0.00000E+00
 -1      3301 2.65350E+01 1.18003E+01 0.00000E+00
 -1      3302 1.16910E+01 1.83469E+01 0.00000E+00
 -1      3303 1.16910E+01 1.98156E+01 0.00000E+00
 -1      3304 1.29900E+01 2.05531E+01 0.00000E+00
 -1      3305 1.29900E+01 1.76094E+01 0.00000E+00
 -1      3306 2.35350E+01 1.18003E+01 0.00000E+00
 -1      3307 1.24734E+02 1.64367E+01 0.00000E+00
 -1      3308 1.37026E+02 1.58081E+01 0.00000E+00
 -1      3309 1.42600E+02 3.59141E+01 0.00000E+00
 -1      3310 1.12065E+01 3.27619E+01 0.00000E+00
 -1      3311 1.12065E+01 3.42306E+01 0.00000E+00
 -1      3312 1.20210E+01 3.46675E+01 0.00000E+00
 -1      3313 1.41567E+02 1.98493E+01 0.00000E+00
 -1      3314 1.12065E+01 2.98244E+01 0.00000E+00
 -1      3315 1.12065E+01 3.12931E+01 0.00000E+00
 -1      3316 1.20210E+01 3.17300E+01 0.00000E+00
 -1      3317 1.40268E+02 1.90993E+01 0.00000E+00
 -1      3318 1.38905E+02 1.84682E+01 0.00000E+00
 -1      3319 1.39070E+02 1.72373E+01 0.00000E+00
 -1      3320 1.42462E+02 2.46743E+01 0.00000E+00
 -1      3321 1.16794E+02 3.59187E+01 0.00000E+00
 -1      3322 2.04000E+01 3.57110E+01 0.00000E+00
 -1      3323 2.19000E+01 3.57110E+01 0.00000E+00
 -1      3324 2.34000E+01 3.57110E+01 0.00000E+00
 -1      3325 2.49000E+01 3.57110E+01 0.00000E+00
 -1      3326 2.26500E+01 3.44120E+01 0.00000E+00
 -1      3327 2.64000E+01 3.57110E+01 0.00000E+00
 -1      3328 2.79000E+01 3.57110E+01 0.00000E+00
 -1      3329 2.56500E+01 3.44120E+01 0.00000E+00
 -1      3330 2.94000E+01 3.57110E+01 0.00000E+00
 -1      3331 3.09000E+01 3.57110E+01 0.00000E+00
 -1      3332 2.86500E+01 3.44120E+01 0.00000E+00
 -1      3333 3.24000E+01 3.57110E+01 0.00000E+00
 -1      3334 3.39000E+01 3.57110E+01 0.00000E+00
 -1      3335 3.16500E+01 3.44120E+01 0.00000E+00
 -1      3336 3.54000E+01 3.57110E+01 0.00000E+00
 -1      3337 3.69000E+01 3.57110E+01 0.00000E+00
 -1      3338 3.46500E+01 3.44120E+01 0.00000E+00
 -1      3339 3.84000E+01 3.57110E+01 0.00000E+00
 -1      3340 3.99000E+01 3.57110E+01 0.00000E+00
 -1      3341 3.76500E+01 3.44120E+01 0.00000E+00
 -1      3342 4.14000E+01 3.57110E+01 0.00000E+00
 -1      3343 4.29000E+01 3.57110E+01 0.00000E+00
 -1      3344 4.06500E+01 3.44120E+01 0.00000E+00
 -1      3345 4.44000E+01 3.57110E+01 0.00000E+00
 -1      3346 4.59000E+01 3.57110E+01 0.00000E+00
 -1      3347 4.36500E+01 3.44120E+01 0.00000E+00
 -1      3348 4.74000E+01 3.57110E+01 0.00000E+00
 -1      3349 4.89000E+01 3.57110E+01 0.00000E+00
 -1      3350 4.66500E+01 3.44120E+01 0.00000E+00
 -1      3351 5.04000E+01 3.57110E+01 0.00000E+00
 -1      3352 5.19000E+01 3.57110E+01 0.00000E+00
 -1      3353 4.96500E+01 3.44120E+01 0.00000E+00
 -1      3354 5.34000E+01 3.57110E+01 0.00000E+00
 -1      3355 5.49000E+01 3.57110E+01 0.00000E+00
 -1      3356 5.26500E+01 3.44120E+01 0.00000E+00
 -1      3357 5.64000E+01 3.57110E+01 0.00000E+00
 -1      3358 5.79000E+01 3.57110E+01 0.00000E+00
 -1      3359 5.56500E+01 3.44120E+01 0.00000E+00
 -1      3360 5.94000E+01 3.57110E+01 0.00000E+00
 -1      3361 6.09000E+01 3.57110E+01 0.00000E+00
 -1      3362 5.86500E+01 3.44120E+01 0.00000E+00
 -1      3363 6.24000E+01 3.57110E+01 0.00000E+00
 -1      3364 6.39000E+01 3.57110E+01 0.00000E+00
 -1      3365 6.16500E+01 3.44120E+01 0.00000E+00
 -1      3366 6.54000E+01 3.57110E+01 0.00000E+00
 -1      3367 6.69000E+01 3.57110E+01 0.00000E+00
 -1      3368 6.46500E+01 3.44120E+01 0.00000E+00
 -1      3369 6.84000E+01 3.57110E+01 0.00000E+00
 -1      3370 6.99000E+01 3.57110E+01 0.00000E+00
 -1      3371 6.76500E+01 3.44120E+01 0.00000E+00
 -1      3372 7.14000E+01 3.57110E+01 0.00000E+00
 -1      3373 7.29000E+01 3.57110E+01 0.00000E+00
 -1      3374 7.06500E+01 3.44120E+01 0.00000E+00
 -1      3375 7.44000E+01 3.57110E+01 0.00000E+00
 -1      3376 7.59000E+01 3.57110E+01 0.00000E+00
 -1      3377 7.36500E+01 3.44120E+01 0.00000E+00
 -1      3378 7.74000E+01 3.57110E+01 0.00000E+00
 -1      3379 7.89000E+01 3.57110E+01 0.00000E+00
 -1      3380 7.66500E+01 3.44120E+01 0.00000E+00
 -1      3381 8.04000E+01 3.57110E+01 0.00000E+00
 -1      3382 8.19000E+01 3.57110E+01 0.00000E+00
 -1      3383 7.96500E+01 3.44120E+01 0.00000E+00
 -1      3384 8.34000E+01 3.57110E+01 0.00000E+00
 -1      3385 8.49000E+01 3.57110E+01 0.00000E+00
 -1      3386 8.26500E+01 3.44120E+01 0.00000E+00
 -1      3387 8.64000E+01 3.57110E+01 0.00000E+00
 -1      3388 8.79000E+01 3.57110E+01 0.00000E+00
 -1      3389 8.56500E+01 3.44120E+01 0.00000E+00
 -1      3390 8.94000E+01 3.57110E+01 0.00000E+00
 -1      3391 9.09000E+01 3.57110E+01 0.00000E+00
 -1      3392 8.86500E+01 3.44120E+01 0.00000E+00
 -1      3393 9.24000E+01 3.57110E+01 0.00000E+00
 -1      3394 9.39000E+01 3.57110E+01 0.00000E+00
 -1      3395 9.16500E+01 3.44120E+01 0.00000E+00
 -1      3396 9.54000E+01 3.57110E+01 0.00000E+00
 -1      3397 9.69000E+01 3.57110E+01 0.00000E+00
 -1      3398 9.46500E+01 3.44120E+01 0.00000E+00
 -1      3399 9.84000E+01 3.57110E+01 0.00000E+00
 -1      3400 9.99000E+01 3.57110E+01 0.00000E+00
 -1      3401 9.76500E+01 3.44120E+01 0.00000E+00
 -1      3402 1.01400E+02 3.57110E+01 0.00000E+00
 -1      3403 1.02900E+02 3.57110E+01 0.00000E+00
 -1      3404 1.00650E+02 3.44120E+01 0.00000E+00
 -1      3405 1.04400E+02 3.57110E+01 0.00000E+00
 -1      3406 1.05900E+02 3.57110E+01 0.00000E+00
 -1      3407 1.03650E+02 3.44120E+01 0.00000E+00
 -1      3408 1.07400E+02 3.57110E+01 0.00000E+00
 -1      3409 1.08900E+02 3.57110E+01 0.00000E+00
 -1      3410 1.06650E+02 3.44120E+01 0.00000E+00
 -1      3411 1.10400E+02 3.57110E+01 0.00000E+00
 -1      3412 1.11900E+02 3.57110E+01 0.00000E+00
 -1      3413 1.09650E+02 3.44120E+01 0.00000E+00
 -1      3414 1.13597E+02 3.58148E+01 0.00000E+00
 -1      3415 1.15097E+02 3.58148E+01 0.00000E+00
 -1      3416 1.16242E+02 3.47235E+01 0.00000E+00
 -1      3417 1.12847E+02 3.45158E+01 0.00000E+00
 -1      3418 1.31783E+01 3.56203E+01 0.00000E+00
 -1      3419 1.39928E+01 3.60572E+01 0.00000E+00
 -1      3420 1.54928E+01 3.60572E+01 0.00000E+00
 -1      3421 1.31783E+01 3.41516E+01 0.00000E+00
 -1      3422 4.52850E+01 1.30992E+01 0.00000E+00
 -1      3423 4.37850E+01 1.30992E+01 0.00000E+00
 -1      3424 4.22850E+01 1.30992E+01 0.00000E+00
 -1      3425 4.07850E+01 1.30992E+01 0.00000E+00
 -1      3426 4.30350E+01 1.43982E+01 0.00000E+00
 -1      3427 5.12850E+01 1.30992E+01 0.00000E+00
 -1      3428 4.97850E+01 1.30992E+01 0.00000E+00
 -1      3429 5.42850E+01 1.30992E+01 0.00000E+00
 -1      3430 5.27850E+01 1.30992E+01 0.00000E+00
 -1      3431 5.20350E+01 1.43982E+01 0.00000E+00
 -1      3432 5.72850E+01 1.30992E+01 0.00000E+00
 -1      3433 5.57850E+01 1.30992E+01 0.00000E+00
 -1      3434 5.50350E+01 1.43982E+01 0.00000E+00
 -1      3435 6.02850E+01 1.30992E+01 0.00000E+00
 -1      3436 5.87850E+01 1.30992E+01 0.00000E+00
 -1      3437 5.80350E+01 1.43982E+01 0.00000E+00
 -1      3438 6.32850E+01 1.30992E+01 0.00000E+00
 -1      3439 6.17850E+01 1.30992E+01 0.00000E+00
 -1      3440 6.10350E+01 1.43982E+01 0.00000E+00
 -1      3441 6.62850E+01 1.30992E+01 0.00000E+00
 -1      3442 6.47850E+01 1.30992E+01 0.00000E+00
 -1      3443 6.40350E+01 1.43982E+01 0.00000E+00
 -1      3444 6.92850E+01 1.30992E+01 0.00000E+00
 -1      3445 6.77850E+01 1.30992E+01 0.00000E+00
 -1      3446 6.70350E+01 1.43982E+01 0.00000E+00
 -1      3447 7.22850E+01 1.30992E+01 0.00000E+00
 -1      3448 7.07850E+01 1.30992E+01 0.00000E+00
 -1      3449 7.00350E+01 1.43982E+01 0.00000E+00
 -1      3450 7.52850E+01 1.30992E+01 0.00000E+00
 -1      3451 7.37850E+01 1.30992E+01 0.00000E+00
 -1      3452 7.30350E+01 1.43982E+01 0.00000E+00
 -1      3453 7.82850E+01 1.30992E+01 0.00000E+00
 -1      3454 7.67850E+01 1.30992E+01 0.00000E+00
 -1      3455 7.60350E+01 1.43982E+01 0.00000E+00
 -1      3456 8.12850E+01 1.30992E+01 0.00000E+00
 -1      3457 7.97850E+01 1.30992E+01 0.00000E+00
 -1      3458 7.90350E+01 1.43982E+01 0.00000E+00
 -1      3459 8.42850E+01 1.30992E+01 0.00000E+00
 -1      3460 8.27850E+01 1.30992E+01 0.00000E+00
 -1      3461 8.20350E+01 1.43982E+01 0.00000E+00
 -1      3462 8.72850E+01 1.30992E+01 0.00000E+00
 -1      3463 8.57850E+01 1.30992E+01 0.00000E+00
 -1      3464 8.50350E+01 1.43982E+01 0.00000E+00
 -1      3465 9.02850E+01 1.30992E+01 0.00000E+00
 -1      3466 8.87850E+01 1.30992E+01 0.00000E+00
 -1      3467 8.80350E+01 1.43982E+01 0.00000E+00
 -1      3468 9.32850E+01 1.30992E+01 0.00000E+00
 -1      3469 9.17850E+01 1.30992E+01 0.00000E+00
 -1      3470 9.10350E+01 1.43982E+01 0.00000E+00
 -1      3471 9.62850E+01 1.30992E+01 0.00000E+00
 -1      3472 9.47850E+01 1.30992E+01 0.00000E+00
 -1      3473 9.40350E+01 1.43982E+01 0.00000E+00
 -1      3474 9.92850E+01 1.30992E+01 0.00000E+00
 -1      3475 9.77850E+01 1.30992E+01 0.00000E+00
 -1      3476 9.70350E+01 1.43982E+01 0.00000E+00
 -1      3477 1.02285E+02 1.30992E+01 0.00000E+00
 -1      3478 1.00785E+02 1.30992E+01 0.00000E+00
 -1      3479 1.00035E+02 1.43982E+01 0.00000E+00
 -1      3480 1.05285E+02 1.30992E+01 0.00000E+00
 -1      3481 1.03785E+02 1.30992E+01 0.00000E+00
 -1      3482 1.03035E+02 1.43982E+01 0.00000E+00
 -1      3483 1.08285E+02 1.30992E+01 0.00000E+00
 -1      3484 1.06785E+02 1.30992E+01 0.00000E+00
 -1      3485 1.06035E+02 1.43982E+01 0.00000E+00
 -1      3486 1.11285E+02 1.30992E+01 0.00000E+00
 -1      3487 1.09785E+02 1.30992E+01 0.00000E+00
 -1      3488 1.09035E+02 1.43982E+01 0.00000E+00
 -1      3489 1.14285E+02 1.30992E+01 0.00000E+00
 -1      3490 1.12785E+02 1.30992E+01 0.00000E+00
 -1      3491 1.12035E+02 1.43982E+01 0.00000E+00
 -1      3492 1.17285E+02 1.30992E+01 0.00000E+00
 -1      3493 1.15785E+02 1.30992E+01 0.00000E+00
 -1      3494 1.15035E+02 1.43982E+01 0.00000E+00
 -1      3495 1.20285E+02 1.30992E+01 0.00000E+00
 -1      3496 1.18785E+02 1.30992E+01 0.00000E+00
 -1      3497 1.18035E+02 1.43982E+01 0.00000E+00
 -1      3498 1.26794E+02 1.37126E+01 0.00000E+00
 -1      3499 1.25294E+02 1.37126E+01 0.00000E+00
 -1      3500 1.29758E+02 1.37138E+01 0.00000E+00
 -1      3501 1.28258E+02 1.37138E+01 0.00000E+00
 -1      3502 1.35045E+02 1.31927E+01 0.00000E+00
 -1      3503 1.33545E+02 1.31927E+01 0.00000E+00
 -1      3504 1.17101E+02 2.71372E+01 0.00000E+00
 -1      3505 1.17269E+02 2.60418E+01 0.00000E+00
 -1      3506 1.39135E+02 1.59250E+01 0.00000E+00
 -1      3507 1.31193E+02 1.39587E+01 0.00000E+00
 -1      3508 1.20117E+02 1.82380E+01 0.00000E+00
 -1      3509 1.21437E+02 1.69986E+01 0.00000E+00
 -1      3510 1.38991E+02 1.49503E+01 0.00000E+00
 -1      3511 1.39056E+02 1.36381E+01 0.00000E+00
 -1      3512 1.38097E+02 1.33504E+01 0.00000E+00
 -1      3513 1.38387E+02 1.52998E+01 0.00000E+00
 -1      3514 1.14487E+01 2.70341E+01 0.00000E+00
 -1      3515 1.14487E+01 2.85028E+01 0.00000E+00
 -1      3516 1.22633E+01 2.89397E+01 0.00000E+00
 -1      3517 1.27478E+01 2.62966E+01 0.00000E+00
 -1      3518 2.42850E+01 1.30992E+01 0.00000E+00
 -1      3519 2.27850E+01 1.30992E+01 0.00000E+00
 -1      3520 1.23474E+02 1.45243E+01 0.00000E+00
 -1      3521 1.48763E+01 1.22006E+01 0.00000E+00
 -1      3522 1.44900E+01 1.32000E+01 0.00000E+00
 -1      3523 1.63762E+01 1.22006E+01 0.00000E+00
 -1      3524 4.82850E+01 1.30992E+01 0.00000E+00
 -1      3525 4.67850E+01 1.30992E+01 0.00000E+00
 -1      3526 4.60350E+01 1.43982E+01 0.00000E+00
 -1      3527 4.90350E+01 1.43982E+01 0.00000E+00
 -1      3528 1.17541E+02 2.46539E+01 0.00000E+00
 -1      3529 1.17812E+02 2.32661E+01 0.00000E+00
 -1      3530 1.16360E+02 2.50335E+01 0.00000E+00
 -1      3531 3.32850E+01 1.30992E+01 0.00000E+00
 -1      3532 3.17850E+01 1.30992E+01 0.00000E+00
 -1      3533 1.74000E+01 3.57110E+01 0.00000E+00
 -1      3534 1.89000E+01 3.57110E+01 0.00000E+00
 -1      3535 1.96500E+01 3.44120E+01 0.00000E+00
 -1      3536 1.18129E+02 2.16171E+01 0.00000E+00
 -1      3537 1.18770E+02 2.00375E+01 0.00000E+00
 -1      3538 1.36881E+02 1.48334E+01 0.00000E+00
 -1      3539 1.16458E+02 2.80286E+01 0.00000E+00
 -1      3540 1.15427E+02 3.39085E+01 0.00000E+00
 -1      3541 3.02850E+01 1.30992E+01 0.00000E+00
 -1      3542 2.87850E+01 1.30992E+01 0.00000E+00
 -1      3543 3.10350E+01 1.43982E+01 0.00000E+00
 -1      3544 1.16568E+02 3.14167E+01 0.00000E+00
 -1      3545 1.15968E+02 3.05534E+01 0.00000E+00
 -1      3546 1.15709E+02 3.23342E+01 0.00000E+00
 -1      3547 4.00350E+01 1.43982E+01 0.00000E+00
 -1      3548 3.92850E+01 1.30992E+01 0.00000E+00
 -1      3549 3.77850E+01 1.30992E+01 0.00000E+00
 -1      3550 1.44900E+01 1.46687E+01 0.00000E+00
 -1      3551 1.16949E+02 2.19966E+01 0.00000E+00
 -1      3552 1.21974E+02 1.45243E+01 0.00000E+00
 -1      3553 1.18614E+02 1.85482E+01 0.00000E+00
 -1      3554 1.32693E+02 1.39587E+01 0.00000E+00
 -1      3555 2.14669E+01 1.29495E+01 0.00000E+00
 -1      3556 2.01488E+01 1.27997E+01 0.00000E+00
 -1      3557 2.22169E+01 1.42485E+01 0.00000E+00
 -1      3558 1.21224E+02 1.58233E+01 0.00000E+00
 -1      3559 1.42890E+01 2.27625E+01 0.00000E+00
 -1      3560 1.42890E+01 2.42375E+01 0.00000E+00
 -1      3561 1.62428E+01 3.47582E+01 0.00000E+00
 -1      3562 3.62850E+01 1.30992E+01 0.00000E+00
 -1      3563 3.47850E+01 1.30992E+01 0.00000E+00
 -1      3564 3.40350E+01 1.43982E+01 0.00000E+00
 -1      3565 3.70350E+01 1.43982E+01 0.00000E+00
 -1      3566 1.34253E+01 3.26723E+01 0.00000E+00
 -1      3567 1.45825E+01 3.36251E+01 0.00000E+00
 -1      3568 2.57850E+01 1.30992E+01 0.00000E+00
 -1      3569 2.50350E+01 1.43982E+01 0.00000E+00
 -1      3570 2.72850E+01 1.30992E+01 0.00000E+00
 -1      3571 1.42890E+01 1.98188E+01 0.00000E+00
 -1      3572 1.42890E+01 2.12906E+01 0.00000E+00
 -1      3573 1.55880E+01 2.20281E+01 0.00000E+00
 -1      3574 1.34253E+01 3.12036E+01 0.00000E+00
 -1      3575 1.36386E+02 1.28295E+01 0.00000E+00
 -1      3576 1.35396E+02 1.42219E+01 0.00000E+00
 -1      3577 1.36129E+02 1.46002E+01 0.00000E+00
 -1      3578 1.37345E+02 1.31172E+01 0.00000E+00
 -1      3579 2.19000E+01 3.31130E+01 0.00000E+00
 -1      3580 2.34000E+01 3.31130E+01 0.00000E+00
 -1      3581 2.49000E+01 3.31130E+01 0.00000E+00
 -1      3582 2.64000E+01 3.31130E+01 0.00000E+00
 -1      3583 2.41500E+01 3.18140E+01 0.00000E+00
 -1      3584 2.79000E+01 3.31130E+01 0.00000E+00
 -1      3585 2.94000E+01 3.31130E+01 0.00000E+00
 -1      3586 2.71500E+01 3.18140E+01 0.00000E+00
 -1      3587 3.09000E+01 3.31130E+01 0.00000E+00
 -1      3588 3.24000E+01 3.31130E+01 0.00000E+00
 -1      3589 3.01500E+01 3.18140E+01 0.00000E+00
 -1      3590 3.39000E+01 3.31130E+01 0.00000E+00
 -1      3591 3.54000E+01 3.31130E+01 0.00000E+00
 -1      3592 3.31500E+01 3.18140E+01 0.00000E+00
 -1      3593 3.69000E+01 3.31130E+01 0.00000E+00
 -1      3594 3.84000E+01 3.31130E+01 0.00000E+00
 -1      3595 3.61500E+01 3.18140E+01 0.00000E+00
 -1      3596 3.99000E+01 3.31130E+01 0.00000E+00
 -1      3597 4.14000E+01 3.31130E+01 0.00000E+00
 -1      3598 3.91500E+01 3.18140E+01 0.00000E+00
 -1      3599 4.29000E+01 3.31130E+01 0.00000E+00
 -1      3600 4.44000E+01 3.31130E+01 0.00000E+00
 -1      3601 4.21500E+01 3.18140E+01 0.00000E+00
 -1      3602 4.59000E+01 3.31130E+01 0.00000E+00
 -1      3603 4.74000E+01 3.31130E+01 0.00000E+00
 -1      3604 4.51500E+01 3.18140E+01 0.00000E+00
 -1      3605 4.89000E+01 3.31130E+01 0.00000E+00
 -1      3606 5.04000E+01 3.31130E+01 0.00000E+00
 -1      3607 4.81500E+01 3.18140E+01 0.00000E+00
 -1      3608 5.19000E+01 3.31130E+01 0.00000E+00
 -1      3609 5.34000E+01 3.31130E+01 0.00000E+00
 -1      3610 5.11500E+01 3.18140E+01 0.00000E+00
 -1      3611 5.49000E+01 3.31130E+01 0.00000E+00
 -1      3612 5.64000E+01 3.31130E+01 0.00000E+00
 -1      3613 5.41500E+01 3.18140E+01 0.00000E+00
 -1      3614 5.79000E+01 3.31130E+01 0.00000E+00
 -1      3615 5.94000E+01 3.31130E+01 0.00000E+00
 -1      3616 5.71500E+01 3.18140E+01 0.00000E+00
 -1      3617 6.09000E+01 3.31130E+01 0.00000E+00
 -1      3618 6.24000E+01 3.31130E+01 0.00000E+00
 -1      3619 6.01500E+01 3.18140E+01 0.00000E+00
 -1      3620 6.39000E+01 3.31130E+01 0.00000E+00
 -1      3621 6.54000E+01 3.31130E+01 0.00000E+00
 -1      3622 6.31500E+01 3.18140E+01 0.00000E+00
 -1      3623 6.69000E+01 3.31130E+01 0.00000E+00
 -1      3624 6.84000E+01 3.31130E+01 0.00000E+00
 -1      3625 6.61500E+01 3.18140E+01 0.00000E+00
 -1      3626 6.99000E+01 3.31130E+01 0.00000E+00
 -1      3627 7.14000E+01 3.31130E+01 0.00000E+00
 -1      3628 6.91500E+01 3.18140E+01 0.00000E+00
 -1      3629 7.29000E+01 3.31130E+01 0.00000E+00
 -1      3630 7.44000E+01 3.31130E+01 0.00000E+00
 -1      3631 7.21500E+01 3.18140E+01 0.00000E+00
 -1      3632 7.59000E+01 3.31130E+01 0.00000E+00
 -1      3633 7.74000E+01 3.31130E+01 0.00000E+00
 -1      3634 7.51500E+01 3.18140E+01 0.00000E+00
 -1      3635 7.89000E+01 3.31130E+01 0.00000E+00
 -1      3636 8.04000E+01 3.31130E+01 0.00000E+00
 -1      3637 7.81500E+01 3.18140E+01 0.00000E+00
 -1      3638 8.19000E+01 3.31130E+01 0.00000E+00
 -1      3639 8.34000E+01 3.31130E+01 0.00000E+00
 -1      3640 8.11500E+01 3.18140E+01 0.00000E+00
 -1      3641 8.49000E+01 3.31130E+01 0.00000E+00
 -1      3642 8.64000E+01 3.31130E+01 0.00000E+00
 -1      3643 8.41500E+01 3.18140E+01 0.00000E+00
 -1      3644 8.79000E+01 3.31130E+01 0.00000E+00
 -1      3645 8.94000E+01 3.31130E+01 0.00000E+00
 -1      3646 8.71500E+01 3.18140E+01 0.00000E+00
 -1      3647 9.09000E+01 3.31130E+01 0.00000E+00
 -1      3648 9.24000E+01 3.31130E+01 0.00000E+00
 -1      3649 9.01500E+01 3.18140E+01 0.00000E+00
 -1      3650 9.39000E+01 3.31130E+01 0.00000E+00
 -1      3651 9.54000E+01 3.31130E+01 0.00000E+00
 -1      3652 9.31500E+01 3.18140E+01 0.00000E+00
 -1      3653 9.69000E+01 3.31130E+01 0.00000E+00
 -1      3654 9.84000E+01 3.31130E+01 0.00000E+00
 -1      3655 9.61500E+01 3.18140E+01 0.00000E+00
 -1      3656 9.99000E+01 3.31130E+01 0.00000E+00
 -1      3657 1.01400E+02 3.31130E+01 0.00000E+00
 -1      3658 9.91500E+01 3.18140E+01 0.00000E+00
 -1      3659 1.02900E+02 3.31130E+01 0.00000E+00
 -1      3660 1.04400E+02 3.31130E+01 0.00000E+00
 -1      3661 1.02150E+02 3.18140E+01 0.00000E+00
 -1      3662 1.05900E+02 3.31130E+01 0.00000E+00
 -1      3663 1.07400E+02 3.31130E+01 0.00000E+00
 -1      3664 1.05150E+02 3.18140E+01 0.00000E+00
 -1      3665 1.08900E+02 3.31130E+01 0.00000E+00
 -1      3666 1.10400E+02 3.31130E+01 0.00000E+00
 -1      3667 1.08150E+02 3.18140E+01 0.00000E+00
 -1      3668 1.12065E+02 3.34589E+01 0.00000E+00
 -1      3669 1.13762E+02 3.35627E+01 0.00000E+00
 -1      3670 1.14644E+02 3.28516E+01 0.00000E+00
 -1      3671 1.11315E+02 3.21599E+01 0.00000E+00
 -1      3672 5.87850E+01 1.56973E+01 0.00000E+00
 -1      3673 5.72850E+01 1.56973E+01 0.00000E+00
 -1      3674 4.37850E+01 1.56973E+01 0.00000E+00
 -1      3675 4.22850E+01 1.56973E+01 0.00000E+00
 -1      3676 5.57850E+01 1.56973E+01 0.00000E+00
 -1      3677 5.42850E+01 1.56973E+01 0.00000E+00
 -1      3678 5.65350E+01 1.69963E+01 0.00000E+00
 -1      3679 5.27850E+01 1.56973E+01 0.00000E+00
 -1      3680 5.12850E+01 1.56973E+01 0.00000E+00
 -1      3681 5.35350E+01 1.69963E+01 0.00000E+00
 -1      3682 6.17850E+01 1.56973E+01 0.00000E+00
 -1      3683 6.02850E+01 1.56973E+01 0.00000E+00
 -1      3684 5.95350E+01 1.69963E+01 0.00000E+00
 -1      3685 6.47850E+01 1.56973E+01 0.00000E+00
 -1      3686 6.32850E+01 1.56973E+01 0.00000E+00
 -1      3687 6.25350E+01 1.69963E+01 0.00000E+00
 -1      3688 6.77850E+01 1.56973E+01 0.00000E+00
 -1      3689 6.62850E+01 1.56973E+01 0.00000E+00
 -1      3690 6.55350E+01 1.69963E+01 0.00000E+00
 -1      3691 7.07850E+01 1.56973E+01 0.00000E+00
 -1      3692 6.92850E+01 1.56973E+01 0.00000E+00
 -1      3693 6.85350E+01 1.69963E+01 0.00000E+00
 -1      3694 7.37850E+01 1.56973E+01 0.00000E+00
 -1      3695 7.22850E+01 1.56973E+01 0.00000E+00
 -1      3696 7.15350E+01 1.69963E+01 0.00000E+00
 -1      3697 7.67850E+01 1.56973E+01 0.00000E+00
 -1      3698 7.52850E+01 1.56973E+01 0.00000E+00
 -1      3699 7.45350E+01 1.69963E+01 0.00000E+00
 -1      3700 7.97850E+01 1.56973E+01 0.00000E+00
 -1      3701 7.82850E+01 1.56973E+01 0.00000E+00
 -1      3702 7.75350E+01 1.69963E+01 0.00000E+00
 -1      3703 8.27850E+01 1.56973E+01 0.00000E+00
 -1      3704 8.12850E+01 1.56973E+01 0.00000E+00
 -1      3705 8.05350E+01 1.69963E+01 0.00000E+00
 -1      3706 8.57850E+01 1.56973E+01 0.00000E+00
 -1      3707 8.42850E+01 1.56973E+01 0.00000E+00
 -1      3708 8.35350E+01 1.69963E+01 0.00000E+00
 -1      3709 8.87850E+01 1.56973E+01 0.00000E+00
 -1      3710 8.72850E+01 1.56973E+01 0.00000E+00
 -1      3711 8.65350E+01 1.69963E+01 0.00000E+00
 -1      3712 9.17850E+01 1.56973E+01 0.00000E+00
 -1      3713 9.02850E+01 1.56973E+01 0.00000E+00
 -1      3714 8.95350E+01 1.69963E+01 0.00000E+00
 -1      3715 9.47850E+01 1.56973E+01 0.00000E+00
 -1      3716 9.32850E+01 1.56973E+01 0.00000E+00
 -1      3717 9.25350E+01 1.69963E+01 0.00000E+00
 -1      3718 9.77850E+01 1.56973E+01 0.00000E+00
 -1      3719 9.62850E+01 1.56973E+01 0.00000E+00
 -1      3720 9.55350E+01 1.69963E+01 0.00000E+00
 -1      3721 1.00785E+02 1.56973E+01 0.00000E+00
 -1      3722 9.92850E+01 1.56973E+01 0.00000E+00
 -1      3723 9.85350E+01 1.69963E+01 0.00000E+00
 -1      3724 1.03785E+02 1.56973E+01 0.00000E+00
 -1      3725 1.02285E+02 1.56973E+01 0.00000E+00
 -1      3726 1.01535E+02 1.69963E+01 0.00000E+00
 -1      3727 1.06785E+02 1.56973E+01 0.00000E+00
 -1      3728 1.05285E+02 1.56973E+01 0.00000E+00
 -1      3729 1.04535E+02 1.69963E+01 0.00000E+00
 -1      3730 1.09785E+02 1.56973E+01 0.00000E+00
 -1      3731 1.08285E+02 1.56973E+01 0.00000E+00
 -1      3732 1.07535E+02 1.69963E+01 0.00000E+00
 -1      3733 1.12785E+02 1.56973E+01 0.00000E+00
 -1      3734 1.11285E+02 1.56973E+01 0.00000E+00
 -1      3735 1.10535E+02 1.69963E+01 0.00000E+00
 -1      3736 1.15785E+02 1.56973E+01 0.00000E+00
 -1      3737 1.14285E+02 1.56973E+01 0.00000E+00
 -1      3738 1.13535E+02 1.69963E+01 0.00000E+00
 -1      3739 1.55798E+01 2.49984E+01 0.00000E+00
 -1      3740 1.42808E+01 2.57359E+01 0.00000E+00
 -1      3741 1.15480E+02 2.90993E+01 0.00000E+00
 -1      3742 1.15111E+02 2.74920E+01 0.00000E+00
 -1      3743 1.15515E+02 2.25756E+01 0.00000E+00
 -1      3744 1.15832E+02 2.09266E+01 0.00000E+00
 -1      3745 1.36675E+01 2.98820E+01 0.00000E+00
 -1      3746 1.50718E+01 3.08243E+01 0.00000E+00
 -1      3747 1.39098E+01 2.85605E+01 0.00000E+00
 -1      3748 1.64898E+01 3.32789E+01 0.00000E+00
 -1      3749 1.42890E+01 1.68750E+01 0.00000E+00
 -1      3750 1.42890E+01 1.83469E+01 0.00000E+00
 -1      3751 1.55880E+01 1.90844E+01 0.00000E+00
 -1      3752 1.16151E+02 1.86719E+01 0.00000E+00
 -1      3753 1.17498E+02 1.68725E+01 0.00000E+00
 -1      3754 1.57890E+01 1.54063E+01 0.00000E+00
 -1      3755 1.65308E+01 3.20516E+01 0.00000E+00
 -1      3756 1.81910E+01 3.31847E+01 0.00000E+00
 -1      3757 1.96910E+01 3.31847E+01 0.00000E+00
 -1      3758 1.67731E+01 3.07301E+01 0.00000E+00
 -1      3759 1.89216E+01 1.25750E+01 0.00000E+00
 -1      3760 1.76034E+01 1.24252E+01 0.00000E+00
 -1      3761 1.72172E+01 1.34247E+01 0.00000E+00
 -1      3762 1.96716E+01 1.38740E+01 0.00000E+00
 -1      3763 1.19748E+02 1.55735E+01 0.00000E+00
 -1      3764 1.14972E+02 2.53514E+01 0.00000E+00
 -1      3765 1.15244E+02 2.39635E+01 0.00000E+00
 -1      3766 1.14127E+02 2.28935E+01 0.00000E+00
 -1      3767 1.14717E+02 1.92509E+01 0.00000E+00
 -1      3768 5.05350E+01 1.69963E+01 0.00000E+00
 -1      3769 4.97850E+01 1.56973E+01 0.00000E+00
 -1      3770 4.82850E+01 1.56973E+01 0.00000E+00
 -1      3771 4.52850E+01 1.56973E+01 0.00000E+00
 -1      3772 4.45350E+01 1.69963E+01 0.00000E+00
 -1      3773 4.67850E+01 1.56973E+01 0.00000E+00
 -1      3774 4.15350E+01 1.69963E+01 0.00000E+00
 -1      3775 4.07850E+01 1.56973E+01 0.00000E+00
 -1      3776 3.92850E+01 1.56973E+01 0.00000E+00
 -1      3777 1.14044E+02 3.19883E+01 0.00000E+00
 -1      3778 1.40386E+01 2.70574E+01 0.00000E+00
 -1      3779 1.68829E+01 2.42563E+01 0.00000E+00
 -1      3780 1.68747E+01 2.57547E+01 0.00000E+00
 -1      3781 1.18248E+02 1.55735E+01 0.00000E+00
 -1      3782 1.13016E+02 2.74927E+01 0.00000E+00
 -1      3783 1.13994E+02 2.64220E+01 0.00000E+00
 -1      3784 1.12877E+02 2.53520E+01 0.00000E+00
 -1      3785 2.27293E+01 1.56141E+01 0.00000E+00
 -1      3786 2.14111E+01 1.54643E+01 0.00000E+00
 -1      3787 1.14621E+02 3.00168E+01 0.00000E+00
 -1      3788 1.37489E+02 1.40919E+01 0.00000E+00
 -1      3789 2.04410E+01 3.18857E+01 0.00000E+00
 -1      3790 3.17850E+01 1.56973E+01 0.00000E+00
 -1      3791 3.02850E+01 1.56973E+01 0.00000E+00
 -1      3792 2.80350E+01 1.43982E+01 0.00000E+00
 -1      3793 3.47850E+01 1.56973E+01 0.00000E+00
 -1      3794 3.32850E+01 1.56973E+01 0.00000E+00
 -1      3795 3.25350E+01 1.69963E+01 0.00000E+00
 -1      3796 2.57293E+01 1.56141E+01 0.00000E+00
 -1      3797 2.42293E+01 1.56141E+01 0.00000E+00
 -1      3798 2.34235E+01 1.68299E+01 0.00000E+00
 -1      3799 1.68829E+01 2.13125E+01 0.00000E+00
 -1      3800 1.68829E+01 2.27844E+01 0.00000E+00
 -1      3801 1.81778E+01 2.35407E+01 0.00000E+00
 -1      3802 2.34000E+01 3.05150E+01 0.00000E+00
 -1      3803 2.49000E+01 3.05150E+01 0.00000E+00
 -1      3804 2.64000E+01 3.05150E+01 0.00000E+00
 -1      3805 2.79000E+01 3.05150E+01 0.00000E+00
 -1      3806 2.56500E+01 2.92160E+01 0.00000E+00
 -1      3807 2.94000E+01 3.05150E+01 0.00000E+00
 -1      3808 3.09000E+01 3.05150E+01 0.00000E+00
 -1      3809 2.86500E+01 2.92160E+01 0.00000E+00
 -1      3810 3.24000E+01 3.05150E+01 0.00000E+00
 -1      3811 3.39000E+01 3.05150E+01 0.00000E+00
 -1      3812 3.16500E+01 2.92160E+01 0.00000E+00
 -1      3813 3.54000E+01 3.05150E+01 0.00000E+00
 -1      3814 3.69000E+01 3.05150E+01 0.00000E+00
 -1      3815 3.46500E+01 2.92160E+01 0.00000E+00
 -1      3816 3.84000E+01 3.05150E+01 0.00000E+00
 -1      3817 3.99000E+01 3.05150E+01 0.00000E+00
 -1      3818 3.76500E+01 2.92160E+01 0.00000E+00
 -1      3819 4.14000E+01 3.05150E+01 0.00000E+00
 -1      3820 4.29000E+01 3.05150E+01 0.00000E+00
 -1      3821 4.06500E+01 2.92160E+01 0.00000E+00
 -1      3822 4.44000E+01 3.05150E+01 0.00000E+00
 -1      3823 4.59000E+01 3.05150E+01 0.00000E+00
 -1      3824 4.36500E+01 2.92160E+01 0.00000E+00
 -1      3825 4.74000E+01 3.05150E+01 0.00000E+00
 -1      3826 4.89000E+01 3.05150E+01 0.00000E+00
 -1      3827 4.66500E+01 2.92160E+01 0.00000E+00
 -1      3828 5.04000E+01 3.05150E+01 0.00000E+00
 -1      3829 5.19000E+01 3.05150E+01 0.00000E+00
 -1      3830 4.96500E+01 2.92160E+01 0.00000E+00
 -1      3831 5.34000E+01 3.05150E+01 0.00000E+00
 -1      3832 5.49000E+01 3.05150E+01 0.00000E+00
 -1      3833 5.26500E+01 2.92160E+01 0.00000E+00
 -1      3834 5.64000E+01 3.05150E+01 0.00000E+00
 -1      3835 5.79000E+01 3.05150E+01 0.00000E+00
 -1      3836 5.56500E+01 2.92160E+01 0.00000E+00
 -1      3837 5.94000E+01 3.05150E+01 0.00000E+00
 -1      3838 6.09000E+01 3.05150E+01 0.00000E+00
 -1      3839 5.86500E+01 2.92160E+01 0.00000E+00
 -1      3840 6.24000E+01 3.05150E+01 0.00000E+00
 -1      3841 6.39000E+01 3.05150E+01 0.00000E+00
 -1      3842 6.16500E+01 2.92160E+01 0.00000E+00
 -1      3843 6.54000E+01 3.05150E+01 0.00000E+00
 -1      3844 6.69000E+01 3.05150E+01 0.00000E+00
 -1      3845 6.46500E+01 2.92160E+01 0.00000E+00
 -1      3846 6.84000E+01 3.05150E+01 0.00000E+00
 -1      3847 6.99000E+01 3.05150E+01 0.00000E+00
 -1      3848 6.76500E+01 2.92160E+01 0.00000E+00
 -1      3849 7.14000E+01 3.05150E+01 0.00000E+00
 -1      3850 7.29000E+01 3.05150E+01 0.00000E+00
 -1      3851 7.06500E+01 2.92160E+01 0.00000E+00
 -1      3852 7.44000E+01 3.05150E+01 0.00000E+00
 -1      3853 7.59000E+01 3.05150E+01 0.00000E+00
 -1      3854 7.36500E+01 2.92160E+01 0.00000E+00
 -1      3855 7.74000E+01 3.05150E+01 0.00000E+00
 -1      3856 7.89000E+01 3.05150E+01 0.00000E+00
 -1      3857 7.66500E+01 2.92160E+01 0.00000E+00
 -1      3858 8.04000E+01 3.05150E+01 0.00000E+00
 -1      3859 8.19000E+01 3.05150E+01 0.00000E+00
 -1      3860 7.96500E+01 2.92160E+01 0.00000E+00
 -1      3861 8.34000E+01 3.05150E+01 0.00000E+00
 -1      3862 8.49000E+01 3.05150E+01 0.00000E+00
 -1      3863 8.26500E+01 2.92160E+01 0.00000E+00
 -1      3864 8.64000E+01 3.05150E+01 0.00000E+00
 -1      3865 8.79000E+01 3.05150E+01 0.00000E+00
 -1      3866 8.56500E+01 2.92160E+01 0.00000E+00
 -1      3867 8.94000E+01 3.05150E+01 0.00000E+00
 -1      3868 9.09000E+01 3.05150E+01 0.00000E+00
 -1      3869 8.86500E+01 2.92160E+01 0.00000E+00
 -1      3870 9.24000E+01 3.05150E+01 0.00000E+00
 -1      3871 9.39000E+01 3.05150E+01 0.00000E+00
 -1      3872 9.16500E+01 2.92160E+01 0.00000E+00
 -1      3873 9.54000E+01 3.05150E+01 0.00000E+00
 -1      3874 9.69000E+01 3.05150E+01 0.00000E+00
 -1      3875 9.46500E+01 2.92160E+01 0.00000E+00
 -1      3876 9.84000E+01 3.05150E+01 0.00000E+00
 -1      3877 9.99000E+01 3.05150E+01 0.00000E+00
 -1      3878 9.76500E+01 2.92160E+01 0.00000E+00
 -1      3879 1.01400E+02 3.05150E+01 0.00000E+00
 -1      3880 1.02900E+02 3.05150E+01 0.00000E+00
 -1      3881 1.00650E+02 2.92160E+01 0.00000E+00
 -1      3882 1.04400E+02 3.05150E+01 0.00000E+00
 -1      3883 1.05900E+02 3.05150E+01 0.00000E+00
 -1      3884 1.03650E+02 2.92160E+01 0.00000E+00
 -1      3885 1.07400E+02 3.05150E+01 0.00000E+00
 -1      3886 1.08900E+02 3.05150E+01 0.00000E+00
 -1      3887 1.06650E+02 2.92160E+01 0.00000E+00
 -1      3888 1.10747E+02 3.07151E+01 0.00000E+00
 -1      3889 1.12411E+02 3.10609E+01 0.00000E+00
 -1      3890 6.02850E+01 1.82952E+01 0.00000E+00
 -1      3891 5.87850E+01 1.82952E+01 0.00000E+00
 -1      3892 1.13476E+02 3.05435E+01 0.00000E+00
 -1      3893 5.42850E+01 1.82952E+01 0.00000E+00
 -1      3894 5.27850E+01 1.82952E+01 0.00000E+00
 -1      3895 6.62850E+01 1.82952E+01 0.00000E+00
 -1      3896 6.47850E+01 1.82952E+01 0.00000E+00
 -1      3897 6.92850E+01 1.82952E+01 0.00000E+00
 -1      3898 6.77850E+01 1.82952E+01 0.00000E+00
 -1      3899 6.70350E+01 1.95942E+01 0.00000E+00
 -1      3900 7.22850E+01 1.82952E+01 0.00000E+00
 -1      3901 7.07850E+01 1.82952E+01 0.00000E+00
 -1      3902 7.00350E+01 1.95942E+01 0.00000E+00
 -1      3903 7.52850E+01 1.82952E+01 0.00000E+00
 -1      3904 7.37850E+01 1.82952E+01 0.00000E+00
 -1      3905 7.30350E+01 1.95942E+01 0.00000E+00
 -1      3906 7.82850E+01 1.82952E+01 0.00000E+00
 -1      3907 7.67850E+01 1.82952E+01 0.00000E+00
 -1      3908 7.60350E+01 1.95942E+01 0.00000E+00
 -1      3909 8.12850E+01 1.82952E+01 0.00000E+00
 -1      3910 7.97850E+01 1.82952E+01 0.00000E+00
 -1      3911 7.90350E+01 1.95942E+01 0.00000E+00
 -1      3912 8.42850E+01 1.82952E+01 0.00000E+00
 -1      3913 8.27850E+01 1.82952E+01 0.00000E+00
 -1      3914 8.20350E+01 1.95942E+01 0.00000E+00
 -1      3915 8.72850E+01 1.82952E+01 0.00000E+00
 -1      3916 8.57850E+01 1.82952E+01 0.00000E+00
 -1      3917 8.50350E+01 1.95942E+01 0.00000E+00
 -1      3918 9.02850E+01 1.82952E+01 0.00000E+00
 -1      3919 8.87850E+01 1.82952E+01 0.00000E+00
 -1      3920 8.80350E+01 1.95942E+01 0.00000E+00
 -1      3921 9.32850E+01 1.82952E+01 0.00000E+00
 -1      3922 9.17850E+01 1.82952E+01 0.00000E+00
 -1      3923 9.10350E+01 1.95942E+01 0.00000E+00
 -1      3924 9.62850E+01 1.82952E+01 0.00000E+00
 -1      3925 9.47850E+01 1.82952E+01 0.00000E+00
 -1      3926 9.40350E+01 1.95942E+01 0.00000E+00
 -1      3927 9.92850E+01 1.82952E+01 0.00000E+00
 -1      3928 9.77850E+01 1.82952E+01 0.00000E+00
 -1      3929 9.70350E+01 1.95942E+01 0.00000E+00
 -1      3930 1.02285E+02 1.82952E+01 0.00000E+00
 -1      3931 1.00785E+02 1.82952E+01 0.00000E+00
 -1      3932 1.00035E+02 1.95942E+01 0.00000E+00
 -1      3933 1.05285E+02 1.82952E+01 0.00000E+00
 -1      3934 1.03785E+02 1.82952E+01 0.00000E+00
 -1      3935 1.03035E+02 1.95942E+01 0.00000E+00
 -1      3936 1.08285E+02 1.82952E+01 0.00000E+00
 -1      3937 1.06785E+02 1.82952E+01 0.00000E+00
 -1      3938 1.06035E+02 1.95942E+01 0.00000E+00
 -1      3939 1.11285E+02 1.82952E+01 0.00000E+00
 -1      3940 1.09785E+02 1.82952E+01 0.00000E+00
 -1      3941 1.09035E+02 1.95942E+01 0.00000E+00
 -1      3942 1.13217E+02 1.92509E+01 0.00000E+00
 -1      3943 1.12988E+02 2.90894E+01 0.00000E+00
 -1      3944 1.54429E+01 2.79998E+01 0.00000E+00
 -1      3945 1.80490E+01 2.65155E+01 0.00000E+00
 -1      3946 1.67460E+01 2.72577E+01 0.00000E+00
 -1      3947 1.66172E+01 2.87607E+01 0.00000E+00
 -1      3948 1.70162E+01 1.56309E+01 0.00000E+00
 -1      3949 2.87850E+01 1.56973E+01 0.00000E+00
 -1      3950 2.72850E+01 1.56973E+01 0.00000E+00
 -1      3951 2.95350E+01 1.69963E+01 0.00000E+00
 -1      3952 3.77850E+01 1.56973E+01 0.00000E+00
 -1      3953 3.62850E+01 1.56973E+01 0.00000E+00
 -1      3954 3.55350E+01 1.69963E+01 0.00000E+00
 -1      3955 3.85350E+01 1.69963E+01 0.00000E+00
 -1      3956 6.32850E+01 1.82952E+01 0.00000E+00
 -1      3957 6.17850E+01 1.82952E+01 0.00000E+00
 -1      3958 6.10350E+01 1.95942E+01 0.00000E+00
 -1      3959 1.68829E+01 1.83688E+01 0.00000E+00
 -1      3960 1.68829E+01 1.98406E+01 0.00000E+00
 -1      3961 1.81778E+01 2.05969E+01 0.00000E+00
 -1      3962 1.80761E+01 2.99880E+01 0.00000E+00
 -1      3963 2.01840E+01 1.52396E+01 0.00000E+00
 -1      3964 1.89568E+01 1.50149E+01 0.00000E+00
 -1      3965 2.06964E+01 1.66052E+01 0.00000E+00
 -1      3966 5.72850E+01 1.82952E+01 0.00000E+00
 -1      3967 5.57850E+01 1.82952E+01 0.00000E+00
 -1      3968 5.80350E+01 1.95942E+01 0.00000E+00
 -1      3969 1.96336E+01 3.02873E+01 0.00000E+00
 -1      3970 2.18426E+01 3.02156E+01 0.00000E+00
 -1      3971 2.25926E+01 2.89166E+01 0.00000E+00
 -1      3972 1.94777E+01 2.83179E+01 0.00000E+00
 -1      3973 1.12716E+02 2.33381E+01 0.00000E+00
 -1      3974 1.12988E+02 2.19502E+01 0.00000E+00
 -1      3975 5.12850E+01 1.82952E+01 0.00000E+00
 -1      3976 4.97850E+01 1.82952E+01 0.00000E+00
 -1      3977 5.20350E+01 1.95942E+01 0.00000E+00
 -1      3978 4.75350E+01 1.69963E+01 0.00000E+00
 -1      3979 1.09997E+02 2.94161E+01 0.00000E+00
 -1      3980 4.22850E+01 1.82952E+01 0.00000E+00
 -1      3981 4.07850E+01 1.82952E+01 0.00000E+00
 -1      3982 1.75286E+01 1.69965E+01 0.00000E+00
 -1      3983 5.50350E+01 1.95942E+01 0.00000E+00
 -1      3984 6.40350E+01 1.95942E+01 0.00000E+00
 -1      3985 1.12467E+02 2.05499E+01 0.00000E+00
 -1      3986 1.11056E+02 2.09945E+01 0.00000E+00
 -1      3987 1.94768E+01 2.28047E+01 0.00000E+00
 -1      3988 1.94768E+01 2.42766E+01 0.00000E+00
 -1      3989 1.11871E+02 2.80194E+01 0.00000E+00
 -1      3990 1.95416E+01 2.55457E+01 0.00000E+00
 -1      3991 1.94128E+01 2.70487E+01 0.00000E+00
 -1      3992 2.09703E+01 2.73481E+01 0.00000E+00
 -1      3993 2.08406E+01 2.48098E+01 0.00000E+00
 -1      3994 3.02850E+01 1.82952E+01 0.00000E+00
 -1      3995 2.87850E+01 1.82952E+01 0.00000E+00
 -1      3996 2.64793E+01 1.69131E+01 0.00000E+00
 -1      3997 1.11738E+02 2.44087E+01 0.00000E+00
 -1      3998 1.88235E+01 1.77528E+01 0.00000E+00
 -1      3999 2.12779E+01 1.82021E+01 0.00000E+00
 -1      4000 2.00507E+01 1.79774E+01 0.00000E+00
 -1      4001 1.94050E+01 1.93497E+01 0.00000E+00
 -1      4002 4.52850E+01 1.82952E+01 0.00000E+00
 -1      4003 4.37850E+01 1.82952E+01 0.00000E+00
 -1      4004 4.30350E+01 1.95942E+01 0.00000E+00
 -1      4005 3.17850E+01 1.82952E+01 0.00000E+00
 -1      4006 3.10350E+01 1.95942E+01 0.00000E+00
 -1      4007 3.32850E+01 1.82952E+01 0.00000E+00
 -1      4008 2.42779E+01 1.82021E+01 0.00000E+00
 -1      4009 2.27779E+01 1.82021E+01 0.00000E+00
 -1      4010 2.21322E+01 1.95744E+01 0.00000E+00
 -1      4011 4.82850E+01 1.82952E+01 0.00000E+00
 -1      4012 4.67850E+01 1.82952E+01 0.00000E+00
 -1      4013 4.60350E+01 1.95942E+01 0.00000E+00
 -1      4014 4.90350E+01 1.95942E+01 0.00000E+00
 -1      4015 2.79000E+01 2.79170E+01 0.00000E+00
 -1      4016 2.94000E+01 2.79170E+01 0.00000E+00
 -1      4017 3.09000E+01 2.79170E+01 0.00000E+00
 -1      4018 3.24000E+01 2.79170E+01 0.00000E+00
 -1      4019 3.01500E+01 2.66180E+01 0.00000E+00
 -1      4020 3.39000E+01 2.79170E+01 0.00000E+00
 -1      4021 3.54000E+01 2.79170E+01 0.00000E+00
 -1      4022 3.31500E+01 2.66180E+01 0.00000E+00
 -1      4023 3.69000E+01 2.79170E+01 0.00000E+00
 -1      4024 3.84000E+01 2.79170E+01 0.00000E+00
 -1      4025 3.61500E+01 2.66180E+01 0.00000E+00
 -1      4026 3.99000E+01 2.79170E+01 0.00000E+00
 -1      4027 4.14000E+01 2.79170E+01 0.00000E+00
 -1      4028 3.91500E+01 2.66180E+01 0.00000E+00
 -1      4029 4.29000E+01 2.79170E+01 0.00000E+00
 -1      4030 4.44000E+01 2.79170E+01 0.00000E+00
 -1      4031 4.21500E+01 2.66180E+01 0.00000E+00
 -1      4032 4.59000E+01 2.79170E+01 0.00000E+00
 -1      4033 4.74000E+01 2.79170E+01 0.00000E+00
 -1      4034 4.51500E+01 2.66180E+01 0.00000E+00
 -1      4035 4.89000E+01 2.79170E+01 0.00000E+00
 -1      4036 5.04000E+01 2.79170E+01 0.00000E+00
 -1      4037 4.81500E+01 2.66180E+01 0.00000E+00
 -1      4038 5.19000E+01 2.79170E+01 0.00000E+00
 -1      4039 5.34000E+01 2.79170E+01 0.00000E+00
 -1      4040 5.11500E+01 2.66180E+01 0.00000E+00
 -1      4041 5.49000E+01 2.79170E+01 0.00000E+00
 -1      4042 5.64000E+01 2.79170E+01 0.00000E+00
 -1      4043 5.41500E+01 2.66180E+01 0.00000E+00
 -1      4044 5.79000E+01 2.79170E+01 0.00000E+00
 -1      4045 5.94000E+01 2.79170E+01 0.00000E+00
 -1      4046 5.71500E+01 2.66180E+01 0.00000E+00
 -1      4047 6.09000E+01 2.79170E+01 0.00000E+00
 -1      4048 6.24000E+01 2.79170E+01 0.00000E+00
 -1      4049 6.01500E+01 2.66180E+01 0.00000E+00
 -1      4050 6.39000E+01 2.79170E+01 0.00000E+00
 -1      4051 6.54000E+01 2.79170E+01 0.00000E+00
 -1      4052 6.31500E+01 2.66180E+01 0.00000E+00
 -1      4053 6.69000E+01 2.79170E+01 0.00000E+00
 -1      4054 6.84000E+01 2.79170E+01 0.00000E+00
 -1      4055 6.61500E+01 2.66180E+01 0.00000E+00
 -1      4056 6.99000E+01 2.79170E+01 0.00000E+00
 -1      4057 7.14000E+01 2.79170E+01 0.00000E+00
 -1      4058 6.91500E+01 2.66180E+01 0.00000E+00
 -1      4059 7.29000E+01 2.79170E+01 0.00000E+00
 -1      4060 7.44000E+01 2.79170E+01 0.00000E+00
 -1      4061 7.21500E+01 2.66180E+01 0.00000E+00
 -1      4062 7.59000E+01 2.79170E+01 0.00000E+00
 -1      4063 7.74000E+01 2.79170E+01 0.00000E+00
 -1      4064 7.51500E+01 2.66180E+01 0.00000E+00
 -1      4065 7.89000E+01 2.79170E+01 0.00000E+00
 -1      4066 8.04000E+01 2.79170E+01 0.00000E+00
 -1      4067 7.81500E+01 2.66180E+01 0.00000E+00
 -1      4068 8.19000E+01 2.79170E+01 0.00000E+00
 -1      4069 8.34000E+01 2.79170E+01 0.00000E+00
 -1      4070 8.11500E+01 2.66180E+01 0.00000E+00
 -1      4071 8.49000E+01 2.79170E+01 0.00000E+00
 -1      4072 8.64000E+01 2.79170E+01 0.00000E+00
 -1      4073 8.41500E+01 2.66180E+01 0.00000E+00
 -1      4074 8.79000E+01 2.79170E+01 0.00000E+00
 -1      4075 8.94000E+01 2.79170E+01 0.00000E+00
 -1      4076 8.71500E+01 2.66180E+01 0.00000E+00
 -1      4077 9.09000E+01 2.79170E+01 0.00000E+00
 -1      4078 9.24000E+01 2.79170E+01 0.00000E+00
 -1      4079 9.01500E+01 2.66180E+01 0.00000E+00
 -1      4080 9.39000E+01 2.79170E+01 0.00000E+00
 -1      4081 9.54000E+01 2.79170E+01 0.00000E+00
 -1      4082 9.31500E+01 2.66180E+01 0.00000E+00
 -1      4083 9.69000E+01 2.79170E+01 0.00000E+00
 -1      4084 9.84000E+01 2.79170E+01 0.00000E+00
 -1      4085 9.61500E+01 2.66180E+01 0.00000E+00
 -1      4086 9.99000E+01 2.79170E+01 0.00000E+00
 -1      4087 1.01400E+02 2.79170E+01 0.00000E+00
 -1      4088 9.91500E+01 2.66180E+01 0.00000E+00
 -1      4089 1.02900E+02 2.79170E+01 0.00000E+00
 -1      4090 1.04400E+02 2.79170E+01 0.00000E+00
 -1      4091 1.02150E+02 2.66180E+01 0.00000E+00
 -1      4092 1.05900E+02 2.79170E+01 0.00000E+00
 -1      4093 1.07400E+02 2.79170E+01 0.00000E+00
 -1      4094 1.05150E+02 2.66180E+01 0.00000E+00
 -1      4095 1.94050E+01 2.08216E+01 0.00000E+00
 -1      4096 6.17850E+01 2.08932E+01 0.00000E+00
 -1      4097 6.02850E+01 2.08932E+01 0.00000E+00
 -1      4098 6.77850E+01 2.08932E+01 0.00000E+00
 -1      4099 6.62850E+01 2.08932E+01 0.00000E+00
 -1      4100 7.67850E+01 2.08932E+01 0.00000E+00
 -1      4101 7.52850E+01 2.08932E+01 0.00000E+00
 -1      4102 7.97850E+01 2.08932E+01 0.00000E+00
 -1      4103 7.82850E+01 2.08932E+01 0.00000E+00
 -1      4104 7.75350E+01 2.21922E+01 0.00000E+00
 -1      4105 8.27850E+01 2.08932E+01 0.00000E+00
 -1      4106 8.12850E+01 2.08932E+01 0.00000E+00
 -1      4107 8.05350E+01 2.21922E+01 0.00000E+00
 -1      4108 8.57850E+01 2.08932E+01 0.00000E+00
 -1      4109 8.42850E+01 2.08932E+01 0.00000E+00
 -1      4110 8.35350E+01 2.21922E+01 0.00000E+00
 -1      4111 8.87850E+01 2.08932E+01 0.00000E+00
 -1      4112 8.72850E+01 2.08932E+01 0.00000E+00
 -1      4113 8.65350E+01 2.21922E+01 0.00000E+00
 -1      4114 9.17850E+01 2.08932E+01 0.00000E+00
 -1      4115 9.02850E+01 2.08932E+01 0.00000E+00
 -1      4116 8.95350E+01 2.21922E+01 0.00000E+00
 -1      4117 9.47850E+01 2.08932E+01 0.00000E+00
 -1      4118 9.32850E+01 2.08932E+01 0.00000E+00
 -1      4119 9.25350E+01 2.21922E+01 0.00000E+00
 -1      4120 9.77850E+01 2.08932E+01 0.00000E+00
 -1      4121 9.62850E+01 2.08932E+01 0.00000E+00
 -1      4122 9.55350E+01 2.21922E+01 0.00000E+00
 -1      4123 1.00785E+02 2.08932E+01 0.00000E+00
 -1      4124 9.92850E+01 2.08932E+01 0.00000E+00
 -1      4125 9.85350E+01 2.21922E+01 0.00000E+00
 -1      4126 1.03785E+02 2.08932E+01 0.00000E+00
 -1      4127 1.02285E+02 2.08932E+01 0.00000E+00
 -1      4128 1.01535E+02 2.21922E+01 0.00000E+00
 -1      4129 1.06785E+02 2.08932E+01 0.00000E+00
 -1      4130 1.05285E+02 2.08932E+01 0.00000E+00
 -1      4131 1.04535E+02 2.21922E+01 0.00000E+00
 -1      4132 1.09670E+02 2.09439E+01 0.00000E+00
 -1      4133 1.08170E+02 2.09439E+01 0.00000E+00
 -1      4134 1.07420E+02 2.22429E+01 0.00000E+00
 -1      4135 1.10191E+02 2.23441E+01 0.00000E+00
 -1      4136 4.00350E+01 1.95942E+01 0.00000E+00
 -1      4137 3.92850E+01 1.82952E+01 0.00000E+00
 -1      4138 3.77850E+01 1.82952E+01 0.00000E+00
 -1      4139 2.07040E+01 2.15575E+01 0.00000E+00
 -1      4140 1.10025E+02 2.78193E+01 0.00000E+00
 -1      4141 5.57850E+01 2.08932E+01 0.00000E+00
 -1      4142 5.42850E+01 2.08932E+01 0.00000E+00
 -1      4143 2.73093E+01 1.82903E+01 0.00000E+00
 -1      4144 2.57536E+01 1.82071E+01 0.00000E+00
 -1      4145 2.51079E+01 1.95793E+01 0.00000E+00
 -1      4146 2.80593E+01 1.95893E+01 0.00000E+00
 -1      4147 2.22040E+01 2.15575E+01 0.00000E+00
 -1      4148 7.37850E+01 2.08932E+01 0.00000E+00
 -1      4149 7.22850E+01 2.08932E+01 0.00000E+00
 -1      4150 7.45350E+01 2.21922E+01 0.00000E+00
 -1      4151 5.87850E+01 2.08932E+01 0.00000E+00
 -1      4152 5.72850E+01 2.08932E+01 0.00000E+00
 -1      4153 5.95350E+01 2.21922E+01 0.00000E+00
 -1      4154 7.07850E+01 2.08932E+01 0.00000E+00
 -1      4155 6.92850E+01 2.08932E+01 0.00000E+00
 -1      4156 6.85350E+01 2.21922E+01 0.00000E+00
 -1      4157 7.15350E+01 2.21922E+01 0.00000E+00
 -1      4158 2.49000E+01 2.79170E+01 0.00000E+00
 -1      4159 2.64000E+01 2.79170E+01 0.00000E+00
 -1      4160 2.71500E+01 2.66180E+01 0.00000E+00
 -1      4161 6.47850E+01 2.08932E+01 0.00000E+00
 -1      4162 6.32850E+01 2.08932E+01 0.00000E+00
 -1      4163 6.55350E+01 2.21922E+01 0.00000E+00
 -1      4164 1.09275E+02 2.65203E+01 0.00000E+00
 -1      4165 3.17850E+01 2.08932E+01 0.00000E+00
 -1      4166 3.02850E+01 2.08932E+01 0.00000E+00
 -1      4167 2.21564E+01 2.74829E+01 0.00000E+00
 -1      4168 2.37139E+01 2.77822E+01 0.00000E+00
 -1      4169 2.44639E+01 2.64832E+01 0.00000E+00
 -1      4170 2.20916E+01 2.62137E+01 0.00000E+00
 -1      4171 6.25350E+01 2.21922E+01 0.00000E+00
 -1      4172 5.65350E+01 2.21922E+01 0.00000E+00
 -1      4173 4.07850E+01 2.08932E+01 0.00000E+00
 -1      4174 3.92850E+01 2.08932E+01 0.00000E+00
 -1      4175 2.88093E+01 2.08883E+01 0.00000E+00
 -1      4176 2.73336E+01 2.08833E+01 0.00000E+00
 -1      4177 2.95593E+01 2.21873E+01 0.00000E+00
 -1      4178 2.19619E+01 2.36754E+01 0.00000E+00
 -1      4179 2.20268E+01 2.49446E+01 0.00000E+00
 -1      4180 2.32129E+01 2.50793E+01 0.00000E+00
 -1      4181 5.35350E+01 2.21922E+01 0.00000E+00
 -1      4182 5.27850E+01 2.08932E+01 0.00000E+00
 -1      4183 5.12850E+01 2.08932E+01 0.00000E+00
 -1      4184 1.10524E+02 2.55194E+01 0.00000E+00
 -1      4185 1.10363E+02 2.35054E+01 0.00000E+00
 -1      4186 3.47850E+01 1.82952E+01 0.00000E+00
 -1      4187 3.40350E+01 1.95942E+01 0.00000E+00
 -1      4188 3.62850E+01 1.82952E+01 0.00000E+00
 -1      4189 4.37850E+01 2.08932E+01 0.00000E+00
 -1      4190 4.22850E+01 2.08932E+01 0.00000E+00
 -1      4191 4.15350E+01 2.21922E+01 0.00000E+00
 -1      4192 1.08977E+02 2.34548E+01 0.00000E+00
 -1      4193 2.98425E+01 2.44051E+01 0.00000E+00
 -1      4194 3.13425E+01 2.44051E+01 0.00000E+00
 -1      4195 3.32850E+01 2.08932E+01 0.00000E+00
 -1      4196 3.25350E+01 2.21922E+01 0.00000E+00
 -1      4197 3.47850E+01 2.08932E+01 0.00000E+00
 -1      4198 3.28425E+01 2.44051E+01 0.00000E+00
 -1      4199 3.43425E+01 2.44051E+01 0.00000E+00
 -1      4200 3.84000E+01 2.53190E+01 0.00000E+00
 -1      4201 3.99000E+01 2.53190E+01 0.00000E+00
 -1      4202 4.18425E+01 2.44051E+01 0.00000E+00
 -1      4203 4.33425E+01 2.44051E+01 0.00000E+00
 -1      4204 4.74000E+01 2.53190E+01 0.00000E+00
 -1      4205 4.89000E+01 2.53190E+01 0.00000E+00
 -1      4206 5.08425E+01 2.44051E+01 0.00000E+00
 -1      4207 5.23425E+01 2.44051E+01 0.00000E+00
 -1      4208 5.38425E+01 2.44051E+01 0.00000E+00
 -1      4209 5.53425E+01 2.44051E+01 0.00000E+00
 -1      4210 5.68425E+01 2.44051E+01 0.00000E+00
 -1      4211 5.83425E+01 2.44051E+01 0.00000E+00
 -1      4212 5.98425E+01 2.44051E+01 0.00000E+00
 -1      4213 6.13425E+01 2.44051E+01 0.00000E+00
 -1      4214 6.28425E+01 2.44051E+01 0.00000E+00
 -1      4215 6.43425E+01 2.44051E+01 0.00000E+00
 -1      4216 6.58425E+01 2.44051E+01 0.00000E+00
 -1      4217 6.73425E+01 2.44051E+01 0.00000E+00
 -1      4218 6.88425E+01 2.44051E+01 0.00000E+00
 -1      4219 7.03425E+01 2.44051E+01 0.00000E+00
 -1      4220 7.18425E+01 2.44051E+01 0.00000E+00
 -1      4221 7.33425E+01 2.44051E+01 0.00000E+00
 -1      4222 7.48425E+01 2.44051E+01 0.00000E+00
 -1      4223 7.63425E+01 2.44051E+01 0.00000E+00
 -1      4224 7.78425E+01 2.44051E+01 0.00000E+00
 -1      4225 7.93425E+01 2.44051E+01 0.00000E+00
 -1      4226 8.08425E+01 2.44051E+01 0.00000E+00
 -1      4227 8.23425E+01 2.44051E+01 0.00000E+00
 -1      4228 8.38425E+01 2.44051E+01 0.00000E+00
 -1      4229 8.53425E+01 2.44051E+01 0.00000E+00
 -1      4230 8.68425E+01 2.44051E+01 0.00000E+00
 -1      4231 8.83425E+01 2.44051E+01 0.00000E+00
 -1      4232 8.98425E+01 2.44051E+01 0.00000E+00
 -1      4233 9.13425E+01 2.44051E+01 0.00000E+00
 -1      4234 9.28425E+01 2.44051E+01 0.00000E+00
 -1      4235 9.43425E+01 2.44051E+01 0.00000E+00
 -1      4236 9.58425E+01 2.44051E+01 0.00000E+00
 -1      4237 9.73425E+01 2.44051E+01 0.00000E+00
 -1      4238 9.88425E+01 2.44051E+01 0.00000E+00
 -1      4239 1.00342E+02 2.44051E+01 0.00000E+00
 -1      4240 1.01842E+02 2.44051E+01 0.00000E+00
 -1      4241 1.03342E+02 2.44051E+01 0.00000E+00
 -1      4242 1.04842E+02 2.44051E+01 0.00000E+00
 -1      4243 1.06342E+02 2.44051E+01 0.00000E+00
 -1      4244 1.07899E+02 2.56171E+01 0.00000E+00
 -1      4245 3.70350E+01 1.95942E+01 0.00000E+00
 -1      4246 2.33901E+01 2.16923E+01 0.00000E+00
 -1      4247 2.60997E+01 2.12903E+01 0.00000E+00
 -1      4248 2.46240E+01 2.12853E+01 0.00000E+00
 -1      4249 2.43820E+01 2.34032E+01 0.00000E+00
 -1      4250 2.68497E+01 2.25893E+01 0.00000E+00
 -1      4251 2.56329E+01 2.48071E+01 0.00000E+00
 -1      4252 2.71329E+01 2.48071E+01 0.00000E+00
 -1      4253 2.43990E+01 2.52141E+01 0.00000E+00
 -1      4254 3.54000E+01 2.53190E+01 0.00000E+00
 -1      4255 3.69000E+01 2.53190E+01 0.00000E+00
 -1      4256 4.43138E+01 2.26492E+01 0.00000E+00
 -1      4257 4.46213E+01 2.48621E+01 0.00000E+00
 -1      4258 4.61213E+01 2.48621E+01 0.00000E+00
 -1      4259 4.50638E+01 2.13502E+01 0.00000E+00
 -1      4260 5.00925E+01 2.31061E+01 0.00000E+00
 -1      4261 1.07592E+02 2.34042E+01 0.00000E+00
 -1      4262 3.76500E+01 2.40200E+01 0.00000E+00
 -1      4263 3.85350E+01 2.21923E+01 0.00000E+00
 -1      4264 3.77850E+01 2.08933E+01 0.00000E+00
 -1      4265 4.65638E+01 2.13502E+01 0.00000E+00
 -1      4266 3.62850E+01 2.08933E+01 0.00000E+00
 -1      4267 3.95925E+01 2.31061E+01 0.00000E+00
 -1      4268 3.80925E+01 2.31061E+01 0.00000E+00
 -1      4269 3.50925E+01 2.31061E+01 0.00000E+00
 -1      4270 4.68713E+01 2.35631E+01 0.00000E+00
 -1      4271 4.93425E+01 2.18071E+01 0.00000E+00
 -1      4272 2.83668E+01 2.44002E+01 0.00000E+00
 -1      4273 4.78425E+01 2.18071E+01 0.00000E+00
 -1      4274 4.10925E+01 2.31061E+01 0.00000E+00
 -1      4275 3.65925E+01 2.31061E+01 0.00000E+00
 -1      4276 3.55350E+01 2.21923E+01 0.00000E+00
 -3
    3C                          2056                                     1
 -1       165    8    0    1
 -2         6         7        23      1111      1275      1128
 -1       166    8    0    1
 -2         7         8       165      1112      1276      1277
 -1       167    8    0    1
 -2         8         9       166      1113      1278      1279
 -1       168    8    0    1
 -2         8       166       165      1279      1280      1276
 -1       169    8    0    1
 -2         9        10       167      1114      1281      1282
 -1       170    8    0    1
 -2         9       167       166      1282      1283      1278
 -1       171    8    0    1
 -2        10        11       168      1115      1284      1285
 -1       172    8    0    1
 -2        10       168       167      1285      1286      1281
 -1       173    8    0    1
 -2        11        12       169      1116      1287      1288
 -1       174    8    0    1
 -2        11       169       168      1288      1289      1284
 -1       175    8    0    1
 -2        12        13       170      1117      1290      1291
 -1       176    8    0    1
 -2        12       170       169      1291      1292      1287
 -1       177    8    0    1
 -2        13        14       171      1118      1293      1294
 -1       178    8    0    1
 -2        13       171       170      1294      1295      1290
 -1       179    8    0    1
 -2        14        15       172      1119      1296      1297
 -1       180    8    0    1
 -2        14       172       171      1297      1298      1293
 -1       181    8    0    1
 -2        15        16       173      1120      1299      1300
 -1       182    8    0    1
 -2        15       173       172      1300      1301      1296
 -1       183    8    0    1
 -2        16        17       174      1121      1302      1303
 -1       184    8    0    1
 -2        16       174       173      1303      1304      1299
 -1       185    8    0    1
 -2        17        18       175      1122      1305      1306
 -1       186    8    0    1
 -2        17       175       174      1306      1307      1302
 -1       187    8    0    1
 -2        18        19       176      1123      1308      1309
 -1       188    8    0    1
 -2        18       176       175      1309      1310      1305
 -1       189    8    0    1
 -2        19        20       177      1124      1311      1312
 -1       190    8    0    1
 -2        19       177       176      1312      1313      1308
 -1       191    8    0    1
 -2        20        21       178      1125      1314      1315
 -1       192    8    0    1
 -2        20       178       177      1315      1316      1311
 -1       193    8    0    1
 -2        21        22       179      1126      1317      1318
 -1       194    8    0    1
 -2        21       179       178      1318      1319      1314
 -1       195    8    0    1
 -2        22         5       180      1127      1320      1321
 -1       196    8    0    1
 -2       179        22       180      1317      1321      1322
 -1       197    8    0    1
 -2         5        72       180      1178      1323      1320
 -1       198    8    0    1
 -2        24        23       181      1129      1324      1325
 -1       199    8    0    1
 -2        25        24       182      1130      1326      1327
 -1       200    8    0    1
 -2        24       181       182      1325      1328      1326
 -1       201    8    0    1
 -2        26        25       183      1131      1329      1330
 -1       202    8    0    1
 -2        25       182       183      1327      1331      1329
 -1       203    8    0    1
 -2        27        26       184      1132      1332      1333
 -1       204    8    0    1
 -2        26       183       184      1330      1334      1332
 -1       205    8    0    1
 -2        28        27       185      1133      1335      1336
 -1       206    8    0    1
 -2        27       184       185      1333      1337      1335
 -1       207    8    0    1
 -2        29        28       186      1134      1338      1339
 -1       208    8    0    1
 -2        28       185       186      1336      1340      1338
 -1       209    8    0    1
 -2        30        29       187      1135      1341      1342
 -1       210    8    0    1
 -2        29       186       187      1339      1343      1341
 -1       211    8    0    1
 -2        31        30       188      1136      1344      1345
 -1       212    8    0    1
 -2        30       187       188      1342      1346      1344
 -1       213    8    0    1
 -2        32        31       189      1137      1347      1348
 -1       214    8    0    1
 -2        31       188       189      1345      1349      1347
 -1       215    8    0    1
 -2        33        32       190      1138      1350      1351
 -1       216    8    0    1
 -2        32       189       190      1348      1352      1350
 -1       217    8    0    1
 -2        34        33       191      1139      1353      1354
 -1       218    8    0    1
 -2        33       190       191      1351      1355      1353
 -1       219    8    0    1
 -2        35        34       192      1140      1356      1357
 -1       220    8    0    1
 -2        34       191       192      1354      1358      1356
 -1       221    8    0    1
 -2        36        35       193      1141      1359      1360
 -1       222    8    0    1
 -2        35       192       193      1357      1361      1359
 -1       223    8    0    1
 -2        37        36       194      1142      1362      1363
 -1       224    8    0    1
 -2        36       193       194      1360      1364      1362
 -1       225    8    0    1
 -2        38        37       195      1143      1365      1366
 -1       226    8    0    1
 -2        37       194       195      1363      1367      1365
 -1       227    8    0    1
 -2        39        38       196      1144      1368      1369
 -1       228    8    0    1
 -2        38       195       196      1366      1370      1368
 -1       229    8    0    1
 -2        40        39       197      1145      1371      1372
 -1       230    8    0    1
 -2        39       196       197      1369      1373      1371
 -1       231    8    0    1
 -2        41        40       198      1146      1374      1375
 -1       232    8    0    1
 -2        40       197       198      1372      1376      1374
 -1       233    8    0    1
 -2        42        41       199      1147      1377      1378
 -1       234    8    0    1
 -2        41       198       199      1375      1379      1377
 -1       235    8    0    1
 -2        43        42       200      1148      1380      1381
 -1       236    8    0    1
 -2        42       199       200      1378      1382      1380
 -1       237    8    0    1
 -2        44        43       201      1149      1383      1384
 -1       238    8    0    1
 -2        43       200       201      1381      1385      1383
 -1       239    8    0    1
 -2        45        44       202      1150      1386      1387
 -1       240    8    0    1
 -2        44       201       202      1384      1388      1386
 -1       241    8    0    1
 -2        46        45       203      1151      1389      1390
 -1       242    8    0    1
 -2        45       202       203      1387      1391      1389
 -1       243    8    0    1
 -2        47        46       204      1152      1392      1393
 -1       244    8    0    1
 -2        46       203       204      1390      1394      1392
 -1       245    8    0    1
 -2        48        47       205      1153      1395      1396
 -1       246    8    0    1
 -2        47       204       205      1393      1397      1395
 -1       247    8    0    1
 -2        49        48       206      1154      1398      1399
 -1       248    8    0    1
 -2        48       205       206      1396      1400      1398
 -1       249    8    0    1
 -2        50        49       207      1155      1401      1402
 -1       250    8    0    1
 -2        49       206       207      1399      1403      1401
 -1       251    8    0    1
 -2        51        50       208      1156      1404      1405
 -1       252    8    0    1
 -2        50       207       208      1402      1406      1404
 -1       253    8    0    1
 -2        52        51       209      1157      1407      1408
 -1       254    8    0    1
 -2        51       208       209      1405      1409      1407
 -1       255    8    0    1
 -2        53        52       210      1158      1410      1411
 -1       256    8    0    1
 -2        52       209       210      1408      1412      1410
 -1       257    8    0    1
 -2        54        53       211      1159      1413      1414
 -1       258    8    0    1
 -2        53       210       211      1411      1415      1413
 -1       259    8    0    1
 -2        55        54       212      1160      1416      1417
 -1       260    8    0    1
 -2        54       211       212      1414      1418      1416
 -1       261    8    0    1
 -2        56        55       213      1161      1419      1420
 -1       262    8    0    1
 -2        55       212       213      1417      1421      1419
 -1       263    8    0    1
 -2        57        56       214      1162      1422      1423
 -1       264    8    0    1
 -2        56       213       214      1420      1424      1422
 -1       265    8    0    1
 -2        58        57       215      1163      1425      1426
 -1       266    8    0    1
 -2        57       214       215      1423      1427      1425
 -1       267    8    0    1
 -2        59        58       216      1164      1428      1429
 -1       268    8    0    1
 -2        58       215       216      1426      1430      1428
 -1       269    8    0    1
 -2        60        59       217      1165      1431      1432
 -1       270    8    0    1
 -2        59       216       217      1429      1433      1431
 -1       271    8    0    1
 -2        61        60       218      1166      1434      1435
 -1       272    8    0    1
 -2        60       217       218      1432      1436      1434
 -1       273    8    0    1
 -2        62        61       219      1167      1437      1438
 -1       274    8    0    1
 -2        61       218       219      1435      1439      1437
 -1       275    8    0    1
 -2        63        62       220      1168      1440      1441
 -1       276    8    0    1
 -2        62       219       220      1438      1442      1440
 -1       277    8    0    1
 -2        64        63       221      1169      1443      1444
 -1       278    8    0    1
 -2        63       220       221      1441      1445      1443
 -1       279    8    0    1
 -2        65        64       222      1170      1446      1447
 -1       280    8    0    1
 -2        64       221       222      1444      1448      1446
 -1       281    8    0    1
 -2        66        65       223      1171      1449      1450
 -1       282    8    0    1
 -2        65       222       223      1447      1451      1449
 -1       283    8    0    1
 -2        67        66       224      1172      1452      1453
 -1       284    8    0    1
 -2        66       223       224      1450      1454      1452
 -1       285    8    0    1
 -2        68        67       225      1173      1455      1456
 -1       286    8    0    1
 -2        67       224       225      1453      1457      1455
 -1       287    8    0    1
 -2        69        68       226      1174      1458      1459
 -1       288    8    0    1
 -2        68       225       226      1456      1460      1458
 -1       289    8    0    1
 -2        70        69       227      1175      1461      1462
 -1       290    8    0    1
 -2        69       226       227      1459      1463      1461
 -1       291    8    0    1
 -2        71        70       228      1176      1464      1465
 -1       292    8    0    1
 -2        70       227       228      1462      1466      1464
 -1       293    8    0    1
 -2         4        71       136      1177      1467      1244
 -1       294    8    0    1
 -2       136        71       228      1467      1465      1468
 -1       295    8    0    1
 -2        72        73       229      1179      1469      1470
 -1       296    8    0    1
 -2        72       229       180      1470      1471      1323
 -1       297    8    0    1
 -2        73        74       230      1180      1472      1473
 -1       298    8    0    1
 -2        73       230       229      1473      1474      1469
 -1       299    8    0    1
 -2        74        75       231      1181      1475      1476
 -1       300    8    0    1
 -2        74       231       230      1476      1477      1472
 -1       301    8    0    1
 -2        75        76       232      1182      1478      1479
 -1       302    8    0    1
 -2        75       232       231      1479      1480      1475
 -1       303    8    0    1
 -2        76        77       233      1183      1481      1482
 -1       304    8    0    1
 -2        76       233       232      1482      1483      1478
 -1       305    8    0    1
 -2        77        78       234      1184      1484      1485
 -1       306    8    0    1
 -2        77       234       233      1485      1486      1481
 -1       307    8    0    1
 -2        78        79       235      1185      1487      1488
 -1       308    8    0    1
 -2        78       235       234      1488      1489      1484
 -1       309    8    0    1
 -2        79        80       236      1186      1490      1491
 -1       310    8    0    1
 -2        79       236       235      1491      1492      1487
 -1       311    8    0    1
 -2        80        81       237      1187      1493      1494
 -1       312    8    0    1
 -2        80       237       236      1494      1495      1490
 -1       313    8    0    1
 -2        81        82       238      1188      1496      1497
 -1       314    8    0    1
 -2        81       238       237      1497      1498      1493
 -1       315    8    0    1
 -2        82        83       239      1189      1499      1500
 -1       316    8    0    1
 -2        82       239       238      1500      1501      1496
 -1       317    8    0    1
 -2        83        84       240      1190      1502      1503
 -1       318    8    0    1
 -2        83       240       239      1503      1504      1499
 -1       319    8    0    1
 -2        84        85       241      1191      1505      1506
 -1       320    8    0    1
 -2        84       241       240      1506      1507      1502
 -1       321    8    0    1
 -2        85        86       242      1192      1508      1509
 -1       322    8    0    1
 -2        85       242       241      1509      1510      1505
 -1       323    8    0    1
 -2        86        87       243      1193      1511      1512
 -1       324    8    0    1
 -2        86       243       242      1512      1513      1508
 -1       325    8    0    1
 -2        87        88       244      1194      1514      1515
 -1       326    8    0    1
 -2        87       244       243      1515      1516      1511
 -1       327    8    0    1
 -2        88        89       245      1195      1517      1518
 -1       328    8    0    1
 -2        88       245       244      1518      1519      1514
 -1       329    8    0    1
 -2        89        90       246      1196      1520      1521
 -1       330    8    0    1
 -2        89       246       245      1521      1522      1517
 -1       331    8    0    1
 -2        90        91       247      1197      1523      1524
 -1       332    8    0    1
 -2        90       247       246      1524      1525      1520
 -1       333    8    0    1
 -2        91        92       248      1198      1526      1527
 -1       334    8    0    1
 -2        91       248       247      1527      1528      1523
 -1       335    8    0    1
 -2        92        93       249      1199      1529      1530
 -1       336    8    0    1
 -2        92       249       248      1530      1531      1526
 -1       337    8    0    1
 -2        93        94       250      1200      1532      1533
 -1       338    8    0    1
 -2        93       250       249      1533      1534      1529
 -1       339    8    0    1
 -2        94        95       251      1201      1535      1536
 -1       340    8    0    1
 -2        94       251       250      1536      1537      1532
 -1       341    8    0    1
 -2        95        96       252      1202      1538      1539
 -1       342    8    0    1
 -2        95       252       251      1539      1540      1535
 -1       343    8    0    1
 -2        96        97       253      1203      1541      1542
 -1       344    8    0    1
 -2        96       253       252      1542      1543      1538
 -1       345    8    0    1
 -2        97        98       254      1204      1544      1545
 -1       346    8    0    1
 -2        97       254       253      1545      1546      1541
 -1       347    8    0    1
 -2        98        99       255      1205      1547      1548
 -1       348    8    0    1
 -2        98       255       254      1548      1549      1544
 -1       349    8    0    1
 -2        99       100       256      1206      1550      1551
 -1       350    8    0    1
 -2        99       256       255      1551      1552      1547
 -1       351    8    0    1
 -2       100       101       257      1207      1553      1554
 -1       352    8    0    1
 -2       100       257       256      1554      1555      1550
 -1       353    8    0    1
 -2       101       102       258      1208      1556      1557
 -1       354    8    0    1
 -2       101       258       257      1557      1558      1553
 -1       355    8    0    1
 -2       102       103       259      1209      1559      1560
 -1       356    8    0    1
 -2       102       259       258      1560      1561      1556
 -1       357    8    0    1
 -2       103       104       260      1210      1562      1563
 -1       358    8    0    1
 -2       103       260       259      1563      1564      1559
 -1       359    8    0    1
 -2       104       105       261      1211      1565      1566
 -1       360    8    0    1
 -2       104       261       260      1566      1567      1562
 -1       361    8    0    1
 -2       105       106       262      1212      1568      1569
 -1       362    8    0    1
 -2       105       262       261      1569      1570      1565
 -1       363    8    0    1
 -2       106       107       263      1213      1571      1572
 -1       364    8    0    1
 -2       106       263       262      1572      1573      1568
 -1       365    8    0    1
 -2       107       108       264      1214      1574      1575
 -1       366    8    0    1
 -2       107       264       263      1575      1576      1571
 -1       367    8    0    1
 -2       108       109       265      1215      1577      1578
 -1       368    8    0    1
 -2       108       265       264      1578      1579      1574
 -1       369    8    0    1
 -2       109       110       266      1216      1580      1581
 -1       370    8    0    1
 -2       109       266       265      1581      1582      1577
 -1       371    8    0    1
 -2       110       111       267      1217      1583      1584
 -1       372    8    0    1
 -2       110       267       266      1584      1585      1580
 -1       373    8    0    1
 -2       111       112       268      1218      1586      1587
 -1       374    8    0    1
 -2       111       268       267      1587      1588      1583
 -1       375    8    0    1
 -2       112       113       269      1219      1589      1590
 -1       376    8    0    1
 -2       112       269       268      1590      1591      1586
 -1       377    8    0    1
 -2       113       114       270      1220      1592      1593
 -1       378    8    0    1
 -2       113       270       269      1593      1594      1589
 -1       379    8    0    1
 -2       114       115       271      1221      1595      1596
 -1       380    8    0    1
 -2       114       271       270      1596      1597      1592
 -1       381    8    0    1
 -2       115       116       272      1222      1598      1599
 -1       382    8    0    1
 -2       115       272       271      1599      1600      1595
 -1       383    8    0    1
 -2       116       117       273      1223      1601      1602
 -1       384    8    0    1
 -2       116       273       272      1602      1603      1598
 -1       385    8    0    1
 -2       117       118       274      1224      1604      1605
 -1       386    8    0    1
 -2       117       274       273      1605      1606      1601
 -1       387    8    0    1
 -2       118       119       275      1225      1607      1608
 -1       388    8    0    1
 -2       118       275       274      1608      1609      1604
 -1       389    8    0    1
 -2       119       120       276      1226      1610      1611
 -1       390    8    0    1
 -2       119       276       275      1611      1612      1607
 -1       391    8    0    1
 -2       120         3       121      1227      1228      1613
 -1       392    8    0    1
 -2       121       122       277      1229      1614      1615
 -1       393    8    0    1
 -2       122       123       278      1230      1616      1617
 -1       394    8    0    1
 -2       122       278       277      1617      1618      1614
 -1       395    8    0    1
 -2       123       124       279      1231      1619      1620
 -1       396    8    0    1
 -2       123       279       278      1620      1621      1616
 -1       397    8    0    1
 -2       124       125       280      1232      1622      1623
 -1       398    8    0    1
 -2       124       280       279      1623      1624      1619
 -1       399    8    0    1
 -2       125       126       281      1233      1625      1626
 -1       400    8    0    1
 -2       125       281       280      1626      1627      1622
 -1       401    8    0    1
 -2       126       127       282      1234      1628      1629
 -1       402    8    0    1
 -2       126       282       281      1629      1630      1625
 -1       403    8    0    1
 -2       127       128       283      1235      1631      1632
 -1       404    8    0    1
 -2       127       283       282      1632      1633      1628
 -1       405    8    0    1
 -2       128       129       284      1236      1634      1635
 -1       406    8    0    1
 -2       128       284       283      1635      1636      1631
 -1       407    8    0    1
 -2       129       130       285      1237      1637      1638
 -1       408    8    0    1
 -2       129       285       284      1638      1639      1634
 -1       409    8    0    1
 -2       130       131       286      1238      1640      1641
 -1       410    8    0    1
 -2       130       286       285      1641      1642      1637
 -1       411    8    0    1
 -2       131       132       287      1239      1643      1644
 -1       412    8    0    1
 -2       131       287       286      1644      1645      1640
 -1       413    8    0    1
 -2       132       133       288      1240      1646      1647
 -1       414    8    0    1
 -2       132       288       287      1647      1648      1643
 -1       415    8    0    1
 -2       133       134       289      1241      1649      1650
 -1       416    8    0    1
 -2       133       289       288      1650      1651      1646
 -1       417    8    0    1
 -2       134       135       290      1242      1652      1653
 -1       418    8    0    1
 -2       134       290       289      1653      1654      1649
 -1       419    8    0    1
 -2       135       136       291      1243      1655      1656
 -1       420    8    0    1
 -2       290       135       291      1652      1656      1657
 -1       421    8    0    1
 -2       136       228       291      1468      1658      1655
 -1       422    8    0    1
 -2         2       137       292      1245      1659      1660
 -1       423    8    0    1
 -2       137       138       293      1246      1661      1662
 -1       424    8    0    1
 -2       138       139       294      1247      1663      1664
 -1       425    8    0    1
 -2       139       140       295      1248      1665      1666
 -1       426    8    0    1
 -2       140       141       296      1249      1667      1668
 -1       427    8    0    1
 -2       141       142       297      1250      1669      1670
 -1       428    8    0    1
 -2       142       143       298      1251      1671      1672
 -1       429    8    0    1
 -2       143       144       299      1252      1673      1674
 -1       430    8    0    1
 -2       144       145       300      1253      1675      1676
 -1       431    8    0    1
 -2       145       146       301      1254      1677      1678
 -1       432    8    0    1
 -2       146       147       302      1255      1679      1680
 -1       433    8    0    1
 -2       147       148       303      1256      1681      1682
 -1       434    8    0    1
 -2       147       303       302      1682      1683      1679
 -1       435    8    0    1
 -2       148       149       304      1257      1684      1685
 -1       436    8    0    1
 -2       149       150       305      1258      1686      1687
 -1       437    8    0    1
 -2       150       151       306      1259      1688      1689
 -1       438    8    0    1
 -2       151         1       307      1260      1690      1691
 -1       439    8    0    1
 -2         1       152       308      1261      1692      1693
 -1       440    8    0    1
 -2       152       153       309      1262      1694      1695
 -1       441    8    0    1
 -2       153       154       310      1263      1696      1697
 -1       442    8    0    1
 -2       154       155       311      1264      1698      1699
 -1       443    8    0    1
 -2       155       156       312      1265      1700      1701
 -1       444    8    0    1
 -2       156       157       313      1266      1702      1703
 -1       445    8    0    1
 -2       157       158       314      1267      1704      1705
 -1       446    8    0    1
 -2       158       159       315      1268      1706      1707
 -1       447    8    0    1
 -2       159       160       316      1269      1708      1709
 -1       448    8    0    1
 -2       160       161       317      1270      1710      1711
 -1       449    8    0    1
 -2       161       162       318      1271      1712      1713
 -1       450    8    0    1
 -2       162       163       319      1272      1714      1715
 -1       451    8    0    1
 -2       163       164       320      1273      1716      1717
 -1       452    8    0    1
 -2       164         2       321      1274      1718      1719
 -1       453    8    0    1
 -2       295       140       296      1665      1668      1720
 -1       454    8    0    1
 -2       294       139       295      1663      1666      1721
 -1       455    8    0    1
 -2       120       121       276      1613      1722      1610
 -1       456    8    0    1
 -2       121       277       276      1615      1723      1722
 -1       457    8    0    1
 -2       292       137       293      1659      1662      1724
 -1       458    8    0    1
 -2       293       138       294      1661      1664      1725
 -1       459    8    0    1
 -2         2       292       321      1660      1726      1718
 -1       460    8    0    1
 -2       141       297       296      1670      1727      1667
 -1       461    8    0    1
 -2       142       298       297      1672      1728      1669
 -1       462    8    0    1
 -2       143       299       298      1674      1729      1671
 -1       463    8    0    1
 -2       144       300       299      1676      1730      1673
 -1       464    8    0    1
 -2       145       301       300      1678      1731      1675
 -1       465    8    0    1
 -2       146       302       301      1680      1732      1677
 -1       466    8    0    1
 -2       304       149       305      1684      1687      1733
 -1       467    8    0    1
 -2       150       306       305      1689      1734      1686
 -1       468    8    0    1
 -2       151       307       306      1691      1735      1688
 -1       469    8    0    1
 -2         1       308       307      1693      1736      1690
 -1       470    8    0    1
 -2       152       309       308      1695      1737      1692
 -1       471    8    0    1
 -2       153       310       309      1697      1738      1694
 -1       472    8    0    1
 -2       154       311       310      1699      1739      1696
 -1       473    8    0    1
 -2       155       312       311      1701      1740      1698
 -1       474    8    0    1
 -2       156       313       312      1703      1741      1700
 -1       475    8    0    1
 -2       157       314       313      1705      1742      1702
 -1       476    8    0    1
 -2       158       315       314      1707      1743      1704
 -1       477    8    0    1
 -2       159       316       315      1709      1744      1706
 -1       478    8    0    1
 -2       160       317       316      1711      1745      1708
 -1       479    8    0    1
 -2       161       318       317      1713      1746      1710
 -1       480    8    0    1
 -2       162       319       318      1715      1747      1712
 -1       481    8    0    1
 -2       163       320       319      1717      1748      1714
 -1       482    8    0    1
 -2       164       321       320      1719      1749      1716
 -1       483    8    0    1
 -2        23         7       165      1275      1277      1750
 -1       484    8    0    1
 -2       148       304       303      1685      1751      1681
 -1       485    8    0    1
 -2       166       167       322      1283      1752      1753
 -1       486    8    0    1
 -2       165       166       323      1280      1754      1755
 -1       487    8    0    1
 -2       166       322       323      1753      1756      1754
 -1       488    8    0    1
 -2       168       169       324      1289      1757      1758
 -1       489    8    0    1
 -2       169       170       325      1292      1759      1760
 -1       490    8    0    1
 -2       169       325       324      1760      1761      1757
 -1       491    8    0    1
 -2       170       171       326      1295      1762      1763
 -1       492    8    0    1
 -2       170       326       325      1763      1764      1759
 -1       493    8    0    1
 -2       171       172       327      1298      1765      1766
 -1       494    8    0    1
 -2       171       327       326      1766      1767      1762
 -1       495    8    0    1
 -2       172       173       328      1301      1768      1769
 -1       496    8    0    1
 -2       172       328       327      1769      1770      1765
 -1       497    8    0    1
 -2       173       174       329      1304      1771      1772
 -1       498    8    0    1
 -2       173       329       328      1772      1773      1768
 -1       499    8    0    1
 -2       174       175       330      1307      1774      1775
 -1       500    8    0    1
 -2       174       330       329      1775      1776      1771
 -1       501    8    0    1
 -2       175       176       331      1310      1777      1778
 -1       502    8    0    1
 -2       175       331       330      1778      1779      1774
 -1       503    8    0    1
 -2       176       177       332      1313      1780      1781
 -1       504    8    0    1
 -2       176       332       331      1781      1782      1777
 -1       505    8    0    1
 -2       177       178       333      1316      1783      1784
 -1       506    8    0    1
 -2       177       333       332      1784      1785      1780
 -1       507    8    0    1
 -2       178       179       334      1319      1786      1787
 -1       508    8    0    1
 -2       178       334       333      1787      1788      1783
 -1       509    8    0    1
 -2       179       180       335      1322      1789      1790
 -1       510    8    0    1
 -2       334       179       335      1786      1790      1791
 -1       511    8    0    1
 -2       180       229       335      1471      1792      1789
 -1       512    8    0    1
 -2       181        23       165      1324      1750      1793
 -1       513    8    0    1
 -2       229       230       336      1474      1794      1795
 -1       514    8    0    1
 -2       229       336       335      1795      1796      1792
 -1       515    8    0    1
 -2       303       304       337      1751      1797      1798
 -1       516    8    0    1
 -2       181       165       323      1793      1755      1799
 -1       517    8    0    1
 -2       183       182       338      1331      1800      1801
 -1       518    8    0    1
 -2       184       183       339      1334      1802      1803
 -1       519    8    0    1
 -2       183       338       339      1801      1804      1802
 -1       520    8    0    1
 -2       185       184       340      1337      1805      1806
 -1       521    8    0    1
 -2       184       339       340      1803      1807      1805
 -1       522    8    0    1
 -2       186       185       341      1340      1808      1809
 -1       523    8    0    1
 -2       185       340       341      1806      1810      1808
 -1       524    8    0    1
 -2       187       186       342      1343      1811      1812
 -1       525    8    0    1
 -2       186       341       342      1809      1813      1811
 -1       526    8    0    1
 -2       188       187       343      1346      1814      1815
 -1       527    8    0    1
 -2       187       342       343      1812      1816      1814
 -1       528    8    0    1
 -2       189       188       344      1349      1817      1818
 -1       529    8    0    1
 -2       188       343       344      1815      1819      1817
 -1       530    8    0    1
 -2       190       189       345      1352      1820      1821
 -1       531    8    0    1
 -2       189       344       345      1818      1822      1820
 -1       532    8    0    1
 -2       191       190       346      1355      1823      1824
 -1       533    8    0    1
 -2       190       345       346      1821      1825      1823
 -1       534    8    0    1
 -2       192       191       347      1358      1826      1827
 -1       535    8    0    1
 -2       191       346       347      1824      1828      1826
 -1       536    8    0    1
 -2       193       192       348      1361      1829      1830
 -1       537    8    0    1
 -2       192       347       348      1827      1831      1829
 -1       538    8    0    1
 -2       194       193       349      1364      1832      1833
 -1       539    8    0    1
 -2       193       348       349      1830      1834      1832
 -1       540    8    0    1
 -2       195       194       350      1367      1835      1836
 -1       541    8    0    1
 -2       194       349       350      1833      1837      1835
 -1       542    8    0    1
 -2       196       195       351      1370      1838      1839
 -1       543    8    0    1
 -2       195       350       351      1836      1840      1838
 -1       544    8    0    1
 -2       197       196       352      1373      1841      1842
 -1       545    8    0    1
 -2       196       351       352      1839      1843      1841
 -1       546    8    0    1
 -2       198       197       353      1376      1844      1845
 -1       547    8    0    1
 -2       197       352       353      1842      1846      1844
 -1       548    8    0    1
 -2       199       198       354      1379      1847      1848
 -1       549    8    0    1
 -2       198       353       354      1845      1849      1847
 -1       550    8    0    1
 -2       200       199       355      1382      1850      1851
 -1       551    8    0    1
 -2       199       354       355      1848      1852      1850
 -1       552    8    0    1
 -2       201       200       356      1385      1853      1854
 -1       553    8    0    1
 -2       200       355       356      1851      1855      1853
 -1       554    8    0    1
 -2       202       201       357      1388      1856      1857
 -1       555    8    0    1
 -2       201       356       357      1854      1858      1856
 -1       556    8    0    1
 -2       203       202       358      1391      1859      1860
 -1       557    8    0    1
 -2       202       357       358      1857      1861      1859
 -1       558    8    0    1
 -2       204       203       359      1394      1862      1863
 -1       559    8    0    1
 -2       203       358       359      1860      1864      1862
 -1       560    8    0    1
 -2       205       204       360      1397      1865      1866
 -1       561    8    0    1
 -2       204       359       360      1863      1867      1865
 -1       562    8    0    1
 -2       206       205       361      1400      1868      1869
 -1       563    8    0    1
 -2       205       360       361      1866      1870      1868
 -1       564    8    0    1
 -2       207       206       362      1403      1871      1872
 -1       565    8    0    1
 -2       206       361       362      1869      1873      1871
 -1       566    8    0    1
 -2       208       207       363      1406      1874      1875
 -1       567    8    0    1
 -2       207       362       363      1872      1876      1874
 -1       568    8    0    1
 -2       209       208       364      1409      1877      1878
 -1       569    8    0    1
 -2       208       363       364      1875      1879      1877
 -1       570    8    0    1
 -2       210       209       365      1412      1880      1881
 -1       571    8    0    1
 -2       209       364       365      1878      1882      1880
 -1       572    8    0    1
 -2       211       210       366      1415      1883      1884
 -1       573    8    0    1
 -2       210       365       366      1881      1885      1883
 -1       574    8    0    1
 -2       212       211       367      1418      1886      1887
 -1       575    8    0    1
 -2       211       366       367      1884      1888      1886
 -1       576    8    0    1
 -2       213       212       368      1421      1889      1890
 -1       577    8    0    1
 -2       212       367       368      1887      1891      1889
 -1       578    8    0    1
 -2       214       213       369      1424      1892      1893
 -1       579    8    0    1
 -2       213       368       369      1890      1894      1892
 -1       580    8    0    1
 -2       215       214       370      1427      1895      1896
 -1       581    8    0    1
 -2       214       369       370      1893      1897      1895
 -1       582    8    0    1
 -2       216       215       371      1430      1898      1899
 -1       583    8    0    1
 -2       215       370       371      1896      1900      1898
 -1       584    8    0    1
 -2       217       216       372      1433      1901      1902
 -1       585    8    0    1
 -2       216       371       372      1899      1903      1901
 -1       586    8    0    1
 -2       218       217       373      1436      1904      1905
 -1       587    8    0    1
 -2       217       372       373      1902      1906      1904
 -1       588    8    0    1
 -2       219       218       374      1439      1907      1908
 -1       589    8    0    1
 -2       218       373       374      1905      1909      1907
 -1       590    8    0    1
 -2       220       219       375      1442      1910      1911
 -1       591    8    0    1
 -2       219       374       375      1908      1912      1910
 -1       592    8    0    1
 -2       221       220       376      1445      1913      1914
 -1       593    8    0    1
 -2       220       375       376      1911      1915      1913
 -1       594    8    0    1
 -2       222       221       377      1448      1916      1917
 -1       595    8    0    1
 -2       221       376       377      1914      1918      1916
 -1       596    8    0    1
 -2       223       222       378      1451      1919      1920
 -1       597    8    0    1
 -2       222       377       378      1917      1921      1919
 -1       598    8    0    1
 -2       224       223       379      1454      1922      1923
 -1       599    8    0    1
 -2       223       378       379      1920      1924      1922
 -1       600    8    0    1
 -2       225       224       380      1457      1925      1926
 -1       601    8    0    1
 -2       224       379       380      1923      1927      1925
 -1       602    8    0    1
 -2       226       225       381      1460      1928      1929
 -1       603    8    0    1
 -2       225       380       381      1926      1930      1928
 -1       604    8    0    1
 -2       227       226       382      1463      1931      1932
 -1       605    8    0    1
 -2       226       381       382      1929      1933      1931
 -1       606    8    0    1
 -2       228       227       383      1466      1934      1935
 -1       607    8    0    1
 -2       291       228       383      1658      1935      1936
 -1       608    8    0    1
 -2       227       382       383      1932      1937      1934
 -1       609    8    0    1
 -2       230       231       384      1477      1938      1939
 -1       610    8    0    1
 -2       230       384       336      1939      1940      1794
 -1       611    8    0    1
 -2       231       232       385      1480      1941      1942
 -1       612    8    0    1
 -2       231       385       384      1942      1943      1938
 -1       613    8    0    1
 -2       232       233       386      1483      1944      1945
 -1       614    8    0    1
 -2       232       386       385      1945      1946      1941
 -1       615    8    0    1
 -2       233       234       387      1486      1947      1948
 -1       616    8    0    1
 -2       233       387       386      1948      1949      1944
 -1       617    8    0    1
 -2       234       235       388      1489      1950      1951
 -1       618    8    0    1
 -2       234       388       387      1951      1952      1947
 -1       619    8    0    1
 -2       235       236       389      1492      1953      1954
 -1       620    8    0    1
 -2       235       389       388      1954      1955      1950
 -1       621    8    0    1
 -2       236       237       390      1495      1956      1957
 -1       622    8    0    1
 -2       236       390       389      1957      1958      1953
 -1       623    8    0    1
 -2       237       238       391      1498      1959      1960
 -1       624    8    0    1
 -2       237       391       390      1960      1961      1956
 -1       625    8    0    1
 -2       238       239       392      1501      1962      1963
 -1       626    8    0    1
 -2       238       392       391      1963      1964      1959
 -1       627    8    0    1
 -2       239       240       393      1504      1965      1966
 -1       628    8    0    1
 -2       239       393       392      1966      1967      1962
 -1       629    8    0    1
 -2       240       241       394      1507      1968      1969
 -1       630    8    0    1
 -2       240       394       393      1969      1970      1965
 -1       631    8    0    1
 -2       241       242       395      1510      1971      1972
 -1       632    8    0    1
 -2       241       395       394      1972      1973      1968
 -1       633    8    0    1
 -2       242       243       396      1513      1974      1975
 -1       634    8    0    1
 -2       242       396       395      1975      1976      1971
 -1       635    8    0    1
 -2       243       244       397      1516      1977      1978
 -1       636    8    0    1
 -2       243       397       396      1978      1979      1974
 -1       637    8    0    1
 -2       244       245       398      1519      1980      1981
 -1       638    8    0    1
 -2       244       398       397      1981      1982      1977
 -1       639    8    0    1
 -2       245       246       399      1522      1983      1984
 -1       640    8    0    1
 -2       245       399       398      1984      1985      1980
 -1       641    8    0    1
 -2       246       247       400      1525      1986      1987
 -1       642    8    0    1
 -2       246       400       399      1987      1988      1983
 -1       643    8    0    1
 -2       247       248       401      1528      1989      1990
 -1       644    8    0    1
 -2       247       401       400      1990      1991      1986
 -1       645    8    0    1
 -2       248       249       402      1531      1992      1993
 -1       646    8    0    1
 -2       248       402       401      1993      1994      1989
 -1       647    8    0    1
 -2       249       250       403      1534      1995      1996
 -1       648    8    0    1
 -2       249       403       402      1996      1997      1992
 -1       649    8    0    1
 -2       250       251       404      1537      1998      1999
 -1       650    8    0    1
 -2       250       404       403      1999      2000      1995
 -1       651    8    0    1
 -2       251       252       405      1540      2001      2002
 -1       652    8    0    1
 -2       251       405       404      2002      2003      1998
 -1       653    8    0    1
 -2       252       253       406      1543      2004      2005
 -1       654    8    0    1
 -2       252       406       405      2005      2006      2001
 -1       655    8    0    1
 -2       253       254       407      1546      2007      2008
 -1       656    8    0    1
 -2       253       407       406      2008      2009      2004
 -1       657    8    0    1
 -2       254       255       408      1549      2010      2011
 -1       658    8    0    1
 -2       254       408       407      2011      2012      2007
 -1       659    8    0    1
 -2       255       256       409      1552      2013      2014
 -1       660    8    0    1
 -2       255       409       408      2014      2015      2010
 -1       661    8    0    1
 -2       256       257       410      1555      2016      2017
 -1       662    8    0    1
 -2       256       410       409      2017      2018      2013
 -1       663    8    0    1
 -2       257       258       411      1558      2019      2020
 -1       664    8    0    1
 -2       257       411       410      2020      2021      2016
 -1       665    8    0    1
 -2       258       259       412      1561      2022      2023
 -1       666    8    0    1
 -2       258       412       411      2023      2024      2019
 -1       667    8    0    1
 -2       259       260       413      1564      2025      2026
 -1       668    8    0    1
 -2       259       413       412      2026      2027      2022
 -1       669    8    0    1
 -2       260       261       414      1567      2028      2029
 -1       670    8    0    1
 -2       260       414       413      2029      2030      2025
 -1       671    8    0    1
 -2       261       262       415      1570      2031      2032
 -1       672    8    0    1
 -2       261       415       414      2032      2033      2028
 -1       673    8    0    1
 -2       262       263       416      1573      2034      2035
 -1       674    8    0    1
 -2       262       416       415      2035      2036      2031
 -1       675    8    0    1
 -2       263       264       417      1576      2037      2038
 -1       676    8    0    1
 -2       263       417       416      2038      2039      2034
 -1       677    8    0    1
 -2       264       265       418      1579      2040      2041
 -1       678    8    0    1
 -2       264       418       417      2041      2042      2037
 -1       679    8    0    1
 -2       265       266       419      1582      2043      2044
 -1       680    8    0    1
 -2       265       419       418      2044      2045      2040
 -1       681    8    0    1
 -2       266       267       420      1585      2046      2047
 -1       682    8    0    1
 -2       266       420       419      2047      2048      2043
 -1       683    8    0    1
 -2       267       268       421      1588      2049      2050
 -1       684    8    0    1
 -2       267       421       420      2050      2051      2046
 -1       685    8    0    1
 -2       268       269       422      1591      2052      2053
 -1       686    8    0    1
 -2       268       422       421      2053      2054      2049
 -1       687    8    0    1
 -2       269       270       423      1594      2055      2056
 -1       688    8    0    1
 -2       269       423       422      2056      2057      2052
 -1       689    8    0    1
 -2       270       271       424      1597      2058      2059
 -1       690    8    0    1
 -2       270       424       423      2059      2060      2055
 -1       691    8    0    1
 -2       271       272       425      1600      2061      2062
 -1       692    8    0    1
 -2       271       425       424      2062      2063      2058
 -1       693    8    0    1
 -2       272       273       426      1603      2064      2065
 -1       694    8    0    1
 -2       272       426       425      2065      2066      2061
 -1       695    8    0    1
 -2       273       274       427      1606      2067      2068
 -1       696    8    0    1
 -2       273       427       426      2068      2069      2064
 -1       697    8    0    1
 -2       274       275       428      1609      2070      2071
 -1       698    8    0    1
 -2       274       428       427      2071      2072      2067
 -1       699    8    0    1
 -2       275       276       429      1612      2073      2074
 -1       700    8    0    1
 -2       428       275       429      2070      2074      2075
 -1       701    8    0    1
 -2       276       277       429      1723      2076      2073
 -1       702    8    0    1
 -2       279       280       430      1624      2077      2078
 -1       703    8    0    1
 -2       278       279       431      1621      2079      2080
 -1       704    8    0    1
 -2       279       430       431      2078      2081      2079
 -1       705    8    0    1
 -2       277       278       432      1618      2082      2083
 -1       706    8    0    1
 -2       429       277       432      2076      2083      2084
 -1       707    8    0    1
 -2       278       431       432      2080      2085      2082
 -1       708    8    0    1
 -2       280       281       433      1627      2086      2087
 -1       709    8    0    1
 -2       280       433       430      2087      2088      2077
 -1       710    8    0    1
 -2       281       282       434      1630      2089      2090
 -1       711    8    0    1
 -2       281       434       433      2090      2091      2086
 -1       712    8    0    1
 -2       282       283       435      1633      2092      2093
 -1       713    8    0    1
 -2       282       435       434      2093      2094      2089
 -1       714    8    0    1
 -2       283       284       436      1636      2095      2096
 -1       715    8    0    1
 -2       283       436       435      2096      2097      2092
 -1       716    8    0    1
 -2       284       285       437      1639      2098      2099
 -1       717    8    0    1
 -2       284       437       436      2099      2100      2095
 -1       718    8    0    1
 -2       285       286       438      1642      2101      2102
 -1       719    8    0    1
 -2       285       438       437      2102      2103      2098
 -1       720    8    0    1
 -2       286       287       439      1645      2104      2105
 -1       721    8    0    1
 -2       287       288       440      1648      2106      2107
 -1       722    8    0    1
 -2       288       289       441      1651      2108      2109
 -1       723    8    0    1
 -2       288       441       440      2109      2110      2106
 -1       724    8    0    1
 -2       289       290       442      1654      2111      2112
 -1       725    8    0    1
 -2       289       442       441      2112      2113      2108
 -1       726    8    0    1
 -2       293       294       443      1725      2114      2115
 -1       727    8    0    1
 -2       321       292       444      1726      2116      2117
 -1       728    8    0    1
 -2       292       293       445      1724      2118      2119
 -1       729    8    0    1
 -2       294       295       446      1721      2120      2121
 -1       730    8    0    1
 -2       302       303       447      1683      2122      2123
 -1       731    8    0    1
 -2       305       306       448      1734      2124      2125
 -1       732    8    0    1
 -2       295       296       449      1720      2126      2127
 -1       733    8    0    1
 -2       167       168       450      1286      2128      2129
 -1       734    8    0    1
 -2       322       167       450      1752      2129      2130
 -1       735    8    0    1
 -2       168       324       450      1758      2131      2128
 -1       736    8    0    1
 -2       297       298       451      1728      2132      2133
 -1       737    8    0    1
 -2       298       299       452      1729      2134      2135
 -1       738    8    0    1
 -2       298       452       451      2135      2136      2132
 -1       739    8    0    1
 -2       299       300       453      1730      2137      2138
 -1       740    8    0    1
 -2       300       301       454      1731      2139      2140
 -1       741    8    0    1
 -2       301       302       455      1732      2141      2142
 -1       742    8    0    1
 -2       301       455       454      2142      2143      2139
 -1       743    8    0    1
 -2       304       305       456      1733      2144      2145
 -1       744    8    0    1
 -2       306       307       457      1735      2146      2147
 -1       745    8    0    1
 -2       307       308       458      1736      2148      2149
 -1       746    8    0    1
 -2       308       309       459      1737      2150      2151
 -1       747    8    0    1
 -2       308       459       458      2151      2152      2148
 -1       748    8    0    1
 -2       309       310       460      1738      2153      2154
 -1       749    8    0    1
 -2       310       311       461      1739      2155      2156
 -1       750    8    0    1
 -2       311       312       462      1740      2157      2158
 -1       751    8    0    1
 -2       312       313       463      1741      2159      2160
 -1       752    8    0    1
 -2       313       314       464      1742      2161      2162
 -1       753    8    0    1
 -2       314       315       465      1743      2163      2164
 -1       754    8    0    1
 -2       315       316       466      1744      2165      2166
 -1       755    8    0    1
 -2       316       317       467      1745      2167      2168
 -1       756    8    0    1
 -2       317       318       468      1746      2169      2170
 -1       757    8    0    1
 -2       317       468       467      2170      2171      2167
 -1       758    8    0    1
 -2       318       319       469      1747      2172      2173
 -1       759    8    0    1
 -2       319       320       470      1748      2174      2175
 -1       760    8    0    1
 -2       320       321       471      1749      2176      2177
 -1       761    8    0    1
 -2       296       297       472      1727      2178      2179
 -1       762    8    0    1
 -2       303       337       447      1798      2180      2122
 -1       763    8    0    1
 -2       444       292       445      2116      2119      2181
 -1       764    8    0    1
 -2       337       304       456      1797      2145      2182
 -1       765    8    0    1
 -2       182       181       323      1328      1799      2183
 -1       766    8    0    1
 -2       338       182       323      1800      2183      2184
 -1       767    8    0    1
 -2       293       443       445      2115      2185      2118
 -1       768    8    0    1
 -2       286       439       438      2105      2186      2101
 -1       769    8    0    1
 -2       439       287       440      2104      2107      2187
 -1       770    8    0    1
 -2       443       294       446      2114      2121      2188
 -1       771    8    0    1
 -2       290       291       473      1657      2189      2190
 -1       772    8    0    1
 -2       442       290       473      2111      2190      2191
 -1       773    8    0    1
 -2       291       383       473      1936      2192      2189
 -1       774    8    0    1
 -2       321       444       471      2117      2193      2176
 -1       775    8    0    1
 -2       302       447       455      2123      2194      2141
 -1       776    8    0    1
 -2       472       297       451      2178      2133      2195
 -1       777    8    0    1
 -2       470       320       471      2174      2177      2196
 -1       778    8    0    1
 -2       468       318       469      2169      2173      2197
 -1       779    8    0    1
 -2       466       316       467      2165      2168      2198
 -1       780    8    0    1
 -2       305       448       456      2125      2199      2144
 -1       781    8    0    1
 -2       465       315       466      2163      2166      2200
 -1       782    8    0    1
 -2       295       449       446      2127      2201      2120
 -1       783    8    0    1
 -2       464       314       465      2161      2164      2202
 -1       784    8    0    1
 -2       463       313       464      2159      2162      2203
 -1       785    8    0    1
 -2       462       312       463      2157      2160      2204
 -1       786    8    0    1
 -2       461       311       462      2155      2158      2205
 -1       787    8    0    1
 -2       459       309       460      2150      2154      2206
 -1       788    8    0    1
 -2       457       307       458      2146      2149      2207
 -1       789    8    0    1
 -2       449       296       472      2126      2179      2208
 -1       790    8    0    1
 -2       448       306       457      2124      2147      2209
 -1       791    8    0    1
 -2       452       299       453      2134      2138      2210
 -1       792    8    0    1
 -2       453       300       474      2137      2211      2212
 -1       793    8    0    1
 -2       300       454       474      2140      2213      2211
 -1       794    8    0    1
 -2       460       310       461      2153      2156      2214
 -1       795    8    0    1
 -2       469       319       470      2172      2175      2215
 -1       796    8    0    1
 -2       336       384       475      1940      2216      2217
 -1       797    8    0    1
 -2       325       326       476      1764      2218      2219
 -1       798    8    0    1
 -2       324       325       477      1761      2220      2221
 -1       799    8    0    1
 -2       325       476       477      2219      2222      2220
 -1       800    8    0    1
 -2       327       328       478      1770      2223      2224
 -1       801    8    0    1
 -2       328       329       479      1773      2225      2226
 -1       802    8    0    1
 -2       328       479       478      2226      2227      2223
 -1       803    8    0    1
 -2       329       330       480      1776      2228      2229
 -1       804    8    0    1
 -2       329       480       479      2229      2230      2225
 -1       805    8    0    1
 -2       330       331       481      1779      2231      2232
 -1       806    8    0    1
 -2       330       481       480      2232      2233      2228
 -1       807    8    0    1
 -2       331       332       482      1782      2234      2235
 -1       808    8    0    1
 -2       331       482       481      2235      2236      2231
 -1       809    8    0    1
 -2       332       333       483      1785      2237      2238
 -1       810    8    0    1
 -2       332       483       482      2238      2239      2234
 -1       811    8    0    1
 -2       339       338       484      1804      2240      2241
 -1       812    8    0    1
 -2       384       385       485      1943      2242      2243
 -1       813    8    0    1
 -2       384       485       475      2243      2244      2216
 -1       814    8    0    1
 -2       338       323       486      2184      2245      2246
 -1       815    8    0    1
 -2       484       338       486      2240      2246      2247
 -1       816    8    0    1
 -2       323       322       486      1756      2248      2245
 -1       817    8    0    1
 -2       471       444       487      2193      2249      2250
 -1       818    8    0    1
 -2       340       339       488      1807      2251      2252
 -1       819    8    0    1
 -2       339       484       488      2241      2253      2251
 -1       820    8    0    1
 -2       341       340       489      1810      2254      2255
 -1       821    8    0    1
 -2       340       488       489      2252      2256      2254
 -1       822    8    0    1
 -2       342       341       490      1813      2257      2258
 -1       823    8    0    1
 -2       341       489       490      2255      2259      2257
 -1       824    8    0    1
 -2       343       342       491      1816      2260      2261
 -1       825    8    0    1
 -2       342       490       491      2258      2262      2260
 -1       826    8    0    1
 -2       344       343       492      1819      2263      2264
 -1       827    8    0    1
 -2       343       491       492      2261      2265      2263
 -1       828    8    0    1
 -2       345       344       493      1822      2266      2267
 -1       829    8    0    1
 -2       344       492       493      2264      2268      2266
 -1       830    8    0    1
 -2       346       345       494      1825      2269      2270
 -1       831    8    0    1
 -2       345       493       494      2267      2271      2269
 -1       832    8    0    1
 -2       347       346       495      1828      2272      2273
 -1       833    8    0    1
 -2       346       494       495      2270      2274      2272
 -1       834    8    0    1
 -2       348       347       496      1831      2275      2276
 -1       835    8    0    1
 -2       347       495       496      2273      2277      2275
 -1       836    8    0    1
 -2       349       348       497      1834      2278      2279
 -1       837    8    0    1
 -2       348       496       497      2276      2280      2278
 -1       838    8    0    1
 -2       350       349       498      1837      2281      2282
 -1       839    8    0    1
 -2       349       497       498      2279      2283      2281
 -1       840    8    0    1
 -2       351       350       499      1840      2284      2285
 -1       841    8    0    1
 -2       350       498       499      2282      2286      2284
 -1       842    8    0    1
 -2       352       351       500      1843      2287      2288
 -1       843    8    0    1
 -2       351       499       500      2285      2289      2287
 -1       844    8    0    1
 -2       353       352       501      1846      2290      2291
 -1       845    8    0    1
 -2       352       500       501      2288      2292      2290
 -1       846    8    0    1
 -2       354       353       502      1849      2293      2294
 -1       847    8    0    1
 -2       353       501       502      2291      2295      2293
 -1       848    8    0    1
 -2       355       354       503      1852      2296      2297
 -1       849    8    0    1
 -2       354       502       503      2294      2298      2296
 -1       850    8    0    1
 -2       356       355       504      1855      2299      2300
 -1       851    8    0    1
 -2       355       503       504      2297      2301      2299
 -1       852    8    0    1
 -2       357       356       505      1858      2302      2303
 -1       853    8    0    1
 -2       356       504       505      2300      2304      2302
 -1       854    8    0    1
 -2       358       357       506      1861      2305      2306
 -1       855    8    0    1
 -2       357       505       506      2303      2307      2305
 -1       856    8    0    1
 -2       359       358       507      1864      2308      2309
 -1       857    8    0    1
 -2       358       506       507      2306      2310      2308
 -1       858    8    0    1
 -2       360       359       508      1867      2311      2312
 -1       859    8    0    1
 -2       359       507       508      2309      2313      2311
 -1       860    8    0    1
 -2       361       360       509      1870      2314      2315
 -1       861    8    0    1
 -2       360       508       509      2312      2316      2314
 -1       862    8    0    1
 -2       362       361       510      1873      2317      2318
 -1       863    8    0    1
 -2       361       509       510      2315      2319      2317
 -1       864    8    0    1
 -2       363       362       511      1876      2320      2321
 -1       865    8    0    1
 -2       362       510       511      2318      2322      2320
 -1       866    8    0    1
 -2       364       363       512      1879      2323      2324
 -1       867    8    0    1
 -2       363       511       512      2321      2325      2323
 -1       868    8    0    1
 -2       365       364       513      1882      2326      2327
 -1       869    8    0    1
 -2       364       512       513      2324      2328      2326
 -1       870    8    0    1
 -2       366       365       514      1885      2329      2330
 -1       871    8    0    1
 -2       365       513       514      2327      2331      2329
 -1       872    8    0    1
 -2       367       366       515      1888      2332      2333
 -1       873    8    0    1
 -2       366       514       515      2330      2334      2332
 -1       874    8    0    1
 -2       368       367       516      1891      2335      2336
 -1       875    8    0    1
 -2       367       515       516      2333      2337      2335
 -1       876    8    0    1
 -2       369       368       517      1894      2338      2339
 -1       877    8    0    1
 -2       368       516       517      2336      2340      2338
 -1       878    8    0    1
 -2       370       369       518      1897      2341      2342
 -1       879    8    0    1
 -2       369       517       518      2339      2343      2341
 -1       880    8    0    1
 -2       371       370       519      1900      2344      2345
 -1       881    8    0    1
 -2       370       518       519      2342      2346      2344
 -1       882    8    0    1
 -2       372       371       520      1903      2347      2348
 -1       883    8    0    1
 -2       371       519       520      2345      2349      2347
 -1       884    8    0    1
 -2       373       372       521      1906      2350      2351
 -1       885    8    0    1
 -2       372       520       521      2348      2352      2350
 -1       886    8    0    1
 -2       374       373       522      1909      2353      2354
 -1       887    8    0    1
 -2       373       521       522      2351      2355      2353
 -1       888    8    0    1
 -2       375       374       523      1912      2356      2357
 -1       889    8    0    1
 -2       374       522       523      2354      2358      2356
 -1       890    8    0    1
 -2       376       375       524      1915      2359      2360
 -1       891    8    0    1
 -2       375       523       524      2357      2361      2359
 -1       892    8    0    1
 -2       377       376       525      1918      2362      2363
 -1       893    8    0    1
 -2       376       524       525      2360      2364      2362
 -1       894    8    0    1
 -2       378       377       526      1921      2365      2366
 -1       895    8    0    1
 -2       377       525       526      2363      2367      2365
 -1       896    8    0    1
 -2       379       378       527      1924      2368      2369
 -1       897    8    0    1
 -2       378       526       527      2366      2370      2368
 -1       898    8    0    1
 -2       380       379       528      1927      2371      2372
 -1       899    8    0    1
 -2       379       527       528      2369      2373      2371
 -1       900    8    0    1
 -2       381       380       529      1930      2374      2375
 -1       901    8    0    1
 -2       380       528       529      2372      2376      2374
 -1       902    8    0    1
 -2       382       381       530      1933      2377      2378
 -1       903    8    0    1
 -2       381       529       530      2375      2379      2377
 -1       904    8    0    1
 -2       386       387       531      1949      2380      2381
 -1       905    8    0    1
 -2       387       388       532      1952      2382      2383
 -1       906    8    0    1
 -2       387       532       531      2383      2384      2380
 -1       907    8    0    1
 -2       388       389       533      1955      2385      2386
 -1       908    8    0    1
 -2       388       533       532      2386      2387      2382
 -1       909    8    0    1
 -2       389       390       534      1958      2388      2389
 -1       910    8    0    1
 -2       389       534       533      2389      2390      2385
 -1       911    8    0    1
 -2       390       391       535      1961      2391      2392
 -1       912    8    0    1
 -2       390       535       534      2392      2393      2388
 -1       913    8    0    1
 -2       391       392       536      1964      2394      2395
 -1       914    8    0    1
 -2       391       536       535      2395      2396      2391
 -1       915    8    0    1
 -2       392       393       537      1967      2397      2398
 -1       916    8    0    1
 -2       392       537       536      2398      2399      2394
 -1       917    8    0    1
 -2       393       394       538      1970      2400      2401
 -1       918    8    0    1
 -2       393       538       537      2401      2402      2397
 -1       919    8    0    1
 -2       394       395       539      1973      2403      2404
 -1       920    8    0    1
 -2       394       539       538      2404      2405      2400
 -1       921    8    0    1
 -2       395       396       540      1976      2406      2407
 -1       922    8    0    1
 -2       395       540       539      2407      2408      2403
 -1       923    8    0    1
 -2       396       397       541      1979      2409      2410
 -1       924    8    0    1
 -2       396       541       540      2410      2411      2406
 -1       925    8    0    1
 -2       397       398       542      1982      2412      2413
 -1       926    8    0    1
 -2       397       542       541      2413      2414      2409
 -1       927    8    0    1
 -2       398       399       543      1985      2415      2416
 -1       928    8    0    1
 -2       398       543       542      2416      2417      2412
 -1       929    8    0    1
 -2       399       400       544      1988      2418      2419
 -1       930    8    0    1
 -2       399       544       543      2419      2420      2415
 -1       931    8    0    1
 -2       400       401       545      1991      2421      2422
 -1       932    8    0    1
 -2       400       545       544      2422      2423      2418
 -1       933    8    0    1
 -2       401       402       546      1994      2424      2425
 -1       934    8    0    1
 -2       401       546       545      2425      2426      2421
 -1       935    8    0    1
 -2       402       403       547      1997      2427      2428
 -1       936    8    0    1
 -2       402       547       546      2428      2429      2424
 -1       937    8    0    1
 -2       403       404       548      2000      2430      2431
 -1       938    8    0    1
 -2       403       548       547      2431      2432      2427
 -1       939    8    0    1
 -2       404       405       549      2003      2433      2434
 -1       940    8    0    1
 -2       404       549       548      2434      2435      2430
 -1       941    8    0    1
 -2       405       406       550      2006      2436      2437
 -1       942    8    0    1
 -2       405       550       549      2437      2438      2433
 -1       943    8    0    1
 -2       406       407       551      2009      2439      2440
 -1       944    8    0    1
 -2       406       551       550      2440      2441      2436
 -1       945    8    0    1
 -2       407       408       552      2012      2442      2443
 -1       946    8    0    1
 -2       407       552       551      2443      2444      2439
 -1       947    8    0    1
 -2       408       409       553      2015      2445      2446
 -1       948    8    0    1
 -2       408       553       552      2446      2447      2442
 -1       949    8    0    1
 -2       409       410       554      2018      2448      2449
 -1       950    8    0    1
 -2       409       554       553      2449      2450      2445
 -1       951    8    0    1
 -2       410       411       555      2021      2451      2452
 -1       952    8    0    1
 -2       410       555       554      2452      2453      2448
 -1       953    8    0    1
 -2       411       412       556      2024      2454      2455
 -1       954    8    0    1
 -2       411       556       555      2455      2456      2451
 -1       955    8    0    1
 -2       412       413       557      2027      2457      2458
 -1       956    8    0    1
 -2       412       557       556      2458      2459      2454
 -1       957    8    0    1
 -2       413       414       558      2030      2460      2461
 -1       958    8    0    1
 -2       413       558       557      2461      2462      2457
 -1       959    8    0    1
 -2       414       415       559      2033      2463      2464
 -1       960    8    0    1
 -2       414       559       558      2464      2465      2460
 -1       961    8    0    1
 -2       415       416       560      2036      2466      2467
 -1       962    8    0    1
 -2       415       560       559      2467      2468      2463
 -1       963    8    0    1
 -2       416       417       561      2039      2469      2470
 -1       964    8    0    1
 -2       416       561       560      2470      2471      2466
 -1       965    8    0    1
 -2       417       418       562      2042      2472      2473
 -1       966    8    0    1
 -2       417       562       561      2473      2474      2469
 -1       967    8    0    1
 -2       418       419       563      2045      2475      2476
 -1       968    8    0    1
 -2       418       563       562      2476      2477      2472
 -1       969    8    0    1
 -2       419       420       564      2048      2478      2479
 -1       970    8    0    1
 -2       419       564       563      2479      2480      2475
 -1       971    8    0    1
 -2       420       421       565      2051      2481      2482
 -1       972    8    0    1
 -2       420       565       564      2482      2483      2478
 -1       973    8    0    1
 -2       421       422       566      2054      2484      2485
 -1       974    8    0    1
 -2       421       566       565      2485      2486      2481
 -1       975    8    0    1
 -2       422       423       567      2057      2487      2488
 -1       976    8    0    1
 -2       422       567       566      2488      2489      2484
 -1       977    8    0    1
 -2       423       424       568      2060      2490      2491
 -1       978    8    0    1
 -2       423       568       567      2491      2492      2487
 -1       979    8    0    1
 -2       424       425       569      2063      2493      2494
 -1       980    8    0    1
 -2       424       569       568      2494      2495      2490
 -1       981    8    0    1
 -2       425       426       570      2066      2496      2497
 -1       982    8    0    1
 -2       425       570       569      2497      2498      2493
 -1       983    8    0    1
 -2       426       427       571      2069      2499      2500
 -1       984    8    0    1
 -2       426       571       570      2500      2501      2496
 -1       985    8    0    1
 -2       427       428       572      2072      2502      2503
 -1       986    8    0    1
 -2       427       572       571      2503      2504      2499
 -1       987    8    0    1
 -2       428       429       432      2075      2084      2505
 -1       988    8    0    1
 -2       433       434       573      2091      2506      2507
 -1       989    8    0    1
 -2       434       435       574      2094      2508      2509
 -1       990    8    0    1
 -2       434       574       573      2509      2510      2506
 -1       991    8    0    1
 -2       431       430       575      2081      2511      2512
 -1       992    8    0    1
 -2       430       433       576      2088      2513      2514
 -1       993    8    0    1
 -2       575       430       576      2511      2514      2515
 -1       994    8    0    1
 -2       433       573       576      2507      2516      2513
 -1       995    8    0    1
 -2       441       442       577      2113      2517      2518
 -1       996    8    0    1
 -2       435       436       578      2097      2519      2520
 -1       997    8    0    1
 -2       435       578       574      2520      2521      2508
 -1       998    8    0    1
 -2       436       437       579      2100      2522      2523
 -1       999    8    0    1
 -2       439       440       580      2187      2524      2525
 -1      1000    8    0    1
 -2       443       446       581      2188      2526      2527
 -1      1001    8    0    1
 -2       440       441       582      2110      2528      2529
 -1      1002    8    0    1
 -2       580       440       582      2524      2529      2530
 -1      1003    8    0    1
 -2       441       577       582      2518      2531      2528
 -1      1004    8    0    1
 -2       385       386       583      1946      2532      2533
 -1      1005    8    0    1
 -2       386       531       583      2381      2534      2532
 -1      1006    8    0    1
 -2       337       456       584      2182      2535      2536
 -1      1007    8    0    1
 -2       455       447       585      2194      2537      2538
 -1      1008    8    0    1
 -2       466       467       586      2198      2539      2540
 -1      1009    8    0    1
 -2       457       458       587      2207      2541      2542
 -1      1010    8    0    1
 -2       472       451       588      2195      2543      2544
 -1      1011    8    0    1
 -2       445       443       589      2185      2545      2546
 -1      1012    8    0    1
 -2       444       445       590      2181      2547      2548
 -1      1013    8    0    1
 -2       487       444       590      2249      2548      2549
 -1      1014    8    0    1
 -2       445       589       590      2546      2550      2547
 -1      1015    8    0    1
 -2       464       465       591      2202      2551      2552
 -1      1016    8    0    1
 -2       326       327       592      1767      2553      2554
 -1      1017    8    0    1
 -2       476       326       592      2218      2554      2555
 -1      1018    8    0    1
 -2       327       478       592      2224      2556      2553
 -1      1019    8    0    1
 -2       451       452       593      2136      2557      2558
 -1      1020    8    0    1
 -2       460       461       594      2214      2559      2560
 -1      1021    8    0    1
 -2       454       455       595      2143      2561      2562
 -1      1022    8    0    1
 -2       465       466       596      2200      2563      2564
 -1      1023    8    0    1
 -2       591       465       596      2551      2564      2565
 -1      1024    8    0    1
 -2       466       586       596      2540      2566      2563
 -1      1025    8    0    1
 -2       452       453       597      2210      2567      2568
 -1      1026    8    0    1
 -2       470       471       580      2196      2569      2570
 -1      1027    8    0    1
 -2       449       472       598      2208      2571      2572
 -1      1028    8    0    1
 -2       458       459       599      2152      2573      2574
 -1      1029    8    0    1
 -2       459       460       600      2206      2575      2576
 -1      1030    8    0    1
 -2       461       462       601      2205      2577      2578
 -1      1031    8    0    1
 -2       462       463       602      2204      2579      2580
 -1      1032    8    0    1
 -2       463       464       603      2203      2581      2582
 -1      1033    8    0    1
 -2       463       603       602      2582      2583      2579
 -1      1034    8    0    1
 -2       446       449       604      2201      2584      2585
 -1      1035    8    0    1
 -2       456       448       605      2199      2586      2587
 -1      1036    8    0    1
 -2       467       468       606      2171      2588      2589
 -1      1037    8    0    1
 -2       468       469       607      2197      2590      2591
 -1      1038    8    0    1
 -2       468       607       606      2591      2592      2588
 -1      1039    8    0    1
 -2       448       457       608      2209      2593      2594
 -1      1040    8    0    1
 -2       448       608       605      2594      2595      2586
 -1      1041    8    0    1
 -2       335       336       609      1796      2596      2597
 -1      1042    8    0    1
 -2       334       335       609      1791      2597      2598
 -1      1043    8    0    1
 -2       336       475       609      2217      2599      2596
 -1      1044    8    0    1
 -2       447       337       610      2180      2600      2601
 -1      1045    8    0    1
 -2       451       593       588      2558      2602      2543
 -1      1046    8    0    1
 -2       324       477       611      2221      2603      2604
 -1      1047    8    0    1
 -2       324       611       450      2604      2605      2131
 -1      1048    8    0    1
 -2       337       584       610      2536      2606      2600
 -1      1049    8    0    1
 -2       597       453       612      2567      2607      2608
 -1      1050    8    0    1
 -2       453       474       612      2212      2609      2607
 -1      1051    8    0    1
 -2       333       334       609      1788      2598      2610
 -1      1052    8    0    1
 -2       486       322       450      2248      2130      2611
 -1      1053    8    0    1
 -2       383       382       613      1937      2612      2613
 -1      1054    8    0    1
 -2       473       383       613      2192      2613      2614
 -1      1055    8    0    1
 -2       382       530       613      2378      2615      2612
 -1      1056    8    0    1
 -2       428       432       572      2505      2616      2502
 -1      1057    8    0    1
 -2       385       583       485      2533      2617      2242
 -1      1058    8    0    1
 -2       432       431       572      2085      2618      2616
 -1      1059    8    0    1
 -2       579       437       589      2522      2619      2620
 -1      1060    8    0    1
 -2       439       580       487      2525      2621      2622
 -1      1061    8    0    1
 -2       437       438       589      2103      2623      2619
 -1      1062    8    0    1
 -2       603       464       591      2581      2552      2624
 -1      1063    8    0    1
 -2       585       447       610      2537      2601      2625
 -1      1064    8    0    1
 -2       601       462       602      2577      2580      2626
 -1      1065    8    0    1
 -2       446       604       581      2585      2627      2526
 -1      1066    8    0    1
 -2       584       456       605      2535      2587      2628
 -1      1067    8    0    1
 -2       600       460       614      2575      2629      2630
 -1      1068    8    0    1
 -2       460       594       614      2560      2631      2629
 -1      1069    8    0    1
 -2       455       585       595      2538      2632      2561
 -1      1070    8    0    1
 -2       442       473       613      2191      2614      2633
 -1      1071    8    0    1
 -2       599       459       600      2573      2576      2634
 -1      1072    8    0    1
 -2       598       472       588      2571      2544      2635
 -1      1073    8    0    1
 -2       452       597       593      2568      2636      2557
 -1      1074    8    0    1
 -2       442       613       577      2633      2637      2517
 -1      1075    8    0    1
 -2       457       587       608      2542      2638      2593
 -1      1076    8    0    1
 -2       587       458       599      2541      2574      2639
 -1      1077    8    0    1
 -2       586       467       606      2539      2589      2640
 -1      1078    8    0    1
 -2       572       431       575      2618      2512      2641
 -1      1079    8    0    1
 -2       438       439       487      2186      2622      2642
 -1      1080    8    0    1
 -2       594       461       601      2559      2578      2643
 -1      1081    8    0    1
 -2       471       487       580      2250      2621      2569
 -1      1082    8    0    1
 -2       474       454       595      2213      2562      2644
 -1      1083    8    0    1
 -2       333       609       483      2610      2645      2237
 -1      1084    8    0    1
 -2       449       598       604      2572      2646      2584
 -1      1085    8    0    1
 -2       469       470       615      2215      2647      2648
 -1      1086    8    0    1
 -2       469       615       607      2648      2649      2590
 -1      1087    8    0    1
 -2       479       480       616      2230      2650      2651
 -1      1088    8    0    1
 -2       478       479       617      2227      2652      2653
 -1      1089    8    0    1
 -2       479       616       617      2651      2654      2652
 -1      1090    8    0    1
 -2       481       482       618      2236      2655      2656
 -1      1091    8    0    1
 -2       482       483       619      2239      2657      2658
 -1      1092    8    0    1
 -2       482       619       618      2658      2659      2655
 -1      1093    8    0    1
 -2       475       485       620      2244      2660      2661
 -1      1094    8    0    1
 -2       613       530       577      2615      2662      2637
 -1      1095    8    0    1
 -2       488       484       621      2253      2663      2664
 -1      1096    8    0    1
 -2       489       488       622      2256      2665      2666
 -1      1097    8    0    1
 -2       488       621       622      2664      2667      2665
 -1      1098    8    0    1
 -2       490       489       623      2259      2668      2669
 -1      1099    8    0    1
 -2       489       622       623      2666      2670      2668
 -1      1100    8    0    1
 -2       491       490       624      2262      2671      2672
 -1      1101    8    0    1
 -2       490       623       624      2669      2673      2671
 -1      1102    8    0    1
 -2       492       491       625      2265      2674      2675
 -1      1103    8    0    1
 -2       491       624       625      2672      2676      2674
 -1      1104    8    0    1
 -2       493       492       626      2268      2677      2678
 -1      1105    8    0    1
 -2       492       625       626      2675      2679      2677
 -1      1106    8    0    1
 -2       494       493       627      2271      2680      2681
 -1      1107    8    0    1
 -2       493       626       627      2678      2682      2680
 -1      1108    8    0    1
 -2       495       494       628      2274      2683      2684
 -1      1109    8    0    1
 -2       494       627       628      2681      2685      2683
 -1      1110    8    0    1
 -2       496       495       629      2277      2686      2687
 -1      1111    8    0    1
 -2       495       628       629      2684      2688      2686
 -1      1112    8    0    1
 -2       497       496       630      2280      2689      2690
 -1      1113    8    0    1
 -2       496       629       630      2687      2691      2689
 -1      1114    8    0    1
 -2       498       497       631      2283      2692      2693
 -1      1115    8    0    1
 -2       497       630       631      2690      2694      2692
 -1      1116    8    0    1
 -2       499       498       632      2286      2695      2696
 -1      1117    8    0    1
 -2       498       631       632      2693      2697      2695
 -1      1118    8    0    1
 -2       500       499       633      2289      2698      2699
 -1      1119    8    0    1
 -2       499       632       633      2696      2700      2698
 -1      1120    8    0    1
 -2       501       500       634      2292      2701      2702
 -1      1121    8    0    1
 -2       500       633       634      2699      2703      2701
 -1      1122    8    0    1
 -2       502       501       635      2295      2704      2705
 -1      1123    8    0    1
 -2       501       634       635      2702      2706      2704
 -1      1124    8    0    1
 -2       503       502       636      2298      2707      2708
 -1      1125    8    0    1
 -2       502       635       636      2705      2709      2707
 -1      1126    8    0    1
 -2       504       503       637      2301      2710      2711
 -1      1127    8    0    1
 -2       503       636       637      2708      2712      2710
 -1      1128    8    0    1
 -2       505       504       638      2304      2713      2714
 -1      1129    8    0    1
 -2       504       637       638      2711      2715      2713
 -1      1130    8    0    1
 -2       506       505       639      2307      2716      2717
 -1      1131    8    0    1
 -2       505       638       639      2714      2718      2716
 -1      1132    8    0    1
 -2       507       506       640      2310      2719      2720
 -1      1133    8    0    1
 -2       506       639       640      2717      2721      2719
 -1      1134    8    0    1
 -2       508       507       641      2313      2722      2723
 -1      1135    8    0    1
 -2       507       640       641      2720      2724      2722
 -1      1136    8    0    1
 -2       509       508       642      2316      2725      2726
 -1      1137    8    0    1
 -2       508       641       642      2723      2727      2725
 -1      1138    8    0    1
 -2       510       509       643      2319      2728      2729
 -1      1139    8    0    1
 -2       509       642       643      2726      2730      2728
 -1      1140    8    0    1
 -2       511       510       644      2322      2731      2732
 -1      1141    8    0    1
 -2       510       643       644      2729      2733      2731
 -1      1142    8    0    1
 -2       512       511       645      2325      2734      2735
 -1      1143    8    0    1
 -2       511       644       645      2732      2736      2734
 -1      1144    8    0    1
 -2       513       512       646      2328      2737      2738
 -1      1145    8    0    1
 -2       512       645       646      2735      2739      2737
 -1      1146    8    0    1
 -2       514       513       647      2331      2740      2741
 -1      1147    8    0    1
 -2       513       646       647      2738      2742      2740
 -1      1148    8    0    1
 -2       515       514       648      2334      2743      2744
 -1      1149    8    0    1
 -2       514       647       648      2741      2745      2743
 -1      1150    8    0    1
 -2       516       515       649      2337      2746      2747
 -1      1151    8    0    1
 -2       515       648       649      2744      2748      2746
 -1      1152    8    0    1
 -2       517       516       650      2340      2749      2750
 -1      1153    8    0    1
 -2       516       649       650      2747      2751      2749
 -1      1154    8    0    1
 -2       518       517       651      2343      2752      2753
 -1      1155    8    0    1
 -2       517       650       651      2750      2754      2752
 -1      1156    8    0    1
 -2       519       518       652      2346      2755      2756
 -1      1157    8    0    1
 -2       518       651       652      2753      2757      2755
 -1      1158    8    0    1
 -2       520       519       653      2349      2758      2759
 -1      1159    8    0    1
 -2       519       652       653      2756      2760      2758
 -1      1160    8    0    1
 -2       521       520       654      2352      2761      2762
 -1      1161    8    0    1
 -2       520       653       654      2759      2763      2761
 -1      1162    8    0    1
 -2       522       521       655      2355      2764      2765
 -1      1163    8    0    1
 -2       521       654       655      2762      2766      2764
 -1      1164    8    0    1
 -2       523       522       656      2358      2767      2768
 -1      1165    8    0    1
 -2       522       655       656      2765      2769      2767
 -1      1166    8    0    1
 -2       524       523       657      2361      2770      2771
 -1      1167    8    0    1
 -2       523       656       657      2768      2772      2770
 -1      1168    8    0    1
 -2       527       526       603      2370      2773      2774
 -1      1169    8    0    1
 -2       530       529       586      2379      2775      2776
 -1      1170    8    0    1
 -2       532       533       658      2387      2777      2778
 -1      1171    8    0    1
 -2       605       608       659      2595      2779      2780
 -1      1172    8    0    1
 -2       531       532       660      2384      2781      2782
 -1      1173    8    0    1
 -2       532       658       660      2778      2783      2781
 -1      1174    8    0    1
 -2       534       535       661      2393      2784      2785
 -1      1175    8    0    1
 -2       535       536       662      2396      2786      2787
 -1      1176    8    0    1
 -2       535       662       661      2787      2788      2784
 -1      1177    8    0    1
 -2       536       537       663      2399      2789      2790
 -1      1178    8    0    1
 -2       536       663       662      2790      2791      2786
 -1      1179    8    0    1
 -2       537       538       664      2402      2792      2793
 -1      1180    8    0    1
 -2       537       664       663      2793      2794      2789
 -1      1181    8    0    1
 -2       538       539       665      2405      2795      2796
 -1      1182    8    0    1
 -2       538       665       664      2796      2797      2792
 -1      1183    8    0    1
 -2       539       540       666      2408      2798      2799
 -1      1184    8    0    1
 -2       539       666       665      2799      2800      2795
 -1      1185    8    0    1
 -2       540       541       667      2411      2801      2802
 -1      1186    8    0    1
 -2       540       667       666      2802      2803      2798
 -1      1187    8    0    1
 -2       541       542       668      2414      2804      2805
 -1      1188    8    0    1
 -2       541       668       667      2805      2806      2801
 -1      1189    8    0    1
 -2       542       543       669      2417      2807      2808
 -1      1190    8    0    1
 -2       542       669       668      2808      2809      2804
 -1      1191    8    0    1
 -2       543       544       670      2420      2810      2811
 -1      1192    8    0    1
 -2       543       670       669      2811      2812      2807
 -1      1193    8    0    1
 -2       544       545       671      2423      2813      2814
 -1      1194    8    0    1
 -2       544       671       670      2814      2815      2810
 -1      1195    8    0    1
 -2       545       546       672      2426      2816      2817
 -1      1196    8    0    1
 -2       545       672       671      2817      2818      2813
 -1      1197    8    0    1
 -2       546       547       673      2429      2819      2820
 -1      1198    8    0    1
 -2       546       673       672      2820      2821      2816
 -1      1199    8    0    1
 -2       547       548       674      2432      2822      2823
 -1      1200    8    0    1
 -2       547       674       673      2823      2824      2819
 -1      1201    8    0    1
 -2       548       549       675      2435      2825      2826
 -1      1202    8    0    1
 -2       548       675       674      2826      2827      2822
 -1      1203    8    0    1
 -2       549       550       676      2438      2828      2829
 -1      1204    8    0    1
 -2       549       676       675      2829      2830      2825
 -1      1205    8    0    1
 -2       550       551       677      2441      2831      2832
 -1      1206    8    0    1
 -2       550       677       676      2832      2833      2828
 -1      1207    8    0    1
 -2       551       552       678      2444      2834      2835
 -1      1208    8    0    1
 -2       551       678       677      2835      2836      2831
 -1      1209    8    0    1
 -2       552       553       679      2447      2837      2838
 -1      1210    8    0    1
 -2       552       679       678      2838      2839      2834
 -1      1211    8    0    1
 -2       553       554       680      2450      2840      2841
 -1      1212    8    0    1
 -2       553       680       679      2841      2842      2837
 -1      1213    8    0    1
 -2       554       555       681      2453      2843      2844
 -1      1214    8    0    1
 -2       554       681       680      2844      2845      2840
 -1      1215    8    0    1
 -2       555       556       682      2456      2846      2847
 -1      1216    8    0    1
 -2       555       682       681      2847      2848      2843
 -1      1217    8    0    1
 -2       556       557       683      2459      2849      2850
 -1      1218    8    0    1
 -2       556       683       682      2850      2851      2846
 -1      1219    8    0    1
 -2       557       558       684      2462      2852      2853
 -1      1220    8    0    1
 -2       557       684       683      2853      2854      2849
 -1      1221    8    0    1
 -2       558       559       685      2465      2855      2856
 -1      1222    8    0    1
 -2       558       685       684      2856      2857      2852
 -1      1223    8    0    1
 -2       559       560       686      2468      2858      2859
 -1      1224    8    0    1
 -2       559       686       685      2859      2860      2855
 -1      1225    8    0    1
 -2       560       561       687      2471      2861      2862
 -1      1226    8    0    1
 -2       560       687       686      2862      2863      2858
 -1      1227    8    0    1
 -2       561       562       688      2474      2864      2865
 -1      1228    8    0    1
 -2       561       688       687      2865      2866      2861
 -1      1229    8    0    1
 -2       562       563       689      2477      2867      2868
 -1      1230    8    0    1
 -2       562       689       688      2868      2869      2864
 -1      1231    8    0    1
 -2       563       564       690      2480      2870      2871
 -1      1232    8    0    1
 -2       563       690       689      2871      2872      2867
 -1      1233    8    0    1
 -2       564       565       691      2483      2873      2874
 -1      1234    8    0    1
 -2       564       691       690      2874      2875      2870
 -1      1235    8    0    1
 -2       565       566       692      2486      2876      2877
 -1      1236    8    0    1
 -2       565       692       691      2877      2878      2873
 -1      1237    8    0    1
 -2       566       567       693      2489      2879      2880
 -1      1238    8    0    1
 -2       566       693       692      2880      2881      2876
 -1      1239    8    0    1
 -2       567       568       694      2492      2882      2883
 -1      1240    8    0    1
 -2       567       694       693      2883      2884      2879
 -1      1241    8    0    1
 -2       568       569       695      2495      2885      2886
 -1      1242    8    0    1
 -2       568       695       694      2886      2887      2882
 -1      1243    8    0    1
 -2       569       570       696      2498      2888      2889
 -1      1244    8    0    1
 -2       569       696       695      2889      2890      2885
 -1      1245    8    0    1
 -2       570       571       697      2501      2891      2892
 -1      1246    8    0    1
 -2       570       697       696      2892      2893      2888
 -1      1247    8    0    1
 -2       571       572       698      2504      2894      2895
 -1      1248    8    0    1
 -2       697       571       698      2891      2895      2896
 -1      1249    8    0    1
 -2       572       575       698      2641      2897      2894
 -1      1250    8    0    1
 -2       485       583       699      2617      2898      2899
 -1      1251    8    0    1
 -2       485       699       620      2899      2900      2660
 -1      1252    8    0    1
 -2       436       579       578      2523      2901      2519
 -1      1253    8    0    1
 -2       438       487       590      2642      2549      2902
 -1      1254    8    0    1
 -2       573       574       700      2510      2903      2904
 -1      1255    8    0    1
 -2       608       587       701      2638      2905      2906
 -1      1256    8    0    1
 -2       527       603       591      2774      2624      2907
 -1      1257    8    0    1
 -2       603       526       602      2773      2908      2583
 -1      1258    8    0    1
 -2       530       586       606      2776      2640      2909
 -1      1259    8    0    1
 -2       438       590       589      2902      2550      2623
 -1      1260    8    0    1
 -2       602       526       702      2908      2910      2911
 -1      1261    8    0    1
 -2       601       602       702      2626      2911      2912
 -1      1262    8    0    1
 -2       526       525       702      2367      2913      2910
 -1      1263    8    0    1
 -2       594       601       703      2643      2914      2915
 -1      1264    8    0    1
 -2       601       702       703      2912      2916      2914
 -1      1265    8    0    1
 -2       486       450       611      2611      2605      2917
 -1      1266    8    0    1
 -2       443       581       589      2527      2918      2545
 -1      1267    8    0    1
 -2       584       605       704      2628      2919      2920
 -1      1268    8    0    1
 -2       605       659       704      2780      2921      2919
 -1      1269    8    0    1
 -2       583       531       705      2534      2922      2923
 -1      1270    8    0    1
 -2       699       583       705      2898      2923      2924
 -1      1271    8    0    1
 -2       531       660       705      2782      2925      2922
 -1      1272    8    0    1
 -2       593       597       706      2636      2926      2927
 -1      1273    8    0    1
 -2       533       534       707      2390      2928      2929
 -1      1274    8    0    1
 -2       658       533       707      2777      2929      2930
 -1      1275    8    0    1
 -2       534       661       707      2785      2931      2928
 -1      1276    8    0    1
 -2       585       610       708      2625      2932      2933
 -1      1277    8    0    1
 -2       610       584       709      2606      2934      2935
 -1      1278    8    0    1
 -2       480       481       710      2233      2936      2937
 -1      1279    8    0    1
 -2       616       480       710      2650      2937      2938
 -1      1280    8    0    1
 -2       481       618       710      2656      2939      2936
 -1      1281    8    0    1
 -2       599       600       711      2634      2940      2941
 -1      1282    8    0    1
 -2       586       529       596      2775      2942      2566
 -1      1283    8    0    1
 -2       595       585       712      2632      2943      2944
 -1      1284    8    0    1
 -2       477       476       713      2222      2945      2946
 -1      1285    8    0    1
 -2       483       609       475      2645      2599      2947
 -1      1286    8    0    1
 -2       474       595       714      2644      2948      2949
 -1      1287    8    0    1
 -2       470       580       615      2570      2950      2647
 -1      1288    8    0    1
 -2       530       606       577      2909      2951      2662
 -1      1289    8    0    1
 -2       587       599       715      2639      2952      2953
 -1      1290    8    0    1
 -2       599       711       715      2941      2954      2952
 -1      1291    8    0    1
 -2       588       593       716      2602      2955      2956
 -1      1292    8    0    1
 -2       611       477       717      2603      2957      2958
 -1      1293    8    0    1
 -2       477       713       717      2946      2959      2957
 -1      1294    8    0    1
 -2       478       617       718      2653      2960      2961
 -1      1295    8    0    1
 -2       478       718       592      2961      2962      2556
 -1      1296    8    0    1
 -2       612       474       714      2609      2949      2963
 -1      1297    8    0    1
 -2       604       598       719      2646      2964      2965
 -1      1298    8    0    1
 -2       597       612       720      2608      2966      2967
 -1      1299    8    0    1
 -2       597       720       706      2967      2968      2926
 -1      1300    8    0    1
 -2       587       715       721      2953      2969      2970
 -1      1301    8    0    1
 -2       587       721       701      2970      2971      2905
 -1      1302    8    0    1
 -2       588       716       722      2956      2972      2973
 -1      1303    8    0    1
 -2       588       722       598      2973      2974      2635
 -1      1304    8    0    1
 -2       525       524       703      2364      2975      2976
 -1      1305    8    0    1
 -2       594       703       614      2915      2977      2631
 -1      1306    8    0    1
 -2       528       527       591      2373      2907      2978
 -1      1307    8    0    1
 -2       529       528       596      2376      2979      2942
 -1      1308    8    0    1
 -2       585       708       712      2933      2980      2943
 -1      1309    8    0    1
 -2       593       706       716      2927      2981      2955
 -1      1310    8    0    1
 -2       698       575       723      2897      2982      2983
 -1      1311    8    0    1
 -2       575       576       723      2515      2984      2982
 -1      1312    8    0    1
 -2       598       722       719      2974      2985      2964
 -1      1313    8    0    1
 -2       608       701       659      2906      2986      2779
 -1      1314    8    0    1
 -2       596       528       591      2979      2978      2565
 -1      1315    8    0    1
 -2       486       611       724      2917      2987      2988
 -1      1316    8    0    1
 -2       484       486       724      2247      2988      2989
 -1      1317    8    0    1
 -2       611       717       724      2958      2990      2987
 -1      1318    8    0    1
 -2       595       712       714      2944      2991      2948
 -1      1319    8    0    1
 -2       702       525       703      2913      2976      2916
 -1      1320    8    0    1
 -2       584       704       709      2920      2992      2934
 -1      1321    8    0    1
 -2       576       573       725      2516      2993      2994
 -1      1322    8    0    1
 -2       723       576       725      2984      2994      2995
 -1      1323    8    0    1
 -2       573       700       725      2904      2996      2993
 -1      1324    8    0    1
 -2       610       709       708      2935      2997      2932
 -1      1325    8    0    1
 -2       476       592       726      2555      2998      2999
 -1      1326    8    0    1
 -2       713       476       726      2945      2999      3000
 -1      1327    8    0    1
 -2       592       718       726      2962      3001      2998
 -1      1328    8    0    1
 -2       619       483       620      2657      3002      3003
 -1      1329    8    0    1
 -2       483       475       620      2947      2661      3002
 -1      1330    8    0    1
 -2       484       724       621      2989      3004      2663
 -1      1331    8    0    1
 -2       577       606       607      2951      2592      3005
 -1      1332    8    0    1
 -2       524       657       703      2771      3006      2975
 -1      1333    8    0    1
 -2       607       615       577      2649      3007      3005
 -1      1334    8    0    1
 -2       711       600       727      2940      3008      3009
 -1      1335    8    0    1
 -2       600       614       727      2630      3010      3008
 -1      1336    8    0    1
 -2       618       619       728      2659      3011      3012
 -1      1337    8    0    1
 -2       659       701       729      2986      3013      3014
 -1      1338    8    0    1
 -2       623       622       730      2670      3015      3016
 -1      1339    8    0    1
 -2       624       623       731      2673      3017      3018
 -1      1340    8    0    1
 -2       623       730       731      3016      3019      3017
 -1      1341    8    0    1
 -2       625       624       732      2676      3020      3021
 -1      1342    8    0    1
 -2       624       731       732      3018      3022      3020
 -1      1343    8    0    1
 -2       626       625       733      2679      3023      3024
 -1      1344    8    0    1
 -2       625       732       733      3021      3025      3023
 -1      1345    8    0    1
 -2       627       626       734      2682      3026      3027
 -1      1346    8    0    1
 -2       626       733       734      3024      3028      3026
 -1      1347    8    0    1
 -2       628       627       735      2685      3029      3030
 -1      1348    8    0    1
 -2       627       734       735      3027      3031      3029
 -1      1349    8    0    1
 -2       629       628       736      2688      3032      3033
 -1      1350    8    0    1
 -2       628       735       736      3030      3034      3032
 -1      1351    8    0    1
 -2       630       629       737      2691      3035      3036
 -1      1352    8    0    1
 -2       629       736       737      3033      3037      3035
 -1      1353    8    0    1
 -2       631       630       738      2694      3038      3039
 -1      1354    8    0    1
 -2       630       737       738      3036      3040      3038
 -1      1355    8    0    1
 -2       632       631       739      2697      3041      3042
 -1      1356    8    0    1
 -2       631       738       739      3039      3043      3041
 -1      1357    8    0    1
 -2       633       632       740      2700      3044      3045
 -1      1358    8    0    1
 -2       632       739       740      3042      3046      3044
 -1      1359    8    0    1
 -2       634       633       741      2703      3047      3048
 -1      1360    8    0    1
 -2       633       740       741      3045      3049      3047
 -1      1361    8    0    1
 -2       635       634       742      2706      3050      3051
 -1      1362    8    0    1
 -2       634       741       742      3048      3052      3050
 -1      1363    8    0    1
 -2       636       635       743      2709      3053      3054
 -1      1364    8    0    1
 -2       635       742       743      3051      3055      3053
 -1      1365    8    0    1
 -2       637       636       744      2712      3056      3057
 -1      1366    8    0    1
 -2       636       743       744      3054      3058      3056
 -1      1367    8    0    1
 -2       638       637       745      2715      3059      3060
 -1      1368    8    0    1
 -2       637       744       745      3057      3061      3059
 -1      1369    8    0    1
 -2       639       638       746      2718      3062      3063
 -1      1370    8    0    1
 -2       638       745       746      3060      3064      3062
 -1      1371    8    0    1
 -2       640       639       747      2721      3065      3066
 -1      1372    8    0    1
 -2       639       746       747      3063      3067      3065
 -1      1373    8    0    1
 -2       641       640       748      2724      3068      3069
 -1      1374    8    0    1
 -2       640       747       748      3066      3070      3068
 -1      1375    8    0    1
 -2       642       641       749      2727      3071      3072
 -1      1376    8    0    1
 -2       641       748       749      3069      3073      3071
 -1      1377    8    0    1
 -2       643       642       750      2730      3074      3075
 -1      1378    8    0    1
 -2       642       749       750      3072      3076      3074
 -1      1379    8    0    1
 -2       644       643       751      2733      3077      3078
 -1      1380    8    0    1
 -2       643       750       751      3075      3079      3077
 -1      1381    8    0    1
 -2       645       644       752      2736      3080      3081
 -1      1382    8    0    1
 -2       644       751       752      3078      3082      3080
 -1      1383    8    0    1
 -2       646       645       753      2739      3083      3084
 -1      1384    8    0    1
 -2       645       752       753      3081      3085      3083
 -1      1385    8    0    1
 -2       647       646       754      2742      3086      3087
 -1      1386    8    0    1
 -2       646       753       754      3084      3088      3086
 -1      1387    8    0    1
 -2       648       647       755      2745      3089      3090
 -1      1388    8    0    1
 -2       647       754       755      3087      3091      3089
 -1      1389    8    0    1
 -2       649       648       756      2748      3092      3093
 -1      1390    8    0    1
 -2       648       755       756      3090      3094      3092
 -1      1391    8    0    1
 -2       650       649       757      2751      3095      3096
 -1      1392    8    0    1
 -2       649       756       757      3093      3097      3095
 -1      1393    8    0    1
 -2       651       650       758      2754      3098      3099
 -1      1394    8    0    1
 -2       650       757       758      3096      3100      3098
 -1      1395    8    0    1
 -2       652       651       759      2757      3101      3102
 -1      1396    8    0    1
 -2       651       758       759      3099      3103      3101
 -1      1397    8    0    1
 -2       653       652       760      2760      3104      3105
 -1      1398    8    0    1
 -2       652       759       760      3102      3106      3104
 -1      1399    8    0    1
 -2       654       653       761      2763      3107      3108
 -1      1400    8    0    1
 -2       653       760       761      3105      3109      3107
 -1      1401    8    0    1
 -2       655       654       762      2766      3110      3111
 -1      1402    8    0    1
 -2       654       761       762      3108      3112      3110
 -1      1403    8    0    1
 -2       656       655       763      2769      3113      3114
 -1      1404    8    0    1
 -2       655       762       763      3111      3115      3113
 -1      1405    8    0    1
 -2       657       656       727      2772      3116      3117
 -1      1406    8    0    1
 -2       662       663       764      2791      3118      3119
 -1      1407    8    0    1
 -2       661       662       765      2788      3120      3121
 -1      1408    8    0    1
 -2       662       764       765      3119      3122      3120
 -1      1409    8    0    1
 -2       664       665       766      2797      3123      3124
 -1      1410    8    0    1
 -2       665       666       767      2800      3125      3126
 -1      1411    8    0    1
 -2       665       767       766      3126      3127      3123
 -1      1412    8    0    1
 -2       666       667       768      2803      3128      3129
 -1      1413    8    0    1
 -2       666       768       767      3129      3130      3125
 -1      1414    8    0    1
 -2       667       668       769      2806      3131      3132
 -1      1415    8    0    1
 -2       667       769       768      3132      3133      3128
 -1      1416    8    0    1
 -2       668       669       770      2809      3134      3135
 -1      1417    8    0    1
 -2       668       770       769      3135      3136      3131
 -1      1418    8    0    1
 -2       669       670       771      2812      3137      3138
 -1      1419    8    0    1
 -2       669       771       770      3138      3139      3134
 -1      1420    8    0    1
 -2       670       671       772      2815      3140      3141
 -1      1421    8    0    1
 -2       670       772       771      3141      3142      3137
 -1      1422    8    0    1
 -2       671       672       773      2818      3143      3144
 -1      1423    8    0    1
 -2       671       773       772      3144      3145      3140
 -1      1424    8    0    1
 -2       672       673       774      2821      3146      3147
 -1      1425    8    0    1
 -2       672       774       773      3147      3148      3143
 -1      1426    8    0    1
 -2       673       674       775      2824      3149      3150
 -1      1427    8    0    1
 -2       673       775       774      3150      3151      3146
 -1      1428    8    0    1
 -2       674       675       776      2827      3152      3153
 -1      1429    8    0    1
 -2       674       776       775      3153      3154      3149
 -1      1430    8    0    1
 -2       675       676       777      2830      3155      3156
 -1      1431    8    0    1
 -2       675       777       776      3156      3157      3152
 -1      1432    8    0    1
 -2       676       677       778      2833      3158      3159
 -1      1433    8    0    1
 -2       676       778       777      3159      3160      3155
 -1      1434    8    0    1
 -2       677       678       779      2836      3161      3162
 -1      1435    8    0    1
 -2       677       779       778      3162      3163      3158
 -1      1436    8    0    1
 -2       678       679       780      2839      3164      3165
 -1      1437    8    0    1
 -2       678       780       779      3165      3166      3161
 -1      1438    8    0    1
 -2       679       680       781      2842      3167      3168
 -1      1439    8    0    1
 -2       679       781       780      3168      3169      3164
 -1      1440    8    0    1
 -2       680       681       782      2845      3170      3171
 -1      1441    8    0    1
 -2       680       782       781      3171      3172      3167
 -1      1442    8    0    1
 -2       681       682       783      2848      3173      3174
 -1      1443    8    0    1
 -2       681       783       782      3174      3175      3170
 -1      1444    8    0    1
 -2       682       683       784      2851      3176      3177
 -1      1445    8    0    1
 -2       682       784       783      3177      3178      3173
 -1      1446    8    0    1
 -2       683       684       785      2854      3179      3180
 -1      1447    8    0    1
 -2       683       785       784      3180      3181      3176
 -1      1448    8    0    1
 -2       684       685       786      2857      3182      3183
 -1      1449    8    0    1
 -2       684       786       785      3183      3184      3179
 -1      1450    8    0    1
 -2       685       686       787      2860      3185      3186
 -1      1451    8    0    1
 -2       685       787       786      3186      3187      3182
 -1      1452    8    0    1
 -2       686       687       788      2863      3188      3189
 -1      1453    8    0    1
 -2       686       788       787      3189      3190      3185
 -1      1454    8    0    1
 -2       687       688       789      2866      3191      3192
 -1      1455    8    0    1
 -2       687       789       788      3192      3193      3188
 -1      1456    8    0    1
 -2       688       689       790      2869      3194      3195
 -1      1457    8    0    1
 -2       688       790       789      3195      3196      3191
 -1      1458    8    0    1
 -2       689       690       791      2872      3197      3198
 -1      1459    8    0    1
 -2       689       791       790      3198      3199      3194
 -1      1460    8    0    1
 -2       690       691       792      2875      3200      3201
 -1      1461    8    0    1
 -2       690       792       791      3201      3202      3197
 -1      1462    8    0    1
 -2       691       692       793      2878      3203      3204
 -1      1463    8    0    1
 -2       691       793       792      3204      3205      3200
 -1      1464    8    0    1
 -2       692       693       794      2881      3206      3207
 -1      1465    8    0    1
 -2       692       794       793      3207      3208      3203
 -1      1466    8    0    1
 -2       693       694       795      2884      3209      3210
 -1      1467    8    0    1
 -2       693       795       794      3210      3211      3206
 -1      1468    8    0    1
 -2       694       695       796      2887      3212      3213
 -1      1469    8    0    1
 -2       694       796       795      3213      3214      3209
 -1      1470    8    0    1
 -2       695       696       797      2890      3215      3216
 -1      1471    8    0    1
 -2       695       797       796      3216      3217      3212
 -1      1472    8    0    1
 -2       696       697       798      2893      3218      3219
 -1      1473    8    0    1
 -2       696       798       797      3219      3220      3215
 -1      1474    8    0    1
 -2       697       698       799      2896      3221      3222
 -1      1475    8    0    1
 -2       798       697       799      3218      3222      3223
 -1      1476    8    0    1
 -2       698       723       799      2983      3224      3221
 -1      1477    8    0    1
 -2       622       621       800      2667      3225      3226
 -1      1478    8    0    1
 -2       622       800       730      3226      3227      3015
 -1      1479    8    0    1
 -2       574       578       604      2521      3228      3229
 -1      1480    8    0    1
 -2       704       659       801      2921      3230      3231
 -1      1481    8    0    1
 -2       659       729       801      3014      3232      3230
 -1      1482    8    0    1
 -2       708       709       802      2997      3233      3234
 -1      1483    8    0    1
 -2       663       664       803      2794      3235      3236
 -1      1484    8    0    1
 -2       764       663       803      3118      3236      3237
 -1      1485    8    0    1
 -2       664       766       803      3124      3238      3235
 -1      1486    8    0    1
 -2       621       724       804      3004      3239      3240
 -1      1487    8    0    1
 -2       724       717       804      2990      3241      3239
 -1      1488    8    0    1
 -2       612       714       805      2963      3242      3243
 -1      1489    8    0    1
 -2       660       658       806      2783      3244      3245
 -1      1490    8    0    1
 -2       712       708       807      2980      3246      3247
 -1      1491    8    0    1
 -2       716       706       808      2981      3248      3249
 -1      1492    8    0    1
 -2       619       620       809      3003      3250      3251
 -1      1493    8    0    1
 -2       728       619       809      3011      3251      3252
 -1      1494    8    0    1
 -2       620       699       809      2900      3253      3250
 -1      1495    8    0    1
 -2       617       616       810      2654      3254      3255
 -1      1496    8    0    1
 -2       604       578       581      3228      3256      2627
 -1      1497    8    0    1
 -2       715       711       811      2954      3257      3258
 -1      1498    8    0    1
 -2       709       704       812      2992      3259      3260
 -1      1499    8    0    1
 -2       704       801       812      3231      3261      3259
 -1      1500    8    0    1
 -2       714       712       813      2991      3262      3263
 -1      1501    8    0    1
 -2       718       617       814      2960      3264      3265
 -1      1502    8    0    1
 -2       617       810       814      3255      3266      3264
 -1      1503    8    0    1
 -2       720       612       805      2966      3243      3267
 -1      1504    8    0    1
 -2       708       802       807      3234      3268      3246
 -1      1505    8    0    1
 -2       657       727       614      3117      3010      3269
 -1      1506    8    0    1
 -2       706       720       815      2968      3270      3271
 -1      1507    8    0    1
 -2       706       815       808      3271      3272      3248
 -1      1508    8    0    1
 -2       721       715       816      2969      3273      3274
 -1      1509    8    0    1
 -2       715       811       816      3258      3275      3273
 -1      1510    8    0    1
 -2       722       716       817      2972      3276      3277
 -1      1511    8    0    1
 -2       711       727       811      3009      3278      3257
 -1      1512    8    0    1
 -2       656       763       727      3114      3279      3116
 -1      1513    8    0    1
 -2       621       804       800      3240      3280      3225
 -1      1514    8    0    1
 -2       614       703       657      2977      3006      3269
 -1      1515    8    0    1
 -2       699       705       818      2924      3281      3282
 -1      1516    8    0    1
 -2       699       818       809      3282      3283      3253
 -1      1517    8    0    1
 -2       661       765       819      3121      3284      3285
 -1      1518    8    0    1
 -2       661       819       707      3285      3286      2931
 -1      1519    8    0    1
 -2       701       721       820      2971      3287      3288
 -1      1520    8    0    1
 -2       701       820       729      3288      3289      3013
 -1      1521    8    0    1
 -2       714       813       805      3263      3290      3242
 -1      1522    8    0    1
 -2       710       618       821      2939      3291      3292
 -1      1523    8    0    1
 -2       618       728       821      3012      3293      3291
 -1      1524    8    0    1
 -2       802       709       812      3233      3260      3294
 -1      1525    8    0    1
 -2       705       660       822      2925      3295      3296
 -1      1526    8    0    1
 -2       818       705       822      3281      3296      3297
 -1      1527    8    0    1
 -2       660       806       822      3245      3298      3295
 -1      1528    8    0    1
 -2       658       707       823      2930      3299      3300
 -1      1529    8    0    1
 -2       707       819       823      3286      3301      3299
 -1      1530    8    0    1
 -2       616       710       824      2938      3302      3303
 -1      1531    8    0    1
 -2       810       616       824      3254      3303      3304
 -1      1532    8    0    1
 -2       710       821       824      3292      3305      3302
 -1      1533    8    0    1
 -2       806       658       823      3244      3300      3306
 -1      1534    8    0    1
 -2       712       807       813      3247      3307      3262
 -1      1535    8    0    1
 -2       716       808       817      3249      3308      3276
 -1      1536    8    0    1
 -2       615       580       582      2950      2530      3309
 -1      1537    8    0    1
 -2       717       713       825      2959      3310      3311
 -1      1538    8    0    1
 -2       717       825       804      3311      3312      3241
 -1      1539    8    0    1
 -2       574       604       719      3229      2965      3313
 -1      1540    8    0    1
 -2       713       726       826      3000      3314      3315
 -1      1541    8    0    1
 -2       713       826       825      3315      3316      3310
 -1      1542    8    0    1
 -2       574       719       700      3313      3317      2903
 -1      1543    8    0    1
 -2       700       719       722      3317      2985      3318
 -1      1544    8    0    1
 -2       700       722       817      3318      3277      3319
 -1      1545    8    0    1
 -2       578       579       581      2901      3320      3256
 -1      1546    8    0    1
 -2       811       727       763      3278      3279      3321
 -1      1547    8    0    1
 -2       577       615       582      3007      3309      2531
 -1      1548    8    0    1
 -2       732       731       827      3022      3322      3323
 -1      1549    8    0    1
 -2       733       732       828      3025      3324      3325
 -1      1550    8    0    1
 -2       732       827       828      3323      3326      3324
 -1      1551    8    0    1
 -2       734       733       829      3028      3327      3328
 -1      1552    8    0    1
 -2       733       828       829      3325      3329      3327
 -1      1553    8    0    1
 -2       735       734       830      3031      3330      3331
 -1      1554    8    0    1
 -2       734       829       830      3328      3332      3330
 -1      1555    8    0    1
 -2       736       735       831      3034      3333      3334
 -1      1556    8    0    1
 -2       735       830       831      3331      3335      3333
 -1      1557    8    0    1
 -2       737       736       832      3037      3336      3337
 -1      1558    8    0    1
 -2       736       831       832      3334      3338      3336
 -1      1559    8    0    1
 -2       738       737       833      3040      3339      3340
 -1      1560    8    0    1
 -2       737       832       833      3337      3341      3339
 -1      1561    8    0    1
 -2       739       738       834      3043      3342      3343
 -1      1562    8    0    1
 -2       738       833       834      3340      3344      3342
 -1      1563    8    0    1
 -2       740       739       835      3046      3345      3346
 -1      1564    8    0    1
 -2       739       834       835      3343      3347      3345
 -1      1565    8    0    1
 -2       741       740       836      3049      3348      3349
 -1      1566    8    0    1
 -2       740       835       836      3346      3350      3348
 -1      1567    8    0    1
 -2       742       741       837      3052      3351      3352
 -1      1568    8    0    1
 -2       741       836       837      3349      3353      3351
 -1      1569    8    0    1
 -2       743       742       838      3055      3354      3355
 -1      1570    8    0    1
 -2       742       837       838      3352      3356      3354
 -1      1571    8    0    1
 -2       744       743       839      3058      3357      3358
 -1      1572    8    0    1
 -2       743       838       839      3355      3359      3357
 -1      1573    8    0    1
 -2       745       744       840      3061      3360      3361
 -1      1574    8    0    1
 -2       744       839       840      3358      3362      3360
 -1      1575    8    0    1
 -2       746       745       841      3064      3363      3364
 -1      1576    8    0    1
 -2       745       840       841      3361      3365      3363
 -1      1577    8    0    1
 -2       747       746       842      3067      3366      3367
 -1      1578    8    0    1
 -2       746       841       842      3364      3368      3366
 -1      1579    8    0    1
 -2       748       747       843      3070      3369      3370
 -1      1580    8    0    1
 -2       747       842       843      3367      3371      3369
 -1      1581    8    0    1
 -2       749       748       844      3073      3372      3373
 -1      1582    8    0    1
 -2       748       843       844      3370      3374      3372
 -1      1583    8    0    1
 -2       750       749       845      3076      3375      3376
 -1      1584    8    0    1
 -2       749       844       845      3373      3377      3375
 -1      1585    8    0    1
 -2       751       750       846      3079      3378      3379
 -1      1586    8    0    1
 -2       750       845       846      3376      3380      3378
 -1      1587    8    0    1
 -2       752       751       847      3082      3381      3382
 -1      1588    8    0    1
 -2       751       846       847      3379      3383      3381
 -1      1589    8    0    1
 -2       753       752       848      3085      3384      3385
 -1      1590    8    0    1
 -2       752       847       848      3382      3386      3384
 -1      1591    8    0    1
 -2       754       753       849      3088      3387      3388
 -1      1592    8    0    1
 -2       753       848       849      3385      3389      3387
 -1      1593    8    0    1
 -2       755       754       850      3091      3390      3391
 -1      1594    8    0    1
 -2       754       849       850      3388      3392      3390
 -1      1595    8    0    1
 -2       756       755       851      3094      3393      3394
 -1      1596    8    0    1
 -2       755       850       851      3391      3395      3393
 -1      1597    8    0    1
 -2       757       756       852      3097      3396      3397
 -1      1598    8    0    1
 -2       756       851       852      3394      3398      3396
 -1      1599    8    0    1
 -2       758       757       853      3100      3399      3400
 -1      1600    8    0    1
 -2       757       852       853      3397      3401      3399
 -1      1601    8    0    1
 -2       759       758       854      3103      3402      3403
 -1      1602    8    0    1
 -2       758       853       854      3400      3404      3402
 -1      1603    8    0    1
 -2       760       759       855      3106      3405      3406
 -1      1604    8    0    1
 -2       759       854       855      3403      3407      3405
 -1      1605    8    0    1
 -2       761       760       856      3109      3408      3409
 -1      1606    8    0    1
 -2       760       855       856      3406      3410      3408
 -1      1607    8    0    1
 -2       762       761       857      3112      3411      3412
 -1      1608    8    0    1
 -2       761       856       857      3409      3413      3411
 -1      1609    8    0    1
 -2       763       762       858      3115      3414      3415
 -1      1610    8    0    1
 -2       811       763       858      3321      3415      3416
 -1      1611    8    0    1
 -2       762       857       858      3412      3417      3414
 -1      1612    8    0    1
 -2       800       804       859      3280      3418      3419
 -1      1613    8    0    1
 -2       730       800       859      3227      3419      3420
 -1      1614    8    0    1
 -2       804       825       859      3312      3421      3418
 -1      1615    8    0    1
 -2       767       768       860      3130      3422      3423
 -1      1616    8    0    1
 -2       766       767       861      3127      3424      3425
 -1      1617    8    0    1
 -2       767       860       861      3423      3426      3424
 -1      1618    8    0    1
 -2       769       770       862      3136      3427      3428
 -1      1619    8    0    1
 -2       770       771       863      3139      3429      3430
 -1      1620    8    0    1
 -2       770       863       862      3430      3431      3427
 -1      1621    8    0    1
 -2       771       772       864      3142      3432      3433
 -1      1622    8    0    1
 -2       771       864       863      3433      3434      3429
 -1      1623    8    0    1
 -2       772       773       865      3145      3435      3436
 -1      1624    8    0    1
 -2       772       865       864      3436      3437      3432
 -1      1625    8    0    1
 -2       773       774       866      3148      3438      3439
 -1      1626    8    0    1
 -2       773       866       865      3439      3440      3435
 -1      1627    8    0    1
 -2       774       775       867      3151      3441      3442
 -1      1628    8    0    1
 -2       774       867       866      3442      3443      3438
 -1      1629    8    0    1
 -2       775       776       868      3154      3444      3445
 -1      1630    8    0    1
 -2       775       868       867      3445      3446      3441
 -1      1631    8    0    1
 -2       776       777       869      3157      3447      3448
 -1      1632    8    0    1
 -2       776       869       868      3448      3449      3444
 -1      1633    8    0    1
 -2       777       778       870      3160      3450      3451
 -1      1634    8    0    1
 -2       777       870       869      3451      3452      3447
 -1      1635    8    0    1
 -2       778       779       871      3163      3453      3454
 -1      1636    8    0    1
 -2       778       871       870      3454      3455      3450
 -1      1637    8    0    1
 -2       779       780       872      3166      3456      3457
 -1      1638    8    0    1
 -2       779       872       871      3457      3458      3453
 -1      1639    8    0    1
 -2       780       781       873      3169      3459      3460
 -1      1640    8    0    1
 -2       780       873       872      3460      3461      3456
 -1      1641    8    0    1
 -2       781       782       874      3172      3462      3463
 -1      1642    8    0    1
 -2       781       874       873      3463      3464      3459
 -1      1643    8    0    1
 -2       782       783       875      3175      3465      3466
 -1      1644    8    0    1
 -2       782       875       874      3466      3467      3462
 -1      1645    8    0    1
 -2       783       784       876      3178      3468      3469
 -1      1646    8    0    1
 -2       783       876       875      3469      3470      3465
 -1      1647    8    0    1
 -2       784       785       877      3181      3471      3472
 -1      1648    8    0    1
 -2       784       877       876      3472      3473      3468
 -1      1649    8    0    1
 -2       785       786       878      3184      3474      3475
 -1      1650    8    0    1
 -2       785       878       877      3475      3476      3471
 -1      1651    8    0    1
 -2       786       787       879      3187      3477      3478
 -1      1652    8    0    1
 -2       786       879       878      3478      3479      3474
 -1      1653    8    0    1
 -2       787       788       880      3190      3480      3481
 -1      1654    8    0    1
 -2       787       880       879      3481      3482      3477
 -1      1655    8    0    1
 -2       788       789       881      3193      3483      3484
 -1      1656    8    0    1
 -2       788       881       880      3484      3485      3480
 -1      1657    8    0    1
 -2       789       790       882      3196      3486      3487
 -1      1658    8    0    1
 -2       789       882       881      3487      3488      3483
 -1      1659    8    0    1
 -2       790       791       883      3199      3489      3490
 -1      1660    8    0    1
 -2       790       883       882      3490      3491      3486
 -1      1661    8    0    1
 -2       791       792       884      3202      3492      3493
 -1      1662    8    0    1
 -2       791       884       883      3493      3494      3489
 -1      1663    8    0    1
 -2       792       793       885      3205      3495      3496
 -1      1664    8    0    1
 -2       792       885       884      3496      3497      3492
 -1      1665    8    0    1
 -2       794       795       813      3211      3498      3499
 -1      1666    8    0    1
 -2       795       796       805      3214      3500      3501
 -1      1667    8    0    1
 -2       797       798       815      3220      3502      3503
 -1      1668    8    0    1
 -2       801       729       886      3232      3504      3505
 -1      1669    8    0    1
 -2       700       817       725      3319      3506      2996
 -1      1670    8    0    1
 -2       805       796       720      3500      3507      3267
 -1      1671    8    0    1
 -2       807       802       887      3268      3508      3509
 -1      1672    8    0    1
 -2       723       725       888      2995      3510      3511
 -1      1673    8    0    1
 -2       799       723       888      3224      3511      3512
 -1      1674    8    0    1
 -2       725       817       888      3506      3513      3510
 -1      1675    8    0    1
 -2       726       718       889      3001      3514      3515
 -1      1676    8    0    1
 -2       826       726       889      3314      3515      3516
 -1      1677    8    0    1
 -2       718       814       889      3265      3517      3514
 -1      1678    8    0    1
 -2       806       823       890      3306      3518      3519
 -1      1679    8    0    1
 -2       813       807       794      3307      3520      3499
 -1      1680    8    0    1
 -2       728       809       891      3252      3521      3522
 -1      1681    8    0    1
 -2       809       818       891      3283      3523      3521
 -1      1682    8    0    1
 -2       768       769       892      3133      3524      3525
 -1      1683    8    0    1
 -2       860       768       892      3422      3525      3526
 -1      1684    8    0    1
 -2       769       862       892      3428      3527      3524
 -1      1685    8    0    1
 -2       812       801       893      3261      3528      3529
 -1      1686    8    0    1
 -2       801       886       893      3505      3530      3528
 -1      1687    8    0    1
 -2       765       764       894      3122      3531      3532
 -1      1688    8    0    1
 -2       731       730       895      3019      3533      3534
 -1      1689    8    0    1
 -2       731       895       827      3534      3535      3322
 -1      1690    8    0    1
 -2       805       813       795      3290      3498      3501
 -1      1691    8    0    1
 -2       802       812       896      3294      3536      3537
 -1      1692    8    0    1
 -2       817       808       888      3308      3538      3513
 -1      1693    8    0    1
 -2       886       729       820      3504      3289      3539
 -1      1694    8    0    1
 -2       816       811       858      3275      3416      3540
 -1      1695    8    0    1
 -2       579       589       581      2620      2918      3320
 -1      1696    8    0    1
 -2       819       765       897      3284      3541      3542
 -1      1697    8    0    1
 -2       765       894       897      3532      3543      3541
 -1      1698    8    0    1
 -2       820       721       898      3287      3544      3545
 -1      1699    8    0    1
 -2       721       816       898      3274      3546      3544
 -1      1700    8    0    1
 -2       766       861       899      3425      3547      3548
 -1      1701    8    0    1
 -2       766       899       803      3548      3549      3238
 -1      1702    8    0    1
 -2       728       891       821      3522      3550      3293
 -1      1703    8    0    1
 -2       896       812       893      3536      3529      3551
 -1      1704    8    0    1
 -2       793       794       807      3208      3520      3552
 -1      1705    8    0    1
 -2       802       896       887      3537      3553      3508
 -1      1706    8    0    1
 -2       796       797       720      3217      3554      3507
 -1      1707    8    0    1
 -2       822       806       900      3298      3555      3556
 -1      1708    8    0    1
 -2       806       890       900      3519      3557      3555
 -1      1709    8    0    1
 -2       793       807       885      3552      3558      3495
 -1      1710    8    0    1
 -2       814       810       901      3266      3559      3560
 -1      1711    8    0    1
 -2       730       859       895      3420      3561      3533
 -1      1712    8    0    1
 -2       764       803       902      3237      3562      3563
 -1      1713    8    0    1
 -2       894       764       902      3531      3563      3564
 -1      1714    8    0    1
 -2       803       899       902      3549      3565      3562
 -1      1715    8    0    1
 -2       859       825       903      3421      3566      3567
 -1      1716    8    0    1
 -2       890       823       904      3518      3568      3569
 -1      1717    8    0    1
 -2       823       819       904      3301      3570      3568
 -1      1718    8    0    1
 -2       810       824       905      3304      3571      3572
 -1      1719    8    0    1
 -2       810       905       901      3572      3573      3559
 -1      1720    8    0    1
 -2       825       826       903      3316      3574      3566
 -1      1721    8    0    1
 -2       815       798       906      3502      3575      3576
 -1      1722    8    0    1
 -2       808       815       906      3272      3576      3577
 -1      1723    8    0    1
 -2       798       799       906      3223      3578      3575
 -1      1724    8    0    1
 -2       828       827       907      3326      3579      3580
 -1      1725    8    0    1
 -2       829       828       908      3329      3581      3582
 -1      1726    8    0    1
 -2       828       907       908      3580      3583      3581
 -1      1727    8    0    1
 -2       830       829       909      3332      3584      3585
 -1      1728    8    0    1
 -2       829       908       909      3582      3586      3584
 -1      1729    8    0    1
 -2       831       830       910      3335      3587      3588
 -1      1730    8    0    1
 -2       830       909       910      3585      3589      3587
 -1      1731    8    0    1
 -2       832       831       911      3338      3590      3591
 -1      1732    8    0    1
 -2       831       910       911      3588      3592      3590
 -1      1733    8    0    1
 -2       833       832       912      3341      3593      3594
 -1      1734    8    0    1
 -2       832       911       912      3591      3595      3593
 -1      1735    8    0    1
 -2       834       833       913      3344      3596      3597
 -1      1736    8    0    1
 -2       833       912       913      3594      3598      3596
 -1      1737    8    0    1
 -2       835       834       914      3347      3599      3600
 -1      1738    8    0    1
 -2       834       913       914      3597      3601      3599
 -1      1739    8    0    1
 -2       836       835       915      3350      3602      3603
 -1      1740    8    0    1
 -2       835       914       915      3600      3604      3602
 -1      1741    8    0    1
 -2       837       836       916      3353      3605      3606
 -1      1742    8    0    1
 -2       836       915       916      3603      3607      3605
 -1      1743    8    0    1
 -2       838       837       917      3356      3608      3609
 -1      1744    8    0    1
 -2       837       916       917      3606      3610      3608
 -1      1745    8    0    1
 -2       839       838       918      3359      3611      3612
 -1      1746    8    0    1
 -2       838       917       918      3609      3613      3611
 -1      1747    8    0    1
 -2       840       839       919      3362      3614      3615
 -1      1748    8    0    1
 -2       839       918       919      3612      3616      3614
 -1      1749    8    0    1
 -2       841       840       920      3365      3617      3618
 -1      1750    8    0    1
 -2       840       919       920      3615      3619      3617
 -1      1751    8    0    1
 -2       842       841       921      3368      3620      3621
 -1      1752    8    0    1
 -2       841       920       921      3618      3622      3620
 -1      1753    8    0    1
 -2       843       842       922      3371      3623      3624
 -1      1754    8    0    1
 -2       842       921       922      3621      3625      3623
 -1      1755    8    0    1
 -2       844       843       923      3374      3626      3627
 -1      1756    8    0    1
 -2       843       922       923      3624      3628      3626
 -1      1757    8    0    1
 -2       845       844       924      3377      3629      3630
 -1      1758    8    0    1
 -2       844       923       924      3627      3631      3629
 -1      1759    8    0    1
 -2       846       845       925      3380      3632      3633
 -1      1760    8    0    1
 -2       845       924       925      3630      3634      3632
 -1      1761    8    0    1
 -2       847       846       926      3383      3635      3636
 -1      1762    8    0    1
 -2       846       925       926      3633      3637      3635
 -1      1763    8    0    1
 -2       848       847       927      3386      3638      3639
 -1      1764    8    0    1
 -2       847       926       927      3636      3640      3638
 -1      1765    8    0    1
 -2       849       848       928      3389      3641      3642
 -1      1766    8    0    1
 -2       848       927       928      3639      3643      3641
 -1      1767    8    0    1
 -2       850       849       929      3392      3644      3645
 -1      1768    8    0    1
 -2       849       928       929      3642      3646      3644
 -1      1769    8    0    1
 -2       851       850       930      3395      3647      3648
 -1      1770    8    0    1
 -2       850       929       930      3645      3649      3647
 -1      1771    8    0    1
 -2       852       851       931      3398      3650      3651
 -1      1772    8    0    1
 -2       851       930       931      3648      3652      3650
 -1      1773    8    0    1
 -2       853       852       932      3401      3653      3654
 -1      1774    8    0    1
 -2       852       931       932      3651      3655      3653
 -1      1775    8    0    1
 -2       854       853       933      3404      3656      3657
 -1      1776    8    0    1
 -2       853       932       933      3654      3658      3656
 -1      1777    8    0    1
 -2       855       854       934      3407      3659      3660
 -1      1778    8    0    1
 -2       854       933       934      3657      3661      3659
 -1      1779    8    0    1
 -2       856       855       935      3410      3662      3663
 -1      1780    8    0    1
 -2       855       934       935      3660      3664      3662
 -1      1781    8    0    1
 -2       857       856       936      3413      3665      3666
 -1      1782    8    0    1
 -2       856       935       936      3663      3667      3665
 -1      1783    8    0    1
 -2       858       857       937      3417      3668      3669
 -1      1784    8    0    1
 -2       816       858       937      3540      3669      3670
 -1      1785    8    0    1
 -2       857       936       937      3666      3671      3668
 -1      1786    8    0    1
 -2       864       865       938      3437      3672      3673
 -1      1787    8    0    1
 -2       861       860       939      3426      3674      3675
 -1      1788    8    0    1
 -2       863       864       940      3434      3676      3677
 -1      1789    8    0    1
 -2       864       938       940      3673      3678      3676
 -1      1790    8    0    1
 -2       862       863       941      3431      3679      3680
 -1      1791    8    0    1
 -2       863       940       941      3677      3681      3679
 -1      1792    8    0    1
 -2       865       866       942      3440      3682      3683
 -1      1793    8    0    1
 -2       865       942       938      3683      3684      3672
 -1      1794    8    0    1
 -2       866       867       943      3443      3685      3686
 -1      1795    8    0    1
 -2       866       943       942      3686      3687      3682
 -1      1796    8    0    1
 -2       867       868       944      3446      3688      3689
 -1      1797    8    0    1
 -2       867       944       943      3689      3690      3685
 -1      1798    8    0    1
 -2       868       869       945      3449      3691      3692
 -1      1799    8    0    1
 -2       868       945       944      3692      3693      3688
 -1      1800    8    0    1
 -2       869       870       946      3452      3694      3695
 -1      1801    8    0    1
 -2       869       946       945      3695      3696      3691
 -1      1802    8    0    1
 -2       870       871       947      3455      3697      3698
 -1      1803    8    0    1
 -2       870       947       946      3698      3699      3694
 -1      1804    8    0    1
 -2       871       872       948      3458      3700      3701
 -1      1805    8    0    1
 -2       871       948       947      3701      3702      3697
 -1      1806    8    0    1
 -2       872       873       949      3461      3703      3704
 -1      1807    8    0    1
 -2       872       949       948      3704      3705      3700
 -1      1808    8    0    1
 -2       873       874       950      3464      3706      3707
 -1      1809    8    0    1
 -2       873       950       949      3707      3708      3703
 -1      1810    8    0    1
 -2       874       875       951      3467      3709      3710
 -1      1811    8    0    1
 -2       874       951       950      3710      3711      3706
 -1      1812    8    0    1
 -2       875       876       952      3470      3712      3713
 -1      1813    8    0    1
 -2       875       952       951      3713      3714      3709
 -1      1814    8    0    1
 -2       876       877       953      3473      3715      3716
 -1      1815    8    0    1
 -2       876       953       952      3716      3717      3712
 -1      1816    8    0    1
 -2       877       878       954      3476      3718      3719
 -1      1817    8    0    1
 -2       877       954       953      3719      3720      3715
 -1      1818    8    0    1
 -2       878       879       955      3479      3721      3722
 -1      1819    8    0    1
 -2       878       955       954      3722      3723      3718
 -1      1820    8    0    1
 -2       879       880       956      3482      3724      3725
 -1      1821    8    0    1
 -2       879       956       955      3725      3726      3721
 -1      1822    8    0    1
 -2       880       881       957      3485      3727      3728
 -1      1823    8    0    1
 -2       880       957       956      3728      3729      3724
 -1      1824    8    0    1
 -2       881       882       958      3488      3730      3731
 -1      1825    8    0    1
 -2       881       958       957      3731      3732      3727
 -1      1826    8    0    1
 -2       882       883       959      3491      3733      3734
 -1      1827    8    0    1
 -2       882       959       958      3734      3735      3730
 -1      1828    8    0    1
 -2       883       884       960      3494      3736      3737
 -1      1829    8    0    1
 -2       883       960       959      3737      3738      3733
 -1      1830    8    0    1
 -2       814       901       961      3560      3739      3740
 -1      1831    8    0    1
 -2       886       820       962      3539      3741      3742
 -1      1832    8    0    1
 -2       720       797       815      3554      3503      3270
 -1      1833    8    0    1
 -2       896       893       963      3551      3743      3744
 -1      1834    8    0    1
 -2       903       826       964      3574      3745      3746
 -1      1835    8    0    1
 -2       826       889       964      3516      3747      3745
 -1      1836    8    0    1
 -2       895       859       903      3561      3567      3748
 -1      1837    8    0    1
 -2       824       821       965      3305      3749      3750
 -1      1838    8    0    1
 -2       824       965       905      3750      3751      3571
 -1      1839    8    0    1
 -2       887       896       960      3553      3752      3753
 -1      1840    8    0    1
 -2       821       891       965      3550      3754      3749
 -1      1841    8    0    1
 -2       895       903       966      3748      3755      3756
 -1      1842    8    0    1
 -2       827       895       966      3535      3756      3757
 -1      1843    8    0    1
 -2       903       964       966      3746      3758      3755
 -1      1844    8    0    1
 -2       818       822       967      3297      3759      3760
 -1      1845    8    0    1
 -2       891       818       967      3523      3760      3761
 -1      1846    8    0    1
 -2       822       900       967      3556      3762      3759
 -1      1847    8    0    1
 -2       807       887       885      3509      3763      3558
 -1      1848    8    0    1
 -2       893       886       968      3530      3764      3765
 -1      1849    8    0    1
 -2       893       968       963      3765      3766      3743
 -1      1850    8    0    1
 -2       896       963       960      3744      3767      3752
 -1      1851    8    0    1
 -2       862       941       969      3680      3768      3769
 -1      1852    8    0    1
 -2       862       969       892      3769      3770      3527
 -1      1853    8    0    1
 -2       939       860       970      3674      3771      3772
 -1      1854    8    0    1
 -2       860       892       970      3526      3773      3771
 -1      1855    8    0    1
 -2       861       939       971      3675      3774      3775
 -1      1856    8    0    1
 -2       861       971       899      3775      3776      3547
 -1      1857    8    0    1
 -2       898       816       937      3546      3670      3777
 -1      1858    8    0    1
 -2       814       961       889      3740      3778      3517
 -1      1859    8    0    1
 -2       961       901       972      3739      3779      3780
 -1      1860    8    0    1
 -2       884       885       887      3497      3763      3781
 -1      1861    8    0    1
 -2       886       962       973      3742      3782      3783
 -1      1862    8    0    1
 -2       886       973       968      3783      3784      3764
 -1      1863    8    0    1
 -2       900       890       974      3557      3785      3786
 -1      1864    8    0    1
 -2       820       898       962      3545      3787      3741
 -1      1865    8    0    1
 -2       799       888       906      3512      3788      3578
 -1      1866    8    0    1
 -2       827       966       907      3757      3789      3579
 -1      1867    8    0    1
 -2       897       894       975      3543      3790      3791
 -1      1868    8    0    1
 -2       904       819       897      3570      3542      3792
 -1      1869    8    0    1
 -2       894       902       976      3564      3793      3794
 -1      1870    8    0    1
 -2       894       976       975      3794      3795      3790
 -1      1871    8    0    1
 -2       808       906       888      3577      3788      3538
 -1      1872    8    0    1
 -2       890       904       977      3569      3796      3797
 -1      1873    8    0    1
 -2       890       977       974      3797      3798      3785
 -1      1874    8    0    1
 -2       887       960       884      3753      3736      3781
 -1      1875    8    0    1
 -2       901       905       978      3573      3799      3800
 -1      1876    8    0    1
 -2       901       978       972      3800      3801      3779
 -1      1877    8    0    1
 -2       908       907       979      3583      3802      3803
 -1      1878    8    0    1
 -2       909       908       980      3586      3804      3805
 -1      1879    8    0    1
 -2       908       979       980      3803      3806      3804
 -1      1880    8    0    1
 -2       910       909       981      3589      3807      3808
 -1      1881    8    0    1
 -2       909       980       981      3805      3809      3807
 -1      1882    8    0    1
 -2       911       910       982      3592      3810      3811
 -1      1883    8    0    1
 -2       910       981       982      3808      3812      3810
 -1      1884    8    0    1
 -2       912       911       983      3595      3813      3814
 -1      1885    8    0    1
 -2       911       982       983      3811      3815      3813
 -1      1886    8    0    1
 -2       913       912       984      3598      3816      3817
 -1      1887    8    0    1
 -2       912       983       984      3814      3818      3816
 -1      1888    8    0    1
 -2       914       913       985      3601      3819      3820
 -1      1889    8    0    1
 -2       913       984       985      3817      3821      3819
 -1      1890    8    0    1
 -2       915       914       986      3604      3822      3823
 -1      1891    8    0    1
 -2       914       985       986      3820      3824      3822
 -1      1892    8    0    1
 -2       916       915       987      3607      3825      3826
 -1      1893    8    0    1
 -2       915       986       987      3823      3827      3825
 -1      1894    8    0    1
 -2       917       916       988      3610      3828      3829
 -1      1895    8    0    1
 -2       916       987       988      3826      3830      3828
 -1      1896    8    0    1
 -2       918       917       989      3613      3831      3832
 -1      1897    8    0    1
 -2       917       988       989      3829      3833      3831
 -1      1898    8    0    1
 -2       919       918       990      3616      3834      3835
 -1      1899    8    0    1
 -2       918       989       990      3832      3836      3834
 -1      1900    8    0    1
 -2       920       919       991      3619      3837      3838
 -1      1901    8    0    1
 -2       919       990       991      3835      3839      3837
 -1      1902    8    0    1
 -2       921       920       992      3622      3840      3841
 -1      1903    8    0    1
 -2       920       991       992      3838      3842      3840
 -1      1904    8    0    1
 -2       922       921       993      3625      3843      3844
 -1      1905    8    0    1
 -2       921       992       993      3841      3845      3843
 -1      1906    8    0    1
 -2       923       922       994      3628      3846      3847
 -1      1907    8    0    1
 -2       922       993       994      3844      3848      3846
 -1      1908    8    0    1
 -2       924       923       995      3631      3849      3850
 -1      1909    8    0    1
 -2       923       994       995      3847      3851      3849
 -1      1910    8    0    1
 -2       925       924       996      3634      3852      3853
 -1      1911    8    0    1
 -2       924       995       996      3850      3854      3852
 -1      1912    8    0    1
 -2       926       925       997      3637      3855      3856
 -1      1913    8    0    1
 -2       925       996       997      3853      3857      3855
 -1      1914    8    0    1
 -2       927       926       998      3640      3858      3859
 -1      1915    8    0    1
 -2       926       997       998      3856      3860      3858
 -1      1916    8    0    1
 -2       928       927       999      3643      3861      3862
 -1      1917    8    0    1
 -2       927       998       999      3859      3863      3861
 -1      1918    8    0    1
 -2       929       928      1000      3646      3864      3865
 -1      1919    8    0    1
 -2       928       999      1000      3862      3866      3864
 -1      1920    8    0    1
 -2       930       929      1001      3649      3867      3868
 -1      1921    8    0    1
 -2       929      1000      1001      3865      3869      3867
 -1      1922    8    0    1
 -2       931       930      1002      3652      3870      3871
 -1      1923    8    0    1
 -2       930      1001      1002      3868      3872      3870
 -1      1924    8    0    1
 -2       932       931      1003      3655      3873      3874
 -1      1925    8    0    1
 -2       931      1002      1003      3871      3875      3873
 -1      1926    8    0    1
 -2       933       932      1004      3658      3876      3877
 -1      1927    8    0    1
 -2       932      1003      1004      3874      3878      3876
 -1      1928    8    0    1
 -2       934       933      1005      3661      3879      3880
 -1      1929    8    0    1
 -2       933      1004      1005      3877      3881      3879
 -1      1930    8    0    1
 -2       935       934      1006      3664      3882      3883
 -1      1931    8    0    1
 -2       934      1005      1006      3880      3884      3882
 -1      1932    8    0    1
 -2       936       935      1007      3667      3885      3886
 -1      1933    8    0    1
 -2       935      1006      1007      3883      3887      3885
 -1      1934    8    0    1
 -2       937       936      1008      3671      3888      3889
 -1      1935    8    0    1
 -2       938       942      1009      3684      3890      3891
 -1      1936    8    0    1
 -2       898       937      1008      3777      3889      3892
 -1      1937    8    0    1
 -2       941       940      1010      3681      3893      3894
 -1      1938    8    0    1
 -2       943       944      1011      3690      3895      3896
 -1      1939    8    0    1
 -2       944       945      1012      3693      3897      3898
 -1      1940    8    0    1
 -2       944      1012      1011      3898      3899      3895
 -1      1941    8    0    1
 -2       945       946      1013      3696      3900      3901
 -1      1942    8    0    1
 -2       945      1013      1012      3901      3902      3897
 -1      1943    8    0    1
 -2       946       947      1014      3699      3903      3904
 -1      1944    8    0    1
 -2       946      1014      1013      3904      3905      3900
 -1      1945    8    0    1
 -2       947       948      1015      3702      3906      3907
 -1      1946    8    0    1
 -2       947      1015      1014      3907      3908      3903
 -1      1947    8    0    1
 -2       948       949      1016      3705      3909      3910
 -1      1948    8    0    1
 -2       948      1016      1015      3910      3911      3906
 -1      1949    8    0    1
 -2       949       950      1017      3708      3912      3913
 -1      1950    8    0    1
 -2       949      1017      1016      3913      3914      3909
 -1      1951    8    0    1
 -2       950       951      1018      3711      3915      3916
 -1      1952    8    0    1
 -2       950      1018      1017      3916      3917      3912
 -1      1953    8    0    1
 -2       951       952      1019      3714      3918      3919
 -1      1954    8    0    1
 -2       951      1019      1018      3919      3920      3915
 -1      1955    8    0    1
 -2       952       953      1020      3717      3921      3922
 -1      1956    8    0    1
 -2       952      1020      1019      3922      3923      3918
 -1      1957    8    0    1
 -2       953       954      1021      3720      3924      3925
 -1      1958    8    0    1
 -2       953      1021      1020      3925      3926      3921
 -1      1959    8    0    1
 -2       954       955      1022      3723      3927      3928
 -1      1960    8    0    1
 -2       954      1022      1021      3928      3929      3924
 -1      1961    8    0    1
 -2       955       956      1023      3726      3930      3931
 -1      1962    8    0    1
 -2       955      1023      1022      3931      3932      3927
 -1      1963    8    0    1
 -2       956       957      1024      3729      3933      3934
 -1      1964    8    0    1
 -2       956      1024      1023      3934      3935      3930
 -1      1965    8    0    1
 -2       957       958      1025      3732      3936      3937
 -1      1966    8    0    1
 -2       957      1025      1024      3937      3938      3933
 -1      1967    8    0    1
 -2       958       959      1026      3735      3939      3940
 -1      1968    8    0    1
 -2       958      1026      1025      3940      3941      3936
 -1      1969    8    0    1
 -2       959       960       963      3738      3767      3942
 -1      1970    8    0    1
 -2       962       898      1008      3787      3892      3943
 -1      1971    8    0    1
 -2       889       961       964      3778      3944      3747
 -1      1972    8    0    1
 -2       961       972      1027      3780      3945      3946
 -1      1973    8    0    1
 -2       961      1027       964      3946      3947      3944
 -1      1974    8    0    1
 -2       891       967       965      3761      3948      3754
 -1      1975    8    0    1
 -2       904       897      1028      3792      3949      3950
 -1      1976    8    0    1
 -2       897       975      1028      3791      3951      3949
 -1      1977    8    0    1
 -2       902       899      1029      3565      3952      3953
 -1      1978    8    0    1
 -2       976       902      1029      3793      3953      3954
 -1      1979    8    0    1
 -2       899       971      1029      3776      3955      3952
 -1      1980    8    0    1
 -2       942       943      1030      3687      3956      3957
 -1      1981    8    0    1
 -2       942      1030      1009      3957      3958      3890
 -1      1982    8    0    1
 -2       905       965      1031      3751      3959      3960
 -1      1983    8    0    1
 -2       905      1031       978      3960      3961      3799
 -1      1984    8    0    1
 -2       966       964      1027      3758      3947      3962
 -1      1985    8    0    1
 -2       967       900      1032      3762      3963      3964
 -1      1986    8    0    1
 -2       900       974      1032      3786      3965      3963
 -1      1987    8    0    1
 -2       940       938      1033      3678      3966      3967
 -1      1988    8    0    1
 -2       938      1009      1033      3891      3968      3966
 -1      1989    8    0    1
 -2       907       966      1034      3789      3969      3970
 -1      1990    8    0    1
 -2       979       907      1034      3802      3970      3971
 -1      1991    8    0    1
 -2       966      1027      1034      3962      3972      3969
 -1      1992    8    0    1
 -2       963       968      1035      3766      3973      3974
 -1      1993    8    0    1
 -2       969       941      1036      3768      3975      3976
 -1      1994    8    0    1
 -2       941      1010      1036      3894      3977      3975
 -1      1995    8    0    1
 -2       970       892       969      3773      3770      3978
 -1      1996    8    0    1
 -2      1008       936      1007      3888      3886      3979
 -1      1997    8    0    1
 -2       971       939      1037      3774      3980      3981
 -1      1998    8    0    1
 -2       965       967      1032      3948      3964      3982
 -1      1999    8    0    1
 -2      1010       940      1033      3893      3967      3983
 -1      2000    8    0    1
 -2       943      1011      1030      3896      3984      3956
 -1      2001    8    0    1
 -2       959       963      1026      3942      3985      3939
 -1      2002    8    0    1
 -2       963      1035      1026      3974      3986      3985
 -1      2003    8    0    1
 -2       972       978      1038      3801      3987      3988
 -1      2004    8    0    1
 -2       973       962      1008      3782      3943      3989
 -1      2005    8    0    1
 -2      1027       972      1039      3945      3990      3991
 -1      2006    8    0    1
 -2      1034      1027      1039      3972      3991      3992
 -1      2007    8    0    1
 -2       972      1038      1039      3988      3993      3990
 -1      2008    8    0    1
 -2      1028       975      1040      3951      3994      3995
 -1      2009    8    0    1
 -2       977       904      1028      3796      3950      3996
 -1      2010    8    0    1
 -2       968       973      1035      3784      3997      3973
 -1      2011    8    0    1
 -2      1031       965      1032      3959      3982      3998
 -1      2012    8    0    1
 -2      1032       974      1041      3965      3999      4000
 -1      2013    8    0    1
 -2      1032      1041      1031      4000      4001      3998
 -1      2014    8    0    1
 -2       939       970      1042      3772      4002      4003
 -1      2015    8    0    1
 -2       939      1042      1037      4003      4004      3980
 -1      2016    8    0    1
 -2      1040       975      1043      3994      4005      4006
 -1      2017    8    0    1
 -2       975       976      1043      3795      4007      4005
 -1      2018    8    0    1
 -2       974       977      1044      3798      4008      4009
 -1      2019    8    0    1
 -2       974      1044      1041      4009      4010      3999
 -1      2020    8    0    1
 -2       970       969      1045      3978      4011      4012
 -1      2021    8    0    1
 -2      1042       970      1045      4002      4012      4013
 -1      2022    8    0    1
 -2       969      1036      1045      3976      4014      4011
 -1      2023    8    0    1
 -2       981       980      1046      3809      4015      4016
 -1      2024    8    0    1
 -2       982       981      1047      3812      4017      4018
 -1      2025    8    0    1
 -2       981      1046      1047      4016      4019      4017
 -1      2026    8    0    1
 -2       983       982      1048      3815      4020      4021
 -1      2027    8    0    1
 -2       982      1047      1048      4018      4022      4020
 -1      2028    8    0    1
 -2       984       983      1049      3818      4023      4024
 -1      2029    8    0    1
 -2       983      1048      1049      4021      4025      4023
 -1      2030    8    0    1
 -2       985       984      1050      3821      4026      4027
 -1      2031    8    0    1
 -2       984      1049      1050      4024      4028      4026
 -1      2032    8    0    1
 -2       986       985      1051      3824      4029      4030
 -1      2033    8    0    1
 -2       985      1050      1051      4027      4031      4029
 -1      2034    8    0    1
 -2       987       986      1052      3827      4032      4033
 -1      2035    8    0    1
 -2       986      1051      1052      4030      4034      4032
 -1      2036    8    0    1
 -2       988       987      1053      3830      4035      4036
 -1      2037    8    0    1
 -2       987      1052      1053      4033      4037      4035
 -1      2038    8    0    1
 -2       989       988      1054      3833      4038      4039
 -1      2039    8    0    1
 -2       988      1053      1054      4036      4040      4038
 -1      2040    8    0    1
 -2       990       989      1055      3836      4041      4042
 -1      2041    8    0    1
 -2       989      1054      1055      4039      4043      4041
 -1      2042    8    0    1
 -2       991       990      1056      3839      4044      4045
 -1      2043    8    0    1
 -2       990      1055      1056      4042      4046      4044
 -1      2044    8    0    1
 -2       992       991      1057      3842      4047      4048
 -1      2045    8    0    1
 -2       991      1056      1057      4045      4049      4047
 -1      2046    8    0    1
 -2       993       992      1058      3845      4050      4051
 -1      2047    8    0    1
 -2       992      1057      1058      4048      4052      4050
 -1      2048    8    0    1
 -2       994       993      1059      3848      4053      4054
 -1      2049    8    0    1
 -2       993      1058      1059      4051      4055      4053
 -1      2050    8    0    1
 -2       995       994      1060      3851      4056      4057
 -1      2051    8    0    1
 -2       994      1059      1060      4054      4058      4056
 -1      2052    8    0    1
 -2       996       995      1061      3854      4059      4060
 -1      2053    8    0    1
 -2       995      1060      1061      4057      4061      4059
 -1      2054    8    0    1
 -2       997       996      1062      3857      4062      4063
 -1      2055    8    0    1
 -2       996      1061      1062      4060      4064      4062
 -1      2056    8    0    1
 -2       998       997      1063      3860      4065      4066
 -1      2057    8    0    1
 -2       997      1062      1063      4063      4067      4065
 -1      2058    8    0    1
 -2       999       998      1064      3863      4068      4069
 -1      2059    8    0    1
 -2       998      1063      1064      4066      4070      4068
 -1      2060    8    0    1
 -2      1000       999      1065      3866      4071      4072
 -1      2061    8    0    1
 -2       999      1064      1065      4069      4073      4071
 -1      2062    8    0    1
 -2      1001      1000      1066      3869      4074      4075
 -1      2063    8    0    1
 -2      1000      1065      1066      4072      4076      4074
 -1      2064    8    0    1
 -2      1002      1001      1067      3872      4077      4078
 -1      2065    8    0    1
 -2      1001      1066      1067      4075      4079      4077
 -1      2066    8    0    1
 -2      1003      1002      1068      3875      4080      4081
 -1      2067    8    0    1
 -2      1002      1067      1068      4078      4082      4080
 -1      2068    8    0    1
 -2      1004      1003      1069      3878      4083      4084
 -1      2069    8    0    1
 -2      1003      1068      1069      4081      4085      4083
 -1      2070    8    0    1
 -2      1005      1004      1070      3881      4086      4087
 -1      2071    8    0    1
 -2      1004      1069      1070      4084      4088      4086
 -1      2072    8    0    1
 -2      1006      1005      1071      3884      4089      4090
 -1      2073    8    0    1
 -2      1005      1070      1071      4087      4091      4089
 -1      2074    8    0    1
 -2      1007      1006      1072      3887      4092      4093
 -1      2075    8    0    1
 -2      1006      1071      1072      4090      4094      4092
 -1      2076    8    0    1
 -2      1031      1041       978      4001      4095      3961
 -1      2077    8    0    1
 -2      1009      1030      1073      3958      4096      4097
 -1      2078    8    0    1
 -2      1011      1012      1074      3899      4098      4099
 -1      2079    8    0    1
 -2      1014      1015      1075      3908      4100      4101
 -1      2080    8    0    1
 -2      1015      1016      1076      3911      4102      4103
 -1      2081    8    0    1
 -2      1015      1076      1075      4103      4104      4100
 -1      2082    8    0    1
 -2      1016      1017      1077      3914      4105      4106
 -1      2083    8    0    1
 -2      1016      1077      1076      4106      4107      4102
 -1      2084    8    0    1
 -2      1017      1018      1078      3917      4108      4109
 -1      2085    8    0    1
 -2      1017      1078      1077      4109      4110      4105
 -1      2086    8    0    1
 -2      1018      1019      1079      3920      4111      4112
 -1      2087    8    0    1
 -2      1018      1079      1078      4112      4113      4108
 -1      2088    8    0    1
 -2      1019      1020      1080      3923      4114      4115
 -1      2089    8    0    1
 -2      1019      1080      1079      4115      4116      4111
 -1      2090    8    0    1
 -2      1020      1021      1081      3926      4117      4118
 -1      2091    8    0    1
 -2      1020      1081      1080      4118      4119      4114
 -1      2092    8    0    1
 -2      1021      1022      1082      3929      4120      4121
 -1      2093    8    0    1
 -2      1021      1082      1081      4121      4122      4117
 -1      2094    8    0    1
 -2      1022      1023      1083      3932      4123      4124
 -1      2095    8    0    1
 -2      1022      1083      1082      4124      4125      4120
 -1      2096    8    0    1
 -2      1023      1024      1084      3935      4126      4127
 -1      2097    8    0    1
 -2      1023      1084      1083      4127      4128      4123
 -1      2098    8    0    1
 -2      1024      1025      1085      3938      4129      4130
 -1      2099    8    0    1
 -2      1024      1085      1084      4130      4131      4126
 -1      2100    8    0    1
 -2      1025      1026      1086      3941      4132      4133
 -1      2101    8    0    1
 -2      1085      1025      1086      4129      4133      4134
 -1      2102    8    0    1
 -2      1026      1035      1086      3986      4135      4132
 -1      2103    8    0    1
 -2       971      1037      1087      3981      4136      4137
 -1      2104    8    0    1
 -2       971      1087      1029      4137      4138      3955
 -1      2105    8    0    1
 -2      1038       978      1041      3987      4095      4139
 -1      2106    8    0    1
 -2       973      1008      1007      3989      3979      4140
 -1      2107    8    0    1
 -2      1010      1033      1088      3983      4141      4142
 -1      2108    8    0    1
 -2       977      1028      1089      3996      4143      4144
 -1      2109    8    0    1
 -2      1044       977      1089      4008      4144      4145
 -1      2110    8    0    1
 -2      1028      1040      1089      3995      4146      4143
 -1      2111    8    0    1
 -2      1038      1041      1044      4139      4010      4147
 -1      2112    8    0    1
 -2      1013      1014      1090      3905      4148      4149
 -1      2113    8    0    1
 -2      1014      1075      1090      4101      4150      4148
 -1      2114    8    0    1
 -2      1033      1009      1091      3968      4151      4152
 -1      2115    8    0    1
 -2      1009      1073      1091      4097      4153      4151
 -1      2116    8    0    1
 -2      1012      1013      1092      3902      4154      4155
 -1      2117    8    0    1
 -2      1074      1012      1092      4098      4155      4156
 -1      2118    8    0    1
 -2      1013      1090      1092      4149      4157      4154
 -1      2119    8    0    1
 -2       980       979      1093      3806      4158      4159
 -1      2120    8    0    1
 -2       980      1093      1046      4159      4160      4015
 -1      2121    8    0    1
 -2      1030      1011      1094      3984      4161      4162
 -1      2122    8    0    1
 -2      1011      1074      1094      4099      4163      4161
 -1      2123    8    0    1
 -2       973      1007      1072      4140      4093      4164
 -1      2124    8    0    1
 -2      1040      1043      1095      4006      4165      4166
 -1      2125    8    0    1
 -2       979      1034      1096      3971      4167      4168
 -1      2126    8    0    1
 -2      1093       979      1096      4158      4168      4169
 -1      2127    8    0    1
 -2      1034      1039      1096      3992      4170      4167
 -1      2128    8    0    1
 -2      1073      1030      1094      4096      4162      4171
 -1      2129    8    0    1
 -2      1033      1091      1088      4152      4172      4141
 -1      2130    8    0    1
 -2      1087      1037      1097      4136      4173      4174
 -1      2131    8    0    1
 -2      1089      1040      1098      4146      4175      4176
 -1      2132    8    0    1
 -2      1040      1095      1098      4166      4177      4175
 -1      2133    8    0    1
 -2      1039      1038      1099      3993      4178      4179
 -1      2134    8    0    1
 -2      1039      1099      1096      4179      4180      4170
 -1      2135    8    0    1
 -2      1010      1088      1100      4142      4181      4182
 -1      2136    8    0    1
 -2      1010      1100      1036      4182      4183      3977
 -1      2137    8    0    1
 -2      1035       973      1101      3997      4184      4185
 -1      2138    8    0    1
 -2      1043       976      1102      4007      4186      4187
 -1      2139    8    0    1
 -2       976      1029      1102      3954      4188      4186
 -1      2140    8    0    1
 -2      1037      1042      1103      4004      4189      4190
 -1      2141    8    0    1
 -2      1037      1103      1097      4190      4191      4173
 -1      2142    8    0    1
 -2      1035      1101      1086      4185      4192      4135
 -1      2143    8    0    1
 -2      1047      1046      1095      4019      4193      4194
 -1      2144    8    0    1
 -2      1095      1043      1104      4165      4195      4196
 -1      2145    8    0    1
 -2      1043      1102      1104      4187      4197      4195
 -1      2146    8    0    1
 -2      1048      1047      1104      4022      4198      4199
 -1      2147    8    0    1
 -2      1050      1049      1105      4028      4200      4201
 -1      2148    8    0    1
 -2      1051      1050      1103      4031      4202      4203
 -1      2149    8    0    1
 -2      1053      1052      1106      4037      4204      4205
 -1      2150    8    0    1
 -2      1054      1053      1100      4040      4206      4207
 -1      2151    8    0    1
 -2      1055      1054      1088      4043      4208      4209
 -1      2152    8    0    1
 -2      1056      1055      1091      4046      4210      4211
 -1      2153    8    0    1
 -2      1057      1056      1073      4049      4212      4213
 -1      2154    8    0    1
 -2      1058      1057      1094      4052      4214      4215
 -1      2155    8    0    1
 -2      1059      1058      1074      4055      4216      4217
 -1      2156    8    0    1
 -2      1060      1059      1092      4058      4218      4219
 -1      2157    8    0    1
 -2      1061      1060      1090      4061      4220      4221
 -1      2158    8    0    1
 -2      1062      1061      1075      4064      4222      4223
 -1      2159    8    0    1
 -2      1063      1062      1076      4067      4224      4225
 -1      2160    8    0    1
 -2      1064      1063      1077      4070      4226      4227
 -1      2161    8    0    1
 -2      1065      1064      1078      4073      4228      4229
 -1      2162    8    0    1
 -2      1066      1065      1079      4076      4230      4231
 -1      2163    8    0    1
 -2      1067      1066      1080      4079      4232      4233
 -1      2164    8    0    1
 -2      1068      1067      1081      4082      4234      4235
 -1      2165    8    0    1
 -2      1069      1068      1082      4085      4236      4237
 -1      2166    8    0    1
 -2      1070      1069      1083      4088      4238      4239
 -1      2167    8    0    1
 -2      1071      1070      1084      4091      4240      4241
 -1      2168    8    0    1
 -2      1072      1071      1085      4094      4242      4243
 -1      2169    8    0    1
 -2      1090      1060      1092      4220      4219      4157
 -1      2170    8    0    1
 -2       973      1072      1101      4164      4244      4184
 -1      2171    8    0    1
 -2      1074      1058      1094      4216      4215      4163
 -1      2172    8    0    1
 -2      1075      1076      1062      4104      4224      4223
 -1      2173    8    0    1
 -2      1078      1079      1065      4113      4230      4229
 -1      2174    8    0    1
 -2      1079      1080      1066      4116      4232      4231
 -1      2175    8    0    1
 -2      1080      1081      1067      4119      4234      4233
 -1      2176    8    0    1
 -2      1081      1082      1068      4122      4236      4235
 -1      2177    8    0    1
 -2      1082      1083      1069      4125      4238      4237
 -1      2178    8    0    1
 -2      1083      1084      1070      4128      4240      4239
 -1      2179    8    0    1
 -2      1084      1085      1071      4131      4242      4241
 -1      2180    8    0    1
 -2      1047      1095      1104      4194      4196      4198
 -1      2181    8    0    1
 -2      1091      1055      1088      4210      4209      4172
 -1      2182    8    0    1
 -2      1094      1057      1073      4214      4213      4171
 -1      2183    8    0    1
 -2      1029      1087      1102      4138      4245      4188
 -1      2184    8    0    1
 -2      1088      1054      1100      4208      4207      4181
 -1      2185    8    0    1
 -2      1099      1038      1044      4178      4147      4246
 -1      2186    8    0    1
 -2      1073      1056      1091      4212      4211      4153
 -1      2187    8    0    1
 -2      1044      1089      1107      4145      4247      4248
 -1      2188    8    0    1
 -2      1099      1044      1107      4246      4248      4249
 -1      2189    8    0    1
 -2      1089      1098      1107      4176      4250      4247
 -1      2190    8    0    1
 -2      1077      1078      1064      4110      4228      4227
 -1      2191    8    0    1
 -2      1076      1077      1063      4107      4226      4225
 -1      2192    8    0    1
 -2      1090      1075      1061      4150      4222      4221
 -1      2193    8    0    1
 -2      1046      1093      1107      4160      4251      4252
 -1      2194    8    0    1
 -2      1059      1074      1092      4217      4156      4218
 -1      2195    8    0    1
 -2      1107      1093      1099      4251      4253      4249
 -1      2196    8    0    1
 -2      1049      1048      1108      4025      4254      4255
 -1      2197    8    0    1
 -2      1051      1103      1109      4203      4256      4257
 -1      2198    8    0    1
 -2      1052      1051      1109      4034      4257      4258
 -1      2199    8    0    1
 -2      1103      1042      1109      4189      4259      4256
 -1      2200    8    0    1
 -2      1053      1106      1100      4205      4260      4206
 -1      2201    8    0    1
 -2      1072      1085      1101      4243      4261      4244
 -1      2202    8    0    1
 -2      1093      1096      1099      4169      4180      4253
 -1      2203    8    0    1
 -2      1105      1049      1108      4200      4255      4262
 -1      2204    8    0    1
 -2      1086      1101      1085      4192      4261      4134
 -1      2205    8    0    1
 -2      1087      1097      1110      4174      4263      4264
 -1      2206    8    0    1
 -2      1109      1042      1045      4259      4013      4265
 -1      2207    8    0    1
 -2      1102      1087      1110      4245      4264      4266
 -1      2208    8    0    1
 -2      1110      1097      1105      4263      4267      4268
 -1      2209    8    0    1
 -2      1048      1104      1108      4199      4269      4254
 -1      2210    8    0    1
 -2      1106      1052      1109      4204      4258      4270
 -1      2211    8    0    1
 -2      1036      1100      1106      4183      4260      4271
 -1      2212    8    0    1
 -2      1095      1046      1098      4193      4272      4177
 -1      2213    8    0    1
 -2      1036      1106      1045      4271      4273      4014
 -1      2214    8    0    1
 -2      1098      1046      1107      4272      4252      4250
 -1      2215    8    0    1
 -2      1106      1109      1045      4270      4265      4273
 -1      2216    8    0    1
 -2      1050      1105      1103      4201      4274      4202
 -1      2217    8    0    1
 -2      1105      1108      1110      4262      4275      4268
 -1      2218    8    0    1
 -2      1108      1104      1110      4269      4276      4275
 -1      2219    8    0    1
 -2      1102      1110      1104      4266      4276      4197
 -1      2220    8    0    1
 -2      1105      1097      1103      4267      4191      4274
 -3
    1PSTEP                         1           1           1          
  100CL  101 1.000000000        4276                     0    1           1
 -4  DISP        4    1
 -5  D1          1    2    1    0
 -5  D2          1    2    2    0
 -5  D3          1    2    3    0
 -5  ALL         1    2    0    0    1ALL
 -1         1 1.09081E-02-5.52257E-04-6.19898E-14
 -1         2 1.60730E-02-4.92031E-04-7.34548E-14
 -1         3 1.40245E-02 5.05022E-05-8.21105E-14
 -1         4 1.45352E-02-5.01986E-04-8.23567E-14
 -1         5 0.00000E+00 0.00000E+00 0.00000E+00
 -1         6 0.00000E+00 0.00000E+00 0.00000E+00
 -1         7 0.00000E+00 0.00000E+00 0.00000E+00
 -1         8 0.00000E+00 0.00000E+00 0.00000E+00
 -1         9 0.00000E+00 0.00000E+00 0.00000E+00
 -1        10 0.00000E+00 0.00000E+00 0.00000E+00
 -1        11 0.00000E+00 0.00000E+00 0.00000E+00
 -1        12 0.00000E+00 0.00000E+00 0.00000E+00
 -1        13 0.00000E+00 0.00000E+00 0.00000E+00
 -1        14 0.00000E+00 0.00000E+00 0.00000E+00
 -1        15 0.00000E+00 0.00000E+00 0.00000E+00
 -1        16 0.00000E+00 0.00000E+00 0.00000E+00
 -1        17 0.00000E+00 0.00000E+00 0.00000E+00
 -1        18 0.00000E+00 0.00000E+00 0.00000E+00
 -1        19 0.00000E+00 0.00000E+00 0.00000E+00
 -1        20 0.00000E+00 0.00000E+00 0.00000E+00
 -1        21 0.00000E+00 0.00000E+00 0.00000E+00
 -1        22 0.00000E+00 0.00000E+00 0.00000E+00
 -1        23 4.11414E-04-2.60733E-04 2.36729E-17
 -1        24 7.03442E-04-4.00973E-04-5.52062E-17
 -1        25 9.73564E-04-4.98354E-04-2.33205E-16
 -1        26 1.23812E-03-5.67111E-04-5.08979E-16
 -1        27 1.50172E-03-6.16390E-04-8.80179E-16
 -1        28 1.76647E-03-6.51583E-04-1.34340E-15
 -1        29 2.03332E-03-6.76402E-04-1.89719E-15
 -1        30 2.30264E-03-6.93552E-04-2.54197E-15
 -1        31 2.57448E-03-7.05058E-04-3.27784E-15
 -1        32 2.84869E-03-7.12456E-04-4.10210E-15
 -1        33 3.12505E-03-7.16908E-04-5.00855E-15
 -1        34 3.40327E-03-7.19289E-04-5.99096E-15
 -1        35 3.68307E-03-7.20244E-04-7.04985E-15
 -1        36 3.96416E-03-7.20240E-04-8.18297E-15
 -1        37 4.24630E-03-7.19607E-04-9.38826E-15
 -1        38 4.52927E-03-7.18564E-04-1.06594E-14
 -1        39 4.81287E-03-7.17245E-04-1.19932E-14
 -1        40 5.09695E-03-7.15721E-04-1.33909E-14
 -1        41 5.38142E-03-7.14013E-04-1.48533E-14
 -1        42 5.66618E-03-7.12101E-04-1.63750E-14
 -1        43 5.95121E-03-7.09937E-04-1.79614E-14
 -1        44 6.23651E-03-7.07451E-04-1.96145E-14
 -1        45 6.52214E-03-7.04555E-04-2.13340E-14
 -1        46 6.80822E-03-7.01159E-04-2.31252E-14
 -1        47 7.09492E-03-6.97170E-04-2.49857E-14
 -1        48 7.38253E-03-6.92515E-04-2.69053E-14
 -1        49 7.67143E-03-6.87154E-04-2.88801E-14
 -1        50 7.96214E-03-6.81111E-04-3.09127E-14
 -1        51 8.25538E-03-6.74517E-04-3.29985E-14
 -1        52 8.55209E-03-6.67673E-04-3.51388E-14
 -1        53 8.85348E-03-6.61143E-04-3.73241E-14
 -1        54 9.16114E-03-6.55899E-04-3.95541E-14
 -1        55 9.47703E-03-6.53527E-04-4.18140E-14
 -1        56 9.80356E-03-6.56522E-04-4.40948E-14
 -1        57 1.01434E-02-6.68695E-04-4.63892E-14
 -1        58 1.04993E-02-6.95653E-04-4.86919E-14
 -1        59 1.08730E-02-7.45215E-04-5.10119E-14
 -1        60 1.12638E-02-8.27326E-04-5.33398E-14
 -1        61 1.16661E-02-9.52542E-04-5.56766E-14
 -1        62 1.20657E-02-1.12758E-03-5.80181E-14
 -1        63 1.24393E-02-1.34690E-03-6.03926E-14
 -1        64 1.27594E-02-1.58243E-03-6.27915E-14
 -1        65 1.30083E-02-1.78080E-03-6.52152E-14
 -1        66 1.31949E-02-1.87989E-03-6.76550E-14
 -1        67 1.33555E-02-1.84184E-03-7.01029E-14
 -1        68 1.35318E-02-1.67464E-03-7.25637E-14
 -1        69 1.37456E-02-1.41954E-03-7.50429E-14
 -1        70 1.39944E-02-1.11975E-03-7.75291E-14
 -1        71 1.42663E-02-8.03062E-04-8.00113E-14
 -1        72 4.13859E-04 2.61438E-04 4.33308E-17
 -1        73 7.03264E-04 4.03679E-04-3.64224E-18
 -1        74 9.74100E-04 5.00125E-04-1.38422E-16
 -1        75 1.23895E-03 5.68821E-04-3.61958E-16
 -1        76 1.50268E-03 6.18151E-04-6.74675E-16
 -1        77 1.76750E-03 6.53435E-04-1.07676E-15
 -1        78 2.03438E-03 6.78365E-04-1.56724E-15
 -1        79 2.30373E-03 6.95636E-04-2.14348E-15
 -1        80 2.57558E-03 7.07270E-04-2.80692E-15
 -1        81 2.84980E-03 7.14798E-04-3.55793E-15
 -1        82 3.12616E-03 7.19383E-04-4.39512E-15
 -1        83 3.40439E-03 7.21896E-04-5.31148E-15
 -1        84 3.68419E-03 7.22984E-04-6.30465E-15
 -1        85 3.96529E-03 7.23115E-04-7.37687E-15
 -1        86 4.24744E-03 7.22615E-04-8.52866E-15
 -1        87 4.53040E-03 7.21704E-04-9.76191E-15
 -1        88 4.81401E-03 7.20520E-04-1.10717E-14
 -1        89 5.09811E-03 7.19133E-04-1.24526E-14
 -1        90 5.38259E-03 7.17565E-04-1.39041E-14
 -1        91 5.66739E-03 7.15803E-04-1.54205E-14
 -1        92 5.95246E-03 7.13803E-04-1.70148E-14
 -1        93 6.23782E-03 7.11507E-04-1.86777E-14
 -1        94 6.52353E-03 7.08847E-04-2.04083E-14
 -1        95 6.80970E-03 7.05759E-04-2.21971E-14
 -1        96 7.09651E-03 7.02195E-04-2.40478E-14
 -1        97 7.38422E-03 6.98143E-04-2.59609E-14
 -1        98 7.67315E-03 6.93652E-04-2.79287E-14
 -1        99 7.96374E-03 6.88867E-04-2.99412E-14
 -1       100 8.25650E-03 6.84070E-04-3.19989E-14
 -1       101 8.55202E-03 6.79738E-04-3.40944E-14
 -1       102 8.85097E-03 6.76600E-04-3.62253E-14
 -1       103 9.15396E-03 6.75705E-04-3.83802E-14
 -1       104 9.46151E-03 6.78474E-04-4.05495E-14
 -1       105 9.77382E-03 6.86706E-04-4.27622E-14
 -1       106 1.00905E-02 7.02507E-04-4.50168E-14
 -1       107 1.04103E-02 7.28052E-04-4.73118E-14
 -1       108 1.07307E-02 7.65112E-04-4.96350E-14
 -1       109 1.10477E-02 8.14258E-04-5.19981E-14
 -1       110 1.13555E-02 8.73763E-04-5.44124E-14
 -1       111 1.16477E-02 9.38418E-04-5.68714E-14
 -1       112 1.19183E-02 9.98771E-04-5.93568E-14
 -1       113 1.21640E-02 1.04155E-03-6.18562E-14
 -1       114 1.23861E-02 1.05185E-03-6.43779E-14
 -1       115 1.25916E-02 1.01700E-03-6.69096E-14
 -1       116 1.27920E-02 9.30538E-04-6.94533E-14
 -1       117 1.30002E-02 7.94731E-04-7.20002E-14
 -1       118 1.32271E-02 6.20432E-04-7.45555E-14
 -1       119 1.34786E-02 4.24818E-04-7.71204E-14
 -1       120 1.37532E-02 2.27535E-04-7.96904E-14
 -1       121 1.42073E-02-3.69447E-05-8.21773E-14
 -1       122 1.43789E-02-1.37302E-04-8.22686E-14
 -1       123 1.45546E-02-2.63426E-04-8.23557E-14
 -1       124 1.47558E-02-4.14402E-04-8.24244E-14
 -1       125 1.50151E-02-5.84958E-04-8.24997E-14
 -1       126 1.53484E-02-7.45983E-04-8.25105E-14
 -1       127 1.57429E-02-8.50516E-04-8.25042E-14
 -1       128 1.61517E-02-8.50747E-04-8.24890E-14
 -1       129 1.64412E-02-7.43164E-04-8.24724E-14
 -1       130 1.65800E-02-5.47973E-04-8.24622E-14
 -1       131 1.65170E-02-3.59784E-04-8.24780E-14
 -1       132 1.62923E-02-2.22638E-04-8.24785E-14
 -1       133 1.59164E-02-1.71088E-04-8.24662E-14
 -1       134 1.55298E-02-2.18409E-04-8.24376E-14
 -1       135 1.51729E-02-3.14882E-04-8.24136E-14
 -1       136 1.48485E-02-4.13487E-04-8.23877E-14
 -1       137 1.59902E-02-2.71024E-04-7.33199E-14
 -1       138 1.57678E-02-5.29585E-05-7.29372E-14
 -1       139 1.54136E-02 1.49126E-04-7.22743E-14
 -1       140 1.49804E-02 3.15271E-04-7.14006E-14
 -1       141 1.45012E-02 4.41894E-04-7.03787E-14
 -1       142 1.39822E-02 5.32483E-04-6.92142E-14
 -1       143 1.34714E-02 5.80114E-04-6.80286E-14
 -1       144 1.29282E-02 5.86978E-04-6.67387E-14
 -1       145 1.24009E-02 5.45374E-04-6.54544E-14
 -1       146 1.19678E-02 4.70019E-04-6.44069E-14
 -1       147 1.15684E-02 3.51677E-04-6.34323E-14
 -1       148 1.12439E-02 2.02112E-04-6.26604E-14
 -1       149 1.10168E-02 3.13976E-05-6.21358E-14
 -1       150 1.08894E-02-1.45403E-04-6.18512E-14
 -1       151 1.08489E-02-3.36926E-04-6.17885E-14
 -1       152 1.10562E-02-7.54784E-04-6.24039E-14
 -1       153 1.13145E-02-9.68683E-04-6.30811E-14
 -1       154 1.16658E-02-1.17011E-03-6.39670E-14
 -1       155 1.20689E-02-1.33508E-03-6.49436E-14
 -1       156 1.25480E-02-1.47023E-03-6.60744E-14
 -1       157 1.30737E-02-1.55496E-03-6.72816E-14
 -1       158 1.35870E-02-1.57967E-03-6.84302E-14
 -1       159 1.40990E-02-1.54980E-03-6.95434E-14
 -1       160 1.46212E-02-1.46185E-03-7.06379E-14
 -1       161 1.51148E-02-1.31983E-03-7.16259E-14
 -1       162 1.55182E-02-1.14410E-03-7.24083E-14
 -1       163 1.58393E-02-9.31361E-04-7.30184E-14
 -1       164 1.60236E-02-7.10820E-04-7.33605E-14
 -1       165 2.40428E-04-1.25503E-04-2.05185E-17
 -1       166 2.25290E-04-9.45983E-05-3.40575E-17
 -1       167 2.19526E-04-7.27540E-05-4.13826E-17
 -1       168 2.16705E-04-5.50860E-05-4.52959E-17
 -1       169 2.15210E-04-3.99494E-05-4.69697E-17
 -1       170 2.14369E-04-2.59016E-05-4.73017E-17
 -1       171 2.13946E-04-1.26369E-05-4.69392E-17
 -1       172 2.13823E-04 2.72882E-07-4.63293E-17
 -1       173 2.13965E-04 1.31952E-05-4.54755E-17
 -1       174 2.14410E-04 2.64997E-05-4.39813E-17
 -1       175 2.15259E-04 4.03746E-05-4.15961E-17
 -1       176 2.16815E-04 5.58918E-05-3.81097E-17
 -1       177 2.19679E-04 7.37939E-05-3.25261E-17
 -1       178 2.25460E-04 9.59978E-05-2.31003E-17
 -1       179 2.39358E-04 1.27581E-04-6.97955E-18
 -1       180 2.97739E-04 1.85491E-04 1.01237E-17
 -1       181 4.68675E-04-2.63534E-04-5.51249E-17
 -1       182 7.66858E-04-3.82121E-04-2.02654E-16
 -1       183 1.05075E-03-4.65008E-04-4.42436E-16
 -1       184 1.32819E-03-5.23795E-04-7.75252E-16
 -1       185 1.60285E-03-5.65508E-04-1.19881E-15
 -1       186 1.87681E-03-5.94843E-04-1.71235E-15
 -1       187 2.15119E-03-6.15106E-04-2.31494E-15
 -1       188 2.42658E-03-6.28728E-04-3.00604E-15
 -1       189 2.70326E-03-6.37527E-04-3.78424E-15
 -1       190 2.98128E-03-6.42874E-04-4.64647E-15
 -1       191 3.26059E-03-6.45794E-04-5.58714E-15
 -1       192 3.54107E-03-6.47047E-04-6.60341E-15
 -1       193 3.82257E-03-6.47184E-04-7.69607E-15
 -1       194 4.10493E-03-6.46596E-04-8.86064E-15
 -1       195 4.38802E-03-6.45547E-04-1.00948E-14
 -1       196 4.67168E-03-6.44205E-04-1.13944E-14
 -1       197 4.95582E-03-6.42662E-04-1.27581E-14
 -1       198 5.24034E-03-6.40955E-04-1.41853E-14
 -1       199 5.52517E-03-6.39073E-04-1.56745E-14
 -1       200 5.81030E-03-6.36974E-04-1.72265E-14
 -1       201 6.09571E-03-6.34586E-04-1.88463E-14
 -1       202 6.38144E-03-6.31820E-04-2.05324E-14
 -1       203 6.66759E-03-6.28571E-04-2.22862E-14
 -1       204 6.95428E-03-6.24730E-04-2.41091E-14
 -1       205 7.24170E-03-6.20191E-04-2.59943E-14
 -1       206 7.53015E-03-6.14871E-04-2.79354E-14
 -1       207 7.81998E-03-6.08724E-04-2.99321E-14
 -1       208 8.11168E-03-6.01782E-04-3.19859E-14
 -1       209 8.40590E-03-5.94201E-04-3.40919E-14
 -1       210 8.70343E-03-5.86340E-04-3.62503E-14
 -1       211 9.00528E-03-5.78871E-04-3.84494E-14
 -1       212 9.31267E-03-5.72962E-04-4.06847E-14
 -1       213 9.62705E-03-5.70524E-04-4.29462E-14
 -1       214 9.95001E-03-5.74588E-04-4.52280E-14
 -1       215 1.02832E-02-5.89796E-04-4.75242E-14
 -1       216 1.06279E-02-6.22964E-04-4.98357E-14
 -1       217 1.09845E-02-6.83469E-04-5.21576E-14
 -1       218 1.13515E-02-7.82821E-04-5.44892E-14
 -1       219 1.17244E-02-9.32076E-04-5.68297E-14
 -1       220 1.20939E-02-1.13531E-03-5.91893E-14
 -1       221 1.24466E-02-1.37853E-03-6.15766E-14
 -1       222 1.27684E-02-1.61904E-03-6.39903E-14
 -1       223 1.30537E-02-1.78942E-03-6.64261E-14
 -1       224 1.33129E-02-1.82782E-03-6.88759E-14
 -1       225 1.35668E-02-1.71713E-03-7.13355E-14
 -1       226 1.38315E-02-1.49155E-03-7.38119E-14
 -1       227 1.41089E-02-1.20326E-03-7.62964E-14
 -1       228 1.43926E-02-8.89419E-04-7.87824E-14
 -1       229 6.04632E-04 3.31019E-04-5.11642E-17
 -1       230 8.93769E-04 4.32631E-04-1.95302E-16
 -1       231 1.17271E-03 5.04383E-04-4.24997E-16
 -1       232 1.44711E-03 5.55487E-04-7.41720E-16
 -1       233 1.71999E-03 5.91767E-04-1.14528E-15
 -1       234 1.99296E-03 6.17207E-04-1.63589E-15
 -1       235 2.26686E-03 6.34684E-04-2.21301E-15
 -1       236 2.54210E-03 6.46339E-04-2.87557E-15
 -1       237 2.81882E-03 6.53780E-04-3.62323E-15
 -1       238 3.09699E-03 6.58222E-04-4.45559E-15
 -1       239 3.37649E-03 6.60569E-04-5.36852E-15
 -1       240 3.65719E-03 6.61489E-04-6.35739E-15
 -1       241 3.93890E-03 6.61462E-04-7.42349E-15
 -1       242 4.22147E-03 6.60825E-04-8.56769E-15
 -1       243 4.50472E-03 6.59798E-04-9.79203E-15
 -1       244 4.78853E-03 6.58520E-04-1.10938E-14
 -1       245 5.07279E-03 6.57060E-04-1.24676E-14
 -1       246 5.35741E-03 6.55437E-04-1.39098E-14
 -1       247 5.64235E-03 6.53631E-04-1.54197E-14
 -1       248 5.92758E-03 6.51595E-04-1.70059E-14
 -1       249 6.21311E-03 6.49262E-04-1.86606E-14
 -1       250 6.49900E-03 6.46554E-04-2.03829E-14
 -1       251 6.78536E-03 6.43395E-04-2.21635E-14
 -1       252 7.07232E-03 6.39722E-04-2.40059E-14
 -1       253 7.36009E-03 6.35502E-04-2.59093E-14
 -1       254 7.64895E-03 6.30763E-04-2.78671E-14
 -1       255 7.93923E-03 6.25619E-04-2.98734E-14
 -1       256 8.23132E-03 6.20323E-04-3.19232E-14
 -1       257 8.52569E-03 6.15315E-04-3.40131E-14
 -1       258 8.82280E-03 6.11296E-04-3.61381E-14
 -1       259 9.12311E-03 6.09292E-04-3.82882E-14
 -1       260 9.42695E-03 6.10724E-04-4.04624E-14
 -1       261 9.73443E-03 6.17434E-04-4.26739E-14
 -1       262 1.00453E-02 6.31636E-04-4.49263E-14
 -1       263 1.03585E-02 6.55712E-04-4.72149E-14
 -1       264 1.06724E-02 6.91763E-04-4.95319E-14
 -1       265 1.09842E-02 7.40819E-04-5.18851E-14
 -1       266 1.12901E-02 8.01689E-04-5.42848E-14
 -1       267 1.15858E-02 8.69633E-04-5.67255E-14
 -1       268 1.18672E-02 9.35371E-04-5.91958E-14
 -1       269 1.21320E-02 9.85242E-04-6.16859E-14
 -1       270 1.23805E-02 1.00332E-03-6.41979E-14
 -1       271 1.26170E-02 9.75425E-04-6.67233E-14
 -1       272 1.28486E-02 8.93741E-04-6.92623E-14
 -1       273 1.30834E-02 7.59739E-04-7.18077E-14
 -1       274 1.33284E-02 5.84234E-04-7.43656E-14
 -1       275 1.35876E-02 3.85044E-04-7.69292E-14
 -1       276 1.38611E-02 1.83162E-04-7.94955E-14
 -1       277 1.40442E-02 7.55918E-05-8.00021E-14
 -1       278 1.42093E-02-2.92029E-05-8.00790E-14
 -1       279 1.43873E-02-1.45883E-04-8.01478E-14
 -1       280 1.46119E-02-2.75362E-04-8.02086E-14
 -1       281 1.49076E-02-4.06587E-04-8.02563E-14
 -1       282 1.52811E-02-5.20225E-04-8.02835E-14
 -1       283 1.57145E-02-5.94137E-04-8.02914E-14
 -1       284 1.60816E-02-6.07134E-04-8.02934E-14
 -1       285 1.63473E-02-5.65221E-04-8.03000E-14
 -1       286 1.63983E-02-4.99993E-04-8.03038E-14
 -1       287 1.62466E-02-4.43139E-04-8.03071E-14
 -1       288 1.58901E-02-4.27507E-04-8.03016E-14
 -1       289 1.54805E-02-4.70334E-04-8.02865E-14
 -1       290 1.50945E-02-5.51242E-04-8.02633E-14
 -1       291 1.47305E-02-7.20404E-04-7.95210E-14
 -1       292 1.60767E-02-4.45936E-04-7.44110E-14
 -1       293 1.58666E-02-3.23052E-04-7.41748E-14
 -1       294 1.54760E-02-1.67813E-04-7.36692E-14
 -1       295 1.50006E-02 5.59528E-05-7.26822E-14
 -1       296 1.45295E-02 2.91638E-04-7.14632E-14
 -1       297 1.40457E-02 4.85918E-04-7.02063E-14
 -1       298 1.36129E-02 6.20485E-04-6.88036E-14
 -1       299 1.31834E-02 6.79498E-04-6.73519E-14
 -1       300 1.27610E-02 6.37663E-04-6.57854E-14
 -1       301 1.23314E-02 5.05224E-04-6.44972E-14
 -1       302 1.19503E-02 3.26361E-04-6.31574E-14
 -1       303 1.16017E-02 1.74303E-04-6.23816E-14
 -1       304 1.11857E-02-1.91593E-05-6.15493E-14
 -1       305 1.09488E-02-1.56723E-04-6.10787E-14
 -1       306 1.08297E-02-2.71406E-04-6.08782E-14
 -1       307 1.08384E-02-3.83070E-04-6.08245E-14
 -1       308 1.09911E-02-5.25391E-04-6.13029E-14
 -1       309 1.12712E-02-6.84835E-04-6.18155E-14
 -1       310 1.16471E-02-9.17996E-04-6.27810E-14
 -1       311 1.20565E-02-1.16905E-03-6.39103E-14
 -1       312 1.24979E-02-1.40007E-03-6.50874E-14
 -1       313 1.29193E-02-1.58394E-03-6.64943E-14
 -1       314 1.33288E-02-1.66211E-03-6.78832E-14
 -1       315 1.37368E-02-1.63413E-03-6.92053E-14
 -1       316 1.41690E-02-1.50573E-03-7.05299E-14
 -1       317 1.46630E-02-1.29978E-03-7.17316E-14
 -1       318 1.51486E-02-1.06821E-03-7.27819E-14
 -1       319 1.55841E-02-8.37582E-04-7.37327E-14
 -1       320 1.59294E-02-6.76263E-04-7.42383E-14
 -1       321 1.60961E-02-5.55994E-04-7.44289E-14
 -1       322 4.55417E-04-1.64756E-04-1.39771E-16
 -1       323 4.74298E-04-2.12947E-04-1.17792E-16
 -1       324 4.40434E-04-9.39810E-05-1.59852E-16
 -1       325 4.37455E-04-6.48839E-05-1.62935E-16
 -1       326 4.35822E-04-3.78891E-05-1.63562E-16
 -1       327 4.35107E-04-1.20120E-05-1.62678E-16
 -1       328 4.35138E-04 1.35302E-05-1.60448E-16
 -1       329 4.35920E-04 3.94652E-05-1.56552E-16
 -1       330 4.37595E-04 6.61125E-05-1.51040E-16
 -1       331 4.40666E-04 9.53808E-05-1.42803E-16
 -1       332 4.46071E-04 1.28290E-04-1.31077E-16
 -1       333 4.55923E-04 1.67270E-04-1.12943E-16
 -1       334 4.75932E-04 2.17017E-04-8.52827E-17
 -1       335 5.32071E-04 2.69948E-04-7.30651E-17
 -1       336 8.24586E-04 3.73475E-04-2.22123E-16
 -1       337 1.14030E-02-2.85649E-07-6.08480E-14
 -1       338 8.63356E-04-3.57370E-04-3.66769E-16
 -1       339 1.14975E-03-4.26129E-04-6.64240E-16
 -1       340 1.43257E-03-4.75312E-04-1.05072E-15
 -1       341 1.71333E-03-5.10075E-04-1.52471E-15
 -1       342 1.99315E-03-5.34218E-04-2.08737E-15
 -1       343 2.27280E-03-5.50570E-04-2.73663E-15
 -1       344 2.55274E-03-5.61251E-04-3.47090E-15
 -1       345 2.83322E-03-5.67862E-04-4.29002E-15
 -1       346 3.11437E-03-5.71601E-04-5.18910E-15
 -1       347 3.39620E-03-5.73358E-04-6.16437E-15
 -1       348 3.67869E-03-5.73785E-04-7.21434E-15
 -1       349 3.96177E-03-5.73347E-04-8.33895E-15
 -1       350 4.24536E-03-5.72364E-04-9.53540E-15
 -1       351 4.52939E-03-5.71043E-04-1.07994E-14
 -1       352 4.81380E-03-5.69508E-04-1.21279E-14
 -1       353 5.09851E-03-5.67816E-04-1.35204E-14
 -1       354 5.38350E-03-5.65973E-04-1.49755E-14
 -1       355 5.66872E-03-5.63946E-04-1.64942E-14
 -1       356 5.95419E-03-5.61671E-04-1.80812E-14
 -1       357 6.23992E-03-5.59059E-04-1.97336E-14
 -1       358 6.52595E-03-5.56005E-04-2.14524E-14
 -1       359 6.81238E-03-5.52392E-04-2.32386E-14
 -1       360 7.09932E-03-5.48100E-04-2.50902E-14
 -1       361 7.38695E-03-5.43019E-04-2.69998E-14
 -1       362 7.67547E-03-5.37065E-04-2.89638E-14
 -1       363 7.96518E-03-5.30205E-04-3.09828E-14
 -1       364 8.25643E-03-5.22502E-04-3.30568E-14
 -1       365 8.54967E-03-5.14169E-04-3.51814E-14
 -1       366 8.84544E-03-5.05663E-04-3.73504E-14
 -1       367 9.14438E-03-4.97822E-04-3.95614E-14
 -1       368 9.44722E-03-4.92065E-04-4.18050E-14
 -1       369 9.75484E-03-4.90683E-04-4.40708E-14
 -1       370 1.00683E-02-4.97251E-04-4.63568E-14
 -1       371 1.03887E-02-5.17138E-04-4.86589E-14
 -1       372 1.07176E-02-5.58061E-04-5.09756E-14
 -1       373 1.10569E-02-6.30395E-04-5.33040E-14
 -1       374 1.14085E-02-7.46520E-04-5.56398E-14
 -1       375 1.17732E-02-9.17668E-04-5.79907E-14
 -1       376 1.21473E-02-1.14598E-03-6.03695E-14
 -1       377 1.25194E-02-1.40950E-03-6.27715E-14
 -1       378 1.28733E-02-1.64797E-03-6.51980E-14
 -1       379 1.32025E-02-1.77465E-03-6.76420E-14
 -1       380 1.35208E-02-1.73265E-03-7.01021E-14
 -1       381 1.38457E-02-1.54133E-03-7.25760E-14
 -1       382 1.41769E-02-1.26770E-03-7.50607E-14
 -1       383 1.44616E-02-9.98975E-04-7.72900E-14
 -1       384 1.11011E-03 4.47797E-04-4.54389E-16
 -1       385 1.39090E-03 5.00872E-04-7.71329E-16
 -1       386 1.66926E-03 5.38510E-04-1.17404E-15
 -1       387 1.94672E-03 5.64836E-04-1.66243E-15
 -1       388 2.22420E-03 5.82864E-04-2.23627E-15
 -1       389 2.50225E-03 5.94835E-04-2.89496E-15
 -1       390 2.78114E-03 6.02438E-04-3.63762E-15
 -1       391 3.06097E-03 6.06938E-04-4.46426E-15
 -1       392 3.34172E-03 6.09281E-04-5.37120E-15
 -1       393 3.62335E-03 6.10160E-04-6.35368E-15
 -1       394 3.90574E-03 6.10075E-04-7.41192E-15
 -1       395 4.18880E-03 6.09374E-04-8.54748E-15
 -1       396 4.47242E-03 6.08289E-04-9.76355E-15
 -1       397 4.75651E-03 6.06960E-04-1.10568E-14
 -1       398 5.04097E-03 6.05459E-04-1.24202E-14
 -1       399 5.32576E-03 6.03807E-04-1.38535E-14
 -1       400 5.61082E-03 6.01983E-04-1.53552E-14
 -1       401 5.89616E-03 5.99937E-04-1.69314E-14
 -1       402 6.18177E-03 5.97598E-04-1.85778E-14
 -1       403 6.46772E-03 5.94884E-04-2.02913E-14
 -1       404 6.75407E-03 5.91709E-04-2.20643E-14
 -1       405 7.04094E-03 5.87999E-04-2.38966E-14
 -1       406 7.32851E-03 5.83709E-04-2.57893E-14
 -1       407 7.61697E-03 5.78845E-04-2.77386E-14
 -1       408 7.90661E-03 5.73498E-04-2.97377E-14
 -1       409 8.19772E-03 5.67888E-04-3.17808E-14
 -1       410 8.49068E-03 5.62419E-04-3.38642E-14
 -1       411 8.78585E-03 5.57745E-04-3.59836E-14
 -1       412 9.08362E-03 5.54849E-04-3.81314E-14
 -1       413 9.38431E-03 5.55109E-04-4.03051E-14
 -1       414 9.68809E-03 5.60344E-04-4.25140E-14
 -1       415 9.99492E-03 5.72790E-04-4.47625E-14
 -1       416 1.03043E-02 5.94931E-04-4.70445E-14
 -1       417 1.06153E-02 6.29107E-04-4.93565E-14
 -1       418 1.09261E-02 6.76778E-04-5.17030E-14
 -1       419 1.12341E-02 7.37389E-04-5.40893E-14
 -1       420 1.15359E-02 8.06949E-04-5.65158E-14
 -1       421 1.18281E-02 8.76780E-04-5.89734E-14
 -1       422 1.21077E-02 9.33279E-04-6.14525E-14
 -1       423 1.23741E-02 9.59669E-04-6.39571E-14
 -1       424 1.26297E-02 9.40155E-04-6.64757E-14
 -1       425 1.28798E-02 8.65154E-04-6.90093E-14
 -1       426 1.31307E-02 7.34991E-04-7.15541E-14
 -1       427 1.33879E-02 5.60143E-04-7.41118E-14
 -1       428 1.36544E-02 3.58424E-04-7.66751E-14
 -1       429 1.38468E-02 2.15795E-04-7.83396E-14
 -1       430 1.42279E-02 3.90643E-06-7.79372E-14
 -1       431 1.40407E-02 1.09205E-04-7.78715E-14
 -1       432 1.39421E-02 1.64120E-04-7.81070E-14
 -1       433 1.44749E-02-1.12878E-04-7.79927E-14
 -1       434 1.47999E-02-2.36999E-04-7.80394E-14
 -1       435 1.52170E-02-3.62622E-04-7.80758E-14
 -1       436 1.56345E-02-4.55564E-04-7.80916E-14
 -1       437 1.60335E-02-5.11283E-04-7.81104E-14
 -1       438 1.62324E-02-5.17526E-04-7.81287E-14
 -1       439 1.62160E-02-5.01958E-04-7.87353E-14
 -1       440 1.58790E-02-5.38060E-04-7.83142E-14
 -1       441 1.54461E-02-6.21647E-04-7.83061E-14
 -1       442 1.50293E-02-7.34427E-04-7.82920E-14
 -1       443 1.56846E-02-3.62239E-04-7.52286E-14
 -1       444 1.61386E-02-5.07797E-04-7.57258E-14
 -1       445 1.60086E-02-4.47010E-04-7.53739E-14
 -1       446 1.51546E-02-1.49249E-04-7.40785E-14
 -1       447 1.17896E-02 1.91243E-04-6.18628E-14
 -1       448 1.08631E-02-2.40675E-04-5.99738E-14
 -1       449 1.46197E-02 1.13309E-04-7.27416E-14
 -1       450 4.45601E-04-1.26448E-04-1.52778E-16
 -1       451 1.37000E-02 5.70650E-04-6.98277E-14
 -1       452 1.33735E-02 6.82975E-04-6.83751E-14
 -1       453 1.29826E-02 7.06187E-04-6.65069E-14
 -1       454 1.25418E-02 5.73490E-04-6.45664E-14
 -1       455 1.22092E-02 4.12562E-04-6.32243E-14
 -1       456 1.10654E-02-1.45817E-04-6.03000E-14
 -1       457 1.07948E-02-3.05550E-04-5.96396E-14
 -1       458 1.09050E-02-3.94378E-04-5.99194E-14
 -1       459 1.11156E-02-4.99161E-04-6.04193E-14
 -1       460 1.15248E-02-7.12772E-04-6.13672E-14
 -1       461 1.19436E-02-9.87623E-04-6.27186E-14
 -1       462 1.23362E-02-1.24466E-03-6.39230E-14
 -1       463 1.27778E-02-1.51965E-03-6.55499E-14
 -1       464 1.31534E-02-1.67993E-03-6.71540E-14
 -1       465 1.34941E-02-1.69637E-03-6.86854E-14
 -1       466 1.38546E-02-1.59498E-03-7.01777E-14
 -1       467 1.43053E-02-1.35675E-03-7.19092E-14
 -1       468 1.47225E-02-1.13567E-03-7.29634E-14
 -1       469 1.52745E-02-8.65912E-04-7.41350E-14
 -1       470 1.57637E-02-6.55934E-04-7.52059E-14
 -1       471 1.60542E-02-5.62777E-04-7.54856E-14
 -1       472 1.41726E-02 3.44037E-04-7.14711E-14
 -1       473 1.47298E-02-8.66831E-04-7.77898E-14
 -1       474 1.27515E-02 6.69027E-04-6.52793E-14
 -1       475 9.31329E-04 3.45993E-04-3.89107E-16
 -1       476 6.65786E-04-7.51133E-05-3.47094E-16
 -1       477 6.69766E-04-1.15862E-04-3.43062E-16
 -1       478 6.63103E-04 1.10408E-06-3.44156E-16
 -1       479 6.63827E-04 3.87550E-05-3.38237E-16
 -1       480 6.65974E-04 7.67985E-05-3.29272E-16
 -1       481 6.70081E-04 1.17701E-04-3.16509E-16
 -1       482 6.77112E-04 1.62314E-04-2.98738E-16
 -1       483 6.89047E-04 2.12676E-04-2.73388E-16
 -1       484 9.76355E-04-3.28611E-04-5.49294E-16
 -1       485 1.21724E-03 4.06485E-04-6.79188E-16
 -1       486 7.12669E-04-2.51790E-04-3.11000E-16
 -1       487 1.61651E-02-5.20427E-04-7.70282E-14
 -1       488 1.26230E-03-3.83473E-04-8.99969E-16
 -1       489 1.54734E-03-4.23242E-04-1.33687E-15
 -1       490 1.83149E-03-4.51334E-04-1.85981E-15
 -1       491 2.11505E-03-4.70653E-04-2.46872E-15
 -1       492 2.39835E-03-4.83496E-04-3.16167E-15
 -1       493 2.68162E-03-4.91638E-04-3.93852E-15
 -1       494 2.96503E-03-4.96434E-04-4.79522E-15
 -1       495 3.24867E-03-4.98898E-04-5.73014E-15
 -1       496 3.53258E-03-4.99782E-04-6.74051E-15
 -1       497 3.81676E-03-4.99627E-04-7.82416E-15
 -1       498 4.10121E-03-4.98814E-04-8.98046E-15
 -1       499 4.38589E-03-4.97595E-04-1.02069E-14
 -1       500 4.67079E-03-4.96130E-04-1.14996E-14
 -1       501 4.95587E-03-4.94501E-04-1.28581E-14
 -1       502 5.24112E-03-4.92735E-04-1.42792E-14
 -1       503 5.52651E-03-4.90815E-04-1.57652E-14
 -1       504 5.81206E-03-4.88689E-04-1.73182E-14
 -1       505 6.09776E-03-4.86278E-04-1.89388E-14
 -1       506 6.38365E-03-4.83484E-04-2.06234E-14
 -1       507 6.66975E-03-4.80192E-04-2.23747E-14
 -1       508 6.95612E-03-4.76282E-04-2.41917E-14
 -1       509 7.24284E-03-4.71635E-04-2.60705E-14
 -1       510 7.52999E-03-4.66150E-04-2.80031E-14
 -1       511 7.81770E-03-4.59763E-04-2.99908E-14
 -1       512 8.10610E-03-4.52479E-04-3.20317E-14
 -1       513 8.39535E-03-4.44418E-04-3.41234E-14
 -1       514 8.68560E-03-4.35887E-04-3.62638E-14
 -1       515 8.97706E-03-4.27477E-04-3.84474E-14
 -1       516 9.26992E-03-4.20205E-04-4.06695E-14
 -1       517 9.56446E-03-4.15721E-04-4.29168E-14
 -1       518 9.86108E-03-4.16576E-04-4.51881E-14
 -1       519 1.01606E-02-4.26593E-04-4.74799E-14
 -1       520 1.04645E-02-4.51309E-04-4.97902E-14
 -1       521 1.07758E-02-4.98502E-04-5.21138E-14
 -1       522 1.10997E-02-5.78759E-04-5.44482E-14
 -1       523 1.14440E-02-7.05657E-04-5.67926E-14
 -1       524 1.18163E-02-8.93643E-04-5.91568E-14
 -1       525 1.22175E-02-1.14922E-03-6.15506E-14
 -1       526 1.26319E-02-1.44277E-03-6.39684E-14
 -1       527 1.30360E-02-1.67880E-03-6.64083E-14
 -1       528 1.34244E-02-1.73389E-03-6.88628E-14
 -1       529 1.38157E-02-1.57958E-03-7.13363E-14
 -1       530 1.42143E-02-1.30823E-03-7.38215E-14
 -1       531 1.78415E-03 4.81095E-04-1.50950E-15
 -1       532 2.06618E-03 5.02491E-04-2.05098E-15
 -1       533 2.34796E-03 5.16876E-04-2.67567E-15
 -1       534 2.62984E-03 5.26163E-04-3.38363E-15
 -1       535 2.91202E-03 5.31809E-04-4.17496E-15
 -1       536 3.19460E-03 5.34904E-04-5.04635E-15
 -1       537 3.47762E-03 5.36257E-04-5.99460E-15
 -1       538 3.76108E-03 5.36454E-04-7.01793E-15
 -1       539 4.04494E-03 5.35910E-04-8.11665E-15
 -1       540 4.32915E-03 5.34907E-04-9.29495E-15
 -1       541 4.61367E-03 5.33622E-04-1.05505E-14
 -1       542 4.89846E-03 5.32156E-04-1.18786E-14
 -1       543 5.18348E-03 5.30548E-04-1.32748E-14
 -1       544 5.46870E-03 5.28792E-04-1.47403E-14
 -1       545 5.75412E-03 5.26849E-04-1.62785E-14
 -1       546 6.03973E-03 5.24652E-04-1.78896E-14
 -1       547 6.32556E-03 5.22118E-04-1.95686E-14
 -1       548 6.61166E-03 5.19157E-04-2.13091E-14
 -1       549 6.89808E-03 5.15678E-04-2.31092E-14
 -1       550 7.18493E-03 5.11611E-04-2.49682E-14
 -1       551 7.47233E-03 5.06918E-04-2.68858E-14
 -1       552 7.76044E-03 5.01626E-04-2.88581E-14
 -1       553 8.04946E-03 4.95862E-04-3.08766E-14
 -1       554 8.33962E-03 4.89902E-04-3.29378E-14
 -1       555 8.63121E-03 4.84226E-04-3.50409E-14
 -1       556 8.92455E-03 4.79598E-04-3.71738E-14
 -1       557 9.22000E-03 4.77135E-04-3.93363E-14
 -1       558 9.51796E-03 4.78384E-04-4.15300E-14
 -1       559 9.81881E-03 4.85348E-04-4.37586E-14
 -1       560 1.01229E-02 5.00449E-04-4.60227E-14
 -1       561 1.04304E-02 5.26329E-04-4.83182E-14
 -1       562 1.07411E-02 5.65384E-04-5.06457E-14
 -1       563 1.10541E-02 6.18918E-04-5.30050E-14
 -1       564 1.13675E-02 6.85795E-04-5.54022E-14
 -1       565 1.16780E-02 7.60685E-04-5.78310E-14
 -1       566 1.19814E-02 8.32556E-04-6.02866E-14
 -1       567 1.22742E-02 8.84605E-04-6.27667E-14
 -1       568 1.25552E-02 8.97138E-04-6.52712E-14
 -1       569 1.28273E-02 8.54010E-04-6.77920E-14
 -1       570 1.30963E-02 7.49186E-04-7.03310E-14
 -1       571 1.33676E-02 5.89346E-04-7.28815E-14
 -1       572 1.36442E-02 3.91039E-04-7.54427E-14
 -1       573 1.43213E-02 4.95584E-05-7.57844E-14
 -1       574 1.46767E-02-9.17131E-05-7.58360E-14
 -1       575 1.38669E-02 2.62034E-04-7.56696E-14
 -1       576 1.40615E-02 1.64667E-04-7.57272E-14
 -1       577 1.49132E-02-8.93013E-04-7.61322E-14
 -1       578 1.50922E-02-2.34847E-04-7.58722E-14
 -1       579 1.56875E-02-4.14971E-04-7.65108E-14
 -1       580 1.59860E-02-5.49102E-04-7.71157E-14
 -1       581 1.53890E-02-3.14389E-04-7.57229E-14
 -1       582 1.54655E-02-6.83954E-04-7.66270E-14
 -1       583 1.50138E-03 4.50175E-04-1.05231E-15
 -1       584 1.11698E-02-1.04601E-04-5.92939E-14
 -1       585 1.19903E-02 3.03170E-04-6.17325E-14
 -1       586 1.39713E-02-1.50471E-03-7.14708E-14
 -1       587 1.07929E-02-3.16030E-04-5.84448E-14
 -1       588 1.38797E-02 4.34296E-04-7.12719E-14
 -1       589 1.59420E-02-4.67908E-04-7.66693E-14
 -1       590 1.61504E-02-5.03724E-04-7.68515E-14
 -1       591 1.33369E-02-1.72651E-03-6.81590E-14
 -1       592 6.63714E-04-3.65113E-05-3.47097E-16
 -1       593 1.34677E-02 6.37892E-04-6.93346E-14
 -1       594 1.17931E-02-8.29999E-04-6.12322E-14
 -1       595 1.23875E-02 5.16601E-04-6.34263E-14
 -1       596 1.36440E-02-1.66724E-03-6.98125E-14
 -1       597 1.31420E-02 7.22797E-04-6.75159E-14
 -1       598 1.43308E-02 1.84034E-04-7.28771E-14
 -1       599 1.09852E-02-4.03472E-04-5.90915E-14
 -1       600 1.12971E-02-5.46662E-04-5.98346E-14
 -1       601 1.21625E-02-1.08668E-03-6.26798E-14
 -1       602 1.25786E-02-1.38372E-03-6.42423E-14
 -1       603 1.29128E-02-1.59720E-03-6.58383E-14
 -1       604 1.48188E-02-6.77311E-05-7.42577E-14
 -1       605 1.09236E-02-2.07384E-04-5.90766E-14
 -1       606 1.44991E-02-1.18253E-03-7.34906E-14
 -1       607 1.49749E-02-9.30214E-04-7.46653E-14
 -1       608 1.07954E-02-2.62228E-04-5.87394E-14
 -1       609 7.03873E-04 2.90859E-04-2.08872E-16
 -1       610 1.15738E-02 8.16878E-05-6.03386E-14
 -1       611 6.76614E-04-1.60017E-04-3.34243E-16
 -1       612 1.29225E-02 7.27246E-04-6.62793E-14
 -1       613 1.44875E-02-1.08817E-03-7.58037E-14
 -1       614 1.15191E-02-6.57753E-04-5.96992E-14
 -1       615 1.54941E-02-6.98496E-04-7.59632E-14
 -1       616 8.99706E-04 7.40990E-05-5.75484E-16
 -1       617 8.97610E-04 2.51753E-05-5.87194E-16
 -1       618 9.11818E-04 1.78202E-04-5.35548E-16
 -1       619 9.24212E-04 2.36766E-04-5.03924E-16
 -1       620 1.04893E-03 3.13888E-04-5.77822E-16
 -1       621 1.09774E-03-2.94618E-04-7.48943E-16
 -1       622 1.38333E-03-3.37028E-04-1.14963E-15
 -1       623 1.66953E-03-3.67976E-04-1.63451E-15
 -1       624 1.95575E-03-3.89793E-04-2.20314E-15
 -1       625 2.24179E-03-4.04644E-04-2.85574E-15
 -1       626 2.52765E-03-4.14326E-04-3.59138E-15
 -1       627 2.81336E-03-4.20262E-04-4.40713E-15
 -1       628 3.09898E-03-4.23550E-04-5.30102E-15
 -1       629 3.38455E-03-4.25015E-04-6.27173E-15
 -1       630 3.67010E-03-4.25264E-04-7.31609E-15
 -1       631 3.95565E-03-4.24729E-04-8.43260E-15
 -1       632 4.24121E-03-4.23708E-04-9.62005E-15
 -1       633 4.52680E-03-4.22393E-04-1.08764E-14
 -1       634 4.81241E-03-4.20896E-04-1.21988E-14
 -1       635 5.09804E-03-4.19265E-04-1.35867E-14
 -1       636 5.38371E-03-4.17504E-04-1.50390E-14
 -1       637 5.66941E-03-4.15577E-04-1.65599E-14
 -1       638 5.95514E-03-4.13421E-04-1.81470E-14
 -1       639 6.24092E-03-4.10951E-04-1.98000E-14
 -1       640 6.52673E-03-4.08065E-04-2.15159E-14
 -1       641 6.81260E-03-4.04651E-04-2.32999E-14
 -1       642 7.09851E-03-4.00598E-04-2.51448E-14
 -1       643 7.38447E-03-3.95803E-04-2.70462E-14
 -1       644 7.67046E-03-3.90193E-04-2.90034E-14
 -1       645 7.95645E-03-3.83746E-04-3.10140E-14
 -1       646 8.24239E-03-3.76530E-04-3.30769E-14
 -1       647 8.52816E-03-3.68754E-04-3.51878E-14
 -1       648 8.81364E-03-3.60838E-04-3.73452E-14
 -1       649 9.09861E-03-3.53509E-04-3.95420E-14
 -1       650 9.38285E-03-3.47927E-04-4.17709E-14
 -1       651 9.66617E-03-3.45842E-04-4.40245E-14
 -1       652 9.94860E-03-3.49778E-04-4.63013E-14
 -1       653 1.02308E-02-3.63271E-04-4.86011E-14
 -1       654 1.05148E-02-3.91190E-04-5.09212E-14
 -1       655 1.08051E-02-4.40345E-04-5.32489E-14
 -1       656 1.11107E-02-5.21183E-04-5.55902E-14
 -1       657 1.14455E-02-6.49921E-04-5.79477E-14
 -1       658 2.19076E-03 4.37529E-04-2.45250E-15
 -1       659 1.08089E-02-2.22049E-04-5.77228E-14
 -1       660 1.90575E-03 4.20723E-04-1.85985E-15
 -1       661 2.76022E-03 4.55577E-04-3.88253E-15
 -1       662 3.04491E-03 4.59593E-04-4.71908E-15
 -1       663 3.32966E-03 4.61579E-04-5.63289E-15
 -1       664 3.61451E-03 4.62199E-04-6.62307E-15
 -1       665 3.89948E-03 4.61934E-04-7.68779E-15
 -1       666 4.18456E-03 4.61113E-04-8.82945E-15
 -1       667 4.46976E-03 4.59955E-04-1.00485E-14
 -1       668 4.75506E-03 4.58590E-04-1.13396E-14
 -1       669 5.04046E-03 4.57083E-04-1.27015E-14
 -1       670 5.32594E-03 4.55445E-04-1.41310E-14
 -1       671 5.61151E-03 4.53653E-04-1.56312E-14
 -1       672 5.89717E-03 4.51649E-04-1.72059E-14
 -1       673 6.18292E-03 4.49360E-04-1.88507E-14
 -1       674 6.46878E-03 4.46695E-04-2.05594E-14
 -1       675 6.75477E-03 4.43561E-04-2.23262E-14
 -1       676 7.04094E-03 4.39870E-04-2.41519E-14
 -1       677 7.32733E-03 4.35556E-04-2.60394E-14
 -1       678 7.61402E-03 4.30595E-04-2.79828E-14
 -1       679 7.90110E-03 4.25032E-04-2.99755E-14
 -1       680 8.18871E-03 4.19024E-04-3.20140E-14
 -1       681 8.47704E-03 4.12882E-04-3.40965E-14
 -1       682 8.76635E-03 4.07135E-04-3.62156E-14
 -1       683 9.05698E-03 4.02601E-04-3.83649E-14
 -1       684 9.34943E-03 4.00465E-04-4.05459E-14
 -1       685 9.64438E-03 4.02343E-04-4.27599E-14
 -1       686 9.94269E-03 4.10335E-04-4.50040E-14
 -1       687 1.02454E-02 4.26996E-04-4.72826E-14
 -1       688 1.05538E-02 4.55187E-04-4.95930E-14
 -1       689 1.08685E-02 4.97639E-04-5.19330E-14
 -1       690 1.11896E-02 5.56069E-04-5.43061E-14
 -1       691 1.15150E-02 6.29448E-04-5.67111E-14
 -1       692 1.18403E-02 7.11331E-04-5.91382E-14
 -1       693 1.21592E-02 7.87726E-04-6.15907E-14
 -1       694 1.24662E-02 8.36249E-04-6.40764E-14
 -1       695 1.27605E-02 8.32209E-04-6.65788E-14
 -1       696 1.30474E-02 7.59328E-04-6.91064E-14
 -1       697 1.33343E-02 6.18591E-04-7.16531E-14
 -1       698 1.35949E-02 4.53959E-04-7.36593E-14
 -1       699 1.33467E-03 3.61523E-04-9.22592E-16
 -1       700 1.41375E-02 2.17886E-04-7.35796E-14
 -1       701 1.07114E-02-2.61291E-04-5.71253E-14
 -1       702 1.22113E-02-1.11875E-03-6.21156E-14
 -1       703 1.18807E-02-8.85944E-04-6.06732E-14
 -1       704 1.09837E-02-1.48669E-04-5.79376E-14
 -1       705 1.62039E-03 3.96207E-04-1.34991E-15
 -1       706 1.32640E-02 6.93124E-04-6.86221E-14
 -1       707 2.47554E-03 4.48623E-04-3.12652E-15
 -1       708 1.17048E-02 2.13353E-04-5.97833E-14
 -1       709 1.12763E-02-1.77658E-06-5.82988E-14
 -1       710 9.04168E-04 1.24596E-04-5.58842E-16
 -1       711 1.10763E-02-4.34119E-04-5.81059E-14
 -1       712 1.21389E-02 4.48241E-04-6.17142E-14
 -1       713 9.03810E-04-1.22192E-04-5.92801E-16
 -1       714 1.25576E-02 6.30752E-04-6.40706E-14
 -1       715 1.08393E-02-3.35121E-04-5.74654E-14
 -1       716 1.36277E-02 5.33052E-04-7.07825E-14
 -1       717 9.11253E-04-1.75602E-04-5.83291E-16
 -1       718 8.97550E-04-2.31572E-05-5.93723E-16
 -1       719 1.45431E-02 5.12420E-06-7.47405E-14
 -1       720 1.30550E-02 7.36309E-04-6.73760E-14
 -1       721 1.06831E-02-2.74592E-04-5.61504E-14
 -1       722 1.39945E-02 3.31914E-04-7.23789E-14
 -1       723 1.37569E-02 3.74318E-04-7.37147E-14
 -1       724 9.38252E-04-2.47121E-04-5.75115E-16
 -1       725 1.39194E-02 3.05633E-04-7.36511E-14
 -1       726 8.99504E-04-7.18164E-05-5.95945E-16
 -1       727 1.12477E-02-5.22755E-04-5.79707E-14
 -1       728 1.16155E-03 2.43644E-04-8.04217E-16
 -1       729 1.06878E-02-2.15606E-04-5.61440E-14
 -1       730 1.51020E-03-2.86514E-04-1.41331E-15
 -1       731 1.79727E-03-3.09504E-04-1.94297E-15
 -1       732 2.08493E-03-3.25626E-04-2.55503E-15
 -1       733 2.37271E-03-3.36455E-04-3.24955E-15
 -1       734 2.66040E-03-3.43352E-04-4.02443E-15
 -1       735 2.94788E-03-3.47410E-04-4.87838E-15
 -1       736 3.23513E-03-3.49476E-04-5.80875E-15
 -1       737 3.52214E-03-3.50188E-04-6.81435E-15
 -1       738 3.80893E-03-3.50009E-04-7.89172E-15
 -1       739 4.09552E-03-3.49269E-04-9.04042E-15
 -1       740 4.38193E-03-3.48184E-04-1.02598E-14
 -1       741 4.66820E-03-3.46891E-04-1.15462E-14
 -1       742 4.95434E-03-3.45462E-04-1.28974E-14
 -1       743 5.24038E-03-3.43918E-04-1.43166E-14
 -1       744 5.52632E-03-3.42244E-04-1.58030E-14
 -1       745 5.81217E-03-3.40395E-04-1.73579E-14
 -1       746 6.09792E-03-3.38305E-04-1.89783E-14
 -1       747 6.38356E-03-3.35889E-04-2.06644E-14
 -1       748 6.66906E-03-3.33054E-04-2.24134E-14
 -1       749 6.95438E-03-3.29703E-04-2.42263E-14
 -1       750 7.23943E-03-3.25745E-04-2.60958E-14
 -1       751 7.52413E-03-3.21113E-04-2.80226E-14
 -1       752 7.80832E-03-3.15779E-04-3.00039E-14
 -1       753 8.09181E-03-3.09787E-04-3.20376E-14
 -1       754 8.37432E-03-3.03289E-04-3.41198E-14
 -1       755 8.65550E-03-2.96597E-04-3.62515E-14
 -1       756 8.93489E-03-2.90248E-04-3.84248E-14
 -1       757 9.21189E-03-2.85081E-04-4.06339E-14
 -1       758 9.48583E-03-2.82311E-04-4.28698E-14
 -1       759 9.75604E-03-2.83601E-04-4.51293E-14
 -1       760 1.00220E-02-2.91111E-04-4.74122E-14
 -1       761 1.02838E-02-3.07539E-04-4.97230E-14
 -1       762 1.05429E-02-3.36354E-04-5.20483E-14
 -1       763 1.08037E-02-3.82756E-04-5.43833E-14
 -1       764 3.17998E-03 3.86077E-04-5.27099E-15
 -1       765 2.89342E-03 3.83399E-04-4.39121E-15
 -1       766 3.75264E-03 3.87317E-04-7.25916E-15
 -1       767 4.03879E-03 3.86773E-04-8.36671E-15
 -1       768 4.32484E-03 3.85829E-04-9.54862E-15
 -1       769 4.61082E-03 3.84644E-04-1.08040E-14
 -1       770 4.89673E-03 3.83305E-04-1.21321E-14
 -1       771 5.18259E-03 3.81847E-04-1.35260E-14
 -1       772 5.46841E-03 3.80260E-04-1.49916E-14
 -1       773 5.75419E-03 3.78507E-04-1.65282E-14
 -1       774 6.03994E-03 3.76524E-04-1.81377E-14
 -1       775 6.32565E-03 3.74231E-04-1.98148E-14
 -1       776 6.61131E-03 3.71538E-04-2.15501E-14
 -1       777 6.89692E-03 3.68353E-04-2.33444E-14
 -1       778 7.18248E-03 3.64594E-04-2.51969E-14
 -1       779 7.46798E-03 3.60201E-04-2.71104E-14
 -1       780 7.75343E-03 3.55158E-04-2.90789E-14
 -1       781 8.03888E-03 3.49518E-04-3.10913E-14
 -1       782 8.32440E-03 3.43442E-04-3.31518E-14
 -1       783 8.61015E-03 3.37238E-04-3.52558E-14
 -1       784 8.89640E-03 3.31424E-04-3.73927E-14
 -1       785 9.18362E-03 3.26790E-04-3.95606E-14
 -1       786 9.47253E-03 3.24474E-04-4.17584E-14
 -1       787 9.76422E-03 3.26053E-04-4.39874E-14
 -1       788 1.00602E-02 3.33630E-04-4.62487E-14
 -1       789 1.03626E-02 3.49919E-04-4.85460E-14
 -1       790 1.06737E-02 3.78249E-04-5.08711E-14
 -1       791 1.09957E-02 4.22306E-04-5.32232E-14
 -1       792 1.13294E-02 4.85453E-04-5.56037E-14
 -1       793 1.16723E-02 5.68013E-04-5.80070E-14
 -1       794 1.20172E-02 6.61621E-04-6.04312E-14
 -1       795 1.23554E-02 7.48043E-04-6.28892E-14
 -1       796 1.26782E-02 7.93065E-04-6.53740E-14
 -1       797 1.29869E-02 7.64487E-04-6.78840E-14
 -1       798 1.32930E-02 6.50043E-04-7.04234E-14
 -1       799 1.35192E-02 5.25900E-04-7.20681E-14
 -1       800 1.22453E-03-2.55003E-04-9.65855E-16
 -1       801 1.08019E-02-1.62893E-04-5.63564E-14
 -1       802 1.13706E-02 1.35017E-04-5.76400E-14
 -1       803 3.46638E-03 3.87209E-04-6.22767E-15
 -1       804 1.06660E-03-2.14917E-04-7.63570E-16
 -1       805 1.26971E-02 7.21607E-04-6.49827E-14
 -1       806 2.03273E-03 3.57688E-04-2.22605E-15
 -1       807 1.18246E-02 3.71817E-04-5.96702E-14
 -1       808 1.33977E-02 6.24435E-04-7.00416E-14
 -1       809 1.24623E-03 3.00809E-04-8.66230E-16
 -1       810 1.13818E-03 5.90477E-05-8.87358E-16
 -1       811 1.08537E-02-3.55544E-04-5.61433E-14
 -1       812 1.10249E-02-5.41910E-05-5.67136E-14
 -1       813 1.23312E-02 6.16252E-04-6.25753E-14
 -1       814 1.13680E-03 1.19493E-06-9.00325E-16
 -1       815 1.31962E-02 7.02556E-04-6.87901E-14
 -1       816 1.06540E-02-2.88035E-04-5.48365E-14
 -1       817 1.38229E-02 3.85005E-04-7.26258E-14
 -1       818 1.53228E-03 3.35514E-04-1.28159E-15
 -1       819 2.60669E-03 3.78455E-04-3.58938E-15
 -1       820 1.05993E-02-2.31361E-04-5.51743E-14
 -1       821 1.14973E-03 1.79076E-04-8.40653E-16
 -1       822 1.78229E-03 3.49825E-04-1.72176E-15
 -1       823 2.31978E-03 3.70295E-04-2.86766E-15
 -1       824 1.14231E-03 1.17921E-04-8.67806E-16
 -1       825 1.05673E-03-1.54449E-04-7.77359E-16
 -1       826 1.05072E-03-9.73069E-05-7.83099E-16
 -1       827 1.92948E-03-2.47801E-04-2.26233E-15
 -1       828 2.21823E-03-2.58922E-04-2.91590E-15
 -1       829 2.50729E-03-2.66266E-04-3.65023E-15
 -1       830 2.79628E-03-2.70805E-04-4.46305E-15
 -1       831 3.08502E-03-2.73331E-04-5.35387E-15
 -1       832 3.37341E-03-2.74458E-04-6.32019E-15
 -1       833 3.66143E-03-2.74646E-04-7.35836E-15
 -1       834 3.94909E-03-2.74228E-04-8.46837E-15
 -1       835 4.23640E-03-2.73432E-04-9.64898E-15
 -1       836 4.52340E-03-2.72407E-04-1.08991E-14
 -1       837 4.81012E-03-2.71240E-04-1.22160E-14
 -1       838 5.09661E-03-2.69970E-04-1.35993E-14
 -1       839 5.38287E-03-2.68599E-04-1.50513E-14
 -1       840 5.66893E-03-2.67102E-04-1.65722E-14
 -1       841 5.95477E-03-2.65432E-04-1.81609E-14
 -1       842 6.24037E-03-2.63527E-04-1.98159E-14
 -1       843 6.52568E-03-2.61316E-04-2.15347E-14
 -1       844 6.81063E-03-2.58722E-04-2.33153E-14
 -1       845 7.09511E-03-2.55675E-04-2.51524E-14
 -1       846 7.37898E-03-2.52122E-04-2.70467E-14
 -1       847 7.66201E-03-2.48041E-04-2.89994E-14
 -1       848 7.94394E-03-2.43470E-04-3.10032E-14
 -1       849 8.22440E-03-2.38530E-04-3.30588E-14
 -1       850 8.50292E-03-2.33470E-04-3.51653E-14
 -1       851 8.77891E-03-2.28708E-04-3.73157E-14
 -1       852 9.05161E-03-2.24887E-04-3.95020E-14
 -1       853 9.32008E-03-2.22911E-04-4.17222E-14
 -1       854 9.58319E-03-2.23968E-04-4.39634E-14
 -1       855 9.83964E-03-2.29498E-04-4.62306E-14
 -1       856 1.00880E-02-2.41098E-04-4.85260E-14
 -1       857 1.03267E-02-2.60419E-04-5.08444E-14
 -1       858 1.05925E-02-2.98429E-04-5.34820E-14
 -1       859 1.28083E-03-2.18304E-04-1.07516E-15
 -1       860 4.17911E-03 3.11156E-04-9.05171E-15
 -1       861 3.89210E-03 3.11817E-04-7.90479E-15
 -1       862 4.75239E-03 3.09118E-04-1.15634E-14
 -1       863 5.03873E-03 3.07900E-04-1.29248E-14
 -1       864 5.32489E-03 3.06577E-04-1.43547E-14
 -1       865 5.61089E-03 3.05127E-04-1.58570E-14
 -1       866 5.89673E-03 3.03504E-04-1.74320E-14
 -1       867 6.18240E-03 3.01641E-04-1.90747E-14
 -1       868 6.46788E-03 2.99461E-04-2.07794E-14
 -1       869 6.75312E-03 2.96879E-04-2.25429E-14
 -1       870 7.03808E-03 2.93808E-04-2.43639E-14
 -1       871 7.32270E-03 2.90169E-04-2.62437E-14
 -1       872 7.60692E-03 2.85905E-04-2.81844E-14
 -1       873 7.89068E-03 2.80997E-04-3.01726E-14
 -1       874 8.17397E-03 2.75482E-04-3.22087E-14
 -1       875 8.45680E-03 2.69487E-04-3.42921E-14
 -1       876 8.73932E-03 2.63262E-04-3.64165E-14
 -1       877 9.02182E-03 2.57231E-04-3.85731E-14
 -1       878 9.30490E-03 2.52047E-04-4.07591E-14
 -1       879 9.58953E-03 2.48681E-04-4.29741E-14
 -1       880 9.87727E-03 2.48538E-04-4.52203E-14
 -1       881 1.01704E-02 2.53652E-04-4.75018E-14
 -1       882 1.04721E-02 2.66979E-04-4.98129E-14
 -1       883 1.07862E-02 2.92744E-04-5.21485E-14
 -1       884 1.11168E-02 3.36268E-04-5.45093E-14
 -1       885 1.14661E-02 4.05124E-04-5.68898E-14
 -1       886 1.06121E-02-1.60938E-04-5.45253E-14
 -1       887 1.14607E-02 2.96399E-04-5.73048E-14
 -1       888 1.36573E-02 4.61009E-04-7.23480E-14
 -1       889 1.09272E-03-4.91601E-05-8.43272E-16
 -1       890 2.16414E-03 2.92090E-04-2.60717E-15
 -1       891 1.44663E-03 2.76883E-04-1.20702E-15
 -1       892 4.46586E-03 3.10221E-04-1.02718E-14
 -1       893 1.07687E-02-8.26082E-05-5.48786E-14
 -1       894 3.02930E-03 3.09889E-04-4.90914E-15
 -1       895 1.64156E-03-2.31770E-04-1.68993E-15
 -1       896 1.09960E-02 5.83998E-05-5.52855E-14
 -1       897 2.74109E-03 3.06621E-04-4.06371E-15
 -1       898 1.05255E-02-2.41375E-04-5.38686E-14
 -1       899 3.60481E-03 3.12026E-04-6.83092E-15
 -1       900 1.91214E-03 2.88772E-04-2.06138E-15
 -1       901 1.38093E-03 3.41067E-05-1.26309E-15
 -1       902 3.31722E-03 3.11512E-04-5.83236E-15
 -1       903 1.31783E-03-1.55069E-04-1.16003E-15
 -1       904 2.45265E-03 3.00993E-04-3.29631E-15
 -1       905 1.38410E-03 9.99742E-05-1.24240E-15
 -1       906 1.34619E-02 5.74423E-04-7.10558E-14
 -1       907 2.06544E-03-1.82856E-04-2.59189E-15
 -1       908 2.35512E-03-1.89802E-04-3.28477E-15
 -1       909 2.64509E-03-1.94268E-04-4.05665E-15
 -1       910 2.93496E-03-1.96914E-04-4.90648E-15
 -1       911 3.22452E-03-1.98268E-04-5.83289E-15
 -1       912 3.51365E-03-1.98736E-04-6.83283E-15
 -1       913 3.80230E-03-1.98618E-04-7.90505E-15
 -1       914 4.09049E-03-1.98127E-04-9.04751E-15
 -1       915 4.37823E-03-1.97406E-04-1.02601E-14
 -1       916 4.66556E-03-1.96546E-04-1.15407E-14
 -1       917 4.95254E-03-1.95594E-04-1.28883E-14
 -1       918 5.23918E-03-1.94566E-04-1.43058E-14
 -1       919 5.52551E-03-1.93452E-04-1.57915E-14
 -1       920 5.81152E-03-1.92227E-04-1.73478E-14
 -1       921 6.09720E-03-1.90851E-04-1.89703E-14
 -1       922 6.38250E-03-1.89274E-04-2.06583E-14
 -1       923 6.66732E-03-1.87445E-04-2.24084E-14
 -1       924 6.95155E-03-1.85317E-04-2.42168E-14
 -1       925 7.23501E-03-1.82856E-04-2.60803E-14
 -1       926 7.51748E-03-1.80055E-04-2.80004E-14
 -1       927 7.79864E-03-1.76951E-04-2.99757E-14
 -1       928 8.07812E-03-1.73652E-04-3.20028E-14
 -1       929 8.35541E-03-1.70362E-04-3.40832E-14
 -1       930 8.62989E-03-1.67425E-04-3.62116E-14
 -1       931 8.90079E-03-1.65354E-04-3.83760E-14
 -1       932 9.16713E-03-1.64872E-04-4.05741E-14
 -1       933 9.42770E-03-1.66917E-04-4.28017E-14
 -1       934 9.68097E-03-1.72619E-04-4.50527E-14
 -1       935 9.92493E-03-1.83188E-04-4.73319E-14
 -1       936 1.01568E-02-1.99738E-04-4.96371E-14
 -1       937 1.04101E-02-2.38640E-04-5.22296E-14
 -1       938 5.46735E-03 2.31417E-04-1.51894E-14
 -1       939 4.03284E-03 2.35907E-04-8.55698E-15
 -1       940 5.18105E-03 2.32520E-04-1.37216E-14
 -1       941 4.89447E-03 2.33531E-04-1.23253E-14
 -1       942 5.75338E-03 2.30192E-04-1.67288E-14
 -1       943 6.03912E-03 2.28799E-04-1.83395E-14
 -1       944 6.32456E-03 2.27176E-04-2.00138E-14
 -1       945 6.60962E-03 2.25252E-04-2.17469E-14
 -1       946 6.89425E-03 2.22950E-04-2.35392E-14
 -1       947 7.17833E-03 2.20188E-04-2.53860E-14
 -1       948 7.46175E-03 2.16890E-04-2.72946E-14
 -1       949 7.74438E-03 2.12992E-04-2.92580E-14
 -1       950 8.02610E-03 2.08451E-04-3.12678E-14
 -1       951 8.30680E-03 2.03259E-04-3.33295E-14
 -1       952 8.58645E-03 1.97464E-04-3.54378E-14
 -1       953 8.86514E-03 1.91191E-04-3.75816E-14
 -1       954 9.14316E-03 1.84678E-04-3.97584E-14
 -1       955 9.42117E-03 1.78332E-04-4.19614E-14
 -1       956 9.70029E-03 1.72819E-04-4.41945E-14
 -1       957 9.98243E-03 1.69243E-04-4.64591E-14
 -1       958 1.02705E-02 1.69484E-04-4.87546E-14
 -1       959 1.05685E-02 1.76820E-04-5.10764E-14
 -1       960 1.08838E-02 1.97000E-04-5.34216E-14
 -1       961 1.37932E-03-3.24049E-05-1.27306E-15
 -1       962 1.04468E-02-1.82020E-04-5.30491E-14
 -1       963 1.06613E-02 5.47517E-06-5.30683E-14
 -1       964 1.35806E-03-9.85431E-05-1.23692E-15
 -1       965 1.39066E-03 1.67307E-04-1.21282E-15
 -1       966 1.64113E-03-1.70123E-04-1.71649E-15
 -1       967 1.67899E-03 2.85734E-04-1.60658E-15
 -1       968 1.05161E-02-8.31025E-05-5.27257E-14
 -1       969 4.60760E-03 2.34455E-04-1.09991E-14
 -1       970 4.32040E-03 2.35268E-04-9.74230E-15
 -1       971 3.74488E-03 2.36257E-04-7.44404E-15
 -1       972 1.62662E-03 5.76452E-07-1.69961E-15
 -1       973 1.03170E-02-1.17954E-04-5.12613E-14
 -1       974 1.99986E-03 2.19326E-04-2.32154E-15
 -1       975 2.87844E-03 2.33344E-04-4.54874E-15
 -1       976 3.16766E-03 2.35292E-04-5.43818E-15
 -1       977 2.28909E-03 2.28420E-04-2.97338E-15
 -1       978 1.62833E-03 7.22514E-05-1.67947E-15
 -1       979 2.20479E-03-1.14894E-04-2.92996E-15
 -1       980 2.49516E-03-1.18472E-04-3.65987E-15
 -1       981 2.78573E-03-1.20698E-04-4.46844E-15
 -1       982 3.07613E-03-1.21935E-04-5.35436E-15
 -1       983 3.36612E-03-1.22480E-04-6.31585E-15
 -1       984 3.65561E-03-1.22556E-04-7.34949E-15
 -1       985 3.94455E-03-1.22327E-04-8.45453E-15
 -1       986 4.23296E-03-1.21907E-04-9.62922E-15
 -1       987 4.52087E-03-1.21371E-04-1.08736E-14
 -1       988 4.80832E-03-1.20762E-04-1.21859E-14
 -1       989 5.09535E-03-1.20099E-04-1.35659E-14
 -1       990 5.38199E-03-1.19387E-04-1.50173E-14
 -1       991 5.66824E-03-1.18614E-04-1.65388E-14
 -1       992 5.95410E-03-1.17760E-04-1.81288E-14
 -1       993 6.23951E-03-1.16798E-04-1.97853E-14
 -1       994 6.52440E-03-1.15703E-04-2.15030E-14
 -1       995 6.80864E-03-1.14450E-04-2.32826E-14
 -1       996 7.09207E-03-1.13028E-04-2.51180E-14
 -1       997 7.37446E-03-1.11445E-04-2.70076E-14
 -1       998 7.65551E-03-1.09743E-04-2.89540E-14
 -1       999 7.93486E-03-1.08019E-04-3.09527E-14
 -1      1000 8.21203E-03-1.06447E-04-3.30043E-14
 -1      1001 8.48647E-03-1.05305E-04-3.51076E-14
 -1      1002 8.75747E-03-1.05010E-04-3.72529E-14
 -1      1003 9.02420E-03-1.06144E-04-3.94313E-14
 -1      1004 9.28561E-03-1.09477E-04-4.16404E-14
 -1      1005 9.54039E-03-1.15957E-04-4.38759E-14
 -1      1006 9.78685E-03-1.26669E-04-4.61403E-14
 -1      1007 1.00226E-02-1.42508E-04-4.84309E-14
 -1      1008 1.02932E-02-1.78098E-04-5.12895E-14
 -1      1009 5.60993E-03 1.56502E-04-1.60312E-14
 -1      1010 5.03700E-03 1.58032E-04-1.30924E-14
 -1      1011 6.18137E-03 1.54543E-04-1.92496E-14
 -1      1012 6.46645E-03 1.53294E-04-2.09552E-14
 -1      1013 6.75098E-03 1.51789E-04-2.27188E-14
 -1      1014 7.03486E-03 1.49957E-04-2.45387E-14
 -1      1015 7.31791E-03 1.47725E-04-2.64158E-14
 -1      1016 7.59996E-03 1.45011E-04-2.83504E-14
 -1      1017 7.88081E-03 1.41732E-04-3.03338E-14
 -1      1018 8.16024E-03 1.37801E-04-3.23698E-14
 -1      1019 8.43806E-03 1.33133E-04-3.44573E-14
 -1      1020 8.71413E-03 1.27649E-04-3.65888E-14
 -1      1021 8.98843E-03 1.21286E-04-3.87530E-14
 -1      1022 9.26115E-03 1.14019E-04-4.09461E-14
 -1      1023 9.53283E-03 1.05905E-04-4.31664E-14
 -1      1024 9.80450E-03 9.71827E-05-4.54161E-14
 -1      1025 1.00781E-02 8.84689E-05-4.76957E-14
 -1      1026 1.03570E-02 8.13205E-05-5.00016E-14
 -1      1027 1.60371E-03-7.20576E-05-1.66384E-15
 -1      1028 2.58893E-03 2.29802E-04-3.73665E-15
 -1      1029 3.45648E-03 2.36140E-04-6.40399E-15
 -1      1030 5.89585E-03 1.55595E-04-1.76066E-14
 -1      1031 1.63349E-03 1.44722E-04-1.64924E-15
 -1      1032 1.76540E-03 2.20607E-04-1.83921E-15
 -1      1033 5.32364E-03 1.57305E-04-1.45250E-14
 -1      1034 1.90323E-03-9.35804E-05-2.25453E-15
 -1      1035 1.03797E-02-1.16666E-05-5.08984E-14
 -1      1036 4.75000E-03 1.58699E-04-1.17315E-14
 -1      1037 3.88641E-03 1.60128E-04-8.06543E-15
 -1      1038 1.87623E-03 3.88176E-05-2.17845E-15
 -1      1039 1.88847E-03-2.71183E-05-2.22045E-15
 -1      1040 2.72821E-03 1.56938E-04-4.18893E-15
 -1      1041 1.86793E-03 1.41883E-04-2.10801E-15
 -1      1042 4.17474E-03 1.59792E-04-9.21602E-15
 -1      1043 3.01840E-03 1.58868E-04-5.04513E-15
 -1      1044 2.15723E-03 1.49333E-04-2.73309E-15
 -1      1045 4.46258E-03 1.59292E-04-1.04386E-14
 -1      1046 2.63800E-03-4.52525E-05-4.04133E-15
 -1      1047 2.92884E-03-4.58700E-05-4.88536E-15
 -1      1048 3.21941E-03-4.61631E-05-5.80662E-15
 -1      1049 3.50948E-03-4.62357E-05-6.80200E-15
 -1      1050 3.79899E-03-4.61606E-05-7.86903E-15
 -1      1051 4.08794E-03-4.59857E-05-9.00550E-15
 -1      1052 4.37631E-03-4.57553E-05-1.02122E-14
 -1      1053 4.66416E-03-4.54888E-05-1.14899E-14
 -1      1054 4.95155E-03-4.51943E-05-1.28348E-14
 -1      1055 5.23848E-03-4.48835E-05-1.42484E-14
 -1      1056 5.52498E-03-4.45516E-05-1.57355E-14
 -1      1057 5.81106E-03-4.41949E-05-1.72894E-14
 -1      1058 6.09667E-03-4.38073E-05-1.89150E-14
 -1      1059 6.38176E-03-4.33841E-05-2.06031E-14
 -1      1060 6.66621E-03-4.29247E-05-2.23507E-14
 -1      1061 6.94988E-03-4.24378E-05-2.41570E-14
 -1      1062 7.23256E-03-4.19478E-05-2.60196E-14
 -1      1063 7.51398E-03-4.15044E-05-2.79366E-14
 -1      1064 7.79383E-03-4.11953E-05-2.99049E-14
 -1      1065 8.07170E-03-4.11636E-05-3.19275E-14
 -1      1066 8.34711E-03-4.16285E-05-3.40053E-14
 -1      1067 8.61952E-03-4.29102E-05-3.61295E-14
 -1      1068 8.88827E-03-4.54558E-05-3.82903E-14
 -1      1069 9.15262E-03-4.98607E-05-4.04820E-14
 -1      1070 9.41171E-03-5.68792E-05-4.27011E-14
 -1      1071 9.66447E-03-6.74124E-05-4.49499E-14
 -1      1072 9.90936E-03-8.24756E-05-4.72251E-14
 -1      1073 5.75260E-03 8.19555E-05-1.68773E-14
 -1      1074 6.32354E-03 8.08646E-05-2.01631E-14
 -1      1075 7.17520E-03 7.80603E-05-2.55405E-14
 -1      1076 7.45718E-03 7.65895E-05-2.74466E-14
 -1      1077 7.73782E-03 7.47133E-05-2.94032E-14
 -1      1078 8.01683E-03 7.23152E-05-3.14146E-14
 -1      1079 8.29390E-03 6.92458E-05-3.34781E-14
 -1      1080 8.56870E-03 6.53141E-05-3.55900E-14
 -1      1081 8.84093E-03 6.02790E-05-3.77414E-14
 -1      1082 9.11038E-03 5.38449E-05-3.99251E-14
 -1      1083 9.37695E-03 4.56694E-05-4.21328E-14
 -1      1084 9.64079E-03 3.54024E-05-4.43691E-14
 -1      1085 9.90242E-03 2.28432E-05-4.66377E-14
 -1      1086 1.01413E-02 6.41904E-06-4.87579E-14
 -1      1087 3.59758E-03 1.60201E-04-6.98600E-15
 -1      1088 5.17989E-03 8.27566E-05-1.38669E-14
 -1      1089 2.44260E-03 1.54023E-04-3.42281E-15
 -1      1090 6.89213E-03 7.92172E-05-2.36917E-14
 -1      1091 5.46645E-03 8.23808E-05-1.53373E-14
 -1      1092 6.60819E-03 8.01326E-05-2.18990E-14
 -1      1093 2.34720E-03-4.41740E-05-3.27474E-15
 -1      1094 6.03832E-03 8.14598E-05-1.84871E-14
 -1      1095 2.87013E-03 8.26828E-05-4.65341E-15
 -1      1096 2.11747E-03-3.55814E-05-2.72327E-15
 -1      1097 3.74023E-03 8.39390E-05-7.57499E-15
 -1      1098 2.58409E-03 8.15941E-05-3.84429E-15
 -1      1099 2.10492E-03 3.32332E-05-2.67693E-15
 -1      1100 4.89291E-03 8.30938E-05-1.24693E-14
 -1      1101 1.01305E-02-5.46321E-05-4.90883E-14
 -1      1102 3.30823E-03 1.59856E-04-5.97729E-15
 -1      1103 4.02920E-03 8.38576E-05-8.69381E-15
 -1      1104 3.16065E-03 8.34739E-05-5.55228E-15
 -1      1105 3.65422E-03 3.02001E-05-7.29149E-15
 -1      1106 4.52029E-03 3.01754E-05-1.07996E-14
 -1      1107 2.34423E-03 5.70771E-05-3.23547E-15
 -1      1108 3.36437E-03 3.00964E-05-6.26300E-15
 -1      1109 4.27485E-03 5.69577E-05-9.72077E-15
 -1      1110 3.45072E-03 8.38432E-05-6.52775E-15
 -1      1111 0.00000E+00 0.00000E+00 0.00000E+00
 -1      1112 0.00000E+00 0.00000E+00 0.00000E+00
 -1      1113 0.00000E+00 0.00000E+00 0.00000E+00
 -1      1114 0.00000E+00 0.00000E+00 0.00000E+00
 -1      1115 0.00000E+00 0.00000E+00 0.00000E+00
 -1      1116 0.00000E+00 0.00000E+00 0.00000E+00
 -1      1117 0.00000E+00 0.00000E+00 0.00000E+00
 -1      1118 0.00000E+00 0.00000E+00 0.00000E+00
 -1      1119 0.00000E+00 0.00000E+00 0.00000E+00
 -1      1120 0.00000E+00 0.00000E+00 0.00000E+00
 -1      1121 0.00000E+00 0.00000E+00 0.00000E+00
 -1      1122 0.00000E+00 0.00000E+00 0.00000E+00
 -1      1123 0.00000E+00 0.00000E+00 0.00000E+00
 -1      1124 0.00000E+00 0.00000E+00 0.00000E+00
 -1      1125 0.00000E+00 0.00000E+00 0.00000E+00
 -1      1126 0.00000E+00 0.00000E+00 0.00000E+00
 -1      1127 0.00000E+00 0.00000E+00 0.00000E+00
 -1      1128 2.11678E-04-1.48329E-04 1.00966E-17
 -1      1129 5.51680E-04-3.37497E-04-2.94767E-17
 -1      1130 8.33545E-04-4.58980E-04-1.55908E-16
 -1      1131 1.10318E-03-5.40661E-04-3.82994E-16
 -1      1132 1.36865E-03-5.97918E-04-7.07320E-16
 -1      1133 1.63355E-03-6.38649E-04-1.12506E-15
 -1      1134 1.89970E-03-6.67509E-04-1.63319E-15
 -1      1135 2.16796E-03-6.87622E-04-2.23224E-15
 -1      1136 2.43863E-03-7.01280E-04-2.92221E-15
 -1      1137 2.71170E-03-7.10216E-04-3.70166E-15
 -1      1138 2.98701E-03-7.15744E-04-4.56690E-15
 -1      1139 3.26430E-03-7.18860E-04-5.51195E-15
 -1      1140 3.54330E-03-7.20303E-04-6.53205E-15
 -1      1141 3.82373E-03-7.20614E-04-7.62727E-15
 -1      1142 4.10534E-03-7.20180E-04-8.79613E-15
 -1      1143 4.38787E-03-7.19263E-04-1.00341E-14
 -1      1144 4.67114E-03-7.18033E-04-1.13356E-14
 -1      1145 4.95497E-03-7.16585E-04-1.27005E-14
 -1      1146 5.23924E-03-7.14961E-04-1.41300E-14
 -1      1147 5.52385E-03-7.13156E-04-1.56237E-14
 -1      1148 5.80875E-03-7.11132E-04-1.71792E-14
 -1      1149 6.09392E-03-7.08828E-04-1.87993E-14
 -1      1150 6.37941E-03-7.06160E-04-2.04843E-14
 -1      1151 6.66528E-03-7.03035E-04-2.22394E-14
 -1      1152 6.95171E-03-6.99356E-04-2.40656E-14
 -1      1153 7.23891E-03-6.95032E-04-2.59555E-14
 -1      1154 7.52722E-03-6.89996E-04-2.79022E-14
 -1      1155 7.81710E-03-6.84223E-04-2.99037E-14
 -1      1156 8.10917E-03-6.77769E-04-3.19649E-14
 -1      1157 8.40426E-03-6.70814E-04-3.40777E-14
 -1      1158 8.70344E-03-6.63745E-04-3.62360E-14
 -1      1159 9.00812E-03-6.57262E-04-3.84434E-14
 -1      1160 9.32005E-03-6.52554E-04-4.06882E-14
 -1      1161 9.64139E-03-6.51546E-04-4.29559E-14
 -1      1162 9.97463E-03-6.57270E-04-4.52437E-14
 -1      1163 1.03224E-02-6.74353E-04-4.75416E-14
 -1      1164 1.06868E-02-7.09594E-04-4.98542E-14
 -1      1165 1.10685E-02-7.72359E-04-5.21774E-14
 -1      1166 1.14643E-02-8.74108E-04-5.45100E-14
 -1      1167 1.18649E-02-1.02561E-03-5.68517E-14
 -1      1168 1.22521E-02-1.23004E-03-5.92104E-14
 -1      1169 1.26002E-02-1.47179E-03-6.15956E-14
 -1      1170 1.28854E-02-1.70729E-03-6.40087E-14
 -1      1171 1.31019E-02-1.87151E-03-6.64416E-14
 -1      1172 1.32731E-02-1.90708E-03-6.88824E-14
 -1      1173 1.34401E-02-1.79773E-03-7.13320E-14
 -1      1174 1.36359E-02-1.57370E-03-7.38024E-14
 -1      1175 1.38688E-02-1.28415E-03-7.62873E-14
 -1      1176 1.41299E-02-9.67574E-04-7.87685E-14
 -1      1177 1.44009E-02-6.54487E-04-8.11777E-14
 -1      1178 2.28437E-04 1.60708E-04 2.22126E-17
 -1      1179 5.53852E-04 3.42129E-04 1.00424E-17
 -1      1180 8.34474E-04 4.61147E-04-8.16269E-17
 -1      1181 1.10407E-03 5.42346E-04-2.61632E-16
 -1      1182 1.36956E-03 5.99598E-04-5.30134E-16
 -1      1183 1.63450E-03 6.40420E-04-8.87596E-16
 -1      1184 1.90071E-03 6.69385E-04-1.33460E-15
 -1      1185 2.16901E-03 6.89617E-04-1.86766E-15
 -1      1186 2.43971E-03 7.03402E-04-2.48751E-15
 -1      1187 2.71279E-03 7.12469E-04-3.19478E-15
 -1      1188 2.98811E-03 7.18133E-04-3.98868E-15
 -1      1189 3.26541E-03 7.21384E-04-4.86472E-15
 -1      1190 3.54442E-03 7.22963E-04-5.81897E-15
 -1      1191 3.82486E-03 7.23410E-04-6.85220E-15
 -1      1192 4.10646E-03 7.23111E-04-7.96406E-15
 -1      1193 4.38900E-03 7.22330E-04-9.15736E-15
 -1      1194 4.67228E-03 7.21235E-04-1.04283E-14
 -1      1195 4.95612E-03 7.19924E-04-1.17720E-14
 -1      1196 5.24041E-03 7.18438E-04-1.31888E-14
 -1      1197 5.52504E-03 7.16777E-04-1.46736E-14
 -1      1198 5.80998E-03 7.14907E-04-1.62275E-14
 -1      1199 6.09520E-03 7.12775E-04-1.78562E-14
 -1      1200 6.38075E-03 7.10313E-04-1.95510E-14
 -1      1201 6.66671E-03 7.07449E-04-2.13107E-14
 -1      1202 6.95322E-03 7.04119E-04-2.31303E-14
 -1      1203 7.24052E-03 7.00287E-04-2.50122E-14
 -1      1204 7.52888E-03 6.95957E-04-2.69516E-14
 -1      1205 7.81868E-03 6.91214E-04-2.89409E-14
 -1      1206 8.11040E-03 6.86254E-04-3.09767E-14
 -1      1207 8.40459E-03 6.81436E-04-3.30523E-14
 -1      1208 8.70185E-03 6.77345E-04-3.51623E-14
 -1      1209 9.00283E-03 6.74858E-04-3.73088E-14
 -1      1210 9.30808E-03 6.75209E-04-3.94715E-14
 -1      1211 9.61794E-03 6.80037E-04-4.16613E-14
 -1      1212 9.93231E-03 6.91371E-04-4.38938E-14
 -1      1213 1.02504E-02 7.11499E-04-4.61643E-14
 -1      1214 1.05702E-02 7.42630E-04-4.84753E-14
 -1      1215 1.08886E-02 7.86251E-04-5.08228E-14
 -1      1216 1.12007E-02 8.42134E-04-5.32121E-14
 -1      1217 1.15006E-02 9.07061E-04-5.56493E-14
 -1      1218 1.17821E-02 9.73661E-04-5.81208E-14
 -1      1219 1.20404E-02 1.03006E-03-6.06108E-14
 -1      1220 1.22745E-02 1.06119E-03-6.31209E-14
 -1      1221 1.24884E-02 1.05198E-03-6.56474E-14
 -1      1222 1.26916E-02 9.91852E-04-6.81817E-14
 -1      1223 1.28960E-02 8.78362E-04-7.07243E-14
 -1      1224 1.31135E-02 7.18509E-04-7.32779E-14
 -1      1225 1.33527E-02 5.27430E-04-7.58363E-14
 -1      1226 1.36161E-02 3.25306E-04-7.84039E-14
 -1      1227 1.38906E-02 1.36084E-04-8.09042E-14
 -1      1228 1.41189E-02 4.92665E-06-8.21410E-14
 -1      1229 1.42932E-02-8.71538E-05-8.22248E-14
 -1      1230 1.44600E-02-1.99520E-04-8.23131E-14
 -1      1231 1.46410E-02-3.37217E-04-8.23858E-14
 -1      1232 1.48653E-02-4.96743E-04-8.24677E-14
 -1      1233 1.51619E-02-6.62260E-04-8.25107E-14
 -1      1234 1.55379E-02-7.96770E-04-8.25056E-14
 -1      1235 1.59652E-02-8.52984E-04-8.24955E-14
 -1      1236 1.63419E-02-7.98276E-04-8.24799E-14
 -1      1237 1.65792E-02-6.46977E-04-8.24619E-14
 -1      1238 1.66156E-02-4.52433E-04-8.24646E-14
 -1      1239 1.64569E-02-2.88948E-04-8.24702E-14
 -1      1240 1.61335E-02-1.92632E-04-8.24667E-14
 -1      1241 1.57273E-02-1.95404E-04-8.24553E-14
 -1      1242 1.53448E-02-2.70129E-04-8.24241E-14
 -1      1243 1.50063E-02-3.68216E-04-8.24013E-14
 -1      1244 1.46925E-02-4.60447E-04-8.23677E-14
 -1      1245 1.61112E-02-3.97162E-04-7.34060E-14
 -1      1246 1.59357E-02-2.01092E-04-7.31545E-14
 -1      1247 1.56094E-02 2.22362E-06-7.26356E-14
 -1      1248 1.51785E-02 2.00173E-04-7.18625E-14
 -1      1249 1.47012E-02 3.74559E-04-7.09096E-14
 -1      1250 1.42017E-02 5.13944E-04-6.98162E-14
 -1      1251 1.37037E-02 6.05498E-04-6.86397E-14
 -1      1252 1.32038E-02 6.39103E-04-6.74019E-14
 -1      1253 1.26936E-02 6.08610E-04-6.61036E-14
 -1      1254 1.22270E-02 5.23785E-04-6.49301E-14
 -1      1255 1.18056E-02 3.96734E-04-6.39085E-14
 -1      1256 1.14233E-02 2.40699E-04-6.30234E-14
 -1      1257 1.11171E-02 7.22013E-05-6.23718E-14
 -1      1258 1.09134E-02-9.19278E-05-6.19688E-14
 -1      1259 1.08136E-02-2.53700E-04-6.17869E-14
 -1      1260 1.08218E-02-4.28898E-04-6.18497E-14
 -1      1261 1.09434E-02-6.14955E-04-6.21693E-14
 -1      1262 1.11734E-02-8.14785E-04-6.27162E-14
 -1      1263 1.15086E-02-1.03331E-03-6.35058E-14
 -1      1264 1.19068E-02-1.24302E-03-6.44431E-14
 -1      1265 1.23504E-02-1.42623E-03-6.55015E-14
 -1      1266 1.28378E-02-1.56513E-03-6.66770E-14
 -1      1267 1.33310E-02-1.63191E-03-6.78583E-14
 -1      1268 1.38172E-02-1.62138E-03-6.89983E-14
 -1      1269 1.43188E-02-1.53692E-03-7.01120E-14
 -1      1270 1.48304E-02-1.38732E-03-7.11575E-14
 -1      1271 1.53022E-02-1.19851E-03-7.20411E-14
 -1      1272 1.57026E-02-9.91607E-04-7.27392E-14
 -1      1273 1.59912E-02-7.83145E-04-7.32130E-14
 -1      1274 1.61284E-02-5.87468E-04-7.34265E-14
 -1      1275 1.66713E-04-1.10336E-04-4.07931E-18
 -1      1276 1.12550E-04-5.69645E-05-2.04779E-17
 -1      1277 1.17633E-04-6.75741E-05-1.59107E-17
 -1      1278 1.08430E-04-4.34801E-05-2.79724E-17
 -1      1279 1.10294E-04-4.95953E-05-2.57498E-17
 -1      1280 2.26348E-04-1.07604E-04-6.04172E-17
 -1      1281 1.06843E-04-3.35960E-05-3.20111E-17
 -1      1282 1.07693E-04-3.83196E-05-3.08456E-17
 -1      1283 2.19120E-04-8.24351E-05-7.37393E-17
 -1      1284 1.06058E-04-2.53429E-05-3.43557E-17
 -1      1285 1.06490E-04-2.93734E-05-3.38000E-17
 -1      1286 2.15863E-04-6.32528E-05-8.14236E-17
 -1      1287 1.05656E-04-1.80825E-05-3.53179E-17
 -1      1288 1.05887E-04-2.16499E-05-3.51146E-17
 -1      1289 2.14203E-04-4.71716E-05-8.55978E-17
 -1      1290 1.05432E-04-1.12328E-05-3.56838E-17
 -1      1291 1.05556E-04-1.46168E-05-3.57516E-17
 -1      1292 2.13284E-04-3.27373E-05-8.74951E-17
 -1      1293 1.05331E-04-4.68624E-06-3.56025E-17
 -1      1294 1.05384E-04-7.93790E-06-3.56703E-17
 -1      1295 2.12781E-04-1.91799E-05-8.79288E-17
 -1      1296 1.05319E-04 1.74217E-06-3.53043E-17
 -1      1297 1.05317E-04-1.46955E-06-3.54128E-17
 -1      1298 2.12564E-04-6.15687E-06-8.75900E-17
 -1      1299 1.05392E-04 8.22036E-06-3.46132E-17
 -1      1300 1.05335E-04 4.96216E-06-3.48029E-17
 -1      1301 2.12572E-04 6.70519E-06-8.65058E-17
 -1      1302 1.05572E-04 1.49244E-05-3.33934E-17
 -1      1303 1.05443E-04 1.15259E-05-3.37458E-17
 -1      1304 2.12806E-04 1.97545E-05-8.44051E-17
 -1      1305 1.05908E-04 2.19408E-05-3.15774E-17
 -1      1306 1.05671E-04 1.83506E-05-3.21466E-17
 -1      1307 2.13322E-04 3.32512E-05-8.11254E-17
 -1      1308 1.06536E-04 2.98063E-05-2.90566E-17
 -1      1309 1.06094E-04 2.57298E-05-2.98969E-17
 -1      1310 2.14269E-04 4.77749E-05-7.64769E-17
 -1      1311 1.07730E-04 3.89053E-05-2.51399E-17
 -1      1312 1.06877E-04 3.41114E-05-2.66578E-17
 -1      1313 2.15981E-04 6.41861E-05-6.99039E-17
 -1      1314 1.10273E-04 5.03339E-05-1.86889E-17
 -1      1315 1.08433E-04 4.41492E-05-2.15485E-17
 -1      1316 2.19216E-04 8.36848E-05-5.98073E-17
 -1      1317 1.16949E-04 6.76104E-05-8.21283E-18
 -1      1318 1.12197E-04 5.77640E-05-1.32408E-17
 -1      1319 2.26336E-04 1.09424E-04-4.40999E-17
 -1      1320 1.57591E-04 1.09854E-04 8.03665E-18
 -1      1321 1.35674E-04 8.60832E-05-2.05998E-18
 -1      1322 2.56064E-04 1.52076E-04-2.52890E-17
 -1      1323 3.35112E-04 2.20725E-04 1.58565E-18
 -1      1324 4.21578E-04-2.61720E-04-3.96005E-17
 -1      1325 5.74693E-04-3.36771E-04-8.22774E-17
 -1      1326 7.21901E-04-3.97368E-04-1.51382E-16
 -1      1327 8.65091E-04-4.46659E-04-2.44813E-16
 -1      1328 6.12136E-04-3.30857E-04-1.42762E-16
 -1      1329 1.00514E-03-4.87731E-04-3.61351E-16
 -1      1330 1.14301E-03-5.21720E-04-5.01606E-16
 -1      1331 9.05410E-04-4.31547E-04-3.36333E-16
 -1      1332 1.27953E-03-5.50497E-04-6.65592E-16
 -1      1333 1.41521E-03-5.74539E-04-8.53281E-16
 -1      1334 1.18788E-03-5.00969E-04-6.22644E-16
 -1      1335 1.55049E-03-5.94913E-04-1.06362E-15
 -1      1336 1.68562E-03-6.11953E-04-1.29642E-15
 -1      1337 1.46487E-03-5.49752E-04-1.00089E-15
 -1      1338 1.82084E-03-6.26289E-04-1.55157E-15
 -1      1339 1.95627E-03-6.38212E-04-1.82931E-15
 -1      1340 1.73962E-03-5.84081E-04-1.46909E-15
 -1      1341 2.09203E-03-6.48127E-04-2.12960E-15
 -1      1342 2.22816E-03-6.56283E-04-2.45267E-15
 -1      1343 2.01400E-03-6.07943E-04-2.02678E-15
 -1      1344 2.36471E-03-6.62956E-04-2.79800E-15
 -1      1345 2.50171E-03-6.68353E-04-3.16514E-15
 -1      1346 2.28900E-03-6.24155E-04-2.67366E-15
 -1      1347 2.63915E-03-6.72668E-04-3.55477E-15
 -1      1348 2.77703E-03-6.76069E-04-3.96556E-15
 -1      1349 2.56508E-03-6.34797E-04-3.40820E-15
 -1      1350 2.91535E-03-6.78694E-04-4.39641E-15
 -1      1351 3.05408E-03-6.80674E-04-4.84806E-15
 -1      1352 2.84245E-03-6.41430E-04-4.22783E-15
 -1      1353 3.19321E-03-6.82110E-04-5.31915E-15
 -1      1354 3.33270E-03-6.83102E-04-5.80975E-15
 -1      1355 3.12111E-03-6.45226E-04-5.12841E-15
 -1      1356 3.47254E-03-6.83720E-04-6.31920E-15
 -1      1357 3.61271E-03-6.84040E-04-6.84678E-15
 -1      1358 3.40099E-03-6.47057E-04-6.10692E-15
 -1      1359 3.75316E-03-6.84110E-04-7.39369E-15
 -1      1360 3.89388E-03-6.83987E-04-7.95864E-15
 -1      1361 3.68196E-03-6.47562E-04-7.16118E-15
 -1      1362 4.03485E-03-6.83700E-04-8.54182E-15
 -1      1363 4.17603E-03-6.83291E-04-9.14289E-15
 -1      1364 3.96387E-03-6.47199E-04-8.28919E-15
 -1      1365 4.31741E-03-6.82778E-04-9.76030E-15
 -1      1366 4.45897E-03-6.82189E-04-1.03944E-14
 -1      1367 4.24658E-03-6.46285E-04-9.48780E-15
 -1      1368 4.60068E-03-6.81531E-04-1.10446E-14
 -1      1369 4.74253E-03-6.80823E-04-1.17106E-14
 -1      1370 4.52994E-03-6.45027E-04-1.07544E-14
 -1      1371 4.88451E-03-6.80067E-04-1.23927E-14
 -1      1372 5.02660E-03-6.79272E-04-1.30903E-14
 -1      1373 4.81382E-03-6.43548E-04-1.20852E-14
 -1      1374 5.16878E-03-6.78435E-04-1.38048E-14
 -1      1375 5.31106E-03-6.77559E-04-1.45348E-14
 -1      1376 5.09814E-03-6.41905E-04-1.34800E-14
 -1      1377 5.45341E-03-6.76636E-04-1.52801E-14
 -1      1378 5.59584E-03-6.75665E-04-1.60422E-14
 -1      1379 5.38281E-03-6.40108E-04-1.49385E-14
 -1      1380 5.73835E-03-6.74635E-04-1.68194E-14
 -1      1381 5.88093E-03-6.73542E-04-1.76134E-14
 -1      1382 5.66779E-03-6.38127E-04-1.64601E-14
 -1      1383 6.02358E-03-6.72371E-04-1.84234E-14
 -1      1384 6.16631E-03-6.71116E-04-1.92487E-14
 -1      1385 5.95306E-03-6.35900E-04-1.80472E-14
 -1      1386 6.30913E-03-6.69759E-04-2.00924E-14
 -1      1387 6.45204E-03-6.68295E-04-2.09522E-14
 -1      1388 6.23864E-03-6.33343E-04-1.97006E-14
 -1      1389 6.59507E-03-6.66702E-04-2.18296E-14
 -1      1390 6.73823E-03-6.64976E-04-2.27249E-14
 -1      1391 6.52460E-03-6.30356E-04-2.14211E-14
 -1      1392 6.88155E-03-6.63093E-04-2.36359E-14
 -1      1393 7.02504E-03-6.61053E-04-2.45645E-14
 -1      1394 6.81105E-03-6.26826E-04-2.32086E-14
 -1      1395 7.16874E-03-6.58830E-04-2.55078E-14
 -1      1396 7.31270E-03-6.56428E-04-2.64651E-14
 -1      1397 7.09814E-03-6.22641E-04-2.50614E-14
 -1      1398 7.45695E-03-6.53823E-04-2.74372E-14
 -1      1399 7.60156E-03-6.51028E-04-2.84223E-14
 -1      1400 7.38613E-03-6.17695E-04-2.69742E-14
 -1      1401 7.74657E-03-6.48019E-04-2.94224E-14
 -1      1402 7.89207E-03-6.44826E-04-3.04367E-14
 -1      1403 7.67534E-03-6.11911E-04-2.89425E-14
 -1      1404 8.03812E-03-6.41428E-04-3.14647E-14
 -1      1405 8.18483E-03-6.37880E-04-3.25069E-14
 -1      1406 7.96620E-03-6.05263E-04-3.09681E-14
 -1      1407 8.33230E-03-6.34170E-04-3.35624E-14
 -1      1408 8.48065E-03-6.30387E-04-3.46282E-14
 -1      1409 8.25928E-03-5.97818E-04-3.30472E-14
 -1      1410 8.63001E-03-6.26539E-04-3.57076E-14
 -1      1411 8.78053E-03-6.22765E-04-3.67967E-14
 -1      1412 8.55529E-03-5.89795E-04-3.51790E-14
 -1      1413 8.93239E-03-6.19107E-04-3.78977E-14
 -1      1414 9.08575E-03-6.15776E-04-3.90103E-14
 -1      1415 8.85515E-03-5.81654E-04-3.73554E-14
 -1      1416 9.24085E-03-6.12878E-04-4.01290E-14
 -1      1417 9.39788E-03-6.10720E-04-4.12542E-14
 -1      1418 9.15997E-03-5.74240E-04-3.95717E-14
 -1      1419 9.55709E-03-6.09520E-04-4.23868E-14
 -1      1420 9.71874E-03-6.09717E-04-4.35240E-14
 -1      1421 9.47104E-03-5.68994E-04-4.18186E-14
 -1      1422 9.88306E-03-6.11710E-04-4.46650E-14
 -1      1423 1.00503E-02-6.16116E-04-4.58109E-14
 -1      1424 9.78987E-03-5.68270E-04-4.40900E-14
 -1      1425 1.02207E-02-6.23614E-04-4.69598E-14
 -1      1426 1.03945E-02-6.35044E-04-4.81114E-14
 -1      1427 1.01180E-02-5.75792E-04-4.63776E-14
 -1      1428 1.05718E-02-6.51487E-04-4.92681E-14
 -1      1429 1.07525E-02-6.74024E-04-5.04272E-14
 -1      1430 1.04567E-02-5.97255E-04-4.86821E-14
 -1      1431 1.09366E-02-7.04223E-04-5.15872E-14
 -1      1432 1.11238E-02-7.43337E-04-5.27514E-14
 -1      1433 1.08069E-02-6.40952E-04-5.09981E-14
 -1      1434 1.13134E-02-7.93306E-04-5.39171E-14
 -1      1435 1.15047E-02-8.55267E-04-5.50837E-14
 -1      1436 1.11678E-02-7.18027E-04-5.33237E-14
 -1      1437 1.16963E-02-9.30935E-04-5.62572E-14
 -1      1438 1.18865E-02-1.02057E-03-5.74347E-14
 -1      1439 1.15368E-02-8.41333E-04-5.56627E-14
 -1      1440 1.20735E-02-1.12431E-03-5.86131E-14
 -1      1441 1.22549E-02-1.24019E-03-5.97981E-14
 -1      1442 1.19073E-02-1.02099E-03-5.80143E-14
 -1      1443 1.24283E-02-1.36492E-03-6.09928E-14
 -1      1444 1.25916E-02-1.49279E-03-6.21928E-14
 -1      1445 1.22688E-02-1.25477E-03-6.03897E-14
 -1      1446 1.27430E-02-1.61621E-03-6.33982E-14
 -1      1447 1.28821E-02-1.72633E-03-6.46115E-14
 -1      1448 1.26071E-02-1.51451E-03-6.27902E-14
 -1      1449 1.30090E-02-1.81368E-03-6.58284E-14
 -1      1450 1.31263E-02-1.87008E-03-6.70460E-14
 -1      1451 1.29111E-02-1.73979E-03-6.52132E-14
 -1      1452 1.32364E-02-1.88975E-03-6.82688E-14
 -1      1453 1.33438E-02-1.87049E-03-6.94946E-14
 -1      1454 1.31820E-02-1.85627E-03-6.76549E-14
 -1      1455 1.34513E-02-1.81389E-03-7.07229E-14
 -1      1456 1.35623E-02-1.72449E-03-7.19519E-14
 -1      1457 1.34371E-02-1.81818E-03-7.01070E-14
 -1      1458 1.36784E-02-1.60896E-03-7.31884E-14
 -1      1459 1.38003E-02-1.47432E-03-7.44300E-14
 -1      1460 1.36968E-02-1.63753E-03-7.25757E-14
 -1      1461 1.39276E-02-1.32691E-03-7.56718E-14
 -1      1462 1.40595E-02-1.17171E-03-7.69138E-14
 -1      1463 1.39696E-02-1.36648E-03-7.50548E-14
 -1      1464 1.41948E-02-1.01198E-03-7.81563E-14
 -1      1465 1.43328E-02-8.50496E-04-7.93936E-14
 -1      1466 1.42513E-02-1.05563E-03-7.75396E-14
 -1      1467 1.45572E-02-6.11325E-04-8.11914E-14
 -1      1468 1.46198E-02-6.54247E-04-8.05833E-14
 -1      1469 6.43142E-04 3.71984E-04-5.09304E-17
 -1      1470 4.92997E-04 3.03669E-04-1.36067E-17
 -1      1471 4.44926E-04 2.65869E-04-3.35561E-17
 -1      1472 9.28772E-04 4.71938E-04-1.91958E-16
 -1      1473 7.87885E-04 4.26451E-04-1.10534E-16
 -1      1474 7.44824E-04 3.90676E-04-1.35037E-16
 -1      1475 1.20372E-03 5.41359E-04-4.18949E-16
 -1      1476 1.06702E-03 5.09678E-04-2.94388E-16
 -1      1477 1.03091E-03 4.76110E-04-3.22591E-16
 -1      1478 1.47432E-03 5.90569E-04-7.33476E-16
 -1      1479 1.33924E-03 5.68102E-04-5.65195E-16
 -1      1480 1.30888E-03 5.35939E-04-5.96013E-16
 -1      1481 1.74393E-03 6.25491E-04-1.13654E-15
 -1      1482 1.60908E-03 6.09574E-04-9.23862E-16
 -1      1483 1.58317E-03 5.78245E-04-9.56036E-16
 -1      1484 2.01421E-03 6.49996E-04-1.62727E-15
 -1      1485 1.87890E-03 6.38873E-04-1.37108E-15
 -1      1486 1.85640E-03 6.08005E-04-1.40361E-15
 -1      1487 2.28599E-03 6.66838E-04-2.20321E-15
 -1      1488 2.14987E-03 6.59244E-04-1.90447E-15
 -1      1489 2.12998E-03 6.28608E-04-1.93735E-15
 -1      1490 2.55957E-03 6.78066E-04-2.86637E-15
 -1      1491 2.42254E-03 6.73053E-04-2.52393E-15
 -1      1492 2.40463E-03 6.42509E-04-2.55677E-15
 -1      1493 2.83501E-03 6.85226E-04-3.61560E-15
 -1      1494 2.69706E-03 6.82076E-04-3.23014E-15
 -1      1495 2.68064E-03 6.51540E-04-3.26175E-15
 -1      1496 3.11221E-03 6.89488E-04-4.44897E-15
 -1      1497 2.97340E-03 6.87660E-04-4.02204E-15
 -1      1498 2.95808E-03 6.57084E-04-4.05158E-15
 -1      1499 3.39100E-03 6.91727E-04-5.36211E-15
 -1      1500 3.25142E-03 6.90816E-04-4.89528E-15
 -1      1501 3.23691E-03 6.60174E-04-4.92325E-15
 -1      1502 3.67116E-03 6.92588E-04-6.35313E-15
 -1      1503 3.53092E-03 6.92298E-04-5.84804E-15
 -1      1504 3.51700E-03 6.61580E-04-5.87342E-15
 -1      1505 3.95249E-03 6.92535E-04-7.42306E-15
 -1      1506 3.81169E-03 6.92653E-04-6.87859E-15
 -1      1507 3.79818E-03 6.61859E-04-6.90152E-15
 -1      1508 4.23477E-03 6.91892E-04-8.57161E-15
 -1      1509 4.09352E-03 6.92272E-04-7.98736E-15
 -1      1510 4.08030E-03 6.61408E-04-8.00700E-15
 -1      1511 4.51782E-03 6.90874E-04-9.80047E-15
 -1      1512 4.37621E-03 6.91420E-04-9.17598E-15
 -1      1513 4.36319E-03 6.60494E-04-9.19210E-15
 -1      1514 4.80148E-03 6.89612E-04-1.11035E-14
 -1      1515 4.65958E-03 6.90268E-04-1.04429E-14
 -1      1516 4.64670E-03 6.59291E-04-1.04546E-14
 -1      1517 5.08562E-03 6.88172E-04-1.24798E-14
 -1      1518 4.94349E-03 6.88912E-04-1.17829E-14
 -1      1519 4.93073E-03 6.57892E-04-1.17910E-14
 -1      1520 5.37015E-03 6.86571E-04-1.39272E-14
 -1      1521 5.22784E-03 6.87392E-04-1.31951E-14
 -1      1522 5.21516E-03 6.56339E-04-1.31990E-14
 -1      1523 5.65500E-03 6.84788E-04-1.54437E-14
 -1      1524 5.51254E-03 6.85704E-04-1.46768E-14
 -1      1525 5.49993E-03 6.54625E-04-1.46767E-14
 -1      1526 5.94016E-03 6.82775E-04-1.70298E-14
 -1      1527 5.79754E-03 6.83813E-04-1.62269E-14
 -1      1528 5.78502E-03 6.52714E-04-1.62243E-14
 -1      1529 6.22563E-03 6.80467E-04-1.86889E-14
 -1      1530 6.08286E-03 6.81661E-04-1.78508E-14
 -1      1531 6.07040E-03 6.50543E-04-1.78436E-14
 -1      1532 6.51148E-03 6.77787E-04-2.04107E-14
 -1      1533 6.36850E-03 6.79176E-04-1.95418E-14
 -1      1534 6.35613E-03 6.48036E-04-1.95301E-14
 -1      1535 6.79781E-03 6.74659E-04-2.21974E-14
 -1      1536 6.65458E-03 6.76280E-04-2.12968E-14
 -1      1537 6.64227E-03 6.45111E-04-2.12808E-14
 -1      1538 7.08479E-03 6.71023E-04-2.40449E-14
 -1      1539 6.94121E-03 6.72903E-04-2.31136E-14
 -1      1540 6.92896E-03 6.41691E-04-2.30929E-14
 -1      1541 7.37265E-03 6.66850E-04-2.59503E-14
 -1      1542 7.22859E-03 6.68998E-04-2.49901E-14
 -1      1543 7.21636E-03 6.37721E-04-2.49662E-14
 -1      1544 7.66169E-03 6.62168E-04-2.79114E-14
 -1      1545 7.51700E-03 6.64560E-04-2.69249E-14
 -1      1546 7.50472E-03 6.33187E-04-2.68957E-14
 -1      1547 7.95230E-03 6.57098E-04-2.99197E-14
 -1      1548 7.80677E-03 6.59660E-04-2.89091E-14
 -1      1549 7.79434E-03 6.28146E-04-2.88769E-14
 -1      1550 8.24491E-03 6.51894E-04-3.19744E-14
 -1      1551 8.09832E-03 6.54478E-04-3.09419E-14
 -1      1552 8.08558E-03 6.22766E-04-3.09055E-14
 -1      1553 8.54005E-03 6.47003E-04-3.40616E-14
 -1      1554 8.39213E-03 6.49359E-04-3.30139E-14
 -1      1555 8.37887E-03 6.17376E-04-3.29742E-14
 -1      1556 8.83824E-03 6.43132E-04-3.61894E-14
 -1      1557 8.68873E-03 6.44870E-04-3.51212E-14
 -1      1558 8.67466E-03 6.12527E-04-3.50790E-14
 -1      1559 9.13999E-03 6.41317E-04-3.83418E-14
 -1      1560 8.98864E-03 6.41877E-04-3.72631E-14
 -1      1561 8.97340E-03 6.09070E-04-3.72175E-14
 -1      1562 9.44567E-03 6.42994E-04-4.05181E-14
 -1      1563 9.29232E-03 6.41608E-04-3.94267E-14
 -1      1564 9.27547E-03 6.08229E-04-3.93812E-14
 -1      1565 9.75535E-03 6.50025E-04-4.27313E-14
 -1      1566 9.60001E-03 6.45715E-04-4.16184E-14
 -1      1567 9.58107E-03 6.11657E-04-4.15735E-14
 -1      1568 1.00686E-02 6.64649E-04-4.49790E-14
 -1      1569 9.91157E-03 6.56264E-04-4.38504E-14
 -1      1570 9.89008E-03 6.21450E-04-4.38042E-14
 -1      1571 1.03843E-02 6.89280E-04-4.72672E-14
 -1      1572 1.02262E-02 6.75621E-04-4.61201E-14
 -1      1573 1.02019E-02 6.40037E-04-4.60722E-14
 -1      1574 1.07002E-02 7.26038E-04-4.95938E-14
 -1      1575 1.05424E-02 7.06127E-04-4.84258E-14
 -1      1576 1.05151E-02 6.69873E-04-4.83763E-14
 -1      1577 1.10129E-02 7.75940E-04-5.19568E-14
 -1      1578 1.08572E-02 7.49472E-04-5.07699E-14
 -1      1579 1.08276E-02 7.12824E-04-5.07148E-14
 -1      1580 1.13181E-02 8.37711E-04-5.43617E-14
 -1      1581 1.11668E-02 8.05680E-04-5.31531E-14
 -1      1582 1.11360E-02 7.69154E-04-5.30926E-14
 -1      1583 1.16107E-02 9.06426E-04-5.68093E-14
 -1      1584 1.14663E-02 8.71801E-04-5.55815E-14
 -1      1585 1.14365E-02 8.36179E-04-5.55128E-14
 -1      1586 1.18861E-02 9.72516E-04-5.92832E-14
 -1      1587 1.17508E-02 9.40648E-04-5.80436E-14
 -1      1588 1.17250E-02 9.06918E-04-5.79666E-14
 -1      1589 1.21420E-02 1.02201E-03-6.17791E-14
 -1      1590 1.20166E-02 1.00032E-03-6.05295E-14
 -1      1591 1.19982E-02 9.69491E-04-6.04468E-14
 -1      1592 1.23793E-02 1.03878E-03-6.42926E-14
 -1      1593 1.22628E-02 1.03536E-03-6.30322E-14
 -1      1594 1.22551E-02 1.00816E-03-6.29467E-14
 -1      1595 1.26033E-02 1.00865E-03-6.68219E-14
 -1      1596 1.24925E-02 1.03007E-03-6.55557E-14
 -1      1597 1.24981E-02 1.00662E-03-6.54632E-14
 -1      1598 1.28224E-02 9.24030E-04-6.93582E-14
 -1      1599 1.27128E-02 9.73067E-04-6.80903E-14
 -1      1600 1.27326E-02 9.52755E-04-6.79962E-14
 -1      1601 1.30465E-02 7.86801E-04-7.19066E-14
 -1      1602 1.29332E-02 8.61318E-04-7.06308E-14
 -1      1603 1.29663E-02 8.42948E-04-7.05365E-14
 -1      1604 1.32837E-02 6.08261E-04-7.44625E-14
 -1      1605 1.31630E-02 7.01575E-04-7.31826E-14
 -1      1606 1.32065E-02 6.83692E-04-7.30887E-14
 -1      1607 1.35385E-02 4.06837E-04-7.70233E-14
 -1      1608 1.34087E-02 5.09078E-04-7.57424E-14
 -1      1609 1.34586E-02 4.90271E-04-7.56467E-14
 -1      1610 1.38107E-02 2.04172E-04-7.95911E-14
 -1      1611 1.36726E-02 3.04457E-04-7.83067E-14
 -1      1612 1.37248E-02 2.83554E-04-7.82121E-14
 -1      1613 1.39836E-02 9.19772E-05-8.09337E-14
 -1      1614 1.42092E-02-3.55822E-05-8.11348E-14
 -1      1615 1.41268E-02 1.48230E-05-8.10946E-14
 -1      1616 1.43742E-02-1.49493E-04-8.12109E-14
 -1      1617 1.42907E-02-9.02659E-05-8.11738E-14
 -1      1618 1.41241E-02 2.30021E-05-8.00383E-14
 -1      1619 1.45586E-02-2.78677E-04-8.12828E-14
 -1      1620 1.44620E-02-2.12160E-04-8.12463E-14
 -1      1621 1.42881E-02-8.72247E-05-8.01085E-14
 -1      1622 1.47980E-02-4.21117E-04-8.13524E-14
 -1      1623 1.46701E-02-3.49262E-04-8.13198E-14
 -1      1624 1.44819E-02-2.08832E-04-8.01772E-14
 -1      1625 1.51166E-02-5.58631E-04-8.13854E-14
 -1      1626 1.49463E-02-4.91995E-04-8.13742E-14
 -1      1627 1.47378E-02-3.37357E-04-8.02362E-14
 -1      1628 1.55146E-02-6.62626E-04-8.13919E-14
 -1      1629 1.53060E-02-6.16619E-04-8.13878E-14
 -1      1630 1.50767E-02-4.58892E-04-8.02677E-14
 -1      1631 1.59585E-02-7.03331E-04-8.13889E-14
 -1      1632 1.57356E-02-6.92952E-04-8.13919E-14
 -1      1633 1.54979E-02-5.54407E-04-8.02835E-14
 -1      1634 1.63081E-02-6.68691E-04-8.13865E-14
 -1      1635 1.61448E-02-6.94620E-04-8.13881E-14
 -1      1636 1.59265E-02-5.99427E-04-8.02895E-14
 -1      1637 1.65218E-02-5.68278E-04-8.13779E-14
 -1      1638 1.64414E-02-6.24406E-04-8.13794E-14
 -1      1639 1.62748E-02-5.87719E-04-8.02910E-14
 -1      1640 1.65110E-02-4.55435E-04-8.13826E-14
 -1      1641 1.65426E-02-5.10939E-04-8.13806E-14
 -1      1642 1.64442E-02-5.31844E-04-8.02951E-14
 -1      1643 1.63067E-02-3.65286E-04-8.13862E-14
 -1      1644 1.64300E-02-4.04762E-04-8.13900E-14
 -1      1645 1.63878E-02-4.69306E-04-8.03027E-14
 -1      1646 1.59192E-02-3.27807E-04-8.13842E-14
 -1      1647 1.61249E-02-3.36538E-04-8.13829E-14
 -1      1648 1.61125E-02-4.32251E-04-8.03056E-14
 -1      1649 1.55064E-02-3.61771E-04-8.13625E-14
 -1      1650 1.57105E-02-3.37651E-04-8.13748E-14
 -1      1651 1.56971E-02-4.50022E-04-8.02951E-14
 -1      1652 1.51297E-02-4.39375E-04-8.13378E-14
 -1      1653 1.53109E-02-3.97433E-04-8.13494E-14
 -1      1654 1.52815E-02-5.14743E-04-8.02746E-14
 -1      1655 1.47888E-02-5.69941E-04-8.09571E-14
 -1      1656 1.49492E-02-5.24121E-04-8.09675E-14
 -1      1657 1.49058E-02-6.40623E-04-7.98940E-14
 -1      1658 1.45586E-02-8.10234E-04-7.91521E-14
 -1      1659 1.60982E-02-4.06345E-04-7.38549E-14
 -1      1660 1.61507E-02-4.64917E-04-7.39223E-14
 -1      1661 1.58457E-02-2.62559E-04-7.35476E-14
 -1      1662 1.59853E-02-3.34844E-04-7.37379E-14
 -1      1663 1.54254E-02-8.31998E-05-7.29680E-14
 -1      1664 1.56326E-02-1.76481E-04-7.32991E-14
 -1      1665 1.49403E-02 1.45209E-04-7.20392E-14
 -1      1666 1.51683E-02 4.13371E-05-7.24785E-14
 -1      1667 1.44616E-02 3.70218E-04-7.09274E-14
 -1      1668 1.46867E-02 2.73662E-04-7.14339E-14
 -1      1669 1.39770E-02 5.50029E-04-6.97209E-14
 -1      1670 1.41946E-02 4.71623E-04-7.03016E-14
 -1      1671 1.35400E-02 6.61650E-04-6.84338E-14
 -1      1672 1.37384E-02 6.19996E-04-6.90193E-14
 -1      1673 1.30996E-02 6.93296E-04-6.70649E-14
 -1      1674 1.33002E-02 6.92205E-04-6.77077E-14
 -1      1675 1.26612E-02 6.25022E-04-6.56375E-14
 -1      1676 1.28616E-02 6.70880E-04-6.62787E-14
 -1      1677 1.22283E-02 4.83763E-04-6.44668E-14
 -1      1678 1.24147E-02 5.52559E-04-6.49884E-14
 -1      1679 1.18325E-02 2.94762E-04-6.33055E-14
 -1      1680 1.20244E-02 3.83688E-04-6.37912E-14
 -1      1681 1.14551E-02 1.29353E-04-6.25231E-14
 -1      1682 1.16362E-02 2.14668E-04-6.29125E-14
 -1      1683 1.18162E-02 2.17574E-04-6.27725E-14
 -1      1684 1.10906E-02-4.84226E-05-6.18450E-14
 -1      1685 1.12291E-02 2.49666E-05-6.21062E-14
 -1      1686 1.08790E-02-1.83075E-04-6.14648E-14
 -1      1687 1.09622E-02-1.25098E-04-6.16076E-14
 -1      1688 1.07861E-02-3.00572E-04-6.13270E-14
 -1      1689 1.08136E-02-2.47413E-04-6.13612E-14
 -1      1690 1.08289E-02-4.23921E-04-6.14011E-14
 -1      1691 1.07898E-02-3.65114E-04-6.13010E-14
 -1      1692 1.10048E-02-5.75513E-04-6.18508E-14
 -1      1693 1.09096E-02-5.05731E-04-6.16460E-14
 -1      1694 1.13130E-02-7.56010E-04-6.24499E-14
 -1      1695 1.11566E-02-6.61452E-04-6.21128E-14
 -1      1696 1.17065E-02-9.98683E-04-6.33769E-14
 -1      1697 1.15152E-02-8.84943E-04-6.29374E-14
 -1      1698 1.21230E-02-1.24635E-03-6.44308E-14
 -1      1699 1.19285E-02-1.13522E-03-6.39454E-14
 -1      1700 1.25725E-02-1.47101E-03-6.55873E-14
 -1      1701 1.23705E-02-1.36922E-03-6.50216E-14
 -1      1702 1.30083E-02-1.63433E-03-6.68916E-14
 -1      1703 1.28065E-02-1.57001E-03-6.62906E-14
 -1      1704 1.34288E-02-1.68901E-03-6.81564E-14
 -1      1705 1.32371E-02-1.67650E-03-6.75850E-14
 -1      1706 1.38533E-02-1.63992E-03-6.93790E-14
 -1      1707 1.36556E-02-1.67544E-03-6.88198E-14
 -1      1708 1.43116E-02-1.49188E-03-7.05915E-14
 -1      1709 1.40924E-02-1.57243E-03-7.00438E-14
 -1      1710 1.48214E-02-1.27667E-03-7.16857E-14
 -1      1711 1.45863E-02-1.38319E-03-7.11910E-14
 -1      1712 1.53034E-02-1.04648E-03-7.25984E-14
 -1      1713 1.50860E-02-1.15135E-03-7.22062E-14
 -1      1714 1.57295E-02-8.21943E-04-7.33679E-14
 -1      1715 1.55373E-02-9.16128E-04-7.30653E-14
 -1      1716 1.60366E-02-6.59477E-04-7.37891E-14
 -1      1717 1.59171E-02-7.30324E-04-7.36190E-14
 -1      1718 1.61608E-02-5.31421E-04-7.39330E-14
 -1      1719 1.61266E-02-5.88849E-04-7.38838E-14
 -1      1720 1.47293E-02 1.50881E-04-7.20765E-14
 -1      1721 1.52321E-02-1.03731E-04-7.31742E-14
 -1      1722 1.40348E-02 6.83199E-05-8.08395E-14
 -1      1723 1.39545E-02 1.28733E-04-7.97475E-14
 -1      1724 1.60424E-02-4.15776E-04-7.42809E-14
 -1      1725 1.57071E-02-2.95447E-04-7.39150E-14
 -1      1726 1.61696E-02-5.01924E-04-7.44079E-14
 -1      1727 1.42392E-02 3.97327E-04-7.08450E-14
 -1      1728 1.37950E-02 5.91807E-04-6.95187E-14
 -1      1729 1.33833E-02 7.04207E-04-6.80932E-14
 -1      1730 1.29886E-02 7.10473E-04-6.65839E-14
 -1      1731 1.25971E-02 5.99153E-04-6.51547E-14
 -1      1732 1.21859E-02 4.13044E-04-6.38344E-14
 -1      1733 1.10424E-02-1.34583E-04-6.13127E-14
 -1      1734 1.08415E-02-2.41875E-04-6.09726E-14
 -1      1735 1.07767E-02-3.28825E-04-6.08436E-14
 -1      1736 1.08665E-02-4.21634E-04-6.10580E-14
 -1      1737 1.11067E-02-5.57420E-04-6.15599E-14
 -1      1738 1.14666E-02-7.51254E-04-6.23014E-14
 -1      1739 1.18873E-02-1.01397E-03-6.33513E-14
 -1      1740 1.23292E-02-1.28671E-03-6.45055E-14
 -1      1741 1.27482E-02-1.53000E-03-6.57968E-14
 -1      1742 1.31391E-02-1.68340E-03-6.71911E-14
 -1      1743 1.35189E-02-1.71045E-03-6.85456E-14
 -1      1744 1.39150E-02-1.61428E-03-6.98732E-14
 -1      1745 1.43655E-02-1.41252E-03-7.11385E-14
 -1      1746 1.48708E-02-1.15837E-03-7.22612E-14
 -1      1747 1.53650E-02-9.02480E-04-7.32528E-14
 -1      1748 1.57971E-02-7.06393E-04-7.39757E-14
 -1      1749 1.60852E-02-5.86455E-04-7.43221E-14
 -1      1750 2.85267E-04-1.76214E-04-3.59277E-17
 -1      1751 1.13975E-02 3.02505E-05-6.19649E-14
 -1      1752 3.32203E-04-1.16734E-04-1.17134E-16
 -1      1753 3.36348E-04-1.32980E-04-1.09965E-16
 -1      1754 3.42235E-04-1.51971E-04-1.01061E-16
 -1      1755 3.51793E-04-1.73976E-04-8.85658E-17
 -1      1756 4.58365E-04-1.88028E-04-1.59432E-16
 -1      1757 3.24557E-04-6.53443E-05-1.31676E-16
 -1      1758 3.25699E-04-7.66409E-05-1.29684E-16
 -1      1759 3.23053E-04-4.38615E-05-1.33858E-16
 -1      1760 3.23711E-04-5.43461E-05-1.33005E-16
 -1      1761 4.36493E-04-7.92421E-05-1.95224E-16
 -1      1762 3.22264E-04-2.37556E-05-1.34278E-16
 -1      1763 3.22598E-04-3.36630E-05-1.34238E-16
 -1      1764 4.34482E-04-5.12864E-05-1.97596E-16
 -1      1765 3.21969E-04-4.33399E-06-1.33479E-16
 -1      1766 3.22066E-04-1.39799E-05-1.33994E-16
 -1      1767 4.33457E-04-2.49084E-05-1.97826E-16
 -1      1768 3.22092E-04 1.49712E-05-1.31351E-16
 -1      1769 3.21977E-04 5.31511E-06-1.32611E-16
 -1      1770 4.33158E-04 7.57077E-07-1.96200E-16
 -1      1771 3.22660E-04 3.47082E-05-1.27882E-16
 -1      1772 3.22307E-04 2.47682E-05-1.29860E-16
 -1      1773 4.33516E-04 2.64517E-05-1.92636E-16
 -1      1774 3.23794E-04 5.51350E-05-1.22583E-16
 -1      1775 3.23128E-04 4.47774E-05-1.25564E-16
 -1      1776 4.34596E-04 5.26927E-05-1.87133E-16
 -1      1777 3.25858E-04 7.77782E-05-1.15047E-16
 -1      1778 3.24657E-04 6.62008E-05-1.19140E-16
 -1      1779 4.36659E-04 8.05597E-05-1.79070E-16
 -1      1780 3.29555E-04 1.03612E-04-1.04219E-16
 -1      1781 3.27403E-04 9.02634E-05-1.10318E-16
 -1      1782 4.40318E-04 1.11520E-04-1.67685E-16
 -1      1783 3.36598E-04 1.35070E-04-8.77391E-17
 -1      1784 3.32412E-04 1.18571E-04-9.70632E-17
 -1      1785 4.46800E-04 1.47285E-04-1.51178E-16
 -1      1786 3.52332E-04 1.77569E-04-6.25585E-17
 -1      1787 3.42833E-04 1.54720E-04-7.67073E-17
 -1      1788 4.59347E-04 1.91408E-04-1.26594E-16
 -1      1789 4.07738E-04 2.33655E-04-4.47640E-17
 -1      1790 3.78124E-04 2.02628E-04-5.63514E-17
 -1      1791 4.95900E-04 2.43950E-04-1.04111E-16
 -1      1792 5.58602E-04 3.02462E-04-8.59230E-17
 -1      1793 3.40055E-04-1.90881E-04-6.38731E-17
 -1      1794 8.53662E-04 4.07059E-04-2.33537E-16
 -1      1795 7.07238E-04 3.59325E-04-1.49200E-16
 -1      1796 6.73467E-04 3.28756E-04-1.60828E-16
 -1      1797 1.13133E-02-6.52369E-05-6.12011E-14
 -1      1798 1.15290E-02 3.13425E-05-6.16154E-14
 -1      1799 4.58999E-04-2.36678E-04-1.14885E-16
 -1      1800 8.07315E-04-3.74055E-04-3.08469E-16
 -1      1801 9.52601E-04-4.15235E-04-4.31662E-16
 -1      1802 1.09546E-03-4.49921E-04-5.77554E-16
 -1      1803 1.23715E-03-4.78814E-04-7.46148E-16
 -1      1804 1.00402E-03-3.97848E-04-5.30798E-16
 -1      1805 1.37758E-03-5.03296E-04-9.36886E-16
 -1      1806 1.51730E-03-5.23671E-04-1.15022E-15
 -1      1807 1.28974E-03-4.55803E-04-8.72281E-16
 -1      1808 1.65649E-03-5.40857E-04-1.38626E-15
 -1      1809 1.79536E-03-5.55092E-04-1.64384E-15
 -1      1810 1.57220E-03-4.96754E-04-1.30217E-15
 -1      1811 1.93411E-03-5.66985E-04-1.92359E-15
 -1      1812 2.07280E-03-5.76740E-04-2.22556E-15
 -1      1813 1.85286E-03-5.25319E-04-1.82028E-15
 -1      1814 2.21158E-03-5.84775E-04-2.54964E-15
 -1      1815 2.35045E-03-5.91262E-04-2.89500E-15
 -1      1816 2.13281E-03-5.44837E-04-2.42571E-15
 -1      1817 2.48953E-03-5.96499E-04-3.26226E-15
 -1      1818 2.62878E-03-6.00625E-04-3.65116E-15
 -1      1819 2.41273E-03-5.57768E-04-3.11724E-15
 -1      1820 2.76828E-03-6.03855E-04-4.06035E-15
 -1      1821 2.90799E-03-6.06301E-04-4.48967E-15
 -1      1822 2.69301E-03-5.65950E-04-3.89361E-15
 -1      1823 3.04796E-03-6.08118E-04-4.93933E-15
 -1      1824 3.18815E-03-6.09392E-04-5.40826E-15
 -1      1825 2.97387E-03-5.70761E-04-4.75173E-15
 -1      1826 3.32858E-03-6.10235E-04-5.89692E-15
 -1      1827 3.46922E-03-6.10714E-04-6.40456E-15
 -1      1828 3.25538E-03-5.73229E-04-5.68850E-15
 -1      1829 3.61008E-03-6.10904E-04-6.93040E-15
 -1      1830 3.75112E-03-6.10856E-04-7.47513E-15
 -1      1831 3.53754E-03-5.74109E-04-6.70152E-15
 -1      1832 3.89236E-03-6.10623E-04-8.03803E-15
 -1      1833 4.03376E-03-6.10240E-04-8.61919E-15
 -1      1834 3.82032E-03-5.73947E-04-7.78842E-15
 -1      1835 4.17533E-03-6.09740E-04-9.21759E-15
 -1      1836 4.31703E-03-6.09149E-04-9.83301E-15
 -1      1837 4.10365E-03-5.73122E-04-8.94825E-15
 -1      1838 4.45886E-03-6.08486E-04-1.04652E-14
 -1      1839 4.60081E-03-6.07767E-04-1.11141E-14
 -1      1840 4.38745E-03-5.71892E-04-1.01776E-14
 -1      1841 4.74288E-03-6.07000E-04-1.17794E-14
 -1      1842 4.88504E-03-6.06196E-04-1.24599E-14
 -1      1843 4.67166E-03-5.70414E-04-1.14737E-14
 -1      1844 5.02729E-03-6.05353E-04-1.31560E-14
 -1      1845 5.16962E-03-6.04478E-04-1.38684E-14
 -1      1846 4.95622E-03-5.68772E-04-1.28334E-14
 -1      1847 5.31203E-03-6.03562E-04-1.45978E-14
 -1      1848 5.45451E-03-6.02607E-04-1.53420E-14
 -1      1849 5.24106E-03-5.66992E-04-1.42571E-14
 -1      1850 5.59706E-03-6.01600E-04-1.61022E-14
 -1      1851 5.73968E-03-6.00541E-04-1.68796E-14
 -1      1852 5.52617E-03-5.65057E-04-1.57456E-14
 -1      1853 5.88237E-03-5.99412E-04-1.76721E-14
 -1      1854 6.02513E-03-5.98210E-04-1.84819E-14
 -1      1855 5.81152E-03-5.62914E-04-1.72979E-14
 -1      1856 6.16797E-03-5.96915E-04-1.93091E-14
 -1      1857 6.31089E-03-5.95521E-04-2.01526E-14
 -1      1858 6.09712E-03-5.60483E-04-1.89181E-14
 -1      1859 6.45390E-03-5.94006E-04-2.10130E-14
 -1      1860 6.59703E-03-5.92365E-04-2.18890E-14
 -1      1861 6.38302E-03-5.57665E-04-2.06047E-14
 -1      1862 6.74027E-03-5.90571E-04-2.27819E-14
 -1      1863 6.88365E-03-5.88622E-04-2.36912E-14
 -1      1864 6.66928E-03-5.54343E-04-2.23569E-14
 -1      1865 7.02719E-03-5.86489E-04-2.46166E-14
 -1      1866 7.17093E-03-5.84173E-04-2.55571E-14
 -1      1867 6.95599E-03-5.50392E-04-2.41733E-14
 -1      1868 7.31487E-03-5.81644E-04-2.65129E-14
 -1      1869 7.45908E-03-5.78909E-04-2.74818E-14
 -1      1870 7.24332E-03-5.45690E-04-2.60532E-14
 -1      1871 7.60356E-03-5.75941E-04-2.84667E-14
 -1      1872 7.74840E-03-5.72754E-04-2.94640E-14
 -1      1873 7.53144E-03-5.40128E-04-2.79911E-14
 -1      1874 7.89360E-03-5.69327E-04-3.04733E-14
 -1      1875 8.03928E-03-5.65687E-04-3.14982E-14
 -1      1876 7.82062E-03-5.33633E-04-2.99829E-14
 -1      1877 8.18544E-03-5.61826E-04-3.25369E-14
 -1      1878 8.33222E-03-5.57791E-04-3.35883E-14
 -1      1879 8.11119E-03-5.26197E-04-3.20289E-14
 -1      1880 8.47962E-03-5.53596E-04-3.46524E-14
 -1      1881 8.62783E-03-5.49317E-04-3.57268E-14
 -1      1882 8.40353E-03-5.17926E-04-3.41277E-14
 -1      1883 8.77684E-03-5.45006E-04-3.68144E-14
 -1      1884 8.92688E-03-5.40783E-04-3.79113E-14
 -1      1885 8.69814E-03-5.09114E-04-3.62749E-14
 -1      1886 9.07791E-03-5.36764E-04-3.90171E-14
 -1      1887 9.23025E-03-5.33131E-04-4.01317E-14
 -1      1888 8.99560E-03-5.00349E-04-3.84644E-14
 -1      1889 9.38383E-03-5.30106E-04-4.12521E-14
 -1      1890 9.53901E-03-5.27959E-04-4.23806E-14
 -1      1891 9.29659E-03-4.92682E-04-4.06883E-14
 -1      1892 9.69569E-03-5.27078E-04-4.35150E-14
 -1      1893 9.85429E-03-5.27865E-04-4.46530E-14
 -1      1894 9.60187E-03-4.87874E-04-4.29406E-14
 -1      1895 1.00147E-02-5.30954E-04-4.57960E-14
 -1      1896 1.01773E-02-5.36934E-04-4.69438E-14
 -1      1897 9.91233E-03-4.88756E-04-4.52150E-14
 -1      1898 1.03421E-02-5.46783E-04-4.80961E-14
 -1      1899 1.05092E-02-5.61357E-04-4.92518E-14
 -1      1900 1.02290E-02-4.99724E-04-4.75097E-14
 -1      1901 1.06789E-02-5.82039E-04-5.04092E-14
 -1      1902 1.08509E-02-6.10042E-04-5.15696E-14
 -1      1903 1.05532E-02-5.27350E-04-4.98196E-14
 -1      1904 1.10258E-02-6.47084E-04-5.27322E-14
 -1      1905 1.12028E-02-6.94758E-04-5.38970E-14
 -1      1906 1.08866E-02-5.80962E-04-5.21414E-14
 -1      1907 1.13829E-02-7.54726E-04-5.50670E-14
 -1      1908 1.15642E-02-8.28688E-04-5.62405E-14
 -1      1909 1.12313E-02-6.72762E-04-5.44729E-14
 -1      1910 1.17483E-02-9.17364E-04-5.74178E-14
 -1      1911 1.19317E-02-1.02143E-03-5.85991E-14
 -1      1912 1.15896E-02-8.16351E-04-5.68186E-14
 -1      1913 1.21164E-02-1.13916E-03-5.97869E-14
 -1      1914 1.22974E-02-1.26810E-03-6.09817E-14
 -1      1915 1.19610E-02-1.02136E-03-5.91853E-14
 -1      1916 1.24760E-02-1.40251E-03-6.21827E-14
 -1      1917 1.26477E-02-1.53432E-03-6.33894E-14
 -1      1918 1.23382E-02-1.28111E-03-6.15742E-14
 -1      1919 1.28116E-02-1.65432E-03-6.46017E-14
 -1      1920 1.29688E-02-1.75034E-03-6.58174E-14
 -1      1921 1.27041E-02-1.55414E-03-6.39900E-14
 -1      1922 1.31162E-02-1.81368E-03-6.70398E-14
 -1      1923 1.32621E-02-1.83628E-03-6.82655E-14
 -1      1924 1.30424E-02-1.75767E-03-6.64238E-14
 -1      1925 1.34025E-02-1.81576E-03-6.94924E-14
 -1      1926 1.35472E-02-1.75527E-03-7.07228E-14
 -1      1927 1.33580E-02-1.80587E-03-6.88765E-14
 -1      1928 1.36925E-02-1.65960E-03-7.19587E-14
 -1      1929 1.38421E-02-1.53864E-03-7.31968E-14
 -1      1930 1.36748E-02-1.67735E-03-7.13401E-14
 -1      1931 1.39940E-02-1.39949E-03-7.44372E-14
 -1      1932 1.41460E-02-1.24971E-03-7.56807E-14
 -1      1933 1.40050E-02-1.42747E-03-7.38197E-14
 -1      1934 1.42801E-02-1.11171E-03-7.67929E-14
 -1      1935 1.44292E-02-9.52906E-04-7.80355E-14
 -1      1936 1.45957E-02-8.66814E-04-7.84067E-14
 -1      1937 1.43171E-02-1.14450E-03-7.61760E-14
 -1      1938 1.13876E-03 4.80014E-04-4.64879E-16
 -1      1939 9.96964E-04 4.46766E-04-3.38379E-16
 -1      1940 9.64572E-04 4.17308E-04-3.51620E-16
 -1      1941 1.41792E-03 5.31497E-04-7.81574E-16
 -1      1942 1.27874E-03 5.08046E-04-6.12547E-16
 -1      1943 1.24909E-03 4.79905E-04-6.26100E-16
 -1      1944 1.69436E-03 5.67806E-04-1.18476E-15
 -1      1945 1.55630E-03 5.51303E-04-9.72313E-16
 -1      1946 1.52941E-03 5.24126E-04-9.85987E-16
 -1      1947 1.96999E-03 5.93121E-04-1.67448E-15
 -1      1948 1.83218E-03 5.81667E-04-1.41875E-15
 -1      1949 1.80770E-03 5.55127E-04-1.43155E-15
 -1      1950 2.24590E-03 6.10404E-04-2.24925E-15
 -1      1951 2.10787E-03 6.02641E-04-1.95135E-15
 -1      1952 2.08538E-03 5.76504E-04-1.96264E-15
 -1      1953 2.52264E-03 6.21836E-04-2.90951E-15
 -1      1954 2.38414E-03 6.16757E-04-2.56869E-15
 -1      1955 2.36326E-03 5.90865E-04-2.57853E-15
 -1      1956 2.80046E-03 6.29054E-04-3.65459E-15
 -1      1957 2.66141E-03 6.25902E-04-3.27138E-15
 -1      1958 2.64179E-03 6.00148E-04-3.27860E-15
 -1      1959 3.07943E-03 6.33285E-04-4.48288E-15
 -1      1960 2.93981E-03 6.31491E-04-4.05830E-15
 -1      1961 2.92117E-03 6.05806E-04-4.06280E-15
 -1      1962 3.35952E-03 6.35444E-04-5.39094E-15
 -1      1963 3.21935E-03 6.34585E-04-4.92736E-15
 -1      1964 3.20147E-03 6.08923E-04-4.92891E-15
 -1      1965 3.64063E-03 6.36202E-04-6.37684E-15
 -1      1966 3.49996E-03 6.35970E-04-5.87441E-15
 -1      1967 3.48266E-03 6.10304E-04-5.87314E-15
 -1      1968 3.92263E-03 6.36040E-04-7.43985E-15
 -1      1969 3.78153E-03 6.36217E-04-6.89851E-15
 -1      1970 3.76466E-03 6.10529E-04-6.89349E-15
 -1      1971 4.20539E-03 6.35294E-04-8.58090E-15
 -1      1972 4.06393E-03 6.35727E-04-8.00048E-15
 -1      1973 4.04738E-03 6.10013E-04-7.99141E-15
 -1      1974 4.48878E-03 6.34185E-04-9.80117E-15
 -1      1975 4.34702E-03 6.34777E-04-9.18136E-15
 -1      1976 4.33070E-03 6.09034E-04-9.16865E-15
 -1      1977 4.77269E-03 6.32846E-04-1.10963E-14
 -1      1978 4.63068E-03 6.33540E-04-1.04390E-14
 -1      1979 4.61454E-03 6.07770E-04-1.04223E-14
 -1      1980 5.05703E-03 6.31344E-04-1.24638E-14
 -1      1981 4.91481E-03 6.32114E-04-1.17717E-14
 -1      1982 4.89880E-03 6.06322E-04-1.17501E-14
 -1      1983 5.34171E-03 6.29695E-04-1.39012E-14
 -1      1984 5.19933E-03 6.30539E-04-1.31734E-14
 -1      1985 5.18342E-03 6.04729E-04-1.31476E-14
 -1      1986 5.62671E-03 6.27877E-04-1.54108E-14
 -1      1987 5.48418E-03 6.28810E-04-1.46469E-14
 -1      1988 5.46834E-03 6.02988E-04-1.46158E-14
 -1      1989 5.91200E-03 6.25836E-04-1.69891E-14
 -1      1990 5.76932E-03 6.26887E-04-1.61911E-14
 -1      1991 5.75355E-03 6.01059E-04-1.61552E-14
 -1      1992 6.19759E-03 6.23500E-04-1.86388E-14
 -1      1993 6.05475E-03 6.24708E-04-1.78057E-14
 -1      1994 6.03903E-03 5.98876E-04-1.77667E-14
 -1      1995 6.48354E-03 6.20787E-04-2.03526E-14
 -1      1996 6.34052E-03 6.22194E-04-1.94878E-14
 -1      1997 6.32482E-03 5.96360E-04-1.94439E-14
 -1      1998 6.76995E-03 6.17610E-04-2.21303E-14
 -1      1999 6.62668E-03 6.19258E-04-2.12343E-14
 -1      2000 6.61099E-03 5.93421E-04-2.11864E-14
 -1      2001 7.05693E-03 6.13895E-04-2.39690E-14
 -1      2002 6.91336E-03 6.15820E-04-2.30413E-14
 -1      2003 6.89762E-03 5.89973E-04-2.29893E-14
 -1      2004 7.34469E-03 6.09599E-04-2.58649E-14
 -1      2005 7.20070E-03 6.11817E-04-2.49103E-14
 -1      2006 7.18487E-03 5.85949E-04-2.48524E-14
 -1      2007 7.63346E-03 6.04727E-04-2.78185E-14
 -1      2008 7.48893E-03 6.07227E-04-2.68353E-14
 -1      2009 7.47293E-03 5.81318E-04-2.67735E-14
 -1      2010 7.92354E-03 5.99376E-04-2.98184E-14
 -1      2011 7.77832E-03 6.02096E-04-2.88122E-14
 -1      2012 7.76202E-03 5.76117E-04-2.87469E-14
 -1      2013 8.21528E-03 5.93771E-04-3.18652E-14
 -1      2014 8.06918E-03 5.96580E-04-3.08361E-14
 -1      2015 8.05244E-03 5.70486E-04-3.07667E-14
 -1      2016 8.50907E-03 5.88325E-04-3.39476E-14
 -1      2017 8.36189E-03 5.90989E-04-3.29022E-14
 -1      2018 8.34452E-03 5.64720E-04-3.28279E-14
 -1      2019 8.80533E-03 5.83711E-04-3.60683E-14
 -1      2020 8.65686E-03 5.85858E-04-3.50035E-14
 -1      2021 8.63861E-03 5.59331E-04-3.49281E-14
 -1      2022 9.10443E-03 5.80934E-04-3.82176E-14
 -1      2023 8.95449E-03 5.82017E-04-3.71399E-14
 -1      2024 8.93509E-03 5.55127E-04-3.70620E-14
 -1      2025 9.40667E-03 5.81410E-04-4.03953E-14
 -1      2026 9.25513E-03 5.80668E-04-3.93033E-14
 -1      2027 9.23429E-03 5.53283E-04-3.92238E-14
 -1      2028 9.71214E-03 5.87011E-04-4.26063E-14
 -1      2029 9.55899E-03 5.83454E-04-4.14951E-14
 -1      2030 9.53645E-03 5.55420E-04-4.14160E-14
 -1      2031 1.00206E-02 6.00035E-04-4.48523E-14
 -1      2032 9.86603E-03 5.92469E-04-4.37252E-14
 -1      2033 9.84162E-03 5.63622E-04-4.36438E-14
 -1      2034 1.03314E-02 6.23034E-04-4.71370E-14
 -1      2035 1.01758E-02 6.10173E-04-4.59917E-14
 -1      2036 1.01495E-02 5.80368E-04-4.59083E-14
 -1      2037 1.06430E-02 6.58392E-04-4.94528E-14
 -1      2038 1.04872E-02 6.39104E-04-4.82899E-14
 -1      2039 1.04595E-02 6.08266E-04-4.82051E-14
 -1      2040 1.09533E-02 7.07533E-04-5.18071E-14
 -1      2041 1.07985E-02 6.81285E-04-5.06247E-14
 -1      2042 1.07701E-02 6.49499E-04-5.05357E-14
 -1      2043 1.12592E-02 7.69740E-04-5.42001E-14
 -1      2044 1.11071E-02 7.37235E-04-5.29983E-14
 -1      2045 1.10793E-02 7.04857E-04-5.29032E-14
 -1      2046 1.15572E-02 8.40683E-04-5.66309E-14
 -1      2047 1.14096E-02 8.04609E-04-5.54108E-14
 -1      2048 1.13842E-02 7.72375E-04-5.53103E-14
 -1      2049 1.18437E-02 9.11198E-04-5.90920E-14
 -1      2050 1.17022E-02 8.76758E-04-5.78588E-14
 -1      2051 1.16813E-02 8.45803E-04-5.77505E-14
 -1      2052 1.21162E-02 9.67223E-04-6.15785E-14
 -1      2053 1.19818E-02 9.41974E-04-6.03319E-14
 -1      2054 1.19675E-02 9.13657E-04-6.02188E-14
 -1      2055 1.23747E-02 9.91765E-04-6.40817E-14
 -1      2056 1.22471E-02 9.84342E-04-6.28281E-14
 -1      2057 1.22407E-02 9.59855E-04-6.27089E-14
 -1      2058 1.26224E-02 9.69229E-04-6.66046E-14
 -1      2059 1.24995E-02 9.86960E-04-6.53412E-14
 -1      2060 1.25018E-02 9.66836E-04-6.52194E-14
 -1      2061 1.28650E-02 8.90520E-04-6.91383E-14
 -1      2062 1.27437E-02 9.36914E-04-6.78708E-14
 -1      2063 1.27545E-02 9.20765E-04-6.77447E-14
 -1      2064 1.31093E-02 7.56519E-04-7.16853E-14
 -1      2065 1.29863E-02 8.29854E-04-7.04102E-14
 -1      2066 1.30049E-02 8.16511E-04-7.02843E-14
 -1      2067 1.33611E-02 5.78206E-04-7.42416E-14
 -1      2068 1.32338E-02 6.71866E-04-7.29629E-14
 -1      2069 1.32588E-02 6.59789E-04-7.28357E-14
 -1      2070 1.36238E-02 3.74124E-04-7.68022E-14
 -1      2071 1.34909E-02 4.78114E-04-7.55206E-14
 -1      2072 1.35205E-02 4.65668E-04-7.53948E-14
 -1      2073 1.38563E-02 1.98620E-04-7.89171E-14
 -1      2074 1.37185E-02 3.02542E-04-7.76332E-14
 -1      2075 1.37503E-02 2.88564E-04-7.75075E-14
 -1      2076 1.39448E-02 1.44199E-04-7.91717E-14
 -1      2077 1.44067E-02-1.30616E-04-7.90743E-14
 -1      2078 1.42983E-02-7.24110E-05-7.90399E-14
 -1      2079 1.42044E-02-1.63730E-05-7.90106E-14
 -1      2080 1.41197E-02 3.70834E-05-7.89766E-14
 -1      2081 1.41212E-02 5.99055E-05-7.79083E-14
 -1      2082 1.40711E-02 6.66971E-05-7.90900E-14
 -1      2083 1.39922E-02 1.17395E-04-7.90586E-14
 -1      2084 1.38935E-02 1.90930E-04-7.82240E-14
 -1      2085 1.39857E-02 1.38172E-04-7.79933E-14
 -1      2086 1.46784E-02-2.51984E-04-7.91267E-14
 -1      2087 1.45321E-02-1.91633E-04-7.91026E-14
 -1      2088 1.43317E-02-4.98550E-05-7.79675E-14
 -1      2089 1.50356E-02-3.71395E-04-7.91579E-14
 -1      2090 1.48446E-02-3.13743E-04-7.91434E-14
 -1      2091 1.46152E-02-1.70491E-04-7.80159E-14
 -1      2092 1.54785E-02-4.76412E-04-7.91807E-14
 -1      2093 1.52479E-02-4.28790E-04-7.91710E-14
 -1      2094 1.49924E-02-2.99774E-04-7.80538E-14
 -1      2095 1.58921E-02-5.37030E-04-7.91963E-14
 -1      2096 1.56878E-02-5.12809E-04-7.91905E-14
 -1      2097 1.54311E-02-4.17364E-04-7.80823E-14
 -1      2098 1.62413E-02-5.47987E-04-7.92056E-14
 -1      2099 1.60875E-02-5.48490E-04-7.92010E-14
 -1      2100 1.58732E-02-4.98360E-04-7.81023E-14
 -1      2101 1.63668E-02-5.17931E-04-7.92077E-14
 -1      2102 1.63333E-02-5.32986E-04-7.92032E-14
 -1      2103 1.62020E-02-5.23913E-04-7.81122E-14
 -1      2104 1.62722E-02-4.79438E-04-7.95183E-14
 -1      2105 1.63587E-02-4.92568E-04-7.95141E-14
 -1      2106 1.59059E-02-4.93780E-04-7.93089E-14
 -1      2107 1.61054E-02-4.80809E-04-7.93106E-14
 -1      2108 1.54703E-02-5.58113E-04-7.92960E-14
 -1      2109 1.56892E-02-5.21463E-04-7.93022E-14
 -1      2110 1.56824E-02-5.68139E-04-7.83090E-14
 -1      2111 1.50615E-02-6.52883E-04-7.92760E-14
 -1      2112 1.52587E-02-6.05553E-04-7.92860E-14
 -1      2113 1.52328E-02-6.76912E-04-7.82953E-14
 -1      2114 1.55910E-02-3.28882E-04-7.44386E-14
 -1      2115 1.58007E-02-3.90321E-04-7.46878E-14
 -1      2116 1.61707E-02-4.97344E-04-7.50579E-14
 -1      2117 1.61809E-02-5.13902E-04-7.50666E-14
 -1      2118 1.59836E-02-4.34592E-04-7.47630E-14
 -1      2119 1.61001E-02-4.65223E-04-7.48805E-14
 -1      2120 1.50505E-02-9.78098E-05-7.33774E-14
 -1      2121 1.53009E-02-2.10639E-04-7.38703E-14
 -1      2122 1.17465E-02 1.39263E-04-6.21267E-14
 -1      2123 1.19156E-02 2.26602E-04-6.25153E-14
 -1      2124 1.08078E-02-2.73157E-04-6.04221E-14
 -1      2125 1.08758E-02-2.42440E-04-6.05239E-14
 -1      2126 1.45257E-02 1.80807E-04-7.21096E-14
 -1      2127 1.47604E-02 4.82428E-05-7.27160E-14
 -1      2128 3.27130E-04-8.89460E-05-1.26730E-16
 -1      2129 3.29247E-04-1.02088E-04-1.22461E-16
 -1      2130 4.46327E-04-1.45053E-04-1.78270E-16
 -1      2131 4.39993E-04-1.09897E-04-1.89315E-16
 -1      2132 1.36338E-02 6.37624E-04-6.93322E-14
 -1      2133 1.38102E-02 5.52713E-04-7.00312E-14
 -1      2134 1.32913E-02 7.33475E-04-6.78778E-14
 -1      2135 1.34572E-02 6.97917E-04-6.86015E-14
 -1      2136 1.35136E-02 6.68979E-04-6.91146E-14
 -1      2137 1.29170E-02 7.14079E-04-6.61624E-14
 -1      2138 1.30833E-02 7.41467E-04-6.69448E-14
 -1      2139 1.25060E-02 5.51101E-04-6.45461E-14
 -1      2140 1.26850E-02 6.34841E-04-6.51894E-14
 -1      2141 1.21448E-02 3.52023E-04-6.31990E-14
 -1      2142 1.23242E-02 4.58732E-04-6.38701E-14
 -1      2143 1.24198E-02 5.01881E-04-6.39034E-14
 -1      2144 1.09900E-02-1.94418E-04-6.06889E-14
 -1      2145 1.11218E-02-1.42258E-04-6.09256E-14
 -1      2146 1.07743E-02-3.28039E-04-6.02249E-14
 -1      2147 1.07706E-02-3.05444E-04-6.02530E-14
 -1      2148 1.09211E-02-4.11983E-04-6.06066E-14
 -1      2149 1.08342E-02-3.70870E-04-6.03670E-14
 -1      2150 1.11895E-02-5.31053E-04-6.11177E-14
 -1      2151 1.10385E-02-4.67444E-04-6.08617E-14
 -1      2152 1.09795E-02-4.09113E-04-6.01664E-14
 -1      2153 1.16167E-02-7.59773E-04-6.20775E-14
 -1      2154 1.14170E-02-6.45615E-04-6.15974E-14
 -1      2155 1.20506E-02-1.05044E-03-6.33202E-14
 -1      2156 1.18449E-02-9.12389E-04-6.27571E-14
 -1      2157 1.24666E-02-1.32856E-03-6.45124E-14
 -1      2158 1.22659E-02-1.19299E-03-6.39252E-14
 -1      2159 1.28800E-02-1.59190E-03-6.60254E-14
 -1      2160 1.27026E-02-1.48259E-03-6.53246E-14
 -1      2161 1.32377E-02-1.72805E-03-6.75190E-14
 -1      2162 1.30823E-02-1.68242E-03-6.68283E-14
 -1      2163 1.35770E-02-1.71755E-03-6.89475E-14
 -1      2164 1.34198E-02-1.73862E-03-6.82865E-14
 -1      2165 1.39483E-02-1.57814E-03-7.03594E-14
 -1      2166 1.37694E-02-1.66116E-03-6.96944E-14
 -1      2167 1.44091E-02-1.31759E-03-7.18287E-14
 -1      2168 1.41896E-02-1.44463E-03-7.12270E-14
 -1      2169 1.48817E-02-1.06210E-03-7.28779E-14
 -1      2170 1.46414E-02-1.19419E-03-7.23520E-14
 -1      2171 1.44694E-02-1.23970E-03-7.24416E-14
 -1      2172 1.54195E-02-7.98957E-04-7.39256E-14
 -1      2173 1.51853E-02-9.12386E-04-7.34560E-14
 -1      2174 1.58764E-02-6.21075E-04-7.47089E-14
 -1      2175 1.56874E-02-6.82713E-04-7.44563E-14
 -1      2176 1.61338E-02-5.43151E-04-7.49451E-14
 -1      2177 1.60399E-02-5.71075E-04-7.48484E-14
 -1      2178 1.40650E-02 4.27740E-04-7.08520E-14
 -1      2179 1.42820E-02 3.09278E-04-7.14782E-14
 -1      2180 1.16182E-02 5.59909E-05-6.13563E-14
 -1      2181 1.61492E-02-4.95011E-04-7.55377E-14
 -1      2182 1.12274E-02-1.19400E-04-6.05739E-14
 -1      2183 6.07938E-04-2.98078E-04-1.87066E-16
 -1      2184 6.63658E-04-2.92356E-04-2.52063E-16
 -1      2185 1.58980E-02-4.40787E-04-7.52865E-14
 -1      2186 1.63043E-02-5.10661E-04-7.84243E-14
 -1      2187 1.61061E-02-5.03633E-04-7.85235E-14
 -1      2188 1.54378E-02-3.05761E-04-7.46462E-14
 -1      2189 1.47285E-02-8.02241E-04-7.86565E-14
 -1      2190 1.49121E-02-7.16233E-04-7.90258E-14
 -1      2191 1.48717E-02-8.04653E-04-7.80373E-14
 -1      2192 1.45885E-02-9.39553E-04-7.75378E-14
 -1      2193 1.61726E-02-5.19641E-04-7.55923E-14
 -1      2194 1.20405E-02 2.84460E-04-6.25470E-14
 -1      2195 1.38916E-02 4.82196E-04-7.06643E-14
 -1      2196 1.59653E-02-5.71854E-04-7.53295E-14
 -1      2197 1.49766E-02-9.66057E-04-7.35461E-14
 -1      2198 1.40400E-02-1.50477E-03-7.10487E-14
 -1      2199 1.09297E-02-2.29865E-04-6.01352E-14
 -1      2200 1.36483E-02-1.69864E-03-6.94342E-14
 -1      2201 1.48643E-02-5.22396E-05-7.34136E-14
 -1      2202 1.33200E-02-1.74785E-03-6.79217E-14
 -1      2203 1.29984E-02-1.65010E-03-6.63540E-14
 -1      2204 1.26038E-02-1.40337E-03-6.47418E-14
 -1      2205 1.21841E-02-1.10164E-03-6.33286E-14
 -1      2206 1.13093E-02-5.56393E-04-6.08960E-14
 -1      2207 1.07937E-02-3.34268E-04-5.97733E-14
 -1      2208 1.43521E-02 2.21723E-04-7.21190E-14
 -1      2209 1.07805E-02-2.89608E-04-5.98017E-14
 -1      2210 1.31781E-02 7.48606E-04-6.74515E-14
 -1      2211 1.28015E-02 6.86165E-04-6.55480E-14
 -1      2212 1.28839E-02 7.21862E-04-6.59060E-14
 -1      2213 1.26948E-02 6.46324E-04-6.49358E-14
 -1      2214 1.17552E-02-8.09301E-04-6.20484E-14
 -1      2215 1.55410E-02-7.09306E-04-7.46586E-14
 -1      2216 1.01668E-03 3.99742E-04-4.47518E-16
 -1      2217 8.72201E-04 3.63364E-04-3.27158E-16
 -1      2218 5.47741E-04-5.52763E-05-2.80768E-16
 -1      2219 5.48783E-04-7.19854E-05-2.79887E-16
 -1      2220 5.50210E-04-8.93002E-05-2.78193E-16
 -1      2221 5.52094E-04-1.07268E-04-2.75577E-16
 -1      2222 6.65244E-04-9.54574E-05-3.77899E-16
 -1      2223 5.46351E-04 8.85260E-06-2.77434E-16
 -1      2224 5.46331E-04-6.97815E-06-2.79277E-16
 -1      2225 5.47111E-04 4.08505E-05-2.71999E-16
 -1      2226 5.46608E-04 2.47825E-05-2.75116E-16
 -1      2227 6.61276E-04 1.99228E-05-3.74294E-16
 -1      2228 5.48947E-04 7.34602E-05-2.63895E-16
 -1      2229 5.47878E-04 5.69738E-05-2.68326E-16
 -1      2230 6.62609E-04 5.77649E-05-3.66474E-16
 -1      2231 5.52355E-04 1.08922E-04-2.51969E-16
 -1      2232 5.50422E-04 9.08523E-05-2.58487E-16
 -1      2233 6.65484E-04 9.72209E-05-3.54792E-16
 -1      2234 5.58255E-04 1.48250E-04-2.35556E-16
 -1      2235 5.54926E-04 1.28028E-04-2.44528E-16
 -1      2236 6.70597E-04 1.39981E-04-3.38501E-16
 -1      2237 5.68605E-04 1.93845E-04-2.11663E-16
 -1      2238 5.62756E-04 1.70128E-04-2.24728E-16
 -1      2239 6.79273E-04 1.87519E-04-3.15584E-16
 -1      2240 9.15247E-04-3.46316E-04-4.82727E-16
 -1      2241 1.05935E-03-3.79634E-04-6.34055E-16
 -1      2242 1.30217E-03 4.56678E-04-7.50824E-16
 -1      2243 1.15983E-03 4.30738E-04-5.88708E-16
 -1      2244 1.07185E-03 3.81259E-04-5.48539E-16
 -1      2245 5.88545E-04-2.37921E-04-2.32507E-16
 -1      2246 7.81362E-04-3.04760E-04-3.68602E-16
 -1      2247 8.40783E-04-2.93532E-04-4.49849E-16
 -1      2248 5.79001E-04-2.10122E-04-2.46507E-16
 -1      2249 1.62081E-02-5.14288E-04-7.63677E-14
 -1      2250 1.61593E-02-5.17736E-04-7.62442E-14
 -1      2251 1.20263E-03-4.08003E-04-8.06836E-16
 -1      2252 1.34545E-03-4.31873E-04-1.00148E-15
 -1      2253 1.11703E-03-3.60434E-04-7.40768E-16
 -1      2254 1.48764E-03-4.52094E-04-1.21825E-15
 -1      2255 1.62943E-03-4.68935E-04-1.45703E-15
 -1      2256 1.40338E-03-4.07195E-04-1.13421E-15
 -1      2257 1.77087E-03-4.83073E-04-1.71712E-15
 -1      2258 1.91206E-03-4.94722E-04-1.99885E-15
 -1      2259 1.68853E-03-4.40438E-04-1.61377E-15
 -1      2260 2.05310E-03-5.04376E-04-2.30180E-15
 -1      2261 2.19404E-03-5.12212E-04-2.62681E-15
 -1      2262 1.97273E-03-4.63502E-04-2.17883E-15
 -1      2263 2.33495E-03-5.18592E-04-2.97258E-15
 -1      2264 2.47585E-03-5.23660E-04-3.34012E-15
 -1      2265 2.25639E-03-4.79031E-04-2.82871E-15
 -1      2266 2.61682E-03-5.27678E-04-3.72816E-15
 -1      2267 2.75783E-03-5.30764E-04-4.13653E-15
 -1      2268 2.53982E-03-4.89067E-04-3.56324E-15
 -1      2269 2.89894E-03-5.33109E-04-4.56513E-15
 -1      2270 3.04013E-03-5.34804E-04-5.01346E-15
 -1      2271 2.82326E-03-4.95168E-04-4.37978E-15
 -1      2272 3.18145E-03-5.35988E-04-5.48102E-15
 -1      2273 3.32286E-03-5.36730E-04-5.96822E-15
 -1      2274 3.10684E-03-4.98507E-04-5.27519E-15
 -1      2275 3.46439E-03-5.37130E-04-6.47403E-15
 -1      2276 3.60602E-03-5.37239E-04-6.99796E-15
 -1      2277 3.39065E-03-4.99956E-04-6.24762E-15
 -1      2278 3.74777E-03-5.37126E-04-7.54038E-15
 -1      2279 3.88961E-03-5.36829E-04-8.10125E-15
 -1      2280 3.67472E-03-5.00149E-04-7.29411E-15
 -1      2281 4.03155E-03-5.36393E-04-8.67991E-15
 -1      2282 4.17358E-03-5.35844E-04-9.27662E-15
 -1      2283 3.95904E-03-4.99538E-04-8.41349E-15
 -1      2284 4.31570E-03-5.35211E-04-9.89050E-15
 -1      2285 4.45790E-03-5.34511E-04-1.05209E-14
 -1      2286 4.24361E-03-4.98431E-04-9.60423E-15
 -1      2287 4.60017E-03-5.33760E-04-1.11680E-14
 -1      2288 4.74251E-03-5.32967E-04-1.18319E-14
 -1      2289 4.52840E-03-4.97027E-04-1.08637E-14
 -1      2290 4.88492E-03-5.32137E-04-1.25109E-14
 -1      2291 5.02738E-03-5.31276E-04-1.32054E-14
 -1      2292 4.81339E-03-4.95440E-04-1.21885E-14
 -1      2293 5.16990E-03-5.30380E-04-1.39173E-14
 -1      2294 5.31248E-03-5.29452E-04-1.46450E-14
 -1      2295 5.09855E-03-4.93721E-04-1.35784E-14
 -1      2296 5.45510E-03-5.28481E-04-1.53887E-14
 -1      2297 5.59778E-03-5.27466E-04-1.61490E-14
 -1      2298 5.38387E-03-4.91869E-04-1.50324E-14
 -1      2299 5.74051E-03-5.26393E-04-1.69256E-14
 -1      2300 5.88329E-03-5.25257E-04-1.77185E-14
 -1      2301 5.66935E-03-4.89846E-04-1.65534E-14
 -1      2302 6.02612E-03-5.24040E-04-1.85278E-14
 -1      2303 6.16902E-03-5.22737E-04-1.93548E-14
 -1      2304 5.95499E-03-4.87584E-04-1.81397E-14
 -1      2305 6.31197E-03-5.21327E-04-2.01988E-14
 -1      2306 6.45500E-03-5.19801E-04-2.10579E-14
 -1      2307 6.24079E-03-4.84989E-04-1.97927E-14
 -1      2308 6.59810E-03-5.18137E-04-2.19329E-14
 -1      2309 6.74130E-03-5.16328E-04-2.28248E-14
 -1      2310 6.52681E-03-4.81952E-04-2.15103E-14
 -1      2311 6.88459E-03-5.14348E-04-2.37331E-14
 -1      2312 7.02801E-03-5.12191E-04-2.46565E-14
 -1      2313 6.81307E-03-4.78350E-04-2.32936E-14
 -1      2314 7.17154E-03-5.09831E-04-2.55955E-14
 -1      2315 7.31523E-03-5.07266E-04-2.65490E-14
 -1      2316 7.09965E-03-4.74057E-04-2.51393E-14
 -1      2317 7.45908E-03-5.04472E-04-2.75178E-14
 -1      2318 7.60314E-03-5.01450E-04-2.85010E-14
 -1      2319 7.38662E-03-4.68952E-04-2.70457E-14
 -1      2320 7.74739E-03-4.98183E-04-2.94948E-14
 -1      2321 7.89192E-03-4.94680E-04-3.05014E-14
 -1      2322 7.67410E-03-4.62941E-04-2.90064E-14
 -1      2323 8.03670E-03-4.90933E-04-3.15221E-14
 -1      2324 8.18182E-03-4.86966E-04-3.25576E-14
 -1      2325 7.96221E-03-4.55977E-04-3.10199E-14
 -1      2326 8.32726E-03-4.82791E-04-3.36057E-14
 -1      2327 8.47312E-03-4.78450E-04-3.46653E-14
 -1      2328 8.25110E-03-4.48098E-04-3.30851E-14
 -1      2329 8.61938E-03-4.73987E-04-3.57371E-14
 -1      2330 8.76617E-03-4.69475E-04-3.68202E-14
 -1      2331 8.54091E-03-4.39486E-04-3.52021E-14
 -1      2332 8.91342E-03-4.65011E-04-3.79124E-14
 -1      2333 9.06133E-03-4.60708E-04-3.90146E-14
 -1      2334 8.83181E-03-4.30544E-04-3.73633E-14
 -1      2335 9.20979E-03-4.56749E-04-4.01266E-14
 -1      2336 9.35906E-03-4.53310E-04-4.12437E-14
 -1      2337 9.12399E-03-4.22021E-04-3.95648E-14
 -1      2338 9.50898E-03-4.50700E-04-4.23687E-14
 -1      2339 9.65986E-03-4.49188E-04-4.34999E-14
 -1      2340 9.41765E-03-4.15180E-04-4.17982E-14
 -1      2341 9.81156E-03-4.49265E-04-4.46357E-14
 -1      2342 9.96442E-03-4.51349E-04-4.57762E-14
 -1      2343 9.71306E-03-4.12039E-04-4.40564E-14
 -1      2344 1.01183E-02-4.56169E-04-4.69232E-14
 -1      2345 1.02737E-02-4.64379E-04-4.80749E-14
 -1      2346 1.00108E-02-4.15701E-04-4.63373E-14
 -1      2347 1.04306E-02-4.76978E-04-4.92281E-14
 -1      2348 1.05894E-02-4.95012E-04-5.03866E-14
 -1      2349 1.03119E-02-4.30778E-04-4.86365E-14
 -1      2350 1.07506E-02-5.19701E-04-5.15473E-14
 -1      2351 1.09144E-02-5.52704E-04-5.27102E-14
 -1      2352 1.06186E-02-4.63916E-04-5.09522E-14
 -1      2353 1.10820E-02-5.95266E-04-5.38768E-14
 -1      2354 1.12531E-02-6.49878E-04-5.50461E-14
 -1      2355 1.09353E-02-5.24422E-04-5.32796E-14
 -1      2356 1.14299E-02-7.17347E-04-5.62210E-14
 -1      2357 1.16111E-02-8.00796E-04-5.74007E-14
 -1      2358 1.12693E-02-6.25031E-04-5.56216E-14
 -1      2359 1.17996E-02-8.99897E-04-5.85816E-14
 -1      2360 1.19915E-02-1.01662E-03-5.97702E-14
 -1      2361 1.16300E-02-7.81636E-04-5.79788E-14
 -1      2362 1.21900E-02-1.14761E-03-6.09674E-14
 -1      2363 1.23874E-02-1.29023E-03-6.21688E-14
 -1      2364 1.20238E-02-1.00876E-03-6.03573E-14
 -1      2365 1.25844E-02-1.43792E-03-6.33760E-14
 -1      2366 1.27750E-02-1.57443E-03-6.45900E-14
 -1      2367 1.24404E-02-1.30254E-03-6.27621E-14
 -1      2368 1.29562E-02-1.69032E-03-6.58069E-14
 -1      2369 1.31330E-02-1.76538E-03-6.70302E-14
 -1      2370 1.28502E-02-1.59984E-03-6.51909E-14
 -1      2371 1.33004E-02-1.79304E-03-6.82601E-14
 -1      2372 1.34720E-02-1.76813E-03-6.94900E-14
 -1      2373 1.32330E-02-1.76813E-03-6.76401E-14
 -1      2374 1.36432E-02-1.69276E-03-7.07237E-14
 -1      2375 1.38224E-02-1.58378E-03-7.19602E-14
 -1      2376 1.36074E-02-1.70956E-03-7.01056E-14
 -1      2377 1.40052E-02-1.44878E-03-7.32021E-14
 -1      2378 1.41881E-02-1.30240E-03-7.44457E-14
 -1      2379 1.39993E-02-1.46905E-03-7.25835E-14
 -1      2380 1.86541E-03 5.25188E-04-1.61103E-15
 -1      2381 1.72516E-03 5.12437E-04-1.36417E-15
 -1      2382 2.14552E-03 5.44475E-04-2.16821E-15
 -1      2383 2.00551E-03 5.35807E-04-1.87918E-15
 -1      2384 1.92470E-03 4.94569E-04-1.79383E-15
 -1      2385 2.42561E-03 5.57278E-04-2.80924E-15
 -1      2386 2.28555E-03 5.51581E-04-2.47832E-15
 -1      2387 2.20682E-03 5.11837E-04-2.37687E-15
 -1      2388 2.70605E-03 5.65408E-04-3.53446E-15
 -1      2389 2.56578E-03 5.61846E-04-3.16137E-15
 -1      2390 2.48879E-03 5.23165E-04-3.04296E-15
 -1      2391 2.98705E-03 5.70223E-04-4.34201E-15
 -1      2392 2.84649E-03 5.68167E-04-3.92779E-15
 -1      2393 2.77090E-03 5.30225E-04-3.79197E-15
 -1      2394 3.26869E-03 5.72734E-04-5.22966E-15
 -1      2395 3.12780E-03 5.71719E-04-4.77620E-15
 -1      2396 3.05333E-03 5.34274E-04-4.62255E-15
 -1      2397 3.55095E-03 5.73688E-04-6.19466E-15
 -1      2398 3.40975E-03 5.73371E-04-5.70250E-15
 -1      2399 3.33616E-03 5.36250E-04-5.53164E-15
 -1      2400 3.83382E-03 5.73619E-04-7.23572E-15
 -1      2401 3.69232E-03 5.73756E-04-6.70557E-15
 -1      2402 3.61942E-03 5.36837E-04-6.51745E-15
 -1      2403 4.11722E-03 5.72904E-04-8.35427E-15
 -1      2404 3.97546E-03 5.73325E-04-7.78510E-15
 -1      2405 3.90308E-03 5.36524E-04-7.57945E-15
 -1      2406 4.40108E-03 5.71791E-04-9.55159E-15
 -1      2407 4.25910E-03 5.72385E-04-8.94287E-15
 -1      2408 4.18711E-03 5.35651E-04-8.71850E-15
 -1      2409 4.68533E-03 5.70436E-04-1.08233E-14
 -1      2410 4.54316E-03 5.71137E-04-1.01782E-14
 -1      2411 4.47148E-03 5.34438E-04-9.93490E-15
 -1      2412 4.96992E-03 5.68921E-04-1.21682E-14
 -1      2413 4.82759E-03 5.69695E-04-1.14871E-14
 -1      2414 4.75613E-03 5.33018E-04-1.12259E-14
 -1      2415 5.25480E-03 5.67271E-04-1.35829E-14
 -1      2416 5.11233E-03 5.68112E-04-1.28675E-14
 -1      2417 5.04103E-03 5.31455E-04-1.25878E-14
 -1      2418 5.53993E-03 5.65469E-04-1.50681E-14
 -1      2419 5.39733E-03 5.66389E-04-1.43157E-14
 -1      2420 5.32615E-03 5.29762E-04-1.40190E-14
 -1      2421 5.82530E-03 5.63466E-04-1.66254E-14
 -1      2422 5.68259E-03 5.64495E-04-1.58385E-14
 -1      2423 5.61147E-03 5.27912E-04-1.55212E-14
 -1      2424 6.11093E-03 5.61191E-04-1.82530E-14
 -1      2425 5.96808E-03 5.62366E-04-1.74306E-14
 -1      2426 5.89699E-03 5.25846E-04-1.70965E-14
 -1      2427 6.39684E-03 5.58556E-04-1.99451E-14
 -1      2428 6.25384E-03 5.59922E-04-1.90914E-14
 -1      2429 6.18272E-03 5.23487E-04-1.87397E-14
 -1      2430 6.68309E-03 5.55468E-04-2.17035E-14
 -1      2431 6.53991E-03 5.57072E-04-2.08168E-14
 -1      2432 6.46870E-03 5.20743E-04-2.04490E-14
 -1      2433 6.96979E-03 5.51840E-04-2.35199E-14
 -1      2434 6.82638E-03 5.53724E-04-2.26037E-14
 -1      2435 6.75498E-03 5.17519E-04-2.22195E-14
 -1      2436 7.25705E-03 5.47606E-04-2.53940E-14
 -1      2437 7.11333E-03 5.49799E-04-2.44489E-14
 -1      2438 7.04164E-03 5.13727E-04-2.40481E-14
 -1      2439 7.54505E-03 5.42743E-04-2.73284E-14
 -1      2440 7.40094E-03 5.45250E-04-2.63540E-14
 -1      2441 7.32879E-03 5.09305E-04-2.59365E-14
 -1      2442 7.83398E-03 5.37300E-04-2.93106E-14
 -1      2443 7.68937E-03 5.40085E-04-2.83140E-14
 -1      2444 7.61657E-03 5.04237E-04-2.78817E-14
 -1      2445 8.12411E-03 5.31442E-04-3.13404E-14
 -1      2446 7.97887E-03 5.34406E-04-3.03201E-14
 -1      2447 7.90516E-03 4.98588E-04-2.98751E-14
 -1      2448 8.41571E-03 5.25497E-04-3.34113E-14
 -1      2449 8.26969E-03 5.28452E-04-3.23714E-14
 -1      2450 8.19476E-03 4.92544E-04-3.19140E-14
 -1      2451 8.70911E-03 5.20030E-04-3.55187E-14
 -1      2452 8.56215E-03 5.22660E-04-3.44598E-14
 -1      2453 8.48564E-03 4.86468E-04-3.39939E-14
 -1      2454 9.00464E-03 5.15914E-04-3.76605E-14
 -1      2455 8.85658E-03 5.17740E-04-3.65865E-14
 -1      2456 8.77809E-03 4.80971E-04-3.61107E-14
 -1      2457 9.30264E-03 5.14416E-04-3.98312E-14
 -1      2458 9.15331E-03 5.14752E-04-3.87414E-14
 -1      2459 9.07244E-03 4.76984E-04-3.82601E-14
 -1      2460 9.60336E-03 5.17257E-04-4.20331E-14
 -1      2461 9.45265E-03 5.15182E-04-4.09279E-14
 -1      2462 9.36906E-03 4.75845E-04-4.04387E-14
 -1      2463 9.90698E-03 5.26634E-04-4.42686E-14
 -1      2464 9.75483E-03 5.20992E-04-4.31467E-14
 -1      2465 9.66833E-03 4.79362E-04-4.26503E-14
 -1      2466 1.02135E-02 5.45124E-04-4.65427E-14
 -1      2467 1.00599E-02 5.34588E-04-4.54013E-14
 -1      2468 9.97063E-03 4.89818E-04-4.48958E-14
 -1      2469 1.05224E-02 5.75394E-04-4.88455E-14
 -1      2470 1.03678E-02 5.58646E-04-4.76903E-14
 -1      2471 1.02762E-02 5.09877E-04-4.71765E-14
 -1      2472 1.08330E-02 6.19586E-04-5.11844E-14
 -1      2473 1.06777E-02 5.95669E-04-5.00095E-14
 -1      2474 1.05852E-02 5.42268E-04-4.94874E-14
 -1      2475 1.11434E-02 6.78270E-04-5.35586E-14
 -1      2476 1.09885E-02 6.47174E-04-5.23677E-14
 -1      2477 1.08972E-02 5.89141E-04-5.18324E-14
 -1      2478 1.14512E-02 7.48959E-04-5.59674E-14
 -1      2479 1.12980E-02 7.12417E-04-5.47588E-14
 -1      2480 1.12107E-02 6.50943E-04-5.42111E-14
 -1      2481 1.17529E-02 8.24472E-04-5.84094E-14
 -1      2482 1.16032E-02 7.86767E-04-5.71856E-14
 -1      2483 1.15233E-02 7.24769E-04-5.66252E-14
 -1      2484 1.20449E-02 8.91938E-04-6.08764E-14
 -1      2485 1.19003E-02 8.60207E-04-5.96396E-14
 -1      2486 1.18310E-02 8.02472E-04-5.90656E-14
 -1      2487 1.23249E-02 9.33755E-04-6.33654E-14
 -1      2488 1.21863E-02 9.17236E-04-6.21181E-14
 -1      2489 1.21295E-02 8.69607E-04-6.15308E-14
 -1      2490 1.25937E-02 9.31489E-04-6.58767E-14
 -1      2491 1.24603E-02 9.39146E-04-6.46186E-14
 -1      2492 1.24161E-02 9.06702E-04-6.40212E-14
 -1      2493 1.28552E-02 8.71964E-04-6.84053E-14
 -1      2494 1.27247E-02 9.09337E-04-6.71398E-14
 -1      2495 1.26916E-02 8.94262E-04-6.65345E-14
 -1      2496 1.31154E-02 7.52489E-04-7.09456E-14
 -1      2497 1.29848E-02 8.19436E-04-6.96723E-14
 -1      2498 1.29608E-02 8.20097E-04-6.90635E-14
 -1      2499 1.33794E-02 5.81965E-04-7.34998E-14
 -1      2500 1.32464E-02 6.72678E-04-7.22215E-14
 -1      2501 1.32298E-02 6.84534E-04-7.16079E-14
 -1      2502 1.36501E-02 3.78005E-04-7.60623E-14
 -1      2503 1.35137E-02 4.82891E-04-7.47815E-14
 -1      2504 1.35031E-02 5.00080E-04-7.41658E-14
 -1      2505 1.37959E-02 2.64953E-04-7.73904E-14
 -1      2506 1.45468E-02-9.12934E-05-7.69096E-14
 -1      2507 1.43883E-02-2.75922E-05-7.68871E-14
 -1      2508 1.49433E-02-2.36680E-04-7.69483E-14
 -1      2509 1.47298E-02-1.63250E-04-7.69280E-14
 -1      2510 1.44706E-02-1.77428E-05-7.58033E-14
 -1      2511 1.40359E-02 1.39814E-04-7.68035E-14
 -1      2512 1.39481E-02 1.88356E-04-7.67748E-14
 -1      2513 1.42535E-02 3.27492E-05-7.68645E-14
 -1      2514 1.41362E-02 8.79358E-05-7.68332E-14
 -1      2515 1.39490E-02 2.20353E-04-7.57042E-14
 -1      2516 1.41688E-02 1.14601E-04-7.57584E-14
 -1      2517 1.49697E-02-8.17392E-04-7.72098E-14
 -1      2518 1.51849E-02-7.43321E-04-7.72175E-14
 -1      2519 1.53804E-02-3.71161E-04-7.69817E-14
 -1      2520 1.51518E-02-3.07193E-04-7.69645E-14
 -1      2521 1.48615E-02-1.74040E-04-7.58426E-14
 -1      2522 1.58996E-02-4.87955E-04-7.73122E-14
 -1      2523 1.56733E-02-4.48327E-04-7.73032E-14
 -1      2524 1.59608E-02-5.32492E-04-7.77132E-14
 -1      2525 1.61470E-02-5.08224E-04-7.79199E-14
 -1      2526 1.52689E-02-2.76292E-04-7.48938E-14
 -1      2527 1.55463E-02-3.74374E-04-7.54613E-14
 -1      2528 1.54605E-02-6.47465E-04-7.74642E-14
 -1      2529 1.56998E-02-5.87356E-04-7.74706E-14
 -1      2530 1.57668E-02-5.85393E-04-7.68690E-14
 -1      2531 1.51791E-02-7.72165E-04-7.63796E-14
 -1      2532 1.58463E-03 4.97005E-04-1.13876E-15
 -1      2533 1.44367E-03 4.78679E-04-9.34203E-16
 -1      2534 1.64195E-03 4.69148E-04-1.29496E-15
 -1      2535 1.11203E-02-1.66269E-04-5.97989E-14
 -1      2536 1.12896E-02-1.00063E-04-6.00712E-14
 -1      2537 1.19385E-02 2.25309E-04-6.18065E-14
 -1      2538 1.21384E-02 3.43213E-04-6.24872E-14
 -1      2539 1.40834E-02-1.44687E-03-7.16983E-14
 -1      2540 1.38831E-02-1.57711E-03-7.08292E-14
 -1      2541 1.08167E-02-3.30033E-04-5.91760E-14
 -1      2542 1.07591E-02-3.08958E-04-5.90366E-14
 -1      2543 1.37628E-02 5.24680E-04-7.05686E-14
 -1      2544 1.39730E-02 3.99379E-04-7.13896E-14
 -1      2545 1.58483E-02-4.55046E-04-7.59424E-14
 -1      2546 1.60126E-02-4.82166E-04-7.60162E-14
 -1      2547 1.61336E-02-5.01450E-04-7.61021E-14
 -1      2548 1.61984E-02-5.07289E-04-7.62780E-14
 -1      2549 1.62312E-02-5.12592E-04-7.69310E-14
 -1      2550 1.61094E-02-5.04334E-04-7.67567E-14
 -1      2551 1.34002E-02-1.75851E-03-6.84267E-14
 -1      2552 1.32619E-02-1.75242E-03-6.76614E-14
 -1      2553 5.46546E-04-2.28914E-05-2.80266E-16
 -1      2554 5.47006E-04-3.89254E-05-2.80781E-16
 -1      2555 6.62459E-04-5.57953E-05-3.80148E-16
 -1      2556 6.61223E-04-1.76990E-05-3.78807E-16
 -1      2557 1.34113E-02 6.97374E-04-6.88685E-14
 -1      2558 1.35486E-02 6.35460E-04-6.95971E-14
 -1      2559 1.19027E-02-8.73408E-04-6.19796E-14
 -1      2560 1.16898E-02-7.35964E-04-6.13055E-14
 -1      2561 1.23516E-02 4.66513E-04-6.33333E-14
 -1      2562 1.25035E-02 5.54651E-04-6.40067E-14
 -1      2563 1.37092E-02-1.66806E-03-6.99993E-14
 -1      2564 1.35606E-02-1.72822E-03-6.92533E-14
 -1      2565 1.34781E-02-1.74979E-03-6.89915E-14
 -1      2566 1.37814E-02-1.62450E-03-7.06480E-14
 -1      2567 1.30820E-02 7.55838E-04-6.70238E-14
 -1      2568 1.32426E-02 7.43060E-04-6.79557E-14
 -1      2569 1.60574E-02-5.34847E-04-7.62922E-14
 -1      2570 1.59066E-02-5.61756E-04-7.61495E-14
 -1      2571 1.42138E-02 2.59869E-04-7.21857E-14
 -1      2572 1.44259E-02 1.34614E-04-7.28190E-14
 -1      2573 1.10349E-02-4.10392E-04-5.97535E-14
 -1      2574 1.09244E-02-3.71325E-04-5.95017E-14
 -1      2575 1.14158E-02-5.82158E-04-6.06020E-14
 -1      2576 1.12073E-02-4.83445E-04-6.01281E-14
 -1      2577 1.22908E-02-1.15487E-03-6.33089E-14
 -1      2578 1.21031E-02-1.01693E-03-6.27074E-14
 -1      2579 1.27119E-02-1.47171E-03-6.49005E-14
 -1      2580 1.25149E-02-1.32107E-03-6.40921E-14
 -1      2581 1.30460E-02-1.68193E-03-6.64973E-14
 -1      2582 1.28875E-02-1.59010E-03-6.56977E-14
 -1      2583 1.27789E-02-1.52096E-03-6.50447E-14
 -1      2584 1.46902E-02-5.84633E-06-7.35060E-14
 -1      2585 1.49596E-02-1.41122E-04-7.41683E-14
 -1      2586 1.08704E-02-2.50854E-04-5.95246E-14
 -1      2587 1.09766E-02-2.18401E-04-5.96887E-14
 -1      2588 1.45634E-02-1.14581E-03-7.32326E-14
 -1      2589 1.43684E-02-1.26622E-03-7.27067E-14
 -1      2590 1.50972E-02-8.65090E-04-7.43956E-14
 -1      2591 1.48245E-02-1.00414E-03-7.38144E-14
 -1      2592 1.47094E-02-1.04368E-03-7.40802E-14
 -1      2593 1.07597E-02-2.88664E-04-5.91847E-14
 -1      2594 1.07993E-02-2.75321E-04-5.93545E-14
 -1      2595 1.08246E-02-2.58054E-04-5.89065E-14
 -1      2596 7.57951E-04 3.34164E-04-2.41452E-16
 -1      2597 6.11523E-04 2.84811E-04-1.58646E-16
 -1      2598 5.84793E-04 2.58041E-04-1.64948E-16
 -1      2599 8.13771E-04 3.22831E-04-3.16668E-16
 -1      2600 1.15169E-02 2.81194E-06-6.05990E-14
 -1      2601 1.17088E-02 9.99881E-05-6.11062E-14
 -1      2602 1.36432E-02 5.70095E-04-7.03204E-14
 -1      2603 6.70223E-04-1.37908E-04-3.70851E-16
 -1      2604 5.54609E-04-1.26164E-04-2.71606E-16
 -1      2605 5.57775E-04-1.46158E-04-2.66226E-16
 -1      2606 1.13747E-02-5.03789E-05-5.98206E-14
 -1      2607 1.29702E-02 7.49430E-04-6.64085E-14
 -1      2608 1.30355E-02 7.59310E-04-6.69090E-14
 -1      2609 1.28652E-02 7.30834E-04-6.57934E-14
 -1      2610 5.72285E-04 2.27843E-04-1.84897E-16
 -1      2611 5.71841E-04-1.85149E-04-2.57471E-16
 -1      2612 1.43184E-02-1.18909E-03-7.54331E-14
 -1      2613 1.44714E-02-1.05375E-03-7.65478E-14
 -1      2614 1.46059E-02-9.83282E-04-7.67964E-14
 -1      2615 1.43429E-02-1.20591E-03-7.48162E-14
 -1      2616 1.37896E-02 2.81203E-04-7.67761E-14
 -1      2617 1.35790E-03 4.32658E-04-8.80033E-16
 -1      2618 1.38335E-02 2.57360E-04-7.66606E-14
 -1      2619 1.60205E-02-5.05117E-04-7.73896E-14
 -1      2620 1.58471E-02-4.66982E-04-7.65926E-14
 -1      2621 1.61371E-02-5.18108E-04-7.70648E-14
 -1      2622 1.62337E-02-5.08306E-04-7.78763E-14
 -1      2623 1.61604E-02-5.17193E-04-7.73928E-14
 -1      2624 1.31425E-02-1.72648E-03-6.70026E-14
 -1      2625 1.18087E-02 1.68403E-04-6.10426E-14
 -1      2626 1.24119E-02-1.23963E-03-6.34682E-14
 -1      2627 1.51020E-02-2.26012E-04-7.49891E-14
 -1      2628 1.10291E-02-1.91205E-04-5.91863E-14
 -1      2629 1.15499E-02-6.43357E-04-6.05386E-14
 -1      2630 1.14188E-02-5.71331E-04-5.97707E-14
 -1      2631 1.16677E-02-7.10952E-04-6.04681E-14
 -1      2632 1.22256E-02 4.09081E-04-6.25862E-14
 -1      2633 1.47514E-02-9.11851E-04-7.70455E-14
 -1      2634 1.11215E-02-4.36739E-04-5.94614E-14
 -1      2635 1.40658E-02 3.19110E-04-7.20904E-14
 -1      2636 1.32943E-02 7.23974E-04-6.84376E-14
 -1      2637 1.46754E-02-9.94574E-04-7.59679E-14
 -1      2638 1.07416E-02-2.91776E-04-5.85887E-14
 -1      2639 1.08482E-02-3.34691E-04-5.87637E-14
 -1      2640 1.41981E-02-1.36048E-03-7.24861E-14
 -1      2641 1.37460E-02 3.32961E-04-7.55616E-14
 -1      2642 1.62617E-02-5.11085E-04-7.75659E-14
 -1      2643 1.20047E-02-9.34965E-04-6.19605E-14
 -1      2644 1.26017E-02 6.16789E-04-6.43606E-14
 -1      2645 6.89569E-04 2.51188E-04-2.70102E-16
 -1      2646 1.45437E-02 4.38484E-05-7.35752E-14
 -1      2647 1.56380E-02-6.41390E-04-7.55721E-14
 -1      2648 1.53822E-02-7.35728E-04-7.50416E-14
 -1      2649 1.52343E-02-7.80804E-04-7.53090E-14
 -1      2650 7.80138E-04 7.73105E-05-4.75246E-16
 -1      2651 7.78872E-04 5.54550E-05-4.81304E-16
 -1      2652 7.78022E-04 3.35495E-05-4.86305E-16
 -1      2653 7.77597E-04 1.18919E-05-4.90154E-16
 -1      2654 8.96424E-04 4.96667E-05-6.12710E-16
 -1      2655 7.91521E-04 1.73087E-04-4.37584E-16
 -1      2656 7.87501E-04 1.47675E-04-4.49388E-16
 -1      2657 8.03409E-04 2.28281E-04-4.07294E-16
 -1      2658 7.96775E-04 1.99892E-04-4.23828E-16
 -1      2659 9.14829E-04 2.07783E-04-5.49081E-16
 -1      2660 1.12986E-03 3.61895E-04-6.54519E-16
 -1      2661 9.86255E-04 3.32831E-04-5.06065E-16
 -1      2662 1.45333E-02-1.10302E-03-7.49769E-14
 -1      2663 1.03375E-03-3.14183E-04-6.74645E-16
 -1      2664 1.17698E-03-3.40300E-04-8.51451E-16
 -1      2665 1.32018E-03-3.62705E-04-1.04971E-15
 -1      2666 1.46341E-03-3.81688E-04-1.26980E-15
 -1      2667 1.23842E-03-3.19023E-04-9.66187E-16
 -1      2668 1.60646E-03-3.97775E-04-1.51067E-15
 -1      2669 1.74939E-03-4.11191E-04-1.77286E-15
 -1      2670 1.52499E-03-3.55363E-04-1.40824E-15
 -1      2671 1.89217E-03-4.22407E-04-2.05638E-15
 -1      2672 2.03482E-03-4.31611E-04-2.36050E-15
 -1      2673 1.81167E-03-3.81280E-04-1.93451E-15
 -1      2674 2.17738E-03-4.39178E-04-2.68631E-15
 -1      2675 2.31985E-03-4.45262E-04-3.03303E-15
 -1      2676 2.09813E-03-3.99153E-04-2.54476E-15
 -1      2677 2.46227E-03-4.50153E-04-3.39968E-15
 -1      2678 2.60463E-03-4.53973E-04-3.78752E-15
 -1      2679 2.38431E-03-4.11009E-04-3.23783E-15
 -1      2680 2.74699E-03-4.56941E-04-4.19600E-15
 -1      2681 2.88932E-03-4.59153E-04-4.62332E-15
 -1      2682 2.67025E-03-4.18471E-04-4.01296E-15
 -1      2683 3.03167E-03-4.60770E-04-5.07020E-15
 -1      2684 3.17402E-03-4.61866E-04-5.53674E-15
 -1      2685 2.95603E-03-4.22798E-04-4.86725E-15
 -1      2686 3.31640E-03-4.62559E-04-6.02212E-15
 -1      2687 3.45879E-03-4.62903E-04-6.52664E-15
 -1      2688 3.24169E-03-4.24948E-04-5.79861E-15
 -1      2689 3.60122E-03-4.62983E-04-7.04940E-15
 -1      2690 3.74366E-03-4.62838E-04-7.59009E-15
 -1      2691 3.52730E-03-4.25629E-04-6.80569E-15
 -1      2692 3.88614E-03-4.62526E-04-8.14934E-15
 -1      2693 4.02865E-03-4.62074E-04-8.72575E-15
 -1      2694 3.81288E-03-4.25352E-04-7.88601E-15
 -1      2695 4.17119E-03-4.61521E-04-9.32032E-15
 -1      2696 4.31376E-03-4.60885E-04-9.93220E-15
 -1      2697 4.09846E-03-4.24475E-04-9.03817E-15
 -1      2698 4.45636E-03-4.60189E-04-1.05612E-14
 -1      2699 4.59898E-03-4.59443E-04-1.12064E-14
 -1      2700 4.38405E-03-4.23237E-04-1.02600E-14
 -1      2701 4.74163E-03-4.58658E-04-1.18681E-14
 -1      2702 4.88430E-03-4.57841E-04-1.25455E-14
 -1      2703 4.66965E-03-4.21783E-04-1.15488E-14
 -1      2704 5.02701E-03-4.56993E-04-1.32400E-14
 -1      2705 5.16973E-03-4.56115E-04-1.39510E-14
 -1      2706 4.95528E-03-4.20189E-04-1.29031E-14
 -1      2707 5.31248E-03-4.55203E-04-1.46778E-14
 -1      2708 5.45526E-03-4.54255E-04-1.54212E-14
 -1      2709 5.24094E-03-4.18476E-04-1.43239E-14
 -1      2710 5.59806E-03-4.53260E-04-1.61812E-14
 -1      2711 5.74088E-03-4.52213E-04-1.69585E-14
 -1      2712 5.52663E-03-4.16626E-04-1.58108E-14
 -1      2713 5.88373E-03-4.51101E-04-1.77517E-14
 -1      2714 6.02660E-03-4.49916E-04-1.85609E-14
 -1      2715 5.81235E-03-4.14584E-04-1.73642E-14
 -1      2716 6.16950E-03-4.48642E-04-1.93873E-14
 -1      2717 6.31244E-03-4.47269E-04-2.02310E-14
 -1      2718 6.09812E-03-4.12274E-04-1.89840E-14
 -1      2719 6.45540E-03-4.45777E-04-2.10893E-14
 -1      2720 6.59841E-03-4.44158E-04-2.19634E-14
 -1      2721 6.38393E-03-4.09598E-04-2.06690E-14
 -1      2722 6.74145E-03-4.42389E-04-2.28557E-14
 -1      2723 6.88455E-03-4.40462E-04-2.37630E-14
 -1      2724 6.66980E-03-4.06445E-04-2.24183E-14
 -1      2725 7.02768E-03-4.38355E-04-2.46848E-14
 -1      2726 7.17088E-03-4.36059E-04-2.56220E-14
 -1      2727 6.95571E-03-4.02697E-04-2.42318E-14
 -1      2728 7.31413E-03-4.33555E-04-2.65740E-14
 -1      2729 7.45745E-03-4.30838E-04-2.75408E-14
 -1      2730 7.24168E-03-3.98241E-04-2.61052E-14
 -1      2731 7.60083E-03-4.27892E-04-2.85206E-14
 -1      2732 7.74431E-03-4.24717E-04-2.95129E-14
 -1      2733 7.52769E-03-3.92977E-04-2.80349E-14
 -1      2734 7.88784E-03-4.21309E-04-3.05181E-14
 -1      2735 8.03149E-03-4.17673E-04-3.15357E-14
 -1      2736 7.81372E-03-3.86844E-04-3.00180E-14
 -1      2737 8.17519E-03-4.13825E-04-3.25697E-14
 -1      2738 8.31903E-03-4.09780E-04-3.36153E-14
 -1      2739 8.09972E-03-3.79849E-04-3.20550E-14
 -1      2740 8.46292E-03-4.05582E-04-3.46707E-14
 -1      2741 8.60694E-03-4.01265E-04-3.57392E-14
 -1      2742 8.38561E-03-3.72105E-04-3.41431E-14
 -1      2743 8.75101E-03-3.96918E-04-3.68183E-14
 -1      2744 8.89522E-03-3.92599E-04-3.79074E-14
 -1      2745 8.67124E-03-3.63895E-04-3.62755E-14
 -1      2746 9.03945E-03-3.88463E-04-3.90055E-14
 -1      2747 9.18384E-03-3.84607E-04-4.01128E-14
 -1      2748 8.95644E-03-3.55753E-04-3.84500E-14
 -1      2749 9.32821E-03-3.81279E-04-4.12300E-14
 -1      2750 9.47275E-03-3.78633E-04-4.23517E-14
 -1      2751 9.24096E-03-3.48576E-04-4.06627E-14
 -1      2752 9.61727E-03-3.77044E-04-4.34787E-14
 -1      2753 9.76203E-03-3.76755E-04-4.46116E-14
 -1      2754 9.52452E-03-3.43759E-04-4.29032E-14
 -1      2755 9.90685E-03-3.78298E-04-4.57513E-14
 -1      2756 1.00521E-02-3.82064E-04-4.68964E-14
 -1      2757 9.80700E-03-3.43372E-04-4.51674E-14
 -1      2758 1.01977E-02-3.88749E-04-4.80464E-14
 -1      2759 1.03441E-02-3.99014E-04-4.92005E-14
 -1      2760 1.00887E-02-3.50359E-04-4.74554E-14
 -1      2761 1.04916E-02-4.13669E-04-5.03580E-14
 -1      2762 1.06409E-02-4.33891E-04-5.15185E-14
 -1      2763 1.03707E-02-3.68793E-04-4.97633E-14
 -1      2764 1.07928E-02-4.60460E-04-5.26825E-14
 -1      2765 1.09483E-02-4.95553E-04-5.38493E-14
 -1      2766 1.06566E-02-4.04290E-04-5.20847E-14
 -1      2767 1.11091E-02-5.39841E-04-5.50206E-14
 -1      2768 1.12763E-02-5.97056E-04-5.61981E-14
 -1      2769 1.09534E-02-4.64981E-04-5.44206E-14
 -1      2770 1.14531E-02-6.66889E-04-5.73770E-14
 -1      2771 1.16392E-02-7.56258E-04-5.85590E-14
 -1      2772 1.12745E-02-5.64417E-04-5.67722E-14
 -1      2773 1.27885E-02-1.54442E-03-6.49057E-14
 -1      2774 1.29982E-02-1.67277E-03-6.61268E-14
 -1      2775 1.38643E-02-1.56679E-03-7.14106E-14
 -1      2776 1.40785E-02-1.42136E-03-7.26517E-14
 -1      2777 2.26928E-03 4.78563E-04-2.58833E-15
 -1      2778 2.12745E-03 4.71704E-04-2.27410E-15
 -1      2779 1.07790E-02-2.56827E-04-5.82312E-14
 -1      2780 1.08459E-02-2.40230E-04-5.84018E-14
 -1      2781 1.98553E-03 4.63224E-04-1.98059E-15
 -1      2782 1.84347E-03 4.52961E-04-1.70748E-15
 -1      2783 2.04767E-03 4.31296E-04-2.17056E-15
 -1      2784 2.83636E-03 4.94585E-04-4.05188E-15
 -1      2785 2.69459E-03 4.91960E-04-3.65558E-15
 -1      2786 3.12005E-03 4.97951E-04-4.90456E-15
 -1      2787 2.97819E-03 4.96555E-04-4.46836E-15
 -1      2788 2.90245E-03 4.58577E-04-4.31407E-15
 -1      2789 3.40395E-03 4.99463E-04-5.83533E-15
 -1      2790 3.26198E-03 4.98900E-04-5.36058E-15
 -1      2791 3.18724E-03 4.61324E-04-5.18875E-15
 -1      2792 3.68809E-03 4.99745E-04-6.84170E-15
 -1      2793 3.54599E-03 4.99730E-04-6.32903E-15
 -1      2794 3.47208E-03 4.62431E-04-6.14074E-15
 -1      2795 3.97248E-03 4.99241E-04-7.92468E-15
 -1      2796 3.83026E-03 4.99572E-04-7.37342E-15
 -1      2797 3.75702E-03 4.62458E-04-7.16786E-15
 -1      2798 4.25710E-03 4.98252E-04-9.08437E-15
 -1      2799 4.11477E-03 4.98794E-04-8.49457E-15
 -1      2800 4.04206E-03 4.61805E-04-8.27122E-15
 -1      2801 4.54193E-03 4.96974E-04-1.03199E-14
 -1      2802 4.39949E-03 4.97641E-04-9.69285E-15
 -1      2803 4.32721E-03 4.60736E-04-9.45090E-15
 -1      2804 4.82695E-03 4.95517E-04-1.16278E-14
 -1      2805 4.68442E-03 4.96263E-04-1.09650E-14
 -1      2806 4.61246E-03 4.59421E-04-1.07052E-14
 -1      2807 5.11214E-03 4.93929E-04-1.30073E-14
 -1      2808 4.96953E-03 4.94738E-04-1.23089E-14
 -1      2809 4.89782E-03 4.57951E-04-1.20310E-14
 -1      2810 5.39748E-03 4.92212E-04-1.44552E-14
 -1      2811 5.25479E-03 4.93088E-04-1.37232E-14
 -1      2812 5.18326E-03 4.56359E-04-1.34275E-14
 -1      2813 5.68296E-03 4.90329E-04-1.59764E-14
 -1      2814 5.54020E-03 4.91294E-04-1.52064E-14
 -1      2815 5.46879E-03 4.54635E-04-1.48931E-14
 -1      2816 5.96860E-03 4.88216E-04-1.75681E-14
 -1      2817 5.82576E-03 4.89305E-04-1.67637E-14
 -1      2818 5.75441E-03 4.52736E-04-1.64317E-14
 -1      2819 6.25440E-03 4.85789E-04-1.92270E-14
 -1      2820 6.11147E-03 4.87046E-04-1.83887E-14
 -1      2821 6.04012E-03 4.50592E-04-1.80397E-14
 -1      2822 6.54039E-03 4.82955E-04-2.09514E-14
 -1      2823 6.39736E-03 4.84428E-04-2.00820E-14
 -1      2824 6.32594E-03 4.48116E-04-1.97159E-14
 -1      2825 6.82661E-03 4.79616E-04-2.27349E-14
 -1      2826 6.68346E-03 4.81353E-04-2.18359E-14
 -1      2827 6.61188E-03 4.45213E-04-2.14534E-14
 -1      2828 7.11314E-03 4.75688E-04-2.45762E-14
 -1      2829 6.96983E-03 4.77729E-04-2.36485E-14
 -1      2830 6.89798E-03 4.41787E-04-2.32498E-14
 -1      2831 7.40006E-03 4.71110E-04-2.64786E-14
 -1      2832 7.25654E-03 4.73481E-04-2.55193E-14
 -1      2833 7.18427E-03 4.37753E-04-2.51049E-14
 -1      2834 7.68748E-03 4.65878E-04-2.84342E-14
 -1      2835 7.54369E-03 4.68573E-04-2.74496E-14
 -1      2836 7.47083E-03 4.33058E-04-2.70187E-14
 -1      2837 7.97553E-03 4.60067E-04-3.04391E-14
 -1      2838 7.83141E-03 4.63036E-04-2.94314E-14
 -1      2839 7.75773E-03 4.27704E-04-2.89876E-14
 -1      2840 8.26441E-03 4.53885E-04-3.24882E-14
 -1      2841 8.11985E-03 4.57005E-04-3.14582E-14
 -1      2842 8.04508E-03 4.21779E-04-3.10032E-14
 -1      2843 8.55435E-03 4.47722E-04-3.45760E-14
 -1      2844 8.40922E-03 4.50771E-04-3.35276E-14
 -1      2845 8.33303E-03 4.15503E-04-3.30606E-14
 -1      2846 8.84562E-03 4.42220E-04-3.67031E-14
 -1      2847 8.69979E-03 4.44841E-04-3.56351E-14
 -1      2848 8.62181E-03 4.09284E-04-3.51609E-14
 -1      2849 9.13859E-03 4.38356E-04-3.88606E-14
 -1      2850 8.99186E-03 4.40013E-04-3.77787E-14
 -1      2851 8.91170E-03 4.03787E-04-3.72964E-14
 -1      2852 9.43371E-03 4.37515E-04-4.10486E-14
 -1      2853 9.28584E-03 4.37459E-04-3.99493E-14
 -1      2854 9.20313E-03 4.00006E-04-3.94614E-14
 -1      2855 9.73153E-03 4.41560E-04-4.32670E-14
 -1      2856 9.58225E-03 4.38795E-04-4.21540E-14
 -1      2857 9.49667E-03 3.99352E-04-4.16575E-14
 -1      2858 1.00327E-02 4.52837E-04-4.55227E-14
 -1      2859 9.88169E-03 4.46129E-04-4.43910E-14
 -1      2860 9.79311E-03 4.03714E-04-4.38863E-14
 -1      2861 1.03380E-02 4.74089E-04-4.78098E-14
 -1      2862 1.01849E-02 4.62026E-04-4.66621E-14
 -1      2863 1.00935E-02 4.15485E-04-4.61485E-14
 -1      2864 1.06479E-02 5.08146E-04-5.01278E-14
 -1      2865 1.04924E-02 4.89326E-04-4.89656E-14
 -1      2866 1.03989E-02 4.37499E-04-4.84443E-14
 -1      2867 1.09624E-02 5.57282E-04-5.24808E-14
 -1      2868 1.08047E-02 5.30704E-04-5.12997E-14
 -1      2869 1.07106E-02 4.72772E-04-5.07702E-14
 -1      2870 1.12806E-02 6.22002E-04-5.48628E-14
 -1      2871 1.11214E-02 5.87741E-04-5.36672E-14
 -1      2872 1.10290E-02 5.23864E-04-5.31265E-14
 -1      2873 1.15997E-02 6.99183E-04-5.72772E-14
 -1      2874 1.14404E-02 6.59429E-04-5.60664E-14
 -1      2875 1.13533E-02 5.91620E-04-5.55125E-14
 -1      2876 1.19148E-02 7.79818E-04-5.97188E-14
 -1      2877 1.17582E-02 7.40009E-04-5.84961E-14
 -1      2878 1.16802E-02 6.72880E-04-5.79287E-14
 -1      2879 1.22207E-02 8.47395E-04-6.21860E-14
 -1      2880 1.20693E-02 8.16602E-04-6.09495E-14
 -1      2881 1.20037E-02 7.57342E-04-6.03699E-14
 -1      2882 1.25138E-02 8.80004E-04-6.46767E-14
 -1      2883 1.23687E-02 8.69664E-04-6.34282E-14
 -1      2884 1.23170E-02 8.26108E-04-6.28389E-14
 -1      2885 1.27954E-02 8.56557E-04-6.71905E-14
 -1      2886 1.26553E-02 8.76397E-04-6.59301E-14
 -1      2887 1.26161E-02 8.53598E-04-6.53302E-14
 -1      2888 1.30716E-02 7.66142E-04-6.97223E-14
 -1      2889 1.29332E-02 8.19820E-04-6.84558E-14
 -1      2890 1.29035E-02 8.17145E-04-6.78462E-14
 -1      2891 1.33492E-02 6.13028E-04-7.22704E-14
 -1      2892 1.32096E-02 6.96471E-04-7.09933E-14
 -1      2893 1.31875E-02 7.08087E-04-7.03823E-14
 -1      2894 1.36166E-02 4.28146E-04-7.45533E-14
 -1      2895 1.34739E-02 5.31091E-04-7.32723E-14
 -1      2896 1.34583E-02 5.49473E-04-7.26566E-14
 -1      2897 1.37231E-02 3.67275E-04-7.46667E-14
 -1      2898 1.41612E-03 4.07790E-04-1.01366E-15
 -1      2899 1.27306E-03 3.86756E-04-8.23695E-16
 -1      2900 1.18969E-03 3.41438E-04-7.65731E-16
 -1      2901 1.54012E-02-3.55261E-04-7.61913E-14
 -1      2902 1.62383E-02-5.17024E-04-7.74778E-14
 -1      2903 1.43851E-02 6.19576E-05-7.47003E-14
 -1      2904 1.42159E-02 1.35614E-04-7.46819E-14
 -1      2905 1.07203E-02-2.82021E-04-5.77818E-14
 -1      2906 1.07271E-02-2.71311E-04-5.79313E-14
 -1      2907 1.31840E-02-1.75171E-03-6.72873E-14
 -1      2908 1.26394E-02-1.42773E-03-6.41124E-14
 -1      2909 1.43184E-02-1.25469E-03-7.36626E-14
 -1      2910 1.24539E-02-1.29346E-03-6.30481E-14
 -1      2911 1.24196E-02-1.25109E-03-6.31843E-14
 -1      2912 1.22242E-02-1.09430E-03-6.24064E-14
 -1      2913 1.22362E-02-1.13166E-03-6.18413E-14
 -1      2914 1.20456E-02-9.63166E-04-6.16804E-14
 -1      2915 1.18651E-02-8.37293E-04-6.09570E-14
 -1      2916 1.20664E-02-9.89527E-04-6.14005E-14
 -1      2917 6.88555E-04-2.03958E-04-3.56133E-16
 -1      2918 1.57092E-02-4.30802E-04-7.61925E-14
 -1      2919 1.09465E-02-2.05420E-04-5.85065E-14
 -1      2920 1.10688E-02-1.59580E-04-5.86149E-14
 -1      2921 1.08738E-02-2.09636E-04-5.78306E-14
 -1      2922 1.70126E-03 4.40494E-04-1.45508E-15
 -1      2923 1.55879E-03 4.25613E-04-1.22401E-15
 -1      2924 1.47614E-03 3.82144E-04-1.15144E-15
 -1      2925 1.76216E-03 4.11178E-04-1.61984E-15
 -1      2926 1.32048E-02 7.41016E-04-6.80819E-14
 -1      2927 1.33478E-02 6.96217E-04-6.89951E-14
 -1      2928 2.55282E-03 4.88507E-04-3.27966E-15
 -1      2929 2.41107E-03 4.84120E-04-2.92382E-15
 -1      2930 2.33278E-03 4.44778E-04-2.80352E-15
 -1      2931 2.61767E-03 4.53410E-04-3.51829E-15
 -1      2932 1.16726E-02 1.27017E-04-6.00710E-14
 -1      2933 1.18707E-02 2.37306E-04-6.07655E-14
 -1      2934 1.12372E-02-8.22555E-05-5.87996E-14
 -1      2935 1.14330E-02 5.68896E-06-5.93225E-14
 -1      2936 7.84343E-04 1.23425E-04-4.59322E-16
 -1      2937 7.81948E-04 9.99948E-05-4.68037E-16
 -1      2938 8.99547E-04 9.94227E-05-5.97937E-16
 -1      2939 9.05301E-04 1.51550E-04-5.77216E-16
 -1      2940 1.11793E-02-4.54214E-04-5.89687E-14
 -1      2941 1.10241E-02-3.91888E-04-5.85969E-14
 -1      2942 1.37170E-02-1.65684E-03-7.05801E-14
 -1      2943 1.21079E-02 3.72507E-04-6.17353E-14
 -1      2944 1.22917E-02 4.80834E-04-6.25799E-14
 -1      2945 7.81682E-04-9.79418E-05-4.94152E-16
 -1      2946 7.84002E-04-1.21294E-04-4.91266E-16
 -1      2947 8.03118E-04 2.78185E-04-3.58248E-16
 -1      2948 1.25116E-02 5.89778E-04-6.37568E-14
 -1      2949 1.26775E-02 6.69353E-04-6.46861E-14
 -1      2950 1.57827E-02-5.84804E-04-7.65317E-14
 -1      2951 1.46962E-02-1.02594E-03-7.48136E-14
 -1      2952 1.08930E-02-3.43190E-04-5.82759E-14
 -1      2953 1.07922E-02-3.11991E-04-5.79524E-14
 -1      2954 1.09343E-02-3.59001E-04-5.77850E-14
 -1      2955 1.35330E-02 6.11359E-04-7.00740E-14
 -1      2956 1.37185E-02 5.04049E-04-7.10464E-14
 -1      2957 7.87075E-04-1.45441E-04-4.87091E-16
 -1      2958 7.91000E-04-1.70619E-04-4.81061E-16
 -1      2959 9.04836E-04-1.49042E-04-6.19554E-16
 -1      2960 8.95395E-04 1.00837E-06-6.22156E-16
 -1      2961 7.77568E-04-9.71962E-06-4.93014E-16
 -1      2962 7.77934E-04-3.13615E-05-4.94735E-16
 -1      2963 1.27599E-02 7.13379E-04-6.51835E-14
 -1      2964 1.44130E-02 8.37691E-05-7.38135E-14
 -1      2965 1.46480E-02-4.37169E-05-7.44999E-14
 -1      2966 1.29997E-02 7.62420E-04-6.68433E-14
 -1      2967 1.30995E-02 7.57434E-04-6.74604E-14
 -1      2968 1.31549E-02 7.44766E-04-6.80153E-14
 -1      2969 1.07349E-02-2.90821E-04-5.68093E-14
 -1      2970 1.07223E-02-2.85532E-04-5.72956E-14
 -1      2971 1.06719E-02-2.65647E-04-5.66401E-14
 -1      2972 1.37809E-02 4.53322E-04-7.15944E-14
 -1      2973 1.39101E-02 3.93049E-04-7.18422E-14
 -1      2974 1.41204E-02 2.63315E-04-7.26397E-14
 -1      2975 1.18669E-02-8.78906E-04-5.99195E-14
 -1      2976 1.20769E-02-1.01272E-03-6.11181E-14
 -1      2977 1.17154E-02-7.48227E-04-6.01905E-14
 -1      2978 1.33800E-02-1.77116E-03-6.85190E-14
 -1      2979 1.35138E-02-1.74251E-03-6.93450E-14
 -1      2980 1.19474E-02 3.23153E-04-6.07533E-14
 -1      2981 1.34286E-02 6.48986E-04-6.97178E-14
 -1      2982 1.38048E-02 3.24738E-04-7.46973E-14
 -1      2983 1.36638E-02 4.23464E-04-7.36914E-14
 -1      2984 1.38974E-02 2.79134E-04-7.47257E-14
 -1      2985 1.42414E-02 1.69286E-04-7.35671E-14
 -1      2986 1.07240E-02-2.53818E-04-5.74259E-14
 -1      2987 8.03068E-04-2.03283E-04-4.77252E-16
 -1      2988 8.21704E-04-2.53806E-04-4.63252E-16
 -1      2989 9.52837E-04-2.88202E-04-5.92774E-16
 -1      2990 9.21139E-04-2.11226E-04-6.10514E-16
 -1      2991 1.23732E-02 5.50760E-04-6.28988E-14
 -1      2992 1.11264E-02-1.04312E-04-5.81184E-14
 -1      2993 1.41027E-02 1.85666E-04-7.47168E-14
 -1      2994 1.39805E-02 2.41500E-04-7.46922E-14
 -1      2995 1.38208E-02 3.50369E-04-7.36863E-14
 -1      2996 1.40015E-02 2.71445E-04-7.36161E-14
 -1      2997 1.15016E-02 8.05381E-05-5.90455E-14
 -1      2998 7.78715E-04-5.31386E-05-4.95453E-16
 -1      2999 7.79938E-04-7.53230E-05-4.95304E-16
 -1      3000 8.99260E-04-9.70765E-05-6.25991E-16
 -1      3001 8.96291E-04-4.75172E-05-6.26411E-16
 -1      3002 8.64871E-04 2.66504E-04-4.38370E-16
 -1      3003 9.82958E-04 2.75739E-04-5.68461E-16
 -1      3004 1.01523E-03-2.72349E-04-6.87601E-16
 -1      3005 1.49246E-02-9.00088E-04-7.53976E-14
 -1      3006 1.16649E-02-7.38044E-04-5.93113E-14
 -1      3007 1.51818E-02-7.78708E-04-7.60428E-14
 -1      3008 1.12836E-02-5.03900E-04-5.89044E-14
 -1      3009 1.11596E-02-4.54379E-04-5.80403E-14
 -1      3010 1.13819E-02-5.60470E-04-5.88384E-14
 -1      3011 1.04027E-03 2.43237E-04-6.72924E-16
 -1      3012 1.03364E-03 2.11513E-04-6.91924E-16
 -1      3013 1.06769E-02-2.43376E-04-5.66353E-14
 -1      3014 1.07302E-02-2.32035E-04-5.69356E-14
 -1      3015 1.44458E-03-3.13701E-04-1.30664E-15
 -1      3016 1.58808E-03-3.28180E-04-1.54984E-15
 -1      3017 1.73166E-03-3.40439E-04-1.81410E-15
 -1      3018 1.87532E-03-3.50652E-04-2.09885E-15
 -1      3019 1.65233E-03-3.00117E-04-1.69478E-15
 -1      3020 2.01898E-03-3.59152E-04-2.40418E-15
 -1      3021 2.16262E-03-3.66092E-04-2.73062E-15
 -1      3022 1.94011E-03-3.19342E-04-2.26537E-15
 -1      3023 2.30621E-03-3.71749E-04-3.07720E-15
 -1      3024 2.44975E-03-3.76249E-04-3.44389E-15
 -1      3025 2.22813E-03-3.32487E-04-2.91783E-15
 -1      3026 2.59324E-03-3.79814E-04-3.83150E-15
 -1      3027 2.73667E-03-3.82546E-04-4.23914E-15
 -1      3028 2.51609E-03-3.41050E-04-3.65209E-15
 -1      3029 2.88005E-03-3.84615E-04-4.66559E-15
 -1      3030 3.02337E-03-3.86098E-04-5.11163E-15
 -1      3031 2.80384E-03-3.46269E-04-4.46558E-15
 -1      3032 3.16664E-03-3.87125E-04-5.57726E-15
 -1      3033 3.30987E-03-3.87752E-04-6.06145E-15
 -1      3034 3.09132E-03-3.49118E-04-5.35719E-15
 -1      3035 3.45306E-03-3.88075E-04-6.56396E-15
 -1      3036 3.59620E-03-3.88134E-04-7.08519E-15
 -1      3037 3.37853E-03-3.50336E-04-6.32465E-15
 -1      3038 3.73932E-03-3.87998E-04-7.62495E-15
 -1      3039 3.88240E-03-3.87695E-04-8.18223E-15
 -1      3040 3.66549E-03-3.50471E-04-7.36503E-15
 -1      3041 4.02546E-03-3.87272E-04-8.75717E-15
 -1      3042 4.16849E-03-3.86746E-04-9.35000E-15
 -1      3043 3.95221E-03-3.49911E-04-8.47808E-15
 -1      3044 4.31150E-03-3.86150E-04-9.96043E-15
 -1      3045 4.45449E-03-3.85492E-04-1.05877E-14
 -1      3046 4.23874E-03-3.48924E-04-9.66207E-15
 -1      3047 4.59747E-03-3.84793E-04-1.12307E-14
 -1      3048 4.74043E-03-3.84055E-04-1.18906E-14
 -1      3049 4.52510E-03-3.47683E-04-1.09145E-14
 -1      3050 4.88338E-03-3.83289E-04-1.25678E-14
 -1      3051 5.02632E-03-3.82494E-04-1.32608E-14
 -1      3052 4.81132E-03-3.46287E-04-1.22337E-14
 -1      3053 5.16925E-03-3.81671E-04-1.39707E-14
 -1      3054 5.31216E-03-3.80817E-04-1.46979E-14
 -1      3055 5.09742E-03-3.44779E-04-1.36193E-14
 -1      3056 5.45508E-03-3.79928E-04-1.54407E-14
 -1      3057 5.59798E-03-3.78998E-04-1.62012E-14
 -1      3058 5.38342E-03-3.43159E-04-1.50718E-14
 -1      3059 5.74088E-03-3.78018E-04-1.69778E-14
 -1      3060 5.88377E-03-3.76980E-04-1.77710E-14
 -1      3061 5.66932E-03-3.41392E-04-1.65917E-14
 -1      3062 6.02666E-03-3.75872E-04-1.85807E-14
 -1      3063 6.16954E-03-3.74684E-04-1.94074E-14
 -1      3064 5.95514E-03-3.39422E-04-1.81788E-14
 -1      3065 6.31241E-03-3.73401E-04-2.02504E-14
 -1      3066 6.45527E-03-3.72012E-04-2.11088E-14
 -1      3067 6.24085E-03-3.37168E-04-1.98320E-14
 -1      3068 6.59812E-03-3.70503E-04-2.19834E-14
 -1      3069 6.74095E-03-3.68860E-04-2.28743E-14
 -1      3070 6.52644E-03-3.34538E-04-2.15498E-14
 -1      3071 6.88376E-03-3.67068E-04-2.37805E-14
 -1      3072 7.02656E-03-3.65115E-04-2.47008E-14
 -1      3073 6.81187E-03-3.31432E-04-2.33301E-14
 -1      3074 7.16932E-03-3.62988E-04-2.56365E-14
 -1      3075 7.31205E-03-3.60676E-04-2.65865E-14
 -1      3076 7.09708E-03-3.27752E-04-2.51707E-14
 -1      3077 7.45472E-03-3.58171E-04-2.75508E-14
 -1      3078 7.59735E-03-3.55462E-04-2.85294E-14
 -1      3079 7.38198E-03-3.23409E-04-2.70676E-14
 -1      3080 7.73990E-03-3.52553E-04-2.95203E-14
 -1      3081 7.88238E-03-3.49438E-04-3.05231E-14
 -1      3082 7.66645E-03-3.18346E-04-2.90226E-14
 -1      3083 8.02474E-03-3.46135E-04-3.15408E-14
 -1      3084 8.16699E-03-3.42644E-04-3.25723E-14
 -1      3085 7.95031E-03-3.12557E-04-3.10293E-14
 -1      3086 8.30905E-03-3.39009E-04-3.36152E-14
 -1      3087 8.45096E-03-3.35240E-04-3.46686E-14
 -1      3088 8.23333E-03-3.06124E-04-3.30874E-14
 -1      3089 8.59261E-03-3.31418E-04-3.57337E-14
 -1      3090 8.73402E-03-3.27566E-04-3.68105E-14
 -1      3091 8.51517E-03-2.99257E-04-3.51940E-14
 -1      3092 8.87507E-03-3.23821E-04-3.78976E-14
 -1      3093 9.01580E-03-3.20222E-04-3.89921E-14
 -1      3094 8.79540E-03-2.92355E-04-3.73459E-14
 -1      3095 9.15603E-03-3.16979E-04-4.00956E-14
 -1      3096 9.29583E-03-3.14158E-04-4.12099E-14
 -1      3097 9.07348E-03-2.86075E-04-3.95340E-14
 -1      3098 9.43500E-03-3.12061E-04-4.23300E-14
 -1      3099 9.57363E-03-3.10789E-04-4.34533E-14
 -1      3100 9.34873E-03-2.81408E-04-4.17566E-14
 -1      3101 9.71150E-03-3.10756E-04-4.45856E-14
 -1      3102 9.84880E-03-3.12115E-04-4.57226E-14
 -1      3103 9.62041E-03-2.79753E-04-4.40043E-14
 -1      3104 9.98531E-03-3.15388E-04-4.68648E-14
 -1      3105 1.01214E-02-3.20828E-04-4.80134E-14
 -1      3106 9.88785E-03-2.82963E-04-4.62768E-14
 -1      3107 1.02569E-02-3.29025E-04-4.91683E-14
 -1      3108 1.03925E-02-3.40458E-04-5.03262E-14
 -1      3109 1.01507E-02-2.93355E-04-4.85720E-14
 -1      3110 1.05283E-02-3.55701E-04-5.14858E-14
 -1      3111 1.06656E-02-3.75740E-04-5.26503E-14
 -1      3112 1.04097E-02-3.13703E-04-5.08882E-14
 -1      3113 1.08047E-02-4.01167E-04-5.38196E-14
 -1      3114 1.09480E-02-4.33756E-04-5.49923E-14
 -1      3115 1.06677E-02-3.47623E-04-5.32168E-14
 -1      3116 1.11874E-02-5.05288E-04-5.67819E-14
 -1      3117 1.13522E-02-5.67630E-04-5.79655E-14
 -1      3118 3.25492E-03 4.24392E-04-5.47469E-15
 -1      3119 3.11207E-03 4.23517E-04-5.01647E-15
 -1      3120 2.96918E-03 4.22192E-04-4.57772E-15
 -1      3121 2.82628E-03 4.20355E-04-4.15895E-15
 -1      3122 3.03653E-03 3.85504E-04-4.84439E-15
 -1      3123 3.82622E-03 4.24979E-04-7.49556E-15
 -1      3124 3.68341E-03 4.25161E-04-6.96181E-15
 -1      3125 4.11184E-03 4.24220E-04-8.61990E-15
 -1      3126 3.96903E-03 4.24658E-04-8.04833E-15
 -1      3127 3.89571E-03 3.87352E-04-7.82546E-15
 -1      3128 4.39746E-03 4.23108E-04-9.81901E-15
 -1      3129 4.25465E-03 4.23699E-04-9.20997E-15
 -1      3130 4.18184E-03 3.86524E-04-8.96963E-15
 -1      3131 4.68309E-03 4.21787E-04-1.10913E-14
 -1      3132 4.54028E-03 4.22469E-04-1.04463E-14
 -1      3133 4.46787E-03 3.85399E-04-1.01877E-14
 -1      3134 4.96874E-03 4.20329E-04-1.24357E-14
 -1      3135 4.82591E-03 4.21073E-04-1.17550E-14
 -1      3136 4.75382E-03 3.84097E-04-1.14790E-14
 -1      3137 5.25440E-03 4.18755E-04-1.38486E-14
 -1      3138 5.11157E-03 4.19557E-04-1.31334E-14
 -1      3139 5.03972E-03 3.82673E-04-1.28408E-14
 -1      3140 5.54009E-03 4.17045E-04-1.53330E-14
 -1      3141 5.39724E-03 4.17919E-04-1.45819E-14
 -1      3142 5.32557E-03 3.81136E-04-1.42712E-14
 -1      3143 5.82581E-03 4.15150E-04-1.68891E-14
 -1      3144 5.68295E-03 4.16125E-04-1.61022E-14
 -1      3145 5.61138E-03 3.79460E-04-1.57741E-14
 -1      3146 6.11155E-03 4.12997E-04-1.85134E-14
 -1      3147 5.96868E-03 4.14111E-04-1.76927E-14
 -1      3148 5.89715E-03 3.77591E-04-1.73472E-14
 -1      3149 6.39734E-03 4.10498E-04-2.02037E-14
 -1      3150 6.25444E-03 4.11796E-04-1.93499E-14
 -1      3151 6.18289E-03 3.75452E-04-1.89878E-14
 -1      3152 6.68317E-03 4.07556E-04-2.19561E-14
 -1      3153 6.54024E-03 4.09088E-04-2.10727E-14
 -1      3154 6.46858E-03 3.72956E-04-2.06927E-14
 -1      3155 6.96905E-03 4.04076E-04-2.37646E-14
 -1      3156 6.82610E-03 4.05889E-04-2.28530E-14
 -1      3157 6.75423E-03 3.70008E-04-2.24579E-14
 -1      3158 7.25502E-03 3.99979E-04-2.56349E-14
 -1      3159 7.11202E-03 4.02109E-04-2.46930E-14
 -1      3160 7.03983E-03 3.66514E-04-2.42812E-14
 -1      3161 7.54110E-03 3.95215E-04-2.75610E-14
 -1      3162 7.39804E-03 3.97682E-04-2.65909E-14
 -1      3163 7.32537E-03 3.62398E-04-2.61640E-14
 -1      3164 7.82734E-03 3.89790E-04-2.95407E-14
 -1      3165 7.68419E-03 3.92582E-04-2.85448E-14
 -1      3166 7.61085E-03 3.57614E-04-2.81041E-14
 -1      3167 8.11382E-03 3.83800E-04-3.15660E-14
 -1      3168 7.97053E-03 3.86857E-04-3.05476E-14
 -1      3169 7.89629E-03 3.52170E-04-3.00931E-14
 -1      3170 8.40067E-03 3.77473E-04-3.36357E-14
 -1      3171 8.25718E-03 3.80661E-04-3.25959E-14
 -1      3172 8.18175E-03 3.46164E-04-3.21295E-14
 -1      3173 8.68810E-03 3.71219E-04-3.57443E-14
 -1      3174 8.54429E-03 3.74305E-04-3.46849E-14
 -1      3175 8.46733E-03 3.39818E-04-3.42103E-14
 -1      3176 8.97644E-03 3.65704E-04-3.78886E-14
 -1      3177 8.83212E-03 3.68320E-04-3.68121E-14
 -1      3178 8.75324E-03 3.33534E-04-3.63290E-14
 -1      3179 9.26616E-03 3.61920E-04-4.00630E-14
 -1      3180 9.12108E-03 3.63521E-04-3.89718E-14
 -1      3181 9.03984E-03 3.27954E-04-3.84814E-14
 -1      3182 9.55802E-03 3.61265E-04-4.22676E-14
 -1      3183 9.41177E-03 3.61093E-04-4.11625E-14
 -1      3184 9.32772E-03 3.24036E-04-4.06656E-14
 -1      3185 9.85305E-03 3.65625E-04-4.45059E-14
 -1      3186 9.70507E-03 3.62669E-04-4.33821E-14
 -1      3187 9.61778E-03 3.23138E-04-4.28795E-14
 -1      3188 1.01527E-02 3.77425E-04-4.67747E-14
 -1      3189 1.00022E-02 3.70397E-04-4.56356E-14
 -1      3190 9.91140E-03 3.27112E-04-4.51239E-14
 -1      3191 1.04586E-02 3.99613E-04-4.90790E-14
 -1      3192 1.03048E-02 3.86973E-04-4.79232E-14
 -1      3193 1.02104E-02 3.38404E-04-4.74031E-14
 -1      3194 1.07727E-02 4.35477E-04-5.14119E-14
 -1      3195 1.06146E-02 4.15556E-04-5.02409E-14
 -1      3196 1.05172E-02 3.60134E-04-4.97146E-14
 -1      3197 1.10960E-02 4.88123E-04-5.37727E-14
 -1      3198 1.09333E-02 4.59480E-04-5.25888E-14
 -1      3199 1.08342E-02 3.96041E-04-5.20526E-14
 -1      3200 1.14277E-02 5.59049E-04-5.61610E-14
 -1      3201 1.12611E-02 5.21295E-04-5.49630E-14
 -1      3202 1.11632E-02 4.50065E-04-5.44165E-14
 -1      3203 1.17637E-02 6.45283E-04-5.85771E-14
 -1      3204 1.15958E-02 6.00816E-04-5.73655E-14
 -1      3205 1.15035E-02 5.24899E-04-5.68075E-14
 -1      3206 1.20974E-02 7.35278E-04-6.10201E-14
 -1      3207 1.19319E-02 6.91024E-04-5.97963E-14
 -1      3208 1.18504E-02 6.17601E-04-5.92251E-14
 -1      3209 1.24189E-02 8.06566E-04-6.34883E-14
 -1      3210 1.22600E-02 7.75374E-04-6.22499E-14
 -1      3211 1.21945E-02 7.15272E-04-6.16655E-14
 -1      3212 1.27238E-02 8.28736E-04-6.59831E-14
 -1      3213 1.25729E-02 8.26015E-04-6.47335E-14
 -1      3214 1.25239E-02 7.89912E-04-6.41382E-14
 -1      3215 1.30169E-02 7.76948E-04-6.85021E-14
 -1      3216 1.28703E-02 8.13202E-04-6.72387E-14
 -1      3217 1.28346E-02 8.04801E-04-6.66349E-14
 -1      3218 1.33098E-02 6.45949E-04-7.10418E-14
 -1      3219 1.31625E-02 7.20280E-04-6.97702E-14
 -1      3220 1.31361E-02 7.32388E-04-6.91562E-14
 -1      3221 1.35513E-02 4.99353E-04-7.28652E-14
 -1      3222 1.34168E-02 5.83861E-04-7.18612E-14
 -1      3223 1.33979E-02 6.04424E-04-7.12482E-14
 -1      3224 1.36279E-02 4.63210E-04-7.28940E-14
 -1      3225 1.15850E-03-2.76880E-04-8.83516E-16
 -1      3226 1.30137E-03-2.96670E-04-1.08473E-15
 -1      3227 1.36541E-03-2.73074E-04-1.20673E-15
 -1      3228 1.49452E-02-1.77328E-04-7.50635E-14
 -1      3229 1.47178E-02-9.29381E-05-7.50401E-14
 -1      3230 1.07947E-02-2.08805E-04-5.70432E-14
 -1      3231 1.08801E-02-1.77739E-04-5.71469E-14
 -1      3232 1.07230E-02-2.03111E-04-5.62534E-14
 -1      3233 1.13400E-02 5.03560E-05-5.79715E-14
 -1      3234 1.15460E-02 1.54570E-04-5.87151E-14
 -1      3235 3.54059E-03 4.25153E-04-6.44702E-15
 -1      3236 3.39776E-03 4.24922E-04-5.95158E-15
 -1      3237 3.32309E-03 3.87215E-04-5.76240E-15
 -1      3238 3.60947E-03 3.87684E-04-6.75622E-15
 -1      3239 9.99574E-04-2.33044E-04-6.95678E-16
 -1      3240 1.07876E-03-2.55008E-04-7.86927E-16
 -1      3241 9.86331E-04-1.95960E-04-7.00137E-16
 -1      3242 1.26534E-02 6.99838E-04-6.45352E-14
 -1      3243 1.28182E-02 7.47040E-04-6.56428E-14
 -1      3244 2.11108E-03 3.98743E-04-2.36389E-15
 -1      3245 1.96786E-03 3.90808E-04-2.06606E-15
 -1      3246 1.17914E-02 2.87146E-04-5.97369E-14
 -1      3247 1.19978E-02 4.03720E-04-6.06999E-14
 -1      3248 1.33255E-02 6.83698E-04-6.93436E-14
 -1      3249 1.34912E-02 6.01510E-04-7.04264E-14
 -1      3250 1.14502E-03 3.10519E-04-7.41703E-16
 -1      3251 1.08236E-03 2.71592E-04-7.00124E-16
 -1      3252 1.20142E-03 2.73008E-04-8.62917E-16
 -1      3253 1.28819E-03 3.32489E-04-9.21504E-16
 -1      3254 1.01648E-03 6.81888E-05-7.53399E-16
 -1      3255 1.01531E-03 4.12141E-05-7.60595E-16
 -1      3256 1.52363E-02-2.98686E-04-7.57863E-14
 -1      3257 1.09529E-02-3.70949E-04-5.71254E-14
 -1      3258 1.08371E-02-3.29046E-04-5.68067E-14
 -1      3259 1.10082E-02-1.22653E-04-5.73255E-14
 -1      3260 1.11482E-02-5.12083E-05-5.75070E-14
 -1      3261 1.09014E-02-1.30126E-04-5.65376E-14
 -1      3262 1.22659E-02 5.43489E-04-6.21552E-14
 -1      3263 1.24628E-02 6.32220E-04-6.33344E-14
 -1      3264 1.01471E-03 1.44483E-05-7.66097E-16
 -1      3265 1.01467E-03-1.22157E-05-7.70027E-16
 -1      3266 1.13538E-03 3.01590E-05-9.24228E-16
 -1      3267 1.28823E-02 7.63020E-04-6.61896E-14
 -1      3268 1.16120E-02 2.40150E-04-5.86568E-14
 -1      3269 1.14967E-02-6.32454E-04-5.88287E-14
 -1      3270 1.31275E-02 7.45941E-04-6.80943E-14
 -1      3271 1.32239E-02 7.19957E-04-6.87172E-14
 -1      3272 1.32881E-02 6.86863E-04-6.94247E-14
 -1      3273 1.07373E-02-2.97025E-04-5.61509E-14
 -1      3274 1.06538E-02-2.73096E-04-5.54985E-14
 -1      3275 1.07359E-02-3.06944E-04-5.54948E-14
 -1      3276 1.37102E-02 4.74519E-04-7.17139E-14
 -1      3277 1.38798E-02 3.70071E-04-7.25114E-14
 -1      3278 1.10292E-02-4.09254E-04-5.70616E-14
 -1      3279 1.10134E-02-4.23587E-04-5.61765E-14
 -1      3280 1.14324E-03-2.35978E-04-8.90509E-16
 -1      3281 1.57478E-03 3.67236E-04-1.34223E-15
 -1      3282 1.43143E-03 3.51293E-04-1.12167E-15
 -1      3283 1.38747E-03 3.20962E-04-1.09003E-15
 -1      3284 2.74977E-03 3.81936E-04-4.00382E-15
 -1      3285 2.68334E-03 4.17860E-04-3.75981E-15
 -1      3286 2.54036E-03 4.14624E-04-3.38076E-15
 -1      3287 1.06189E-02-2.49581E-04-5.56652E-14
 -1      3288 1.06409E-02-2.47014E-04-5.61490E-14
 -1      3289 1.06214E-02-2.28156E-04-5.56619E-14
 -1      3290 1.25292E-02 6.89442E-04-6.37862E-14
 -1      3291 1.02827E-03 1.81119E-04-7.08065E-16
 -1      3292 1.02408E-03 1.51802E-04-7.22323E-16
 -1      3293 1.15306E-03 2.11792E-04-8.51587E-16
 -1      3294 1.12019E-02 1.90951E-05-5.71778E-14
 -1      3295 1.84294E-03 3.86528E-04-1.81665E-15
 -1      3296 1.69964E-03 3.75117E-04-1.55685E-15
 -1      3297 1.65599E-03 3.44926E-04-1.51927E-15
 -1      3298 1.90654E-03 3.55641E-04-1.99084E-15
 -1      3299 2.39732E-03 4.10456E-04-3.02198E-15
 -1      3300 2.25423E-03 4.05245E-04-2.68272E-15
 -1      3301 2.46279E-03 3.75679E-04-3.24285E-15
 -1      3302 1.02078E-03 1.23267E-04-7.34493E-16
 -1      3303 1.01830E-03 9.55017E-05-7.44915E-16
 -1      3304 1.13806E-03 8.86017E-05-9.07843E-16
 -1      3305 1.14367E-03 1.48732E-04-8.83991E-16
 -1      3306 2.17559E-03 3.65639E-04-2.56162E-15
 -1      3307 1.21003E-02 5.00455E-04-6.11246E-14
 -1      3308 1.35905E-02 5.32137E-04-7.13386E-14
 -1      3309 1.54855E-02-6.68741E-04-7.62904E-14
 -1      3310 9.77869E-04-1.38604E-04-7.12524E-16
 -1      3311 9.81585E-04-1.66788E-04-7.07496E-16
 -1      3312 1.05903E-03-1.84980E-04-8.00859E-16
 -1      3313 1.45939E-02-4.98370E-05-7.52812E-14
 -1      3314 9.72844E-04-8.45202E-05-7.16956E-16
 -1      3315 9.74986E-04-1.11238E-04-7.15614E-16
 -1      3316 1.05137E-03-1.26033E-04-8.10970E-16
 -1      3317 1.43110E-02 1.12853E-04-7.41606E-14
 -1      3318 1.40437E-02 2.79857E-04-7.29857E-14
 -1      3319 1.39524E-02 3.13948E-04-7.31053E-14
 -1      3320 1.55550E-02-3.95417E-04-7.61133E-14
 -1      3321 1.08279E-02-3.55765E-04-5.52670E-14
 -1      3322 1.86180E-03-2.79982E-04-2.12829E-15
 -1      3323 2.00601E-03-2.87327E-04-2.43425E-15
 -1      3324 2.15031E-03-2.93398E-04-2.76055E-15
 -1      3325 2.29465E-03-2.98317E-04-3.10700E-15
 -1      3326 2.07288E-03-2.54627E-04-2.60519E-15
 -1      3327 2.43899E-03-3.02285E-04-3.47397E-15
 -1      3328 2.58330E-03-3.05399E-04-3.86120E-15
 -1      3329 2.36207E-03-2.63626E-04-3.29822E-15
 -1      3330 2.72756E-03-3.07825E-04-4.26741E-15
 -1      3331 2.87174E-03-3.09635E-04-4.69327E-15
 -1      3332 2.65130E-03-2.69354E-04-4.07121E-15
 -1      3333 3.01585E-03-3.10961E-04-5.13890E-15
 -1      3334 3.15988E-03-3.11858E-04-5.60343E-15
 -1      3335 2.94032E-03-2.72702E-04-4.92240E-15
 -1      3336 3.30383E-03-3.12427E-04-6.08682E-15
 -1      3337 3.44769E-03-3.12706E-04-6.58787E-15
 -1      3338 3.22901E-03-2.74376E-04-5.85040E-15
 -1      3339 3.59147E-03-3.12770E-04-7.10731E-15
 -1      3340 3.73516E-03-3.12645E-04-7.64541E-15
 -1      3341 3.51730E-03-2.74913E-04-6.85208E-15
 -1      3342 3.87878E-03-3.12385E-04-8.20109E-15
 -1      3343 4.02232E-03-3.12007E-04-8.77397E-15
 -1      3344 3.80520E-03-2.74703E-04-7.92572E-15
 -1      3345 4.16580E-03-3.11548E-04-9.36568E-15
 -1      3346 4.30922E-03-3.11018E-04-9.97444E-15
 -1      3347 4.09272E-03-2.74025E-04-9.07129E-15
 -1      3348 4.45257E-03-3.10441E-04-1.05996E-14
 -1      3349 4.59587E-03-3.09820E-04-1.12416E-14
 -1      3350 4.37991E-03-2.73063E-04-1.02864E-14
 -1      3351 4.73912E-03-3.09169E-04-1.19007E-14
 -1      3352 4.88231E-03-3.08490E-04-1.25764E-14
 -1      3353 4.66680E-03-2.71931E-04-1.15700E-14
 -1      3354 5.02547E-03-3.07787E-04-1.32688E-14
 -1      3355 5.16858E-03-3.07058E-04-1.39784E-14
 -1      3356 4.95342E-03-2.70688E-04-1.29196E-14
 -1      3357 5.31165E-03-3.06303E-04-1.47047E-14
 -1      3358 5.45469E-03-3.05516E-04-1.54473E-14
 -1      3359 5.23981E-03-2.69353E-04-1.43381E-14
 -1      3360 5.59768E-03-3.04694E-04-1.62074E-14
 -1      3361 5.74064E-03-3.03827E-04-1.69842E-14
 -1      3362 5.52598E-03-2.67911E-04-1.58243E-14
 -1      3363 5.88356E-03-3.02910E-04-1.77778E-14
 -1      3364 6.02644E-03-3.01932E-04-1.85881E-14
 -1      3365 5.81194E-03-2.66324E-04-1.73782E-14
 -1      3366 6.16927E-03-3.00885E-04-1.94153E-14
 -1      3367 6.31205E-03-2.99756E-04-2.02589E-14
 -1      3368 6.09767E-03-2.64534E-04-1.89999E-14
 -1      3369 6.45478E-03-2.98535E-04-2.11172E-14
 -1      3370 6.59745E-03-2.97211E-04-2.19922E-14
 -1      3371 6.38315E-03-2.62471E-04-2.06864E-14
 -1      3372 6.74004E-03-2.95773E-04-2.28818E-14
 -1      3373 6.88256E-03-2.94209E-04-2.37864E-14
 -1      3374 6.66830E-03-2.60058E-04-2.24349E-14
 -1      3375 7.02498E-03-2.92510E-04-2.47064E-14
 -1      3376 7.16730E-03-2.90663E-04-2.56397E-14
 -1      3377 6.95304E-03-2.57218E-04-2.42435E-14
 -1      3378 7.30948E-03-2.88666E-04-2.65883E-14
 -1      3379 7.45152E-03-2.86506E-04-2.75515E-14
 -1      3380 7.23723E-03-2.53882E-04-2.61096E-14
 -1      3381 7.59338E-03-2.84191E-04-2.85270E-14
 -1      3382 7.73505E-03-2.81708E-04-2.95162E-14
 -1      3383 7.52070E-03-2.50006E-04-2.80331E-14
 -1      3384 7.87647E-03-2.79079E-04-3.05188E-14
 -1      3385 8.01762E-03-2.76296E-04-3.15343E-14
 -1      3386 7.80319E-03-2.45589E-04-3.00098E-14
 -1      3387 8.15845E-03-2.73403E-04-3.25630E-14
 -1      3388 8.29892E-03-2.70396E-04-3.36047E-14
 -1      3389 8.08439E-03-2.40697E-04-3.20402E-14
 -1      3390 8.43893E-03-2.67351E-04-3.46566E-14
 -1      3391 8.57848E-03-2.64271E-04-3.57203E-14
 -1      3392 8.36386E-03-2.35502E-04-3.41205E-14
 -1      3393 8.71743E-03-2.61277E-04-3.67957E-14
 -1      3394 8.85575E-03-2.58379E-04-3.78806E-14
 -1      3395 8.64106E-03-2.30322E-04-3.62467E-14
 -1      3396 8.99328E-03-2.55757E-04-3.89750E-14
 -1      3397 9.12999E-03-2.53428E-04-4.00762E-14
 -1      3398 8.91529E-03-2.25668E-04-3.84149E-14
 -1      3399 9.26568E-03-2.51648E-04-4.11846E-14
 -1      3400 9.40034E-03-2.50434E-04-4.23021E-14
 -1      3401 9.18566E-03-2.22296E-04-4.06163E-14
 -1      3402 9.53370E-03-2.50134E-04-4.34252E-14
 -1      3403 9.66579E-03-2.50755E-04-4.45537E-14
 -1      3404 9.45109E-03-2.21235E-04-4.28463E-14
 -1      3405 9.79629E-03-2.52738E-04-4.56901E-14
 -1      3406 9.92531E-03-2.56066E-04-4.68304E-14
 -1      3407 9.71031E-03-2.23776E-04-4.51029E-14
 -1      3408 1.00525E-02-2.61273E-04-4.79759E-14
 -1      3409 1.01780E-02-2.68285E-04-4.91305E-14
 -1      3410 9.96182E-03-2.31392E-04-4.73830E-14
 -1      3411 1.03015E-02-2.77690E-04-5.02877E-14
 -1      3412 1.04237E-02-2.89385E-04-5.14475E-14
 -1      3413 1.02040E-02-2.45545E-04-4.96869E-14
 -1      3414 1.05643E-02-3.08856E-04-5.27685E-14
 -1      3415 1.06850E-02-3.27477E-04-5.39383E-14
 -1      3416 1.07138E-02-3.12630E-04-5.48145E-14
 -1      3417 1.04537E-02-2.71333E-04-5.21645E-14
 -1      3418 1.17149E-03-2.18696E-04-9.41413E-16
 -1      3419 1.25057E-03-2.37815E-04-1.04857E-15
 -1      3420 1.39333E-03-2.53088E-04-1.26667E-15
 -1      3421 1.16611E-03-1.86357E-04-9.50100E-16
 -1      3422 4.25206E-03 3.48723E-04-9.32091E-15
 -1      3423 4.10881E-03 3.49195E-04-8.72985E-15
 -1      3424 3.96550E-03 3.49583E-04-8.15758E-15
 -1      3425 3.82216E-03 3.49874E-04-7.60313E-15
 -1      3426 4.03559E-03 3.11714E-04-8.49067E-15
 -1      3427 4.82466E-03 3.46361E-04-1.18669E-14
 -1      3428 4.68157E-03 3.47005E-04-1.12033E-14
 -1      3429 5.11076E-03 3.44994E-04-1.32453E-14
 -1      3430 4.96773E-03 3.45691E-04-1.25479E-14
 -1      3431 4.89561E-03 3.08605E-04-1.22556E-14
 -1      3432 5.39675E-03 3.43518E-04-1.46950E-14
 -1      3433 5.25377E-03 3.44272E-04-1.39609E-14
 -1      3434 5.18187E-03 3.07317E-04-1.36520E-14
 -1      3435 5.68265E-03 3.41898E-04-1.62148E-14
 -1      3436 5.53971E-03 3.42729E-04-1.54451E-14
 -1      3437 5.46797E-03 3.05921E-04-1.51182E-14
 -1      3438 5.96844E-03 3.40079E-04-1.78057E-14
 -1      3439 5.82555E-03 3.41018E-04-1.70020E-14
 -1      3440 5.75390E-03 3.04379E-04-1.66565E-14
 -1      3441 6.25412E-03 3.37983E-04-1.94611E-14
 -1      3442 6.11129E-03 3.39070E-04-1.86253E-14
 -1      3443 6.03966E-03 3.02634E-04-1.82644E-14
 -1      3444 6.53968E-03 3.35524E-04-2.11826E-14
 -1      3445 6.39691E-03 3.36805E-04-2.03142E-14
 -1      3446 6.32525E-03 3.00611E-04-1.99374E-14
 -1      3447 6.82509E-03 3.32608E-04-2.29592E-14
 -1      3448 6.68240E-03 3.34129E-04-2.20640E-14
 -1      3449 6.61062E-03 2.98224E-04-2.16712E-14
 -1      3450 7.11032E-03 3.29147E-04-2.47975E-14
 -1      3451 6.96773E-03 3.30952E-04-2.38709E-14
 -1      3452 6.89573E-03 2.95384E-04-2.34631E-14
 -1      3453 7.39534E-03 3.25065E-04-2.66936E-14
 -1      3454 7.25286E-03 3.27188E-04-2.57389E-14
 -1      3455 7.18053E-03 2.92003E-04-2.53147E-14
 -1      3456 7.68013E-03 3.20317E-04-2.86457E-14
 -1      3457 7.53776E-03 3.22777E-04-2.76629E-14
 -1      3458 7.46495E-03 2.88009E-04-2.72242E-14
 -1      3459 7.96465E-03 3.14911E-04-3.06456E-14
 -1      3460 7.82241E-03 3.17695E-04-2.96398E-14
 -1      3461 7.74893E-03 2.83355E-04-2.91876E-14
 -1      3462 8.24895E-03 3.08937E-04-3.26934E-14
 -1      3463 8.10682E-03 3.11989E-04-3.16631E-14
 -1      3464 8.03243E-03 2.78042E-04-3.11985E-14
 -1      3465 8.53310E-03 3.02601E-04-3.47834E-14
 -1      3466 8.39102E-03 3.05799E-04-3.37341E-14
 -1      3467 8.31543E-03 2.72143E-04-3.32564E-14
 -1      3468 8.81732E-03 2.96276E-04-3.69143E-14
 -1      3469 8.67517E-03 2.99409E-04-3.58441E-14
 -1      3470 8.59800E-03 2.65836E-04-3.53599E-14
 -1      3471 9.10201E-03 2.90560E-04-3.90755E-14
 -1      3472 8.95956E-03 2.93296E-04-3.79901E-14
 -1      3473 8.88037E-03 2.59444E-04-3.74994E-14
 -1      3474 9.38785E-03 2.86344E-04-4.12684E-14
 -1      3475 9.24472E-03 2.88191E-04-4.01688E-14
 -1      3476 9.16296E-03 2.53491E-04-3.96707E-14
 -1      3477 9.67593E-03 2.84909E-04-4.34890E-14
 -1      3478 9.53152E-03 2.85168E-04-4.23744E-14
 -1      3479 9.44655E-03 2.48771E-04-4.18705E-14
 -1      3480 9.96793E-03 2.88044E-04-4.57432E-14
 -1      3481 9.82132E-03 2.85741E-04-4.46124E-14
 -1      3482 9.73243E-03 2.46451E-04-4.41014E-14
 -1      3483 1.02662E-02 2.98207E-04-4.80329E-14
 -1      3484 1.01161E-02 2.92007E-04-4.68840E-14
 -1      3485 1.00226E-02 2.48224E-04-4.63659E-14
 -1      3486 1.05737E-02 3.18733E-04-5.03495E-14
 -1      3487 1.04186E-02 3.06836E-04-4.91869E-14
 -1      3488 1.03198E-02 2.56547E-04-4.86615E-14
 -1      3489 1.08937E-02 3.53899E-04-5.26916E-14
 -1      3490 1.07320E-02 3.34033E-04-5.15174E-14
 -1      3491 1.06278E-02 2.75054E-04-5.09838E-14
 -1      3492 1.12292E-02 4.09041E-04-5.50602E-14
 -1      3493 1.10596E-02 3.78509E-04-5.38738E-14
 -1      3494 1.09510E-02 3.08948E-04-5.33306E-14
 -1      3495 1.15799E-02 4.87920E-04-5.74517E-14
 -1      3496 1.14032E-02 4.45128E-04-5.62535E-14
 -1      3497 1.12935E-02 3.65052E-04-5.57028E-14
 -1      3498 1.23625E-02 6.96471E-04-6.27420E-14
 -1      3499 1.21840E-02 6.41811E-04-6.15163E-14
 -1      3500 1.26999E-02 7.74680E-04-6.51872E-14
 -1      3501 1.25312E-02 7.43763E-04-6.39456E-14
 -1      3502 1.32426E-02 6.93893E-04-6.96122E-14
 -1      3503 1.30853E-02 7.51824E-04-6.83453E-14
 -1      3504 1.06393E-02-1.95557E-04-5.53354E-14
 -1      3505 1.06935E-02-1.73980E-04-5.54413E-14
 -1      3506 1.38564E-02 3.55147E-04-7.31426E-14
 -1      3507 1.28611E-02 7.82708E-04-6.63894E-14
 -1      3508 1.14322E-02 2.08750E-04-5.74756E-14
 -1      3509 1.16493E-02 3.24047E-04-5.84940E-14
 -1      3510 1.37716E-02 3.96799E-04-7.30010E-14
 -1      3511 1.36978E-02 4.27839E-04-7.30360E-14
 -1      3512 1.35759E-02 5.06108E-04-7.22102E-14
 -1      3513 1.37219E-02 4.36409E-04-7.24916E-14
 -1      3514 9.92771E-04-3.55805E-05-7.43966E-16
 -1      3515 9.93785E-04-6.19482E-05-7.45118E-16
 -1      3516 1.06960E-03-7.37240E-05-8.43523E-16
 -1      3517 1.11270E-03-2.43822E-05-9.01894E-16
 -1      3518 2.24118E-03 3.31958E-04-2.76247E-15
 -1      3519 2.09714E-03 3.26140E-04-2.43981E-15
 -1      3520 1.19575E-02 5.33111E-04-6.00610E-14
 -1      3521 1.34431E-03 2.91375E-04-1.05693E-15
 -1      3522 1.30194E-03 2.62521E-04-1.02246E-15
 -1      3523 1.48763E-03 3.07172E-04-1.27144E-15
 -1      3524 4.53843E-03 3.47617E-04-1.05580E-14
 -1      3525 4.39527E-03 3.48195E-04-9.93064E-15
 -1      3526 4.32250E-03 3.10855E-04-9.67379E-15
 -1      3527 4.60916E-03 3.09793E-04-1.09291E-14
 -1      3528 1.07830E-02-1.35934E-04-5.56214E-14
 -1      3529 1.08885E-02-8.54984E-05-5.57976E-14
 -1      3530 1.06753E-02-1.35174E-04-5.47045E-14
 -1      3531 3.10450E-03 3.48507E-04-5.11345E-15
 -1      3532 2.96078E-03 3.47314E-04-4.67221E-15
 -1      3533 1.57395E-03-2.60693E-04-1.57681E-15
 -1      3534 1.71775E-03-2.71146E-04-1.84245E-15
 -1      3535 1.78416E-03-2.41242E-04-1.99293E-15
 -1      3536 1.10189E-02-1.03778E-05-5.60026E-14
 -1      3537 1.11815E-02 7.95063E-05-5.64620E-14
 -1      3538 1.35192E-02 5.62233E-04-7.12007E-14
 -1      3539 1.05807E-02-2.02569E-04-5.48528E-14
 -1      3540 1.06154E-02-2.84714E-04-5.41642E-14
 -1      3541 2.81697E-03 3.45626E-04-4.25051E-15
 -1      3542 2.67311E-03 3.43380E-04-3.84913E-15
 -1      3543 2.88488E-03 3.08996E-04-4.50040E-15
 -1      3544 1.05939E-02-2.52243E-04-5.50093E-14
 -1      3545 1.05461E-02-2.34008E-04-5.45224E-14
 -1      3546 1.05727E-02-2.57513E-04-5.43552E-14
 -1      3547 3.74840E-03 3.12232E-04-7.38110E-15
 -1      3548 3.67875E-03 3.50027E-04-7.06758E-15
 -1      3549 3.53529E-03 3.50021E-04-6.55082E-15
 -1      3550 1.29516E-03 2.27660E-04-1.04531E-15
 -1      3551 1.08794E-02-2.80051E-05-5.50858E-14
 -1      3552 1.17700E-02 4.74919E-04-5.88517E-14
 -1      3553 1.12344E-02 1.60365E-04-5.62968E-14
 -1      3554 1.30233E-02 7.67524E-04-6.76439E-14
 -1      3555 1.97133E-03 3.24068E-04-2.16926E-15
 -1      3556 1.84563E-03 3.20773E-04-1.91473E-15
 -1      3557 2.03717E-03 2.91821E-04-2.35159E-15
 -1      3558 1.16531E-02 3.81886E-04-5.82904E-14
 -1      3559 1.25736E-03 4.78409E-05-1.09621E-15
 -1      3560 1.25662E-03 1.67802E-05-1.10366E-15
 -1      3561 1.45913E-03-2.27744E-04-1.39342E-15
 -1      3562 3.39176E-03 3.49796E-04-6.05256E-15
 -1      3563 3.24817E-03 3.49319E-04-5.57349E-15
 -1      3564 3.17306E-03 3.11264E-04-5.38470E-15
 -1      3565 3.46090E-03 3.12190E-04-6.34532E-15
 -1      3566 1.18498E-03-1.56713E-04-9.88847E-16
 -1      3567 1.29707E-03-1.87401E-04-1.14679E-15
 -1      3568 2.38520E-03 3.36683E-04-3.10452E-15
 -1      3569 2.30771E-03 2.97747E-04-2.96631E-15
 -1      3570 2.52918E-03 3.40428E-04-3.46678E-15
 -1      3571 1.26105E-03 1.10598E-04-1.07577E-15
 -1      3572 1.25883E-03 7.90516E-05-1.08702E-15
 -1      3573 1.38052E-03 6.71532E-05-1.28195E-15
 -1      3574 1.18157E-03-1.25652E-04-9.92424E-16
 -1      3575 1.33673E-02 6.27900E-04-7.07441E-14
 -1      3576 1.33238E-02 6.63637E-04-6.99264E-14
 -1      3577 1.34214E-02 6.16372E-04-7.05561E-14
 -1      3578 1.34829E-02 5.63358E-04-7.15649E-14
 -1      3579 1.99600E-03-2.16380E-04-2.45241E-15
 -1      3580 2.14069E-03-2.21227E-04-2.77851E-15
 -1      3581 2.28549E-03-2.25214E-04-3.12506E-15
 -1      3582 2.43036E-03-2.28410E-04-3.49135E-15
 -1      3583 2.20935E-03-1.87168E-04-2.95425E-15
 -1      3584 2.57523E-03-2.30954E-04-3.87753E-15
 -1      3585 2.72008E-03-2.32913E-04-4.28303E-15
 -1      3586 2.49943E-03-1.92713E-04-3.68600E-15
 -1      3587 2.86487E-03-2.34403E-04-4.70782E-15
 -1      3588 3.00957E-03-2.35474E-04-5.15263E-15
 -1      3589 2.78956E-03-1.96128E-04-4.49611E-15
 -1      3590 3.15419E-03-2.36221E-04-5.61588E-15
 -1      3591 3.29869E-03-2.36678E-04-6.09765E-15
 -1      3592 3.07943E-03-1.98006E-04-5.38329E-15
 -1      3593 3.44309E-03-2.36919E-04-6.59848E-15
 -1      3594 3.58737E-03-2.36966E-04-7.11640E-15
 -1      3595 3.36889E-03-1.98817E-04-6.34609E-15
 -1      3596 3.73155E-03-2.36874E-04-7.65246E-15
 -1      3597 3.87560E-03-2.36657E-04-8.20673E-15
 -1      3598 3.65786E-03-1.98913E-04-7.38137E-15
 -1      3599 4.01956E-03-2.36355E-04-8.77872E-15
 -1      3600 4.16340E-03-2.35976E-04-9.36858E-15
 -1      3601 3.94634E-03-1.98547E-04-8.48877E-15
 -1      3602 4.30716E-03-2.35547E-04-9.97532E-15
 -1      3603 4.45081E-03-2.35070E-04-1.05992E-14
 -1      3604 4.23434E-03-1.97895E-04-9.66600E-15
 -1      3605 4.59439E-03-2.34565E-04-1.12398E-14
 -1      3606 4.73787E-03-2.34030E-04-1.18974E-14
 -1      3607 4.52191E-03-1.97072E-04-1.09122E-14
 -1      3608 4.88129E-03-2.33475E-04-1.25728E-14
 -1      3609 5.02462E-03-2.32896E-04-1.32649E-14
 -1      3610 4.80909E-03-1.96143E-04-1.22273E-14
 -1      3611 5.16789E-03-2.32300E-04-1.39731E-14
 -1      3612 5.31109E-03-2.31679E-04-1.46992E-14
 -1      3613 5.09592E-03-1.95137E-04-1.36103E-14
 -1      3614 5.45422E-03-2.31035E-04-1.54429E-14
 -1      3615 5.59729E-03-2.30360E-04-1.62030E-14
 -1      3616 5.38242E-03-1.94057E-04-1.50620E-14
 -1      3617 5.74028E-03-2.29652E-04-1.69800E-14
 -1      3618 5.88321E-03-2.28901E-04-1.77736E-14
 -1      3619 5.66860E-03-1.92883E-04-1.65831E-14
 -1      3620 6.02607E-03-2.28103E-04-1.85847E-14
 -1      3621 6.16885E-03-2.27249E-04-1.94130E-14
 -1      3622 5.95447E-03-1.91578E-04-1.81712E-14
 -1      3623 6.31154E-03-2.26332E-04-2.02558E-14
 -1      3624 6.45414E-03-2.25341E-04-2.11140E-14
 -1      3625 6.23997E-03-1.90097E-04-1.98257E-14
 -1      3626 6.59663E-03-2.24272E-04-2.19890E-14
 -1      3627 6.73901E-03-2.23112E-04-2.28786E-14
 -1      3628 6.52505E-03-1.88386E-04-2.15431E-14
 -1      3629 6.88124E-03-2.21858E-04-2.37817E-14
 -1      3630 7.02333E-03-2.20499E-04-2.46999E-14
 -1      3631 6.80959E-03-1.86394E-04-2.33217E-14
 -1      3632 7.16523E-03-2.19035E-04-2.56327E-14
 -1      3633 7.30693E-03-2.17454E-04-2.65800E-14
 -1      3634 7.09346E-03-1.84074E-04-2.51576E-14
 -1      3635 7.44839E-03-2.15766E-04-2.75414E-14
 -1      3636 7.58959E-03-2.13958E-04-2.85145E-14
 -1      3637 7.37644E-03-1.81403E-04-2.70494E-14
 -1      3638 7.73047E-03-2.12055E-04-2.95030E-14
 -1      3639 7.87101E-03-2.10043E-04-3.05045E-14
 -1      3640 7.65826E-03-1.78388E-04-2.89974E-14
 -1      3641 8.01112E-03-2.07967E-04-3.15189E-14
 -1      3642 8.15078E-03-2.05815E-04-3.25465E-14
 -1      3643 7.93857E-03-1.75093E-04-3.09991E-14
 -1      3644 8.28990E-03-2.03659E-04-3.35859E-14
 -1      3645 8.42842E-03-2.01492E-04-3.46370E-14
 -1      3646 8.21693E-03-1.71667E-04-3.30519E-14
 -1      3647 8.56623E-03-1.99422E-04-3.56996E-14
 -1      3648 8.70327E-03-1.97444E-04-3.67733E-14
 -1      3649 8.49275E-03-1.68373E-04-3.51539E-14
 -1      3650 8.83939E-03-1.95717E-04-3.78562E-14
 -1      3651 8.97452E-03-1.94235E-04-3.89480E-14
 -1      3652 8.76533E-03-1.65631E-04-3.72992E-14
 -1      3653 9.10847E-03-1.93221E-04-4.00480E-14
 -1      3654 9.24115E-03-1.92659E-04-4.11536E-14
 -1      3655 9.03376E-03-1.64053E-04-3.94797E-14
 -1      3656 9.37233E-03-1.92850E-04-4.22664E-14
 -1      3657 9.50190E-03-1.93749E-04-4.33891E-14
 -1      3658 9.29690E-03-1.64466E-04-4.16908E-14
 -1      3659 9.62956E-03-1.95750E-04-4.45157E-14
 -1      3660 9.75520E-03-1.98737E-04-4.56496E-14
 -1      3661 9.55334E-03-1.67907E-04-4.39298E-14
 -1      3662 9.87840E-03-2.03209E-04-4.67901E-14
 -1      3663 9.99907E-03-2.08910E-04-4.79351E-14
 -1      3664 9.80123E-03-1.75559E-04-4.61953E-14
 -1      3665 1.01166E-02-2.16491E-04-4.90866E-14
 -1      3666 1.02310E-02-2.25403E-04-5.02436E-14
 -1      3667 1.00381E-02-1.88574E-04-4.84867E-14
 -1      3668 1.03622E-02-2.44155E-04-5.15376E-14
 -1      3669 1.04870E-02-2.60618E-04-5.28592E-14
 -1      3670 1.05225E-02-2.55344E-04-5.35343E-14
 -1      3671 1.02780E-02-2.14928E-04-5.09336E-14
 -1      3672 5.53920E-03 2.68360E-04-1.55442E-14
 -1      3673 5.39615E-03 2.69022E-04-1.47928E-14
 -1      3674 4.10596E-03 2.73755E-04-8.82576E-15
 -1      3675 3.96224E-03 2.74077E-04-8.25208E-15
 -1      3676 5.25304E-03 2.69653E-04-1.40595E-14
 -1      3677 5.10988E-03 2.70260E-04-1.33437E-14
 -1      3678 5.32427E-03 2.32027E-04-1.44682E-14
 -1      3679 4.96666E-03 2.70841E-04-1.26447E-14
 -1      3680 4.82339E-03 2.71402E-04-1.19637E-14
 -1      3681 5.03782E-03 2.33095E-04-1.30355E-14
 -1      3682 5.82513E-03 2.66921E-04-1.71008E-14
 -1      3683 5.68219E-03 2.67663E-04-1.63132E-14
 -1      3684 5.61044E-03 2.30857E-04-1.59716E-14
 -1      3685 6.11083E-03 2.65280E-04-1.87240E-14
 -1      3686 5.96801E-03 2.66131E-04-1.79045E-14
 -1      3687 5.89634E-03 2.29545E-04-1.75443E-14
 -1      3688 6.39628E-03 2.63363E-04-2.04137E-14
 -1      3689 6.25359E-03 2.64361E-04-1.95613E-14
 -1      3690 6.18195E-03 2.28035E-04-1.91867E-14
 -1      3691 6.68141E-03 2.61088E-04-2.21605E-14
 -1      3692 6.53888E-03 2.62276E-04-2.12794E-14
 -1      3693 6.46721E-03 2.26259E-04-2.08896E-14
 -1      3694 6.96617E-03 2.58371E-04-2.39680E-14
 -1      3695 6.82384E-03 2.59792E-04-2.30573E-14
 -1      3696 6.75207E-03 2.24139E-04-2.26527E-14
 -1      3697 7.25047E-03 2.55125E-04-2.58328E-14
 -1      3698 7.10838E-03 2.56821E-04-2.48931E-14
 -1      3699 7.03643E-03 2.21593E-04-2.44739E-14
 -1      3700 7.53423E-03 2.51279E-04-2.77546E-14
 -1      3701 7.39242E-03 2.53283E-04-2.67863E-14
 -1      3702 7.32018E-03 2.18539E-04-2.63509E-14
 -1      3703 7.81733E-03 2.46780E-04-2.97284E-14
 -1      3704 7.67586E-03 2.49116E-04-2.87352E-14
 -1      3705 7.60320E-03 2.14902E-04-2.82855E-14
 -1      3706 8.09969E-03 2.41618E-04-3.17530E-14
 -1      3707 7.95860E-03 2.44285E-04-3.07363E-14
 -1      3708 7.88535E-03 2.10621E-04-3.02727E-14
 -1      3709 8.38129E-03 2.35839E-04-3.38232E-14
 -1      3710 8.24058E-03 2.38804E-04-3.27818E-14
 -1      3711 8.16650E-03 2.05666E-04-3.23084E-14
 -1      3712 8.66216E-03 2.29577E-04-3.59373E-14
 -1      3713 8.52180E-03 2.32761E-04-3.48750E-14
 -1      3714 8.44659E-03 2.00046E-04-3.43915E-14
 -1      3715 8.94251E-03 2.23087E-04-3.80863E-14
 -1      3716 8.80237E-03 2.26342E-04-3.70075E-14
 -1      3717 8.72561E-03 1.93837E-04-3.65158E-14
 -1      3718 9.22279E-03 2.16795E-04-4.02663E-14
 -1      3719 9.08260E-03 2.19882E-04-3.91717E-14
 -1      3720 9.00377E-03 1.87204E-04-3.86735E-14
 -1      3721 9.50386E-03 2.11364E-04-4.24754E-14
 -1      3722 9.36314E-03 2.13911E-04-4.13675E-14
 -1      3723 9.28152E-03 1.80446E-04-4.08628E-14
 -1      3724 9.78714E-03 2.07809E-04-4.47163E-14
 -1      3725 9.64508E-03 2.09247E-04-4.35919E-14
 -1      3726 9.55973E-03 1.74060E-04-4.30826E-14
 -1      3727 1.00749E-02 2.07698E-04-4.69898E-14
 -1      3728 9.93026E-03 2.07148E-04-4.58487E-14
 -1      3729 9.83997E-03 1.68868E-04-4.53318E-14
 -1      3730 1.03704E-02 2.13466E-04-4.92901E-14
 -1      3731 1.02214E-02 2.09560E-04-4.81364E-14
 -1      3732 1.01247E-02 1.66276E-04-4.76117E-14
 -1      3733 1.06782E-02 2.29110E-04-5.16161E-14
 -1      3734 1.05224E-02 2.19551E-04-5.04492E-14
 -1      3735 1.04176E-02 1.68663E-04-4.99164E-14
 -1      3736 1.10039E-02 2.60542E-04-5.39689E-14
 -1      3737 1.08386E-02 2.42184E-04-5.27898E-14
 -1      3738 1.07243E-02 1.80242E-04-5.22494E-14
 -1      3739 1.37815E-03 8.37615E-07-1.29756E-15
 -1      3740 1.25582E-03-1.47085E-05-1.10816E-15
 -1      3741 1.05133E-02-2.07549E-04-5.41110E-14
 -1      3742 1.05114E-02-1.77400E-04-5.37860E-14
 -1      3743 1.07170E-02-4.70245E-05-5.39762E-14
 -1      3744 1.08222E-02 1.89007E-05-5.41767E-14
 -1      3745 1.20192E-03-9.94637E-05-1.02717E-15
 -1      3746 1.33595E-03-1.27389E-04-1.22774E-15
 -1      3747 1.22289E-03-7.29724E-05-1.06081E-15
 -1      3748 1.47728E-03-1.93470E-04-1.44157E-15
 -1      3749 1.26806E-03 1.75275E-04-1.04627E-15
 -1      3750 1.26411E-03 1.42629E-04-1.06214E-15
 -1      3751 1.38531E-03 1.33891E-04-1.25669E-15
 -1      3752 1.09493E-02 1.22791E-04-5.43579E-14
 -1      3753 1.11667E-02 2.29630E-04-5.53616E-14
 -1      3754 1.41569E-03 2.21859E-04-1.24080E-15
 -1      3755 1.47747E-03-1.64131E-04-1.45307E-15
 -1      3756 1.63963E-03-2.01519E-04-1.73121E-15
 -1      3757 1.78360E-03-2.09161E-04-2.00825E-15
 -1      3758 1.49733E-03-1.33776E-04-1.49610E-15
 -1      3759 1.72919E-03 3.18690E-04-1.69010E-15
 -1      3760 1.60375E-03 3.12442E-04-1.46664E-15
 -1      3761 1.56124E-03 2.83169E-04-1.42589E-15
 -1      3762 1.79432E-03 2.88869E-04-1.85241E-15
 -1      3763 1.14735E-02 3.48520E-04-5.71035E-14
 -1      3764 1.05601E-02-1.28906E-04-5.36250E-14
 -1      3765 1.06341E-02-9.27688E-05-5.38011E-14
 -1      3766 1.05818E-02-4.88072E-05-5.28986E-14
 -1      3767 1.07754E-02 8.99875E-05-5.32511E-14
 -1      3768 4.75108E-03 2.34081E-04-1.16738E-14
 -1      3769 4.68004E-03 2.71938E-04-1.13012E-14
 -1      3770 4.53664E-03 2.72451E-04-1.06559E-14
 -1      3771 4.24960E-03 2.73370E-04-9.41769E-15
 -1      3772 4.17661E-03 2.35744E-04-9.16238E-15
 -1      3773 4.39316E-03 2.72928E-04-1.00277E-14
 -1      3774 3.88880E-03 2.36295E-04-8.01372E-15
 -1      3775 3.81843E-03 2.74306E-04-7.69636E-15
 -1      3776 3.67452E-03 2.74430E-04-7.15881E-15
 -1      3777 1.04594E-02-2.35457E-04-5.30485E-14
 -1      3778 1.23365E-03-4.20040E-05-1.07709E-15
 -1      3779 1.50186E-03 1.82416E-05-1.50144E-15
 -1      3780 1.50105E-03-1.67998E-05-1.50756E-15
 -1      3781 1.12926E-02 3.11025E-04-5.59123E-14
 -1      3782 1.03742E-02-1.52595E-04-5.21541E-14
 -1      3783 1.04601E-02-1.43002E-04-5.28912E-14
 -1      3784 1.04051E-02-1.06654E-04-5.19939E-14
 -1      3785 2.08087E-03 2.56201E-04-2.48898E-15
 -1      3786 1.95451E-03 2.55025E-04-2.21652E-15
 -1      3787 1.04654E-02-2.11125E-04-5.34586E-14
 -1      3788 1.35483E-02 5.33770E-04-7.17053E-14
 -1      3789 1.85172E-03-1.78178E-04-2.15923E-15
 -1      3790 2.95349E-03 2.72044E-04-4.75275E-15
 -1      3791 2.80900E-03 2.70612E-04-4.32851E-15
 -1      3792 2.59640E-03 3.04763E-04-3.69393E-15
 -1      3793 3.24220E-03 2.73777E-04-5.65848E-15
 -1      3794 3.09789E-03 2.73084E-04-5.19620E-15
 -1      3795 3.02273E-03 2.34826E-04-5.00755E-15
 -1      3796 2.37008E-03 2.65217E-04-3.15816E-15
 -1      3797 2.22545E-03 2.61188E-04-2.81361E-15
 -1      3798 2.14353E-03 2.24923E-04-2.66248E-15
 -1      3799 1.50434E-03 8.73869E-05-1.48098E-15
 -1      3800 1.50270E-03 5.27278E-05-1.49213E-15
 -1      3801 1.62568E-03 3.64792E-05-1.71814E-15
 -1      3802 2.13378E-03-1.49643E-04-2.78571E-15
 -1      3803 2.27885E-03-1.52464E-04-3.13132E-15
 -1      3804 2.42404E-03-1.54748E-04-3.49690E-15
 -1      3805 2.56928E-03-1.56549E-04-3.88203E-15
 -1      3806 2.34912E-03-1.17151E-04-3.31030E-15
 -1      3807 2.71452E-03-1.57958E-04-4.28676E-15
 -1      3808 2.85972E-03-1.59010E-04-4.71022E-15
 -1      3809 2.63983E-03-1.19967E-04-4.07946E-15
 -1      3810 3.00485E-03-1.59786E-04-5.15340E-15
 -1      3811 3.14987E-03-1.60309E-04-5.61522E-15
 -1      3812 2.93050E-03-1.21615E-04-4.92584E-15
 -1      3813 3.29478E-03-1.60644E-04-6.09580E-15
 -1      3814 3.43957E-03-1.60805E-04-6.59565E-15
 -1      3815 3.22084E-03-1.22437E-04-5.84873E-15
 -1      3816 3.58422E-03-1.60844E-04-7.11296E-15
 -1      3817 3.72874E-03-1.60767E-04-7.64764E-15
 -1      3818 3.51068E-03-1.22692E-04-6.84592E-15
 -1      3819 3.87313E-03-1.60613E-04-8.20035E-15
 -1      3820 4.01738E-03-1.60386E-04-8.77110E-15
 -1      3821 3.79998E-03-1.22571E-04-7.91451E-15
 -1      3822 4.16151E-03-1.60114E-04-9.35956E-15
 -1      3823 4.30552E-03-1.59795E-04-9.96509E-15
 -1      3824 4.08871E-03-1.22213E-04-9.05423E-15
 -1      3825 4.44941E-03-1.59452E-04-1.05870E-14
 -1      3826 4.59319E-03-1.59079E-04-1.12262E-14
 -1      3827 4.37691E-03-1.21710E-04-1.02637E-14
 -1      3828 4.73686E-03-1.58690E-04-1.18833E-14
 -1      3829 4.88043E-03-1.58282E-04-1.25578E-14
 -1      3830 4.66462E-03-1.21120E-04-1.15421E-14
 -1      3831 5.02391E-03-1.57862E-04-1.32491E-14
 -1      3832 5.16729E-03-1.57424E-04-1.39566E-14
 -1      3833 4.95189E-03-1.20472E-04-1.28888E-14
 -1      3834 5.31059E-03-1.56973E-04-1.46828E-14
 -1      3835 5.45379E-03-1.56501E-04-1.54262E-14
 -1      3836 5.23874E-03-1.19776E-04-1.43051E-14
 -1      3837 5.59691E-03-1.56011E-04-1.61860E-14
 -1      3838 5.73993E-03-1.55494E-04-1.69633E-14
 -1      3839 5.52520E-03-1.19029E-04-1.57912E-14
 -1      3840 5.88287E-03-1.54951E-04-1.77579E-14
 -1      3841 6.02570E-03-1.54372E-04-1.85690E-14
 -1      3842 5.81127E-03-1.18211E-04-1.73455E-14
 -1      3843 6.16843E-03-1.53758E-04-1.93961E-14
 -1      3844 6.31105E-03-1.53097E-04-2.02390E-14
 -1      3845 6.09692E-03-1.17300E-04-1.89675E-14
 -1      3846 6.45353E-03-1.52391E-04-2.10984E-14
 -1      3847 6.59588E-03-1.51628E-04-2.19723E-14
 -1      3848 6.38209E-03-1.16266E-04-2.06541E-14
 -1      3849 6.73807E-03-1.50811E-04-2.28613E-14
 -1      3850 6.88009E-03-1.49928E-04-2.37647E-14
 -1      3851 6.66667E-03-1.15083E-04-2.24011E-14
 -1      3852 7.02190E-03-1.48985E-04-2.46829E-14
 -1      3853 7.16348E-03-1.47970E-04-2.56143E-14
 -1      3854 6.95052E-03-1.13729E-04-2.42088E-14
 -1      3855 7.30480E-03-1.46898E-04-2.65596E-14
 -1      3856 7.44583E-03-1.45754E-04-2.75187E-14
 -1      3857 7.23344E-03-1.12201E-04-2.60701E-14
 -1      3858 7.58651E-03-1.44564E-04-2.84927E-14
 -1      3859 7.72682E-03-1.43316E-04-2.94793E-14
 -1      3860 7.51517E-03-1.10519E-04-2.79890E-14
 -1      3861 7.86668E-03-1.42049E-04-3.04795E-14
 -1      3862 8.00606E-03-1.40753E-04-3.14922E-14
 -1      3863 7.79536E-03-1.08748E-04-2.99611E-14
 -1      3864 8.14487E-03-1.39490E-04-3.25192E-14
 -1      3865 8.28306E-03-1.38252E-04-3.35578E-14
 -1      3866 8.07359E-03-1.07019E-04-3.19862E-14
 -1      3867 8.42052E-03-1.37131E-04-3.46084E-14
 -1      3868 8.55719E-03-1.36118E-04-3.56704E-14
 -1      3869 8.34934E-03-1.05552E-04-3.40634E-14
 -1      3870 8.69295E-03-1.35351E-04-3.67429E-14
 -1      3871 8.82769E-03-1.34817E-04-3.78231E-14
 -1      3872 8.62195E-03-1.04691E-04-3.61865E-14
 -1      3873 8.96128E-03-1.34705E-04-3.89129E-14
 -1      3874 9.09360E-03-1.34997E-04-4.00103E-14
 -1      3875 8.89064E-03-1.04936E-04-3.83470E-14
 -1      3876 9.22447E-03-1.35949E-04-4.11148E-14
 -1      3877 9.35372E-03-1.37514E-04-4.22263E-14
 -1      3878 9.15444E-03-1.06969E-04-4.05402E-14
 -1      3879 9.48115E-03-1.40037E-04-4.33444E-14
 -1      3880 9.60652E-03-1.43409E-04-4.44706E-14
 -1      3881 9.41213E-03-1.11668E-04-4.27612E-14
 -1      3882 9.72957E-03-1.48085E-04-4.56036E-14
 -1      3883 9.84996E-03-1.53834E-04-4.67423E-14
 -1      3884 9.66215E-03-1.20074E-04-4.50115E-14
 -1      3885 9.96730E-03-1.61204E-04-4.78872E-14
 -1      3886 1.00812E-02-1.69850E-04-4.90375E-14
 -1      3887 9.90240E-03-1.33344E-04-4.72880E-14
 -1      3888 1.02172E-02-1.86711E-04-5.04672E-14
 -1      3889 1.03363E-02-2.05603E-04-5.17639E-14
 -1      3890 5.68171E-03 1.93425E-04-1.64002E-14
 -1      3891 5.53866E-03 1.93952E-04-1.56309E-14
 -1      3892 1.03991E-02-2.07001E-04-5.25804E-14
 -1      3893 5.10906E-03 1.95378E-04-1.34278E-14
 -1      3894 4.96570E-03 1.95815E-04-1.27286E-14
 -1      3895 6.25301E-03 1.90920E-04-1.96491E-14
 -1      3896 6.11032E-03 1.91621E-04-1.88115E-14
 -1      3897 6.53807E-03 1.89323E-04-2.13670E-14
 -1      3898 6.39560E-03 1.90159E-04-2.05010E-14
 -1      3899 6.32403E-03 1.53953E-04-2.01114E-14
 -1      3900 6.82261E-03 1.87403E-04-2.31448E-14
 -1      3901 6.68041E-03 1.88410E-04-2.22487E-14
 -1      3902 6.60885E-03 1.52574E-04-2.18459E-14
 -1      3903 7.10654E-03 1.85082E-04-2.49797E-14
 -1      3904 6.96466E-03 1.86300E-04-2.40549E-14
 -1      3905 6.89306E-03 1.50900E-04-2.36377E-14
 -1      3906 7.38971E-03 1.82279E-04-2.68713E-14
 -1      3907 7.24823E-03 1.83749E-04-2.59184E-14
 -1      3908 7.17653E-03 1.48858E-04-2.54866E-14
 -1      3909 7.67195E-03 1.78915E-04-2.88168E-14
 -1      3910 7.53095E-03 1.80676E-04-2.78372E-14
 -1      3911 7.45908E-03 1.46368E-04-2.73915E-14
 -1      3912 7.95309E-03 1.74918E-04-3.08171E-14
 -1      3913 7.81266E-03 1.77005E-04-2.98106E-14
 -1      3914 7.74051E-03 1.43343E-04-2.93509E-14
 -1      3915 8.23297E-03 1.70229E-04-3.28645E-14
 -1      3916 8.09319E-03 1.72668E-04-3.18351E-14
 -1      3917 8.02061E-03 1.39695E-04-3.13612E-14
 -1      3918 8.51145E-03 1.64812E-04-3.49590E-14
 -1      3919 8.37238E-03 1.67619E-04-3.39056E-14
 -1      3920 8.29915E-03 1.35330E-04-3.34217E-14
 -1      3921 8.78853E-03 1.58672E-04-3.70941E-14
 -1      3922 8.65015E-03 1.61837E-04-3.60217E-14
 -1      3923 8.57597E-03 1.30159E-04-3.55281E-14
 -1      3924 9.06432E-03 1.51865E-04-3.92619E-14
 -1      3925 8.92655E-03 1.55350E-04-3.81750E-14
 -1      3926 8.85097E-03 1.24098E-04-3.76744E-14
 -1      3927 9.33926E-03 1.44543E-04-4.14606E-14
 -1      3928 9.20184E-03 1.48255E-04-4.03572E-14
 -1      3929 9.12423E-03 1.17079E-04-3.98521E-14
 -1      3930 9.61422E-03 1.37011E-04-4.36869E-14
 -1      3931 9.47663E-03 1.40768E-04-4.25694E-14
 -1      3932 9.39608E-03 1.09083E-04-4.20565E-14
 -1      3933 9.89076E-03 1.29861E-04-4.59460E-14
 -1      3934 9.75211E-03 1.33305E-04-4.48134E-14
 -1      3935 9.66731E-03 1.00187E-04-4.42931E-14
 -1      3936 1.01715E-02 1.24312E-04-4.82307E-14
 -1      3937 1.00303E-02 1.26709E-04-4.70848E-14
 -1      3938 9.93939E-03 9.07145E-05-4.65589E-14
 -1      3939 1.04604E-02 1.22649E-04-5.05429E-14
 -1      3940 1.03144E-02 1.22683E-04-4.93849E-14
 -1      3941 1.02149E-02 8.16516E-05-4.88509E-14
 -1      3942 1.06240E-02 8.71457E-05-5.20770E-14
 -1      3943 1.03614E-02-1.80172E-04-5.21694E-14
 -1      3944 1.36669E-03-6.57662E-05-1.28474E-15
 -1      3945 1.61333E-03-3.59521E-05-1.71053E-15
 -1      3946 1.48961E-03-5.17740E-05-1.49057E-15
 -1      3947 1.47898E-03-8.66155E-05-1.47136E-15
 -1      3948 1.53193E-03 2.25687E-04-1.43307E-15
 -1      3949 2.66443E-03 2.68679E-04-3.92388E-15
 -1      3950 2.51981E-03 2.66187E-04-3.53886E-15
 -1      3951 2.73321E-03 2.32229E-04-4.15679E-15
 -1      3952 3.53051E-03 2.74404E-04-6.63968E-15
 -1      3953 3.38641E-03 2.74207E-04-6.13942E-15
 -1      3954 3.31187E-03 2.36101E-04-5.93439E-15
 -1      3955 3.60056E-03 2.36486E-04-6.93732E-15
 -1      3956 5.96754E-03 1.92266E-04-1.79915E-14
 -1      3957 5.82467E-03 1.92867E-04-1.71874E-14
 -1      3958 5.75298E-03 1.56085E-04-1.68305E-14
 -1      3959 1.51023E-03 1.57661E-04-1.45032E-15
 -1      3960 1.50684E-03 1.22327E-04-1.46709E-15
 -1      3961 1.62909E-03 1.08698E-04-1.69281E-15
 -1      3962 1.62020E-03-1.21017E-04-1.71968E-15
 -1      3963 1.83738E-03 2.55220E-04-1.97536E-15
 -1      3964 1.72044E-03 2.54294E-04-1.74782E-15
 -1      3965 1.88141E-03 2.21161E-04-2.09891E-15
 -1      3966 5.39554E-03 1.94450E-04-1.48793E-14
 -1      3967 5.25234E-03 1.94925E-04-1.41449E-14
 -1      3968 5.46686E-03 1.56942E-04-1.52914E-14
 -1      3969 1.77015E-03-1.33759E-04-2.00556E-15
 -1      3970 1.98274E-03-1.38016E-04-2.44821E-15
 -1      3971 2.05282E-03-1.04562E-04-2.60745E-15
 -1      3972 1.75185E-03-8.30376E-05-1.97546E-15
 -1      3973 1.04466E-02-5.21454E-05-5.18136E-14
 -1      3974 1.05142E-02-1.07019E-05-5.19849E-14
 -1      3975 4.82225E-03 1.96233E-04-1.20475E-14
 -1      3976 4.67871E-03 1.96636E-04-1.13849E-14
 -1      3977 4.89354E-03 1.58420E-04-1.24237E-14
 -1      3978 4.46402E-03 2.34977E-04-1.03829E-14
 -1      3979 1.01552E-02-1.58822E-04-4.98611E-14
 -1      3980 3.95951E-03 1.98209E-04-8.33264E-15
 -1      3981 3.81534E-03 1.98376E-04-7.77578E-15
 -1      3982 1.57601E-03 1.94951E-04-1.53732E-15
 -1      3983 5.18039E-03 1.57713E-04-1.38221E-14
 -1      3984 6.03872E-03 1.55104E-04-1.84388E-14
 -1      3985 1.05104E-02 3.95694E-05-5.15364E-14
 -1      3986 1.03673E-02 3.02139E-05-5.04560E-14
 -1      3987 1.75069E-03 5.64117E-05-1.94801E-15
 -1      3988 1.74981E-03 1.91846E-05-1.95909E-15
 -1      3989 1.02910E-02-1.50349E-04-5.12797E-14
 -1      3990 1.75596E-03-1.28928E-05-1.97894E-15
 -1      3991 1.74432E-03-5.07919E-05-1.96039E-15
 -1      3992 1.89437E-03-6.04389E-05-2.26484E-15
 -1      3993 1.88086E-03 5.90847E-06-2.22654E-15
 -1      3994 2.80271E-03 1.95420E-04-4.39282E-15
 -1      3995 2.65765E-03 1.93936E-04-3.98545E-15
 -1      3996 2.43831E-03 2.30003E-04-3.36845E-15
 -1      3997 1.03385E-02-7.24258E-05-5.10857E-14
 -1      3998 1.69767E-03 1.82664E-04-1.77073E-15
 -1      3999 1.93240E-03 1.80708E-04-2.24086E-15
 -1      4000 1.81489E-03 1.82177E-04-1.99871E-15
 -1      4001 1.74926E-03 1.44175E-04-1.89809E-15
 -1      4002 4.24751E-03 1.97694E-04-9.50020E-15
 -1      4003 4.10357E-03 1.97981E-04-8.90753E-15
 -1      4004 4.03052E-03 1.60090E-04-8.65341E-15
 -1      4005 2.94770E-03 1.96547E-04-4.81941E-15
 -1      4006 2.87286E-03 1.58304E-04-4.63149E-15
 -1      4007 3.09259E-03 1.97351E-04-5.26525E-15
 -1      4008 2.22200E-03 1.89091E-04-2.87807E-15
 -1      4009 2.07710E-03 1.85309E-04-2.54991E-15
 -1      4010 2.01137E-03 1.46325E-04-2.43611E-15
 -1      4011 4.53508E-03 1.97013E-04-1.07396E-14
 -1      4012 4.39135E-03 1.97371E-04-1.01107E-14
 -1      4013 4.31865E-03 1.59637E-04-9.83968E-15
 -1      4014 4.60631E-03 1.59065E-04-1.10970E-14
 -1      4015 2.56558E-03-8.22465E-05-3.87511E-15
 -1      4016 2.71105E-03-8.29934E-05-4.27849E-15
 -1      4017 2.85649E-03-8.35608E-05-4.70101E-15
 -1      4018 3.00186E-03-8.39652E-05-5.14275E-15
 -1      4019 2.78288E-03-4.56759E-05-4.47881E-15
 -1      4020 3.14714E-03-8.42457E-05-5.60370E-15
 -1      4021 3.29230E-03-8.44097E-05-6.08317E-15
 -1      4022 3.07375E-03-4.61083E-05-5.36081E-15
 -1      4023 3.43732E-03-8.44928E-05-6.58047E-15
 -1      4024 3.58221E-03-8.44936E-05-7.09677E-15
 -1      4025 3.36419E-03-4.62776E-05-6.31808E-15
 -1      4026 3.72695E-03-8.44446E-05-7.63013E-15
 -1      4027 3.87154E-03-8.43419E-05-8.18146E-15
 -1      4028 3.65408E-03-4.62555E-05-7.34792E-15
 -1      4029 4.01599E-03-8.42083E-05-8.75123E-15
 -1      4030 4.16029E-03-8.40405E-05-9.33775E-15
 -1      4031 3.94338E-03-4.61120E-05-8.44981E-15
 -1      4032 4.30446E-03-8.38571E-05-9.94277E-15
 -1      4033 4.44850E-03-8.36508E-05-1.05639E-14
 -1      4034 4.23209E-03-4.59017E-05-9.62208E-15
 -1      4035 4.59241E-03-8.34361E-05-1.12012E-14
 -1      4036 4.73620E-03-8.32062E-05-1.18574E-14
 -1      4037 4.52025E-03-4.56454E-05-1.08638E-14
 -1      4038 4.87987E-03-8.29693E-05-1.25310E-14
 -1      4039 5.02344E-03-8.27219E-05-1.32213E-14
 -1      4040 4.80789E-03-4.53565E-05-1.21744E-14
 -1      4041 5.16690E-03-8.24696E-05-1.39291E-14
 -1      4042 5.31025E-03-8.22060E-05-1.46550E-14
 -1      4043 5.09507E-03-4.50514E-05-1.35549E-14
 -1      4044 5.45350E-03-8.19350E-05-1.53974E-14
 -1      4045 5.59665E-03-8.16510E-05-1.61571E-14
 -1      4046 5.38181E-03-4.47273E-05-1.50051E-14
 -1      4047 5.73969E-03-8.13561E-05-1.69348E-14
 -1      4048 5.88262E-03-8.10448E-05-1.77293E-14
 -1      4049 5.66811E-03-4.43809E-05-1.65250E-14
 -1      4050 6.02544E-03-8.07184E-05-1.85405E-14
 -1      4051 6.16813E-03-8.03713E-05-1.93677E-14
 -1      4052 5.95398E-03-4.40065E-05-1.81135E-14
 -1      4053 6.31069E-03-8.00051E-05-2.02111E-14
 -1      4054 6.45311E-03-7.96141E-05-2.10699E-14
 -1      4055 6.23934E-03-4.35979E-05-1.97691E-14
 -1      4056 6.59536E-03-7.92013E-05-2.19440E-14
 -1      4057 6.73743E-03-7.87605E-05-2.28321E-14
 -1      4058 6.52413E-03-4.31515E-05-2.14864E-14
 -1      4059 6.87930E-03-7.82982E-05-2.37353E-14
 -1      4060 7.02094E-03-7.78077E-05-2.46529E-14
 -1      4061 6.80820E-03-4.26702E-05-2.32629E-14
 -1      4062 7.16232E-03-7.73008E-05-2.55839E-14
 -1      4063 7.30341E-03-7.67707E-05-2.65289E-14
 -1      4064 7.09139E-03-4.21689E-05-2.50977E-14
 -1      4065 7.44417E-03-7.62377E-05-2.74863E-14
 -1      4066 7.58456E-03-7.56947E-05-2.84590E-14
 -1      4067 7.37344E-03-4.16829E-05-2.69862E-14
 -1      4068 7.72452E-03-7.51747E-05-2.94448E-14
 -1      4069 7.86402E-03-7.46705E-05-3.04432E-14
 -1      4070 7.65407E-03-4.12790E-05-2.89287E-14
 -1      4071 8.00298E-03-7.42330E-05-3.14562E-14
 -1      4072 8.14135E-03-7.38552E-05-3.24820E-14
 -1      4073 7.93290E-03-4.10705E-05-3.09261E-14
 -1      4074 8.27905E-03-7.36130E-05-3.35194E-14
 -1      4075 8.41602E-03-7.34985E-05-3.45686E-14
 -1      4076 8.20948E-03-4.12372E-05-3.29756E-14
 -1      4077 8.55215E-03-7.36217E-05-3.56299E-14
 -1      4078 8.68738E-03-7.39718E-05-3.67010E-14
 -1      4079 8.48329E-03-4.20494E-05-3.50742E-14
 -1      4080 8.82157E-03-7.47036E-05-3.77804E-14
 -1      4081 8.95465E-03-7.57980E-05-3.88695E-14
 -1      4082 8.75370E-03-4.38949E-05-3.72151E-14
 -1      4083 9.08647E-03-7.74685E-05-3.99654E-14
 -1      4084 9.21690E-03-7.96757E-05-4.10673E-14
 -1      4085 9.02001E-03-4.73062E-05-3.93907E-14
 -1      4086 9.34580E-03-8.27100E-05-4.21784E-14
 -1      4087 9.47298E-03-8.64865E-05-4.32948E-14
 -1      4088 9.28137E-03-5.29821E-05-4.15951E-14
 -1      4089 9.59829E-03-9.13991E-05-4.44194E-14
 -1      4090 9.72141E-03-9.72586E-05-4.55530E-14
 -1      4091 9.53680E-03-6.17941E-05-4.38286E-14
 -1      4092 9.84221E-03-1.04601E-04-4.66897E-14
 -1      4093 9.96021E-03-1.13139E-04-4.78320E-14
 -1      4094 9.78497E-03-7.47362E-05-4.60905E-14
 -1      4095 1.74634E-03 1.06596E-04-1.91562E-15
 -1      4096 5.82427E-03 1.18847E-04-1.72621E-14
 -1      4097 5.68130E-03 1.19194E-04-1.64751E-14
 -1      4098 6.39502E-03 1.17148E-04-2.05756E-14
 -1      4099 6.25252E-03 1.17633E-04-1.97232E-14
 -1      4100 7.24645E-03 1.12941E-04-2.59940E-14
 -1      4101 7.10507E-03 1.13843E-04-2.50548E-14
 -1      4102 7.52838E-03 1.10826E-04-2.79113E-14
 -1      4103 7.38756E-03 1.11944E-04-2.69472E-14
 -1      4104 7.31634E-03 7.73505E-05-2.65017E-14
 -1      4105 7.80899E-03 1.08208E-04-2.98851E-14
 -1      4106 7.66886E-03 1.09591E-04-2.88917E-14
 -1      4107 7.59764E-03 7.56758E-05-2.84338E-14
 -1      4108 8.08802E-03 1.04977E-04-3.19084E-14
 -1      4109 7.94871E-03 1.06682E-04-3.08902E-14
 -1      4110 7.87744E-03 7.35345E-05-3.04190E-14
 -1      4111 8.36522E-03 1.01001E-04-3.39812E-14
 -1      4112 8.22686E-03 1.03097E-04-3.29395E-14
 -1      4113 8.15542E-03 7.07914E-05-3.24567E-14
 -1      4114 8.64033E-03 9.61274E-05-3.60984E-14
 -1      4115 8.50303E-03 9.86925E-05-3.50339E-14
 -1      4116 8.43126E-03 6.72720E-05-3.45407E-14
 -1      4117 8.91317E-03 9.01763E-05-3.82556E-14
 -1      4118 8.77702E-03 9.33027E-05-3.71727E-14
 -1      4119 8.70463E-03 6.27522E-05-3.66700E-14
 -1      4120 9.18373E-03 8.29466E-05-4.04410E-14
 -1      4121 9.04870E-03 8.67348E-05-3.93448E-14
 -1      4122 8.97525E-03 5.69489E-05-3.88357E-14
 -1      4123 9.45220E-03 7.42348E-05-4.26547E-14
 -1      4124 9.31815E-03 7.87808E-05-4.15449E-14
 -1      4125 9.24295E-03 4.95159E-05-4.10304E-14
 -1      4126 9.71918E-03 6.38884E-05-4.49009E-14
 -1      4127 9.58575E-03 6.92512E-05-4.37733E-14
 -1      4128 9.50773E-03 4.00565E-05-4.32536E-14
 -1      4129 9.98588E-03 5.19011E-05-4.71720E-14
 -1      4130 9.85235E-03 5.80553E-05-4.60331E-14
 -1      4131 9.76990E-03 2.81677E-05-4.55053E-14
 -1      4132 1.02432E-02 3.79967E-05-4.93860E-14
 -1      4133 1.01085E-02 4.45236E-05-4.82333E-14
 -1      4134 1.00195E-02 1.27416E-05-4.77015E-14
 -1      4135 1.02574E-02-5.92009E-06-4.98311E-14
 -1      4136 3.74189E-03 1.60338E-04-7.53797E-15
 -1      4137 3.67103E-03 1.98449E-04-7.23636E-15
 -1      4138 3.52661E-03 1.98421E-04-6.71516E-15
 -1      4139 1.87013E-03 9.05527E-05-2.17158E-15
 -1      4140 1.01595E-02-1.30773E-04-4.98460E-14
 -1      4141 5.25178E-03 1.20112E-04-1.42185E-14
 -1      4142 5.10842E-03 1.20389E-04-1.35006E-14
 -1      4143 2.51492E-03 1.92178E-04-3.60371E-15
 -1      4144 2.36466E-03 1.91993E-04-3.22058E-15
 -1      4145 2.29903E-03 1.52287E-04-3.09311E-15
 -1      4146 2.58477E-03 1.55980E-04-3.82082E-15
 -1      4147 2.01479E-03 9.31452E-05-2.47678E-15
 -1      4148 6.96346E-03 1.14648E-04-2.41309E-14
 -1      4149 6.82162E-03 1.15376E-04-2.32204E-14
 -1      4150 7.03382E-03 7.86638E-05-2.46233E-14
 -1      4151 5.53822E-03 1.19517E-04-1.57040E-14
 -1      4152 5.39505E-03 1.19823E-04-1.49522E-14
 -1      4153 5.60962E-03 8.21880E-05-1.61202E-14
 -1      4154 6.67959E-03 1.16027E-04-2.23248E-14
 -1      4155 6.53739E-03 1.16618E-04-2.14425E-14
 -1      4156 6.46600E-03 8.05207E-05-2.10404E-14
 -1      4157 6.75030E-03 7.96986E-05-2.28038E-14
 -1      4158 2.27477E-03-8.00448E-05-3.12741E-15
 -1      4159 2.42013E-03-8.12652E-05-3.49165E-15
 -1      4160 2.49183E-03-4.48564E-05-3.67387E-15
 -1      4161 6.10989E-03 1.18072E-04-1.88864E-14
 -1      4162 5.96713E-03 1.18476E-04-1.80665E-14
 -1      4163 6.18105E-03 8.11828E-05-1.93360E-14
 -1      4164 1.01125E-02-9.93009E-05-4.92373E-14
 -1      4165 2.94364E-03 1.20899E-04-4.87322E-15
 -1      4166 2.79833E-03 1.20174E-04-4.44423E-15
 -1      4167 2.00892E-03-6.53891E-05-2.51056E-15
 -1      4168 2.15979E-03-7.51665E-05-2.85233E-15
 -1      4169 2.23135E-03-3.99555E-05-3.01864E-15
 -1      4170 2.00178E-03-3.14040E-05-2.49156E-15
 -1      4171 5.89556E-03 8.17274E-05-1.76944E-14
 -1      4172 5.32324E-03 8.25902E-05-1.46147E-14
 -1      4173 3.81310E-03 1.22166E-04-7.84164E-15
 -1      4174 3.66853E-03 1.22204E-04-7.30071E-15
 -1      4175 2.65532E-03 1.19358E-04-4.04115E-15
 -1      4176 2.51230E-03 1.18287E-04-3.65665E-15
 -1      4177 2.72652E-03 8.23637E-05-4.26425E-15
 -1      4178 1.98938E-03 3.62680E-05-2.44715E-15
 -1      4179 1.99526E-03 2.46372E-06-2.47068E-15
 -1      4180 2.10989E-03-1.14688E-06-2.72643E-15
 -1      4181 5.03645E-03 8.29513E-05-1.31812E-14
 -1      4182 4.96495E-03 1.20653E-04-1.28015E-14
 -1      4183 4.82138E-03 1.20908E-04-1.21201E-14
 -1      4184 1.02213E-02-8.84705E-05-5.01748E-14
 -1      4185 1.02463E-02-3.87610E-05-4.99959E-14
 -1      4186 3.23738E-03 1.97910E-04-5.72991E-15
 -1      4187 3.16302E-03 1.59671E-04-5.52512E-15
 -1      4188 3.38206E-03 1.98246E-04-6.21324E-15
 -1      4189 4.10182E-03 1.21949E-04-8.97633E-15
 -1      4190 3.95753E-03 1.22084E-04-8.40026E-15
 -1      4191 3.88462E-03 8.39755E-05-8.14702E-15
 -1      4192 1.01315E-02-2.75190E-05-4.89291E-14
 -1      4193 2.75275E-03 1.83591E-05-4.37157E-15
 -1      4194 2.89826E-03 1.85156E-05-4.79762E-15
 -1      4195 3.08887E-03 1.21440E-04-5.32118E-15
 -1      4196 3.01498E-03 8.32533E-05-5.11768E-15
 -1      4197 3.23398E-03 1.21805E-04-5.78826E-15
 -1      4198 3.04369E-03 1.86220E-05-5.24271E-15
 -1      4199 3.18902E-03 1.87180E-05-5.70701E-15
 -1      4200 3.58146E-03-8.03668E-06-7.06814E-15
 -1      4201 3.72628E-03-7.99619E-06-7.60024E-15
 -1      4202 3.91364E-03 1.89212E-05-8.30199E-15
 -1      4203 4.05811E-03 1.89369E-05-8.87513E-15
 -1      4204 4.44817E-03-7.76001E-06-1.05271E-14
 -1      4205 4.59213E-03-7.70226E-06-1.11638E-14
 -1      4206 4.77841E-03 1.89355E-05-1.19998E-14
 -1      4207 4.92208E-03 1.89295E-05-1.26779E-14
 -1      4208 5.06564E-03 1.89180E-05-1.33725E-14
 -1      4209 5.20909E-03 1.89097E-05-1.40851E-14
 -1      4210 5.35243E-03 1.88951E-05-1.48140E-14
 -1      4211 5.49567E-03 1.88817E-05-1.55613E-14
 -1      4212 5.63879E-03 1.88612E-05-1.63270E-14
 -1      4213 5.78180E-03 1.88400E-05-1.71090E-14
 -1      4214 5.92470E-03 1.88097E-05-1.79077E-14
 -1      4215 6.06747E-03 1.87763E-05-1.87241E-14
 -1      4216 6.21011E-03 1.87302E-05-1.95566E-14
 -1      4217 6.35261E-03 1.86776E-05-2.04046E-14
 -1      4218 6.49495E-03 1.86066E-05-2.12672E-14
 -1      4219 6.63711E-03 1.85245E-05-2.21456E-14
 -1      4220 6.77908E-03 1.84152E-05-2.30382E-14
 -1      4221 6.92084E-03 1.82880E-05-2.39438E-14
 -1      4222 7.06236E-03 1.81204E-05-2.48642E-14
 -1      4223 7.20360E-03 1.79249E-05-2.58002E-14
 -1      4224 7.34454E-03 1.76698E-05-2.67492E-14
 -1      4225 7.48514E-03 1.73714E-05-2.77094E-14
 -1      4226 7.62537E-03 1.69857E-05-2.86854E-14
 -1      4227 7.76517E-03 1.65337E-05-2.96738E-14
 -1      4228 7.90450E-03 1.59546E-05-3.06748E-14
 -1      4229 8.04331E-03 1.52755E-05-3.16908E-14
 -1      4230 8.18155E-03 1.44135E-05-3.27196E-14
 -1      4231 8.31915E-03 1.34025E-05-3.37593E-14
 -1      4232 8.45608E-03 1.21316E-05-3.48098E-14
 -1      4233 8.59225E-03 1.06433E-05-3.58730E-14
 -1      4234 8.72762E-03 8.79119E-06-3.69459E-14
 -1      4235 8.86210E-03 6.62920E-06-3.80271E-14
 -1      4236 8.99567E-03 3.96712E-06-3.91169E-14
 -1      4237 9.12819E-03 8.75465E-07-4.02132E-14
 -1      4238 9.25971E-03-2.88909E-06-4.13161E-14
 -1      4239 9.39003E-03-7.22901E-06-4.24264E-14
 -1      4240 9.51927E-03-1.24518E-05-4.35438E-14
 -1      4241 9.64716E-03-1.84102E-05-4.46686E-14
 -1      4242 9.77393E-03-2.55053E-05-4.58007E-14
 -1      4243 9.89925E-03-3.34344E-05-4.69393E-14
 -1      4244 1.00138E-02-7.01903E-05-4.81587E-14
 -1      4245 3.45271E-03 1.60262E-04-6.49452E-15
 -1      4246 2.12923E-03 9.12119E-05-2.73338E-15
 -1      4247 2.39215E-03 1.05547E-04-3.35635E-15
 -1      4248 2.24920E-03 1.04025E-04-3.00671E-15
 -1      4249 2.22357E-03 4.51342E-05-2.97563E-15
 -1      4250 2.46338E-03 6.94166E-05-3.55931E-15
 -1      4251 2.34430E-03 6.46672E-06-3.28387E-15
 -1      4252 2.48977E-03 6.58771E-06-3.65522E-15
 -1      4253 2.22471E-03-4.86836E-06-2.99552E-15
 -1      4254 3.29136E-03-8.09040E-06-6.05763E-15
 -1      4255 3.43648E-03-8.06225E-06-6.55373E-15
 -1      4256 4.15194E-03 7.04399E-05-9.22339E-15
 -1      4257 4.18113E-03 5.53956E-06-9.38466E-15
 -1      4258 4.32534E-03 5.57160E-06-9.99077E-15
 -1      4259 4.22452E-03 1.08437E-04-9.49264E-15
 -1      4260 4.70666E-03 5.67399E-05-1.16422E-14
 -1      4261 1.00159E-02-1.75190E-05-4.78642E-14
 -1      4262 3.50910E-03 3.01871E-05-6.79018E-15
 -1      4263 3.59531E-03 8.39999E-05-7.06419E-15
 -1      4264 3.52382E-03 1.22164E-04-6.77780E-15
 -1      4265 4.36859E-03 1.08270E-04-1.01013E-14
 -1      4266 3.37897E-03 1.22043E-04-6.27368E-15
 -1      4267 3.69696E-03 5.71274E-05-7.45483E-15
 -1      4268 3.55215E-03 5.71010E-05-6.92687E-15
 -1      4269 3.26207E-03 5.69154E-05-5.92666E-15
 -1      4270 4.39753E-03 4.35686E-05-1.02750E-14
 -1      4271 4.63503E-03 9.46123E-05-1.12852E-14
 -1      4272 2.60956E-03 1.83386E-05-3.97116E-15
 -1      4273 4.49117E-03 9.47864E-05-1.06438E-14
 -1      4274 3.84162E-03 5.71198E-05-8.00031E-15
 -1      4275 3.40718E-03 5.70283E-05-6.41765E-15
 -1      4276 3.30542E-03 8.38004E-05-6.05345E-15
 -3
    1PSTEP                         2           1           1          
  100CL  101 1.000000000        4276                     0    1           1
 -4  STRESS      6    1
 -5  SXX         1    4    1    1
 -5  SYY         1    4    2    2
 -5  SZZ         1    4    3    3
 -5  SXY         1    4    1    2
 -5  SYZ         1    4    2    3
 -5  SZX         1    4    3    1
 -1         1-1.86052E+00-2.45892E+01-3.44074E+00-5.19913E+00-1.92815E-12-3.80015E-13
 -1         2-9.46556E-01-3.36648E+01-4.98280E+00 3.82257E-02-3.14190E-13-3.59435E-15
 -1         3 2.00996E+01 1.14106E-01 1.61151E-02 1.05995E-01-5.13730E-13-3.42646E-13
 -1         4 2.00487E+01 5.75876E-02 1.81687E-01-5.00876E-02 1.77434E-13-1.22471E-13
 -1         5 3.27686E+01 6.14286E+00 2.74230E+00 6.22418E+00-2.47025E-14 2.05336E-12
 -1         6 3.57524E+01 1.22633E+01 5.12520E+00-8.64642E+00-1.21972E-13 1.84786E-12
 -1         7 2.08202E+01 6.10009E+00-1.28526E-01-4.72498E+00-1.66672E-14 2.99233E-13
 -1         8 1.96730E+01 5.93532E+00 5.10127E-02-3.27400E+00-2.23918E-14-1.72340E-13
 -1         9 1.91382E+01 5.77218E+00 4.91918E-02-2.52567E+00-1.94185E-14-4.21937E-13
 -1        10 1.88951E+01 5.69214E+00 5.09587E-02-1.95033E+00-1.25117E-14-5.47565E-13
 -1        11 1.87733E+01 5.65114E+00 5.02801E-02-1.45546E+00-1.05523E-14-5.97435E-13
 -1        12 1.87095E+01 5.62943E+00 4.88166E-02-1.01460E+00-5.16796E-15-6.10581E-13
 -1        13 1.86756E+01 5.61789E+00 4.73985E-02-5.94976E-01-2.34047E-15-5.93017E-13
 -1        14 1.86614E+01 5.61300E+00 4.66641E-02-1.91072E-01 8.38603E-16-5.84828E-13
 -1        15 1.86619E+01 5.61316E+00 4.67052E-02 2.08080E-01 5.04674E-15-5.72244E-13
 -1        16 1.86772E+01 5.61837E+00 4.75285E-02 6.12815E-01 7.29581E-15-5.54162E-13
 -1        17 1.87122E+01 5.63016E+00 4.90501E-02 1.03437E+00 1.05918E-14-5.21379E-13
 -1        18 1.87775E+01 5.65231E+00 5.08112E-02 1.47830E+00 1.26700E-14-4.63668E-13
 -1        19 1.89012E+01 5.69383E+00 5.15363E-02 1.97934E+00 2.00734E-14-3.78309E-13
 -1        20 1.91431E+01 5.77469E+00 4.88074E-02 2.56296E+00 2.57589E-14-2.20253E-13
 -1        21 1.96685E+01 5.94991E+00 4.59752E-02 3.30806E+00 2.87201E-14 9.76246E-14
 -1        22 2.12029E+01 6.38180E+00 1.39765E-01 4.52257E+00 5.87030E-15 7.07703E-13
 -1        23 2.30311E+01-1.37931E+00-9.38347E-01-7.11021E-01-8.80060E-14 1.42905E-12
 -1        24 1.93693E+01-9.94851E-02-3.09813E-01 6.32349E-02-2.56704E-14 1.05783E-12
 -1        25 1.86815E+01-5.63254E-02-6.88039E-02 6.07241E-02-2.81676E-16 7.24001E-13
 -1        26 1.84797E+01-2.20924E-02-6.49891E-03 3.30030E-02-1.09993E-14 4.25954E-13
 -1        27 1.84919E+01-1.18009E-02 1.58888E-03 2.26313E-02-1.03704E-15 2.39593E-13
 -1        28 1.86069E+01-6.23697E-03 1.78548E-03 1.63284E-02 1.70176E-15 1.75111E-13
 -1        29 1.87675E+01-3.07954E-03 1.72421E-03 1.21869E-02-4.26341E-15 9.42172E-14
 -1        30 1.89426E+01-1.22071E-03 1.91042E-03 9.23995E-03 7.27053E-15-6.02873E-14
 -1        31 1.91143E+01-1.19648E-04 2.07796E-03 7.02578E-03-1.30712E-14-1.68691E-13
 -1        32 1.92727E+01 5.13493E-04 2.11733E-03 5.31212E-03-3.85887E-14-3.28535E-13
 -1        33 1.94129E+01 8.48130E-04 2.03603E-03 3.96856E-03 2.42408E-14-3.29017E-13
 -1        34 1.95331E+01 9.90039E-04 1.87253E-03 2.91177E-03-2.60771E-15-2.06267E-13
 -1        35 1.96334E+01 1.00827E-03 1.66290E-03 2.08224E-03-1.02734E-14-2.05787E-13
 -1        36 1.97150E+01 9.48727E-04 1.43353E-03 1.43399E-03 6.36156E-15-2.94240E-13
 -1        37 1.97800E+01 8.41677E-04 1.20142E-03 9.29884E-04-2.00693E-14-2.64351E-13
 -1        38 1.98308E+01 7.06201E-04 9.75916E-04 5.39414E-04-6.35590E-15-3.28725E-13
 -1        39 1.98699E+01 5.53089E-04 7.60199E-04 2.37658E-04-4.03175E-14-3.54213E-13
 -1        40 1.98998E+01 3.86806E-04 5.52535E-04 4.77171E-06 2.00529E-14-4.46460E-13
 -1        41 1.99232E+01 2.06836E-04 3.47132E-04-1.74229E-04 2.38629E-14-5.53445E-13
 -1        42 1.99427E+01 8.60338E-06 1.34667E-04-3.09480E-04-2.28390E-14-6.60112E-13
 -1        43 1.99612E+01-2.15962E-04-9.75143E-05-4.06066E-04-2.51331E-14-4.84498E-13
 -1        44 1.99820E+01-4.78133E-04-3.65547E-04-4.63549E-04 1.36523E-15-3.99742E-13
 -1        45 2.00086E+01-7.92317E-04-6.89586E-04-4.75065E-04-1.02414E-14-3.59609E-13
 -1        46 2.00457E+01-1.17615E-03-1.09478E-03-4.25804E-04 2.20346E-14-6.04423E-13
 -1        47 2.00986E+01-1.65064E-03-1.61275E-03-2.90542E-04 1.04286E-14-3.81614E-13
 -1        48 2.01744E+01-2.24006E-03-2.28362E-03-2.97129E-05 4.93907E-14-2.95411E-13
 -1        49 2.02819E+01-2.97120E-03-3.15851E-03 4.16756E-04-4.21729E-14-3.38409E-13
 -1        50 2.04323E+01-3.87078E-03-4.30185E-03 1.13894E-03 3.55264E-14-4.53462E-13
 -1        51 2.06399E+01-4.95888E-03-5.79173E-03 2.27112E-03 2.28508E-14-3.60865E-13
 -1        52 2.09227E+01-6.23436E-03-7.71327E-03 4.01190E-03 4.24280E-14-2.44281E-13
 -1        53 2.13027E+01-7.64489E-03-1.01329E-02 6.64939E-03-1.01187E-13-6.28143E-13
 -1        54 2.18064E+01-9.02925E-03-1.30268E-02 1.05841E-02 4.98372E-14-7.67390E-13
 -1        55 2.24627E+01-1.00148E-02-1.61078E-02 1.63232E-02-7.38265E-14-5.33885E-13
 -1        56 2.32981E+01-9.85461E-03-1.84562E-02 2.43763E-02 3.04323E-14-7.09072E-13
 -1        57 2.43255E+01-7.21671E-03-1.78360E-02 3.48856E-02-8.81944E-15-4.94696E-13
 -1        58 2.55195E+01-4.78174E-05-9.73015E-03 4.66695E-02 8.55334E-14-5.15471E-13
 -1        59 2.67728E+01 1.40970E-02 1.31945E-02 5.52274E-02 3.45340E-14-2.57265E-13
 -1        60 2.78318E+01 3.64392E-02 5.88423E-02 4.97130E-02-1.08129E-13-1.84949E-13
 -1        61 2.82343E+01 6.33571E-02 1.26464E-01 1.12392E-02 6.06043E-14-1.77063E-13
 -1        62 2.73312E+01 8.14785E-02 1.87958E-01-7.99641E-02 5.87117E-15-1.51112E-13
 -1        63 2.45506E+01 6.93863E-02 1.79021E-01-2.16866E-01-2.69871E-14 1.52281E-13
 -1        64 1.99913E+01 1.40617E-02 3.70637E-02-3.27145E-01-6.18915E-14 2.75002E-13
 -1        65 1.49793E+01-6.27821E-02-1.94565E-01-2.93451E-01 3.25360E-14 5.34919E-13
 -1        66 1.16708E+01-1.09432E-01-3.39287E-01-8.35763E-02 6.33807E-14 5.30371E-13
 -1        67 1.14265E+01-9.22625E-02-2.65980E-01 1.55535E-01-4.87301E-14 5.44426E-13
 -1        68 1.35937E+01-3.33168E-02-6.41989E-02 2.47869E-01 3.60109E-14 2.79582E-13
 -1        69 1.63229E+01 1.49516E-02 7.75528E-02 1.88228E-01 2.82023E-14-2.41938E-13
 -1        70 1.83416E+01 3.48318E-02 1.06093E-01 1.08730E-01 3.55345E-14 6.90281E-14
 -1        71 1.95931E+01 4.87403E-02 1.36154E-01 8.52754E-02-1.46495E-13-2.17482E-14
 -1        72 2.10436E+01-4.04900E-01-9.80438E-01-3.11666E-01 2.58231E-14 1.87741E-12
 -1        73 1.93338E+01-6.58834E-02-2.91119E-01-5.38446E-02 2.38949E-14 1.40577E-12
 -1        74 1.86911E+01-2.05076E-02-6.42679E-02-2.03521E-02-3.79145E-16 1.10964E-12
 -1        75 1.84889E+01-9.88176E-03-9.31557E-03-1.54515E-02 8.86682E-15 9.17122E-13
 -1        76 1.85009E+01-5.16836E-03 6.70556E-04-1.23850E-02 2.27070E-14 7.32830E-13
 -1        77 1.86151E+01-2.61576E-03 1.73303E-03-1.01202E-02-8.29735E-15 5.13581E-13
 -1        78 1.87747E+01-1.14368E-03 1.87226E-03-8.38788E-03 4.42024E-15 5.02307E-13
 -1        79 1.89488E+01-2.76642E-04 2.06871E-03-6.96196E-03 1.44870E-14 3.90891E-13
 -1        80 1.91195E+01 2.26393E-04 2.21281E-03-5.73864E-03-1.53295E-14 3.22236E-13
 -1        81 1.92771E+01 5.01082E-04 2.22898E-03-4.67562E-03 2.18907E-14 2.32432E-13
 -1        82 1.94165E+01 6.29468E-04 2.12768E-03-3.75439E-03 1.63844E-14 1.80313E-13
 -1        83 1.95361E+01 6.63955E-04 1.94660E-03-2.96289E-03 4.80396E-16 7.64251E-14
 -1        84 1.96358E+01 6.39005E-04 1.72124E-03-2.28966E-03 3.37105E-14-2.91104E-14
 -1        85 1.97169E+01 5.77373E-04 1.47755E-03-1.72216E-03 5.07817E-15-7.01428E-14
 -1        86 1.97817E+01 4.93682E-04 1.23215E-03-1.24664E-03-1.36543E-14-1.92839E-13
 -1        87 1.98322E+01 3.96643E-04 9.93903E-04-8.48681E-04-1.54554E-14-1.73577E-13
 -1        88 1.98713E+01 2.90563E-04 7.65460E-04-5.13969E-04 1.84810E-14-6.55648E-14
 -1        89 1.99013E+01 1.76442E-04 5.44518E-04-2.29060E-04 2.41568E-14-3.77990E-13
 -1        90 1.99250E+01 5.28383E-05 3.24855E-04 1.77957E-05-4.65019E-14-3.61676E-13
 -1        91 1.99450E+01-8.34009E-05 9.71844E-05 2.35841E-04 2.51166E-14-3.08090E-13
 -1        92 1.99644E+01-2.36423E-04-1.50110E-04 4.30895E-04-7.58792E-15-3.07680E-13
 -1        93 1.99862E+01-4.10541E-04-4.30199E-04 6.04193E-04-2.35369E-14-3.31058E-13
 -1        94 2.00141E+01-6.09139E-04-7.56736E-04 7.50842E-04 2.27831E-15-4.60704E-13
 -1        95 2.00522E+01-8.33130E-04-1.14219E-03 8.57801E-04 1.75018E-15-4.68816E-13
 -1        96 2.01052E+01-1.07870E-03-1.59509E-03 9.01275E-04 2.91578E-14-4.07277E-13
 -1        97 2.01788E+01-1.33411E-03-2.11557E-03 8.43564E-04-7.08975E-15-4.39426E-13
 -1        98 2.02790E+01-1.57512E-03-2.68821E-03 6.29589E-04-8.17144E-15-4.67321E-13
 -1        99 2.04123E+01-1.75904E-03-3.27102E-03 1.83841E-04 4.06130E-14-6.15906E-13
 -1       100 2.05850E+01-1.81730E-03-3.77898E-03-5.90574E-04-5.00924E-14-1.75997E-13
 -1       101 2.08019E+01-1.64773E-03-4.06102E-03-1.80738E-03 7.42164E-14-2.10141E-13
 -1       102 2.10647E+01-1.10922E-03-3.87079E-03-3.58069E-03 1.59662E-15-6.65377E-13
 -1       103 2.13690E+01-2.52996E-05-2.83672E-03-5.98592E-03-2.03886E-14-3.58272E-14
 -1       104 2.17001E+01 1.79165E-03-4.48797E-04-8.98218E-03 3.56415E-14 2.31886E-13
 -1       105 2.20281E+01 4.47698E-03 3.89778E-03-1.22790E-02 3.36882E-14 3.43755E-13
 -1       106 2.23018E+01 7.99091E-03 1.07310E-02-1.51427E-02-6.57321E-14 2.34458E-13
 -1       107 2.24445E+01 1.19295E-02 2.01062E-02-1.61867E-02-8.88948E-15-1.20922E-13
 -1       108 2.23552E+01 1.53186E-02 3.09406E-02-1.32981E-02 6.23722E-14-5.23380E-13
 -1       109 2.19215E+01 1.65652E-02 4.02590E-02-4.01615E-03 4.90329E-14-3.67695E-13
 -1       110 2.10510E+01 1.38243E-02 4.29870E-02 1.32387E-02 5.41163E-14-6.57691E-13
 -1       111 1.97229E+01 5.94895E-03 3.32707E-02 3.71060E-02 3.22195E-14-5.56617E-13
 -1       112 1.80456E+01-6.20979E-03 7.94797E-03 6.14615E-02-1.38907E-13-2.90695E-13
 -1       113 1.62861E+01-1.91862E-02-2.89434E-02 7.58756E-02 1.14513E-13-1.38139E-13
 -1       114 1.48294E+01-2.82701E-02-6.52746E-02 7.05570E-02-1.07229E-13-3.79089E-14
 -1       115 1.40532E+01-2.99950E-02-8.61697E-02 4.32798E-02 2.93366E-14 9.38572E-14
 -1       116 1.41758E+01-2.38895E-02-8.32688E-02 1.74862E-03 4.79066E-15 1.30330E-14
 -1       117 1.51672E+01-1.14785E-02-5.78465E-02-4.19481E-02-1.17571E-15-4.95562E-13
 -1       118 1.67663E+01 5.30824E-03-1.40479E-02-7.92290E-02-6.47222E-14-5.89841E-13
 -1       119 1.85317E+01 2.61762E-02 4.61110E-02-1.02983E-01 1.01521E-13-8.99260E-13
 -1       120 1.97913E+01-1.43568E-02 5.64066E-02-7.17799E-02 1.13818E-13-1.15157E-12
 -1       121 2.00146E+01-3.01701E-01 6.62097E-02-6.83700E-02-9.33576E-13 2.22580E-13
 -1       122 2.00175E+01-1.71616E+00 5.48432E-02-1.12842E-01-8.48408E-13 4.00659E-14
 -1       123 1.99796E+01-3.64919E+00-1.40361E-02-1.30782E-01 2.30725E-13-1.72788E-13
 -1       124 1.99321E+01-5.29091E+00-1.05960E-01-1.21358E-01-8.23435E-13-4.44631E-14
 -1       125 1.98818E+01-5.74914E+00-2.36764E-01-5.21502E-02 3.42070E-14 2.49697E-13
 -1       126 1.98572E+01-3.71535E+00-3.53508E-01 1.33662E-01 1.49468E-12 2.29079E-14
 -1       127 1.98979E+01 1.83307E+00-3.01477E-01 4.18890E-01 1.01380E-12-1.15455E-13
 -1       128 2.00130E+01 1.04005E+01 6.04683E-02 6.24616E-01 1.21719E-12 1.73074E-13
 -1       129 2.02020E+01 1.80391E+01 5.54600E-01 5.03482E-01 1.50835E-12 2.64025E-14
 -1       130 2.02580E+01 2.19280E+01 8.14577E-01-1.31861E-02 3.94891E-13-1.29129E-13
 -1       131 2.02492E+01 1.98917E+01 6.26830E-01-4.59315E-01-1.91180E-13 3.39121E-13
 -1       132 2.00708E+01 1.36649E+01 1.62292E-01-6.02966E-01 5.11813E-14-1.73205E-13
 -1       133 1.99232E+01 5.60389E+00-2.77160E-01-4.21890E-01 7.82430E-14-4.03002E-14
 -1       134 1.98575E+01 4.99621E-01-3.66843E-01-1.13614E-01 2.88408E-13 3.17923E-14
 -1       135 1.99307E+01-9.81598E-01-1.89755E-01 8.25841E-02-4.89390E-13 5.74211E-14
 -1       136 1.99503E+01-3.97520E-01-9.92282E-04 2.00614E-01 2.14283E-13 2.98252E-13
 -1       137-1.70450E+00-2.64743E+01-4.31069E+00-4.67324E+00 9.00890E-13 3.06942E-13
 -1       138-1.39951E+00-9.98297E+00-2.69794E+00-3.00219E+00 7.55507E-13 4.84918E-13
 -1       139 5.45908E+00 6.48891E+00-6.78186E-01 6.23104E+00 9.60343E-14-2.02338E-13
 -1       140 2.08495E+01 1.47168E+01 1.16791E+00 1.72648E+01-5.88918E-13-5.15143E-13
 -1       141 4.22563E+01 1.32273E+01 2.59258E+00 2.29368E+01-1.93734E-13-6.51590E-13
 -1       142 6.26133E+01 6.80546E+00 3.49169E+00 1.92859E+01-4.06161E-13-1.02651E-12
 -1       143 7.38604E+01 1.67284E+00 3.86020E+00 7.31832E+00-6.00527E-14-1.43381E-12
 -1       144 7.10764E+01 1.95645E+00 3.61217E+00-7.80296E+00 2.54963E-13-2.42156E-12
 -1       145 5.48009E+01 6.74026E+00 2.77068E+00-1.79784E+01 9.37583E-13-2.41995E-12
 -1       146 3.34150E+01 1.13569E+01 1.56370E+00-1.89822E+01 1.15419E-12-2.18714E-12
 -1       147 1.39275E+01 9.98656E+00 8.82985E-02-1.18570E+01 1.40055E-12-1.41054E-12
 -1       148 1.40363E+00 1.28808E+00-1.38151E+00-1.88509E+00 4.62963E-13-3.55660E-13
 -1       149-1.99130E+00-1.27071E+01-2.54586E+00 4.34332E+00 1.48881E-13-5.03209E-14
 -1       150-1.32426E+00-2.43347E+01-3.29601E+00 4.08110E+00 2.45526E-13 4.21399E-14
 -1       151-8.02106E-01-2.92232E+01-3.62584E+00-6.42415E-01-6.03115E-13-1.28800E-13
 -1       152-2.72459E+00-1.29357E+01-2.75530E+00-5.18200E+00-1.72562E-12-8.46823E-13
 -1       153 1.68824E+00 6.06285E-01-1.57881E+00 1.70158E+00-1.52856E-12-1.27609E-12
 -1       154 1.52870E+01 9.25674E+00 1.86056E-03 1.18877E+01-7.36633E-13-8.11795E-13
 -1       155 3.63795E+01 9.79286E+00 1.67809E+00 1.83521E+01-1.51934E-13-7.93587E-13
 -1       156 5.96067E+01 5.44934E+00 3.23354E+00 1.64956E+01-3.08004E-13-7.96585E-14
 -1       157 7.54279E+01 1.33753E+00 4.26841E+00 5.30173E+00 2.77296E-13-5.47007E-13
 -1       158 7.65266E+01 2.10487E+00 4.47129E+00-9.33707E+00 1.06908E-13-9.79244E-13
 -1       159 6.36592E+01 7.56686E+00 3.90255E+00-2.04776E+01-9.24538E-14-2.77944E-13
 -1       160 4.13019E+01 1.35527E+01 2.62522E+00-2.29426E+01-4.56246E-13 7.68607E-13
 -1       161 1.81051E+01 1.36432E+01 7.87257E-01-1.55981E+01-9.38361E-13 1.12388E-12
 -1       162 3.55436E+00 3.82063E+00-1.23082E+00-4.13296E+00-6.16507E-13 7.47846E-13
 -1       163-2.08846E+00-1.31895E+01-3.19963E+00 4.30065E+00-8.98170E-14 1.36557E-14
 -1       164-1.81905E+00-2.82945E+01-4.57164E+00 5.00348E+00-5.83866E-13 4.79825E-14
 -1       165 2.10148E+01 3.69397E+00-5.73368E-02-3.60959E+00-2.85025E-13 4.55538E-14
 -1       166 1.99919E+01 4.20784E+00-4.57232E-02-2.80863E+00-2.54482E-13-2.26555E-13
 -1       167 1.95093E+01 4.47720E+00-3.15878E-02-2.19350E+00-1.94095E-13-3.96422E-13
 -1       168 1.92672E+01 4.61526E+00-2.37306E-02-1.67485E+00-1.40393E-13-4.82543E-13
 -1       169 1.91367E+01 4.69691E+00-1.94769E-02-1.21852E+00-9.46873E-14-5.04679E-13
 -1       170 1.90624E+01 4.74802E+00-1.74070E-02-7.91627E-01-6.12300E-14-5.05482E-13
 -1       171 1.90249E+01 4.77589E+00-1.64150E-02-3.86671E-01-3.61972E-15-4.94379E-13
 -1       172 1.90140E+01 4.78441E+00-1.61284E-02 8.26730E-03 4.35945E-14-4.81787E-13
 -1       173 1.90266E+01 4.77459E+00-1.64624E-02 4.03553E-01 8.71339E-14-4.64936E-13
 -1       174 1.90660E+01 4.74506E+00-1.75167E-02 8.09613E-01 1.20345E-13-4.56864E-13
 -1       175 1.91409E+01 4.69263E+00-1.96854E-02 1.23094E+00 1.56452E-13-4.02543E-13
 -1       176 1.92770E+01 4.60546E+00-2.40057E-02 1.69753E+00 2.18846E-13-3.37536E-13
 -1       177 1.95244E+01 4.45965E+00-3.28496E-02 2.22586E+00 2.65126E-13-2.30208E-13
 -1       178 2.00144E+01 4.18390E+00-4.72083E-02 2.84612E+00 2.80186E-13-1.99979E-14
 -1       179 2.11365E+01 3.46365E+00-5.97720E-02 3.53615E+00 2.75717E-13 3.55556E-13
 -1       180 2.24209E+01 1.14330E+00-3.36462E-01 3.01440E+00 2.10693E-13 8.27532E-13
 -1       181 2.19734E+01 8.58196E-01 6.60453E-04-1.95851E+00-2.40669E-13 4.00176E-13
 -1       182 2.04494E+01 1.90145E-01-9.99285E-03-7.63766E-01-1.92955E-13 2.89020E-13
 -1       183 1.96742E+01 1.01778E-01 1.35590E-02-2.85200E-01-1.76661E-13 1.96837E-13
 -1       184 1.93350E+01 4.71931E-02 1.00096E-02-6.73605E-02-9.82430E-14 1.24770E-13
 -1       185 1.92058E+01 2.25648E-02 5.15942E-03 3.99267E-02-6.73440E-14 9.03310E-14
 -1       186 1.91930E+01 9.54502E-03 2.43028E-03 9.25828E-02-6.04488E-14 1.61028E-14
 -1       187 1.92421E+01 2.14741E-03 1.12651E-03 1.15019E-01-8.31113E-14-3.89001E-14
 -1       188 1.93218E+01-2.10164E-03 4.91602E-04 1.19972E-01-6.68863E-14-1.03305E-13
 -1       189 1.94133E+01-4.42641E-03 1.54871E-04 1.14835E-01-6.75232E-14-8.83145E-14
 -1       190 1.95053E+01-5.52774E-03-3.38136E-05 1.04191E-01-2.95263E-14-3.24302E-14
 -1       191 1.95913E+01-5.84651E-03-1.37634E-04 9.09715E-02-6.93881E-15-1.65425E-13
 -1       192 1.96681E+01-5.67406E-03-1.88115E-04 7.70502E-02 1.57751E-15-2.16642E-13
 -1       193 1.97343E+01-5.20621E-03-2.03980E-04 6.36056E-02-5.38117E-14-1.74176E-13
 -1       194 1.97898E+01-4.57297E-03-1.97320E-04 5.13495E-02-1.76023E-14-1.94061E-13
 -1       195 1.98354E+01-3.85661E-03-1.76037E-04 4.06884E-02-3.66846E-14-1.78896E-13
 -1       196 1.98724E+01-3.10355E-03-1.45088E-04 3.18402E-02-7.84474E-15-1.83079E-13
 -1       197 1.99023E+01-2.33274E-03-1.07260E-04 2.49231E-02-5.98918E-14-1.97536E-13
 -1       198 1.99269E+01-1.54149E-03-6.36776E-05 2.00228E-02-6.22377E-14-3.09568E-13
 -1       199 1.99482E+01-7.09504E-04-1.41588E-05 1.72469E-02-1.28463E-13-3.85967E-13
 -1       200 1.99685E+01 1.98727E-04 4.25620E-05 1.67696E-02 3.66953E-14-4.72705E-13
 -1       201 1.99902E+01 1.23279E-03 1.08685E-04 1.88706E-02 9.16052E-14-4.72046E-13
 -1       202 2.00161E+01 2.45659E-03 1.87257E-04 2.39725E-02 4.84204E-15-4.21113E-13
 -1       203 2.00496E+01 3.94969E-03 2.82111E-04 3.26792E-02-4.91716E-15-3.69097E-13
 -1       204 2.00947E+01 5.80981E-03 3.97780E-04 4.58176E-02 9.40054E-14-2.21798E-13
 -1       205 2.01566E+01 8.15600E-03 5.39296E-04 6.44848E-02 3.65959E-14-1.84083E-13
 -1       206 2.02411E+01 1.11317E-02 7.11665E-04 9.01003E-02-1.03600E-14-1.70501E-13
 -1       207 2.03560E+01 1.49050E-02 9.18642E-04 1.24458E-01-3.14156E-14-2.16894E-13
 -1       208 2.05103E+01 1.96610E-02 1.16010E-03 1.69764E-01 6.31738E-14-2.63228E-13
 -1       209 2.07151E+01 2.55724E-02 1.42673E-03 2.28615E-01 1.36429E-14-2.73364E-13
 -1       210 2.09835E+01 3.27225E-02 1.69025E-03 3.03835E-01-2.14230E-13-2.29481E-13
 -1       211 2.13299E+01 4.09289E-02 1.88677E-03 3.97986E-01-1.30662E-13-1.66663E-13
 -1       212 2.17695E+01 4.93709E-02 1.89314E-03 5.12198E-01 2.90254E-14-3.44172E-13
 -1       213 2.23148E+01 5.58654E-02 1.50304E-03 6.43684E-01-6.89902E-14-2.54873E-13
 -1       214 2.29709E+01 5.55952E-02 4.29250E-04 7.80949E-01 1.69277E-13-2.84136E-13
 -1       215 2.37253E+01 3.92238E-02-1.60449E-03 8.95475E-01 4.14995E-14-2.78604E-13
 -1       216 2.45330E+01-8.90089E-03-4.59359E-03 9.29505E-01 7.89639E-14-1.91745E-13
 -1       217 2.52954E+01-1.09305E-01-7.79183E-03 7.83901E-01 7.56352E-14-2.67408E-13
 -1       218 2.58389E+01-2.74768E-01-9.40409E-03 3.22201E-01 4.31426E-14-3.23027E-14
 -1       219 2.59103E+01-4.76428E-01-7.36075E-03-5.73376E-01-9.12603E-14-9.48820E-14
 -1       220 2.52209E+01-5.92684E-01-3.64838E-03-1.85016E+00 2.12625E-13 4.22874E-14
 -1       221 2.36039E+01-4.14553E-01-4.76172E-03-3.07068E+00 6.77566E-14 2.08514E-14
 -1       222 2.12924E+01 1.53438E-01-1.84732E-02-3.41917E+00 2.88517E-13 1.76527E-13
 -1       223 1.91052E+01 7.88816E-01-3.44048E-02-2.31377E+00-6.01359E-14 2.66478E-13
 -1       224 1.80087E+01 9.12827E-01-3.55081E-02-2.72812E-01 1.88634E-14 2.10949E-13
 -1       225 1.82175E+01 4.31753E-01-1.81252E-02 1.32959E+00-1.86859E-13 2.66762E-13
 -1       226 1.90220E+01-1.12362E-01-1.85870E-03 1.68397E+00-2.45167E-13 1.69916E-13
 -1       227 1.96365E+01-2.81413E-01 4.09570E-03 1.19001E+00 8.87727E-14 1.27475E-13
 -1       228 1.98386E+01-1.61527E-01 8.45043E-03 6.74110E-01-7.46547E-14 1.76882E-13
 -1       229 2.09653E+01 2.77010E-01-5.13276E-02 1.16446E+00 2.10700E-13 7.21037E-13
 -1       230 1.98710E+01 1.26846E-01 8.31185E-03 4.42765E-01 1.52049E-13 5.75065E-13
 -1       231 1.93651E+01 5.80743E-02 1.27332E-02 1.49696E-01 1.17512E-13 4.54531E-13
 -1       232 1.91560E+01 2.77404E-02 7.62584E-03 1.03792E-02 1.38801E-13 3.31455E-13
 -1       233 1.91068E+01 1.30980E-02 3.81982E-03-5.88192E-02 8.71221E-14 2.50541E-13
 -1       234 1.91432E+01 5.14663E-03 1.90367E-03-9.13141E-02 3.17445E-14 1.56094E-13
 -1       235 1.92229E+01 6.00241E-04 1.00111E-03-1.03123E-01 6.46423E-14 1.36943E-13
 -1       236 1.93212E+01-1.99204E-03 5.40017E-04-1.02963E-01 4.59202E-14 1.17315E-13
 -1       237 1.94233E+01-3.37642E-03 2.76156E-04-9.60253E-02 6.26109E-14 4.10247E-14
 -1       238 1.95208E+01-3.99000E-03 1.14988E-04-8.55717E-02 1.58083E-14 5.57736E-14
 -1       239 1.96090E+01-4.11125E-03 1.63183E-05-7.36887E-02 8.48624E-14 7.09245E-14
 -1       240 1.96858E+01-3.92534E-03-4.09762E-05-6.17048E-02 7.71737E-14-1.13794E-14
 -1       241 1.97507E+01-3.55666E-03-7.00979E-05-5.04430E-02 6.53207E-14-1.10203E-13
 -1       242 1.98044E+01-3.08698E-03-7.99007E-05-4.03898E-02-8.52568E-15-1.89762E-13
 -1       243 1.98478E+01-2.56683E-03-7.63956E-05-3.18154E-02-5.11082E-15-1.19437E-13
 -1       244 1.98828E+01-2.02314E-03-6.36091E-05-2.48616E-02-4.73983E-14-1.33512E-13
 -1       245 1.99110E+01-1.46484E-03-4.41536E-05-1.96089E-02 1.28845E-13-7.02272E-14
 -1       246 1.99345E+01-8.87048E-04-1.96391E-05-1.61268E-02-6.65911E-15-1.83696E-13
 -1       247 1.99555E+01-2.74471E-04 9.00233E-06-1.45117E-02-2.35385E-14-1.71782E-13
 -1       248 1.99763E+01 3.95713E-04 4.12160E-05-1.49154E-02-7.04579E-14-9.38691E-14
 -1       249 1.99995E+01 1.15100E-03 7.65131E-05-1.75626E-02-1.40744E-14-1.05724E-13
 -1       250 2.00280E+01 2.02010E-03 1.14128E-04-2.27587E-02 3.54179E-14-1.12313E-13
 -1       251 2.00653E+01 3.02799E-03 1.52601E-04-3.08842E-02 2.60452E-14-2.84743E-13
 -1       252 2.01151E+01 4.18857E-03 1.89269E-04-4.23682E-02 8.52535E-16-3.52167E-13
 -1       253 2.01816E+01 5.49344E-03 2.19647E-04-5.76332E-02-1.14928E-15-2.92694E-13
 -1       254 2.02693E+01 6.89485E-03 2.36738E-04-7.69955E-02-1.11258E-14-1.87169E-13
 -1       255 2.03828E+01 8.28074E-03 2.30426E-04-1.00502E-01-1.37155E-14-2.86778E-14
 -1       256 2.05263E+01 9.43947E-03 1.87282E-04-1.27675E-01-2.17665E-13-7.00467E-14
 -1       257 2.07024E+01 1.00132E-02 9.14968E-05-1.57141E-01 1.26929E-13-8.54372E-14
 -1       258 2.09111E+01 9.44226E-03-7.18554E-05-1.86109E-01 5.79741E-14-1.86738E-14
 -1       259 2.11477E+01 6.91393E-03-3.09517E-04-2.09711E-01-1.75098E-13-1.31504E-13
 -1       260 2.14000E+01 1.34813E-03-6.07299E-04-2.20270E-01-7.70582E-14-1.47368E-13
 -1       261 2.16454E+01-8.50661E-03-9.12825E-04-2.06730E-01-9.54708E-14 8.56927E-14
 -1       262 2.18477E+01-2.37410E-02-1.12136E-03-1.54771E-01 3.79833E-14 3.78703E-14
 -1       263 2.19550E+01-4.45422E-02-1.07897E-03-4.85282E-02 2.73314E-13-1.77185E-13
 -1       264 2.19022E+01-6.89273E-02-6.41613E-04 1.24759E-01 1.50477E-13-3.92883E-13
 -1       265 2.16194E+01-9.11544E-02 2.02431E-04 3.66032E-01-6.89939E-14-2.83764E-13
 -1       266 2.10515E+01-1.00847E-01 1.22087E-03 6.52286E-01 7.97075E-14-5.28648E-14
 -1       267 2.01877E+01-8.50397E-02 1.82649E-03 9.26253E-01-1.09198E-13 1.37287E-13
 -1       268 1.90944E+01-3.46766E-02 1.31145E-03 1.09873E+00-9.91092E-14 3.84789E-13
 -1       269 1.79332E+01 4.56879E-02-4.34743E-04 1.07452E+00 1.19618E-13 1.60809E-13
 -1       270 1.69395E+01 1.31672E-01-2.54999E-03 8.02328E-01-1.85675E-13 1.55728E-13
 -1       271 1.63505E+01 1.88694E-01-3.57896E-03 3.20154E-01 8.50457E-14 2.66349E-13
 -1       272 1.63095E+01 1.92939E-01-3.00005E-03-2.46375E-01 1.51060E-13 8.26687E-14
 -1       273 1.68049E+01 1.45355E-01-1.46600E-03-7.39267E-01 1.79328E-13 1.53481E-13
 -1       274 1.76763E+01 6.24261E-02 1.35757E-03-1.03009E+00 6.46488E-14-1.51233E-14
 -1       275 1.86672E+01-5.81923E-02 6.40197E-03-1.02628E+00 1.78688E-13-3.27524E-13
 -1       276 1.95269E+01-2.25040E-01 1.34600E-02-6.56734E-01-1.06559E-13-2.67167E-13
 -1       277 1.97648E+01-8.37700E-01 5.21506E-03-1.01360E+00-3.73736E-13 2.03570E-14
 -1       278 1.99680E+01-1.69755E+00 7.99454E-03-1.28364E+00-4.50395E-14 7.30118E-13
 -1       279 2.01887E+01-2.48768E+00 1.28158E-02-1.07299E+00 1.33839E-13-5.43656E-13
 -1       280 2.04989E+01-2.87607E+00 1.48590E-02-2.25970E-01 2.01937E-13 2.95725E-13
 -1       281 2.08869E+01-2.36004E+00 9.35434E-03 1.45147E+00 4.14258E-14 7.28610E-13
 -1       282 2.11010E+01-4.74156E-01 3.41540E-03 3.80538E+00 2.52430E-13-1.69590E-13
 -1       283 2.06147E+01 2.98186E+00 1.72301E-02 5.86723E+00 7.10647E-13 5.80061E-14
 -1       284 1.94058E+01 6.80449E+00 4.92135E-02 5.91619E+00 5.63057E-14-2.48784E-13
 -1       285 1.80451E+01 1.00695E+01 9.70251E-02 3.00702E+00-1.14917E-13-5.28882E-13
 -1       286 1.78435E+01 1.07004E+01 9.90260E-02-1.24556E+00 1.21989E-13-5.29569E-13
 -1       287 1.88867E+01 8.82640E+00 8.22101E-02-4.63799E+00-1.85036E-13 8.39676E-14
 -1       288 2.04746E+01 4.95923E+00 2.05284E-02-5.38595E+00-1.24716E-13 6.20380E-14
 -1       289 2.11122E+01 1.78767E+00-4.34571E-03-3.49778E+00 9.24955E-14 4.99843E-14
 -1       290 2.08809E+01 1.50992E-01 8.95261E-03-1.13737E+00-1.00205E-13-4.22185E-13
 -1       291 2.06573E+01-2.62827E-01 1.51494E-02 1.39543E-01 4.99080E-15 3.42761E-13
 -1       292-7.13813E-01-1.35226E+01-1.46906E+00 2.27147E+00 3.46889E-13 6.20004E-13
 -1       293 4.30275E+00-1.00679E+01-9.86493E-01 6.00706E+00 2.46470E-13-1.02439E-13
 -1       294 1.39630E+01-5.69733E+00-3.70772E-01 9.06931E+00-1.48659E-13-7.59962E-13
 -1       295 2.41187E+01-5.47919E-01 7.56404E-02 9.82780E+00-3.93463E-13-1.00267E-12
 -1       296 3.44348E+01 4.77671E+00 5.89518E-01 1.05315E+01-4.60160E-13-8.04468E-13
 -1       297 4.40256E+01 7.04667E+00 8.69015E-01 8.51802E+00-2.70766E-13-7.37216E-13
 -1       298 5.09262E+01 7.94213E+00 1.09452E+00 5.67778E+00 9.24538E-14-8.72219E-13
 -1       299 5.07405E+01 8.17977E+00 9.15837E-01 1.18341E+00 3.97016E-13-9.45265E-13
 -1       300 4.57780E+01 6.87376E+00 6.10884E-01-1.97403E+00 5.74304E-13-1.04744E-12
 -1       301 3.99647E+01 4.69558E+00 6.08071E-01-6.89448E+00 7.12375E-13-1.44484E-12
 -1       302 2.99881E+01 1.50928E-01 1.33731E-01-6.54096E+00 5.30270E-13-1.21214E-12
 -1       303 2.03689E+01-2.09486E+00-4.67052E-02-7.48856E+00 4.54498E-13-1.18236E-12
 -1       304 8.01291E+00-7.09840E+00-6.11327E-01-5.31753E+00 1.88516E-13-7.00898E-13
 -1       305 1.79050E+00-1.13248E+01-8.92800E-01-3.20136E+00-4.22162E-14-5.57193E-15
 -1       306-1.34366E+00-1.38088E+01-1.04161E+00-1.41420E+00-3.92519E-13-3.08253E-13
 -1       307-1.30933E+00-1.28556E+01-8.97019E-01 6.28964E-01-4.81129E-13-6.58501E-13
 -1       308 1.93697E+00-1.17777E+01-9.24854E-01 2.32844E+00-7.20590E-13-2.81206E-13
 -1       309 9.63777E+00-8.09818E+00-5.63688E-01 4.87298E+00-5.79314E-13-2.86167E-13
 -1       310 1.95402E+01-3.80798E+00-2.51779E-01 6.03023E+00-5.47840E-13 9.69502E-14
 -1       311 3.10348E+01 6.49508E-01 2.36783E-01 6.52635E+00-2.81941E-13-2.16827E-13
 -1       312 4.16526E+01 3.52647E+00 6.02246E-01 3.87788E+00-1.96543E-13-1.02141E-14
 -1       313 4.98347E+01 6.46052E+00 1.04773E+00 1.31224E+00 8.91370E-14-2.44221E-13
 -1       314 5.38603E+01 7.76097E+00 1.34535E+00-2.20099E+00-4.80171E-15 1.00652E-13
 -1       315 5.18397E+01 7.78569E+00 1.29369E+00-5.90554E+00-1.46272E-13 2.00395E-14
 -1       316 4.44730E+01 6.22856E+00 9.38653E-01-8.12544E+00-2.51757E-13-2.64122E-13
 -1       317 3.42484E+01 3.23786E+00 5.52196E-01-9.95925E+00-2.39975E-13-8.38218E-14
 -1       318 2.22503E+01-1.50300E+00-6.22009E-02-9.33104E+00 1.66533E-14 2.58182E-13
 -1       319 1.23705E+01-7.13543E+00-5.87873E-01-7.98403E+00 1.53433E-13 4.27977E-13
 -1       320 3.50602E+00-1.10232E+01-1.11434E+00-5.03763E+00-3.96183E-13-6.73350E-14
 -1       321-9.55266E-01-1.37868E+01-1.50387E+00-1.29072E+00 3.68178E-14 2.40807E-13
 -1       322 2.01463E+01 3.01526E+00-1.79046E-02-2.10915E+00-2.59782E-13-2.14918E-13
 -1       323 2.07572E+01 2.20830E+00-1.78556E-02-2.36259E+00-2.93255E-13-5.65763E-14
 -1       324 1.95840E+01 3.69188E+00-1.50792E-02-1.31609E+00-1.43211E-13-3.81561E-13
 -1       325 1.94594E+01 3.84914E+00-1.35649E-02-9.22958E-01-9.73000E-14-4.12718E-13
 -1       326 1.93900E+01 3.93988E+00-1.26759E-02-5.43555E-01-3.25021E-14-3.84470E-13
 -1       327 1.93593E+01 3.98117E+00-1.22818E-02-1.73160E-01 2.77874E-14-3.75965E-13
 -1       328 1.93607E+01 3.97955E+00-1.23070E-02 1.94279E-01 7.37536E-14-3.58228E-13
 -1       329 1.93942E+01 3.93463E+00-1.27545E-02 5.65051E-01 1.24806E-13-3.56636E-13
 -1       330 1.94653E+01 3.84132E+00-1.37647E-02 9.38792E-01 1.71504E-13-3.41022E-13
 -1       331 1.95928E+01 3.67897E+00-1.56535E-02 1.33265E+00 2.37422E-13-2.62621E-13
 -1       332 1.98089E+01 3.41018E+00-1.88323E-02 1.73789E+00 2.94730E-13-2.00928E-13
 -1       333 2.01800E+01 2.95532E+00-2.29370E-02 2.12643E+00 3.20916E-13-7.01808E-14
 -1       334 2.07503E+01 2.12944E+00-3.04659E-02 2.32145E+00 3.10154E-13 1.86365E-13
 -1       335 2.10971E+01 1.18770E+00-2.49180E-02 1.92132E+00 2.79795E-13 3.91258E-13
 -1       336 2.03937E+01 4.89297E-01 8.33645E-03 9.26701E-01 2.12923E-13 3.05601E-13
 -1       337 1.91050E+01-6.93047E+00 1.64070E-03-7.29926E+00-2.07626E-13-6.83658E-13
 -1       338 2.04600E+01 6.75279E-01 1.23358E-02-1.02473E+00-2.20141E-13-2.67764E-14
 -1       339 2.00387E+01 3.37063E-01 7.18065E-03-4.56699E-01-1.66823E-13-1.33939E-14
 -1       340 1.97849E+01 1.76468E-01 4.13020E-03-1.47913E-01-1.03041E-13-4.75469E-14
 -1       341 1.96496E+01 9.05409E-02 1.88820E-03 2.33059E-02-9.87828E-14-9.39569E-14
 -1       342 1.95945E+01 4.14296E-02 7.85933E-04 1.14548E-01-1.02121E-13-1.03058E-13
 -1       343 1.95895E+01 1.24151E-02 2.70487E-04 1.57755E-01-1.02058E-13-1.17772E-13
 -1       344 1.96136E+01-4.64512E-03 1.32801E-05 1.71794E-01-4.84910E-14-8.04584E-14
 -1       345 1.96531E+01-1.42001E-02-1.22018E-04 1.68397E-01-4.61206E-14-7.97674E-14
 -1       346 1.96989E+01-1.89218E-02-1.90643E-04 1.55115E-01-9.54482E-14-1.69876E-13
 -1       347 1.97453E+01-2.05230E-02-2.18457E-04 1.36884E-01 1.57175E-16-1.42272E-13
 -1       348 1.97889E+01-2.01424E-02-2.20475E-04 1.16924E-01-2.11997E-14-1.39750E-13
 -1       349 1.98281E+01-1.85443E-02-2.06379E-04 9.73023E-02-7.49938E-15-7.05584E-14
 -1       350 1.98622E+01-1.62319E-02-1.82511E-04 7.93105E-02-2.50684E-14-6.40631E-14
 -1       351 1.98913E+01-1.35185E-02-1.52855E-04 6.37357E-02-8.33536E-14-1.72396E-13
 -1       352 1.99159E+01-1.05751E-02-1.19629E-04 5.10566E-02-8.63624E-14-1.64111E-13
 -1       353 1.99371E+01-7.46295E-03-8.37127E-05 4.15926E-02-9.84965E-14-1.07513E-13
 -1       354 1.99560E+01-4.15663E-03-4.49266E-05 3.56196E-02-9.70658E-14-1.11497E-13
 -1       355 1.99739E+01-5.59693E-04-2.22000E-06 3.34615E-02-8.58962E-14-1.25749E-13
 -1       356 1.99926E+01 3.48613E-03 4.62233E-05 3.55661E-02-1.58906E-14-1.76802E-13
 -1       357 2.00139E+01 8.19676E-03 1.02938E-04 4.25716E-02 4.95861E-14-4.17432E-13
 -1       358 2.00401E+01 1.38461E-02 1.71183E-04 5.53679E-02 2.39033E-14-3.08550E-13
 -1       359 2.00737E+01 2.07699E-02 2.54978E-04 7.51574E-02 1.25064E-13-1.99135E-13
 -1       360 2.01180E+01 2.93721E-02 3.59140E-04 1.03516E-01 9.41466E-14-2.82012E-13
 -1       361 2.01764E+01 4.01293E-02 4.89248E-04 1.42455E-01 4.55985E-14-3.21008E-13
 -1       362 2.02533E+01 5.35880E-02 6.51349E-04 1.94475E-01 3.50709E-14-3.66503E-13
 -1       363 2.03538E+01 7.03363E-02 8.51088E-04 2.62593E-01 1.09326E-13-2.12758E-13
 -1       364 2.04834E+01 9.09180E-02 1.09154E-03 3.50301E-01 3.53279E-14-2.09237E-13
 -1       365 2.06485E+01 1.15620E-01 1.36850E-03 4.61358E-01-8.44179E-14-2.97598E-13
 -1       366 2.08555E+01 1.44002E-01 1.66100E-03 5.99256E-01-1.70420E-13-1.56893E-13
 -1       367 2.11110E+01 1.73942E-01 1.91416E-03 7.66005E-01-6.06626E-14 8.18048E-14
 -1       368 2.14207E+01 1.99814E-01 2.01144E-03 9.59716E-01 1.84396E-14 1.23631E-13
 -1       369 2.17894E+01 2.09305E-01 1.73825E-03 1.17007E+00 2.13671E-14 7.73611E-14
 -1       370 2.22209E+01 1.78520E-01 7.51504E-04 1.37054E+00 1.82407E-14 5.27097E-14
 -1       371 2.27195E+01 6.62704E-02-1.37874E-03 1.50637E+00 6.10030E-14-4.22382E-14
 -1       372 2.32924E+01-1.87407E-01-4.93471E-03 1.47909E+00 1.78757E-13 1.66316E-13
 -1       373 2.39493E+01-6.42920E-01-9.55179E-03 1.13428E+00 1.74851E-13 1.15173E-13
 -1       374 2.46790E+01-1.29149E+00-1.35339E-02 2.79054E-01 8.85503E-14 3.41845E-14
 -1       375 2.53885E+01-1.92052E+00-1.46616E-02-1.22201E+00 1.85611E-13 2.78027E-13
 -1       376 2.57771E+01-1.95548E+00-2.13444E-02-3.18984E+00 1.45480E-13 2.08509E-13
 -1       377 2.54156E+01-7.16625E-01-4.15347E-02-4.76257E+00 9.76493E-14 1.71884E-13
 -1       378 2.42479E+01 1.61525E+00-7.09757E-02-4.54631E+00 2.53044E-13 9.69161E-14
 -1       379 2.31572E+01 3.18635E+00-8.73623E-02-2.09248E+00 7.55992E-15 3.93836E-13
 -1       380 2.29801E+01 2.41774E+00-7.43067E-02 8.30221E-01-1.34028E-13 1.51228E-13
 -1       381 2.32355E+01 3.32345E-01-4.24941E-02 2.02085E+00-5.19777E-13-5.86775E-14
 -1       382 2.28606E+01-9.24518E-01-1.98975E-02 1.41781E+00-4.13241E-14 1.46284E-13
 -1       383 2.18167E+01-8.22783E-01-5.29976E-03 5.15521E-01 2.54379E-13 2.12696E-13
 -1       384 1.98924E+01 2.28506E-01 1.07927E-02 3.98009E-01 1.83055E-13 2.67245E-13
 -1       385 1.96042E+01 1.15383E-01 6.16984E-03 1.19287E-01 1.97697E-13 2.08574E-13
 -1       386 1.94699E+01 5.77000E-02 2.80105E-03-2.96030E-02 1.25722E-13 1.33893E-13
 -1       387 1.94305E+01 2.57859E-02 1.17455E-03-1.06522E-01 7.42879E-14 9.88982E-14
 -1       388 1.94467E+01 7.30291E-03 4.48052E-04-1.41708E-01 5.56344E-14 5.44384E-14
 -1       389 1.94930E+01-3.44108E-03 9.91261E-05-1.52117E-01 8.02812E-14 7.88006E-14
 -1       390 1.95536E+01-9.41005E-03-8.36384E-05-1.47933E-01 7.55541E-14 5.71166E-14
 -1       391 1.96182E+01-1.23316E-02-1.80448E-04-1.35591E-01-4.34857E-15 7.86015E-14
 -1       392 1.96809E+01-1.32944E-02-2.25492E-04-1.19245E-01 1.09039E-13 3.11581E-14
 -1       393 1.97382E+01-1.30171E-02-2.37347E-04-1.01586E-01 1.36233E-13-2.30931E-14
 -1       394 1.97886E+01-1.19813E-02-2.27986E-04-8.43281E-02 1.81061E-13-1.23338E-13
 -1       395 1.98316E+01-1.05052E-02-2.05391E-04-6.85320E-02-2.79190E-15-1.80782E-13
 -1       396 1.98677E+01-8.78878E-03-1.74731E-04-5.48311E-02-6.69001E-14-7.12343E-14
 -1       397 1.98975E+01-6.94370E-03-1.39103E-04-4.35958E-02-1.30296E-14-2.37342E-14
 -1       398 1.99225E+01-5.01476E-03-1.00062E-04-3.50564E-02 5.69916E-14-1.60757E-14
 -1       399 1.99440E+01-2.99608E-03-5.80183E-05-2.93952E-02 1.02021E-13-1.67645E-14
 -1       400 1.99637E+01-8.44076E-04-1.25513E-05-2.68157E-02-8.68519E-14-1.00963E-13
 -1       401 1.99835E+01 1.51143E-03 3.73031E-05-2.75923E-02-2.25579E-14-6.89225E-14
 -1       402 2.00053E+01 4.15629E-03 9.27472E-05-3.21016E-02-2.94762E-14-1.00709E-13
 -1       403 2.00316E+01 7.17902E-03 1.54873E-04-4.08363E-02 4.55141E-14-1.44563E-13
 -1       404 2.00650E+01 1.06529E-02 2.24193E-04-5.43933E-02 7.07715E-14-1.87273E-13
 -1       405 2.01085E+01 1.46101E-02 2.99979E-04-7.34304E-02-2.63317E-14-2.68188E-13
 -1       406 2.01653E+01 1.90028E-02 3.79333E-04-9.85743E-02-2.91762E-14-1.58727E-13
 -1       407 2.02388E+01 2.36463E-02 4.55902E-04-1.30260E-01-1.30729E-13-4.34427E-14
 -1       408 2.03325E+01 2.81371E-02 5.18197E-04-1.68470E-01 1.95597E-14 2.24216E-13
 -1       409 2.04495E+01 3.17404E-02 5.47589E-04-2.12345E-01-3.69426E-14 3.25752E-14
 -1       410 2.05918E+01 3.32462E-02 5.16361E-04-2.59611E-01 7.65871E-14-4.46609E-14
 -1       411 2.07596E+01 3.08057E-02 3.86727E-04-3.05815E-01 4.37862E-14 6.61766E-14
 -1       412 2.09502E+01 2.17931E-02 1.12642E-04-3.43363E-01-5.55979E-15-5.91085E-15
 -1       413 2.11559E+01 2.80152E-03-3.52525E-04-3.60495E-01-9.10308E-14-4.42914E-14
 -1       414 2.13626E+01-3.00062E-02-1.03911E-03-3.40516E-01-1.77331E-13-9.38231E-14
 -1       415 2.15474E+01-7.98179E-02-1.93250E-03-2.62011E-01 1.54976E-13-8.80552E-14
 -1       416 2.16773E+01-1.46878E-01-2.93498E-03-1.01318E-01 2.61078E-13-1.33862E-13
 -1       417 2.17091E+01-2.24664E-01-3.81745E-03 1.60955E-01 2.30606E-13 1.68788E-13
 -1       418 2.15921E+01-2.95182E-01-4.26893E-03 5.27658E-01-2.84387E-13 3.19195E-14
 -1       419 2.12778E+01-3.26319E-01-3.90063E-03 9.67506E-01-8.85618E-14 1.18715E-13
 -1       420 2.07386E+01-2.77597E-01-2.34947E-03 1.39869E+00-2.23346E-13 2.51180E-13
 -1       421 1.99944E+01-1.19907E-01-2.58370E-05 1.68902E+00-1.22109E-13 1.03669E-13
 -1       422 1.91393E+01 1.35172E-01 2.49379E-03 1.69041E+00 7.42890E-14 2.84927E-13
 -1       423 1.83436E+01 4.13332E-01 4.65290E-03 1.31197E+00 1.82016E-15 4.66377E-13
 -1       424 1.78035E+01 6.03417E-01 6.42947E-03 5.98466E-01 4.54710E-14 1.38612E-13
 -1       425 1.76500E+01 6.23847E-01 7.34896E-03-2.62005E-01 1.39141E-13 1.15029E-13
 -1       426 1.78817E+01 4.72578E-01 6.55103E-03-1.02111E+00 3.71456E-14 1.13997E-13
 -1       427 1.83761E+01 2.04689E-01 3.13097E-03-1.48039E+00 3.33261E-13 2.74714E-13
 -1       428 1.89879E+01-1.46902E-01 9.91263E-04-1.52675E+00 2.08189E-13-1.23339E-15
 -1       429 1.94181E+01-4.65356E-01 1.23681E-03-1.36527E+00 1.22879E-13-1.34818E-13
 -1       430 2.11769E+01-1.29569E+00 1.34065E-02-1.05050E+00-1.15601E-13-2.49471E-13
 -1       431 2.03006E+01-9.41370E-01 2.62711E-03-1.72222E+00-8.22597E-14 1.36484E-13
 -1       432 1.97942E+01-7.60658E-01 5.68813E-04-1.73209E+00 2.43505E-13 5.33531E-13
 -1       433 2.23732E+01-1.65198E+00 1.91492E-02 5.79379E-01-5.40843E-14 5.13661E-13
 -1       434 2.35325E+01-1.90067E+00 2.15512E-02 3.33613E+00-4.48694E-13 3.47031E-13
 -1       435 2.33972E+01-1.55830E+00 3.97566E-02 6.86898E+00 2.24829E-13 6.54026E-13
 -1       436 2.07195E+01 4.34145E-02 1.02070E-01 9.07166E+00 2.58162E-13-7.02372E-13
 -1       437 1.56006E+01 2.67459E+00 1.40445E-01 7.73910E+00-4.96918E-13-3.86802E-13
 -1       438 1.21137E+01 4.51146E+00 1.73902E-01 2.16264E+00-5.47070E-13-7.66193E-14
 -1       439 1.52158E+01 5.37921E+00 1.45279E-01-4.57461E+00 1.07730E-13-2.74544E-13
 -1       440 1.92064E+01 1.62327E+00 1.02077E-01-8.02461E+00-6.44727E-14-3.73652E-13
 -1       441 2.29977E+01-5.14744E-01 5.62561E-02-6.38573E+00-3.31049E-13 3.57348E-13
 -1       442 2.33968E+01-1.10758E+00 2.05450E-02-2.93073E+00 6.08680E-14-3.92155E-13
 -1       443 1.39920E+01-5.10190E+00-1.03409E-02 1.06870E+01-1.43469E-13-1.11233E-12
 -1       444 3.01801E+00-3.43678E+00-1.07179E-01 6.63199E-01 3.85638E-14 4.95021E-13
 -1       445 5.26035E+00-4.97771E+00-1.91201E-01 6.72042E+00 6.92918E-14 2.79776E-14
 -1       446 2.38752E+01-5.34136E+00 2.70008E-02 9.87883E+00-4.29518E-13-1.16619E-12
 -1       447 2.74632E+01-5.03557E+00-2.28629E-02-4.71308E+00-1.64146E-13-6.99302E-13
 -1       448 2.61309E+00-7.13199E+00-1.04334E-01-4.54434E+00-3.42545E-13-1.93692E-13
 -1       449 3.18284E+01-1.94639E+00 7.49039E-02 6.81157E+00-4.50209E-13-4.35152E-13
 -1       450 1.97865E+01 3.44012E+00-2.09069E-02-1.72574E+00-2.05075E-13-3.31218E-13
 -1       451 3.81889E+01 7.15390E+00 1.13257E-02 1.50955E+00-1.02668E-13-4.94757E-13
 -1       452 3.88306E+01 9.46329E+00-1.47706E-03 1.41542E+00 3.86247E-13-6.00929E-13
 -1       453 3.76734E+01 8.76975E+00-8.78935E-02 1.81073E+00 3.52079E-13-4.75453E-14
 -1       454 3.71097E+01 3.99344E+00-2.05780E-02 4.58737E-01 2.86188E-13-4.22537E-13
 -1       455 3.37624E+01-5.65017E-01 3.89951E-03-1.29287E+00 2.18901E-13-4.15668E-13
 -1       456 9.18651E+00-7.22050E+00-5.88064E-02-7.22378E+00-9.18154E-14-6.37990E-13
 -1       457 7.86889E-01-5.89012E+00-7.12582E-03-7.97857E-01-3.42172E-13-5.92637E-13
 -1       458 3.84395E+00-6.62844E+00 4.43850E-03 4.12956E+00-7.84095E-15-1.39500E-13
 -1       459 9.81911E+00-7.74004E+00-4.11992E-02 6.20542E+00-1.49603E-14 5.26107E-14
 -1       460 2.04968E+01-8.03788E+00-9.31825E-03 5.68303E+00-1.19085E-13 2.42299E-13
 -1       461 2.86936E+01-5.33973E+00-1.82212E-02 3.13800E+00-9.29951E-14 1.99812E-13
 -1       462 3.48947E+01-1.27819E+00 1.96964E-02 7.14039E-02-1.01880E-14 1.13215E-13
 -1       463 3.88929E+01 4.44924E+00 8.72246E-02-2.37466E+00-1.44856E-13 9.84768E-14
 -1       464 3.85617E+01 8.32532E+00 2.09315E-02-2.80490E+00 1.01558E-13-6.51909E-14
 -1       465 4.05272E+01 8.80935E+00 1.29930E-01-1.79178E+00-8.88178E-14-2.22496E-13
 -1       466 3.96607E+01 6.01681E+00 1.05015E-01-1.49567E+00-1.06512E-13-2.25514E-13
 -1       467 3.61851E+01 1.25318E-01-3.82064E-03-2.42381E+00-1.23797E-13-1.15269E-13
 -1       468 3.25136E+01-3.68240E+00 6.76965E-02-5.88561E+00 3.71994E-13-3.92741E-13
 -1       469 2.33391E+01-6.48652E+00-2.28953E-02-9.40925E+00 6.53505E-13-2.00943E-13
 -1       470 1.32157E+01-5.76372E+00-5.21529E-02-9.79133E+00-2.68063E-13-3.09974E-13
 -1       471 5.11867E+00-4.74501E+00-1.56290E-01-5.57306E+00-1.11730E-13 2.46358E-13
 -1       472 3.63373E+01 2.35587E+00 5.17290E-02 3.81061E+00-3.21666E-13-2.58127E-13
 -1       473 2.28897E+01-1.09950E+00 4.33341E-03-8.86770E-01 2.65550E-13-2.96512E-14
 -1       474 3.37806E+01 6.14425E+00-1.44350E-01 2.97659E+00 6.57016E-13 1.78857E-13
 -1       475 2.03746E+01 8.32072E-01 4.02721E-03 9.71068E-01 2.28051E-13 2.82326E-14
 -1       476 1.97314E+01 3.10454E+00-5.36291E-03-6.33547E-01-5.87369E-14-3.70108E-13
 -1       477 1.98276E+01 2.93152E+00-5.82405E-03-9.49995E-01-1.08556E-13-3.66345E-13
 -1       478 1.96636E+01 3.22721E+00-5.02863E-03 8.81754E-03 3.39369E-14-3.23433E-13
 -1       479 1.96822E+01 3.19416E+00-5.10708E-03 3.30210E-01 8.82365E-14-3.19238E-13
 -1       480 1.97362E+01 3.09732E+00-5.41508E-03 6.45435E-01 1.44149E-13-3.12251E-13
 -1       481 1.98350E+01 2.91945E+00-5.97172E-03 9.60731E-01 2.15267E-13-2.50570E-13
 -1       482 1.99913E+01 2.63411E+00-6.52852E-03 1.25593E+00 2.59232E-13-1.98713E-13
 -1       483 2.02338E+01 2.18807E+00-5.69417E-03 1.50066E+00 2.88673E-13-1.47273E-13
 -1       484 2.03444E+01 9.75798E-01 2.91873E-03-9.42558E-01-1.95510E-13-1.41841E-13
 -1       485 2.01131E+01 4.53649E-01 5.06483E-03 4.63122E-01 2.30493E-13-9.90419E-16
 -1       486 2.03928E+01 1.77166E+00-5.67002E-03-1.54555E+00-2.36780E-13-1.71608E-13
 -1       487 8.97297E+00 1.41133E+00 1.86968E-01-3.13441E+00-1.60993E-13 1.12466E-13
 -1       488 2.01723E+01 5.43926E-01 1.93677E-03-4.67028E-01-1.64603E-13-1.38459E-13
 -1       489 2.00255E+01 3.03779E-01 1.06717E-03-1.65439E-01-1.10118E-13-1.32703E-13
 -1       490 1.99248E+01 1.61825E-01 4.39077E-04 1.61379E-02-1.22861E-13-9.02068E-14
 -1       491 1.98661E+01 7.54528E-02 1.54926E-04 1.18786E-01-1.37992E-13-1.01679E-13
 -1       492 1.98387E+01 2.26104E-02 2.07643E-05 1.70076E-01-8.09076E-14-1.11697E-13
 -1       493 1.98325E+01-9.04279E-03-4.72155E-05 1.88585E-01-6.11765E-14-1.99255E-13
 -1       494 1.98395E+01-2.69128E-02-8.26860E-05 1.86838E-01-1.17488E-13-2.25754E-13
 -1       495 1.98540E+01-3.57245E-02-9.84680E-05 1.73321E-01-1.18391E-15-1.29606E-13
 -1       496 1.98720E+01-3.86161E-02-1.01621E-04 1.53757E-01-1.07244E-15-9.04515E-14
 -1       497 1.98909E+01-3.77119E-02-9.67595E-05 1.31968E-01 3.19497E-14-8.07282E-14
 -1       498 1.99093E+01-3.44442E-02-8.70185E-05 1.10456E-01 5.48069E-15-7.98087E-14
 -1       499 1.99263E+01-2.97488E-02-7.44609E-05 9.08284E-02-1.30181E-13-6.28926E-14
 -1       500 1.99418E+01-2.41945E-02-6.03040E-05 7.41103E-02-1.05613E-13 2.59714E-15
 -1       501 1.99559E+01-1.80718E-02-4.51219E-05 6.09776E-02-1.54788E-13-2.06387E-14
 -1       502 1.99690E+01-1.14559E-02-2.89969E-05 5.19357E-02-1.09314E-13-1.08124E-13
 -1       503 1.99817E+01-4.25001E-03-1.16136E-05 4.74584E-02-1.42222E-13-1.16252E-13
 -1       504 1.99949E+01 3.78456E-03 7.68583E-06 4.80987E-02-7.77032E-14-9.87479E-14
 -1       505 2.00094E+01 1.30108E-02 2.98714E-05 5.45789E-02-6.65862E-14-1.78676E-13
 -1       506 2.00266E+01 2.39076E-02 5.62208E-05 6.78677E-02 8.15521E-14-8.19959E-14
 -1       507 2.00477E+01 3.70682E-02 8.83384E-05 8.92476E-02 8.60491E-14-9.09816E-14
 -1       508 2.00741E+01 5.32031E-02 1.28185E-04 1.20376E-01 7.14248E-14-1.59279E-13
 -1       509 2.01076E+01 7.31421E-02 1.78104E-04 1.63339E-01 2.59436E-14-2.45195E-13
 -1       510 2.01498E+01 9.78249E-02 2.40802E-04 2.20686E-01-8.34221E-14-2.92315E-13
 -1       511 2.02025E+01 1.28259E-01 3.19199E-04 2.95442E-01 1.36161E-13-2.19835E-13
 -1       512 2.02674E+01 1.65402E-01 4.15966E-04 3.91060E-01 3.34452E-14-3.44363E-13
 -1       513 2.03457E+01 2.09884E-01 5.32365E-04 5.11250E-01 2.09185E-14-2.63450E-13
 -1       514 2.04383E+01 2.61409E-01 6.65724E-04 6.59603E-01-7.77183E-14-1.23302E-13
 -1       515 2.05453E+01 3.17566E-01 8.04342E-04 8.38819E-01 6.50695E-15-1.09432E-13
 -1       516 2.06669E+01 3.71578E-01 9.18024E-04 1.04928E+00-4.34504E-14 8.77022E-15
 -1       517 2.08046E+01 4.08342E-01 9.42714E-04 1.28658E+00-6.87110E-14 6.44086E-14
 -1       518 2.09654E+01 3.98031E-01 7.59145E-04 1.53734E+00 3.63641E-16 3.60412E-14
 -1       519 2.11707E+01 2.87252E-01 1.68379E-04 1.77258E+00-1.88054E-14 3.40355E-14
 -1       520 2.14713E+01-9.35295E-03-1.02565E-03 1.93731E+00 2.28789E-13 3.37610E-13
 -1       521 2.19685E+01-6.05999E-01-2.64181E-03 1.93391E+00 4.43706E-14 2.42190E-13
 -1       522 2.28249E+01-1.59697E+00-3.89793E-03 1.59181E+00-3.32577E-14 2.26994E-13
 -1       523 2.42126E+01-2.89180E+00-2.57631E-03 6.65951E-01 1.63118E-13 1.40199E-13
 -1       524 2.61270E+01-3.94618E+00-7.27722E-03-1.12599E+00 4.52598E-14-5.06756E-15
 -1       525 2.80082E+01-3.26726E+00-5.40911E-02-3.61849E+00 3.62505E-14-1.95082E-13
 -1       526 2.89088E+01 1.86796E-01-1.29526E-01-5.42315E+00 1.78611E-13-2.57929E-13
 -1       527 2.87688E+01 4.94852E+00-1.77111E-01-4.21649E+00 2.16674E-13-4.56312E-13
 -1       528 2.85032E+01 5.86925E+00-1.89044E-01-5.90206E-01-3.34316E-14-3.64080E-13
 -1       529 2.83072E+01 2.18992E+00-1.54466E-01 1.74271E+00-3.50275E-13-3.16087E-13
 -1       530 2.74666E+01-1.62486E+00-7.96936E-02 1.06267E+00-1.39782E-13-2.33945E-14
 -1       531 1.98111E+01 1.29241E-01 1.01731E-03-2.07329E-02 1.49695E-13 3.55081E-14
 -1       532 1.97533E+01 5.96113E-02 3.65896E-04-1.19283E-01 9.55483E-14 2.34728E-14
 -1       533 1.97346E+01 1.77839E-02 8.40709E-05-1.67416E-01 7.53345E-14-1.75593E-14
 -1       534 1.97406E+01-7.03458E-03-5.36162E-05-1.84008E-01 2.84643E-14 5.53152E-15
 -1       535 1.97609E+01-2.09899E-02-1.23368E-04-1.81381E-01 2.30064E-14 7.70375E-14
 -1       536 1.97883E+01-2.78680E-02-1.55922E-04-1.67702E-01 9.75033E-14 1.23634E-14
 -1       537 1.98181E+01-3.01435E-02-1.65180E-04-1.48414E-01 1.79413E-13 4.11236E-14
 -1       538 1.98474E+01-2.94775E-02-1.59705E-04-1.27116E-01 1.73989E-13 3.56117E-14
 -1       539 1.98746E+01-2.69871E-02-1.45163E-04-1.06147E-01 3.99815E-14 8.38441E-14
 -1       540 1.98988E+01-2.34053E-02-1.25298E-04-8.69934E-02-4.90997E-14 3.01514E-14
 -1       541 1.99201E+01-1.91837E-02-1.02395E-04-7.05871E-02-4.64159E-14-5.04482E-14
 -1       542 1.99388E+01-1.45633E-02-7.76865E-05-5.75199E-02-8.18191E-15-4.39871E-14
 -1       543 1.99554E+01-9.62641E-03-5.16208E-05-4.82091E-02 4.79280E-14 1.27090E-15
 -1       544 1.99709E+01-4.33680E-03-2.40452E-05-4.30197E-02 3.27201E-14-1.24625E-14
 -1       545 1.99863E+01 1.42678E-03 5.60843E-06-4.23533E-02-5.85228E-14-9.66451E-14
 -1       546 2.00027E+01 7.84068E-03 3.81337E-05-4.67085E-02 5.85241E-14-8.85765E-14
 -1       547 2.00218E+01 1.51041E-02 7.43781E-05-5.67148E-02-5.99989E-14-1.96916E-13
 -1       548 2.00450E+01 2.33984E-02 1.15002E-04-7.31344E-02 4.93014E-14-8.77032E-14
 -1       549 2.00741E+01 3.28313E-02 1.60152E-04-9.68255E-02 4.12641E-14 8.42720E-14
 -1       550 2.01112E+01 4.33563E-02 2.09000E-04-1.28650E-01-5.36612E-15-4.20256E-15
 -1       551 2.01583E+01 5.46561E-02 2.59073E-04-1.69306E-01-9.18155E-14-3.75030E-14
 -1       552 2.02179E+01 6.59770E-02 3.05343E-04-2.19055E-01-8.25949E-14-2.13409E-13
 -1       553 2.02922E+01 7.59017E-02 3.39043E-04-2.77308E-01-2.10885E-15-5.51567E-14
 -1       554 2.03834E+01 8.20547E-02 3.46268E-04-3.42020E-01-3.26754E-15 3.41269E-14
 -1       555 2.04934E+01 8.07559E-02 3.06665E-04-4.08874E-01-2.76605E-14-3.97042E-14
 -1       556 2.06233E+01 6.66843E-02 1.92860E-04-4.70222E-01 7.34011E-14-3.83037E-14
 -1       557 2.07734E+01 3.27193E-02-2.80655E-05-5.13858E-01 2.47280E-14 8.95580E-15
 -1       558 2.09425E+01-2.96917E-02-3.88520E-04-5.21826E-01-1.42245E-13 1.61218E-14
 -1       559 2.11268E+01-1.29000E-01-9.08512E-04-4.69776E-01-8.95564E-14 8.80497E-15
 -1       560 2.13185E+01-2.69883E-01-1.57487E-03-3.27877E-01 2.24735E-13 1.56455E-13
 -1       561 2.15026E+01-4.46399E-01-2.30390E-03-6.50853E-02-5.36305E-14 2.83995E-13
 -1       562 2.16522E+01-6.31859E-01-2.84539E-03 3.40773E-01 3.02793E-14 4.55131E-13
 -1       563 2.17231E+01-7.68294E-01-3.01787E-03 8.84348E-01-1.19194E-13 2.90709E-13
 -1       564 2.16539E+01-7.65630E-01-2.37587E-03 1.50518E+00-2.45003E-13 3.71841E-13
 -1       565 2.13854E+01-5.29595E-01-6.65005E-05 2.06456E+00-2.13251E-13 3.96416E-13
 -1       566 2.08980E+01-2.39683E-02 1.69836E-03 2.35552E+00-4.91432E-14 5.00665E-13
 -1       567 2.02639E+01 6.57467E-01 2.10888E-03 2.16678E+00 4.86080E-15 2.01666E-13
 -1       568 1.96678E+01 1.26111E+00 2.41632E-03 1.42932E+00 1.20778E-13 3.30014E-13
 -1       569 1.93033E+01 1.52012E+00 3.63564E-03 3.19518E-01 2.26046E-13 2.61808E-13
 -1       570 1.92413E+01 1.32559E+00 4.86517E-03-8.00457E-01 1.93330E-13-7.42488E-14
 -1       571 1.93715E+01 7.85038E-01 1.34557E-03-1.60089E+00 7.10120E-14-1.23871E-13
 -1       572 1.95671E+01 9.47748E-02 2.83678E-04-1.93028E+00 2.06792E-13 2.69335E-13
 -1       573 2.53306E+01-1.35109E+00-8.26252E-03 1.04763E+00-5.11020E-13 1.56824E-13
 -1       574 2.72358E+01-3.09665E+00-2.47089E-02 4.34014E+00-3.37781E-13 1.49800E-12
 -1       575 2.12156E+01 1.88606E-02 1.30164E-03-1.72156E+00-1.57729E-13-4.71717E-13
 -1       576 2.30111E+01-3.51728E-01-9.96426E-04-8.25645E-01-1.77260E-13 2.77243E-13
 -1       577 2.73141E+01-3.80661E+00 1.92224E-02-4.16977E+00 4.99505E-14 4.39572E-13
 -1       578 2.57407E+01-4.03977E+00 1.26020E-01 8.53648E+00 1.32221E-14 1.67047E-13
 -1       579 1.75541E+01-2.54767E+00 4.04818E-02 1.04091E+01-4.07743E-13-1.76473E-12
 -1       580 1.41581E+01-2.15438E-02 1.52976E-01-8.24544E+00 2.15335E-13-1.20362E-13
 -1       581 2.16208E+01-4.56023E+00 3.64324E-02 1.05204E+01-5.21236E-13-1.51690E-12
 -1       582 2.29860E+01-3.41397E+00 8.67181E-02-8.82827E+00-2.92093E-13-6.04738E-13
 -1       583 1.99258E+01 2.46553E-01 2.46349E-03 1.57732E-01 1.80845E-13 2.28120E-14
 -1       584 1.62985E+01-6.31106E+00 1.03641E-01-7.52124E+00-9.27036E-14-6.70269E-13
 -1       585 3.03227E+01-4.25405E+00-5.42199E-02-8.81045E-01-2.99594E-13-1.94962E-13
 -1       586 3.27432E+01 1.85780E+00-1.56469E-01 9.95294E-01-2.98171E-13-3.09849E-13
 -1       587 5.09535E+00-2.77362E+00 2.09139E-01 1.99548E+00-2.35402E-14-1.13104E-14
 -1       588 3.32806E+01 3.30865E+00-1.49435E-01 2.45507E-01 3.25108E-13 4.66599E-13
 -1       589 1.25319E+01-9.11624E-01 1.62970E-01 8.97322E+00-6.31072E-13-7.86815E-13
 -1       590 8.21278E+00 8.89691E-01 1.91816E-01 3.57013E+00-5.48797E-13 2.87825E-13
 -1       591 3.21802E+01 7.67027E+00-2.04915E-01-1.80522E+00 1.47007E-13-2.66203E-13
 -1       592 1.96792E+01 3.19859E+00-5.10565E-03-3.12699E-01-8.87588E-15-3.40069E-13
 -1       593 3.24908E+01 7.62289E+00-1.93273E-01-7.59187E-03 3.00787E-13-2.61270E-13
 -1       594 2.66726E+01-7.26472E+00 1.31783E-03 2.38715E+00-8.08381E-14 5.18759E-13
 -1       595 3.27268E+01 8.09242E-01-1.18556E-01 2.19059E+00 9.78106E-14-1.05055E-14
 -1       596 3.27512E+01 6.06504E+00-1.92123E-01 3.44816E-01-2.13357E-13-3.90785E-13
 -1       597 3.16909E+01 8.76987E+00-2.27675E-01 1.47303E+00 1.55140E-13 3.76382E-14
 -1       598 3.25882E+01-1.39410E+00-4.92530E-02 3.11107E+00-1.12986E-13 5.70988E-13
 -1       599 9.70577E+00-5.04821E+00 1.52040E-01 5.60137E+00 1.71349E-13 1.04056E-13
 -1       600 1.75304E+01-6.98902E+00 1.17203E-01 6.01311E+00 1.72126E-13 2.28012E-13
 -1       601 3.12515E+01-4.86013E+00-8.61836E-02-7.18465E-01 9.43134E-14 2.60320E-13
 -1       602 3.33645E+01 2.08214E-01-1.20325E-01-4.13526E+00 1.29174E-13 3.12889E-13
 -1       603 3.33176E+01 4.96728E+00-1.61752E-01-4.48319E+00 3.01426E-14-8.89774E-14
 -1       604 2.90558E+01-4.65218E+00 2.64335E-02 7.19568E+00-5.33094E-13 2.28845E-14
 -1       605 8.30721E+00-4.92042E+00 1.36358E-01-6.57614E+00-1.23269E-13-5.40193E-13
 -1       606 3.19595E+01-3.56041E+00-8.60157E-02-2.00258E+00 1.32823E-13 1.69705E-13
 -1       607 2.88436E+01-5.82530E+00 2.21755E-02-6.39896E+00 4.70068E-13 9.64714E-14
 -1       608 4.37969E+00-3.49138E+00 1.68902E-01-3.50495E+00-2.58453E-13-2.95736E-13
 -1       609 2.05864E+01 1.30529E+00-9.96138E-04 1.54709E+00 2.68906E-13 1.08667E-13
 -1       610 2.49042E+01-6.83956E+00 3.52714E-02-5.01010E+00-5.18953E-13-3.61138E-13
 -1       611 1.99784E+01 2.66310E+00-6.59415E-03-1.25384E+00-1.73927E-13-3.16838E-13
 -1       612 2.98215E+01 7.34016E+00-1.70414E-01 2.72727E+00 3.84318E-13 1.20683E-13
 -1       613 2.51852E+01-1.96723E+00-2.48798E-02-2.37799E-01 4.95663E-14 5.12546E-14
 -1       614 2.32888E+01-7.01156E+00 4.79073E-02 3.73504E+00 2.48496E-13 4.11149E-13
 -1       615 2.21957E+01-4.65516E+00 1.40879E-01-9.62785E+00 5.34295E-15-9.86954E-13
 -1       616 1.99588E+01 2.44983E+00-1.58605E-03 3.93817E-01 9.73796E-14-2.67916E-13
 -1       617 1.99267E+01 2.52489E+00-1.50877E-03 1.35757E-01 6.49558E-14-2.83887E-13
 -1       618 2.01202E+01 2.04615E+00-1.56497E-03 8.48992E-01 2.20383E-13-1.98677E-13
 -1       619 2.02388E+01 1.67618E+00-2.25025E-03 9.91522E-01 2.36452E-13-1.49617E-13
 -1       620 2.03198E+01 1.03698E+00 2.93230E-03 8.30425E-01 2.18698E-13-1.22760E-13
 -1       621 2.02900E+01 1.12578E+00 8.76236E-04-7.62096E-01-1.59256E-13-2.13568E-13
 -1       622 2.02399E+01 6.72914E-01 2.62966E-04-3.92618E-01-1.31169E-13-1.75539E-13
 -1       623 2.01674E+01 3.92093E-01 1.59872E-04-1.38749E-01-9.90916E-14-1.77633E-13
 -1       624 2.01020E+01 2.12436E-01 4.79873E-05 2.30938E-02-9.13167E-14-1.27639E-13
 -1       625 2.00516E+01 9.80368E-02 1.89967E-06 1.17983E-01-1.12338E-13-9.17041E-14
 -1       626 2.00164E+01 2.61542E-02-1.55758E-05 1.66574E-01-1.15312E-13-1.05365E-13
 -1       627 1.99938E+01-1.73927E-02-2.60351E-05 1.84403E-01-9.74535E-14-9.87747E-14
 -1       628 1.99805E+01-4.19122E-02-3.15630E-05 1.82778E-01-2.79636E-14-1.28475E-14
 -1       629 1.99739E+01-5.36917E-02-3.32679E-05 1.69703E-01-6.66568E-15-9.01128E-14
 -1       630 1.99719E+01-5.70529E-02-3.22729E-05 1.50746E-01-2.85107E-14-1.41228E-13
 -1       631 1.99727E+01-5.49733E-02-2.95188E-05 1.29694E-01-2.77792E-14-1.91319E-13
 -1       632 1.99754E+01-4.94642E-02-2.57447E-05 1.09075E-01-1.38969E-14-1.96255E-13
 -1       633 1.99792E+01-4.18226E-02-2.14061E-05 9.05519E-02-7.02637E-14-8.19399E-14
 -1       634 1.99837E+01-3.28096E-02-1.67589E-05 7.52300E-02-1.14539E-13-5.23037E-14
 -1       635 1.99887E+01-2.27751E-02-1.18836E-05 6.38866E-02-2.01092E-13 6.99582E-15
 -1       636 1.99942E+01-1.17474E-02-6.72502E-06 5.71534E-02-8.10529E-14-7.35697E-16
 -1       637 2.00004E+01 5.02797E-04-1.12390E-06 5.56570E-02-9.33635E-14-7.19207E-14
 -1       638 2.00072E+01 1.44187E-02 5.17405E-06 6.01282E-02-9.91329E-14-7.49726E-14
 -1       639 2.00151E+01 3.06301E-02 1.25159E-05 7.14894E-02-1.28775E-14-5.36441E-14
 -1       640 2.00242E+01 4.99378E-02 2.13522E-05 9.09241E-02 8.14658E-14-2.62918E-13
 -1       641 2.00348E+01 7.33053E-02 3.22407E-05 1.19931E-01 1.41299E-13-9.91283E-14
 -1       642 2.00469E+01 1.01850E-01 4.58621E-05 1.60358E-01-1.71518E-14-1.36970E-13
 -1       643 2.00603E+01 1.36826E-01 6.30396E-05 2.14424E-01-5.89429E-14-2.24659E-13
 -1       644 2.00745E+01 1.79570E-01 8.47541E-05 2.84697E-01 7.07828E-14-3.99161E-14
 -1       645 2.00883E+01 2.31383E-01 1.12134E-04 3.74034E-01 2.90816E-15-1.13164E-13
 -1       646 2.00996E+01 2.93255E-01 1.46369E-04 4.85455E-01 2.38139E-14-5.33436E-14
 -1       647 2.01052E+01 3.65310E-01 1.88433E-04 6.21905E-01 6.41589E-14-9.91982E-14
 -1       648 2.01006E+01 4.45727E-01 2.38352E-04 7.85903E-01 7.93237E-14 1.02706E-13
 -1       649 2.00806E+01 5.28735E-01 2.93460E-04 9.79030E-01-2.67910E-14-6.05192E-14
 -1       650 2.00403E+01 6.01102E-01 3.44432E-04 1.20131E+00 4.02872E-14-2.60813E-15
 -1       651 1.99795E+01 6.36312E-01 3.69801E-04 1.45058E+00-5.18980E-14 1.81035E-13
 -1       652 1.99105E+01 5.85692E-01 3.28506E-04 1.72185E+00-1.23288E-14 1.02316E-13
 -1       653 1.98740E+01 3.66679E-01 1.61510E-04 2.00621E+00 1.13091E-13 6.20399E-14
 -1       654 1.99660E+01-1.47656E-01 1.99152E-04 2.28551E+00 1.77737E-14-2.60067E-14
 -1       655 2.03754E+01-1.12727E+00 1.13276E-03 2.51903E+00 4.71326E-14-2.03636E-13
 -1       656 2.14734E+01-2.72277E+00 7.88050E-03 2.51796E+00 8.52131E-14-1.30208E-13
 -1       657 2.36181E+01-4.75698E+00 2.81979E-02 2.01459E+00 1.86645E-13 2.21630E-13
 -1       658 1.99735E+01 8.77951E-02 5.08764E-05-1.20375E-01 1.05742E-13 6.06938E-16
 -1       659 8.91248E+00-2.59491E+00 1.64713E-01-5.05269E+00 1.08732E-14-5.53467E-13
 -1       660 2.00266E+01 1.90541E-01 2.58342E-04-2.18619E-02 8.44250E-14-1.97245E-14
 -1       661 1.99257E+01-1.34883E-02-2.96306E-05-1.88355E-01 6.65697E-15 2.83745E-14
 -1       662 1.99209E+01-3.49823E-02-4.53899E-05-1.86533E-01 9.90206E-14-2.58275E-14
 -1       663 1.99231E+01-4.54164E-02-5.22214E-05-1.73060E-01 9.50555E-14 3.50527E-14
 -1       664 1.99295E+01-4.85723E-02-5.31435E-05-1.53609E-01 1.38072E-13 9.16488E-14
 -1       665 1.99379E+01-4.70329E-02-5.01433E-05-1.32011E-01 9.36919E-14 1.64780E-13
 -1       666 1.99472E+01-4.25441E-02-4.46601E-05-1.10803E-01-1.77328E-14 1.59320E-13
 -1       667 1.99566E+01-3.62419E-02-3.77272E-05-9.16396E-02 1.88138E-14 1.37535E-13
 -1       668 1.99657E+01-2.88080E-02-2.99452E-05-7.55970E-02-6.28558E-15 3.12212E-14
 -1       669 1.99746E+01-2.05824E-02-2.16411E-05-6.34065E-02-2.55627E-14 6.05871E-14
 -1       670 1.99833E+01-1.16479E-02-1.28179E-05-5.56301E-02 4.33540E-14 6.04279E-14
 -1       671 1.99922E+01-1.89980E-03-3.31505E-06-5.27910E-02 3.10877E-14 3.42424E-14
 -1       672 2.00018E+01 8.89550E-03 7.11006E-06-5.54654E-02 3.57877E-14-8.97302E-14
 -1       673 2.00126E+01 2.10452E-02 1.87801E-05-6.43422E-02-9.91902E-15-3.86531E-14
 -1       674 2.00253E+01 3.48646E-02 3.19970E-05-8.02500E-02-5.47341E-14 1.78612E-14
 -1       675 2.00407E+01 5.05937E-02 4.69709E-05-1.04143E-01-3.01262E-14 1.75064E-13
 -1       676 2.00598E+01 6.82816E-02 6.36904E-05-1.37042E-01 5.13947E-15 2.31917E-13
 -1       677 2.00837E+01 8.76231E-02 8.17364E-05-1.79899E-01 6.70699E-14 2.27329E-13
 -1       678 2.01135E+01 1.07727E-01 1.00016E-04-2.33389E-01-4.01400E-14 2.04980E-13
 -1       679 2.01511E+01 1.26800E-01 1.16395E-04-2.97566E-01-2.24366E-14 1.53755E-13
 -1       680 2.01982E+01 1.41727E-01 1.27224E-04-3.71375E-01-9.19025E-15 8.58952E-14
 -1       681 2.02577E+01 1.47555E-01 1.26777E-04-4.51968E-01-3.79350E-14 1.35419E-13
 -1       682 2.03332E+01 1.36938E-01 1.06700E-04-5.33795E-01-9.28724E-16 1.03888E-13
 -1       683 2.04298E+01 9.96805E-02 5.56677E-05-6.07457E-01 8.57236E-14 9.89152E-14
 -1       684 2.05548E+01 2.27362E-02-4.04139E-05-6.58371E-01-4.08705E-14 7.70009E-14
 -1       685 2.07177E+01-1.08655E-01-1.95267E-04-6.65371E-01-3.35348E-14-8.75633E-14
 -1       686 2.09299E+01-3.07502E-01-4.22505E-04-5.99661E-01-7.65878E-14 1.69946E-14
 -1       687 2.12016E+01-5.77481E-01-7.36134E-04-4.25031E-01 7.61057E-14 2.41984E-13
 -1       688 2.15347E+01-8.99379E-01-1.09943E-03-1.01732E-01-8.60391E-14 6.61276E-14
 -1       689 2.19097E+01-1.21242E+00-1.14347E-03 4.02952E-01-8.89883E-14 2.25609E-13
 -1       690 2.22644E+01-1.39355E+00-1.55197E-03 1.09009E+00-2.48431E-13 3.84275E-13
 -1       691 2.24847E+01-1.26302E+00-1.89116E-03 1.87740E+00-2.52497E-13 4.55891E-13
 -1       692 2.24552E+01-6.70470E-01 1.56852E-03 2.55754E+00-4.32653E-14 4.21335E-13
 -1       693 2.20755E+01 4.22935E-01-1.28693E-03 2.83320E+00 1.33334E-13 3.40677E-13
 -1       694 2.14777E+01 1.67751E+00-5.02897E-03 2.38328E+00 9.94274E-14 1.42950E-13
 -1       695 2.09421E+01 2.54028E+00-5.58547E-03 1.23392E+00 1.67302E-13 2.80028E-15
 -1       696 2.07106E+01 2.55697E+00-1.96702E-03-1.94426E-01 3.54932E-13-1.34796E-14
 -1       697 2.07027E+01 1.79348E+00-1.23614E-03-1.31120E+00 1.49251E-13-9.69418E-14
 -1       698 2.10794E+01 1.01783E+00 5.39420E-04-1.74356E+00-7.50071E-14-2.54358E-13
 -1       699 2.02059E+01 6.14091E-01 1.07847E-03 4.18817E-01 1.86532E-13-9.62637E-14
 -1       700 2.90036E+01-5.25348E-01-3.90916E-02 7.82617E-01 4.23699E-13 1.13394E-12
 -1       701 7.32871E+00-1.02805E+00 1.75463E-01-1.26549E+00-4.91569E-14-3.86170E-13
 -1       702 2.98745E+01-4.24064E+00-6.33568E-02-2.86420E+00 7.40319E-14 2.87478E-13
 -1       703 2.76290E+01-6.17017E+00 6.42302E-03 8.09124E-02 3.29736E-14 3.72861E-13
 -1       704 1.44052E+01-4.41085E+00 1.18308E-01-6.75554E+00 3.63806E-14-7.12409E-13
 -1       705 2.01048E+01 3.53841E-01 6.60763E-04 1.48008E-01 1.43181E-13-5.86368E-14
 -1       706 2.83388E+01 7.28000E+00-1.76655E-01 3.03531E-01 3.24817E-13 3.01044E-13
 -1       707 1.99416E+01 2.46354E-02 8.30177E-08-1.70264E-01 3.44103E-14 1.72793E-14
 -1       708 2.72182E+01-5.68263E+00-1.07194E-02-1.60762E+00-3.95831E-13-5.46637E-13
 -1       709 2.16880E+01-5.97667E+00 6.04092E-02-5.41099E+00-1.29348E-13-3.19134E-13
 -1       710 2.00229E+01 2.29508E+00-1.66529E-03 6.37608E-01 1.54806E-13-2.38144E-13
 -1       711 1.54630E+01-4.47426E+00 1.04691E-01 5.38014E+00 2.63657E-13 3.73375E-13
 -1       712 2.93177E+01-2.18533E+00-8.59239E-02 2.21060E+00 1.92641E-14 3.67734E-13
 -1       713 2.00156E+01 2.30811E+00-1.85755E-03-6.28118E-01-7.05631E-14-3.23228E-13
 -1       714 3.01482E+01 3.10837E+00-1.42466E-01 3.68705E+00 2.56767E-13 3.43395E-13
 -1       715 1.02977E+01-2.32447E+00 1.51841E-01 3.91865E+00 2.12656E-13 2.81157E-13
 -1       716 2.93644E+01 4.65460E+00-1.40436E-01-8.70482E-01 9.93934E-13 6.79155E-13
 -1       717 2.01078E+01 2.06809E+00-2.25714E-03-8.44550E-01-1.43291E-13-2.70093E-13
 -1       718 1.99250E+01 2.52707E+00-1.63497E-03-1.25531E-01 8.88776E-15-2.89429E-13
 -1       719 2.88237E+01-3.06917E+00-8.12350E-02 3.83281E+00 2.75558E-13 1.79625E-12
 -1       720 2.69655E+01 6.94310E+00-1.33659E-01 1.53940E+00 3.73264E-13 1.34608E-13
 -1       721 9.88467E+00-4.96137E-01 1.19132E-01 1.29666E+00 1.44094E-13 3.36110E-13
 -1       722 3.08475E+01 9.87453E-01-1.24987E-01 1.79222E-01 5.11344E-13 9.73555E-13
 -1       723 2.31552E+01 1.10186E+00-1.46654E-02-1.39671E+00 1.89323E-13 1.43316E-13
 -1       724 2.02557E+01 1.60411E+00-8.08749E-04-9.93726E-01-1.76861E-13-2.58909E-13
 -1       725 2.57379E+01 7.06795E-01-3.96067E-02-7.07424E-01 1.14101E-13-7.48967E-14
 -1       726 1.99540E+01 2.45708E+00-1.83828E-03-3.82579E-01-3.72830E-14-3.16268E-13
 -1       727 2.01688E+01-4.99815E+00 6.80567E-02 4.20401E+00 3.28543E-13 2.85417E-13
 -1       728 2.02654E+01 1.30925E+00 8.23928E-04 6.32277E-01 1.65892E-13-1.59655E-13
 -1       729 1.03530E+01-9.52548E-01 1.05890E-01-3.30444E+00 9.49189E-14-7.03115E-13
 -1       730 2.02884E+01 7.26282E-01-7.73523E-04-2.90432E-01-9.94076E-14-2.25641E-13
 -1       731 2.02622E+01 4.32062E-01-5.00833E-05-9.24871E-02-7.19132E-14-2.12181E-13
 -1       732 2.02211E+01 2.34081E-01-2.13992E-05 3.65090E-02-8.59178E-14-1.44078E-13
 -1       733 2.01795E+01 1.03392E-01-1.23952E-05 1.13579E-01-1.28565E-13-1.23486E-13
 -1       734 2.01417E+01 2.00600E-02-9.19336E-06 1.52896E-01-7.70754E-14-7.84867E-14
 -1       735 2.01096E+01-3.04900E-02-8.79604E-06 1.66601E-01-2.17746E-14-8.67389E-14
 -1       736 2.00834E+01-5.85084E-02-8.50625E-06 1.63899E-01-7.07411E-15-1.17309E-14
 -1       737 2.00627E+01-7.12264E-02-8.03397E-06 1.51558E-01-5.27794E-14-1.59717E-14
 -1       738 2.00466E+01-7.37616E-02-7.38930E-06 1.34389E-01-4.99347E-14-2.87358E-14
 -1       739 2.00344E+01-6.96769E-02-6.59048E-06 1.15711E-01-5.84244E-14-6.53990E-14
 -1       740 2.00255E+01-6.13636E-02-5.59015E-06 9.77704E-02-4.78348E-14-1.39941E-13
 -1       741 2.00192E+01-5.03334E-02-4.54012E-06 8.20849E-02-7.43158E-14-8.58065E-14
 -1       742 2.00150E+01-3.74291E-02-3.50175E-06 6.96987E-02-1.31865E-13-8.92253E-14
 -1       743 2.00123E+01-2.29705E-02-2.39726E-06 6.13909E-02-8.75956E-14 2.01280E-14
 -1       744 2.00107E+01-6.86724E-03-1.20374E-06 5.78398E-02-1.40340E-13 7.55215E-14
 -1       745 2.00097E+01 1.12977E-02 9.61362E-08 5.97437E-02-1.16057E-13 7.21951E-14
 -1       746 2.00089E+01 3.22129E-02 1.54142E-06 6.79134E-02-6.19426E-14-2.14426E-14
 -1       747 2.00077E+01 5.67999E-02 3.22461E-06 8.33397E-02-1.37727E-14-9.91733E-16
 -1       748 2.00053E+01 8.61845E-02 5.25969E-06 1.07239E-01 2.56492E-13-4.87807E-14
 -1       749 2.00006E+01 1.21671E-01 7.78534E-06 1.41074E-01 9.51223E-14-2.47734E-14
 -1       750 1.99922E+01 1.64708E-01 1.09784E-05 1.86545E-01-1.50775E-13 1.86089E-14
 -1       751 1.99780E+01 2.16827E-01 1.50773E-05 2.45547E-01 7.93775E-14-4.57723E-14
 -1       752 1.99550E+01 2.79520E-01 2.04208E-05 3.20083E-01-1.78247E-14-1.03954E-13
 -1       753 1.99192E+01 3.54010E-01 2.75099E-05 4.12134E-01-5.78157E-15-1.38099E-13
 -1       754 1.98648E+01 4.40803E-01 3.70879E-05 5.23484E-01 3.87569E-16-2.59966E-14
 -1       755 1.97844E+01 5.38870E-01 5.01828E-05 6.55550E-01 1.54879E-13 1.65588E-13
 -1       756 1.96688E+01 6.44199E-01 6.78819E-05 8.09322E-01-7.07724E-14 9.51628E-14
 -1       757 1.95070E+01 7.47327E-01 9.01770E-05 9.85651E-01 1.05185E-13 2.68450E-14
 -1       758 1.92888E+01 8.29317E-01 1.12331E-04 1.18640E+00 7.04741E-14-3.51272E-15
 -1       759 1.90078E+01 8.55451E-01 1.32038E-04 1.41722E+00-7.49697E-14 7.73871E-14
 -1       760 1.86700E+01 7.65886E-01 1.70729E-04 1.69283E+00-7.42005E-14-3.65702E-14
 -1       761 1.83101E+01 4.62343E-01 2.83055E-04 2.04606E+00 9.46988E-14-8.81926E-14
 -1       762 1.80289E+01-2.05881E-01 3.47250E-03 2.52946E+00-7.36715E-16 9.06062E-14
 -1       763 1.80171E+01-1.43521E+00 2.36277E-02 3.21393E+00 8.47885E-14 2.09064E-13
 -1       764 2.00400E+01-5.10312E-02-1.42858E-05-1.73781E-01 7.02584E-14 4.91992E-14
 -1       765 2.00607E+01-2.45932E-02-1.27107E-05-1.76222E-01 7.09624E-14 3.64190E-14
 -1       766 2.00150E+01-6.62361E-02-1.43849E-05-1.42742E-01 5.42942E-14 7.81895E-14
 -1       767 2.00083E+01-6.30370E-02-1.31138E-05-1.22836E-01 1.03309E-14 5.27040E-14
 -1       768 2.00042E+01-5.59607E-02-1.09571E-05-1.03570E-01 1.94052E-14 5.86316E-14
 -1       769 2.00021E+01-4.64299E-02-8.72469E-06-8.65297E-02 4.02048E-14 3.56560E-14
 -1       770 2.00015E+01-3.52685E-02-6.72079E-06-7.27905E-02-1.45260E-14 3.77653E-14
 -1       771 2.00020E+01-2.28431E-02-4.64174E-06-6.31220E-02 5.96794E-14-4.07210E-14
 -1       772 2.00033E+01-9.17883E-03-2.32222E-06-5.81659E-02-1.15676E-14-4.44957E-14
 -1       773 2.00053E+01 5.93697E-03 1.97102E-07-5.85488E-02-3.38011E-14 1.13587E-13
 -1       774 2.00078E+01 2.28775E-02 3.05218E-06-6.49694E-02-6.50035E-14 3.10044E-13
 -1       775 2.00107E+01 4.20845E-02 6.31857E-06-7.82516E-02-6.43438E-14 2.97862E-13
 -1       776 2.00140E+01 6.39628E-02 1.00872E-05-9.93621E-02-1.04177E-13 3.59907E-13
 -1       777 2.00177E+01 8.87422E-02 1.44357E-05-1.29388E-01-3.68048E-14 2.51865E-13
 -1       778 2.00219E+01 1.16287E-01 1.93901E-05-1.69465E-01 2.29589E-14 2.66638E-13
 -1       779 2.00269E+01 1.45831E-01 2.48748E-05-2.20648E-01 9.18456E-14 3.09063E-13
 -1       780 2.00334E+01 1.75610E-01 3.06422E-05-2.83687E-01-5.95110E-14 2.94110E-13
 -1       781 2.00428E+01 2.02378E-01 3.61728E-05-3.58712E-01 8.68572E-14 2.36954E-13
 -1       782 2.00573E+01 2.20788E-01 4.05400E-05-4.44773E-01-2.53751E-14 1.93394E-13
 -1       783 2.00813E+01 2.22662E-01 4.22241E-05-5.39220E-01 1.23665E-13 3.74119E-14
 -1       784 2.01217E+01 1.96250E-01 3.88268E-05-6.36872E-01 5.75060E-14-2.05901E-13
 -1       785 2.01894E+01 1.25715E-01 2.65108E-05-7.28910E-01-1.85299E-13 6.95919E-14
 -1       786 2.03009E+01-8.63735E-03-1.18270E-06-8.01393E-01 5.31641E-14 2.59044E-13
 -1       787 2.04793E+01-2.28361E-01-4.79216E-05-8.33225E-01-4.73927E-14 1.86365E-13
 -1       788 2.07542E+01-5.51332E-01-1.35719E-04-7.93503E-01-4.17953E-14-3.33211E-14
 -1       789 2.11577E+01-9.79648E-01-3.40163E-04-6.38111E-01-1.51725E-13 9.17754E-14
 -1       790 2.17102E+01-1.47624E+00-6.90553E-04-3.11091E-01-2.76194E-13 3.82462E-13
 -1       791 2.24048E+01-1.93946E+00 3.03402E-04 2.50214E-01-2.63184E-13 6.93311E-13
 -1       792 2.31442E+01-2.13958E+00-5.79849E-04 1.09409E+00-2.39760E-13 4.81010E-13
 -1       793 2.37503E+01-1.74882E+00 3.41459E-03 2.16248E+00-2.78754E-13 3.45501E-13
 -1       794 2.38532E+01-5.45641E-01-1.30581E-02 3.04092E+00 1.09148E-13 5.00123E-13
 -1       795 2.34754E+01 1.36817E+00-1.01527E-02 3.23907E+00 1.91004E-13 4.75141E-13
 -1       796 2.27993E+01 3.26346E+00-2.32404E-02 2.39720E+00 2.83449E-13 5.35215E-13
 -1       797 2.24341E+01 3.99248E+00-1.88347E-02 7.27862E-01 2.77136E-13 3.29163E-13
 -1       798 2.24283E+01 3.25280E+00-1.24290E-02-8.13704E-01 3.43740E-13 1.98635E-13
 -1       799 2.28769E+01 2.32876E+00-1.89727E-02-1.34851E+00 3.01443E-13 2.33218E-14
 -1       800 2.02797E+01 1.17044E+00 6.11393E-04-5.65629E-01-1.16973E-13-2.65732E-13
 -1       801 1.35538E+01-2.40012E+00 8.92332E-02-5.28893E+00 1.20338E-14-6.81483E-13
 -1       802 2.42531E+01-5.28689E+00 1.63155E-02-2.73454E+00-3.06076E-13-4.14145E-13
 -1       803 2.00252E+01-6.33308E-02-1.47957E-05-1.60905E-01 8.94048E-14 6.57716E-14
 -1       804 2.02227E+01 1.58959E+00-3.03536E-04-7.18907E-01-1.49148E-13-2.59670E-13
 -1       805 2.66892E+01 4.46146E+00-1.13176E-01 3.42425E+00 1.77407E-13 1.90176E-13
 -1       806 2.01695E+01 2.24884E-01-4.15644E-05-3.27422E-02 9.39706E-14-1.71759E-14
 -1       807 2.70405E+01-3.77177E+00-2.84672E-02 1.14436E+00-4.88037E-14 3.34999E-13
 -1       808 2.60118E+01 5.01718E+00-1.02367E-01-7.40814E-01 7.91544E-13 4.67614E-13
 -1       809 2.02777E+01 9.41408E-01-8.30132E-05 5.50775E-01 1.69905E-13-1.10665E-13
 -1       810 2.01372E+01 1.88929E+00-3.04019E-04 1.98874E-01 4.99929E-14-2.47300E-13
 -1       811 1.47753E+01-2.03342E+00 7.99981E-02 3.94921E+00 2.09448E-13 3.50928E-13
 -1       812 1.90117E+01-4.41304E+00 3.76042E-02-5.35586E+00 7.55819E-14-3.51311E-13
 -1       813 2.71006E+01 6.37538E-01-4.56538E-02 3.66401E+00-2.49297E-14 2.60044E-13
 -1       814 2.01259E+01 1.92734E+00-1.10106E-04 3.23659E-03 3.94861E-14-2.42047E-13
 -1       815 2.49655E+01 5.54846E+00-8.01776E-02 1.05045E-01 6.47454E-13 4.53920E-13
 -1       816 1.32673E+01-3.97431E-01 5.74552E-02 2.42877E+00 2.50965E-13 1.97103E-13
 -1       817 2.69801E+01 1.70942E+00-8.53590E-02-9.03332E-01 6.03396E-13 2.71240E-13
 -1       818 2.02317E+01 5.72747E-01-9.67497E-05 2.57282E-01 1.33761E-13-5.79104E-14
 -1       819 2.00887E+01 2.27952E-02-8.93791E-06-1.60908E-01-1.33766E-14 3.20303E-15
 -1       820 1.07374E+01 2.86587E-02 7.08257E-02-9.36057E-01 3.08267E-13-3.03493E-13
 -1       821 2.02219E+01 1.58018E+00-5.73108E-05 5.34719E-01 1.34318E-13-1.69958E-13
 -1       822 2.01986E+01 3.71117E-01 1.21861E-04 8.39214E-02 7.06654E-14 5.10417E-15
 -1       823 2.01251E+01 1.00895E-01-8.49283E-06-1.17677E-01 5.16053E-14 7.37993E-15
 -1       824 2.01700E+01 1.77584E+00-2.73554E-04 3.81097E-01 1.00060E-13-2.07791E-13
 -1       825 2.01510E+01 1.85222E+00-5.99939E-04-5.72769E-01-1.10295E-13-2.70538E-13
 -1       826 2.00966E+01 2.02550E+00-6.31341E-04-3.83717E-01-4.12061E-14-2.99143E-13
 -1       827 2.03294E+01 4.27419E-01-4.07684E-04-4.65548E-02-2.46563E-14-1.96834E-13
 -1       828 2.03031E+01 2.27043E-01 2.11080E-05 4.80682E-02-5.50471E-14-1.60550E-13
 -1       829 2.02665E+01 9.13911E-02-8.01544E-06 1.03458E-01-9.75037E-14-7.21895E-14
 -1       830 2.02271E+01 4.63476E-03-3.35750E-06 1.30964E-01-7.62535E-14-9.60419E-14
 -1       831 2.01889E+01-4.74942E-02-2.15730E-06 1.39206E-01 1.28805E-14-1.11941E-13
 -1       832 2.01542E+01-7.54204E-02-9.54432E-07 1.35148E-01-2.78967E-14-1.35420E-13
 -1       833 2.01238E+01-8.68008E-02-8.45245E-07 1.24011E-01-7.81665E-14-1.33307E-13
 -1       834 2.00982E+01-8.71454E-02-1.36528E-06 1.09529E-01-4.19328E-14-1.48435E-13
 -1       835 2.00771E+01-8.02771E-02-1.10077E-06 9.42960E-02-3.60035E-14-5.71412E-14
 -1       836 2.00600E+01-6.87232E-02-8.22832E-07 8.01045E-02-5.42493E-14-5.37993E-15
 -1       837 2.00462E+01-5.40454E-02-8.70309E-07 6.81917E-02-1.21391E-13 3.60213E-14
 -1       838 2.00352E+01-3.70406E-02-8.41757E-07 5.94304E-02-7.00248E-14 6.97975E-14
 -1       839 2.00259E+01-1.79016E-02-7.04929E-07 5.45166E-02-8.41754E-14 9.10389E-14
 -1       840 2.00176E+01 3.63793E-03-5.72923E-07 5.40892E-02-6.11416E-14 1.77813E-13
 -1       841 2.00093E+01 2.82141E-02-5.60229E-07 5.88160E-02-1.16940E-13 1.91956E-13
 -1       842 1.99997E+01 5.67663E-02-6.39872E-07 6.94596E-02 3.32633E-14 1.56723E-13
 -1       843 1.99875E+01 9.04813E-02-7.95125E-07 8.69142E-02 7.18415E-14 2.20607E-13
 -1       844 1.99709E+01 1.30742E-01-1.02035E-06 1.12212E-01 1.58410E-13 2.93988E-14
 -1       845 1.99476E+01 1.79072E-01-1.30815E-06 1.46495E-01-3.89777E-14-5.52205E-14
 -1       846 1.99147E+01 2.37054E-01-1.63496E-06 1.90948E-01 3.58279E-14 1.59231E-13
 -1       847 1.98683E+01 3.06209E-01-1.94175E-06 2.46689E-01-3.61520E-14 8.08427E-14
 -1       848 1.98033E+01 3.87787E-01-2.10673E-06 3.14600E-01-4.31023E-14-5.03507E-14
 -1       849 1.97130E+01 4.82418E-01-1.91450E-06 3.95142E-01 2.99912E-14-4.19866E-14
 -1       850 1.95889E+01 5.89545E-01-1.04970E-06 4.88174E-01 1.98520E-13-8.90821E-14
 -1       851 1.94197E+01 7.06477E-01 7.46146E-07 5.92919E-01 5.04605E-14-1.04749E-13
 -1       852 1.91915E+01 8.26923E-01 2.80702E-06 7.08316E-01 7.14428E-14 1.21735E-13
 -1       853 1.88875E+01 9.38744E-01 4.14212E-07 8.34241E-01-1.73934E-13 1.49198E-14
 -1       854 1.84873E+01 1.02071E+00-2.27839E-05 9.74452E-01 3.26120E-14-7.65172E-14
 -1       855 1.79677E+01 1.03771E+00-4.58684E-05 1.14291E+00-1.68007E-13-8.33806E-15
 -1       856 1.73056E+01 9.32507E-01 2.72676E-04 1.37291E+00-4.25379E-14 1.45041E-13
 -1       857 1.64725E+01 6.23565E-01 5.62546E-04 1.73110E+00 1.46801E-14-4.77352E-14
 -1       858 1.55392E+01-2.33488E-01 1.87830E-02 2.53731E+00 2.05347E-13 8.04816E-14
 -1       859 2.02795E+01 1.22753E+00 5.58435E-04-4.63671E-01-1.08291E-13-2.33072E-13
 -1       860 2.00592E+01-7.55690E-02-1.50098E-06-1.04402E-01 7.95531E-15 6.33632E-14
 -1       861 2.00766E+01-8.12460E-02-3.04353E-06-1.21314E-01 3.51614E-14 1.00697E-13
 -1       862 2.00347E+01-5.23124E-02 1.19939E-06-7.47728E-02-1.85021E-14 2.93213E-14
 -1       863 2.00264E+01-3.71376E-02-1.17865E-07-6.43776E-02 6.84252E-14-1.87282E-14
 -1       864 2.00198E+01-2.01657E-02-8.38018E-08-5.79700E-02 6.47674E-14 7.40961E-14
 -1       865 2.00142E+01-1.32412E-03 4.25796E-10-5.62015E-02-4.76888E-14-3.70998E-14
 -1       866 2.00090E+01 1.97530E-02 2.56932E-07-5.97367E-02-1.28637E-13 2.28256E-14
 -1       867 2.00034E+01 4.35920E-02 6.47148E-07-6.93382E-02-6.29635E-14 1.22932E-13
 -1       868 1.99967E+01 7.07584E-02 1.18021E-06-8.59060E-02-5.63949E-14 1.18548E-13
 -1       869 1.99881E+01 1.01708E-01 1.89749E-06-1.10494E-01-4.12667E-14 1.03528E-13
 -1       870 1.99768E+01 1.36590E-01 2.85975E-06-1.44299E-01-7.24277E-14 1.51827E-13
 -1       871 1.99623E+01 1.74976E-01 4.14206E-06-1.88603E-01 1.43705E-14 2.80007E-14
 -1       872 1.99441E+01 2.15489E-01 5.83306E-06-2.44686E-01 6.24167E-15 1.60828E-13
 -1       873 1.99224E+01 2.55310E-01 8.03498E-06-3.13671E-01 4.85213E-14 2.21173E-13
 -1       874 1.98986E+01 2.89534E-01 1.08660E-05-3.96309E-01 3.57397E-14 1.77495E-13
 -1       875 1.98758E+01 3.10374E-01 1.44642E-05-4.92683E-01 1.35303E-13 9.77216E-14
 -1       876 1.98601E+01 3.06254E-01 1.89467E-05-6.01791E-01 1.94363E-13 2.25136E-13
 -1       877 1.98618E+01 2.60906E-01 2.40904E-05-7.20943E-01-1.29870E-13 2.18967E-13
 -1       878 1.98980E+01 1.52741E-01 2.80928E-05-8.44806E-01-1.05958E-13-6.30476E-15
 -1       879 1.99949E+01-4.49250E-02 2.60696E-05-9.63695E-01-8.20834E-14 1.70961E-13
 -1       880 2.01902E+01-3.61470E-01 4.09494E-05-1.06034E+00-1.26671E-13 3.30298E-13
 -1       881 2.05345E+01-8.22216E-01-2.48686E-05-1.10484E+00-1.32829E-13 4.12444E-13
 -1       882 2.10948E+01-1.43559E+00-1.53715E-05-1.04097E+00-2.40676E-13 4.26473E-13
 -1       883 2.19080E+01-2.13626E+00-3.53522E-04-7.84550E-01-3.37837E-13 4.11157E-13
 -1       884 2.30061E+01-2.84016E+00-3.53215E-03-2.25983E-01-2.03134E-13 2.84765E-13
 -1       885 2.42085E+01-3.00601E+00 9.31815E-05 7.23848E-01-1.67601E-13 4.22137E-13
 -1       886 1.36068E+01-7.63908E-01 5.31515E-02-3.56403E+00-1.44483E-13-5.04648E-13
 -1       887 2.48352E+01-4.04731E+00 1.85029E-02-3.59874E-01-2.09870E-13 4.69301E-14
 -1       888 2.47128E+01 2.31964E+00-3.27910E-02-1.26158E+00 2.45522E-13-1.25721E-13
 -1       889 2.01020E+01 2.00479E+00-1.49288E-04-1.83167E-01 6.43974E-15-2.72837E-13
 -1       890 2.02677E+01 2.29566E-01-2.54710E-05-4.56591E-02 6.15316E-14-4.87009E-14
 -1       891 2.02953E+01 8.25690E-01-3.97423E-04 3.45778E-01 1.08854E-13-1.07945E-13
 -1       892 2.00454E+01-6.54135E-02 9.48590E-07-8.84315E-02 1.12647E-14-8.43436E-15
 -1       893 1.70739E+01-2.49137E+00 2.87914E-02-4.53000E+00-2.25292E-13-5.17695E-13
 -1       894 2.01556E+01-4.00698E-02-1.23545E-06-1.52837E-01 6.14678E-14-1.15067E-13
 -1       895 2.03356E+01 7.21775E-01 4.75445E-04-1.86800E-01-8.32327E-14-2.36992E-13
 -1       896 2.12891E+01-3.91751E+00 5.19635E-03-3.44054E+00-1.38077E-13-1.38268E-13
 -1       897 2.01911E+01 1.12518E-02-8.87985E-07-1.42538E-01 2.68477E-14-1.06589E-13
 -1       898 1.27940E+01 3.92900E-01 3.42110E-02 8.06289E-01 3.47888E-13 1.82440E-13
 -1       899 2.00982E+01-7.99618E-02-2.53998E-06-1.37195E-01 3.64294E-14-5.41240E-14
 -1       900 2.02849E+01 3.90679E-01-6.84957E-05 4.43108E-02 5.24098E-14-1.14971E-13
 -1       901 2.02733E+01 1.40637E+00-4.09772E-05 6.98829E-02 8.31368E-15-2.56448E-13
 -1       902 2.01245E+01-6.79979E-02-2.08427E-06-1.49108E-01 7.19864E-14-1.04266E-13
 -1       903 2.02730E+01 1.34561E+00-1.22684E-04-3.38840E-01-8.27358E-14-2.33715E-13
 -1       904 2.02294E+01 9.62431E-02-3.24767E-05-1.10240E-01 2.80935E-14-3.67140E-14
 -1       905 2.02838E+01 1.33828E+00 6.14711E-05 1.96808E-01 5.86604E-14-1.73558E-13
 -1       906 2.42770E+01 3.44473E+00-6.39964E-02-1.07253E+00 5.17746E-13-9.93615E-14
 -1       907 2.03799E+01 3.90695E-01 2.35365E-04-8.38710E-03 4.88178E-15-9.86283E-14
 -1       908 2.03574E+01 1.96392E-01-1.86426E-05 5.10300E-02-2.79340E-14-1.01080E-13
 -1       909 2.03220E+01 6.55284E-02 5.61460E-06 8.56059E-02-5.54873E-14-7.40058E-14
 -1       910 2.02803E+01-1.75975E-02 8.16671E-07 1.01615E-01-4.15823E-14-6.33544E-14
 -1       911 2.02376E+01-6.63179E-02 2.30815E-06 1.04846E-01-5.36032E-14-1.14002E-13
 -1       912 2.01972E+01-9.08729E-02 2.97254E-06 1.00104E-01-3.11910E-14-1.19456E-13
 -1       913 2.01608E+01-9.89268E-02 5.37249E-07 9.09414E-02-1.42541E-14-4.39879E-14
 -1       914 2.01291E+01-9.59972E-02-4.01601E-07 7.98964E-02 1.77566E-14-2.78548E-15
 -1       915 2.01023E+01-8.58137E-02 5.41667E-07 6.87687E-02 2.39971E-14-2.17566E-14
 -1       916 2.00798E+01-7.08237E-02 7.27263E-07 5.88366E-02-5.32855E-15 1.04564E-13
 -1       917 2.00609E+01-5.25122E-02-5.45941E-09 5.09595E-02-8.44450E-14 1.88591E-13
 -1       918 2.00447E+01-3.14695E-02-1.06522E-07 4.57787E-02-7.87337E-14 1.33734E-13
 -1       919 2.00300E+01-7.70576E-03-5.70681E-07 4.38486E-02-4.36643E-14 1.84612E-13
 -1       920 2.00156E+01 1.92481E-02-1.44046E-06 4.56768E-02-7.41227E-14 1.53676E-13
 -1       921 2.00000E+01 5.02472E-02-2.68506E-06 5.17912E-02 9.54806E-16 2.37244E-13
 -1       922 1.99812E+01 8.64418E-02-4.33681E-06 6.27715E-02 8.34784E-14 3.22374E-13
 -1       923 1.99571E+01 1.29197E-01-6.48190E-06 7.92429E-02-1.19650E-14 1.53522E-13
 -1       924 1.99252E+01 1.80010E-01-9.23828E-06 1.01836E-01-1.18734E-14 1.02812E-13
 -1       925 1.98820E+01 2.40407E-01-1.27415E-05 1.31106E-01 2.58593E-14 5.89526E-14
 -1       926 1.98234E+01 3.11802E-01-1.71397E-05 1.67397E-01 2.33125E-14-1.14955E-13
 -1       927 1.97443E+01 3.95290E-01-2.25981E-05 2.10659E-01-1.27343E-13 6.34894E-15
 -1       928 1.96379E+01 4.91350E-01-2.93264E-05 2.60203E-01-6.70172E-14-5.03146E-14
 -1       929 1.94958E+01 5.99412E-01-3.76363E-05 3.14443E-01 1.00494E-13 2.38503E-14
 -1       930 1.93074E+01 7.17229E-01-4.79958E-05 3.70689E-01 1.79246E-13 3.30238E-14
 -1       931 1.90590E+01 8.40034E-01-6.09877E-05 4.25155E-01 5.13376E-14-5.49975E-14
 -1       932 1.87325E+01 9.59405E-01-7.75837E-05 4.73483E-01-2.33022E-14 3.74489E-14
 -1       933 1.83044E+01 1.06187E+00-1.00669E-04 5.12222E-01-1.27546E-13 1.35160E-13
 -1       934 1.77410E+01 1.12758E+00-1.36347E-04 5.41869E-01-6.55825E-14 5.18339E-14
 -1       935 1.69914E+01 1.12974E+00 3.03606E-04 5.75184E-01-5.92764E-14 2.02919E-13
 -1       936 1.59775E+01 1.02893E+00 5.64563E-04 6.37141E-01-5.63731E-14 2.38750E-13
 -1       937 1.46847E+01 6.39408E-01 8.00129E-03 1.19979E+00 2.21169E-13 2.51499E-13
 -1       938 2.00279E+01-1.22932E-02 1.70329E-06-4.87887E-02-7.35499E-15 9.44105E-14
 -1       939 2.01165E+01-9.22116E-02 3.35823E-07-9.35012E-02 2.49412E-14-1.40325E-13
 -1       940 2.00404E+01-3.38704E-02 1.64321E-06-5.19795E-02 7.57091E-15-6.57264E-15
 -1       941 2.00547E+01-5.31585E-02 2.44125E-06-5.87601E-02 7.89392E-14-6.48772E-14
 -1       942 2.00160E+01 1.18702E-02 7.50285E-07-4.97614E-02-4.02183E-14 1.89177E-14
 -1       943 2.00036E+01 3.91565E-02-2.00207E-07-5.55527E-02-1.08913E-13-1.37140E-13
 -1       944 1.99893E+01 7.02474E-02-1.16302E-06-6.69260E-02-1.43849E-13-1.31110E-13
 -1       945 1.99718E+01 1.05819E-01-2.15635E-06-8.48036E-02-1.53229E-13-2.76481E-14
 -1       946 1.99496E+01 1.46348E-01-3.19173E-06-1.10297E-01-1.02787E-13-5.36496E-14
 -1       947 1.99211E+01 1.91864E-01-4.27268E-06-1.44718E-01-5.58729E-14 6.99774E-14
 -1       948 1.98850E+01 2.41603E-01-5.38897E-06-1.89588E-01 8.06632E-15 8.70732E-14
 -1       949 1.98403E+01 2.93551E-01-6.50971E-06-2.46617E-01-3.34898E-14 8.67754E-14
 -1       950 1.97867E+01 3.43848E-01-7.56947E-06-3.17700E-01 1.55893E-13 3.02185E-14
 -1       951 1.97253E+01 3.86025E-01-8.43782E-06-4.04880E-01 1.71968E-14 2.93293E-14
 -1       952 1.96594E+01 4.10089E-01-8.89618E-06-5.10325E-01 6.59987E-14 2.28568E-15
 -1       953 1.95962E+01 4.01481E-01-8.87997E-06-6.36249E-01-4.07392E-14 1.50626E-13
 -1       954 1.95484E+01 3.40000E-01-1.00179E-05-7.84709E-01 7.00677E-15 2.26653E-13
 -1       955 1.95373E+01 1.98895E-01-2.14341E-05-9.57012E-01-1.38216E-13 2.20933E-13
 -1       956 1.95964E+01-5.55998E-02-6.56857E-05-1.15208E+00-2.08572E-13 1.82287E-13
 -1       957 1.97779E+01-4.62784E-01 7.15606E-05-1.36125E+00-1.27058E-13 2.76410E-13
 -1       958 2.01499E+01-1.05563E+00 1.47866E-04-1.56157E+00-2.31233E-13 3.35856E-13
 -1       959 2.08446E+01-1.88715E+00-8.24922E-03-1.68886E+00-1.71172E-13 1.83318E-13
 -1       960 2.19796E+01-2.86623E+00 1.22249E-02-1.63945E+00-1.39943E-13-3.79709E-15
 -1       961 2.02722E+01 1.40963E+00-1.56853E-04-6.71281E-02 2.70574E-14-2.26121E-13
 -1       962 1.34252E+01 4.33653E-01 2.69407E-02-1.43023E+00 9.34669E-14-4.94561E-14
 -1       963 1.90662E+01-2.19625E+00 8.42846E-03-3.30830E+00-1.09191E-13-2.12857E-13
 -1       964 2.02741E+01 1.38398E+00 2.46948E-04-2.09617E-01-2.53850E-14-2.33011E-13
 -1       965 2.03040E+01 1.19874E+00 8.22245E-05 3.05644E-01 1.00089E-13-1.74872E-13
 -1       966 2.03596E+01 8.34472E-01 2.75086E-04-1.58840E-01-4.56137E-14-1.52036E-13
 -1       967 2.02949E+01 5.76270E-01-5.27081E-04 1.70701E-01 6.68648E-14-1.15846E-13
 -1       968 1.64812E+01-9.69776E-01 1.15210E-02-3.24878E+00-1.20151E-13-5.12099E-13
 -1       969 2.00715E+01-6.98867E-02 8.22629E-06-6.84496E-02 2.69414E-14-5.03406E-14
 -1       970 2.00919E+01-8.34522E-02 8.09097E-06-8.04299E-02 4.20654E-14-8.97354E-14
 -1       971 2.01457E+01-9.38108E-02-2.94118E-06-1.06268E-01-1.78188E-14-2.23203E-13
 -1       972 2.03659E+01 9.99365E-01-1.11854E-04-4.61288E-05 1.25583E-14-2.73483E-13
 -1       973 1.55422E+01 2.52148E-01 3.24413E-03-2.00351E+00 1.85227E-13-1.73445E-13
 -1       974 2.03547E+01 4.11132E-01-1.35966E-04 2.47893E-02-8.32310E-15-1.69406E-13
 -1       975 2.02583E+01-8.24705E-03 1.39851E-05-1.16296E-01 8.01551E-14-2.32363E-13
 -1       976 2.02176E+01-5.83168E-02 9.44434E-06-1.21349E-01 4.63344E-14-1.82024E-13
 -1       977 2.03313E+01 2.11734E-01 5.02017E-05-5.23247E-02 1.76927E-14-1.39213E-13
 -1       978 2.03669E+01 9.71297E-01 2.90488E-04 7.88178E-02 6.05704E-14-1.73979E-13
 -1       979 2.04110E+01 3.29113E-01 4.72242E-05 9.74091E-03-1.71436E-14-1.44833E-13
 -1       980 2.03882E+01 1.49066E-01-4.93049E-05 4.16465E-02-5.31204E-14-1.63448E-13
 -1       981 2.03505E+01 3.06479E-02-2.04271E-05 5.90703E-02-6.94673E-14-1.41592E-13
 -1       982 2.03058E+01-4.29264E-02-1.58350E-05 6.59281E-02-2.51625E-14-1.12854E-13
 -1       983 2.02598E+01-8.41680E-02 9.56591E-06 6.59254E-02-2.08172E-14-1.14541E-13
 -1       984 2.02162E+01-1.02988E-01-3.06839E-08 6.18102E-02 3.67890E-14-7.65536E-14
 -1       985 2.01766E+01-1.06374E-01-3.70978E-06 5.55519E-02 9.30372E-14 4.08268E-14
 -1       986 2.01419E+01-9.95491E-02 1.66057E-06 4.84838E-02-3.47577E-14 2.40691E-14
 -1       987 2.01121E+01-8.58975E-02 5.98000E-08 4.17696E-02 3.20975E-14-3.40336E-14
 -1       988 2.00867E+01-6.76450E-02 7.11277E-07 3.61402E-02-2.16671E-14-1.10512E-13
 -1       989 2.00647E+01-4.60247E-02 3.01027E-06 3.19405E-02-8.28578E-14-2.06214E-14
 -1       990 2.00450E+01-2.13080E-02-7.53373E-07 2.97017E-02-4.24227E-14 4.59667E-14
 -1       991 2.00262E+01 6.65441E-03-4.08022E-06 2.97223E-02-7.08602E-14 8.22819E-14
 -1       992 2.00066E+01 3.85525E-02-8.38813E-06 3.22979E-02-6.59147E-14 8.94439E-14
 -1       993 1.99841E+01 7.54189E-02-1.36684E-05 3.77262E-02 1.03847E-13-7.43763E-15
 -1       994 1.99566E+01 1.18525E-01-2.00477E-05 4.62819E-02 5.66530E-15 8.27049E-15
 -1       995 1.99212E+01 1.69271E-01-2.76985E-05 5.81718E-02-5.43330E-14 4.08803E-14
 -1       996 1.98746E+01 2.29061E-01-3.68045E-05 7.34510E-02-6.27593E-14-4.64004E-14
 -1       997 1.98128E+01 2.99134E-01-4.75444E-05 9.18872E-02-1.59056E-14-6.35751E-14
 -1       998 1.97310E+01 3.80342E-01-6.00940E-05 1.12765E-01-3.34984E-15-1.90745E-13
 -1       999 1.96233E+01 4.72852E-01-7.46703E-05 1.34625E-01-7.34276E-14-1.41200E-13
 -1      1000 1.94824E+01 5.75750E-01-9.16315E-05 1.54929E-01 2.85427E-14-8.46009E-14
 -1      1001 1.92994E+01 6.86539E-01-1.11537E-04 1.69700E-01 1.07866E-13-1.78128E-13
 -1      1002 1.90632E+01 8.00530E-01-1.34545E-04 1.73164E-01 3.32515E-14-1.18976E-13
 -1      1003 1.87595E+01 9.10176E-01-1.57223E-04 1.57524E-01 1.77387E-13 1.34056E-15
 -1      1004 1.83687E+01 1.00444E+00-1.65322E-04 1.13055E-01-1.02687E-13 2.98613E-14
 -1      1005 1.78628E+01 1.06806E+00-1.62634E-04 2.88097E-02-1.48491E-13-1.53527E-14
 -1      1006 1.72033E+01 1.08024E+00 3.18556E-04-1.10226E-01 1.28009E-13-2.89503E-14
 -1      1007 1.63076E+01 1.03368E+00 3.85365E-04-2.97382E-01-2.75995E-14-5.63326E-14
 -1      1008 1.46849E+01 8.40044E-01 6.14861E-03-4.48745E-01 5.55242E-14 1.54198E-13
 -1      1009 2.00276E+01 2.25525E-04 6.94019E-07-3.60765E-02-1.11449E-14 1.01424E-13
 -1      1010 2.00632E+01-4.88053E-02 7.36274E-06-4.03247E-02-9.10529E-15 1.95227E-14
 -1      1011 1.99908E+01 6.28944E-02-7.04881E-06-4.51507E-02-1.02775E-13 6.68961E-14
 -1      1012 1.99677E+01 1.01163E-01-1.14627E-05-5.62032E-02-1.21692E-13 1.10023E-14
 -1      1013 1.99389E+01 1.45119E-01-1.61584E-05-7.27342E-02-7.54562E-14-1.41435E-13
 -1      1014 1.99023E+01 1.95261E-01-2.10312E-05-9.58881E-02-2.22571E-13-1.54612E-13
 -1      1015 1.98555E+01 2.51513E-01-2.58714E-05-1.27119E-01-1.47410E-13 1.55976E-14
 -1      1016 1.97964E+01 3.12838E-01-3.03149E-05-1.68273E-01 6.42771E-14 7.63316E-14
 -1      1017 1.97230E+01 3.76718E-01-3.37866E-05-2.21703E-01 4.84495E-14-6.71055E-14
 -1      1018 1.96342E+01 4.38505E-01-3.54328E-05-2.90431E-01-5.56523E-15 1.42889E-13
 -1      1019 1.95302E+01 4.90609E-01-3.40678E-05-3.78364E-01 8.93822E-14 1.79292E-13
 -1      1020 1.94134E+01 5.21531E-01-2.84222E-05-4.90606E-01-6.57002E-14 1.98733E-13
 -1      1021 1.92901E+01 5.14757E-01-1.92853E-05-6.33829E-01-9.40913E-14 2.19597E-13
 -1      1022 1.91719E+01 4.47531E-01-1.98345E-05-8.16661E-01-4.03029E-14 2.79769E-13
 -1      1023 1.90795E+01 2.89551E-01-8.53848E-05-1.04984E+00-1.13227E-13 1.73143E-13
 -1      1024 1.90467E+01 1.22228E-03-4.75650E-04-1.34601E+00-1.75948E-13-4.92991E-14
 -1      1025 1.91383E+01-4.75356E-01-1.09036E-03-1.71410E+00-1.61175E-13 8.78941E-14
 -1      1026 1.94734E+01-1.17849E+00 4.56410E-03-2.15821E+00-1.75134E-13-3.62080E-14
 -1      1027 2.03580E+01 1.00700E+00-4.13960E-04-8.31648E-02 2.69102E-14-1.79279E-13
 -1      1028 2.02989E+01 7.62576E-02 2.61485E-05-9.59194E-02 6.47103E-14-1.84313E-13
 -1      1029 2.01796E+01-8.43321E-02 7.28781E-07-1.16593E-01-4.30247E-15-1.39842E-13
 -1      1030 2.00101E+01 2.95295E-02-2.97170E-06-3.86778E-02-3.78802E-14 8.38287E-14
 -1      1031 2.03593E+01 8.86679E-01-4.73255E-04 1.42869E-01 7.40026E-14-1.35481E-13
 -1      1032 2.03521E+01 6.20088E-01 8.77368E-04 1.21427E-01 5.46073E-14-1.73435E-13
 -1      1033 2.00448E+01-2.57444E-02 3.76020E-06-3.67820E-02-1.82351E-14 4.66191E-14
 -1      1034 2.04119E+01 6.08908E-01 3.02303E-05-3.55782E-02 1.44115E-14-1.44294E-13
 -1      1035 1.79991E+01-8.82220E-01 6.21814E-03-2.63821E+00-1.29491E-13-2.56786E-13
 -1      1036 2.00842E+01-6.92706E-02-3.49526E-05-4.64160E-02-3.22327E-14-3.98374E-14
 -1      1037 2.01708E+01-1.03478E-01-4.25225E-06-7.14986E-02 2.14796E-15-1.28966E-13
 -1      1038 2.04173E+01 6.65616E-01 1.10187E-04 2.03539E-02 5.65810E-14-1.89100E-13
 -1      1039 2.04188E+01 6.53121E-01 2.49184E-04-1.06395E-02 4.62576E-14-2.05532E-13
 -1      1040 2.03394E+01 4.49211E-02-8.19179E-06-7.27243E-02 6.00899E-14-1.71978E-13
 -1      1041 2.03929E+01 6.15182E-01-5.39533E-05 6.21853E-02 4.75644E-14-1.40568E-13
 -1      1042 2.01373E+01-9.81108E-02 2.97507E-05-6.25500E-02-5.57045E-14-8.43925E-14
 -1      1043 2.02961E+01-3.26126E-02 6.37725E-06-8.31904E-02 3.29229E-14-1.41189E-13
 -1      1044 2.04002E+01 3.47193E-01 4.31041E-05-5.24122E-03 3.64474E-14-1.82929E-13
 -1      1045 2.01087E+01-8.61280E-02-3.42599E-05-5.40669E-02 3.82206E-15-4.77756E-14
 -1      1046 2.03983E+01 9.36200E-02 6.86134E-05 1.87509E-02-2.19970E-14-9.26196E-14
 -1      1047 2.03550E+01-5.97277E-03 6.27856E-05 2.45679E-02-2.13620E-14-6.77784E-14
 -1      1048 2.03066E+01-6.60126E-02-2.39115E-05 2.59870E-02-1.50071E-15-3.39552E-14
 -1      1049 2.02591E+01-9.81841E-02 2.36161E-05 2.51688E-02 3.73910E-14 5.39058E-14
 -1      1050 2.02151E+01-1.10354E-01-3.46826E-05 2.28261E-02 4.02348E-14-4.25791E-14
 -1      1051 2.01751E+01-1.08242E-01-1.68336E-05 2.04070E-02-1.34207E-14-2.08743E-13
 -1      1052 2.01396E+01-9.72769E-02 8.58002E-06 1.79876E-02-6.68303E-14-1.23974E-13
 -1      1053 2.01096E+01-8.08529E-02 1.02940E-05 1.52967E-02-1.16157E-14-1.40459E-13
 -1      1054 2.00835E+01-5.98822E-02-6.36375E-06 1.33671E-02-9.33211E-15-1.24675E-13
 -1      1055 2.00603E+01-3.53781E-02 1.22035E-05 1.23494E-02-2.46647E-14-5.68980E-14
 -1      1056 2.00386E+01-7.67466E-03 1.04535E-05 1.20222E-02-2.80620E-14-3.50313E-14
 -1      1057 2.00169E+01 2.37667E-02 1.03905E-05 1.25741E-02-1.25084E-13-4.12988E-14
 -1      1058 1.99931E+01 5.97897E-02 1.16036E-05 1.40663E-02-1.16984E-13-7.28045E-14
 -1      1059 1.99650E+01 1.01515E-01 1.39313E-05 1.64876E-02 2.10726E-14-2.26388E-13
 -1      1060 1.99300E+01 1.50205E-01 1.71964E-05 1.97148E-02 8.00725E-15-2.63548E-13
 -1      1061 1.98848E+01 2.07114E-01 2.10918E-05 2.34347E-02-1.37051E-13-2.33063E-13
 -1      1062 1.98260E+01 2.73297E-01 2.50599E-05 2.70228E-02-4.68396E-14-2.10678E-13
 -1      1063 1.97492E+01 3.49367E-01 2.81161E-05 2.93636E-02-5.97300E-15-2.59778E-13
 -1      1064 1.96495E+01 4.35167E-01 2.85832E-05 2.86017E-02-1.11107E-13-2.89515E-13
 -1      1065 1.95213E+01 5.29363E-01 2.37108E-05 2.18072E-02-3.91511E-14-3.21542E-13
 -1      1066 1.93579E+01 6.28935E-01 9.22762E-06 4.54615E-03 2.64731E-15-2.25250E-13
 -1      1067 1.91517E+01 7.28574E-01-2.07135E-05-2.96549E-02 8.24948E-14-1.50755E-13
 -1      1068 1.88935E+01 8.20042E-01-7.12208E-05-8.99698E-02 1.08097E-13-1.35401E-13
 -1      1069 1.85717E+01 8.91529E-01-1.35892E-04-1.89136E-01-1.72297E-14-2.62609E-13
 -1      1070 1.81706E+01 9.27154E-01-1.71840E-04-3.44766E-01-9.83962E-14-2.54592E-13
 -1      1071 1.76656E+01 9.07414E-01-7.82559E-05-5.82090E-01-9.67101E-14-9.34834E-14
 -1      1072 1.70712E+01 7.90244E-01-7.12938E-04-9.12142E-01-7.26893E-15-1.59982E-13
 -1      1073 2.00207E+01 1.63074E-02-2.44052E-06-2.02644E-02-5.34514E-14 1.12529E-13
 -1      1074 1.99729E+01 8.93552E-02-2.57636E-06-2.78318E-02-9.68698E-14 9.49265E-14
 -1      1075 1.98506E+01 2.45895E-01-1.35690E-05-6.49559E-02-2.07373E-13-1.51938E-13
 -1      1076 1.97852E+01 3.12757E-01-2.12054E-05-8.86458E-02-7.25607E-14-3.17515E-13
 -1      1077 1.97022E+01 3.85840E-01-3.08772E-05-1.21217E-01 4.45372E-14-7.15641E-14
 -1      1078 1.95984E+01 4.62397E-01-4.19702E-05-1.65788E-01-3.17498E-15-4.53439E-14
 -1      1079 1.94711E+01 5.37437E-01-5.29306E-05-2.26710E-01 4.88609E-14-4.99421E-14
 -1      1080 1.93182E+01 6.02939E-01-6.07576E-05-3.10046E-01 5.29469E-14-3.18269E-14
 -1      1081 1.91392E+01 6.46936E-01-6.10958E-05-4.24221E-01-6.25490E-14-1.15091E-13
 -1      1082 1.89361E+01 6.52451E-01-5.25113E-05-5.80880E-01-9.08221E-14-1.30656E-13
 -1      1083 1.87142E+01 5.96218E-01-5.84571E-05-7.95991E-01 2.50601E-14 9.77336E-15
 -1      1084 1.84852E+01 4.46754E-01-2.73635E-04-1.09122E+00 6.77237E-14 8.15118E-14
 -1      1085 1.82805E+01 1.64434E-01-1.11754E-03-1.49412E+00-1.57852E-13-6.18743E-14
 -1      1086 1.81167E+01-2.65696E-01-6.62864E-04-1.98532E+00-6.74712E-14-2.59356E-13
 -1      1087 2.02091E+01-9.81038E-02-6.92481E-06-7.94552E-02 7.89686E-15-7.14899E-14
 -1      1088 2.00626E+01-4.00911E-02 3.95450E-07-2.08710E-02-6.57142E-14 7.35072E-14
 -1      1089 2.03752E+01 1.66917E-01-4.75433E-05-4.93517E-02 5.78029E-14-2.25798E-13
 -1      1090 1.99017E+01 1.86417E-01-8.05470E-06-4.79151E-02-1.10584E-13-1.43116E-14
 -1      1091 2.00415E+01-1.36006E-02-3.35729E-06-1.97373E-02-9.15207E-14 4.06495E-14
 -1      1092 1.99415E+01 1.34422E-01-4.48601E-06-3.59234E-02 4.07237E-16-6.65839E-15
 -1      1093 2.04237E+01 2.50600E-01-8.09039E-05 8.44334E-03-3.21434E-14-1.68137E-13
 -1      1094 1.99986E+01 5.03181E-02-2.00691E-06-2.28127E-02-7.90159E-14 1.37154E-13
 -1      1095 2.03558E+01 8.89020E-03 4.31036E-05-4.12143E-02 1.32398E-14-1.26608E-13
 -1      1096 2.04299E+01 4.26577E-01 9.45465E-05-1.57665E-03 2.28074E-14-1.64912E-13
 -1      1097 2.02156E+01-1.07239E-01-7.84101E-05-4.10299E-02 1.24538E-14-1.42794E-13
 -1      1098 2.03921E+01 1.16444E-01-2.16266E-04-3.13056E-02 3.16161E-14-1.64547E-13
 -1      1099 2.04315E+01 4.36699E-01-2.72598E-04 1.85995E-03 4.95397E-14-2.23686E-13
 -1      1100 2.00856E+01-6.34030E-02 2.69785E-05-2.33718E-02-5.35974E-14-1.14509E-14
 -1      1101 1.70818E+01 2.02779E-01-1.82651E-03-1.76131E+00 8.49390E-14 1.17404E-14
 -1      1102 2.02515E+01-7.69343E-02 1.69277E-05-8.42419E-02 5.86420E-15-1.09144E-13
 -1      1103 2.01777E+01-1.08777E-01-1.45834E-05-3.64699E-02-2.01158E-14-3.20504E-14
 -1      1104 2.03094E+01-5.77814E-02-8.40577E-05-4.46620E-02-1.51478E-14-1.17858E-13
 -1      1105 2.02387E+01-1.06764E-01 1.17489E-04-1.43243E-02 8.75592E-15-1.31056E-13
 -1      1106 2.01259E+01-9.03240E-02 4.37073E-05-1.02699E-02-3.57325E-14 2.35160E-15
 -1      1107 2.04245E+01 2.51042E-01 1.77608E-04-1.26869E-02 5.13443E-14-1.27001E-13
 -1      1108 2.02857E+01-8.56249E-02 7.20590E-05-1.60170E-02-7.44275E-15-8.15950E-14
 -1      1109 2.01514E+01-1.02113E-01-3.63112E-05-2.21166E-02 2.42301E-14-1.14821E-14
 -1      1110 2.02603E+01-9.28161E-02-8.00775E-07-4.37407E-02-3.11063E-14-9.85016E-14
 -1      1111 2.79641E+01 9.08689E+00 2.32532E+00-6.69802E+00-3.53051E-14 1.05388E-12
 -1      1112 2.05488E+01 6.22759E+00 2.09813E-01-3.90348E+00-1.75415E-14 1.12826E-13
 -1      1113 1.94356E+01 5.85332E+00 7.54193E-02-2.88731E+00-1.29896E-14-2.86620E-13
 -1      1114 1.90264E+01 5.72601E+00 6.03243E-02-2.23426E+00-8.29545E-15-4.73355E-13
 -1      1115 1.88394E+01 5.66908E+00 5.75121E-02-1.70086E+00-5.92061E-15-5.63220E-13
 -1      1116 1.87455E+01 5.64032E+00 5.55523E-02-1.23365E+00-2.99066E-15-5.93926E-13
 -1      1117 1.86962E+01 5.62501E+00 5.37693E-02-8.03943E-01-1.10849E-15-5.92386E-13
 -1      1118 1.86720E+01 5.61734E+00 5.24921E-02-3.92626E-01-3.05094E-16-5.77487E-13
 -1      1119 1.86650E+01 5.61514E+00 5.20877E-02 8.48404E-03 1.19728E-15-5.67557E-13
 -1      1120 1.86730E+01 5.61768E+00 5.26017E-02 4.10005E-01 2.70378E-15-5.53508E-13
 -1      1121 1.86983E+01 5.62571E+00 5.39967E-02 8.22653E-01 4.10869E-15-5.26435E-13
 -1      1122 1.87494E+01 5.64168E+00 5.62159E-02 1.25492E+00 6.69690E-15-4.82283E-13
 -1      1123 1.88450E+01 5.67105E+00 5.84421E-02 1.72662E+00 8.26422E-15-4.09336E-13
 -1      1124 1.90320E+01 5.72772E+00 6.04140E-02 2.26766E+00 1.03216E-14-2.87618E-13
 -1      1125 1.94321E+01 5.85040E+00 6.92580E-02 2.92787E+00 1.50158E-14-4.89591E-14
 -1      1126 2.04549E+01 6.18248E+00 1.53359E-01 3.87808E+00 1.58207E-14 4.05755E-13
 -1      1127 2.52186E+01 7.99474E+00 1.43045E+00 5.84619E+00 3.25295E-14 1.32941E-12
 -1      1128 2.88138E+01 3.61625E+00 1.27112E+00-4.21693E+00-1.43219E-13 1.64824E-12
 -1      1129 2.02297E+01-1.77743E-01-6.16325E-01-1.09838E-01-5.23956E-14 1.32544E-12
 -1      1130 1.88362E+01-9.63643E-02-2.36352E-01 6.25307E-02-1.34563E-14 8.84201E-13
 -1      1131 1.85029E+01-4.80976E-02-5.96335E-02 4.05265E-02-4.28694E-15 5.81896E-13
 -1      1132 1.84486E+01-2.46151E-02-1.52116E-02 2.68247E-02-1.67201E-14 3.19120E-13
 -1      1133 1.85312E+01-1.30582E-02-4.97880E-03 1.90945E-02 1.09201E-15 2.13687E-13
 -1      1134 1.86789E+01-6.61398E-03-1.48226E-03 1.41527E-02-3.96579E-15 1.45023E-13
 -1      1135 1.88524E+01-2.83958E-03 5.57493E-04 1.07325E-02-2.16504E-15 1.58328E-14
 -1      1136 1.90289E+01-5.97278E-04 1.88515E-03 8.20508E-03-2.73258E-15-1.16041E-13
 -1      1137 1.91958E+01 7.08728E-04 2.64363E-03 6.26040E-03-2.37212E-14-2.72607E-13
 -1      1138 1.93460E+01 1.42052E-03 2.96772E-03 4.73421E-03-4.76420E-15-3.44819E-13
 -1      1139 1.94766E+01 1.74880E-03 2.99243E-03 3.52819E-03 1.25214E-14-2.67590E-13
 -1      1140 1.95868E+01 1.83030E-03 2.82681E-03 2.57539E-03-1.06653E-14-1.91205E-13
 -1      1141 1.96775E+01 1.75609E-03 2.54968E-03 1.82554E-03-3.43229E-15-2.67901E-13
 -1      1142 1.97504E+01 1.58686E-03 2.21429E-03 1.23854E-03 5.60515E-15-3.12732E-13
 -1      1143 1.98079E+01 1.36183E-03 1.85410E-03 7.81384E-04-2.72815E-14-2.86995E-13
 -1      1144 1.98524E+01 1.10442E-03 1.48731E-03 4.26893E-04 1.70775E-15-3.37002E-13
 -1      1145 1.98864E+01 8.26142E-04 1.12027E-03 1.53025E-04-1.55602E-14-3.61520E-13
 -1      1146 1.99125E+01 5.29197E-04 7.49889E-04-5.73605E-05 2.06339E-14-5.50664E-13
 -1      1147 1.99334E+01 2.08370E-04 3.65339E-04-2.16549E-04-1.31093E-14-5.87670E-13
 -1      1148 1.99518E+01-1.47803E-04-5.10110E-05-3.31810E-04 4.59042E-15-5.77533E-13
 -1      1149 1.99707E+01-5.56355E-04-5.23225E-04-4.05004E-04-3.27764E-14-4.14118E-13
 -1      1150 1.99936E+01-1.03966E-03-1.08207E-03-4.31831E-04 1.69417E-15-3.25670E-13
 -1      1151 2.00245E+01-1.62555E-03-1.76593E-03-4.00565E-04-1.28628E-14-4.79988E-13
 -1      1152 2.00682E+01-2.34770E-03-2.62227E-03-2.89991E-04 2.01668E-14-5.41747E-13
 -1      1153 2.01310E+01-3.24598E-03-3.70979E-03-6.61519E-05 2.81212E-14-3.39791E-13
 -1      1154 2.02207E+01-4.36631E-03-5.10076E-03 3.22712E-04-9.64804E-15-3.00319E-13
 -1      1155 2.03472E+01-5.75895E-03-6.88276E-03 9.53910E-04 7.37491E-15-4.28477E-13
 -1      1156 2.05231E+01-7.47279E-03-9.15719E-03 1.94183E-03 5.54298E-15-3.94507E-13
 -1      1157 2.07645E+01-9.54106E-03-1.20287E-02 3.45425E-03 3.86005E-14-2.75511E-13
 -1      1158 2.10914E+01-1.19496E-02-1.55716E-02 5.73319E-03-2.97123E-14-3.83086E-13
 -1      1159 2.15282E+01-1.45718E-02-1.97447E-02 9.11538E-03-1.14294E-14-8.19525E-13
 -1      1160 2.21032E+01-1.70434E-02-2.41979E-02 1.40348E-02 9.83805E-15-5.78518E-13
 -1      1161 2.28457E+01-1.85408E-02-2.78706E-02 2.09589E-02-9.47593E-15-6.31824E-13
 -1      1162 2.37787E+01-1.74303E-02-2.82547E-02 3.01425E-02-9.39830E-15-5.96530E-13
 -1      1163 2.49018E+01-1.08188E-02-2.02849E-02 4.09704E-02 2.82132E-14-4.68445E-13
 -1      1164 2.61581E+01 5.72208E-03 4.62732E-03 5.05289E-02 6.85614E-14-4.63567E-13
 -1      1165 2.73783E+01 3.73699E-02 5.73479E-02 5.12118E-02-2.42458E-14-1.54723E-13
 -1      1166 2.82082E+01 8.61563E-02 1.43081E-01 2.84784E-02-6.82614E-16-1.92945E-13
 -1      1167 2.80689E+01 1.42408E-01 2.41873E-01-3.65541E-02 2.76480E-14-1.42934E-13
 -1      1168 2.62758E+01 1.71605E-01 2.86461E-01-1.50666E-01-3.65281E-14-9.90874E-15
 -1      1169 2.24852E+01 1.19084E-01 1.79101E-01-2.75433E-01-1.57461E-14 2.47941E-13
 -1      1170 1.73840E+01-4.01534E-02-1.05054E-01-3.15624E-01 3.01616E-14 3.68344E-13
 -1      1171 1.28947E+01-2.16089E-01-4.00237E-01-1.92343E-01 3.06352E-14 6.26887E-13
 -1      1172 1.10515E+01-2.52975E-01-4.57709E-01 3.74405E-02-4.53110E-15 6.16084E-13
 -1      1173 1.22495E+01-1.23478E-01-2.40723E-01 2.06153E-01 1.38552E-14 4.81837E-13
 -1      1174 1.49855E+01 2.45814E-02 2.22049E-02 2.21391E-01-6.75989E-15-1.41720E-13
 -1      1175 1.74724E+01 7.63647E-02 1.36606E-01 1.47752E-01 3.89376E-14-8.48210E-14
 -1      1176 1.90934E+01 5.56662E-02 1.56544E-01 1.01233E-01 2.37709E-14 1.54779E-13
 -1      1177 1.98793E+01 6.28320E-02 1.67843E-01 3.65688E-02-6.19487E-14-1.19432E-13
 -1      1178 2.77934E+01 5.25742E-01 3.76890E-01 1.96663E+00-2.13995E-14 2.08150E-12
 -1      1179 2.00873E+01-6.62542E-02-5.73638E-01 1.29444E-01 1.62335E-14 1.66514E-12
 -1      1180 1.89109E+01-4.06209E-02-1.93236E-01 1.94039E-02 1.10441E-14 1.25760E-12
 -1      1181 1.85319E+01-2.14378E-02-5.05795E-02 1.45254E-03 7.75898E-15 1.02104E-12
 -1      1182 1.84613E+01-1.24299E-02-1.34409E-02-4.08493E-03 1.08236E-14 8.50885E-13
 -1      1183 1.85375E+01-7.42598E-03-4.70222E-03-5.54556E-03 6.90149E-15 6.11983E-13
 -1      1184 1.86821E+01-4.34555E-03-1.97160E-03-5.74242E-03 3.45714E-15 5.05788E-13
 -1      1185 1.88539E+01-2.36932E-03-3.79753E-04-5.47229E-03 2.17523E-15 4.86687E-13
 -1      1186 1.90296E+01-1.08914E-03 7.46509E-04-4.98716E-03-4.43412E-16 3.46974E-13
 -1      1187 1.91959E+01-2.72190E-04 1.46902E-03-4.40216E-03 1.79917E-14 2.92455E-13
 -1      1188 1.93458E+01 2.29297E-04 1.85346E-03-3.78498E-03 1.12620E-14 2.09627E-13
 -1      1189 1.94762E+01 5.14464E-04 1.98867E-03-3.17838E-03 9.60088E-15 1.15471E-13
 -1      1190 1.95864E+01 6.51735E-04 1.95555E-03-2.60824E-03 2.35302E-14 3.52283E-14
 -1      1191 1.96772E+01 6.88595E-04 1.81596E-03-2.08839E-03-5.50844E-15-5.74167E-14
 -1      1192 1.97503E+01 6.57490E-04 1.61312E-03-1.62391E-03 1.55812E-14-1.31220E-13
 -1      1193 1.98079E+01 5.79584E-04 1.37485E-03-1.21363E-03-5.41570E-15-2.12108E-13
 -1      1194 1.98526E+01 4.67314E-04 1.11660E-03-8.52084E-04-9.06712E-15-1.51976E-13
 -1      1195 1.98870E+01 3.26213E-04 8.43879E-04-5.31177E-04 1.97164E-14-1.82588E-13
 -1      1196 1.99137E+01 1.56299E-04 5.54146E-04-2.41500E-04-4.92394E-16-4.32764E-13
 -1      1197 1.99353E+01-4.67901E-05 2.38323E-04 2.64404E-05-3.93524E-15-2.63182E-13
 -1      1198 1.99546E+01-2.90778E-04-1.17922E-04 2.81074E-04 1.86166E-14-3.29358E-13
 -1      1199 1.99748E+01-5.85624E-04-5.32919E-04 5.28509E-04-1.67485E-15-2.65630E-13
 -1      1200 1.99991E+01-9.42014E-04-1.02743E-03 7.70978E-04 9.20540E-15-4.08922E-13
 -1      1201 2.00313E+01-1.36915E-03-1.62226E-03 1.00478E-03-2.16294E-14-5.05445E-13
 -1      1202 2.00760E+01-1.87131E-03-2.33450E-03 1.21756E-03-7.51298E-15-4.16949E-13
 -1      1203 2.01382E+01-2.44262E-03-3.17127E-03 1.38456E-03 2.92196E-14-4.57935E-13
 -1      1204 2.02237E+01-3.05915E-03-4.11985E-03 1.46404E-03-2.31734E-14-4.38029E-13
 -1      1205 2.03390E+01-3.66741E-03-5.13228E-03 1.39156E-03 5.38692E-14-6.12054E-13
 -1      1206 2.04905E+01-4.16853E-03-6.10245E-03 1.07417E-03-2.41200E-14-4.39879E-13
 -1      1207 2.06840E+01-4.39808E-03-6.83368E-03 3.86149E-04-5.65151E-15-7.73617E-14
 -1      1208 2.09231E+01-4.10370E-03-6.99673E-03-8.29361E-04 7.58241E-14-5.93307E-13
 -1      1209 2.12070E+01-2.92815E-03-6.08361E-03-2.74480E-03-1.49365E-14-3.66883E-13
 -1      1210 2.15271E+01-4.14987E-04-3.37637E-03-5.50424E-03-1.03273E-14 1.86483E-13
 -1      1211 2.18622E+01 3.92962E-03 2.02416E-03-9.13002E-03 9.75489E-15 1.75150E-13
 -1      1212 2.21730E+01 1.04670E-02 1.10243E-02-1.33576E-02-1.87631E-14 4.11652E-13
 -1      1213 2.23965E+01 1.90936E-02 2.40959E-02-1.73956E-02-1.68576E-14 8.71803E-14
 -1      1214 2.24436E+01 2.87372E-02 4.04646E-02-1.96758E-02 5.37383E-14-3.90957E-13
 -1      1215 2.22048E+01 3.68507E-02 5.70326E-02-1.77997E-02 4.47164E-14-4.20584E-13
 -1      1216 2.15715E+01 3.94135E-02 6.76627E-02-9.05875E-03 7.81302E-14-4.31408E-13
 -1      1217 2.04774E+01 3.20778E-02 6.40161E-02 8.10933E-03-5.32343E-15-6.89823E-13
 -1      1218 1.89567E+01 1.27672E-02 3.91112E-02 3.19700E-02-1.53623E-14-5.36453E-13
 -1      1219 1.71939E+01-1.52584E-02-6.72918E-03 5.59855E-02-1.60104E-14-1.43885E-13
 -1      1220 1.55237E+01-4.29674E-02-6.18210E-02 7.01075E-02 2.15583E-14-1.85671E-13
 -1      1221 1.43474E+01-5.99373E-02-1.06380E-01 6.59762E-02-2.37891E-14 4.77327E-14
 -1      1222 1.39838E+01-6.05749E-02-1.23316E-01 4.23226E-02-3.22103E-14 1.56489E-13
 -1      1223 1.45375E+01-4.60279E-02-1.07246E-01 5.60945E-03 3.13603E-14-2.09346E-13
 -1      1224 1.58630E+01-1.91386E-02-6.16345E-02-3.53763E-02-9.43126E-15-5.82062E-13
 -1      1225 1.76140E+01 2.10854E-02 1.13629E-02-7.34880E-02 1.19969E-14-6.95471E-13
 -1      1226 1.92661E+01 7.08853E-02 9.75976E-02-9.24830E-02 9.98420E-14-1.20115E-12
 -1      1227 2.00006E+01 5.04642E-03 3.46089E-02 2.03357E-03-1.01165E-13-7.30860E-13
 -1      1228 1.99919E+01-1.36325E-02 3.85198E-02-1.13127E-02-8.02435E-13 1.12072E-14
 -1      1229 2.00513E+01-8.65090E-01 1.06363E-01-7.48945E-02-9.39734E-13 1.61853E-13
 -1      1230 2.00005E+01-2.67334E+00 2.17012E-02-1.20116E-01-4.06550E-13-3.91582E-14
 -1      1231 1.99331E+01-4.60203E+00-9.82014E-02-1.22650E-01-1.12590E-13-1.82723E-13
 -1      1232 1.98418E+01-5.84129E+00-2.62798E-01-8.35858E-02-7.55195E-13 8.12874E-14
 -1      1233 1.97406E+01-5.26653E+00-4.50873E-01 4.13823E-02 1.09721E-12 1.40228E-13
 -1      1234 1.96958E+01-1.53884E+00-5.12329E-01 2.77227E-01 1.24578E-12-1.00506E-13
 -1      1235 1.98579E+01 5.87518E+00-2.08781E-01 5.26807E-01 1.15352E-12-9.09516E-15
 -1      1236 2.01836E+01 1.46835E+01 4.43325E-01 5.47906E-01 1.39699E-12-3.13014E-14
 -1      1237 2.05403E+01 2.10620E+01 1.02672E+00 2.52129E-01 1.12915E-12-1.49276E-13
 -1      1238 2.06488E+01 2.19710E+01 1.09838E+00-2.64510E-01-1.59067E-13 7.06588E-14
 -1      1239 2.03767E+01 1.73289E+01 5.87318E-01-5.50425E-01 4.58522E-14 1.45682E-13
 -1      1240 1.98968E+01 9.47406E+00-1.19161E-01-5.30924E-01-6.80012E-14-7.13418E-14
 -1      1241 1.96992E+01 2.46203E+00-5.06874E-01-2.62189E-01 2.83329E-13-6.42403E-14
 -1      1242 1.97709E+01-8.20029E-01-4.43716E-01-2.59509E-02-1.65500E-13-3.08330E-14
 -1      1243 1.98209E+01-8.75043E-01-1.61151E-01 1.55527E-01-7.10404E-14 2.40925E-13
 -1      1244 2.00232E+01-1.63488E-01 8.12280E-02 6.82954E-02 2.86500E-13 2.91390E-14
 -1      1245-1.43284E+00-3.25298E+01-5.34559E+00-2.70663E+00 1.98730E-14 1.69052E-13
 -1      1246-1.94514E+00-1.96924E+01-3.99364E+00-4.75358E+00 1.04650E-12 3.71425E-13
 -1      1247 1.31820E+00-1.74641E+00-1.86988E+00 9.92062E-01 4.77618E-13 3.20188E-13
 -1      1248 1.27334E+01 1.14688E+01 3.60188E-01 1.18624E+01-3.71481E-13-5.28910E-13
 -1      1249 3.20549E+01 1.49970E+01 2.30356E+00 2.09781E+01-3.17302E-13-3.83915E-13
 -1      1250 5.39538E+01 1.07477E+01 3.66397E+00 2.20447E+01-2.74558E-13-9.57900E-13
 -1      1251 7.07807E+01 4.48512E+00 4.46130E+00 1.39880E+01-2.63164E-13-1.18749E-12
 -1      1252 7.54560E+01 1.98004E+00 4.60957E+00-3.45232E-01 8.63892E-14-1.92038E-12
 -1      1253 6.50782E+01 4.92598E+00 3.94166E+00-1.36187E+01 5.47257E-13-2.52331E-12
 -1      1254 4.54217E+01 9.78908E+00 2.75489E+00-1.95923E+01 1.07669E-12-2.43849E-12
 -1      1255 2.36278E+01 1.15477E+01 1.06654E+00-1.58120E+01 1.44640E-12-1.87428E-12
 -1      1256 6.84650E+00 6.07738E+00-7.42752E-01-6.68421E+00 9.30589E-13-8.99725E-13
 -1      1257-8.01977E-01-6.13760E+00-2.19706E+00 1.97756E+00 8.70415E-14-2.04281E-14
 -1      1258-1.94969E+00-1.97430E+01-3.33334E+00 4.82454E+00 4.01679E-13-1.70308E-13
 -1      1259-1.10485E+00-2.86899E+01-3.99962E+00 1.99792E+00-1.88183E-14 1.94185E-14
 -1      1260-1.48190E+00-2.87251E+01-4.05698E+00-3.22955E+00-1.55820E-12-2.99594E-13
 -1      1261-2.63407E+00-2.02003E+01-3.58877E+00-5.99605E+00-1.87961E-12-6.10456E-13
 -1      1262-1.22147E+00-6.55529E+00-2.44868E+00-2.44432E+00-1.68443E-12-1.12199E-12
 -1      1263 7.77064E+00 5.36010E+00-8.65927E-01 6.62276E+00-1.24523E-12-1.11733E-12
 -1      1264 2.59486E+01 1.03658E+01 1.11723E+00 1.57218E+01-4.46088E-13-7.81153E-13
 -1      1265 4.92028E+01 8.40609E+00 3.01706E+00 1.83167E+01-2.71339E-13-4.05231E-13
 -1      1266 7.00246E+01 3.71741E+00 4.53107E+00 1.16253E+01-5.99520E-15-2.26708E-13
 -1      1267 7.88805E+01 1.89138E+00 5.23022E+00-2.04849E+00 1.59962E-13-9.56457E-13
 -1      1268 7.26701E+01 5.19123E+00 5.00548E+00-1.56352E+01 3.69427E-14-7.05658E-13
 -1      1269 5.40490E+01 1.13569E+01 3.91590E+00-2.27358E+01-2.61235E-13 3.81473E-13
 -1      1270 3.00187E+01 1.46615E+01 2.09133E+00-2.00855E+01-7.69607E-13 1.13465E-12
 -1      1271 1.02682E+01 9.40654E+00-1.91383E-01-9.79329E+00-9.46132E-13 8.21565E-13
 -1      1272-2.25712E-02-5.02326E+00-2.50678E+00 8.22340E-01-1.76748E-13 4.89830E-13
 -1      1273-2.37448E+00-2.24400E+01-4.45428E+00 5.53988E+00-2.78444E-13-5.99520E-14
 -1      1274-1.51703E+00-3.34918E+01-5.50407E+00 2.87276E+00-4.75620E-13 3.69357E-14
 -1      1275 2.22682E+01 1.83827E+00-7.25848E-01-2.79036E+00-5.49283E-14 8.47156E-13
 -1      1276 2.03606E+01 4.69033E+00-4.86334E-02-3.30641E+00-1.45842E-13-7.78683E-14
 -1      1277 2.08682E+01 4.81082E+00-1.13317E-01-4.16071E+00-1.84491E-13 1.31221E-13
 -1      1278 1.95326E+01 4.99350E+00-1.96034E-02-2.65395E+00-1.40457E-13-3.64306E-13
 -1      1279 1.98308E+01 5.09045E+00 2.94655E-04-3.04502E+00-1.60413E-13-2.40176E-13
 -1      1280 2.05272E+01 3.95290E+00-2.58762E-02-3.07437E+00-2.52943E-13-6.31717E-14
 -1      1281 1.91843E+01 5.08428E+00-3.65209E-03-2.06969E+00-1.05568E-13-5.14200E-13
 -1      1282 1.93339E+01 5.13961E+00 1.06180E-02-2.36281E+00-1.23103E-13-4.47010E-13
 -1      1283 1.97549E+01 4.36618E+00-2.42623E-02-2.48894E+00-2.16150E-13-3.04007E-13
 -1      1284 1.90087E+01 5.13090E+00 3.27842E-03-1.56425E+00-7.72897E-14-5.81448E-13
 -1      1285 1.90864E+01 5.16086E+00 1.25692E-02-1.81416E+00-8.77423E-14-5.52485E-13
 -1      1286 1.93926E+01 4.55582E+00-1.95291E-02-1.93064E+00-1.59232E-13-4.35277E-13
 -1      1287 1.89150E+01 5.16057E+00 6.59524E-03-1.11657E+00-4.83832E-14-6.01326E-13
 -1      1288 1.89575E+01 5.17691E+00 1.27364E-02-1.33801E+00-6.13381E-14-5.90561E-13
 -1      1289 1.92054E+01 4.66146E+00-1.60506E-02-1.44444E+00-1.15078E-13-4.89612E-13
 -1      1290 1.88632E+01 5.18037E+00 8.18936E-03-6.93454E-01-2.96477E-14-5.90947E-13
 -1      1291 1.88863E+01 5.18927E+00 1.20317E-02-9.03579E-01-3.80616E-14-6.00995E-13
 -1      1292 1.91022E+01 4.72686E+00-1.39416E-02-1.00379E+00-7.39083E-14-5.06616E-13
 -1      1293 1.88391E+01 5.19227E+00 9.27696E-03-2.89001E-01 4.21326E-15-5.81819E-13
 -1      1294 1.88490E+01 5.19612E+00 1.10601E-02-4.91003E-01-5.93406E-15-5.83648E-13
 -1      1295 1.90461E+01 4.76585E+00-1.29089E-02-5.88480E-01-3.26380E-14-4.91274E-13
 -1      1296 1.88353E+01 5.19721E+00 1.02081E-02 1.08159E-01 3.10070E-14-5.64906E-13
 -1      1297 1.88350E+01 5.19707E+00 1.01356E-02-9.13912E-02 1.81968E-14-5.73460E-13
 -1      1298 1.90217E+01 4.78385E+00-1.24748E-02-1.89000E-01 1.63248E-14-4.86184E-13
 -1      1299 1.88507E+01 5.19575E+00 1.11480E-02 5.08365E-01 5.41000E-14-5.50861E-13
 -1      1300 1.88400E+01 5.19162E+00 9.21026E-03 3.05940E-01 4.47994E-14-5.59551E-13
 -1      1301 1.90226E+01 4.78320E+00-1.24948E-02 2.05671E-01 6.27322E-14-4.66061E-13
 -1      1302 1.88895E+01 5.18811E+00 1.20856E-02 9.22432E-01 7.40519E-14-5.25696E-13
 -1      1303 1.88656E+01 5.17904E+00 8.11857E-03 7.11350E-01 6.54596E-14-5.44648E-13
 -1      1304 1.90487E+01 4.76377E+00-1.29808E-02 6.05862E-01 1.00176E-13-4.60285E-13
 -1      1305 1.89618E+01 5.17517E+00 1.28975E-02 1.35550E+00 9.75409E-14-4.70485E-13
 -1      1306 1.89183E+01 5.15838E+00 6.43369E-03 1.13267E+00 8.63047E-14-5.01967E-13
 -1      1307 1.91064E+01 4.72335E+00-1.40016E-02 1.01900E+00 1.30752E-13-4.24209E-13
 -1      1308 1.90949E+01 5.15678E+00 1.28318E-02 1.84008E+00 1.36103E-13-3.95933E-13
 -1      1309 1.90152E+01 5.12636E+00 3.13079E-03 1.58730E+00 1.20345E-13-4.41317E-13
 -1      1310 1.92123E+01 4.65498E+00-1.61463E-02 1.46199E+00 1.80525E-13-3.64958E-13
 -1      1311 1.93441E+01 5.13358E+00 1.01839E-02 2.39717E+00 1.65357E-13-2.59549E-13
 -1      1312 1.91938E+01 5.07640E+00-4.38486E-03 2.09988E+00 1.47757E-13-3.42622E-13
 -1      1313 1.94054E+01 4.54254E+00-1.99831E-02 1.95761E+00 2.29965E-13-2.79003E-13
 -1      1314 1.98562E+01 5.09956E+00 6.07443E-03 3.08336E+00 1.76220E-13 3.76088E-15
 -1      1315 1.95440E+01 4.98451E+00-2.05428E-02 2.69593E+00 1.59553E-13-1.55806E-13
 -1      1316 1.97752E+01 4.34651E+00-2.45551E-02 2.52748E+00 2.62720E-13-1.17795E-13
 -1      1317 2.11043E+01 4.90708E+00 8.33762E-03 4.05358E+00 1.57957E-13 4.89275E-13
 -1      1318 2.03352E+01 4.73394E+00-4.79576E-02 3.41582E+00 1.55265E-13 1.97786E-13
 -1      1319 2.05654E+01 3.91598E+00-2.23999E-02 3.17790E+00 2.65427E-13 1.76165E-13
 -1      1320 2.72036E+01 3.20539E+00 9.28989E-01 4.58210E+00 7.74658E-14 1.38550E-12
 -1      1321 2.20211E+01 3.52223E+00-1.81989E-01 3.88471E+00 8.15736E-14 7.62390E-13
 -1      1322 2.21135E+01 2.56179E+00-3.25336E-02 3.45620E+00 2.59494E-13 6.06598E-13
 -1      1323 2.14281E+01 3.59559E-01-7.63529E-01 1.18366E+00 1.36266E-13 1.33299E-12
 -1      1324 2.20026E+01 1.31344E-01-4.00862E-01-1.28548E+00-1.52753E-13 8.97032E-13
 -1      1325 2.06801E+01 3.06687E-01-1.64803E-01-8.05567E-01-1.42178E-13 7.24601E-13
 -1      1326 2.00826E+01 1.53467E-01-7.35338E-02-4.01950E-01-1.03868E-13 6.50135E-13
 -1      1327 1.96130E+01 9.11891E-02-1.49325E-02-3.29808E-01-9.31685E-14 5.04201E-13
 -1      1328 2.09740E+01 3.69148E-01-1.04235E-01-1.27356E+00-2.33119E-13 3.51850E-13
 -1      1329 1.92558E+01 6.45426E-02 3.01991E-03-1.35149E-01-9.39127E-14 4.54834E-13
 -1      1330 1.91017E+01 4.13061E-02 1.32045E-02-1.17316E-01-9.32310E-14 3.14186E-13
 -1      1331 1.99235E+01 1.33914E-01-3.51669E-02-5.03636E-01-1.86080E-13 2.59064E-13
 -1      1332 1.89416E+01 3.15415E-02 1.32336E-02-2.77437E-02-6.18529E-14 2.65024E-13
 -1      1333 1.89225E+01 1.93834E-02 1.10600E-02-1.83654E-02-4.86508E-14 1.79901E-13
 -1      1334 1.94466E+01 5.55253E-02-8.51614E-03-1.69517E-01-1.44157E-13 1.54314E-13
 -1      1335 1.88666E+01 1.60117E-02 8.77374E-03 2.52766E-02-2.72382E-14 1.62145E-13
 -1      1336 1.89093E+01 9.07486E-03 6.43400E-03 2.99049E-02-3.33674E-14 1.28633E-13
 -1      1337 1.92382E+01 2.43955E-02-3.50831E-03-1.06524E-02-7.54735E-14 1.05828E-13
 -1      1338 1.89096E+01 7.86383E-03 4.66726E-03 5.10763E-02-2.64492E-14 8.50708E-14
 -1      1339 1.89803E+01 3.50972E-03 3.63874E-03 5.29724E-02-2.86383E-14 5.54227E-14
 -1      1340 1.91818E+01 1.02014E-02-2.22132E-03 6.80334E-02-6.86855E-14 5.27616E-14
 -1      1341 1.90100E+01 3.19693E-03 2.43794E-03 6.17836E-02-4.50697E-14 2.13614E-14
 -1      1342 1.90908E+01 3.33149E-04 2.20792E-03 6.20561E-02-4.39407E-14-5.23886E-14
 -1      1343 1.92083E+01 2.79329E-03-1.32491E-03 1.04896E-01-6.58524E-14-6.97923E-15
 -1      1344 1.91346E+01 4.46066E-04 1.32757E-03 6.37440E-02-2.42829E-14-7.82421E-14
 -1      1345 1.92158E+01-1.47080E-03 1.43620E-03 6.30617E-02-3.41761E-14-1.27122E-13
 -1      1346 1.92778E+01-1.29343E-03-5.57510E-04 1.18189E-01-8.20745E-14-6.09009E-14
 -1      1347 1.92645E+01-1.14798E-03 7.41999E-04 6.06593E-02-4.54928E-14-1.39196E-13
 -1      1348 1.93404E+01-2.42567E-03 9.66727E-04 5.94534E-02-5.58318E-14-2.01525E-13
 -1      1349 1.93664E+01-3.51092E-03 4.63014E-06 1.17838E-01-6.34198E-14-1.34588E-13
 -1      1350 1.93887E+01-2.00814E-03 4.04390E-04 5.48385E-02-4.88875E-14-1.72739E-13
 -1      1351 1.94565E+01-2.83994E-03 6.53931E-04 5.33915E-02-1.04413E-14-1.82876E-13
 -1      1352 1.94599E+01-4.58793E-03 3.60701E-04 1.09774E-01-5.18217E-14-5.77661E-14
 -1      1353 1.95013E+01-2.39431E-03 1.98890E-04 4.77612E-02 1.81198E-14-2.21490E-13
 -1      1354 1.95598E+01-2.91062E-03 4.36877E-04 4.62565E-02 4.48955E-15-1.97135E-13
 -1      1355 1.95499E+01-4.94903E-03 5.55356E-04 9.77241E-02-1.52297E-14-8.91460E-14
 -1      1356 1.95995E+01-2.47581E-03 7.31649E-05 4.03750E-02-8.40045E-15-1.80482E-13
 -1      1357 1.96486E+01-2.76846E-03 2.85313E-04 3.89282E-02-1.96223E-14-1.92118E-13
 -1      1358 1.96318E+01-4.86342E-03 6.36970E-04 8.40730E-02-6.75886E-15-2.20898E-13
 -1      1359 1.96826E+01-2.36616E-03-5.60960E-07 3.32739E-02-3.07717E-14-1.88956E-13
 -1      1360 1.97228E+01-2.50100E-03 1.81110E-04 3.19540E-02-2.13704E-14-2.11186E-13
 -1      1361 1.97034E+01-4.50894E-03 6.43853E-04 7.03362E-02-2.42798E-14-2.20108E-13
 -1      1362 1.97512E+01-2.14156E-03-3.91969E-05 2.68142E-02-5.97282E-15-2.41292E-13
 -1      1363 1.97834E+01-2.16565E-03 1.12145E-04 2.56594E-02-1.31299E-14-2.31337E-13
 -1      1364 1.97642E+01-4.00363E-03 6.03346E-04 5.74506E-02-4.36264E-14-1.85341E-13
 -1      1365 1.98066E+01-1.85165E-03-5.38023E-05 2.11965E-02-3.23342E-14-2.19420E-13
 -1      1366 1.98319E+01-1.79785E-03 6.99494E-05 2.02249E-02-3.74948E-14-2.66563E-13
 -1      1367 1.98145E+01-3.42353E-03 5.33954E-04 4.59693E-02-1.10438E-14-1.87214E-13
 -1      1368 1.98506E+01-1.52644E-03-5.18100E-05 1.65248E-02 1.12754E-15-2.72898E-13
 -1      1369 1.98702E+01-1.41659E-03 4.85608E-05 1.57437E-02-2.75123E-14-2.94215E-13
 -1      1370 1.98555E+01-2.81373E-03 4.47455E-04 3.62000E-02-2.67026E-14-1.66498E-13
 -1      1371 1.98853E+01-1.18092E-03-3.82302E-05 1.28516E-02-5.26091E-14-2.78205E-13
 -1      1372 1.99004E+01-1.02823E-03 4.38732E-05 1.22641E-02-1.65721E-14-2.98859E-13
 -1      1373 1.98886E+01-2.19582E-03 3.50530E-04 2.83072E-02-4.47162E-14-1.99873E-13
 -1      1374 1.99127E+01-8.18382E-04-1.64034E-05 1.02129E-02-1.55952E-14-3.85415E-13
 -1      1375 1.99247E+01-6.29224E-04 5.32171E-05 9.82270E-03-8.62964E-15-4.37722E-13
 -1      1376 1.99154E+01-1.57303E-03 2.45933E-04 2.23899E-02-6.54073E-14-2.39702E-13
 -1      1377 1.99353E+01-4.32604E-04 1.14810E-05 8.65501E-03-5.46677E-14-4.86099E-13
 -1      1378 1.99454E+01-2.07946E-04 7.50761E-05 8.47140E-03-1.03327E-13-5.55149E-13
 -1      1379 1.99380E+01-9.33908E-04 1.33329E-04 1.85426E-02-7.85753E-14-3.65646E-13
 -1      1380 1.99555E+01-9.31667E-06 4.39954E-05 8.25796E-03 1.63471E-14-5.57613E-13
 -1      1381 1.99652E+01 2.54169E-04 1.08879E-04 8.29909E-03 1.12016E-14-5.27057E-13
 -1      1382 1.99583E+01-2.54506E-04 9.87935E-06 1.69043E-02-5.92976E-14-3.99642E-13
 -1      1383 1.99759E+01 4.73087E-04 8.01416E-05 9.15511E-03 1.53857E-14-4.73022E-13
 -1      1384 1.99868E+01 7.82150E-04 1.54819E-04 9.45159E-03 2.76846E-14-4.24191E-13
 -1      1385 1.99787E+01 5.00408E-04-1.29369E-04 1.77003E-02 6.07228E-14-5.38480E-13
 -1      1386 1.99996E+01 1.04345E-03 1.19018E-04 1.15522E-02 2.91498E-14-4.19606E-13
 -1      1387 2.00135E+01 1.40756E-03 2.13664E-04 1.21506E-02 1.48164E-14-4.08286E-13
 -1      1388 2.00019E+01 1.37730E-03-2.91268E-04 2.12803E-02 4.24117E-14-4.17983E-13
 -1      1389 2.00301E+01 1.73837E-03 1.59425E-04 1.57470E-02-1.46995E-14-3.90000E-13
 -1      1390 2.00493E+01 2.16907E-03 2.86486E-04 1.67138E-02-2.02852E-14-4.63957E-13
 -1      1391 2.00308E+01 2.43481E-03-4.84492E-04 2.81561E-02 1.10049E-14-3.86945E-13
 -1      1392 2.00718E+01 2.60323E-03 1.99321E-04 2.21506E-02 7.28294E-14-4.17814E-13
 -1      1393 2.00990E+01 3.11336E-03 3.74224E-04 2.35764E-02 6.25387E-14-2.97527E-13
 -1      1394 2.00692E+01 3.74569E-03-7.19578E-04 3.90417E-02 3.19338E-14-3.01121E-13
 -1      1395 2.01299E+01 3.69363E-03 2.34985E-04 3.13122E-02 1.79349E-14-2.99508E-13
 -1      1396 2.01686E+01 4.29620E-03 4.76879E-04 3.33176E-02 5.30105E-14-2.62937E-13
 -1      1397 2.01216E+01 5.39967E-03-1.00903E-03 5.48974E-02 4.85520E-14-2.22937E-13
 -1      1398 2.02110E+01 5.07698E-03 2.59676E-04 4.39466E-02 9.08117E-15-2.24042E-13
 -1      1399 2.02657E+01 5.78289E-03 5.92031E-04 4.66883E-02-3.27498E-14-2.46691E-13
 -1      1400 2.01934E+01 7.50666E-03-1.36744E-03 7.69801E-02 1.68187E-14-1.64268E-13
 -1      1401 2.03234E+01 6.83304E-03 2.61418E-04 6.09636E-02-4.38016E-14-2.71953E-13
 -1      1402 2.03995E+01 7.64653E-03 7.12157E-04 6.46415E-02-1.54974E-14-3.53663E-13
 -1      1403 2.02914E+01 1.01992E-02-1.81150E-03 1.06896E-01-1.52656E-15-1.92962E-13
 -1      1404 2.04773E+01 9.05144E-03 2.19449E-04 8.34911E-02 3.37995E-14-3.38694E-13
 -1      1405 2.05819E+01 9.96068E-03 8.19935E-04 8.83538E-02 2.34769E-14-3.02207E-13
 -1      1406 2.04239E+01 1.36306E-02-2.35961E-03 1.46644E-01 1.01876E-14-2.72476E-13
 -1      1407 2.06855E+01 1.18209E-02 9.87732E-05 1.12874E-01 9.25865E-15-3.11213E-13
 -1      1408 2.08274E+01 1.27789E-02 8.80642E-04 1.19220E-01 9.49523E-15-2.89488E-13
 -1      1409 2.06010E+01 1.79613E-02-3.03042E-03 1.98632E-01 3.27891E-14-2.32293E-13
 -1      1410 2.09636E+01 1.51993E-02-1.57245E-04 1.50608E-01-4.89630E-14-2.66072E-13
 -1      1411 2.11534E+01 1.60865E-02 8.31312E-04 1.58768E-01-1.43365E-13-3.94713E-13
 -1      1412 2.08347E+01 2.33158E-02-3.83891E-03 2.65582E-01-7.90548E-14-3.07524E-13
 -1      1413 2.13299E+01 1.91445E-02-6.34294E-04 1.98119E-01-1.02667E-13-3.82119E-13
 -1      1414 2.15802E+01 1.96976E-02 5.69385E-04 2.08404E-01-2.38633E-15-4.62273E-13
 -1      1415 2.11390E+01 2.96776E-02-4.78693E-03 3.50223E-01-2.12840E-13-1.74879E-13
 -1      1416 2.18049E+01 2.33643E-02-1.44626E-03 2.56211E-01 5.17490E-14-5.20813E-13
 -1      1417 2.21290E+01 2.30494E-02-4.73491E-05 2.68771E-01-5.30652E-15-4.36273E-13
 -1      1418 2.15291E+01 3.66545E-02-5.84115E-03 4.54474E-01-1.68797E-14-2.77000E-13
 -1      1419 2.24089E+01 2.70218E-02-2.70262E-03 3.23880E-01-1.03519E-13-4.09167E-13
 -1      1420 2.28184E+01 2.48251E-02-1.15745E-03 3.38389E-01-4.20540E-15-4.90134E-13
 -1      1421 2.20197E+01 4.30040E-02-6.88427E-03 5.77660E-01-3.90924E-14-2.80535E-13
 -1      1422 2.31567E+01 2.82045E-02-4.39185E-03 3.95946E-01 7.63779E-14-4.96863E-13
 -1      1423 2.36550E+01 2.23398E-02-2.74380E-03 4.10958E-01 5.87915E-14-4.16278E-13
 -1      1424 2.26210E+01 4.57573E-02-7.61299E-03 7.12924E-01 4.14100E-14-2.53336E-13
 -1      1425 2.40459E+01 2.30960E-02-6.09371E-03 4.58858E-01 5.90283E-15-4.08201E-13
 -1      1426 2.46165E+01 1.07474E-02-4.28938E-03 4.70638E-01 5.86807E-14-3.65846E-13
 -1      1427 2.33320E+01 3.88190E-02-7.34665E-03 8.40744E-01 9.85822E-14-3.38464E-13
 -1      1428 2.50370E+01 5.04710E-03-6.46272E-03 4.84290E-01 1.25276E-13-3.82309E-13
 -1      1429 2.56225E+01-1.73757E-02-4.26138E-03 4.84994E-01 9.77465E-14-2.40693E-13
 -1      1430 2.41278E+01 1.13223E-02-4.73594E-03 9.18656E-01 5.28409E-14-2.17885E-13
 -1      1431 2.60209E+01-3.53601E-02-2.71553E-03 4.22167E-01 6.16443E-14-2.08805E-13
 -1      1432 2.64949E+01-7.02000E-02 1.32324E-04 3.98013E-01-3.98535E-14-2.13010E-13
 -1      1433 2.49411E+01-5.25157E-02 2.47723E-03 8.68753E-01 1.10405E-13-2.37185E-13
 -1      1434 2.67782E+01-1.06094E-01 8.85126E-03 2.00804E-01-5.60160E-14-7.22547E-14
 -1      1435 2.69230E+01-1.48834E-01 1.15764E-02 1.33082E-01 3.89046E-14-1.07154E-13
 -1      1436 2.56384E+01-1.66881E-01 1.70442E-02 5.72400E-01 3.48558E-14-1.60864E-13
 -1      1437 2.69532E+01-2.00515E-01 2.92546E-02-2.47663E-01-4.18762E-15-1.94706E-13
 -1      1438 2.64812E+01-2.30217E-01 2.76247E-02-3.72370E-01-5.41650E-14-1.75936E-13
 -1      1439 2.60009E+01-3.23968E-01 3.95725E-02-1.02140E-01-1.76803E-14-1.13950E-13
 -1      1440 2.60999E+01-2.73997E-01 4.83526E-02-9.11417E-01 1.32002E-13-8.04704E-14
 -1      1441 2.47835E+01-2.49018E-01 3.44891E-02-1.07456E+00 5.33913E-14 2.81164E-14
 -1      1442 2.57360E+01-4.54448E-01 6.27955E-02-1.19864E+00 8.94736E-14-9.35970E-15
 -1      1443 2.38975E+01-2.34805E-01 4.25409E-02-1.58331E+00 5.44530E-15 8.41965E-14
 -1      1444 2.18203E+01-1.19548E-01 9.59537E-03-1.70387E+00-4.18016E-14 7.95475E-14
 -1      1445 2.45725E+01-4.16328E-01 6.36574E-02-2.48416E+00 8.47725E-14 7.43572E-14
 -1      1446 2.05592E+01-1.56219E-02-8.24991E-03-1.84030E+00 6.08298E-14 2.27068E-13
 -1      1447 1.83192E+01 1.56630E-01-5.12338E-02-1.80269E+00 1.19873E-13 2.82330E-13
 -1      1448 2.25036E+01-8.88922E-02 1.46567E-02-3.32019E+00 1.49281E-13 9.32726E-14
 -1      1449 1.71339E+01 2.86120E-01-7.86308E-02-1.33344E+00 1.85060E-14 4.54123E-13
 -1      1450 1.56436E+01 3.94940E-01-1.04529E-01-1.11199E+00 4.84335E-15 3.88918E-13
 -1      1451 2.00810E+01 4.11114E-01-7.68810E-02-2.95234E+00 1.84172E-13 2.73212E-13
 -1      1452 1.50663E+01 4.16448E-01-1.06129E-01-2.57577E-01 4.25562E-14 2.87204E-13
 -1      1453 1.48923E+01 3.72044E-01-9.55885E-02-1.31920E-03-4.46032E-14 3.61940E-13
 -1      1454 1.83240E+01 7.17514E-01-1.37747E-01-1.31050E+00-5.12299E-14 1.84856E-13
 -1      1455 1.50387E+01 2.63983E-01-6.56383E-02 6.73943E-01-1.05093E-13 2.99122E-13
 -1      1456 1.59258E+01 1.24648E-01-3.17883E-02 7.87399E-01-7.16684E-14 2.86215E-13
 -1      1457 1.79261E+01 5.74231E-01-1.06587E-01 5.93355E-01-6.90559E-14 2.50720E-13
 -1      1458 1.64036E+01 1.42250E-02-6.35847E-03 9.47159E-01-1.15373E-13 2.19574E-13
 -1      1459 1.75938E+01-9.15488E-02 2.42795E-02 9.04421E-01-1.22193E-13-1.37390E-14
 -1      1460 1.85753E+01 1.55607E-01-2.32511E-02 1.57912E+00-2.40839E-13 2.32189E-13
 -1      1461 1.79704E+01-1.08801E-01 2.08362E-02 7.05345E-01 8.77822E-14-1.88738E-14
 -1      1462 1.89025E+01-1.27031E-01 4.25288E-02 6.21615E-01 9.60100E-14 6.63705E-14
 -1      1463 1.93865E+01-1.55342E-01 2.82578E-02 1.46029E+00-9.61498E-14 1.18846E-13
 -1      1464 1.90444E+01-8.23454E-02 2.21100E-02 4.06638E-01-1.73351E-14 9.86780E-14
 -1      1465 1.96585E+01-7.60004E-02 5.59212E-02 3.59659E-01-1.05466E-13 1.00857E-13
 -1      1466 1.98137E+01-1.71599E-01 4.21348E-02 9.12555E-01 4.78177E-14 1.25355E-13
 -1      1467 1.97965E+01-1.33396E-01 6.04939E-02 1.49878E-01 2.26902E-15 1.81938E-14
 -1      1468 1.99790E+01-2.17110E-01 3.72350E-02 4.27021E-01-7.57519E-14 2.52214E-13
 -1      1469 2.02612E+01 7.54729E-02-1.52084E-01 4.83697E-01 1.25722E-13 1.05486E-12
 -1      1470 2.15312E+01 2.16137E-01-2.29284E-01 7.20680E-01 1.07678E-13 1.25545E-12
 -1      1471 2.17298E+01 8.81724E-01-8.54795E-02 2.06453E+00 2.13204E-13 8.25298E-13
 -1      1472 1.93333E+01 3.23831E-02-2.13287E-02 1.85859E-01 7.62793E-14 8.33160E-13
 -1      1473 1.97537E+01 1.13624E-01-6.26944E-02 2.37872E-01 8.24549E-14 9.58861E-13
 -1      1474 2.03049E+01 1.87668E-01-5.51943E-02 7.85885E-01 1.78801E-13 6.59206E-13
 -1      1475 1.89519E+01 1.51093E-02 5.66585E-03 5.33451E-02 6.42628E-14 6.73787E-13
 -1      1476 1.90903E+01 5.16350E-02 9.80076E-04 7.96655E-02 5.79675E-14 7.68073E-13
 -1      1477 1.95602E+01 7.18397E-02-1.21612E-02 2.98683E-01 1.35256E-13 5.33781E-13
 -1      1478 1.88419E+01 7.12849E-03 6.97273E-03-9.17318E-03 8.93279E-14 5.29635E-13
 -1      1479 1.88563E+01 2.58734E-02 1.10885E-02 5.23762E-03 6.63211E-14 6.06855E-13
 -1      1480 1.92252E+01 3.10438E-02-2.47105E-03 8.31597E-02 1.14419E-13 3.92625E-13
 -1      1481 1.88684E+01 3.21691E-03 4.77800E-03-3.94576E-02 3.61282E-14 3.75424E-13
 -1      1482 1.88244E+01 1.38256E-02 8.51838E-03-3.13238E-02 5.15599E-14 4.72903E-13
 -1      1483 1.91090E+01 1.32777E-02-1.62842E-03-2.18680E-02 1.17516E-13 2.97092E-13
 -1      1484 1.89631E+01 1.05690E-03 3.29141E-03-5.29134E-02 2.16840E-14 3.19718E-13
 -1      1485 1.88923E+01 7.29529E-03 5.36565E-03-4.84268E-02 9.35406E-15 3.37170E-13
 -1      1486 1.91106E+01 4.55240E-03-1.64284E-03-7.34073E-02 5.77084E-14 2.11031E-13
 -1      1487 1.90880E+01-1.93257E-04 2.51021E-03-5.68733E-02 3.85344E-14 2.55764E-13
 -1      1488 1.90075E+01 3.45809E-03 3.42999E-03-5.46465E-02 3.08199E-14 3.01865E-13
 -1      1489 1.91737E+01-1.08506E-04-1.38686E-03-9.60742E-02 5.00289E-14 1.56077E-13
 -1      1490 1.92212E+01-9.02726E-04 2.04568E-03-5.53716E-02 9.55347E-15 2.15455E-13
 -1      1491 1.91407E+01 1.12354E-03 2.32760E-03-5.45657E-02 2.82910E-14 2.34367E-13
 -1      1492 1.92661E+01-2.63133E-03-1.01118E-03-1.02265E-01 5.44781E-14 1.27771E-13
 -1      1493 1.93503E+01-1.26802E-03 1.70205E-03-5.08374E-02 3.57136E-14 1.34330E-13
 -1      1494 1.92751E+01-2.87588E-04 1.64891E-03-5.09114E-02 2.29320E-14 1.88987E-13
 -1      1495 1.93686E+01-3.90663E-03-6.68508E-04-9.89756E-02 5.96759E-14 8.97169E-14
 -1      1496 1.94683E+01-1.41008E-03 1.41286E-03-4.48039E-02 2.51036E-14 1.25667E-13
 -1      1497 1.94012E+01-1.10012E-03 1.18837E-03-4.53979E-02 1.87644E-14 1.34857E-13
 -1      1498 1.94699E+01-4.41466E-03-4.03978E-04-9.04635E-02 2.85209E-14 3.74303E-14
 -1      1499 1.95719E+01-1.40896E-03 1.16023E-03-3.82513E-02 4.71898E-14 5.64015E-14
 -1      1500 1.95141E+01-1.51690E-03 8.56458E-04-3.91232E-02 5.59967E-14 1.17197E-13
 -1      1501 1.95638E+01-4.44652E-03-2.14215E-04-7.94240E-02 6.01549E-14 7.91068E-14
 -1      1502 1.96601E+01-1.31909E-03 9.39732E-04-3.17986E-02 6.68318E-14-9.08648E-15
 -1      1503 1.96116E+01-1.67230E-03 6.11429E-04-3.27863E-02 4.14824E-14 1.87777E-14
 -1      1504 1.96470E+01-4.18976E-03-8.39869E-05-6.75795E-02 7.22351E-14 2.18022E-14
 -1      1505 1.97331E+01-1.17724E-03 7.49417E-04-2.58237E-02 1.34660E-14-8.12044E-14
 -1      1506 1.96934E+01-1.65769E-03 4.29972E-04-2.68203E-02 2.59158E-14-6.46772E-14
 -1      1507 1.97183E+01-3.76842E-03 1.27951E-06-5.60163E-02 6.80400E-14-4.94605E-14
 -1      1508 1.97923E+01-1.00734E-03 5.87163E-04-2.05440E-02-1.78786E-14-1.71980E-13
 -1      1509 1.97605E+01-1.53507E-03 2.96786E-04-2.14805E-02 1.54026E-14-1.47983E-13
 -1      1510 1.97778E+01-3.26388E-03 5.29593E-05-4.53964E-02 4.00360E-14-1.76243E-13
 -1      1511 1.98394E+01-8.23724E-04 4.50168E-04-1.60745E-02-6.99278E-15-1.45807E-13
 -1      1512 1.98145E+01-1.34511E-03 2.00907E-04-1.69070E-02-2.45957E-15-1.61873E-13
 -1      1513 1.98265E+01-2.72706E-03 7.92946E-05-3.61034E-02 8.58742E-16-1.46471E-13
 -1      1514 1.98765E+01-6.33338E-04 3.34960E-04-1.24713E-02-9.61470E-15-1.01188E-13
 -1      1515 1.98572E+01-1.11244E-03 1.34140E-04-1.31711E-02-3.15354E-14-1.31700E-13
 -1      1516 1.98658E+01-2.18644E-03 8.58133E-05-2.83466E-02-1.89909E-14-1.31613E-13
 -1      1517 1.99058E+01-4.37465E-04 2.37527E-04-9.76397E-03 7.88392E-14-2.06130E-13
 -1      1518 1.98908E+01-8.49273E-04 9.02434E-05-1.03100E-02 8.47568E-14-8.23397E-14
 -1      1519 1.98973E+01-1.65362E-03 7.56899E-05-2.22390E-02 4.08091E-14-1.35791E-13
 -1      1520 1.99295E+01-2.33038E-04 1.53477E-04-7.98062E-03-6.23390E-14-2.97430E-13
 -1      1521 1.99176E+01-5.58091E-04 6.44352E-05-8.35303E-03 7.11099E-15-2.89599E-13
 -1      1522 1.99230E+01-1.12752E-03 5.00181E-05-1.78563E-02 9.32759E-14-7.94014E-14
 -1      1523 1.99502E+01-1.37428E-05 7.81744E-05-7.16689E-03 3.38756E-15-2.29803E-13
 -1      1524 1.99400E+01-2.33722E-04 5.30580E-05-7.34185E-03-3.78677E-14-2.78753E-13
 -1      1525 1.99451E+01-5.97576E-04 8.03052E-06-1.52813E-02-4.65517E-14-2.38447E-13
 -1      1526 1.99705E+01 2.29014E-04 6.84532E-06-7.39961E-03-6.22572E-14-2.12215E-13
 -1      1527 1.99606E+01 1.34923E-04 5.33036E-05-7.34530E-03-2.67290E-14-2.16085E-13
 -1      1528 1.99657E+01-4.64974E-05-5.27248E-05-1.46371E-02-2.51674E-14-8.48936E-14
 -1      1529 1.99933E+01 5.05057E-04-6.53483E-05-8.79601E-03-5.89950E-15-2.02299E-13
 -1      1530 1.99820E+01 5.63209E-04 6.29410E-05-8.46927E-03-1.02787E-14-1.95232E-13
 -1      1531 1.99874E+01 5.47412E-04-1.36203E-04-1.61101E-02-6.14586E-14-1.10754E-13
 -1      1532 2.00218E+01 8.24101E-04-1.43187E-04-1.15174E-02 3.14301E-14-2.71790E-13
 -1      1533 2.00075E+01 1.06886E-03 8.00229E-05-1.08616E-02 4.46071E-15-2.33023E-13
 -1      1534 2.00128E+01 1.20768E-03-2.47600E-04-1.99634E-02 2.29056E-14-8.31742E-14
 -1      1535 2.00598E+01 1.19379E-03-2.31166E-04-1.57662E-02 4.83408E-14-3.88357E-13
 -1      1536 2.00405E+01 1.66929E-03 1.02554E-04-1.47105E-02 3.43140E-14-3.37712E-13
 -1      1537 2.00452E+01 1.95633E-03-3.92896E-04-2.65380E-02 4.33504E-14-1.75643E-13
 -1      1538 2.01116E+01 1.61675E-03-3.33052E-04-2.17718E-02 1.42708E-15-3.67225E-13
 -1      1539 2.00849E+01 2.37760E-03 1.28099E-04-2.02330E-02-2.09920E-14-3.90522E-13
 -1      1540 2.00881E+01 2.80916E-03-5.78069E-04-3.62373E-02 8.66928E-16-3.56529E-13
 -1      1541 2.01821E+01 2.08611E-03-4.51052E-04-2.97622E-02-1.25108E-14-3.25738E-13
 -1      1542 2.01452E+01 3.19631E-03 1.53336E-04-2.76504E-02 2.87640E-14-3.36571E-13
 -1      1543 2.01455E+01 3.76847E-03-8.07707E-04-4.94878E-02 2.53920E-14-3.36264E-13
 -1      1544 2.02766E+01 2.57879E-03-5.84309E-04-3.99111E-02-2.27667E-14-3.05322E-13
 -1      1545 2.02266E+01 4.10781E-03 1.73595E-04-3.71419E-02-3.19697E-14-3.15095E-13
 -1      1546 2.02217E+01 4.81215E-03-1.08269E-03-6.66630E-02-2.63545E-14-2.25032E-13
 -1      1547 2.04005E+01 3.04583E-03-7.26294E-04-5.22510E-02 2.24546E-14-3.21884E-13
 -1      1548 2.03344E+01 5.05994E-03 1.82514E-04-4.87672E-02 2.91894E-14-2.88456E-13
 -1      1549 2.03213E+01 5.87753E-03-1.39645E-03-8.79545E-02 2.12527E-14-1.54822E-13
 -1      1550 2.05590E+01 3.39911E-03-8.60413E-04-6.65381E-02-1.55678E-13-1.56517E-13
 -1      1551 2.04738E+01 5.94535E-03 1.72131E-04-6.23463E-02-1.22774E-13-3.24489E-13
 -1      1552 2.04488E+01 6.83794E-03-1.72910E-03-1.13167E-01-1.48258E-13-2.72820E-14
 -1      1553 2.07557E+01 3.49424E-03-9.52974E-04-8.20508E-02 9.68782E-14-1.24236E-13
 -1      1554 2.06492E+01 6.57320E-03 1.34006E-04-7.72787E-02 1.87975E-14-7.91919E-14
 -1      1555 2.06078E+01 7.47087E-03-2.03873E-03-1.41407E-01-8.55122E-14-4.17064E-14
 -1      1556 2.09913E+01 3.11165E-03-9.42683E-04-9.73094E-02-2.14173E-15-3.42829E-13
 -1      1557 2.08630E+01 6.63409E-03 6.24308E-05-9.22909E-02 1.20716E-13-1.74993E-13
 -1      1558 2.07998E+01 7.41775E-03-2.24917E-03-1.70646E-01 1.96004E-13-1.27880E-13
 -1      1559 2.12608E+01 1.94179E-03-7.26931E-04-1.09715E-01-1.13009E-13-9.09238E-14
 -1      1560 2.11132E+01 5.66389E-03-3.88665E-05-1.05107E-01-1.27082E-13-3.23856E-13
 -1      1561 2.10229E+01 6.14102E-03-2.23480E-03-1.97132E-01-1.24325E-13-6.85116E-14
 -1      1562 2.15506E+01-4.10666E-04-1.48812E-04-1.15149E-01 7.23011E-15 7.13457E-14
 -1      1563 2.13913E+01 3.02319E-03-1.45389E-04-1.12069E-01-4.91877E-14-5.45198E-14
 -1      1564 2.12690E+01 2.89576E-03-1.80557E-03-2.14695E-01-1.32324E-13-1.76176E-13
 -1      1565 2.18339E+01-4.37420E-03 1.00256E-03-1.07652E-01-3.02315E-14 1.45655E-13
 -1      1566 2.16778E+01-2.06988E-03-1.97188E-04-1.07821E-01-1.83867E-14 1.18766E-13
 -1      1567 2.15217E+01-3.24339E-03-7.02393E-04-2.14083E-01-4.81489E-14-2.02546E-14
 -1      1568 2.20667E+01-1.02612E-02 2.95138E-03-7.94817E-02-2.60295E-15 1.35347E-13
 -1      1569 2.19390E+01-1.03848E-02-8.86019E-05-8.52641E-02 3.50531E-14 2.58883E-13
 -1      1570 2.17520E+01-1.32214E-02 1.37536E-03-1.82704E-01-8.46194E-14 1.04123E-13
 -1      1571 2.21848E+01-1.79645E-02 5.81031E-03-2.20514E-02 1.18828E-13-8.23447E-14
 -1      1572 2.21223E+01-2.23025E-02 3.19147E-04-3.62599E-02 1.03031E-13 4.42623E-14
 -1      1573 2.19165E+01-2.75878E-02 4.67441E-03-1.05463E-01 1.73599E-13-5.98150E-14
 -1      1574 2.21060E+01-2.64794E-02 9.32979E-03 7.15016E-02 1.05605E-13-4.50350E-13
 -1      1575 2.21565E+01-3.71365E-02 1.12747E-03 4.63015E-02 9.85063E-14-2.96924E-13
 -1      1576 2.19564E+01-4.56902E-02 9.18745E-03 3.21647E-02 2.47226E-13-3.13402E-13
 -1      1577 2.17410E+01-3.33830E-02 1.25552E-02 2.01501E-01 2.69056E-15-3.67224E-13
 -1      1578 2.19565E+01-5.22157E-02 2.24576E-03 1.64411E-01-2.48196E-14-3.92154E-13
 -1      1579 2.18026E+01-6.45130E-02 1.43295E-02 2.37583E-01 1.33574E-16-2.69031E-13
 -1      1580 2.10193E+01-3.47320E-02 1.36287E-02 3.55068E-01 8.95915E-14-2.88838E-13
 -1      1581 2.14407E+01-6.22085E-02 3.20248E-03 3.08944E-01 7.35280E-14-2.31450E-13
 -1      1582 2.13889E+01-7.75606E-02 1.86682E-02 5.00676E-01 2.49852E-14-2.10285E-13
 -1      1583 1.99285E+01-2.61468E-02 1.01305E-02 5.00591E-01-7.52215E-14-1.81216E-13
 -1      1584 2.05623E+01-5.97537E-02 3.04908E-03 4.53907E-01-4.63683E-14-3.05912E-13
 -1      1585 2.06771E+01-7.50606E-02 2.00105E-02 7.82314E-01-2.87877E-15 1.85598E-14
 -1      1586 1.85579E+01-5.44709E-03 4.05712E-04 5.89329E-01-1.54018E-13 4.17721E-15
 -1      1587 1.93503E+01-3.84379E-02 6.44126E-04 5.55992E-01-1.06631E-14-1.21667E-13
 -1      1588 1.96896E+01-4.74108E-02 1.60810E-02 1.00966E+00-9.80865E-14 2.84993E-13
 -1      1589 1.71198E+01 2.40297E-02-1.42678E-02 5.70121E-01 8.14977E-14 1.97065E-14
 -1      1590 1.79450E+01 2.09959E-03-4.40194E-03 5.65402E-01-3.92980E-14-2.47510E-14
 -1      1591 1.85385E+01 8.22768E-03 6.23719E-03 1.08964E+00-3.85174E-15 2.49811E-13
 -1      1592 1.59177E+01 5.23452E-02-2.88242E-02 4.16811E-01-1.56212E-13 2.12920E-14
 -1      1593 1.65978E+01 5.19439E-02-1.06833E-02 4.49363E-01-3.01738E-14 2.60070E-14
 -1      1594 1.74268E+01 8.04259E-02-7.15650E-03 9.46603E-01-2.07698E-14 1.72844E-13
 -1      1595 1.52509E+01 6.77670E-02-3.64546E-02 1.52217E-01 5.80430E-14 1.40971E-13
 -1      1596 1.56130E+01 9.33221E-02-1.52169E-02 2.17436E-01-1.18273E-14 1.51403E-13
 -1      1597 1.66009E+01 1.43413E-01-1.93315E-02 5.71655E-01-7.26155E-14 1.88275E-13
 -1      1598 1.52948E+01 6.40565E-02-3.33175E-02-1.54168E-01 6.15280E-14 4.83225E-14
 -1      1599 1.52393E+01 1.10322E-01-1.53195E-02-7.34535E-02 7.52245E-14 7.74185E-14
 -1      1600 1.62621E+01 1.70040E-01-2.60569E-02 4.61699E-02 1.28180E-13 1.77181E-13
 -1      1601 1.60275E+01 4.36035E-02-2.05556E-02-4.17143E-01 9.36352E-14-1.58804E-13
 -1      1602 1.55694E+01 9.78578E-02-1.06955E-02-3.42354E-01 1.31187E-13 1.48284E-14
 -1      1603 1.64823E+01 1.48680E-01-2.60440E-02-4.86630E-01 1.68084E-13 1.60099E-13
 -1      1604 1.72392E+01 1.17007E-02-1.21195E-03-5.68500E-01-1.65425E-14-3.20223E-13
 -1      1605 1.65027E+01 6.03400E-02-2.71150E-03-5.17633E-01 6.14396E-15-2.88283E-13
 -1      1606 1.71765E+01 8.72047E-02-1.97432E-02-8.82637E-01 1.00651E-13 6.80324E-14
 -1      1607 1.85822E+01-3.08539E-02 2.26931E-02-5.58167E-01 1.54125E-13-6.08104E-13
 -1      1608 1.77799E+01 1.49311E-04 8.40575E-03-5.47739E-01 6.89305E-14-4.65725E-13
 -1      1609 1.81390E+01-3.11134E-03-5.91919E-03-1.03269E+00 1.22566E-13-1.97550E-13
 -1      1610 1.96105E+01-9.94479E-02 2.75122E-02-3.46714E-01-5.82659E-14-7.41532E-13
 -1      1611 1.90395E+01-8.75973E-02 2.08970E-02-3.87928E-01 1.50375E-14-5.84824E-13
 -1      1612 1.91072E+01-1.39371E-01 1.43807E-02-8.54185E-01 8.25815E-14-3.08446E-13
 -1      1613 1.98846E+01-1.54800E-01 4.58952E-02-1.06141E-01-3.94476E-13-3.76784E-13
 -1      1614 1.99287E+01-1.28917E+00 2.25265E-02-5.70146E-01-5.81313E-13 7.53512E-14
 -1      1615 1.98776E+01-6.37440E-01 1.95105E-02-4.94657E-01-6.14980E-13 9.59363E-14
 -1      1616 2.00206E+01-2.62275E+00 9.57122E-03-6.94098E-01 3.78864E-14 2.49378E-13
 -1      1617 1.99605E+01-1.75846E+00 1.75939E-02-6.84680E-01-4.35554E-13 3.15411E-13
 -1      1618 1.98760E+01-1.24892E+00 1.32637E-02-1.16945E+00-2.07293E-13 3.67819E-13
 -1      1619 2.01276E+01-3.75914E+00-1.45157E-03-5.60143E-01-2.30788E-13-4.01927E-13
 -1      1620 2.00557E+01-3.05830E+00 6.72847E-03-6.03728E-01 2.07417E-13-3.66148E-13
 -1      1621 2.00690E+01-2.13986E+00-5.85630E-03-1.20275E+00 6.05072E-15 2.07825E-13
 -1      1622 2.02752E+01-4.09729E+00-2.53682E-02-7.39227E-02 2.79637E-14 2.92041E-13
 -1      1623 2.01889E+01-3.98784E+00-1.56100E-02-2.00517E-01-3.05603E-13 1.10932E-13
 -1      1624 2.02933E+01-2.81743E+00-3.54945E-02-6.86437E-01 1.96287E-13-2.42015E-13
 -1      1625 2.04310E+01-2.78104E+00-5.99652E-02 8.77101E-01 7.17260E-13 3.49956E-13
 -1      1626 2.03676E+01-3.84159E+00-5.69908E-02 6.37177E-01 6.02894E-14 5.36890E-13
 -1      1627 2.05943E+01-2.85273E+00-7.75782E-02 5.66442E-01 7.57883E-14 6.33611E-13
 -1      1628 2.04541E+01 8.34368E-01-6.81312E-02 2.17965E+00 6.44901E-13-1.77393E-13
 -1      1629 2.05060E+01-1.77902E+00-9.57708E-02 1.87294E+00 7.44599E-13-6.82510E-14
 -1      1630 2.08466E+01-1.71313E+00-1.15983E-01 2.60433E+00 1.22648E-13 2.71352E-13
 -1      1631 2.01368E+01 6.56956E+00 8.07100E-03 3.22612E+00 9.07496E-13 1.89994E-13
 -1      1632 2.03684E+01 2.70241E+00-7.55568E-02 3.04996E+00 7.99610E-13-2.43685E-14
 -1      1633 2.07335E+01 1.01949E+00-9.52653E-02 4.90263E+00 5.45050E-13-1.11116E-13
 -1      1634 1.95468E+01 1.19364E+01 1.30606E-01 3.08267E+00 7.21645E-13-1.33372E-13
 -1      1635 1.98677E+01 8.61438E+00 4.92516E-02 3.23229E+00 5.59552E-13-1.23929E-14
 -1      1636 1.99641E+01 4.94898E+00 3.57641E-02 6.02032E+00 4.17097E-13 3.72202E-14
 -1      1637 1.90040E+01 1.54127E+01 2.37347E-01 1.32781E+00 2.16632E-13-4.38760E-13
 -1      1638 1.92536E+01 1.37328E+01 2.17676E-01 1.85576E+00 6.36408E-13-1.85574E-13
 -1      1639 1.88883E+01 8.85185E+00 2.32151E-01 4.64149E+00-4.34652E-14-3.41505E-13
 -1      1640 1.90586E+01 1.49114E+01 2.11261E-01-9.58326E-01-1.15852E-13-1.81688E-13
 -1      1641 1.90074E+01 1.57249E+01 2.64803E-01-4.62162E-01 2.41703E-13-3.67817E-13
 -1      1642 1.82961E+01 1.09451E+01 3.60992E-01 8.95312E-01 9.20271E-14-6.62609E-13
 -1      1643 1.96659E+01 1.12257E+01 1.00719E-01-2.63422E+00-7.66887E-14-2.46470E-14
 -1      1644 1.93816E+01 1.38759E+01 1.79977E-01-2.41229E+00-1.29174E-13 3.11209E-13
 -1      1645 1.85869E+01 1.02201E+01 2.83138E-01-3.04257E+00-1.04916E-13-8.61811E-14
 -1      1646 2.03392E+01 5.54969E+00-5.50775E-02-2.80864E+00-2.10665E-14-1.12740E-14
 -1      1647 2.00387E+01 9.11813E+00 2.50911E-02-2.96391E+00-3.05589E-14-4.75522E-14
 -1      1648 1.97050E+01 6.98834E+00 7.89079E-02-5.21298E+00-1.84693E-13 4.00791E-14
 -1      1649 2.05200E+01 1.46223E+00-9.95860E-02-1.71126E+00 1.54987E-13 9.65339E-14
 -1      1650 2.04337E+01 3.82469E+00-7.98988E-02-2.02796E+00 1.21764E-13 1.89640E-14
 -1      1651 2.06526E+01 3.16474E+00-9.15501E-02-4.51881E+00 1.24276E-14 2.63565E-14
 -1      1652 2.03978E+01-2.07445E-01-2.79508E-02-4.89295E-01-3.28789E-13-2.46383E-13
 -1      1653 2.03981E+01 5.62827E-01-8.22863E-02-6.97985E-01 4.93078E-14-2.97526E-13
 -1      1654 2.08618E+01 6.65089E-01-1.19187E-01-2.27927E+00 1.32498E-14-1.97425E-13
 -1      1655 2.02486E+01-2.97742E-01 2.50566E-02 1.69384E-01 2.80262E-14 4.16618E-13
 -1      1656 2.03453E+01-4.37741E-01-2.70365E-02 6.68793E-02-2.60472E-13 2.68448E-13
 -1      1657 2.06772E+01-2.70729E-01-8.23387E-02-4.62211E-01-2.17569E-14 5.09974E-14
 -1      1658 2.01936E+01-2.93982E-01-3.04240E-02 4.43190E-01-4.56440E-14 2.88887E-13
 -1      1659-5.87568E-01-1.93282E+01-2.47261E+00-8.00247E-01 5.68989E-13 4.73233E-13
 -1      1660-6.28865E-01-2.24490E+01-2.82586E+00 7.52133E-01-2.33147E-15 2.95375E-13
 -1      1661 2.17210E+00-9.83741E+00-1.50672E+00 1.62587E+00 5.43565E-13 7.41074E-14
 -1      1662 1.12793E+00-1.71004E+01-2.37865E+00 6.74160E-01 6.47926E-13 1.07529E-13
 -1      1663 1.02853E+01 1.52091E-01-3.44385E-01 7.33004E+00-7.32747E-14-3.82583E-13
 -1      1664 6.19017E+00-7.14161E+00-1.42877E+00 3.56146E+00 2.18936E-13-1.42775E-13
 -1      1665 2.24206E+01 7.02454E+00 6.53592E-01 1.29323E+01-4.88498E-13-7.44071E-13
 -1      1666 1.47878E+01 2.87738E+00-4.09807E-01 8.54573E+00-1.54543E-13-7.31193E-13
 -1      1667 3.74629E+01 9.23154E+00 1.44155E+00 1.63621E+01-3.21965E-13-7.06768E-13
 -1      1668 2.74019E+01 9.10024E+00 5.54988E-01 1.41270E+01-4.75175E-13-5.88862E-13
 -1      1669 5.20584E+01 7.02151E+00 1.86570E+00 1.38413E+01-3.53120E-13-8.77076E-13
 -1      1670 4.28742E+01 9.07069E+00 1.28006E+00 1.55392E+01-2.45304E-13-7.48734E-13
 -1      1671 6.11047E+01 4.58757E+00 2.03173E+00 6.82540E+00 2.58960E-14-1.12083E-12
 -1      1672 5.60733E+01 6.53682E+00 1.80565E+00 1.20313E+01-1.55154E-13-9.56013E-13
 -1      1673 5.97283E+01 4.36793E+00 1.68314E+00-2.76016E+00 3.12306E-13-1.66411E-12
 -1      1674 6.11485E+01 4.51198E+00 1.91138E+00 3.71040E+00 2.45137E-13-1.31023E-12
 -1      1675 4.98238E+01 5.86255E+00 1.20341E+00-9.52990E+00 6.61485E-13-1.75260E-12
 -1      1676 5.68590E+01 4.37158E+00 1.64392E+00-5.13123E+00 3.98070E-13-1.72629E-12
 -1      1677 3.63070E+01 7.28921E+00 7.02944E-01-1.29846E+01 8.54483E-13-1.88249E-12
 -1      1678 4.61624E+01 5.88669E+00 1.40652E+00-1.23263E+01 8.44103E-13-1.90292E-12
 -1      1679 2.23083E+01 4.40101E+00-6.12276E-02-9.54520E+00 1.00364E-12-1.32538E-12
 -1      1680 3.12682E+01 5.71641E+00 7.77649E-01-1.21062E+01 8.25562E-13-1.63114E-12
 -1      1681 1.08337E+01-1.74608E-01-7.42327E-01-5.28607E+00 5.31797E-13-8.46878E-13
 -1      1682 1.73042E+01 4.05507E+00 1.34308E-01-9.32175E+00 8.52429E-13-1.25455E-12
 -1      1683 2.55229E+01-8.01534E-01 1.63652E-01-7.19403E+00 5.45120E-13-1.18383E-12
 -1      1684 2.72990E+00-9.30837E+00-1.51829E+00-6.90384E-01 1.15241E-13-2.74281E-13
 -1      1685 5.22048E+00-2.77480E+00-7.45306E-01-3.42246E+00 3.15081E-13-4.59410E-13
 -1      1686 1.45964E-01-1.69505E+01-1.88167E+00 4.64337E-01 1.42109E-13-9.98784E-14
 -1      1687 5.72372E-01-1.17629E+01-1.40677E+00 3.94477E-01 8.07132E-14-3.41949E-14
 -1      1688-8.62041E-01-2.06078E+01-2.00371E+00-6.94858E-01-4.26742E-13-2.25431E-13
 -1      1689-8.54403E-01-1.84998E+01-1.83576E+00 1.02630E+00-9.53682E-14-9.96148E-14
 -1      1690-1.00042E+00-1.81009E+01-1.78447E+00-1.87084E+00-1.17528E-12-5.02320E-13
 -1      1691-8.59878E-01-2.00929E+01-1.91893E+00-2.96038E-01-6.20712E-13-4.90719E-13
 -1      1692 2.93039E-01-1.20149E+01-1.49691E+00-1.30342E+00-1.21902E-12-5.53779E-13
 -1      1693-8.56609E-02-1.72205E+01-1.95164E+00-1.49943E+00-1.23912E-12-3.34444E-13
 -1      1694 6.37835E+00-3.74666E+00-7.92042E-01 3.12259E+00-1.06071E-12-7.26419E-13
 -1      1695 3.33577E+00-9.85370E+00-1.54518E+00 2.60751E-01-1.13420E-12-5.46008E-13
 -1      1696 1.75499E+01 2.83542E+00 1.00085E-02 8.49515E+00-6.95888E-13-3.88356E-13
 -1      1697 1.05299E+01-1.43758E+00-9.55543E-01 4.36263E+00-1.00142E-12-5.69877E-13
 -1      1698 3.29782E+01 5.39972E+00 8.46936E-01 1.20360E+01-2.20046E-13-5.14255E-13
 -1      1699 2.30233E+01 4.48554E+00-1.18225E-01 9.52877E+00-4.70624E-13-4.51417E-13
 -1      1700 4.92765E+01 4.58159E+00 1.59604E+00 9.93765E+00-2.75280E-13-6.70575E-14
 -1      1701 3.89483E+01 5.66322E+00 7.59459E-01 1.09625E+01-5.31797E-14-3.59712E-13
 -1      1702 6.12116E+01 3.85345E+00 2.23876E+00 3.66167E+00 1.86628E-13-3.36731E-13
 -1      1703 5.41188E+01 5.02847E+00 1.63881E+00 8.48255E+00-6.46150E-14-1.72973E-13
 -1      1704 6.41161E+01 4.41099E+00 2.42147E+00-5.25206E+00 3.58047E-14-3.94518E-13
 -1      1705 6.34985E+01 3.96590E+00 2.27304E+00 9.88878E-01 2.31537E-13-2.10332E-13
 -1      1706 5.70287E+01 6.75794E+00 2.07656E+00-1.26945E+01-1.22208E-13-2.77112E-13
 -1      1707 6.27994E+01 4.80389E+00 2.43591E+00-7.90814E+00 1.42664E-14-3.84248E-13
 -1      1708 4.26666E+01 8.73743E+00 1.30670E+00-1.53167E+01-3.64042E-13 1.76081E-13
 -1      1709 5.27491E+01 6.95093E+00 2.07807E+00-1.41405E+01-2.33230E-13-2.26041E-13
 -1      1710 2.59062E+01 7.84721E+00 3.48754E-01-1.30810E+01-6.01741E-13 5.98188E-13
 -1      1711 3.68531E+01 8.65269E+00 1.44980E+00-1.60474E+01-3.56826E-13 3.83693E-13
 -1      1712 1.26820E+01 1.31774E+00-7.24890E-01-7.19938E+00-3.79696E-13 4.44977E-13
 -1      1713 2.01140E+01 6.21031E+00 4.57359E-01-1.19394E+01-5.19362E-13 5.90639E-13
 -1      1714 5.05640E+00-9.29295E+00-1.72697E+00-2.30312E+00-7.92699E-14 2.95930E-13
 -1      1715 8.67853E+00-1.77958E+00-6.53613E-01-5.82800E+00-1.89848E-13 6.44707E-13
 -1      1716 7.51156E-01-1.84224E+01-2.52765E+00-1.04904E-02-4.03677E-13-8.57231E-14
 -1      1717 1.52438E+00-1.18189E+01-1.76750E+00-5.93585E-01-2.78666E-13-6.81677E-14
 -1      1718-7.13240E-01-2.26040E+01-2.83535E+00-2.20726E-01-2.26485E-14 2.07334E-13
 -1      1719-7.73604E-01-2.02716E+01-2.59772E+00 1.42621E+00-2.60902E-13 2.21684E-13
 -1      1720 2.95231E+01 2.40845E+00 5.03191E-01 1.01535E+01-4.67293E-13-7.30749E-13
 -1      1721 1.90440E+01-3.34339E+00-1.92718E-01 9.38111E+00-2.45803E-13-8.95894E-13
 -1      1722 1.98340E+01-3.11466E-01 4.46237E-02-3.67523E-01-4.69375E-13-7.83265E-14
 -1      1723 1.96571E+01-4.95403E-01 2.43011E-02-8.33579E-01-2.87331E-13-1.21671E-13
 -1      1724 1.17428E+00-1.28658E+01-1.67924E+00 4.06241E+00 3.16858E-13 3.97793E-13
 -1      1725 8.82554E+00-8.31605E+00-8.85602E-01 7.62811E+00 8.40439E-14-4.80095E-13
 -1      1726-1.58587E+00-1.49273E+01-2.03817E+00 4.97837E-01 1.77358E-13 3.00926E-13
 -1      1727 4.02785E+01 6.56357E+00 1.19251E+00 9.82878E+00-3.62016E-13-8.13904E-13
 -1      1728 4.87747E+01 8.31644E+00 1.57854E+00 7.30317E+00-9.57845E-14-8.46767E-13
 -1      1729 5.25352E+01 8.85098E+00 1.69336E+00 3.49362E+00 2.79110E-13-9.41885E-13
 -1      1730 4.96641E+01 8.24537E+00 1.34136E+00-5.18444E-01 4.75231E-13-9.68836E-13
 -1      1731 4.44513E+01 6.34820E+00 1.16022E+00-4.78341E+00 6.10276E-13-1.39821E-12
 -1      1732 3.52423E+01 2.88382E+00 6.14432E-01-6.70918E+00 6.13398E-13-1.37312E-12
 -1      1733 4.50887E+00-9.81669E+00-1.01169E+00-4.12171E+00 1.60982E-14-2.09506E-13
 -1      1734-2.58947E-01-1.34888E+01-1.34905E+00-2.22236E+00-9.18710E-14-2.64511E-13
 -1      1735-1.88836E+00-1.43430E+01-1.39366E+00-4.25487E-01-5.05332E-13-6.04516E-13
 -1      1736-2.26286E-01-1.33691E+01-1.33289E+00 1.35167E+00-6.03739E-13-3.95517E-13
 -1      1737 5.32402E+00-1.04442E+01-1.01504E+00 3.56517E+00-7.36966E-13-3.28605E-13
 -1      1738 1.43611E+01-6.30620E+00-5.52173E-01 5.34107E+00-5.61884E-13-1.37834E-13
 -1      1739 2.53642E+01-1.45336E+00 6.15535E-02 6.30390E+00-4.47531E-13-5.05151E-14
 -1      1740 3.72986E+01 2.53056E+00 7.93794E-01 5.46504E+00-1.62981E-13-8.34888E-14
 -1      1741 4.69180E+01 5.65024E+00 1.34172E+00 2.70529E+00-9.96703E-14-1.47993E-13
 -1      1742 5.33532E+01 8.00150E+00 1.86483E+00-3.77220E-01 1.20792E-13-8.37108E-14
 -1      1743 5.45587E+01 8.57159E+00 2.01765E+00-4.15630E+00-1.01696E-13 1.47160E-13
 -1      1744 4.94778E+01 7.80894E+00 1.70962E+00-7.24355E+00-2.65593E-13-2.00950E-13
 -1      1745 4.04283E+01 5.41189E+00 1.22433E+00-9.31449E+00-1.82521E-13-1.41442E-13
 -1      1746 2.85932E+01 1.16831E+00 4.27129E-01-9.75233E+00-1.63203E-13 1.76525E-13
 -1      1747 1.71049E+01-4.74233E+00-4.64088E-01-8.46023E+00 1.59317E-13 3.29181E-13
 -1      1748 7.51050E+00-9.73485E+00-1.14872E+00-6.51130E+00-2.25264E-13 2.41494E-13
 -1      1749 6.10693E-01-1.35420E+01-1.79860E+00-3.08421E+00-1.97398E-13 1.05471E-15
 -1      1750 2.28612E+01 1.98491E+00-2.35597E-02-2.72203E+00-1.88120E-13 6.80567E-13
 -1      1751 1.39608E+01-4.71077E+00-4.15310E-01-6.48544E+00 3.49498E-13-9.63785E-13
 -1      1752 1.98259E+01 3.71371E+00-3.54733E-02-2.15201E+00-2.22076E-13-2.69802E-13
 -1      1753 2.00590E+01 3.56274E+00-4.02422E-02-2.44428E+00-2.61565E-13-1.89748E-13
 -1      1754 2.03648E+01 3.18156E+00-4.57886E-02-2.58416E+00-2.65657E-13-9.22595E-14
 -1      1755 2.05852E+01 2.80976E+00-1.42520E-01-2.85251E+00-2.88831E-13 2.82552E-14
 -1      1756 2.04253E+01 2.69288E+00-4.24189E-03-2.22357E+00-2.77015E-13-1.29192E-13
 -1      1757 1.93545E+01 4.18902E+00-2.00386E-02-1.26979E+00-1.21381E-13-4.00964E-13
 -1      1758 1.94287E+01 4.14946E+00-1.68728E-02-1.49417E+00-1.46848E-13-3.91943E-13
 -1      1759 1.92572E+01 4.29500E+00-1.67431E-02-8.59057E-01-7.87790E-14-4.16962E-13
 -1      1760 1.93002E+01 4.27105E+00-1.42225E-02-1.06972E+00-9.90007E-14-4.16566E-13
 -1      1761 1.95263E+01 3.78354E+00-8.92878E-03-1.11876E+00-1.20362E-13-4.01422E-13
 -1      1762 1.92053E+01 4.35541E+00-1.47846E-02-4.66487E-01-1.89013E-14-3.97193E-13
 -1      1763 1.92274E+01 4.34257E+00-1.32935E-02-6.66672E-01-4.72770E-14-4.03665E-13
 -1      1764 1.94283E+01 3.90377E+00-9.14102E-03-7.32697E-01-6.26038E-14-3.99677E-13
 -1      1765 1.91858E+01 4.38100E+00-1.36615E-02-8.35718E-02 3.50227E-14-3.88894E-13
 -1      1766 1.91923E+01 4.37709E+00-1.32076E-02-2.78907E-01 1.07543E-14-3.97089E-13
 -1      1767 1.93778E+01 3.96818E+00-9.14192E-03-3.58070E-01-3.27502E-15-3.82324E-13
 -1      1768 1.91939E+01 4.37570E+00-1.31656E-02 2.97954E-01 8.13270E-14-3.67812E-13
 -1      1769 1.91863E+01 4.38016E+00-1.37479E-02 1.02454E-01 6.17432E-14-3.80416E-13
 -1      1770 1.93630E+01 3.98757E+00-9.14100E-03 1.05485E-02 4.96841E-14-3.68419E-13
 -1      1771 1.92315E+01 4.33851E+00-1.33253E-02 6.86473E-01 1.26007E-13-3.67600E-13
 -1      1772 1.92081E+01 4.35219E+00-1.49140E-02 4.85769E-01 1.08356E-13-3.71430E-13
 -1      1773 1.93805E+01 3.96485E+00-9.18611E-03 3.79368E-01 9.29898E-14-3.58347E-13
 -1      1774 1.93054E+01 4.26510E+00-1.44051E-02 1.08393E+00 1.63198E-13-3.32191E-13
 -1      1775 1.92618E+01 4.28956E+00-1.69726E-02 8.76048E-01 1.44733E-13-3.59749E-13
 -1      1776 1.94336E+01 3.89734E+00-9.19250E-03 7.51316E-01 1.48362E-13-3.49918E-13
 -1      1777 1.94376E+01 4.13785E+00-1.73986E-02 1.51378E+00 2.30742E-13-2.60673E-13
 -1      1778 1.93608E+01 4.18042E+00-2.05059E-02 1.28430E+00 1.93250E-13-2.95626E-13
 -1      1779 1.95338E+01 3.77339E+00-9.23596E-03 1.13485E+00 1.95874E-13-3.02709E-13
 -1      1780 1.96675E+01 3.92125E+00-2.51912E-02 1.97879E+00 2.81565E-13-1.83610E-13
 -1      1781 1.95343E+01 3.99802E+00-2.69068E-02 1.72148E+00 2.54404E-13-2.32987E-13
 -1      1782 1.97078E+01 3.56622E+00-8.70385E-03 1.53444E+00 2.66664E-13-2.29825E-13
 -1      1783 2.00769E+01 3.52287E+00-4.51785E-02 2.47122E+00 3.05625E-13-1.47521E-14
 -1      1784 1.98365E+01 3.68334E+00-3.97258E-02 2.18211E+00 2.89132E-13-1.16487E-13
 -1      1785 2.00050E+01 3.22303E+00-5.26562E-03 1.93372E+00 3.01611E-13-1.34946E-13
 -1      1786 2.09228E+01 2.68181E+00-5.76410E-02 2.85702E+00 2.90714E-13 2.93383E-13
 -1      1787 2.04151E+01 3.09697E+00-5.04303E-02 2.61517E+00 2.89698E-13 1.11321E-13
 -1      1788 2.05188E+01 2.61000E+00 3.18868E-03 2.24370E+00 3.13488E-13 5.72181E-14
 -1      1789 2.17334E+01 1.21295E+00-1.22088E-01 2.32925E+00 2.51923E-13 6.33202E-13
 -1      1790 2.12768E+01 2.26303E+00 1.16504E-04 2.73975E+00 2.72213E-13 4.14405E-13
 -1      1791 2.09395E+01 1.68503E+00-2.29504E-02 2.13942E+00 2.97741E-13 2.94060E-13
 -1      1792 2.09550E+01 7.78667E-01-6.24380E-02 1.52355E+00 2.47642E-13 5.58990E-13
 -1      1793 2.17992E+01 2.45819E+00 9.09029E-02-3.04754E+00-2.50603E-13 2.61582E-13
 -1      1794 2.01046E+01 2.97960E-01-8.90786E-03 6.56387E-01 1.88849E-13 4.45404E-13
 -1      1795 2.06564E+01 4.40418E-01-1.24618E-02 1.03344E+00 2.00562E-13 5.15222E-13
 -1      1796 2.07473E+01 8.45124E-01 2.24533E-03 1.41440E+00 2.40932E-13 3.50759E-13
 -1      1797 1.36399E+01-7.01061E+00-3.63422E-01-6.40505E+00-4.41869E-14-8.32362E-13
 -1      1798 1.96685E+01-4.68382E+00-1.17832E-03-7.29631E+00 9.25926E-14-9.37472E-13
 -1      1799 2.15095E+01 1.74231E+00 7.94316E-02-2.33643E+00-2.60850E-13 1.64181E-13
 -1      1800 2.05236E+01 5.00606E-01 3.23905E-02-9.20979E-01-1.99118E-13 1.31254E-13
 -1      1801 2.00921E+01 3.52148E-01 7.57053E-03-6.29096E-01-1.91607E-13 7.66019E-14
 -1      1802 1.98978E+01 2.57489E-01 2.74114E-02-3.90477E-01-1.75932E-13 9.01024E-14
 -1      1803 1.97072E+01 1.78090E-01 1.04240E-02-2.52616E-01-1.33473E-13 5.84732E-14
 -1      1804 2.02016E+01 4.83562E-01-5.98106E-03-7.21840E-01-2.03123E-13-2.22665E-14
 -1      1805 1.95853E+01 1.32680E-01 1.66527E-02-1.19158E-01-9.96018E-14 5.03399E-14
 -1      1806 1.95074E+01 9.30210E-02 6.96408E-03-4.83929E-02-8.11482E-14 2.57554E-14
 -1      1807 1.98760E+01 2.43829E-01-5.78427E-03-2.94646E-01-1.40630E-13-2.87491E-14
 -1      1808 1.94426E+01 6.83511E-02 8.67442E-03 2.50885E-02-9.17684E-14 1.79175E-14
 -1      1809 1.94283E+01 4.66628E-02 4.10564E-03 6.12301E-02-8.38390E-14-2.60974E-14
 -1      1810 1.96936E+01 1.25166E-01-4.63631E-03-5.80066E-02-1.00015E-13-7.43643E-14
 -1      1811 1.94023E+01 3.23126E-02 4.22692E-03 9.98854E-02-9.00500E-14-4.08341E-14
 -1      1812 1.94222E+01 1.98493E-02 2.42387E-03 1.16603E-01-7.95034E-14-7.33681E-14
 -1      1813 1.96072E+01 6.08347E-02-3.45981E-03 7.14799E-02-1.04790E-13-1.04296E-13
 -1      1814 1.94205E+01 1.11806E-02 1.84499E-03 1.34424E-01-8.93968E-14-7.52679E-14
 -1      1815 1.94576E+01 3.96131E-03 1.43711E-03 1.39755E-01-7.92709E-14-9.07875E-14
 -1      1816 1.95830E+01 2.38876E-02-2.33019E-03 1.37708E-01-1.05280E-13-1.19497E-13
 -1      1817 1.94701E+01-1.27189E-03 5.41948E-04 1.44981E-01-7.11534E-14-9.31414E-14
 -1      1818 1.95143E+01-5.30190E-03 8.19291E-04 1.43623E-01-4.61981E-14-7.42454E-14
 -1      1819 1.95965E+01 2.24592E-03-1.42662E-03 1.65724E-01-8.02593E-14-9.55324E-14
 -1      1820 1.95341E+01-8.33844E-03-1.82303E-04 1.41369E-01-6.02489E-14-5.70856E-14
 -1      1821 1.95793E+01-1.03581E-02 4.17418E-04 1.36246E-01-2.86145E-14-4.48494E-14
 -1      1822 1.96309E+01-1.01485E-02-7.77628E-04 1.70657E-01-3.04565E-14-7.93549E-14
 -1      1823 1.96020E+01-1.19542E-02-5.72071E-04 1.29799E-01-5.45273E-14-9.78741E-14
 -1      1824 1.96447E+01-1.26938E-02 1.56942E-04 1.22791E-01-5.39819E-14-1.32817E-13
 -1      1825 1.96752E+01-1.67072E-02-3.41269E-04 1.62062E-01-7.38444E-14-1.35537E-13
 -1      1826 1.96677E+01-1.33425E-02-7.56871E-04 1.14292E-01-1.57988E-14-1.74537E-13
 -1      1827 1.97061E+01-1.32770E-02-5.06314E-06 1.06614E-01 1.90663E-14-1.89445E-13
 -1      1828 1.97223E+01-1.95196E-02-6.32154E-05 1.46137E-01-5.84569E-14-1.66091E-13
 -1      1829 1.97277E+01-1.33110E-02-8.13280E-04 9.74554E-02 6.87674E-15-1.80912E-13
 -1      1830 1.97609E+01-1.27556E-02-9.70442E-05 8.98779E-02-3.71012E-14-1.70796E-13
 -1      1831 1.97678E+01-1.99398E-02 1.02102E-04 1.26932E-01 5.53876E-15-1.31458E-13
 -1      1832 1.97803E+01-1.24016E-02-7.90114E-04 8.09501E-02-3.86074E-14-1.47003E-13
 -1      1833 1.98083E+01-1.15642E-02-1.38660E-04 7.39506E-02-1.68666E-14-1.34056E-13
 -1      1834 1.98095E+01-1.88688E-02 1.88692E-04 1.07070E-01-2.57515E-14-1.24505E-13
 -1      1835 1.98251E+01-1.09738E-02-7.19453E-04 6.58053E-02-1.05818E-14-1.26123E-13
 -1      1836 1.98482E+01-9.98600E-03-1.43230E-04 5.96657E-02-7.34070E-15-9.73836E-14
 -1      1837 1.98462E+01-1.69049E-02 2.20902E-04 8.82193E-02-1.17945E-14-8.21166E-14
 -1      1838 1.98625E+01-9.25541E-03-6.22313E-04 5.26354E-02-4.54591E-14-1.64900E-13
 -1      1839 1.98813E+01-8.19266E-03-1.19178E-04 4.75161E-02-2.13489E-14-1.39585E-13
 -1      1840 1.98778E+01-1.44324E-02 2.15658E-04 7.14093E-02-6.19703E-14-1.28310E-13
 -1      1841 1.98935E+01-7.37631E-03-5.11997E-04 4.18002E-02-4.84414E-14-1.59518E-13
 -1      1842 1.99088E+01-6.27153E-03-7.09918E-05 3.77949E-02-6.83386E-14-1.64873E-13
 -1      1843 1.99045E+01-1.16776E-02 1.84310E-04 5.72655E-02-9.49719E-14-1.84600E-13
 -1      1844 1.99192E+01-5.39148E-03-3.96323E-04 3.35251E-02-7.38754E-14-1.70258E-13
 -1      1845 1.99318E+01-4.24451E-03 1.15659E-07 3.07027E-02-7.98405E-14-2.07566E-13
 -1      1846 1.99272E+01-8.74716E-03 1.34000E-04 4.61814E-02-8.70926E-14-1.38310E-13
 -1      1847 1.99411E+01-3.29720E-03-2.79176E-04 2.79940E-02-7.83467E-14-2.25209E-13
 -1      1848 1.99521E+01-2.08119E-03 9.57796E-05 2.64322E-02-9.92575E-14-2.27355E-13
 -1      1849 1.99469E+01-5.65449E-03 6.86601E-05 3.84503E-02-9.08770E-14-9.37002E-14
 -1      1850 1.99609E+01-1.04209E-03-1.61636E-04 2.54227E-02-1.18295E-13-2.14391E-13
 -1      1851 1.99715E+01 2.92542E-04 2.20246E-04 2.52354E-02-5.55804E-14-2.55611E-13
 -1      1852 1.99650E+01-2.33791E-03-1.02318E-05 3.43685E-02-9.35017E-14-1.26518E-13
 -1      1853 1.99806E+01 1.46594E-03-4.28190E-05 2.61203E-02 7.27954E-15-3.09495E-13
 -1      1854 1.99920E+01 2.98955E-03 3.80298E-04 2.74808E-02 6.16054E-14-3.54902E-13
 -1      1855 1.99829E+01 1.32775E-03-1.03038E-04 3.43189E-02-7.06098E-14-1.45267E-13
 -1      1856 2.00024E+01 4.35629E-03 7.94549E-05 3.05419E-02 9.15246E-14-4.21163E-13
 -1      1857 2.00159E+01 6.15981E-03 5.85310E-04 3.37056E-02 9.31641E-15-4.10871E-13
 -1      1858 2.00024E+01 5.52502E-03-2.11466E-04 3.88417E-02 3.30033E-14-3.10973E-13
 -1      1859 2.00287E+01 7.79524E-03 2.08107E-04 3.93386E-02 6.11731E-15-3.42334E-13
 -1      1860 2.00462E+01 9.99155E-03 8.47389E-04 4.46649E-02 5.30495E-14-3.27076E-13
 -1      1861 2.00257E+01 1.04924E-02-3.38130E-04 4.86985E-02 2.84653E-14-3.63657E-13
 -1      1862 2.00626E+01 1.19880E-02 3.46270E-04 5.34072E-02 6.86157E-14-2.73478E-13
 -1      1863 2.00861E+01 1.47146E-02 1.18154E-03 6.13829E-02 1.04599E-13-2.28392E-13
 -1      1864 2.00549E+01 1.65271E-02-4.86080E-04 6.49328E-02 7.29517E-14-2.22393E-13
 -1      1865 2.01077E+01 1.71829E-02 4.96691E-04 7.39420E-02 8.08443E-14-2.54702E-13
 -1      1866 2.01397E+01 2.06045E-02 1.60569E-03 8.52070E-02 6.55831E-14-1.89594E-13
 -1      1867 2.00931E+01 2.39901E-02-6.58247E-04 8.89312E-02 1.11791E-13-2.85043E-13
 -1      1868 2.01683E+01 2.36747E-02 6.60941E-04 1.02489E-01 4.98982E-14-2.11225E-13
 -1      1869 2.02120E+01 2.79861E-02 2.14019E-03 1.17864E-01 6.48516E-16-2.25039E-13
 -1      1870 2.01435E+01 3.33130E-02-8.56717E-04 1.22485E-01 8.94205E-14-2.79470E-13
 -1      1871 2.02497E+01 3.18062E-02 8.38254E-04 1.41001E-01 2.24577E-14-2.85958E-13
 -1      1872 2.03088E+01 3.72285E-02 2.80617E-03 1.61511E-01 3.30990E-14-2.41800E-13
 -1      1873 2.02102E+01 4.49999E-02-1.08176E-03 1.67847E-01 1.32418E-14-3.52282E-13
 -1      1874 2.03580E+01 4.19560E-02 1.02376E-03 1.91878E-01 1.05554E-14-2.15263E-13
 -1      1875 2.04373E+01 4.87209E-02 3.62123E-03 2.18767E-01 6.07923E-14-2.39050E-13
 -1      1876 2.02977E+01 5.96135E-02-1.33060E-03 2.27776E-01 7.33391E-14-2.63736E-13
 -1      1877 2.05007E+01 5.44971E-02 1.20584E-03 2.57965E-01 7.37921E-14-2.13951E-13
 -1      1878 2.06057E+01 6.28010E-02 4.58988E-03 2.92671E-01 3.86132E-14-2.14541E-13
 -1      1879 2.04114E+01 7.77218E-02-1.59602E-03 3.05531E-01 7.78488E-14-2.06129E-13
 -1      1880 2.06865E+01 6.96894E-02 1.36233E-03 3.42446E-01-1.49080E-14-2.98246E-13
 -1      1881 2.08237E+01 7.95825E-02 5.68431E-03 3.86494E-01-1.36909E-13-2.85613E-13
 -1      1882 2.05574E+01 9.97538E-02-1.86545E-03 4.04750E-01-5.35666E-14-2.48899E-13
 -1      1883 2.09251E+01 8.74319E-02 1.45597E-03 4.48498E-01-2.18464E-13-1.86526E-13
 -1      1884 2.11016E+01 9.85811E-02 6.80835E-03 5.03195E-01-1.71721E-13-1.72984E-13
 -1      1885 2.07420E+01 1.25667E-01-2.12196E-03 5.29091E-01-9.92819E-14-2.61181E-13
 -1      1886 2.12269E+01 1.06745E-01 1.43106E-03 5.78448E-01-1.38578E-13-1.28690E-13
 -1      1887 2.14500E+01 1.17960E-01 7.73594E-03 6.44209E-01-4.03210E-14-1.36946E-13
 -1      1888 2.09721E+01 1.54247E-01-2.35043E-03 6.81378E-01-1.30940E-13-3.68817E-14
 -1      1889 2.16021E+01 1.24758E-01 1.21812E-03 7.31990E-01 4.27826E-15-8.03582E-14
 -1      1890 2.18774E+01 1.33117E-01 8.01785E-03 8.06941E-01 2.64493E-14-4.98561E-14
 -1      1891 2.12540E+01 1.81728E-01-2.55467E-03 8.61814E-01-2.65636E-14 1.22873E-13
 -1      1892 2.20592E+01 1.34882E-01 7.62360E-04 9.02691E-01-5.28683E-14-6.98465E-14
 -1      1893 2.23879E+01 1.34269E-01 6.86696E-03 9.80055E-01 8.89861E-14-3.16370E-14
 -1      1894 2.15934E+01 1.99306E-01-2.79275E-03 1.06456E+00 2.36551E-14 4.36079E-14
 -1      1895 2.26024E+01 1.23862E-01 1.02772E-04 1.07169E+00 1.02366E-13-1.30260E-13
 -1      1896 2.29760E+01 1.02919E-01 3.08095E-03 1.13540E+00 5.82527E-14-1.67120E-13
 -1      1897 2.19948E+01 1.89078E-01-3.23316E-03 1.27164E+00 8.73108E-15 9.11454E-14
 -1      1898 2.32272E+01 6.79479E-02-4.69224E-04 1.19753E+00 9.14805E-14-1.27473E-13
 -1      1899 2.36199E+01 8.32508E-03-4.83618E-03 1.21596E+00 5.56194E-14-8.48852E-14
 -1      1900 2.24624E+01 1.18668E-01-4.20085E-03 1.44310E+00 6.62442E-14 2.05318E-14
 -1      1901 2.39146E+01-6.94123E-02-2.41696E-04 1.20223E+00 1.07443E-13 6.43843E-15
 -1      1902 2.42730E+01-1.91093E-01-1.80272E-02 1.12236E+00 1.63756E-13-3.02640E-14
 -1      1903 2.30013E+01-6.25621E-02-6.07861E-03 1.50317E+00 1.29566E-13 2.76988E-14
 -1      1904 2.46195E+01-3.30166E-01 1.68151E-03 9.59384E-01 1.19110E-13-7.75213E-14
 -1      1905 2.48542E+01-5.27784E-01-3.54723E-02 7.09182E-01 1.34469E-13 1.78278E-14
 -1      1906 2.36195E+01-4.15358E-01-8.75276E-03 1.32603E+00 1.39241E-13 2.14926E-13
 -1      1907 2.52481E+01-7.25704E-01 4.97874E-03 3.05520E-01 8.81673E-14-3.05832E-15
 -1      1908 2.52360E+01-9.66641E-01-5.14230E-02-1.76860E-01 1.88391E-15 6.28677E-14
 -1      1909 2.43174E+01-9.65308E-01-1.01167E-02 7.36194E-01 1.29835E-13 5.94576E-15
 -1      1910 2.56227E+01-1.15711E+00 4.97535E-03-8.82533E-01 4.88568E-14 2.14087E-13
 -1      1911 2.52404E+01-1.30355E+00-5.37061E-02-1.57375E+00 2.12351E-13 2.10980E-13
 -1      1912 2.50483E+01-1.60162E+00-5.91088E-03-4.36506E-01 1.66225E-13 1.85743E-13
 -1      1913 2.54481E+01-1.30751E+00-1.22185E-02-2.48461E+00 1.77578E-13 1.77589E-13
 -1      1914 2.46551E+01-1.11728E+00-3.28791E-02-3.16118E+00 1.54068E-13 2.00659E-13
 -1      1915 2.56274E+01-1.91960E+00 6.47968E-03-2.19251E+00 1.35860E-13 1.78876E-13
 -1      1916 2.44443E+01-7.20050E-01-4.93249E-02-3.86349E+00 1.08284E-13 1.18738E-13
 -1      1917 2.33784E+01-7.24495E-02-2.66098E-03-4.08744E+00 2.02754E-13 2.58689E-13
 -1      1918 2.56748E+01-1.30573E+00 4.59252E-03-4.02848E+00 1.52820E-13 1.54528E-13
 -1      1919 2.27320E+01 6.65514E-01-7.89607E-02-3.95378E+00 3.43343E-13 9.73215E-14
 -1      1920 2.17500E+01 1.40450E+00-3.11946E-03-3.37770E+00 1.04125E-13 1.31731E-13
 -1      1921 2.48999E+01 4.82961E-01-2.97737E-02-4.78881E+00 1.45918E-13 1.68232E-13
 -1      1922 2.11617E+01 1.90219E+00-5.65986E-02-2.23813E+00-8.53345E-14 2.91146E-13
 -1      1923 2.06360E+01 2.04979E+00-4.60961E-02-1.13030E+00-1.68476E-14 4.18747E-13
 -1      1924 2.37042E+01 2.39983E+00-9.24464E-02-3.41805E+00 1.71835E-13 2.58354E-13
 -1      1925 2.05704E+01 1.80829E+00-3.97629E-03 2.17208E-01-1.28508E-14 3.10967E-13
 -1      1926 2.05926E+01 1.24966E+00-7.40431E-02 1.07675E+00-1.11688E-13 3.11098E-13
 -1      1927 2.30465E+01 2.79498E+00-1.03366E-01-5.78482E-01-1.05790E-13 3.37147E-13
 -1      1928 2.07794E+01 5.93009E-01 1.49220E-02 1.65442E+00-3.83304E-13 1.31423E-13
 -1      1929 2.10879E+01-3.17111E-02-4.72037E-02 1.81664E+00-3.22249E-13 5.11223E-14
 -1      1930 2.31383E+01 1.38400E+00-5.24998E-02 1.55713E+00-3.13700E-13-4.22093E-14
 -1      1931 2.09503E+01-4.31634E-01-1.22227E-02 1.57309E+00-1.63791E-13 6.46844E-14
 -1      1932 2.12207E+01-6.20594E-01-3.25422E-03 1.28464E+00-4.56232E-16 9.59007E-14
 -1      1933 2.31090E+01-2.87619E-01-8.45774E-03 1.78251E+00-2.53138E-13-6.88685E-15
 -1      1934 2.06923E+01-5.92667E-01-3.58849E-02 8.80722E-01 1.21141E-13 1.66114E-13
 -1      1935 2.08016E+01-4.38889E-01 2.58225E-02 5.86101E-01 1.47798E-13 1.97389E-13
 -1      1936 2.13004E+01-4.92213E-01 3.58261E-02 2.92799E-01 1.77436E-13 1.77774E-13
 -1      1937 2.23864E+01-8.67073E-01 8.05153E-03 9.51471E-01 8.03979E-14 2.44802E-13
 -1      1938 1.96223E+01 1.42064E-01 7.88588E-03 2.58720E-01 1.61010E-13 3.61685E-13
 -1      1939 1.98941E+01 2.04121E-01 1.64349E-02 4.31745E-01 1.62221E-13 4.18493E-13
 -1      1940 2.01054E+01 3.50581E-01-1.53444E-03 6.54168E-01 1.93592E-13 2.92338E-13
 -1      1941 1.93805E+01 7.19604E-02 6.95034E-03 5.56860E-02 1.71739E-13 2.73753E-13
 -1      1942 1.94952E+01 1.01837E-01 1.41932E-02 1.44240E-01 1.56413E-13 3.28306E-13
 -1      1943 1.97131E+01 1.65237E-01-1.94961E-03 2.55354E-01 1.93288E-13 2.51071E-13
 -1      1944 1.92906E+01 3.62055E-02 4.43130E-03-4.98654E-02 1.02296E-13 1.93263E-13
 -1      1945 1.93204E+01 5.20196E-02 8.33316E-03-2.60376E-03 1.27335E-13 2.36370E-13
 -1      1946 1.95133E+01 8.07482E-02-2.83294E-03 4.32855E-02 1.69934E-13 1.76357E-13
 -1      1947 1.92895E+01 1.62545E-02 2.86441E-03-1.02448E-01 4.68727E-14 1.26567E-13
 -1      1948 1.92739E+01 2.51259E-02 4.35002E-03-7.77721E-02 8.35617E-14 1.82311E-13
 -1      1949 1.94347E+01 3.75386E-02-2.85185E-03-6.87270E-02 1.00005E-13 1.15924E-13
 -1      1950 1.93373E+01 4.60839E-03 1.99086E-03-1.24599E-01 6.20114E-14 1.31939E-13
 -1      1951 1.92986E+01 9.64826E-03 2.14538E-03-1.13127E-01 3.97887E-14 1.25842E-13
 -1      1952 1.94286E+01 1.37038E-02-2.31281E-03-1.24363E-01 5.87741E-14 8.30862E-14
 -1      1953 1.94093E+01-2.19864E-03 1.44723E-03-1.28839E-01 6.41631E-14 1.02893E-13
 -1      1954 1.93605E+01 5.57118E-04 9.46022E-04-1.25308E-01 6.91648E-14 1.27042E-13
 -1      1955 1.94636E+01 9.83843E-05-1.69216E-03-1.46951E-01 7.09605E-14 6.86441E-14
 -1      1956 1.94903E+01-5.99510E-03 1.06461E-03-1.22694E-01 8.14329E-14 3.28884E-14
 -1      1957 1.94391E+01-4.66017E-03 2.71464E-04-1.23900E-01 7.30542E-14 7.74613E-14
 -1      1958 1.95196E+01-7.53583E-03-1.16970E-03-1.49956E-01 8.57923E-14 5.82953E-14
 -1      1959 1.95711E+01-7.85844E-03 7.78288E-04-1.10910E-01-2.95640E-15 5.23476E-14
 -1      1960 1.95219E+01-7.41683E-03-1.13361E-04-1.14804E-01 3.02051E-14 5.96691E-14
 -1      1961 1.95839E+01-1.14793E-02-7.76409E-04-1.41641E-01 2.39164E-14 9.10232E-14
 -1      1962 1.96462E+01-8.47415E-03 5.61035E-04-9.65482E-02 9.02984E-14 7.31090E-14
 -1      1963 1.96015E+01-8.58606E-03-3.24135E-04-1.01789E-01 4.65256E-14 4.61612E-14
 -1      1964 1.96486E+01-1.30846E-02-4.94164E-04-1.27275E-01 5.47442E-14 3.96249E-14
 -1      1965 1.97130E+01-8.29733E-03 3.97482E-04-8.15751E-02 9.23011E-14 5.54191E-15
 -1      1966 1.96740E+01-8.73770E-03-4.24315E-04-8.72856E-02 8.95150E-14 3.03960E-14
 -1      1967 1.97093E+01-1.32106E-02-2.97004E-04-1.10268E-01 1.22261E-13-6.39544E-17
 -1      1968 1.97705E+01-7.63384E-03 2.76817E-04-6.72310E-02 1.31189E-13-1.14864E-13
 -1      1969 1.97374E+01-8.25340E-03-4.53086E-04-7.28459E-02 1.21524E-13-6.22120E-14
 -1      1970 1.97636E+01-1.24241E-02-1.63105E-04-9.28141E-02 1.64078E-13-6.42163E-14
 -1      1971 1.98186E+01-6.68569E-03 1.90976E-04-5.42698E-02-2.04082E-14-1.80701E-13
 -1      1972 1.97912E+01-7.38797E-03-4.36146E-04-5.94340E-02 5.09336E-14-1.46746E-13
 -1      1973 1.98105E+01-1.11003E-02-7.60584E-05-7.62963E-02 9.55035E-14-1.47623E-13
 -1      1974 1.98582E+01-5.57934E-03 1.34046E-04-4.31296E-02-5.49081E-14-6.67132E-14
 -1      1975 1.98360E+01-6.30568E-03-3.90481E-04-4.76260E-02-3.73919E-14-1.24178E-13
 -1      1976 1.98502E+01-9.48065E-03-2.38855E-05-6.15576E-02-4.07670E-14-1.52492E-13
 -1      1977 1.98905E+01-4.38457E-03 1.01918E-04-3.40579E-02-5.68435E-14-6.51220E-14
 -1      1978 1.98726E+01-5.10387E-03-3.27011E-04-3.77533E-02-3.20608E-14-6.87757E-14
 -1      1979 1.98831E+01-7.70904E-03 1.93956E-06-4.90971E-02-3.74066E-14-5.84726E-14
 -1      1980 1.99171E+01-3.12811E-03 9.20389E-05-2.72048E-02 7.54471E-14-6.20097E-14
 -1      1981 1.99026E+01-3.82926E-03-2.52276E-04-3.00092E-02 6.58650E-15-7.25746E-14
 -1      1982 1.99104E+01-5.85605E-03 7.25107E-06-3.92128E-02 3.25254E-14 9.09173E-15
 -1      1983 1.99396E+01-1.80399E-03 1.03208E-04-2.26940E-02 6.97081E-14-9.24666E-14
 -1      1984 1.99274E+01-2.49007E-03-1.69628E-04-2.45293E-02 1.04240E-13-3.00133E-14
 -1      1985 1.99335E+01-3.93698E-03-4.24998E-06-3.21090E-02 7.98599E-14-9.53656E-15
 -1      1986 1.99599E+01-3.81843E-04 1.35393E-04-2.06760E-02-5.88622E-14-1.31806E-13
 -1      1987 1.99491E+01-1.06555E-03-8.01229E-05-2.14514E-02-4.81528E-14-1.46070E-13
 -1      1988 1.99539E+01-1.92564E-03-3.05465E-05-2.79769E-02 1.41317E-14-7.49889E-14
 -1      1989 1.99802E+01 1.18582E-03 1.89492E-04-2.13656E-02-3.45245E-14-7.40854E-14
 -1      1990 1.99695E+01 4.86080E-04 1.67443E-05-2.09602E-02-2.15156E-14-5.89660E-14
 -1      1991 1.99733E+01 2.34210E-04-7.09323E-05-2.70538E-02-5.38982E-14-7.34032E-14
 -1      1992 2.00028E+01 2.95637E-03 2.66950E-04-2.50671E-02-2.96690E-14-1.33944E-13
 -1      1993 1.99909E+01 2.22028E-03 1.22373E-04-2.33174E-02-4.48776E-14-1.01891E-13
 -1      1994 1.99938E+01 2.61845E-03-1.25716E-04-2.96637E-02-2.09253E-14-9.53586E-14
 -1      1995 2.00304E+01 4.98820E-03 3.69198E-04-3.21835E-02 2.62973E-14-1.30882E-13
 -1      1996 2.00158E+01 4.19787E-03 2.38378E-04-2.88776E-02 1.22813E-15-1.36342E-13
 -1      1997 2.00175E+01 5.31122E-03-1.95895E-04-3.62403E-02 4.26339E-15-1.17115E-13
 -1      1998 2.00660E+01 7.32846E-03 4.96753E-04-4.32075E-02 7.82696E-15-2.42501E-13
 -1      1999 2.00470E+01 6.47415E-03 3.65790E-04-3.80878E-02 5.42512E-14-1.74272E-13
 -1      2000 2.00469E+01 8.39030E-03-2.82779E-04-4.73281E-02 6.77176E-14-1.67765E-13
 -1      2001 2.01129E+01 9.99507E-03 6.47852E-04-5.86848E-02-1.71362E-14-3.13115E-13
 -1      2002 2.00875E+01 9.08317E-03 5.04034E-04-5.14627E-02-6.40432E-14-3.27457E-13
 -1      2003 2.00849E+01 1.19063E-02-3.87515E-04-6.35556E-02 3.15947E-15-2.63674E-13
 -1      2004 2.01748E+01 1.29499E-02 8.16412E-04-7.91388E-02-2.44463E-14-2.53485E-13
 -1      2005 2.01411E+01 1.20145E-02 6.49577E-04-6.95285E-02 3.66048E-15-2.62118E-13
 -1      2006 2.01344E+01 1.58516E-02-5.10461E-04-8.55687E-02-9.54992E-15-1.80271E-13
 -1      2007 2.02558E+01 1.60592E-02 9.89104E-04-1.04937E-01-5.56993E-14-8.23287E-14
 -1      2008 2.02114E+01 1.51785E-02 7.94127E-04-9.27161E-02-7.14051E-14-2.36051E-13
 -1      2009 2.01989E+01 2.01151E-02-6.50325E-04-1.13906E-01-7.18393E-14-1.69151E-13
 -1      2010 2.03597E+01 1.90369E-02 1.14142E-03-1.36077E-01-1.42154E-14 8.99868E-14
 -1      2011 2.03025E+01 1.83566E-02 9.22320E-04-1.21186E-01 8.34435E-15 9.76241E-15
 -1      2012 2.02819E+01 2.44153E-02-8.02969E-04-1.48790E-01-4.20048E-14 1.53443E-13
 -1      2013 2.04902E+01 2.13675E-02 1.23284E-03-1.71853E-01-1.26530E-13-1.04225E-14
 -1      2014 2.04182E+01 2.11309E-02 1.00897E-03-1.54556E-01-8.09606E-14 3.75345E-14
 -1      2015 2.03867E+01 2.82076E-02-9.59770E-04-1.89805E-01-1.85721E-14 1.22396E-13
 -1      2016 2.06496E+01 2.22073E-02 1.20181E-03-2.10383E-01 9.17027E-14-7.21012E-14
 -1      2017 2.05615E+01 2.27926E-02 1.01623E-03-1.91497E-01-4.66862E-14-1.98270E-14
 -1      2018 2.05159E+01 3.05613E-02-1.10530E-03-2.35420E-01-2.86771E-15-6.84531E-15
 -1      2019 2.08377E+01 2.02749E-02 9.62730E-04-2.47950E-01 6.38869E-14 8.42393E-15
 -1      2020 2.07338E+01 2.22318E-02 8.91653E-04-2.29169E-01 1.43430E-13-4.73122E-14
 -1      2021 2.06710E+01 3.00123E-02-1.21404E-03-2.82325E-01 1.06163E-13-2.28434E-14
 -1      2022 2.10505E+01 1.37637E-02 4.09111E-04-2.78191E-01-7.68038E-14-8.22422E-14
 -1      2023 2.09335E+01 1.78318E-02 5.68948E-04-2.62497E-01-3.24903E-14 3.91895E-14
 -1      2024 2.08509E+01 2.44194E-02-1.24561E-03-3.24564E-01-1.64869E-14 1.98664E-14
 -1      2025 2.12780E+01 3.55068E-04-5.69283E-04-2.91208E-01-1.01783E-13-1.39792E-13
 -1      2026 2.11543E+01 7.42445E-03-2.53195E-05-2.83333E-01-6.83928E-14-9.86377E-14
 -1      2027 2.10506E+01 1.08979E-02-1.13820E-03-3.52545E-01-4.41997E-15-5.00850E-14
 -1      2028 2.15014E+01-2.25081E-02-2.04520E-03-2.72919E-01-1.01910E-13 2.37210E-14
 -1      2029 2.13827E+01-1.15713E-02-9.55199E-04-2.79709E-01-1.25628E-13-1.13451E-13
 -1      2030 2.12597E+01-1.40076E-02-8.00634E-04-3.52118E-01-1.63481E-13-9.63418E-14
 -1      2031 2.16912E+01-5.68279E-02-3.97985E-03-2.05266E-01 6.30631E-14-5.99618E-14
 -1      2032 2.15958E+01-4.16062E-02-2.24531E-03-2.35633E-01-4.08519E-14 6.45241E-14
 -1      2033 2.14599E+01-5.36247E-02-1.06997E-04-3.04256E-01-2.33442E-14 1.81793E-14
 -1      2034 2.18050E+01-1.02416E-01-6.11903E-03-6.84203E-02 2.50570E-13-1.73592E-13
 -1      2035 2.17584E+01-8.37382E-02-3.83759E-03-1.32320E-01 1.38684E-13-1.03915E-13
 -1      2036 2.16235E+01-1.09510E-01 1.09583E-03-1.86315E-01 2.16044E-13-1.81429E-13
 -1      2037 2.17897E+01-1.54249E-01-7.90141E-03 1.53457E-01 1.93373E-13-1.96861E-13
 -1      2038 2.18231E+01-1.35362E-01-5.53416E-03 4.78323E-02 2.77820E-13-7.18362E-14
 -1      2039 2.17122E+01-1.78502E-01 2.94729E-03 2.35955E-02 2.62036E-13 1.08415E-13
 -1      2040 2.15866E+01-1.99403E-01-8.51000E-03 4.61488E-01-1.49918E-13-1.41462E-13
 -1      2041 2.17324E+01-1.87099E-01-6.98441E-03 3.13023E-01-1.11505E-13-2.06732E-13
 -1      2042 2.16779E+01-2.48579E-01 5.45980E-03 3.37347E-01-6.51805E-14 8.03054E-14
 -1      2043 2.11461E+01-2.15758E-01-7.14139E-03 8.27048E-01 6.80185E-15 7.13509E-14
 -1      2044 2.14284E+01-2.20216E-01-7.66225E-03 6.49188E-01-8.00896E-14-2.32700E-14
 -1      2045 2.14691E+01-2.95522E-01 8.26890E-03 7.41833E-01-1.94980E-13 5.90310E-14
 -1      2046 2.04501E+01-1.76808E-01-3.63641E-03 1.17871E+00-1.51165E-13 1.90174E-13
 -1      2047 2.08715E+01-2.08277E-01-6.87877E-03 1.00584E+00-8.92628E-14 1.06108E-13
 -1      2048 2.10444E+01-2.84809E-01 1.04499E-02 1.18147E+00-1.21668E-13 1.79665E-13
 -1      2049 1.95412E+01-6.56426E-02 7.35372E-04 1.40437E+00-1.26694E-13 3.27497E-13
 -1      2050 2.00688E+01-1.27327E-01-4.24249E-03 1.29044E+00-1.66068E-13 1.76685E-13
 -1      2051 2.03966E+01-1.83617E-01 1.05192E-02 1.54912E+00-2.18806E-13 1.98246E-13
 -1      2052 1.85429E+01 1.05850E-01 3.75174E-03 1.38268E+00 1.37483E-13 1.72451E-13
 -1      2053 1.91021E+01 2.58495E-02 2.72189E-04 1.38554E+00 4.75271E-14 2.56023E-13
 -1      2054 1.95808E+01 1.48583E-02 6.82265E-03 1.70244E+00 4.41374E-14 1.57104E-13
 -1      2055 1.76534E+01 2.85217E-01 3.84996E-03 1.04587E+00-1.12071E-13 3.02174E-13
 -1      2056 1.81367E+01 2.15298E-01 6.10670E-03 1.19638E+00 4.00652E-14 2.95630E-13
 -1      2057 1.87318E+01 2.68208E-01-4.39372E-04 1.51734E+00 2.85882E-15 3.86427E-13
 -1      2058 1.70882E+01 4.00416E-01 2.00142E-03 4.39574E-01 4.94882E-14 1.58719E-13
 -1      2059 1.73848E+01 3.71290E-01 1.17630E-02 7.14961E-01-8.55080E-14 1.64751E-13
 -1      2060 1.80417E+01 4.89775E-01-7.53800E-03 9.67668E-01 2.15557E-14 2.96534E-13
 -1      2061 1.69876E+01 4.03081E-01 4.51974E-04-2.76682E-01 2.13603E-13 9.04251E-14
 -1      2062 1.70257E+01 4.28335E-01 1.49959E-02 4.99240E-02 2.00395E-13 2.41364E-13
 -1      2063 1.76834E+01 5.89770E-01-1.04397E-02 1.71539E-01 1.02984E-13 1.31475E-13
 -1      2064 1.73484E+01 2.96429E-01 2.42630E-04-9.00094E-01 1.15628E-13 1.69543E-13
 -1      2065 1.71265E+01 3.65666E-01 1.38690E-02-6.12614E-01 6.57426E-14 1.54999E-13
 -1      2066 1.77250E+01 5.28893E-01-8.24712E-03-6.47227E-01 4.74482E-14 1.49967E-13
 -1      2067 1.80281E+01 1.14435E-01-2.46799E-04-1.26863E+00 1.78759E-13 2.09065E-13
 -1      2068 1.76198E+01 2.09630E-01 8.55963E-03-1.09225E+00 1.74710E-13 2.22112E-13
 -1      2069 1.81011E+01 3.29301E-01-4.28623E-03-1.26118E+00 1.72546E-13 1.46008E-13
 -1      2070 1.88192E+01-1.29085E-01-1.45780E-03-1.27065E+00 1.56571E-13-2.04753E-13
 -1      2071 1.83508E+01-9.90468E-03 3.41675E-03-1.26958E+00 1.65406E-13-7.75421E-15
 -1      2072 1.86680E+01 2.93834E-02-8.35821E-04-1.52275E+00 3.03565E-13 1.73034E-13
 -1      2073 1.94491E+01-3.86435E-01-1.25720E-03-9.93314E-01-2.52099E-14-1.96920E-13
 -1      2074 1.90300E+01-2.31983E-01 2.84276E-03-1.19127E+00 9.67663E-14-1.93410E-13
 -1      2075 1.92038E+01-2.78648E-01 5.68507E-03-1.45266E+00 1.61572E-13-1.34255E-13
 -1      2076 1.96005E+01-6.50403E-01 1.04187E-02-1.19115E+00-1.52198E-13-5.39690E-14
 -1      2077 2.09693E+01-2.00860E+00 6.01315E-02-6.00925E-01 1.31411E-13-2.70999E-14
 -1      2078 2.06011E+01-1.88331E+00-2.05219E-04-1.06668E+00 2.54814E-14-3.31776E-13
 -1      2079 2.03302E+01-1.66964E+00 3.19053E-02-1.38174E+00-1.34354E-14-2.07586E-13
 -1      2080 2.00772E+01-1.32273E+00 1.84147E-03-1.49668E+00-7.61353E-14 5.27071E-13
 -1      2081 2.07266E+01-1.14442E+00 8.17812E-04-1.42914E+00-1.82646E-13-1.30941E-13
 -1      2082 1.99229E+01-1.22554E+00 1.41820E-02-1.49457E+00 1.06751E-13 6.67055E-13
 -1      2083 1.97264E+01-8.21734E-01-5.35355E-04-1.35948E+00-5.98237E-14 2.82005E-13
 -1      2084 1.95868E+01-6.29868E-01-4.79638E-03-1.54393E+00 2.04214E-13 2.29151E-13
 -1      2085 2.00548E+01-8.81691E-01-3.63844E-03-1.73491E+00 1.26680E-13 3.65236E-13
 -1      2086 2.17860E+01-1.90557E+00 8.41213E-02 1.06968E+00 6.98859E-14 5.86975E-13
 -1      2087 2.13367E+01-2.24042E+00-5.61514E-03 1.63108E-01 5.99937E-14 4.28879E-13
 -1      2088 2.17544E+01-1.50647E+00 1.70686E-03-2.89170E-01-6.20727E-14 1.43375E-13
 -1      2089 2.23937E+01-1.09482E+00 8.13063E-02 3.63075E+00-1.24602E-13 1.45751E-13
 -1      2090 2.21433E+01-2.08584E+00-6.06085E-03 2.36821E+00-1.72163E-13 4.79616E-13
 -1      2091 2.29335E+01-1.81522E+00-2.72531E-03 1.89492E+00-2.44272E-13 4.03535E-13
 -1      2092 2.18474E+01 7.32208E-01 4.19229E-02 6.40441E+00 5.16514E-13 3.10125E-13
 -1      2093 2.23292E+01-9.26883E-01 2.78999E-02 5.28269E+00 2.14360E-13 2.42781E-13
 -1      2094 2.34569E+01-1.79178E+00-1.28902E-02 5.08292E+00-2.04939E-13 5.43468E-13
 -1      2095 1.96560E+01 3.30948E+00-5.22813E-03 7.44422E+00 1.46962E-13-5.55070E-13
 -1      2096 2.09492E+01 1.56351E+00 1.07382E-01 7.39624E+00 5.13251E-13-3.35280E-13
 -1      2097 2.19641E+01-8.22037E-01 8.10144E-03 8.07429E+00 2.86667E-13 1.39375E-13
 -1      2098 1.63510E+01 6.23655E+00-9.78779E-03 5.23978E+00-3.05622E-13-4.18304E-13
 -1      2099 1.79310E+01 4.77806E+00 1.58825E-01 6.82624E+00-1.91685E-13-3.32109E-13
 -1      2100 1.83003E+01 1.34026E+00 1.28350E-01 8.64946E+00-1.04222E-13-6.26360E-13
 -1      2101 1.50691E+01 7.52582E+00 1.12453E-01 2.92837E-01-1.28350E-13-3.16469E-13
 -1      2102 1.52793E+01 7.19767E+00 1.23912E-01 2.64801E+00-2.27714E-13-3.29403E-13
 -1      2103 1.36982E+01 3.70246E+00 1.79134E-01 5.13177E+00-5.42628E-13-2.77334E-13
 -1      2104 1.73627E+01 7.10040E+00 1.78052E-01-4.59454E+00-1.73472E-14-6.85285E-14
 -1      2105 1.61650E+01 7.89075E+00-7.58014E-03-2.78660E+00 1.16785E-13-2.83051E-13
 -1      2106 2.02839E+01 3.40772E+00 1.58070E-01-6.64383E+00-1.52066E-13-7.41143E-14
 -1      2107 1.85122E+01 5.09055E+00-2.87954E-02-6.24847E+00-1.81983E-13-9.50490E-14
 -1      2108 2.22069E+01 7.10740E-01 5.70212E-02-4.85584E+00-7.83054E-15 1.55594E-13
 -1      2109 2.14471E+01 2.16470E+00-8.99887E-03-5.91623E+00-2.19401E-13 1.70976E-13
 -1      2110 2.11075E+01 4.47822E-01 1.79025E-02-7.41410E+00-2.23984E-13-1.39999E-13
 -1      2111 2.21126E+01-4.17727E-01 1.58475E-02-1.99531E+00-1.00215E-14-3.71640E-13
 -1      2112 2.22544E+01 4.26606E-01 4.94461E-02-3.24324E+00 1.18247E-13-1.59206E-13
 -1      2113 2.31116E+01-8.83048E-01-2.43466E-02-4.63214E+00-7.55112E-14 8.26136E-14
 -1      2114 1.39594E+01-5.41708E+00-1.34164E-01 1.00284E+01-6.90559E-14-9.59448E-13
 -1      2115 9.40119E+00-7.33588E+00-4.52224E-01 8.33505E+00-1.44329E-15-5.47312E-13
 -1      2116 1.29217E+00-8.03402E+00-6.31032E-01 1.79470E+00 2.42639E-13 5.53113E-13
 -1      2117 1.19599E+00-8.11736E+00-6.33080E-01-6.14349E-01 4.24105E-14 3.05866E-13
 -1      2118 4.88721E+00-7.35452E+00-4.87015E-01 6.54040E+00 9.67004E-14-3.86358E-14
 -1      2119 2.35390E+00-8.84286E+00-7.29176E-01 4.28194E+00 1.26121E-13 4.00235E-13
 -1      2120 2.39893E+01-2.91001E+00 1.11933E-01 9.94353E+00-4.56524E-13-1.12854E-12
 -1      2121 1.89220E+01-5.38392E+00-2.06867E-01 9.36071E+00-3.07199E-13-1.02196E-12
 -1      2122 2.39255E+01-3.87186E+00-1.57937E-01-5.89389E+00 1.26621E-13-9.63896E-13
 -1      2123 2.84313E+01-2.38856E+00 3.81841E-02-5.68378E+00 2.18436E-13-9.35696E-13
 -1      2124 6.66138E-01-1.00903E+01-4.88400E-01-2.84110E+00-3.46834E-13-2.79887E-13
 -1      2125 2.40281E+00-8.99264E+00-3.61135E-01-4.09006E+00-1.76414E-13-1.41664E-13
 -1      2126 3.29786E+01 1.38797E+00 3.45315E-01 8.59675E+00-4.37650E-13-5.75984E-13
 -1      2127 2.78907E+01-1.36570E+00-5.53411E-02 8.27073E+00-5.21139E-13-7.08877E-13
 -1      2128 1.95185E+01 4.01579E+00-2.70074E-02-1.70222E+00-1.70708E-13-3.68755E-13
 -1      2129 1.96466E+01 3.94624E+00-2.46240E-02-1.95352E+00-2.03576E-13-3.25309E-13
 -1      2130 1.99719E+01 3.24706E+00-1.38942E-02-1.91766E+00-2.24389E-13-2.76534E-13
 -1      2131 1.96971E+01 3.58521E+00-7.21450E-03-1.52023E+00-1.70270E-13-3.54730E-13
 -1      2132 4.37476E+01 7.49940E+00 3.62217E-01 3.70192E+00-6.45595E-14-6.10567E-13
 -1      2133 4.07651E+01 6.64720E+00 1.79357E-01 4.57669E+00-1.22041E-13-5.98299E-13
 -1      2134 4.40810E+01 8.61041E+00 1.99396E-01 1.60650E+00 3.78808E-13-7.09217E-13
 -1      2135 4.43497E+01 8.42554E+00 3.32847E-01 3.11273E+00 2.79110E-13-6.96748E-13
 -1      2136 3.91866E+01 8.79526E+00 3.42133E-01 1.48418E+00 9.75886E-14-5.21971E-13
 -1      2137 4.14331E+01 7.60704E+00 1.00816E-01 2.02652E-01 5.19973E-13-4.77340E-13
 -1      2138 4.39693E+01 8.51292E+00 3.79790E-01 1.09952E+00 3.79918E-13-4.33320E-13
 -1      2139 3.87186E+01 3.98025E+00 2.06600E-01-2.84471E+00 4.43007E-13-9.18932E-13
 -1      2140 4.08911E+01 5.44069E+00 1.85798E-01-8.69399E-01 4.51805E-13-6.42486E-13
 -1      2141 3.16463E+01-3.63713E-01-9.10520E-02-3.81680E+00 3.27294E-13-8.27338E-13
 -1      2142 3.65982E+01 2.00022E+00 2.93215E-01-4.00710E+00 4.98684E-13-8.17568E-13
 -1      2143 3.58459E+01 2.02106E+00 1.91271E-01-3.73996E-01 2.31898E-13-4.56246E-13
 -1      2144 5.41179E+00-9.01029E+00-4.68958E-01-5.14925E+00-1.05971E-13-2.24265E-13
 -1      2145 8.84731E+00-7.10288E+00-2.14747E-01-6.42228E+00 3.75255E-14-7.17891E-13
 -1      2146-1.27062E-01-8.98126E+00-3.16499E-01 1.32863E-01-4.06272E-13-5.66824E-13
 -1      2147-1.20548E-01-9.50371E+00-4.06138E-01-1.37907E+00-3.61683E-13-4.04565E-13
 -1      2148 3.23611E+00-9.03761E+00-3.15702E-01 3.51744E+00-3.16969E-13-2.51799E-13
 -1      2149 1.28080E+00-9.29801E+00-3.47573E-01 2.26848E+00-1.97509E-13-2.72338E-13
 -1      2150 9.86316E+00-7.79103E+00-1.80991E-01 5.66898E+00-3.09863E-13-1.90889E-13
 -1      2151 5.90007E+00-9.47936E+00-4.57314E-01 4.27533E+00-3.71980E-13-1.38001E-13
 -1      2152 6.69052E+00-7.47638E+00-1.38487E-01 5.14597E+00-2.13163E-14-1.38944E-13
 -1      2153 2.01941E+01-5.93618E+00-1.85057E-02 5.91065E+00-3.80918E-13 2.09777E-13
 -1      2154 1.50312E+01-7.89083E+00-3.12647E-01 5.29745E+00-3.00426E-13 3.40838E-14
 -1      2155 2.97770E+01-2.30724E+00 1.55193E-01 4.81026E+00-2.03781E-13-2.96430E-14
 -1      2156 2.39872E+01-4.65240E+00-2.60127E-01 4.57699E+00-2.88991E-13 1.65867E-13
 -1      2157 3.77998E+01 1.11512E+00 2.34399E-01 2.12235E+00-1.22097E-13 2.13163E-14
 -1      2158 3.29890E+01-6.80361E-01-1.39820E-02 3.09908E+00-1.22735E-13-1.67533E-13
 -1      2159 4.38115E+01 5.37453E+00 4.35772E-01-3.42806E-01-7.10543E-15-1.27509E-13
 -1      2160 4.00163E+01 3.76341E+00 1.71061E-01 4.63351E-01-1.65978E-13-5.36238E-14
 -1      2161 4.55036E+01 7.92945E+00 4.97204E-01-2.13969E+00-1.85407E-14-7.49956E-14
 -1      2162 4.36451E+01 7.10926E+00 2.84908E-01-1.21124E+00 1.26343E-13-1.68754E-13
 -1      2163 4.56968E+01 7.96950E+00 4.74240E-01-3.43328E+00-7.18314E-14-1.15630E-13
 -1      2164 4.64457E+01 8.10931E+00 4.87726E-01-2.27299E+00-7.79377E-14-3.44030E-14
 -1      2165 4.16768E+01 5.74601E+00 2.68127E-01-4.48401E+00-1.50574E-13-2.66231E-13
 -1      2166 4.51633E+01 6.93148E+00 5.78869E-01-3.90612E+00-1.06859E-13-8.85403E-14
 -1      2167 3.52895E+01 1.04499E+00 4.68938E-02-5.88947E+00-1.59067E-13-1.63203E-13
 -1      2168 3.97019E+01 3.11255E+00 3.54176E-01-5.21744E+00-7.63521E-14-1.92624E-13
 -1      2169 2.75609E+01-2.80864E+00-1.28189E-01-7.63755E+00 2.41918E-13-5.21805E-15
 -1      2170 3.32133E+01-3.24934E-01 2.92676E-01-7.81746E+00 2.69784E-14-3.83915E-13
 -1      2171 3.48779E+01-1.58931E+00 2.25633E-01-4.22370E+00 1.30645E-13-2.25486E-13
 -1      2172 1.77637E+01-6.58903E+00-3.38343E-01-8.59951E+00 5.08926E-13-1.56264E-14
 -1      2173 2.29387E+01-4.04339E+00 4.03974E-02-9.42947E+00 3.52496E-13 5.19584E-14
 -1      2174 8.50207E+00-8.10540E+00-5.42790E-01-7.31032E+00-3.60489E-13-8.12128E-14
 -1      2175 1.29263E+01-6.38681E+00-2.05115E-01-9.07225E+00-1.50990E-14 1.18745E-13
 -1      2176 2.12798E+00-8.83786E+00-7.26197E-01-3.21884E+00-6.83897E-14 2.03837E-13
 -1      2177 4.43730E+00-7.63063E+00-4.97127E-01-5.52757E+00-2.33702E-13 1.33449E-13
 -1      2178 3.95564E+01 4.70572E+00 3.39305E-01 6.14751E+00-3.03722E-13-5.35350E-13
 -1      2179 3.53590E+01 3.03682E+00 1.13666E-01 6.93667E+00-3.78558E-13-5.49338E-13
 -1      2180 2.35592E+01-5.99395E+00 8.35781E-02-6.03119E+00-1.89793E-13-7.35356E-13
 -1      2181 3.76223E+00-4.71719E+00-3.51935E-01 3.72484E+00 1.13520E-13 3.69815E-13
 -1      2182 1.41738E+01-7.19021E+00-5.33756E-02-7.42082E+00-1.96954E-13-7.74603E-13
 -1      2183 2.07378E+01 1.10842E+00-2.07708E-02-1.61523E+00-2.40731E-13 1.04512E-13
 -1      2184 2.06281E+01 1.33009E+00-1.86781E-02-1.67691E+00-2.56269E-13-2.23432E-14
 -1      2185 9.54188E+00-5.18101E+00-1.74656E-01 8.93384E+00-2.72005E-14-4.88276E-13
 -1      2186 1.36667E+01 5.17986E+00 2.30651E-01-1.35094E+00-2.22669E-13-2.38476E-13
 -1      2187 1.72431E+01 3.54483E+00 1.76741E-01-6.47973E+00-2.27665E-14-1.77774E-13
 -1      2188 1.90119E+01-5.59205E+00-1.09573E-02 1.03338E+01-2.82996E-13-1.18281E-12
 -1      2189 2.17934E+01-6.02710E-01 4.27235E-02-3.76501E-01 1.99132E-13 1.22789E-13
 -1      2190 2.19947E+01-4.13244E-01 5.08241E-02-1.05299E+00 1.02656E-13-2.07305E-13
 -1      2191 2.31620E+01-1.16695E+00-8.32918E-03-1.84529E+00 1.97248E-13-3.13478E-13
 -1      2192 2.23019E+01-1.04825E+00-4.65789E-02-1.87306E-01 2.83575E-13 1.41053E-13
 -1      2193 3.70820E+00-4.56626E+00-3.25715E-01-2.45008E+00-1.12493E-13 3.80140E-13
 -1      2194 3.09976E+01-2.76798E+00 9.16757E-02-3.07435E+00 7.39409E-14-5.20695E-13
 -1      2195 3.80331E+01 5.09209E+00 2.95425E-01 2.73663E+00-1.10134E-13-4.60243E-13
 -1      2196 9.03948E+00-5.55318E+00-2.06704E-01-7.83317E+00-1.88682E-13-8.92064E-14
 -1      2197 2.81772E+01-5.17040E+00 4.98287E-02-7.75359E+00 4.17610E-13-9.26481E-14
 -1      2198 3.85008E+01 3.39248E+00 2.93367E-01-1.90162E+00-1.52350E-13-2.15494E-13
 -1      2199 5.64474E+00-7.46784E+00-2.01562E-01-5.91196E+00-1.65312E-13-3.20688E-13
 -1      2200 4.08984E+01 7.90569E+00 4.53294E-01-1.70285E+00-3.95239E-14-2.62679E-13
 -1      2201 2.80603E+01-3.74127E+00 8.72258E-02 8.34280E+00-4.42091E-13-7.61391E-13
 -1      2202 4.02777E+01 9.04241E+00 4.02988E-01-2.30972E+00-6.81677E-14-1.02467E-13
 -1      2203 3.94578E+01 6.72226E+00 3.09346E-01-2.59269E+00 3.31957E-14 1.84297E-14
 -1      2204 3.75205E+01 1.82577E+00 2.62393E-01-1.15538E+00-1.21250E-13 1.64313E-13
 -1      2205 3.21579E+01-3.18181E+00 1.33729E-01 1.66035E+00-6.55864E-14 1.54099E-13
 -1      2206 1.50685E+01-8.04995E+00-5.31661E-02 6.09832E+00-6.66134E-14 9.56804E-14
 -1      2207 2.01101E+00-6.67436E+00-1.39207E-01 1.68550E+00-1.86115E-13-2.97984E-13
 -1      2208 3.45114E+01 4.22352E-01 2.39164E-01 5.34405E+00-3.98001E-13-2.24765E-13
 -1      2209 1.44690E+00-6.89778E+00-2.14232E-01-2.64812E+00-3.39673E-13-4.22107E-13
 -1      2210 3.91054E+01 9.55071E+00 2.46173E-01 1.65280E+00 3.64431E-13-4.05200E-13
 -1      2211 3.91467E+01 6.49384E+00 1.44419E-01 8.40251E-01 6.48592E-13-2.31148E-13
 -1      2212 3.55897E+01 7.46831E+00-1.17059E-01 2.42975E+00 4.72677E-13 1.19210E-13
 -1      2213 3.56484E+01 5.22573E+00-1.75170E-03 1.78445E+00 5.52558E-13-5.01266E-14
 -1      2214 2.44960E+01-6.95051E+00-7.96627E-02 4.33182E+00-1.64868E-13 2.11053E-13
 -1      2215 1.82015E+01-6.53700E+00-1.08376E-01-9.61084E+00 2.58682E-13-2.80657E-13
 -1      2216 2.01498E+01 5.06517E-01 3.73559E-03 6.77104E-01 2.04517E-13 1.47273E-13
 -1      2217 2.04175E+01 7.00050E-01 2.07898E-02 9.68750E-01 2.21722E-13 1.72837E-13
 -1      2218 1.95585E+01 3.51661E+00-1.10787E-02-5.91209E-01-4.79348E-14-3.78596E-13
 -1      2219 1.95942E+01 3.47081E+00-1.04114E-02-7.75428E-01-7.72229E-14-3.97063E-13
 -1      2220 1.96410E+01 3.38284E+00-1.26565E-02-9.39732E-01-1.00739E-13-3.92455E-13
 -1      2221 1.97025E+01 3.30182E+00-1.26167E-02-1.12897E+00-1.29418E-13-3.74849E-13
 -1      2222 1.97853E+01 3.03376E+00 1.90945E-04-7.91896E-01-7.42185E-14-3.73866E-13
 -1      2223 1.95110E+01 3.59908E+00-9.61864E-03 9.93956E-02 5.83783E-14-3.44875E-13
 -1      2224 1.95104E+01 3.59992E+00-9.61758E-03-8.00200E-02 2.98390E-14-3.54398E-13
 -1      2225 1.95373E+01 3.55967E+00-9.71939E-03 4.45321E-01 1.06789E-13-3.38997E-13
 -1      2226 1.95198E+01 3.58224E+00-1.01388E-02 2.64545E-01 7.98440E-14-3.43254E-13
 -1      2227 1.96771E+01 3.22186E+00-9.07017E-04 1.69486E-01 6.31908E-14-3.23613E-13
 -1      2228 1.95995E+01 3.46311E+00-1.06116E-02 7.89179E-01 1.63043E-13-3.30395E-13
 -1      2229 1.95630E+01 3.51013E+00-1.12083E-02 6.07794E-01 1.33864E-13-3.37782E-13
 -1      2230 1.97142E+01 3.15833E+00-5.02661E-04 4.87814E-01 1.12089E-13-3.13995E-13
 -1      2231 1.97107E+01 3.28932E+00-1.29465E-02 1.14235E+00 2.28245E-13-2.62372E-13
 -1      2232 1.96477E+01 3.37268E+00-1.28848E-02 9.53151E-01 1.86358E-13-3.01580E-13
 -1      2233 1.97915E+01 3.02465E+00 2.59883E-04 8.03344E-01 1.73679E-13-2.86030E-13
 -1      2234 1.98906E+01 3.00359E+00-1.81706E-02 1.48939E+00 2.84093E-13-1.98409E-13
 -1      2235 1.97907E+01 3.14490E+00-1.51873E-02 1.29896E+00 2.48714E-13-2.31779E-13
 -1      2236 1.99213E+01 2.79935E+00 1.91970E-03 1.10940E+00 2.35986E-13-2.24372E-13
 -1      2237 2.01697E+01 2.54404E+00-2.83893E-02 1.79372E+00 3.07664E-13-1.14346E-13
 -1      2238 2.00181E+01 2.78343E+00-1.70898E-02 1.61927E+00 2.87662E-13-1.71595E-13
 -1      2239 2.01169E+01 2.44867E+00 5.86280E-03 1.37523E+00 2.73248E-13-1.63302E-13
 -1      2240 2.04025E+01 8.55123E-01 1.29420E-02-9.99933E-01-2.00459E-13-8.77829E-14
 -1      2241 2.01920E+01 6.28266E-01-3.99988E-03-6.89802E-01-1.71509E-13-8.20195E-14
 -1      2242 1.98730E+01 2.68301E-01 4.73355E-03 2.84514E-01 2.04147E-13 9.92091E-14
 -1      2243 2.00335E+01 3.68040E-01 2.01580E-02 4.41686E-01 1.98568E-13 1.32081E-13
 -1      2244 2.02121E+01 6.34724E-01-2.23137E-03 7.03839E-01 2.29821E-13 1.13533E-14
 -1      2245 2.05488E+01 1.95518E+00-1.36860E-02-1.89749E+00-2.59591E-13-1.17427E-13
 -1      2246 2.04122E+01 1.21424E+00-7.26435E-03-1.28633E+00-2.28303E-13-9.73340E-14
 -1      2247 2.03825E+01 1.38055E+00 7.25320E-03-1.23622E+00-2.09758E-13-1.46000E-13
 -1      2248 2.02906E+01 2.38498E+00-4.82880E-03-1.84158E+00-2.49606E-13-1.87990E-13
 -1      2249 6.05168E+00-8.30817E-01 8.11422E-02-1.18228E+00-1.70173E-13 3.93408E-13
 -1      2250 7.01634E+00-1.63489E+00-9.97564E-04-4.43790E+00-1.49630E-13 2.14218E-13
 -1      2251 2.01261E+01 4.69217E-01 1.61215E-02-4.74394E-01-1.59938E-13-7.29098E-14
 -1      2252 1.99851E+01 3.44462E-01 3.36461E-05-3.02771E-01-1.34440E-13-9.66230E-14
 -1      2253 2.02458E+01 7.45373E-01-1.72129E-03-6.93398E-01-1.86427E-13-1.36684E-13
 -1      2254 1.99218E+01 2.59529E-01 1.08769E-02-1.65165E-01-1.05577E-13-1.00322E-13
 -1      2255 1.98430E+01 1.88046E-01 6.92164E-04-6.79768E-02-9.65367E-14-1.19949E-13
 -1      2256 2.00812E+01 4.16462E-01-3.69635E-03-3.09467E-01-1.38787E-13-1.47099E-13
 -1      2257 1.97987E+01 1.38565E-01 6.37963E-03 1.40878E-02-1.02032E-13-1.02175E-13
 -1      2258 1.97637E+01 9.62063E-02 7.02914E-04 6.73742E-02-1.02689E-13-9.37553E-14
 -1      2259 1.99607E+01 2.27246E-01-3.65422E-03-7.05291E-02-1.14580E-13-1.03520E-13
 -1      2260 1.97378E+01 6.62545E-02 3.57407E-03 1.13039E-01-1.10312E-13-1.15297E-13
 -1      2261 1.97305E+01 4.06532E-02 6.07663E-04 1.39530E-01-1.17482E-13-1.23181E-13
 -1      2262 1.98850E+01 1.14801E-01-2.92831E-03 7.01371E-02-1.34890E-13-1.09459E-13
 -1      2263 1.97188E+01 2.23285E-02 1.85285E-03 1.61655E-01-9.66377E-14-1.15606E-13
 -1      2264 1.97279E+01 6.99586E-03 4.85333E-04 1.71656E-01-5.86396E-14-1.15391E-13
 -1      2265 1.98453E+01 4.64737E-02-2.11654E-03 1.46146E-01-1.15653E-13-8.27959E-14
 -1      2266 1.97258E+01-4.00465E-03 7.91696E-04 1.78856E-01-4.19256E-14-1.33664E-13
 -1      2267 1.97438E+01-1.27931E-02 3.65426E-04 1.78849E-01-3.38600E-14-1.56452E-13
 -1      2268 1.98310E+01 5.17473E-03-1.42537E-03 1.80410E-01-6.61828E-14-1.57596E-13
 -1      2269 1.97478E+01-1.90245E-02 1.41511E-04 1.76905E-01-8.98852E-14-1.57540E-13
 -1      2270 1.97697E+01-2.35592E-02 2.62646E-04 1.71100E-01-1.06011E-13-2.02735E-13
 -1      2271 1.98332E+01-1.89195E-02-9.03456E-04 1.88361E-01-9.47543E-14-2.13864E-13
 -1      2272 1.97770E+01-2.66484E-02-2.42165E-04 1.63912E-01-5.47652E-14-1.66427E-13
 -1      2273 1.97998E+01-2.84157E-02 1.82993E-04 1.55083E-01 2.62919E-15-1.23292E-13
 -1      2274 1.98452E+01-3.18040E-02-5.31707E-04 1.80438E-01-6.51916E-14-2.04105E-13
 -1      2275 1.98087E+01-2.94449E-02-4.50059E-04 1.45272E-01 4.43355E-15-9.80623E-14
 -1      2276 1.98305E+01-2.94383E-02 1.26527E-04 1.35243E-01-3.04598E-15-9.63122E-14
 -1      2277 1.98623E+01-3.73564E-02-2.78304E-04 1.63702E-01 9.03431E-15-1.13165E-13
 -1      2278 1.98397E+01-2.91420E-02-5.42499E-04 1.24550E-01-1.74538E-15-9.97271E-14
 -1      2279 1.98594E+01-2.80309E-02 9.11236E-05 1.14505E-01 2.57599E-14-3.90269E-14
 -1      2280 1.98813E+01-3.81654E-02-1.13901E-04 1.42896E-01-5.81444E-16-8.14947E-14
 -1      2281 1.98683E+01-2.69060E-02-5.60806E-04 1.04063E-01-3.84049E-15-4.06846E-14
 -1      2282 1.98856E+01-2.51331E-02 7.46413E-05 9.47511E-02-1.65603E-14-5.47744E-14
 -1      2283 1.99002E+01-3.59769E-02-1.48269E-05 1.21162E-01 2.97217E-14-7.91564E-14
 -1      2284 1.98938E+01-2.35053E-02-5.33541E-04 8.52833E-02-1.03228E-13-7.56696E-14
 -1      2285 1.99087E+01-2.13484E-02 7.58118E-05 7.71712E-02-1.12944E-13-1.14963E-13
 -1      2286 1.99181E+01-3.19514E-02 3.67810E-05 1.00538E-01-7.73463E-14-1.05919E-13
 -1      2287 1.99161E+01-1.94163E-02-4.80292E-04 6.91334E-02-1.27113E-13-9.64790E-14
 -1      2288 1.99289E+01-1.70300E-02 9.45502E-05 6.25112E-02-1.10750E-13-7.17796E-14
 -1      2289 1.99344E+01-2.68244E-02 5.38968E-05 8.23302E-02-1.13196E-13-3.27567E-14
 -1      2290 1.99355E+01-1.48956E-02-4.14268E-04 5.62010E-02-1.05314E-13-7.42231E-14
 -1      2291 1.99466E+01-1.23403E-02 1.32061E-04 5.12659E-02-1.21233E-13-5.05929E-14
 -1      2292 1.99491E+01-2.10140E-02 4.56906E-05 6.73809E-02-1.27270E-13-4.77039E-16
 -1      2293 1.99527E+01-1.00306E-02-3.44171E-04 4.69053E-02-1.03750E-13-9.89741E-14
 -1      2294 1.99627E+01-7.29239E-03 1.90866E-04 4.38250E-02-9.51068E-14-9.51266E-14
 -1      2295 1.99626E+01-1.46959E-02 1.83502E-05 5.62737E-02-1.36554E-13-7.75559E-14
 -1      2296 1.99686E+01-4.77446E-03-2.75546E-04 4.16254E-02-1.33482E-13-1.19751E-13
 -1      2297 1.99781E+01-1.77904E-03 2.74828E-04 4.05882E-02-8.99880E-14-1.13845E-13
 -1      2298 1.99753E+01-7.85487E-03-2.42284E-05 4.94931E-02-1.18562E-13-1.31697E-13
 -1      2299 1.99843E+01 1.02982E-03-2.11821E-04 4.08015E-02-5.52353E-14-1.36154E-13
 -1      2300 1.99943E+01 4.40838E-03 3.89215E-04 4.20576E-02-6.27854E-14-1.40692E-13
 -1      2301 1.99880E+01-3.21434E-04-7.97622E-05 4.75483E-02-1.05313E-13-1.09017E-13
 -1      2302 2.00011E+01 7.63434E-03-1.55160E-04 4.50194E-02-3.33830E-14-1.79868E-13
 -1      2303 2.00124E+01 1.15693E-02 5.40782E-04 4.89163E-02-3.52723E-15-3.10203E-13
 -1      2304 2.00016E+01 8.20567E-03-1.46994E-04 5.10734E-02-8.07017E-14-1.42949E-13
 -1      2305 2.00205E+01 1.53792E-02-1.07177E-04 5.50816E-02 5.37924E-14-2.60681E-13
 -1      2306 2.00344E+01 2.00904E-02 7.37854E-04 6.20969E-02 3.48647E-14-2.19035E-13
 -1      2307 2.00172E+01 1.81467E-02-2.25137E-04 6.09109E-02 1.27664E-14-1.60045E-13
 -1      2308 2.00443E+01 2.46912E-02-6.95746E-05 7.20733E-02 4.60194E-14-1.95945E-13
 -1      2309 2.00621E+01 3.04463E-02 9.90347E-04 8.28451E-02 1.31610E-13-1.52430E-13
 -1      2310 2.00360E+01 3.00366E-02-3.13237E-04 7.81838E-02 7.84795E-14-2.66889E-14
 -1      2311 2.00745E+01 3.60869E-02-4.47654E-05 9.74233E-02 1.01635E-13-1.75926E-13
 -1      2312 2.00978E+01 4.32042E-02 1.30964E-03 1.12781E-01 7.84656E-14-2.26695E-13
 -1      2313 2.00593E+01 4.45271E-02-4.09407E-04 1.04360E-01 8.42778E-14-1.51111E-13
 -1      2314 2.01135E+01 5.01760E-02-3.64998E-05 1.32961E-01 6.67665E-14-2.85857E-13
 -1      2315 2.01443E+01 5.90256E-02 1.70813E-03 1.53953E-01 6.34395E-14-2.85815E-13
 -1      2316 2.00889E+01 6.23894E-02-5.09870E-04 1.41308E-01 3.86483E-14-2.32881E-13
 -1      2317 2.01640E+01 6.76604E-02-5.04561E-05 1.80969E-01 7.70830E-15-3.78566E-13
 -1      2318 2.02044E+01 7.86577E-02 2.19807E-03 2.08885E-01-1.74307E-14-3.32946E-13
 -1      2319 2.01263E+01 8.45124E-02-6.07786E-04 1.91345E-01-2.28487E-14-2.73042E-13
 -1      2320 2.02290E+01 8.93130E-02-9.46359E-05 2.44212E-01 7.86822E-14-3.34383E-13
 -1      2321 2.02816E+01 1.02893E-01 2.78907E-03 2.80591E-01 1.69992E-13-1.97002E-13
 -1      2322 2.01733E+01 1.11879E-01-6.91946E-04 2.57259E-01 7.15644E-15-2.55026E-13
 -1      2323 2.03119E+01 1.15911E-01-1.79138E-04 3.25932E-01 1.36150E-13-3.00929E-13
 -1      2324 2.03794E+01 1.32455E-01 3.48321E-03 3.72526E-01 4.46979E-14-2.75958E-13
 -1      2325 2.02317E+01 1.45487E-01-7.45716E-04 3.42292E-01 9.28584E-14-2.63592E-13
 -1      2326 2.04159E+01 1.48064E-01-3.14376E-04 4.29740E-01 3.48105E-15-2.60058E-13
 -1      2327 2.05017E+01 1.67741E-01 4.26579E-03 4.88394E-01-5.77360E-14-2.34327E-13
 -1      2328 2.03030E+01 1.86157E-01-7.47235E-04 4.50036E-01 1.54907E-14-3.01989E-13
 -1      2329 2.05448E+01 1.85832E-01-5.05815E-04 5.59328E-01-9.41454E-14-1.95259E-13
 -1      2330 2.06520E+01 2.08250E-01 5.08944E-03 6.31685E-01-1.06790E-13-1.71387E-13
 -1      2331 2.03884E+01 2.34090E-01-6.73266E-04 5.84164E-01-3.16887E-14-1.75905E-13
 -1      2332 2.07017E+01 2.27936E-01-7.41574E-04 7.17803E-01-1.04150E-13-1.72083E-13
 -1      2333 2.08334E+01 2.51465E-01 5.84814E-03 8.04679E-01-7.98493E-15-1.36685E-14
 -1      2334 2.04884E+01 2.87977E-01-5.11646E-04 7.47866E-01-5.27815E-14-1.20805E-13
 -1      2335 2.08902E+01 2.70228E-01-9.66377E-04 9.06363E-01-1.68134E-14 5.10560E-14
 -1      2336 2.10489E+01 2.90746E-01 6.33886E-03 1.00653E+00-1.92689E-14 1.14428E-13
 -1      2337 2.06033E+01 3.43258E-01-2.91732E-04 9.42764E-01 1.17752E-14-1.00519E-13
 -1      2338 2.11140E+01 3.02914E-01-1.03138E-03 1.12179E+00-5.91313E-14 1.09293E-13
 -1      2339 2.13015E+01 3.11657E-01 6.21102E-03 1.22978E+00-5.11635E-15 4.46301E-15
 -1      2340 2.07336E+01 3.88978E-01-1.48246E-04 1.16698E+00-8.23720E-14 1.08412E-13
 -1      2341 2.13797E+01 3.05922E-01-6.07410E-04 1.35205E+00 1.98443E-14 5.26507E-14
 -1      2342 2.15966E+01 2.86218E-01 4.90870E-03 1.45450E+00 7.53846E-15 8.81852E-15
 -1      2343 2.08830E+01 4.02516E-01-4.37594E-04 1.41185E+00-2.59221E-14 1.91165E-14
 -1      2344 2.17010E+01 2.42215E-01 9.37911E-04 1.56890E+00-1.54542E-14 5.37768E-14
 -1      2345 2.19475E+01 1.65567E-01 1.63065E-03 1.63910E+00 3.42554E-16-5.60739E-15
 -1      2346 2.10640E+01 3.41787E-01-1.91415E-03 1.65655E+00-2.94833E-14 2.04513E-15
 -1      2347 2.21074E+01 5.07850E-02 4.69227E-03 1.71646E+00 8.33978E-14 8.47389E-14
 -1      2348 2.23840E+01-1.24907E-01-4.64467E-03 1.70760E+00 2.01625E-13 1.81208E-13
 -1      2349 2.13093E+01 1.36309E-01-5.88377E-03 1.85964E+00 1.20247E-13 1.92898E-13
 -1      2350 2.26553E+01-3.52929E-01 1.21823E-02 1.69503E+00 3.54786E-14 2.20501E-13
 -1      2351 2.29610E+01-6.74279E-01-1.51414E-02 1.53536E+00 5.16731E-14 2.57406E-13
 -1      2352 2.16897E+01-3.15790E-01-1.39943E-02 1.94577E+00 1.37985E-13 2.76074E-13
 -1      2353 2.34307E+01-1.04727E+00 2.40561E-02 1.34161E+00 8.97407E-14 1.74009E-13
 -1      2354 2.37531E+01-1.51994E+00-2.92005E-02 9.40136E-01 4.48998E-14 1.30920E-13
 -1      2355 2.23334E+01-1.12393E+00-2.71934E-02 1.78353E+00-1.45331E-14 2.19612E-13
 -1      2356 2.45013E+01-1.99380E+00 3.62023E-02 4.39257E-01 1.58210E-13 3.05355E-14
 -1      2357 2.47957E+01-2.49327E+00-4.25858E-02-2.69950E-01 2.34021E-13 1.54149E-13
 -1      2358 2.34113E+01-2.28436E+00-4.00022E-02 1.16419E+00 1.00980E-13 1.99935E-13
 -1      2359 2.57993E+01-2.84849E+00 2.98410E-02-1.20043E+00 8.64152E-14 1.13753E-13
 -1      2360 2.59491E+01-2.96695E+00-4.60005E-02-2.15854E+00 4.16819E-14 4.48495E-14
 -1      2361 2.50403E+01-3.47317E+00-4.51066E-02-1.78233E-01 7.76375E-14 1.62655E-13
 -1      2362 2.68781E+01-2.68423E+00-3.31637E-02-3.39231E+00 1.01934E-13 3.02119E-14
 -1      2363 2.67077E+01-1.86548E+00-5.11563E-02-4.20858E+00 1.02349E-13-2.22565E-15
 -1      2364 2.70337E+01-3.66030E+00-2.52241E-02-2.36389E+00 4.28112E-14-1.53072E-13
 -1      2365 2.70795E+01-5.00326E-01-1.29285E-01-5.02071E+00 1.08843E-13-1.51955E-13
 -1      2366 2.65734E+01 1.23739E+00-5.73405E-02-4.97918E+00 1.86559E-13-8.91301E-14
 -1      2367 2.85331E+01-1.61185E+00-7.01347E-02-4.57165E+00 7.44196E-14-2.33320E-13
 -1      2368 2.63555E+01 3.00071E+00-1.79769E-01-4.35319E+00 2.49314E-13-1.46536E-13
 -1      2369 2.58571E+01 4.22130E+00-1.18656E-01-3.15041E+00 1.50407E-13-1.32883E-13
 -1      2370 2.89746E+01 2.59604E+00-1.09479E-01-4.96364E+00 2.29511E-13-3.18329E-13
 -1      2371 2.57106E+01 4.59697E+00-1.28290E-01-1.35696E+00-5.26246E-14-4.03115E-14
 -1      2372 2.55855E+01 3.98457E+00-1.72957E-01 9.79375E-02-2.19963E-13-1.04389E-13
 -1      2373 2.87182E+01 5.64168E+00-1.66638E-01-2.41992E+00 1.12882E-13-4.17534E-13
 -1      2374 2.56402E+01 2.61086E+00-6.54390E-02 1.28395E+00-2.48010E-13-6.44901E-14
 -1      2375 2.56914E+01 9.93087E-01-1.55824E-01 1.83519E+00-3.83693E-13-7.89091E-14
 -1      2376 2.85209E+01 4.16490E+00-1.42610E-01 7.15487E-01-3.02175E-13-3.40533E-13
 -1      2377 2.53347E+01-3.43104E-01-2.03296E-02 1.53008E+00-3.13541E-13-6.06459E-15
 -1      2378 2.51142E+01-1.24472E+00-3.62475E-02 1.22618E+00 2.30042E-14 1.46889E-13
 -1      2379 2.79387E+01 1.69722E-01-9.22442E-02 1.45295E+00-2.03962E-13-1.84477E-13
 -1      2380 1.96261E+01 7.27010E-02 2.07592E-03-6.71531E-02 1.10824E-13 6.26781E-14
 -1      2381 1.96532E+01 1.04426E-01 6.89315E-03-2.09192E-02 1.41267E-13 9.12563E-14
 -1      2382 1.96028E+01 3.07644E-02 1.33754E-03-1.32860E-01 6.31964E-14 5.74986E-15
 -1      2383 1.95995E+01 4.96907E-02 3.67680E-03-1.10332E-01 8.68416E-14 4.56952E-14
 -1      2384 1.97701E+01 9.00029E-02-3.15309E-03-7.26349E-02 1.29953E-13 2.15988E-14
 -1      2385 1.96150E+01 5.67792E-03 8.67641E-04-1.61301E-01 8.02540E-14 1.64575E-14
 -1      2386 1.95948E+01 1.69560E-02 1.81350E-03-1.53062E-01 7.18080E-14-4.07687E-15
 -1      2387 1.97361E+01 3.59126E-02-2.27716E-03-1.45004E-01 7.74191E-14 7.97252E-15
 -1      2388 1.96473E+01-9.00377E-03 5.43961E-04-1.66922E-01 5.05304E-14 2.49269E-14
 -1      2389 1.96189E+01-2.53096E-03 7.13158E-04-1.67260E-01 6.33360E-14 2.60172E-14
 -1      2390 1.97327E+01 3.71467E-03-1.50825E-03-1.76739E-01 5.72312E-14-9.89904E-15
 -1      2391 1.96892E+01-1.69997E-02 3.17134E-04-1.59034E-01 1.03944E-15 6.99161E-14
 -1      2392 1.96579E+01-1.36250E-02 5.96550E-05-1.64304E-01 3.92200E-14 7.59480E-14
 -1      2393 1.97480E+01-1.49083E-02-9.28835E-04-1.83314E-01 2.51559E-14 4.18621E-14
 -1      2394 1.97340E+01-2.06424E-02 1.61978E-04-1.43750E-01 1.02679E-13 1.23373E-14
 -1      2395 1.97031E+01-1.92782E-02-3.16922E-04-1.51574E-01 5.48949E-14 3.93767E-14
 -1      2396 1.97733E+01-2.48174E-02-5.21974E-04-1.74886E-01 6.49232E-14 4.91252E-14
 -1      2397 1.97774E+01-2.14681E-02 6.16339E-05-1.25102E-01 1.65538E-13-1.27071E-14
 -1      2398 1.97489E+01-2.13931E-02-5.14575E-04-1.33925E-01 1.55318E-13 3.06785E-14
 -1      2399 1.98028E+01-2.90712E-02-2.49118E-04-1.58219E-01 1.33509E-13 1.20332E-14
 -1      2400 1.98172E+01-2.05104E-02 3.18833E-06-1.05719E-01 1.69167E-13-5.04100E-14
 -1      2401 1.97919E+01-2.12399E-02-5.95962E-04-1.14538E-01 1.60744E-13-8.84696E-15
 -1      2402 1.98329E+01-2.96844E-02-7.49885E-05-1.37804E-01 1.74442E-13 2.43121E-14
 -1      2403 1.98524E+01-1.84611E-02-2.29224E-05-8.72821E-02 2.52055E-14-6.77233E-14
 -1      2404 1.98306E+01-1.96734E-02-6.03063E-04-9.54627E-02 1.33072E-13-1.73723E-14
 -1      2405 1.98614E+01-2.80073E-02 2.77625E-05-1.16591E-01 1.22724E-13 7.64779E-14
 -1      2406 1.98826E+01-1.57681E-02-2.32190E-05-7.08391E-02-5.23944E-14-4.83672E-14
 -1      2407 1.98643E+01-1.72592E-02-5.64386E-04-7.79923E-02-2.00032E-14-6.48944E-14
 -1      2408 1.98872E+01-2.49370E-02 7.94385E-05-9.64793E-02-2.00509E-14 6.18834E-14
 -1      2409 1.99084E+01-1.26990E-02-1.56130E-06-5.70319E-02-3.20077E-14-5.91668E-14
 -1      2410 1.98931E+01-1.43519E-02-4.99156E-04-6.29207E-02-4.42855E-14-5.29374E-14
 -1      2411 1.99100E+01-2.10461E-02 9.46124E-05-7.86674E-02-3.33147E-14-5.86963E-14
 -1      2412 1.99304E+01-9.38567E-03 4.04163E-05-4.62668E-02 8.44417E-15-3.55767E-14
 -1      2413 1.99175E+01-1.11489E-02-4.20006E-04-5.07374E-02 1.09733E-14-2.03098E-14
 -1      2414 1.99299E+01-1.66678E-02 8.34193E-05-6.39091E-02-3.16610E-14-4.47238E-14
 -1      2415 1.99496E+01-5.85753E-03 1.02885E-04-3.88413E-02 8.45075E-14 1.81786E-15
 -1      2416 1.99385E+01-7.72937E-03-3.34851E-04-4.17714E-02 6.05395E-14-1.23695E-14
 -1      2417 1.99474E+01-1.19552E-02 5.26304E-05-5.27032E-02 1.46142E-14-2.89275E-14
 -1      2418 1.99674E+01-2.06797E-03 1.87414E-04-3.50394E-02-2.00567E-15-4.53116E-14
 -1      2419 1.99572E+01-4.08308E-03-2.48210E-04-3.62996E-02 7.87097E-14 1.85763E-15
 -1      2420 1.99633E+01-6.92665E-03 6.44061E-06-4.54366E-02 4.11819E-14 1.87873E-14
 -1      2421 1.99852E+01 2.08362E-03 2.96525E-04-3.52004E-02-4.35129E-14-1.01019E-13
 -1      2422 1.99749E+01-1.34956E-04-1.62226E-04-3.46262E-02-6.92085E-14-9.71724E-14
 -1      2423 1.99784E+01-1.50127E-03-5.27416E-05-4.24894E-02-1.62717E-14-6.13090E-14
 -1      2424 2.00047E+01 6.73096E-03 4.33092E-04-3.97642E-02 7.00735E-15-1.37845E-13
 -1      2425 1.99932E+01 4.23400E-03-7.74805E-05-3.71388E-02 2.13411E-14-1.01770E-13
 -1      2426 1.99941E+01 4.47018E-03-1.23750E-04-4.43097E-02 3.42676E-15-7.42337E-14
 -1      2427 2.00277E+01 1.20174E-02 5.99490E-04-4.92938E-02-6.05128E-15-1.60193E-13
 -1      2428 2.00139E+01 9.16513E-03 6.40638E-06-4.43406E-02-4.01961E-14-1.32979E-13
 -1      2429 2.00115E+01 1.11749E-02-2.06153E-04-5.14607E-02 6.70874E-15-1.63591E-13
 -1      2430 2.00563E+01 1.80651E-02 7.96363E-04-6.44702E-02 7.52085E-14-1.31175E-13
 -1      2431 2.00389E+01 1.47957E-02 9.02707E-05-5.68593E-02 5.48617E-14-1.36785E-13
 -1      2432 2.00322E+01 1.88025E-02-2.99714E-04-6.46391E-02-1.57433E-14-1.55108E-13
 -1      2433 2.00929E+01 2.49318E-02 1.02082E-03-8.60498E-02 8.06828E-15-1.23978E-13
 -1      2434 2.00705E+01 2.12230E-02 1.74966E-04-7.54229E-02 4.98458E-14-9.52907E-14
 -1      2435 2.00580E+01 2.74977E-02-4.03896E-04-8.46574E-02 4.87039E-14 2.12646E-14
 -1      2436 2.01402E+01 3.25477E-02 1.26383E-03-1.14771E-01-3.73761E-14-7.47598E-14
 -1      2437 2.01111E+01 2.84526E-02 2.60982E-04-1.00792E-01-1.41814E-14-9.01767E-14
 -1      2438 2.00906E+01 3.72932E-02-5.17363E-04-1.12381E-01 2.99874E-15 8.42181E-14
 -1      2439 2.02008E+01 4.06244E-02 1.50666E-03-1.51186E-01-1.25655E-13-4.75804E-14
 -1      2440 2.01633E+01 3.63231E-02 3.48125E-04-1.33631E-01-4.13417E-14-9.91200E-14
 -1      2441 2.01323E+01 4.80122E-02-6.37521E-04-1.48599E-01-2.33759E-14-1.99813E-14
 -1      2442 2.02777E+01 4.85252E-02 1.71608E-03-1.95393E-01-9.17474E-15 1.02286E-14
 -1      2443 2.02302E+01 4.43983E-02 4.35276E-04-1.74290E-01-1.11205E-13-4.97743E-14
 -1      2444 2.01853E+01 5.91290E-02-7.60177E-04-1.93806E-01-9.08932E-14-1.38859E-13
 -1      2445 2.03733E+01 5.50891E-02 1.83855E-03-2.46625E-01 2.02810E-14-1.79644E-14
 -1      2446 2.03144E+01 5.18161E-02 5.20310E-04-2.22469E-01 3.17063E-14 7.21227E-14
 -1      2447 2.02518E+01 6.95738E-02-8.79442E-04-2.47859E-01-3.29734E-14-1.51972E-13
 -1      2448 2.04898E+01 5.84063E-02 1.79383E-03-3.02661E-01-2.26251E-15 1.78139E-14
 -1      2449 2.04186E+01 5.70891E-02 6.00259E-04-2.76719E-01 2.55432E-14 6.63130E-14
 -1      2450 2.03343E+01 7.74738E-02-9.88019E-04-3.09471E-01 6.31916E-15-2.97883E-14
 -1      2451 2.06280E+01 5.55622E-02 1.46989E-03-3.59027E-01-1.07791E-14 5.59677E-14
 -1      2452 2.05447E+01 5.78615E-02 6.71774E-04-3.33747E-01 8.04879E-15 1.21327E-14
 -1      2453 2.04348E+01 7.98323E-02-1.07790E-03-3.75503E-01-4.55838E-14-2.23385E-15
 -1      2454 2.07870E+01 4.24108E-02 7.22601E-04-4.07985E-01 6.52738E-14-6.07063E-14
 -1      2455 2.06934E+01 5.06550E-02 7.31695E-04-3.87500E-01 6.01041E-14 4.91953E-14
 -1      2456 2.05550E+01 7.21880E-02-1.14102E-03-4.40023E-01 4.39580E-14-1.74883E-14
 -1      2457 2.09630E+01 1.35290E-02-6.12527E-04-4.37412E-01-4.66336E-14-2.98594E-14
 -1      2458 2.08631E+01 3.07028E-02 7.76785E-04-4.28071E-01 1.61816E-14-1.39114E-14
 -1      2459 2.06956E+01 4.83655E-02-1.16846E-03-4.93160E-01 2.85336E-14-6.83904E-14
 -1      2460 2.11480E+01-3.73420E-02-2.68546E-03-4.29839E-01-1.74893E-13-1.04781E-13
 -1      2461 2.10495E+01-7.91594E-03 8.00254E-04-4.40591E-01-1.11615E-13 6.19350E-15
 -1      2462 2.08563E+01 5.77920E-04-1.14442E-03-5.19882E-01-4.55587E-14 5.84640E-15
 -1      2463 2.13290E+01-1.15835E-01-5.55799E-03-3.62283E-01 8.33628E-14-7.89035E-14
 -1      2464 2.12435E+01-7.14296E-02 7.79090E-04-4.04529E-01-1.43965E-13-8.56794E-14
 -1      2465 2.10347E+01-7.96220E-02-1.02954E-03-4.99050E-01-1.41747E-13 3.40978E-14
 -1      2466 2.14856E+01-2.23725E-01-9.07407E-03-2.08011E-01 2.17313E-13-1.20625E-14
 -1      2467 2.14296E+01-1.64166E-01 6.45440E-04-2.94288E-01 1.89287E-13-4.40371E-14
 -1      2468 2.12252E+01-1.98730E-01-7.27582E-04-4.03488E-01 8.90460E-14 1.03480E-13
 -1      2469 2.15895E+01-3.53298E-01-1.26637E-02 5.79325E-02 5.56759E-14 2.57170E-13
 -1      2470 2.15838E+01-2.84212E-01 2.44100E-04-8.26240E-02 9.54766E-14 1.37393E-13
 -1      2471 2.14166E+01-3.55992E-01-3.32470E-05-2.02481E-01 8.80203E-14 2.50059E-13
 -1      2472 2.16032E+01-4.79739E-01-1.51567E-02 4.47410E-01-1.31779E-13 2.51652E-13
 -1      2473 2.16709E+01-4.16640E-01-6.74361E-04 2.50983E-01 9.66471E-14 3.27827E-13
 -1      2474 2.15882E+01-5.34982E-01 1.40714E-03 1.31172E-01-2.89165E-14 3.26313E-13
 -1      2475 2.14824E+01-5.54927E-01-1.47835E-02 9.40883E-01-1.41281E-13 1.27826E-13
 -1      2476 2.16438E+01-5.25817E-01-2.53686E-03 7.04823E-01-1.98517E-13 2.29042E-13
 -1      2477 2.17046E+01-6.92981E-01 4.02900E-03 6.06956E-01-1.44914E-14 3.59561E-13
 -1      2478 2.11848E+01-5.12032E-01-9.69200E-03 1.46534E+00-2.30265E-13 2.31079E-13
 -1      2479 2.14484E+01-5.52554E-01-5.41916E-03 1.23274E+00-1.21011E-13 2.01851E-13
 -1      2480 2.17123E+01-7.56113E-01 7.71655E-03 1.19348E+00-1.61426E-13 3.43988E-13
 -1      2481 2.06918E+01-2.92240E-01 4.35914E-04 1.88396E+00-1.12826E-13 2.60824E-13
 -1      2482 2.10433E+01-4.28686E-01-8.28678E-03 1.72507E+00-2.18556E-13 3.64173E-13
 -1      2483 2.15476E+01-6.34301E-01 1.13941E-02 1.79188E+00-2.74133E-13 3.55959E-13
 -1      2484 2.00386E+01 1.07742E-01 1.23362E-02 2.01912E+00-3.05405E-14 4.92439E-13
 -1      2485 2.04316E+01-1.15657E-01-1.01616E-02 2.01343E+00-4.09800E-14 2.88684E-13
 -1      2486 2.11666E+01-2.62595E-01 1.28034E-02 2.22799E+00-1.19456E-13 4.49973E-13
 -1      2487 1.93387E+01 5.88537E-01 1.98181E-02 1.72351E+00 6.91816E-14 3.67479E-13
 -1      2488 1.96994E+01 3.44789E-01-8.27166E-03 1.92172E+00 4.67942E-15 3.73180E-13
 -1      2489 2.05902E+01 3.22534E-01 6.11380E-03 2.28828E+00-4.37846E-14 3.68291E-13
 -1      2490 1.87736E+01 9.62527E-01 1.93262E-02 9.92194E-01 9.14425E-14 2.87075E-13
 -1      2491 1.90216E+01 7.98900E-01-4.70400E-04 1.36989E+00 1.22807E-13 4.19585E-13
 -1      2492 1.99515E+01 9.51380E-01-5.34280E-03 1.82270E+00 7.86498E-14 1.86227E-13
 -1      2493 1.85032E+01 1.06494E+00 1.21166E-02 1.13938E-02 1.29841E-13 1.66603E-13
 -1      2494 1.85850E+01 1.05362E+00 1.07031E-02 4.65391E-01 1.17917E-13 2.71206E-13
 -1      2495 1.94544E+01 1.37169E+00-1.33728E-02 8.84492E-01 1.20408E-13 3.50042E-13
 -1      2496 1.85690E+01 8.61348E-01 3.59924E-03-9.17394E-01 1.42966E-13-2.65543E-15
 -1      2497 1.84813E+01 9.98532E-01 1.85471E-02-5.22579E-01 1.04695E-13 6.00651E-14
 -1      2498 1.92450E+01 1.40747E+00-1.00897E-02-2.50069E-01 2.18966E-13 1.91672E-13
 -1      2499 1.88697E+01 4.42352E-01-4.23532E-03-1.53419E+00 2.25837E-13 5.30192E-14
 -1      2500 1.86585E+01 6.71859E-01 1.75063E-02-1.30269E+00 4.10791E-14 4.71541E-15
 -1      2501 1.93044E+01 1.05721E+00 3.54873E-04-1.22096E+00 1.19115E-13-9.66290E-14
 -1      2502 1.92534E+01-8.37769E-02-1.00643E-02-1.71496E+00 2.41892E-13 2.87432E-13
 -1      2503 1.89867E+01 1.95787E-01 1.17544E-02-1.69048E+00 3.42684E-13 2.65397E-13
 -1      2504 1.94897E+01 4.36831E-01 7.94858E-03-1.78274E+00 1.56295E-13 2.62681E-14
 -1      2505 1.93995E+01-4.01998E-01 6.42489E-03-1.63104E+00 2.07453E-13 2.85959E-13
 -1      2506 2.46095E+01-1.62326E+00 6.38438E-02 2.17955E+00-4.83908E-13 2.45109E-13
 -1      2507 2.37085E+01-1.58858E+00-5.55439E-02 8.58448E-01-2.86354E-13 3.35992E-13
 -1      2508 2.53081E+01-2.38635E+00 4.13791E-02 5.63891E+00-8.49043E-14 9.71133E-13
 -1      2509 2.52111E+01-2.54204E+00-4.96394E-02 3.92587E+00-4.60080E-13 7.96425E-13
 -1      2510 2.63195E+01-2.04150E+00 2.70462E-02 2.62966E+00-4.99170E-13 7.06227E-13
 -1      2511 2.13143E+01-6.17218E-01 3.35332E-02-1.36717E+00-1.77834E-13-3.71577E-13
 -1      2512 2.06914E+01-4.86769E-01-1.97607E-02-1.72544E+00-1.50508E-13-1.74099E-13
 -1      2513 2.28435E+01-9.86803E-01 4.79028E-02-1.21770E-01-1.48463E-13 3.53613E-13
 -1      2514 2.19868E+01-8.80752E-01-3.55258E-02-9.20786E-01-2.14044E-13 4.51202E-14
 -1      2515 2.21029E+01-1.22532E-01 1.00235E-02-1.29662E+00-1.02527E-13-5.24355E-14
 -1      2516 2.41838E+01-7.42806E-01 2.25829E-02 6.29480E-02-3.16972E-13 2.26113E-13
 -1      2517 2.51494E+01-2.50330E+00-2.35129E-02-3.61738E+00-1.41415E-14-1.32741E-13
 -1      2518 2.48695E+01-2.22124E+00 1.40087E-02-5.33658E+00-1.32270E-13 4.08696E-13
 -1      2519 2.27850E+01-2.27566E+00-1.06333E-03 8.88401E+00 1.19349E-13-2.43125E-13
 -1      2520 2.46924E+01-2.84720E+00 9.88434E-02 7.68484E+00 1.76151E-13 4.85986E-13
 -1      2521 2.65698E+01-3.47017E+00 3.92168E-02 6.39778E+00-6.56836E-14 1.10728E-12
 -1      2522 1.62978E+01 7.39965E-02 6.91502E-02 8.96110E+00-4.28629E-13-1.03240E-12
 -1      2523 1.97044E+01-9.90090E-01 2.62978E-01 9.71581E+00 2.17742E-14-1.13726E-12
 -1      2524 1.72745E+01 9.92719E-01 2.98703E-01-8.01360E+00 1.31506E-13-3.68261E-13
 -1      2525 1.41215E+01 2.57741E+00-2.93082E-02-6.27056E+00 1.75762E-13-1.80550E-13
 -1      2526 2.24703E+01-5.16914E+00-6.86103E-02 1.03548E+01-4.67348E-13-1.19416E-12
 -1      2527 1.81905E+01-4.53701E+00 1.53312E-01 1.04651E+01-3.75533E-13-1.45864E-12
 -1      2528 2.34827E+01-1.84429E+00 2.07325E-01-7.50152E+00-3.97557E-13 5.36726E-14
 -1      2529 2.05130E+01-1.06224E+00-5.39336E-02-8.47710E+00-8.13793E-14-6.87325E-13
 -1      2530 1.85767E+01-1.85388E+00 1.22427E-01-8.83006E+00 1.28786E-14-6.27998E-13
 -1      2531 2.53674E+01-3.68342E+00 1.86012E-03-6.52339E+00-6.56836E-14 3.28331E-13
 -1      2532 1.97069E+01 1.43469E-01 3.28070E-03 5.90581E-02 1.61029E-13 8.18717E-14
 -1      2533 1.97852E+01 1.98251E-01 1.23613E-02 1.45335E-01 1.85629E-13 1.04506E-13
 -1      2534 1.98509E+01 1.81275E-01-3.79717E-03 6.44051E-02 1.66550E-13 3.84042E-14
 -1      2535 1.30043E+01-6.64443E+00 7.70025E-02-7.30192E+00-1.25622E-13-7.13651E-13
 -1      2536 1.73247E+01-6.73977E+00-4.30878E-02-7.48575E+00-1.44107E-13-5.58005E-13
 -1      2537 2.90583E+01-4.51099E+00-2.84154E-03-2.67925E+00-2.55199E-13-3.56659E-13
 -1      2538 3.17413E+01-2.60926E+00-1.22968E-01-1.20458E+00-3.97460E-14-3.24102E-13
 -1      2539 3.45077E+01 1.20536E+00-7.25843E-02-5.59685E-01-1.44273E-13-2.29261E-13
 -1      2540 3.58758E+01 3.74036E+00-1.17385E-01-3.34519E-01-1.83936E-13-2.09111E-13
 -1      2541 4.40571E+00-4.67319E+00 1.04835E-01 3.13091E+00-6.67522E-14-3.13638E-14
 -1      2542 2.98885E+00-4.22186E+00 1.37837E-01 5.50210E-01-2.06737E-13-3.54383E-13
 -1      2543 3.54051E+01 5.08038E+00-1.66320E-01 9.96770E-01 9.11216E-14-2.42306E-14
 -1      2544 3.48994E+01 2.81597E+00-4.70852E-02 1.84986E+00-1.07969E-14 5.65104E-14
 -1      2545 1.28808E+01-3.09260E+00-4.26503E-02 9.94669E+00-2.82496E-13-9.63785E-13
 -1      2546 9.43245E+00-2.72620E+00 1.12700E-01 7.68037E+00-1.85824E-13-3.66096E-13
 -1      2547 6.54858E+00-2.02516E+00-4.16349E-02 5.26711E+00-1.66395E-13 1.55265E-13
 -1      2548 5.74745E+00-1.20270E+00 6.31808E-02 2.00469E+00-2.68688E-13 3.70148E-13
 -1      2549 8.40389E+00 1.07005E+00 1.40042E-01 1.62457E-01-4.41388E-13 2.69451E-13
 -1      2550 1.00029E+01-9.94106E-02 5.38635E-02 6.32720E+00-6.01824E-13-1.93845E-13
 -1      2551 3.61671E+01 8.07005E+00-8.74822E-02-1.59877E+00 1.88738E-15-2.07168E-13
 -1      2552 3.51493E+01 7.97707E+00-1.52844E-01-2.42439E+00 1.16018E-13-1.28897E-13
 -1      2553 1.95177E+01 3.58528E+00-1.00872E-02-2.45194E-01 1.40507E-14-3.63574E-13
 -1      2554 1.95338E+01 3.56464E+00-9.63704E-03-4.25828E-01-2.38983E-14-3.64119E-13
 -1      2555 1.97100E+01 3.16399E+00-6.26628E-04-4.73137E-01-4.00042E-14-3.49007E-13
 -1      2556 1.96757E+01 3.22394E+00-9.39304E-04-1.51927E-01 1.45528E-14-3.42030E-13
 -1      2557 3.53545E+01 8.40200E+00-1.80159E-01 8.38558E-01 2.75668E-13-4.15584E-13
 -1      2558 3.52094E+01 7.33751E+00-1.29927E-01 5.94129E-01 6.45595E-14-4.25937E-13
 -1      2559 2.76971E+01-6.44703E+00 7.09375E-03 2.87287E+00-1.01641E-13 3.22686E-13
 -1      2560 2.37878E+01-7.49005E+00 2.31129E-02 4.06754E+00-1.09412E-13 3.82930E-13
 -1      2561 3.32458E+01 1.86100E-01-6.83969E-02 5.96626E-01 1.02224E-13-2.63345E-13
 -1      2562 3.47868E+01 2.30391E+00-1.01433E-01 1.13560E+00 1.99868E-13-3.37175E-13
 -1      2563 3.59761E+01 5.96699E+00-1.26015E-01-4.07346E-01-1.60871E-13-2.88630E-13
 -1      2564 3.62733E+01 7.32573E+00-1.32179E-01-8.23014E-01-1.74027E-13-3.11751E-13
 -1      2565 3.27698E+01 7.01557E+00-8.26545E-02-6.78705E-01-3.14193E-14-3.11445E-13
 -1      2566 3.29724E+01 4.01780E+00-1.02678E-01 6.69830E-01-2.87492E-13-2.21045E-13
 -1      2567 3.45349E+01 8.73202E+00-2.21159E-01 1.80043E+00 1.92568E-13-3.39312E-15
 -1      2568 3.51806E+01 9.08538E+00-1.40115E-01 1.28619E+00 2.53408E-13-3.38646E-13
 -1      2569 1.00625E+01-2.03497E+00 1.19252E-01-6.80197E+00 3.02536E-15 9.69225E-14
 -1      2570 1.34995E+01-2.80549E+00 4.57833E-02-9.13099E+00-9.97535E-14-2.55240E-13
 -1      2571 3.40832E+01 3.00961E-01-1.03504E-01 3.54519E+00-2.58741E-13 8.65974E-14
 -1      2572 3.22794E+01-1.63797E+00 6.66307E-03 4.79180E+00-2.80539E-13-3.31402E-14
 -1      2573 9.69268E+00-6.40010E+00 3.02801E-02 5.97470E+00 1.08580E-13 1.24928E-13
 -1      2574 6.84321E+00-5.73245E+00 8.77100E-02 4.74751E+00 4.80449E-14-4.12448E-14
 -1      2575 1.86949E+01-7.65438E+00-2.79602E-02 5.83833E+00 7.91589E-14 1.54005E-13
 -1      2576 1.37841E+01-7.29276E+00 5.10648E-02 6.04196E+00 1.20959E-13 1.89945E-13
 -1      2577 3.28111E+01-3.17031E+00-1.05890E-01-2.10900E-01 6.72518E-14 2.19602E-13
 -1      2578 3.00484E+01-4.99005E+00-5.48964E-02 1.09741E+00 3.49720E-14 2.45803E-13
 -1      2579 3.57585E+01 2.14933E+00-1.19831E-01-3.11229E+00-8.21565E-14 2.79998E-13
 -1      2580 3.42346E+01-4.29840E-01-4.75001E-02-2.22640E+00 6.75293E-14 3.00315E-13
 -1      2581 3.57634E+01 6.51530E+00-1.53285E-01-3.51210E+00 6.74460E-14-2.88103E-14
 -1      2582 3.60251E+01 4.69829E+00-5.05544E-02-3.64431E+00-7.62723E-14 8.23785E-14
 -1      2583 3.35983E+01 2.62698E+00-5.41467E-02-4.27944E+00 6.38378E-15 8.02691E-14
 -1      2584 3.00635E+01-3.49227E+00-5.57516E-02 7.10932E+00-5.34323E-13-3.56659E-13
 -1      2585 2.66516E+01-4.75061E+00 9.75458E-02 8.41190E+00-5.16143E-13-7.36106E-13
 -1      2586 5.51881E+00-5.91990E+00 3.21478E-02-5.47889E+00-2.17215E-13-3.17857E-13
 -1      2587 8.58412E+00-6.09033E+00 7.80629E-03-6.94354E+00-1.08746E-13-5.77538E-13
 -1      2588 3.23120E+01-3.53577E+00 1.11364E-02-3.73188E+00 3.59046E-13-1.12965E-13
 -1      2589 3.36821E+01-1.94864E+00-1.66531E-01-2.35903E+00 2.39583E-14 1.15796E-13
 -1      2590 2.61702E+01-6.02715E+00-1.87858E-02-7.73089E+00 6.36657E-13-8.99281E-14
 -1      2591 3.03001E+01-4.90852E+00-2.39640E-02-6.22703E+00 4.00485E-13-2.05502E-13
 -1      2592 3.05500E+01-4.75392E+00-5.41578E-03-4.45403E+00 2.10651E-13 1.20848E-13
 -1      2593 2.53491E+00-4.62268E+00 6.80128E-02-2.10153E+00-3.15768E-13-4.66738E-13
 -1      2594 3.62532E+00-5.28513E+00 5.65791E-02-4.13305E+00-2.73365E-13-1.59817E-13
 -1      2595 6.32195E+00-4.31738E+00 1.37871E-01-5.04472E+00-1.13909E-13-3.49054E-13
 -1      2596 2.04920E+01 8.74981E-01-7.30583E-03 1.22604E+00 2.45021E-13 1.98075E-13
 -1      2597 2.08424E+01 1.25696E+00-6.04827E-03 1.72676E+00 2.71276E-13 2.43113E-13
 -1      2598 2.06481E+01 1.71567E+00-1.57889E-02 1.92086E+00 2.88599E-13 1.51556E-13
 -1      2599 2.04503E+01 1.05810E+00-9.39045E-03 1.24067E+00 2.55252E-13 7.76126E-14
 -1      2600 2.22261E+01-6.75252E+00 7.10574E-02-6.01948E+00-3.01981E-13-4.80879E-13
 -1      2601 2.58590E+01-6.07623E+00-8.68747E-02-4.95586E+00-3.79141E-13-5.76858E-13
 -1      2602 3.31605E+01 5.63048E+00-8.28714E-02 9.86382E-02 3.77753E-13 1.17711E-13
 -1      2603 1.99122E+01 2.81610E+00 2.38735E-03-1.09808E+00-1.40941E-13-3.41139E-13
 -1      2604 1.97821E+01 3.16060E+00-1.45447E-02-1.28387E+00-1.50006E-13-3.52567E-13
 -1      2605 1.98767E+01 3.03722E+00-1.74746E-02-1.48254E+00-1.92623E-13-3.28045E-13
 -1      2606 2.07674E+01-6.69339E+00 1.11328E-01-6.41234E+00-2.81247E-13-4.77564E-13
 -1      2607 3.35987E+01 7.90467E+00-1.35337E-01 2.34451E+00 3.24685E-13 7.00690E-14
 -1      2608 3.07990E+01 8.08738E+00-1.63259E-01 2.14098E+00 2.29539E-13 2.48232E-13
 -1      2609 3.17723E+01 6.88342E+00-1.41595E-01 2.79154E+00 4.67015E-13 7.82430E-14
 -1      2610 2.04234E+01 2.11585E+00-1.27806E-02 1.87383E+00 2.89288E-13 1.81556E-14
 -1      2611 2.01135E+01 2.62147E+00-1.17066E-02-1.67766E+00-2.18871E-13-2.52296E-13
 -1      2612 2.39668E+01-1.45189E+00-4.89588E-02 5.37419E-01-2.54258E-14 1.86172E-13
 -1      2613 2.34643E+01-1.35319E+00 1.33185E-03 1.37730E-01 1.13005E-13 1.82836E-13
 -1      2614 2.39917E+01-1.59674E+00-1.98457E-02-6.05672E-01 1.03630E-13 2.23450E-14
 -1      2615 2.62450E+01-1.98703E+00-1.21750E-01 3.49524E-01 1.12271E-14 7.13284E-14
 -1      2616 1.96869E+01-3.15313E-01-1.73462E-03-1.85278E+00 2.15888E-13 3.74985E-13
 -1      2617 1.99964E+01 3.40477E-01-3.50228E-03 3.03661E-01 2.12362E-13 9.17148E-15
 -1      2618 2.00215E+01-3.63172E-01 1.78317E-02-1.82674E+00 1.15023E-13 1.95422E-13
 -1      2619 1.41859E+01 1.03549E+00 2.14344E-01 8.31892E+00-6.23945E-13-5.29937E-13
 -1      2620 1.56728E+01-1.44688E+00 3.76384E-01 9.66350E+00-5.68712E-13-1.39272E-12
 -1      2621 1.16725E+01 7.37680E-01 2.03838E-01-5.77296E+00 7.20257E-14-2.60902E-15
 -1      2622 1.25319E+01 3.50466E+00 2.86311E-01-3.84380E+00-1.60288E-14-1.92429E-13
 -1      2623 1.17893E+01 1.78292E+00 9.63881E-02 5.47885E+00-7.03451E-13-3.34455E-13
 -1      2624 3.30653E+01 6.63277E+00-1.10734E-01-3.18654E+00 7.07212E-14-2.06279E-13
 -1      2625 2.78964E+01-5.61154E+00 4.91982E-02-2.95707E+00-4.65933E-13-2.22239E-13
 -1      2626 3.26735E+01-2.26815E+00-3.84129E-02-2.41103E+00 1.51275E-13 2.48856E-13
 -1      2627 2.56125E+01-4.75127E+00 1.16236E-01 8.89082E+00-4.87194E-13-7.71050E-13
 -1      2628 1.23686E+01-5.59185E+00 1.53821E-01-7.18536E+00-1.05499E-13-7.27945E-13
 -1      2629 2.22304E+01-7.47595E+00 8.86136E-02 4.64774E+00 1.16379E-13 2.42702E-13
 -1      2630 2.06467E+01-6.89478E+00 1.42813E-01 4.97694E+00 1.74999E-13 2.78708E-13
 -1      2631 2.47014E+01-7.31944E+00-9.19523E-02 3.06289E+00 1.20001E-13 4.90809E-13
 -1      2632 3.17900E+01-1.73051E+00-2.20342E-02 7.02425E-01-1.02047E-13-8.70970E-14
 -1      2633 2.45176E+01-1.58647E+00 5.46873E-02-1.55377E+00 8.65328E-14-1.94803E-13
 -1      2634 1.36535E+01-6.10723E+00 1.52070E-01 5.91514E+00 1.77719E-13 1.87933E-13
 -1      2635 3.32858E+01 1.08050E+00 9.97503E-03 1.61722E+00 7.76185E-14 4.34014E-13
 -1      2636 3.23970E+01 8.41044E+00-1.02394E-01 7.38132E-01 2.26708E-13-1.89612E-13
 -1      2637 2.63995E+01-2.71353E+00 4.50650E-02-2.01217E+00 8.63129E-14 7.64076E-14
 -1      2638 4.44607E+00-3.19674E+00 1.63764E-01-7.27347E-01-2.07265E-13-3.05256E-13
 -1      2639 7.24314E+00-4.02485E+00 1.58917E-01 3.85000E+00 5.21944E-14 4.19109E-14
 -1      2640 3.27914E+01-8.83125E-01-5.19606E-02-3.61499E-01-7.46347E-14-1.00975E-13
 -1      2641 2.03704E+01 7.56808E-02 2.10900E-03-1.86786E+00-5.35813E-16-1.20721E-13
 -1      2642 1.01928E+01 2.88195E+00 5.51372E-02-3.81436E-01-3.54453E-13 1.51545E-14
 -1      2643 2.90645E+01-6.19566E+00-2.34447E-02 8.19559E-01 1.45717E-14 3.58491E-13
 -1      2644 3.34812E+01 3.51159E+00-9.61027E-02 2.65186E+00 4.30295E-13 3.67761E-14
 -1      2645 2.04373E+01 1.80820E+00 1.25464E-02 1.56152E+00 2.71903E-13-2.97245E-14
 -1      2646 3.09887E+01-3.13872E+00 3.73025E-03 5.16236E+00-3.16927E-13 4.23384E-13
 -1      2647 1.77484E+01-4.96633E+00 7.54386E-02-9.54721E+00-1.68421E-13-7.14609E-13
 -1      2648 2.25877E+01-5.73530E+00 3.83945E-02-9.67779E+00 4.06841E-13-5.96065E-13
 -1      2649 2.55462E+01-5.38065E+00 6.05668E-02-8.06963E+00 4.17388E-13-2.11595E-13
 -1      2650 1.98437E+01 2.76549E+00-6.29497E-03 5.15909E-01 1.19929E-13-2.84468E-13
 -1      2651 1.98188E+01 2.81524E+00-5.71309E-03 3.65120E-01 8.76173E-14-2.87481E-13
 -1      2652 1.98018E+01 2.85280E+00-5.61612E-03 2.29749E-01 7.52637E-14-3.09632E-13
 -1      2653 1.97932E+01 2.86973E+00-5.43115E-03 7.51910E-02 4.85787E-14-2.96662E-13
 -1      2654 1.99482E+01 2.50159E+00 3.63712E-03 2.65050E-01 7.63762E-14-2.87183E-13
 -1      2655 2.00436E+01 2.32403E+00-1.07353E-02 1.04515E+00 2.42732E-13-2.03795E-13
 -1      2656 1.99788E+01 2.47322E+00-6.35039E-03 9.09454E-01 2.21473E-13-2.14892E-13
 -1      2657 2.02170E+01 1.90882E+00-1.19566E-02 1.22667E+00 2.65960E-13-1.45825E-13
 -1      2658 2.01244E+01 2.14663E+00-4.78754E-03 1.13344E+00 2.45454E-13-1.71593E-13
 -1      2659 2.01896E+01 1.88678E+00 6.49435E-03 9.25823E-01 2.29366E-13-1.72368E-13
 -1      2660 2.02138E+01 7.27052E-01-3.44977E-03 6.41854E-01 2.29438E-13-5.91063E-14
 -1      2661 2.03556E+01 9.51875E-01 9.16951E-03 9.05631E-01 2.21500E-13-5.70833E-14
 -1      2662 2.77149E+01-2.82076E+00 3.11883E-03-1.42964E+00-8.80858E-14 6.83620E-14
 -1      2663 2.03121E+01 1.05975E+00 2.51770E-03-8.55753E-01-1.84727E-13-1.74216E-13
 -1      2664 2.02273E+01 8.17271E-01-5.18093E-03-6.11746E-01-1.65466E-13-1.67274E-13
 -1      2665 2.02165E+01 6.27242E-01 8.21508E-03-4.36113E-01-1.44080E-13-1.56791E-13
 -1      2666 2.01329E+01 4.75421E-01-3.40090E-03-2.77447E-01-1.17395E-13-1.58178E-13
 -1      2667 2.02628E+01 8.91273E-01 2.06153E-04-5.70118E-01-1.54607E-13-1.82208E-13
 -1      2668 2.01068E+01 3.62785E-01 6.60177E-03-1.57671E-01-9.51660E-14-1.45771E-13
 -1      2669 2.00476E+01 2.68072E-01-1.80211E-03-5.99040E-02-1.03931E-13-1.34317E-13
 -1      2670 2.01954E+01 5.28896E-01-1.71819E-03-2.60914E-01-1.13294E-13-1.75137E-13
 -1      2671 2.00216E+01 1.97757E-01 4.51786E-03 1.54765E-02-1.15097E-13-1.11264E-13
 -1      2672 1.99858E+01 1.38148E-01-8.45607E-04 7.20703E-02-1.22208E-13-1.12990E-13
 -1      2673 2.01266E+01 2.99114E-01-2.04616E-03-5.43778E-02-9.83244E-14-1.50981E-13
 -1      2674 1.99648E+01 9.39720E-02 2.89288E-03 1.15426E-01-1.21063E-13-7.28179E-14
 -1      2675 1.99467E+01 5.66420E-02-3.01691E-04 1.44859E-01-9.58348E-14-7.95042E-14
 -1      2676 2.00700E+01 1.52623E-01-1.90429E-03 7.29042E-02-1.03549E-13-1.15847E-13
 -1      2677 1.99316E+01 2.91249E-02 1.73485E-03 1.66308E-01-9.46479E-14-1.05709E-13
 -1      2678 1.99257E+01 6.29768E-03-2.88988E-06 1.78160E-01-8.68879E-14-1.44155E-13
 -1      2679 2.00288E+01 6.01671E-02-1.51642E-03 1.43874E-01-1.21503E-13-8.76927E-14
 -1      2680 1.99158E+01-1.02514E-02 9.30903E-04 1.85170E-01-8.52932E-14-1.63679E-13
 -1      2681 1.99175E+01-2.34498E-02 1.52102E-04 1.86012E-01-8.95156E-14-1.44823E-13
 -1      2682 2.00013E+01 2.99549E-03-1.13404E-03 1.76518E-01-1.12454E-13-1.28908E-13
 -1      2683 1.99116E+01-3.26861E-02 3.93288E-04 1.83982E-01-6.53111E-14-1.29479E-13
 -1      2684 1.99179E+01-3.94701E-02 2.25991E-04 1.78304E-01-1.05158E-14-8.22526E-14
 -1      2685 1.99844E+01-3.06091E-02-8.12377E-04 1.84219E-01-5.83895E-14-2.31136E-14
 -1      2686 1.99149E+01-4.38311E-02 4.81942E-05 1.71034E-01-7.55688E-15-1.10751E-13
 -1      2687 1.99234E+01-4.63756E-02 2.55102E-04 1.61891E-01-1.14935E-14-1.22944E-13
 -1      2688 1.99754E+01-4.84392E-02-5.62245E-04 1.76589E-01-1.23234E-14-5.77930E-14
 -1      2689 1.99223E+01-4.75258E-02-1.60795E-04 1.52009E-01-1.35734E-14-1.12277E-13
 -1      2690 1.99317E+01-4.73213E-02 2.60566E-04 1.41458E-01 8.23659E-15-1.08031E-13
 -1      2691 1.99717E+01-5.57807E-02-3.77355E-04 1.60380E-01-2.40550E-14-1.09935E-13
 -1      2692 1.99319E+01-4.64026E-02-2.76063E-04 1.30742E-01-9.27862E-15-1.37485E-13
 -1      2693 1.99413E+01-4.44631E-02 2.55570E-04 1.20142E-01 1.60759E-15-1.31674E-13
 -1      2694 1.99715E+01-5.62635E-02-2.46115E-04 1.40246E-01-3.07155E-14-1.61888E-13
 -1      2695 1.99423E+01-4.22455E-02-3.29191E-04 1.09770E-01-1.27420E-14-1.69597E-13
 -1      2696 1.99511E+01-3.92387E-02 2.49014E-04 1.00004E-01-7.02443E-14-1.38746E-13
 -1      2697 1.99736E+01-5.23656E-02-1.57082E-04 1.19326E-01-1.28933E-14-1.97292E-13
 -1      2698 1.99526E+01-3.62173E-02-3.43311E-04 9.07473E-02-9.99154E-14-5.77330E-14
 -1      2699 1.99607E+01-3.25536E-02 2.47337E-04 8.23868E-02-7.80387E-14-3.05592E-14
 -1      2700 1.99770E+01-4.57280E-02-1.00710E-04 9.96984E-02-3.07306E-14-1.40615E-13
 -1      2701 1.99625E+01-2.90176E-02-3.35188E-04 7.47498E-02-1.02988E-13-2.56541E-14
 -1      2702 1.99700E+01-2.49128E-02 2.55626E-04 6.81764E-02-1.56624E-13-2.31908E-14
 -1      2703 1.99812E+01-3.73698E-02-6.92910E-05 8.27380E-02-9.41759E-14-8.55554E-14
 -1      2704 1.99721E+01-2.09934E-02-3.17050E-04 6.25140E-02-1.82227E-13-2.68956E-14
 -1      2705 1.99791E+01-1.65123E-02 2.78337E-04 5.80132E-02-1.55512E-13-4.77005E-14
 -1      2706 1.99861E+01-2.78386E-02-5.67173E-05 6.93770E-02-1.63334E-13-6.06864E-15
 -1      2707 1.99814E+01-1.22166E-02-2.97893E-04 5.46147E-02-8.41919E-14-5.85682E-14
 -1      2708 1.99883E+01-7.30434E-03 3.19655E-04 5.24497E-02-9.32554E-14-7.36499E-14
 -1      2709 1.99913E+01-1.73182E-02-5.84030E-05 6.03132E-02-1.29180E-13 2.84787E-14
 -1      2710 1.99909E+01-2.53994E-03-2.84510E-04 5.16068E-02-1.04327E-13-1.01289E-13
 -1      2711 1.99981E+01 2.95625E-03 3.83755E-04 5.20756E-02-5.31783E-14-6.69523E-14
 -1      2712 1.99971E+01-5.70387E-03-7.07424E-05 5.61706E-02-1.00844E-13-6.23919E-14
 -1      2713 2.00009E+01 8.36511E-03-2.82409E-04 5.41356E-02-9.66677E-14-6.19522E-14
 -1      2714 2.00089E+01 1.46820E-02 4.75012E-04 5.76177E-02-9.85858E-14-7.91643E-14
 -1      2715 2.00035E+01 7.34403E-03-9.05734E-05 5.76238E-02-8.51782E-14-9.82769E-14
 -1      2716 2.00122E+01 2.09843E-02-2.96579E-04 6.30261E-02-3.42993E-14-9.00689E-14
 -1      2717 2.00216E+01 2.84353E-02 5.98062E-04 7.00216E-02 5.81696E-14-7.74311E-14
 -1      2718 2.00107E+01 2.23650E-02-1.14734E-04 6.54963E-02-6.37229E-14-2.68185E-14
 -1      2719 2.00254E+01 3.59483E-02-3.32138E-04 7.93568E-02 6.73994E-14-1.20774E-13
 -1      2720 2.00369E+01 4.49198E-02 7.57722E-04 9.05199E-02 5.54864E-14-2.10131E-13
 -1      2721 2.00191E+01 4.00779E-02-1.39455E-04 8.08383E-02 3.15671E-14-1.33114E-13
 -1      2722 2.00412E+01 5.40266E-02-3.94943E-04 1.04521E-01 1.02231E-13-1.54057E-13
 -1      2723 2.00556E+01 6.49771E-02 9.58738E-04 1.20688E-01 1.22317E-13-1.28841E-13
 -1      2724 2.00289E+01 6.13697E-02-1.59588E-04 1.04989E-01 1.29535E-13-2.61781E-13
 -1      2725 2.00604E+01 7.61251E-02-4.92166E-04 1.40276E-01 2.96271E-14-1.55324E-13
 -1      2726 2.00787E+01 8.95823E-02 1.20528E-03 1.62490E-01 9.60342E-15-1.66656E-13
 -1      2727 2.00401E+01 8.72882E-02-1.67664E-04 1.39621E-01 4.36934E-14-8.39693E-14
 -1      2728 2.00838E+01 1.03278E-01-6.32753E-04 1.88780E-01-3.26223E-14-2.03062E-13
 -1      2729 2.01067E+01 1.19828E-01 1.50011E-03 2.18300E-01-7.59899E-14-2.24586E-13
 -1      2730 2.00528E+01 1.19030E-01-1.52757E-04 1.86767E-01-5.04951E-14-1.75710E-13
 -1      2731 2.01119E+01 1.36617E-01-8.27593E-04 2.52599E-01-3.03401E-14-1.16680E-13
 -1      2732 2.01404E+01 1.56874E-01 1.84329E-03 2.90902E-01 1.08956E-13-8.76276E-14
 -1      2733 2.00667E+01 1.57907E-01-9.92633E-05 2.48821E-01 6.02918E-15-1.59443E-13
 -1      2734 2.01450E+01 1.77297E-01-1.08900E-03 3.34691E-01 3.86020E-14-1.44669E-13
 -1      2735 2.01799E+01 2.01824E-01 2.23042E-03 3.83428E-01-4.31277E-14-2.06261E-13
 -1      2736 2.00810E+01 2.05261E-01 1.40593E-05 3.28502E-01 5.75572E-14-9.16620E-14
 -1      2737 2.01827E+01 2.26300E-01-1.42863E-03 4.38305E-01 5.32826E-14-2.39948E-13
 -1      2738 2.02248E+01 2.55440E-01 2.65056E-03 4.99213E-01 8.74826E-14-1.64607E-13
 -1      2739 2.00940E+01 2.62271E-01 2.13910E-04 4.28754E-01 5.18928E-15-9.98178E-14
 -1      2740 2.02242E+01 2.84033E-01-1.85242E-03 5.66792E-01 6.35386E-14-2.00365E-13
 -1      2741 2.02738E+01 3.17561E-01 3.08453E-03 6.41483E-01 2.19048E-14-1.27445E-13
 -1      2742 2.01033E+01 3.29533E-01 5.29204E-04 5.52572E-01 4.07490E-14-4.99830E-14
 -1      2743 2.02676E+01 3.49510E-01-2.34976E-03 7.23221E-01-1.50241E-14-9.90381E-15
 -1      2744 2.03247E+01 3.85955E-01 3.50569E-03 8.12806E-01 2.94226E-14 8.03269E-14
 -1      2745 2.01051E+01 4.06243E-01 9.80925E-04 7.02710E-01 7.87106E-14-5.32432E-14
 -1      2746 2.03103E+01 4.18779E-01-2.87257E-03 9.09729E-01-1.13912E-14-2.15317E-14
 -1      2747 2.03750E+01 4.54194E-01 3.88694E-03 1.01414E+00 2.38340E-15-6.60513E-14
 -1      2748 2.00945E+01 4.88631E-01 1.55787E-03 8.81242E-01-1.98858E-14 1.08851E-13
 -1      2749 2.03504E+01 4.82098E-01-3.29715E-03 1.12646E+00-1.35745E-14-2.25593E-15
 -1      2750 2.04232E+01 5.07917E-01 4.21952E-03 1.24332E+00-2.39244E-14 7.57595E-14
 -1      2751 2.00663E+01 5.67172E-01 2.16565E-03 1.08900E+00 6.27080E-14-1.76869E-13
 -1      2752 2.03890E+01 5.19127E-01-3.35551E-03 1.36991E+00-5.02693E-14 1.16621E-13
 -1      2753 2.04733E+01 5.18735E-01 4.54558E-03 1.49280E+00 1.27667E-14 1.50367E-13
 -1      2754 2.00173E+01 6.21830E-01 2.52944E-03 1.32494E+00-4.79196E-14 1.29538E-13
 -1      2755 2.04371E+01 4.91459E-01-2.51466E-03 1.63040E+00-2.59452E-14 8.02520E-14
 -1      2756 2.05434E+01 4.35311E-01 4.97493E-03 1.74615E+00-4.39837E-14 8.09108E-14
 -1      2757 1.99520E+01 6.14550E-01 2.02677E-03 1.58549E+00-6.67699E-15 1.14739E-13
 -1      2758 2.05281E+01 3.32703E-01 2.32020E-04 1.88786E+00 8.47396E-14 5.13847E-14
 -1      2759 2.06815E+01 1.72976E-01 5.64565E-03 1.97261E+00 2.12252E-13 2.31723E-13
 -1      2760 1.98934E+01 4.78721E-01-5.59104E-04 1.86373E+00 6.88641E-14 1.10500E-13
 -1      2761 2.07399E+01-6.02604E-02 6.95306E-03 2.10379E+00 1.45255E-13 1.35623E-13
 -1      2762 2.09895E+01-3.90815E-01 6.79102E-03 2.11649E+00 7.89733E-14 1.09196E-13
 -1      2763 1.99038E+01 1.07152E-01-7.27004E-03 2.14645E+00 6.58832E-14-5.06174E-14
 -1      2764 2.12255E+01-8.22700E-01 2.18774E-02 2.20446E+00 9.11987E-14 5.03441E-14
 -1      2765 2.16408E+01-1.40162E+00 3.76798E-03 2.07763E+00-2.32817E-14 2.73490E-14
 -1      2766 2.01149E+01-6.52539E-01-2.11051E-02 2.40380E+00 1.73006E-14-1.46237E-14
 -1      2767 2.22484E+01-2.06617E+00 5.18159E-02 2.01572E+00 5.38979E-15-7.74034E-15
 -1      2768 2.29010E+01-2.86647E+00 3.91975E-03 1.63788E+00 1.02763E-13 9.36751E-16
 -1      2769 2.07891E+01-1.99561E+00-4.89215E-02 2.55062E+00 6.42333E-14-2.05200E-13
 -1      2770 2.40680E+01-3.69723E+00 7.62569E-02 1.27237E+00 1.25565E-13 1.71242E-13
 -1      2771 2.49545E+01-4.48011E+00-1.21020E-02 5.03275E-01 1.07386E-13 1.95281E-13
 -1      2772 2.23263E+01-3.74889E+00-4.89001E-02 2.26772E+00 1.60523E-13 1.70350E-15
 -1      2773 3.07674E+01 2.31134E+00-2.23764E-01-4.88949E+00 1.36557E-13-1.49575E-13
 -1      2774 3.10415E+01 5.01035E+00-1.54663E-01-4.44407E+00 1.46938E-13-2.46636E-13
 -1      2775 3.04637E+01 2.15520E+00-1.16457E-01 1.38932E+00-3.88189E-13-3.64930E-13
 -1      2776 2.97408E+01-2.40575E-01-2.24092E-01 8.83873E-01-2.83745E-13-3.65652E-13
 -1      2777 1.98561E+01 4.92795E-02 4.62287E-05-1.44883E-01 8.57409E-14 5.06547E-15
 -1      2778 1.98699E+01 8.11844E-02 3.13817E-03-1.16585E-01 1.03113E-13 3.93087E-14
 -1      2779 6.62683E+00-3.01207E+00 1.42253E-01-4.24576E+00-1.20820E-13-3.78614E-13
 -1      2780 8.52335E+00-3.79600E+00 1.12032E-01-5.84375E+00-1.14908E-14-5.04707E-13
 -1      2781 1.98931E+01 1.18750E-01-2.45594E-04-7.21973E-02 9.71076E-14 2.08334E-14
 -1      2782 1.99279E+01 1.70418E-01 4.95925E-03-1.69011E-02 1.19225E-13 7.43176E-15
 -1      2783 1.99925E+01 1.35387E-01-2.25772E-03-7.35522E-02 9.84332E-14-9.01921E-15
 -1      2784 1.98442E+01-1.84518E-02 2.33268E-04-1.85235E-01 2.89945E-15 4.85839E-14
 -1      2785 1.98358E+01-7.28439E-03 8.79501E-04-1.84854E-01 1.72496E-14 2.89896E-14
 -1      2786 1.98552E+01-3.20362E-02 2.38954E-04-1.77310E-01 1.00991E-13 3.09337E-14
 -1      2787 1.98424E+01-2.62834E-02 2.95668E-04-1.83183E-01 6.00462E-14 5.99146E-14
 -1      2788 1.99206E+01-2.51840E-02-8.43557E-04-1.88086E-01 4.48514E-14-2.03528E-14
 -1      2789 1.98710E+01-3.79943E-02 2.25755E-04-1.60817E-01 1.32234E-13 4.62273E-14
 -1      2790 1.98565E+01-3.58002E-02-6.62984E-05-1.69982E-01 1.07561E-13 2.80132E-14
 -1      2791 1.99203E+01-4.07723E-02-5.41520E-04-1.80152E-01 1.06802E-13 6.42845E-15
 -1      2792 1.98886E+01-3.89794E-02 2.07192E-04-1.40376E-01 1.44122E-13 8.23444E-14
 -1      2793 1.98741E+01-3.90847E-02-2.75971E-04-1.50858E-01 1.58101E-13 1.06100E-13
 -1      2794 1.99253E+01-4.73088E-02-3.27376E-04-1.63495E-01 1.22054E-13 6.74719E-14
 -1      2795 1.99063E+01-3.67950E-02 1.90687E-04-1.19060E-01 6.14488E-14 1.36766E-13
 -1      2796 1.98926E+01-3.83467E-02-3.82958E-04-1.29563E-01 1.50138E-13 1.15626E-13
 -1      2797 1.99332E+01-4.79478E-02-1.82382E-04-1.42839E-01 1.10751E-13 1.02967E-13
 -1      2798 1.99231E+01-3.26474E-02 1.80754E-04-9.88720E-02-3.17886E-14 1.06001E-13
 -1      2799 1.99107E+01-3.50813E-02-4.22600E-04-1.08562E-01 5.28374E-15 1.30072E-13
 -1      2800 1.99423E+01-4.48307E-02-8.98171E-05-1.21350E-01 3.41673E-14 1.80087E-13
 -1      2801 1.99384E+01-2.73057E-02 1.80707E-04-8.10985E-02-2.05771E-14 4.63027E-14
 -1      2802 1.99274E+01-3.02704E-02-4.20256E-04-8.94464E-02-8.62869E-15 6.94506E-14
 -1      2803 1.99518E+01-3.93805E-02-3.61459E-05-1.01109E-01 1.24748E-14 1.11202E-13
 -1      2804 1.99524E+01-2.12123E-02 1.93352E-04-6.65699E-02 1.29719E-14-1.70699E-14
 -1      2805 1.99426E+01-2.45152E-02-3.93856E-04-7.32328E-02-4.62323E-15 1.76966E-14
 -1      2806 1.99612E+01-3.24935E-02-1.14938E-05-8.34694E-02-2.40862E-17 1.12746E-13
 -1      2807 1.99652E+01-1.45638E-02 2.21425E-04-5.58582E-02-2.72369E-16-1.04264E-14
 -1      2808 1.99564E+01-1.81323E-02-3.55955E-04-6.05932E-02 1.75573E-16-9.79396E-15
 -1      2809 1.99702E+01-2.46711E-02-8.37455E-06-6.93267E-02-8.92892E-15 2.82438E-14
 -1      2810 1.99774E+01-7.37222E-03 2.67670E-04-4.94257E-02 4.83668E-14 1.70255E-14
 -1      2811 1.99691E+01-1.12229E-02-3.15195E-04-5.20242E-02 5.17899E-14 2.84820E-14
 -1      2812 1.99789E+01-1.61181E-02-2.14226E-05-5.93210E-02-1.34407E-15 7.19372E-14
 -1      2813 1.99896E+01 4.83253E-04 3.34785E-04-4.77345E-02-8.35297E-15-5.93730E-14
 -1      2814 1.99814E+01-3.72991E-03-2.77290E-04-4.79744E-02 2.70347E-14 2.33914E-15
 -1      2815 1.99876E+01-6.81928E-03-4.69826E-05-5.39905E-02 3.21287E-14 7.53338E-14
 -1      2816 2.00028E+01 9.21286E-03 4.25237E-04-5.13216E-02 2.97631E-14-8.39767E-14
 -1      2817 1.99939E+01 4.51556E-03-2.45913E-04-4.89353E-02-1.77747E-14-1.38209E-13
 -1      2818 1.99967E+01 3.39734E-03-8.24411E-05-5.38817E-02 4.39931E-14-7.71803E-14
 -1      2819 2.00179E+01 1.90714E-02 5.40821E-04-6.08457E-02-3.17629E-14-1.14504E-13
 -1      2820 2.00076E+01 1.37507E-02-2.23153E-04-5.55024E-02 4.26299E-14-6.82483E-14
 -1      2821 2.00068E+01 1.48040E-02-1.26109E-04-5.96252E-02 1.08161E-14-7.91815E-14
 -1      2822 2.00360E+01 3.03039E-02 6.81933E-04-7.71009E-02-1.25841E-14-2.31381E-14
 -1      2823 2.00236E+01 2.42328E-02-2.09685E-04-6.84051E-02-6.51262E-14-9.94436E-14
 -1      2824 2.00183E+01 2.77134E-02-1.76781E-04-7.19794E-02-2.54017E-14 1.99313E-15
 -1      2825 2.00585E+01 4.30747E-02 8.46495E-04-1.00991E-01 1.51921E-14 1.63062E-13
 -1      2826 2.00430E+01 3.61778E-02-2.04728E-04-8.85023E-02 2.17420E-14 6.67444E-14
 -1      2827 2.00322E+01 4.24043E-02-2.33594E-04-9.18375E-02-2.66753E-14 8.91964E-14
 -1      2828 2.00868E+01 5.73658E-02 1.02840E-03-1.33450E-01 2.75216E-14 1.07018E-13
 -1      2829 2.00672E+01 4.96767E-02-2.05615E-04-1.16732E-01 5.27611E-14 1.88647E-13
 -1      2830 2.00492E+01 5.90229E-02-2.96013E-04-1.20190E-01-3.21569E-14 2.41962E-13
 -1      2831 2.01225E+01 7.28339E-02 1.21538E-03-1.75297E-01-3.90916E-14 6.89239E-14
 -1      2832 2.00978E+01 6.45758E-02-2.06946E-04-1.54001E-01 4.90662E-14 7.99648E-14
 -1      2833 2.00705E+01 7.74428E-02-3.64066E-04-1.58031E-01 4.13358E-14 2.38402E-13
 -1      2834 2.01674E+01 8.86070E-02 1.38623E-03-2.26987E-01-6.00696E-14 1.19782E-15
 -1      2835 2.01364E+01 8.03066E-02-1.99207E-04-2.00995E-01-2.68275E-14 6.78925E-14
 -1      2836 2.00971E+01 9.70679E-02-4.38988E-04-2.06187E-01 1.07917E-14 2.08504E-13
 -1      2837 2.02234E+01 1.03007E-01 1.50747E-03-2.88235E-01-1.93916E-14 6.66197E-14
 -1      2838 2.01851E+01 9.56492E-02-1.66733E-04-2.57867E-01-4.31301E-14-1.09310E-14
 -1      2839 2.01306E+01 1.16557E-01-5.24478E-04-2.65037E-01-2.79615E-14 2.24106E-13
 -1      2840 2.02926E+01 1.13189E-01 1.52956E-03-3.57473E-01-2.03022E-14 4.56164E-14
 -1      2841 2.02460E+01 1.08415E-01-8.49762E-05-3.23790E-01-1.02094E-14 2.54971E-14
 -1      2842 2.01727E+01 1.33455E-01-6.28806E-04-3.34108E-01-1.60699E-14 6.29695E-14
 -1      2843 2.03771E+01 1.14706E-01 1.38321E-03-4.31093E-01-3.39905E-14 2.42639E-14
 -1      2844 2.03216E+01 1.15047E-01 8.27225E-05-3.96307E-01-3.46717E-15 7.22761E-14
 -1      2845 2.02258E+01 1.43721E-01-7.67866E-04-4.11481E-01-2.21649E-14 1.14139E-13
 -1      2846 2.04794E+01 1.01064E-01 9.76883E-04-5.02475E-01 3.69388E-14 2.12220E-14
 -1      2847 2.04147E+01 1.10169E-01 3.88062E-04-4.70465E-01 1.96399E-14-1.20128E-14
 -1      2848 2.02929E+01 1.41191E-01-9.68804E-04-4.93001E-01-3.64005E-14 1.29534E-13
 -1      2849 2.06021E+01 6.34302E-02 1.97146E-04-5.60803E-01 4.74349E-14 5.98733E-14
 -1      2850 2.05286E+01 8.61859E-02 8.98219E-04-5.37714E-01 5.42515E-14 4.37850E-14
 -1      2851 2.03785E+01 1.17062E-01-1.27259E-03-5.71250E-01 7.06456E-14 1.06176E-13
 -1      2852 2.07480E+01-9.15059E-03-1.08417E-03-5.89805E-01-8.93258E-14 5.31920E-14
 -1      2853 2.06670E+01 3.31781E-02 1.68882E-03-5.84621E-01 1.35789E-15 1.18993E-13
 -1      2854 2.04885E+01 5.96640E-02-1.73121E-03-6.34299E-01-1.54029E-14 5.79253E-14
 -1      2855 2.09202E+01-1.28344E-01-2.98968E-03-5.66736E-01-1.11559E-13-5.99810E-15
 -1      2856 2.08343E+01-6.04111E-02 2.82065E-03-5.91589E-01-1.08388E-13-1.64052E-14
 -1      2857 2.06313E+01-4.49690E-02-2.38979E-03-6.64332E-01-4.29061E-15-1.11821E-14
 -1      2858 2.11203E+01-3.02802E-01-5.59031E-03-4.62300E-01 1.26934E-13 1.01071E-13
 -1      2859 2.10341E+01-2.05413E-01 4.27992E-03-5.32052E-01-9.07295E-14-6.65592E-16
 -1      2860 2.08172E+01-2.10768E-01-3.23964E-03-6.36409E-01-1.04212E-13-6.27661E-14
 -1      2861 2.13458E+01-5.30623E-01-8.78122E-03-2.42856E-01-1.57350E-15 2.73970E-13
 -1      2862 2.12673E+01-4.06575E-01 5.86270E-03-3.73127E-01 1.53089E-13 2.30877E-13
 -1      2863 2.10573E+01-4.46036E-01-4.12806E-03-5.17994E-01 3.10406E-14 2.00009E-13
 -1      2864 2.15842E+01-7.87204E-01-1.20490E-02 1.22563E-01-4.99440E-14 2.13910E-13
 -1      2865 2.15264E+01-6.52755E-01 7.02629E-03-7.98173E-02-5.60346E-14 1.87917E-13
 -1      2866 2.13586E+01-7.42597E-01-4.57614E-03-2.70826E-01 1.27878E-14 1.92106E-13
 -1      2867 2.18041E+01-1.00974E+00-1.41043E-02 6.47834E-01-7.74246E-14 2.25608E-13
 -1      2868 2.17867E+01-9.02984E-01 6.85988E-03 3.74502E-01 2.55655E-14 3.36297E-13
 -1      2869 2.17143E+01-1.06014E+00-3.67267E-03 1.41844E-01-9.73031E-14 6.63687E-14
 -1      2870 2.19465E+01-1.08635E+00-1.26903E-02 1.30284E+00-2.28116E-13 4.20628E-13
 -1      2871 2.19931E+01-1.07133E+00 3.39371E-03 9.86044E-01-1.56583E-13 3.55271E-13
 -1      2872 2.20869E+01-1.30423E+00 7.86379E-05 7.38558E-01-1.74424E-13 3.05566E-13
 -1      2873 2.19270E+01-8.77691E-01-5.16064E-03 1.97516E+00-2.76962E-13 4.04350E-13
 -1      2874 2.20573E+01-1.02613E+00-4.14947E-03 1.68297E+00-2.74731E-13 3.89065E-13
 -1      2875 2.23882E+01-1.32297E+00 6.04619E-03 1.48169E+00-2.53715E-13 3.93916E-13
 -1      2876 2.16791E+01-2.92707E-01 9.10744E-03 2.45886E+00-2.92366E-14 4.25034E-13
 -1      2877 2.18918E+01-6.40598E-01-1.29058E-02 2.29557E+00-1.82664E-13 3.35690E-13
 -1      2878 2.24939E+01-9.54674E-01 1.24695E-02 2.22616E+00-1.73386E-13 4.74393E-13
 -1      2879 2.11898E+01 6.15309E-01 1.99696E-02 2.49227E+00 4.96057E-14 2.28155E-13
 -1      2880 2.14524E+01 1.23257E-01-2.33208E-02 2.57315E+00 6.80064E-14 3.47458E-13
 -1      2881 2.23032E+01-1.02521E-01 1.78574E-02 2.72780E+00 6.15040E-14 4.21537E-13
 -1      2882 2.05982E+01 1.53207E+00 1.99063E-02 1.89241E+00 5.77993E-14 1.72304E-13
 -1      2883 2.08432E+01 1.08875E+00-2.41423E-02 2.26100E+00-6.00561E-15 1.10890E-13
 -1      2884 2.18054E+01 1.06110E+00 5.72473E-03 2.64817E+00 1.19512E-13 2.41215E-13
 -1      2885 2.01350E+01 2.04320E+00 7.61554E-03 7.65099E-01 2.12329E-13 3.05379E-14
 -1      2886 2.02978E+01 1.85620E+00-1.11968E-02 1.33228E+00 1.68227E-13 1.03252E-13
 -1      2887 2.12178E+01 2.10634E+00-8.94973E-03 1.83741E+00 1.28814E-13 1.01385E-13
 -1      2888 1.99653E+01 1.90171E+00-7.16932E-03-4.93927E-01 2.49148E-13-6.43478E-14
 -1      2889 2.00181E+01 2.05366E+00 8.40140E-03 7.20302E-02 3.10167E-13 1.17695E-13
 -1      2890 2.08270E+01 2.54765E+00-1.01839E-02 5.15525E-01 2.65328E-13 3.52488E-14
 -1      2891 2.00011E+01 1.24168E+00-1.75204E-02-1.43506E+00 1.57632E-13-1.48703E-13
 -1      2892 1.99876E+01 1.61662E+00 1.58016E-02-1.05039E+00 2.02871E-13-1.78371E-13
 -1      2893 2.07278E+01 2.18896E+00 5.29111E-04-7.84406E-01 2.19605E-13-8.90521E-14
 -1      2894 2.02382E+01 4.87685E-01-2.02162E-02-1.82355E+00 2.81401E-14 6.94215E-15
 -1      2895 2.02142E+01 9.51105E-01 7.07557E-03-1.67759E+00-1.21316E-14-1.82756E-13
 -1      2896 2.09533E+01 1.41870E+00 1.17121E-02-1.53989E+00 6.03636E-14-1.59940E-13
 -1      2897 2.12220E+01 5.25667E-01 2.02773E-02-1.74262E+00-1.21414E-13-3.78757E-13
 -1      2898 2.00716E+01 4.15795E-01-1.38920E-03 2.87139E-01 1.85818E-13-2.53437E-14
 -1      2899 2.01720E+01 5.53546E-01 1.02632E-02 4.49549E-01 2.13219E-13-3.95480E-14
 -1      2900 2.02545E+01 8.22721E-01 1.03065E-03 6.16224E-01 2.00641E-13-1.11936E-13
 -1      2901 2.15737E+01-3.60242E+00-5.02356E-02 9.79125E+00-1.96843E-13-9.21214E-13
 -1      2902 1.04466E+01 2.88499E+00 3.25508E-01 2.82864E+00-5.75692E-13 1.98563E-13
 -1      2903 2.83034E+01-1.87887E+00 1.90553E-02 2.50243E+00-3.13933E-14 1.24176E-12
 -1      2904 2.69678E+01-1.14959E+00-1.12505E-01 9.98942E-01-7.44977E-14 6.16684E-13
 -1      2905 6.07850E+00-1.86969E+00 1.59960E-01 2.67266E-01-2.40849E-14-1.46994E-13
 -1      2906 5.89321E+00-2.16347E+00 2.04111E-01-2.37572E+00-2.12393E-13-3.90660E-13
 -1      2907 3.04139E+01 6.38785E+00-2.07777E-01-2.96053E+00 1.61371E-13-4.15105E-13
 -1      2908 3.10931E+01 1.91710E-01-1.16895E-01-4.91157E+00 1.35308E-13 9.73388E-14
 -1      2909 2.99797E+01-2.31844E+00 2.90873E-02-2.63501E-01-1.10502E-13 8.36831E-15
 -1      2910 2.96379E+01-1.97437E+00-7.43222E-02-4.11476E+00 1.03577E-13 7.34135E-14
 -1      2911 3.13718E+01-2.17330E+00-1.44474E-01-3.47622E+00 1.04000E-13 3.39950E-13
 -1      2912 3.05840E+01-4.51696E+00-4.99260E-02-1.90990E+00 7.25808E-14 2.77778E-13
 -1      2913 2.90206E+01-3.76867E+00-5.72818E-02-3.21953E+00 5.10945E-14-3.46945E-15
 -1      2914 2.91743E+01-5.68074E+00-7.36356E-02-2.48098E-01 7.15261E-14 3.81958E-13
 -1      2915 2.73023E+01-6.58704E+00 7.22533E-02 1.13300E+00 2.31620E-14 5.46854E-13
 -1      2916 2.88203E+01-5.20074E+00-3.55587E-03-1.39771E+00 7.70356E-14 2.41626E-13
 -1      2917 2.01800E+01 2.27270E+00 5.69738E-05-1.42243E+00-2.06995E-13-2.49539E-13
 -1      2918 1.66036E+01-2.96828E+00-5.65062E-02 1.01169E+01-5.61801E-13-1.51243E-12
 -1      2919 1.15652E+01-4.56447E+00 1.76980E-01-6.63034E+00-8.27532E-14-7.15816E-13
 -1      2920 1.50105E+01-5.46380E+00-7.91535E-03-7.15742E+00-1.48770E-14-7.35620E-13
 -1      2921 1.17080E+01-3.49634E+00 1.79199E-01-5.97853E+00 7.43572E-14-6.80622E-13
 -1      2922 1.99627E+01 2.31462E-01-6.23900E-04 6.18916E-02 1.47765E-13-1.55463E-14
 -1      2923 2.00271E+01 3.14767E-01 7.49886E-03 1.59170E-01 1.64026E-13-1.16759E-14
 -1      2924 2.01473E+01 4.79149E-01-1.18298E-03 2.79308E-01 1.70731E-13-6.30560E-14
 -1      2925 2.00573E+01 2.67610E-01-2.04258E-03 6.00285E-02 1.14273E-13-5.28607E-14
 -1      2926 2.99354E+01 7.98060E+00-2.31445E-01 9.47180E-01 1.98647E-13 1.27058E-13
 -1      2927 3.04095E+01 7.51628E+00-1.65306E-01 7.84223E-02 3.07976E-13 3.47500E-14
 -1      2928 1.98425E+01 6.67762E-03 1.83518E-04-1.77760E-01 2.57431E-14 1.23866E-14
 -1      2929 1.98424E+01 2.60466E-02 1.78669E-03-1.66713E-01 5.69652E-14-5.63005E-15
 -1      2930 1.99515E+01 5.40339E-02-1.76648E-03-1.46978E-01 7.45236E-14-7.39271E-15
 -1      2931 1.99295E+01 4.09771E-03-1.25138E-03-1.80367E-01 2.36879E-14 3.72207E-14
 -1      2932 2.62949E+01-6.03858E+00 9.84921E-02-3.14184E+00-4.79013E-13-4.17603E-13
 -1      2933 2.83996E+01-5.22239E+00-1.66010E-01-1.35644E+00-3.66124E-13-3.83027E-13
 -1      2934 1.93222E+01-5.96767E+00 1.76763E-01-6.35920E+00-1.29161E-13-5.06414E-13
 -1      2935 2.28652E+01-6.61117E+00-8.87095E-02-5.31653E+00-2.88630E-13-2.99122E-13
 -1      2936 1.99223E+01 2.59639E+00-7.92453E-03 7.93987E-01 1.88423E-13-2.49598E-13
 -1      2937 1.98785E+01 2.68851E+00-6.13745E-03 6.45091E-01 1.49983E-13-2.81169E-13
 -1      2938 1.99971E+01 2.38893E+00 4.34977E-03 5.16407E-01 1.27377E-13-2.57095E-13
 -1      2939 2.00792E+01 2.19119E+00 5.71631E-03 7.45048E-01 1.81387E-13-2.12017E-13
 -1      2940 1.63070E+01-5.77881E+00 6.28404E-02 5.67383E+00 2.04087E-13 2.87326E-13
 -1      2941 1.27532E+01-4.73486E+00 1.41189E-01 5.45506E+00 2.07279E-13 2.59487E-13
 -1      2942 3.04062E+01 3.89368E+00-2.43149E-01 9.42520E-01-3.04645E-13-5.00877E-13
 -1      2943 2.99561E+01-2.98673E+00-3.23320E-04 8.11934E-01-1.06651E-13 4.15085E-14
 -1      2944 3.07337E+01-9.79229E-01-2.13698E-01 2.09792E+00 5.39430E-14 2.68813E-13
 -1      2945 1.98740E+01 2.69682E+00-6.04392E-03-6.34389E-01-5.96954E-14-3.52911E-13
 -1      2946 1.99168E+01 2.60766E+00-7.56732E-03-7.84905E-01-8.79640E-14-3.47263E-13
 -1      2947 2.03388E+01 1.50045E+00-1.89568E-03 1.26622E+00 2.57393E-13-6.99120E-14
 -1      2948 3.14435E+01 2.19033E+00-8.27940E-02 3.01374E+00 2.50105E-13 2.46081E-13
 -1      2949 3.18235E+01 4.43305E+00-2.22166E-01 3.14462E+00 4.69208E-13 1.80259E-13
 -1      2950 1.77613E+01-2.61386E+00 5.45519E-02-9.07619E+00 3.03091E-14-7.24976E-13
 -1      2951 2.91453E+01-3.99840E+00-1.48596E-01-3.20007E+00 3.85490E-14 1.67900E-13
 -1      2952 9.89974E+00-3.70310E+00 1.26618E-01 4.79290E+00 1.88669E-13 1.93762E-13
 -1      2953 7.69032E+00-2.55120E+00 1.55829E-01 3.02217E+00 9.66727E-14 1.26593E-13
 -1      2954 1.29687E+01-3.46547E+00 1.66987E-01 4.72060E+00 2.46109E-13 3.41227E-13
 -1      2955 3.07788E+01 6.02905E+00-2.17231E-01-3.84854E-01 7.17648E-13 2.65940E-13
 -1      2956 3.13512E+01 4.12946E+00-9.80503E-02-3.86790E-01 7.38409E-13 5.93747E-13
 -1      2957 1.99721E+01 2.48598E+00-6.41542E-03-9.00364E-01-1.23661E-13-3.17680E-13
 -1      2958 2.00272E+01 2.34278E+00-1.32097E-02-1.04094E+00-1.65195E-13-2.97797E-13
 -1      2959 2.00679E+01 2.20101E+00 2.94608E-03-7.36161E-01-1.02301E-13-2.93523E-13
 -1      2960 1.99312E+01 2.53854E+00 3.16115E-03 5.11203E-03 4.63684E-14-2.73603E-13
 -1      2961 1.97926E+01 2.87034E+00-5.52466E-03-6.18611E-02 2.44398E-14-3.08657E-13
 -1      2962 1.98002E+01 2.85620E+00-5.40796E-03-2.16735E-01-2.27186E-15-3.22080E-13
 -1      2963 3.01559E+01 5.31427E+00-1.34055E-01 3.27755E+00 3.88828E-13 1.81286E-13
 -1      2964 3.04840E+01-2.49139E+00-1.52318E-01 3.64812E+00 9.44800E-14 1.24389E-12
 -1      2965 2.91473E+01-3.62762E+00 3.56626E-02 5.43406E+00-1.53363E-13 1.25108E-12
 -1      2966 2.83710E+01 7.25694E+00-1.48166E-01 2.09905E+00 2.90046E-13 7.36390E-14
 -1      2967 2.93554E+01 7.68518E+00-1.94051E-01 1.49362E+00 1.78385E-13-8.07514E-16
 -1      2968 2.77494E+01 7.16024E+00-1.32028E-01 9.65001E-01 2.94348E-13 9.11016E-14
 -1      2969 9.99929E+00-1.36636E+00 1.33826E-01 2.49753E+00 1.81234E-13 3.21132E-13
 -1      2970 7.82728E+00-1.55547E+00 2.04770E-01 1.60903E+00 1.03348E-13 2.33313E-13
 -1      2971 8.52732E+00-7.93944E-01 1.12835E-01 1.40049E-01 5.52180E-14 4.50195E-14
 -1      2972 3.02165E+01 2.86836E+00-1.07821E-01-3.30522E-01 7.97931E-13 7.96849E-13
 -1      2973 3.18104E+01 1.94810E+00-2.48165E-01 3.66212E-01 4.10352E-13 7.64416E-13
 -1      2974 3.18834E+01 2.81927E-02-6.83425E-03 1.52530E+00 1.51365E-13 8.12905E-13
 -1      2975 2.69703E+01-4.98241E+00 4.57584E-02-6.20875E-01 3.21913E-14 1.20227E-13
 -1      2976 2.79770E+01-4.70144E+00-4.73928E-02-1.80613E+00 2.23961E-14 6.02296E-15
 -1      2977 2.55492E+01-6.64978E+00 2.73294E-02 2.04761E+00 1.46466E-13 4.82954E-13
 -1      2978 3.02804E+01 6.62810E+00-2.39244E-01-1.30635E+00 1.35669E-13-3.79474E-13
 -1      2979 3.07040E+01 6.08643E+00-1.47710E-01-3.55152E-02-5.26246E-14-4.49946E-13
 -1      2980 2.85416E+01-4.02161E+00-5.44354E-03 3.20347E-01-1.63994E-13-1.21722E-13
 -1      2981 2.89694E+01 6.06928E+00-1.36931E-01-3.29698E-01 6.67855E-13 5.26891E-13
 -1      2982 2.20853E+01 4.97914E-01-3.77082E-02-1.51679E+00 1.56116E-14-1.71643E-13
 -1      2983 2.20890E+01 1.10463E+00 4.78348E-04-1.58159E+00 8.13143E-14-1.23822E-13
 -1      2984 2.31749E+01 3.63249E-01 1.18756E-02-1.11608E+00 4.85337E-14 1.88001E-13
 -1      2985 3.01089E+01-1.09980E+00-2.66843E-02 1.93570E+00 3.84092E-13 1.33044E-12
 -1      2986 8.00399E+00-1.81674E+00 1.82896E-01-3.13168E+00-1.10412E-13-5.16504E-13
 -1      2987 2.01399E+01 2.12915E+00 8.83256E-04-1.13966E+00-1.74962E-13-2.83328E-13
 -1      2988 2.02926E+01 1.68170E+00-1.06527E-02-1.24759E+00-2.08970E-13-2.16604E-13
 -1      2989 2.02879E+01 1.30319E+00-1.30441E-03-9.75091E-01-1.90446E-13-1.93585E-13
 -1      2990 2.01948E+01 1.85396E+00 5.23854E-03-9.26989E-01-1.67448E-13-2.75279E-13
 -1      2991 2.98711E+01 4.90334E-01-5.57259E-02 3.07711E+00 7.19702E-14 3.77906E-13
 -1      2992 1.82176E+01-5.19147E+00 1.31809E-01-6.21931E+00-3.75810E-14-4.88040E-13
 -1      2993 2.56638E+01-3.73692E-01 3.47826E-04 1.37416E-01-1.31948E-13 8.16708E-15
 -1      2994 2.42476E+01 6.47013E-02-6.91750E-02-7.06863E-01-2.83393E-14 2.32168E-13
 -1      2995 2.44323E+01 9.84678E-01-6.37996E-03-1.06007E+00 1.03004E-13 1.30252E-13
 -1      2996 2.73767E+01 2.10950E-01-1.47143E-02-3.02504E-02 3.38715E-13 4.64934E-13
 -1      2997 2.46384E+01-5.94447E+00 5.89930E-02-3.58689E+00-2.48204E-13-3.93199E-13
 -1      2998 1.98158E+01 2.82009E+00-5.73474E-03-3.51318E-01-2.48364E-14-3.20074E-13
 -1      2999 1.98401E+01 2.77228E+00-6.05722E-03-5.05437E-01-4.88626E-14-3.40338E-13
 -1      3000 1.99888E+01 2.39450E+00 2.17075E-03-5.05357E-01-5.13374E-14-3.26582E-13
 -1      3001 1.99441E+01 2.50416E+00 2.58398E-03-2.54060E-01-2.32511E-14-3.04561E-13
 -1      3002 2.02908E+01 1.58796E+00-1.18926E-03 1.16500E+00 2.62467E-13-1.27535E-13
 -1      3003 2.02796E+01 1.36687E+00 2.10256E-03 9.18829E-01 2.31968E-13-1.36073E-13
 -1      3004 2.02788E+01 1.37838E+00 5.58714E-03-8.82989E-01-1.61569E-13-2.31042E-13
 -1      3005 2.82579E+01-4.76641E+00 7.18692E-02-5.21399E+00 1.87891E-13 4.08618E-13
 -1      3006 2.53460E+01-5.59376E+00-3.73825E-02 1.11055E+00 7.75872E-14 3.41081E-13
 -1      3007 2.53336E+01-4.13252E+00 9.59655E-02-6.94983E+00 1.20529E-13 1.61936E-13
 -1      3008 1.91642E+01-5.96827E+00 1.37597E-01 5.00349E+00 2.27374E-13 2.47850E-13
 -1      3009 1.79288E+01-4.73282E+00 1.09912E-01 4.84877E+00 2.92322E-13 3.14318E-13
 -1      3010 2.14785E+01-6.06670E+00-1.77279E-02 3.86392E+00 2.71880E-13 3.27200E-13
 -1      3011 2.02399E+01 1.48179E+00-6.14386E-03 8.03160E-01 1.98410E-13-1.65907E-13
 -1      3012 2.02021E+01 1.67003E+00 2.31060E-05 7.46908E-01 1.92784E-13-1.80897E-13
 -1      3013 8.73541E+00-1.01085E+00 1.04074E-01-2.33878E+00 8.52339E-14-5.61245E-13
 -1      3014 9.61468E+00-1.76817E+00 1.24796E-01-4.15440E+00 3.60545E-14-6.57752E-13
 -1      3015 2.02708E+01 7.13525E-01 4.65907E-03-3.45477E-01-1.15944E-13-2.11465E-13
 -1      3016 2.02258E+01 5.51272E-01-3.79071E-03-2.14661E-01-1.04168E-13-2.17655E-13
 -1      3017 2.02212E+01 4.23330E-01 4.24748E-03-1.18955E-01-9.66483E-14-1.92188E-13
 -1      3018 2.01816E+01 3.14986E-01-2.34482E-03-3.44211E-02-7.85059E-14-1.65059E-13
 -1      3019 2.02714E+01 5.80296E-01-3.14907E-04-1.87606E-01-8.77026E-14-2.12252E-13
 -1      3020 2.01671E+01 2.31528E-01 3.14945E-03 2.68627E-02-9.49359E-14-1.35617E-13
 -1      3021 2.01367E+01 1.60884E-01-1.31789E-03 7.77552E-02-1.07703E-13-1.34211E-13
 -1      3022 2.02370E+01 3.31317E-01-9.68395E-04-2.56150E-02-8.16568E-14-1.79985E-13
 -1      3023 2.01199E+01 1.06702E-01 2.24363E-03 1.13555E-01-1.21958E-13-1.06197E-13
 -1      3024 2.00987E+01 6.13525E-02-6.37821E-04 1.40591E-01-1.24892E-13-1.11841E-13
 -1      3025 2.01960E+01 1.67183E-01-1.00609E-03 7.69612E-02-1.00395E-13-1.16785E-13
 -1      3026 2.00823E+01 2.72020E-02 1.47077E-03 1.58085E-01-1.10113E-13-8.64288E-14
 -1      3027 2.00685E+01-7.72789E-04-2.04220E-04 1.69111E-01-1.05480E-13-9.08025E-14
 -1      3028 2.01569E+01 6.03306E-02-9.64699E-04 1.34556E-01-1.11654E-13-1.15637E-13
 -1      3029 2.00540E+01-2.12760E-02 8.90011E-04 1.74325E-01-6.15753E-14-6.17979E-14
 -1      3030 2.00459E+01-3.73817E-02 5.87945E-05 1.75084E-01-2.23752E-14-4.47595E-14
 -1      3031 2.01226E+01-6.34924E-03-8.37502E-04 1.60615E-01-4.80867E-14-7.11967E-14
 -1      3032 2.00335E+01-4.85916E-02 4.73285E-04 1.72526E-01-4.15224E-14-1.17797E-14
 -1      3033 2.00294E+01-5.66414E-02 2.10822E-04 1.67133E-01-1.44061E-14-5.16595E-14
 -1      3034 2.00941E+01-4.53957E-02-6.91552E-04 1.65782E-01-1.06166E-14-5.78597E-14
 -1      3035 2.00193E+01-6.15842E-02 1.87824E-04 1.60089E-01-2.68655E-14-5.24888E-14
 -1      3036 2.00179E+01-6.42514E-02 2.91112E-04 1.51429E-01-5.01443E-14-9.73042E-14
 -1      3037 2.00711E+01-6.55629E-02-5.55163E-04 1.58019E-01-3.75707E-14-1.43387E-14
 -1      3038 2.00098E+01-6.50460E-02 1.18751E-06 1.42222E-01-5.24750E-14-1.14804E-13
 -1      3039 2.00102E+01-6.41980E-02 3.26605E-04 1.32274E-01-3.19081E-14-1.26573E-13
 -1      3040 2.00532E+01-7.30261E-02-4.37722E-04 1.43096E-01-5.59855E-14-2.51481E-14
 -1      3041 2.00039E+01-6.23100E-02-1.15054E-04 1.22496E-01-4.76858E-14-1.44161E-13
 -1      3042 2.00054E+01-5.92197E-02 3.36569E-04 1.12592E-01-3.36587E-14-1.38665E-13
 -1      3043 2.00394E+01-7.21225E-02-3.40855E-04 1.25059E-01-5.18567E-14-2.45700E-14
 -1      3044 2.00006E+01-5.56288E-02-1.83839E-04 1.03312E-01-1.75108E-14-1.61083E-13
 -1      3045 2.00028E+01-5.11240E-02 3.34714E-04 9.43375E-02-3.83437E-14-1.26131E-13
 -1      3046 2.00291E+01-6.58245E-02-2.63328E-04 1.06673E-01-4.25015E-14-1.26638E-13
 -1      3047 1.99992E+01-4.64458E-02-2.22818E-04 8.62717E-02-7.90510E-14-1.00230E-13
 -1      3048 2.00019E+01-4.10194E-02 3.30679E-04 7.88213E-02-7.33191E-14-8.04952E-14
 -1      3049 2.00218E+01-5.60794E-02-2.02938E-04 8.98079E-02-6.68452E-14-1.26281E-13
 -1      3050 1.99993E+01-3.55939E-02-2.45690E-04 7.24588E-02-1.20662E-13-6.88385E-14
 -1      3051 2.00023E+01-2.94811E-02 3.31761E-04 6.69537E-02-1.81772E-13-4.55883E-14
 -1      3052 2.00166E+01-4.40585E-02-1.56248E-04 7.57354E-02-1.02394E-13-8.50466E-14
 -1      3053 2.00004E+01-2.34323E-02-2.63266E-04 6.26593E-02-1.52719E-13 2.59973E-14
 -1      3054 2.00037E+01-1.66663E-02 3.43548E-04 5.94399E-02-1.06714E-13 3.45493E-14
 -1      3055 2.00133E+01-3.03384E-02-1.19881E-04 6.53590E-02-9.88507E-14-3.34151E-14
 -1      3056 2.00023E+01-9.94901E-03-2.84093E-04 5.75339E-02-1.26064E-13 5.19000E-14
 -1      3057 2.00060E+01-2.40283E-03 3.70223E-04 5.69313E-02-1.44514E-13-8.10593E-15
 -1      3058 2.00112E+01-1.50300E-02-9.06419E-05 5.94015E-02-1.11444E-13 6.68891E-14
 -1      3059 2.00049E+01 5.16432E-03-3.15359E-04 5.77502E-02-1.17217E-13 2.12125E-14
 -1      3060 2.00090E+01 1.37487E-02 4.15035E-04 6.01414E-02-7.19251E-14-4.65063E-14
 -1      3061 2.00100E+01 2.12542E-03-6.47033E-05 5.85469E-02-1.51648E-13 8.78131E-14
 -1      3062 2.00079E+01 2.24611E-02-3.63653E-04 6.40834E-02-8.92616E-14-5.63978E-14
 -1      3063 2.00126E+01 3.24539E-02 4.80456E-04 6.99348E-02-6.56688E-14-4.86055E-14
 -1      3064 2.00092E+01 2.16856E-02-3.76924E-05 6.35464E-02-7.24936E-14 1.75069E-14
 -1      3065 2.00111E+01 4.27067E-02-4.35472E-04 7.74950E-02-4.25650E-14-5.52212E-14
 -1      3066 2.00166E+01 5.45777E-02 5.68095E-04 8.73957E-02 4.00924E-14-1.07540E-13
 -1      3067 2.00082E+01 4.44614E-02-4.24787E-06 7.52983E-02-6.83553E-14-1.31834E-14
 -1      3068 2.00144E+01 6.68557E-02-5.37731E-04 9.91901E-02 1.59769E-13-1.32723E-13
 -1      3069 2.00207E+01 8.11651E-02 6.78370E-04 1.13876E-01 1.87487E-13-1.13904E-13
 -1      3070 2.00065E+01 7.14842E-02 4.26501E-05 9.49051E-02 1.22870E-13 2.01211E-14
 -1      3071 2.00172E+01 9.60345E-02-6.78249E-04 1.30656E-01 8.68999E-14-4.08096E-14
 -1      3072 2.00245E+01 1.13423E-01 8.09996E-04 1.51026E-01 2.96603E-14-6.42365E-14
 -1      3073 2.00030E+01 1.03979E-01 1.12466E-04 1.23706E-01 1.85900E-13-8.58053E-14
 -1      3074 2.00188E+01 1.31520E-01-8.66158E-04 1.73675E-01-8.71611E-14-5.25044E-14
 -1      3075 2.00270E+01 1.52692E-01 9.59267E-04 2.00790E-01-1.22505E-13-6.50922E-14
 -1      3076 1.99968E+01 1.43338E-01 2.18092E-04 1.63283E-01-1.52794E-14-1.63705E-14
 -1      3077 2.00181E+01 1.74699E-01-1.11216E-03 2.30315E-01-1.97254E-14-1.65547E-13
 -1      3078 2.00270E+01 2.00388E-01 1.11925E-03 2.65383E-01 7.32665E-14-1.15715E-13
 -1      3079 1.99859E+01 1.91068E-01 3.76984E-04 2.15437E-01-7.64111E-14 1.85697E-14
 -1      3080 2.00133E+01 2.26987E-01-1.42852E-03 3.02879E-01 5.78851E-15-8.15208E-14
 -1      3081 2.00222E+01 2.57880E-01 1.27925E-03 3.47214E-01 2.74601E-14-1.30239E-13
 -1      3082 1.99679E+01 2.48709E-01 6.12228E-04 2.82121E-01 4.71353E-14-6.66660E-14
 -1      3083 2.00017E+01 2.89645E-01-1.82851E-03 3.93806E-01 5.85829E-14-8.90342E-14
 -1      3084 2.00096E+01 3.26236E-01 1.42533E-03 4.48748E-01-7.48918E-15-4.39916E-14
 -1      3085 1.99395E+01 3.17653E-01 9.53065E-04 3.65336E-01 6.92368E-15-1.78073E-13
 -1      3086 1.99794E+01 3.63427E-01-2.32485E-03 5.05522E-01-6.33945E-14-8.80886E-15
 -1      3087 1.99847E+01 4.05726E-01 1.54378E-03 5.72314E-01 1.52952E-14 8.48315E-15
 -1      3088 1.98957E+01 3.98808E-01 1.43381E-03 4.66971E-01-1.92874E-14-1.15658E-13
 -1      3089 1.99410E+01 4.47892E-01-2.92670E-03 6.40239E-01 5.47622E-14 2.20095E-14
 -1      3090 1.99414E+01 4.94885E-01 1.63079E-03 7.19843E-01 1.41150E-13 6.51820E-14
 -1      3091 1.98303E+01 4.91963E-01 2.08920E-03 5.88637E-01 6.67707E-14 1.10938E-13
 -1      3092 1.98796E+01 5.40132E-01-3.63433E-03 7.99730E-01-1.47945E-14 6.87598E-14
 -1      3093 1.98725E+01 5.88822E-01 1.71464E-03 8.92597E-01-9.56640E-14 6.50169E-14
 -1      3094 1.97348E+01 5.94647E-01 2.94260E-03 7.31535E-01 9.79602E-14 1.49210E-13
 -1      3095 1.97873E+01 6.32526E-01-4.43037E-03 9.85213E-01 1.65322E-14-2.70534E-14
 -1      3096 1.97703E+01 6.76294E-01 1.89962E-03 1.09105E+00 8.58736E-14-3.14756E-15
 -1      3097 1.95993E+01 7.00148E-01 3.98106E-03 8.96566E-01-2.81907E-14 6.17204E-14
 -1      3098 1.96567E+01 7.08954E-01-5.26378E-03 1.19756E+00 6.80397E-14 4.85037E-14
 -1      3099 1.96301E+01 7.34897E-01 2.44416E-03 1.31523E+00-1.74757E-14 1.27664E-13
 -1      3100 1.94131E+01 7.94235E-01 5.10744E-03 1.08501E+00 1.24258E-13-3.54043E-14
 -1      3101 1.94851E+01 7.38737E-01-6.00273E-03 1.43830E+00-7.65196E-14 7.02927E-14
 -1      3102 1.94559E+01 7.23577E-01 3.87615E-03 1.56589E+00 4.64472E-16 8.55555E-14
 -1      3103 1.91669E+01 8.49916E-01 6.05518E-03 1.30045E+00-6.13758E-14 1.70191E-14
 -1      3104 1.92833E+01 6.67648E-01-6.29406E-03 1.71176E+00-2.93228E-14 5.59677E-14
 -1      3105 1.92736E+01 5.72116E-01 7.15708E-03 1.84685E+00-1.70484E-14-6.18386E-15
 -1      3106 1.88594E+01 8.19399E-01 6.23822E-03 1.55275E+00-2.51616E-14 9.74632E-14
 -1      3107 1.90922E+01 4.06327E-01-5.06625E-03 2.02845E+00 7.23766E-14-6.20957E-14
 -1      3108 1.91522E+01 1.67380E-01 1.34453E-02 2.16768E+00 4.46828E-14-4.98992E-14
 -1      3109 1.85069E+01 6.23058E-01 4.53759E-03 1.86482E+00 9.15040E-15-1.95785E-13
 -1      3110 1.90171E+01-1.78112E-01 3.06005E-03 2.40264E+00-7.22637E-15 3.32322E-14
 -1      3111 1.92359E+01-6.56677E-01 2.33634E-02 2.53944E+00 3.10613E-14-9.41091E-14
 -1      3112 1.81675E+01 1.27686E-01-1.81911E-03 2.27921E+00 2.89898E-14 3.68532E-14
 -1      3113 1.92780E+01-1.23524E+00 3.96999E-02 2.83708E+00 7.91418E-14-8.11061E-14
 -1      3114 1.97695E+01-2.12800E+00 2.33958E-02 2.95356E+00 9.92921E-14 7.01036E-14
 -1      3115 1.79830E+01-8.67355E-01-1.75476E-02 2.85160E+00 5.66335E-14 1.64169E-13
 -1      3116 2.09217E+01-3.70996E+00 7.77885E-02 3.23655E+00 2.19241E-13 1.06739E-13
 -1      3117 2.20073E+01-4.91341E+00 4.18716E-02 3.15341E+00 2.78125E-13 1.95517E-13
 -1      3118 1.99822E+01-4.88189E-02 2.19500E-04-1.73719E-01 6.96499E-14 3.33015E-14
 -1      3119 1.99820E+01-4.13395E-02 4.46918E-04-1.79339E-01 9.15655E-14-1.53185E-14
 -1      3120 1.99916E+01-3.10298E-02 9.64866E-05-1.81767E-01 7.82530E-14-6.57600E-15
 -1      3121 1.99956E+01-1.62402E-02 9.14973E-04-1.81052E-01 4.36091E-14 3.38235E-14
 -1      3122 2.00478E+01-3.87307E-02-7.35225E-04-1.75575E-01 7.53033E-14 4.32756E-14
 -1      3123 1.99769E+01-5.65102E-02 3.04273E-04-1.37553E-01 6.20942E-14 9.97108E-14
 -1      3124 1.99727E+01-5.70677E-02-6.22823E-05-1.47874E-01 1.11604E-13 4.55550E-14
 -1      3125 1.99781E+01-5.24814E-02 3.08441E-04-1.16963E-01-2.23222E-14 1.46425E-13
 -1      3126 1.99733E+01-5.50566E-02-1.79745E-04-1.27267E-01 3.51679E-14 1.25555E-13
 -1      3127 2.00107E+01-6.49744E-02-2.96607E-04-1.32804E-01 1.35322E-14 3.76605E-14
 -1      3128 1.99808E+01-4.56711E-02 3.04770E-04-9.77291E-02 1.42685E-14 1.13043E-13
 -1      3129 1.99758E+01-4.95057E-02-2.43039E-04-1.07125E-01-4.47073E-15 1.31353E-13
 -1      3130 2.00056E+01-5.97361E-02-2.14586E-04-1.13137E-01 2.25126E-14 7.01190E-14
 -1      3131 1.99843E+01-3.71038E-02 3.01457E-04-8.11816E-02 2.40429E-14 6.14844E-14
 -1      3132 1.99793E+01-4.17374E-02-2.72597E-04-8.90832E-02 4.86167E-14 1.13076E-13
 -1      3133 2.00027E+01-5.13626E-02-1.55345E-04-9.49301E-02 2.58116E-14 5.55501E-14
 -1      3134 1.99884E+01-2.73410E-02 3.04564E-04-6.82212E-02-5.82209E-14 6.83991E-14
 -1      3135 1.99835E+01-3.25362E-02-2.83199E-04-7.42259E-02-4.27694E-14 2.47306E-14
 -1      3136 2.00015E+01-4.09730E-02-1.15727E-04-7.95034E-02 2.89287E-14 1.79477E-14
 -1      3137 1.99930E+01-1.65911E-02 3.19167E-04-5.95136E-02 3.70611E-14 1.56425E-14
 -1      3138 1.99881E+01-2.22805E-02-2.85973E-04-6.33130E-02 1.19153E-14 6.98435E-14
 -1      3139 2.00015E+01-2.91533E-02-8.97572E-05-6.77711E-02 1.18546E-14 4.24390E-14
 -1      3140 1.99982E+01-4.80371E-03 3.48904E-04-5.56400E-02-2.18800E-14 3.53485E-14
 -1      3141 1.99932E+01-1.10426E-02-2.89002E-04-5.69517E-02-4.73685E-15 1.91055E-15
 -1      3142 2.00024E+01-1.60967E-02-7.44867E-05-6.04328E-02 2.63236E-14-1.05294E-13
 -1      3143 2.00040E+01 8.25242E-03 3.96549E-04-5.72008E-02 1.10775E-14 5.33115E-14
 -1      3144 1.99986E+01 1.32368E-03-2.98163E-04-5.57220E-02 5.81622E-15 9.96544E-14
 -1      3145 2.00041E+01-1.70445E-03-6.65010E-05-5.81190E-02-2.68446E-14 3.56378E-14
 -1      3146 2.00107E+01 2.29214E-02 4.64044E-04-6.48888E-02-6.22777E-14 1.27397E-13
 -1      3147 2.00046E+01 1.51129E-02-3.17701E-04-6.02641E-02 2.47788E-15 1.44644E-13
 -1      3148 2.00063E+01 1.43190E-02-6.35838E-05-6.14889E-02-4.41468E-14 1.97704E-13
 -1      3149 2.00187E+01 3.95814E-02 5.52176E-04-7.95286E-02-5.76440E-14 1.53688E-13
 -1      3150 2.00115E+01 3.06957E-02-3.50078E-04-7.13371E-02-3.89674E-14 1.43937E-13
 -1      3151 2.00090E+01 3.23841E-02-6.37604E-05-7.13027E-02-6.39266E-14 2.87210E-13
 -1      3152 2.00281E+01 5.85494E-02 6.60264E-04-1.02078E-01-7.38226E-14 2.25034E-13
 -1      3153 2.00195E+01 4.84333E-02-3.95946E-04-8.98395E-02-6.90142E-14 1.60025E-13
 -1      3154 2.00121E+01 5.29165E-02-6.57367E-05-8.84555E-02-7.78058E-14 3.10820E-13
 -1      3155 2.00397E+01 7.99526E-02 7.85508E-04-1.33588E-01-6.13198E-14 2.38698E-13
 -1      3156 2.00290E+01 6.85680E-02-4.53514E-04-1.16793E-01-6.43127E-14 2.11534E-13
 -1      3157 2.00156E+01 7.62351E-02-6.92411E-05-1.13976E-01-6.23560E-14 3.19936E-13
 -1      3158 2.00538E+01 1.03549E-01 9.22129E-04-1.75098E-01 6.41377E-14 2.67838E-13
 -1      3159 2.00406E+01 9.10730E-02-5.17454E-04-1.53273E-01 5.36274E-15 2.44570E-13
 -1      3160 2.00195E+01 1.02387E-01-7.57221E-05-1.48980E-01-1.10695E-14 2.42447E-13
 -1      3161 2.00714E+01 1.28478E-01 1.06032E-03-2.27467E-01-3.06392E-14 2.09234E-13
 -1      3162 2.00551E+01 1.15440E-01-5.77192E-04-2.00280E-01 1.04516E-13 2.77569E-13
 -1      3163 2.00241E+01 1.30920E-01-8.95882E-05-1.94570E-01 6.35813E-14 3.31452E-13
 -1      3164 2.00935E+01 1.52913E-01 1.18506E-03-2.91094E-01-7.06911E-14 2.36285E-13
 -1      3165 2.00733E+01 1.40387E-01-6.14428E-04-2.58518E-01-7.19809E-14 2.10096E-13
 -1      3166 2.00298E+01 1.60563E-01-1.20218E-04-2.51660E-01 2.00170E-14 2.47623E-13
 -1      3167 2.01218E+01 1.73610E-01 1.27483E-03-3.65512E-01 3.27021E-14 1.12543E-13
 -1      3168 2.00968E+01 1.63458E-01-5.99750E-04-3.28065E-01 5.09547E-14 1.91362E-13
 -1      3169 2.00376E+01 1.88798E-01-1.85019E-04-3.20706E-01 2.42353E-14 3.31522E-13
 -1      3170 2.01588E+01 1.85332E-01 1.30026E-03-4.48825E-01-3.89761E-14 1.56192E-13
 -1      3171 2.01279E+01 1.80515E-01-4.88317E-04-4.07893E-01 3.44548E-15 1.13758E-13
 -1      3172 2.00493E+01 2.11304E-01-3.13776E-04-4.01321E-01 1.53400E-14 1.43182E-13
 -1      3173 2.02086E+01 1.80212E-01 1.22221E-03-5.36944E-01 1.95767E-14 6.99541E-14
 -1      3174 2.01701E+01 1.85123E-01-2.14832E-04-4.95214E-01 4.63858E-14 8.12186E-14
 -1      3175 2.00682E+01 2.21274E-01-5.54262E-04-4.91736E-01 5.44583E-14 1.58118E-13
 -1      3176 2.02771E+01 1.47145E-01 9.88162E-04-6.22607E-01 8.05620E-14-4.29968E-14
 -1      3177 2.02288E+01 1.67903E-01 3.11253E-04-5.84600E-01 1.48116E-14-3.21321E-14
 -1      3178 2.00994E+01 2.08675E-01-9.78352E-04-5.88073E-01 8.50983E-14-1.17090E-13
 -1      3179 2.03736E+01 7.15301E-02 5.23967E-04-6.94156E-01-1.02563E-13 7.96739E-14
 -1      3180 2.03124E+01 1.16053E-01 1.20780E-03-6.66856E-01-3.52053E-14 1.02216E-13
 -1      3181 2.01519E+01 1.59608E-01-1.68604E-03-6.83386E-01-6.46337E-14-8.55731E-14
 -1      3182 2.05110E+01-6.40483E-02-2.80185E-04-7.34096E-01 5.33087E-14 7.71310E-14
 -1      3183 2.04327E+01 1.34568E-02 2.61291E-03-7.27603E-01 3.16686E-14 1.78214E-13
 -1      3184 2.02388E+01 5.61611E-02-2.80068E-03-7.66368E-01-7.30140E-14 1.87247E-13
 -1      3185 2.07065E+01-2.77072E-01-1.59281E-03-7.17529E-01-1.03328E-13 6.86360E-15
 -1      3186 2.06065E+01-1.57794E-01 4.65877E-03-7.45592E-01-2.17257E-14 2.64431E-14
 -1      3187 2.03796E+01-1.22467E-01-4.43788E-03-8.19602E-01 3.18742E-14 2.45223E-13
 -1      3188 2.09796E+01-5.78465E-01-3.69123E-03-6.10886E-01 6.05252E-14 4.12966E-14
 -1      3189 2.08540E+01-4.13008E-01 7.38148E-03-6.90905E-01-4.57646E-14 7.68111E-15
 -1      3190 2.06005E+01-3.96115E-01-6.62818E-03-8.17221E-01-7.45477E-14 5.26014E-14
 -1      3191 2.13469E+01-9.59036E-01-6.73800E-03-3.71900E-01-1.01533E-13 1.56343E-13
 -1      3192 2.11960E+01-7.55463E-01 1.05112E-02-5.23605E-01 5.74483E-15 1.37125E-13
 -1      3193 2.09328E+01-7.74923E-01-9.20674E-03-7.21980E-01-7.59299E-14-5.96565E-14
 -1      3194 2.18078E+01-1.36922E+00-1.07016E-02 4.39218E-02-2.04294E-13 3.36703E-13
 -1      3195 2.16419E+01-1.15874E+00 1.32415E-02-1.96458E-01-1.65091E-13 2.89610E-13
 -1      3196 2.14046E+01-1.24012E+00-1.12066E-02-4.83318E-01-2.28925E-13 2.74305E-13
 -1      3197 2.23267E+01-1.69119E+00-1.43703E-02 6.70727E-01-2.69186E-13 5.50879E-13
 -1      3198 2.21748E+01-1.54485E+00 1.43252E-02 3.37243E-01-2.06539E-13 4.94467E-13
 -1      3199 2.20257E+01-1.72307E+00-1.11114E-02-4.27668E-02-2.76616E-13 5.00857E-13
 -1      3200 2.27991E+01-1.70990E+00-1.53589E-02 1.48569E+00-2.61115E-13 4.45068E-13
 -1      3201 2.27085E+01-1.74702E+00 8.44844E-03 1.09554E+00-2.91978E-13 4.44304E-13
 -1      3202 2.27544E+01-2.04834E+00-3.61112E-03 6.60161E-01-2.29121E-13 6.77088E-13
 -1      3203 2.30730E+01-1.17236E+00-1.38070E-03 2.32465E+00-1.42076E-13 4.14739E-13
 -1      3204 2.30787E+01-1.51285E+00-4.63795E-03 1.98539E+00-2.22941E-13 4.13009E-13
 -1      3205 2.34147E+01-1.97438E+00-1.07327E-02 1.61891E+00-2.48767E-13 3.71109E-13
 -1      3206 2.30088E+01 7.38481E-03 1.71622E-02 2.90853E+00 1.17439E-13 4.78115E-13
 -1      3207 2.31267E+01-7.00132E-01-2.89252E-02 2.74022E+00 2.24751E-14 4.76903E-13
 -1      3208 2.38353E+01-1.08996E+00 1.30426E-02 2.63632E+00-9.85566E-14 4.26920E-13
 -1      3209 2.25245E+01 1.63594E+00 1.78044E-02 2.79948E+00 1.71162E-13 2.85304E-13
 -1      3210 2.27443E+01 7.85944E-01-4.75112E-02 2.99756E+00 1.36001E-13 3.76888E-13
 -1      3211 2.38103E+01 4.12375E-01 3.55958E-02 3.19377E+00 1.64362E-13 4.96349E-13
 -1      3212 2.19071E+01 2.96067E+00-6.04651E-03 1.81252E+00 2.35704E-13 2.88862E-13
 -1      3213 2.21446E+01 2.36883E+00-4.64529E-02 2.36164E+00 2.34596E-13 3.22523E-13
 -1      3214 2.32683E+01 2.31655E+00 8.19419E-03 2.85332E+00 2.11718E-13 4.81676E-13
 -1      3215 2.15792E+01 3.25686E+00-1.93420E-02 2.60521E-01 3.41742E-13 4.90372E-14
 -1      3216 2.16931E+01 3.27345E+00-1.70827E-02 9.54370E-01 2.19657E-13 1.29192E-13
 -1      3217 2.26806E+01 3.68632E+00-1.76556E-03 1.56137E+00 3.24416E-13 4.75051E-13
 -1      3218 2.15165E+01 2.45752E+00-2.92056E-02-1.04400E+00 2.17755E-13 6.52100E-14
 -1      3219 2.15637E+01 2.96553E+00 3.48514E-03-5.11841E-01 3.96422E-13 9.20375E-14
 -1      3220 2.24925E+01 3.66448E+00-9.91412E-03-7.24939E-02 2.82072E-13 2.45568E-13
 -1      3221 2.19061E+01 1.62264E+00-3.13722E-02-1.52380E+00 1.38824E-13-2.00399E-13
 -1      3222 2.17639E+01 2.10324E+00 4.13781E-04-1.34073E+00 1.55742E-13 1.65409E-14
 -1      3223 2.27106E+01 2.80164E+00-5.56351E-03-1.09460E+00 2.91697E-13 9.46188E-14
 -1      3224 2.30841E+01 1.71737E+00-4.57347E-03-1.37851E+00 2.81684E-13 7.61509E-14
 -1      3225 2.02823E+01 1.15430E+00 1.23557E-03-6.64917E-01-1.37736E-13-2.52306E-13
 -1      3226 2.02547E+01 9.10976E-01-4.79924E-03-4.78837E-01-1.27254E-13-2.30423E-13
 -1      3227 2.02820E+01 9.40980E-01-1.30433E-03-4.22453E-01-1.06268E-13-2.39180E-13
 -1      3228 2.68973E+01-4.54468E+00-9.48232E-02 7.89858E+00-1.98258E-13 5.51295E-14
 -1      3229 2.83426E+01-3.75186E+00 3.84574E-02 5.62186E+00-2.60271E-13 1.12967E-12
 -1      3230 1.13688E+01-2.45306E+00 1.46708E-01-5.14898E+00 6.97914E-14-5.95218E-13
 -1      3231 1.36969E+01-3.49440E+00 6.96529E-03-6.02295E+00 2.60694E-14-6.59500E-13
 -1      3232 1.20433E+01-1.66507E+00 1.41492E-01-4.32001E+00 2.84703E-14-7.23588E-13
 -1      3233 2.32693E+01-5.40364E+00 1.64140E-01-3.93364E+00-2.04187E-13-3.36083E-13
 -1      3234 2.53335E+01-5.70715E+00-1.48207E-01-2.28853E+00-3.45141E-13-5.23216E-13
 -1      3235 1.99779E+01-5.61128E-02 2.80227E-04-1.57485E-01 1.23554E-13 6.65368E-14
 -1      3236 1.99751E+01-5.34974E-02 1.35493E-04-1.66468E-01 9.55513E-14 3.74808E-14
 -1      3237 2.00307E+01-5.78497E-02-5.52265E-04-1.67659E-01 7.44393E-14 4.96921E-14
 -1      3238 2.00187E+01-6.52613E-02-4.06914E-04-1.51960E-01 8.43153E-14 8.85199E-14
 -1      3239 2.02255E+01 1.59041E+00-6.80551E-03-8.51149E-01-1.67702E-13-2.76777E-13
 -1      3240 2.02555E+01 1.36640E+00-6.04414E-05-7.44601E-01-1.55136E-13-2.68699E-13
 -1      3241 2.01718E+01 1.83488E+00 2.33306E-03-7.88693E-01-1.41829E-13-2.52647E-13
 -1      3242 2.84250E+01 4.02480E+00-8.87109E-02 3.57862E+00 2.24931E-13 2.11685E-13
 -1      3243 2.82084E+01 5.78061E+00-1.87432E-01 2.98526E+00 3.41643E-13 3.33067E-16
 -1      3244 2.00726E+01 1.50657E-01-1.07488E-03-7.75629E-02 1.00831E-13-1.94102E-14
 -1      3245 2.01036E+01 2.15928E-01 3.09491E-03-2.39083E-02 8.30677E-14-1.59540E-14
 -1      3246 2.73654E+01-4.44937E+00 1.03410E-01-1.44170E-01-2.37614E-13-7.83609E-14
 -1      3247 2.78603E+01-3.32210E+00-2.22084E-01 1.48904E+00 6.04057E-14 3.47264E-13
 -1      3248 2.70978E+01 6.10185E+00-1.60600E-01-1.87782E-01 5.61301E-13 4.02046E-13
 -1      3249 2.76842E+01 4.95377E+00-9.03822E-02-8.46127E-01 8.17096E-13 5.41608E-13
 -1      3250 2.02909E+01 9.88732E-01-7.35815E-04 6.89032E-01 1.94531E-13-1.19520E-13
 -1      3251 2.02669E+01 1.30770E+00 3.01782E-03 7.70185E-01 2.02004E-13-1.22864E-13
 -1      3252 2.02698E+01 1.12834E+00 2.20353E-04 5.92173E-01 1.63091E-13-1.36721E-13
 -1      3253 2.02319E+01 7.75688E-01-3.74993E-03 4.83163E-01 1.79998E-13-1.20464E-13
 -1      3254 2.00434E+01 2.16118E+00-4.27113E-03 2.92326E-01 8.58774E-14-2.59681E-13
 -1      3255 2.00302E+01 2.20019E+00-3.24179E-03 1.70770E-01 5.54982E-14-2.66282E-13
 -1      3256 2.46847E+01-3.83812E+00 4.62821E-01 9.26619E+00-2.15328E-13-6.45650E-13
 -1      3257 1.50233E+01-3.32204E+00 6.00229E-02 4.69994E+00 2.18367E-13 3.86913E-13
 -1      3258 1.26301E+01-2.16694E+00 1.16338E-01 3.94077E+00 1.70711E-13 2.94639E-13
 -1      3259 1.70135E+01-4.27300E+00 1.71681E-01-5.99235E+00 1.47868E-14-4.88838E-13
 -1      3260 1.99504E+01-5.37987E+00-1.08554E-01-5.43301E+00-2.88172E-14-3.87031E-13
 -1      3261 1.63629E+01-3.37179E+00 1.11414E-01-5.42185E+00 1.58901E-14-5.17905E-13
 -1      3262 2.83633E+01-4.32936E-01 3.85610E-02 3.06460E+00-2.15314E-14 2.92544E-13
 -1      3263 2.84450E+01 1.57187E+00-1.89721E-01 3.58885E+00 5.28466E-14 2.76446E-13
 -1      3264 2.00229E+01 2.21937E+00-3.54079E-03 6.56129E-02 5.25766E-14-2.59360E-13
 -1      3265 2.00233E+01 2.22231E+00-2.65576E-03-5.72742E-02 2.87123E-14-2.58404E-13
 -1      3266 2.01370E+01 1.92284E+00 4.98165E-03 1.01045E-01 2.95849E-14-2.46438E-13
 -1      3267 2.69528E+01 5.81081E+00-1.01533E-01 2.52907E+00 3.04326E-13 1.48492E-13
 -1      3268 2.59207E+01-4.62217E+00 4.70657E-02-8.42000E-01-2.89713E-13-1.02741E-13
 -1      3269 2.35865E+01-5.73113E+00 1.18731E-01 2.77765E+00 2.24890E-13 3.70466E-13
 -1      3270 2.60002E+01 6.25268E+00-1.02220E-01 7.61088E-01 5.83505E-13 2.64146E-13
 -1      3271 2.66458E+01 6.29735E+00-1.36490E-01 2.08436E-01 6.53463E-13 3.23082E-13
 -1      3272 2.55343E+01 5.39309E+00-5.41582E-02-2.55666E-01 7.97695E-13 4.50362E-13
 -1      3273 1.19168E+01-1.31964E+00 1.13407E-01 3.14360E+00 2.03951E-13 2.63248E-13
 -1      3274 1.15195E+01-4.91901E-01 5.38492E-02 1.93821E+00 1.73845E-13 2.07646E-13
 -1      3275 1.40387E+01-1.16333E+00 9.71549E-02 3.14402E+00 2.04437E-13 3.16809E-13
 -1      3276 2.80481E+01 3.02964E+00-1.60918E-01-8.52101E-01 8.04606E-13 4.94819E-13
 -1      3277 2.89251E+01 1.50897E+00-4.28683E-02-4.18711E-01 6.24084E-13 5.56416E-13
 -1      3278 1.73357E+01-3.59775E+00 7.24227E-02 4.24692E+00 2.85730E-13 3.69677E-13
 -1      3279 1.87562E+01-3.14590E+00-2.46717E-03 3.73972E+00 1.97245E-13 2.81164E-13
 -1      3280 2.02526E+01 1.37754E+00-4.32916E-05-6.44223E-01-1.35559E-13-2.62436E-13
 -1      3281 2.01641E+01 4.58419E-01-2.65904E-03 2.01157E-01 1.33478E-13-5.93691E-14
 -1      3282 2.02205E+01 5.99467E-01 2.74360E-03 3.39216E-01 1.55692E-13-8.93398E-14
 -1      3283 2.02550E+01 7.58484E-01 1.78383E-03 4.01711E-01 1.48544E-13-8.97270E-14
 -1      3284 2.00713E+01-2.12947E-03-9.51141E-04-1.69505E-01 2.74860E-14 1.55208E-14
 -1      3285 2.00081E+01 2.46163E-03-1.27705E-04-1.75136E-01 6.00377E-18 2.15872E-14
 -1      3286 2.00187E+01 2.80955E-02 1.58923E-03-1.63786E-01 9.14191E-15 2.02581E-14
 -1      3287 1.02388E+01-2.51326E-01 8.15890E-02 1.42414E-01 2.04029E-13 3.67623E-14
 -1      3288 9.32298E+00-4.62556E-01 1.79327E-01-1.07451E+00 1.85733E-13-3.33816E-13
 -1      3289 1.03607E+01-5.04233E-01 3.22304E-02-2.07827E+00 2.46850E-13-5.07483E-13
 -1      3290 2.69836E+01 2.57802E+00-5.54080E-02 3.61739E+00 7.53841E-14 2.19200E-13
 -1      3291 2.01566E+01 1.79965E+00-7.91042E-03 6.82803E-01 1.75133E-13-1.90514E-13
 -1      3292 2.01208E+01 1.93114E+00-2.94719E-03 5.89533E-01 1.43178E-13-1.95586E-13
 -1      3293 2.02574E+01 1.46084E+00 7.74635E-03 5.87861E-01 1.48608E-13-1.58487E-13
 -1      3294 2.17575E+01-4.92224E+00 4.03115E-02-4.15578E+00-7.63695E-14-3.33993E-13
 -1      3295 2.01124E+01 2.74849E-01-1.64103E-03 3.00157E-02 7.28935E-14-1.89918E-14
 -1      3296 2.01558E+01 3.70909E-01 3.33697E-03 1.19084E-01 1.03055E-13-3.43514E-14
 -1      3297 2.02111E+01 4.73101E-01-1.81814E-04 1.68781E-01 1.04314E-13-2.26855E-14
 -1      3298 2.01789E+01 2.96924E-01-1.16482E-03 2.35679E-02 7.82596E-14 5.20010E-16
 -1      3299 2.00343E+01 5.92164E-02-5.09324E-04-1.44612E-01 2.89326E-14 1.05365E-14
 -1      3300 2.00543E+01 1.00817E-01 2.48562E-03-1.16478E-01 7.26844E-14-3.18421E-15
 -1      3301 2.01026E+01 6.02439E-02-1.18355E-03-1.40751E-01 1.09908E-14-7.06087E-16
 -1      3302 2.00896E+01 2.02500E+00-5.38227E-03 5.04238E-01 1.26549E-13-2.18547E-13
 -1      3303 2.00640E+01 2.10550E+00-3.05878E-03 3.91027E-01 9.53247E-14-2.41536E-13
 -1      3304 2.01597E+01 1.84804E+00 5.32424E-03 2.90851E-01 8.34065E-14-2.29724E-13
 -1      3305 2.02017E+01 1.69782E+00 6.58635E-03 4.60122E-01 1.23605E-13-1.83536E-13
 -1      3306 2.01423E+01 1.60216E-01-1.40258E-03-7.75428E-02 8.56759E-14-2.47883E-14
 -1      3307 2.73570E+01-1.57256E+00 1.17194E-02 2.56360E+00 3.28747E-14 2.90143E-13
 -1      3308 2.65912E+01 3.41777E+00-8.31457E-02-9.13294E-01 7.55597E-13 3.73035E-13
 -1      3309 2.27546E+01-3.92265E+00 1.66813E-01-9.17290E+00-2.17160E-13-1.03990E-12
 -1      3310 2.00838E+01 2.08077E+00-1.04510E-03-6.04120E-01-8.84557E-14-2.86542E-13
 -1      3311 2.01172E+01 1.95563E+00-6.17431E-03-7.02041E-01-1.21879E-13-2.68575E-13
 -1      3312 2.01916E+01 1.73339E+00 4.03219E-03-6.48005E-01-1.20544E-13-2.54887E-13
 -1      3313 2.77950E+01-3.34597E+00-2.05481E-01 4.06839E+00-1.98522E-14 1.71048E-12
 -1      3314 2.00232E+01 2.23883E+00-2.79057E-03-3.85068E-01-3.34460E-14-3.08536E-13
 -1      3315 2.00488E+01 2.16562E+00-3.99531E-03-5.01134E-01-5.81453E-14-3.05016E-13
 -1      3316 2.01283E+01 1.95289E+00 4.14537E-03-4.79623E-01-7.44571E-14-2.84646E-13
 -1      3317 2.91580E+01-1.63896E+00 3.58418E-02 2.21667E+00 3.14068E-13 1.40488E-12
 -1      3318 2.97395E+01 4.16227E-02-1.72525E-01 5.39681E-01 4.79311E-13 1.04489E-12
 -1      3319 2.80233E+01 6.45898E-01-6.10048E-02-7.49338E-02 5.62592E-13 6.88519E-13
 -1      3320 1.89066E+01-3.84032E+00-2.31798E-01 1.06227E+01-5.16170E-13-1.83586E-12
 -1      3321 1.64758E+01-1.69607E+00 6.49755E-02 3.54436E+00 1.46922E-13 2.80748E-13
 -1      3322 2.03007E+01 4.38997E-01 3.06871E-03-7.26837E-02-4.83121E-14-2.15270E-13
 -1      3323 2.02735E+01 3.27067E-01-2.09831E-03-5.07111E-03-4.93431E-14-1.75911E-13
 -1      3324 2.02659E+01 2.36778E-01 2.25243E-03 4.04561E-02-7.38059E-14-1.44655E-13
 -1      3325 2.02411E+01 1.60992E-01-1.30326E-03 8.10522E-02-9.62929E-14-1.31779E-13
 -1      3326 2.03133E+01 3.29138E-01 8.14513E-05 3.29653E-03-4.14799E-14-1.77371E-13
 -1      3327 2.02261E+01 1.01922E-01 1.61104E-03 1.06897E-01-1.15422E-13-1.13047E-13
 -1      3328 2.02045E+01 5.29539E-02-6.62251E-04 1.28525E-01-7.19408E-14-7.75105E-14
 -1      3329 2.02822E+01 1.58191E-01-4.23379E-04 7.71392E-02-7.49074E-14-1.11246E-13
 -1      3330 2.01869E+01 1.55685E-02 1.13769E-03 1.40635E-01-6.55493E-14-9.24662E-14
 -1      3331 2.01690E+01-1.46159E-02-2.31331E-04 1.49179E-01-5.54548E-14-1.06035E-13
 -1      3332 2.02442E+01 4.70142E-02-5.85782E-04 1.18205E-01-8.17126E-14-6.86443E-14
 -1      3333 2.01512E+01-3.68340E-02 7.44000E-04 1.51907E-01-2.03870E-14-1.15150E-13
 -1      3334 2.01369E+01-5.38968E-02 4.70860E-05 1.51956E-01 2.12627E-14-8.56745E-14
 -1      3335 2.02055E+01-2.23649E-02-6.23280E-04 1.35739E-01-4.29877E-14-1.05805E-13
 -1      3336 2.01202E+01-6.56165E-02 4.45355E-04 1.48775E-01-1.08874E-14-7.78911E-14
 -1      3337 2.01092E+01-7.36656E-02 2.15809E-04 1.43739E-01-3.91784E-14-6.30329E-14
 -1      3338 2.01693E+01-6.22885E-02-5.99170E-04 1.37572E-01 7.82513E-16-1.36976E-13
 -1      3339 2.00942E+01-7.82569E-02 2.29881E-04 1.37236E-01-6.01973E-14-7.11160E-14
 -1      3340 2.00859E+01-8.02533E-02 3.07686E-04 1.29554E-01-5.53971E-14-7.77547E-14
 -1      3341 2.01371E+01-8.18251E-02-5.43837E-04 1.29788E-01-5.71499E-14-1.26596E-13
 -1      3342 2.00731E+01-8.01160E-02 7.93971E-05 1.21566E-01-5.50131E-14-6.96901E-14
 -1      3343 2.00670E+01-7.81439E-02 3.49535E-04 1.12937E-01-5.56299E-14-8.33397E-14
 -1      3344 2.01094E+01-8.75717E-02-4.74910E-04 1.16848E-01-5.24959E-14-1.58447E-13
 -1      3345 2.00562E+01-7.49333E-02-2.38633E-05 1.04732E-01-4.99063E-14-8.14465E-14
 -1      3346 2.00519E+01-7.04005E-02 3.62158E-04 9.63140E-02-5.04998E-14-1.17576E-13
 -1      3347 2.00864E+01-8.42014E-02-4.01356E-04 1.01901E-01-4.92298E-14-1.09122E-13
 -1      3348 2.00430E+01-6.52063E-02-9.51595E-05 8.87577E-02-6.59664E-14-4.82616E-14
 -1      3349 2.00402E+01-5.90116E-02 3.59033E-04 8.13434E-02-7.04151E-14-3.95422E-14
 -1      3350 2.00675E+01-7.48950E-02-3.29870E-04 8.71265E-02-1.52795E-14-2.58587E-14
 -1      3351 2.00329E+01-5.25006E-02-1.46918E-04 7.50288E-02-1.03829E-13-4.31627E-14
 -1      3352 2.00311E+01-4.51547E-02 3.50139E-04 6.91661E-02-1.11820E-13-4.18938E-14
 -1      3353 2.00523E+01-6.16961E-02-2.62859E-04 7.40318E-02-1.13299E-13-2.91213E-14
 -1      3354 2.00251E+01-3.76621E-02-1.90020E-04 6.45111E-02-9.46603E-14 3.37021E-15
 -1      3355 2.00242E+01-2.93681E-02 3.43358E-04 6.06097E-02-7.94487E-14 3.85232E-14
 -1      3356 2.00401E+01-4.57793E-02-1.98554E-04 6.36634E-02-7.42413E-14 8.01445E-14
 -1      3357 2.00190E+01-2.09675E-02-2.33219E-04 5.79471E-02-8.48487E-14 6.51124E-14
 -1      3358 2.00187E+01-1.16897E-02 3.43512E-04 5.63605E-02-1.01711E-13 7.70922E-14
 -1      3359 2.00301E+01-2.76403E-02-1.37033E-04 5.67986E-02-8.96623E-14 8.92942E-14
 -1      3360 2.00140E+01-2.25373E-03-2.83791E-04 5.60008E-02-1.09044E-13 1.02731E-13
 -1      3361 2.00141E+01 8.23101E-03 3.53514E-04 5.70851E-02-1.06574E-13 1.41775E-13
 -1      3362 2.00215E+01-7.23670E-03-7.47848E-05 5.41012E-02-6.62877E-14 1.03887E-13
 -1      3363 2.00093E+01 1.89931E-02-3.48679E-04 5.93611E-02-1.22205E-13 1.42856E-13
 -1      3364 2.00095E+01 3.10621E-02 3.74821E-04 6.35203E-02-6.34850E-14 9.57558E-14
 -1      3365 2.00134E+01 1.58884E-02-7.45990E-06 5.62213E-02-8.23987E-14 2.33879E-13
 -1      3366 2.00040E+01 4.35767E-02-4.34464E-04 6.88199E-02-1.13350E-14 4.36018E-14
 -1      3367 2.00041E+01 5.77357E-02 4.07330E-04 7.65383E-02 1.18909E-14 7.63623E-14
 -1      3368 2.00046E+01 4.25291E-02 7.04876E-05 6.38719E-02-4.16687E-14 1.33881E-13
 -1      3369 1.99971E+01 7.25430E-02-5.47685E-04 8.53259E-02 4.96912E-14 7.05922E-14
 -1      3370 1.99967E+01 8.94054E-02 4.49018E-04 9.71882E-02 1.93582E-13 2.44870E-14
 -1      3371 1.99940E+01 7.37570E-02 1.66522E-04 7.78804E-02 5.29273E-14 2.35057E-13
 -1      3372 1.99873E+01 1.07141E-01-6.95235E-04 1.10011E-01 2.43360E-13-3.82238E-14
 -1      3373 1.99860E+01 1.27407E-01 4.95454E-04 1.26708E-01 1.54968E-13-8.06216E-15
 -1      3374 1.99799E+01 1.10868E-01 2.90466E-04 9.92103E-02 1.46674E-13 1.23961E-13
 -1      3375 1.99731E+01 1.48780E-01-8.84633E-04 1.44186E-01 2.34277E-15-4.29609E-14
 -1      3376 1.99700E+01 1.73211E-01 5.39112E-04 1.66506E-01-1.08054E-13-4.20510E-14
 -1      3377 1.99604E+01 1.55330E-01 4.55207E-04 1.28951E-01 4.12558E-14-5.54056E-14
 -1      3378 1.99520E+01 1.98976E-01-1.12425E-03 1.89307E-01-8.19353E-14 3.72104E-14
 -1      3379 1.99462E+01 2.28353E-01 5.68615E-04 2.18105E-01 4.54757E-14 7.80612E-14
 -1      3380 1.99328E+01 2.08716E-01 6.77649E-04 1.68270E-01-1.42911E-15 4.41461E-14
 -1      3381 1.99212E+01 2.59256E-01-1.42359E-03 2.46893E-01 4.05355E-14 3.27968E-14
 -1      3382 1.99111E+01 2.94307E-01 5.68259E-04 2.83040E-01-6.25907E-15 1.66386E-14
 -1      3383 1.98940E+01 2.72602E-01 9.79800E-04 2.18324E-01-3.82449E-15 1.54765E-13
 -1      3384 1.98766E+01 3.30992E-01-1.79378E-03 3.18410E-01-3.29631E-14-3.59021E-14
 -1      3385 1.98601E+01 3.72270E-01 5.18573E-04 3.62712E-01-5.97103E-14-1.12991E-13
 -1      3386 1.98395E+01 3.48407E-01 1.38989E-03 2.80121E-01-3.76162E-14-1.01738E-14
 -1      3387 1.98127E+01 4.15114E-01-2.24864E-03 4.05104E-01-2.18175E-14-1.36829E-13
 -1      3388 1.97870E+01 4.62770E-01 3.99402E-04 4.58204E-01 5.06353E-14-1.45677E-13
 -1      3389 1.97634E+01 4.37114E-01 1.94321E-03 3.54343E-01-1.83792E-14-2.97930E-14
 -1      3390 1.97222E+01 5.11581E-01-2.80714E-03 5.07832E-01 1.23405E-13-5.66422E-14
 -1      3391 1.96835E+01 5.64987E-01 1.98167E-04 5.70114E-01 2.11830E-13 4.92421E-14
 -1      3392 1.96584E+01 5.38813E-01 2.68229E-03 4.41156E-01 1.13501E-13-6.30783E-14
 -1      3393 1.95959E+01 6.18492E-01-3.49902E-03 6.26957E-01 9.21448E-14 4.04331E-14
 -1      3394 1.95395E+01 6.75597E-01-7.23159E-05 6.98509E-01 2.03288E-16-3.65398E-14
 -1      3395 1.95146E+01 6.51942E-01 3.65571E-03 5.40101E-01 1.47676E-13-9.61425E-14
 -1      3396 1.94221E+01 7.30578E-01-4.37710E-03 7.62493E-01-8.65039E-15 3.72619E-14
 -1      3397 1.93426E+01 7.86871E-01-3.39850E-04 8.43271E-01 9.15226E-14 9.23708E-14
 -1      3398 1.93197E+01 7.72084E-01 4.91498E-03 6.50234E-01 2.98706E-14-2.65272E-15
 -1      3399 1.91868E+01 8.36777E-01-5.54195E-03 9.14864E-01 9.38930E-15-2.25277E-14
 -1      3400 1.90793E+01 8.83674E-01-4.12296E-04 1.00531E+00-6.26604E-15-5.07174E-14
 -1      3401 1.90586E+01 8.90100E-01 6.50915E-03 7.70888E-01-5.33794E-14 9.80698E-14
 -1      3402 1.88745E+01 9.16467E-01-7.18354E-03 1.08695E+00 6.12701E-14-4.57061E-14
 -1      3403 1.87368E+01 9.38891E-01 1.42732E-04 1.18946E+00-4.37098E-14 1.12195E-14
 -1      3404 1.87129E+01 9.89387E-01 8.48057E-03 9.03706E-01-4.17146E-14-4.60168E-14
 -1      3405 1.84707E+01 9.33823E-01-9.58110E-03 1.28854E+00-1.21907E-13 7.50973E-14
 -1      3406 1.83074E+01 9.06331E-01 2.09425E-03 1.41046E+00-1.02116E-13 3.44347E-14
 -1      3407 1.82611E+01 1.04193E+00 1.08818E-02 1.05711E+00-9.45955E-14-4.81174E-14
 -1      3408 1.79666E+01 8.29514E-01-1.29198E-02 1.54383E+00-4.21461E-14 2.98589E-15
 -1      3409 1.77985E+01 7.11498E-01 7.30111E-03 1.70190E+00 5.99719E-14 2.03106E-14
 -1      3410 1.76797E+01 1.00130E+00 1.36865E-02 1.25456E+00-9.29106E-14 2.82430E-14
 -1      3411 1.73680E+01 5.14981E-01-1.51036E-02 1.90760E+00 5.77700E-14-7.90705E-14
 -1      3412 1.72514E+01 2.35622E-01 1.93226E-02 2.13258E+00 1.39503E-14 1.21757E-14
 -1      3413 1.69379E+01 7.94250E-01 1.51127E-02 1.54407E+00-9.13023E-15 5.19576E-14
 -1      3414 1.67956E+01-2.31238E-01 4.35428E-03 2.53754E+00 7.47501E-14 1.19803E-13
 -1      3415 1.68447E+01-8.43173E-01 4.48155E-02 2.88444E+00 8.78846E-14 1.17148E-13
 -1      3416 1.51073E+01-1.12893E+00 1.99575E-02 3.22613E+00 1.99790E-13 1.89793E-13
 -1      3417 1.60270E+01 1.96162E-01 7.86124E-03 2.12116E+00 1.36370E-13 7.25774E-14
 -1      3418 2.02443E+01 1.40132E+00-2.85049E-03-5.87868E-01-1.22199E-13-2.41260E-13
 -1      3419 2.02865E+01 1.21320E+00 6.75358E-03-5.15783E-01-1.11783E-13-2.47336E-13
 -1      3420 2.02797E+01 9.62001E-01-5.16200E-03-3.76011E-01-9.80244E-14-2.27217E-13
 -1      3421 2.02165E+01 1.53056E+00-2.80825E-03-5.24194E-01-1.08413E-13-2.51754E-13
 -1      3422 2.00323E+01-6.53708E-02 3.54905E-04-1.04231E-01 2.39459E-15 3.10632E-14
 -1      3423 2.00341E+01-6.92766E-02-6.27361E-05-1.13376E-01 1.44333E-14 4.50868E-14
 -1      3424 2.00431E+01-7.19123E-02 3.42579E-04-1.22356E-01 1.22619E-14 3.90248E-14
 -1      3425 2.00464E+01-7.33978E-02 4.60095E-05-1.31658E-01 2.70382E-14 8.52160E-14
 -1      3426 2.00667E+01-7.88613E-02-3.73678E-04-1.12853E-01 1.42462E-14 7.46191E-14
 -1      3427 2.00186E+01-4.32176E-02 3.46371E-04-7.39780E-02 8.22968E-15 3.40572E-14
 -1      3428 2.00185E+01-4.97142E-02-1.79684E-04-8.05707E-02-5.44496E-15 1.05649E-14
 -1      3429 2.00146E+01-2.93561E-02 3.41801E-04-6.39310E-02 5.39905E-14 1.46237E-15
 -1      3430 2.00139E+01-3.66554E-02-2.14644E-04-6.85541E-02 3.98025E-14 2.29775E-14
 -1      3431 2.00300E+01-4.49343E-02-1.76393E-04-6.94235E-02 2.12880E-14 6.88837E-15
 -1      3432 2.00120E+01-1.39776E-02 3.45968E-04-5.82414E-02 1.43374E-14 1.31383E-14
 -1      3433 2.00108E+01-2.20520E-02-2.46777E-04-6.05539E-02 4.19152E-14-1.55954E-14
 -1      3434 2.00227E+01-2.88062E-02-1.27551E-04-6.09918E-02 6.72578E-14 3.95771E-14
 -1      3435 2.00102E+01 3.07325E-03 3.62140E-04-5.75464E-02-4.29243E-14 1.82404E-14
 -1      3436 2.00086E+01-5.89071E-03-2.82552E-04-5.72237E-02-6.15476E-15-2.33288E-14
 -1      3437 2.00167E+01-1.08502E-02-8.11737E-05-5.68779E-02 1.84471E-14 3.09814E-14
 -1      3438 2.00088E+01 2.21722E-02 3.92967E-04-6.25265E-02-1.14953E-13 1.82298E-13
 -1      3439 2.00069E+01 1.21036E-02-3.28110E-04-5.92123E-02-8.80960E-14 5.79777E-14
 -1      3440 2.00114E+01 9.15388E-03-3.65824E-05-5.77317E-02-1.00332E-13-2.49404E-14
 -1      3441 2.00075E+01 4.38060E-02 4.39915E-04-7.39731E-02-7.22421E-14 2.45337E-13
 -1      3442 2.00053E+01 3.23738E-02-3.87227E-04-6.72543E-02-5.91586E-14 2.54826E-13
 -1      3443 2.00062E+01 3.16572E-02 9.01431E-06-6.42655E-02-1.02504E-13 8.82155E-14
 -1      3444 2.00059E+01 6.84589E-02 5.03663E-04-9.28174E-02-8.79907E-14 2.60899E-13
 -1      3445 2.00033E+01 5.54199E-02-4.62374E-04-8.22141E-02-5.21715E-14 2.36204E-13
 -1      3446 2.00001E+01 5.72088E-02 5.75374E-05-7.73094E-02-5.30989E-14 1.12245E-13
 -1      3447 2.00034E+01 9.64687E-02 5.84053E-04-1.20128E-01-6.80294E-15 1.89623E-13
 -1      3448 2.00006E+01 8.16737E-02-5.53887E-04-1.05104E-01-6.17113E-14 2.63025E-13
 -1      3449 1.99926E+01 8.63218E-02 1.09826E-04-9.78403E-02-4.76949E-14 1.00413E-13
 -1      3450 1.99999E+01 1.27832E-01 6.80084E-04-1.57068E-01-5.19021E-14 1.84513E-13
 -1      3451 1.99967E+01 1.11332E-01-6.59099E-04-1.37064E-01-4.20716E-14 1.86940E-13
 -1      3452 1.99828E+01 1.19300E-01 1.64782E-04-1.26984E-01-4.53161E-14 1.18099E-13
 -1      3453 1.99952E+01 1.61936E-01 7.89982E-04-2.04806E-01 4.91657E-14 2.06527E-13
 -1      3454 1.99914E+01 1.44130E-01-7.70943E-04-1.79302E-01-7.88538E-15 1.64272E-13
 -1      3455 1.99701E+01 1.56001E-01 2.17925E-04-1.65985E-01-5.68013E-14 1.15889E-13
 -1      3456 1.99894E+01 1.97187E-01 9.11482E-04-2.64358E-01-3.02012E-14 2.49386E-13
 -1      3457 1.99847E+01 1.79023E-01-8.75900E-04-2.32976E-01 6.50198E-14 2.39426E-13
 -1      3458 1.99539E+01 1.95516E-01 2.59209E-04-2.16127E-01 4.21700E-14 5.00542E-14
 -1      3459 1.99833E+01 2.30524E-01 1.04238E-03-3.36358E-01 5.15884E-14 2.71092E-13
 -1      3460 1.99771E+01 2.13762E-01-9.51120E-04-2.99009E-01 6.66334E-15 2.85446E-13
 -1      3461 1.99340E+01 2.35733E-01 2.69817E-04-2.78621E-01 1.86958E-14 1.84047E-13
 -1      3462 1.99788E+01 2.56782E-01 1.18129E-03-4.20721E-01-3.58935E-14 2.21982E-13
 -1      3463 1.99699E+01 2.44337E-01-9.60517E-04-3.77815E-01 3.93603E-14 2.34394E-13
 -1      3464 1.99113E+01 2.72760E-01 2.17601E-04-3.54414E-01 5.01767E-14 2.40237E-13
 -1      3465 1.99797E+01 2.67931E-01 1.32818E-03-5.16192E-01 1.66216E-13 1.43868E-13
 -1      3466 1.99661E+01 2.64270E-01-8.49549E-04-4.68919E-01 1.03216E-13 2.25366E-13
 -1      3467 1.98878E+01 3.00204E-01 5.08645E-05-4.43938E-01 7.60617E-14 1.08819E-13
 -1      3468 1.99924E+01 2.52247E-01 1.48279E-03-6.19729E-01 1.46076E-13 2.45305E-14
 -1      3469 1.99708E+01 2.63815E-01-5.38288E-04-5.70428E-01 1.69156E-13 1.33613E-13
 -1      3470 1.98678E+01 3.08306E-01-3.09683E-04-5.46751E-01 1.55935E-13 1.30892E-13
 -1      3471 2.00279E+01 1.93581E-01 1.63689E-03-7.25654E-01-1.89481E-13 8.68176E-14
 -1      3472 1.99931E+01 2.29152E-01 8.76689E-05-6.78305E-01-4.21169E-14 1.28898E-15
 -1      3473 1.98592E+01 2.83025E-01-9.80541E-04-6.61038E-01 5.64286E-14 2.52124E-13
 -1      3474 2.01031E+01 7.11235E-02 1.75017E-03-8.24435E-01-3.90530E-14 1.69132E-13
 -1      3475 2.00472E+01 1.41843E-01 1.18845E-03-7.85324E-01-1.46678E-13 8.36960E-14
 -1      3476 1.98754E+01 2.05259E-01-2.12518E-03-7.82835E-01-1.43174E-13 9.97760E-14
 -1      3477 2.02425E+01-1.39563E-01 1.70562E-03-9.00798E-01-2.18301E-14 2.99182E-13
 -1      3478 2.01547E+01-2.08909E-02 2.97957E-03-8.79466E-01 2.25713E-14 2.29658E-13
 -1      3479 1.99373E+01 5.06244E-02-3.95831E-03-9.04722E-01-7.77627E-14 5.76714E-14
 -1      3480 2.04801E+01-4.62625E-01 1.25756E-03-9.30722E-01-8.68936E-14 1.78919E-13
 -1      3481 2.03465E+01-2.83955E-01 5.74107E-03-9.41305E-01-5.46299E-14 2.59831E-13
 -1      3482 2.00761E+01-2.09270E-01-6.71272E-03-1.01341E+00-8.77185E-14 3.01154E-13
 -1      3483 2.08563E+01-9.13168E-01-4.36172E-04-8.77397E-01-1.51021E-13 2.58204E-13
 -1      3484 2.06632E+01-6.68168E-01 9.71708E-03-9.40118E-01-1.04463E-13 2.00000E-13
 -1      3485 2.03354E+01-6.01840E-01-1.05283E-02-1.08545E+00-1.64839E-13 3.03854E-13
 -1      3486 2.14123E+01-1.47444E+00-3.61177E-03-6.83541E-01-3.04150E-13 3.22601E-13
 -1      3487 2.11521E+01-1.17731E+00 1.48468E-02-8.26277E-01-2.40494E-13 2.65168E-13
 -1      3488 2.07721E+01-1.14484E+00-1.57427E-02-1.07995E+00-1.82932E-13 4.55753E-13
 -1      3489 2.21649E+01-2.06884E+00-8.58673E-03-2.76805E-01-3.15179E-13 4.76277E-13
 -1      3490 2.18451E+01-1.76641E+00 2.04376E-02-5.31034E-01-3.21525E-13 4.10231E-13
 -1      3491 2.14468E+01-1.81072E+00-2.05828E-02-9.21818E-01-2.92161E-13 4.33343E-13
 -1      3492 2.31043E+01-2.50997E+00-8.72364E-03 4.44067E-01-2.18332E-13 4.31708E-13
 -1      3493 2.27489E+01-2.33577E+00 2.19938E-02 3.14220E-02-2.40294E-13 4.69577E-13
 -1      3494 2.23932E+01-2.50914E+00-2.45677E-02-5.30761E-01-2.43782E-13 2.87173E-13
 -1      3495 2.40730E+01-2.43224E+00 1.59002E-04 1.46226E+00-2.68227E-13 3.48540E-13
 -1      3496 2.37488E+01-2.54533E+00 2.13870E-02 9.28945E-01-1.79301E-13 4.28488E-13
 -1      3497 2.36031E+01-2.90344E+00 5.87478E-03 2.69487E-01-1.75400E-13 4.19781E-13
 -1      3498 2.51103E+01 1.17588E+00-2.19060E-02 3.41936E+00 1.28356E-13 4.38388E-13
 -1      3499 2.52601E+01-1.35840E-01-1.00401E-01 3.27687E+00 6.21014E-14 4.08724E-13
 -1      3500 2.46054E+01 3.91635E+00-5.79415E-02 2.91178E+00 1.93116E-13 4.58062E-13
 -1      3501 2.48931E+01 2.72787E+00-9.76913E-02 3.28737E+00 1.98133E-13 4.82019E-13
 -1      3502 2.36216E+01 4.33731E+00-6.36357E-02-3.35436E-01 3.59532E-13 3.60627E-13
 -1      3503 2.36100E+01 4.80306E+00-4.23321E-02 4.47783E-01 3.42087E-13 4.30530E-13
 -1      3504 1.21509E+01-7.84866E-01 1.39237E-01-3.44461E+00-5.05915E-14-5.54862E-13
 -1      3505 1.33778E+01-1.63339E+00 4.30730E-04-4.39719E+00-5.75442E-14-6.47968E-13
 -1      3506 2.62651E+01 1.16434E+00-1.02232E-01-7.52680E-01 3.21090E-13 1.30451E-15
 -1      3507 2.46629E+01 5.02680E+00-9.19859E-02 2.00005E+00 4.11574E-13 4.94388E-13
 -1      3508 2.48369E+01-4.50567E+00 1.19253E-01-1.41160E+00-2.33548E-13-1.55105E-13
 -1      3509 2.58038E+01-4.08094E+00-5.93021E-02 2.97541E-01-2.15916E-13 2.26359E-13
 -1      3510 2.52831E+01 1.52065E+00-2.79575E-02-9.77531E-01 1.17427E-13-1.50612E-13
 -1      3511 2.38780E+01 1.64605E+00-5.38694E-02-1.30071E+00 2.35652E-13 3.78742E-14
 -1      3512 2.37924E+01 2.34453E+00-2.16263E-02-1.31136E+00 2.90223E-13 9.99201E-16
 -1      3513 2.58935E+01 2.07416E+00-3.33480E-02-1.10137E+00 4.12934E-13 6.12982E-14
 -1      3514 2.00097E+01 2.26045E+00-3.66200E-03-1.56704E-01 4.36158E-15-2.79682E-13
 -1      3515 2.00234E+01 2.22929E+00-2.79049E-03-2.78326E-01-1.99215E-14-3.02499E-13
 -1      3516 2.01048E+01 2.02778E+00 4.58396E-03-2.83172E-01-1.49143E-14-2.95347E-13
 -1      3517 2.01203E+01 1.97885E+00 5.06821E-03-8.94245E-02 2.94661E-14-2.51736E-13
 -1      3518 2.01964E+01 1.60894E-01-1.20323E-03-8.20636E-02 7.23245E-14-9.83838E-15
 -1      3519 2.02226E+01 2.33556E-01 2.23679E-03-3.70538E-02 8.56004E-14-2.61570E-14
 -1      3520 2.55299E+01-1.89276E+00 1.94059E-03 2.30672E+00 9.52918E-14 3.98792E-13
 -1      3521 2.02845E+01 8.85073E-01-1.09218E-04 4.44387E-01 1.33114E-13-1.12435E-13
 -1      3522 2.02753E+01 1.05861E+00-2.38084E-03 4.84309E-01 1.42517E-13-1.37756E-13
 -1      3523 2.02588E+01 6.97823E-01-2.16107E-03 2.98121E-01 1.15452E-13-7.90991E-14
 -1      3524 2.00243E+01-5.54205E-02 3.53717E-04-8.76975E-02-3.00218E-15-8.59501E-15
 -1      3525 2.00251E+01-6.08781E-02-1.32530E-04-9.58527E-02 1.88833E-14-5.72015E-15
 -1      3526 2.00514E+01-7.08447E-02-2.96364E-04-9.63441E-02 2.67561E-14 3.10049E-14
 -1      3527 2.00394E+01-5.91374E-02-2.30893E-04-8.14812E-02-1.35594E-14 1.65009E-14
 -1      3528 1.55085E+01-2.37178E+00 1.17662E-01-4.87185E+00-9.60343E-14-5.96415E-13
 -1      3529 1.77201E+01-3.53809E+00-7.00544E-02-4.96085E+00-4.90927E-14-3.75047E-13
 -1      3530 1.53764E+01-1.62291E+00 6.92804E-02-4.08376E+00-1.93085E-13-5.61044E-13
 -1      3531 2.00985E+01-4.65726E-02 5.11674E-05-1.63705E-01 7.30521E-14-2.86581E-14
 -1      3532 2.01102E+01-2.99613E-02 8.07041E-04-1.63460E-01 7.98776E-14-2.31125E-14
 -1      3533 2.03184E+01 7.40511E-01 5.77089E-03-2.40674E-01-9.66698E-14-2.33064E-13
 -1      3534 2.02944E+01 5.71372E-01-3.47189E-03-1.39653E-01-7.49111E-14-2.33230E-13
 -1      3535 2.03264E+01 5.69497E-01-2.73442E-03-1.13012E-01-5.31573E-14-2.16517E-13
 -1      3536 2.04296E+01-3.97918E+00 1.33963E-01-4.28739E+00-9.79772E-15-1.39370E-13
 -1      3537 2.24147E+01-4.80779E+00-1.29848E-01-3.18314E+00-2.18743E-13-2.33471E-13
 -1      3538 2.53466E+01 3.55780E+00-9.95973E-02-1.03384E+00 5.60378E-13 1.68459E-13
 -1      3539 1.20637E+01-3.60128E-01 6.30885E-02-2.34473E+00 9.09516E-14-3.89577E-13
 -1      3540 1.43618E+01-3.45985E-01 1.71356E-02 2.45997E+00 2.81056E-13 1.64882E-13
 -1      3541 2.01265E+01-8.54429E-03-2.24549E-04-1.59795E-01 4.09988E-14-3.83060E-14
 -1      3542 2.01427E+01 2.06245E-02 1.28308E-03-1.50293E-01 2.73376E-15-3.75050E-14
 -1      3543 2.01706E+01-1.54200E-02-7.02094E-04-1.48425E-01 3.58051E-14-1.05485E-13
 -1      3544 1.15042E+01-5.43486E-02 1.01377E-01 1.06807E+00 2.33324E-13 2.37615E-13
 -1      3545 1.16397E+01 1.65598E-01 3.04145E-04 2.82138E-02 3.08670E-13-1.82215E-14
 -1      3546 1.30387E+01-4.38348E-03 5.87106E-02 1.59808E+00 2.85688E-13 1.45623E-13
 -1      3547 2.00859E+01-8.11703E-02-4.54755E-04-1.29350E-01 4.22164E-14 3.62961E-14
 -1      3548 2.00573E+01-7.31300E-02 3.02233E-04-1.40288E-01 6.96096E-14 5.27556E-14
 -1      3549 2.00627E+01-7.08402E-02 2.13427E-04-1.48507E-01 7.67136E-14 2.63149E-14
 -1      3550 2.02711E+01 1.19651E+00 9.84268E-04 4.51670E-01 1.17660E-13-1.45031E-13
 -1      3551 1.92241E+01-3.19784E+00 3.03295E-02-4.07043E+00-1.49672E-13-2.87518E-13
 -1      3552 2.52834E+01-2.64411E+00-2.16903E-02 1.76030E+00-1.59787E-13 3.01986E-13
 -1      3553 2.32469E+01-4.15947E+00 1.13790E-02-1.96609E+00-1.85418E-13-1.43146E-13
 -1      3554 2.45120E+01 5.37578E+00-8.00749E-02 1.15392E+00 4.31676E-13 4.99791E-13
 -1      3555 2.02270E+01 3.03562E-01-1.46120E-03 5.87766E-03 7.59198E-14-5.46340E-14
 -1      3556 2.02459E+01 3.87456E-01 2.37214E-03 6.64241E-02 6.46570E-14-4.59923E-14
 -1      3557 2.02731E+01 3.09012E-01-7.73449E-04-2.81960E-03 6.07544E-14-7.92370E-14
 -1      3558 2.54126E+01-3.39223E+00-2.35019E-02 9.02756E-01-1.57086E-13 3.39305E-13
 -1      3559 2.02011E+01 1.63979E+00-3.36872E-03 1.30506E-01 2.16560E-14-2.47326E-13
 -1      3560 2.01977E+01 1.65947E+00-2.52342E-03 3.99656E-02 1.83996E-14-2.51975E-13
 -1      3561 2.03027E+01 9.62419E-01-2.62232E-03-3.18026E-01-1.01985E-13-2.32712E-13
 -1      3562 2.00756E+01-6.60953E-02 2.13692E-04-1.55366E-01 7.04664E-14-1.31428E-14
 -1      3563 2.00837E+01-5.80516E-02 4.59510E-04-1.60671E-01 8.44628E-14-1.16252E-15
 -1      3564 2.01378E+01-5.48869E-02-6.30464E-04-1.51426E-01 7.89131E-14-1.22439E-13
 -1      3565 2.01095E+01-7.46822E-02-5.43066E-04-1.43396E-01 4.39147E-14-1.05995E-13
 -1      3566 2.02071E+01 1.58982E+00-3.68664E-03-4.50604E-01-1.00784E-13-2.55373E-13
 -1      3567 2.02851E+01 1.30524E+00 7.07445E-03-4.04128E-01-1.02448E-13-2.35631E-13
 -1      3568 2.01810E+01 1.03745E-01 1.87284E-03-1.12125E-01 3.21288E-14-7.50879E-15
 -1      3569 2.02452E+01 1.61408E-01-7.26625E-04-7.98302E-02 4.35050E-14-4.63814E-14
 -1      3570 2.01596E+01 5.65023E-02-6.64703E-04-1.35986E-01-5.28757E-15-1.89258E-14
 -1      3571 2.02207E+01 1.54782E+00-4.15827E-03 2.84756E-01 8.47991E-14-1.99658E-13
 -1      3572 2.02098E+01 1.60695E+00-2.03396E-03 2.01207E-01 4.91333E-14-2.11262E-13
 -1      3573 2.02842E+01 1.38630E+00 5.07431E-03 1.33841E-01 3.13981E-14-2.01561E-13
 -1      3574 2.01829E+01 1.67576E+00-3.68747E-03-3.64537E-01-6.07279E-14-2.63277E-13
 -1      3575 2.33520E+01 3.41755E+00-1.57104E-02-9.57261E-01 4.34881E-13-1.42646E-14
 -1      3576 2.46547E+01 4.50229E+00-7.80538E-02-5.33604E-01 5.65478E-13 2.02338E-13
 -1      3577 2.51525E+01 4.11917E+00-9.87031E-02-8.95187E-01 6.66259E-13 2.06432E-13
 -1      3578 2.35403E+01 2.86572E+00-5.43010E-02-1.17089E+00 3.93685E-13-3.86548E-14
 -1      3579 2.03589E+01 4.16193E-01 2.86395E-03-2.75690E-02-1.49821E-14-1.48868E-13
 -1      3580 2.03398E+01 3.03995E-01-2.14475E-03 1.93997E-02-1.94632E-14-1.52231E-13
 -1      3581 2.03325E+01 2.15891E-01 1.34966E-03 4.82472E-02-2.21810E-14-1.49647E-13
 -1      3582 2.03117E+01 1.40867E-01-1.05861E-03 7.72963E-02-6.15395E-14-1.00728E-13
 -1      3583 2.03672E+01 2.93830E-01 2.65100E-04 2.18537E-02-8.01704E-15-9.37137E-14
 -1      3584 2.02964E+01 8.16506E-02 1.07993E-03 9.33744E-02-7.54191E-14-7.14622E-14
 -1      3585 2.02748E+01 3.31088E-02-5.20491E-04 1.08580E-01-6.58839E-14-6.45205E-14
 -1      3586 2.03380E+01 1.30349E-01-1.14844E-04 6.92162E-02-4.32926E-14-9.23426E-14
 -1      3587 2.02556E+01-4.16075E-03 8.07788E-04 1.15289E-01-5.99538E-14-5.48583E-14
 -1      3588 2.02352E+01-3.36872E-02-1.50963E-04 1.20803E-01-8.64710E-15-5.71438E-14
 -1      3589 2.02991E+01 2.32006E-02-3.66898E-04 9.42730E-02-5.55371E-14-6.33100E-14
 -1      3590 2.02148E+01-5.53152E-02 5.68844E-04 1.21195E-01-1.56913E-14-8.34602E-14
 -1      3591 2.01966E+01-7.13976E-02 9.36022E-05 1.20430E-01-4.01821E-14-1.23473E-13
 -1      3592 2.02568E+01-4.27737E-02-5.01256E-04 1.03660E-01-4.60308E-14-9.13771E-14
 -1      3593 2.01769E+01-8.21244E-02 3.78200E-04 1.16952E-01-3.72370E-14-1.23879E-13
 -1      3594 2.01613E+01-8.89449E-02 2.39711E-04 1.12487E-01-6.62422E-14-1.08733E-13
 -1      3595 2.02153E+01-7.93891E-02-5.49250E-04 1.02727E-01-5.04286E-14-1.34110E-13
 -1      3596 2.01433E+01-9.22686E-02 2.30569E-04 1.06945E-01-4.81577E-14-7.95724E-14
 -1      3597 2.01303E+01-9.28734E-02 3.15258E-04 1.00639E-01-1.01308E-14-8.80878E-14
 -1      3598 2.01771E+01-9.56161E-02-5.36365E-04 9.56455E-02-2.46915E-14-7.13087E-14
 -1      3599 2.01144E+01-9.12867E-02 1.18540E-04 9.43064E-02-2.52680E-15-6.18547E-14
 -1      3600 2.01039E+01-8.77992E-02 3.47599E-04 8.74612E-02-1.32660E-14-2.57582E-15
 -1      3601 2.01433E+01-9.80871E-02-4.91795E-04 8.54559E-02-4.11654E-15-3.59671E-14
 -1      3602 2.00902E+01-8.29902E-02 3.33737E-05 8.12290E-02-1.74552E-15-7.11471E-15
 -1      3603 2.00818E+01-7.68214E-02 3.53086E-04 7.47586E-02-1.46564E-14-4.50350E-17
 -1      3604 2.01143E+01-9.14379E-02-4.30934E-04 7.43064E-02 3.80200E-14-1.95326E-14
 -1      3605 2.00702E+01-6.98907E-02-3.36541E-05 6.92531E-02-6.85633E-14 4.55298E-14
 -1      3606 2.00636E+01-6.19288E-02 3.41349E-04 6.37922E-02-9.52983E-14 7.66784E-14
 -1      3607 2.00899E+01-7.87541E-02-3.58780E-04 6.37294E-02-9.82769E-15 2.12526E-14
 -1      3608 2.00538E+01-5.35271E-02-9.13458E-05 5.94354E-02-9.15697E-14 1.40720E-13
 -1      3609 2.00485E+01-4.42307E-02 3.23557E-04 5.54292E-02-7.22648E-14 1.09378E-13
 -1      3610 2.00694E+01-6.20046E-02-2.79287E-04 5.47982E-02-3.42674E-14 1.36434E-13
 -1      3611 2.00400E+01-3.46192E-02-1.48126E-04 5.25319E-02-6.24420E-14 9.04226E-14
 -1      3612 2.00357E+01-2.41082E-02 3.05500E-04 5.03412E-02-7.05823E-14 1.17278E-13
 -1      3613 2.00522E+01-4.22347E-02-1.97975E-04 4.82436E-02-9.09444E-14 1.61840E-13
 -1      3614 2.00279E+01-1.32791E-02-2.08946E-04 4.91742E-02-6.36204E-14 1.36624E-13
 -1      3615 2.00242E+01-1.42579E-03 2.89650E-04 4.91213E-02-5.00565E-14 1.68414E-13
 -1      3616 2.00370E+01-1.97384E-02-1.12509E-04 4.46663E-02-4.75604E-14 1.79206E-13
 -1      3617 2.00164E+01 1.08491E-02-2.80351E-04 4.99412E-02-4.55366E-14 2.03190E-13
 -1      3618 2.00127E+01 2.43746E-02 2.77255E-04 5.23548E-02-8.69045E-14 1.70606E-13
 -1      3619 2.00227E+01 5.72001E-03-1.87154E-05 4.45941E-02-6.72304E-14 1.68503E-13
 -1      3620 2.00043E+01 3.85013E-02-3.68364E-04 5.54360E-02-8.09480E-14 1.83218E-13
 -1      3621 2.00000E+01 5.41911E-02 2.67530E-04 6.06826E-02 7.00328E-15 2.02471E-13
 -1      3622 2.00079E+01 3.48069E-02 8.74722E-05 4.85421E-02-4.48566E-14 1.60570E-13
 -1      3623 1.99899E+01 7.07157E-02-4.78341E-04 6.63357E-02 6.54458E-14 2.70334E-13
 -1      3624 1.99844E+01 8.91875E-02 2.57290E-04 7.48348E-02 6.72022E-14 3.10553E-13
 -1      3625 1.99910E+01 6.85334E-02 2.12810E-04 5.70637E-02 5.02267E-14 3.02474E-13
 -1      3626 1.99715E+01 1.08765E-01-6.15621E-04 8.34071E-02 5.48521E-14 2.40917E-13
 -1      3627 1.99639E+01 1.30728E-01 2.40629E-04 9.56308E-02 9.16680E-14 1.63091E-13
 -1      3628 1.99700E+01 1.08168E-01 3.66182E-04 7.07624E-02 3.01625E-14 2.26829E-13
 -1      3629 1.99469E+01 1.54087E-01-7.85499E-04 1.07490E-01 3.37924E-14 7.69529E-14
 -1      3630 1.99360E+01 1.80305E-01 2.08270E-04 1.23945E-01 1.08757E-14 6.48759E-14
 -1      3631 1.99426E+01 1.55155E-01 5.58919E-04 9.02685E-02-1.54429E-14 9.65671E-14
 -1      3632 1.99133E+01 2.08212E-01-9.93217E-04 1.39444E-01 5.32549E-14 2.42944E-14
 -1      3633 1.98976E+01 2.39450E-01 1.46744E-04 1.60630E-01 9.09822E-14 1.18047E-13
 -1      3634 1.99057E+01 2.11022E-01 8.05418E-04 1.16179E-01 1.45831E-14 1.21231E-13
 -1      3635 1.98671E+01 2.72642E-01-1.24411E-03 1.80047E-01 3.80693E-14 2.55322E-14
 -1      3636 1.98447E+01 3.09592E-01 3.76035E-05 2.06393E-01-4.47994E-15 3.43521E-14
 -1      3637 1.98557E+01 2.77262E-01 1.12400E-03 1.48952E-01 1.68642E-14-6.78103E-14
 -1      3638 1.98036E+01 3.48695E-01-1.54419E-03 2.29849E-01-8.26278E-14 1.97916E-14
 -1      3639 1.97719E+01 3.91863E-01-1.42885E-04 2.61624E-01-6.58684E-14-1.65883E-14
 -1      3640 1.97880E+01 3.55156E-01 1.53806E-03 1.88742E-01-3.79275E-14-8.27392E-14
 -1      3641 1.97171E+01 4.37244E-01-1.90176E-03 2.88970E-01-4.54558E-14-6.20681E-14
 -1      3642 1.96726E+01 4.86767E-01-4.22798E-04 3.26170E-01-2.30839E-14 8.87991E-15
 -1      3643 1.96968E+01 4.45528E-01 2.07765E-03 2.35193E-01-1.09955E-13-4.17847E-15
 -1      3644 1.95999E+01 5.38317E-01-2.33132E-03 3.56880E-01 6.63556E-14-1.73585E-15
 -1      3645 1.95381E+01 5.93697E-01-8.31012E-04 3.99124E-01 1.50077E-13-1.67155E-14
 -1      3646 1.95746E+01 5.48377E-01 2.78186E-03 2.87178E-01 1.82429E-14-1.52109E-14
 -1      3647 1.94422E+01 6.50478E-01-2.86199E-03 4.32209E-01 1.84254E-13-5.03459E-14
 -1      3648 1.93575E+01 7.10174E-01-1.38903E-03 4.78700E-01 1.80560E-13-9.38143E-15
 -1      3649 1.94122E+01 6.62357E-01 3.70306E-03 3.42567E-01 1.43757E-13 4.57449E-14
 -1      3650 1.92314E+01 7.69897E-01-3.55461E-03 5.12743E-01 8.55641E-14-3.00966E-14
 -1      3651 1.91168E+01 8.30727E-01-2.09582E-03 5.62420E-01 9.85692E-14 9.37147E-14
 -1      3652 1.91975E+01 7.84046E-01 4.91508E-03 3.98118E-01 1.12689E-13 1.48216E-15
 -1      3653 1.89515E+01 8.88980E-01-4.53470E-03 5.95881E-01 4.42132E-14 5.27580E-14
 -1      3654 1.87984E+01 9.45285E-01-2.90600E-03 6.47982E-01-1.29186E-13 7.36272E-14
 -1      3655 1.89150E+01 9.06967E-01 6.52950E-03 4.49724E-01 2.84515E-14-3.26525E-14
 -1      3656 1.85816E+01 9.94436E-01-6.05511E-03 6.80011E-01-1.61218E-13 1.14852E-13
 -1      3657 1.83802E+01 1.03698E+00-3.70431E-03 7.35462E-01-3.54955E-14 4.01293E-14
 -1      3658 1.85446E+01 1.02036E+00 8.72725E-03 4.93394E-01-9.07092E-14 1.40172E-13
 -1      3659 1.80941E+01 1.06471E+00-8.61640E-03 7.67617E-01-3.01564E-14 2.25915E-14
 -1      3660 1.78336E+01 1.07947E+00-4.11332E-03 8.31808E-01-1.18233E-13 5.87340E-14
 -1      3661 1.80588E+01 1.10781E+00 1.18367E-02 5.27512E-01-1.02125E-13 4.68451E-14
 -1      3662 1.74508E+01 1.06685E+00-1.28972E-02 8.72342E-01-9.24728E-14 7.88856E-14
 -1      3663 1.71230E+01 1.03178E+00-2.65949E-03 9.59841E-01-3.74165E-14 1.27214E-13
 -1      3664 1.74177E+01 1.14674E+00 1.67976E-02 5.57854E-01-7.56995E-14 1.07261E-13
 -1      3665 1.66010E+01 9.49525E-01-1.88922E-02 1.03115E+00-8.28330E-14 1.95804E-13
 -1      3666 1.62153E+01 8.41896E-01 9.47606E-03 1.16580E+00-6.50059E-14 1.21370E-13
 -1      3667 1.65538E+01 1.10426E+00 2.37222E-02 6.04815E-01-2.45937E-14 2.00068E-13
 -1      3668 1.55377E+01 5.99765E-01-1.93999E-02 1.47878E+00 9.57188E-14 1.64205E-13
 -1      3669 1.51124E+01 2.37475E-01 3.45491E-02 1.85818E+00 2.64144E-13 1.65333E-13
 -1      3670 1.39711E+01 1.25524E-01 2.57744E-02 1.79473E+00 2.55922E-13 2.01811E-13
 -1      3671 1.53855E+01 8.48326E-01 1.84281E-02 9.12710E-01 5.08146E-14 2.68665E-13
 -1      3672 2.00215E+01-6.15480E-03 3.18886E-04-5.26596E-02-4.82645E-14 3.24117E-14
 -1      3673 2.00238E+01-1.67358E-02-2.19500E-04-5.33757E-02 4.05118E-14 6.33917E-14
 -1      3674 2.00885E+01-8.35769E-02 3.51728E-04-9.92980E-02 1.61696E-14-3.28504E-14
 -1      3675 2.00972E+01-8.64296E-02 9.80558E-05-1.07008E-01 4.05317E-14 4.32974E-15
 -1      3676 2.00306E+01-2.64098E-02 3.26190E-04-5.51697E-02 2.82722E-14 9.28519E-15
 -1      3677 2.00335E+01-3.59054E-02-1.67343E-04-5.81159E-02 3.89255E-14-4.87220E-14
 -1      3678 2.00338E+01-2.32378E-02-1.20336E-04-5.02236E-02 1.32700E-15 1.32978E-14
 -1      3679 2.00410E+01-4.45678E-02 3.39308E-04-6.17910E-02 9.08763E-14-8.33541E-14
 -1      3680 2.00449E+01-5.29997E-02-1.13516E-04-6.66387E-02 4.26864E-14-3.43920E-14
 -1      3681 2.00469E+01-4.37466E-02-1.97511E-04-5.52206E-02 4.44275E-14-3.90360E-14
 -1      3682 2.00129E+01 1.65216E-02 3.20416E-04-5.48854E-02-6.67534E-14 1.80699E-15
 -1      3683 2.00149E+01 4.65223E-03-2.80844E-04-5.30336E-02-5.03069E-14 6.74216E-15
 -1      3684 2.00218E+01-2.86446E-04-4.45979E-05-4.90876E-02-3.11368E-14 1.13926E-13
 -1      3685 2.00038E+01 4.21562E-02 3.32966E-04-6.25535E-02-1.10310E-13-6.23502E-14
 -1      3686 2.00060E+01 2.87043E-02-3.54639E-04-5.77557E-02-1.08312E-13-5.83688E-14
 -1      3687 2.00098E+01 2.55243E-02 3.59284E-05-5.24408E-02-8.42007E-14-6.69209E-14
 -1      3688 1.99933E+01 7.13758E-02 3.58215E-04-7.64935E-02-1.05544E-13-4.43668E-14
 -1      3689 1.99959E+01 5.60168E-02-4.45165E-04-6.83087E-02-8.04845E-14-6.96604E-14
 -1      3690 1.99967E+01 5.48065E-02 1.23790E-04-6.09884E-02-1.14706E-13-1.56225E-13
 -1      3691 1.99802E+01 1.04747E-01 3.97670E-04-9.76919E-02-8.88111E-14 2.26677E-14
 -1      3692 1.99836E+01 8.72060E-02-5.54993E-04-8.56066E-02-7.11387E-14 3.17779E-14
 -1      3693 1.99811E+01 8.82427E-02 2.20767E-04-7.55718E-02-1.49298E-13-5.58103E-14
 -1      3694 1.99634E+01 1.42581E-01 4.53204E-04-1.27300E-01-9.93444E-14 4.39698E-14
 -1      3695 1.99680E+01 1.22739E-01-6.84763E-04-1.10734E-01-1.08618E-13 3.98409E-14
 -1      3696 1.99615E+01 1.26412E-01 3.27233E-04-9.72070E-02-1.34884E-13-4.09359E-14
 -1      3697 1.99418E+01 1.84677E-01 5.27812E-04-1.66618E-01 1.07912E-14 5.16705E-14
 -1      3698 1.99480E+01 1.62707E-01-8.32353E-04-1.44944E-01-5.27199E-14 1.47443E-13
 -1      3699 1.99365E+01 1.69569E-01 4.40771E-04-1.27106E-01-9.95507E-14 1.69587E-14
 -1      3700 1.99146E+01 2.29959E-01 6.26711E-04-2.17047E-01 7.30931E-15 3.85598E-14
 -1      3701 1.99224E+01 2.06526E-01-9.91559E-04-1.89634E-01 3.83525E-14 5.22731E-14
 -1      3702 1.99046E+01 2.17340E-01 5.54244E-04-1.66685E-01 1.04844E-14 1.04334E-13
 -1      3703 1.98815E+01 2.76011E-01 7.58967E-04-2.80015E-01 8.74109E-15 9.10042E-14
 -1      3704 1.98907E+01 2.52519E-01-1.15024E-03-2.46291E-01 1.79640E-15 1.30587E-13
 -1      3705 1.98645E+01 2.68327E-01 6.53060E-04-2.17560E-01-4.19364E-14 4.88380E-14
 -1      3706 1.98429E+01 3.18448E-01 9.39738E-04-3.56863E-01 1.01135E-13 4.11798E-14
 -1      3707 1.98530E+01 2.97376E-01-1.28775E-03-3.16402E-01 1.08441E-13 1.28529E-13
 -1      3708 1.98156E+01 3.19571E-01 7.11340E-04-2.81535E-01 7.93235E-14 4.70236E-14
 -1      3709 1.98010E+01 3.50148E-01 1.19302E-03-4.48686E-01 1.13362E-14-2.23705E-14
 -1      3710 1.98103E+01 3.35455E-01-1.37121E-03-4.01335E-01 5.73502E-14 1.84514E-14
 -1      3711 1.97582E+01 3.65869E-01 6.86584E-04-3.60579E-01 6.84672E-14 7.84584E-15
 -1      3712 1.97607E+01 3.60331E-01 1.55403E-03-5.56121E-01 1.14930E-13 7.88837E-14
 -1      3713 1.97662E+01 3.57935E-01-1.34988E-03-5.02160E-01 7.38380E-14 1.03305E-14
 -1      3714 1.96943E+01 3.98928E-01 5.12284E-04-4.56800E-01 4.55877E-14 3.95307E-14
 -1      3715 1.97309E+01 3.33584E-01 2.06875E-03-6.79013E-01-4.32178E-14 1.81627E-13
 -1      3716 1.97274E+01 3.51857E-01-1.14593E-03-6.19399E-01 8.54891E-14 1.54346E-13
 -1      3717 1.96290E+01 4.06373E-01 8.74364E-05-5.72390E-01 1.87218E-14 7.78315E-14
 -1      3718 1.97268E+01 2.48970E-01 2.78416E-03-8.15846E-01-8.47023E-14 8.56347E-14
 -1      3719 1.97058E+01 2.99171E-01-6.38442E-04-7.52604E-01-6.30081E-14 2.02110E-13
 -1      3720 1.95716E+01 3.70674E-01-7.39186E-04-7.09494E-01-1.44120E-14 1.36047E-13
 -1      3721 1.97723E+01 7.95954E-02 3.71063E-03-9.62601E-01-1.47031E-13 9.36467E-14
 -1      3722 1.97209E+01 1.76037E-01 3.65795E-04-8.99551E-01-1.09367E-13 4.82310E-14
 -1      3723 1.95386E+01 2.68130E-01-2.19427E-03-8.69823E-01-4.98382E-14 2.40962E-13
 -1      3724 1.99033E+01-2.06685E-01 4.71319E-03-1.11033E+00-1.71916E-13 2.81117E-13
 -1      3725 1.98032E+01-4.71178E-02 2.18456E-03-1.05451E+00-2.02623E-13 1.17905E-13
 -1      3726 1.95564E+01 6.81779E-02-4.62020E-03-1.05357E+00-2.11369E-13 1.69025E-13
 -1      3727 2.01715E+01-6.42789E-01 5.63848E-03-1.23957E+00-1.60500E-13 2.68989E-13
 -1      3728 1.99984E+01-4.03596E-01 5.38137E-03-1.20403E+00-1.80771E-13 2.79731E-13
 -1      3729 1.96665E+01-2.66646E-01-8.48242E-03-1.25631E+00-1.35931E-13 2.59061E-13
 -1      3730 2.06468E+01-1.25354E+00 6.00713E-03-1.31342E+00-2.29644E-13 4.34671E-13
 -1      3731 2.03684E+01-9.21901E-01 1.06518E-02-1.32108E+00-1.92523E-13 3.50974E-13
 -1      3732 1.99294E+01-7.72917E-01-1.37481E-02-1.46123E+00-1.80638E-13 2.29966E-13
 -1      3733 2.14049E+01-2.02748E+00 3.04927E-03-1.26543E+00-2.59054E-13 3.34722E-13
 -1      3734 2.10012E+01-1.61875E+00 1.83290E-02-1.35258E+00-1.61918E-13 3.81982E-13
 -1      3735 2.04133E+01-1.48842E+00-2.77923E-02-1.62982E+00-1.87385E-13 3.18818E-13
 -1      3736 2.24263E+01-2.89366E+00-1.99006E-02-9.67674E-01-1.76387E-13 1.48699E-13
 -1      3737 2.19996E+01-2.41404E+00 4.24661E-02-1.15939E+00-2.35434E-13 2.20004E-13
 -1      3738 2.13297E+01-2.45394E+00-4.56570E-02-1.66841E+00-1.42656E-13 8.09188E-14
 -1      3739 2.02780E+01 1.42253E+00 4.95962E-03 1.25665E-03 1.37538E-14-2.57988E-13
 -1      3740 2.01952E+01 1.65869E+00-3.75668E-03-3.51717E-02 3.83490E-14-2.45812E-13
 -1      3741 1.22190E+01 2.97917E-01 9.54932E-02-1.20180E+00 1.66028E-13-1.89685E-13
 -1      3742 1.33716E+01-1.65071E-01 1.06824E-02-2.43104E+00-4.09770E-14-2.96711E-13
 -1      3743 1.82213E+01-2.25059E+00 7.81192E-02-3.88140E+00-1.76513E-13-3.71187E-13
 -1      3744 1.99067E+01-3.10729E+00-7.00831E-02-3.41833E+00-5.92083E-14-1.27145E-13
 -1      3745 2.01827E+01 1.69408E+00-2.79527E-03-2.92201E-01-4.09711E-14-2.74924E-13
 -1      3746 2.02827E+01 1.38124E+00 6.98079E-03-2.75549E-01-5.15681E-14-2.33998E-13
 -1      3747 2.01837E+01 1.68397E+00-3.94245E-03-2.00118E-01-7.97980E-15-2.56553E-13
 -1      3748 2.03048E+01 1.01901E+00-3.19275E-03-2.66715E-01-8.39446E-14-2.28097E-13
 -1      3749 2.02509E+01 1.37826E+00-6.41114E-03 4.13647E-01 1.18617E-13-1.76553E-13
 -1      3750 2.02356E+01 1.48250E+00-1.34779E-03 3.44567E-01 9.84007E-14-1.86635E-13
 -1      3751 2.02971E+01 1.28547E+00 5.39032E-03 2.50604E-01 8.18415E-14-1.75586E-13
 -1      3752 2.18547E+01-3.27037E+00 9.22266E-02-2.48101E+00-1.26424E-13-1.50376E-13
 -1      3753 2.32007E+01-3.58562E+00-4.34981E-02-1.09633E+00-1.96996E-13 2.33459E-14
 -1      3754 2.03096E+01 1.03372E+00 5.62833E-03 3.37138E-01 1.06010E-13-1.36460E-13
 -1      3755 2.03099E+01 1.07792E+00-4.04344E-03-2.45066E-01-7.18978E-14-1.92646E-13
 -1      3756 2.03570E+01 7.93955E-01 7.16765E-03-1.76798E-01-5.87078E-14-1.90849E-13
 -1      3757 2.03455E+01 6.19923E-01-2.17679E-03-1.05141E-01-3.24164E-14-1.72753E-13
 -1      3758 2.03152E+01 1.10054E+00-2.88005E-03-1.89243E-01-3.99647E-14-1.86532E-13
 -1      3759 2.02436E+01 4.72848E-01-1.45008E-03 1.27256E-01 6.09921E-14-4.95904E-14
 -1      3760 2.02672E+01 5.83887E-01 2.86108E-03 2.16981E-01 9.53708E-14-7.28677E-14
 -1      3761 2.02903E+01 6.96174E-01-3.01553E-03 2.53008E-01 9.08813E-14-1.01666E-13
 -1      3762 2.02823E+01 4.85510E-01-1.17857E-03 1.03418E-01 5.70674E-14-1.16710E-13
 -1      3763 2.43792E+01-3.45254E+00-1.16322E-02 2.12839E-01-1.77858E-13 2.39073E-13
 -1      3764 1.51202E+01-8.71608E-01 3.25621E-02-3.38831E+00-1.72707E-13-5.58137E-13
 -1      3765 1.66065E+01-1.76959E+00-3.61155E-02-3.87429E+00-1.77532E-13-5.43968E-13
 -1      3766 1.78000E+01-1.58920E+00 2.61884E-02-3.33625E+00-1.34875E-13-3.61437E-13
 -1      3767 2.06541E+01-2.62095E+00 9.60894E-03-2.53297E+00-3.40995E-14-1.15838E-13
 -1      3768 2.00623E+01-6.18698E-02-2.77900E-04-6.35139E-02 5.43465E-14-3.99330E-14
 -1      3769 2.00537E+01-6.05864E-02 3.57570E-04-7.18794E-02-3.80942E-15-2.88755E-15
 -1      3770 2.00588E+01-6.78046E-02-5.80010E-05-7.82492E-02 1.49766E-14-8.69383E-15
 -1      3771 2.00760E+01-7.94600E-02 9.54358E-06-9.21273E-02 3.55783E-14-5.09379E-15
 -1      3772 2.01029E+01-8.83347E-02-4.13203E-04-8.69434E-02 3.35194E-14-1.14910E-13
 -1      3773 2.00693E+01-7.39898E-02 3.64993E-04-8.47319E-02 3.48102E-14-3.14814E-14
 -1      3774 2.01295E+01-9.36115E-02-4.81093E-04-9.99327E-02 6.90373E-15-1.92498E-13
 -1      3775 2.01119E+01-8.74149E-02 3.12913E-04-1.14170E-01 2.64121E-14-4.18818E-14
 -1      3776 2.01229E+01-8.62261E-02 2.26691E-04-1.21196E-01-1.72540E-14-1.16889E-13
 -1      3777 1.37191E+01 4.70045E-01-4.47530E-03 9.83784E-01 2.79153E-13 2.22647E-13
 -1      3778 2.01862E+01 1.69826E+00-2.20872E-03-1.21754E-01 1.81950E-14-2.41043E-13
 -1      3779 2.03166E+01 1.19640E+00-2.56730E-03 3.13836E-02 2.83020E-15-2.75764E-13
 -1      3780 2.03169E+01 1.19932E+00-2.05324E-03-3.04952E-02 1.24546E-14-2.57460E-13
 -1      3781 2.38849E+01-3.38729E+00 2.90882E-02-2.80206E-01-2.00868E-13 1.78209E-13
 -1      3782 1.44620E+01 3.32864E-01-1.57932E-03-1.71723E+00 1.63185E-13-1.16959E-13
 -1      3783 1.47050E+01-2.58967E-01 3.53055E-02-2.74194E+00 1.85702E-14-3.57391E-13
 -1      3784 1.59517E+01-3.72906E-01-6.60424E-03-2.61883E+00 1.53683E-14-3.63395E-13
 -1      3785 2.03108E+01 3.15744E-01-1.45941E-03-9.59351E-03 2.48986E-14-1.25607E-13
 -1      3786 2.03230E+01 4.07083E-01 2.00617E-03 3.60951E-02 2.71384E-14-1.47230E-13
 -1      3787 1.30805E+01 4.53269E-01 5.32263E-02-3.58663E-01 2.34846E-13 5.75685E-14
 -1      3788 2.45179E+01 2.93100E+00-2.94643E-02-1.14389E+00 3.70818E-13-7.07004E-14
 -1      3789 2.03705E+01 6.04511E-01 2.45201E-04-7.94437E-02-2.25761E-14-1.28300E-13
 -1      3790 2.02075E+01-2.55352E-02-1.80896E-04-1.34953E-01 5.78600E-14-1.51934E-13
 -1      3791 2.02268E+01 4.19177E-03 9.50932E-04-1.28289E-01 5.25659E-14-1.50831E-13
 -1      3792 2.02073E+01 5.26957E-02-7.12411E-04-1.27535E-01 3.16221E-14-7.60069E-14
 -1      3793 2.01718E+01-6.38497E-02 7.51025E-05-1.35646E-01 6.22216E-14-1.33972E-13
 -1      3794 2.01883E+01-4.73686E-02 6.46208E-04-1.36197E-01 6.59906E-14-1.73033E-13
 -1      3795 2.02357E+01-3.41295E-02-5.29838E-04-1.19347E-01 6.88611E-14-2.20024E-13
 -1      3796 2.02799E+01 1.50019E-01-1.18040E-03-8.13460E-02 4.20759E-14-8.44278E-14
 -1      3797 2.03023E+01 2.25471E-01 1.82143E-03-4.76777E-02 3.70755E-14-8.98660E-14
 -1      3798 2.03410E+01 3.10601E-01-6.71248E-06-1.51589E-02 1.39317E-15-1.45727E-13
 -1      3799 2.03197E+01 1.14711E+00-3.27749E-03 1.33592E-01 6.22924E-14-1.72278E-13
 -1      3800 2.03179E+01 1.18252E+00-1.94383E-03 7.72965E-02 4.13129E-14-2.17761E-13
 -1      3801 2.03712E+01 9.98014E-01 4.59579E-03 3.94674E-02 3.25831E-14-2.21463E-13
 -1      3802 2.03953E+01 3.62500E-01 1.90112E-04-1.35874E-03 9.01338E-16-1.10569E-13
 -1      3803 2.03832E+01 2.60001E-01-1.20672E-03 3.06879E-02-3.54254E-14-1.16863E-13
 -1      3804 2.03742E+01 1.75325E-01 6.99409E-04 4.54935E-02-4.59826E-14-1.26514E-13
 -1      3805 2.03549E+01 1.05597E-01-6.96657E-04 6.37577E-02-5.18863E-14-1.28010E-13
 -1      3806 2.03989E+01 2.38170E-01 1.76778E-04 2.69129E-02-4.32158E-14-1.60648E-13
 -1      3807 2.03377E+01 5.02235E-02 6.54943E-04 7.15156E-02-7.07950E-14-1.13015E-13
 -1      3808 2.03157E+01 5.49181E-03-2.86580E-04 8.06350E-02-5.82513E-14-1.24437E-13
 -1      3809 2.03677E+01 8.94833E-02-1.11144E-04 5.08986E-02-6.40271E-14-1.58416E-13
 -1      3810 2.02944E+01-2.87308E-02 5.21197E-04 8.29723E-02-3.90122E-14-1.24811E-13
 -1      3811 2.02724E+01-5.51542E-02-8.54733E-06 8.57944E-02-3.34029E-14-1.23875E-13
 -1      3812 2.03262E+01-6.91206E-03-3.90396E-04 6.27778E-02-4.15735E-14-1.33275E-13
 -1      3813 2.02500E+01-7.41706E-02 4.17097E-04 8.46632E-02-2.63932E-14-1.36286E-13
 -1      3814 2.02293E+01-8.76721E-02 1.67399E-04 8.34813E-02-1.27720E-14-1.41633E-13
 -1      3815 2.02808E+01-6.43929E-02-5.05621E-04 6.61294E-02-1.87283E-14-1.11561E-13
 -1      3816 2.02078E+01-9.61865E-02 3.16451E-04 8.03613E-02 1.18195E-14-1.09352E-13
 -1      3817 2.01893E+01-1.00827E-01 2.67237E-04 7.68389E-02 7.80914E-15-7.49259E-14
 -1      3818 2.02360E+01-9.43187E-02-5.36262E-04 6.40116E-02-3.13101E-15-1.04837E-13
 -1      3819 2.01696E+01-1.02201E-01 2.22870E-04 7.27476E-02 2.75466E-14-4.46532E-14
 -1      3820 2.01537E+01-1.00923E-01 3.14489E-04 6.81427E-02 4.16819E-14 8.41925E-15
 -1      3821 2.01946E+01-1.05399E-01-5.48171E-04 5.87102E-02 6.32421E-14-3.27428E-14
 -1      3822 2.01363E+01-9.75277E-02 1.45420E-04 6.37841E-02 1.08148E-14 6.24103E-15
 -1      3823 2.01229E+01-9.23038E-02 3.26023E-04 5.90076E-02 1.18061E-14-4.24576E-15
 -1      3824 2.01577E+01-1.03630E-01-5.06451E-04 5.20300E-02 3.98621E-14 6.42009E-14
 -1      3825 2.01077E+01-8.57664E-02 7.89958E-05 5.49585E-02 2.48369E-14-5.59942E-16
 -1      3826 2.00966E+01-7.79177E-02 3.16762E-04 5.06332E-02 4.12695E-14 6.25857E-14
 -1      3827 2.01256E+01-9.32595E-02-4.45189E-04 4.51052E-02-1.30373E-14-9.90542E-15
 -1      3828 2.00836E+01-6.92854E-02 1.93261E-05 4.72608E-02 1.76631E-14 4.28919E-15
 -1      3829 2.00743E+01-5.96425E-02 2.93093E-04 4.38135E-02-5.58721E-14 2.84756E-14
 -1      3830 2.00983E+01-7.71977E-02-3.63459E-04 3.88828E-02 1.78091E-14-7.66263E-14
 -1      3831 2.00630E+01-4.94287E-02-4.25464E-05 4.13027E-02-8.97292E-14 7.44515E-14
 -1      3832 2.00552E+01-3.82896E-02 2.63147E-04 3.90707E-02-9.67111E-14 3.70284E-14
 -1      3833 2.00749E+01-5.71797E-02-2.68896E-04 3.39705E-02-6.75695E-14-8.17304E-14
 -1      3834 2.00449E+01-2.66567E-02-1.07291E-04 3.76676E-02-6.24747E-14 6.55769E-14
 -1      3835 2.00379E+01-1.40548E-02 2.27989E-04 3.69252E-02-1.82025E-14 9.86564E-14
 -1      3836 2.00543E+01-3.38869E-02-1.73737E-04 3.07282E-02-5.38247E-14 1.04323E-15
 -1      3837 2.00280E+01-8.99821E-04-1.79429E-04 3.67922E-02-5.80802E-14 9.15720E-14
 -1      3838 2.00211E+01 1.33958E-02 1.90356E-04 3.77845E-02-8.85302E-14 1.14856E-13
 -1      3839 2.00354E+01-7.42652E-03-6.58523E-05 2.96072E-02-5.34994E-14 2.80345E-14
 -1      3840 2.00108E+01 2.84099E-02-2.64538E-04 3.90794E-02-8.80971E-14 9.25070E-14
 -1      3841 2.00033E+01 4.48329E-02 1.49146E-04 4.20559E-02-3.51186E-15 1.15747E-13
 -1      3842 2.00165E+01 2.26343E-02 5.41696E-05 3.08911E-02-8.92784E-14 1.07242E-13
 -1      3843 1.99916E+01 6.22125E-02-3.65885E-04 4.49478E-02 5.76309E-14 1.40524E-13
 -1      3844 1.99825E+01 8.13419E-02 1.00647E-04 5.01717E-02 8.66921E-14 1.43085E-13
 -1      3845 1.99958E+01 5.71656E-02 1.92076E-04 3.48788E-02 3.87646E-14 2.37800E-14
 -1      3846 1.99682E+01 1.01716E-01-4.87194E-04 5.48306E-02 1.87791E-14 1.69611E-13
 -1      3847 1.99565E+01 1.24230E-01 3.85148E-05 6.25731E-02-4.99947E-14 5.76499E-14
 -1      3848 1.99713E+01 9.73282E-02 3.55641E-04 4.18577E-02 4.52865E-14-2.63677E-14
 -1      3849 1.99381E+01 1.48306E-01-6.31682E-04 6.91509E-02-5.09760E-14 9.53152E-14
 -1      3850 1.99226E+01 1.74927E-01-4.68340E-05 7.96681E-02-2.18465E-14 5.06087E-14
 -1      3851 1.99403E+01 1.44470E-01 5.54468E-04 5.20710E-02-2.44761E-14 5.60824E-14
 -1      3852 1.98985E+01 2.03436E-01-8.01703E-04 8.82596E-02-3.35003E-14 1.84844E-14
 -1      3853 1.98773E+01 2.34874E-01-1.69065E-04 1.01747E-01-3.97345E-14 9.95702E-16
 -1      3854 1.99000E+01 2.00007E-01 8.00313E-04 6.56544E-02-5.26283E-14-8.63366E-15
 -1      3855 1.98456E+01 2.68498E-01-9.98495E-04 1.12327E-01-6.13545E-14-3.06096E-15
 -1      3856 1.98166E+01 3.05358E-01-3.46933E-04 1.28847E-01 2.12042E-15-7.26198E-14
 -1      3857 1.98467E+01 2.65278E-01 1.10754E-03 8.25264E-02-3.89947E-14-7.14618E-14
 -1      3858 1.97748E+01 3.44641E-01-1.22223E-03 1.41182E-01 3.18764E-14-1.69169E-13
 -1      3859 1.97354E+01 3.87307E-01-6.05330E-04 1.60562E-01-5.16230E-14-1.00541E-13
 -1      3860 1.97760E+01 3.41349E-01 1.49389E-03 1.02224E-01-9.50099E-15-1.16473E-13
 -1      3861 1.96807E+01 4.32512E-01-1.47282E-03 1.74081E-01-9.69846E-14-6.26799E-14
 -1      3862 1.96274E+01 4.80986E-01-9.76164E-04 1.95785E-01-5.88934E-14-6.15831E-14
 -1      3863 1.96827E+01 4.28756E-01 1.98171E-03 1.23671E-01-3.27215E-14-2.00439E-13
 -1      3864 1.95561E+01 5.31912E-01-1.75252E-03 2.09436E-01-1.48717E-14-1.03037E-13
 -1      3865 1.94846E+01 5.85587E-01-1.49880E-03 2.32416E-01 7.00383E-14-3.79177E-14
 -1      3866 1.95602E+01 5.27159E-01 2.60037E-03 1.44888E-01-1.75187E-14-9.24344E-14
 -1      3867 1.93925E+01 6.41308E-01-2.07189E-03 2.44496E-01 9.75241E-14-7.99509E-14
 -1      3868 1.92972E+01 6.98674E-01-2.21979E-03 2.67070E-01 1.34204E-13-6.58861E-14
 -1      3869 1.94007E+01 6.34898E-01 3.39083E-03 1.62634E-01 6.94350E-14-9.92678E-14
 -1      3870 1.91788E+01 7.57196E-01-2.46192E-03 2.75083E-01 8.04791E-14-8.11868E-14
 -1      3871 1.90525E+01 8.15473E-01-3.19182E-03 2.94899E-01 4.42487E-14-1.17940E-13
 -1      3872 1.91943E+01 7.48445E-01 4.41523E-03 1.72050E-01 3.88934E-14-1.78187E-13
 -1      3873 1.89006E+01 8.73305E-01-2.99608E-03 2.95499E-01 8.69329E-14-8.51442E-14
 -1      3874 1.87342E+01 9.27997E-01-4.47184E-03 3.09726E-01 8.99025E-14 3.28719E-14
 -1      3875 1.89286E+01 8.61783E-01 5.77719E-03 1.66361E-01 1.15630E-13-3.53153E-14
 -1      3876 1.85390E+01 9.79638E-01-3.82674E-03 2.98870E-01-3.98559E-14 4.46159E-14
 -1      3877 1.83203E+01 1.02405E+00-6.12404E-03 3.04813E-01-1.09610E-13 9.58621E-14
 -1      3878 1.85872E+01 9.65785E-01 7.66201E-03 1.36796E-01 7.19890E-14 2.78806E-14
 -1      3879 1.80673E+01 1.06140E+00-5.24835E-03 2.78254E-01-1.71939E-13 4.22045E-14
 -1      3880 1.77791E+01 1.08597E+00-8.42075E-03 2.74757E-01-1.23791E-13-1.46748E-14
 -1      3881 1.81474E+01 1.04765E+00 1.03903E-02 7.29513E-02-1.55948E-13 7.10029E-14
 -1      3882 1.74465E+01 1.09785E+00-7.87914E-03 2.27885E-01 2.44130E-14 8.79017E-16
 -1      3883 1.70637E+01 1.09387E+00-1.02917E-02 2.16722E-01 2.13267E-14 1.26513E-13
 -1      3884 1.75764E+01 1.08982E+00 1.45420E-02-3.65073E-02 1.25627E-15-9.60772E-14
 -1      3885 1.66132E+01 1.05261E+00-1.47656E-02 1.53153E-01-4.89296E-14 1.27870E-13
 -1      3886 1.61177E+01 1.01076E+00-8.98575E-03 1.28970E-01 8.21955E-15 1.10055E-13
 -1      3887 1.68251E+01 1.07945E+00 2.46428E-02-2.01743E-01 5.45371E-14-3.04526E-14
 -1      3888 1.52780E+01 9.22125E-01-1.64198E-02 1.33477E-01-3.49555E-14 1.57829E-13
 -1      3889 1.46662E+01 7.70153E-01 2.35701E-02 3.63847E-01 1.03128E-13 1.74575E-13
 -1      3890 2.00221E+01 6.59205E-03 2.47720E-04-4.30365E-02-4.12100E-14 4.01870E-14
 -1      3891 2.00277E+01-6.46771E-03-1.93992E-04-4.24373E-02-1.25668E-14 9.55555E-14
 -1      3892 1.37342E+01 6.56460E-01 2.44960E-02 1.36532E-01 2.04438E-13 2.11208E-13
 -1      3893 2.00523E+01-4.08314E-02 2.95071E-04-4.63668E-02 1.07853E-14 3.36367E-14
 -1      3894 2.00592E+01-5.11796E-02-5.35048E-05-4.93816E-02 2.48095E-14 2.33161E-14
 -1      3895 1.99901E+01 6.71904E-02 2.19707E-04-5.60437E-02-1.20133E-13-7.72415E-15
 -1      3896 1.99968E+01 5.03145E-02-3.70250E-04-5.05182E-02-7.27522E-14-3.04759E-14
 -1      3897 1.99697E+01 1.04174E-01 2.18993E-04-7.04433E-02-1.65295E-13-4.94589E-14
 -1      3898 1.99779E+01 8.48142E-02-4.87015E-04-6.18279E-02-1.26259E-13-4.18844E-14
 -1      3899 1.99799E+01 8.22824E-02 2.58054E-04-5.04685E-02-9.60685E-14 7.97782E-14
 -1      3900 1.99441E+01 1.46502E-01 2.30837E-04-9.13812E-02-8.53948E-14-1.43435E-13
 -1      3901 1.99545E+01 1.24360E-01-6.27686E-04-7.91445E-02-1.42062E-13-1.11881E-13
 -1      3902 1.99544E+01 1.23558E-01 4.03014E-04-6.42177E-02-9.66210E-14-6.86457E-14
 -1      3903 1.99114E+01 1.94442E-01 2.60208E-04-1.20086E-01-1.79293E-13-5.07521E-14
 -1      3904 1.99248E+01 1.69433E-01-7.94804E-04-1.03598E-01-1.53586E-13-1.42664E-13
 -1      3905 1.99221E+01 1.70796E-01 5.66435E-04-8.40052E-02-1.56138E-13-1.62164E-13
 -1      3906 1.98699E+01 2.47584E-01 3.15493E-04-1.58047E-01-5.91166E-14 1.14743E-13
 -1      3907 1.98869E+01 2.20007E-01-9.89311E-04-1.36572E-01-1.09302E-13 2.63457E-14
 -1      3908 1.98809E+01 2.24210E-01 7.47056E-04-1.11126E-01-1.95814E-13-6.36801E-14
 -1      3909 1.98179E+01 3.04415E-01 4.10511E-04-2.07051E-01-3.20092E-14 1.02420E-13
 -1      3910 1.98389E+01 2.75175E-01-1.20975E-03-1.79745E-01-4.52299E-15 1.02230E-13
 -1      3911 1.98286E+01 2.83241E-01 9.39019E-04-1.47227E-01-2.17229E-14 8.25320E-14
 -1      3912 1.97544E+01 3.61767E-01 5.67299E-04-2.69236E-01 1.17733E-13 5.05774E-14
 -1      3913 1.97795E+01 3.32671E-01-1.45117E-03-2.35142E-01 2.93384E-14 2.43909E-14
 -1      3914 1.97629E+01 3.46102E-01 1.12939E-03-1.94399E-01 4.77281E-14-6.19844E-14
 -1      3915 1.96794E+01 4.14118E-01 8.19861E-04-3.47162E-01 1.75532E-15 1.40718E-13
 -1      3916 1.97080E+01 3.88242E-01-1.70359E-03-3.05200E-01 8.75429E-14 1.02649E-13
 -1      3917 1.96824E+01 4.09193E-01 1.29483E-03-2.55321E-01 1.07857E-14-3.02763E-16
 -1      3918 1.95948E+01 4.52726E-01 1.21890E-03-4.43911E-01 7.36259E-14 8.88215E-14
 -1      3919 1.96250E+01 4.34864E-01-1.94947E-03-3.92864E-01 7.56092E-14 1.31777E-13
 -1      3920 1.95865E+01 4.66361E-01 1.39697E-03-3.33442E-01 4.05985E-14 2.01694E-13
 -1      3921 1.95056E+01 4.64630E-01 1.83689E-03-5.63209E-01-4.76155E-14 2.45887E-13
 -1      3922 1.95337E+01 4.61809E-01-2.15900E-03-5.01717E-01 5.07705E-15 1.16805E-13
 -1      3923 1.94763E+01 5.08006E-01 1.37559E-03-4.33251E-01-6.37341E-15 1.70949E-13
 -1      3924 1.94214E+01 4.31548E-01 2.77085E-03-7.09527E-01-5.15531E-14 2.83246E-13
 -1      3925 1.94408E+01 4.53587E-01-2.28091E-03-6.36116E-01-9.80591E-14 2.11698E-13
 -1      3926 1.93559E+01 5.20034E-01 1.13684E-03-5.60609E-01-4.50284E-14 1.86315E-13
 -1      3927 1.93591E+01 3.28774E-01 4.13501E-03-8.87981E-01-9.37286E-14 2.92560E-13
 -1      3928 1.93589E+01 3.88840E-01-2.22470E-03-8.01257E-01-2.97928E-14 3.08302E-13
 -1      3929 1.92338E+01 4.82678E-01 5.28987E-04-7.23139E-01-8.40982E-14 2.56958E-13
 -1      3930 1.93465E+01 1.24253E-01 6.05805E-03-1.10364E+00-1.68110E-13 2.11068E-13
 -1      3931 1.93095E+01 2.39337E-01-1.81994E-03-1.00293E+00-1.20776E-13 2.50392E-13
 -1      3932 1.91256E+01 3.69179E-01-7.14533E-04-9.30508E-01-4.76599E-14 2.24642E-13
 -1      3933 1.94269E+01-2.22561E-01 8.34627E-03-1.35942E+00-1.45791E-13 2.17587E-13
 -1      3934 1.93276E+01-3.07399E-02-6.70422E-04-1.24661E+00-1.97063E-13 1.12815E-13
 -1      3935 1.90572E+01 1.44381E-01-3.14514E-03-1.19432E+00-1.63332E-13 2.77408E-14
 -1      3936 1.96675E+01-7.56848E-01 1.07039E-02-1.64384E+00-1.66933E-13 2.07218E-13
 -1      3937 1.94728E+01-4.68017E-01 2.01795E-03-1.53117E+00-1.11639E-13 2.63622E-13
 -1      3938 1.90740E+01-2.42642E-01-8.41782E-03-1.52761E+00-1.58275E-13 3.35321E-14
 -1      3939 2.02144E+01-1.52184E+00 1.62708E-02-1.90962E+00-1.59211E-13 5.89164E-14
 -1      3940 1.98329E+01-1.11090E+00 9.04816E-03-1.83825E+00-1.52405E-13 1.99873E-13
 -1      3941 1.92672E+01-8.35076E-01-9.38129E-03-1.93233E+00-1.60610E-13 5.47110E-15
 -1      3942 2.01189E+01-2.02770E+00 2.43693E-02-2.46303E+00-1.01432E-13-6.56203E-14
 -1      3943 1.40190E+01 5.68077E-01-1.64366E-02-9.61505E-01 1.25110E-13 1.47209E-13
 -1      3944 2.02781E+01 1.41356E+00 5.58291E-03-1.38982E-01 9.24792E-15-2.14015E-13
 -1      3945 2.03668E+01 1.01618E+00 4.29689E-03-4.11805E-02 3.13696E-14-2.34489E-13
 -1      3946 2.03135E+01 1.20111E+00-2.69149E-03-7.85009E-02 3.54073E-14-2.00593E-13
 -1      3947 2.03130E+01 1.18847E+00-2.93861E-03-1.43689E-01 3.70838E-15-1.97152E-13
 -1      3948 2.03118E+01 8.80596E-01 2.34968E-04 2.48514E-01 9.14712E-14-1.48676E-13
 -1      3949 2.02453E+01 4.13597E-02-5.96805E-04-1.19467E-01 4.59782E-14-1.19396E-13
 -1      3950 2.02667E+01 9.02220E-02 1.36730E-03-1.01775E-01 5.87799E-14-9.28384E-14
 -1      3951 2.02763E+01 3.30894E-02-4.53130E-04-1.06835E-01 7.04559E-14-2.06458E-13
 -1      3952 2.01397E+01-8.23563E-02 2.28188E-04-1.27302E-01-1.42466E-14-9.92570E-14
 -1      3953 2.01533E+01-7.50036E-02 4.05721E-04-1.32150E-01 3.83287E-14-1.19348E-13
 -1      3954 2.01965E+01-7.21225E-02-5.58963E-04-1.19288E-01 2.81832E-14-1.45835E-13
 -1      3955 2.01608E+01-8.97936E-02-5.41022E-04-1.11590E-01-2.75472E-14-1.69639E-13
 -1      3956 2.00070E+01 3.49174E-02 2.29990E-04-4.71790E-02-8.33718E-14-2.14392E-14
 -1      3957 2.00128E+01 2.01386E-02-2.73876E-04-4.43011E-02-4.77473E-14 1.47917E-14
 -1      3958 2.00188E+01 1.48641E-02 1.59349E-05-3.72268E-02-9.43736E-15 8.89955E-14
 -1      3959 2.03262E+01 1.03497E+00-2.92291E-03 2.18344E-01 8.79139E-14-1.60563E-13
 -1      3960 2.03236E+01 1.10726E+00-7.71636E-04 1.73958E-01 6.59504E-14-1.48658E-13
 -1      3961 2.03688E+01 9.40233E-01 4.09736E-03 1.12785E-01 6.39527E-14-1.53803E-13
 -1      3962 2.03610E+01 9.36483E-01 3.01629E-03-1.22779E-01-1.55152E-14-1.54329E-13
 -1      3963 2.03176E+01 4.99406E-01-1.73946E-03 8.21086E-02 4.40517E-14-1.50724E-13
 -1      3964 2.03277E+01 6.02635E-01 2.09038E-03 1.46708E-01 6.09229E-14-1.50313E-13
 -1      3965 2.03507E+01 5.15687E-01-5.05087E-05 6.98716E-02 2.69205E-14-1.72962E-13
 -1      3966 2.00367E+01-1.84944E-02 2.70464E-04-4.29542E-02-1.13034E-14 4.07945E-14
 -1      3967 2.00427E+01-3.01259E-02-1.27148E-04-4.43144E-02 1.50614E-14 2.94895E-14
 -1      3968 2.00358E+01-1.28875E-02-8.76943E-05-3.62993E-02-2.46764E-14 8.71213E-14
 -1      3969 2.03840E+01 7.23039E-01-7.68961E-04-9.37592E-02-1.09141E-14-1.43005E-13
 -1      3970 2.03948E+01 4.98027E-01-1.14159E-03-2.23432E-02 1.31205E-14-1.20809E-13
 -1      3971 2.04117E+01 4.68476E-01 7.56042E-04-1.29907E-02 9.06098E-15-1.46863E-13
 -1      3972 2.03853E+01 8.06009E-01 1.34700E-05-6.26386E-02 1.34921E-14-1.55473E-13
 -1      3973 1.73686E+01-8.68901E-01 5.77329E-02-2.94727E+00-1.29553E-13-3.56930E-13
 -1      3974 1.83990E+01-1.52681E+00-1.96369E-02-2.93665E+00-1.59031E-13-2.58901E-13
 -1      3975 2.00698E+01-6.05605E-02 3.10156E-04-5.26645E-02 1.38192E-14-2.07383E-14
 -1      3976 2.00782E+01-6.94855E-02 4.79948E-05-5.69035E-02 3.29917E-15-5.17430E-14
 -1      3977 2.00724E+01-5.93326E-02-3.89599E-04-4.32881E-02-2.01231E-14 1.67107E-14
 -1      3978 2.00807E+01-7.71001E-02-3.35555E-04-7.43510E-02 3.52794E-14-7.74615E-14
 -1      3979 1.55915E+01 9.66501E-01 2.93477E-02-3.54464E-01 8.70094E-15-2.95593E-14
 -1      3980 2.01444E+01-9.75782E-02 3.23652E-04-8.29167E-02-7.37065E-15-1.70103E-13
 -1      3981 2.01592E+01-9.81471E-02 2.20090E-04-8.83880E-02-1.94285E-14-2.08026E-13
 -1      3982 2.03298E+01 8.95911E-01-7.05779E-04 2.11475E-01 8.29688E-14-1.64894E-13
 -1      3983 2.00534E+01-3.75259E-02-1.85596E-04-3.84440E-02 3.61892E-15-1.46852E-14
 -1      3984 2.00007E+01 4.63239E-02 1.30029E-04-4.17385E-02-7.81268E-14 5.89692E-14
 -1      3985 1.92602E+01-1.68364E+00-7.61370E-03-2.68260E+00-1.58398E-13-1.65711E-13
 -1      3986 1.87115E+01-1.05723E+00-1.50262E-02-2.39475E+00-1.44012E-13-1.62388E-13
 -1      3987 2.03882E+01 8.12624E-01-2.27025E-03 4.45636E-02 5.66413E-14-1.72292E-13
 -1      3988 2.03882E+01 8.25619E-01-2.30081E-03 1.14731E-02 2.77106E-14-2.22493E-13
 -1      3989 1.50572E+01 5.47933E-01 5.16225E-03-1.24957E+00 1.85215E-13 4.36283E-16
 -1      3990 2.03907E+01 8.19099E-01-1.92196E-03-8.20278E-03 4.35214E-14-2.44595E-13
 -1      3991 2.03854E+01 8.23263E-01-2.30742E-03-4.36633E-02 3.21294E-14-1.91484E-13
 -1      3992 2.04179E+01 6.38733E-01 2.75706E-03-2.29229E-02 1.39718E-14-1.63847E-13
 -1      3993 2.04225E+01 6.69742E-01 4.36778E-03 5.49353E-03 5.08556E-14-2.29580E-13
 -1      3994 2.02991E+01 1.69202E-02-3.76611E-04-9.48346E-02 7.49212E-14-2.16984E-13
 -1      3995 2.03208E+01 6.30641E-02 8.06116E-04-8.33001E-02 6.34506E-14-2.06587E-13
 -1      3996 2.03130E+01 1.42849E-01-2.81391E-04-7.53662E-02 4.65608E-14-1.75139E-13
 -1      3997 1.67719E+01-3.69438E-01 3.20633E-03-2.40605E+00 5.44877E-15-2.59475E-13
 -1      3998 2.03545E+01 7.54227E-01-9.51833E-05 1.33027E-01 7.04204E-14-1.52104E-13
 -1      3999 2.03713E+01 5.09316E-01-2.20563E-03 4.25207E-02 9.97776E-15-1.51547E-13
 -1      4000 2.03730E+01 6.24332E-01 1.49661E-03 9.33110E-02 5.42110E-14-1.57131E-13
 -1      4001 2.03734E+01 7.49754E-01-9.97507E-04 9.99383E-02 6.72356E-14-1.37781E-13
 -1      4002 2.01154E+01-9.03990E-02 3.95889E-04-7.19397E-02 3.32133E-15-8.23505E-14
 -1      4003 2.01274E+01-9.49372E-02 1.11170E-04-7.76990E-02-4.17252E-15-1.19315E-13
 -1      4004 2.01522E+01-1.01351E-01-5.09750E-04-6.70353E-02-3.06705E-14-1.12326E-13
 -1      4005 2.02788E+01-1.85171E-02 6.72492E-04-9.88798E-02 6.23204E-14-2.02163E-13
 -1      4006 2.03157E+01 5.37436E-03-3.88632E-04-7.84999E-02 5.54960E-14-1.54932E-13
 -1      4007 2.02574E+01-4.62164E-02-5.92363E-05-1.02644E-01 2.59065E-14-1.59146E-13
 -1      4008 2.03638E+01 2.77831E-01-9.81314E-04-2.96666E-02 8.71186E-15-1.66033E-13
 -1      4009 2.03792E+01 3.82768E-01 1.43571E-03 1.02970E-02-9.13466E-15-1.76164E-13
 -1      4010 2.03949E+01 4.76912E-01-6.73645E-04 2.54116E-02 3.03676E-14-1.64342E-13
 -1      4011 2.00908E+01-7.75544E-02 3.77304E-04-6.15384E-02 9.26214E-15-4.96191E-14
 -1      4012 2.01006E+01-8.47401E-02 2.03086E-05-6.68693E-02 2.06513E-14-6.54465E-14
 -1      4013 2.01213E+01-9.27494E-02-5.37836E-04-5.82663E-02-1.86911E-14-6.91159E-14
 -1      4014 2.00954E+01-7.84320E-02-4.75568E-04-5.02506E-02-1.44493E-14-4.66292E-14
 -1      4015 2.03935E+01 1.23559E-01 7.49504E-04 2.95855E-02-3.96507E-14-1.43587E-13
 -1      4016 2.03736E+01 6.22693E-02 2.42431E-05 4.00756E-02-3.92202E-14-1.15265E-13
 -1      4017 2.03528E+01 1.32195E-02 2.94844E-04 4.06620E-02-4.34440E-14-9.93688E-14
 -1      4018 2.03306E+01-2.45806E-02 2.02814E-04 4.58903E-02-2.45232E-14-8.95346E-14
 -1      4019 2.03724E+01 4.22584E-02-9.28812E-04 2.17166E-02-2.13506E-14-6.73044E-14
 -1      4020 2.03071E+01-5.40732E-02 2.96686E-04 4.48119E-02-2.24742E-14-8.06863E-14
 -1      4021 2.02837E+01-7.53302E-02 1.38473E-04 4.62434E-02-1.36609E-14-6.16951E-14
 -1      4022 2.03283E+01-3.79102E-02-7.74458E-04 2.50943E-02-2.14996E-14-7.96166E-14
 -1      4023 2.02606E+01-9.04879E-02 3.52360E-04 4.49393E-02-6.92203E-15-1.03321E-14
 -1      4024 2.02385E+01-1.00463E-01 2.42985E-04 4.40177E-02 3.17924E-14-1.78025E-14
 -1      4025 2.02804E+01-8.31294E-02-5.64481E-04 2.57577E-02 3.34690E-14 1.97953E-14
 -1      4026 2.02163E+01-1.05926E-01 2.55385E-04 4.20250E-02 5.32261E-14-2.18686E-14
 -1      4027 2.01968E+01-1.07813E-01 4.01922E-04 4.00852E-02 8.22220E-14-2.16361E-14
 -1      4028 2.02345E+01-1.04937E-01-6.83764E-04 2.40217E-02 4.38655E-14 4.06682E-14
 -1      4029 2.01765E+01-1.07029E-01 2.30352E-04 3.73646E-02 4.20294E-14-4.52808E-14
 -1      4030 2.01590E+01-1.03555E-01 2.91380E-04 3.48588E-02-4.15393E-14-6.58125E-14
 -1      4031 2.01933E+01-1.10467E-01-7.26232E-04 2.14590E-02 1.03990E-14-1.64272E-13
 -1      4032 2.01414E+01-9.81853E-02 2.08990E-04 3.27075E-02-7.03096E-14-3.18877E-14
 -1      4033 2.01264E+01-9.12634E-02 2.71267E-04 3.01654E-02-2.61315E-14-6.82790E-14
 -1      4034 2.01552E+01-1.03602E-01-6.63925E-04 1.91958E-02-4.08127E-14-1.68883E-13
 -1      4035 2.01111E+01-8.30529E-02 1.27325E-04 2.84010E-02-2.81006E-15-9.98769E-14
 -1      4036 2.00987E+01-7.36994E-02 3.43986E-04 2.63109E-02-2.53202E-14-1.11719E-13
 -1      4037 2.01226E+01-8.95096E-02-5.52487E-04 1.66260E-02-3.81496E-14-1.51218E-13
 -1      4038 2.00853E+01-6.37121E-02 6.40683E-05 2.45421E-02-1.36966E-14-1.18856E-13
 -1      4039 2.00744E+01-5.25334E-02 2.47178E-04 2.29994E-02-4.19233E-14-1.42270E-14
 -1      4040 2.00953E+01-7.11482E-02-4.90147E-04 1.41912E-02-1.03315E-14-1.57958E-13
 -1      4041 2.00626E+01-4.07186E-02 2.48867E-05 2.19535E-02-5.80590E-14-4.97010E-15
 -1      4042 2.00529E+01-2.79917E-02 2.00007E-04 2.12220E-02-4.24678E-14 4.72449E-14
 -1      4043 2.00706E+01-4.81032E-02-3.99048E-04 1.27698E-02-2.55566E-14-7.30005E-14
 -1      4044 2.00418E+01-1.46572E-02-5.90259E-05 2.07288E-02-3.50557E-14 7.90617E-14
 -1      4045 2.00326E+01-2.45169E-04 1.44300E-04 2.09463E-02-2.95707E-14 8.17697E-14
 -1      4046 2.00487E+01-2.18185E-02-2.05649E-04 1.20860E-02-3.27728E-14-5.54550E-14
 -1      4047 2.00214E+01 1.48811E-02-1.49379E-04 2.10728E-02-1.14113E-13 1.10958E-13
 -1      4048 2.00118E+01 3.13171E-02 8.27318E-05 2.23755E-02-1.23304E-13 8.86157E-14
 -1      4049 2.00276E+01 8.00179E-03 1.96773E-05 1.22042E-02-5.59292E-14 5.12834E-15
 -1      4050 1.99996E+01 4.86581E-02-2.52101E-04 2.31696E-02-8.17161E-14 7.72652E-14
 -1      4051 1.99886E+01 6.76267E-02 9.97359E-06 2.56808E-02 2.54693E-14-1.64190E-14
 -1      4052 2.00055E+01 4.20104E-02 2.78588E-04 1.32362E-02-1.39692E-13-7.02026E-14
 -1      4053 1.99742E+01 8.77458E-02-3.70238E-04 2.71695E-02 6.36843E-14-1.14291E-13
 -1      4054 1.99607E+01 1.09865E-01-8.17370E-05 3.09840E-02 3.98008E-14-1.19946E-13
 -1      4055 1.99804E+01 8.12069E-02 5.83433E-04 1.52134E-02-4.92443E-14-1.62814E-13
 -1      4056 1.99427E+01 1.33409E-01-5.05717E-04 3.31574E-02 3.53524E-14-1.26632E-13
 -1      4057 1.99253E+01 1.59341E-01-2.03577E-04 3.83158E-02-3.10812E-14-1.47599E-13
 -1      4058 1.99498E+01 1.26806E-01 9.51143E-04 1.80773E-02 2.08870E-14-2.47766E-13
 -1      4059 1.99023E+01 1.86978E-01-6.58960E-04 4.10925E-02-1.05472E-13-1.40044E-13
 -1      4060 1.98792E+01 2.17355E-01-3.71188E-04 4.75338E-02-1.18382E-13-1.44597E-13
 -1      4061 1.99109E+01 1.80092E-01 1.40217E-03 2.16225E-02-5.16073E-14-2.45498E-13
 -1      4062 1.98494E+01 2.49687E-01-8.28159E-04 5.07061E-02-4.11449E-14-1.50092E-13
 -1      4063 1.98186E+01 2.85010E-01-6.06055E-04 5.81952E-02-1.31117E-15-1.72516E-13
 -1      4064 1.98604E+01 2.42254E-01 1.96051E-03 2.53978E-02-9.02872E-14-2.20190E-13
 -1      4065 1.97800E+01 3.22476E-01-1.00849E-03 6.13462E-02 5.28739E-15-1.47675E-13
 -1      4066 1.97389E+01 3.62983E-01-9.37314E-04 6.93685E-02-2.34538E-14-1.87605E-13
 -1      4067 1.97944E+01 3.14164E-01 2.65415E-03 2.85576E-02-3.60632E-14-1.74977E-13
 -1      4068 1.96891E+01 4.05713E-01-1.19160E-03 7.17574E-02-6.34350E-14-1.62603E-13
 -1      4069 1.96347E+01 4.51209E-01-1.40407E-03 7.93776E-02-1.09641E-13-2.23589E-13
 -1      4070 1.97085E+01 3.96097E-01 3.51611E-03 2.96494E-02-4.29552E-14-2.33590E-13
 -1      4071 1.95711E+01 4.98842E-01-1.36585E-03 7.97860E-02-7.42919E-14-2.19646E-13
 -1      4072 1.94993E+01 5.48474E-01-2.05854E-03 8.54702E-02-8.93898E-15-2.15039E-13
 -1      4073 1.95975E+01 4.87369E-01 4.58659E-03 2.63237E-02-9.53438E-14-3.07515E-13
 -1      4074 1.94189E+01 5.99926E-01-1.51814E-03 8.20068E-02-2.08223E-14-1.58571E-13
 -1      4075 1.93250E+01 6.51908E-01-2.97071E-03 8.34170E-02 6.76442E-14-2.00354E-13
 -1      4076 1.94553E+01 5.85881E-01 5.91731E-03 1.49541E-02-2.65388E-14-2.96821E-13
 -1      4077 1.92244E+01 7.05086E-01-1.63833E-03 7.32830E-02 7.16255E-14-2.10819E-13
 -1      4078 1.91022E+01 7.56374E-01-4.23627E-03 6.70659E-02 3.91230E-14-1.22769E-13
 -1      4079 1.92752E+01 6.87571E-01 7.58021E-03-9.84127E-03 6.83657E-14-2.11638E-13
 -1      4080 1.89774E+01 8.07864E-01-1.72661E-03 4.62830E-02 8.16979E-14-8.86182E-14
 -1      4081 1.88189E+01 8.53805E-01-5.99106E-03 2.78933E-02 1.44220E-13-4.71348E-14
 -1      4082 1.90489E+01 7.85815E-01 9.68416E-03-5.57922E-02 9.03524E-14-9.19045E-14
 -1      4083 1.86648E+01 8.98558E-01-1.80147E-03-9.00728E-03 8.90521E-14-8.19787E-14
 -1      4084 1.84592E+01 9.32541E-01-8.43716E-03-4.53845E-02-6.91108E-14-1.24933E-13
 -1      4085 1.87667E+01 8.70799E-01 1.24039E-02-1.33721E-01 5.35255E-14-1.75245E-13
 -1      4086 1.82687E+01 9.63687E-01-1.89598E-03-1.05721E-01-1.41005E-13-1.16108E-13
 -1      4087 1.80005E+01 9.76737E-01-1.18832E-02-1.67039E-01-1.08606E-13-6.72247E-14
 -1      4088 1.84157E+01 9.28937E-01 1.60029E-02-2.58598E-01-6.13496E-14-3.12976E-13
 -1      4089 1.77626E+01 9.86199E-01-1.92254E-03-2.60044E-01-9.08817E-14-8.34113E-14
 -1      4090 1.74107E+01 9.66213E-01-1.61287E-02-3.53931E-01 3.33737E-14-5.83170E-14
 -1      4091 1.79767E+01 9.42088E-01 2.05541E-02-4.51406E-01-1.05119E-13-1.93820E-13
 -1      4092 1.71070E+01 9.38047E-01-3.50250E-03-4.90672E-01 5.88537E-14-3.79528E-14
 -1      4093 1.66521E+01 8.94084E-01-1.57825E-02-6.19300E-01-2.89898E-14-6.40757E-14
 -1      4094 1.74077E+01 8.84451E-01 2.19353E-02-7.43350E-01-2.40644E-14-1.15867E-13
 -1      4095 2.03809E+01 7.88525E-01-8.94625E-04 7.48767E-02 5.30250E-14-1.58470E-13
 -1      4096 2.00155E+01 2.32587E-02 1.42764E-04-2.94924E-02-3.03739E-14 1.50760E-13
 -1      4097 2.00240E+01 7.90981E-03-1.55495E-04-2.81192E-02-1.17826E-14 1.61852E-13
 -1      4098 1.99703E+01 9.54600E-02 4.43046E-05-4.18983E-02-9.81572E-14 6.58330E-14
 -1      4099 1.99815E+01 7.53330E-02-3.68116E-04-3.67121E-02-8.22291E-14 8.29755E-14
 -1      4100 1.98530E+01 2.48783E-01-3.53269E-05-9.55187E-02-2.03242E-13-1.09596E-13
 -1      4101 1.98757E+01 2.18655E-01-9.27595E-04-8.12163E-02-1.75119E-13-1.00925E-13
 -1      4102 1.97908E+01 3.12903E-01-7.35180E-06-1.27717E-01 3.73981E-14-7.48515E-14
 -1      4103 1.98193E+01 2.79621E-01-1.21791E-03-1.08926E-01-1.15907E-13-1.05116E-13
 -1      4104 1.98234E+01 2.81638E-01 2.08049E-03-7.63278E-02-1.72721E-13-2.57984E-13
 -1      4105 1.97128E+01 3.81488E-01 8.21329E-05-1.70426E-01 7.04984E-14-4.62382E-14
 -1      4106 1.97480E+01 3.46072E-01-1.58215E-03-1.46064E-01 1.26399E-13 2.43382E-14
 -1      4107 1.97509E+01 3.52466E-01 2.74016E-03-1.04223E-01-2.09921E-15-2.16605E-13
 -1      4108 1.96170E+01 4.50887E-01 2.71105E-04-2.26699E-01-6.93518E-14 2.15797E-14
 -1      4109 1.96592E+01 4.15331E-01-2.03796E-03-1.95351E-01-1.56316E-14-8.00611E-15
 -1      4110 1.96597E+01 4.28365E-01 3.53362E-03-1.42451E-01 1.89595E-14-6.09276E-15
 -1      4111 1.95021E+01 5.14878E-01 6.16015E-04-3.00643E-01 4.46470E-14 6.75488E-14
 -1      4112 1.95509E+01 4.82518E-01-2.60743E-03-2.60446E-01 7.11525E-15 9.64615E-14
 -1      4113 1.95466E+01 5.05516E-01 4.48310E-03-1.94702E-01 9.25898E-15-6.73103E-14
 -1      4114 1.93686E+01 5.63799E-01 1.19907E-03-3.97814E-01-1.41527E-14 2.78941E-14
 -1      4115 1.94222E+01 5.39750E-01-3.31859E-03-3.46288E-01 8.81638E-14 1.07528E-13
 -1      4116 1.94095E+01 5.77479E-01 5.61537E-03-2.66126E-01 3.71067E-14-1.67064E-14
 -1      4117 1.92196E+01 5.83540E-01 2.13737E-03-5.25719E-01-4.56661E-14 6.03607E-14
 -1      4118 1.92742E+01 5.75190E-01-4.20706E-03-4.59561E-01-4.45042E-14 2.04504E-14
 -1      4119 1.92471E+01 6.34340E-01 6.96544E-03-3.63888E-01-1.06344E-15-1.20257E-13
 -1      4120 1.90623E+01 5.54404E-01 3.58978E-03-6.94440E-01-7.22987E-14 1.09096E-13
 -1      4121 1.91111E+01 5.71969E-01-5.31834E-03-6.09291E-01-1.03587E-13 8.04612E-14
 -1      4122 1.90601E+01 6.61741E-01 8.57813E-03-4.97918E-01-8.24130E-14-1.04103E-13
 -1      4123 1.89103E+01 4.49811E-01 5.75182E-03-9.17272E-01-4.23164E-14 1.18809E-13
 -1      4124 1.89417E+01 5.06972E-01-6.71367E-03-8.07566E-01-2.18358E-16 1.57742E-13
 -1      4125 1.88523E+01 6.39715E-01 1.04864E-02-6.81883E-01-3.26119E-14-7.74472E-14
 -1      4126 1.87874E+01 2.34359E-01 8.71826E-03-1.21142E+00-3.85509E-14-2.71222E-14
 -1      4127 1.87825E+01 3.49458E-01-8.47083E-03-1.07021E+00-2.39011E-14 8.33043E-14
 -1      4128 1.86318E+01 5.41082E-01 1.25487E-02-9.34304E-01 5.43795E-14 7.72310E-14
 -1      4129 1.87260E+01-1.43320E-01 9.28329E-03-1.60566E+00-2.30276E-13-6.69449E-14
 -1      4130 1.86615E+01 6.55090E-02-8.99564E-03-1.41786E+00-1.87004E-13-1.52103E-13
 -1      4131 1.84124E+01 3.28572E-01 1.33614E-02-1.27819E+00-4.31253E-14 4.57468E-15
 -1      4132 1.87821E+01-6.99007E-01 1.27042E-02-2.09027E+00-1.59284E-13-1.62434E-13
 -1      4133 1.86235E+01-3.84852E-01-8.08935E-03-1.84651E+00-1.20881E-13-1.15008E-13
 -1      4134 1.81996E+01-6.44396E-02-1.03412E-02-1.72783E+00-1.04185E-13-1.77708E-13
 -1      4135 1.80819E+01-5.52631E-01 1.51477E-02-2.29071E+00-1.04914E-13-2.23544E-13
 -1      4136 2.01881E+01-1.01580E-01-5.54763E-04-7.55874E-02 1.28607E-14-9.97394E-14
 -1      4137 2.01782E+01-9.59638E-02 2.43263E-04-9.33186E-02-4.23832E-15-1.77572E-13
 -1      4138 2.01954E+01-9.03867E-02 3.29423E-04-9.73855E-02-4.73594E-15-1.37913E-13
 -1      4139 2.04099E+01 6.50667E-01 3.15082E-03 4.34086E-02 5.79239E-14-1.52261E-13
 -1      4140 1.58431E+01 6.78825E-01-7.44951E-03-1.07386E+00 5.05151E-14-1.16630E-13
 -1      4141 2.00539E+01-3.24397E-02 2.48928E-04-2.89733E-02-4.52702E-14 7.29572E-14
 -1      4142 2.00630E+01-4.44848E-02 9.32513E-06-3.03483E-02-3.29475E-14 1.89724E-14
 -1      4143 2.03369E+01 1.19199E-01-7.45896E-04-7.28326E-02 6.47875E-14-2.27103E-13
 -1      4144 2.03549E+01 1.91965E-01 7.76359E-04-4.96255E-02 3.78801E-14-2.01744E-13
 -1      4145 2.03847E+01 2.56924E-01-7.18506E-05-2.91260E-02 4.89683E-14-2.16396E-13
 -1      4146 2.03556E+01 1.04741E-01-2.21754E-04-6.18608E-02 5.07174E-14-2.03184E-13
 -1      4147 2.04102E+01 5.02619E-01-1.09708E-03 1.33456E-02 5.98780E-14-1.64782E-13
 -1      4148 1.99019E+01 1.90936E-01-2.66450E-05-7.15538E-02-1.46363E-13-6.83023E-14
 -1      4149 1.99197E+01 1.64312E-01-6.96846E-04-6.08995E-02-8.62577E-14-4.18413E-14
 -1      4150 1.98802E+01 2.17792E-01 1.53453E-03-5.61217E-02-1.39551E-13-4.41285E-14
 -1      4151 2.00347E+01-6.27447E-03 1.95371E-04-2.79863E-02-6.35523E-14 1.10913E-13
 -1      4152 2.00431E+01-1.98606E-02-7.38133E-05-2.80912E-02-6.26223E-14 1.04252E-13
 -1      4153 2.00308E+01 1.15678E-03-1.09232E-04-1.99793E-02-7.62212E-14 6.72449E-14
 -1      4154 1.99401E+01 1.39912E-01 3.03202E-06-5.41107E-02-2.77622E-15-6.53356E-14
 -1      4155 1.99541E+01 1.16707E-01-5.13724E-04-4.64482E-02-7.38036E-14 2.90091E-14
 -1      4156 1.99590E+01 1.12567E-01 7.09138E-04-3.17417E-02-6.98282E-14 5.27768E-14
 -1      4157 1.99244E+01 1.61522E-01 1.08337E-03-4.17121E-02-3.47338E-14-3.03128E-14
 -1      4158 2.04182E+01 2.90996E-01 2.27560E-04 9.41301E-03-2.46056E-14-1.53859E-13
 -1      4159 2.04050E+01 1.98436E-01-7.97661E-04 2.63735E-02-4.64278E-14-1.48192E-13
 -1      4160 2.04078E+01 1.69630E-01-8.03637E-04 1.53489E-02-2.68894E-14-1.39253E-13
 -1      4161 1.99947E+01 5.68745E-02 9.18452E-05-3.39396E-02-9.67437E-14 1.20646E-13
 -1      4162 2.00041E+01 3.93700E-02-2.51285E-04-3.08226E-02-1.89111E-14 1.81385E-13
 -1      4163 1.99867E+01 7.01720E-02 3.95166E-04-2.52349E-02-1.06383E-13 1.02367E-13
 -1      4164 1.63884E+01 5.55999E-01 1.50896E-02-1.39727E+00 2.49568E-14-1.69455E-13
 -1      4165 2.03253E+01-1.24980E-02-1.32759E-04-6.31007E-02 2.78982E-14-1.51856E-13
 -1      4166 2.03485E+01 2.87534E-02 8.10800E-04-5.61243E-02 4.48051E-14-1.62696E-13
 -1      4167 2.04196E+01 5.14460E-01-1.29663E-03-1.65684E-02 2.00969E-14-1.52364E-13
 -1      4168 2.04207E+01 3.79307E-01 8.63181E-05 4.40699E-03 5.63690E-15-1.45587E-13
 -1      4169 2.04258E+01 3.37264E-01-3.14929E-04 3.54768E-03-1.17068E-14-1.77004E-13
 -1      4170 2.04233E+01 5.37693E-01-4.20971E-04-8.20611E-03 3.44759E-14-1.74161E-13
 -1      4171 2.00099E+01 3.33626E-02 1.26480E-04-2.14867E-02-4.54678E-14 1.51855E-13
 -1      4172 2.00511E+01-2.72603E-02-3.16652E-04-2.03119E-02-7.19308E-14 8.84941E-14
 -1      4173 2.01944E+01-1.05515E-01 1.72544E-04-5.66919E-02 2.62301E-14-1.13500E-13
 -1      4174 2.02136E+01-1.02288E-01 2.10647E-04-5.96152E-02 1.89978E-14-9.02547E-14
 -1      4175 2.03659E+01 7.87516E-02-5.55784E-04-5.29629E-02 3.88881E-14-1.74609E-13
 -1      4176 2.03849E+01 1.41595E-01-5.12665E-05-3.97620E-02 3.23506E-14-1.84664E-13
 -1      4177 2.03719E+01 6.11493E-02-6.15561E-04-3.75403E-02 2.82415E-14-1.55847E-13
 -1      4178 2.04221E+01 5.46721E-01-1.57109E-03 9.54523E-03 5.57964E-14-2.16845E-13
 -1      4179 2.04226E+01 5.40489E-01-1.94639E-03-2.57836E-03 5.07431E-14-2.21778E-13
 -1      4180 2.04337E+01 4.36190E-01 1.93887E-03-3.71276E-04 3.61618E-14-2.06696E-13
 -1      4181 2.00728E+01-5.23396E-02-4.57745E-04-2.20840E-02-4.24695E-14 2.91138E-14
 -1      4182 2.00749E+01-5.56833E-02 3.18013E-04-3.20614E-02-3.18759E-14-1.39100E-15
 -1      4183 2.00858E+01-6.61897E-02 2.65260E-04-3.47873E-02-4.44207E-14-2.94739E-14
 -1      4184 1.63701E+01 2.27138E-01 1.06971E-02-1.89789E+00 9.12712E-14-4.69244E-14
 -1      4185 1.74628E+01-3.59660E-01-1.56238E-02-2.21844E+00-5.08296E-14-1.30063E-13
 -1      4186 2.02359E+01-6.63044E-02 4.89229E-04-1.02028E-01 3.37336E-14-1.45714E-13
 -1      4187 2.02717E+01-5.55189E-02-4.85523E-04-8.40083E-02 1.41384E-14-1.16990E-13
 -1      4188 2.02163E+01-8.09310E-02 1.43117E-04-1.00849E-01 1.67188E-14-1.44146E-13
 -1      4189 2.01584E+01-1.02524E-01 5.38726E-04-4.95739E-02-6.42988E-14-5.33731E-14
 -1      4190 2.01749E+01-1.05273E-01 3.53262E-04-5.32022E-02-5.52096E-16-5.66524E-14
 -1      4191 2.01951E+01-1.08823E-01-3.69661E-04-3.89531E-02-2.97014E-15-1.07451E-13
 -1      4192 1.75918E+01-4.38002E-02-4.84565E-03-1.88938E+00 2.96870E-14-1.28335E-13
 -1      4193 2.03805E+01 5.09183E-02 3.83228E-05-9.57182E-03-1.27086E-14-7.37855E-14
 -1      4194 2.03597E+01 4.05178E-03 8.93919E-04-7.02450E-03-5.94379E-15-6.66783E-14
 -1      4195 2.03037E+01-4.36590E-02 6.43618E-04-6.27871E-02 2.05493E-14-1.51400E-13
 -1      4196 2.03290E+01-2.61396E-02-1.02530E-03-4.40691E-02 9.55177E-15-1.16650E-13
 -1      4197 2.02804E+01-6.70851E-02 1.86966E-04-6.48420E-02-1.42032E-14-1.34549E-13
 -1      4198 2.03363E+01-3.21255E-02 3.04299E-04-9.92886E-03-1.51465E-14-5.32315E-14
 -1      4199 2.03121E+01-6.02142E-02 5.42601E-04-8.65076E-03-1.40289E-14-4.03812E-14
 -1      4200 2.02503E+01-1.02120E-01 3.48290E-04 4.70662E-03 1.54835E-14-3.68516E-14
 -1      4201 2.02286E+01-1.08344E-01 4.14103E-04 4.32665E-03 1.52492E-14-5.73176E-14
 -1      4202 2.01988E+01-1.09453E-01 3.38027E-04-7.69905E-03-1.04304E-14-6.39198E-14
 -1      4203 2.01788E+01-1.07895E-01 3.21401E-04-7.45750E-03-7.41296E-16-1.06771E-13
 -1      4204 2.01339E+01-9.33958E-02 4.35546E-04 3.88332E-03-5.54920E-14-8.01223E-14
 -1      4205 2.01189E+01-8.52696E-02 4.62843E-04 2.82862E-03-1.41518E-14-7.09811E-14
 -1      4206 2.00986E+01-7.22148E-02 1.50247E-04-4.67535E-03-3.40841E-14-6.89666E-14
 -1      4207 2.00860E+01-6.13150E-02 3.00733E-04-4.73121E-03-4.02168E-14-7.48607E-14
 -1      4208 2.00744E+01-4.97829E-02 2.88002E-04-4.01618E-03-4.79794E-14-5.00450E-14
 -1      4209 2.00625E+01-3.75566E-02 2.09367E-04-4.09463E-03-3.86465E-14-1.74089E-14
 -1      4210 2.00517E+01-2.43613E-02 1.85246E-04-3.82270E-03-4.50792E-14-5.07830E-14
 -1      4211 2.00406E+01-1.04763E-02 9.41618E-05-3.77191E-03-6.65852E-14-8.37337E-14
 -1      4212 2.00300E+01 4.35866E-03 2.60576E-05-4.09325E-03-7.24740E-14-4.56030E-14
 -1      4213 2.00187E+01 2.01922E-02-4.37811E-05-3.83082E-03-7.51792E-14-3.84124E-14
 -1      4214 2.00073E+01 3.69890E-02-1.57822E-04-4.91625E-03-1.12383E-13-3.59151E-14
 -1      4215 1.99951E+01 5.52018E-02-2.05442E-04-4.44192E-03-1.33588E-13-5.39637E-14
 -1      4216 1.99819E+01 7.44183E-02-3.68647E-04-6.48818E-03-1.36119E-13-1.62675E-14
 -1      4217 1.99673E+01 9.55563E-02-4.01574E-04-5.84892E-03-6.33553E-14-6.81770E-14
 -1      4218 1.99512E+01 1.17713E-01-6.13523E-04-9.11981E-03-3.25018E-15-1.00697E-13
 -1      4219 1.99331E+01 1.42366E-01-6.47270E-04-8.43051E-03-1.34068E-14-1.20223E-13
 -1      4220 1.99126E+01 1.67960E-01-9.00766E-04-1.32951E-02-4.09834E-14-1.10982E-13
 -1      4221 1.98893E+01 1.96676E-01-9.61824E-04-1.27786E-02-1.12162E-13-1.20317E-13
 -1      4222 1.98631E+01 2.26078E-01-1.23868E-03-1.97607E-02-1.68697E-13-1.92118E-13
 -1      4223 1.98328E+01 2.59250E-01-1.36968E-03-1.98092E-02-1.43630E-13-2.08437E-13
 -1      4224 1.97992E+01 2.92563E-01-1.63471E-03-2.96559E-02-7.33337E-14-2.62937E-13
 -1      4225 1.97596E+01 3.30284E-01-1.90201E-03-3.09203E-02-4.32975E-14-3.21111E-13
 -1      4226 1.97171E+01 3.67171E-01-2.09483E-03-4.46981E-02-2.12708E-14-2.57268E-13
 -1      4227 1.96658E+01 4.09042E-01-2.59901E-03-4.82113E-02-4.73148E-14-2.20043E-13
 -1      4228 1.96125E+01 4.48493E-01-2.62323E-03-6.74390E-02-2.24973E-14-2.28558E-13
 -1      4229 1.95466E+01 4.93380E-01-3.51341E-03-7.47824E-02 3.14193E-14-1.99500E-13
 -1      4230 1.94812E+01 5.33423E-01-3.22294E-03-1.01615E-01 3.56742E-14-2.13509E-13
 -1      4231 1.93973E+01 5.79155E-01-4.71582E-03-1.15133E-01 4.84942E-14-1.26789E-13
 -1      4232 1.93185E+01 6.16516E-01-3.89761E-03-1.52609E-01 1.33494E-14-1.18073E-13
 -1      4233 1.92127E+01 6.59527E-01-6.30300E-03-1.75683E-01 8.29668E-14-1.22647E-13
 -1      4234 1.91201E+01 6.89230E-01-4.65377E-03-2.28059E-01 3.93159E-16-1.43284E-13
 -1      4235 1.89878E+01 7.24158E-01-8.40939E-03-2.65456E-01-3.08119E-15-1.69653E-13
 -1      4236 1.88818E+01 7.39086E-01-5.49789E-03-3.38648E-01 6.91510E-15-2.07309E-13
 -1      4237 1.87172E+01 7.58324E-01-1.12162E-02-3.96994E-01-3.09972E-14-2.18005E-13
 -1      4238 1.86001E+01 7.48753E-01-6.39654E-03-4.99134E-01-6.47003E-15-1.65556E-13
 -1      4239 1.83956E+01 7.41949E-01-1.49099E-02-5.87713E-01-1.96156E-14-1.14710E-13
 -1      4240 1.82728E+01 6.95196E-01-6.99148E-03-7.29611E-01-2.61704E-14-5.94791E-14
 -1      4241 1.80190E+01 6.48850E-01-1.90847E-02-8.62823E-01-3.64838E-14-3.62470E-15
 -1      4242 1.79056E+01 5.48402E-01-5.09779E-03-1.05557E+00-1.08639E-13 2.33125E-14
 -1      4243 1.76219E+01 4.48145E-01-1.60872E-02-1.24709E+00-2.90753E-14-6.39181E-14
 -1      4244 1.70763E+01 5.00108E-01-2.61637E-03-1.32587E+00 2.58942E-14-9.31745E-14
 -1      4245 2.02283E+01-8.82775E-02-5.32578E-04-8.19870E-02 2.71478E-15-8.13861E-14
 -1      4246 2.04199E+01 4.00786E-01 2.09225E-03 9.58316E-04 6.30154E-14-1.81121E-13
 -1      4247 2.04007E+01 2.10269E-01 1.51992E-04-3.14734E-02 5.49411E-14-1.67727E-13
 -1      4248 2.04113E+01 2.99710E-01-6.74896E-04-1.05007E-02 6.15635E-14-1.53615E-13
 -1      4249 2.04261E+01 3.43522E-01-3.76261E-04-2.47009E-03 4.86140E-14-1.64024E-13
 -1      4250 2.04074E+01 1.81622E-01-4.37728E-04-2.08586E-02 3.82876E-14-1.42278E-13
 -1      4251 2.04268E+01 2.56374E-01 1.81905E-03-3.64976E-03 1.30990E-14-1.49191E-13
 -1      4252 2.04121E+01 1.70102E-01-3.33045E-04-2.47304E-04 1.40186E-14-1.13666E-13
 -1      4253 2.04284E+01 3.41585E-01-5.23027E-04 1.93435E-03 6.47585E-15-2.10512E-13
 -1      4254 2.02980E+01-7.54711E-02 3.38966E-04 5.31470E-03 8.22318E-15-3.36739E-14
 -1      4255 2.02734E+01-9.18566E-02 2.34431E-04 5.26783E-03 3.65989E-14-9.40952E-17
 -1      4256 2.01625E+01-1.06139E-01-7.79558E-04-2.93058E-02 1.29085E-14-2.92487E-15
 -1      4257 2.01651E+01-1.04633E-01 5.20255E-04-1.07031E-03 2.07303E-14-1.35147E-13
 -1      4258 2.01466E+01-9.94671E-02 2.07420E-04-1.51843E-03-1.30530E-14-7.24297E-14
 -1      4259 2.01451E+01-9.98775E-02 1.04013E-04-4.18609E-02-3.12761E-14-5.37224E-14
 -1      4260 2.01036E+01-7.75304E-02-5.44670E-04-1.70441E-02-5.02634E-14-1.32546E-14
 -1      4261 1.77518E+01 2.00524E-01 1.59617E-02-1.61771E+00 2.40650E-14-1.83289E-14
 -1      4262 2.02604E+01-9.69213E-02-3.37349E-04-1.50928E-02 1.56716E-15-1.10030E-13
 -1      4263 2.02367E+01-1.00661E-01-3.82720E-04-4.21859E-02 5.40440E-15-1.31802E-13
 -1      4264 2.02359E+01-9.54443E-02 2.39743E-04-6.20712E-02-1.00953E-14-7.51318E-14
 -1      4265 2.01312E+01-9.35118E-02 4.64689E-04-3.84973E-02 7.39328E-15-3.58577E-14
 -1      4266 2.02572E+01-8.42199E-02 3.03668E-04-6.33762E-02-3.12696E-14-1.04091E-13
 -1      4267 2.02266E+01-1.06116E-01 1.69599E-04-2.77625E-02 1.36993E-14-1.45837E-13
 -1      4268 2.02494E+01-9.99594E-02-1.60592E-05-2.86120E-02 8.06060E-15-1.19659E-13
 -1      4269 2.02963E+01-7.21195E-02-4.72183E-04-3.07195E-02-3.48719E-14-1.07311E-13
 -1      4270 2.01370E+01-9.69345E-02-5.89263E-04-1.60915E-02-1.15015E-14 1.21492E-14
 -1      4271 2.01058E+01-7.97031E-02 1.45139E-04-2.92637E-02-3.55466E-14-1.84768E-14
 -1      4272 2.03998E+01 1.09913E-01 1.32852E-03-6.70858E-03 1.10585E-14-1.10629E-13
 -1      4273 2.01186E+01-8.80676E-02 1.20503E-04-3.20282E-02-1.05447E-14-1.68623E-14
 -1      4274 2.02061E+01-1.08839E-01-4.51884E-04-2.58842E-02-3.44759E-15-1.11715E-13
 -1      4275 2.02726E+01-8.84574E-02 2.16889E-04-3.04728E-02-3.77632E-14-1.00786E-13
 -1      4276 2.02820E+01-7.58634E-02-4.69084E-04-4.42629E-02-4.34935E-14-1.18852E-13
 -3
    1PSTEP                         3           1           1          
  100CL  101 1.000000000        4276                     0    1           1
 -4  TOSTRAIN    6    1
 -5  EXX         1    4    1    1
 -5  EYY         1    4    2    2
 -5  EZZ         1    4    3    3
 -5  EXY         1    4    1    2
 -5  EYZ         1    4    2    3
 -5  EZX         1    4    3    1
 -1         1 3.11832E-05-1.09518E-04 2.14009E-05-3.21851E-05-1.19351E-17-2.35240E-18
 -1         2 5.07034E-05-1.51838E-04 2.57172E-05 2.36635E-07-1.94484E-18-2.24728E-20
 -1         3 9.55265E-05-2.81934E-05-2.88000E-05 6.56161E-07-3.18024E-18-2.12114E-18
 -1         4 9.51280E-05-2.86263E-05-2.78580E-05-3.10066E-07 1.09839E-18-7.58157E-19
 -1         5 1.43348E-04-2.14781E-05-4.25292E-05 3.85306E-05-1.52837E-19 1.27110E-17
 -1         6 1.45409E-04 2.57583E-10-4.41882E-05-5.35254E-05-7.55130E-19 1.14396E-17
 -1         7 9.06128E-05-5.11400E-07-3.90695E-05-2.92499E-05-1.02809E-19 1.85241E-18
 -1         8 8.51289E-05 8.63212E-08-3.63403E-05-2.02676E-05-1.38728E-19-1.06691E-18
 -1         9 8.28182E-05 7.59627E-08-3.53520E-05-1.56351E-05-1.20226E-19-2.61198E-18
 -1        10 8.17720E-05 3.96754E-08-3.48819E-05-1.20735E-05-7.74704E-20-3.38970E-18
 -1        11 8.12520E-05 1.93069E-08-3.46527E-05-9.00997E-06-6.53340E-20-3.69841E-18
 -1        12 8.09813E-05 9.17077E-09-3.45375E-05-6.28083E-06-3.19937E-20-3.77978E-18
 -1        13 8.08383E-05 4.64432E-09-3.44793E-05-3.68318E-06-1.44889E-20-3.67104E-18
 -1        14 8.07784E-05 2.81172E-09-3.44555E-05-1.18283E-06 5.19139E-21-3.62036E-18
 -1        15 8.07805E-05 2.79826E-09-3.44562E-05 1.28811E-06 3.12418E-20-3.54247E-18
 -1        16 8.08447E-05 4.57982E-09-3.44816E-05 3.79362E-06 4.51649E-20-3.43053E-18
 -1        17 8.09927E-05 8.44954E-09-3.45413E-05 6.40324E-06 6.55673E-20-3.22758E-18
 -1        18 8.12693E-05 1.81902E-08-3.46577E-05 9.15136E-06 7.84266E-20-2.87032E-18
 -1        19 8.17979E-05 3.81802E-08-3.48903E-05 1.22531E-05 1.24269E-19-2.34192E-18
 -1        20 8.28385E-05 8.14656E-08-3.53645E-05 1.58659E-05 1.59427E-19-1.36347E-18
 -1        21 8.50941E-05 1.69323E-07-3.63788E-05 2.04785E-05 1.77850E-19 6.04312E-19
 -1        22 9.16495E-05-9.99362E-08-3.87411E-05 2.79969E-05 3.65283E-20 4.38101E-18
 -1        23 1.12983E-04-3.81292E-05-3.53995E-05-4.40156E-06-5.44801E-19 8.84652E-18
 -1        24 9.28193E-05-2.77015E-05-2.90036E-05 3.91454E-07-1.58905E-19 6.54852E-18
 -1        25 8.91384E-05-2.68578E-05-2.69351E-05 3.75911E-07-1.74370E-21 4.48190E-18
 -1        26 8.80396E-05-2.64956E-05-2.63990E-05 2.04304E-07-6.80894E-20 2.63687E-18
 -1        27 8.80715E-05-2.64755E-05-2.63926E-05 1.40099E-07-6.42099E-21 1.48319E-18
 -1        28 8.86107E-05-2.66135E-05-2.65639E-05 1.01080E-07 1.05327E-20 1.08402E-18
 -1        29 8.93712E-05-2.68279E-05-2.67982E-05 7.54427E-08-2.63931E-20 5.83258E-19
 -1        30 9.02018E-05-2.70694E-05-2.70500E-05 5.71997E-08 4.50077E-20-3.73204E-19
 -1        31 9.10175E-05-2.73096E-05-2.72960E-05 4.34929E-08-8.09170E-20-1.04427E-18
 -1        32 9.17710E-05-2.75330E-05-2.75231E-05 3.28845E-08-2.38882E-19-2.03378E-18
 -1        33 9.24384E-05-2.77316E-05-2.77243E-05 2.45673E-08 1.50062E-19-2.03677E-18
 -1        34 9.30107E-05-2.79024E-05-2.78969E-05 1.80252E-08-1.61431E-20-1.27689E-18
 -1        35 9.34884E-05-2.80452E-05-2.80412E-05 1.28900E-08-6.35974E-20-1.27392E-18
 -1        36 9.38775E-05-2.81618E-05-2.81588E-05 8.87708E-09 3.93814E-20-1.82148E-18
 -1        37 9.41877E-05-2.82549E-05-2.82527E-05 5.75643E-09-1.24239E-19-1.63646E-18
 -1        38 9.44301E-05-2.83278E-05-2.83261E-05 3.33923E-09-3.93461E-20-2.03496E-18
 -1        39 9.46167E-05-2.83840E-05-2.83827E-05 1.47122E-09-2.49584E-19-2.19274E-18
 -1        40 9.47597E-05-2.84273E-05-2.84262E-05 2.95392E-11 1.24137E-19-2.76380E-18
 -1        41 9.48715E-05-2.84612E-05-2.84603E-05-1.07856E-09 1.47722E-19-3.42609E-18
 -1        42 9.49650E-05-2.84897E-05-2.84889E-05-1.91583E-09-1.41384E-19-4.08641E-18
 -1        43 9.50539E-05-2.85169E-05-2.85162E-05-2.51374E-09-1.55586E-19-2.99927E-18
 -1        44 9.51534E-05-2.85474E-05-2.85467E-05-2.86959E-09 8.45151E-21-2.47459E-18
 -1        45 9.52812E-05-2.85865E-05-2.85859E-05-2.94088E-09-6.33995E-20-2.22615E-18
 -1        46 9.54587E-05-2.86407E-05-2.86402E-05-2.63593E-09 1.36405E-19-3.74166E-18
 -1        47 9.57123E-05-2.87178E-05-2.87176E-05-1.79860E-09 6.45579E-20-2.36237E-18
 -1        48 9.60750E-05-2.88280E-05-2.88282E-05-1.83937E-10 3.05752E-19-1.82873E-18
 -1        49 9.65891E-05-2.89837E-05-2.89849E-05 2.57992E-09-2.61071E-19-2.09491E-18
 -1        50 9.73083E-05-2.92013E-05-2.92039E-05 7.05057E-09 2.19926E-19-2.80715E-18
 -1        51 9.83006E-05-2.95009E-05-2.95061E-05 1.40593E-08 1.41456E-19-2.23393E-18
 -1        52 9.96516E-05-2.99082E-05-2.99173E-05 2.48356E-08 2.62649E-19-1.51221E-18
 -1        53 1.01467E-04-3.04544E-05-3.04698E-05 4.11629E-08-6.26395E-19-3.88850E-18
 -1        54 1.03872E-04-3.11764E-05-3.12012E-05 6.55203E-08 3.08514E-19-4.75049E-18
 -1        55 1.07002E-04-3.21142E-05-3.21519E-05 1.01048E-07-4.57018E-19-3.30500E-18
 -1        56 1.10984E-04-3.33036E-05-3.33568E-05 1.50901E-07 1.88392E-19-4.38948E-18
 -1        57 1.15872E-04-3.47596E-05-3.48254E-05 2.15958E-07-5.45981E-20-3.06238E-18
 -1        58 1.21535E-04-3.64427E-05-3.65026E-05 2.88906E-07 5.29492E-19-3.19100E-18
 -1        59 1.27450E-04-3.81985E-05-3.82041E-05 3.41884E-07 2.13777E-19-1.59261E-18
 -1        60 1.32396E-04-3.96703E-05-3.95316E-05 3.07747E-07-6.69374E-19-1.14488E-18
 -1        61 1.34178E-04-4.02136E-05-3.98230E-05 6.95758E-08 3.75163E-19-1.09612E-18
 -1        62 1.29763E-04-3.89250E-05-3.82659E-05-4.95016E-07 3.63562E-20-9.35442E-19
 -1        63 1.16553E-04-3.49976E-05-3.43189E-05-1.34251E-06-1.67051E-19 9.42589E-19
 -1        64 9.51235E-05-2.85450E-05-2.84026E-05-2.02519E-06-3.83142E-19 1.70211E-18
 -1        65 7.16977E-05-2.14200E-05-2.22358E-05-1.81660E-06 2.01389E-19 3.31169E-18
 -1        66 5.62162E-05-1.67090E-05-1.81319E-05-5.17377E-07 3.92348E-19 3.28336E-18
 -1        67 5.49236E-05-1.63829E-05-1.74583E-05 9.62838E-07-3.01643E-19 3.37024E-18
 -1        68 6.48710E-05-1.94865E-05-1.96776E-05 1.53443E-06 2.22933E-19 1.73070E-18
 -1        69 7.75961E-05-2.33581E-05-2.29705E-05 1.16522E-06 1.74590E-19-1.49777E-18
 -1        70 8.71399E-05-2.61881E-05-2.57469E-05 6.73092E-07 2.19982E-19 4.27249E-19
 -1        71 9.30361E-05-2.79525E-05-2.74114E-05 5.27895E-07-9.06861E-19-1.34612E-19
 -1        72 1.02187E-04-3.05898E-05-3.41527E-05-1.92936E-06 1.60010E-19 1.16222E-17
 -1        73 9.25756E-05-2.75175E-05-2.89118E-05-3.33324E-07 1.47946E-19 8.70252E-18
 -1        74 8.91262E-05-2.67074E-05-2.69783E-05-1.25989E-07-2.35085E-21 6.86919E-18
 -1        75 8.80700E-05-2.64465E-05-2.64430E-05-9.56521E-08 5.48896E-20 5.67744E-18
 -1        76 8.81061E-05-2.64555E-05-2.64193E-05-7.66691E-08 1.40568E-19 4.53655E-18
 -1        77 8.86444E-05-2.66079E-05-2.65809E-05-6.26491E-08-5.13642E-20 3.17929E-18
 -1        78 8.94024E-05-2.68292E-05-2.68105E-05-5.19250E-08 2.73635E-20 3.10951E-18
 -1        79 9.02298E-05-2.70740E-05-2.70594E-05-4.30978E-08 8.96817E-20 2.41979E-18
 -1        80 9.10419E-05-2.73157E-05-2.73034E-05-3.55249E-08-9.48968E-20 1.99479E-18
 -1        81 9.17918E-05-2.75395E-05-2.75288E-05-2.89443E-08 1.35514E-19 1.43886E-18
 -1        82 9.24558E-05-2.77380E-05-2.77287E-05-2.32415E-08 1.01427E-19 1.11622E-18
 -1        83 9.30251E-05-2.79083E-05-2.79003E-05-1.83417E-08 2.97390E-21 4.73107E-19
 -1        84 9.35002E-05-2.80505E-05-2.80438E-05-1.41741E-08 2.08684E-19-1.80206E-19
 -1        85 9.38873E-05-2.81664E-05-2.81609E-05-1.06610E-08 3.14363E-20-4.34217E-19
 -1        86 9.41959E-05-2.82589E-05-2.82543E-05-7.71727E-09-8.45266E-20-1.19376E-18
 -1        87 9.44373E-05-2.83313E-05-2.83276E-05-5.25374E-09-9.56766E-20-1.07453E-18
 -1        88 9.46235E-05-2.83872E-05-2.83843E-05-3.18171E-09 1.14406E-19-4.05877E-19
 -1        89 9.47670E-05-2.84303E-05-2.84281E-05-1.41799E-09 1.49542E-19-2.33994E-18
 -1        90 9.48803E-05-2.84645E-05-2.84628E-05 1.10164E-10-2.87869E-19-2.23895E-18
 -1        91 9.49764E-05-2.84935E-05-2.84923E-05 1.45997E-09 1.55484E-19-1.90722E-18
 -1        92 9.50692E-05-2.85215E-05-2.85210E-05 2.66745E-09-4.69728E-20-1.90469E-18
 -1        93 9.51737E-05-2.85531E-05-2.85532E-05 3.74024E-09-1.45705E-19-2.04941E-18
 -1        94 9.53072E-05-2.85934E-05-2.85943E-05 4.64807E-09 1.41038E-20-2.85198E-18
 -1        95 9.54894E-05-2.86483E-05-2.86502E-05 5.31020E-09 1.08344E-20-2.90220E-18
 -1        96 9.57431E-05-2.87246E-05-2.87278E-05 5.57932E-09 1.80501E-19-2.52124E-18
 -1        97 9.60944E-05-2.88302E-05-2.88350E-05 5.22206E-09-4.38891E-20-2.72026E-18
 -1        98 9.65727E-05-2.89736E-05-2.89805E-05 3.89745E-09-5.05851E-20-2.89294E-18
 -1        99 9.72086E-05-2.91641E-05-2.91735E-05 1.13806E-09 2.51414E-19-3.81275E-18
 -1       100 9.80317E-05-2.94104E-05-2.94225E-05-3.65593E-09-3.10096E-19-1.08951E-18
 -1       101 9.90648E-05-2.97190E-05-2.97340E-05-1.11885E-08 4.59435E-19-1.30087E-18
 -1       102 1.00315E-04-3.00922E-05-3.01093E-05-2.21662E-08 9.88408E-21-4.11900E-18
 -1       103 1.01761E-04-3.05232E-05-3.05406E-05-3.70557E-08-1.26215E-19-2.21780E-19
 -1       104 1.03332E-04-3.09910E-05-3.10048E-05-5.56040E-08 2.20638E-19 1.43549E-18
 -1       105 1.04884E-04-3.14529E-05-3.14565E-05-7.60128E-08 2.08547E-19 2.12799E-18
 -1       106 1.06172E-04-3.18369E-05-3.18200E-05-9.37406E-08-4.06911E-19 1.45141E-18
 -1       107 1.06833E-04-3.20355E-05-3.19848E-05-1.00203E-07-5.50257E-20-7.48562E-19
 -1       108 1.06387E-04-3.19072E-05-3.18105E-05-8.23215E-08 3.86112E-19-3.23997E-18
 -1       109 1.04307E-04-3.12950E-05-3.11484E-05-2.48619E-08 3.03540E-19-2.27621E-18
 -1       110 1.00162E-04-3.00684E-05-2.98879E-05 8.19539E-08 3.35011E-19-4.07148E-18
 -1       111 9.38627E-05-2.81948E-05-2.80257E-05 2.29704E-07 1.99456E-19-3.44574E-18
 -1       112 8.59290E-05-2.58204E-05-2.57327E-05 3.80476E-07-8.59904E-19-1.79952E-18
 -1       113 7.76218E-05-2.33159E-05-2.33763E-05 4.69706E-07 7.08887E-19-8.55080E-19
 -1       114 7.07496E-05-2.12262E-05-2.14552E-05 4.36782E-07-6.63806E-19-2.34721E-19
 -1       115 6.70859E-05-2.00957E-05-2.04435E-05 2.67923E-07 1.81622E-19 5.81025E-19
 -1       116 6.76569E-05-2.02459E-05-2.06135E-05 1.08248E-08 2.96511E-20 8.07196E-20
 -1       117 7.23239E-05-2.16395E-05-2.19265E-05-2.59678E-07-7.27754E-21-3.06774E-18
 -1       118 7.98522E-05-2.39066E-05-2.40264E-05-4.90465E-07-4.00660E-19-3.65151E-18
 -1       119 8.81428E-05-2.64150E-05-2.62916E-05-6.37515E-07 6.28471E-19-5.56699E-18
 -1       120 9.41840E-05-2.84222E-05-2.79841E-05-4.44352E-07 7.04587E-19-7.12880E-18
 -1       121 9.56440E-05-3.01235E-05-2.78460E-05-4.23243E-07-5.77931E-18 1.37787E-18
 -1       122 9.76949E-05-3.68470E-05-2.58837E-05-6.98547E-07-5.25203E-18 2.48030E-19
 -1       123 1.00374E-04-4.58993E-05-2.33959E-05-8.09603E-07 1.42836E-18-1.06964E-18
 -1       124 1.02625E-04-5.35179E-05-2.14206E-05-7.51267E-07-5.09752E-18-2.75249E-19
 -1       125 1.03227E-04-5.54412E-05-2.13170E-05-3.22835E-07 2.11762E-19 1.54576E-18
 -1       126 1.00371E-04-4.55546E-05-2.47431E-05 8.27430E-07 9.25299E-18 1.41865E-19
 -1       127 9.25639E-05-1.92660E-05-3.24799E-05 2.59313E-06 6.27598E-18-7.14684E-19
 -1       128 8.03558E-05 2.08497E-05-4.31599E-05 3.86667E-06 7.53521E-18 1.07141E-18
 -1       129 6.96374E-05 5.62482E-05-5.19891E-05 3.11679E-06 9.33790E-18 1.63504E-19
 -1       130 6.39773E-05 7.43155E-05-5.63868E-05-8.16282E-08 2.44452E-18-7.99321E-19
 -1       131 6.71127E-05 6.48992E-05-5.43592E-05-2.84338E-06-1.18320E-18 2.09928E-18
 -1       132 7.58223E-05 3.61664E-05-4.74211E-05-3.73264E-06 3.16261E-19-1.07222E-18
 -1       133 8.72629E-05-1.38063E-06-3.77871E-05-2.61170E-06 4.84820E-19-2.49458E-19
 -1       134 9.43699E-05-2.54647E-05-3.08285E-05-7.03328E-07 1.78544E-18 1.96823E-19
 -1       135 9.65816E-05-3.28757E-05-2.79738E-05 5.11235E-07-3.02955E-18 3.55453E-19
 -1       136 9.55706E-05-3.03919E-05-2.79372E-05 1.24190E-06 1.32659E-18 1.84633E-18
 -1       137 3.58618E-05-1.17475E-04 1.97282E-05-2.89296E-05 5.57771E-18 1.90011E-18
 -1       138 1.14513E-05-4.16844E-05 3.41334E-06-1.85850E-05 4.67816E-18 3.00252E-18
 -1       139 1.76946E-05 2.40697E-05-2.02980E-05 3.85731E-05 5.93770E-19-1.25403E-18
 -1       140 7.65911E-05 3.86264E-05-4.52475E-05 1.06877E-04-3.64732E-18-3.18908E-18
 -1       141 1.78620E-04-1.08272E-06-6.69166E-05 1.41989E-04-1.19898E-18-4.03315E-18
 -1       142 2.83448E-04-6.20287E-05-8.25425E-05 1.19389E-04-2.51442E-18-6.35402E-18
 -1       143 3.43812E-04-1.03064E-04-8.95228E-05 4.53039E-05-3.71689E-19-8.87553E-18
 -1       144 3.30504E-04-9.73816E-05-8.71318E-05-4.83040E-05 1.57834E-18-1.49908E-17
 -1       145 2.47370E-04-5.01487E-05-7.47223E-05-1.11295E-04 5.80419E-18-1.49810E-17
 -1       146 1.40661E-04 4.11071E-06-5.65136E-05-1.17509E-04 7.14451E-18-1.35407E-17
 -1       147 5.19286E-05 2.75325E-05-3.37424E-05-7.34003E-05 8.66981E-18-8.73418E-18
 -1       148 6.81741E-06 6.10212E-06-1.04239E-05-1.16696E-05 2.86721E-18-2.20271E-18
 -1       149 1.23076E-05-5.40285E-05 8.87463E-06 2.68872E-05 9.23266E-19-3.11708E-19
 -1       150 3.31665E-05-1.09279E-04 2.09604E-05 2.52640E-05 1.51958E-18 2.60833E-19
 -1       151 4.31077E-05-1.32833E-04 2.56274E-05-3.97685E-06-3.73383E-18-7.97270E-19
 -1       152 9.44149E-06-5.37702E-05 9.25138E-06-3.20791E-05-1.06811E-17-5.24208E-18
 -1       153 9.42855E-06 2.73074E-06-1.07960E-05 1.05336E-05-9.46221E-18-7.89816E-18
 -1       154 5.95687E-05 2.22385E-05-3.50536E-05 7.35905E-05-4.56297E-18-5.02799E-18
 -1       155 1.56849E-04-7.73532E-06-5.79697E-05 1.13608E-04-9.40207E-19-4.91449E-18
 -1       156 2.71437E-04-6.38226E-05-7.75394E-05 1.02116E-04-1.90646E-18-4.93820E-19
 -1       157 3.51172E-04-1.07483E-04-8.93392E-05 3.28203E-05 1.71654E-18-3.38644E-18
 -1       158 3.55018E-04-1.05688E-04-9.10389E-05-5.78009E-05 6.61837E-19-6.06211E-18
 -1       159 2.86754E-04-6.04841E-05-8.31679E-05-1.26766E-04-5.72700E-19-1.72075E-18
 -1       160 1.73564E-04 1.78361E-06-6.58626E-05-1.42026E-04-2.82316E-18 4.75524E-18
 -1       161 6.55996E-05 3.79785E-05-4.16058E-05-9.65596E-05-5.80853E-18 6.95456E-18
 -1       162 1.32258E-05 1.48741E-05-1.63968E-05-2.55850E-05-3.81673E-18 4.62861E-18
 -1       163 1.34680E-05-5.52528E-05 6.58932E-06 2.66230E-05-5.56077E-19 8.38563E-20
 -1       164 3.82895E-05-1.25606E-04 2.12496E-05 3.09740E-05-3.61175E-18 2.96938E-19
 -1       165 9.48753E-05-1.23489E-05-3.55713E-05-2.23451E-05-1.76449E-18 2.82036E-19
 -1       166 8.92538E-05-8.45726E-06-3.47888E-05-1.73867E-05-1.57535E-18-1.40247E-18
 -1       167 8.65504E-05-6.50525E-06-3.44168E-05-1.35788E-05-1.20154E-18-2.45401E-18
 -1       168 8.51891E-05-5.51317E-06-3.42308E-05-1.03681E-05-8.69099E-19-2.98715E-18
 -1       169 8.44450E-05-4.94408E-06-3.41407E-05-7.54323E-06-5.86160E-19-3.12420E-18
 -1       170 8.40152E-05-4.59747E-06-3.40978E-05-4.90055E-06-3.79044E-19-3.12917E-18
 -1       171 8.37956E-05-4.41266E-06-3.40793E-05-2.39368E-06-2.24075E-20-3.06046E-18
 -1       172 8.37308E-05-4.35687E-06-3.40745E-05 5.11785E-08 2.69871E-19-2.98250E-18
 -1       173 8.38055E-05-4.42119E-06-3.40801E-05 2.49819E-06 5.39399E-19-2.87817E-18
 -1       174 8.40369E-05-4.61662E-06-3.40992E-05 5.01189E-06 7.44996E-19-2.82820E-18
 -1       175 8.44717E-05-4.97022E-06-3.41417E-05 7.62009E-06 9.68514E-19-2.49194E-18
 -1       176 8.52502E-05-5.57346E-06-3.42321E-05 1.05085E-05 1.35476E-18-2.08946E-18
 -1       177 8.66491E-05-6.60856E-06-3.44193E-05 1.37791E-05 1.64126E-18-1.42512E-18
 -1       178 8.93969E-05-8.60120E-06-3.47937E-05 1.76188E-05 1.73447E-18-1.23746E-19
 -1       179 9.57871E-05-1.36160E-05-3.54276E-05 2.18904E-05 1.70681E-18 2.20107E-18
 -1       180 1.05614E-04-2.61050E-05-3.52654E-05 1.86606E-05 1.30432E-18 5.12275E-18
 -1       181 1.03408E-04-2.73049E-05-3.26134E-05-1.21241E-05-1.48983E-18 2.47728E-18
 -1       182 9.71206E-05-2.82937E-05-2.95326E-05-4.72807E-06-1.19449E-18 1.78917E-18
 -1       183 9.35218E-05-2.76407E-05-2.81868E-05-1.76552E-06-1.09360E-18 1.21854E-18
 -1       184 9.19898E-05-2.74110E-05-2.76412E-05-4.16994E-07-6.08168E-19 7.72365E-19
 -1       185 9.14168E-05-2.73368E-05-2.74446E-05 2.47165E-07-4.16891E-19 5.59192E-19
 -1       186 9.13779E-05-2.73765E-05-2.74206E-05 5.73131E-07-3.74208E-19 9.96835E-20
 -1       187 9.16245E-05-2.74801E-05-2.74865E-05 7.12020E-07-5.14498E-19-2.40813E-19
 -1       188 9.20111E-05-2.76133E-05-2.75973E-05 7.42683E-07-4.14058E-19-6.39507E-19
 -1       189 9.24503E-05-2.77546E-05-2.77262E-05 7.10880E-07-4.18001E-19-5.46710E-19
 -1       190 9.28901E-05-2.78909E-05-2.78569E-05 6.44995E-07-1.82782E-19-2.00758E-19
 -1       191 9.33005E-05-2.80152E-05-2.79799E-05 5.63157E-07-4.29544E-20-1.02406E-18
 -1       192 9.36661E-05-2.81241E-05-2.80901E-05 4.76977E-07 9.76590E-21-1.34112E-18
 -1       193 9.39806E-05-2.82164E-05-2.81854E-05 3.93749E-07-3.33120E-19-1.07823E-18
 -1       194 9.42441E-05-2.82927E-05-2.82656E-05 3.17878E-07-1.08967E-19-1.20133E-18
 -1       195 9.44602E-05-2.83544E-05-2.83317E-05 2.51880E-07-2.27095E-19-1.10745E-18
 -1       196 9.46350E-05-2.84037E-05-2.83854E-05 1.97106E-07-4.85627E-20-1.13335E-18
 -1       197 9.47761E-05-2.84427E-05-2.84290E-05 1.54286E-07-3.70759E-19-1.22284E-18
 -1       198 9.48922E-05-2.84742E-05-2.84651E-05 1.23950E-07-3.85281E-19-1.91637E-18
 -1       199 9.49926E-05-2.85008E-05-2.84965E-05 1.06767E-07-7.95248E-19-2.38932E-18
 -1       200 9.50877E-05-2.85255E-05-2.85265E-05 1.03812E-07 2.27161E-19-2.92627E-18
 -1       201 9.51893E-05-2.85516E-05-2.85586E-05 1.16818E-07 5.67080E-19-2.92219E-18
 -1       202 9.53108E-05-2.85829E-05-2.85970E-05 1.48401E-07 2.99744E-20-2.60689E-18
 -1       203 9.54681E-05-2.86238E-05-2.86465E-05 2.02300E-07-3.04393E-20-2.28488E-18
 -1       204 9.56804E-05-2.86797E-05-2.87132E-05 2.83633E-07 5.81938E-19-1.37304E-18
 -1       205 9.59712E-05-2.87570E-05-2.88042E-05 3.99191E-07 2.26546E-19-1.13956E-18
 -1       206 9.63694E-05-2.88639E-05-2.89284E-05 5.57764E-07-6.41321E-20-1.05548E-18
 -1       207 9.69106E-05-2.90103E-05-2.90969E-05 7.70457E-07-1.94478E-19-1.34267E-18
 -1       208 9.76383E-05-2.92084E-05-2.93230E-05 1.05092E-06 3.91075E-19-1.62951E-18
 -1       209 9.86048E-05-2.94733E-05-2.96228E-05 1.41524E-06 8.44560E-20-1.69226E-18
 -1       210 9.98722E-05-2.98230E-05-3.00151E-05 1.88088E-06-1.32618E-18-1.42059E-18
 -1       211 1.01510E-04-3.02791E-05-3.05208E-05 2.46372E-06-8.08858E-19-1.03172E-18
 -1       212 1.03591E-04-3.08669E-05-3.11608E-05 3.17075E-06 1.79685E-19-2.13059E-18
 -1       213 1.06179E-04-3.16144E-05-3.19510E-05 3.98471E-06-4.27081E-19-1.57778E-18
 -1       214 1.09305E-04-3.25514E-05-3.28929E-05 4.83445E-06 1.04791E-18-1.75894E-18
 -1       215 1.12924E-04-3.37042E-05-3.39569E-05 5.54341E-06 2.56900E-19-1.72468E-18
 -1       216 1.16843E-04-3.50829E-05-3.50562E-05 5.75408E-06 4.88823E-19-1.18700E-18
 -1       217 1.20621E-04-3.66456E-05-3.60172E-05 4.85272E-06 4.68219E-19-1.65537E-18
 -1       218 1.23448E-04-3.82077E-05-3.65650E-05 1.99458E-06 2.67070E-19-1.99973E-19
 -1       219 1.24073E-04-3.92729E-05-3.63691E-05-3.54947E-06-5.64945E-19-5.87371E-19
 -1       220 1.20951E-04-3.88469E-05-3.52005E-05-1.14534E-05 1.31625E-18 2.61786E-19
 -1       221 1.12999E-04-3.56871E-05-3.31503E-05-1.90090E-05 4.19440E-19 1.29040E-19
 -1       222 1.01200E-04-2.96607E-05-3.07249E-05-2.11663E-05 1.78607E-18 1.09282E-18
 -1       223 8.98995E-05-2.34878E-05-2.85839E-05-1.43233E-05-3.72258E-19 1.64961E-18
 -1       224 8.45022E-05-2.13291E-05-2.71998E-05-1.68883E-06 1.16771E-19 1.30588E-18
 -1       225 8.61592E-05-2.39432E-05-2.67281E-05 8.23077E-06-1.15674E-18 1.65141E-18
 -1       226 9.07442E-05-2.77067E-05-2.70226E-05 1.04246E-05-1.51771E-18 1.05191E-18
 -1       227 9.39031E-05-2.93980E-05-2.76306E-05 7.36671E-06 5.49542E-19 7.89150E-19
 -1       228 9.46881E-05-2.91221E-05-2.80698E-05 4.17306E-06-4.62149E-19 1.09498E-18
 -1       229 9.95124E-05-2.85580E-05-3.05906E-05 7.20858E-06 1.30434E-18 4.46359E-18
 -1       230 9.44307E-05-2.77950E-05-2.85288E-05 2.74092E-06 9.41259E-19 3.55993E-18
 -1       231 9.21138E-05-2.74061E-05-2.76868E-05 9.26690E-07 7.27446E-19 2.81377E-18
 -1       232 9.11685E-05-2.72445E-05-2.73690E-05 6.42524E-08 8.59245E-19 2.05186E-18
 -1       233 9.09604E-05-2.72385E-05-2.72959E-05-3.64119E-07 5.39327E-19 1.55097E-18
 -1       234 9.11479E-05-2.73256E-05-2.73457E-05-5.65278E-07 1.96513E-19 9.66297E-19
 -1       235 9.15353E-05-2.74599E-05-2.74574E-05-6.38382E-07 4.00167E-19 8.47742E-19
 -1       236 9.20076E-05-2.76119E-05-2.75963E-05-6.37388E-07 2.84268E-19 7.26234E-19
 -1       237 9.24964E-05-2.77641E-05-2.77415E-05-5.94442E-07 3.87591E-19 2.53962E-19
 -1       238 9.29617E-05-2.79060E-05-2.78806E-05-5.29729E-07 9.78609E-20 3.45265E-19
 -1       239 9.33821E-05-2.80325E-05-2.80069E-05-4.56168E-07 5.25338E-19 4.39057E-19
 -1       240 9.37476E-05-2.81412E-05-2.81172E-05-3.81982E-07 4.77742E-19-7.04440E-20
 -1       241 9.40563E-05-2.82322E-05-2.82106E-05-3.12266E-07 4.04366E-19-6.82208E-19
 -1       242 9.43110E-05-2.83065E-05-2.82879E-05-2.50032E-07-5.27777E-20-1.17472E-18
 -1       243 9.45173E-05-2.83662E-05-2.83508E-05-1.96952E-07-3.16384E-20-7.39371E-19
 -1       244 9.46829E-05-2.84135E-05-2.84014E-05-1.53905E-07-2.93418E-19-8.26505E-19
 -1       245 9.48165E-05-2.84512E-05-2.84424E-05-1.21389E-07 7.97611E-19-4.34740E-19
 -1       246 9.49276E-05-2.84821E-05-2.84767E-05-9.98324E-08-4.12231E-20-1.13717E-18
 -1       247 9.50266E-05-2.85092E-05-2.85074E-05-8.98346E-08-1.45714E-19-1.06341E-18
 -1       248 9.51245E-05-2.85357E-05-2.85379E-05-9.23336E-08-4.36168E-19-5.81095E-19
 -1       249 9.52339E-05-2.85653E-05-2.85720E-05-1.08721E-07-8.71273E-20-6.54481E-19
 -1       250 9.53686E-05-2.86020E-05-2.86138E-05-1.40887E-07 2.19254E-19-6.95268E-19
 -1       251 9.55446E-05-2.86505E-05-2.86683E-05-1.91188E-07 1.61232E-19-1.76270E-18
 -1       252 9.57799E-05-2.87162E-05-2.87409E-05-2.62279E-07 5.27793E-21-2.18008E-18
 -1       253 9.60945E-05-2.88050E-05-2.88376E-05-3.56777E-07-7.11396E-21-1.81191E-18
 -1       254 9.65102E-05-2.89236E-05-2.89648E-05-4.76639E-07-6.88742E-20-1.15867E-18
 -1       255 9.70489E-05-2.90792E-05-2.91290E-05-6.22155E-07-8.49055E-20-1.77529E-19
 -1       256 9.77304E-05-2.92786E-05-2.93358E-05-7.90371E-07-1.34745E-18-4.33623E-19
 -1       257 9.85683E-05-2.95273E-05-2.95887E-05-9.72780E-07 7.85752E-19-5.28896E-19
 -1       258 9.95633E-05-2.98279E-05-2.98868E-05-1.15211E-06 3.58888E-19-1.15603E-19
 -1       259 1.00694E-04-3.01776E-05-3.02223E-05-1.29821E-06-1.08394E-18-8.14071E-19
 -1       260 1.01904E-04-3.05642E-05-3.05763E-05-1.36357E-06-4.77027E-19-9.12283E-19
 -1       261 1.03087E-04-3.09613E-05-3.09142E-05-1.27976E-06-5.91008E-19 5.30481E-19
 -1       262 1.04072E-04-3.13224E-05-3.11824E-05-9.58107E-07 2.35132E-19 2.34434E-19
 -1       263 1.04613E-04-3.15748E-05-3.13057E-05-3.00412E-07 1.69194E-18-1.09686E-18
 -1       264 1.04395E-04-3.16161E-05-3.11934E-05 7.72316E-07 9.31528E-19-2.43213E-18
 -1       265 1.03080E-04-3.13193E-05-3.07537E-05 2.26591E-06-4.27103E-19-1.75663E-18
 -1       266 1.00388E-04-3.05556E-05-2.99237E-05 4.03796E-06 4.93433E-19-3.27267E-19
 -1       267 9.62506E-05-2.92471E-05-2.87093E-05 5.73395E-06-6.75995E-19 8.49895E-19
 -1       268 9.09732E-05-2.74447E-05-2.72219E-05 6.80168E-06-6.13532E-19 2.38202E-18
 -1       269 8.53314E-05-2.54006E-05-2.56861E-05 6.65179E-06 7.40489E-19 9.95482E-19
 -1       270 8.04798E-05-2.35686E-05-2.43995E-05 4.96679E-06-1.14942E-18 9.64026E-19
 -1       271 7.75949E-05-2.24541E-05-2.36444E-05 1.98190E-06 5.26484E-19 1.64882E-18
 -1       272 7.73931E-05-2.23763E-05-2.35892E-05-1.52518E-06 9.35134E-19 5.11757E-19
 -1       273 7.98176E-05-2.33127E-05-2.42216E-05-4.57641E-06 1.11013E-18 9.50126E-19
 -1       274 8.40816E-05-2.49565E-05-2.53345E-05-6.37672E-06 4.00206E-19-9.36170E-20
 -1       275 8.89656E-05-2.69537E-05-2.65539E-05-6.35317E-06 1.10616E-18-2.02753E-18
 -1       276 9.32876E-05-2.89865E-05-2.75100E-05-4.06550E-06-6.59642E-19-1.65388E-18
 -1       277 9.53072E-05-3.22319E-05-2.70138E-05-6.27469E-06-2.31360E-18 1.26014E-19
 -1       278 9.74995E-05-3.66207E-05-2.60626E-05-7.94636E-06-2.78806E-19 4.51978E-18
 -1       279 9.96721E-05-4.07054E-05-2.52261E-05-6.64231E-06 8.28517E-19-3.36549E-18
 -1       280 1.01701E-04-4.30010E-05-2.51048E-05-1.39886E-06 1.25008E-18 1.83067E-18
 -1       281 1.02819E-04-4.10900E-05-2.64223E-05 8.98527E-06 2.56441E-19 4.51040E-18
 -1       282 1.01153E-04-3.24071E-05-2.94507E-05 2.35571E-05 1.56267E-18-1.04982E-18
 -1       283 9.38809E-05-1.52749E-05-3.36274E-05 3.63209E-05 4.39925E-18 3.59089E-19
 -1       284 8.26177E-05 4.60940E-06-3.72090E-05 3.66241E-05 3.48607E-19-1.54017E-18
 -1       285 7.14056E-05 2.20326E-05-3.97017E-05 1.86149E-05-7.11336E-19-3.27405E-18
 -1       286 6.95412E-05 2.53220E-05-4.03054E-05-7.71062E-06 7.55196E-19-3.27828E-18
 -1       287 7.72102E-05 1.49320E-05-3.91987E-05-2.87114E-05-1.14543E-18 5.19761E-19
 -1       288 9.03842E-05-5.66340E-06-3.62363E-05-3.33416E-05-7.72071E-19 3.84050E-19
 -1       289 9.79869E-05-2.16414E-05-3.27349E-05-2.16529E-05 5.72588E-19 3.09445E-19
 -1       290 9.92042E-05-2.91236E-05-3.00029E-05-7.04085E-06-6.20309E-19-2.61351E-18
 -1       291 9.87219E-05-3.07836E-05-2.90628E-05 8.63835E-07 3.08836E-20 2.12186E-18
 -1       292 1.80175E-05-6.12748E-05 1.33421E-05 1.40615E-05 2.14797E-18 3.83769E-18
 -1       293 3.62813E-05-5.26799E-05 3.53836E-06 3.71865E-05 1.52572E-18-6.34428E-19
 -1       294 7.51594E-05-4.65477E-05-1.35737E-05 5.61434E-05-9.19243E-19-4.70453E-18
 -1       295 1.15526E-04-3.71725E-05-3.33124E-05 6.08387E-05-2.43543E-18-6.20663E-18
 -1       296 1.56309E-04-2.72885E-05-5.32092E-05 6.51949E-05-2.84857E-18-4.97949E-18
 -1       297 1.98338E-04-3.05796E-05-6.88222E-05 5.27306E-05-1.67625E-18-4.56424E-18
 -1       298 2.29596E-04-3.64957E-05-7.88857E-05 3.51482E-05 5.72277E-19-5.39994E-18
 -1       299 2.28628E-04-3.48435E-05-7.98107E-05 7.32590E-06 2.45830E-18-5.85167E-18
 -1       300 2.07298E-04-3.35376E-05-7.23078E-05-1.22202E-05 3.55500E-18-6.48425E-18
 -1       301 1.82731E-04-3.56012E-05-6.09048E-05-4.26801E-05 4.40981E-18-8.94403E-18
 -1       302 1.42394E-04-4.23125E-05-4.24190E-05-4.04916E-05 3.28257E-18-7.50386E-18
 -1       303 1.00054E-04-3.90073E-05-2.63282E-05-4.63577E-05 2.81406E-18-7.31879E-18
 -1       304 4.91706E-05-4.43756E-05-4.21753E-06-3.29181E-05 1.16573E-18-4.33887E-18
 -1       305 2.59798E-05-5.52099E-05 9.36894E-06-1.98180E-05-2.62157E-19-3.45166E-20
 -1       306 1.48165E-05-6.23487E-05 1.66863E-05-8.75458E-06-2.42982E-18-1.90837E-18
 -1       307 1.34117E-05-5.80652E-05 1.59641E-05 3.89359E-06-2.97827E-18-4.07656E-18
 -1       308 2.73701E-05-5.75300E-05 9.65407E-06 1.44142E-05-4.46111E-18-1.74076E-18
 -1       309 5.82683E-05-5.15257E-05-4.88365E-06 3.01661E-05-3.58718E-18-1.77141E-18
 -1       310 9.88482E-05-4.56881E-05-2.36735E-05 3.73300E-05-3.39237E-18 6.00546E-19
 -1       311 1.46518E-04-4.15807E-05-4.41357E-05 4.04012E-05-1.74552E-18-1.34212E-18
 -1       312 1.92448E-04-4.35714E-05-6.16737E-05 2.40060E-05-1.21660E-18-6.37392E-20
 -1       313 2.26582E-04-4.19247E-05-7.54325E-05 8.12339E-06 5.51630E-19-1.51174E-18
 -1       314 2.43469E-04-4.19083E-05-8.16240E-05-1.36252E-05-3.00697E-20 6.23178E-19
 -1       315 2.33885E-04-3.88301E-05-7.90187E-05-3.65581E-05-9.05372E-19 1.23879E-19
 -1       316 2.01538E-04-3.52140E-05-6.79611E-05-5.03004E-05-1.55855E-18-1.63647E-18
 -1       317 1.57673E-04-3.42967E-05-5.09222E-05-6.16525E-05-1.48485E-18-5.19231E-19
 -1       318 1.08190E-04-3.88545E-05-2.99352E-05-5.77636E-05 1.03338E-19 1.59750E-18
 -1       319 6.99402E-05-5.08105E-05-1.02780E-05-4.94250E-05 9.49947E-19 2.64936E-18
 -1       320 3.40347E-05-5.59081E-05 5.43245E-06-3.11853E-05-2.45216E-18-4.16634E-19
 -1       321 1.72950E-05-6.21385E-05 1.38989E-05-7.99018E-06 2.28064E-19 1.49099E-18
 -1       322 9.16526E-05-1.43964E-05-3.31731E-05-1.30567E-05-1.60818E-18-1.33046E-18
 -1       323 9.57146E-05-1.91119E-05-3.28929E-05-1.46255E-05-1.81538E-18-3.50208E-19
 -1       324 8.80044E-05-1.03752E-05-3.33230E-05-8.14722E-06-8.86542E-19-2.36204E-18
 -1       325 8.71843E-05-9.45051E-06-3.33625E-05-5.71355E-06-6.02333E-19-2.55493E-18
 -1       326 8.67231E-05-8.92057E-06-3.33888E-05-3.36486E-06-2.01204E-19-2.38005E-18
 -1       327 8.65175E-05-8.68069E-06-3.34021E-05-1.07194E-06 1.72017E-19-2.32740E-18
 -1       328 8.65261E-05-8.69028E-06-3.34018E-05 1.20268E-06 4.56570E-19-2.21761E-18
 -1       329 8.67508E-05-8.95148E-06-3.33877E-05 3.49794E-06 7.72606E-19-2.20774E-18
 -1       330 8.72242E-05-9.49596E-06-3.33608E-05 5.81157E-06 1.06169E-18-2.11109E-18
 -1       331 8.80657E-05-1.04484E-05-3.33199E-05 8.24972E-06 1.46976E-18-1.62575E-18
 -1       332 8.94834E-05-1.20326E-05-3.32598E-05 1.07583E-05 1.82452E-18-1.24384E-18
 -1       333 9.19062E-05-1.47228E-05-3.31597E-05 1.31636E-05 1.98662E-18-4.34429E-19
 -1       334 9.58124E-05-1.94596E-05-3.28304E-05 1.43709E-05 1.92000E-18 1.15371E-18
 -1       335 9.88012E-05-2.44474E-05-3.19541E-05 1.18939E-05 1.73210E-18 2.42208E-18
 -1       336 9.64018E-05-2.68157E-05-2.97931E-05 5.73672E-06 1.31808E-18 1.89182E-18
 -1       337 1.00875E-04-6.02974E-05-1.73844E-05-4.51859E-05-1.28537E-18-4.23233E-18
 -1       338 9.64463E-05-2.60306E-05-3.01345E-05-6.34354E-06-1.36277E-18-1.65760E-19
 -1       339 9.49307E-05-2.70319E-05-2.90741E-05-2.82718E-06-1.03272E-18-8.29133E-20
 -1       340 9.39557E-05-2.74297E-05-2.84965E-05-9.15652E-07-6.37875E-19-2.94337E-19
 -1       341 9.34375E-05-2.76424E-05-2.81912E-05 1.44275E-07-6.11513E-19-5.81637E-19
 -1       342 9.32468E-05-2.77960E-05-2.80476E-05 7.09106E-07-6.32176E-19-6.37982E-19
 -1       343 9.32650E-05-2.79262E-05-2.80014E-05 9.76577E-07-6.31788E-19-7.29063E-19
 -1       344 9.34049E-05-2.80416E-05-2.80128E-05 1.06349E-06-3.00182E-19-4.98076E-19
 -1       345 9.36069E-05-2.81434E-05-2.80562E-05 1.04246E-06-2.85509E-19-4.93798E-19
 -1       346 9.38316E-05-2.82311E-05-2.81152E-05 9.60236E-07-5.90870E-19-1.05161E-18
 -1       347 9.40547E-05-2.83049E-05-2.81792E-05 8.47379E-07 9.72919E-22-8.80734E-19
 -1       348 9.42620E-05-2.83655E-05-2.82421E-05 7.23817E-07-1.31236E-19-8.65118E-19
 -1       349 9.44463E-05-2.84139E-05-2.83003E-05 6.02347E-07-4.64246E-20-4.36790E-19
 -1       350 9.46053E-05-2.84516E-05-2.83522E-05 4.90970E-07-1.55185E-19-3.96581E-19
 -1       351 9.47399E-05-2.84803E-05-2.83975E-05 3.94554E-07-5.15999E-19-1.06721E-18
 -1       352 9.48531E-05-2.85015E-05-2.84368E-05 3.16065E-07-5.34624E-19-1.01593E-18
 -1       353 9.49494E-05-2.85170E-05-2.84713E-05 2.57478E-07-6.09740E-19-6.65560E-19
 -1       354 9.50345E-05-2.85283E-05-2.85028E-05 2.20503E-07-6.00883E-19-6.90219E-19
 -1       355 9.51148E-05-2.85368E-05-2.85334E-05 2.07143E-07-5.31738E-19-7.78448E-19
 -1       356 9.51979E-05-2.85443E-05-2.85656E-05 2.20171E-07-9.83705E-20-1.09449E-18
 -1       357 9.52926E-05-2.85525E-05-2.86026E-05 2.63538E-07 3.06962E-19-2.58410E-18
 -1       358 9.54091E-05-2.85630E-05-2.86477E-05 3.42754E-07 1.47973E-19-1.91007E-18
 -1       359 9.55592E-05-2.85782E-05-2.87052E-05 4.65260E-07 7.74207E-19-1.23274E-18
 -1       360 9.57573E-05-2.86006E-05-2.87802E-05 6.40814E-07 5.82812E-19-1.74579E-18
 -1       361 9.60200E-05-2.86330E-05-2.88784E-05 8.81866E-07 2.82277E-19-1.98719E-18
 -1       362 9.63670E-05-2.86791E-05-2.90068E-05 1.20390E-06 2.17106E-19-2.26883E-18
 -1       363 9.68212E-05-2.87431E-05-2.91733E-05 1.62558E-06 6.76781E-19-1.31708E-18
 -1       364 9.74088E-05-2.88307E-05-2.93867E-05 2.16853E-06 2.18696E-19-1.29527E-18
 -1       365 9.81591E-05-2.89492E-05-2.96565E-05 2.85603E-06-5.22587E-19-1.84227E-18
 -1       366 9.91039E-05-2.91102E-05-2.99914E-05 3.70968E-06-1.05498E-18-9.71242E-19
 -1       367 1.00277E-04-2.93329E-05-3.03979E-05 4.74194E-06-3.75532E-19 5.06411E-19
 -1       368 1.01715E-04-2.96523E-05-3.08768E-05 5.94110E-06 1.14148E-19 7.65334E-19
 -1       369 1.03458E-04-3.01335E-05-3.14184E-05 7.24329E-06 1.32273E-19 4.78902E-19
 -1       370 1.05558E-04-3.08952E-05-3.19956E-05 8.48429E-06 1.12919E-19 3.26297E-19
 -1       371 1.08095E-04-3.21389E-05-3.25576E-05 9.32516E-06 3.77639E-19-2.61476E-19
 -1       372 1.11191E-04-3.41603E-05-3.30307E-05 9.15628E-06 1.10659E-18 1.02958E-18
 -1       373 1.14976E-04-3.72612E-05-3.33403E-05 7.02176E-06 1.08241E-18 7.12975E-19
 -1       374 1.19383E-04-4.13863E-05-3.34751E-05 1.72748E-06 5.48176E-19 2.11619E-19
 -1       375 1.23662E-04-4.53936E-05-3.35955E-05-7.56481E-06 1.14904E-18 1.72112E-18
 -1       376 1.25572E-04-4.61058E-05-3.41326E-05-1.97466E-05 9.00588E-19 1.29076E-18
 -1       377 1.22110E-04-3.96612E-05-3.54821E-05-2.94826E-05 6.04504E-19 1.06404E-18
 -1       378 1.13260E-04-2.68468E-05-3.72854E-05-2.81438E-05 1.56648E-18 5.99958E-19
 -1       379 1.05845E-04-1.77838E-05-3.80497E-05-1.29534E-05 4.69574E-20 2.43805E-18
 -1       380 1.06081E-04-2.12096E-05-3.66365E-05 5.13946E-06-8.29669E-19 9.36173E-19
 -1       381 1.10231E-04-3.15503E-05-3.38708E-05 1.25100E-05-3.21764E-18-3.63260E-19
 -1       382 1.10209E-04-3.70321E-05-3.14320E-05 8.77689E-06-2.55814E-19 9.05548E-19
 -1       383 1.05072E-04-3.50772E-05-3.00166E-05 3.19132E-06 1.57473E-18 1.31668E-18
 -1       384 9.43839E-05-2.73450E-05-2.86928E-05 2.46386E-06 1.13320E-18 1.65437E-18
 -1       385 9.31796E-05-2.74653E-05-2.81414E-05 7.38445E-07 1.22384E-18 1.29117E-18
 -1       386 9.26275E-05-2.75434E-05-2.78833E-05-1.83257E-07 7.78281E-19 8.28859E-19
 -1       387 9.24878E-05-2.76368E-05-2.77891E-05-6.59421E-07 4.59877E-19 6.12227E-19
 -1       388 9.25921E-05-2.77468E-05-2.77893E-05-8.77243E-07 3.44404E-19 3.37000E-19
 -1       389 9.28288E-05-2.78637E-05-2.78418E-05-9.41674E-07 4.96979E-19 4.87814E-19
 -1       390 9.31258E-05-2.79784E-05-2.79206E-05-9.15775E-07 4.67716E-19 3.53579E-19
 -1       391 9.34379E-05-2.80845E-05-2.80093E-05-8.39370E-07-2.69197E-20 4.86581E-19
 -1       392 9.37379E-05-2.81786E-05-2.80976E-05-7.38183E-07 6.75006E-19 1.92883E-19
 -1       393 9.40105E-05-2.82591E-05-2.81800E-05-6.28866E-07 8.43348E-19-1.42958E-19
 -1       394 9.42489E-05-2.83262E-05-2.82534E-05-5.22031E-07 1.12085E-18-7.63518E-19
 -1       395 9.44517E-05-2.83806E-05-2.83169E-05-4.24246E-07-1.72833E-20-1.11913E-18
 -1       396 9.46207E-05-2.84240E-05-2.83706E-05-3.39430E-07-4.14143E-19-4.40974E-19
 -1       397 9.47603E-05-2.84579E-05-2.84158E-05-2.69879E-07-8.06599E-20-1.46926E-19
 -1       398 9.48764E-05-2.84845E-05-2.84541E-05-2.17016E-07 3.52805E-19-9.95164E-20
 -1       399 9.49759E-05-2.85056E-05-2.84875E-05-1.81970E-07 6.31558E-19-1.03780E-19
 -1       400 9.50665E-05-2.85236E-05-2.85185E-05-1.66002E-07-5.37655E-19-6.25010E-19
 -1       401 9.51571E-05-2.85406E-05-2.85498E-05-1.70809E-07-1.39644E-19-4.26663E-19
 -1       402 9.52573E-05-2.85594E-05-2.85845E-05-1.98724E-07-1.82472E-19-6.23439E-19
 -1       403 9.53782E-05-2.85826E-05-2.86261E-05-2.52796E-07 2.81754E-19-8.94913E-19
 -1       404 9.55323E-05-2.86139E-05-2.86785E-05-3.36720E-07 4.38109E-19-1.15931E-18
 -1       405 9.57335E-05-2.86573E-05-2.87459E-05-4.54569E-07-1.63006E-19-1.66021E-18
 -1       406 9.59974E-05-2.87176E-05-2.88329E-05-6.10222E-07-1.80615E-19-9.82595E-19
 -1       407 9.63408E-05-2.88006E-05-2.89442E-05-8.06370E-07-8.09275E-19-2.68931E-19
 -1       408 9.67805E-05-2.89132E-05-2.90842E-05-1.04291E-06 1.21084E-19 1.38801E-18
 -1       409 9.73322E-05-2.90631E-05-2.92562E-05-1.31452E-06-2.28693E-19 2.01656E-19
 -1       410 9.80078E-05-2.92592E-05-2.94618E-05-1.60712E-06 4.74110E-19-2.76472E-19
 -1       411 9.88108E-05-2.95105E-05-2.96988E-05-1.89314E-06 2.71057E-19 4.09665E-19
 -1       412 9.97316E-05-2.98253E-05-2.99595E-05-2.12558E-06-3.44176E-20-3.65910E-20
 -1       413 1.00739E-04-3.02089E-05-3.02284E-05-2.23164E-06-5.63524E-19-2.74185E-19
 -1       414 1.01771E-04-3.06594E-05-3.04801E-05-2.10796E-06-1.09776E-18-5.80811E-19
 -1       415 1.02723E-04-3.11593E-05-3.06772E-05-1.62197E-06 9.59374E-19-5.45102E-19
 -1       416 1.03439E-04-3.16628E-05-3.07718E-05-6.27207E-07 1.61619E-18-8.28669E-19
 -1       417 1.03703E-04-3.20773E-05-3.07102E-05 9.96385E-07 1.42755E-18 1.04488E-18
 -1       418 1.03247E-04-3.22454E-05-3.04445E-05 3.26645E-06-1.76049E-18 1.97597E-19
 -1       419 1.01795E-04-3.19452E-05-2.99493E-05 5.98932E-06-5.48240E-19 7.34901E-19
 -1       420 9.91551E-05-3.09451E-05-2.92412E-05 8.65854E-06-1.38262E-18 1.55492E-18
 -1       421 9.53829E-05-2.91344E-05-2.83923E-05 1.04559E-05-7.55910E-19 6.41756E-19
 -1       422 9.09429E-05-2.67017E-05-2.75231E-05 1.04644E-05 4.59884E-19 1.76384E-18
 -1       423 8.67533E-05-2.42435E-05-2.67734E-05 8.12169E-06 1.12629E-20 2.88710E-18
 -1       424 8.39074E-05-2.25694E-05-2.62650E-05 3.70479E-06 2.81476E-19 8.58074E-19
 -1       425 8.31458E-05-2.22541E-05-2.60705E-05-1.62194E-06 8.61360E-19 7.12085E-19
 -1       426 8.44664E-05-2.33042E-05-2.61892E-05-6.32113E-06 2.29961E-19 7.05704E-19
 -1       427 8.72083E-05-2.52813E-05-2.65291E-05-9.16429E-06 2.06304E-18 1.70061E-18
 -1       428 9.06269E-05-2.78265E-05-2.69109E-05-9.45129E-06 1.28879E-18-7.63984E-21
 -1       429 9.31300E-05-2.99578E-05-2.70694E-05-8.45169E-06 7.60669E-19-8.34581E-19
 -1       430 1.02674E-04-3.64418E-05-2.83379E-05-6.50307E-06-7.15632E-19-1.54434E-18
 -1       431 9.80106E-05-3.34873E-05-2.76435E-05-1.06613E-05-5.09224E-19 8.44900E-19
 -1       432 9.53438E-05-3.19004E-05-2.71880E-05-1.07225E-05 1.50743E-18 3.30281E-18
 -1       433 1.08872E-04-3.98557E-05-2.95106E-05 3.58663E-06-3.34806E-19 3.17980E-18
 -1       434 1.14744E-04-4.26995E-05-3.08000E-05 2.06522E-05-2.77763E-18 2.14832E-18
 -1       435 1.13585E-04-4.09019E-05-3.10092E-05 4.25223E-05 1.39180E-18 4.04874E-18
 -1       436 9.84564E-05-2.95384E-05-2.91752E-05 5.61579E-05 1.59815E-18-4.34798E-18
 -1       437 7.02672E-05-9.75110E-06-2.54387E-05 4.79087E-05-3.07616E-18-2.39467E-18
 -1       438 5.09907E-05 3.92948E-06-2.29220E-05 1.33877E-05-3.38664E-18-4.74338E-19
 -1       439 6.45640E-05 3.67089E-06-2.87296E-05-2.83190E-05 6.66906E-19-1.69984E-18
 -1       440 8.89945E-05-1.98538E-05-2.92706E-05-4.96762E-05-3.99178E-19-2.31304E-18
 -1       441 1.10168E-04-3.53854E-05-3.18506E-05-3.95307E-05-2.04935E-18 2.21216E-18
 -1       442 1.12966E-04-3.87276E-05-3.17439E-05-1.81426E-05 3.76811E-19-2.42764E-18
 -1       443 7.39318E-05-4.42686E-05-1.27494E-05 6.61578E-05-8.88220E-19-6.88574E-18
 -1       444 1.94343E-05-2.05239E-05 8.78594E-08 4.10552E-06 2.38797E-19 3.06478E-18
 -1       445 3.24335E-05-3.09450E-05-1.31425E-06 4.16026E-05 4.29446E-19 1.73430E-19
 -1       446 1.21283E-04-5.95810E-05-2.63483E-05 6.11546E-05-2.65937E-18-7.21926E-18
 -1       447 1.38004E-04-6.31794E-05-3.21484E-05-2.91762E-05-1.01602E-18-4.32876E-18
 -1       448 2.27809E-05-3.75458E-05 5.95873E-06-2.81316E-05-2.12065E-18-1.19919E-18
 -1       449 1.54237E-04-5.48447E-05-4.23319E-05 4.21669E-05-2.78695E-18-2.69367E-18
 -1       450 8.93366E-05-1.18550E-05-3.32804E-05-1.06831E-05-1.26951E-18-2.05038E-18
 -1       451 1.71616E-04-2.05055E-05-6.47214E-05 9.34482E-06-6.35592E-19-3.06277E-18
 -1       452 1.71391E-04-1.04069E-05-6.89983E-05 8.76212E-06 2.39086E-18-3.71998E-18
 -1       453 1.66995E-04-1.19329E-05-6.67659E-05 1.12093E-05 2.17942E-18-2.94397E-19
 -1       454 1.71037E-04-3.39680E-05-5.88167E-05 2.83980E-06 1.77168E-18-2.61596E-18
 -1       455 1.61575E-04-5.09281E-05-4.74062E-05-8.00345E-06 1.35512E-18-2.57297E-18
 -1       456 5.41443E-05-4.74229E-05-3.08861E-06-4.47186E-05-5.68359E-19-3.94919E-18
 -1       457 1.21717E-05-2.91621E-05 7.25639E-06-4.93911E-06-2.11814E-18-3.66892E-18
 -1       458 2.77674E-05-3.70617E-05 3.99898E-06 2.55639E-05-4.84926E-20-8.64079E-19
 -1       459 5.78737E-05-5.08258E-05-3.16629E-06 3.84145E-05-9.31736E-20 3.25684E-19
 -1       460 1.09100E-04-6.75434E-05-1.78429E-05 3.51807E-05-7.36919E-19 1.49988E-18
 -1       461 1.44290E-04-6.63921E-05-3.34494E-05 1.94257E-05-5.75347E-19 1.23688E-18
 -1       462 1.67963E-04-5.59643E-05-4.79298E-05 4.42024E-07-6.30907E-20 7.00708E-19
 -1       463 1.78724E-04-3.44990E-05-6.15020E-05-1.47003E-05-8.96796E-19 6.09864E-19
 -1       464 1.71704E-04-1.54736E-05-6.68818E-05-1.73637E-05 6.28498E-19-4.03347E-19
 -1       465 1.80216E-04-1.61323E-05-6.98621E-05-1.10920E-05-5.49724E-19-1.37738E-18
 -1       466 1.80115E-04-2.81567E-05-6.47535E-05-9.25894E-06-6.59521E-19-1.39644E-18
 -1       467 1.72137E-04-5.10908E-05-5.18902E-05-1.50045E-05-7.66327E-19-7.13837E-19
 -1       468 1.59991E-04-6.40800E-05-4.08651E-05-3.64348E-05 2.30287E-18-2.43151E-18
 -1       469 1.20438E-04-6.41970E-05-2.41841E-05-5.82477E-05 4.04564E-18-1.24392E-18
 -1       470 7.12402E-05-4.62513E-05-1.08940E-05-6.06130E-05-1.65902E-18-1.91874E-18
 -1       471 3.13765E-05-2.96844E-05-1.27804E-06-3.44999E-05-6.91708E-19 1.52519E-18
 -1       472 1.69595E-04-4.07659E-05-5.50297E-05 2.35895E-05-1.99127E-18-1.59782E-18
 -1       473 1.10563E-04-3.79414E-05-3.11082E-05-5.48953E-06 1.64388E-18-1.83552E-19
 -1       474 1.52289E-04-1.87935E-05-5.77229E-05 1.84265E-05 4.06724E-18 1.10723E-18
 -1       475 9.58273E-05-2.51500E-05-3.02760E-05 6.01137E-06 1.41174E-18 1.74773E-19
 -1       476 8.95315E-05-1.33965E-05-3.26483E-05-3.92196E-06-3.63609E-19-2.29114E-18
 -1       477 9.02374E-05-1.43572E-05-3.25407E-05-5.88092E-06-6.72015E-19-2.26785E-18
 -1       478 8.90329E-05-1.27160E-05-3.27251E-05 5.45848E-08 2.10086E-19-2.00221E-18
 -1       479 8.91690E-05-1.28999E-05-3.27048E-05 2.04416E-06 5.46226E-19-1.97624E-18
 -1       480 8.95648E-05-1.34377E-05-3.26451E-05 3.99555E-06 8.92348E-19-1.93298E-18
 -1       481 9.02905E-05-1.44251E-05-3.25349E-05 5.94739E-06 1.33261E-18-1.55114E-18
 -1       482 9.14431E-05-1.60063E-05-3.23531E-05 7.77483E-06 1.60477E-18-1.23013E-18
 -1       483 9.32339E-05-1.84780E-05-3.20584E-05 9.28977E-06 1.78703E-18-9.11689E-19
 -1       484 9.54799E-05-2.44209E-05-3.04435E-05-5.83489E-06-1.21030E-18-8.78066E-19
 -1       485 9.51214E-05-2.65800E-05-2.93570E-05 2.86695E-06 1.42686E-18-6.13106E-21
 -1       486 9.45855E-05-2.06879E-05-3.16905E-05-9.56768E-06-1.46577E-18-1.06234E-18
 -1       487 4.04451E-05-6.36502E-06-1.39444E-05-1.94035E-05-9.96640E-19 6.95943E-19
 -1       488 9.52788E-05-2.62302E-05-2.95854E-05-2.89113E-06-1.01897E-18-8.57126E-19
 -1       489 9.49241E-05-2.71628E-05-2.90368E-05-1.02414E-06-6.81680E-19-8.21492E-19
 -1       490 9.46481E-05-2.76940E-05-2.86931E-05 9.99011E-08-7.60566E-19-5.58423E-19
 -1       491 9.44925E-05-2.80211E-05-2.84872E-05 7.35344E-07-8.54238E-19-6.29444E-19
 -1       492 9.44377E-05-2.82334E-05-2.83732E-05 1.05285E-06-5.00857E-19-6.91459E-19
 -1       493 9.44535E-05-2.83752E-05-2.83195E-05 1.16743E-06-3.78712E-19-1.23348E-18
 -1       494 9.45125E-05-2.84702E-05-2.83041E-05 1.15662E-06-7.27305E-19-1.39753E-18
 -1       495 9.45940E-05-2.85328E-05-2.83123E-05 1.07294E-06-7.32895E-21-8.02320E-19
 -1       496 9.46837E-05-2.85723E-05-2.83338E-05 9.51832E-07-6.63886E-21-5.59938E-19
 -1       497 9.47726E-05-2.85950E-05-2.83622E-05 8.16947E-07 1.97784E-19-4.99746E-19
 -1       498 9.48554E-05-2.86057E-05-2.83930E-05 6.83776E-07 3.39281E-20-4.94054E-19
 -1       499 9.49300E-05-2.86078E-05-2.84241E-05 5.62271E-07-8.05885E-19-3.89335E-19
 -1       500 9.49958E-05-2.86035E-05-2.84541E-05 4.58778E-07-6.53793E-19 1.60775E-20
 -1       501 9.50541E-05-2.85945E-05-2.84829E-05 3.77480E-07-9.58213E-19-1.27763E-19
 -1       502 9.51069E-05-2.85817E-05-2.85109E-05 3.21506E-07-6.76705E-19-6.69337E-19
 -1       503 9.51571E-05-2.85655E-05-2.85393E-05 2.93790E-07-8.80423E-19-7.19653E-19
 -1       504 9.52082E-05-2.85461E-05-2.85695E-05 2.97754E-07-4.81020E-19-6.11297E-19
 -1       505 9.52644E-05-2.85230E-05-2.86034E-05 3.37869E-07-4.12200E-19-1.10609E-18
 -1       506 9.53306E-05-2.84957E-05-2.86433E-05 4.20133E-07 5.04847E-19-5.07594E-19
 -1       507 9.54120E-05-2.84631E-05-2.86921E-05 5.52485E-07 5.32685E-19-5.63220E-19
 -1       508 9.55148E-05-2.84241E-05-2.87527E-05 7.45187E-07 4.42153E-19-9.86012E-19
 -1       509 9.56456E-05-2.83771E-05-2.88288E-05 1.01115E-06 1.60603E-19-1.51787E-18
 -1       510 9.58113E-05-2.83199E-05-2.89240E-05 1.36615E-06-5.16422E-19-1.80957E-18
 -1       511 9.60188E-05-2.82505E-05-2.90425E-05 1.82893E-06 8.42900E-19-1.36088E-18
 -1       512 9.62745E-05-2.81664E-05-2.91877E-05 2.42085E-06 2.07042E-19-2.13177E-18
 -1       513 9.65837E-05-2.80666E-05-2.93626E-05 3.16488E-06 1.29495E-19-1.63088E-18
 -1       514 9.69507E-05-2.79537E-05-2.95678E-05 4.08326E-06-4.81114E-19-7.63300E-19
 -1       515 9.73800E-05-2.78394E-05-2.98003E-05 5.19269E-06 4.02810E-20-6.77439E-19
 -1       516 9.78817E-05-2.77560E-05-3.00506E-05 6.49557E-06-2.68978E-19 5.42916E-20
 -1       517 9.84846E-05-2.77777E-05-3.02997E-05 7.96455E-06-4.25353E-19 3.98720E-19
 -1       518 9.92656E-05-2.80563E-05-3.05156E-05 9.51684E-06 2.25159E-21 2.23112E-19
 -1       519 1.00402E-04-2.88763E-05-3.06535E-05 1.09731E-05-1.16415E-19 2.10696E-19
 -1       520 1.02259E-04-3.07164E-05-3.06648E-05 1.19929E-05 1.41631E-18 2.08997E-18
 -1       521 1.05481E-04-3.42654E-05-3.05304E-05 1.19718E-05 2.74676E-19 1.49927E-18
 -1       522 1.10977E-04-4.02061E-05-3.03442E-05 9.85408E-06-2.05880E-19 1.40520E-18
 -1       523 1.19433E-04-4.83563E-05-3.04706E-05 4.12256E-06 1.00978E-18 8.67901E-19
 -1       524 1.30062E-04-5.61052E-05-3.17216E-05-6.97040E-06 2.80196E-19-3.13634E-20
 -1       525 1.38117E-04-5.54928E-05-3.56017E-05-2.24002E-05 2.24437E-19-1.20761E-18
 -1       526 1.37579E-04-4.02238E-05-4.21819E-05-3.35719E-05 1.10575E-18-1.59658E-18
 -1       527 1.30178E-04-1.72808E-05-4.90110E-05-2.61021E-05 1.34138E-18-2.82480E-18
 -1       528 1.27615E-04-1.24999E-05-5.00037E-05-3.65365E-06-2.07047E-19-2.25378E-18
 -1       529 1.31888E-04-2.97900E-05-4.43028E-05 1.07882E-05-2.16835E-18-1.95686E-18
 -1       530 1.33229E-04-4.68616E-05-3.72963E-05 6.57843E-06-8.65317E-19-1.44882E-19
 -1       531 9.41523E-05-2.76875E-05-2.84813E-05-1.28346E-07 9.26681E-19 2.19812E-19
 -1       532 9.39779E-05-2.79357E-05-2.83025E-05-7.38418E-07 5.91489E-19 1.45308E-19
 -1       533 9.39489E-05-2.81078E-05-2.82173E-05-1.03639E-06 4.66356E-19-1.08700E-19
 -1       534 9.40131E-05-2.82343E-05-2.81911E-05-1.13910E-06 1.76208E-19 3.42426E-20
 -1       535 9.41298E-05-2.83297E-05-2.82005E-05-1.12283E-06 1.42420E-19 4.76899E-19
 -1       536 9.42702E-05-2.84015E-05-2.82300E-05-1.03815E-06 6.03592E-19 7.65355E-20
 -1       537 9.44153E-05-2.84549E-05-2.82693E-05-9.18753E-07 1.11065E-18 2.54575E-19
 -1       538 9.45538E-05-2.84936E-05-2.83121E-05-7.86908E-07 1.07708E-18 2.20453E-19
 -1       539 9.46795E-05-2.85205E-05-2.83544E-05-6.57098E-07 2.47504E-19 5.19035E-19
 -1       540 9.47900E-05-2.85382E-05-2.83941E-05-5.38531E-07-3.03950E-19 1.86651E-19
 -1       541 9.48854E-05-2.85485E-05-2.84304E-05-4.36968E-07-2.87337E-19-3.12298E-19
 -1       542 9.49675E-05-2.85532E-05-2.84636E-05-3.56075E-07-5.06499E-20-2.72301E-19
 -1       543 9.50396E-05-2.85535E-05-2.84942E-05-2.98437E-07 2.96697E-19 7.86746E-21
 -1       544 9.51057E-05-2.85505E-05-2.85238E-05-2.66313E-07 2.02553E-19-7.71488E-20
 -1       545 9.51706E-05-2.85450E-05-2.85538E-05-2.62187E-07-3.62284E-19-5.98279E-19
 -1       546 9.52399E-05-2.85381E-05-2.85864E-05-2.89148E-07 3.62292E-19-5.48331E-19
 -1       547 9.53201E-05-2.85307E-05-2.86238E-05-3.51091E-07-3.71422E-19-1.21900E-18
 -1       548 9.54186E-05-2.85244E-05-2.86685E-05-4.52737E-07 3.05199E-19-5.42925E-19
 -1       549 9.55438E-05-2.85212E-05-2.87234E-05-5.99396E-07 2.55444E-19 5.21684E-19
 -1       550 9.57052E-05-2.85241E-05-2.87912E-05-7.96404E-07-3.32188E-20-2.60159E-20
 -1       551 9.59137E-05-2.85377E-05-2.88745E-05-1.04808E-06-5.68382E-19-2.32162E-19
 -1       552 9.61812E-05-2.85690E-05-2.89756E-05-1.35606E-06-5.11302E-19-1.32110E-18
 -1       553 9.65208E-05-2.86280E-05-2.90957E-05-1.71667E-06-1.30550E-20-3.41446E-19
 -1       554 9.69462E-05-2.87289E-05-2.92348E-05-2.11727E-06-2.02276E-20 2.11262E-19
 -1       555 9.74716E-05-2.88921E-05-2.93901E-05-2.53112E-06-1.71232E-19-2.45788E-19
 -1       556 9.81105E-05-2.91445E-05-2.95561E-05-2.91090E-06 4.54388E-19-2.37118E-19
 -1       557 9.88742E-05-2.95204E-05-2.97231E-05-3.18102E-06 1.53078E-19 5.54406E-20
 -1       558 9.97690E-05-3.00586E-05-2.98772E-05-3.23035E-06-8.80563E-19 9.98019E-20
 -1       559 1.00789E-04-3.07941E-05-3.00012E-05-2.90814E-06-5.54397E-19 5.45065E-20
 -1       560 1.01905E-04-3.17380E-05-3.00770E-05-2.02972E-06 1.39122E-18 9.68531E-19
 -1       561 1.03035E-04-3.28405E-05-3.00913E-05-4.02909E-07-3.32000E-19 1.75807E-18
 -1       562 1.04013E-04-3.39366E-05-3.00427E-05 2.10955E-06 1.87443E-19 2.81748E-18
 -1       563 1.04545E-04-3.46872E-05-2.99498E-05 5.47454E-06-7.37870E-19 1.79963E-18
 -1       564 1.04211E-04-3.45766E-05-2.98516E-05 9.31778E-06-1.51669E-18 2.30187E-18
 -1       565 1.02592E-04-3.30723E-05-2.97943E-05 1.27806E-05-1.32013E-18 2.45400E-18
 -1       566 9.95460E-05-2.99708E-05-2.98119E-05 1.45818E-05-3.04217E-19 3.09935E-18
 -1       567 9.55524E-05-2.58206E-05-2.98776E-05 1.34134E-05 3.00928E-20 1.24841E-18
 -1       568 9.18511E-05-2.20950E-05-2.98869E-05 8.84818E-06 7.47662E-19 2.04294E-18
 -1       569 8.97435E-05-2.03426E-05-2.97304E-05 1.97797E-06 1.39933E-18 1.62072E-18
 -1       570 8.97247E-05-2.11822E-05-2.93581E-05-4.95521E-06 1.19680E-18-4.59635E-19
 -1       571 9.11220E-05-2.39373E-05-2.87887E-05-9.91026E-06 4.39598E-19-7.66821E-19
 -1       572 9.30407E-05-2.75020E-05-2.80870E-05-1.19494E-05 1.28014E-18 1.66731E-18
 -1       573 1.22564E-04-4.26085E-05-3.42958E-05 6.48535E-06-3.16348E-18 9.70816E-19
 -1       574 1.34153E-04-5.36189E-05-3.46021E-05 2.68676E-05-2.09105E-18 9.27333E-18
 -1       575 1.00998E-04-3.02201E-05-3.03288E-05-1.06573E-05-9.76421E-19-2.92015E-18
 -1       576 1.10081E-04-3.45465E-05-3.23753E-05-5.11114E-06-1.09733E-18 1.71626E-18
 -1       577 1.35478E-04-5.71744E-05-3.34907E-05-2.58129E-05 3.09197E-19 2.72119E-18
 -1       578 1.28166E-04-5.61894E-05-3.04012E-05 5.28449E-05 8.18181E-20 1.03405E-18
 -1       579 8.71728E-05-3.72669E-05-2.12450E-05 6.44373E-05-2.52411E-18-1.09247E-17
 -1       580 6.72318E-05-2.05470E-05-1.94666E-05-5.10432E-05 1.33291E-18-7.45071E-19
 -1       581 1.09419E-04-5.26543E-05-2.41988E-05 6.51262E-05-3.22677E-18-9.39028E-18
 -1       582 1.14210E-04-4.92181E-05-2.75471E-05-5.46512E-05-1.80804E-18-3.74363E-18
 -1       583 9.45292E-05-2.72950E-05-2.88060E-05 9.76437E-07 1.11952E-18 1.41219E-19
 -1       584 8.64795E-05-5.34842E-05-1.37742E-05-4.65601E-05-5.73865E-19-4.14930E-18
 -1       585 1.50549E-04-6.34981E-05-3.74992E-05-5.45409E-06-1.85464E-18-1.20692E-18
 -1       586 1.53489E-04-3.77058E-05-5.01750E-05 6.16135E-06-1.84611E-18-1.91805E-18
 -1       587 2.79271E-05-2.07856E-05-2.32086E-06 1.23530E-05-1.45690E-19-7.03037E-20
 -1       588 1.53966E-04-3.15747E-05-5.29819E-05 1.51980E-06 2.01255E-18 2.88849E-18
 -1       589 6.07451E-05-2.24766E-05-1.58243E-05 5.55485E-05-3.90662E-18-4.87086E-18
 -1       590 3.75635E-05-7.76994E-06-1.20901E-05 2.21008E-05-3.39726E-18 1.78184E-18
 -1       591 1.42574E-04-9.15390E-06-5.79051E-05-1.11751E-05 9.10031E-19-1.64791E-18
 -1       592 8.91484E-05-1.28745E-05-3.27069E-05-1.93576E-06-5.49460E-20-2.10519E-18
 -1       593 1.44105E-04-9.83993E-06-5.82257E-05-4.69973E-08 1.86220E-18-1.61736E-18
 -1       594 1.37389E-04-7.26995E-05-2.77192E-05 1.47776E-05-5.00438E-19 3.21137E-18
 -1       595 1.54855E-04-4.27297E-05-4.84732E-05 1.35608E-05 6.05629E-19-6.50627E-20
 -1       596 1.47568E-04-1.76318E-05-5.63666E-05 2.13457E-06-1.32105E-18-2.41913E-18
 -1       597 1.38706E-04-3.18622E-06-5.88853E-05 9.11874E-06 9.60535E-19 2.32990E-19
 -1       598 1.57244E-04-5.31227E-05-4.47975E-05 1.92590E-05-6.99406E-19 3.53493E-18
 -1       599 5.32125E-05-3.81217E-05-5.92967E-06 3.46751E-05 1.06075E-18 6.43957E-19
 -1       600 9.32948E-05-5.84919E-05-1.45010E-05 3.72240E-05 1.06530E-18 1.41158E-18
 -1       601 1.55883E-04-6.76654E-05-3.81124E-05-4.44764E-06 5.83897E-19 1.61148E-18
 -1       602 1.58753E-04-4.65002E-05-4.85340E-05-2.55992E-05 7.99493E-19 1.93685E-18
 -1       603 1.51790E-04-2.37118E-05-5.54630E-05-2.77531E-05 1.86347E-19-5.50624E-19
 -1       604 1.44969E-04-6.36992E-05-3.47364E-05 4.45447E-05-3.30009E-18 1.41560E-19
 -1       605 4.63925E-05-3.54928E-05-4.18895E-06-4.07094E-05-7.63336E-19-3.34398E-18
 -1       606 1.57397E-04-6.24879E-05-4.09798E-05-1.23969E-05 8.22307E-19 1.05069E-18
 -1       607 1.45641E-04-6.89764E-05-3.27777E-05-3.96126E-05 2.90972E-18 5.97211E-19
 -1       608 2.56021E-05-2.31236E-05-4.64723E-07-2.16973E-05-1.60005E-18-1.83054E-18
 -1       609 9.61672E-05-2.31921E-05-3.12786E-05 9.57724E-06 1.66466E-18 6.72706E-19
 -1       610 1.28312E-04-6.81971E-05-2.56386E-05-3.10149E-05-3.21274E-18-2.23564E-18
 -1       611 9.13403E-05-1.58497E-05-3.23764E-05-7.76186E-06-1.07669E-18-1.96138E-18
 -1       612 1.31765E-04-7.40559E-06-5.38996E-05 1.68831E-05 2.37921E-18 7.47110E-19
 -1       613 1.22775E-04-4.53110E-05-3.32869E-05-1.47209E-06 3.06851E-19 3.17270E-19
 -1       614 1.20847E-04-6.67265E-05-2.30251E-05 2.31217E-05 1.53829E-18 2.54519E-18
 -1       615 1.12143E-04-5.40768E-05-2.43871E-05-5.96010E-05 3.31402E-20-6.10973E-18
 -1       616 9.15443E-05-1.68444E-05-3.20199E-05 2.43792E-06 6.02826E-19-1.65853E-18
 -1       617 9.12843E-05-1.64413E-05-3.20809E-05 8.40400E-07 4.02107E-19-1.75740E-18
 -1       618 9.28896E-05-1.89973E-05-3.16737E-05 5.25567E-06 1.36427E-18-1.22991E-18
 -1       619 9.39838E-05-2.09275E-05-3.13178E-05 6.13799E-06 1.46375E-18-9.26203E-19
 -1       620 9.52751E-05-2.40944E-05-3.04957E-05 5.14073E-06 1.35385E-18-7.59943E-19
 -1       621 9.50095E-05-2.36261E-05-3.05898E-05-4.71774E-06-9.85873E-19-1.32209E-18
 -1       622 9.54187E-05-2.57101E-05-2.98742E-05-2.43049E-06-8.11999E-19-1.08667E-18
 -1       623 9.54748E-05-2.69437E-05-2.93699E-05-8.58922E-07-6.13424E-19-1.09963E-18
 -1       624 9.54203E-05-2.77056E-05-2.90204E-05 1.42961E-07-5.65294E-19-7.90144E-19
 -1       625 9.53437E-05-2.81783E-05-2.87852E-05 7.30369E-07-6.95426E-19-5.67692E-19
 -1       626 9.52789E-05-2.84703E-05-2.86323E-05 1.03117E-06-7.13838E-19-6.52257E-19
 -1       627 9.52333E-05-2.86453E-05-2.85378E-05 1.14154E-06-6.03284E-19-6.11462E-19
 -1       628 9.52052E-05-2.87431E-05-2.84839E-05 1.13148E-06-1.73108E-19-7.95320E-20
 -1       629 9.51907E-05-2.87898E-05-2.84576E-05 1.05054E-06-4.12638E-20-5.57841E-19
 -1       630 9.51856E-05-2.88029E-05-2.84499E-05 9.33187E-07-1.76495E-19-8.74270E-19
 -1       631 9.51867E-05-2.87942E-05-2.84540E-05 8.02866E-07-1.71966E-19-1.18435E-18
 -1       632 9.51915E-05-2.87718E-05-2.84657E-05 6.75224E-07-8.60283E-20-1.21491E-18
 -1       633 9.51987E-05-2.87408E-05-2.84820E-05 5.60559E-07-4.34966E-19-5.07247E-19
 -1       634 9.52073E-05-2.87043E-05-2.85013E-05 4.65710E-07-7.09053E-19-3.23785E-19
 -1       635 9.52170E-05-2.86638E-05-2.85228E-05 3.95489E-07-1.24485E-18 4.33074E-20
 -1       636 9.52275E-05-2.86191E-05-2.85465E-05 3.53807E-07-5.01756E-19-4.55430E-21
 -1       637 9.52391E-05-2.85695E-05-2.85727E-05 3.44543E-07-5.77965E-19-4.45223E-19
 -1       638 9.52519E-05-2.85131E-05-2.86023E-05 3.72222E-07-6.13680E-19-4.64116E-19
 -1       639 9.52662E-05-2.84472E-05-2.86367E-05 4.42553E-07-7.97181E-20-3.32083E-19
 -1       640 9.52821E-05-2.83683E-05-2.86773E-05 5.62864E-07 5.04312E-19-1.62759E-18
 -1       641 9.52989E-05-2.82721E-05-2.87257E-05 7.42427E-07 8.74705E-19-6.13651E-19
 -1       642 9.53156E-05-2.81534E-05-2.87836E-05 9.92695E-07-1.06178E-19-8.47907E-19
 -1       643 9.53296E-05-2.80061E-05-2.88527E-05 1.32739E-06-3.64885E-19-1.39075E-18
 -1       644 9.53361E-05-2.78228E-05-2.89340E-05 1.76241E-06 4.38179E-19-2.47100E-19
 -1       645 9.53277E-05-2.75959E-05-2.90275E-05 2.31545E-06 1.80029E-20-7.00541E-19
 -1       646 9.52931E-05-2.73174E-05-2.91319E-05 3.00519E-06 1.47420E-19-3.30222E-19
 -1       647 9.52168E-05-2.69824E-05-2.92427E-05 3.84989E-06 3.97174E-19-6.14084E-19
 -1       648 9.50802E-05-2.65930E-05-2.93508E-05 4.86511E-06 4.91052E-19 6.35797E-19
 -1       649 9.48660E-05-2.61692E-05-2.94405E-05 6.06066E-06-1.65849E-19-3.74643E-19
 -1       650 9.45708E-05-2.57671E-05-2.94861E-05 7.43670E-06 2.49397E-19-1.61458E-20
 -1       651 9.42308E-05-2.55126E-05-2.94494E-05 8.97977E-06-3.21273E-19 1.12069E-18
 -1       652 9.39745E-05-2.56550E-05-2.92786E-05 1.06591E-05-7.63208E-20 6.33383E-19
 -1       653 9.41138E-05-2.66455E-05-2.89144E-05 1.24194E-05 7.00089E-19 3.84057E-19
 -1       654 9.52871E-05-2.92263E-05-2.83110E-05 1.41484E-05 1.10026E-19-1.60994E-19
 -1       655 9.86346E-05-3.44773E-05-2.74920E-05 1.55940E-05 2.91774E-19-1.26061E-18
 -1       656 1.06133E-04-4.36530E-05-2.67490E-05 1.55874E-05 5.27508E-19-8.06044E-19
 -1       657 1.19223E-04-5.64327E-05-2.68102E-05 1.24713E-05 1.15541E-18 1.37200E-18
 -1       658 9.49865E-05-2.81156E-05-2.86588E-05-7.45177E-07 6.54596E-19 3.75752E-21
 -1       659 4.59121E-05-2.53241E-05-8.24075E-06-3.12785E-05 6.73126E-20-3.42620E-18
 -1       660 9.50921E-05-2.77024E-05-2.88804E-05-1.35336E-07 5.22631E-19-1.22104E-19
 -1       661 9.49037E-05-2.85295E-05-2.84462E-05-1.16601E-06 4.12097E-20 1.75652E-19
 -1       662 9.49115E-05-2.86250E-05-2.84087E-05-1.15473E-06 6.12985E-19-1.59884E-19
 -1       663 9.49370E-05-2.86778E-05-2.83970E-05-1.07133E-06 5.88439E-19 2.16993E-19
 -1       664 9.49716E-05-2.87019E-05-2.84015E-05-9.50916E-07 8.54734E-19 5.67350E-19
 -1       665 9.50097E-05-2.87066E-05-2.84158E-05-8.17209E-07 5.79998E-19 1.02006E-18
 -1       666 9.50475E-05-2.86985E-05-2.84354E-05-6.85923E-07-1.09774E-19 9.86264E-19
 -1       667 9.50832E-05-2.86819E-05-2.84578E-05-5.67293E-07 1.16466E-19 8.51407E-19
 -1       668 9.51162E-05-2.86596E-05-2.84815E-05-4.67981E-07-3.89108E-20 1.93274E-19
 -1       669 9.51466E-05-2.86331E-05-2.85058E-05-3.92517E-07-1.58245E-19 3.75063E-19
 -1       670 9.51754E-05-2.86031E-05-2.85310E-05-3.44377E-07 2.68382E-19 3.74078E-19
 -1       671 9.52039E-05-2.85694E-05-2.85576E-05-3.26802E-07 1.92448E-19 2.11977E-19
 -1       672 9.52339E-05-2.85316E-05-2.85867E-05-3.43357E-07 2.21543E-19-5.55473E-19
 -1       673 9.52679E-05-2.84892E-05-2.86194E-05-3.98309E-07-6.14035E-20-2.39281E-19
 -1       674 9.53087E-05-2.84416E-05-2.86572E-05-4.96786E-07-3.38830E-19 1.10570E-19
 -1       675 9.53597E-05-2.83887E-05-2.87017E-05-6.44698E-07-1.86495E-19 1.08373E-18
 -1       676 9.54253E-05-2.83318E-05-2.87541E-05-8.48353E-07 3.18157E-20 1.43568E-18
 -1       677 9.55112E-05-2.82738E-05-2.88157E-05-1.11366E-06 4.15194E-19 1.40728E-18
 -1       678 9.56248E-05-2.82208E-05-2.88871E-05-1.44479E-06-2.48486E-19 1.26893E-18
 -1       679 9.57762E-05-2.81836E-05-2.89678E-05-1.84207E-06-1.38893E-19 9.51817E-19
 -1       680 9.59794E-05-2.81799E-05-2.90565E-05-2.29899E-06-5.68921E-20 5.31732E-19
 -1       681 9.62543E-05-2.82371E-05-2.91498E-05-2.79790E-06-2.34836E-19 8.38305E-19
 -1       682 9.66288E-05-2.83954E-05-2.92425E-05-3.30444E-06-5.74916E-21 6.43118E-19
 -1       683 9.71421E-05-2.87108E-05-2.93275E-05-3.76045E-06 5.30670E-19 6.12332E-19
 -1       684 9.78473E-05-2.92556E-05-2.93966E-05-4.07563E-06-2.53008E-19 4.76672E-19
 -1       685 9.88111E-05-3.01138E-05-2.94424E-05-4.11897E-06-2.07596E-19-5.42059E-19
 -1       686 1.00106E-04-3.13635E-05-2.94626E-05-3.71219E-06-4.74115E-19 1.05205E-19
 -1       687 1.01786E-04-3.30369E-05-2.94666E-05-2.63114E-06 4.71130E-19 1.49800E-18
 -1       688 1.03832E-04-3.50450E-05-2.94842E-05-6.29771E-07-5.32623E-19 4.09361E-19
 -1       689 1.06065E-04-3.70713E-05-2.95730E-05 2.49446E-06-5.50879E-19 1.39663E-18
 -1       690 1.08014E-04-3.84400E-05-2.98229E-05 6.74816E-06-1.53790E-18 2.37884E-18
 -1       691 1.08877E-04-3.81327E-05-3.03257E-05 1.16220E-05-1.56308E-18 2.82218E-18
 -1       692 1.07885E-04-3.52738E-05-3.11136E-05 1.58324E-05-2.67828E-19 2.60827E-18
 -1       693 1.04519E-04-2.95205E-05-3.21467E-05 1.75388E-05 8.25402E-19 2.10895E-18
 -1       694 9.98857E-05-2.26872E-05-3.31029E-05 1.47536E-05 6.15500E-19 8.84924E-19
 -1       695 9.61031E-05-1.78127E-05-3.35728E-05 7.63854E-06 1.03566E-18 1.73319E-20
 -1       696 9.49717E-05-1.74077E-05-3.32487E-05-1.20359E-06 2.19719E-18-8.34418E-20
 -1       697 9.60241E-05-2.10332E-05-3.21433E-05-8.11696E-06 9.23930E-19-6.00116E-19
 -1       698 9.89234E-05-2.52674E-05-3.15649E-05-1.07935E-05-4.64329E-19-1.57460E-18
 -1       699 9.53399E-05-2.59429E-05-2.97378E-05 2.59267E-06 1.15472E-18-5.95919E-19
 -1       700 1.38919E-04-4.38795E-05-4.08694E-05 4.84477E-06 2.62285E-18 7.01957E-18
 -1       701 3.61166E-05-1.56157E-05-8.16541E-06-7.83399E-06-3.04336E-19-2.39043E-18
 -1       702 1.48408E-04-6.27809E-05-3.69215E-05-1.77308E-05 4.58294E-19 1.77967E-18
 -1       703 1.40372E-04-6.88610E-05-3.06249E-05 5.00886E-07 2.04135E-19 2.30820E-18
 -1       704 7.47283E-05-4.17519E-05-1.37142E-05-4.18200E-05 2.25284E-19-4.41018E-18
 -1       705 9.52305E-05-2.70371E-05-2.92234E-05 9.16242E-07 8.86360E-19-3.62990E-19
 -1       706 1.24799E-04-5.56499E-06-5.17252E-05 1.87900E-06 2.01059E-18 1.86362E-18
 -1       707 9.49246E-05-2.83706E-05-2.85231E-05-1.05402E-06 2.13016E-19 1.06967E-19
 -1       708 1.37744E-04-6.59279E-05-3.08161E-05-9.95191E-06-2.45040E-18-3.38394E-18
 -1       709 1.11728E-04-5.95294E-05-2.21570E-05-3.34966E-05-8.00711E-19-1.97560E-18
 -1       710 9.20709E-05-1.76729E-05-3.18908E-05 3.94710E-06 9.58323E-19-1.47423E-18
 -1       711 7.98757E-05-4.35456E-05-1.51997E-05 3.33056E-05 1.63205E-18 2.31147E-18
 -1       712 1.42853E-04-5.21660E-05-3.91697E-05 1.36847E-05 1.19220E-19 2.27645E-18
 -1       713 9.20176E-05-1.76000E-05-3.18998E-05-3.88835E-06-4.36819E-19-2.00094E-18
 -1       714 1.39326E-04-2.80636E-05-4.81878E-05 2.28246E-05 1.58967E-18 2.12587E-18
 -1       715 5.21403E-05-2.59968E-05-1.06672E-05 2.42583E-05 1.31643E-18 1.74049E-18
 -1       716 1.33382E-04-1.95838E-05-4.92673E-05-5.38870E-06 6.15306E-18 4.20435E-18
 -1       717 9.28002E-05-1.88741E-05-3.16906E-05-5.22816E-06-8.87041E-19-1.67200E-18
 -1       718 9.12733E-05-1.64283E-05-3.20822E-05-7.77094E-07 5.50193E-20-1.79170E-18
 -1       719 1.41756E-04-5.56758E-05-3.71790E-05 2.37269E-05 1.70585E-18 1.11197E-17
 -1       720 1.18679E-04-5.26874E-06-4.90773E-05 9.52964E-06 2.31057E-18 8.33285E-19
 -1       721 4.76084E-05-1.66537E-05-1.28449E-05 8.02697E-06 8.92028E-19 2.08066E-18
 -1       722 1.45661E-04-3.91871E-05-4.60737E-05 1.10947E-06 3.16544E-18 6.02690E-18
 -1       723 1.08710E-04-2.78109E-05-3.47227E-05-8.64630E-06 1.17201E-18 8.87198E-19
 -1       724 9.41653E-05-2.12969E-05-3.12321E-05-6.15164E-06-1.09485E-18-1.60277E-18
 -1       725 1.21608E-04-3.33462E-05-3.79668E-05-4.37929E-06 7.06346E-19-4.63704E-19
 -1       726 9.15114E-05-1.68027E-05-3.20245E-05-2.36835E-06-2.30800E-19-1.95785E-18
 -1       727 1.03085E-04-5.27105E-05-2.13483E-05 2.60248E-05 2.03383E-18 1.76686E-18
 -1       728 9.46304E-05-2.27172E-05-3.08170E-05 3.91410E-06 1.02695E-18-9.88339E-19
 -1       729 5.05096E-05-1.94772E-05-1.29250E-05-2.04561E-05 5.87622E-19-4.35258E-18
 -1       730 9.55752E-05-2.55239E-05-3.00247E-05-1.79791E-06-6.15380E-19-1.39682E-18
 -1       731 9.58693E-05-2.68884E-05-2.95634E-05-5.72539E-07-4.45177E-19-1.31350E-18
 -1       732 9.59564E-05-2.77725E-05-2.92217E-05 2.26008E-07-5.31872E-19-8.91914E-19
 -1       733 9.59450E-05-2.83354E-05-2.89756E-05 7.03110E-07-7.95881E-19-7.64437E-19
 -1       734 9.58843E-05-2.86783E-05-2.88026E-05 9.46498E-07-4.77134E-19-4.85870E-19
 -1       735 9.58037E-05-2.88732E-05-2.86845E-05 1.03134E-06-1.34795E-19-5.36955E-19
 -1       736 9.57190E-05-2.89692E-05-2.86071E-05 1.01461E-06-4.37921E-20-7.26199E-20
 -1       737 9.56382E-05-2.90001E-05-2.85592E-05 9.38216E-07-3.26729E-19-9.88727E-20
 -1       738 9.55652E-05-2.89892E-05-2.85326E-05 8.31931E-07-3.09120E-19-1.77888E-19
 -1       739 9.55016E-05-2.89524E-05-2.85211E-05 7.16304E-07-3.61675E-19-4.04851E-19
 -1       740 9.54473E-05-2.89001E-05-2.85203E-05 6.05245E-07-2.96120E-19-8.66299E-19
 -1       741 9.54016E-05-2.88386E-05-2.85270E-05 5.08145E-07-4.60050E-19-5.31183E-19
 -1       742 9.53630E-05-2.87711E-05-2.85394E-05 4.31468E-07-8.16308E-19-5.52347E-19
 -1       743 9.53295E-05-2.86984E-05-2.85562E-05 3.80039E-07-5.42259E-19 1.24602E-19
 -1       744 9.52989E-05-2.86194E-05-2.85769E-05 3.58056E-07-8.68771E-19 4.67514E-19
 -1       745 9.52684E-05-2.85316E-05-2.86015E-05 3.69842E-07-7.18449E-19 4.46922E-19
 -1       746 9.52347E-05-2.84308E-05-2.86302E-05 4.20416E-07-3.83454E-19-1.32740E-19
 -1       747 9.51936E-05-2.83120E-05-2.86636E-05 5.15912E-07-8.52599E-20-6.13930E-21
 -1       748 9.51400E-05-2.81685E-05-2.87020E-05 6.63862E-07 1.58781E-18-3.01976E-19
 -1       749 9.50669E-05-2.79929E-05-2.87460E-05 8.73318E-07 5.88853E-19-1.53359E-19
 -1       750 9.49655E-05-2.77759E-05-2.87955E-05 1.15480E-06-9.33369E-19 1.15198E-19
 -1       751 9.48234E-05-2.75075E-05-2.88496E-05 1.52005E-06 4.91385E-19-2.83352E-19
 -1       752 9.46245E-05-2.71761E-05-2.89064E-05 1.98147E-06-1.10343E-19-6.43527E-19
 -1       753 9.43474E-05-2.67702E-05-2.89615E-05 2.55130E-06-3.57905E-20-8.54899E-19
 -1       754 9.39644E-05-2.62793E-05-2.90078E-05 3.24061E-06 2.39933E-21-1.60931E-19
 -1       755 9.34417E-05-2.56975E-05-2.90330E-05 4.05817E-06 9.58775E-19 1.02507E-18
 -1       756 9.27404E-05-2.50307E-05-2.90182E-05 5.01009E-06-4.38115E-19 5.89103E-19
 -1       757 9.18229E-05-2.43086E-05-2.89344E-05 6.10165E-06 6.51145E-19 1.66184E-19
 -1       758 9.06666E-05-2.36065E-05-2.87396E-05 7.34437E-06 4.36268E-19-2.17452E-20
 -1       759 8.92909E-05-2.30806E-05-2.83754E-05 8.77327E-06-4.64097E-19 4.79062E-19
 -1       760 8.78106E-05-2.30247E-05-2.77648E-05 1.04794E-05-4.59336E-19-2.26387E-19
 -1       761 8.65299E-05-2.39560E-05-2.68164E-05 1.26661E-05 5.86230E-19-5.45956E-19
 -1       762 8.61410E-05-2.67409E-05-2.54449E-05 1.56585E-05-4.55901E-21 5.60899E-19
 -1       763 8.78121E-05-3.26067E-05-2.35759E-05 1.98958E-05 5.24896E-19 1.29420E-18
 -1       764 9.55013E-05-2.88715E-05-2.85557E-05-1.07579E-06 4.34933E-19 3.04566E-19
 -1       765 9.55621E-05-2.87752E-05-2.86230E-05-1.09090E-06 4.39291E-19 2.25451E-19
 -1       766 9.54041E-05-2.89082E-05-2.84983E-05-8.83640E-07 3.36107E-19 4.84030E-19
 -1       767 9.53676E-05-2.88834E-05-2.84933E-05-7.60410E-07 6.39533E-20 3.26263E-19
 -1       768 9.53382E-05-2.88439E-05-2.84976E-05-6.41145E-07 1.20128E-19 3.62957E-19
 -1       769 9.53146E-05-2.87956E-05-2.85082E-05-5.35660E-07 2.48887E-19 2.20727E-19
 -1       770 9.52957E-05-2.87415E-05-2.85232E-05-4.50608E-07-8.99228E-20 2.33785E-19
 -1       771 9.52803E-05-2.86831E-05-2.85417E-05-3.90755E-07 3.69444E-19-2.52082E-19
 -1       772 9.52671E-05-2.86199E-05-2.85631E-05-3.60074E-07-7.16089E-20-2.75449E-19
 -1       773 9.52549E-05-2.85508E-05-2.85875E-05-3.62445E-07-2.09245E-19 7.03158E-19
 -1       774 9.52426E-05-2.84737E-05-2.86153E-05-4.02191E-07-4.02403E-19 1.91932E-18
 -1       775 9.52291E-05-2.83864E-05-2.86469E-05-4.84415E-07-3.98319E-19 1.84391E-18
 -1       776 9.52136E-05-2.82869E-05-2.86828E-05-6.15098E-07-6.44905E-19 2.22800E-18
 -1       777 9.51957E-05-2.81742E-05-2.87235E-05-8.00971E-07-2.27839E-19 1.55916E-18
 -1       778 9.51763E-05-2.80490E-05-2.87688E-05-1.04907E-06 1.42126E-19 1.65062E-18
 -1       779 9.51580E-05-2.79155E-05-2.88181E-05-1.36591E-06 5.68568E-19 1.91325E-18
 -1       780 9.51464E-05-2.77830E-05-2.88699E-05-1.75616E-06-3.68402E-19 1.82068E-18
 -1       781 9.51525E-05-2.76688E-05-2.89214E-05-2.22060E-06 5.37687E-19 1.46686E-18
 -1       782 9.51956E-05-2.76020E-05-2.89685E-05-2.75336E-06-1.57084E-19 1.19720E-18
 -1       783 9.53072E-05-2.76274E-05-2.90055E-05-3.33803E-06 7.65546E-19 2.31598E-19
 -1       784 9.55371E-05-2.78108E-05-2.90254E-05-3.94254E-06 3.55990E-19-1.27462E-18
 -1       785 9.59603E-05-2.82434E-05-2.90214E-05-4.51230E-06-1.14709E-18 4.30807E-19
 -1       786 9.66831E-05-2.90424E-05-2.89889E-05-4.96100E-06 3.29111E-19 1.60360E-18
 -1       787 9.78465E-05-3.03434E-05-2.89301E-05-5.15806E-06-2.93383E-19 1.15369E-18
 -1       788 9.96173E-05-3.22740E-05-2.88619E-05-4.91216E-06-2.58733E-19-2.06273E-19
 -1       789 1.02151E-04-3.48898E-05-2.88275E-05-3.95021E-06-9.39251E-19 5.68133E-19
 -1       790 1.05492E-04-3.80433E-05-2.89090E-05-1.92580E-06-1.70977E-18 2.36762E-18
 -1       791 1.09460E-04-4.12429E-05-2.92348E-05 1.54894E-06-1.62923E-18 4.29193E-18
 -1       792 1.13268E-04-4.32508E-05-3.00094E-05 6.77297E-06-1.48423E-18 2.97768E-18
 -1       793 1.15590E-04-4.22616E-05-3.14145E-05 1.33868E-05-1.72562E-18 2.13881E-18
 -1       794 1.14385E-04-3.66556E-05-3.33587E-05 1.88247E-05 6.75685E-19 3.09599E-18
 -1       795 1.09847E-04-2.70066E-05-3.55391E-05 2.00514E-05 1.18240E-18 2.94135E-18
 -1       796 1.03939E-04-1.69970E-05-3.73432E-05 1.48398E-05 1.75467E-18 3.31325E-18
 -1       797 1.01152E-04-1.30100E-05-3.78419E-05 4.50581E-06 1.71560E-18 2.03768E-18
 -1       798 1.02172E-04-1.65331E-05-3.67464E-05-5.03721E-06 2.12792E-18 1.22965E-18
 -1       799 1.05638E-04-2.15649E-05-3.60984E-05-8.34793E-06 1.86608E-18 1.44376E-19
 -1       800 9.48971E-05-2.33984E-05-3.06402E-05-3.50151E-06-7.24117E-19-1.64501E-18
 -1       801 6.78432E-05-3.09192E-05-1.55089E-05-3.27410E-05 7.45389E-20-4.21865E-18
 -1       802 1.23020E-04-5.98462E-05-2.70169E-05-1.69281E-05-1.89476E-18-2.56375E-18
 -1       803 9.54485E-05-2.89089E-05-2.85170E-05-9.96080E-07 5.53459E-19 4.07158E-19
 -1       804 9.40282E-05-2.13196E-05-3.11619E-05-4.45038E-06-9.23299E-19-1.60748E-18
 -1       805 1.20880E-04-1.67207E-05-4.50399E-05 2.11977E-05 1.09836E-18 1.17735E-18
 -1       806 9.57241E-05-2.77426E-05-2.91350E-05-2.02690E-07 5.81723E-19-1.06327E-19
 -1       807 1.34193E-04-5.65494E-05-3.33766E-05 7.08413E-06-3.02118E-19 2.07380E-18
 -1       808 1.16844E-04-1.31221E-05-4.48145E-05-4.58599E-06 4.90003E-18 2.89479E-18
 -1       809 9.52157E-05-2.44851E-05-3.03134E-05 3.40956E-06 1.05180E-18-6.85068E-19
 -1       810 9.31928E-05-1.97704E-05-3.14678E-05 1.23112E-06 3.09480E-19-1.53090E-18
 -1       811 7.31491E-05-3.09048E-05-1.78217E-05 2.44475E-05 1.29658E-18 2.17245E-18
 -1       812 9.67828E-05-4.82278E-05-2.06762E-05-3.31553E-05 4.67867E-19-2.17480E-18
 -1       813 1.28205E-04-3.56141E-05-3.98433E-05 2.26819E-05-1.54332E-19 1.60980E-18
 -1       814 9.30846E-05-1.95733E-05-3.15052E-05 2.00361E-08 2.44437E-19-1.49839E-18
 -1       815 1.11072E-04-9.12928E-06-4.39732E-05 6.50277E-07 4.00797E-18 2.80998E-18
 -1       816 6.36632E-05-2.09279E-05-1.81119E-05 1.50352E-05 1.55359E-18 1.22012E-18
 -1       817 1.26157E-04-3.02810E-05-4.13915E-05-5.59206E-06 3.73526E-18 1.67908E-18
 -1       818 9.55231E-05-2.61749E-05-2.97210E-05 1.59270E-06 8.28046E-19-3.58493E-19
 -1       819 9.56277E-05-2.85895E-05-2.87307E-05-9.96095E-07-8.28075E-20 1.98283E-20
 -1       820 5.09882E-05-1.53038E-05-1.50428E-05-5.79464E-06 1.90834E-18-1.87877E-18
 -1       821 9.40374E-05-2.13637E-05-3.11461E-05 3.31016E-06 8.31494E-19-1.05212E-18
 -1       822 9.56537E-05-2.70882E-05-2.93848E-05 5.19514E-07 4.37453E-19 3.15974E-20
 -1       823 9.56896E-05-2.82696E-05-2.88943E-05-7.28479E-07 3.19461E-19 4.56855E-20
 -1       824 9.35111E-05-2.03575E-05-3.13525E-05 2.35917E-06 6.19419E-19-1.28633E-18
 -1       825 9.33120E-05-1.99662E-05-3.14360E-05-3.54571E-06-6.82782E-19-1.67476E-18
 -1       826 9.28053E-05-1.90633E-05-3.16060E-05-2.37539E-06-2.55085E-19-1.85184E-18
 -1       827 9.61965E-05-2.70061E-05-2.96545E-05-2.88196E-07-1.52634E-19-1.21850E-18
 -1       828 9.63570E-05-2.79233E-05-2.93287E-05 2.97565E-07-3.40767E-19-9.93880E-19
 -1       829 9.63768E-05-2.85170E-05-2.90828E-05 6.40456E-07-6.03594E-19-4.46887E-19
 -1       830 9.63129E-05-2.88738E-05-2.89025E-05 8.10731E-07-4.72046E-19-5.94545E-19
 -1       831 9.62055E-05-2.90675E-05-2.87735E-05 8.61754E-07 7.97364E-20-6.92969E-19
 -1       832 9.60799E-05-2.91508E-05-2.86839E-05 8.36632E-07-1.72694E-19-8.38315E-19
 -1       833 9.59518E-05-2.91617E-05-2.86243E-05 7.67688E-07-4.83888E-19-8.25233E-19
 -1       834 9.58302E-05-2.91267E-05-2.85872E-05 6.78037E-07-2.59584E-19-9.18881E-19
 -1       835 9.57198E-05-2.90638E-05-2.85669E-05 5.83737E-07-2.22879E-19-3.53731E-19
 -1       836 9.56218E-05-2.89843E-05-2.85589E-05 4.95885E-07-3.35829E-19-3.33043E-20
 -1       837 9.55355E-05-2.88948E-05-2.85603E-05 4.22139E-07-7.51470E-19 2.22989E-19
 -1       838 9.54584E-05-2.87980E-05-2.85687E-05 3.67902E-07-4.33487E-19 4.32080E-19
 -1       839 9.53871E-05-2.86937E-05-2.85829E-05 3.37484E-07-5.21086E-19 5.63574E-19
 -1       840 9.53169E-05-2.85793E-05-2.86018E-05 3.34838E-07-3.78496E-19 1.10075E-18
 -1       841 9.52421E-05-2.84504E-05-2.86250E-05 3.64099E-07-7.23913E-19 1.18830E-18
 -1       842 9.51557E-05-2.83007E-05-2.86521E-05 4.29988E-07 2.05916E-19 9.70187E-19
 -1       843 9.50494E-05-2.81227E-05-2.86829E-05 5.38040E-07 4.44733E-19 1.36566E-18
 -1       844 9.49128E-05-2.79073E-05-2.87166E-05 6.94644E-07 9.80631E-19 1.81992E-19
 -1       845 9.47328E-05-2.76439E-05-2.87524E-05 9.06871E-07-2.41290E-19-3.41841E-19
 -1       846 9.44932E-05-2.73207E-05-2.87882E-05 1.18206E-06 2.21792E-19 9.85715E-19
 -1       847 9.41734E-05-2.69251E-05-2.88207E-05 1.52712E-06-2.23798E-19 5.00455E-19
 -1       848 9.37474E-05-2.64438E-05-2.88444E-05 1.94752E-06-2.66824E-19-3.11695E-19
 -1       849 9.31824E-05-2.58642E-05-2.88507E-05 2.44612E-06 1.85660E-19-2.59917E-19
 -1       850 9.24381E-05-2.51767E-05-2.88263E-05 3.02203E-06 1.22893E-18-5.51460E-19
 -1       851 9.14653E-05-2.43782E-05-2.87516E-05 3.67045E-06 3.12375E-19-6.48447E-19
 -1       852 9.02069E-05-2.34787E-05-2.85978E-05 4.38481E-06 4.42265E-19 7.53597E-19
 -1       853 8.85992E-05-2.25119E-05-2.83231E-05 5.16435E-06-1.07674E-18 9.23610E-20
 -1       854 8.65765E-05-2.15499E-05-2.78687E-05 6.03233E-06 2.01884E-19-4.73678E-19
 -1       855 8.40783E-05-2.07266E-05-2.71509E-05 7.07517E-06-1.04004E-18-5.16178E-20
 -1       856 8.10752E-05-2.02822E-05-2.60532E-05 8.49898E-06-2.63329E-19 8.97873E-19
 -1       857 7.75488E-05-2.05636E-05-2.44202E-05 1.07163E-05 9.08793E-20-2.95504E-19
 -1       858 7.43028E-05-2.33375E-05-2.17758E-05 1.57071E-05 1.27119E-18 4.98224E-19
 -1       859 9.48146E-05-2.31261E-05-3.07217E-05-2.87034E-06-6.70375E-19-1.44283E-18
 -1       860 9.56279E-05-2.90158E-05-2.85480E-05-6.46296E-07 4.92471E-20 3.92248E-19
 -1       861 9.57188E-05-2.90677E-05-2.85648E-05-7.50992E-07 2.17666E-19 6.23362E-19
 -1       862 9.54782E-05-2.88701E-05-2.85463E-05-4.62879E-07-1.14537E-19 1.81513E-19
 -1       863 9.54168E-05-2.87860E-05-2.85561E-05-3.98528E-07 4.23584E-19-1.15937E-19
 -1       864 9.53611E-05-2.86957E-05-2.85709E-05-3.58862E-07 4.00941E-19 4.58690E-19
 -1       865 9.53077E-05-2.85980E-05-2.85898E-05-3.47914E-07-2.95216E-19-2.29666E-19
 -1       866 9.52527E-05-2.84902E-05-2.86125E-05-3.69799E-07-7.96325E-19 1.41301E-19
 -1       867 9.51921E-05-2.83687E-05-2.86386E-05-4.29237E-07-3.89774E-19 7.61010E-19
 -1       868 9.51214E-05-2.82298E-05-2.86678E-05-5.31799E-07-3.49111E-19 7.33866E-19
 -1       869 9.50362E-05-2.80701E-05-2.86997E-05-6.84014E-07-2.55461E-19 6.40885E-19
 -1       870 9.49327E-05-2.78879E-05-2.87335E-05-8.93278E-07-4.48362E-19 9.39883E-19
 -1       871 9.48085E-05-2.76843E-05-2.87675E-05-1.16754E-06 8.89602E-20 1.73337E-19
 -1       872 9.46639E-05-2.74654E-05-2.87993E-05-1.51472E-06 3.86389E-20 9.95601E-19
 -1       873 9.45039E-05-2.72448E-05-2.88253E-05-1.94177E-06 3.00370E-19 1.36917E-18
 -1       874 9.43418E-05-2.70479E-05-2.88402E-05-2.45334E-06 2.21246E-19 1.09878E-18
 -1       875 9.42035E-05-2.69161E-05-2.88374E-05-3.04994E-06 8.37590E-19 6.04944E-19
 -1       876 9.41343E-05-2.69132E-05-2.88090E-05-3.72537E-06 1.20320E-18 1.39370E-18
 -1       877 9.42073E-05-2.71316E-05-2.87466E-05-4.46298E-06-8.03955E-19 1.35551E-18
 -1       878 9.45343E-05-2.76985E-05-2.86438E-05-5.22975E-06-6.55931E-19-3.90295E-20
 -1       879 9.52779E-05-2.87781E-05-2.84998E-05-5.96573E-06-5.08135E-19 1.05833E-18
 -1       880 9.66600E-05-3.05644E-05-2.83265E-05-6.56400E-06-7.84152E-19 2.04470E-18
 -1       881 9.89580E-05-3.32503E-05-2.81605E-05-6.83948E-06-8.22273E-19 2.55323E-18
 -1       882 1.02502E-04-3.69716E-05-2.80847E-05-6.44408E-06-1.48990E-18 2.64007E-18
 -1       883 1.07376E-04-4.14693E-05-2.82470E-05-4.85674E-06-2.09138E-18 2.54526E-18
 -1       884 1.13615E-04-4.63854E-05-2.88253E-05-1.39894E-06-1.25750E-18 1.76283E-18
 -1       885 1.19573E-04-4.88980E-05-3.02888E-05 4.48096E-06-1.03753E-18 2.61324E-18
 -1       886 6.58097E-05-2.31519E-05-1.80939E-05-2.20631E-05-8.94420E-19-3.12401E-18
 -1       887 1.24018E-04-5.47781E-05-2.96088E-05-2.22779E-06-1.29920E-18 2.90519E-19
 -1       888 1.14413E-04-2.42113E-05-3.87740E-05-7.80979E-06 1.51992E-18-7.78238E-19
 -1       889 9.28598E-05-1.91703E-05-3.15818E-05-1.13389E-06 3.98650E-20-1.68899E-18
 -1       890 9.61851E-05-2.78607E-05-2.92820E-05-2.82652E-07 3.80910E-19-3.01482E-19
 -1       891 9.54653E-05-2.50609E-05-3.01747E-05 2.14053E-06 6.73857E-19-6.68229E-19
 -1       892 9.55479E-05-2.89478E-05-2.85429E-05-5.47433E-07 6.97341E-20-5.22127E-20
 -1       893 8.48221E-05-3.62960E-05-2.06950E-05-2.80428E-05-1.39467E-18-3.20478E-18
 -1       894 9.60362E-05-2.89845E-05-2.87365E-05-9.46134E-07 3.80515E-19-7.12317E-19
 -1       895 9.58044E-05-2.56145E-05-3.00797E-05-1.15638E-06-5.15250E-19-1.46709E-18
 -1       896 1.06965E-04-4.90752E-05-2.47917E-05-2.12986E-05-8.54762E-19-8.55947E-19
 -1       897 9.61320E-05-2.87908E-05-2.88605E-05-8.82378E-07 1.66200E-19-6.59834E-19
 -1       898 6.03135E-05-1.64550E-05-1.86755E-05 4.99131E-06 2.15359E-18 1.12941E-18
 -1       899 9.58201E-05-2.90925E-05-2.85975E-05-8.49303E-07 2.25515E-19-3.35053E-19
 -1       900 9.60368E-05-2.71180E-05-2.95369E-05 2.74305E-07 3.24442E-19-7.11724E-19
 -1       901 9.45305E-05-2.22648E-05-3.09712E-05 4.32608E-07 5.14657E-20-1.58753E-18
 -1       902 9.59281E-05-2.90731E-05-2.86522E-05-9.23050E-07 4.45630E-19-6.45459E-19
 -1       903 9.46158E-05-2.25535E-05-3.08843E-05-2.09758E-06-5.12174E-19-1.44681E-18
 -1       904 9.61931E-05-2.84408E-05-2.90368E-05-6.82438E-07 1.73912E-19-2.27277E-19
 -1       905 9.46775E-05-2.26041E-05-3.08883E-05 1.21834E-06 3.63136E-19-1.07441E-18
 -1       906 1.10775E-04-1.81866E-05-3.99073E-05-6.63949E-06 3.20511E-18-6.15092E-19
 -1       907 9.64889E-05-2.72541E-05-2.96712E-05-5.19201E-08 3.02206E-20-6.10556E-19
 -1       908 9.66594E-05-2.81467E-05-2.93626E-05 3.15900E-07-1.72924E-19-6.25734E-19
 -1       909 9.66778E-05-2.87194E-05-2.91250E-05 5.29941E-07-3.43493E-19-4.58131E-19
 -1       910 9.65979E-05-2.90556E-05-2.89467E-05 6.29045E-07-2.57414E-19-3.92194E-19
 -1       911 9.64642E-05-2.92267E-05-2.88161E-05 6.49049E-07-3.31829E-19-7.05725E-19
 -1       912 9.63068E-05-2.92858E-05-2.87233E-05 6.19694E-07-1.93087E-19-7.39490E-19
 -1       913 9.61450E-05-2.92722E-05-2.86598E-05 5.62971E-07-8.82397E-20-2.72306E-19
 -1       914 9.59902E-05-2.92130E-05-2.86188E-05 4.94597E-07 1.09922E-19-1.72434E-20
 -1       915 9.58477E-05-2.91262E-05-2.85949E-05 4.25711E-07 1.48553E-19-1.34683E-19
 -1       916 9.57190E-05-2.90226E-05-2.85842E-05 3.64227E-07-3.29863E-20 6.47303E-19
 -1       917 9.56030E-05-2.89085E-05-2.85834E-05 3.15464E-07-5.22755E-19 1.16747E-18
 -1       918 9.54959E-05-2.87851E-05-2.85903E-05 2.83392E-07-4.87399E-19 8.27876E-19
 -1       919 9.53922E-05-2.86510E-05-2.86033E-05 2.71444E-07-2.70303E-19 1.14283E-18
 -1       920 9.52851E-05-2.85021E-05-2.86213E-05 2.82761E-07-4.58855E-19 9.51328E-19
 -1       921 9.51661E-05-2.83321E-05-2.86432E-05 3.20612E-07 5.91072E-21 1.46865E-18
 -1       922 9.50250E-05-2.81329E-05-2.86681E-05 3.88586E-07 5.16771E-19 1.99565E-18
 -1       923 9.48495E-05-2.78950E-05-2.86948E-05 4.90551E-07-7.40688E-20 9.50371E-19
 -1       924 9.46247E-05-2.76073E-05-2.87218E-05 6.30414E-07-7.35022E-20 6.36458E-19
 -1       925 9.43328E-05-2.72580E-05-2.87464E-05 8.11606E-07 1.60081E-19 3.64945E-19
 -1       926 9.39519E-05-2.68344E-05-2.87647E-05 1.03627E-06 1.44315E-19-7.11629E-19
 -1       927 9.34557E-05-2.63237E-05-2.87709E-05 1.30408E-06-7.88312E-19 3.93030E-20
 -1       928 9.28118E-05-2.57143E-05-2.87562E-05 1.61078E-06-4.14868E-19-3.11471E-19
 -1       929 9.19811E-05-2.49968E-05-2.87077E-05 1.94655E-06 6.22108E-19 1.47644E-19
 -1       930 9.09157E-05-2.41666E-05-2.86069E-05 2.29474E-06 1.10962E-18 2.04433E-19
 -1       931 8.95570E-05-2.32268E-05-2.84274E-05 2.63191E-06 3.17804E-19-3.40461E-19
 -1       932 8.78321E-05-2.21921E-05-2.81317E-05 2.93109E-06-1.44252E-19 2.31827E-19
 -1       933 8.56468E-05-2.10924E-05-2.76665E-05 3.17090E-06-7.89571E-19 8.36707E-19
 -1       934 8.28704E-05-1.99747E-05-2.69558E-05 3.35443E-06-4.05988E-19 3.20876E-19
 -1       935 7.92972E-05-1.88942E-05-2.58859E-05 3.56066E-06-3.66951E-19 1.25616E-18
 -1       936 7.46127E-05-1.79261E-05-2.42922E-05 3.94421E-06-3.48976E-19 1.47798E-18
 -1       937 6.90023E-05-1.79448E-05-2.18535E-05 7.42728E-06 1.36914E-18 1.55690E-18
 -1       938 9.53887E-05-2.86699E-05-2.85938E-05-3.02025E-07-4.55309E-20 5.84446E-19
 -1       939 9.59245E-05-2.91769E-05-2.86061E-05-5.78817E-07 1.54398E-19-8.68679E-19
 -1       940 9.54790E-05-2.87905E-05-2.85808E-05-3.21778E-07 4.68675E-20-4.06878E-20
 -1       941 9.55744E-05-2.89027E-05-2.85736E-05-3.63753E-07 4.88671E-19-4.01621E-19
 -1       942 9.52975E-05-2.85378E-05-2.86113E-05-3.08047E-07-2.48971E-19 1.17109E-19
 -1       943 9.51993E-05-2.83901E-05-2.86325E-05-3.43898E-07-6.74222E-19-8.48959E-19
 -1       944 9.50869E-05-2.82216E-05-2.86565E-05-4.14304E-07-8.90492E-19-8.11635E-19
 -1       945 9.49526E-05-2.80272E-05-2.86823E-05-5.24975E-07-9.48562E-19-1.71155E-19
 -1       946 9.47888E-05-2.78025E-05-2.87085E-05-6.82788E-07-6.36298E-19-3.32116E-19
 -1       947 9.45883E-05-2.75451E-05-2.87328E-05-8.95876E-07-3.45880E-19 4.33193E-19
 -1       948 9.43456E-05-2.72567E-05-2.87524E-05-1.17364E-06 4.99344E-20 5.39025E-19
 -1       949 9.40585E-05-2.69455E-05-2.87627E-05-1.52668E-06-2.07318E-19 5.37181E-19
 -1       950 9.37312E-05-2.66294E-05-2.87580E-05-1.96671E-06 9.65051E-19 1.87067E-19
 -1       951 9.33783E-05-2.63407E-05-2.87304E-05-2.50640E-06 1.06456E-19 1.81562E-19
 -1       952 9.30303E-05-2.61320E-05-2.86707E-05-3.15915E-06 4.08564E-19 1.41495E-20
 -1       953 9.27417E-05-2.60827E-05-2.85682E-05-3.93868E-06-2.52195E-19 9.32446E-19
 -1       954 9.26021E-05-2.63073E-05-2.84121E-05-4.85772E-06 4.33753E-20 1.40309E-18
 -1       955 9.27506E-05-2.69633E-05-2.81946E-05-5.92436E-06-8.55625E-19 1.36768E-18
 -1       956 9.33958E-05-2.82596E-05-2.79158E-05-7.13190E-06-1.29116E-18 1.12844E-18
 -1       957 9.48416E-05-3.04580E-05-2.75927E-05-8.42680E-06-7.86552E-19 1.71111E-18
 -1       958 9.74599E-05-3.38126E-05-2.72769E-05-9.66683E-06-1.43144E-18 2.07911E-18
 -1       959 1.01968E-04-3.87526E-05-2.71213E-05-1.04549E-05-1.05964E-18 1.13483E-18
 -1       960 1.08742E-04-4.50656E-05-2.72466E-05-1.01490E-05-8.66313E-19-2.35076E-20
 -1       961 9.45206E-05-2.22475E-05-3.09747E-05-4.15555E-07 1.67498E-19-1.39980E-18
 -1       962 6.32713E-05-1.71523E-05-1.96700E-05-8.85381E-06 5.78621E-19-3.06166E-19
 -1       963 9.39168E-05-3.77078E-05-2.40598E-05-2.04800E-05-6.75946E-19-1.31769E-18
 -1       964 9.45657E-05-2.23729E-05-3.09389E-05-1.29763E-06-1.57145E-19-1.44245E-18
 -1       965 9.49733E-05-2.32976E-05-3.07179E-05 1.89208E-06 6.19601E-19-1.08254E-18
 -1       966 9.57578E-05-2.51118E-05-3.02759E-05-9.83295E-07-2.82370E-19-9.41177E-19
 -1       967 9.58198E-05-2.62478E-05-2.98185E-05 1.05672E-06 4.13925E-19-7.17145E-19
 -1       968 7.98510E-05-2.81791E-05-2.21044E-05-2.01115E-05-7.43796E-19-3.17013E-18
 -1       969 9.56786E-05-2.90064E-05-2.85737E-05-4.23736E-07 1.66780E-19-3.11633E-19
 -1       970 9.57952E-05-2.91002E-05-2.85835E-05-4.97899E-07 2.60405E-19-5.55505E-19
 -1       971 9.60659E-05-2.92263E-05-2.86456E-05-6.57848E-07-1.10307E-19-1.38173E-18
 -1       972 9.55529E-05-2.43351E-05-3.05223E-05-2.85559E-10 7.77418E-20-1.69299E-18
 -1       973 7.36454E-05-2.10070E-05-2.25478E-05-1.24027E-05 1.14665E-18-1.07370E-18
 -1       974 9.63398E-05-2.71201E-05-2.96661E-05 1.53457E-07-5.15241E-20-1.04870E-18
 -1       975 9.64798E-05-2.89797E-05-2.89286E-05-7.19931E-07 4.96199E-19-1.43844E-18
 -1       976 9.63574E-05-2.91600E-05-2.87989E-05-7.51211E-07 2.86832E-19-1.12681E-18
 -1       977 9.65133E-05-2.80366E-05-2.93470E-05-3.23915E-07 1.09526E-19-8.61796E-19
 -1       978 9.55971E-05-2.44707E-05-3.04817E-05 4.87920E-07 3.74960E-19-1.07701E-18
 -1       979 9.67249E-05-2.75914E-05-2.96285E-05 6.03009E-08-1.06127E-19-8.96583E-19
 -1       980 9.68739E-05-2.84161E-05-2.93392E-05 2.57811E-07-3.28841E-19-1.01182E-18
 -1       981 9.68632E-05-2.89261E-05-2.91160E-05 3.65673E-07-4.30036E-19-8.76520E-19
 -1       982 9.67554E-05-2.92126E-05-2.89470E-05 4.08126E-07-1.55768E-19-6.98621E-19
 -1       983 9.65956E-05-2.93434E-05-2.88223E-05 4.08110E-07-1.28868E-19-7.09066E-19
 -1       984 9.64148E-05-2.93707E-05-2.87332E-05 3.82635E-07 2.27741E-19-4.73903E-19
 -1       985 9.62312E-05-2.93303E-05-2.86718E-05 3.43893E-07 5.75944E-19 2.52737E-19
 -1       986 9.60562E-05-2.92482E-05-2.86320E-05 3.00138E-07-2.15166E-19 1.48999E-19
 -1       987 9.58947E-05-2.91406E-05-2.86089E-05 2.58573E-07 1.98699E-19-2.10684E-19
 -1       988 9.57475E-05-2.90174E-05-2.85986E-05 2.23725E-07-1.34130E-19-6.84123E-19
 -1       989 9.56122E-05-2.88831E-05-2.85982E-05 1.97727E-07-5.12929E-19-1.27656E-19
 -1       990 9.54830E-05-2.87372E-05-2.86053E-05 1.83868E-07-2.62616E-19 2.84556E-19
 -1       991 9.53534E-05-2.85772E-05-2.86184E-05 1.83995E-07-4.38658E-19 5.09364E-19
 -1       992 9.52143E-05-2.83972E-05-2.86359E-05 1.99939E-07-4.08043E-19 5.53700E-19
 -1       993 9.50548E-05-2.81896E-05-2.86566E-05 2.33543E-07 6.42865E-19-4.60425E-20
 -1       994 9.48621E-05-2.79450E-05-2.86788E-05 2.86507E-07 3.50709E-20 5.11983E-20
 -1       995 9.46210E-05-2.76527E-05-2.87008E-05 3.60111E-07-3.36347E-19 2.53068E-19
 -1       996 9.43137E-05-2.73014E-05-2.87197E-05 4.54697E-07-3.88510E-19-2.87241E-19
 -1       997 9.39195E-05-2.68795E-05-2.87316E-05 5.68825E-07-9.84633E-20-3.93560E-19
 -1       998 9.34139E-05-2.63759E-05-2.87308E-05 6.98072E-07-2.07370E-20-1.18080E-18
 -1       999 9.27687E-05-2.57814E-05-2.87091E-05 8.33391E-07-4.54552E-19-8.74097E-19
 -1      1000 9.19507E-05-2.50901E-05-2.86549E-05 9.59086E-07 1.76693E-19-5.23720E-19
 -1      1001 9.09213E-05-2.43012E-05-2.85519E-05 1.05053E-06 6.67742E-19-1.10270E-18
 -1      1002 8.96339E-05-2.34210E-05-2.83775E-05 1.07197E-06 2.05843E-19-7.36521E-19
 -1      1003 8.80309E-05-2.24649E-05-2.81003E-05 9.75148E-07 1.09811E-18 8.29900E-21
 -1      1004 8.60351E-05-2.14577E-05-2.76766E-05 6.99862E-07-6.35682E-19 1.84856E-19
 -1      1005 8.35352E-05-2.04320E-05-2.70448E-05 1.78346E-07-9.19230E-19-9.50404E-20
 -1      1006 8.03768E-05-1.94326E-05-2.61178E-05-6.82351E-07 7.92436E-19-1.79217E-19
 -1      1007 7.61779E-05-1.83748E-05-2.47714E-05-1.84094E-06-1.70852E-19-3.48724E-19
 -1      1008 6.87191E-05-1.69870E-05-2.21492E-05-2.77795E-06 3.43722E-19 9.54560E-19
 -1      1009 9.53690E-05-2.86097E-05-2.86111E-05-2.23331E-07-6.89920E-20 6.27863E-19
 -1      1010 9.56086E-05-2.88941E-05-2.85919E-05-2.49629E-07-5.63661E-20 1.20855E-19
 -1      1011 9.51042E-05-2.82587E-05-2.86481E-05-2.79505E-07-6.36228E-19 4.14119E-19
 -1      1012 9.49398E-05-2.80435E-05-2.86699E-05-3.47925E-07-7.53331E-19 6.81097E-20
 -1      1013 9.47401E-05-2.77931E-05-2.86916E-05-4.50260E-07-4.67110E-19-8.75550E-19
 -1      1014 9.44940E-05-2.75020E-05-2.87109E-05-5.93593E-07-1.37782E-18-9.57124E-19
 -1      1015 9.41909E-05-2.71673E-05-2.87245E-05-7.86925E-07-9.12538E-19 9.65565E-20
 -1      1016 9.38217E-05-2.67908E-05-2.87276E-05-1.04169E-06 3.97906E-19 4.72529E-19
 -1      1017 9.33811E-05-2.63818E-05-2.87141E-05-1.37245E-06 2.99925E-19-4.15415E-19
 -1      1018 9.28700E-05-2.59607E-05-2.86755E-05-1.79790E-06-3.44514E-20 8.84551E-19
 -1      1019 9.23002E-05-2.55640E-05-2.86013E-05-2.34225E-06 5.53318E-19 1.10990E-18
 -1      1020 9.17000E-05-2.52500E-05-2.84787E-05-3.03708E-06-4.06715E-19 1.23025E-18
 -1      1021 9.11221E-05-2.51060E-05-2.82927E-05-3.92370E-06-5.82470E-19 1.35941E-18
 -1      1022 9.06553E-05-2.52573E-05-2.80278E-05-5.05552E-06-2.49494E-19 1.73191E-18
 -1      1023 9.04412E-05-2.58775E-05-2.76705E-05-6.49899E-06-7.00928E-19 1.07184E-18
 -1      1024 9.06977E-05-2.72031E-05-2.72136E-05-8.33245E-06-1.08920E-18-3.05184E-19
 -1      1025 9.18152E-05-2.96024E-05-2.66665E-05-1.06111E-05-9.97751E-19 5.44106E-19
 -1      1026 9.44074E-05-3.34375E-05-2.61138E-05-1.33603E-05-1.08416E-18-2.24144E-19
 -1      1027 9.55050E-05-2.42871E-05-3.05234E-05-5.14829E-07 1.66587E-19-1.10982E-18
 -1      1028 9.65523E-05-2.86353E-05-2.91072E-05-5.93787E-07 4.00587E-19-1.14099E-18
 -1      1029 9.62136E-05-2.92295E-05-2.87075E-05-7.21769E-07-2.66344E-20-8.65690E-19
 -1      1030 9.52440E-05-2.84452E-05-2.86281E-05-2.39434E-07-2.34496E-19 5.18939E-19
 -1      1031 9.56832E-05-2.48618E-05-3.03537E-05 8.84425E-07 4.58112E-19-8.38689E-19
 -1      1032 9.60275E-05-2.61228E-05-2.99560E-05 7.51694E-07 3.38045E-19-1.07364E-18
 -1      1033 9.54881E-05-2.87580E-05-2.85986E-05-2.27698E-07-1.12884E-19 2.88594E-19
 -1      1034 9.63297E-05-2.62604E-05-3.00296E-05-2.20246E-07 8.92137E-20-8.93247E-19
 -1      1035 8.69614E-05-2.99229E-05-2.44231E-05-1.63318E-05-8.01621E-19-1.58962E-18
 -1      1036 9.57382E-05-2.90216E-05-2.85930E-05-2.87337E-07-1.99536E-19-2.46613E-19
 -1      1037 9.61991E-05-2.93081E-05-2.86676E-05-4.42610E-07 1.32969E-20-7.98361E-19
 -1      1038 9.62743E-05-2.59982E-05-3.01180E-05 1.26000E-07 3.50263E-19-1.17062E-18
 -1      1039 9.62988E-05-2.60599E-05-3.01015E-05-6.58638E-08 2.86356E-19-1.27234E-18
 -1      1040 9.67899E-05-2.88423E-05-2.91204E-05-4.50198E-07 3.71985E-19-1.06462E-18
 -1      1041 9.62301E-05-2.62031E-05-3.00117E-05 3.84957E-07 2.94446E-19-8.70185E-19
 -1      1042 9.60322E-05-2.92349E-05-2.86273E-05-3.87214E-07-3.44838E-19-5.22430E-19
 -1      1043 9.66947E-05-2.91497E-05-2.89478E-05-5.14988E-07 2.03808E-19-8.74027E-19
 -1      1044 9.66477E-05-2.74899E-05-2.96389E-05-3.24457E-08 2.25627E-19-1.13242E-18
 -1      1045 9.58790E-05-2.91368E-05-2.86039E-05-3.34700E-07 2.36604E-20-2.95754E-19
 -1      1046 9.70009E-05-2.86947E-05-2.92738E-05 1.16077E-07-1.36172E-19-5.73359E-19
 -1      1047 9.69372E-05-2.91072E-05-2.90698E-05 1.52087E-07-1.32241E-19-4.19580E-19
 -1      1048 9.67923E-05-2.93237E-05-2.89152E-05 1.60872E-07-9.29014E-21-2.10199E-19
 -1      1049 9.66120E-05-2.94091E-05-2.88011E-05 1.55807E-07 2.31468E-19 3.33703E-19
 -1      1050 9.64202E-05-2.94042E-05-2.87213E-05 1.41305E-07 2.49072E-19-2.63585E-19
 -1      1051 9.62264E-05-2.93369E-05-2.86670E-05 1.26329E-07-8.30805E-20-1.29222E-18
 -1      1052 9.60416E-05-2.92340E-05-2.86318E-05 1.11352E-07-4.13711E-19-7.67457E-19
 -1      1053 9.58754E-05-2.91130E-05-2.86124E-05 9.46937E-08-7.19068E-20-8.69506E-19
 -1      1054 9.57213E-05-2.89759E-05-2.86052E-05 8.27489E-08-5.77702E-20-7.71798E-19
 -1      1055 9.55755E-05-2.88260E-05-2.86069E-05 7.64487E-08-1.52686E-19-3.52226E-19
 -1      1056 9.54328E-05-2.86631E-05-2.86156E-05 7.44234E-08-1.73717E-19-2.16861E-19
 -1      1057 9.52844E-05-2.84824E-05-2.86294E-05 7.78395E-08-7.74331E-19-2.55659E-19
 -1      1058 9.51198E-05-2.82769E-05-2.86469E-05 8.70769E-08-7.24186E-19-4.50695E-19
 -1      1059 9.49264E-05-2.80381E-05-2.86664E-05 1.02066E-07 1.30449E-19-1.40145E-18
 -1      1060 9.46899E-05-2.77561E-05-2.86859E-05 1.22044E-07 4.95687E-20-1.63149E-18
 -1      1061 9.43937E-05-2.74207E-05-2.87027E-05 1.45072E-07-8.48413E-19-1.44277E-18
 -1      1062 9.40189E-05-2.70214E-05-2.87131E-05 1.67284E-07-2.89960E-19-1.30420E-18
 -1      1063 9.35446E-05-2.65495E-05-2.87121E-05 1.81775E-07-3.69762E-20-1.60815E-18
 -1      1064 9.29475E-05-2.59986E-05-2.86923E-05 1.77058E-07-6.87807E-19-1.79223E-18
 -1      1065 9.22024E-05-2.53668E-05-2.86437E-05 1.34997E-07-2.42364E-19-1.99050E-18
 -1      1066 9.12822E-05-2.46593E-05-2.85526E-05 2.81428E-08 1.63883E-20-1.39440E-18
 -1      1067 9.01580E-05-2.38902E-05-2.84006E-05-1.83578E-07 5.10682E-19-9.33243E-19
 -1      1068 8.87977E-05-2.30857E-05-2.81626E-05-5.56956E-07 6.69175E-19-8.38198E-19
 -1      1069 8.71633E-05-2.22854E-05-2.78053E-05-1.17084E-06-1.06659E-19-1.62568E-18
 -1      1070 8.52022E-05-2.15427E-05-2.72833E-05-2.13427E-06-6.09118E-19-1.57605E-18
 -1      1071 8.28256E-05-2.09154E-05-2.65332E-05-3.60342E-06-5.98683E-19-5.78707E-19
 -1      1072 8.01634E-05-2.06233E-05-2.55197E-05-5.64659E-06-4.50011E-20-9.90367E-19
 -1      1073 9.53136E-05-2.85234E-05-2.86244E-05-1.25446E-07-3.30889E-19 6.96606E-19
 -1      1074 9.49816E-05-2.81073E-05-2.86604E-05-1.72292E-07-5.99670E-19 5.87640E-19
 -1      1075 9.41756E-05-2.71871E-05-2.87094E-05-4.02108E-07-1.28373E-18-9.40570E-19
 -1      1076 9.37685E-05-2.67752E-05-2.87115E-05-5.48760E-07-4.49186E-19-1.96557E-18
 -1      1077 9.32688E-05-2.63086E-05-2.86973E-05-7.50394E-07 2.75706E-19-4.43016E-19
 -1      1078 9.26652E-05-2.57958E-05-2.86585E-05-1.02631E-06-1.96546E-20-2.80701E-19
 -1      1079 9.19517E-05-2.52565E-05-2.85838E-05-1.40344E-06 3.02472E-19-3.09165E-19
 -1      1080 9.11301E-05-2.47262E-05-2.84590E-05-1.91933E-06 3.27766E-19-1.97024E-19
 -1      1081 9.02151E-05-2.42610E-05-2.82663E-05-2.62613E-06-3.87208E-19-7.12466E-19
 -1      1082 8.92397E-05-2.39445E-05-2.79838E-05-3.59593E-06-5.62231E-19-8.08827E-19
 -1      1083 8.82635E-05-2.38953E-05-2.75866E-05-4.92756E-06 1.55132E-19 6.05030E-20
 -1      1084 8.73869E-05-2.42796E-05-2.70469E-05-6.75518E-06 4.19239E-19 5.04597E-19
 -1      1085 8.68166E-05-2.53304E-05-2.63552E-05-9.24933E-06-9.77178E-19-3.83031E-19
 -1      1086 8.66503E-05-2.71452E-05-2.55045E-05-1.22900E-05-4.17677E-19-1.60554E-18
 -1      1087 9.63737E-05-2.93372E-05-2.87300E-05-4.91866E-07 4.88853E-20-4.42557E-19
 -1      1088 9.55935E-05-2.88518E-05-2.86036E-05-1.29201E-07-4.06802E-19 4.55044E-19
 -1      1089 9.67866E-05-2.83126E-05-2.93462E-05-3.05510E-07 3.57828E-19-1.39780E-18
 -1      1090 9.45037E-05-2.75433E-05-2.86974E-05-2.96618E-07-6.84566E-19-8.85959E-20
 -1      1091 9.54550E-05-2.86954E-05-2.86113E-05-1.22183E-07-5.66557E-19 2.51640E-19
 -1      1092 9.47675E-05-2.78478E-05-2.86799E-05-2.22383E-07 2.52103E-21-4.12186E-20
 -1      1093 9.68980E-05-2.79833E-05-2.95352E-05 5.22683E-08-1.98983E-19-1.04085E-18
 -1      1094 9.51594E-05-2.83298E-05-2.86413E-05-1.41221E-07-4.89146E-19 8.49049E-19
 -1      1095 9.69198E-05-2.90375E-05-2.90923E-05-2.55136E-07 8.19604E-20-7.83764E-19
 -1      1096 9.66757E-05-2.71544E-05-2.97945E-05-9.76022E-09 1.41188E-19-1.02088E-18
 -1      1097 9.64182E-05-2.93900E-05-2.87267E-05-2.53995E-07 7.70953E-20-8.83965E-19
 -1      1098 9.69393E-05-2.85768E-05-2.92990E-05-1.93797E-07 1.95719E-19-1.01862E-18
 -1      1099 9.66692E-05-2.71079E-05-2.98129E-05 1.15140E-08 3.06674E-19-1.38472E-18
 -1      1100 9.57362E-05-2.89957E-05-2.86030E-05-1.44683E-07-3.31794E-19-7.08863E-20
 -1      1101 8.10549E-05-2.34344E-05-2.47010E-05-1.09033E-05 5.25809E-19 7.26695E-20
 -1      1102 9.65456E-05-2.92971E-05-2.88207E-05-5.21498E-07 3.63022E-20-6.75654E-19
 -1      1103 9.62396E-05-2.93432E-05-2.86699E-05-2.25766E-07-1.24526E-19-1.98407E-19
 -1      1104 9.67941E-05-2.92885E-05-2.89313E-05-2.76479E-07-9.37722E-20-7.29599E-19
 -1      1105 9.65273E-05-2.94211E-05-2.87594E-05-8.86743E-08 5.42033E-20-8.11299E-19
 -1      1106 9.59667E-05-2.91815E-05-2.86221E-05-6.35755E-08-2.21201E-19 1.45575E-20
 -1      1107 9.69004E-05-2.79826E-05-2.95356E-05-7.85382E-08 3.17845E-19-7.86194E-19
 -1      1108 9.67206E-05-2.93874E-05-2.88569E-05-9.91530E-08-4.60741E-20-5.05112E-19
 -1      1109 9.61049E-05-2.92739E-05-2.86420E-05-1.36912E-07 1.49996E-19-7.10796E-20
 -1      1110 9.66104E-05-2.93853E-05-2.88107E-05-2.70776E-07-1.92563E-19-6.09772E-19
 -1      1111 1.16859E-04 2.57583E-10-4.18571E-05-4.14639E-05-2.18535E-19 6.52406E-18
 -1      1112 8.86550E-05 7.19293E-11-3.72528E-05-2.41644E-05-1.08632E-19 6.98485E-19
 -1      1113 8.40809E-05 4.14590E-11-3.57679E-05-1.78738E-05-8.04681E-20-1.77431E-18
 -1      1114 8.23355E-05 3.20243E-11-3.50733E-05-1.38312E-05-5.14308E-20-2.93030E-18
 -1      1115 8.15306E-05 2.73257E-11-3.47383E-05-1.05291E-05-3.66342E-20-3.48662E-18
 -1      1116 8.11274E-05 2.46032E-11-3.45724E-05-7.63688E-06-1.85156E-20-3.67669E-18
 -1      1117 8.09172E-05 2.29422E-11-3.44886E-05-4.97679E-06-6.85898E-21-3.66714E-18
 -1      1118 8.08143E-05 2.20451E-11-3.44490E-05-2.43054E-06-1.88763E-21-3.57491E-18
 -1      1119 8.07850E-05 2.17744E-11-3.44379E-05 5.25203E-08 7.41071E-21-3.51345E-18
 -1      1120 8.08186E-05 2.20895E-11-3.44505E-05 2.53813E-06 1.67339E-20-3.42647E-18
 -1      1121 8.09259E-05 2.30410E-11-3.44915E-05 5.09261E-06 2.54308E-20-3.25889E-18
 -1      1122 8.11429E-05 2.47601E-11-3.45767E-05 7.76855E-06 4.14583E-20-2.98555E-18
 -1      1123 8.15532E-05 2.76371E-11-3.47447E-05 1.06886E-05 5.11396E-20-2.53398E-18
 -1      1124 8.23596E-05 3.25005E-11-3.50833E-05 1.40379E-05 6.38980E-20-1.78050E-18
 -1      1125 8.40769E-05 4.19302E-11-3.57880E-05 1.81249E-05 9.30677E-20-3.03092E-19
 -1      1126 8.83529E-05 6.67554E-11-3.73231E-05 2.40072E-05 9.78323E-20 2.51177E-18
 -1      1127 1.06624E-04 1.63939E-10-4.06359E-05 3.61907E-05 2.01594E-19 8.22956E-18
 -1      1128 1.30227E-04-2.57582E-05-4.02757E-05-2.61048E-05-8.86738E-19 1.02034E-17
 -1      1129 9.74663E-05-2.88655E-05-3.15806E-05-6.79951E-07-3.24281E-19 8.20500E-18
 -1      1130 9.01717E-05-2.70302E-05-2.78968E-05 3.87095E-07-8.33136E-20 5.47363E-18
 -1      1131 8.82628E-05-2.65765E-05-2.66479E-05 2.50878E-07-2.65326E-20 3.60214E-18
 -1      1132 8.79071E-05-2.64506E-05-2.63923E-05 1.66057E-07-1.03503E-19 1.97549E-18
 -1      1133 8.82695E-05-2.65282E-05-2.64782E-05 1.18204E-07 6.75558E-21 1.32285E-18
 -1      1134 8.89588E-05-2.67135E-05-2.66818E-05 8.76119E-08-2.45499E-20 8.97776E-19
 -1      1135 8.97764E-05-2.69463E-05-2.69252E-05 6.64391E-08-1.34034E-20 9.80176E-20
 -1      1136 9.06121E-05-2.71897E-05-2.71744E-05 5.07933E-08-1.69159E-20-7.18337E-19
 -1      1137 9.14037E-05-2.74230E-05-2.74110E-05 3.87548E-08-1.46845E-19-1.68757E-18
 -1      1138 9.21177E-05-2.76347E-05-2.76251E-05 2.93070E-08-2.94929E-20-2.13460E-18
 -1      1139 9.27388E-05-2.78196E-05-2.78119E-05 2.18412E-08 7.75135E-20-1.65651E-18
 -1      1140 9.32636E-05-2.79764E-05-2.79702E-05 1.59429E-08-6.60237E-20-1.18365E-18
 -1      1141 9.36961E-05-2.81059E-05-2.81010E-05 1.13010E-08-2.12473E-20-1.65844E-18
 -1      1142 9.40443E-05-2.82105E-05-2.82066E-05 7.66713E-09 3.46987E-20-1.93595E-18
 -1      1143 9.43188E-05-2.82932E-05-2.82901E-05 4.83714E-09-1.68886E-19-1.77664E-18
 -1      1144 9.45314E-05-2.83574E-05-2.83550E-05 2.64267E-09 1.05718E-20-2.08620E-18
 -1      1145 9.46942E-05-2.84068E-05-2.84049E-05 9.47299E-10-9.63249E-20-2.23798E-18
 -1      1146 9.48195E-05-2.84450E-05-2.84436E-05-3.55089E-10 1.27734E-19-3.40888E-18
 -1      1147 9.49200E-05-2.84758E-05-2.84748E-05-1.34054E-09-8.11529E-20-3.63796E-18
 -1      1148 9.50088E-05-2.85032E-05-2.85026E-05-2.05406E-09 2.84169E-20-3.57520E-18
 -1      1149 9.51002E-05-2.85315E-05-2.85313E-05-2.50717E-09-2.02901E-19-2.56359E-18
 -1      1150 9.52107E-05-2.85657E-05-2.85660E-05-2.67324E-09 1.04877E-20-2.01605E-18
 -1      1151 9.53594E-05-2.86116E-05-2.86124E-05-2.47969E-09-7.96271E-20-2.97136E-18
 -1      1152 9.55700E-05-2.86763E-05-2.86780E-05-1.79518E-09 1.24842E-19-3.35367E-18
 -1      1153 9.58719E-05-2.87688E-05-2.87716E-05-4.09512E-10 1.74084E-19-2.10347E-18
 -1      1154 9.63026E-05-2.89002E-05-2.89048E-05 1.99774E-09-5.97257E-20-1.85912E-18
 -1      1155 9.69094E-05-2.90850E-05-2.90919E-05 5.90516E-09 4.56542E-20-2.65248E-18
 -1      1156 9.77527E-05-2.93412E-05-2.93516E-05 1.20209E-08 3.43135E-20-2.44219E-18
 -1      1157 9.89093E-05-2.96918E-05-2.97072E-05 2.13835E-08 2.38954E-19-1.70554E-18
 -1      1158 1.00474E-04-3.01652E-05-3.01876E-05 3.54912E-08-1.83931E-19-2.37147E-18
 -1      1159 1.02564E-04-3.07958E-05-3.08278E-05 5.64286E-08-7.07545E-20-5.07325E-18
 -1      1160 1.05312E-04-3.16226E-05-3.16669E-05 8.68824E-08 6.09037E-20-3.58131E-18
 -1      1161 1.08855E-04-3.26852E-05-3.27430E-05 1.29745E-07-5.86570E-20-3.91131E-18
 -1      1162 1.13297E-04-3.40122E-05-3.40793E-05 1.86596E-07-5.81806E-20-3.69277E-18
 -1      1163 1.18625E-04-3.55966E-05-3.56552E-05 2.53627E-07 1.74653E-19-2.89987E-18
 -1      1164 1.24548E-04-3.73481E-05-3.73549E-05 3.12798E-07 4.24428E-19-2.86964E-18
 -1      1165 1.30237E-04-3.90158E-05-3.88921E-05 3.17025E-07-1.50094E-19-9.57835E-19
 -1      1166 1.33997E-04-4.00915E-05-3.97392E-05 1.76295E-07-4.23516E-21-1.19438E-18
 -1      1167 1.33112E-04-3.97658E-05-3.91501E-05-2.26287E-07 1.71167E-19-8.84779E-19
 -1      1168 1.24469E-04-3.71289E-05-3.64179E-05-9.32693E-07-2.26105E-19-6.11981E-20
 -1      1169 1.06646E-04-3.18105E-05-3.14390E-05-1.70506E-06-9.74816E-20 1.53440E-18
 -1      1170 8.29882E-05-2.48754E-05-2.52771E-05-1.95386E-06 1.86718E-19 2.28021E-18
 -1      1171 6.22837E-05-1.88782E-05-2.00182E-05-1.19070E-06 1.89643E-19 3.88100E-18
 -1      1172 5.36412E-05-1.63386E-05-1.76060E-05 2.31775E-07-2.80712E-20 3.81387E-18
 -1      1173 5.88512E-05-1.77434E-05-1.84692E-05 1.27619E-06 8.57886E-20 2.98283E-18
 -1      1174 7.12928E-05-2.13225E-05-2.13373E-05 1.37051E-06-4.18479E-20-8.77314E-19
 -1      1175 8.28977E-05-2.47921E-05-2.44192E-05 9.14658E-07 2.41034E-19-5.24949E-19
 -1      1176 9.06177E-05-2.72348E-05-2.66103E-05 6.26682E-07 1.47165E-19 9.57994E-19
 -1      1177 9.43337E-05-2.83395E-05-2.76895E-05 2.26378E-07-3.83494E-19-7.39327E-19
 -1      1178 1.31060E-04-3.77398E-05-3.86612E-05 1.21744E-05-1.32508E-19 1.28859E-17
 -1      1179 9.65678E-05-2.81921E-05-3.13331E-05 8.01318E-07 1.00585E-19 1.03083E-17
 -1      1180 9.03858E-05-2.69329E-05-2.78777E-05 1.20119E-07 6.83781E-20 7.78513E-18
 -1      1181 8.83499E-05-2.65039E-05-2.66843E-05 8.99189E-09 4.80261E-20 6.32067E-18
 -1      1182 8.79477E-05-2.64132E-05-2.64195E-05-2.52877E-08 6.70049E-20 5.26738E-18
 -1      1183 8.82910E-05-2.65107E-05-2.64939E-05-3.43296E-08 4.27222E-20 3.78841E-18
 -1      1184 8.89715E-05-2.67066E-05-2.66919E-05-3.55483E-08 2.14016E-20 3.13107E-18
 -1      1185 8.97845E-05-2.69449E-05-2.69326E-05-3.38761E-08 1.34659E-20 3.01283E-18
 -1      1186 9.06174E-05-2.71913E-05-2.71800E-05-3.08729E-08-2.74490E-21 2.14793E-18
 -1      1187 9.14072E-05-2.74261E-05-2.74153E-05-2.72515E-08 1.11377E-19 1.81044E-18
 -1      1188 9.21200E-05-2.76384E-05-2.76284E-05-2.34308E-08 6.97169E-20 1.29769E-18
 -1      1189 9.27404E-05-2.78236E-05-2.78145E-05-1.96757E-08 5.94338E-20 7.14816E-19
 -1      1190 9.32649E-05-2.79803E-05-2.79722E-05-1.61462E-08 1.45663E-19 2.18078E-19
 -1      1191 9.36972E-05-2.81095E-05-2.81026E-05-1.29281E-08-3.41000E-20-3.55436E-19
 -1      1192 9.40456E-05-2.82138E-05-2.82079E-05-1.00528E-08 9.64552E-20-8.12313E-19
 -1      1193 9.43206E-05-2.82962E-05-2.82913E-05-7.51292E-09-3.35260E-20-1.31305E-18
 -1      1194 9.45341E-05-2.83603E-05-2.83563E-05-5.27481E-09-5.61298E-20-9.40805E-19
 -1      1195 9.46984E-05-2.84097E-05-2.84065E-05-3.28824E-09 1.22054E-19-1.13031E-18
 -1      1196 9.48260E-05-2.84481E-05-2.84457E-05-1.49500E-09-3.04816E-21-2.67901E-18
 -1      1197 9.49296E-05-2.84795E-05-2.84778E-05 1.63679E-10-2.43610E-20-1.62923E-18
 -1      1198 9.50227E-05-2.85078E-05-2.85068E-05 1.73998E-09 1.15246E-19-2.03888E-18
 -1      1199 9.51196E-05-2.85374E-05-2.85371E-05 3.27172E-09-1.03681E-20-1.64438E-18
 -1      1200 9.52364E-05-2.85731E-05-2.85736E-05 4.77272E-09 5.69859E-20-2.53142E-18
 -1      1201 9.53914E-05-2.86203E-05-2.86219E-05 6.22010E-09-1.33896E-19-3.12895E-18
 -1      1202 9.56058E-05-2.86855E-05-2.86884E-05 7.53725E-09-4.65089E-20-2.58111E-18
 -1      1203 9.59041E-05-2.87759E-05-2.87804E-05 8.57111E-09 1.80883E-19-2.83483E-18
 -1      1204 9.63138E-05-2.88997E-05-2.89063E-05 9.06313E-09-1.43454E-19-2.71161E-18
 -1      1205 9.68652E-05-2.90659E-05-2.90750E-05 8.61444E-09 3.33476E-19-3.78891E-18
 -1      1206 9.75887E-05-2.92833E-05-2.92953E-05 6.64960E-09-1.49315E-19-2.72306E-18
 -1      1207 9.85114E-05-2.95598E-05-2.95749E-05 2.39045E-09-3.49856E-20-4.78908E-19
 -1      1208 9.96497E-05-2.98997E-05-2.99176E-05-5.13414E-09 4.69387E-19-3.67285E-18
 -1      1209 1.00999E-04-3.03010E-05-3.03205E-05-1.69916E-08-9.24633E-20-2.27119E-18
 -1      1210 1.02515E-04-3.07501E-05-3.07684E-05-3.40739E-08-6.39308E-20 1.15443E-18
 -1      1211 1.04097E-04-3.12158E-05-3.12276E-05-5.65191E-08 6.03881E-20 1.08424E-18
 -1      1212 1.05555E-04-3.16416E-05-3.16381E-05-8.26900E-08-1.16152E-19 2.54831E-18
 -1      1213 1.06588E-04-3.19385E-05-3.19075E-05-1.07687E-07-1.04352E-19 5.39686E-19
 -1      1214 1.06775E-04-3.19832E-05-3.19106E-05-1.21803E-07 3.32669E-19-2.42021E-18
 -1      1215 1.05603E-04-3.16272E-05-3.15022E-05-1.10189E-07 2.76811E-19-2.60361E-18
 -1      1216 1.02568E-04-3.07254E-05-3.05505E-05-5.60780E-08 4.83669E-19-2.67064E-18
 -1      1217 9.73741E-05-2.91921E-05-2.89944E-05 5.02006E-08-3.29483E-20-4.27032E-18
 -1      1218 9.01961E-05-2.70761E-05-2.69131E-05 1.97909E-07-9.51010E-20-3.32085E-18
 -1      1219 8.19071E-05-2.46257E-05-2.45729E-05 3.46577E-07-9.91132E-20-8.90761E-19
 -1      1220 7.40719E-05-2.22929E-05-2.24097E-05 4.33999E-07 1.33454E-19-1.14948E-18
 -1      1221 6.85584E-05-2.06297E-05-2.09172E-05 4.08424E-07-1.47271E-19 2.95456E-19
 -1      1222 6.68522E-05-2.00891E-05-2.04775E-05 2.61997E-07-1.99390E-19 9.68748E-19
 -1      1223 6.94450E-05-2.08338E-05-2.12127E-05 3.47251E-08 1.94129E-19-1.29596E-18
 -1      1224 7.56536E-05-2.26645E-05-2.29276E-05-2.18996E-07-5.83857E-20-3.60328E-18
 -1      1225 8.38298E-05-2.50787E-05-2.51389E-05-4.54926E-07 7.42676E-20-4.30536E-18
 -1      1226 9.15024E-05-2.73248E-05-2.71595E-05-5.72514E-07 6.18079E-19-7.43578E-18
 -1      1227 9.51841E-05-2.85976E-05-2.84146E-05 1.25888E-08-6.26268E-19-4.52439E-18
 -1      1228 9.51641E-05-2.86798E-05-2.83570E-05-7.00307E-08-4.96745E-18 6.93773E-20
 -1      1229 9.65664E-05-3.29162E-05-2.69024E-05-4.63633E-07-5.81737E-18 1.00195E-18
 -1      1230 9.90287E-05-4.13334E-05-2.46498E-05-7.43578E-07-2.51685E-18-2.42408E-19
 -1      1231 1.01634E-04-5.02501E-05-2.23692E-05-7.59260E-07-6.96896E-19-1.13115E-18
 -1      1232 1.03205E-04-5.57857E-05-2.12522E-05-5.17436E-07-4.67499E-18 5.03217E-19
 -1      1233 1.02170E-04-5.26354E-05-2.28242E-05 2.56176E-07 6.79225E-18 8.68156E-19
 -1      1234 9.67197E-05-3.47328E-05-2.83782E-05 1.71616E-06 7.71202E-18-6.22146E-19
 -1      1235 8.64665E-05-9.30932E-08-3.77557E-05 3.26119E-06 7.14091E-18-5.63012E-20
 -1      1236 7.45027E-05 4.04543E-05-4.76991E-05 3.39180E-06 8.64905E-18-1.93732E-19
 -1      1237 6.62555E-05 6.94853E-05-5.45427E-05 1.56080E-06 6.99014E-18-9.24113E-19
 -1      1238 6.53715E-05 7.35564E-05-5.56551E-05-1.63745E-06-9.84464E-19 4.37440E-19
 -1      1239 7.14374E-05 5.25697E-05-5.10683E-05-3.40739E-06 2.83333E-19 9.01878E-19
 -1      1240 8.13826E-05 1.68608E-05-4.25258E-05-3.28668E-06-4.20975E-19-4.41625E-19
 -1      1241 9.10126E-05-1.56937E-05-3.40726E-05-1.62308E-06 1.75421E-18-3.97642E-19
 -1      1242 9.59524E-05-3.15151E-05-2.91856E-05-1.60648E-07-1.02454E-18-1.90874E-19
 -1      1243 9.58656E-05-3.22523E-05-2.78329E-05 9.62789E-07-4.39557E-19 1.49145E-18
 -1      1244 9.54663E-05-2.94992E-05-2.79843E-05 4.22781E-07 1.77363E-18 1.80375E-19
 -1      1245 4.72846E-05-1.45220E-04 2.30628E-05-1.67553E-05 1.22820E-19 1.04651E-18
 -1      1246 2.45746E-05-8.52894E-05 1.18934E-05-2.94269E-05 6.48150E-18 2.29969E-18
 -1      1247 1.14433E-05-7.52814E-06-8.29247E-06 6.14134E-06 2.95445E-18 1.98206E-18
 -1      1248 4.37366E-05 3.59082E-05-3.28593E-05 7.34341E-05-2.30054E-18-3.27294E-18
 -1      1249 1.27927E-04 2.23307E-05-5.62476E-05 1.29864E-04-1.96512E-18-2.37847E-18
 -1      1250 2.36335E-04-3.11316E-05-7.49832E-05 1.36467E-04-1.70042E-18-5.92754E-18
 -1      1251 3.24270E-04-8.61309E-05-8.62784E-05 8.65921E-05-1.62927E-18-7.35055E-18
 -1      1252 3.49900E-04-1.04951E-04-8.86725E-05-2.13715E-06 5.34795E-19-1.18881E-17
 -1      1253 2.97228E-04-7.51428E-05-8.12362E-05-8.43064E-05 3.38750E-18-1.56210E-17
 -1      1254 1.98374E-04-2.22090E-05-6.57540E-05-1.21286E-04 6.66530E-18-1.50958E-17
 -1      1255 9.44932E-05 1.97113E-05-4.51720E-05-9.78840E-05 8.95144E-18-1.16044E-17
 -1      1256 2.49815E-05 2.02203E-05-2.19996E-05-4.13784E-05 5.75982E-18-5.56839E-18
 -1      1257 8.08772E-06-2.49423E-05-5.48511E-07 1.22420E-05 5.38713E-19-1.25361E-19
 -1      1258 2.36819E-05-8.64670E-05 1.51165E-05 2.98662E-05 2.48858E-18-1.05413E-18
 -1      1259 4.14381E-05-1.29326E-04 2.35181E-05 1.23681E-05-1.16467E-19 1.20173E-19
 -1      1260 3.97749E-05-1.28874E-04 2.38339E-05-1.99925E-05-9.64643E-18-1.85458E-18
 -1      1261 2.14412E-05-8.73022E-05 1.55312E-05-3.71184E-05-1.16323E-17-3.77861E-18
 -1      1262 7.04629E-06-2.59726E-05-5.50712E-07-1.51315E-05-1.04253E-17-6.94482E-18
 -1      1263 3.05828E-05 1.56604E-05-2.28817E-05 4.09980E-05-7.70969E-18-6.91518E-18
 -1      1264 1.07161E-04 1.06954E-05-4.65575E-05 9.73256E-05-2.76217E-18-4.84164E-18
 -1      1265 2.17980E-04-3.45708E-05-6.79315E-05 1.13389E-04-1.68051E-18-2.50722E-18
 -1      1266 3.21667E-04-8.88061E-05-8.37692E-05 7.19662E-05-3.71636E-20-1.40353E-18
 -1      1267 3.65448E-04-1.11152E-04-9.04827E-05-1.26811E-05 9.90287E-19-5.92118E-18
 -1      1268 3.31482E-04-8.62450E-05-8.73949E-05-9.67893E-05 2.28699E-19-4.36900E-18
 -1      1269 2.35558E-04-2.87267E-05-7.47899E-05-1.40745E-04-1.61699E-18 2.36322E-18
 -1      1270 1.19014E-04 2.39451E-05-5.38702E-05-1.24339E-04-4.76202E-18 7.02021E-18
 -1      1271 3.57314E-05 3.03977E-05-2.90181E-05-6.06251E-05-5.85469E-18 5.08559E-18
 -1      1272 1.06497E-05-2.03069E-05-4.72871E-06 5.09068E-06-1.09437E-18 3.03153E-18
 -1      1273 2.71134E-05-9.71019E-05 1.42384E-05 3.42945E-05-1.72117E-18-3.71847E-19
 -1      1274 4.84844E-05-1.49454E-04 2.38027E-05 1.77837E-05-2.94386E-18 2.28487E-19
 -1      1275 1.04450E-04-2.20211E-05-3.78943E-05-1.72737E-05-3.40084E-19 5.24356E-18
 -1      1276 9.03242E-05-6.68215E-06-3.60186E-05-2.04683E-05-9.02884E-19-4.81962E-19
 -1      1277 9.26616E-05-6.74116E-06-3.72239E-05-2.57568E-05-1.14180E-18 8.12410E-19
 -1      1278 8.59070E-05-4.09721E-06-3.51307E-05-1.64292E-05-8.69532E-19-2.25523E-18
 -1      1279 8.71600E-05-4.08995E-06-3.56004E-05-1.88501E-05-9.93093E-19-1.48681E-18
 -1      1280 9.21383E-05-1.04642E-05-3.50947E-05-1.90318E-05-1.56587E-18-3.90906E-19
 -1      1281 8.40957E-05-3.19007E-06-3.46868E-05-1.28124E-05-6.53539E-19-3.18312E-18
 -1      1282 8.47088E-05-3.16070E-06-3.49116E-05-1.46269E-05-7.62091E-19-2.76723E-18
 -1      1283 8.78683E-05-7.39531E-06-3.45742E-05-1.54077E-05-1.33805E-18-1.88190E-18
 -1      1284 8.31829E-05-2.72708E-06-3.44695E-05-9.68344E-06-4.78468E-19-3.59944E-18
 -1      1285 8.34968E-05-2.70868E-06-3.45790E-05-1.12305E-05-5.43160E-19-3.42016E-18
 -1      1286 8.58655E-05-5.98147E-06-3.43051E-05-1.19516E-05-9.85715E-19-2.69454E-18
 -1      1287 8.26898E-05-2.45673E-06-3.43623E-05-6.91212E-06-2.99512E-19-3.72251E-18
 -1      1288 8.28600E-05-2.44838E-06-3.44171E-05-8.28291E-06-3.79709E-19-3.65585E-18
 -1      1289 8.48179E-05-5.21590E-06-3.41719E-05-8.94175E-06-7.12384E-19-3.03087E-18
 -1      1290 8.24125E-05-2.29071E-06-3.43089E-05-4.29281E-06-1.83533E-19-3.65822E-18
 -1      1291 8.25044E-05-2.28683E-06-3.43364E-05-5.59358E-06-2.35614E-19-3.72045E-18
 -1      1292 8.42301E-05-4.76006E-06-3.41079E-05-6.21393E-06-4.57530E-19-3.13619E-18
 -1      1293 8.22790E-05-2.20109E-06-3.42863E-05-1.78905E-06 2.60822E-20-3.60174E-18
 -1      1294 8.23184E-05-2.19954E-06-3.42975E-05-3.03954E-06-3.67351E-20-3.61307E-18
 -1      1295 8.39056E-05-4.49566E-06-3.40785E-05-3.64297E-06-2.02044E-19-3.04125E-18
 -1      1296 8.22528E-05-2.17356E-06-3.42836E-05 6.69557E-07 1.91948E-19-3.49703E-18
 -1      1297 8.22514E-05-2.17360E-06-3.42832E-05-5.65755E-07 1.12646E-19-3.54999E-18
 -1      1298 8.37634E-05-4.37583E-06-3.40674E-05-1.17000E-06 1.01059E-19-3.00969E-18
 -1      1299 8.23269E-05-2.20388E-06-3.42990E-05 3.14702E-06 3.34901E-19-3.41009E-18
 -1      1300 8.22847E-05-2.20550E-06-3.42871E-05 1.89392E-06 2.77329E-19-3.46388E-18
 -1      1301 8.37683E-05-4.38008E-06-3.40677E-05 1.27320E-06 3.88342E-19-2.88515E-18
 -1      1302 8.25214E-05-2.29705E-06-3.43391E-05 5.71029E-06 4.58414E-19-3.25430E-18
 -1      1303 8.24261E-05-2.30040E-06-3.43109E-05 4.40360E-06 4.05229E-19-3.37164E-18
 -1      1304 8.39211E-05-4.50920E-06-3.40796E-05 3.75057E-06 6.20139E-19-2.84939E-18
 -1      1305 8.28828E-05-2.46302E-06-3.44200E-05 8.39118E-06 6.03829E-19-2.91255E-18
 -1      1306 8.27090E-05-2.47168E-06-3.43647E-05 7.01178E-06 5.34269E-19-3.10745E-18
 -1      1307 8.42551E-05-4.78265E-06-3.41091E-05 6.30812E-06 8.09418E-19-2.62604E-18
 -1      1308 8.35431E-05-2.74073E-06-3.45842E-05 1.13910E-05 8.42546E-19-2.45102E-18
 -1      1309 8.32207E-05-2.75780E-06-3.44730E-05 9.82617E-06 7.44999E-19-2.73196E-18
 -1      1310 8.48601E-05-5.25644E-06-3.41730E-05 9.05040E-06 1.11754E-18-2.25925E-18
 -1      1311 8.47666E-05-3.20337E-06-3.49197E-05 1.48396E-05 1.02364E-18-1.60677E-18
 -1      1312 8.41532E-05-3.24006E-06-3.46925E-05 1.29993E-05 9.14676E-19-2.12100E-18
 -1      1313 8.59459E-05-6.06232E-06-3.43065E-05 1.21186E-05 1.42359E-18-1.72713E-18
 -1      1314 8.72594E-05-4.09101E-06-3.56221E-05 1.90874E-05 1.09103E-18 2.33463E-20
 -1      1315 8.59751E-05-4.15481E-06-3.51385E-05 1.66891E-05 9.87640E-19-9.64479E-19
 -1      1316 8.79936E-05-7.51760E-06-3.45766E-05 1.56463E-05 1.62637E-18-7.29216E-19
 -1      1317 9.34745E-05-6.79382E-06-3.71194E-05 2.50936E-05 9.78111E-19 3.02888E-18
 -1      1318 9.01399E-05-6.43919E-06-3.60414E-05 2.11456E-05 9.61118E-19 1.22439E-18
 -1      1319 9.23684E-05-1.06997E-05-3.50801E-05 1.96727E-05 1.64309E-18 1.09066E-18
 -1      1320 1.23635E-04-2.49257E-05-3.90177E-05 2.83654E-05 4.79527E-19 8.57621E-18
 -1      1321 1.00091E-04-1.44262E-05-3.73571E-05 2.40482E-05 5.05255E-19 4.71956E-18
 -1      1322 1.01689E-04-1.93452E-05-3.54053E-05 2.13955E-05 1.60646E-18 3.75511E-18
 -1      1323 1.02615E-04-2.78086E-05-3.47610E-05 7.32739E-06 8.43645E-19 8.25201E-18
 -1      1324 1.05159E-04-3.02341E-05-3.35288E-05-7.95772E-06-9.45606E-19 5.55336E-18
 -1      1325 9.82742E-05-2.78472E-05-3.07660E-05-4.98684E-06-8.80173E-19 4.48567E-18
 -1      1326 9.55172E-05-2.78536E-05-2.92588E-05-2.48826E-06-6.43004E-19 4.02466E-18
 -1      1327 9.32864E-05-2.75630E-05-2.82200E-05-2.04167E-06-5.76750E-19 3.12124E-18
 -1      1328 9.94975E-05-2.80560E-05-3.09865E-05-7.88395E-06-1.44324E-18 2.17812E-18
 -1      1329 9.15976E-05-2.72052E-05-2.75861E-05-8.36636E-07-5.81356E-19 2.81564E-18
 -1      1330 9.08827E-05-2.71103E-05-2.72843E-05-7.26240E-07-5.77140E-19 1.94495E-18
 -1      1331 9.47327E-05-2.77742E-05-2.88209E-05-3.11775E-06-1.15191E-18 1.60372E-18
 -1      1332 9.01341E-05-2.69281E-05-2.70415E-05-1.71747E-07-3.82899E-19 1.64065E-18
 -1      1333 9.00637E-05-2.69556E-05-2.70072E-05-1.13691E-07-3.01173E-19 1.11366E-18
 -1      1334 9.25359E-05-2.75043E-05-2.79008E-05-1.04939E-06-8.92409E-19 9.55255E-19
 -1      1335 8.98058E-05-2.68886E-05-2.69334E-05 1.56474E-07-1.68619E-19 1.00376E-18
 -1      1336 9.00224E-05-2.69793E-05-2.69957E-05 1.85126E-07-2.06564E-19 7.96290E-19
 -1      1337 9.15806E-05-2.73619E-05-2.75347E-05-6.59433E-08-4.67218E-19 6.55114E-19
 -1      1338 9.00277E-05-2.69829E-05-2.70027E-05 3.16186E-07-1.63731E-19 5.26623E-19
 -1      1339 9.03720E-05-2.71031E-05-2.71023E-05 3.27924E-07-1.77286E-19 3.43081E-19
 -1      1340 9.13304E-05-2.73508E-05-2.74277E-05 4.21159E-07-4.25194E-19 3.26614E-19
 -1      1341 9.05155E-05-2.71453E-05-2.71500E-05 3.82470E-07-2.79003E-19 1.32243E-19
 -1      1342 9.09051E-05-2.72742E-05-2.72626E-05 3.84157E-07-2.72014E-19-3.24308E-19
 -1      1343 9.14661E-05-2.74253E-05-2.74508E-05 6.49358E-07-4.07659E-19-4.32036E-20
 -1      1344 9.11146E-05-2.73349E-05-2.73295E-05 3.94606E-07-1.50323E-19-4.84357E-19
 -1      1345 9.15038E-05-2.74602E-05-2.74422E-05 3.90382E-07-2.11567E-19-7.86943E-19
 -1      1346 9.18016E-05-2.75450E-05-2.75405E-05 7.31644E-07-5.08080E-19-3.77009E-19
 -1      1347 9.17363E-05-2.75272E-05-2.75155E-05 3.75510E-07-2.81622E-19-8.61691E-19
 -1      1348 9.20993E-05-2.76421E-05-2.76211E-05 3.68045E-07-3.45625E-19-1.24754E-18
 -1      1349 9.22258E-05-2.76830E-05-2.76612E-05 7.29474E-07-3.92599E-19-8.33164E-19
 -1      1350 9.23294E-05-2.77083E-05-2.76933E-05 3.39477E-07-3.02637E-19-1.06933E-18
 -1      1351 9.26532E-05-2.78095E-05-2.77878E-05 3.30519E-07-6.46365E-20-1.13209E-18
 -1      1352 9.26720E-05-2.78222E-05-2.77915E-05 6.79554E-07-3.20801E-19-3.57599E-19
 -1      1353 9.28663E-05-2.78706E-05-2.78546E-05 2.95664E-07 1.12170E-19-1.37113E-18
 -1      1354 9.31454E-05-2.79570E-05-2.79363E-05 2.86350E-07 2.77929E-20-1.22035E-18
 -1      1355 9.31009E-05-2.79527E-05-2.79187E-05 6.04959E-07-9.42794E-20-5.51856E-19
 -1      1356 9.33342E-05-2.80111E-05-2.79953E-05 2.49941E-07-5.20026E-20-1.11727E-18
 -1      1357 9.35681E-05-2.80830E-05-2.80641E-05 2.40984E-07-1.21471E-19-1.18930E-18
 -1      1358 9.34907E-05-2.80695E-05-2.80354E-05 5.20452E-07-4.18398E-20-1.36746E-18
 -1      1359 9.37299E-05-2.81292E-05-2.81146E-05 2.05981E-07-1.90491E-19-1.16973E-18
 -1      1360 9.39213E-05-2.81876E-05-2.81710E-05 1.97811E-07-1.32293E-19-1.30734E-18
 -1      1361 9.38313E-05-2.81701E-05-2.81382E-05 4.35415E-07-1.50303E-19-1.36257E-18
 -1      1362 9.40563E-05-2.82261E-05-2.82131E-05 1.65993E-07-3.69744E-20-1.49371E-18
 -1      1363 9.42094E-05-2.82724E-05-2.82583E-05 1.58844E-07-8.12804E-20-1.43209E-18
 -1      1364 9.41201E-05-2.82545E-05-2.82260E-05 3.55647E-07-2.70068E-19-1.14735E-18
 -1      1365 9.43198E-05-2.83039E-05-2.82927E-05 1.31217E-07-2.00164E-19-1.35832E-18
 -1      1366 9.44400E-05-2.83399E-05-2.83284E-05 1.25202E-07-2.32111E-19-1.65015E-18
 -1      1367 9.43591E-05-2.83236E-05-2.82991E-05 2.84572E-07-6.83665E-20-1.15894E-18
 -1      1368 9.45290E-05-2.83652E-05-2.83561E-05 1.02296E-07 6.98006E-21-1.68937E-18
 -1      1369 9.46220E-05-2.83928E-05-2.83837E-05 9.74610E-08-1.70314E-19-1.82133E-18
 -1      1370 9.45535E-05-2.83791E-05-2.83589E-05 2.24095E-07-1.65302E-19-1.03070E-18
 -1      1371 9.46935E-05-2.84131E-05-2.84060E-05 7.95578E-08-3.25675E-19-1.72222E-18
 -1      1372 9.47652E-05-2.84341E-05-2.84275E-05 7.59204E-08-1.02589E-19-1.85008E-18
 -1      1373 9.47102E-05-2.84232E-05-2.84075E-05 1.75235E-07-2.76815E-19-1.23731E-18
 -1      1374 9.48238E-05-2.84506E-05-2.84457E-05 6.32227E-08-9.65415E-20-2.38590E-18
 -1      1375 9.48803E-05-2.84669E-05-2.84627E-05 6.08072E-08-5.34216E-20-2.70971E-18
 -1      1376 9.48374E-05-2.84585E-05-2.84472E-05 1.38604E-07-4.04902E-19-1.48387E-18
 -1      1377 9.49307E-05-2.84811E-05-2.84784E-05 5.35787E-08-3.38419E-19-3.00919E-18
 -1      1378 9.49785E-05-2.84946E-05-2.84928E-05 5.24420E-08-6.39642E-19-3.43664E-18
 -1      1379 9.49440E-05-2.84875E-05-2.84809E-05 1.14787E-07-4.86418E-19-2.26352E-18
 -1      1380 9.50260E-05-2.85079E-05-2.85076E-05 5.11207E-08 1.01196E-19-3.45189E-18
 -1      1381 9.50718E-05-2.85206E-05-2.85215E-05 5.13753E-08 6.93434E-20-3.26273E-18
 -1      1382 9.50400E-05-2.85131E-05-2.85115E-05 1.04646E-07-3.67080E-19-2.47397E-18
 -1      1383 9.51224E-05-2.85348E-05-2.85373E-05 5.66745E-08 9.52448E-20-2.92823E-18
 -1      1384 9.51738E-05-2.85490E-05-2.85529E-05 5.85099E-08 1.71381E-19-2.62595E-18
 -1      1385 9.51363E-05-2.85385E-05-2.85424E-05 1.09573E-07 3.75903E-19-3.33345E-18
 -1      1386 9.52343E-05-2.85660E-05-2.85717E-05 7.15138E-08 1.80451E-19-2.59756E-18
 -1      1387 9.53000E-05-2.85843E-05-2.85917E-05 7.52183E-08 9.17203E-20-2.52748E-18
 -1      1388 9.52455E-05-2.85671E-05-2.85775E-05 1.31735E-07 2.62549E-19-2.58751E-18
 -1      1389 9.53787E-05-2.86064E-05-2.86161E-05 9.74816E-08-9.09969E-20-2.41429E-18
 -1      1390 9.54694E-05-2.86319E-05-2.86436E-05 1.03466E-07-1.25575E-19-2.87212E-18
 -1      1391 9.53821E-05-2.86032E-05-2.86213E-05 1.74300E-07 6.81254E-20-2.39538E-18
 -1      1392 9.55759E-05-2.86619E-05-2.86767E-05 1.37123E-07 4.50849E-19-2.58647E-18
 -1      1393 9.57047E-05-2.86986E-05-2.87156E-05 1.45949E-07 3.87144E-19-1.84183E-18
 -1      1394 9.55635E-05-2.86515E-05-2.86791E-05 2.41687E-07 1.97685E-19-1.86408E-18
 -1      1395 9.58510E-05-2.87397E-05-2.87611E-05 1.93837E-07 1.11025E-19-1.85410E-18
 -1      1396 9.60343E-05-2.87926E-05-2.88162E-05 2.06252E-07 3.28160E-19-1.62771E-18
 -1      1397 9.58109E-05-2.87180E-05-2.87577E-05 3.39841E-07 3.00559E-19-1.38009E-18
 -1      1398 9.62353E-05-2.88491E-05-2.88789E-05 2.72050E-07 5.62173E-20-1.38693E-18
 -1      1399 9.64940E-05-2.89243E-05-2.89564E-05 2.89023E-07-2.02738E-19-1.52713E-18
 -1      1400 9.61503E-05-2.88100E-05-2.88649E-05 4.76544E-07 1.04115E-19-1.01690E-18
 -1      1401 9.67680E-05-2.90013E-05-2.90419E-05 3.77394E-07-2.71154E-19-1.68352E-18
 -1      1402 9.71285E-05-2.91067E-05-2.91497E-05 4.00162E-07-9.59348E-20-2.18935E-18
 -1      1403 9.66137E-05-2.89365E-05-2.90109E-05 6.61735E-07-9.45219E-21-1.19453E-18
 -1      1404 9.74978E-05-2.92105E-05-2.92652E-05 5.16850E-07 2.09235E-19-2.09668E-18
 -1      1405 9.79937E-05-2.93565E-05-2.94130E-05 5.46952E-07 1.45332E-19-1.87081E-18
 -1      1406 9.72404E-05-2.91087E-05-2.92077E-05 9.07799E-07 6.30676E-20-1.68676E-18
 -1      1407 9.84855E-05-2.94946E-05-2.95672E-05 6.98745E-07 5.73129E-20-1.92656E-18
 -1      1408 9.91585E-05-2.96938E-05-2.97675E-05 7.38026E-07 5.87786E-20-1.79207E-18
 -1      1409 9.80785E-05-2.93401E-05-2.94700E-05 1.22963E-06 2.02980E-19-1.43800E-18
 -1      1410 9.98051E-05-2.98754E-05-2.99704E-05 9.32337E-07-3.03104E-19-1.64711E-18
 -1      1411 1.00706E-04-3.01438E-05-3.02382E-05 9.82850E-07-8.87495E-19-2.44347E-18
 -1      1412 9.91851E-05-2.96474E-05-2.98155E-05 1.64408E-06-4.89387E-19-1.90372E-18
 -1      1413 1.01544E-04-3.03792E-05-3.05016E-05 1.22645E-06-6.35563E-19-2.36550E-18
 -1      1414 1.02734E-04-3.07359E-05-3.08543E-05 1.29012E-06-1.47734E-20-2.86167E-18
 -1      1415 1.00627E-04-3.00505E-05-3.02638E-05 2.16805E-06-1.31758E-18-1.08258E-18
 -1      1416 1.03801E-04-3.10365E-05-3.11901E-05 1.58607E-06 3.20351E-19-3.22407E-18
 -1      1417 1.05344E-04-3.15031E-05-3.16461E-05 1.66382E-06-3.28457E-20-2.70072E-18
 -1      1418 1.02476E-04-3.05730E-05-3.08361E-05 2.81341E-06-1.04493E-19-1.71476E-18
 -1      1419 1.06674E-04-3.18802E-05-3.20642E-05 2.00497E-06-6.40830E-19-2.53295E-18
 -1      1420 1.08625E-04-3.24779E-05-3.26387E-05 2.09479E-06-2.60314E-20-3.03415E-18
 -1      1421 1.04804E-04-3.12420E-05-3.15509E-05 3.57599E-06-2.42003E-19-1.73665E-18
 -1      1422 1.10236E-04-3.29404E-05-3.31422E-05 2.45109E-06 4.72816E-19-3.07581E-18
 -1      1423 1.12615E-04-3.36826E-05-3.38379E-05 2.54403E-06 3.63948E-19-2.57698E-18
 -1      1424 1.07664E-04-3.20869E-05-3.24173E-05 4.41334E-06 2.56353E-19-1.56827E-18
 -1      1425 1.14480E-04-3.42326E-05-3.44133E-05 2.84055E-06 3.65407E-20-2.52694E-18
 -1      1426 1.17212E-04-3.51091E-05-3.52022E-05 2.91347E-06 3.63261E-19-2.26475E-18
 -1      1427 1.11060E-04-3.31360E-05-3.34218E-05 5.20460E-06 6.10267E-19-2.09525E-18
 -1      1428 1.19226E-04-3.57339E-05-3.58051E-05 2.99798E-06 7.75515E-19-2.36666E-18
 -1      1429 1.22043E-04-3.66802E-05-3.65990E-05 3.00234E-06 6.05095E-19-1.49001E-18
 -1      1430 1.14885E-04-3.44076E-05-3.45070E-05 5.68692E-06 3.27111E-19-1.34881E-18
 -1      1431 1.23963E-04-3.73372E-05-3.71351E-05 2.61341E-06 3.81602E-19-1.29263E-18
 -1      1432 1.26266E-04-3.81844E-05-3.77490E-05 2.46389E-06-2.46712E-19-1.31865E-18
 -1      1433 1.18839E-04-3.58838E-05-3.55434E-05 5.37800E-06 6.83460E-19-1.46829E-18
 -1      1434 1.27654E-04-3.87724E-05-3.80608E-05 1.24307E-06-3.46767E-19-4.47313E-19
 -1      1435 1.28401E-04-3.91867E-05-3.81936E-05 8.23838E-07 2.40835E-19-6.63336E-19
 -1      1436 1.22302E-04-3.74454E-05-3.63068E-05 3.54343E-06 2.15782E-19-9.95806E-19
 -1      1437 1.28593E-04-3.95012E-05-3.80788E-05-1.53315E-06-2.58874E-20-1.20535E-18
 -1      1438 1.26390E-04-3.89661E-05-3.73699E-05-2.30515E-06-3.35319E-19-1.08918E-18
 -1      1439 1.24220E-04-3.87434E-05-3.64929E-05-6.32293E-07-1.09426E-19-7.05413E-19
 -1      1440 1.24608E-04-3.86594E-05-3.66639E-05-5.64211E-06 8.17149E-19-4.98108E-19
 -1      1441 1.18323E-04-3.66400E-05-3.48850E-05-6.65204E-06 3.30528E-19 1.73854E-19
 -1      1442 1.23112E-04-3.90194E-05-3.58174E-05-7.42016E-06 5.53907E-19-5.79357E-20
 -1      1443 1.14072E-04-3.53181E-05-3.36012E-05-9.80142E-06 3.37093E-20 5.21243E-19
 -1      1444 1.04063E-04-3.17549E-05-3.09554E-05-1.05478E-05-2.58782E-19 4.92232E-19
 -1      1445 1.17516E-04-3.71770E-05-3.42057E-05-1.53781E-05 5.24750E-19 4.60230E-19
 -1      1446 9.79349E-05-2.94329E-05-2.93872E-05-1.13923E-05 3.76566E-19 1.40544E-18
 -1      1447 8.70838E-05-2.53513E-05-2.66381E-05-1.11595E-05 7.42054E-19 1.74785E-18
 -1      1448 1.07266E-04-3.25923E-05-3.19513E-05-2.05535E-05 9.24113E-19 5.77491E-19
 -1      1449 8.12935E-05-2.30022E-05-2.52601E-05-8.25462E-06 1.14535E-19 2.81130E-18
 -1      1450 7.40785E-05-2.03180E-05-2.34100E-05-6.88373E-06 2.99638E-20 2.40769E-18
 -1      1451 9.51461E-05-2.66196E-05-2.96405E-05-1.82764E-05 1.14005E-18 1.69139E-18
 -1      1452 7.13008E-05-1.93885E-05-2.26235E-05-1.59452E-06 2.63533E-19 1.77795E-18
 -1      1453 7.05207E-05-1.93665E-05-2.22614E-05-8.16647E-09-2.76027E-19 2.24061E-18
 -1      1454 8.64291E-05-2.25637E-05-2.78582E-05-8.11265E-06-3.17161E-19 1.14430E-18
 -1      1455 7.13296E-05-2.01331E-05-2.21736E-05 4.17203E-06-6.50521E-19 1.85177E-18
 -1      1456 7.57045E-05-2.21122E-05-2.30806E-05 4.87438E-06-4.43673E-19 1.77189E-18
 -1      1457 8.46941E-05-2.27219E-05-2.69365E-05 3.67315E-06-4.27434E-19 1.55208E-18
 -1      1458 7.81012E-05-2.33569E-05-2.34843E-05 5.86337E-06-7.14211E-19 1.35938E-18
 -1      1459 8.38762E-05-2.56047E-05-2.48876E-05 5.59880E-06-7.56432E-19-8.51268E-20
 -1      1460 8.82645E-05-2.57619E-05-2.68691E-05 9.77552E-06-1.49088E-18 1.43736E-18
 -1      1461 8.56991E-05-2.62199E-05-2.54174E-05 4.36642E-06 5.43425E-19-1.16679E-19
 -1      1462 9.01329E-05-2.76693E-05-2.66197E-05 3.84809E-06 5.94352E-19 4.10811E-19
 -1      1463 9.24983E-05-2.84751E-05-2.73386E-05 9.03987E-06-5.95209E-19 7.35780E-19
 -1      1464 9.07737E-05-2.76300E-05-2.69834E-05 2.51728E-06-1.07282E-19 6.10817E-19
 -1      1465 9.36406E-05-2.85254E-05-2.77087E-05 2.22646E-06-6.52864E-19 6.24316E-19
 -1      1466 9.45358E-05-2.91826E-05-2.78595E-05 5.64915E-06 2.96025E-19 7.75975E-19
 -1      1467 9.43731E-05-2.90023E-05-2.78020E-05 9.27818E-07 1.40819E-20 1.12629E-19
 -1      1468 9.53952E-05-2.96285E-05-2.80540E-05 2.64346E-06-4.69044E-19 1.56133E-18
 -1      1469 9.65912E-05-2.83679E-05-2.97766E-05 2.99431E-06 7.78264E-19 6.53017E-18
 -1      1470 1.02548E-04-2.94021E-05-3.21595E-05 4.46135E-06 6.66721E-19 7.77195E-18
 -1      1471 1.02338E-04-2.67218E-05-3.27092E-05 1.27804E-05 1.31984E-18 5.10899E-18
 -1      1472 9.20474E-05-2.74343E-05-2.77668E-05 1.15056E-06 4.72208E-19 5.15764E-18
 -1      1473 9.39925E-05-2.75890E-05-2.86804E-05 1.47254E-06 5.10456E-19 5.93581E-18
 -1      1474 9.65007E-05-2.80345E-05-2.95379E-05 4.86500E-06 1.10683E-18 4.08081E-18
 -1      1475 9.02176E-05-2.70103E-05-2.70688E-05 3.30232E-07 3.97821E-19 4.17105E-18
 -1      1476 9.08309E-05-2.70273E-05-2.73409E-05 4.93167E-07 3.58838E-19 4.75471E-18
 -1      1477 9.30583E-05-2.75836E-05-2.81036E-05 1.84899E-06 8.37305E-19 3.30437E-18
 -1      1478 8.97032E-05-2.68930E-05-2.68940E-05-5.67864E-08 5.52980E-19 3.27868E-18
 -1      1479 8.97389E-05-2.68301E-05-2.69217E-05 3.24234E-08 4.10558E-19 3.75674E-18
 -1      1480 9.15076E-05-2.73132E-05-2.75206E-05 5.14798E-07 7.08298E-19 2.43053E-18
 -1      1481 8.98383E-05-2.69464E-05-2.69368E-05-2.44261E-07 2.23650E-19 2.32405E-18
 -1      1482 8.96080E-05-2.68383E-05-2.68711E-05-1.93909E-07 3.19182E-19 2.92750E-18
 -1      1483 9.09785E-05-2.72330E-05-2.73253E-05-1.35373E-07 7.27484E-19 1.83915E-18
 -1      1484 9.02943E-05-2.70898E-05-2.70760E-05-3.27559E-07 1.34235E-19 1.97921E-18
 -1      1485 8.99454E-05-2.69620E-05-2.69739E-05-2.99785E-07 5.79055E-20 2.08723E-18
 -1      1486 9.09986E-05-2.72768E-05-2.73152E-05-4.54426E-07 3.57243E-19 1.30638E-18
 -1      1487 9.08918E-05-2.72730E-05-2.72563E-05-3.52073E-07 2.38546E-19 1.58330E-18
 -1      1488 9.05022E-05-2.71421E-05-2.71422E-05-3.38288E-07 1.90790E-19 1.86870E-18
 -1      1489 9.13057E-05-2.73896E-05-2.73975E-05-5.94745E-07 3.09703E-19 9.66188E-19
 -1      1490 9.15280E-05-2.74661E-05-2.74479E-05-3.42777E-07 5.91405E-20 1.33377E-18
 -1      1491 9.11414E-05-2.73419E-05-2.73344E-05-3.37788E-07 1.75135E-19 1.45085E-18
 -1      1492 9.17485E-05-2.75341E-05-2.75240E-05-6.33070E-07 3.37245E-19 7.90967E-19
 -1      1493 9.21437E-05-2.76518E-05-2.76334E-05-3.14708E-07 2.21084E-19 8.31571E-19
 -1      1494 9.17844E-05-2.75396E-05-2.75276E-05-3.15166E-07 1.41960E-19 1.16992E-18
 -1      1495 9.22378E-05-2.76870E-05-2.76670E-05-6.12706E-07 3.69423E-19 5.55389E-19
 -1      1496 9.27063E-05-2.78206E-05-2.78031E-05-2.77358E-07 1.55403E-19 7.77937E-19
 -1      1497 9.23867E-05-2.77230E-05-2.77088E-05-2.81034E-07 1.16161E-19 8.34827E-19
 -1      1498 9.27208E-05-2.78346E-05-2.78098E-05-5.60012E-07 1.76558E-19 2.31711E-19
 -1      1499 9.32000E-05-2.79683E-05-2.79524E-05-2.36794E-07 2.92127E-19 3.49151E-19
 -1      1500 9.29251E-05-2.78857E-05-2.78710E-05-2.42191E-07 3.46646E-19 7.25507E-19
 -1      1501 9.31677E-05-2.79692E-05-2.79430E-05-4.91672E-07 3.72388E-19 4.89708E-19
 -1      1502 9.36199E-05-2.80934E-05-2.80795E-05-1.96849E-07 4.13721E-19-5.62491E-20
 -1      1503 9.33899E-05-2.80253E-05-2.80112E-05-2.02963E-07 2.56795E-19 1.16242E-19
 -1      1504 9.35633E-05-2.80870E-05-2.80616E-05-4.18349E-07 4.47169E-19 1.34967E-19
 -1      1505 9.39678E-05-2.81968E-05-2.81849E-05-1.59861E-07 8.33612E-20-5.02693E-19
 -1      1506 9.37799E-05-2.81420E-05-2.81290E-05-1.66031E-07 1.60431E-19-4.00382E-19
 -1      1507 9.39021E-05-2.81870E-05-2.81636E-05-3.46768E-07 4.21200E-19-3.06185E-19
 -1      1508 9.42497E-05-2.82804E-05-2.82705E-05-1.27177E-07-1.10677E-19-1.06464E-18
 -1      1509 9.40996E-05-2.82371E-05-2.82257E-05-1.32974E-07 9.53497E-20-9.16086E-19
 -1      1510 9.41848E-05-2.82697E-05-2.82491E-05-2.81026E-07 2.47842E-19-1.09103E-18
 -1      1511 9.44741E-05-2.83466E-05-2.83387E-05-9.95088E-08-4.32886E-20-9.02613E-19
 -1      1512 9.43562E-05-2.83131E-05-2.83035E-05-1.04662E-07-1.52259E-20-1.00207E-18
 -1      1513 9.44158E-05-2.83367E-05-2.83193E-05-2.23497E-07 5.31608E-21-9.06727E-19
 -1      1514 9.46506E-05-2.83985E-05-2.83925E-05-7.72033E-08-5.95196E-20-6.26402E-19
 -1      1515 9.45593E-05-2.83728E-05-2.83651E-05-8.15355E-08-1.95219E-19-8.15284E-19
 -1      1516 9.46018E-05-2.83902E-05-2.83761E-05-1.75479E-07-1.17563E-19-8.14745E-19
 -1      1517 9.47898E-05-2.84393E-05-2.84351E-05-6.04436E-08 4.88052E-19-1.27605E-18
 -1      1518 9.47190E-05-2.84195E-05-2.84137E-05-6.38240E-08 5.24685E-19-5.09722E-19
 -1      1519 9.47512E-05-2.84327E-05-2.84220E-05-1.37670E-07 2.52628E-19-8.40611E-19
 -1      1520 9.49027E-05-2.84721E-05-2.84697E-05-4.94039E-08-3.85908E-19-1.84123E-18
 -1      1521 9.48463E-05-2.84564E-05-2.84526E-05-5.17092E-08 4.40204E-20-1.79276E-18
 -1      1522 9.48731E-05-2.84669E-05-2.84596E-05-1.10539E-07 5.77422E-19-4.91532E-19
 -1      1523 9.50011E-05-2.85005E-05-2.85000E-05-4.43664E-08 2.09706E-20-1.42259E-18
 -1      1524 9.49526E-05-2.84869E-05-2.84851E-05-4.54495E-08-2.34419E-19-1.72561E-18
 -1      1525 9.49775E-05-2.84958E-05-2.84921E-05-9.45985E-08-2.88177E-19-1.47610E-18
 -1      1526 9.50974E-05-2.85282E-05-2.85296E-05-4.58071E-08-3.85402E-19-1.31371E-18
 -1      1527 9.50500E-05-2.85145E-05-2.85150E-05-4.54709E-08-1.65465E-19-1.33767E-18
 -1      1528 9.50750E-05-2.85226E-05-2.85226E-05-9.06106E-08-1.55798E-19-5.25532E-19
 -1      1529 9.52055E-05-2.85593E-05-2.85629E-05-5.44515E-08-3.65207E-20-1.25233E-18
 -1      1530 9.51517E-05-2.85432E-05-2.85463E-05-5.24288E-08-6.36299E-20-1.20858E-18
 -1      1531 9.51774E-05-2.85506E-05-2.85548E-05-9.97291E-08-3.80458E-19-6.85623E-19
 -1      1532 9.53409E-05-2.85984E-05-2.86044E-05-7.12984E-08 1.94567E-19-1.68251E-18
 -1      1533 9.52722E-05-2.85772E-05-2.85833E-05-6.72387E-08 2.76139E-20-1.44252E-18
 -1      1534 9.52979E-05-2.85837E-05-2.85927E-05-1.23583E-07 1.41797E-19-5.14888E-19
 -1      1535 9.55216E-05-2.86509E-05-2.86597E-05-9.76000E-08 2.99252E-19-2.40411E-18
 -1      1536 9.54282E-05-2.86214E-05-2.86311E-05-9.10648E-08 2.12420E-19-2.09060E-18
 -1      1537 9.54513E-05-2.86262E-05-2.86407E-05-1.64283E-07 2.68360E-19-1.08732E-18
 -1      1538 9.57679E-05-2.87227E-05-2.87348E-05-1.34778E-07 8.83429E-21-2.27330E-18
 -1      1539 9.56386E-05-2.86815E-05-2.86954E-05-1.25252E-07-1.29951E-19-2.41752E-18
 -1      1540 9.56545E-05-2.86831E-05-2.87041E-05-2.24326E-07 5.36633E-21-2.20708E-18
 -1      1541 9.61030E-05-2.88210E-05-2.88367E-05-1.84242E-07-7.74473E-20-2.01647E-18
 -1      1542 9.59249E-05-2.87639E-05-2.87827E-05-1.71169E-07 1.78064E-19-2.08354E-18
 -1      1543 9.59265E-05-2.87601E-05-2.87885E-05-3.06353E-07 1.57189E-19-2.08164E-18
 -1      1544 9.65523E-05-2.89534E-05-2.89730E-05-2.47068E-07-1.40937E-19-1.89009E-18
 -1      1545 9.63111E-05-2.88759E-05-2.89002E-05-2.29926E-07-1.97908E-19-1.95059E-18
 -1      1546 9.62883E-05-2.88636E-05-2.89001E-05-4.12676E-07-1.63146E-19-1.39306E-18
 -1      1547 9.71419E-05-2.91280E-05-2.91514E-05-3.23459E-07 1.39004E-19-1.99262E-18
 -1      1548 9.68229E-05-2.90253E-05-2.90555E-05-3.01892E-07 1.80697E-19-1.78568E-18
 -1      1549 9.67618E-05-2.90005E-05-2.90455E-05-5.44480E-07 1.31566E-19-9.58423E-19
 -1      1550 9.78963E-05-2.93526E-05-2.93789E-05-4.11902E-07-9.63722E-19-9.68916E-19
 -1      1551 9.74854E-05-2.92202E-05-2.92559E-05-3.85953E-07-7.60031E-19-2.00874E-18
 -1      1552 9.73681E-05-2.91776E-05-2.92306E-05-7.00555E-07-9.17788E-19-1.68889E-19
 -1      1553 9.88331E-05-2.96330E-05-2.96605E-05-5.07933E-07 5.99723E-19-7.69076E-19
 -1      1554 9.83200E-05-2.94678E-05-2.95076E-05-4.78392E-07 1.16367E-19-4.90237E-19
 -1      1555 9.81246E-05-2.94012E-05-2.94601E-05-8.75377E-07-5.29361E-19-2.58184E-19
 -1      1556 9.99554E-05-2.99714E-05-2.99965E-05-6.02392E-07-1.32585E-20-2.12228E-18
 -1      1557 9.93380E-05-2.97728E-05-2.98134E-05-5.71325E-07 7.47290E-19-1.08330E-18
 -1      1558 9.90393E-05-2.96755E-05-2.97353E-05-1.05638E-06 1.21335E-18-7.91638E-19
 -1      1559 1.01240E-04-3.03623E-05-3.03788E-05-6.79191E-07-6.99582E-19-5.62867E-19
 -1      1560 1.00531E-04-3.01348E-05-3.01701E-05-6.50659E-07-7.86700E-19-2.00482E-18
 -1      1561 1.00103E-04-3.00002E-05-3.00521E-05-1.22034E-06-7.69632E-19-4.24119E-19
 -1      1562 1.02623E-04-3.07883E-05-3.07867E-05-7.12827E-07 4.47578E-20 4.41662E-19
 -1      1563 1.01859E-04-3.05444E-05-3.05640E-05-6.93763E-07-3.04496E-19-3.37503E-19
 -1      1564 1.01280E-04-3.03680E-05-3.03971E-05-1.32906E-06-8.19146E-19-1.09061E-18
 -1      1565 1.03976E-04-3.12135E-05-3.11803E-05-6.66419E-07-1.87145E-19 9.01680E-19
 -1      1566 1.03231E-04-3.09779E-05-3.09663E-05-6.67462E-07-1.13823E-19 7.35225E-19
 -1      1567 1.02490E-04-3.07597E-05-3.07440E-05-1.32528E-06-2.98065E-19-1.25384E-19
 -1      1568 1.05090E-04-3.15769E-05-3.14951E-05-4.92030E-07-1.61151E-20 8.37861E-19
 -1      1569 1.04486E-04-3.13907E-05-3.13270E-05-5.27825E-07 2.16996E-19 1.60261E-18
 -1      1570 1.03598E-04-3.11392E-05-3.10488E-05-1.13102E-06-5.23830E-19 6.44579E-19
 -1      1571 1.05659E-04-3.17864E-05-3.16392E-05-1.36509E-07 7.35600E-19-5.09755E-19
 -1      1572 1.05376E-04-3.17100E-05-3.15700E-05-2.24466E-07 6.37819E-19 2.74002E-19
 -1      1573 1.04397E-04-3.14473E-05-3.12476E-05-6.52868E-07 1.07466E-18-3.70282E-19
 -1      1574 1.05291E-04-3.17194E-05-3.14977E-05 4.42629E-07 6.53751E-19-2.78789E-18
 -1      1575 1.05559E-04-3.18306E-05-3.15937E-05 2.86628E-07 6.09811E-19-1.83810E-18
 -1      1576 1.04606E-04-3.15969E-05-3.12572E-05 1.99115E-07 1.53045E-18-1.94011E-18
 -1      1577 1.03558E-04-3.12355E-05-3.09511E-05 1.24739E-06 1.66561E-20-2.27329E-18
 -1      1578 1.04626E-04-3.16183E-05-3.12811E-05 1.01778E-06-1.53644E-19-2.42762E-18
 -1      1579 1.03893E-04-3.14742E-05-3.09861E-05 1.47075E-06 8.27181E-22-1.66542E-18
 -1      1580 1.00122E-04-3.02124E-05-2.99131E-05 2.19804E-06 5.54628E-19-1.78809E-18
 -1      1581 1.02183E-04-3.09304E-05-3.05255E-05 1.91251E-06 4.55181E-19-1.43280E-18
 -1      1582 1.01936E-04-3.09516E-05-3.03559E-05 3.09942E-06 1.54683E-19-1.30177E-18
 -1      1583 9.49206E-05-2.86083E-05-2.83837E-05 3.09890E-06-4.65660E-19-1.12182E-18
 -1      1584 9.79966E-05-2.96636E-05-2.92748E-05 2.80990E-06-2.87045E-19-1.89375E-18
 -1      1585 9.85408E-05-2.99247E-05-2.93361E-05 4.84290E-06-1.78208E-20 1.14905E-19
 -1      1586 8.83782E-05-2.65378E-05-2.65016E-05 3.64822E-06-9.53443E-19 2.58345E-20
 -1      1587 9.21983E-05-2.78272E-05-2.75853E-05 3.44185E-06-6.60074E-20-7.53171E-19
 -1      1588 9.38046E-05-2.83767E-05-2.79836E-05 6.25026E-06-6.07204E-19 1.76425E-18
 -1      1589 8.15087E-05-2.43220E-05-2.45591E-05 3.52932E-06 5.04506E-19 1.22079E-19
 -1      1590 8.54554E-05-2.56194E-05-2.56596E-05 3.50011E-06-2.43274E-19-1.53207E-19
 -1      1591 8.82579E-05-2.64533E-05-2.64656E-05 6.74540E-06-2.38443E-20 1.54646E-18
 -1      1592 7.57649E-05-2.24491E-05-2.29516E-05 2.58026E-06-9.67034E-19 1.31793E-19
 -1      1593 7.89783E-05-2.34486E-05-2.38363E-05 2.78177E-06-1.86797E-19 1.61042E-19
 -1      1594 8.28801E-05-2.45022E-05-2.50444E-05 5.85992E-06-1.28570E-19 1.06997E-18
 -1      1595 7.25787E-05-2.14122E-05-2.20574E-05 9.42296E-07 3.59321E-19 8.72676E-19
 -1      1596 7.42359E-05-2.18381E-05-2.25100E-05 1.34603E-06-7.32154E-20 9.37215E-19
 -1      1597 7.88749E-05-2.30051E-05-2.40126E-05 3.53882E-06-4.49510E-19 1.16552E-18
 -1      1598 7.27884E-05-2.14971E-05-2.20998E-05-9.54373E-07 3.80894E-19 2.99148E-19
 -1      1599 7.24325E-05-2.12232E-05-2.20010E-05-4.54712E-07 4.65683E-19 4.79249E-19
 -1      1600 7.72330E-05-2.23847E-05-2.35986E-05 2.85814E-07 7.93471E-19 1.09683E-18
 -1      1601 7.62886E-05-2.26595E-05-2.30566E-05-2.58231E-06 5.79642E-19-9.83035E-19
 -1      1602 7.40155E-05-2.17607E-05-2.24327E-05-2.11933E-06 8.12099E-19 9.18237E-20
 -1      1603 7.83119E-05-2.28009E-05-2.38825E-05-3.01247E-06 1.04055E-18 9.91081E-19
 -1      1604 8.20764E-05-2.45700E-05-2.46499E-05-3.51928E-06-1.02403E-19-1.98237E-18
 -1      1605 7.85020E-05-2.32841E-05-2.36744E-05-3.20440E-06 3.80305E-20-1.78449E-18
 -1      1606 8.16965E-05-2.40944E-05-2.47564E-05-5.46394E-06 6.23079E-19 4.21187E-19
 -1      1607 8.84981E-05-2.67253E-05-2.63938E-05-3.45532E-06 9.54110E-19-3.76448E-18
 -1      1608 8.46541E-05-2.54112E-05-2.53601E-05-3.39076E-06 4.26716E-19-2.88309E-18
 -1      1609 8.63892E-05-2.59193E-05-2.59366E-05-6.39283E-06 7.58745E-19-1.22297E-18
 -1      1610 9.34859E-05-2.85278E-05-2.77419E-05-2.14632E-06-3.60692E-19-4.59047E-18
 -1      1611 9.07594E-05-2.76462E-05-2.69746E-05-2.40146E-06 9.30942E-20-3.62043E-18
 -1      1612 9.11654E-05-2.79803E-05-2.70285E-05-5.28781E-06 5.11224E-19-1.90942E-18
 -1      1613 9.48442E-05-2.92093E-05-2.79669E-05-6.57061E-07-2.44200E-18-2.33246E-18
 -1      1614 9.67080E-05-3.46406E-05-2.65206E-05-3.52947E-06-3.59862E-18 4.66464E-19
 -1      1615 9.55379E-05-3.14598E-05-2.73930E-05-3.06216E-06-3.80707E-18 5.93883E-19
 -1      1616 9.90693E-05-4.11038E-05-2.48085E-05-4.29680E-06 2.34681E-19 1.54377E-18
 -1      1617 9.75372E-05-3.69138E-05-2.59192E-05-4.23849E-06-2.69632E-18 1.95254E-18
 -1      1618 9.64127E-05-3.43604E-05-2.65469E-05-7.23946E-06-1.28325E-18 2.27697E-18
 -1      1619 1.01218E-04-4.66523E-05-2.33904E-05-3.46755E-06-1.42879E-18-2.48812E-18
 -1      1620 9.98626E-05-4.32239E-05-2.42499E-05-3.73737E-06 1.28405E-18-2.26661E-18
 -1      1621 9.86319E-05-3.88514E-05-2.56409E-05-7.44557E-06 3.74547E-20 1.28655E-18
 -1      1622 1.02438E-04-4.84392E-05-2.32320E-05-4.57616E-07 1.73073E-19 1.80786E-18
 -1      1623 1.01857E-04-4.78087E-05-2.32187E-05-1.24130E-06-1.89185E-18 6.86758E-19
 -1      1624 1.00711E-04-4.23561E-05-2.51346E-05-4.24937E-06 1.21512E-18-1.49822E-18
 -1      1625 1.01349E-04-4.23445E-05-2.54998E-05 5.42967E-06 4.44015E-18 2.16645E-18
 -1      1626 1.02558E-04-4.73084E-05-2.38799E-05 3.94443E-06 3.73219E-19 3.32360E-18
 -1      1627 1.02254E-04-4.28940E-05-2.57146E-05 3.50654E-06 4.69150E-19 3.92234E-18
 -1      1628 9.63059E-05-2.51497E-05-3.07366E-05 1.34931E-05 3.99228E-18-1.09813E-18
 -1      1629 1.00326E-04-3.76290E-05-2.72089E-05 1.15944E-05 4.60955E-18-4.22511E-19
 -1      1630 1.01883E-04-3.77729E-05-2.78858E-05 1.61221E-05 7.59286E-19 1.67983E-18
 -1      1631 8.64927E-05 2.50529E-06-3.81135E-05 1.99712E-05 5.61752E-18 1.17615E-18
 -1      1632 9.32396E-05-1.61211E-05-3.33181E-05 1.88807E-05 4.95027E-18-1.50848E-19
 -1      1633 9.74105E-05-2.46285E-05-3.15293E-05 3.03496E-05 3.37416E-18-6.87830E-19
 -1      1634 7.58414E-05 2.87296E-05-4.43541E-05 1.90832E-05 4.46789E-18-8.25645E-19
 -1      1635 8.22314E-05 1.25681E-05-4.04541E-05 2.00094E-05 3.46352E-18-7.67624E-20
 -1      1636 8.79462E-05-5.00471E-06-3.54198E-05 3.72686E-05 2.58213E-18 2.30340E-19
 -1      1637 6.81379E-05 4.59061E-05-4.80364E-05 8.21978E-06 1.34106E-18-2.71622E-18
 -1      1638 7.17546E-05 3.75783E-05-4.60870E-05 1.14880E-05 3.93997E-18-1.14879E-18
 -1      1639 7.69674E-05 1.48367E-05-3.85234E-05 2.87331E-05-2.68986E-19-2.11419E-18
 -1      1640 6.91514E-05 4.34785E-05-4.75226E-05-5.93249E-06-7.17013E-19-1.12475E-18
 -1      1641 6.76691E-05 4.73487E-05-4.83566E-05-2.86100E-06 1.49627E-18-2.27704E-18
 -1      1642 7.09729E-05 2.54664E-05-4.00541E-05 5.54241E-06 5.69696E-19-4.10176E-18
 -1      1643 7.74666E-05 2.52176E-05-4.36512E-05-1.63071E-05-4.74762E-19-1.52466E-19
 -1      1644 7.22136E-05 3.81306E-05-4.66537E-05-1.49332E-05-7.99599E-19 1.92658E-18
 -1      1645 7.35043E-05 2.17101E-05-3.98046E-05-1.88350E-05-6.49515E-19-5.33737E-19
 -1      1646 8.90041E-05-2.55030E-06-3.72465E-05-1.73868E-05-1.30231E-19-6.97876E-20
 -1      1647 8.23608E-05 1.47570E-05-4.15332E-05-1.83480E-05-1.89524E-19-2.94370E-19
 -1      1648 8.37375E-05 5.01500E-06-3.77577E-05-3.22708E-05-1.14339E-18 2.48075E-19
 -1      1649 9.57677E-05-2.22091E-05-3.18774E-05-1.05935E-05 9.59477E-19 5.97582E-19
 -1      1650 9.19538E-05-1.08641E-05-3.50354E-05-1.25540E-05 7.53859E-19 1.17367E-19
 -1      1651 9.39553E-05-1.43027E-05-3.44607E-05-2.79736E-05 7.68682E-20 1.63153E-19
 -1      1652 9.74689E-05-3.00877E-05-2.89765E-05-3.02897E-06-2.03531E-18-1.52524E-18
 -1      1653 9.64475E-05-2.63425E-05-3.03361E-05-4.32086E-06 3.05302E-19-1.84185E-18
 -1      1654 9.85621E-05-2.64652E-05-3.13203E-05-1.41098E-05 8.20431E-20-1.22214E-18
 -1      1655 9.68112E-05-3.03801E-05-2.83818E-05 1.04857E-06 1.73483E-19 2.57910E-18
 -1      1656 9.75463E-05-3.11106E-05-2.85681E-05 4.14015E-07-1.61241E-18 1.66183E-18
 -1      1657 9.89671E-05-3.07104E-05-2.95441E-05-2.86131E-06-1.34678E-19 3.15705E-19
 -1      1658 9.66237E-05-3.02045E-05-2.85730E-05 2.74356E-06-2.82565E-19 1.78835E-18
 -1      1659 2.83461E-05-8.76676E-05 1.66768E-05-4.95391E-06 3.52196E-18 2.92946E-18
 -1      1660 3.31123E-05-1.01964E-04 1.95118E-05 4.65606E-06-1.39760E-20 1.82853E-18
 -1      1661 2.65492E-05-4.77954E-05 3.77560E-06 1.00649E-05 3.36611E-18 4.58880E-19
 -1      1662 3.31983E-05-7.96437E-05 1.14909E-05 4.17337E-06 4.00985E-18 6.65503E-19
 -1      1663 4.92521E-05-1.34770E-05-1.65504E-05 4.53764E-05-4.54010E-19-2.36830E-18
 -1      1664 4.17204E-05-4.08097E-05-5.44448E-06 2.20471E-05 1.35525E-18-8.83455E-19
 -1      1665 9.57961E-05 4.87015E-07-3.89522E-05 8.00572E-05-3.02306E-18-4.60532E-18
 -1      1666 6.68929E-05-6.83816E-06-2.71874E-05 5.29021E-05-9.57147E-19-4.52739E-18
 -1      1667 1.63148E-04-1.16181E-05-5.98419E-05 1.01289E-04-1.99392E-18-4.37662E-18
 -1      1668 1.16692E-04 3.39600E-06-4.95032E-05 8.74531E-05-2.94259E-18-3.64563E-18
 -1      1669 2.35201E-04-4.35986E-05-7.55156E-05 8.56840E-05-2.18598E-18-5.42948E-18
 -1      1670 1.89376E-04-1.98837E-05-6.81115E-05 9.61953E-05-1.51873E-18-4.63412E-18
 -1      1671 2.81519E-04-6.83493E-05-8.41712E-05 4.22525E-05 1.60513E-19-6.93805E-18
 -1      1672 2.55098E-04-5.15565E-05-8.08447E-05 7.44792E-05-9.60694E-19-5.91822E-18
 -1      1673 2.75776E-04-6.69310E-05-8.35512E-05-1.70867E-05 1.93335E-18-1.03020E-17
 -1      1674 2.82007E-04-6.85999E-05-8.46988E-05 2.29691E-05 1.51809E-18-8.11098E-18
 -1      1675 2.27162E-04-4.49792E-05-7.38215E-05-5.89946E-05 4.09456E-18-1.08505E-17
 -1      1676 2.62164E-04-6.27586E-05-7.96441E-05-3.17647E-05 2.46381E-18-1.06862E-17
 -1      1677 1.61473E-04-1.81609E-05-5.89330E-05-8.03810E-05 5.28972E-18-1.16560E-17
 -1      1678 2.09402E-04-3.99238E-05-6.76582E-05-7.63054E-05 5.22535E-18-1.17797E-17
 -1      1679 1.00030E-04-1.08243E-05-3.84477E-05-5.90893E-05 6.21214E-18-8.20606E-18
 -1      1680 1.39619E-04-1.85587E-05-4.91320E-05-7.49431E-05 5.11015E-18-1.00966E-17
 -1      1681 5.28989E-05-1.52477E-05-1.87622E-05-3.27233E-05 3.29157E-18-5.24313E-18
 -1      1682 7.64162E-05-5.60231E-06-2.98737E-05-5.77061E-05 5.27702E-18-7.76560E-18
 -1      1683 1.22449E-04-4.05119E-05-3.45369E-05-4.45345E-05 3.37458E-18-7.32768E-18
 -1      1684 2.84662E-05-4.60564E-05 2.16786E-06-4.27381E-06 7.14049E-19-1.69830E-18
 -1      1685 2.98882E-05-1.96064E-05-7.04291E-06-2.11866E-05 1.94902E-18-2.84349E-18
 -1      1686 2.75981E-05-7.82370E-05 1.50461E-05 2.87447E-06 8.80067E-19-6.18228E-19
 -1      1687 2.15394E-05-5.48219E-05 9.28757E-06 2.44200E-06 5.00596E-19-2.11441E-19
 -1      1688 2.81972E-05-9.40386E-05 2.11298E-05-4.30150E-06-2.64168E-18-1.39591E-18
 -1      1689 2.49823E-05-8.42514E-05 1.89072E-05 6.35328E-06-5.89535E-19-6.16852E-19
 -1      1690 2.36438E-05-8.22165E-05 1.87901E-05-1.15814E-05-7.27517E-18-3.10988E-18
 -1      1691 2.73509E-05-9.17110E-05 2.07949E-05-1.83261E-06-3.84278E-18-3.03767E-18
 -1      1692 2.06980E-05-5.54941E-05 9.61740E-06-8.06881E-06-7.54622E-18-3.42815E-18
 -1      1693 2.69809E-05-7.90920E-05 1.54296E-05-9.28219E-06-7.67073E-18-2.07031E-18
 -1      1694 3.68570E-05-2.58217E-05-7.53118E-06 1.93303E-05-6.56620E-18-4.49732E-18
 -1      1695 3.21687E-05-4.94804E-05 1.95333E-06 1.61417E-06-7.02275E-18-3.37966E-18
 -1      1696 7.95061E-05-1.15836E-05-2.90742E-05 5.25890E-05-4.31055E-18-2.40727E-18
 -1      1697 5.35611E-05-2.05233E-05-1.75392E-05 2.70068E-05-6.20198E-18-3.52789E-18
 -1      1698 1.48115E-04-2.26087E-05-5.07926E-05 7.45088E-05-1.36203E-18-3.18484E-18
 -1      1699 1.03396E-04-1.13618E-05-3.98613E-05 5.89876E-05-2.91379E-18-2.79521E-18
 -1      1700 2.25825E-04-5.08580E-05-6.93400E-05 6.15188E-05-1.70423E-18-4.15046E-19
 -1      1701 1.76293E-04-2.97577E-05-6.01143E-05 6.78633E-05-3.28649E-19-2.22770E-18
 -1      1702 2.82781E-04-7.22936E-05-8.22893E-05 2.26675E-05 1.15535E-18-2.08370E-18
 -1      1703 2.48184E-04-5.57087E-05-7.66923E-05 5.25110E-05-4.00011E-19-1.07065E-18
 -1      1704 2.95554E-04-7.40490E-05-8.63650E-05-3.25128E-05 2.21499E-19-2.44242E-18
 -1      1705 2.93461E-04-7.50742E-05-8.55538E-05 6.12163E-06 1.43297E-18-1.30189E-18
 -1      1706 2.58944E-04-5.22554E-05-8.12353E-05-7.85847E-05-7.56453E-19-1.71609E-18
 -1      1707 2.88702E-04-7.03176E-05-8.49765E-05-4.89551E-05 8.80914E-20-2.37804E-18
 -1      1708 1.88826E-04-2.12122E-05-6.72119E-05-9.48177E-05-2.25353E-18 1.08759E-18
 -1      1709 2.38287E-04-4.52248E-05-7.53901E-05-8.75362E-05-1.44398E-18-1.40015E-18
 -1      1710 1.11654E-04-1.39350E-07-4.65584E-05-8.09774E-05-3.72356E-18 3.70153E-18
 -1      1711 1.61059E-04-1.35152E-05-5.81045E-05-9.93410E-05-2.20737E-18 2.37169E-18
 -1      1712 5.95435E-05-1.08066E-05-2.34515E-05-4.45676E-05-2.35136E-18 2.75455E-18
 -1      1713 8.62555E-05 1.85283E-07-3.54282E-05-7.39105E-05-3.21364E-18 3.65664E-18
 -1      1714 3.98208E-05-4.90084E-05-2.17147E-06-1.42574E-05-4.91279E-19 1.83171E-18
 -1      1715 4.48023E-05-1.99384E-05-1.29681E-05-3.60781E-05-1.17568E-18 3.99037E-18
 -1      1716 3.35056E-05-8.51879E-05 1.32082E-05-6.49404E-08-2.49705E-18-5.30719E-19
 -1      1717 2.66680E-05-5.59330E-05 6.28974E-06-3.67458E-06-1.72625E-18-4.22246E-19
 -1      1718 3.29456E-05-1.02569E-04 1.98087E-05-1.36640E-06-1.40078E-19 1.28347E-18
 -1      1719 2.89866E-05-9.17151E-05 1.76944E-05 8.82890E-06-1.61360E-18 1.37241E-18
 -1      1720 1.36427E-04-3.14258E-05-4.32203E-05 6.28552E-05-2.89346E-18-4.52400E-18
 -1      1721 9.57373E-05-4.28513E-05-2.33471E-05 5.80735E-05-1.52042E-18-5.54552E-18
 -1      1722 9.48289E-05-2.98812E-05-2.76769E-05-2.27514E-06-2.90568E-18-4.84874E-19
 -1      1723 9.42784E-05-3.04754E-05-2.72582E-05-5.16025E-06-1.77872E-18-7.53191E-19
 -1      1724 2.63704E-05-6.05442E-05 8.70579E-06 2.51483E-05 1.96173E-18 2.46232E-18
 -1      1725 5.51716E-05-5.09430E-05-4.94499E-06 4.72216E-05 5.20925E-19-2.97213E-18
 -1      1726 1.66845E-05-6.59050E-05 1.38846E-05 3.08185E-06 1.09807E-18 1.86305E-18
 -1      1727 1.80722E-04-2.79891E-05-6.12386E-05 6.08448E-05-2.24083E-18-5.03815E-18
 -1      1728 2.18125E-04-3.23311E-05-7.40420E-05 4.52101E-05-5.92923E-19-5.24271E-18
 -1      1729 2.35104E-04-3.53219E-05-7.96310E-05 2.16272E-05 1.72795E-18-5.83087E-18
 -1      1730 2.22800E-04-3.36012E-05-7.63404E-05-3.20942E-06 2.94217E-18-5.99784E-18
 -1      1731 2.00947E-04-3.49298E-05-6.70459E-05-2.96116E-05 3.77798E-18-8.65668E-18
 -1      1732 1.62823E-04-3.74915E-05-5.15401E-05-4.15330E-05 3.79725E-18-8.49913E-18
 -1      1733 3.69399E-05-5.17421E-05 2.76502E-06-2.55154E-05 9.91029E-20-1.29715E-18
 -1      1734 1.99638E-05-6.19352E-05 1.32156E-05-1.37575E-05-5.68359E-19-1.63774E-18
 -1      1735 1.34887E-05-6.36114E-05 1.65512E-05-2.63397E-06-3.12846E-18-3.74219E-18
 -1      1736 1.99253E-05-6.14349E-05 1.30749E-05 8.36751E-06-3.73711E-18-2.44835E-18
 -1      1737 4.17228E-05-5.58899E-05 2.48100E-06 2.20701E-05-4.56381E-18-2.03439E-18
 -1      1738 7.81839E-05-4.97566E-05-1.41364E-05 3.30638E-05-3.47961E-18-8.52962E-19
 -1      1739 1.22770E-04-4.32433E-05-3.38653E-05 3.90241E-05-2.76980E-18-3.11708E-19
 -1      1740 1.72863E-04-4.23675E-05-5.31189E-05 3.38312E-05-1.00924E-18-5.19231E-19
 -1      1741 2.13431E-04-4.20366E-05-6.87084E-05 1.67470E-05-6.16852E-19-9.14796E-19
 -1      1742 2.39968E-04-4.07805E-05-7.87694E-05-2.33517E-06 7.47507E-19-5.17537E-19
 -1      1743 2.44676E-04-4.00063E-05-8.05783E-05-2.57295E-05-6.29345E-19 9.10984E-19
 -1      1744 2.22011E-04-3.59395E-05-7.36972E-05-4.48410E-05-1.64367E-18-1.24344E-18
 -1      1745 1.83035E-04-3.37328E-05-5.96558E-05-5.76611E-05-1.12952E-18-8.76679E-19
 -1      1746 1.33879E-04-3.58943E-05-4.04825E-05-6.03715E-05-1.01051E-18 1.09267E-18
 -1      1747 8.88897E-05-4.63551E-05-1.98708E-05-5.23729E-05 9.86793E-19 2.03711E-18
 -1      1748 5.13122E-05-5.54447E-05-2.29244E-06-4.03081E-05-1.39422E-18 1.49491E-18
 -1      1749 2.48232E-05-6.27886E-05 9.90852E-06-1.90927E-05-1.22142E-18 6.35275E-21
 -1      1750 1.06061E-04-2.31732E-05-3.56066E-05-1.68506E-05-1.16455E-18 4.21335E-18
 -1      1751 7.38031E-05-4.17830E-05-1.51920E-05-4.01480E-05 2.16332E-18-5.96565E-18
 -1      1752 8.91543E-05-1.05877E-05-3.37969E-05-1.33220E-05-1.37475E-18-1.67014E-18
 -1      1753 9.04869E-05-1.16328E-05-3.39370E-05-1.51313E-05-1.61920E-18-1.17465E-18
 -1      1754 9.24953E-05-1.38768E-05-3.38556E-05-1.59972E-05-1.64454E-18-5.71165E-19
 -1      1755 9.42142E-05-1.58240E-05-3.41000E-05-1.76584E-05-1.78801E-18 1.74912E-19
 -1      1756 9.34225E-05-1.63497E-05-3.30462E-05-1.37650E-05-1.71485E-18-7.99758E-19
 -1      1757 8.62086E-05-7.67292E-06-3.37290E-05-7.86063E-06-7.51404E-19-2.48215E-18
 -1      1758 8.66141E-05-7.97188E-06-3.37635E-05-9.24964E-06-9.09055E-19-2.42627E-18
 -1      1759 8.55891E-05-7.03397E-06-3.37257E-05-5.31797E-06-4.87682E-19-2.58119E-18
 -1      1760 8.58247E-05-7.21311E-06-3.37410E-05-6.62209E-06-6.12861E-19-2.57874E-18
 -1      1761 8.75902E-05-9.86514E-06-3.33423E-05-6.92565E-06-7.45099E-19-2.48501E-18
 -1      1762 8.52531E-05-6.67503E-06-3.37286E-05-2.88778E-06-1.17008E-19-2.45883E-18
 -1      1763 8.53744E-05-6.76984E-06-3.37347E-05-4.12702E-06-2.92667E-19-2.49889E-18
 -1      1764 8.69521E-05-9.15231E-06-3.33751E-05-4.53574E-06-3.87547E-19-2.47420E-18
 -1      1765 8.51220E-05-6.52688E-06-3.37319E-05-5.17349E-07 2.16807E-19-2.40745E-18
 -1      1766 8.51577E-05-6.55539E-06-3.37334E-05-1.72657E-06 6.65742E-20-2.45820E-18
 -1      1767 8.66194E-05-8.77337E-06-3.33949E-05-2.21663E-06-2.02738E-20-2.36676E-18
 -1      1768 8.51676E-05-6.56445E-06-3.37336E-05 1.84447E-06 5.03453E-19-2.27693E-18
 -1      1769 8.51256E-05-6.53146E-06-3.37319E-05 6.34237E-07 3.82220E-19-2.35496E-18
 -1      1770 8.65211E-05-8.65985E-06-3.34014E-05 6.53005E-08 3.07568E-19-2.28069E-18
 -1      1771 8.53996E-05-6.79492E-06-3.37348E-05 4.24959E-06 7.80042E-19-2.27562E-18
 -1      1772 8.52711E-05-6.69411E-06-3.37286E-05 3.00714E-06 6.70773E-19-2.29932E-18
 -1      1773 8.66372E-05-8.79307E-06-3.33942E-05 2.34847E-06 5.75651E-19-2.21833E-18
 -1      1774 8.58581E-05-7.24857E-06-3.37407E-05 6.71002E-06 1.01028E-18-2.05644E-18
 -1      1775 8.56192E-05-7.06613E-06-3.37256E-05 5.42315E-06 8.95969E-19-2.22701E-18
 -1      1776 8.69864E-05-9.19036E-06-3.33737E-05 4.65100E-06 9.18433E-19-2.16615E-18
 -1      1777 8.66738E-05-8.03917E-06-3.37621E-05 9.37103E-06 1.42841E-18-1.61365E-18
 -1      1778 8.62517E-05-7.72225E-06-3.37280E-05 7.95044E-06 1.19631E-18-1.83009E-18
 -1      1779 8.76405E-05-9.92362E-06-3.33399E-05 7.02528E-06 1.21255E-18-1.87393E-18
 -1      1780 8.80891E-05-9.38786E-06-3.38182E-05 1.22497E-05 1.74302E-18-1.13667E-18
 -1      1781 8.73476E-05-8.82957E-06-3.37458E-05 1.06568E-05 1.57488E-18-1.44227E-18
 -1      1782 8.87644E-05-1.11595E-05-3.32900E-05 9.49892E-06 1.65078E-18-1.42271E-18
 -1      1783 9.06361E-05-1.18411E-05-3.39291E-05 1.52980E-05 1.89194E-18-9.13207E-20
 -1      1784 8.92542E-05-1.07413E-05-3.37889E-05 1.35083E-05 1.78985E-18-7.21116E-19
 -1      1785 9.06650E-05-1.32232E-05-3.32079E-05 1.19706E-05 1.86711E-18-8.35373E-19
 -1      1786 9.58837E-05-1.70368E-05-3.39954E-05 1.76863E-05 1.79964E-18 1.81609E-18
 -1      1787 9.28628E-05-1.43450E-05-3.38289E-05 1.61892E-05 1.79335E-18 6.89114E-19
 -1      1788 9.39755E-05-1.68886E-05-3.30260E-05 1.38896E-05 1.94064E-18 3.54245E-19
 -1      1789 1.01934E-04-2.50974E-05-3.33619E-05 1.44192E-05 1.55949E-18 3.91986E-18
 -1      1790 9.80850E-05-1.96193E-05-3.36277E-05 1.69604E-05 1.68515E-18 2.56524E-18
 -1      1791 9.73377E-05-2.18569E-05-3.24301E-05 1.32441E-05 1.84314E-18 1.82038E-18
 -1      1792 9.87623E-05-2.61385E-05-3.13454E-05 9.43152E-06 1.53308E-18 3.46042E-18
 -1      1793 1.00164E-04-1.95659E-05-3.42205E-05-1.88657E-05-1.55138E-18 1.61942E-18
 -1      1794 9.53230E-05-2.72892E-05-2.91889E-05 4.06335E-06 1.16908E-18 2.75728E-18
 -1      1795 9.77524E-05-2.73941E-05-3.01976E-05 6.39748E-06 1.24159E-18 3.18948E-18
 -1      1796 9.75864E-05-2.56179E-05-3.08357E-05 8.75578E-06 1.49149E-18 2.17138E-18
 -1      1797 7.54863E-05-5.23503E-05-1.12010E-05-3.96503E-05-2.74439E-19-5.15282E-18
 -1      1798 1.00352E-04-5.04001E-05-2.14123E-05-4.51676E-05 5.73865E-19-5.80323E-18
 -1      1799 9.98238E-05-2.25447E-05-3.28386E-05-1.44636E-05-1.61474E-18 1.01633E-18
 -1      1800 9.69701E-05-2.69819E-05-2.98804E-05-5.70130E-06-1.23262E-18 8.12520E-19
 -1      1801 9.51630E-05-2.70370E-05-2.91701E-05-3.89440E-06-1.18614E-18 4.74193E-19
 -1      1802 9.43444E-05-2.72384E-05-2.86627E-05-2.41724E-06-1.08911E-18 5.57771E-19
 -1      1803 9.35744E-05-2.73199E-05-2.83579E-05-1.56381E-06-8.26248E-19 3.61971E-19
 -1      1804 9.55156E-05-2.65481E-05-2.95786E-05-4.46854E-06-1.25743E-18-1.37838E-19
 -1      1805 9.30499E-05-2.73709E-05-2.80892E-05-7.37645E-07-6.16584E-19 3.11625E-19
 -1      1806 9.27494E-05-2.74347E-05-2.79674E-05-2.99575E-07-5.02347E-19 1.59441E-19
 -1      1807 9.43077E-05-2.72250E-05-2.87702E-05-1.82400E-06-8.70561E-19-1.77970E-19
 -1      1808 9.24738E-05-2.74620E-05-2.78315E-05 1.55310E-07-5.68092E-19 1.10920E-19
 -1      1809 9.24431E-05-2.75383E-05-2.78018E-05 3.79044E-07-5.19006E-19-1.61557E-19
 -1      1810 9.36066E-05-2.75310E-05-2.83345E-05-3.59089E-07-6.19141E-19-4.60348E-19
 -1      1811 9.23397E-05-2.75697E-05-2.77436E-05 6.18339E-07-5.57454E-19-2.52782E-19
 -1      1812 9.24549E-05-2.76550E-05-2.77628E-05 7.21830E-07-4.92163E-19-4.54183E-19
 -1      1813 9.32856E-05-2.77156E-05-2.81136E-05 4.42494E-07-6.48702E-19-6.45643E-19
 -1      1814 9.24600E-05-2.76930E-05-2.77508E-05 8.32148E-07-5.53408E-19-4.65943E-19
 -1      1815 9.26477E-05-2.77798E-05-2.77954E-05 8.65152E-07-4.90724E-19-5.62018E-19
 -1      1816 9.32218E-05-2.78587E-05-2.80210E-05 8.52477E-07-6.51735E-19-7.39743E-19
 -1      1817 9.27157E-05-2.78212E-05-2.78100E-05 8.97501E-07-4.40473E-19-5.76589E-19
 -1      1818 9.29314E-05-2.79039E-05-2.78660E-05 8.89092E-07-2.85988E-19-4.59615E-19
 -1      1819 9.33157E-05-2.79823E-05-2.80051E-05 1.02591E-06-4.96843E-19-5.91391E-19
 -1      1820 9.30315E-05-2.79453E-05-2.78948E-05 8.75140E-07-3.72969E-19-3.53388E-19
 -1      1821 9.32487E-05-2.80203E-05-2.79536E-05 8.43429E-07-1.77137E-19-2.77639E-19
 -1      1822 9.34963E-05-2.80914E-05-2.80334E-05 1.05645E-06-1.88541E-19-4.91245E-19
 -1      1823 9.33609E-05-2.80590E-05-2.79885E-05 8.03516E-07-3.37550E-19-6.05887E-19
 -1      1824 9.35643E-05-2.81246E-05-2.80450E-05 7.60137E-07-3.34173E-19-8.22201E-19
 -1      1825 9.37158E-05-2.81865E-05-2.80852E-05 1.00324E-06-4.57132E-19-8.39041E-19
 -1      1826 9.36760E-05-2.81592E-05-2.80813E-05 7.07523E-07-9.78021E-20-1.08047E-18
 -1      1827 9.38576E-05-2.82148E-05-2.81326E-05 6.59989E-07 1.18029E-19-1.17276E-18
 -1      1828 9.39436E-05-2.82675E-05-2.81471E-05 9.04659E-07-3.61876E-19-1.02818E-18
 -1      1829 9.39616E-05-2.82446E-05-2.81673E-05 6.03295E-07 4.25704E-20-1.11993E-18
 -1      1830 9.41181E-05-2.82905E-05-2.82122E-05 5.56387E-07-2.29675E-19-1.05731E-18
 -1      1831 9.41609E-05-2.83349E-05-2.82108E-05 7.85767E-07 3.42875E-20-8.13786E-19
 -1      1832 9.42107E-05-2.83155E-05-2.82436E-05 5.01119E-07-2.38998E-19-9.10017E-19
 -1      1833 9.43420E-05-2.83524E-05-2.82817E-05 4.57789E-07-1.04412E-19-8.29873E-19
 -1      1834 9.43577E-05-2.83894E-05-2.82715E-05 6.62815E-07-1.59414E-19-7.70747E-19
 -1      1835 9.44220E-05-2.83728E-05-2.83093E-05 4.07366E-07-6.55065E-20-7.80762E-19
 -1      1836 9.45298E-05-2.84019E-05-2.83410E-05 3.69359E-07-4.54422E-20-6.02851E-19
 -1      1837 9.45297E-05-2.84326E-05-2.83266E-05 5.46119E-07-7.30136E-20-5.08341E-19
 -1      1838 9.45976E-05-2.84182E-05-2.83648E-05 3.25838E-07-2.81413E-19-1.02081E-18
 -1      1839 9.46850E-05-2.84408E-05-2.83908E-05 2.94148E-07-1.32160E-19-8.64099E-19
 -1      1840 9.46763E-05-2.84658E-05-2.83751E-05 4.42058E-07-3.83626E-19-7.94301E-19
 -1      1841 9.47421E-05-2.84536E-05-2.84111E-05 2.58763E-07-2.99875E-19-9.87494E-19
 -1      1842 9.48127E-05-2.84709E-05-2.84325E-05 2.33968E-07-4.23048E-19-1.02064E-18
 -1      1843 9.47996E-05-2.84908E-05-2.84174E-05 3.54501E-07-5.87921E-19-1.14276E-18
 -1      1844 9.48614E-05-2.84810E-05-2.84501E-05 2.07537E-07-4.57324E-19-1.05398E-18
 -1      1845 9.49196E-05-2.84943E-05-2.84680E-05 1.90065E-07-4.94251E-19-1.28494E-18
 -1      1846 9.49035E-05-2.85092E-05-2.84542E-05 2.85885E-07-5.39145E-19-8.56204E-19
 -1      1847 9.49626E-05-2.85026E-05-2.84839E-05 1.73296E-07-4.85003E-19-1.39415E-18
 -1      1848 9.50131E-05-2.85131E-05-2.84996E-05 1.63628E-07-6.14451E-19-1.40744E-18
 -1      1849 9.49932E-05-2.85226E-05-2.84872E-05 2.38026E-07-5.62572E-19-5.80049E-19
 -1      1850 9.50538E-05-2.85203E-05-2.85149E-05 1.57379E-07-7.32302E-19-1.32718E-18
 -1      1851 9.51016E-05-2.85296E-05-2.85301E-05 1.56219E-07-3.44069E-19-1.58235E-18
 -1      1852 9.50746E-05-2.85325E-05-2.85181E-05 2.12758E-07-5.78820E-19-7.83206E-19
 -1      1853 9.51438E-05-2.85367E-05-2.85461E-05 1.61697E-07 4.50639E-20-1.91592E-18
 -1      1854 9.51950E-05-2.85463E-05-2.85624E-05 1.70119E-07 3.81367E-19-2.19701E-18
 -1      1855 9.51549E-05-2.85405E-05-2.85494E-05 2.12450E-07-4.37108E-19-8.99271E-19
 -1      1856 9.52431E-05-2.85542E-05-2.85807E-05 1.89069E-07 5.66581E-19-2.60720E-18
 -1      1857 9.53042E-05-2.85657E-05-2.86002E-05 2.08654E-07 5.76731E-20-2.54349E-18
 -1      1858 9.52421E-05-2.85483E-05-2.85838E-05 2.40449E-07 2.04306E-19-1.92507E-18
 -1      1859 9.53633E-05-2.85756E-05-2.86226E-05 2.43525E-07 3.78692E-20-2.11921E-18
 -1      1860 9.54425E-05-2.85910E-05-2.86476E-05 2.76497E-07 3.28402E-19-2.02476E-18
 -1      1861 9.53458E-05-2.85576E-05-2.86247E-05 3.01467E-07 1.76214E-19-2.25121E-18
 -1      1862 9.55187E-05-2.86043E-05-2.86764E-05 3.30616E-07 4.24764E-19-1.69296E-18
 -1      1863 9.56254E-05-2.86260E-05-2.87098E-05 3.79989E-07 6.47515E-19-1.41386E-18
 -1      1864 9.54767E-05-2.85705E-05-2.86758E-05 4.01965E-07 4.51606E-19-1.37672E-18
 -1      1865 9.57258E-05-2.86442E-05-2.87475E-05 4.57736E-07 5.00465E-19-1.57672E-18
 -1      1866 9.58718E-05-2.86752E-05-2.87928E-05 5.27472E-07 4.05990E-19-1.17368E-18
 -1      1867 9.56481E-05-2.85893E-05-2.87418E-05 5.50526E-07 6.92040E-19-1.76455E-18
 -1      1868 9.60049E-05-2.87001E-05-2.88426E-05 6.34457E-07 3.08894E-19-1.30758E-18
 -1      1869 9.62046E-05-2.87441E-05-2.89041E-05 7.29633E-07 4.01431E-21-1.39310E-18
 -1      1870 9.58752E-05-2.86166E-05-2.88281E-05 7.58239E-07 5.53555E-19-1.73005E-18
 -1      1871 9.63803E-05-2.87778E-05-2.89695E-05 8.72865E-07 1.39025E-19-1.77021E-18
 -1      1872 9.66514E-05-2.88393E-05-2.90524E-05 9.99830E-07 2.04898E-19-1.49686E-18
 -1      1873 9.61762E-05-2.86559E-05-2.89411E-05 1.03905E-06 8.19728E-20-2.18080E-18
 -1      1874 9.68814E-05-2.88845E-05-2.91379E-05 1.18782E-06 6.53407E-20-1.33258E-18
 -1      1875 9.72455E-05-2.89693E-05-2.92484E-05 1.35427E-06 3.76332E-19-1.47983E-18
 -1      1876 9.65725E-05-2.87109E-05-2.90882E-05 1.41004E-06 4.54004E-19-1.63265E-18
 -1      1877 9.75430E-05-2.90290E-05-2.93589E-05 1.59693E-06 4.56808E-19-1.32446E-18
 -1      1878 9.80262E-05-2.91442E-05-2.95046E-05 1.81177E-06 2.39034E-19-1.32811E-18
 -1      1879 9.70886E-05-2.87868E-05-2.92778E-05 1.89138E-06 4.81921E-19-1.27604E-18
 -1      1880 9.84058E-05-2.92223E-05-2.96452E-05 2.11991E-06-9.22852E-20-1.84628E-18
 -1      1881 9.90387E-05-2.93773E-05-2.98348E-05 2.39258E-06-8.47534E-19-1.76808E-18
 -1      1882 9.77524E-05-2.88900E-05-2.95191E-05 2.50559E-06-3.31604E-19-1.54081E-18
 -1      1883 9.95163E-05-2.94787E-05-3.00110E-05 2.77641E-06-1.35240E-18-1.15468E-18
 -1      1884 1.00333E-04-2.96855E-05-3.02536E-05 3.11502E-06-1.06304E-18-1.07085E-18
 -1      1885 9.85950E-05-2.90300E-05-2.98211E-05 3.27533E-06-6.14600E-19-1.61683E-18
 -1      1886 1.00926E-04-2.98178E-05-3.04698E-05 3.58087E-06-8.57859E-19-7.96649E-19
 -1      1887 1.01963E-04-3.00921E-05-3.07745E-05 3.98796E-06-2.49605E-19-8.47763E-19
 -1      1888 9.96501E-05-2.92222E-05-3.01917E-05 4.21805E-06-8.10579E-19-2.28315E-19
 -1      1889 1.02687E-04-3.02678E-05-3.10326E-05 4.53137E-06 2.64896E-20-4.97456E-19
 -1      1890 1.03976E-04-3.06310E-05-3.14054E-05 4.99535E-06 1.63734E-19-3.08632E-19
 -1      1891 1.00953E-04-2.94938E-05-3.06346E-05 5.33504E-06-1.64440E-19 7.60641E-19
 -1      1892 1.04850E-04-3.08720E-05-3.17023E-05 5.58809E-06-3.27281E-19-4.32384E-19
 -1      1893 1.06407E-04-3.13531E-05-3.21418E-05 6.06701E-06 5.50866E-19-1.95845E-19
 -1      1894 1.02545E-04-2.98946E-05-3.11457E-05 6.59012E-06 1.46436E-19 2.69954E-19
 -1      1895 1.07453E-04-3.16994E-05-3.24656E-05 6.63430E-06 6.33696E-19-8.06372E-19
 -1      1896 1.09258E-04-3.23372E-05-3.29552E-05 7.02864E-06 3.60611E-19-1.03455E-18
 -1      1897 1.04472E-04-3.05162E-05-3.17067E-05 7.87205E-06 5.40488E-20 5.64233E-19
 -1      1898 1.10509E-04-3.28574E-05-3.32810E-05 7.41329E-06 5.66309E-19-7.89110E-19
 -1      1899 1.12471E-04-3.36962E-05-3.37777E-05 7.52736E-06 3.44309E-19-5.25478E-19
 -1      1900 1.06800E-04-3.15180E-05-3.22786E-05 8.93347E-06 4.10084E-19 1.27100E-19
 -1      1901 1.13978E-04-3.44938E-05-3.40656E-05 7.44240E-06 6.65113E-19 3.98436E-20
 -1      1902 1.15885E-04-3.55600E-05-3.44886E-05 6.94792E-06 1.01373E-18-1.87340E-19
 -1      1903 1.09628E-04-3.31483E-05-3.27986E-05 9.30535E-06 8.02071E-19 1.71468E-19
 -1      1904 1.17705E-04-3.67454E-05-3.46911E-05 5.93904E-06 7.37349E-19-4.79897E-19
 -1      1905 1.19158E-04-3.79686E-05-3.49209E-05 4.39018E-06 8.32435E-19 1.10372E-19
 -1      1906 1.13080E-04-3.57076E-05-3.31905E-05 8.20875E-06 8.61969E-19 1.33049E-18
 -1      1907 1.21259E-04-3.95316E-05-3.50083E-05 1.89131E-06 5.45820E-19-1.89391E-20
 -1      1908 1.21626E-04-4.05810E-05-3.49154E-05-1.09484E-06 1.16467E-20 3.89178E-19
 -1      1909 1.17190E-04-3.93213E-05-3.34083E-05 4.55739E-06 8.03748E-19 3.68062E-20
 -1      1910 1.23659E-04-4.21211E-05-3.49272E-05-5.46330E-06 3.02430E-19 1.32530E-18
 -1      1911 1.22131E-04-4.21884E-05-3.44512E-05-9.74224E-06 1.31454E-18 1.30607E-18
 -1      1912 1.21574E-04-4.34016E-05-3.35234E-05-2.70218E-06 1.02901E-18 1.14984E-18
 -1      1913 1.23067E-04-4.25632E-05-3.45448E-05-1.53809E-05 1.09929E-18 1.09936E-18
 -1      1914 1.19048E-04-4.04949E-05-3.37820E-05-1.95692E-05 9.53746E-19 1.24216E-18
 -1      1915 1.24768E-04-4.57607E-05-3.38374E-05-1.35727E-05 8.41064E-19 1.10733E-18
 -1      1916 1.17500E-04-3.82787E-05-3.41266E-05-2.39168E-05 6.70337E-19 7.35066E-19
 -1      1917 1.11433E-04-3.37389E-05-3.33069E-05-2.53032E-05 1.25514E-18 1.60140E-18
 -1      1918 1.24120E-04-4.29027E-05-3.47911E-05-2.49382E-05 9.46023E-19 9.56598E-19
 -1      1919 1.07410E-04-2.91924E-05-3.38011E-05-2.44758E-05 2.12547E-18 6.02452E-19
 -1      1920 1.01569E-04-2.43788E-05-3.30926E-05-2.09096E-05 6.44592E-19 8.15494E-19
 -1      1921 1.17924E-04-3.32290E-05-3.64031E-05-2.96450E-05 9.03308E-19 1.04143E-18
 -1      1922 9.81333E-05-2.10921E-05-3.32179E-05-1.38551E-05-5.28284E-19 1.80235E-18
 -1      1923 9.54044E-05-1.96533E-05-3.26278E-05-6.99707E-06-1.04185E-19 2.59225E-18
 -1      1924 1.09581E-04-2.23032E-05-3.77316E-05-2.11594E-05 1.06387E-18 1.59936E-18
 -1      1925 9.53769E-05-2.07698E-05-3.19885E-05 1.34462E-06-7.96211E-20 1.92503E-18
 -1      1926 9.63806E-05-2.33615E-05-3.15558E-05 6.66562E-06-6.91391E-19 1.92587E-18
 -1      1927 1.05900E-04-1.94664E-05-3.74086E-05-3.58108E-06-6.54756E-19 2.08710E-18
 -1      1928 9.80813E-05-2.68824E-05-3.04610E-05 1.02417E-05-2.37280E-18 8.13588E-19
 -1      1929 1.00531E-04-3.02091E-05-3.03051E-05 1.12458E-05-1.99486E-18 3.16473E-19
 -1      1930 1.08280E-04-2.63892E-05-3.52819E-05 9.63938E-06-1.94203E-18-2.61323E-19
 -1      1931 1.00398E-04-3.19670E-05-2.93707E-05 9.73819E-06-1.01394E-18 4.00408E-19
 -1      1932 1.01942E-04-3.32658E-05-2.94442E-05 7.95256E-06-2.82565E-21 5.93672E-19
 -1      1933 1.10466E-04-3.43704E-05-3.26423E-05 1.10346E-05-1.56701E-18-4.26560E-20
 -1      1934 9.94326E-05-3.23314E-05-2.88846E-05 5.45209E-06 7.49915E-19 1.02832E-18
 -1      1935 9.96454E-05-3.18434E-05-2.89667E-05 3.62825E-06 9.14954E-19 1.22193E-18
 -1      1936 1.02082E-04-3.28242E-05-2.95554E-05 1.81257E-06 1.09842E-18 1.10051E-18
 -1      1937 1.07829E-04-3.61210E-05-3.07036E-05 5.89006E-06 4.97698E-19 1.51544E-18
 -1      1938 9.32255E-05-2.73667E-05-2.81973E-05 1.60160E-06 9.96720E-19 2.23901E-18
 -1      1939 9.44189E-05-2.74717E-05-2.86335E-05 2.67271E-06 1.00425E-18 2.59068E-18
 -1      1940 9.52414E-05-2.70504E-05-2.92302E-05 4.04961E-06 1.19841E-18 1.80970E-18
 -1      1941 9.21754E-05-2.73537E-05-2.77562E-05 3.44723E-07 1.06315E-18 1.69466E-18
 -1      1942 9.26686E-05-2.73856E-05-2.79282E-05 8.92916E-07 9.68265E-19 2.03236E-18
 -1      1943 9.36387E-05-2.73720E-05-2.84069E-05 1.58076E-06 1.19654E-18 1.55425E-18
 -1      1944 9.18019E-05-2.73919E-05-2.75886E-05-3.08691E-07 6.33260E-19 1.19639E-18
 -1      1945 9.19158E-05-2.73648E-05-2.76352E-05-1.61185E-08 7.88267E-19 1.46325E-18
 -1      1946 9.28091E-05-2.74876E-05-2.80050E-05 2.67958E-07 1.05197E-18 1.09174E-18
 -1      1947 9.18273E-05-2.74831E-05-2.75660E-05-6.34204E-07 2.90163E-19 7.83512E-19
 -1      1948 9.17384E-05-2.74207E-05-2.75493E-05-4.81447E-07 5.17285E-19 1.12859E-18
 -1      1949 9.24966E-05-2.75810E-05-2.78310E-05-4.25453E-07 6.19080E-19 7.17619E-19
 -1      1950 9.20729E-05-2.76056E-05-2.76218E-05-7.71326E-07 3.83880E-19 8.16765E-19
 -1      1951 9.18812E-05-2.75265E-05-2.75730E-05-7.00309E-07 2.46311E-19 7.79025E-19
 -1      1952 9.25011E-05-2.76867E-05-2.77858E-05-7.69864E-07 3.63840E-19 5.14343E-19
 -1      1953 9.24264E-05-2.77401E-05-2.77176E-05-7.97576E-07 3.97200E-19 6.36954E-19
 -1      1954 9.21906E-05-2.76565E-05-2.76541E-05-7.75714E-07 4.28162E-19 7.86453E-19
 -1      1955 9.26863E-05-2.78023E-05-2.78134E-05-9.09699E-07 4.39280E-19 4.24940E-19
 -1      1956 9.28182E-05-2.78734E-05-2.78297E-05-7.59532E-07 5.04108E-19 2.03595E-19
 -1      1957 9.25732E-05-2.77927E-05-2.77621E-05-7.66997E-07 4.52241E-19 4.79521E-19
 -1      1958 9.29630E-05-2.79194E-05-2.78800E-05-9.28302E-07 5.31095E-19 3.60876E-19
 -1      1959 9.32057E-05-2.79972E-05-2.79437E-05-6.86587E-07-1.83013E-20 3.24056E-19
 -1      1960 9.29720E-05-2.79235E-05-2.78783E-05-7.10691E-07 1.86984E-19 3.69381E-19
 -1      1961 9.32740E-05-2.80305E-05-2.79643E-05-8.76825E-07 1.48054E-19 5.63477E-19
 -1      1962 9.35647E-05-2.81072E-05-2.80512E-05-5.97679E-07 5.58990E-19 4.52579E-19
 -1      1963 9.33533E-05-2.80426E-05-2.79914E-05-6.30122E-07 2.88015E-19 2.85760E-19
 -1      1964 9.35843E-05-2.81311E-05-2.80531E-05-7.87891E-07 3.38893E-19 2.45297E-19
 -1      1965 9.38829E-05-2.82016E-05-2.81477E-05-5.04989E-07 5.71388E-19 3.43069E-20
 -1      1966 9.36988E-05-2.81467E-05-2.80952E-05-5.40339E-07 5.54140E-19 1.88166E-19
 -1      1967 9.38733E-05-2.82187E-05-2.81387E-05-6.82610E-07 7.56856E-19-3.95909E-22
 -1      1968 9.41556E-05-2.82803E-05-2.82313E-05-4.16192E-07 8.12120E-19-7.11065E-19
 -1      1969 9.40000E-05-2.82349E-05-2.81866E-05-4.50951E-07 7.52292E-19-3.85122E-19
 -1      1970 9.41305E-05-2.82927E-05-2.82168E-05-5.74564E-07 1.01572E-18-3.97530E-19
 -1      1971 9.43836E-05-2.83444E-05-2.83018E-05-3.35956E-07-1.26336E-19-1.11863E-18
 -1      1972 9.42551E-05-2.83077E-05-2.82647E-05-3.67925E-07 3.15303E-19-9.08427E-19
 -1      1973 9.43519E-05-2.83535E-05-2.82853E-05-4.72310E-07 5.91212E-19-9.13855E-19
 -1      1974 9.45707E-05-2.83956E-05-2.83603E-05-2.66993E-07-3.39907E-19-4.12986E-19
 -1      1975 9.44665E-05-2.83666E-05-2.83299E-05-2.94828E-07-2.31474E-19-7.68720E-19
 -1      1976 9.45381E-05-2.84025E-05-2.83439E-05-3.81071E-07-2.52367E-19-9.43996E-19
 -1      1977 9.47230E-05-2.84361E-05-2.84083E-05-2.10835E-07-3.51888E-19-4.03137E-19
 -1      1978 9.46392E-05-2.84133E-05-2.83837E-05-2.33711E-07-1.98472E-19-4.25754E-19
 -1      1979 9.46924E-05-2.84411E-05-2.83934E-05-3.03934E-07-2.31565E-19-3.61974E-19
 -1      1980 9.48475E-05-2.84680E-05-2.84481E-05-1.68410E-07 4.67054E-19-3.83869E-19
 -1      1981 9.47799E-05-2.84501E-05-2.84279E-05-1.85771E-07 4.07734E-20-4.49271E-19
 -1      1982 9.48199E-05-2.84714E-05-2.84351E-05-2.42746E-07 2.01347E-19 5.62822E-20
 -1      1983 9.49527E-05-2.84938E-05-2.84820E-05-1.40487E-07 4.31526E-19-5.72412E-19
 -1      1984 9.48963E-05-2.84794E-05-2.84650E-05-1.51848E-07 6.45295E-19-1.85796E-19
 -1      1985 9.49271E-05-2.84952E-05-2.84708E-05-1.98770E-07 4.94371E-19-5.90359E-20
 -1      1986 9.50475E-05-2.85161E-05-2.85129E-05-1.27994E-07-3.64385E-19-8.15944E-19
 -1      1987 9.49972E-05-2.85036E-05-2.84975E-05-1.32794E-07-2.98089E-19-9.04245E-19
 -1      1988 9.50213E-05-2.85147E-05-2.85030E-05-1.73190E-07 8.74819E-20-4.64217E-19
 -1      1989 9.51418E-05-2.85378E-05-2.85439E-05-1.32263E-07-2.13723E-19-4.58624E-19
 -1      1990 9.50921E-05-2.85256E-05-2.85285E-05-1.29754E-07-1.33192E-19-3.65028E-19
 -1      1991 9.51109E-05-2.85321E-05-2.85340E-05-1.67476E-07-3.33656E-19-4.54401E-19
 -1      1992 9.52470E-05-2.85618E-05-2.85784E-05-1.55177E-07-1.83665E-19-8.29178E-19
 -1      1993 9.51914E-05-2.85480E-05-2.85610E-05-1.44346E-07-2.77814E-19-6.30752E-19
 -1      1994 9.52051E-05-2.85500E-05-2.85669E-05-1.83632E-07-1.29537E-19-5.90315E-19
 -1      1995 9.53753E-05-2.85917E-05-2.86203E-05-1.99231E-07 1.62793E-19-8.10221E-19
 -1      1996 9.53070E-05-2.85743E-05-2.85988E-05-1.78766E-07 7.60262E-21-8.44022E-19
 -1      1997 9.53142E-05-2.85709E-05-2.86050E-05-2.24345E-07 2.63923E-20-7.24997E-19
 -1      1998 9.55411E-05-2.86315E-05-2.86738E-05-2.67475E-07 4.84525E-20-1.50119E-18
 -1      1999 9.54519E-05-2.86082E-05-2.86460E-05-2.35781E-07 3.35840E-19-1.07883E-18
 -1      2000 9.54500E-05-2.85981E-05-2.86518E-05-2.92983E-07 4.19204E-19-1.03855E-18
 -1      2001 9.57603E-05-2.86860E-05-2.87438E-05-3.63287E-07-1.06082E-19-1.93833E-18
 -1      2002 9.56413E-05-2.86540E-05-2.87071E-05-3.18579E-07-3.96459E-19-2.02712E-18
 -1      2003 9.56257E-05-2.86354E-05-2.87115E-05-3.93439E-07 1.95585E-20-1.63227E-18
 -1      2004 9.60508E-05-2.87606E-05-2.88357E-05-4.89907E-07-1.51334E-19-1.56919E-18
 -1      2005 9.58919E-05-2.87167E-05-2.87871E-05-4.30414E-07 2.26598E-20-1.62264E-18
 -1      2006 9.58561E-05-2.86872E-05-2.87885E-05-5.29711E-07-5.91186E-20-1.11596E-18
 -1      2007 9.64316E-05-2.88617E-05-2.89550E-05-6.49612E-07-3.44805E-19-5.09654E-19
 -1      2008 9.62221E-05-2.88023E-05-2.88914E-05-5.73957E-07-4.42031E-19-1.46127E-18
 -1      2009 9.61574E-05-2.87589E-05-2.88874E-05-7.05131E-07-4.44720E-19-1.04713E-18
 -1      2010 9.69223E-05-2.89963E-05-2.91071E-05-8.42380E-07-8.80004E-20 5.57061E-19
 -1      2011 9.66511E-05-2.89175E-05-2.90254E-05-7.50201E-07 5.16554E-20 6.04340E-20
 -1      2012 9.65467E-05-2.88567E-05-2.90128E-05-9.21079E-07-2.60030E-19 9.49886E-19
 -1      2013 9.75403E-05-2.91718E-05-2.92964E-05-1.06385E-06-7.83280E-19-6.45201E-20
 -1      2014 9.71979E-05-2.90697E-05-2.91942E-05-9.56778E-07-5.01185E-19 2.32356E-19
 -1      2015 9.70404E-05-2.89881E-05-2.91687E-05-1.17498E-06-1.14971E-19 7.57690E-19
 -1      2016 9.82978E-05-2.93953E-05-2.95254E-05-1.30237E-06 5.67684E-19-4.46341E-19
 -1      2017 9.78778E-05-2.92665E-05-2.94013E-05-1.18546E-06-2.89009E-19-1.22738E-19
 -1      2018 9.76529E-05-2.91614E-05-2.93574E-05-1.45736E-06-1.77530E-20-4.23756E-20
 -1      2019 9.91967E-05-2.96729E-05-2.97925E-05-1.53493E-06 3.95490E-19 5.21488E-20
 -1      2020 9.86993E-05-2.95151E-05-2.96472E-05-1.41866E-06 8.87900E-19-2.92884E-19
 -1      2021 9.83924E-05-2.93854E-05-2.95787E-05-1.74772E-06 6.57199E-19-1.41412E-19
 -1      2022 1.00220E-04-3.00072E-05-3.00899E-05-1.72214E-06-4.75452E-19-5.09121E-19
 -1      2023 9.96571E-05-2.98209E-05-2.99278E-05-1.62498E-06-2.01130E-19 2.42600E-19
 -1      2024 9.92570E-05-2.96690E-05-2.98278E-05-2.00921E-06-1.02062E-19 1.22982E-19
 -1      2025 1.01324E-04-3.03947E-05-3.04004E-05-1.80272E-06-6.30088E-19-8.65381E-19
 -1      2026 1.00724E-04-3.01851E-05-3.02312E-05-1.75397E-06-4.23384E-19-6.10615E-19
 -1      2027 1.00227E-04-3.00188E-05-3.00933E-05-2.18242E-06-2.73617E-20-3.10050E-19
 -1      2028 1.02423E-04-3.08206E-05-3.06939E-05-1.68950E-06-6.30869E-19 1.46844E-19
 -1      2029 1.01841E-04-3.06005E-05-3.05348E-05-1.73153E-06-7.77697E-19-7.02319E-19
 -1      2030 1.01258E-04-3.04366E-05-3.03548E-05-2.17978E-06-1.01202E-18-5.96403E-19
 -1      2031 1.03378E-04-3.12523E-05-3.09251E-05-1.27069E-06 3.90391E-19-3.71194E-19
 -1      2032 1.02900E-04-3.10460E-05-3.08023E-05-1.45868E-06-2.52889E-19 3.99439E-19
 -1      2033 1.02267E-04-3.09122E-05-3.05809E-05-1.88349E-06-1.44510E-19 1.12536E-19
 -1      2034 1.03988E-04-3.16290E-05-3.10329E-05-4.23554E-07 1.55115E-18-1.07462E-18
 -1      2035 1.03737E-04-3.14767E-05-3.09821E-05-8.19126E-07 8.58518E-19-6.43285E-19
 -1      2036 1.03124E-04-3.14138E-05-3.07291E-05-1.15338E-06 1.33741E-18-1.12313E-18
 -1      2037 1.03992E-04-3.18513E-05-3.09454E-05 9.49973E-07 1.19706E-18-1.21867E-18
 -1      2038 1.04121E-04-3.18125E-05-3.10088E-05 2.96105E-07 1.71983E-18-4.44699E-19
 -1      2039 1.03642E-04-3.18716E-05-3.07483E-05 1.46067E-07 1.62212E-18 6.71138E-19
 -1      2040 1.03090E-04-3.17754E-05-3.05937E-05 2.85683E-06-9.28064E-19-8.75718E-19
 -1      2041 1.03765E-04-3.19273E-05-3.08123E-05 1.93776E-06-6.90279E-19-1.27977E-18
 -1      2042 1.03575E-04-3.21599E-05-3.05873E-05 2.08834E-06-4.03502E-19 4.97130E-19
 -1      2043 1.01014E-04-3.12259E-05-2.99345E-05 5.11982E-06 4.21002E-20 4.41695E-19
 -1      2044 1.02365E-04-3.16497E-05-3.03339E-05 4.01878E-06-4.95792E-19-1.44055E-19
 -1      2045 1.02644E-04-3.20892E-05-3.02086E-05 4.59230E-06-1.20702E-18 3.65432E-19
 -1      2046 9.76393E-05-3.00512E-05-2.89792E-05 7.29678E-06-9.35786E-19 1.17727E-18
 -1      2047 9.96954E-05-3.07984E-05-2.95516E-05 6.22664E-06-5.52590E-19 6.56861E-19
 -1      2048 1.00604E-04-3.14346E-05-2.96069E-05 7.31387E-06-7.53191E-19 1.11221E-18
 -1      2049 9.31459E-05-2.82296E-05-2.78187E-05 8.69370E-06-7.84295E-19 2.02735E-18
 -1      2050 9.57536E-05-2.92700E-05-2.85080E-05 7.98841E-06-1.02804E-18 1.09376E-18
 -1      2051 9.73738E-05-3.00274E-05-2.88256E-05 9.58981E-06-1.35451E-18 1.22723E-18
 -1      2052 8.81428E-05-2.59911E-05-2.66232E-05 8.55945E-06 8.51088E-19 1.06754E-18
 -1      2053 9.09250E-05-2.71660E-05-2.73243E-05 8.57714E-06 2.94215E-19 1.58492E-18
 -1      2054 9.32107E-05-2.79115E-05-2.79612E-05 1.05389E-05 2.73231E-19 9.72546E-19
 -1      2055 8.36510E-05-2.38665E-05-2.56083E-05 6.47446E-06-6.93773E-19 1.87060E-18
 -1      2056 8.60489E-05-2.48930E-05-2.61880E-05 7.40614E-06 2.48022E-19 1.83010E-18
 -1      2057 8.88165E-05-2.54819E-05-2.71450E-05 9.39305E-06 1.76950E-20 2.39217E-18
 -1      2058 8.07975E-05-2.25078E-05-2.49742E-05 2.72117E-06 3.06355E-19 9.82548E-19
 -1      2059 8.22377E-05-2.30842E-05-2.53099E-05 4.42595E-06-5.29329E-19 1.01989E-18
 -1      2060 8.52241E-05-2.34309E-05-2.65095E-05 5.99033E-06 1.33447E-19 1.83569E-18
 -1      2061 8.03166E-05-2.23492E-05-2.48416E-05-1.71279E-06 1.32231E-18 5.59776E-19
 -1      2062 8.04414E-05-2.23042E-05-2.48629E-05 3.09053E-07 1.24056E-18 1.49416E-18
 -1      2063 8.33788E-05-2.24386E-05-2.61542E-05 1.06191E-06 6.37511E-19 8.13894E-19
 -1      2064 8.21878E-05-2.33723E-05-2.52058E-05-5.57201E-06 7.15796E-19 1.04955E-18
 -1      2065 8.10128E-05-2.27450E-05-2.49228E-05-3.79237E-06 4.06986E-19 9.59536E-19
 -1      2066 8.36608E-05-2.27910E-05-2.61162E-05-4.00665E-06 2.93748E-19 9.28371E-19
 -1      2067 8.56852E-05-2.52092E-05-2.59191E-05-7.85342E-06 1.10660E-18 1.29424E-18
 -1      2068 8.35923E-05-2.41852E-05-2.54299E-05-6.76156E-06 1.08153E-18 1.37499E-18
 -1      2069 8.57314E-05-2.42845E-05-2.63495E-05-7.80733E-06 1.06814E-18 9.03857E-19
 -1      2070 8.98017E-05-2.74972E-05-2.67071E-05-7.86593E-06 9.69247E-19-1.26752E-18
 -1      2071 8.73940E-05-2.62675E-05-2.61850E-05-7.85928E-06 1.02394E-18-4.80029E-20
 -1      2072 8.88546E-05-2.65275E-05-2.67146E-05-9.42652E-06 1.87921E-18 1.07116E-18
 -1      2073 9.31686E-05-2.96228E-05-2.72384E-05-6.14909E-06-1.56053E-19-1.21901E-18
 -1      2074 9.09463E-05-2.82944E-05-2.68407E-05-7.37454E-06 5.99024E-19-1.19731E-18
 -1      2075 9.18365E-05-2.87690E-05-2.70088E-05-8.99263E-06 1.00021E-18-8.31098E-19
 -1      2076 9.42499E-05-3.11127E-05-2.70219E-05-7.37378E-06-9.42192E-19-3.34095E-19
 -1      2077 1.02638E-04-3.96069E-05-2.68004E-05-3.72001E-06 8.13522E-19-1.67779E-19
 -1      2078 1.00791E-04-3.83981E-05-2.67407E-05-6.60327E-06 1.57733E-19-2.05387E-18
 -1      2079 9.91501E-05-3.70394E-05-2.65060E-05-8.55366E-06-8.31813E-20-1.28506E-18
 -1      2080 9.74927E-05-3.49831E-05-2.67834E-05-9.26517E-06-4.71308E-19 3.26282E-18
 -1      2081 1.00332E-04-3.50602E-05-2.79707E-05-8.84704E-06-1.13066E-18-8.10591E-19
 -1      2082 9.66013E-05-3.43174E-05-2.66429E-05-9.25207E-06 6.60831E-19 4.12939E-18
 -1      2083 9.51098E-05-3.20928E-05-2.70092E-05-8.41580E-06-3.70345E-19 1.74574E-18
 -1      2084 9.41770E-05-3.09736E-05-2.71041E-05-9.55767E-06 1.26418E-18 1.41856E-18
 -1      2085 9.67637E-05-3.28430E-05-2.74074E-05-1.07399E-05 7.84220E-19 2.26099E-18
 -1      2086 1.06345E-04-4.03173E-05-2.80001E-05 6.62181E-06 4.32635E-19 3.63364E-18
 -1      2087 1.04812E-04-4.11417E-05-2.73072E-05 1.00972E-06 3.71371E-19 2.65495E-18
 -1      2088 1.05742E-04-3.82538E-05-2.89175E-05-1.79010E-06-3.84262E-19 8.87558E-19
 -1      2089 1.08085E-04-3.73206E-05-3.00398E-05 2.24761E-05-7.71329E-19 9.02302E-19
 -1      2090 1.08433E-04-4.15571E-05-2.86823E-05 1.46604E-05-1.06577E-18 2.96906E-18
 -1      2091 1.11804E-04-4.14022E-05-3.01820E-05 1.17305E-05-1.51217E-18 2.49806E-18
 -1      2092 1.02929E-04-2.77838E-05-3.20570E-05 3.96464E-05 3.19752E-18 1.91983E-18
 -1      2093 1.07614E-04-3.63524E-05-3.04419E-05 3.27023E-05 1.32700E-18 1.50295E-18
 -1      2094 1.14277E-04-4.20237E-05-3.10115E-05 3.14657E-05-1.26867E-18 3.36436E-18
 -1      2095 8.88796E-05-1.23131E-05-3.28327E-05 4.60833E-05 9.09806E-19-3.43620E-18
 -1      2096 9.73709E-05-2.26355E-05-3.16496E-05 4.57862E-05 3.17731E-18-2.07555E-18
 -1      2097 1.05754E-04-3.53033E-05-3.01644E-05 4.99837E-05 1.77464E-18 8.62703E-19
 -1      2098 6.89664E-05 6.35331E-06-3.23145E-05 3.24367E-05-1.89191E-18-2.58959E-18
 -1      2099 7.83330E-05-3.08994E-06-3.16852E-05 4.22577E-05-1.18659E-18-2.05607E-18
 -1      2100 8.50463E-05-1.99444E-05-2.74468E-05 5.35443E-05-6.45121E-19-3.87761E-18
 -1      2101 6.08456E-05 1.41494E-05-3.17429E-05 1.81280E-06-7.94557E-19-1.95876E-18
 -1      2102 6.22990E-05 1.22701E-05-3.15198E-05 1.63925E-05-1.40954E-18-2.03902E-18
 -1      2103 5.96842E-05-2.19396E-06-2.40050E-05 3.17681E-05-3.35912E-18-1.71694E-18
 -1      2104 7.22818E-05 8.75319E-06-3.40994E-05-2.84424E-05-1.07414E-19-4.24364E-19
 -1      2105 6.57144E-05 1.44930E-05-3.44014E-05-1.72504E-05 7.22969E-19-1.75230E-18
 -1      2106 9.14961E-05-1.29756E-05-3.30925E-05-4.11285E-05-9.41464E-19-4.58880E-19
 -1      2107 8.09221E-05-2.16409E-06-3.38553E-05-3.86810E-05-1.12655E-18-5.88264E-19
 -1      2108 1.04650E-04-2.84211E-05-3.24679E-05-3.00600E-05-4.84728E-20 9.63209E-19
 -1      2109 9.90496E-05-2.03178E-05-3.37740E-05-3.66243E-05-1.35827E-18 1.05844E-18
 -1      2110 9.98468E-05-2.80467E-05-3.07081E-05-4.58968E-05-1.38665E-18-8.66621E-19
 -1      2111 1.05872E-04-3.36013E-05-3.09173E-05-1.23519E-05-6.20452E-20-2.30062E-18
 -1      2112 1.05293E-04-2.98312E-05-3.21660E-05-2.00772E-05 7.31982E-19-9.85576E-19
 -1      2113 1.11351E-04-3.71868E-05-3.18710E-05-2.86751E-05-4.67443E-19 5.11416E-19
 -1      2114 7.44035E-05-4.55459E-05-1.28421E-05 6.20807E-05-4.26905E-19-5.93934E-18
 -1      2115 5.58934E-05-4.77170E-05-5.10389E-06 5.15979E-05-9.31736E-21-3.38792E-18
 -1      2116 1.85318E-05-3.92017E-05 6.62630E-06 1.11101E-05 1.50242E-18 3.42371E-18
 -1      2117 1.81958E-05-3.94582E-05 6.87299E-06-3.80312E-06 2.62580E-19 1.89227E-18
 -1      2118 3.44746E-05-4.13075E-05 1.20561E-06 4.04882E-05 5.98852E-19-2.39710E-19
 -1      2119 2.48834E-05-4.44299E-05 5.79769E-06 2.65073E-05 7.80964E-19 2.47757E-18
 -1      2120 1.18232E-04-4.82875E-05-2.95802E-05 6.15552E-05-2.82655E-18-6.98633E-18
 -1      2121 9.80914E-05-5.23735E-05-2.03251E-05 5.79473E-05-1.90159E-18-6.32607E-18
 -1      2122 1.19688E-04-5.23911E-05-2.94002E-05-3.64860E-05 7.84353E-19-5.96692E-18
 -1      2123 1.38745E-04-5.20448E-05-3.70221E-05-3.51853E-05 1.35250E-18-5.79201E-18
 -1      2124 1.82845E-05-4.83030E-05 1.11374E-05-1.75878E-05-2.14723E-18-1.73303E-18
 -1      2125 2.48045E-05-4.57388E-05 7.69435E-06-2.53194E-05-1.09225E-18-8.77526E-19
 -1      2126 1.54565E-04-4.09962E-05-4.74507E-05 5.32180E-05-2.70966E-18-3.56516E-18
 -1      2127 1.34843E-04-4.62681E-05-3.81564E-05 5.11998E-05-3.22592E-18-4.38805E-18
 -1      2128 8.72468E-05-8.72213E-06-3.37490E-05-1.05376E-05-1.05677E-18-2.28275E-18
 -1      2129 8.79531E-05-9.23984E-06-3.38214E-05-1.20932E-05-1.26023E-18-2.01378E-18
 -1      2130 9.04854E-05-1.30492E-05-3.32361E-05-1.18712E-05-1.38908E-18-1.71185E-18
 -1      2131 8.86844E-05-1.10560E-05-3.32948E-05-9.41092E-06-1.05405E-18-2.19595E-18
 -1      2132 1.97091E-04-2.73026E-05-7.14852E-05 2.29167E-05-3.99800E-19-3.77988E-18
 -1      2133 1.84367E-04-2.68388E-05-6.68778E-05 2.83319E-05-7.55342E-19-3.70323E-18
 -1      2134 1.97324E-04-2.22557E-05-7.43239E-05 9.94499E-06 2.34501E-18-4.39046E-18
 -1      2135 1.98677E-04-2.37106E-05-7.38082E-05 1.92693E-05 1.72752E-18-4.31352E-18
 -1      2136 1.73549E-04-1.45874E-05-6.69162E-05 9.18775E-06 6.04358E-19-3.23122E-18
 -1      2137 1.86289E-04-2.31101E-05-6.95772E-05 1.25451E-06 3.21915E-18-2.95530E-18
 -1      2138 1.96674E-04-2.28181E-05-7.31661E-05 6.80653E-06 2.35136E-18-2.68245E-18
 -1      2139 1.78393E-04-3.66539E-05-6.00146E-05-1.76101E-05 2.74238E-18-5.68867E-18
 -1      2140 1.86682E-04-3.27732E-05-6.53035E-05-5.38199E-06 2.79690E-18-3.97767E-18
 -1      2141 1.51346E-04-4.68108E-05-4.51229E-05-2.36278E-05 2.02610E-18-5.12074E-18
 -1      2142 1.71001E-04-4.31772E-05-5.37444E-05-2.48058E-05 3.08701E-18-5.06102E-18
 -1      2143 1.67534E-04-4.18576E-05-5.31849E-05-2.31521E-06 1.43551E-18-2.82443E-18
 -1      2144 3.93122E-05-4.99673E-05 2.90757E-06-3.18763E-05-6.56451E-19-1.38829E-18
 -1      2145 5.25838E-05-4.61555E-05-3.51464E-06-3.97570E-05 2.31240E-19-4.44401E-18
 -1      2146 1.26775E-05-4.21343E-05 1.15048E-05 8.22486E-07-2.51505E-18-3.50926E-18
 -1      2147 1.35829E-05-4.45034E-05 1.18150E-05-8.53712E-06-2.23913E-18-2.50468E-18
 -1      2148 2.87719E-05-4.72083E-05 6.78451E-06 2.17746E-05-1.96173E-18-1.55939E-18
 -1      2149 1.98784E-05-4.56094E-05 9.79805E-06 1.40430E-05-1.22269E-18-1.68687E-18
 -1      2150 5.83560E-05-5.09318E-05-3.82204E-06 3.50937E-05-1.91853E-18-1.18172E-18
 -1      2151 4.22908E-05-5.29152E-05 2.93558E-06 2.64664E-05-2.30266E-18-8.54233E-19
 -1      2152 4.27380E-05-4.49619E-05 4.63206E-07 3.18560E-05-1.31714E-19-8.60585E-19
 -1      2153 1.04669E-04-5.70898E-05-2.04565E-05 3.65897E-05-2.35856E-18 1.29850E-18
 -1      2154 8.32963E-05-5.86018E-05-1.16893E-05 3.27937E-05-1.85924E-18 2.10911E-19
 -1      2155 1.44870E-04-5.37471E-05-3.85035E-05 2.97778E-05-1.26123E-18-1.82536E-19
 -1      2156 1.21243E-04-5.60501E-05-2.88599E-05 2.83338E-05-1.78978E-18 1.02830E-18
 -1      2157 1.78071E-04-4.90245E-05-5.44766E-05 1.31383E-05-7.55765E-19 1.31290E-19
 -1      2158 1.58083E-04-5.03470E-05-4.62218E-05 1.91848E-05-7.59789E-19-1.03762E-18
 -1      2159 2.00326E-04-3.76174E-05-6.81906E-05-2.12213E-06-4.46810E-20-7.89011E-19
 -1      2160 1.84933E-04-3.94895E-05-6.17278E-05 2.86836E-06-1.02766E-18-3.30343E-19
 -1      2161 2.04646E-04-2.79562E-05-7.39654E-05-1.32457E-05-1.14349E-19-4.64174E-19
 -1      2162 1.97271E-04-2.89035E-05-7.11495E-05-7.49815E-06 7.82235E-19-1.04354E-18
 -1      2163 2.05542E-04-2.80087E-05-7.44079E-05-2.12536E-05-4.44269E-19-7.15743E-19
 -1      2164 2.08889E-04-2.84320E-05-7.56132E-05-1.40709E-05-4.82385E-19-2.13002E-19
 -1      2165 1.89869E-04-3.25594E-05-6.64701E-05-2.77581E-05-9.31948E-19-1.64917E-18
 -1      2166 2.04334E-04-3.23389E-05-7.16646E-05-2.41808E-05-6.61533E-19-5.48454E-19
 -1      2167 1.66486E-04-4.55045E-05-5.16832E-05-3.64586E-05-9.84888E-19-1.01051E-18
 -1      2168 1.84104E-04-4.24013E-05-5.94770E-05-3.22984E-05-4.72644E-19-1.19347E-18
 -1      2169 1.35438E-04-5.25641E-05-3.59709E-05-4.72801E-05 1.49713E-18-3.21873E-20
 -1      2170 1.58205E-04-4.94130E-05-4.55897E-05-4.83938E-05 1.67289E-19-2.37677E-18
 -1      2171 1.68033E-04-5.77161E-05-4.64807E-05-2.61467E-05 8.08705E-19-1.39633E-18
 -1      2172 9.44852E-05-5.62697E-05-1.75750E-05-5.32351E-05 3.15012E-18-9.67735E-20
 -1      2173 1.14950E-04-5.20815E-05-2.68009E-05-5.83729E-05 2.18196E-18 3.21025E-19
 -1      2174 5.28406E-05-4.99675E-05-3.15139E-06-4.52544E-05-2.23193E-18-5.02502E-19
 -1      2175 7.09708E-05-4.85865E-05-1.03189E-05-5.61615E-05-9.31736E-20 7.35172E-19
 -1      2176 2.37962E-05-4.40876E-05 6.12746E-06-1.99261E-05-4.23305E-19 1.26123E-18
 -1      2177 3.27411E-05-4.19651E-05 2.19463E-06-3.42183E-05-1.44716E-18 8.26704E-19
 -1      2178 1.81156E-04-3.45856E-05-6.16158E-05 3.80560E-05-1.88020E-18-3.31402E-18
 -1      2179 1.63875E-04-3.62141E-05-5.43099E-05 4.29413E-05-2.34310E-18-3.39999E-18
 -1      2180 1.20630E-04-6.23180E-05-2.46952E-05-3.73360E-05-1.17483E-18-4.55217E-18
 -1      2181 2.51570E-05-2.73347E-05-3.11651E-07 2.30585E-05 7.03037E-19 2.28953E-18
 -1      2182 7.78424E-05-5.44112E-05-1.02308E-05-4.59384E-05-1.21930E-18-4.79524E-18
 -1      2183 9.71975E-05-2.43175E-05-3.13078E-05-9.99904E-06-1.49028E-18 6.47001E-19
 -1      2184 9.63555E-05-2.31082E-05-3.14578E-05-1.03809E-05-1.58643E-18-1.38318E-19
 -1      2185 5.30885E-05-3.80532E-05-7.06151E-06 5.53047E-05-1.68560E-19-3.02243E-18
 -1      2186 5.73500E-05 4.81270E-06-2.58253E-05-8.36299E-06-1.37844E-18-1.47638E-18
 -1      2187 7.67937E-05-8.00541E-06-2.88555E-05-4.01126E-05-1.40925E-19-1.10040E-18
 -1      2188 9.85374E-05-5.37731E-05-1.92235E-05 6.39713E-05-1.75166E-18-7.32218E-18
 -1      2189 1.04578E-04-3.40645E-05-3.00690E-05-2.33072E-06 1.23270E-18 7.60106E-19
 -1      2190 1.05254E-04-3.34614E-05-3.05886E-05-6.51850E-06 6.35480E-19-1.28330E-18
 -1      2191 1.11974E-04-3.86336E-05-3.14611E-05-1.14232E-05 1.22106E-18-1.94058E-18
 -1      2192 1.07763E-04-3.67850E-05-3.05841E-05-1.15951E-06 1.75548E-18 8.73178E-19
 -1      2193 2.46466E-05-2.65762E-05-3.25232E-07-1.51672E-05-6.96367E-19 2.35263E-18
 -1      2194 1.51431E-04-5.75941E-05-3.98915E-05-1.90317E-05 4.57821E-19-3.22254E-18
 -1      2195 1.73414E-04-3.05071E-05-6.02007E-05 1.69411E-05-6.81862E-19-2.84900E-18
 -1      2196 5.12735E-05-3.90620E-05-5.96473E-06-4.84910E-05-1.16763E-18-5.51842E-19
 -1      2197 1.41492E-04-6.49454E-05-3.26296E-05-4.79984E-05 2.58514E-18-5.74288E-19
 -1      2198 1.78072E-04-3.92656E-05-5.84505E-05-1.17719E-05-9.42748E-19-1.33408E-18
 -1      2199 3.78360E-05-4.33371E-05 1.64460E-06-3.65979E-05-1.02322E-18-1.98481E-18
 -1      2200 1.82813E-04-2.14278E-05-6.75616E-05-1.05414E-05-2.44793E-19-1.62630E-18
 -1      2201 1.38841E-04-5.80264E-05-3.43261E-05 5.16459E-05-2.73719E-18-4.71331E-18
 -1      2202 1.78305E-04-1.50562E-05-6.85383E-05-1.42983E-05-4.21399E-19-6.34322E-19
 -1      2203 1.77849E-04-2.47994E-05-6.44984E-05-1.60500E-05 2.05405E-19 1.14349E-19
 -1      2204 1.75686E-04-4.52814E-05-5.49595E-05-7.15238E-06-7.50789E-19 1.01771E-18
 -1      2205 1.57487E-04-6.12824E-05-4.07576E-05 1.02783E-05-4.05941E-19 9.53759E-19
 -1      2206 8.33307E-05-5.97836E-05-1.02797E-05 3.77515E-05-4.12505E-19 5.92261E-19
 -1      2207 1.93099E-05-3.44567E-05 5.99904E-06 1.04340E-05-1.15207E-18-1.84484E-18
 -1      2208 1.63395E-04-4.76325E-05-4.87665E-05 3.30822E-05-2.46370E-18-1.39125E-18
 -1      2209 1.70500E-05-3.46075E-05 6.76683E-06-1.63931E-05-2.10255E-18-2.61310E-18
 -1      2210 1.72221E-04-1.07369E-05-6.83365E-05 1.02316E-05 2.25565E-18-2.50833E-18
 -1      2211 1.76929E-04-2.52071E-05-6.45130E-05 5.20155E-06 4.01494E-18-1.43127E-18
 -1      2212 1.58973E-04-1.51118E-05-6.20689E-05 1.50413E-05 2.92650E-18 7.37766E-19
 -1      2213 1.62292E-04-2.60394E-05-5.84000E-05 1.10466E-05 3.42074E-18-3.10014E-19
 -1      2214 1.26691E-04-6.79782E-05-2.54444E-05 2.68160E-05-1.02067E-18 1.30676E-18
 -1      2215 9.61673E-05-5.69759E-05-1.71797E-05-5.94957E-05 1.60216E-18-1.73756E-18
 -1      2216 9.52226E-05-2.63788E-05-2.94913E-05 4.19160E-06 1.26606E-18 9.11685E-19
 -1      2217 9.61966E-05-2.58640E-05-3.00690E-05 5.99702E-06 1.37258E-18 1.06994E-18
 -1      2218 8.81280E-05-1.11792E-05-3.30173E-05-3.65986E-06-2.96739E-19-2.34369E-18
 -1      2219 8.83625E-05-1.14492E-05-3.29996E-05-4.80027E-06-4.78046E-19-2.45800E-18
 -1      2220 8.87140E-05-1.19317E-05-3.29514E-05-5.81739E-06-6.23619E-19-2.42950E-18
 -1      2221 8.91225E-05-1.24055E-05-3.29234E-05-6.98884E-06-8.01158E-19-2.32051E-18
 -1      2222 8.98815E-05-1.38185E-05-3.25977E-05-4.90221E-06-4.59448E-19-2.31441E-18
 -1      2223 8.77819E-05-1.07207E-05-3.30603E-05 6.15306E-07 3.61389E-19-2.13495E-18
 -1      2224 8.77775E-05-1.07157E-05-3.30605E-05-4.95362E-07 1.84718E-19-2.19388E-18
 -1      2225 8.79634E-05-1.09457E-05-3.30419E-05 2.75675E-06 6.61077E-19-2.09855E-18
 -1      2226 8.78483E-05-1.08126E-05-3.30511E-05 1.63766E-06 4.94273E-19-2.12490E-18
 -1      2227 8.90993E-05-1.27667E-05-3.27172E-05 1.04920E-06 3.91181E-19-2.00332E-18
 -1      2228 8.83986E-05-1.14930E-05-3.29970E-05 4.88540E-06 1.00932E-18-2.04531E-18
 -1      2229 8.81586E-05-1.12162E-05-3.30150E-05 3.76254E-06 8.28681E-19-2.09103E-18
 -1      2230 8.93657E-05-1.31227E-05-3.26774E-05 3.01980E-06 6.93885E-19-1.94378E-18
 -1      2231 8.91798E-05-1.24762E-05-3.29188E-05 7.07166E-06 1.41295E-18-1.62421E-18
 -1      2232 8.87607E-05-1.19893E-05-3.29476E-05 5.90046E-06 1.15364E-18-1.86691E-18
 -1      2233 8.99239E-05-1.38709E-05-3.25933E-05 4.97308E-06 1.07515E-18-1.77066E-18
 -1      2234 9.04524E-05-1.40864E-05-3.27925E-05 9.22003E-06 1.75867E-18-1.22824E-18
 -1      2235 8.97706E-05-1.32751E-05-3.28375E-05 8.04120E-06 1.53966E-18-1.43481E-18
 -1      2236 9.08616E-05-1.51315E-05-3.24489E-05 6.86774E-06 1.46087E-18-1.38897E-18
 -1      2237 9.24523E-05-1.66588E-05-3.25833E-05 1.11040E-05 1.90459E-18-7.07881E-19
 -1      2238 9.13724E-05-1.53185E-05-3.26550E-05 1.00240E-05 1.78077E-18-1.06227E-18
 -1      2239 9.22881E-05-1.70864E-05-3.22085E-05 8.51335E-06 1.69154E-18-1.01092E-18
 -1      2240 9.59149E-05-2.50930E-05-3.03065E-05-6.19006E-06-1.24094E-18-5.43420E-19
 -1      2241 9.52607E-05-2.58483E-05-2.97623E-05-4.27020E-06-1.06173E-18-5.07741E-19
 -1      2242 9.42435E-05-2.71192E-05-2.87508E-05 1.76127E-06 1.26376E-18 6.14150E-19
 -1      2243 9.48432E-05-2.68956E-05-2.90491E-05 2.73424E-06 1.22923E-18 8.17642E-19
 -1      2244 9.53447E-05-2.58488E-05-2.97918E-05 4.35710E-06 1.42270E-18 7.02806E-20
 -1      2245 9.50778E-05-2.00255E-05-3.22137E-05-1.17463E-05-1.60698E-18-7.26913E-19
 -1      2246 9.54767E-05-2.33678E-05-3.09295E-05-7.96299E-06-1.41330E-18-6.02546E-19
 -1      2247 9.50767E-05-2.25541E-05-3.10555E-05-7.65277E-06-1.29850E-18-9.03811E-19
 -1      2248 9.32216E-05-1.76226E-05-3.24167E-05-1.14002E-05-1.54518E-18-1.16377E-18
 -1      2249 2.98885E-05-1.27174E-05-7.07199E-06-7.31885E-06-1.05339E-18 2.43522E-18
 -1      2250 3.57481E-05-1.78071E-05-7.69254E-06-2.74727E-05-9.26654E-19 1.32645E-18
 -1      2251 9.51451E-05-2.65402E-05-2.93451E-05-2.93673E-06-9.90092E-19-4.51346E-19
 -1      2252 9.46749E-05-2.69099E-05-2.90420E-05-1.87429E-06-8.32251E-19-5.98143E-19
 -1      2253 9.53463E-05-2.53708E-05-2.99956E-05-4.29246E-06-1.15407E-18-8.46138E-19
 -1      2254 9.44794E-05-2.72394E-05-2.87787E-05-1.02245E-06-6.53575E-19-6.21038E-19
 -1      2255 9.42211E-05-2.74527E-05-2.86126E-05-4.20809E-07-5.97607E-19-7.42540E-19
 -1      2256 9.50352E-05-2.66990E-05-2.93000E-05-1.91575E-06-8.59158E-19-9.10616E-19
 -1      2257 9.40723E-05-2.76331E-05-2.84514E-05 8.72101E-08-6.31626E-19-6.32510E-19
 -1      2258 9.39743E-05-2.77767E-05-2.83679E-05 4.17078E-07-6.35696E-19-5.80391E-19
 -1      2259 9.47315E-05-2.74279E-05-2.88573E-05-4.36609E-07-7.09304E-19-6.40839E-19
 -1      2260 9.38898E-05-2.78865E-05-2.82745E-05 6.99765E-07-6.82884E-19-7.13743E-19
 -1      2261 9.38958E-05-2.79937E-05-2.82416E-05 8.63756E-07-7.27268E-19-7.62547E-19
 -1      2262 9.45305E-05-2.78562E-05-2.85850E-05 4.34182E-07-8.35031E-19-6.77602E-19
 -1      2263 9.38643E-05-2.80660E-05-2.81927E-05 1.00072E-06-5.98233E-19-7.15657E-19
 -1      2264 9.39317E-05-2.81501E-05-2.81904E-05 1.06263E-06-3.63007E-19-7.14327E-19
 -1      2265 9.44379E-05-2.81261E-05-2.84268E-05 9.04716E-07-7.15947E-19-5.12546E-19
 -1      2266 9.39371E-05-2.81999E-05-2.81703E-05 1.10721E-06-2.59539E-19-8.27444E-19
 -1      2267 9.40360E-05-2.82669E-05-2.81855E-05 1.10716E-06-2.09609E-19-9.68512E-19
 -1      2268 9.44280E-05-2.83033E-05-2.83442E-05 1.11682E-06-4.09703E-19-9.75598E-19
 -1      2269 9.40640E-05-2.83019E-05-2.81833E-05 1.09512E-06-5.56432E-19-9.75246E-19
 -1      2270 9.41749E-05-2.83550E-05-2.82076E-05 1.05919E-06-6.56260E-19-1.25503E-18
 -1      2271 9.44722E-05-2.84220E-05-2.83104E-05 1.16605E-06-5.86574E-19-1.32392E-18
 -1      2272 9.42148E-05-2.83795E-05-2.82160E-05 1.01469E-06-3.39023E-19-1.03026E-18
 -1      2273 9.43253E-05-2.84211E-05-2.82440E-05 9.60040E-07 1.62759E-20-7.63234E-19
 -1      2274 9.45472E-05-2.85010E-05-2.83074E-05 1.11700E-06-4.03567E-19-1.26350E-18
 -1      2275 9.43698E-05-2.84377E-05-2.82582E-05 8.99300E-07 2.74457E-20-6.07052E-19
 -1      2276 9.44726E-05-2.84696E-05-2.82866E-05 8.37221E-07-1.88560E-20-5.96218E-19
 -1      2277 9.46360E-05-2.85522E-05-2.83226E-05 1.01339E-06 5.59267E-20-7.00544E-19
 -1      2278 9.45169E-05-2.84804E-05-2.83033E-05 7.71021E-07-1.08046E-20-6.17358E-19
 -1      2279 9.46086E-05-2.85042E-05-2.83301E-05 7.08838E-07 1.59466E-19-2.41595E-19
 -1      2280 9.47273E-05-2.85834E-05-2.83478E-05 8.84597E-07-3.59942E-21-5.04491E-19
 -1      2281 9.46501E-05-2.85106E-05-2.83475E-05 6.44197E-07-2.37744E-20-2.51857E-19
 -1      2282 9.47292E-05-2.85278E-05-2.83718E-05 5.86554E-07-1.02516E-19-3.39080E-19
 -1      2283 9.48143E-05-2.86002E-05-2.83776E-05 7.50047E-07 1.83991E-19-4.90016E-19
 -1      2284 9.47667E-05-2.85309E-05-2.83887E-05 5.27944E-07-6.39031E-19-4.68431E-19
 -1      2285 9.48338E-05-2.85428E-05-2.84102E-05 4.77726E-07-6.99174E-19-7.11678E-19
 -1      2286 9.48936E-05-2.86066E-05-2.84086E-05 6.22376E-07-4.78811E-19-6.55689E-19
 -1      2287 9.48670E-05-2.85433E-05-2.84261E-05 4.27969E-07-7.86890E-19-5.97251E-19
 -1      2288 9.49235E-05-2.85510E-05-2.84450E-05 3.86974E-07-6.85597E-19-4.44350E-19
 -1      2289 9.49639E-05-2.86055E-05-2.84391E-05 5.09663E-07-7.00737E-19-2.02779E-19
 -1      2290 9.49529E-05-2.85497E-05-2.84600E-05 3.47911E-07-6.51945E-19-4.59476E-19
 -1      2291 9.50011E-05-2.85540E-05-2.84768E-05 3.17360E-07-7.50489E-19-3.13194E-19
 -1      2292 9.50258E-05-2.85989E-05-2.84685E-05 4.17120E-07-7.87860E-19-2.95311E-21
 -1      2293 9.50279E-05-2.85512E-05-2.84912E-05 2.90366E-07-6.42263E-19-6.12697E-19
 -1      2294 9.50704E-05-2.85531E-05-2.85068E-05 2.71298E-07-5.88756E-19-5.88879E-19
 -1      2295 9.50809E-05-2.85880E-05-2.84969E-05 3.48361E-07-8.45331E-19-4.80108E-19
 -1      2296 9.50959E-05-2.85490E-05-2.85211E-05 2.57681E-07-8.26315E-19-7.41318E-19
 -1      2297 9.51362E-05-2.85491E-05-2.85364E-05 2.51260E-07-5.57069E-19-7.04754E-19
 -1      2298 9.51318E-05-2.85735E-05-2.85251E-05 3.06386E-07-7.33952E-19-8.15268E-19
 -1      2299 9.51622E-05-2.85438E-05-2.85515E-05 2.52581E-07-3.41933E-19-8.42858E-19
 -1      2300 9.52039E-05-2.85428E-05-2.85677E-05 2.60357E-07-3.88672E-19-8.70950E-19
 -1      2301 9.51817E-05-2.85557E-05-2.85542E-05 2.94347E-07-6.51936E-19-6.74867E-19
 -1      2302 9.52325E-05-2.85364E-05-2.85846E-05 2.78691E-07-2.06657E-19-1.11347E-18
 -1      2303 9.52800E-05-2.85349E-05-2.86032E-05 3.02815E-07-2.18352E-20-1.92030E-18
 -1      2304 9.52344E-05-2.85345E-05-2.85862E-05 3.16169E-07-4.99582E-19-8.84920E-19
 -1      2305 9.53138E-05-2.85273E-05-2.86232E-05 3.40981E-07 3.33001E-19-1.61374E-18
 -1      2306 9.53721E-05-2.85260E-05-2.86458E-05 3.84409E-07 2.15829E-19-1.35593E-18
 -1      2307 9.52945E-05-2.85093E-05-2.86230E-05 3.77068E-07 7.90301E-20-9.90755E-19
 -1      2308 9.54136E-05-2.85170E-05-2.86702E-05 4.46168E-07 2.84882E-19-1.21300E-18
 -1      2309 9.54889E-05-2.85166E-05-2.86989E-05 5.12851E-07 8.14731E-19-9.43613E-19
 -1      2310 9.53670E-05-2.84794E-05-2.86672E-05 4.83995E-07 4.85825E-19-1.65217E-19
 -1      2311 9.55412E-05-2.85059E-05-2.87296E-05 6.03096E-07 6.29170E-19-1.08907E-18
 -1      2312 9.56403E-05-2.85073E-05-2.87667E-05 6.98166E-07 4.85740E-19-1.40335E-18
 -1      2313 9.54577E-05-2.84436E-05-2.87218E-05 6.46036E-07 5.21720E-19-9.35450E-19
 -1      2314 9.57069E-05-2.84946E-05-2.88054E-05 8.23093E-07 4.13317E-19-1.76959E-18
 -1      2315 9.58382E-05-2.84989E-05-2.88537E-05 9.53040E-07 3.92721E-19-1.76933E-18
 -1      2316 9.55729E-05-2.84006E-05-2.87900E-05 8.74762E-07 2.39251E-19-1.44164E-18
 -1      2317 9.59225E-05-2.84835E-05-2.89026E-05 1.12028E-06 4.77180E-20-2.34350E-18
 -1      2318 9.60958E-05-2.84920E-05-2.89653E-05 1.29310E-06-1.07904E-19-2.06110E-18
 -1      2319 9.57195E-05-2.83485E-05-2.88754E-05 1.18451E-06-1.41444E-19-1.69026E-18
 -1      2320 9.62013E-05-2.84732E-05-2.90267E-05 1.51179E-06 4.87080E-19-2.06999E-18
 -1      2321 9.64280E-05-2.84877E-05-2.91074E-05 1.73699E-06 1.05233E-18-1.21953E-18
 -1      2322 9.59045E-05-2.82853E-05-2.89821E-05 1.59255E-06 4.43018E-20-1.57873E-18
 -1      2323 9.65578E-05-2.84647E-05-2.91834E-05 2.01767E-06 8.42835E-19-1.86289E-18
 -1      2324 9.68508E-05-2.84877E-05-2.92861E-05 2.30611E-06 2.76701E-19-1.70831E-18
 -1      2325 9.61347E-05-2.82086E-05-2.91138E-05 2.11895E-06 5.74838E-19-1.63176E-18
 -1      2326 9.70077E-05-2.84601E-05-2.93786E-05 2.66030E-06 2.15493E-20-1.60988E-18
 -1      2327 9.73815E-05-2.84955E-05-2.95075E-05 3.02339E-06-3.57414E-19-1.45059E-18
 -1      2328 9.64162E-05-2.81168E-05-2.92738E-05 2.78594E-06 9.58946E-20-1.86946E-18
 -1      2329 9.75675E-05-2.84640E-05-2.96176E-05 3.46251E-06-5.82805E-19-1.20874E-18
 -1      2330 9.80380E-05-2.85184E-05-2.97761E-05 3.91043E-06-6.61080E-19-1.06097E-18
 -1      2331 9.67541E-05-2.80106E-05-2.94639E-05 3.61626E-06-1.96168E-19-1.08894E-18
 -1      2332 9.82552E-05-2.84875E-05-2.99031E-05 4.44354E-06-6.44738E-19-1.06527E-18
 -1      2333 9.88393E-05-2.85730E-05-3.00934E-05 4.98134E-06-4.94315E-20-8.46146E-20
 -1      2334 9.71533E-05-2.78971E-05-2.96830E-05 4.62964E-06-3.26743E-19-7.47838E-19
 -1      2335 9.90924E-05-2.85549E-05-3.02338E-05 5.61082E-06-1.04084E-19 3.16061E-19
 -1      2336 9.98086E-05-2.86944E-05-3.04551E-05 6.23089E-06-1.19284E-19 7.08366E-19
 -1      2337 9.76210E-05-2.77983E-05-2.99250E-05 5.83616E-06 7.28945E-20-6.22258E-19
 -1      2338 1.00111E-04-2.87189E-05-3.06005E-05 6.94444E-06-3.66052E-19 6.76576E-19
 -1      2339 1.00982E-04-2.89555E-05-3.08463E-05 7.61295E-06-3.16711E-20 2.76278E-20
 -1      2340 9.81760E-05-2.77670E-05-3.01758E-05 7.22417E-06-5.09921E-19 6.71120E-19
 -1      2341 1.01372E-04-2.90847E-05-3.09823E-05 8.36986E-06 1.22845E-19 3.25933E-19
 -1      2342 1.02425E-04-2.94964E-05-3.12378E-05 9.00407E-06 4.66670E-20 5.45906E-20
 -1      2343 9.88685E-05-2.79155E-05-3.04100E-05 8.74002E-06-1.60470E-19 1.18341E-19
 -1      2344 1.02991E-04-2.98493E-05-3.13429E-05 9.71224E-06-9.56690E-20 3.32904E-19
 -1      2345 1.04273E-04-3.05675E-05-3.15824E-05 1.01468E-05 2.12048E-21-3.47110E-20
 -1      2346 9.98193E-05-2.84612E-05-3.05888E-05 1.02548E-05-1.82515E-19 1.26596E-20
 -1      2347 1.05194E-04-3.13468E-05-3.16322E-05 1.06257E-05 5.16273E-19 5.24573E-19
 -1      2348 1.06775E-04-3.25653E-05-3.18208E-05 1.05708E-05 1.24815E-18 1.12176E-18
 -1      2349 1.01287E-04-2.97844E-05-3.06646E-05 1.15121E-05 7.44385E-19 1.19413E-18
 -1      2350 1.08369E-04-3.40627E-05-3.18025E-05 1.04930E-05 2.19633E-19 1.36501E-18
 -1      2351 1.10323E-04-3.59907E-05-3.19103E-05 9.50462E-06 3.19881E-19 1.59346E-18
 -1      2352 1.03755E-04-3.24690E-05-3.06007E-05 1.20452E-05 8.54198E-19 1.70903E-18
 -1      2353 1.13036E-04-3.84937E-05-3.18618E-05 8.30520E-06 5.55534E-19 1.07720E-18
 -1      2354 1.15323E-04-4.11291E-05-3.19007E-05 5.81989E-06 2.77953E-19 8.10455E-19
 -1      2355 1.07994E-04-3.72181E-05-3.04288E-05 1.10409E-05-8.99642E-20 1.35950E-18
 -1      2356 1.19469E-04-4.45478E-05-3.19811E-05 2.71921E-06 9.79398E-19 1.89027E-19
 -1      2357 1.21697E-04-4.72343E-05-3.20634E-05-1.67112E-06 1.44869E-18 9.54249E-19
 -1      2358 1.14803E-04-4.42654E-05-3.03718E-05 7.20692E-06 6.25120E-19 1.23769E-18
 -1      2359 1.26880E-04-5.04630E-05-3.26447E-05-7.43123E-06 5.34941E-19 7.04176E-19
 -1      2360 1.27871E-04-5.11327E-05-3.30506E-05-1.33624E-05 2.58054E-19 2.77642E-19
 -1      2361 1.24266E-04-5.22463E-05-3.10250E-05-1.10335E-06 4.80618E-19 1.00691E-18
 -1      2362 1.31873E-04-5.11320E-05-3.47206E-05-2.10000E-05 6.31026E-19 1.87009E-19
 -1      2363 1.29918E-04-4.69640E-05-3.57325E-05-2.60531E-05 6.33607E-19-1.38040E-20
 -1      2364 1.33997E-04-5.60135E-05-3.35107E-05-1.46336E-05 2.65055E-19-9.47592E-19
 -1      2365 1.29849E-04-4.08828E-05-3.85859E-05-3.10806E-05 6.73868E-19-9.40657E-19
 -1      2366 1.24854E-04-3.19877E-05-4.00027E-05-3.08235E-05 1.15504E-18-5.51736E-19
 -1      2367 1.38275E-04-4.83368E-05-3.87929E-05-2.83007E-05 4.60786E-19-1.44440E-18
 -1      2368 1.21472E-04-2.31047E-05-4.27935E-05-2.69483E-05 1.54329E-18-9.07146E-19
 -1      2369 1.17268E-04-1.66677E-05-4.35341E-05-1.95025E-05 9.31101E-19-8.22628E-19
 -1      2370 1.34422E-04-2.88737E-05-4.56222E-05-3.07273E-05 1.42090E-18-1.97062E-18
 -1      2371 1.16048E-04-1.46559E-05-4.39075E-05-8.40022E-06-3.25896E-19-2.49531E-19
 -1      2372 1.16390E-04-1.73294E-05-4.30665E-05 6.06280E-07-1.36161E-18-6.46220E-19
 -1      2373 1.28932E-04-1.39228E-05-4.98790E-05-1.49804E-05 6.98590E-19-2.58472E-18
 -1      2374 1.18460E-04-2.41027E-05-4.06703E-05 7.94828E-06-1.53514E-18-3.99244E-19
 -1      2375 1.21144E-04-3.17505E-05-3.88628E-05 1.13607E-05-2.37529E-18-4.88473E-19
 -1      2376 1.30068E-04-2.07076E-05-4.73731E-05 4.42920E-06-1.87046E-18-2.10805E-18
 -1      2377 1.21161E-04-3.77972E-05-3.57991E-05 9.47190E-06-1.94092E-18-3.76003E-20
 -1      2378 1.21421E-04-4.17529E-05-3.42719E-05 7.59062E-06 1.42421E-19 9.09263E-19
 -1      2379 1.32931E-04-3.89725E-05-4.05942E-05 8.99447E-06-1.26266E-18-1.14201E-18
 -1      2380 9.33506E-05-2.76940E-05-2.81312E-05-4.15709E-07 6.86054E-19 3.88007E-19
 -1      2381 9.34276E-05-2.75886E-05-2.81923E-05-1.29500E-07 8.74508E-19 5.64920E-19
 -1      2382 9.33008E-05-2.78594E-05-2.80416E-05-8.22469E-07 3.91216E-19 3.55942E-20
 -1      2383 9.32548E-05-2.77679E-05-2.80528E-05-6.83007E-07 5.37591E-19 2.82875E-19
 -1      2384 9.40191E-05-2.78099E-05-2.83866E-05-4.49645E-07 8.04472E-19 1.33708E-19
 -1      2385 9.33956E-05-2.79957E-05-2.80255E-05-9.98527E-07 4.96810E-19 1.01880E-19
 -1      2386 9.32819E-05-2.79145E-05-2.80082E-05-9.47525E-07 4.44526E-19-2.52375E-20
 -1      2387 9.39332E-05-2.80201E-05-2.82565E-05-8.97641E-07 4.79262E-19 4.93541E-20
 -1      2388 9.35708E-05-2.81113E-05-2.80522E-05-1.03333E-06 3.12808E-19 1.54310E-19
 -1      2389 9.34257E-05-2.80400E-05-2.80199E-05-1.03542E-06 3.92080E-19 1.61059E-19
 -1      2390 9.39623E-05-2.81698E-05-2.82021E-05-1.09410E-06 3.54288E-19-6.12798E-20
 -1      2391 9.37821E-05-2.82089E-05-2.81017E-05-9.84495E-07 6.43443E-21 4.32814E-19
 -1      2392 9.36284E-05-2.81477E-05-2.80630E-05-1.01712E-06 2.42791E-19 4.70154E-19
 -1      2393 9.40608E-05-2.82811E-05-2.81946E-05-1.13480E-06 1.55727E-19 2.59147E-19
 -1      2394 9.40005E-05-2.82899E-05-2.81611E-05-8.89883E-07 6.35631E-19 7.63739E-20
 -1      2395 9.38522E-05-2.82386E-05-2.81212E-05-9.38318E-07 3.39826E-19 2.43761E-19
 -1      2396 9.41947E-05-2.83650E-05-2.82146E-05-1.08263E-06 4.01905E-19 3.04108E-19
 -1      2397 9.42087E-05-2.83557E-05-2.82225E-05-7.74441E-07 1.02476E-18-7.86629E-20
 -1      2398 9.40735E-05-2.83138E-05-2.81845E-05-8.29063E-07 9.61492E-19 1.89914E-19
 -1      2399 9.43409E-05-2.84278E-05-2.82494E-05-9.79450E-07 8.26483E-19 7.44911E-20
 -1      2400 9.43970E-05-2.84080E-05-2.82810E-05-6.54450E-07 1.04722E-18-3.12062E-19
 -1      2401 9.42785E-05-2.83745E-05-2.82467E-05-7.09043E-07 9.95083E-19-5.47669E-20
 -1      2402 9.44849E-05-2.84739E-05-2.82907E-05-8.53073E-07 1.07988E-18 1.50503E-19
 -1      2403 9.45615E-05-2.84484E-05-2.83343E-05-5.40318E-07 1.56034E-19-4.19240E-19
 -1      2404 9.44606E-05-2.84223E-05-2.83043E-05-5.90959E-07 8.23778E-19-1.07543E-19
 -1      2405 9.46181E-05-2.85069E-05-2.83333E-05-7.21755E-07 7.59719E-19 4.73434E-19
 -1      2406 9.47018E-05-2.84788E-05-2.83814E-05-4.38528E-07-3.24346E-19-2.99416E-19
 -1      2407 9.46175E-05-2.84590E-05-2.83556E-05-4.82810E-07-1.23829E-19-4.01728E-19
 -1      2408 9.47367E-05-2.85292E-05-2.83744E-05-5.97253E-07-1.24125E-19 3.83087E-19
 -1      2409 9.48200E-05-2.85010E-05-2.84224E-05-3.53055E-07-1.98143E-19-3.66270E-19
 -1      2410 9.47502E-05-2.84863E-05-2.84006E-05-3.89509E-07-2.74148E-19-3.27708E-19
 -1      2411 9.48396E-05-2.85433E-05-2.84124E-05-4.86989E-07-2.06234E-19-3.63358E-19
 -1      2412 9.49199E-05-2.85167E-05-2.84584E-05-2.86413E-07 5.22733E-20-2.20236E-19
 -1      2413 9.48618E-05-2.85061E-05-2.84397E-05-3.14089E-07 6.79296E-20-1.25728E-19
 -1      2414 9.49281E-05-2.85508E-05-2.84471E-05-3.95628E-07-1.95997E-19-2.76862E-19
 -1      2415 9.50065E-05-2.85275E-05-2.84906E-05-2.40446E-07 5.23142E-19 1.12534E-20
 -1      2416 9.49567E-05-2.85199E-05-2.84741E-05-2.58585E-07 3.74768E-19-7.65732E-20
 -1      2417 9.50047E-05-2.85533E-05-2.84790E-05-3.26258E-07 9.04685E-20-1.79075E-19
 -1      2418 9.50858E-05-2.85350E-05-2.85211E-05-2.16911E-07-1.24161E-20-2.80500E-19
 -1      2419 9.50403E-05-2.85293E-05-2.85056E-05-2.24712E-07 4.87251E-19 1.14997E-20
 -1      2420 9.50730E-05-2.85519E-05-2.85090E-05-2.81274E-07 2.54935E-19 1.16303E-19
 -1      2421 9.51644E-05-2.85409E-05-2.85519E-05-2.17907E-07-2.69366E-19-6.25355E-19
 -1      2422 9.51190E-05-2.85360E-05-2.85362E-05-2.14353E-07-4.28434E-19-6.01544E-19
 -1      2423 9.51376E-05-2.85477E-05-2.85387E-05-2.63030E-07-1.00729E-19-3.79532E-19
 -1      2424 9.52502E-05-2.85467E-05-2.85857E-05-2.46159E-07 4.33787E-20-8.53328E-19
 -1      2425 9.52000E-05-2.85415E-05-2.85682E-05-2.29907E-07 1.32112E-19-6.30005E-19
 -1      2426 9.52036E-05-2.85415E-05-2.85699E-05-2.74298E-07 2.12133E-20-4.59542E-19
 -1      2427 9.53518E-05-2.85546E-05-2.86253E-05-3.05152E-07-3.74601E-20-9.91673E-19
 -1      2428 9.52913E-05-2.85477E-05-2.86044E-05-2.74489E-07-2.48833E-19-8.23201E-19
 -1      2429 9.52772E-05-2.85343E-05-2.86048E-05-3.18567E-07 4.15303E-20-1.01271E-18
 -1      2430 9.54792E-05-2.85669E-05-2.86738E-05-3.99101E-07 4.65576E-19-8.12033E-19
 -1      2431 9.54023E-05-2.85567E-05-2.86478E-05-3.51986E-07 3.39620E-19-8.46764E-19
 -1      2432 9.53651E-05-2.85275E-05-2.86458E-05-4.00147E-07-9.74585E-20-9.60193E-19
 -1      2433 9.56435E-05-2.85869E-05-2.87349E-05-5.32689E-07 4.99462E-20-7.67481E-19
 -1      2434 9.55432E-05-2.85713E-05-2.87016E-05-4.66904E-07 3.08569E-19-5.89895E-19
 -1      2435 9.54755E-05-2.85227E-05-2.86955E-05-5.24070E-07 3.01500E-19 1.31638E-19
 -1      2436 9.58573E-05-2.86185E-05-2.88121E-05-7.10486E-07-2.31376E-19-4.62799E-19
 -1      2437 9.57259E-05-2.85950E-05-2.87695E-05-6.23950E-07-8.77893E-20-5.58237E-19
 -1      2438 9.56172E-05-2.85226E-05-2.87567E-05-6.95692E-07 1.85637E-20 5.21350E-19
 -1      2439 9.61342E-05-2.86670E-05-2.89092E-05-9.35914E-07-7.77864E-19-2.94545E-19
 -1      2440 9.59635E-05-2.86323E-05-2.88550E-05-8.27238E-07-2.55925E-19-6.13600E-19
 -1      2441 9.58005E-05-2.85309E-05-2.88321E-05-9.19900E-07-1.44709E-19-1.23694E-19
 -1      2442 9.64885E-05-2.87395E-05-2.90292E-05-1.20958E-06-5.67955E-20 6.33196E-20
 -1      2443 9.62701E-05-2.86894E-05-2.89616E-05-1.07894E-06-6.88415E-19-3.08126E-19
 -1      2444 9.60370E-05-2.85534E-05-2.89242E-05-1.19975E-06-5.62672E-19-8.59604E-19
 -1      2445 9.69345E-05-2.88450E-05-2.91747E-05-1.52673E-06 1.25549E-19-1.11208E-19
 -1      2446 9.66605E-05-2.87746E-05-2.90921E-05-1.37719E-06 1.96277E-19 4.46474E-19
 -1      2447 9.63392E-05-2.85986E-05-2.90348E-05-1.53437E-06-2.04121E-19-9.40782E-19
 -1      2448 9.74845E-05-2.89956E-05-2.93460E-05-1.87362E-06-1.40062E-20 1.10277E-19
 -1      2449 9.71491E-05-2.88985E-05-2.92482E-05-1.71303E-06 1.58126E-19 4.10509E-19
 -1      2450 9.67209E-05-2.86787E-05-2.91644E-05-1.91578E-06 3.91186E-20-1.84404E-19
 -1      2451 9.81472E-05-2.92061E-05-2.95410E-05-2.22255E-06-6.67274E-20 3.46466E-19
 -1      2452 9.77484E-05-2.90750E-05-2.94291E-05-2.06605E-06 4.98252E-20 7.51072E-20
 -1      2453 9.71963E-05-2.88109E-05-2.93118E-05-2.32454E-06-2.82185E-19-1.38288E-20
 -1      2454 9.89242E-05-2.94948E-05-2.97529E-05-2.52562E-06 4.04077E-19-3.75801E-19
 -1      2455 9.84664E-05-2.93218E-05-2.96308E-05-2.39881E-06 3.72073E-19 3.04543E-19
 -1      2456 9.77794E-05-2.90189E-05-2.94728E-05-2.72395E-06 2.72121E-19-1.08261E-19
 -1      2457 9.98052E-05-2.98818E-05-2.99693E-05-2.70779E-06-2.88685E-19-1.84844E-19
 -1      2458 9.93033E-05-2.96594E-05-2.98446E-05-2.64996E-06 1.00172E-19-8.61182E-20
 -1      2459 9.84831E-05-2.93332E-05-2.96398E-05-3.05289E-06 1.76637E-19-4.23369E-19
 -1      2460 1.00762E-04-3.03854E-05-3.01709E-05-2.66091E-06-1.08267E-18-6.48643E-19
 -1      2461 1.00246E-04-3.01096E-05-3.00556E-05-2.72747E-06-6.90952E-19 3.83411E-20
 -1      2462 9.93167E-05-2.97904E-05-2.98010E-05-3.21832E-06-2.82030E-19 3.61927E-20
 -1      2463 1.01740E-04-3.10136E-05-3.03309E-05-2.24270E-06 5.16055E-19-4.88450E-19
 -1      2464 1.01260E-04-3.06891E-05-3.02421E-05-2.50423E-06-8.91213E-19-5.30398E-19
 -1      2465 1.00281E-04-3.04273E-05-2.99408E-05-3.08936E-06-8.77484E-19 2.11082E-19
 -1      2466 1.02645E-04-3.17462E-05-3.04174E-05-1.28768E-06 1.34527E-18-7.46737E-20
 -1      2467 1.02279E-04-3.13964E-05-3.03762E-05-1.82178E-06 1.17177E-18-2.72611E-19
 -1      2468 1.01358E-04-3.12671E-05-3.00413E-05-2.49779E-06 5.51236E-19 6.40593E-19
 -1      2469 1.03330E-04-3.25065E-05-3.03978E-05 3.58630E-07 3.44660E-19 1.59200E-18
 -1      2470 1.03186E-04-3.21878E-05-3.04268E-05-5.11482E-07 5.91044E-19 8.50525E-19
 -1      2471 1.02492E-04-3.22903E-05-3.00867E-05-1.25346E-06 5.44888E-19 1.54799E-18
 -1      2472 1.03579E-04-3.31245E-05-3.02485E-05 2.76968E-06-8.15772E-19 1.55784E-18
 -1      2473 1.03791E-04-3.29415E-05-3.03665E-05 1.55370E-06 5.98290E-19 2.02941E-18
 -1      2474 1.03563E-04-3.33898E-05-3.00693E-05 8.12018E-07-1.79007E-19 2.02003E-18
 -1      2475 1.03111E-04-3.33105E-05-2.99668E-05 5.82451E-06-8.74595E-19 7.91307E-19
 -1      2476 1.03820E-04-3.34200E-05-3.01806E-05 4.36319E-06-1.22892E-18 1.41788E-18
 -1      2477 1.04340E-04-3.43123E-05-2.99975E-05 3.75734E-06-8.97077E-20 2.22585E-18
 -1      2478 1.01626E-04-3.26885E-05-2.95787E-05 9.07118E-06-1.42545E-18 1.43049E-18
 -1      2479 1.02932E-04-3.32640E-05-2.98770E-05 7.63123E-06-7.49115E-19 1.24956E-18
 -1      2480 1.04461E-04-3.46291E-05-2.99006E-05 7.38823E-06-9.99309E-19 2.12945E-18
 -1      2481 9.89491E-05-3.09519E-05-2.91401E-05 1.16626E-05-6.98450E-19 1.61462E-18
 -1      2482 1.00830E-04-3.20914E-05-2.94889E-05 1.06790E-05-1.35297E-18 2.25440E-18
 -1      2483 1.03497E-04-3.38190E-05-2.98219E-05 1.10926E-05-1.69701E-18 2.20356E-18
 -1      2484 9.52506E-05-2.81312E-05-2.87218E-05 1.24993E-05-1.89059E-19 3.04844E-18
 -1      2485 9.74732E-05-2.97243E-05-2.90712E-05 1.24641E-05-2.53686E-19 1.78709E-18
 -1      2486 1.01150E-04-3.15068E-05-2.98019E-05 1.37923E-05-7.39490E-19 2.78554E-18
 -1      2487 9.12198E-05-2.48524E-05-2.83731E-05 1.06694E-05 4.28261E-19 2.27487E-18
 -1      2488 9.33257E-05-2.64883E-05-2.86739E-05 1.18963E-05 2.89679E-20 2.31016E-18
 -1      2489 9.75793E-05-2.78875E-05-2.98463E-05 1.41655E-05-2.71045E-19 2.27990E-18
 -1      2490 8.79956E-05-2.22636E-05-2.81025E-05 6.14215E-06 5.66069E-19 1.77713E-18
 -1      2491 8.94382E-05-2.33687E-05-2.83172E-05 8.48028E-06 7.60239E-19 2.59743E-18
 -1      2492 9.36556E-05-2.39641E-05-2.98867E-05 1.12834E-05 4.86879E-19 1.15283E-18
 -1      2493 8.65719E-05-2.13793E-05-2.78968E-05 7.05331E-08 8.03768E-19 1.03135E-18
 -1      2494 8.69798E-05-2.15481E-05-2.80043E-05 2.88099E-06 7.29957E-19 1.67889E-18
 -1      2495 9.06994E-05-2.12410E-05-2.98152E-05 5.47543E-06 7.45382E-19 2.16693E-18
 -1      2496 8.71881E-05-2.24306E-05-2.77405E-05-5.67911E-06 8.85024E-19-1.64477E-20
 -1      2497 8.65533E-05-2.16735E-05-2.77400E-05-3.23501E-06 6.48113E-19 3.71831E-19
 -1      2498 8.96468E-05-2.07763E-05-2.95516E-05-1.54805E-06 1.35551E-18 1.18654E-18
 -1      2499 8.92301E-05-2.48443E-05-2.76089E-05-9.49734E-06 1.39803E-18 3.28219E-19
 -1      2500 8.78651E-05-2.34806E-05-2.75314E-05-8.06428E-06 2.54298E-19 2.91929E-20
 -1      2501 9.04147E-05-2.25438E-05-2.90863E-05-7.55832E-06 7.37374E-19-5.98180E-19
 -1      2502 9.18170E-05-2.78894E-05-2.74331E-05-1.06164E-05 1.49742E-18 1.77934E-18
 -1      2503 9.01163E-05-2.62083E-05-2.73476E-05-1.04649E-05 2.12138E-18 1.64293E-18
 -1      2504 9.21729E-05-2.57737E-05-2.84287E-05-1.10360E-05 9.67540E-19 1.62610E-19
 -1      2505 9.29436E-05-2.96370E-05-2.71087E-05-1.00969E-05 1.28422E-18 1.77022E-18
 -1      2506 1.19416E-04-4.29774E-05-3.25335E-05 1.34925E-05-2.99562E-18 1.51730E-18
 -1      2507 1.15246E-04-4.13546E-05-3.18644E-05 5.31420E-06-1.77267E-18 2.07993E-18
 -1      2508 1.23865E-04-4.75771E-05-3.25484E-05 3.49075E-05-5.25610E-19 6.01182E-18
 -1      2509 1.23755E-04-4.80499E-05-3.26207E-05 2.43030E-05-2.84812E-18 4.93023E-18
 -1      2510 1.28209E-04-4.73594E-05-3.45541E-05 1.62789E-05-3.09016E-18 4.37199E-18
 -1      2511 1.02330E-04-3.34360E-05-2.94075E-05-8.46345E-06-1.10088E-18-2.30024E-18
 -1      2512 9.92539E-05-3.18488E-05-2.89578E-05-1.06813E-05-9.31713E-19-1.07775E-18
 -1      2513 1.10120E-04-3.74011E-05-3.09958E-05-7.53813E-07-9.19054E-19 2.18905E-18
 -1      2514 1.06008E-04-3.55530E-05-3.03207E-05-5.70010E-06-1.32504E-18 2.79322E-19
 -1      2515 1.05413E-04-3.21734E-05-3.13528E-05-8.02667E-06-6.34696E-19-3.24599E-19
 -1      2516 1.16190E-04-3.81177E-05-3.33795E-05 3.89678E-07-1.96220E-18 1.39976E-18
 -1      2517 1.23369E-04-4.78146E-05-3.24635E-05-2.23933E-05-8.75356E-20-8.21708E-19
 -1      2518 1.21579E-04-4.61251E-05-3.22879E-05-3.30360E-05-8.18829E-19 2.53003E-18
 -1      2519 1.11753E-04-4.33850E-05-2.93042E-05 5.49963E-05 7.38824E-19-1.50507E-18
 -1      2520 1.21509E-04-4.89741E-05-3.07367E-05 4.75728E-05 1.09050E-18 3.00849E-18
 -1      2521 1.31424E-04-5.45375E-05-3.28128E-05 3.96053E-05-4.06576E-19 6.85455E-18
 -1      2522 7.74043E-05-2.30291E-05-2.30591E-05 5.54735E-05-2.65344E-18-6.39108E-18
 -1      2523 9.48692E-05-3.32395E-05-2.54824E-05 6.01455E-05 1.34784E-19-7.04011E-18
 -1      2524 8.04144E-05-2.03773E-05-2.46736E-05-4.96080E-05 8.14105E-19-2.27937E-18
 -1      2525 6.36052E-05-7.85837E-06-2.39952E-05-3.88178E-05 1.08801E-18-1.11745E-18
 -1      2526 1.14484E-04-5.66173E-05-2.50426E-05 6.41011E-05-2.89262E-18-7.39232E-18
 -1      2527 9.28839E-05-4.78103E-05-1.87749E-05 6.47841E-05-2.32489E-18-9.02958E-18
 -1      2528 1.14161E-04-4.26252E-05-2.99247E-05-4.64380E-05-2.46116E-18 3.32262E-19
 -1      2529 9.92756E-05-3.42855E-05-2.80437E-05-5.24773E-05-5.03879E-19-4.25475E-18
 -1      2530 9.09341E-05-3.55411E-05-2.33068E-05-5.46623E-05 7.98329E-20-3.88756E-18
 -1      2531 1.26057E-04-5.37820E-05-3.09683E-05-4.03829E-05-4.06470E-19 2.03259E-18
 -1      2532 9.36325E-05-2.74742E-05-2.83420E-05 3.65598E-07 9.96845E-19 5.06826E-19
 -1      2533 9.39141E-05-2.73381E-05-2.84889E-05 8.99694E-07 1.14913E-18 6.46940E-19
 -1      2534 9.42744E-05-2.74898E-05-2.86354E-05 3.98698E-07 1.03102E-18 2.37742E-19
 -1      2535 7.13074E-05-5.03277E-05-8.71889E-06-4.52023E-05-7.77788E-19-4.41770E-18
 -1      2536 9.21886E-05-5.67822E-05-1.53266E-05-4.63404E-05-8.91926E-19-3.45436E-18
 -1      2537 1.44821E-04-6.29888E-05-3.50812E-05-1.65858E-05-1.57982E-18-2.20821E-18
 -1      2538 1.55052E-04-5.75941E-05-4.22028E-05-7.45695E-06-2.46090E-19-2.00641E-18
 -1      2539 1.62704E-04-4.34532E-05-5.13643E-05-3.46472E-06-8.93196E-19-1.41878E-18
 -1      2540 1.65661E-04-3.32722E-05-5.71534E-05-2.07083E-06-1.13884E-18-1.29448E-18
 -1      2541 2.75058E-05-2.86969E-05 8.81331E-07 1.93818E-05-4.13352E-19-1.94818E-19
 -1      2542 2.00669E-05-2.45708E-05 2.41781E-06 3.40606E-06-1.27979E-18-2.19424E-18
 -1      2543 1.61576E-04-2.61489E-05-5.86285E-05 6.17048E-06 5.64124E-19-1.50348E-19
 -1      2544 1.62232E-04-3.63796E-05-5.41033E-05 1.14515E-05-6.68097E-20 3.50672E-19
 -1      2545 6.58160E-05-3.30668E-05-1.41862E-05 6.15747E-05-1.74870E-18-5.96586E-18
 -1      2546 4.86500E-05-2.66179E-05-9.04369E-06 4.75452E-05-1.14985E-18-2.26624E-18
 -1      2547 3.41363E-05-1.89393E-05-6.66030E-06 3.26059E-05-1.02957E-18 9.61806E-19
 -1      2548 2.89967E-05-1.40281E-05-6.19164E-06 1.24100E-05-1.66331E-18 2.29122E-18
 -1      2549 3.82899E-05-7.11017E-06-1.28673E-05 1.00569E-06-2.73232E-18 1.66781E-18
 -1      2550 4.76979E-05-1.48402E-05-1.38914E-05 3.91684E-05-3.72557E-18-1.20025E-18
 -1      2551 1.60821E-04-1.31135E-05-6.36125E-05-9.89718E-06 1.10114E-20-1.28262E-18
 -1      2552 1.56200E-04-1.20089E-05-6.23369E-05-1.50081E-05 7.18284E-19-7.97958E-19
 -1      2553 8.78340E-05-1.07953E-05-3.30523E-05-1.51786E-06 8.69803E-20-2.25069E-18
 -1      2554 8.79395E-05-1.09172E-05-3.30437E-05-2.63608E-06-1.47941E-19-2.25407E-18
 -1      2555 8.93379E-05-1.30896E-05-3.26801E-05-2.92894E-06-2.47645E-19-2.16053E-18
 -1      2556 8.90893E-05-1.27546E-05-3.27182E-05-9.40501E-07 9.00885E-20-2.11733E-18
 -1      2557 1.56609E-04-1.02395E-05-6.33671E-05 5.19107E-06 1.70677E-18-2.57254E-18
 -1      2558 1.57367E-04-1.51730E-05-6.14000E-05 3.67794E-06 3.99588E-19-2.63703E-18
 -1      2559 1.41091E-04-7.02775E-05-3.03234E-05 1.77845E-05-6.29134E-19 1.99730E-18
 -1      2560 1.23942E-04-6.96825E-05-2.31724E-05 2.51800E-05-6.76991E-19 2.37042E-18
 -1      2561 1.58145E-04-4.65101E-05-4.80855E-05 3.69340E-06 6.32839E-19-1.62990E-18
 -1      2562 1.62505E-04-3.85795E-05-5.34697E-05 7.02993E-06 1.23752E-18-2.08751E-18
 -1      2563 1.62971E-04-2.28002E-05-6.05188E-05-2.52166E-06-9.96111E-19-1.78745E-18
 -1      2564 1.62454E-04-1.67458E-05-6.29138E-05-5.09485E-06-1.07700E-18-1.92996E-18
 -1      2565 1.46142E-04-1.32884E-05-5.72298E-05-4.20151E-06-1.95241E-19-1.92795E-18
 -1      2566 1.51419E-04-2.78244E-05-5.33321E-05 4.14656E-06-1.77962E-18-1.36859E-18
 -1      2567 1.52293E-04-7.43851E-06-6.28630E-05 1.11455E-05 1.19262E-18-2.10699E-20
 -1      2568 1.54748E-04-6.79409E-06-6.39043E-05 7.96213E-06 1.56913E-18-2.09646E-18
 -1      2569 5.06534E-05-2.42357E-05-1.09000E-05-4.21074E-05 1.84230E-20 6.00123E-19
 -1      2570 6.82260E-05-3.27099E-05-1.50592E-05-5.65252E-05-6.17487E-19-1.58014E-18
 -1      2571 1.62019E-04-4.71092E-05-4.96130E-05 2.19464E-05-1.60171E-18 5.36172E-19
 -1      2572 1.56042E-04-5.39228E-05-4.37417E-05 2.96635E-05-1.73658E-18-2.04982E-19
 -1      2573 5.52553E-05-4.43666E-05-4.55949E-06 3.69862E-05 6.71909E-19 7.73129E-19
 -1      2574 4.06506E-05-3.71987E-05-1.16914E-06 2.93893E-05 2.97520E-19-2.55380E-19
 -1      2575 9.99982E-05-6.31165E-05-1.59053E-05 3.61420E-05 4.89373E-19 9.53468E-19
 -1      2576 7.59839E-05-5.44920E-05-9.03018E-06 3.74026E-05 7.47718E-19 1.17589E-18
 -1      2577 1.60924E-04-6.18185E-05-4.28483E-05-1.30557E-06 4.16370E-19 1.35906E-18
 -1      2578 1.50295E-04-6.66101E-05-3.60591E-05 6.79349E-06 2.16523E-19 1.52191E-18
 -1      2579 1.67379E-04-4.06774E-05-5.47246E-05-1.92665E-05-5.08643E-19 1.73345E-18
 -1      2580 1.63704E-04-5.08855E-05-4.85186E-05-1.37825E-05 4.18011E-19 1.85924E-18
 -1      2581 1.61213E-04-1.98464E-05-6.11281E-05-2.17416E-05 4.17587E-19-1.78512E-19
 -1      2582 1.64908E-04-2.90193E-05-5.84170E-05-2.25600E-05-4.72009E-19 5.10126E-19
 -1      2583 1.56316E-04-3.54107E-05-5.20082E-05-2.64918E-05 3.93870E-20 4.96785E-19
 -1      2584 1.48228E-04-5.94980E-05-3.82243E-05 4.40100E-05-3.30766E-18-2.20821E-18
 -1      2585 1.33560E-04-6.08350E-05-3.08226E-05 5.20736E-05-3.19522E-18-4.55661E-18
 -1      2586 3.46911E-05-3.61199E-05 7.26072E-07-3.39169E-05-1.34445E-18-1.96723E-18
 -1      2587 4.95661E-05-4.12757E-05-3.52539E-06-4.29838E-05-6.73603E-19-3.57490E-18
 -1      2588 1.58902E-04-6.30130E-05-4.10559E-05-2.31021E-05 2.22283E-18-6.99226E-19
 -1      2589 1.63413E-04-5.71587E-05-4.61266E-05-1.46035E-05 1.48363E-19 7.16802E-19
 -1      2590 1.33257E-04-6.60599E-05-2.88653E-05-4.78579E-05 3.94103E-18-5.56712E-19
 -1      2591 1.51333E-04-6.66256E-05-3.63879E-05-3.85483E-05 2.47927E-18-1.27246E-18
 -1      2592 1.52275E-04-6.62729E-05-3.68773E-05-2.75726E-05 1.30401E-18 7.48142E-19
 -1      2593 1.85777E-05-2.57312E-05 3.30641E-06-1.30094E-05-1.95474E-18-2.88923E-18
 -1      2594 2.47328E-05-3.04271E-05 2.64058E-06-2.55856E-05-1.69216E-18-9.89334E-19
 -1      2595 3.60753E-05-2.97873E-05-2.20714E-06-3.12292E-05-7.05367E-19-2.16099E-18
 -1      2596 9.63413E-05-2.50973E-05-3.05590E-05 7.58975E-06 1.51677E-18 1.22618E-18
 -1      2597 9.74623E-05-2.37807E-05-3.15993E-05 1.06895E-05 1.67935E-18 1.50501E-18
 -1      2598 9.58958E-05-2.13049E-05-3.20234E-05 1.18910E-05 1.78657E-18 9.38195E-19
 -1      2599 9.58845E-05-2.41628E-05-3.07711E-05 7.68032E-06 1.58013E-18 4.80461E-19
 -1      2600 1.15384E-04-6.40080E-05-2.17668E-05-3.72634E-05-1.86961E-18-2.97700E-18
 -1      2601 1.31942E-04-6.57517E-05-2.86748E-05-3.06791E-05-2.34692E-18-3.57109E-18
 -1      2602 1.49982E-04-2.04419E-05-5.58103E-05 6.10618E-07 2.33823E-18 7.28660E-19
 -1      2603 9.07936E-05-1.50394E-05-3.24576E-05-6.79765E-06-8.72494E-19-2.11181E-18
 -1      2604 8.97061E-05-1.31889E-05-3.28445E-05-7.94779E-06-9.28608E-19-2.18254E-18
 -1      2605 9.03368E-05-1.39073E-05-3.28173E-05-9.17764E-06-1.19243E-18-2.03075E-18
 -1      2606 1.08295E-04-6.17000E-05-1.95756E-05-3.96954E-05-1.74086E-18-2.95634E-18
 -1      2607 1.48895E-04-1.01635E-05-5.99350E-05 1.45136E-05 2.01001E-18 4.33681E-19
 -1      2608 1.35342E-04-5.25402E-06-5.63294E-05 1.32537E-05 1.42069E-18 1.53662E-18
 -1      2609 1.41666E-04-1.24086E-05-5.58967E-05 1.72810E-05 2.89092E-18 4.84397E-19
 -1      2610 9.42501E-05-1.90826E-05-3.22598E-05 1.15999E-05 1.79084E-18 1.12377E-19
 -1      2611 9.20505E-05-1.62337E-05-3.25343E-05-1.03855E-05-1.35492E-18-1.56184E-18
 -1      2612 1.16272E-04-4.10821E-05-3.23973E-05 3.32688E-06-1.57403E-19 1.15247E-18
 -1      2613 1.13666E-04-3.99661E-05-3.15809E-05 8.52616E-07 6.99557E-19 1.13185E-18
 -1      2614 1.16555E-04-4.18490E-05-3.20873E-05-3.74940E-06 6.41525E-19 1.38331E-19
 -1      2615 1.27989E-04-4.67810E-05-3.52340E-05 2.16372E-06 6.95096E-20 4.41569E-19
 -1      2616 9.42000E-05-2.96231E-05-2.76819E-05-1.14696E-05 1.33645E-18 2.32133E-18
 -1      2617 9.47396E-05-2.69400E-05-2.90694E-05 1.87980E-06 1.31462E-18 5.67760E-20
 -1      2618 9.58339E-05-3.03570E-05-2.79984E-05-1.13084E-05 7.12049E-19 1.20976E-18
 -1      2619 6.57665E-05-1.56409E-05-2.07242E-05 5.14980E-05-3.86247E-18-3.28056E-18
 -1      2620 7.61618E-05-2.98174E-05-1.85305E-05 5.98217E-05-3.52027E-18-8.62195E-18
 -1      2621 5.42384E-05-1.34535E-05-1.67582E-05-3.57374E-05 4.45857E-19-1.60936E-20
 -1      2622 5.42602E-05-1.62293E-06-2.15460E-05-2.37949E-05-9.93146E-20-1.19114E-18
 -1      2623 5.34548E-05-8.48945E-06-1.89299E-05 3.39167E-05-4.35476E-18-2.07015E-18
 -1      2624 1.48136E-04-1.54933E-05-5.72388E-05-1.97262E-05 4.37493E-19-1.27696E-18
 -1      2625 1.40786E-04-6.66439E-05-3.16012E-05-1.83057E-05-2.88425E-18-1.37558E-18
 -1      2626 1.58883E-04-5.74223E-05-4.36192E-05-1.49254E-05 9.36342E-19 1.54075E-18
 -1      2627 1.28586E-04-5.93805E-05-2.92483E-05 5.50384E-05-3.01565E-18-4.77335E-18
 -1      2628 6.66666E-05-4.45170E-05-8.94855E-06-4.44808E-05-6.52851E-19-4.50643E-18
 -1      2629 1.16412E-04-6.74840E-05-2.06558E-05 2.87717E-05 7.20402E-19 1.50248E-18
 -1      2630 1.07963E-04-6.25316E-05-1.89656E-05 3.08096E-05 1.08336E-18 1.72541E-18
 -1      2631 1.28213E-04-7.00108E-05-2.52692E-05 1.89607E-05 7.43060E-19 3.03831E-18
 -1      2632 1.53884E-04-5.36233E-05-4.30470E-05 4.34834E-06-6.31728E-19-5.38713E-19
 -1      2633 1.18939E-04-4.26579E-05-3.24983E-05-9.61859E-06 5.35676E-19-1.20594E-18
 -1      2634 7.35240E-05-4.88043E-05-1.00562E-05 3.66175E-05 1.10051E-18 1.16340E-18
 -1      2635 1.56946E-04-4.24202E-05-4.90473E-05 1.00114E-05 4.80479E-19 2.68679E-18
 -1      2636 1.42403E-04-6.08545E-06-5.87840E-05 4.56939E-06 1.40353E-18-1.17383E-18
 -1      2637 1.29524E-04-5.06996E-05-3.36226E-05-1.24563E-05 5.34319E-19 4.72988E-19
 -1      2638 2.55046E-05-2.18080E-05-1.00492E-06-4.50262E-06-1.28307E-18-1.88952E-18
 -1      2639 4.00139E-05-2.97403E-05-3.84080E-06 2.38333E-05 3.23143E-19 2.59404E-19
 -1      2640 1.57485E-04-5.09760E-05-4.58307E-05-2.23785E-06-4.62215E-19-6.25322E-19
 -1      2641 9.68908E-05-2.87432E-05-2.91987E-05-1.15629E-05-3.31699E-21-7.47318E-19
 -1      2642 4.43413E-05-9.16323E-07-1.84156E-05-2.36127E-06-2.19428E-18 9.40207E-20
 -1      2643 1.47287E-04-7.09904E-05-3.27814E-05 5.07346E-06 9.03149E-20 2.21901E-18
 -1      2644 1.54555E-04-3.09711E-05-5.33044E-05 1.64163E-05 2.66371E-18 2.28064E-19
 -1      2645 9.47193E-05-2.06035E-05-3.17195E-05 9.66657E-06 1.68322E-18-1.84005E-19
 -1      2646 1.52044E-04-5.92212E-05-3.97679E-05 3.19575E-05-1.96173E-18 2.62093E-18
 -1      2647 9.15029E-05-4.91117E-05-1.79008E-05-5.91018E-05-1.04249E-18-4.42374E-18
 -1      2648 1.15699E-04-5.96339E-05-2.38920E-05-5.99101E-05 2.51823E-18-3.68983E-18
 -1      2649 1.29249E-04-6.22032E-05-2.85195E-05-4.99548E-05 2.58366E-18-1.30972E-18
 -1      2650 9.05522E-05-1.51702E-05-3.23289E-05 3.19372E-06 7.42420E-19-1.76099E-18
 -1      2651 9.03614E-05-1.48985E-05-3.23615E-05 2.26027E-06 5.42393E-19-1.77964E-18
 -1      2652 9.02268E-05-1.46955E-05-3.23904E-05 1.42226E-06 4.65918E-19-1.91677E-18
 -1      2653 9.01613E-05-1.46028E-05-3.24014E-05 4.65468E-07 3.00726E-19-1.83648E-18
 -1      2654 9.14123E-05-1.65902E-05-3.20537E-05 1.64078E-06 4.72805E-19-1.77780E-18
 -1      2655 9.21412E-05-1.75516E-05-3.20049E-05 6.46995E-06 1.50263E-18-1.26158E-18
 -1      2656 9.16130E-05-1.67548E-05-3.21045E-05 5.62995E-06 1.37103E-18-1.33029E-18
 -1      2657 9.35614E-05-1.97747E-05-3.16652E-05 7.59369E-06 1.64642E-18-9.02725E-19
 -1      2658 9.27709E-05-1.85203E-05-3.18386E-05 7.01651E-06 1.51948E-18-1.06225E-18
 -1      2659 9.34365E-05-1.98670E-05-3.15068E-05 5.73129E-06 1.41988E-18-1.06704E-18
 -1      2660 9.52224E-05-2.54097E-05-2.99319E-05 3.97338E-06 1.42034E-18-3.65897E-19
 -1      2661 9.55585E-05-2.45598E-05-3.03956E-05 5.60629E-06 1.37119E-18-3.53372E-19
 -1      2662 1.36001E-04-5.30293E-05-3.55481E-05-8.85014E-06-5.45277E-19 4.23199E-19
 -1      2663 9.52069E-05-2.39745E-05-3.05193E-05-5.29752E-06-1.14355E-18-1.07848E-18
 -1      2664 9.51601E-05-2.49969E-05-3.00883E-05-3.78700E-06-1.02431E-18-1.03551E-18
 -1      2665 9.53615E-05-2.59056E-05-2.97377E-05-2.69975E-06-8.91922E-19-9.70611E-19
 -1      2666 9.51968E-05-2.64926E-05-2.94567E-05-1.71753E-06-7.26732E-19-9.79194E-19
 -1      2667 9.52158E-05-2.47030E-05-3.02191E-05-3.52930E-06-9.57092E-19-1.12795E-18
 -1      2668 9.52191E-05-2.70059E-05-2.92109E-05-9.76060E-07-5.89123E-19-9.02389E-19
 -1      2669 9.50844E-05-2.73603E-05-2.90310E-05-3.70834E-07-6.43381E-19-8.31483E-19
 -1      2670 9.54154E-05-2.63295E-05-2.96143E-05-1.61518E-06-7.01344E-19-1.08418E-18
 -1      2671 9.50519E-05-2.76670E-05-2.88633E-05 9.58069E-08-7.12505E-19-6.88779E-19
 -1      2672 9.49743E-05-2.78921E-05-2.87525E-05 4.46149E-07-7.56526E-19-6.99462E-19
 -1      2673 9.54165E-05-2.73250E-05-2.91893E-05-3.36624E-07-6.08675E-19-9.34643E-19
 -1      2674 9.49320E-05-2.80777E-05-2.86416E-05 7.14539E-07-7.49438E-19-4.50778E-19
 -1      2675 9.49036E-05-2.82251E-05-2.85776E-05 8.96748E-07-5.93263E-19-4.92169E-19
 -1      2676 9.53560E-05-2.79419E-05-2.88985E-05 4.51312E-07-6.41018E-19-7.17147E-19
 -1      2677 9.48684E-05-2.83375E-05-2.85071E-05 1.02953E-06-5.85916E-19-6.54386E-19
 -1      2678 9.48751E-05-2.84352E-05-2.84742E-05 1.10290E-06-5.37878E-19-8.92389E-19
 -1      2679 9.52913E-05-2.83238E-05-2.87057E-05 8.90647E-07-7.52159E-19-5.42860E-19
 -1      2680 9.48503E-05-2.85013E-05-2.84320E-05 1.14629E-06-5.28005E-19-1.01325E-18
 -1      2681 9.48787E-05-2.85655E-05-2.84194E-05 1.15150E-06-5.54144E-19-8.96523E-19
 -1      2682 9.52414E-05-2.85573E-05-2.85829E-05 1.09273E-06-6.96144E-19-7.98004E-19
 -1      2683 9.48635E-05-2.86014E-05-2.83966E-05 1.13894E-06-4.04307E-19-8.01539E-19
 -1      2684 9.49033E-05-2.86424E-05-2.83967E-05 1.10378E-06-6.50975E-20-5.09182E-19
 -1      2685 9.52089E-05-2.86938E-05-2.85094E-05 1.14040E-06-3.61459E-19-1.43084E-19
 -1      2686 9.48953E-05-2.86586E-05-2.83870E-05 1.05878E-06-4.67807E-20-6.85600E-19
 -1      2687 9.49393E-05-2.86832E-05-2.83946E-05 1.00218E-06-7.11499E-20-7.61079E-19
 -1      2688 9.51910E-05-2.87661E-05-2.84698E-05 1.09317E-06-7.62877E-20-3.57766E-19
 -1      2689 9.49364E-05-2.86866E-05-2.83933E-05 9.41005E-07-8.40255E-20-6.95050E-19
 -1      2690 9.49802E-05-2.86996E-05-2.84051E-05 8.75690E-07 5.09884E-20-6.68763E-19
 -1      2691 9.51835E-05-2.87961E-05-2.84531E-05 9.92831E-07-1.48912E-19-6.80550E-19
 -1      2692 9.49805E-05-2.86947E-05-2.84092E-05 8.09353E-07-5.74391E-20-8.51097E-19
 -1      2693 9.50215E-05-2.86996E-05-2.84228E-05 7.43733E-07 9.95178E-21-8.15122E-19
 -1      2694 9.51832E-05-2.87983E-05-2.84515E-05 8.68192E-07-1.90144E-19-1.00216E-18
 -1      2695 9.50239E-05-2.86896E-05-2.84302E-05 6.79530E-07-7.88787E-20-1.04989E-18
 -1      2696 9.50609E-05-2.86888E-05-2.84443E-05 6.19075E-07-4.34846E-19-8.58907E-19
 -1      2697 9.51873E-05-2.87828E-05-2.84596E-05 7.38682E-07-7.98159E-20-1.22133E-18
 -1      2698 9.50645E-05-2.86757E-05-2.84536E-05 5.61769E-07-6.18524E-19-3.57394E-19
 -1      2699 9.50972E-05-2.86707E-05-2.84676E-05 5.10014E-07-4.83097E-19-1.89176E-19
 -1      2700 9.51940E-05-2.87562E-05-2.84737E-05 6.17180E-07-1.90237E-19-8.70476E-19
 -1      2701 9.51017E-05-2.86556E-05-2.84781E-05 4.62737E-07-6.37548E-19-1.58811E-19
 -1      2702 9.51307E-05-2.86476E-05-2.84918E-05 4.22044E-07-9.69576E-19-1.43562E-19
 -1      2703 9.52023E-05-2.87225E-05-2.84916E-05 5.12188E-07-5.82994E-19-5.29628E-19
 -1      2704 9.51357E-05-2.86311E-05-2.85031E-05 3.86991E-07-1.12807E-18-1.66497E-19
 -1      2705 9.51620E-05-2.86207E-05-2.85167E-05 3.59129E-07-9.62693E-19-2.95289E-19
 -1      2706 9.52115E-05-2.86840E-05-2.85120E-05 4.29477E-07-1.01112E-18-3.75677E-20
 -1      2707 9.51675E-05-2.86026E-05-2.85289E-05 3.38091E-07-5.21188E-19-3.62565E-19
 -1      2708 9.51925E-05-2.85900E-05-2.85428E-05 3.24689E-07-5.77295E-19-4.55928E-19
 -1      2709 9.52215E-05-2.86414E-05-2.85345E-05 3.73367E-07-7.99688E-19 1.76297E-19
 -1      2710 9.51986E-05-2.85701E-05-2.85561E-05 3.19471E-07-6.45833E-19-6.27029E-19
 -1      2711 9.52242E-05-2.85552E-05-2.85711E-05 3.22372E-07-3.29199E-19-4.14467E-19
 -1      2712 9.52324E-05-2.85943E-05-2.85594E-05 3.47723E-07-6.24274E-19-3.86236E-19
 -1      2713 9.52309E-05-2.85325E-05-2.85860E-05 3.35125E-07-5.98419E-19-3.83514E-19
 -1      2714 9.52590E-05-2.85150E-05-2.86029E-05 3.56681E-07-6.10293E-19-4.90065E-19
 -1      2715 9.52443E-05-2.85413E-05-2.85873E-05 3.56719E-07-5.27294E-19-6.08381E-19
 -1      2716 9.52666E-05-2.84885E-05-2.86202E-05 3.90162E-07-2.12329E-19-5.57569E-19
 -1      2717 9.52996E-05-2.84678E-05-2.86401E-05 4.33467E-07 3.60097E-19-4.79336E-19
 -1      2718 9.52575E-05-2.84801E-05-2.86193E-05 4.05453E-07-3.94475E-19-1.66019E-19
 -1      2719 9.53080E-05-2.84360E-05-2.86606E-05 4.91256E-07 4.17235E-19-7.47650E-19
 -1      2720 9.53486E-05-2.84113E-05-2.86847E-05 5.60361E-07 3.43487E-19-1.30081E-18
 -1      2721 9.52721E-05-2.84077E-05-2.86567E-05 5.00428E-07 1.95415E-19-8.24038E-19
 -1      2722 9.53576E-05-2.83724E-05-2.87093E-05 6.47034E-07 6.32861E-19-9.53688E-19
 -1      2723 9.54089E-05-2.83429E-05-2.87392E-05 7.47118E-07 7.57198E-19-7.97588E-19
 -1      2724 9.52881E-05-2.83202E-05-2.87011E-05 6.49931E-07 8.01884E-19-1.62055E-18
 -1      2725 9.54179E-05-2.82946E-05-2.87689E-05 8.68377E-07 1.83406E-19-9.61527E-19
 -1      2726 9.54830E-05-2.82589E-05-2.88060E-05 1.00589E-06 5.94497E-20-1.03168E-18
 -1      2727 9.53046E-05-2.82128E-05-2.87542E-05 8.64318E-07 2.70483E-19-5.19810E-19
 -1      2728 9.54907E-05-2.81985E-05-2.88417E-05 1.16863E-06-2.01947E-19-1.25705E-18
 -1      2729 9.55730E-05-2.81554E-05-2.88879E-05 1.35138E-06-4.70413E-19-1.39030E-18
 -1      2730 9.53198E-05-2.80799E-05-2.88177E-05 1.15618E-06-3.12589E-19-1.08773E-18
 -1      2731 9.55771E-05-2.80796E-05-2.89304E-05 1.56371E-06-1.87820E-19-7.22303E-19
 -1      2732 9.56801E-05-2.80277E-05-2.89874E-05 1.80082E-06 6.74489E-19-5.42457E-19
 -1      2733 9.53304E-05-2.79147E-05-2.88928E-05 1.54032E-06 3.73237E-20-9.87030E-19
 -1      2734 9.56768E-05-2.79327E-05-2.90370E-05 2.07189E-06 2.38965E-19-8.95569E-19
 -1      2735 9.58034E-05-2.78706E-05-2.91062E-05 2.37360E-06-2.66981E-19-1.27686E-18
 -1      2736 9.53303E-05-2.77097E-05-2.89802E-05 2.03358E-06 3.56306E-19-5.67432E-19
 -1      2737 9.57871E-05-2.77528E-05-2.91626E-05 2.71332E-06 3.29845E-19-1.48539E-18
 -1      2738 9.59399E-05-2.76800E-05-2.92449E-05 3.09036E-06 5.41559E-19-1.01899E-18
 -1      2739 9.53107E-05-2.74571E-05-2.90794E-05 2.65419E-06 3.21242E-20-6.17920E-19
 -1      2740 9.59027E-05-2.75366E-05-2.93063E-05 3.50871E-06 3.93335E-19-1.24036E-18
 -1      2741 9.60837E-05-2.74548E-05-2.94015E-05 3.97109E-06 1.35601E-19-7.88943E-19
 -1      2742 9.52584E-05-2.71505E-05-2.91872E-05 3.42069E-06 2.52256E-19-3.09418E-19
 -1      2743 9.60163E-05-2.72860E-05-2.94642E-05 4.47708E-06-9.30061E-20-6.13093E-20
 -1      2744 9.62279E-05-2.72024E-05-2.95700E-05 5.03166E-06 1.82140E-19 4.97261E-19
 -1      2745 9.51567E-05-2.67884E-05-2.92972E-05 4.35011E-06 4.87256E-19-3.29601E-19
 -1      2746 9.61217E-05-2.70165E-05-2.96267E-05 5.63166E-06-7.05163E-20-1.33292E-19
 -1      2747 9.63692E-05-2.69498E-05-2.97374E-05 6.27799E-06 1.47544E-20-4.08889E-19
 -1      2748 9.49877E-05-2.63818E-05-2.93970E-05 5.45531E-06-1.23102E-19 6.73842E-19
 -1      2749 9.62226E-05-2.67716E-05-2.97764E-05 6.97332E-06-8.40331E-20-1.39655E-20
 -1      2750 9.65215E-05-2.67633E-05-2.98814E-05 7.69675E-06-1.48103E-19 4.68987E-19
 -1      2751 9.47404E-05-2.59684E-05-2.94660E-05 6.74144E-06 3.88192E-19-1.09491E-18
 -1      2752 9.63535E-05-2.66503E-05-2.98847E-05 8.48040E-06-3.11191E-19 7.21941E-19
 -1      2753 9.67442E-05-2.67839E-05-2.99669E-05 9.24112E-06 7.90321E-20 9.30844E-19
 -1      2754 9.44286E-05-2.56387E-05-2.94724E-05 8.20201E-06-2.96646E-19 8.01903E-19
 -1      2755 9.66209E-05-2.68519E-05-2.99099E-05 1.00929E-05-1.60613E-19 4.96798E-19
 -1      2756 9.71968E-05-2.72819E-05-2.99459E-05 1.08095E-05-2.72281E-19 5.00876E-19
 -1      2757 9.41286E-05-2.55793E-05-2.93711E-05 9.81495E-06-4.13328E-20 7.10289E-19
 -1      2758 9.72775E-05-2.77420E-05-2.98001E-05 1.16868E-05 5.24579E-19 3.18096E-19
 -1      2759 9.82283E-05-2.87294E-05-2.97653E-05 1.22114E-05 1.31394E-18 1.43447E-18
 -1      2760 9.40474E-05-2.61387E-05-2.91057E-05 1.15374E-05 4.26301E-19 6.84047E-19
 -1      2761 9.88375E-05-2.99253E-05-2.95092E-05 1.30235E-05 8.99201E-19 8.39568E-19
 -1      2762 1.00499E-04-3.18557E-05-2.93944E-05 1.31021E-05 4.88880E-19 6.75976E-19
 -1      2763 9.46371E-05-2.79133E-05-2.86216E-05 1.32875E-05 4.07848E-19-3.13347E-19
 -1      2764 1.02218E-04-3.42711E-05-2.90427E-05 1.36466E-05 5.64566E-19 3.11655E-19
 -1      2765 1.05048E-04-3.75952E-05-2.88952E-05 1.28615E-05-1.44121E-19 1.69299E-19
 -1      2766 9.67474E-05-3.18127E-05-2.79038E-05 1.48807E-05 1.07097E-19-9.05266E-20
 -1      2767 1.08823E-04-4.16964E-05-2.85850E-05 1.24782E-05 3.33685E-20-4.79103E-20
 -1      2768 1.13142E-04-4.63712E-05-2.86021E-05 1.01392E-05 6.36161E-19 5.81012E-21
 -1      2769 1.01916E-04-3.91317E-05-2.70808E-05 1.57896E-05 3.97636E-19-1.27029E-18
 -1      2770 1.19782E-04-5.20976E-05-2.87379E-05 7.87655E-06 7.77295E-19 1.06008E-18
 -1      2771 1.25248E-04-5.69659E-05-2.93068E-05 3.11551E-06 6.64736E-19 1.20891E-18
 -1      2772 1.11741E-04-4.96767E-05-2.67720E-05 1.40383E-05 9.93712E-19 1.05614E-20
 -1      2773 1.43529E-04-3.26274E-05-4.83209E-05-3.02683E-05 8.45127E-19-9.25913E-19
 -1      2774 1.40880E-04-2.02653E-05-5.22392E-05-2.75109E-05 9.09713E-19-1.52657E-18
 -1      2775 1.42153E-04-3.30904E-05-4.71530E-05 8.60055E-06-2.40324E-18-2.25935E-18
 -1      2776 1.42287E-04-4.33123E-05-4.32102E-05 5.47159E-06-1.75675E-18-2.26370E-18
 -1      2777 9.44823E-05-2.81312E-05-2.84360E-05-8.96895E-07 5.30777E-19 3.13583E-20
 -1      2778 9.44983E-05-2.80035E-05-2.84867E-05-7.21717E-07 6.38319E-19 2.43340E-19
 -1      2779 3.56561E-05-2.40133E-05-4.48654E-06-2.62833E-05-7.47930E-19-2.34395E-18
 -1      2780 4.58502E-05-3.04125E-05-6.21987E-06-3.61756E-05-7.11508E-20-3.12449E-18
 -1      2781 9.45597E-05-2.78529E-05-2.85895E-05-4.46936E-07 6.01142E-19 1.28968E-19
 -1      2782 9.46441E-05-2.76640E-05-2.86882E-05-1.04626E-07 7.38059E-19 4.60061E-20
 -1      2783 9.50121E-05-2.79127E-05-2.87648E-05-4.55323E-07 6.09348E-19-5.58328E-20
 -1      2784 9.45224E-05-2.84371E-05-2.83214E-05-1.14669E-06 1.79489E-20 3.00757E-19
 -1      2785 9.44655E-05-2.83729E-05-2.83223E-05-1.14434E-06 1.06783E-19 1.79459E-19
 -1      2786 9.45940E-05-2.85175E-05-2.83177E-05-1.09763E-06 6.25181E-19 1.91494E-19
 -1      2787 9.45250E-05-2.84719E-05-2.83074E-05-1.13399E-06 3.71714E-19 3.70900E-19
 -1      2788 9.48971E-05-2.85767E-05-2.84260E-05-1.16434E-06 2.77652E-19-1.25994E-19
 -1      2789 9.46776E-05-2.85683E-05-2.83317E-05-9.95534E-07 8.18590E-19 2.86169E-19
 -1      2790 9.46060E-05-2.85368E-05-2.83156E-05-1.05227E-06 6.65857E-19 1.73415E-19
 -1      2791 9.49176E-05-2.86510E-05-2.84019E-05-1.11523E-06 6.61158E-19 3.97950E-20
 -1      2792 9.47631E-05-2.85982E-05-2.83557E-05-8.68996E-07 8.92185E-19 5.09751E-19
 -1      2793 9.46946E-05-2.85772E-05-2.83370E-05-9.33883E-07 9.78722E-19 6.56808E-19
 -1      2794 9.49504E-05-2.86895E-05-2.83987E-05-1.01211E-06 7.55570E-19 4.17683E-19
 -1      2795 9.48444E-05-2.86131E-05-2.83842E-05-7.37038E-07 3.80398E-19 8.46650E-19
 -1      2796 9.47820E-05-2.86001E-05-2.83651E-05-8.02057E-07 9.29428E-19 7.15781E-19
 -1      2797 9.49886E-05-2.87040E-05-2.84083E-05-8.84242E-07 6.85601E-19 6.37412E-19
 -1      2798 9.49182E-05-2.86173E-05-2.84141E-05-6.12065E-07-1.96787E-19 6.56198E-19
 -1      2799 9.48633E-05-2.86102E-05-2.83957E-05-6.72053E-07 3.27089E-20 8.05205E-19
 -1      2800 9.50277E-05-2.87024E-05-2.84254E-05-7.51216E-07 2.11512E-19 1.11482E-18
 -1      2801 9.49837E-05-2.86138E-05-2.84436E-05-5.02038E-07-1.27382E-19 2.86636E-19
 -1      2802 9.49363E-05-2.86113E-05-2.84265E-05-5.53716E-07-5.34157E-20 4.29932E-19
 -1      2803 9.50651E-05-2.86901E-05-2.84465E-05-6.25913E-07 7.72250E-20 6.88395E-19
 -1      2804 9.50414E-05-2.86047E-05-2.84722E-05-4.12099E-07 8.03024E-20-1.05671E-19
 -1      2805 9.50004E-05-2.86056E-05-2.84563E-05-4.53346E-07-2.86201E-20 1.09550E-19
 -1      2806 9.50997E-05-2.86707E-05-2.84696E-05-5.16715E-07-1.49099E-22 6.97950E-19
 -1      2807 9.50928E-05-2.85914E-05-2.84998E-05-3.45789E-07-1.68608E-21-6.45442E-20
 -1      2808 9.50569E-05-2.85950E-05-2.84849E-05-3.75101E-07 1.08686E-21-6.06292E-20
 -1      2809 9.51314E-05-2.86463E-05-2.84936E-05-4.29165E-07-5.52743E-20 1.74842E-19
 -1      2810 9.51405E-05-2.85746E-05-2.85273E-05-3.05969E-07 2.99414E-19 1.05396E-19
 -1      2811 9.51075E-05-2.85803E-05-2.85128E-05-3.22055E-07 3.20604E-19 1.76317E-19
 -1      2812 9.51608E-05-2.86180E-05-2.85184E-05-3.67225E-07-8.32044E-21 4.45326E-19
 -1      2813 9.51876E-05-2.85548E-05-2.85557E-05-2.95499E-07-5.17089E-20-3.67547E-19
 -1      2814 9.51551E-05-2.85622E-05-2.85408E-05-2.96984E-07 1.67358E-19 1.44804E-20
 -1      2815 9.51890E-05-2.85862E-05-2.85443E-05-3.34227E-07 1.98892E-19 4.66352E-19
 -1      2816 9.52377E-05-2.85322E-05-2.85866E-05-3.17705E-07 1.84248E-19-5.19856E-19
 -1      2817 9.52030E-05-2.85409E-05-2.85704E-05-3.02933E-07-1.10034E-19-8.55580E-19
 -1      2818 9.52179E-05-2.85505E-05-2.85720E-05-3.33553E-07 2.72338E-19-4.77783E-19
 -1      2819 9.52953E-05-2.85069E-05-2.86217E-05-3.76664E-07-1.96628E-19-7.08832E-19
 -1      2820 9.52551E-05-2.85165E-05-2.86030E-05-3.43586E-07 2.63899E-19-4.22490E-19
 -1      2821 9.52493E-05-2.85104E-05-2.86028E-05-3.69108E-07 6.69569E-20-4.90171E-19
 -1      2822 9.53654E-05-2.84796E-05-2.86629E-05-4.77291E-07-7.79014E-20-1.43236E-19
 -1      2823 9.53162E-05-2.84894E-05-2.86408E-05-4.23460E-07-4.03162E-19-6.15603E-19
 -1      2824 9.52860E-05-2.84654E-05-2.86380E-05-4.45587E-07-1.57248E-19 1.23384E-20
 -1      2825 9.54540E-05-2.84511E-05-2.87125E-05-6.25180E-07 9.40463E-20 1.00943E-18
 -1      2826 9.53914E-05-2.84603E-05-2.86855E-05-5.47871E-07 1.34593E-19 4.13180E-19
 -1      2827 9.53312E-05-2.84152E-05-2.86791E-05-5.68518E-07-1.65133E-19 5.52168E-19
 -1      2828 9.55681E-05-2.84237E-05-2.87725E-05-8.26119E-07 1.70372E-19 6.62493E-19
 -1      2829 9.54874E-05-2.84306E-05-2.87394E-05-7.22626E-07 3.26616E-19 1.16782E-18
 -1      2830 9.53887E-05-2.83603E-05-2.87275E-05-7.44035E-07-1.99067E-19 1.49786E-18
 -1      2831 9.57158E-05-2.84014E-05-2.88447E-05-1.08517E-06-2.41996E-19 4.26672E-19
 -1      2832 9.56117E-05-2.84033E-05-2.88043E-05-9.53341E-07 3.03743E-19 4.95020E-19
 -1      2833 9.54636E-05-2.83028E-05-2.87845E-05-9.78289E-07 2.55888E-19 1.47582E-18
 -1      2834 9.59069E-05-2.83907E-05-2.89306E-05-1.40516E-06-3.71860E-19 7.41511E-21
 -1      2835 9.57733E-05-2.83836E-05-2.88820E-05-1.24425E-06-1.66075E-19 4.20287E-19
 -1      2836 9.55626E-05-2.82473E-05-2.88509E-05-1.27639E-06 6.68057E-20 1.29074E-18
 -1      2837 9.61528E-05-2.84023E-05-2.90306E-05-1.78431E-06-1.20043E-19 4.12408E-19
 -1      2838 9.59832E-05-2.83802E-05-2.89733E-05-1.59632E-06-2.66996E-19-6.76680E-20
 -1      2839 9.56943E-05-2.82022E-05-2.89270E-05-1.64071E-06-1.73095E-19 1.38732E-18
 -1      2840 9.64676E-05-2.84526E-05-2.91439E-05-2.21293E-06-1.25680E-19 2.82387E-19
 -1      2841 9.62549E-05-2.84065E-05-2.90782E-05-2.00442E-06-6.32009E-20 1.57839E-19
 -1      2842 9.58709E-05-2.81818E-05-2.90118E-05-2.06829E-06-9.94802E-20 3.89811E-19
 -1      2843 9.68681E-05-2.85659E-05-2.92675E-05-2.66867E-06-2.10417E-19 1.50205E-19
 -1      2844 9.66052E-05-2.84832E-05-2.91949E-05-2.45333E-06-2.14635E-20 4.47424E-19
 -1      2845 9.61091E-05-2.82085E-05-2.91030E-05-2.54726E-06-1.37211E-19 7.06577E-19
 -1      2846 9.73751E-05-2.87764E-05-2.93960E-05-3.11056E-06 2.28668E-19 1.31374E-19
 -1      2847 9.70550E-05-2.86398E-05-2.93194E-05-2.91241E-06 1.21580E-19-7.43652E-20
 -1      2848 9.64327E-05-2.83162E-05-2.91962E-05-3.05191E-06-2.25336E-19 8.01877E-19
 -1      2849 9.80141E-05-2.91297E-05-2.95212E-05-3.47164E-06 2.93645E-19 3.70644E-19
 -1      2850 9.76307E-05-2.89174E-05-2.94454E-05-3.32871E-06 3.35842E-19 2.71050E-19
 -1      2851 9.68750E-05-2.85529E-05-2.92854E-05-3.53631E-06 4.37330E-19 6.57280E-19
 -1      2852 9.88148E-05-2.96821E-05-2.96322E-05-3.65118E-06-5.52969E-19 3.29284E-19
 -1      2853 9.83646E-05-2.93687E-05-2.95637E-05-3.61908E-06 8.40594E-21 7.36622E-19
 -1      2854 9.74816E-05-2.89827E-05-2.93628E-05-3.92661E-06-9.53511E-20 3.58585E-19
 -1      2855 9.98078E-05-3.04929E-05-2.97169E-05-3.50837E-06-6.90602E-19-3.71314E-20
 -1      2856 9.92930E-05-3.00549E-05-2.96635E-05-3.66222E-06-6.70973E-19-1.01556E-19
 -1      2857 9.83118E-05-2.96840E-05-2.94204E-05-4.11253E-06-2.65610E-20-6.92222E-20
 -1      2858 1.01013E-04-3.16058E-05-2.97659E-05-2.86186E-06 7.85781E-19 6.25678E-19
 -1      2859 1.00450E-04-3.10329E-05-2.97348E-05-3.29366E-06-5.61659E-19-4.12101E-21
 -1      2860 9.94352E-05-3.07379E-05-2.94532E-05-3.93968E-06-6.45119E-19-3.88552E-19
 -1      2861 1.02417E-04-3.30082E-05-2.97778E-05-1.50339E-06-9.74088E-21 1.69601E-18
 -1      2862 1.01845E-04-3.23263E-05-2.97731E-05-2.30984E-06 9.47696E-19 1.42924E-18
 -1      2863 1.00916E-04-3.22000E-05-2.94644E-05-3.20663E-06 1.92155E-19 1.23815E-18
 -1      2864 1.03924E-04-3.45659E-05-2.97673E-05 7.58725E-07-3.09177E-19 1.32420E-18
 -1      2865 1.03429E-04-3.38704E-05-2.97860E-05-4.94107E-07-3.46881E-19 1.16329E-18
 -1      2866 1.02775E-04-3.40420E-05-2.94733E-05-1.67654E-06 7.91622E-20 1.18923E-18
 -1      2867 1.05292E-04-3.59369E-05-2.97735E-05 4.01040E-06-4.79293E-19 1.39662E-18
 -1      2868 1.05026E-04-3.54336E-05-2.98012E-05 2.31834E-06 1.58263E-19 2.08184E-18
 -1      2869 1.04921E-04-3.60635E-05-2.95234E-05 8.78082E-07-6.02350E-19 4.10854E-19
 -1      2870 1.06077E-04-3.65071E-05-2.98606E-05 8.06521E-06-1.41215E-18 2.60389E-18
 -1      2871 1.06255E-04-3.65251E-05-2.98720E-05 6.10408E-06-9.69325E-19 2.19930E-18
 -1      2872 1.07039E-04-3.77635E-05-2.96892E-05 4.57203E-06-1.07977E-18 1.89160E-18
 -1      2873 1.05675E-04-3.54963E-05-3.00950E-05 1.22272E-05-1.71452E-18 2.50312E-18
 -1      2874 1.06507E-04-3.63908E-05-3.00643E-05 1.04184E-05-1.70072E-18 2.40849E-18
 -1      2875 1.08492E-04-3.82916E-05-3.00643E-05 9.17238E-06-1.57062E-18 2.43853E-18
 -1      2876 1.03639E-04-3.23769E-05-3.05086E-05 1.52215E-05-1.80992E-19 2.63116E-18
 -1      2877 1.05180E-04-3.43061E-05-3.04204E-05 1.42107E-05-1.13078E-18 2.07808E-18
 -1      2878 1.08460E-04-3.66981E-05-3.07110E-05 1.37810E-05-1.07335E-18 2.93672E-18
 -1      2879 9.99961E-05-2.73696E-05-3.10550E-05 1.54283E-05 3.07083E-19 1.41239E-18
 -1      2880 1.02011E-04-3.00260E-05-3.09334E-05 1.59290E-05 4.20995E-19 2.15093E-18
 -1      2881 1.06327E-04-3.23754E-05-3.16303E-05 1.68864E-05 3.80745E-19 2.60952E-18
 -1      2882 9.58697E-05-2.21589E-05-3.15199E-05 1.17149E-05 3.57799E-19 1.06664E-18
 -1      2883 9.77325E-05-2.45570E-05-3.14463E-05 1.39967E-05-3.71801E-20 6.86466E-19
 -1      2884 1.02311E-04-2.61059E-05-3.26392E-05 1.63934E-05 7.39837E-19 1.49324E-18
 -1      2885 9.29514E-05-1.90457E-05-3.16469E-05 4.73633E-06 1.31441E-18 1.89044E-19
 -1      2886 9.40205E-05-2.01418E-05-3.17019E-05 8.24743E-06 1.04139E-18 6.39181E-19
 -1      2887 9.80407E-05-2.02681E-05-3.33628E-05 1.13744E-05 7.97415E-19 6.27620E-19
 -1      2888 9.23666E-05-1.94559E-05-3.12728E-05-3.05765E-06 1.54234E-18-3.98344E-19
 -1      2889 9.23784E-05-1.88299E-05-3.14911E-05 4.45901E-07 1.92008E-18 7.28586E-19
 -1      2890 9.55512E-05-1.76066E-05-3.34408E-05 3.19134E-06 1.64250E-18 2.18206E-19
 -1      2891 9.34946E-05-2.26352E-05-3.04303E-05-8.88370E-06 9.75815E-19-9.20543E-19
 -1      2892 9.28469E-05-2.08781E-05-3.07879E-05-6.50244E-06 1.25587E-18-1.10420E-18
 -1      2893 9.55759E-05-1.91883E-05-3.27357E-05-4.85585E-06 1.35945E-18-5.51275E-19
 -1      2894 9.57044E-05-2.65605E-05-2.97046E-05-1.12887E-05 1.74201E-19 4.29762E-20
 -1      2895 9.48894E-05-2.43585E-05-3.02025E-05-1.03851E-05-7.51014E-20-1.13135E-18
 -1      2896 9.77340E-05-2.31943E-05-3.19042E-05-9.53264E-06 3.73677E-19-9.90108E-19
 -1      2897 1.00277E-04-2.78430E-05-3.09716E-05-1.07877E-05-7.51611E-19-2.34468E-18
 -1      2898 9.49869E-05-2.66917E-05-2.92743E-05 1.77753E-06 1.15030E-18-1.56890E-19
 -1      2899 9.52518E-05-2.61959E-05-2.95591E-05 2.78292E-06 1.31993E-18-2.44822E-19
 -1      2900 9.52730E-05-2.50187E-05-3.01053E-05 3.81472E-06 1.24206E-18-6.92938E-19
 -1      2901 1.07950E-04-4.79022E-05-2.59125E-05 6.06125E-05-1.21867E-18-5.70286E-18
 -1      2902 4.51595E-05-1.65075E-06-1.74951E-05 1.75106E-05-3.56384E-18 1.22926E-18
 -1      2903 1.37435E-04-4.94077E-05-3.76586E-05 1.54912E-05-1.94391E-19 7.68698E-18
 -1      2904 1.30221E-04-4.38389E-05-3.74188E-05 6.18393E-06-4.61223E-19 3.81758E-18
 -1      2905 3.13877E-05-1.78153E-05-5.25087E-06 1.65450E-06-1.49144E-19-9.10137E-19
 -1      2906 3.08620E-05-1.90127E-05-4.35624E-06-1.47068E-05-1.31491E-18-2.41828E-18
 -1      2907 1.35999E-04-1.27333E-05-5.35633E-05-1.83271E-05 9.98864E-19-2.56974E-18
 -1      2908 1.47956E-04-4.33388E-05-4.52492E-05-3.04049E-05 8.37504E-19 6.02452E-19
 -1      2909 1.46031E-04-5.39099E-05-3.93775E-05-1.63120E-06-6.84085E-19 5.17749E-20
 -1      2910 1.44059E-04-5.16354E-05-3.98732E-05-2.54723E-05 6.41204E-19 4.54433E-19
 -1      2911 1.52701E-04-5.49596E-05-4.24002E-05-2.15194E-05 6.43851E-19 2.10488E-18
 -1      2912 1.52162E-04-6.51295E-05-3.74764E-05-1.18232E-05 4.49325E-19 1.71969E-18
 -1      2913 1.43659E-04-5.93222E-05-3.63469E-05-1.99304E-05 3.16301E-19-2.15464E-20
 -1      2914 1.47146E-04-6.86235E-05-3.39129E-05-1.53585E-06 4.42839E-19 2.36449E-18
 -1      2915 1.39318E-04-7.04734E-05-2.92492E-05 7.01378E-06 1.43360E-19 3.38538E-18
 -1      2916 1.44674E-04-6.59323E-05-3.37592E-05-8.65249E-06 4.76880E-19 1.49575E-18
 -1      2917 9.28483E-05-1.80062E-05-3.20750E-05-8.80551E-06-1.28140E-18-1.54476E-18
 -1      2918 8.33860E-05-3.77734E-05-1.97481E-05 6.26285E-05-3.47749E-18-9.36268E-18
 -1      2919 6.13402E-05-3.85101E-05-9.15827E-06-4.10449E-05-5.12031E-19-4.43136E-18
 -1      2920 7.92954E-05-4.74504E-05-1.36759E-05-4.43079E-05-9.22207E-20-4.55386E-18
 -1      2921 6.04910E-05-3.36309E-05-1.08776E-05-3.70100E-05 4.60468E-19-4.21314E-18
 -1      2922 9.47307E-05-2.74150E-05-2.88518E-05 3.83139E-07 9.14736E-19-9.62386E-20
 -1      2923 9.49068E-05-2.71220E-05-2.90241E-05 9.85339E-07 1.01540E-18-7.22788E-20
 -1      2924 9.52569E-05-2.64986E-05-2.94720E-05 1.72905E-06 1.05691E-18-3.90347E-19
 -1      2925 9.51315E-05-2.73760E-05-2.90453E-05 3.71605E-07 7.07406E-19-3.27233E-19
 -1      2926 1.31479E-04-4.43133E-06-5.52678E-05 5.86350E-06 1.22989E-18 7.86576E-19
 -1      2927 1.34306E-04-7.41413E-06-5.49668E-05 4.85472E-07 1.90625E-18 2.15252E-19
 -1      2928 9.44782E-05-2.83149E-05-2.83551E-05-1.10042E-06 1.59362E-19 7.66786E-20
 -1      2929 9.44479E-05-2.82248E-05-2.83750E-05-1.03203E-06 3.52642E-19-3.48527E-20
 -1      2930 9.49326E-05-2.82424E-05-2.85878E-05-9.09866E-07 4.61337E-19-4.57646E-20
 -1      2931 9.48982E-05-2.84494E-05-2.84825E-05-1.11656E-06 1.46639E-19 2.30413E-19
 -1      2932 1.33700E-04-6.64600E-05-2.84686E-05-1.94495E-05-2.96541E-18-2.58514E-18
 -1      2933 1.42934E-04-6.52023E-05-3.39009E-05-8.39701E-06-2.26653E-18-2.37100E-18
 -1      2934 1.00283E-04-5.62732E-05-1.82362E-05-3.93665E-05-7.99599E-19-3.13495E-18
 -1      2935 1.18453E-04-6.40196E-05-2.36424E-05-3.29118E-05-1.78692E-18-1.85175E-18
 -1      2936 9.11705E-05-1.60854E-05-3.22074E-05 4.91516E-06 1.16643E-18-1.54513E-18
 -1      2937 9.08277E-05-1.55867E-05-3.22678E-05 3.99342E-06 9.28464E-19-1.74057E-18
 -1      2938 9.18055E-05-1.71977E-05-3.19594E-05 3.19680E-06 7.88526E-19-1.59154E-18
 -1      2939 9.24767E-05-1.82585E-05-3.17876E-05 4.61220E-06 1.12287E-18-1.31249E-18
 -1      2940 8.58178E-05-5.09036E-05-1.47410E-05 3.51237E-05 1.26324E-18 1.77898E-18
 -1      2941 6.72919E-05-4.09675E-05-1.07824E-05 3.37694E-05 1.28304E-18 1.60640E-18
 -1      2942 1.39577E-04-2.45488E-05-5.01577E-05 5.83465E-06-1.88592E-18-3.10078E-18
 -1      2943 1.46915E-04-5.70165E-05-3.85293E-05 5.02626E-06-6.60262E-19 2.57180E-19
 -1      2944 1.48055E-04-4.82630E-05-4.35240E-05 1.29871E-05 3.33943E-19 1.66421E-18
 -1      2945 9.07943E-05-1.55409E-05-3.22729E-05-3.92717E-06-3.69543E-19-2.18469E-18
 -1      2946 9.11277E-05-1.60244E-05-3.22139E-05-4.85894E-06-5.44539E-19-2.14972E-18
 -1      2947 9.47104E-05-2.19076E-05-3.12079E-05 7.83852E-06 1.59339E-18-4.32784E-19
 -1      2948 1.46720E-04-3.43709E-05-4.84426E-05 1.86565E-05 1.54827E-18 1.52349E-18
 -1      2949 1.45525E-04-2.40350E-05-5.28530E-05 1.94667E-05 2.90469E-18 1.11575E-18
 -1      2950 8.82340E-05-3.78982E-05-2.13795E-05-5.61860E-05 1.87618E-19-4.48758E-18
 -1      2951 1.44712E-04-6.04639E-05-3.66318E-05-1.98100E-05 2.38625E-19 1.03947E-18
 -1      2952 5.22509E-05-3.19572E-05-8.24939E-06 2.96703E-05 1.16785E-18 1.19919E-18
 -1      2953 4.00425E-05-2.33573E-05-6.59956E-06 1.87087E-05 5.98641E-19 7.83717E-19
 -1      2954 6.64677E-05-3.52675E-05-1.27808E-05 2.92228E-05 1.52339E-18 2.11218E-18
 -1      2955 1.38263E-04-1.49496E-05-5.36170E-05-2.38243E-06 4.44269E-18 1.64631E-18
 -1      2956 1.43532E-04-2.49833E-05-5.11535E-05-2.39441E-06 4.57101E-18 3.67581E-18
 -1      2957 9.15628E-05-1.66844E-05-3.21135E-05-5.57368E-06-7.65522E-19-1.96659E-18
 -1      2958 9.20399E-05-1.74354E-05-3.20201E-05-6.44391E-06-1.02264E-18-1.84350E-18
 -1      2959 9.24131E-05-1.81917E-05-3.17987E-05-4.55719E-06-6.33292E-19-1.81705E-18
 -1      2960 9.12797E-05-1.63894E-05-3.20846E-05 3.16459E-08 2.87042E-19-1.69374E-18
 -1      2961 9.01580E-05-1.45990E-05-3.24020E-05-3.82950E-07 1.51294E-19-1.91074E-18
 -1      2962 9.02139E-05-1.46772E-05-3.23920E-05-1.34169E-06-1.40641E-20-1.99383E-18
 -1      2963 1.36199E-04-1.75823E-05-5.13100E-05 2.02896E-05 2.40727E-18 1.12211E-18
 -1      2964 1.48939E-04-5.51948E-05-4.07148E-05 2.25836E-05 5.84876E-19 7.70027E-18
 -1      2965 1.43928E-04-5.89643E-05-3.62869E-05 3.36394E-05-9.49365E-19 7.74474E-18
 -1      2966 1.24945E-04-5.76147E-06-5.16026E-05 1.29941E-05 1.79571E-18 4.55882E-19
 -1      2967 1.29086E-04-5.06300E-06-5.38392E-05 9.24621E-06 1.10432E-18-5.00941E-21
 -1      2968 1.22100E-04-5.35704E-06-5.04997E-05 5.97381E-06 1.82207E-18 5.63968E-19
 -1      2969 4.93764E-05-2.09823E-05-1.16955E-05 1.54609E-05 1.12193E-18 1.98799E-18
 -1      2970 3.92023E-05-1.88814E-05-7.98464E-06 9.96068E-06 6.39775E-19 1.44377E-18
 -1      2971 4.15793E-05-1.61238E-05-1.05104E-05 8.66972E-07 3.41817E-19 2.78568E-19
 -1      2972 1.39945E-04-2.93536E-05-4.77776E-05-2.04609E-06 4.93968E-18 4.93291E-18
 -1      2973 1.49050E-04-3.58123E-05-4.94082E-05 2.26703E-06 2.54036E-18 4.73195E-18
 -1      2974 1.51795E-04-4.54037E-05-4.56205E-05 9.44232E-06 9.36924E-19 5.03222E-18
 -1      2975 1.35482E-04-6.23201E-05-3.11934E-05-3.84351E-06 1.99291E-19 7.44277E-19
 -1      2976 1.40008E-04-6.22872E-05-3.34764E-05-1.11808E-05 1.38649E-19 3.72694E-20
 -1      2977 1.31124E-04-6.82035E-05-2.68690E-05 1.26757E-05 9.06749E-19 2.98971E-18
 -1      2978 1.35066E-04-1.13536E-05-5.38657E-05-8.08690E-06 8.40257E-19-2.34910E-18
 -1      2979 1.37726E-04-1.46689E-05-5.32612E-05-2.19856E-07-3.26108E-19-2.78526E-18
 -1      2980 1.41665E-04-5.99165E-05-3.50545E-05 1.98310E-06-1.01522E-18-7.53595E-19
 -1      2981 1.29475E-04-1.22879E-05-5.07073E-05-2.04099E-06 4.13447E-18 3.26166E-18
 -1      2982 1.04510E-04-2.91255E-05-3.24412E-05-9.38965E-06 9.66445E-20-1.06254E-18
 -1      2983 1.03607E-04-2.62963E-05-3.31315E-05-9.79080E-06 5.03376E-19-7.66518E-19
 -1      2984 1.09821E-04-3.13942E-05-3.35694E-05-6.90905E-06 3.00462E-19 1.16381E-18
 -1      2985 1.44985E-04-4.82117E-05-4.15686E-05 1.19829E-05 2.37770E-18 8.23602E-18
 -1      2986 4.04483E-05-2.03467E-05-7.96799E-06-1.93866E-05-6.83529E-19-3.19755E-18
 -1      2987 9.28614E-05-1.86337E-05-3.18087E-05-7.05502E-06-1.08310E-18-1.75393E-18
 -1      2988 9.42444E-05-2.09661E-05-3.14426E-05-7.72319E-06-1.29362E-18-1.34088E-18
 -1      2989 9.47494E-05-2.27752E-05-3.08507E-05-6.03627E-06-1.17895E-18-1.19838E-18
 -1      2990 9.35099E-05-2.00289E-05-3.14733E-05-5.73851E-06-1.03658E-18-1.70411E-18
 -1      2991 1.41623E-04-4.02585E-05-4.36389E-05 1.90488E-05 4.45645E-19 2.33972E-18
 -1      2992 9.39787E-05-5.09348E-05-1.79811E-05-3.85005E-05-2.32511E-19-3.02121E-18
 -1      2993 1.22742E-04-3.84426E-05-3.61271E-05 8.50669E-07-8.16818E-19 5.05043E-20
 -1      2994 1.15471E-04-3.42325E-05-3.50612E-05-4.37582E-06-1.75415E-19 1.43720E-18
 -1      2995 1.14947E-04-3.02053E-05-3.63404E-05-6.56234E-06 6.37710E-19 8.06296E-19
 -1      2996 1.30085E-04-3.80841E-05-3.94810E-05-1.87265E-07 2.09680E-18 2.87814E-18
 -1      2997 1.25734E-04-6.35890E-05-2.64247E-05-2.22046E-05-1.53646E-18-2.43406E-18
 -1      2998 9.03406E-05-1.48711E-05-3.23643E-05-2.17483E-06-1.53749E-19-1.98141E-18
 -1      2999 9.05250E-05-1.51330E-05-3.23323E-05-3.12889E-06-3.02483E-19-2.10685E-18
 -1      3000 9.17611E-05-1.71562E-05-3.19659E-05-3.12840E-06-3.17803E-19-2.02170E-18
 -1      3001 9.13907E-05-1.65707E-05-3.20566E-05-1.57275E-06-1.43936E-19-1.88538E-18
 -1      3002 9.43561E-05-2.14235E-05-3.12611E-05 7.21189E-06 1.62480E-18-7.89494E-19
 -1      3003 9.46141E-05-2.24650E-05-3.09136E-05 5.68799E-06 1.43599E-18-8.42357E-19
 -1      3004 9.45887E-05-2.24140E-05-3.09123E-05-5.46612E-06-1.00019E-18-1.43026E-18
 -1      3005 1.41268E-04-6.31684E-05-3.32171E-05-3.22771E-05 1.16287E-18 2.52956E-18
 -1      3006 1.28740E-04-6.27921E-05-2.83955E-05 6.87484E-06 4.80294E-19 2.11141E-18
 -1      3007 1.26403E-04-5.60067E-05-2.98303E-05-4.30227E-05 7.46130E-19 1.00248E-18
 -1      3008 9.95876E-05-5.59943E-05-1.81961E-05 3.09740E-05 1.40756E-18 1.53429E-18
 -1      3009 9.19795E-05-4.83069E-05-1.83280E-05 3.00162E-05 1.80958E-18 1.94585E-18
 -1      3010 1.10971E-04-5.95473E-05-2.21013E-05 2.39195E-05 1.68305E-18 2.02553E-18
 -1      3011 9.42724E-05-2.18492E-05-3.10602E-05 4.97194E-06 1.22825E-18-1.02704E-18
 -1      3012 9.38146E-05-2.09076E-05-3.12458E-05 4.62371E-06 1.19342E-18-1.11984E-18
 -1      3013 4.28926E-05-1.74414E-05-1.05395E-05-1.44782E-05 5.27622E-19-3.47421E-18
 -1      3014 4.81319E-05-2.23334E-05-1.06150E-05-2.57177E-05 2.23140E-19-4.07158E-18
 -1      3015 9.55016E-05-2.55672E-05-2.99554E-05-2.13866E-06-7.17746E-19-1.30907E-18
 -1      3016 9.55312E-05-2.62635E-05-2.96996E-05-1.32885E-06-6.44852E-19-1.34739E-18
 -1      3017 9.56806E-05-2.68776E-05-2.94720E-05-7.36389E-07-5.98299E-19-1.18973E-18
 -1      3018 9.56561E-05-2.73275E-05-2.92920E-05-2.13083E-07-4.85989E-19-1.02180E-18
 -1      3019 9.57017E-05-2.61953E-05-2.97896E-05-1.16137E-06-5.42921E-19-1.31394E-18
 -1      3020 9.56983E-05-2.77121E-05-2.91258E-05 1.66293E-07-5.87698E-19-8.39532E-19
 -1      3021 9.56612E-05-2.79987E-05-2.90029E-05 4.81342E-07-6.66732E-19-8.30830E-19
 -1      3022 9.58947E-05-2.73309E-05-2.93879E-05-1.58569E-07-5.05495E-19-1.11419E-18
 -1      3023 9.56535E-05-2.82379E-05-2.88845E-05 7.02958E-07-7.54976E-19-6.57413E-19
 -1      3024 9.56212E-05-2.84193E-05-2.88031E-05 8.70322E-07-7.73139E-19-6.92350E-19
 -1      3025 9.59340E-05-2.80539E-05-2.90950E-05 4.76427E-07-6.21492E-19-7.22953E-19
 -1      3026 9.55891E-05-2.85616E-05-2.87209E-05 9.78620E-07-6.81655E-19-5.35035E-19
 -1      3027 9.55659E-05-2.86727E-05-2.86692E-05 1.04688E-06-6.52974E-19-5.62111E-19
 -1      3028 9.59003E-05-2.85069E-05-2.88863E-05 8.32963E-07-6.91190E-19-7.15846E-19
 -1      3029 9.55243E-05-2.87511E-05-2.86139E-05 1.07915E-06-3.81180E-19-3.82558E-19
 -1      3030 9.55098E-05-2.88150E-05-2.85832E-05 1.08386E-06-1.38513E-19-2.77082E-19
 -1      3031 9.58322E-05-2.87756E-05-2.87415E-05 9.94286E-07-2.97680E-19-4.40742E-19
 -1      3032 9.54665E-05-2.88514E-05-2.85477E-05 1.06802E-06-2.57043E-19-7.29221E-20
 -1      3033 9.54587E-05-2.88834E-05-2.85315E-05 1.03463E-06-8.91808E-20-3.19797E-19
 -1      3034 9.57520E-05-2.89210E-05-2.86443E-05 1.02627E-06-6.57221E-20-3.58179E-19
 -1      3035 9.54177E-05-2.88925E-05-2.85101E-05 9.91028E-07-1.66310E-19-3.24931E-19
 -1      3036 9.54146E-05-2.89034E-05-2.85038E-05 9.37418E-07-3.10417E-19-6.02359E-19
 -1      3037 9.56714E-05-2.89845E-05-2.85821E-05 9.78212E-07-2.32580E-19-8.87635E-20
 -1      3038 9.53778E-05-2.88952E-05-2.84925E-05 8.80423E-07-3.24846E-19-7.10689E-19
 -1      3039 9.53779E-05-2.88922E-05-2.84927E-05 8.18840E-07-1.97526E-19-7.83550E-19
 -1      3040 9.55962E-05-2.89945E-05-2.85451E-05 8.85833E-07-3.46577E-19-1.55678E-19
 -1      3041 9.53458E-05-2.88735E-05-2.84885E-05 7.58309E-07-2.95198E-19-8.92423E-19
 -1      3042 9.53479E-05-2.88616E-05-2.84929E-05 6.96997E-07-2.08363E-19-8.58401E-19
 -1      3043 9.55292E-05-2.89707E-05-2.85263E-05 7.74173E-07-3.21018E-19-1.52100E-19
 -1      3044 9.53207E-05-2.88369E-05-2.84937E-05 6.39552E-07-1.08400E-19-9.97182E-19
 -1      3045 9.53240E-05-2.88193E-05-2.85008E-05 5.83994E-07-2.37365E-19-7.80808E-19
 -1      3046 9.54713E-05-2.89261E-05-2.85203E-05 6.60355E-07-2.63105E-19-7.83951E-19
 -1      3047 9.53011E-05-2.87912E-05-2.85050E-05 5.34063E-07-4.89364E-19-6.20474E-19
 -1      3048 9.53051E-05-2.87699E-05-2.85139E-05 4.87941E-07-4.53880E-19-4.98303E-19
 -1      3049 9.54221E-05-2.88693E-05-2.85234E-05 5.55954E-07-4.13804E-19-7.81738E-19
 -1      3050 9.52859E-05-2.87395E-05-2.85207E-05 4.48555E-07-7.46956E-19-4.26143E-19
 -1      3051 9.52905E-05-2.87155E-05-2.85310E-05 4.14475E-07-1.12526E-18-2.82213E-19
 -1      3052 9.53804E-05-2.88048E-05-2.85330E-05 4.68838E-07-6.33869E-19-5.26479E-19
 -1      3053 9.52739E-05-2.86832E-05-2.85398E-05 3.87891E-07-9.45402E-19 1.60936E-19
 -1      3054 9.52789E-05-2.86565E-05-2.85512E-05 3.67961E-07-6.60608E-19 2.13877E-19
 -1      3055 9.53448E-05-2.87347E-05-2.85476E-05 4.04603E-07-6.11933E-19-2.06855E-19
 -1      3056 9.52638E-05-2.86217E-05-2.85619E-05 3.56162E-07-7.80394E-19 3.21286E-19
 -1      3057 9.52694E-05-2.85919E-05-2.85748E-05 3.52432E-07-8.94612E-19-5.01796E-20
 -1      3058 9.53130E-05-2.86589E-05-2.85664E-05 3.67724E-07-6.89889E-19 4.14075E-19
 -1      3059 9.52543E-05-2.85533E-05-2.85873E-05 3.57501E-07-7.25628E-19 1.31316E-19
 -1      3060 9.52606E-05-2.85194E-05-2.86019E-05 3.72304E-07-4.45251E-19-2.87896E-19
 -1      3061 9.52827E-05-2.85755E-05-2.85890E-05 3.62433E-07-9.38775E-19 5.43605E-19
 -1      3062 9.52439E-05-2.84752E-05-2.86165E-05 3.96707E-07-5.52572E-19-3.49129E-19
 -1      3063 9.52509E-05-2.84355E-05-2.86335E-05 4.32930E-07-4.06521E-19-3.00891E-19
 -1      3064 9.52508E-05-2.84812E-05-2.86157E-05 3.93382E-07-4.48770E-19 1.08376E-19
 -1      3065 9.52306E-05-2.83833E-05-2.86504E-05 4.79731E-07-2.63498E-19-3.41846E-19
 -1      3066 9.52383E-05-2.83360E-05-2.86704E-05 5.41021E-07 2.48191E-19-6.65725E-19
 -1      3067 9.52136E-05-2.83714E-05-2.86467E-05 4.66132E-07-4.23152E-19-8.16113E-20
 -1      3068 9.52117E-05-2.82728E-05-2.86900E-05 6.14034E-07 9.89048E-19-8.21618E-19
 -1      3069 9.52198E-05-2.82155E-05-2.87137E-05 7.04950E-07 1.16063E-18-7.05121E-19
 -1      3070 9.51667E-05-2.82403E-05-2.86826E-05 5.87508E-07 7.60625E-19 1.24559E-19
 -1      3071 9.51836E-05-2.81377E-05-2.87364E-05 8.08820E-07 5.37952E-19-2.52631E-19
 -1      3072 9.51914E-05-2.80674E-05-2.87645E-05 9.34920E-07 1.83612E-19-3.97655E-19
 -1      3073 9.51039E-05-2.80808E-05-2.87238E-05 7.65798E-07 1.15081E-18-5.31176E-19
 -1      3074 9.51409E-05-2.79707E-05-2.87903E-05 1.07513E-06-5.39569E-19-3.25027E-19
 -1      3075 9.51471E-05-2.78843E-05-2.88236E-05 1.24298E-06-7.58362E-19-4.02952E-19
 -1      3076 9.50176E-05-2.78846E-05-2.87705E-05 1.01080E-06-9.45871E-20-1.01341E-19
 -1      3077 9.50763E-05-2.77638E-05-2.88522E-05 1.42576E-06-1.22110E-19-1.02481E-18
 -1      3078 9.50786E-05-2.76573E-05-2.88909E-05 1.64285E-06 4.53555E-19-7.16329E-19
 -1      3079 9.48974E-05-2.76420E-05-2.88224E-05 1.33366E-06-4.73021E-19 1.14955E-19
 -1      3080 9.49793E-05-2.75075E-05-2.89215E-05 1.87497E-06 3.58335E-20-5.04652E-19
 -1      3081 9.49736E-05-2.73770E-05-2.89655E-05 2.14942E-06 1.69991E-19-8.06244E-19
 -1      3082 9.47293E-05-2.73422E-05-2.88780E-05 1.74647E-06 2.91790E-19-4.12694E-19
 -1      3083 9.48351E-05-2.71920E-05-2.89964E-05 2.43785E-06 3.62656E-19-5.51164E-19
 -1      3084 9.48158E-05-2.70337E-05-2.90444E-05 2.77796E-06-4.63616E-20-2.72329E-19
 -1      3085 9.44948E-05-2.69737E-05-2.89342E-05 2.26160E-06 4.28610E-20-1.10235E-18
 -1      3086 9.46242E-05-2.68081E-05-2.90723E-05 3.12942E-06-3.92442E-19-5.45313E-20
 -1      3087 9.45833E-05-2.66197E-05-2.91218E-05 3.54290E-06 9.46845E-20 5.25148E-20
 -1      3088 9.41699E-05-2.65255E-05-2.89854E-05 2.89077E-06-1.19398E-19-7.15978E-19
 -1      3089 9.43215E-05-2.63502E-05-2.91409E-05 3.96338E-06 3.39004E-19 1.36249E-19
 -1      3090 9.42498E-05-2.61335E-05-2.91869E-05 4.45617E-06 8.73786E-19 4.03507E-19
 -1      3091 9.37241E-05-2.59893E-05-2.90218E-05 3.64394E-06 4.13342E-19 6.86761E-19
 -1      3092 9.38985E-05-2.58222E-05-2.91884E-05 4.95071E-06-9.15849E-20 4.25656E-19
 -1      3093 9.37872E-05-2.55878E-05-2.92223E-05 5.52560E-06-5.92206E-19 4.02485E-19
 -1      3094 9.31216E-05-2.53652E-05-2.90281E-05 4.52855E-06 6.06420E-19 9.23683E-19
 -1      3095 9.33280E-05-2.52492E-05-2.91923E-05 6.09894E-06 1.02342E-19-1.67473E-19
 -1      3096 9.31756E-05-2.50256E-05-2.92004E-05 6.75415E-06 5.31598E-19-1.94844E-20
 -1      3097 9.23243E-05-2.46707E-05-2.89803E-05 5.55017E-06-1.74514E-19 3.82079E-19
 -1      3098 9.25979E-05-2.46975E-05-2.91188E-05 7.41349E-06 4.21198E-19 3.00261E-19
 -1      3099 9.24233E-05-2.45470E-05-2.90812E-05 8.14188E-06-1.08183E-19 7.90300E-19
 -1      3100 9.13012E-05-2.39582E-05-2.88432E-05 6.71674E-06 7.69213E-19-2.19169E-19
 -1      3101 9.17394E-05-2.43095E-05-2.89198E-05 8.90379E-06-4.73693E-19 4.35145E-19
 -1      3102 9.16081E-05-2.43541E-05-2.88094E-05 9.69360E-06 2.87611E-21 5.29629E-19
 -1      3103 9.00483E-05-2.33428E-05-2.85667E-05 8.05043E-06-3.79946E-19 1.05357E-19
 -1      3104 9.08803E-05-2.43593E-05-2.85313E-05 1.05966E-05-1.81522E-19 3.46466E-19
 -1      3105 9.09517E-05-2.48196E-05-2.83170E-05 1.14329E-05-1.05538E-19-3.82807E-20
 -1      3106 8.86270E-05-2.30490E-05-2.80828E-05 9.61227E-06-1.55762E-19 6.03343E-19
 -1      3107 9.03421E-05-2.53325E-05-2.78792E-05 1.25571E-05 4.48045E-19-3.84402E-19
 -1      3108 9.09426E-05-2.65824E-05-2.75354E-05 1.34190E-05 2.76607E-19-3.08899E-19
 -1      3109 8.72314E-05-2.34779E-05-2.73069E-05 1.15441E-05 5.66457E-20-1.21200E-18
 -1      3110 9.08077E-05-2.80198E-05-2.68983E-05 1.48735E-05-4.47358E-20 2.05723E-19
 -1      3111 9.25042E-05-3.06403E-05-2.64305E-05 1.57203E-05 1.92285E-19-5.82579E-19
 -1      3112 8.63321E-05-2.53429E-05-2.61446E-05 1.41094E-05 1.79460E-19 2.28139E-19
 -1      3113 9.35080E-05-3.34788E-05-2.55863E-05 1.75628E-05 4.89926E-19-5.02082E-19
 -1      3114 9.71471E-05-3.84089E-05-2.50908E-05 1.82839E-05 6.14655E-19 4.33970E-19
 -1      3115 8.68976E-05-2.97952E-05-2.45345E-05 1.76528E-05 3.50592E-19 1.01628E-18
 -1      3116 1.04816E-04-4.76658E-05-2.42178E-05 2.00358E-05 1.35721E-18 6.60739E-19
 -1      3117 1.11756E-04-5.48960E-05-2.42204E-05 1.95211E-05 1.72175E-18 1.21037E-18
 -1      3118 9.52229E-05-2.87788E-05-2.84753E-05-1.07540E-06 4.31166E-19 2.06152E-19
 -1      3119 9.52109E-05-2.87432E-05-2.84846E-05-1.11019E-06 5.66834E-19-9.48290E-20
 -1      3120 9.52423E-05-2.87073E-05-2.85146E-05-1.12523E-06 4.84424E-19-4.07085E-20
 -1      3121 9.52391E-05-2.86438E-05-2.85376E-05-1.12080E-06 2.69961E-19 2.09383E-19
 -1      3122 9.55220E-05-2.88231E-05-2.85879E-05-1.08689E-06 4.66163E-19 2.67896E-19
 -1      3123 9.52084E-05-2.88080E-05-2.84563E-05-8.51521E-07 3.84393E-19 6.17257E-19
 -1      3124 9.51899E-05-2.88042E-05-2.84513E-05-9.15412E-07 6.90880E-19 2.82007E-19
 -1      3125 9.52085E-05-2.87906E-05-2.84638E-05-7.24057E-07-1.38185E-19 9.06441E-19
 -1      3126 9.51900E-05-2.87953E-05-2.84555E-05-7.87843E-07 2.17706E-19 7.77246E-19
 -1      3127 9.53822E-05-2.88957E-05-2.84953E-05-8.22119E-07 8.37709E-20 2.33137E-19
 -1      3128 9.52113E-05-2.87619E-05-2.84773E-05-6.04990E-07 8.83287E-20 6.99788E-19
 -1      3129 9.51937E-05-2.87722E-05-2.84672E-05-6.63158E-07-2.76759E-20 8.13138E-19
 -1      3130 9.53503E-05-2.88636E-05-2.84951E-05-7.00373E-07 1.39364E-19 4.34070E-19
 -1      3131 9.52158E-05-2.87261E-05-2.84945E-05-5.02553E-07 1.48837E-19 3.80618E-19
 -1      3132 9.51995E-05-2.87402E-05-2.84835E-05-5.51468E-07 3.00961E-19 6.99992E-19
 -1      3133 9.53246E-05-2.88197E-05-2.85027E-05-5.87663E-07 1.59786E-19 3.43882E-19
 -1      3134 9.52214E-05-2.86855E-05-2.85143E-05-4.22322E-07-3.60415E-19 4.23423E-19
 -1      3135 9.52064E-05-2.87024E-05-2.85027E-05-4.59494E-07-2.64763E-19 1.53094E-19
 -1      3136 9.53038E-05-2.87685E-05-2.85156E-05-4.92164E-07 1.79083E-19 1.11105E-19
 -1      3137 9.52281E-05-2.86409E-05-2.85362E-05-3.68418E-07 2.29426E-19 9.68344E-20
 -1      3138 9.52139E-05-2.86602E-05-2.85240E-05-3.91938E-07 7.37611E-20 4.32365E-19
 -1      3139 9.52869E-05-2.87122E-05-2.85323E-05-4.19535E-07 7.33859E-20 2.62718E-19
 -1      3140 9.52358E-05-2.85922E-05-2.85603E-05-3.44438E-07-1.35448E-19 2.18824E-19
 -1      3141 9.52217E-05-2.86138E-05-2.85472E-05-3.52558E-07-2.93233E-20 1.18273E-20
 -1      3142 9.52728E-05-2.86514E-05-2.85523E-05-3.74108E-07 1.62955E-19-6.51821E-19
 -1      3143 9.52449E-05-2.85384E-05-2.85871E-05-3.54100E-07 6.85750E-20 3.30024E-19
 -1      3144 9.52300E-05-2.85627E-05-2.85727E-05-3.44946E-07 3.60052E-20 6.16908E-19
 -1      3145 9.52601E-05-2.85853E-05-2.85752E-05-3.59784E-07-1.66181E-19 2.20615E-19
 -1      3146 9.52559E-05-2.84783E-05-2.86173E-05-4.01693E-07-3.85529E-19 7.88647E-19
 -1      3147 9.52390E-05-2.85056E-05-2.86011E-05-3.73064E-07 1.53392E-20 8.95415E-19
 -1      3148 9.52479E-05-2.85122E-05-2.86012E-05-3.80646E-07-2.73289E-19 1.22388E-18
 -1      3149 9.52697E-05-2.84104E-05-2.86520E-05-4.92320E-07-3.56844E-19 9.51403E-19
 -1      3150 9.52494E-05-2.84412E-05-2.86333E-05-4.41610E-07-2.41227E-19 8.91040E-19
 -1      3151 9.52349E-05-2.84300E-05-2.86309E-05-4.41397E-07-3.95736E-19 1.77797E-18
 -1      3152 9.52876E-05-2.83338E-05-2.86921E-05-6.31914E-07-4.56997E-19 1.39307E-18
 -1      3153 9.52622E-05-2.83681E-05-2.86703E-05-5.56150E-07-4.27230E-19 9.90629E-19
 -1      3154 9.52203E-05-2.83367E-05-2.86646E-05-5.47581E-07-4.81655E-19 1.92412E-18
 -1      3155 9.53116E-05-2.82485E-05-2.87386E-05-8.26971E-07-3.79599E-19 1.47765E-18
 -1      3156 9.52790E-05-2.82857E-05-2.87130E-05-7.23002E-07-3.98126E-19 1.30950E-18
 -1      3157 9.52035E-05-2.82306E-05-2.87029E-05-7.05565E-07-3.86013E-19 1.98055E-18
 -1      3158 9.53450E-05-2.81565E-05-2.87918E-05-1.08394E-06 3.97043E-19 1.65804E-18
 -1      3159 9.53023E-05-2.81951E-05-2.87621E-05-9.48831E-07 3.31979E-20 1.51400E-18
 -1      3160 9.51848E-05-2.81116E-05-2.87459E-05-9.22258E-07-6.85257E-20 1.50086E-18
 -1      3161 9.53928E-05-2.80631E-05-2.88519E-05-1.40813E-06-1.89671E-19 1.29526E-18
 -1      3162 9.53363E-05-2.80996E-05-2.88178E-05-1.23983E-06 6.47005E-19 1.71828E-18
 -1      3163 9.51659E-05-2.79823E-05-2.87933E-05-1.20448E-06 3.93599E-19 2.05184E-18
 -1      3164 9.54630E-05-2.79785E-05-2.89178E-05-1.80201E-06-4.37612E-19 1.46271E-18
 -1      3165 9.53875E-05-2.80068E-05-2.88796E-05-1.60035E-06-4.45596E-19 1.30059E-18
 -1      3166 9.51508E-05-2.78492E-05-2.88439E-05-1.55790E-06 1.23915E-19 1.53290E-18
 -1      3167 9.55681E-05-2.79205E-05-2.89873E-05-2.26269E-06 2.02441E-19 6.96697E-19
 -1      3168 9.54665E-05-2.79305E-05-2.89461E-05-2.03088E-06 3.15434E-19 1.18462E-18
 -1      3169 9.51478E-05-2.77259E-05-2.88958E-05-1.98533E-06 1.50028E-19 2.05228E-18
 -1      3170 9.57278E-05-2.79177E-05-2.90569E-05-2.77844E-06-2.41280E-19 9.66901E-19
 -1      3171 9.55901E-05-2.78939E-05-2.90144E-05-2.52505E-06 2.13291E-20 7.04218E-19
 -1      3172 9.51716E-05-2.76353E-05-2.89453E-05-2.48437E-06 9.49622E-20 8.86363E-19
 -1      3173 9.59722E-05-2.80130E-05-2.91210E-05-3.32394E-06 1.21189E-19 4.33049E-19
 -1      3174 9.57840E-05-2.79326E-05-2.90799E-05-3.06561E-06 2.87150E-19 5.02782E-19
 -1      3175 9.52473E-05-2.76143E-05-2.89875E-05-3.04408E-06 3.37123E-19 9.78827E-19
 -1      3176 9.63461E-05-2.82681E-05-2.91728E-05-3.85423E-06 4.98717E-19-2.66171E-19
 -1      3177 9.60875E-05-2.80993E-05-2.91367E-05-3.61895E-06 9.16909E-20-1.98913E-19
 -1      3178 9.54149E-05-2.77184E-05-2.90163E-05-3.64045E-06 5.26799E-19-7.24841E-19
 -1      3179 9.69141E-05-2.87652E-05-2.92048E-05-4.29716E-06-6.34916E-19 4.93220E-19
 -1      3180 9.65580E-05-2.84668E-05-2.91777E-05-4.12815E-06-2.17937E-19 6.32764E-19
 -1      3181 9.57357E-05-2.80259E-05-2.90244E-05-4.23048E-06-4.00113E-19-5.29738E-19
 -1      3182 9.77632E-05-2.96060E-05-2.92112E-05-4.54441E-06 3.30006E-19 4.77478E-19
 -1      3183 9.72757E-05-2.91293E-05-2.91964E-05-4.50421E-06 1.96044E-19 1.10323E-18
 -1      3184 9.62990E-05-2.86411E-05-2.90061E-05-4.74418E-06-4.51992E-19 1.15915E-18
 -1      3185 9.90003E-05-3.08978E-05-2.91924E-05-4.44185E-06-6.39650E-19 4.24897E-20
 -1      3186 9.83447E-05-3.01958E-05-2.91902E-05-4.61557E-06-1.34492E-19 1.63695E-19
 -1      3187 9.72272E-05-2.96906E-05-2.89599E-05-5.07373E-06 1.97317E-19 1.51805E-18
 -1      3188 1.00735E-04-3.27202E-05-2.91621E-05-3.78168E-06 3.74681E-19 2.55646E-19
 -1      3189 9.98843E-05-3.17687E-05-2.91663E-05-4.27703E-06-2.83305E-19 4.75505E-20
 -1      3190 9.86731E-05-3.13061E-05-2.88950E-05-5.05899E-06-4.61485E-19 3.25628E-19
 -1      3191 1.03032E-04-3.50528E-05-2.91576E-05-2.30224E-06-6.28541E-19 9.67839E-19
 -1      3192 1.01997E-04-3.38924E-05-2.91506E-05-3.24137E-06 3.55630E-20 8.48868E-19
 -1      3193 1.00800E-04-3.35809E-05-2.88408E-05-4.46940E-06-4.70042E-19-3.69302E-19
 -1      3194 1.05818E-04-3.76588E-05-2.92490E-05 2.71897E-07-1.26467E-18 2.08435E-18
 -1      3195 1.04693E-04-3.64538E-05-2.91987E-05-1.21617E-06-1.02199E-18 1.79282E-18
 -1      3196 1.03714E-04-3.64673E-05-2.88597E-05-2.99197E-06-1.41715E-18 1.69808E-18
 -1      3197 1.08754E-04-3.99280E-05-2.95477E-05 4.15212E-06-1.66639E-18 3.41020E-18
 -1      3198 1.07781E-04-3.90551E-05-2.94031E-05 2.08769E-06-1.27858E-18 3.06099E-18
 -1      3199 1.07362E-04-3.96545E-05-2.90567E-05-2.64747E-07-1.71238E-18 3.10054E-18
 -1      3200 1.11032E-04-4.06906E-05-3.02006E-05 9.19711E-06-1.61642E-18 2.75518E-18
 -1      3201 1.10619E-04-4.07719E-05-2.99047E-05 6.78190E-06-1.80748E-18 2.75046E-18
 -1      3202 1.11286E-04-4.22551E-05-2.95973E-05 4.08671E-06-1.41837E-18 4.19150E-18
 -1      3203 1.11548E-04-3.85422E-05-3.12932E-05 1.43907E-05-8.79511E-19 2.56743E-18
 -1      3204 1.12066E-04-4.01670E-05-3.08304E-05 1.22905E-05-1.38011E-18 2.55672E-18
 -1      3205 1.14335E-04-4.28361E-05-3.06802E-05 1.00218E-05-1.53998E-18 2.29735E-18
 -1      3206 1.09531E-04-3.28591E-05-3.27986E-05 1.80052E-05 7.27006E-19 2.95976E-18
 -1      3207 1.11169E-04-3.63308E-05-3.21758E-05 1.69633E-05 1.39135E-19 2.95225E-18
 -1      3208 1.15040E-04-3.92593E-05-3.24312E-05 1.63201E-05-6.10082E-19 2.64283E-18
 -1      3209 1.04897E-04-2.44131E-05-3.44301E-05 1.73301E-05 1.05956E-18 1.76617E-18
 -1      3210 1.07251E-04-2.86814E-05-3.38409E-05 1.85563E-05 8.41911E-19 2.33312E-18
 -1      3211 1.12743E-04-3.21019E-05-3.44344E-05 1.97710E-05 1.01747E-18 3.07264E-18
 -1      3212 1.00098E-04-1.71887E-05-3.55541E-05 1.12204E-05 1.45911E-18 1.78819E-18
 -1      3213 1.02133E-04-2.02886E-05-3.52404E-05 1.46196E-05 1.45226E-18 1.99657E-18
 -1      3214 1.07480E-04-2.22209E-05-3.65107E-05 1.76634E-05 1.31062E-18 2.98181E-18
 -1      3215 9.81329E-05-1.52909E-05-3.55721E-05 1.61275E-06 2.11554E-18 3.03562E-19
 -1      3216 9.86483E-05-1.53778E-05-3.57478E-05 5.90801E-06 1.35977E-18 7.99758E-19
 -1      3217 1.02739E-04-1.48445E-05-3.76755E-05 9.66560E-06 2.00829E-18 2.94079E-18
 -1      3218 9.89907E-05-1.89937E-05-3.43877E-05-6.46283E-06 1.34800E-18 4.03684E-19
 -1      3219 9.84429E-05-1.66887E-05-3.50252E-05-3.16854E-06 2.45404E-18 5.69755E-19
 -1      3220 1.01886E-04-1.46681E-05-3.74144E-05-4.48772E-07 1.74617E-18 1.52019E-18
 -1      3221 1.02041E-04-2.35227E-05-3.37618E-05-9.43307E-06 8.59394E-19-1.24057E-18
 -1      3222 1.00633E-04-2.10765E-05-3.40940E-05-8.29977E-06 9.64122E-19 1.02395E-19
 -1      3223 1.04151E-04-1.90946E-05-3.64725E-05-6.77612E-06 1.80574E-18 5.85740E-19
 -1      3224 1.07478E-04-2.47928E-05-3.54525E-05-8.53363E-06 1.74376E-18 4.71407E-19
 -1      3225 9.49314E-05-2.34798E-05-3.06178E-05-4.11615E-06-8.52652E-19-1.56189E-18
 -1      3226 9.51565E-05-2.45905E-05-3.02595E-05-2.96423E-06-7.87765E-19-1.42643E-18
 -1      3227 9.52384E-05-2.44915E-05-3.03247E-05-2.61519E-06-6.57848E-19-1.48064E-18
 -1      3228 1.34710E-04-5.99306E-05-3.23839E-05 4.88960E-05-1.22735E-18 3.41354E-19
 -1      3229 1.40270E-04-5.84103E-05-3.49465E-05 3.48020E-05-1.61127E-18 6.99310E-18
 -1      3230 5.74319E-05-2.81319E-05-1.20382E-05-3.18746E-05 4.31987E-19-3.68449E-18
 -1      3231 7.02052E-05-3.62169E-05-1.45418E-05-3.72849E-05 1.61466E-19-4.08259E-18
 -1      3232 5.95256E-05-2.53357E-05-1.41523E-05-2.67429E-05 1.76262E-19-4.47932E-18
 -1      3233 1.18291E-04-5.92079E-05-2.47407E-05-2.43511E-05-1.26393E-18-2.08050E-18
 -1      3234 1.29001E-04-6.31560E-05-2.87435E-05-1.41671E-05-2.13664E-18-3.23895E-18
 -1      3235 9.52125E-05-2.88074E-05-2.84583E-05-9.74906E-07 7.64857E-19 4.11894E-19
 -1      3236 9.51958E-05-2.87908E-05-2.84588E-05-1.03052E-06 5.91508E-19 2.32024E-19
 -1      3237 9.54678E-05-2.88900E-05-2.85353E-05-1.03789E-06 4.60815E-19 3.07618E-19
 -1      3238 9.54211E-05-2.89084E-05-2.85069E-05-9.40707E-07 5.21952E-19 5.47980E-19
 -1      3239 9.40494E-05-2.13104E-05-3.11979E-05-5.26902E-06-1.03815E-18-1.71338E-18
 -1      3240 9.45029E-05-2.24297E-05-3.08887E-05-4.60944E-06-9.60365E-19-1.66338E-18
 -1      3241 9.34318E-05-2.00827E-05-3.14271E-05-4.88238E-06-8.77991E-19-1.56401E-18
 -1      3242 1.29734E-04-2.13146E-05-4.67792E-05 2.21534E-05 1.39242E-18 1.31052E-18
 -1      3243 1.26335E-04-1.25032E-05-4.94482E-05 1.84802E-05 2.11525E-18 2.09111E-21
 -1      3244 9.53703E-05-2.79562E-05-2.88955E-05-4.80151E-07 6.24189E-19-1.20158E-19
 -1      3245 9.54186E-05-2.76956E-05-2.90132E-05-1.48003E-07 5.14229E-19-9.87630E-20
 -1      3246 1.36520E-04-6.04286E-05-3.22447E-05-8.92479E-07-1.47095E-18-4.85112E-19
 -1      3247 1.37731E-04-5.53027E-05-3.61121E-05 9.21784E-06 3.73896E-19 2.14977E-18
 -1      3248 1.20550E-04-9.42530E-06-4.81928E-05-1.16246E-06 3.47464E-18 2.48885E-18
 -1      3249 1.24882E-04-1.58304E-05-4.70561E-05-5.23793E-06 5.05827E-18 3.35287E-18
 -1      3250 9.52121E-05-2.42778E-05-3.04030E-05 4.26544E-06 1.20424E-18-7.39888E-19
 -1      3251 9.46366E-05-2.27299E-05-3.08065E-05 4.76781E-06 1.25050E-18-7.60589E-19
 -1      3252 9.49105E-05-2.35841E-05-3.05677E-05 3.66584E-06 1.00961E-18-8.46366E-19
 -1      3253 9.52395E-05-2.52036E-05-3.00287E-05 2.99101E-06 1.11427E-18-7.45729E-19
 -1      3254 9.23637E-05-1.83361E-05-3.17412E-05 1.80964E-06 5.31622E-19-1.60755E-18
 -1      3255 9.22434E-05-1.81328E-05-3.17731E-05 1.05715E-06 3.43560E-19-1.64841E-18
 -1      3256 1.22368E-04-5.42018E-05-2.75769E-05 5.73621E-05-1.33281E-18-3.99694E-18
 -1      3257 7.61994E-05-3.73668E-05-1.64302E-05 2.90948E-05 1.35176E-18 2.39530E-18
 -1      3258 6.30730E-05-2.85280E-05-1.43935E-05 2.43952E-05 1.05678E-18 1.82398E-18
 -1      3259 8.68756E-05-4.48978E-05-1.73832E-05-3.70955E-05 9.15854E-20-3.02613E-18
 -1      3260 1.02842E-04-5.39639E-05-2.13319E-05-3.36329E-05-1.78406E-19-2.39591E-18
 -1      3261 8.25765E-05-3.95909E-05-1.80283E-05-3.35639E-05 9.84676E-20-3.20613E-18
 -1      3262 1.35627E-04-4.26356E-05-3.97168E-05 1.89713E-05-1.33249E-19 1.81101E-18
 -1      3263 1.33478E-04-3.28796E-05-4.37846E-05 2.22167E-05 3.27061E-19 1.71138E-18
 -1      3264 9.21816E-05-1.80306E-05-3.17915E-05 4.06175E-07 3.25474E-19-1.60556E-18
 -1      3265 9.21780E-05-1.80184E-05-3.17920E-05-3.54554E-07 1.77743E-19-1.59964E-18
 -1      3266 9.31367E-05-1.96180E-05-3.14904E-05 6.25516E-07 1.83145E-19-1.52557E-18
 -1      3267 1.20190E-04-1.06884E-05-4.72886E-05 1.56561E-05 1.88401E-18 9.19243E-19
 -1      3268 1.29968E-04-5.91072E-05-3.02024E-05-5.21238E-06-1.79343E-18-6.36016E-19
 -1      3269 1.20334E-04-6.11557E-05-2.49423E-05 1.71950E-05 1.39220E-18 2.29333E-18
 -1      3270 1.15024E-04-7.22242E-06-4.65623E-05 4.71150E-06 3.61217E-18 1.63514E-18
 -1      3271 1.18083E-04-7.88303E-06-4.77116E-05 1.29032E-06 4.04522E-18 2.00006E-18
 -1      3272 1.13965E-04-1.07189E-05-4.44400E-05-1.58270E-06 4.93810E-18 2.78800E-18
 -1      3273 5.84699E-05-2.34700E-05-1.45988E-05 1.94604E-05 1.26256E-18 1.62959E-18
 -1      3274 5.54804E-05-1.88757E-05-1.54972E-05 1.19984E-05 1.07620E-18 1.28537E-18
 -1      3275 6.83740E-05-2.57338E-05-1.79307E-05 1.94630E-05 1.26556E-18 1.96120E-18
 -1      3276 1.29464E-04-2.54120E-05-4.51631E-05-5.27491E-06 4.98098E-18 3.06319E-18
 -1      3277 1.35644E-04-3.40747E-05-4.36814E-05-2.59202E-06 3.86326E-18 3.44472E-18
 -1      3278 8.75872E-05-4.20009E-05-1.92808E-05 2.62904E-05 1.76879E-18 2.28842E-18
 -1      3279 9.38129E-05-4.17715E-05-2.23122E-05 2.31506E-05 1.22105E-18 1.74049E-18
 -1      3280 9.44729E-05-2.23725E-05-3.09004E-05-3.98805E-06-8.39176E-19-1.62460E-18
 -1      3281 9.53686E-05-2.66192E-05-2.94735E-05 1.24526E-06 8.26292E-19-3.67523E-19
 -1      3282 9.54279E-05-2.60358E-05-2.97298E-05 2.09991E-06 9.63807E-19-5.53056E-19
 -1      3283 9.53663E-05-2.53264E-05-3.00108E-05 2.48678E-06 9.19557E-19-5.55453E-19
 -1      3284 9.55820E-05-2.86821E-05-2.86748E-05-1.04932E-06 1.70152E-19 9.60812E-20
 -1      3285 9.52735E-05-2.85711E-05-2.85872E-05-1.08418E-06 3.71197E-23 1.33635E-19
 -1      3286 9.52847E-05-2.84666E-05-2.86307E-05-1.01391E-06 5.65929E-20 1.25407E-19
 -1      3287 4.89986E-05-1.59402E-05-1.38793E-05 8.81612E-07 1.26304E-18 2.27587E-19
 -1      3288 4.47997E-05-1.57774E-05-1.18038E-05-6.65174E-06 1.14978E-18-2.06634E-18
 -1      3289 5.00108E-05-1.72481E-05-1.39272E-05-1.28655E-05 1.52813E-18-3.14154E-18
 -1      3290 1.24890E-04-2.61926E-05-4.24948E-05 2.23934E-05 4.66715E-19 1.35695E-18
 -1      3291 9.34244E-05-2.02141E-05-3.14038E-05 4.22688E-06 1.08416E-18-1.17937E-18
 -1      3292 9.30590E-05-1.95439E-05-3.15169E-05 3.64949E-06 8.86340E-19-1.21077E-18
 -1      3293 9.43659E-05-2.19938E-05-3.09892E-05 3.63914E-06 9.19954E-19-9.81109E-19
 -1      3294 1.10581E-04-5.45789E-05-2.38584E-05-2.57263E-05-4.72777E-19-2.06758E-18
 -1      3295 9.53828E-05-2.74208E-05-2.91324E-05 1.85812E-07 4.51245E-19-1.17568E-19
 -1      3296 9.54456E-05-2.70326E-05-2.93080E-05 7.37184E-07 6.37958E-19-2.12651E-19
 -1      3297 9.55676E-05-2.66198E-05-2.95497E-05 1.04483E-06 6.45754E-19-1.40434E-19
 -1      3298 9.56674E-05-2.74114E-05-2.92567E-05 1.45896E-07 4.84464E-19 3.21918E-21
 -1      3299 9.53178E-05-2.83378E-05-2.87075E-05-8.95217E-07 1.79107E-19 6.52260E-20
 -1      3300 9.53490E-05-2.81724E-05-2.87812E-05-7.21055E-07 4.49951E-19-1.97116E-20
 -1      3301 9.56421E-05-2.84294E-05-2.88096E-05-8.71316E-07 6.80381E-20-4.37124E-21
 -1      3302 9.27794E-05-1.90488E-05-3.16178E-05 3.12147E-06 7.83401E-19-1.35291E-18
 -1      3303 9.25392E-05-1.86322E-05-3.16852E-05 2.42064E-06 5.90105E-19-1.49522E-18
 -1      3304 9.33510E-05-2.00070E-05-3.14143E-05 1.80050E-06 5.16326E-19-1.42210E-18
 -1      3305 9.37635E-05-2.07840E-05-3.12536E-05 2.84838E-06 7.65172E-19-1.13617E-18
 -1      3306 9.56889E-05-2.80098E-05-2.90103E-05-4.80027E-07 5.30375E-19-1.53451E-19
 -1      3307 1.32501E-04-4.65865E-05-3.67791E-05 1.58699E-05 2.03506E-19 1.79619E-18
 -1      3308 1.21861E-04-2.15935E-05-4.32658E-05-5.65373E-06 4.67747E-18 2.30928E-18
 -1      3309 1.13721E-04-5.14242E-05-2.61085E-05-5.67846E-05-1.34382E-18-6.43745E-18
 -1      3310 9.26660E-05-1.87812E-05-3.16686E-05-3.73979E-06-5.47583E-19-1.77383E-18
 -1      3311 9.30112E-05-1.94175E-05-3.15620E-05-4.34597E-06-7.54491E-19-1.66261E-18
 -1      3312 9.36685E-05-2.05967E-05-3.13022E-05-4.01146E-06-7.46226E-19-1.57787E-18
 -1      3313 1.37431E-04-5.53468E-05-3.59057E-05 2.51852E-05-1.22926E-19 1.05886E-17
 -1      3314 9.21542E-05-1.79395E-05-3.18162E-05-2.38376E-06-2.07047E-19-1.90998E-18
 -1      3315 9.23823E-05-1.83229E-05-3.17539E-05-3.10226E-06-3.59947E-19-1.88820E-18
 -1      3316 9.30534E-05-1.94612E-05-3.15249E-05-2.96909E-06-4.60925E-19-1.76209E-18
 -1      3317 1.41138E-04-4.95101E-05-3.91423E-05 1.37223E-05 1.94426E-18 8.69691E-18
 -1      3318 1.41804E-04-4.20403E-05-4.33660E-05 3.34088E-06 2.96716E-18 6.46837E-18
 -1      3319 1.32609E-04-3.68704E-05-4.12465E-05-4.63876E-07 3.48273E-18 4.26227E-18
 -1      3320 9.58486E-05-4.49655E-05-2.26270E-05 6.57595E-05-3.19522E-18-1.13651E-17
 -1      3321 8.07861E-05-3.17062E-05-2.08044E-05 2.19413E-05 9.09515E-19 1.73795E-18
 -1      3322 9.60386E-05-2.69150E-05-2.96136E-05-4.49947E-07-2.99075E-19-1.33263E-18
 -1      3323 9.60764E-05-2.74017E-05-2.94394E-05-3.13926E-08-3.05458E-19-1.08897E-18
 -1      3324 9.61630E-05-2.78271E-05-2.92789E-05 2.50442E-07-4.56894E-19-8.95486E-19
 -1      3325 9.61579E-05-2.81473E-05-2.91520E-05 5.01752E-07-5.96099E-19-8.15774E-19
 -1      3326 9.62598E-05-2.74518E-05-2.94888E-05 2.04071E-08-2.56780E-19-1.09801E-18
 -1      3327 9.61669E-05-2.84114E-05-2.90324E-05 6.61745E-07-7.14516E-19-6.99818E-19
 -1      3328 9.61370E-05-2.86104E-05-2.89423E-05 7.95634E-07-4.45348E-19-4.79827E-19
 -1      3329 9.63566E-05-2.82207E-05-2.92026E-05 4.77528E-07-4.63713E-19-6.88666E-19
 -1      3330 9.61042E-05-2.87659E-05-2.88552E-05 8.70596E-07-4.05781E-19-5.72410E-19
 -1      3331 9.60640E-05-2.88821E-05-2.87930E-05 9.23489E-07-3.43292E-19-6.56404E-19
 -1      3332 9.63344E-05-2.86955E-05-2.89902E-05 7.31745E-07-5.05840E-19-4.24941E-19
 -1      3333 9.60095E-05-2.89638E-05-2.87312E-05 9.40376E-07-1.26205E-19-7.12834E-19
 -1      3334 9.59669E-05-2.90237E-05-2.86898E-05 9.40682E-07 1.31626E-19-5.30366E-19
 -1      3335 9.62496E-05-2.89706E-05-2.88360E-05 8.40288E-07-2.66114E-19-6.54984E-19
 -1      3336 9.59036E-05-2.90562E-05-2.86473E-05 9.20991E-07-6.73985E-20-4.82183E-19
 -1      3337 9.58628E-05-2.90785E-05-2.86211E-05 8.89812E-07-2.42533E-19-3.90204E-19
 -1      3338 9.61342E-05-2.91091E-05-2.87272E-05 8.51638E-07 4.84412E-21-8.47946E-19
 -1      3339 9.57983E-05-2.90790E-05-2.85932E-05 8.49554E-07-3.72650E-19-4.40242E-19
 -1      3340 9.57615E-05-2.90768E-05-2.85781E-05 8.02002E-07-3.42934E-19-4.81339E-19
 -1      3341 9.60086E-05-2.91562E-05-2.86530E-05 8.03447E-07-3.53785E-19-7.83687E-19
 -1      3342 9.57004E-05-2.90574E-05-2.85610E-05 7.52555E-07-3.40557E-19-4.31415E-19
 -1      3343 9.56683E-05-2.90398E-05-2.85538E-05 6.99133E-07-3.44376E-19-5.15913E-19
 -1      3344 9.58850E-05-2.91441E-05-2.86049E-05 7.23345E-07-3.24975E-19-9.80860E-19
 -1      3345 9.56129E-05-2.90085E-05-2.85448E-05 6.48339E-07-3.08944E-19-5.04193E-19
 -1      3346 9.55854E-05-2.89814E-05-2.85433E-05 5.96230E-07-3.12618E-19-7.27852E-19
 -1      3347 9.57702E-05-2.90952E-05-2.85764E-05 6.30816E-07-3.04756E-19-6.75520E-19
 -1      3348 9.55363E-05-2.89433E-05-2.85402E-05 5.49452E-07-4.08364E-19-2.98762E-19
 -1      3349 9.55131E-05-2.89103E-05-2.85428E-05 5.03554E-07-4.35903E-19-2.44785E-19
 -1      3350 9.56669E-05-2.90240E-05-2.85624E-05 5.39355E-07-9.45871E-20-1.60078E-19
 -1      3351 9.54699E-05-2.88682E-05-2.85441E-05 4.64464E-07-6.42754E-19-2.67198E-19
 -1      3352 9.54503E-05-2.88314E-05-2.85497E-05 4.28171E-07-6.92220E-19-2.59343E-19
 -1      3353 9.55756E-05-2.89395E-05-2.85592E-05 4.58292E-07-7.01375E-19-1.80275E-19
 -1      3354 9.54117E-05-2.87864E-05-2.85544E-05 3.99355E-07-5.85992E-19 2.08632E-20
 -1      3355 9.53947E-05-2.87463E-05-2.85624E-05 3.75203E-07-4.91825E-19 2.38477E-19
 -1      3356 9.54946E-05-2.88464E-05-2.85642E-05 3.94107E-07-4.59589E-19 4.96132E-19
 -1      3357 9.53591E-05-2.86982E-05-2.85698E-05 3.58720E-07-5.25254E-19 4.03077E-19
 -1      3358 9.53435E-05-2.86544E-05-2.85799E-05 3.48898E-07-6.29639E-19 4.77237E-19
 -1      3359 9.54211E-05-2.87458E-05-2.85756E-05 3.51611E-07-5.55052E-19 5.52774E-19
 -1      3360 9.53085E-05-2.86018E-05-2.85896E-05 3.46672E-07-6.75034E-19 6.35953E-19
 -1      3361 9.52929E-05-2.85529E-05-2.86016E-05 3.53384E-07-6.59746E-19 8.77652E-19
 -1      3362 9.53509E-05-2.86365E-05-2.85922E-05 3.34912E-07-4.10353E-19 6.43109E-19
 -1      3363 9.52556E-05-2.84937E-05-2.86135E-05 3.67473E-07-7.56509E-19 8.84344E-19
 -1      3364 9.52384E-05-2.84376E-05-2.86276E-05 3.93221E-07-3.93003E-19 5.92774E-19
 -1      3365 9.52790E-05-2.85148E-05-2.86133E-05 3.48037E-07-5.10087E-19 1.44782E-18
 -1      3366 9.51953E-05-2.83689E-05-2.86414E-05 4.26028E-07-7.01692E-20 2.69916E-19
 -1      3367 9.51744E-05-2.83029E-05-2.86578E-05 4.73808E-07 7.36100E-20 4.72719E-19
 -1      3368 9.51992E-05-2.83756E-05-2.86384E-05 3.95398E-07-2.57949E-19 8.28790E-19
 -1      3369 9.51213E-05-2.82210E-05-2.86735E-05 5.28208E-07 3.07612E-19 4.36999E-19
 -1      3370 9.50940E-05-2.81416E-05-2.86923E-05 6.01641E-07 1.19837E-18 1.51586E-19
 -1      3371 9.51038E-05-2.82118E-05-2.86674E-05 4.82117E-07 3.27645E-19 1.45511E-18
 -1      3372 9.50257E-05-2.80421E-05-2.87097E-05 6.81019E-07 1.50651E-18-2.36624E-19
 -1      3373 9.49886E-05-2.79454E-05-2.87310E-05 7.84384E-07 9.59328E-19-4.99086E-20
 -1      3374 9.49835E-05-2.80151E-05-2.86997E-05 6.14159E-07 9.07982E-19 7.67380E-19
 -1      3375 9.48985E-05-2.78232E-05-2.87497E-05 8.92581E-07 1.45029E-20-2.65948E-19
 -1      3376 9.48469E-05-2.77045E-05-2.87734E-05 1.03075E-06-6.68905E-19-2.60316E-19
 -1      3377 9.48267E-05-2.77758E-05-2.87345E-05 7.98267E-07 2.55393E-19-3.42987E-19
 -1      3378 9.47270E-05-2.75538E-05-2.87925E-05 1.17190E-06-5.07219E-19 2.30350E-19
 -1      3379 9.46548E-05-2.74080E-05-2.88181E-05 1.35018E-06 2.81516E-19 4.83236E-19
 -1      3380 9.46192E-05-2.74826E-05-2.87704E-05 1.04167E-06-8.84693E-21 2.73285E-19
 -1      3381 9.44946E-05-2.72223E-05-2.88360E-05 1.52839E-06 2.50934E-19 2.03028E-19
 -1      3382 9.43937E-05-2.70438E-05-2.88622E-05 1.75215E-06-3.87466E-20 1.03001E-19
 -1      3383 9.43426E-05-2.71233E-05-2.88048E-05 1.35153E-06-2.36755E-20 9.58071E-19
 -1      3384 9.41801E-05-2.68164E-05-2.88765E-05 1.97111E-06-2.04057E-19-2.22251E-19
 -1      3385 9.40395E-05-2.65997E-05-2.89010E-05 2.24536E-06-3.69635E-19-6.99469E-19
 -1      3386 9.39739E-05-2.66850E-05-2.88332E-05 1.73408E-06-2.32862E-19-6.29807E-20
 -1      3387 9.37562E-05-2.63238E-05-2.89075E-05 2.50779E-06-1.35061E-19-8.47040E-19
 -1      3388 9.35621E-05-2.60640E-05-2.89263E-05 2.83650E-06 3.13457E-19-9.01807E-19
 -1      3389 9.34844E-05-2.61548E-05-2.88487E-05 2.19355E-06-1.13775E-19-1.84433E-19
 -1      3390 9.31885E-05-2.57345E-05-2.89188E-05 3.14372E-06 7.63938E-19-3.50642E-19
 -1      3391 9.29237E-05-2.54292E-05-2.89255E-05 3.52928E-06 1.31133E-18 3.04832E-19
 -1      3392 9.28377E-05-2.55215E-05-2.88404E-05 2.73097E-06 7.02623E-19-3.90484E-19
 -1      3393 9.24354E-05-2.50440E-05-2.88944E-05 3.88116E-06 5.70420E-19 2.50300E-19
 -1      3394 9.20803E-05-2.46964E-05-2.88791E-05 4.32410E-06 1.25856E-21-2.26199E-19
 -1      3395 9.19900E-05-2.47787E-05-2.87919E-05 3.34348E-06 9.14184E-19-5.95168E-19
 -1      3396 9.14488E-05-2.42607E-05-2.88104E-05 4.72019E-06-5.35498E-20 2.30669E-19
 -1      3397 9.09842E-05-2.38849E-05-2.87581E-05 5.22025E-06 5.66568E-19 5.71819E-19
 -1      3398 9.08888E-05-2.39301E-05-2.86792E-05 4.02526E-06 1.84914E-19-1.64212E-20
 -1      3399 9.01780E-05-2.34171E-05-2.86314E-05 5.66344E-06 5.81243E-20-1.39457E-19
 -1      3400 8.95922E-05-2.30476E-05-2.85206E-05 6.22333E-06-3.87898E-20-3.13965E-19
 -1      3401 8.94745E-05-2.29973E-05-2.84672E-05 4.77216E-06-3.30444E-19 6.07098E-19
 -1      3402 8.85796E-05-2.25892E-05-2.83070E-05 6.72871E-06 3.79291E-19-2.82942E-19
 -1      3403 8.78815E-05-2.22962E-05-2.81075E-05 7.36335E-06-2.70584E-19 6.94540E-20
 -1      3404 8.76835E-05-2.20335E-05-2.81057E-05 5.59437E-06-2.58233E-19-2.84865E-19
 -1      3405 8.66352E-05-2.19262E-05-2.77663E-05 7.97669E-06-7.54661E-19 4.64887E-19
 -1      3406 8.58803E-05-2.18406E-05-2.74382E-05 8.73142E-06-6.32149E-19 2.13167E-19
 -1      3407 8.54537E-05-2.11413E-05-2.75240E-05 6.54402E-06-5.85591E-19-2.97870E-19
 -1      3408 8.43885E-05-2.16980E-05-2.69131E-05 9.55703E-06-2.60904E-19 1.84834E-20
 -1      3409 8.37279E-05-2.20488E-05-2.64081E-05 1.05356E-05 3.71255E-19 1.25728E-19
 -1      3410 8.27390E-05-2.05082E-05-2.66219E-05 7.76631E-06-5.75162E-19 1.74836E-19
 -1      3411 8.19907E-05-2.23376E-05-2.56191E-05 1.18090E-05 3.57622E-19-4.89486E-19
 -1      3412 8.17851E-05-2.35504E-05-2.48894E-05 1.32017E-05 8.63597E-20 7.53735E-20
 -1      3413 7.95006E-05-2.04365E-05-2.52597E-05 9.55850E-06-5.65181E-20 3.21641E-19
 -1      3414 8.03033E-05-2.51011E-05-2.36427E-05 1.57086E-05 4.62735E-19 7.41640E-19
 -1      3415 8.13536E-05-2.81430E-05-2.26460E-05 1.78560E-05 5.44033E-19 7.25212E-19
 -1      3416 7.35240E-05-2.69863E-05-1.98741E-05 1.99713E-05 1.23679E-18 1.17491E-18
 -1      3417 7.60276E-05-2.19729E-05-2.31385E-05 1.31310E-05 8.44197E-19 4.49288E-19
 -1      3418 9.44037E-05-2.22434E-05-3.09359E-05-3.63918E-06-7.56469E-19-1.49352E-18
 -1      3419 9.48595E-05-2.32132E-05-3.06817E-05-3.19294E-06-6.91988E-19-1.53113E-18
 -1      3420 9.52032E-05-2.43827E-05-3.03699E-05-2.32769E-06-6.06817E-19-1.40658E-18
 -1      3421 9.40864E-05-2.15883E-05-3.10805E-05-3.24501E-06-6.71126E-19-1.55848E-18
 -1      3422 9.54846E-05-2.89293E-05-2.85225E-05-6.45241E-07 1.48237E-20 1.92296E-19
 -1      3423 9.54997E-05-2.89500E-05-2.85215E-05-7.01851E-07 8.93491E-20 2.79109E-19
 -1      3424 9.55454E-05-2.89759E-05-2.85286E-05-7.57444E-07 7.59068E-20 2.41582E-19
 -1      3425 9.55640E-05-2.89873E-05-2.85327E-05-8.15025E-07 1.67379E-19 5.27528E-19
 -1      3426 9.56688E-05-2.90417E-05-2.85558E-05-6.98614E-07 8.81906E-20 4.61928E-19
 -1      3427 9.53878E-05-2.88043E-05-2.85346E-05-4.57959E-07 5.09457E-20 2.10830E-19
 -1      3428 9.53975E-05-2.88344E-05-2.85277E-05-4.98771E-07-3.37069E-20 6.54017E-20
 -1      3429 9.53492E-05-2.87326E-05-2.85488E-05-3.95764E-07 3.34227E-19 9.05277E-21
 -1      3430 9.53572E-05-2.87656E-05-2.85400E-05-4.24382E-07 2.46397E-19 1.42242E-19
 -1      3431 9.54454E-05-2.88280E-05-2.85509E-05-4.29764E-07 1.31783E-19 4.26423E-20
 -1      3432 9.53146E-05-2.86556E-05-2.85669E-05-3.60542E-07 8.87553E-20 8.13326E-20
 -1      3433 9.53214E-05-2.86915E-05-2.85565E-05-3.74857E-07 2.59475E-19-9.65429E-20
 -1      3434 9.53874E-05-2.87408E-05-2.85633E-05-3.77569E-07 4.16358E-19 2.45001E-19
 -1      3435 9.52816E-05-2.85718E-05-2.85886E-05-3.56239E-07-2.65722E-19 1.12917E-19
 -1      3436 9.52879E-05-2.86114E-05-2.85767E-05-3.54242E-07-3.81009E-20-1.44417E-19
 -1      3437 9.53333E-05-2.86468E-05-2.85802E-05-3.52102E-07 1.14196E-19 1.91790E-19
 -1      3438 9.52479E-05-2.84790E-05-2.86138E-05-3.87069E-07-7.11612E-19 1.12851E-18
 -1      3439 9.52543E-05-2.85232E-05-2.86002E-05-3.66553E-07-5.45356E-19 3.58909E-19
 -1      3440 9.52795E-05-2.85441E-05-2.86010E-05-3.57387E-07-6.21102E-19-1.54393E-19
 -1      3441 9.52107E-05-2.83742E-05-2.86427E-05-4.57929E-07-4.47213E-19 1.51875E-18
 -1      3442 9.52177E-05-2.84243E-05-2.86271E-05-4.16336E-07-3.66220E-19 1.57749E-18
 -1      3443 9.52222E-05-2.84295E-05-2.86254E-05-3.97834E-07-6.34550E-19 5.46096E-19
 -1      3444 9.51675E-05-2.82545E-05-2.86752E-05-5.74584E-07-5.44704E-19 1.61509E-18
 -1      3445 9.51755E-05-2.83116E-05-2.86576E-05-5.08945E-07-3.22967E-19 1.46222E-18
 -1      3446 9.51569E-05-2.82993E-05-2.86531E-05-4.78582E-07-3.28708E-19 6.94848E-19
 -1      3447 9.51158E-05-2.81178E-05-2.87114E-05-7.43648E-07-4.21134E-20 1.17386E-18
 -1      3448 9.51250E-05-2.81826E-05-2.86916E-05-6.50642E-07-3.82022E-19 1.62825E-18
 -1      3449 9.50795E-05-2.81500E-05-2.86837E-05-6.05678E-07-2.95254E-19 6.21602E-19
 -1      3450 9.50542E-05-2.79636E-05-2.87507E-05-9.72326E-07-3.21299E-19 1.14222E-18
 -1      3451 9.50642E-05-2.80356E-05-2.87289E-05-8.48490E-07-2.60443E-19 1.15725E-18
 -1      3452 9.49858E-05-2.79791E-05-2.87166E-05-7.86094E-07-2.80528E-19 7.31087E-19
 -1      3453 9.49828E-05-2.77946E-05-2.87921E-05-1.26785E-06 3.04359E-19 1.27850E-18
 -1      3454 9.49923E-05-2.78717E-05-2.87687E-05-1.10996E-06-4.88143E-20 1.01692E-18
 -1      3455 9.48726E-05-2.77862E-05-2.87505E-05-1.02752E-06-3.51627E-19 7.17407E-19
 -1      3456 9.49045E-05-2.76186E-05-2.88336E-05-1.63650E-06-1.86960E-19 1.54382E-18
 -1      3457 9.49107E-05-2.76958E-05-2.88095E-05-1.44223E-06 4.02503E-19 1.48216E-18
 -1      3458 9.47388E-05-2.75749E-05-2.87836E-05-1.33793E-06 2.61052E-19 3.09859E-19
 -1      3459 9.48277E-05-2.74513E-05-2.88719E-05-2.08221E-06 3.19357E-19 1.67819E-18
 -1      3460 9.48248E-05-2.75194E-05-2.88486E-05-1.85101E-06 4.12492E-20 1.76705E-18
 -1      3461 9.45869E-05-2.73551E-05-2.88127E-05-1.72480E-06 1.15736E-19 1.13934E-18
 -1      3462 9.47687E-05-2.73201E-05-2.89024E-05-2.60446E-06-2.22198E-19 1.37417E-18
 -1      3463 9.47471E-05-2.73636E-05-2.88821E-05-2.33886E-06 2.43659E-19 1.45101E-18
 -1      3464 9.44258E-05-2.71462E-05-2.88334E-05-2.19399E-06 3.10618E-19 1.48718E-18
 -1      3465 9.47567E-05-2.72684E-05-2.89188E-05-3.19547E-06 1.02896E-18 8.90613E-19
 -1      3466 9.47002E-05-2.72633E-05-2.89045E-05-2.90283E-06 6.38954E-19 1.39512E-18
 -1      3467 9.42747E-05-2.69816E-05-2.88397E-05-2.74819E-06 4.70858E-19 6.73644E-19
 -1      3468 9.48396E-05-2.73616E-05-2.89139E-05-3.83642E-06 9.04279E-19 1.51855E-19
 -1      3469 9.47231E-05-2.72727E-05-2.89092E-05-3.53122E-06 1.04716E-18 8.27127E-19
 -1      3470 9.41683E-05-2.69139E-05-2.88244E-05-3.38465E-06 9.65312E-19 8.10284E-19
 -1      3471 9.50923E-05-2.76919E-05-2.88801E-05-4.49214E-06-1.17298E-18 5.37442E-19
 -1      3472 9.48777E-05-2.74705E-05-2.88885E-05-4.19903E-06-2.60724E-19 7.97940E-21
 -1      3473 9.41648E-05-2.70212E-05-2.87793E-05-4.09214E-06 3.49320E-19 1.56077E-18
 -1      3474 9.56248E-05-2.83825E-05-2.88119E-05-5.10364E-06-2.41756E-19 1.04701E-18
 -1      3475 9.52583E-05-2.79650E-05-2.88358E-05-4.86153E-06-9.08009E-19 5.18118E-19
 -1      3476 9.43547E-05-2.74130E-05-2.86968E-05-4.84612E-06-8.86315E-19 6.17661E-19
 -1      3477 9.65900E-05-2.95849E-05-2.87104E-05-5.57637E-06-1.35139E-19 1.85208E-18
 -1      3478 9.60001E-05-2.88961E-05-2.87483E-05-5.44432E-06 1.39727E-19 1.42170E-18
 -1      3479 9.48729E-05-2.82352E-05-2.85730E-05-5.60066E-06-4.81389E-19 3.57014E-19
 -1      3480 9.81833E-05-3.14620E-05-2.85904E-05-5.76161E-06-5.37913E-19 1.10760E-18
 -1      3481 9.72856E-05-3.04268E-05-2.86335E-05-5.82712E-06-3.38185E-19 1.60848E-18
 -1      3482 9.59091E-05-2.96671E-05-2.84132E-05-6.27347E-06-5.43020E-19 1.86428E-18
 -1      3483 1.00621E-04-3.41424E-05-2.84922E-05-5.43151E-06-9.34892E-19 1.59840E-18
 -1      3484 9.93370E-05-3.27145E-05-2.85181E-05-5.81978E-06-6.46675E-19 1.23809E-18
 -1      3485 9.77100E-05-3.19014E-05-2.82409E-05-6.71943E-06-1.02043E-18 1.88100E-18
 -1      3486 1.04075E-04-3.76051E-05-2.84999E-05-4.23144E-06-1.88283E-18 1.99706E-18
 -1      3487 1.02385E-04-3.58447E-05-2.84647E-05-5.11505E-06-1.48877E-18 1.64152E-18
 -1      3488 1.00573E-04-3.51036E-05-2.81140E-05-6.68541E-06-1.13244E-18 2.82133E-18
 -1      3489 1.08515E-04-4.15035E-05-2.87495E-05-1.71355E-06-1.95111E-18 2.94838E-18
 -1      3490 1.06519E-04-3.96480E-05-2.85866E-05-3.28736E-06-1.99040E-18 2.53952E-18
 -1      3491 1.04744E-04-3.92313E-05-2.81495E-05-5.70649E-06-1.80862E-18 2.68260E-18
 -1      3492 1.13619E-04-4.49460E-05-2.94620E-05 2.74899E-06-1.35159E-18 2.67248E-18
 -1      3493 1.11634E-04-4.36526E-05-2.90569E-05 1.94517E-07-1.48754E-18 2.90691E-18
 -1      3494 1.10254E-04-4.39035E-05-2.85229E-05-3.28566E-06-1.50915E-18 1.77774E-18
 -1      3495 1.18108E-04-4.59723E-05-3.09146E-05 9.05206E-06-1.66046E-18 2.15763E-18
 -1      3496 1.16695E-04-4.60780E-05-3.01888E-05 5.75061E-06-1.10996E-18 2.65254E-18
 -1      3497 1.16535E-04-4.75531E-05-2.95430E-05 1.66825E-06-1.08581E-18 2.59864E-18
 -1      3498 1.17924E-04-3.02411E-05-3.76560E-05 2.11675E-05 7.94570E-19 2.71386E-18
 -1      3499 1.20624E-04-3.65892E-05-3.63698E-05 2.02854E-05 3.84431E-19 2.53020E-18
 -1      3500 1.11657E-04-1.64185E-05-4.10213E-05 1.80253E-05 1.19559E-18 2.83561E-18
 -1      3501 1.14781E-04-2.24321E-05-3.99237E-05 2.03504E-05 1.22658E-18 2.98395E-18
 -1      3502 1.06379E-04-1.30004E-05-4.02444E-05-2.07651E-06 2.22571E-18 2.23246E-18
 -1      3503 1.05628E-04-1.07964E-05-4.07917E-05 2.77199E-06 2.11769E-18 2.66519E-18
 -1      3504 5.87836E-05-2.12947E-05-1.55741E-05-2.13238E-05-3.13151E-19-3.43493E-18
 -1      3505 6.60368E-05-2.68899E-05-1.67757E-05-2.72207E-05-3.56230E-19-4.01123E-18
 -1      3506 1.23554E-04-3.18310E-05-3.96717E-05-4.65945E-06 1.98764E-18 8.04681E-21
 -1      3507 1.10393E-04-1.11642E-05-4.28519E-05 1.23812E-05 2.54777E-18 3.06050E-18
 -1      3508 1.24537E-04-5.71072E-05-2.84767E-05-8.73849E-06-1.44577E-18-9.60165E-19
 -1      3509 1.28790E-04-5.62108E-05-3.13150E-05 1.84192E-06-1.33661E-18 1.40126E-18
 -1      3510 1.18263E-04-2.88375E-05-3.84242E-05-6.05138E-06 7.26913E-19-9.32398E-19
 -1      3511 1.11430E-04-2.61961E-05-3.67194E-05-8.05199E-06 1.45880E-18 2.34456E-19
 -1      3512 1.09979E-04-2.27938E-05-3.74414E-05-8.11795E-06 1.79664E-18 6.19393E-21
 -1      3513 1.20387E-04-2.70661E-05-4.01125E-05-6.81798E-06 2.55624E-18 3.79444E-19
 -1      3514 9.20605E-05-1.78161E-05-3.18320E-05-9.70075E-07 2.70000E-20-1.73137E-18
 -1      3515 9.21689E-05-1.79852E-05-3.18029E-05-1.72297E-06-1.23324E-19-1.87261E-18
 -1      3516 9.28338E-05-1.90716E-05-3.15962E-05-1.75297E-06-9.23266E-20-1.82834E-18
 -1      3517 9.29767E-05-1.93274E-05-3.15461E-05-5.53580E-07 1.82409E-19-1.55837E-18
 -1      3518 9.59454E-05-2.80842E-05-2.90876E-05-5.08013E-07 4.47723E-19-6.09043E-20
 -1      3519 9.59612E-05-2.77805E-05-2.92124E-05-2.29381E-07 5.29907E-19-1.61924E-19
 -1      3520 1.24272E-04-4.54872E-05-3.37581E-05 1.42797E-05 5.89932E-19 2.46872E-18
 -1      3521 9.53285E-05-2.47630E-05-3.02427E-05 2.75097E-06 8.24039E-19-6.96027E-19
 -1      3522 9.50402E-05-2.39203E-05-3.04884E-05 2.99810E-06 8.82246E-19-8.52776E-19
 -1      3523 9.54768E-05-2.56151E-05-2.99484E-05 1.84551E-06 7.14704E-19-4.89661E-19
 -1      3524 9.54325E-05-2.88706E-05-2.85253E-05-5.42889E-07-1.85849E-20-5.32072E-20
 -1      3525 9.54446E-05-2.88969E-05-2.85209E-05-5.93374E-07 1.16896E-19-3.54105E-20
 -1      3526 9.55843E-05-2.89817E-05-2.85450E-05-5.96416E-07 1.65633E-19 1.91935E-19
 -1      3527 9.55103E-05-2.89089E-05-2.85443E-05-5.04407E-07-8.39388E-20 1.02148E-19
 -1      3528 7.70701E-05-3.36173E-05-1.82064E-05-3.01591E-05-5.94472E-19-3.69206E-18
 -1      3529 8.95357E-05-4.20623E-05-2.05935E-05-3.07101E-05-3.03926E-19-2.32177E-18
 -1      3530 7.54403E-05-2.97934E-05-1.93179E-05-2.52804E-05-1.19527E-18-3.47315E-18
 -1      3531 9.57737E-05-2.89340E-05-2.86454E-05-1.01341E-06 4.52228E-19-1.77407E-19
 -1      3532 9.58044E-05-2.88727E-05-2.86822E-05-1.01189E-06 4.94480E-19-1.43077E-19
 -1      3533 9.56884E-05-2.55083E-05-3.00567E-05-1.48989E-06-5.98431E-19-1.44278E-18
 -1      3534 9.58286E-05-2.62662E-05-2.98248E-05-8.64521E-07-4.63735E-19-1.44380E-18
 -1      3535 9.59827E-05-2.63219E-05-2.98643E-05-6.99596E-07-3.29069E-19-1.34035E-18
 -1      3536 1.02777E-04-4.83250E-05-2.28627E-05-2.65410E-05-6.06820E-20-8.62796E-19
 -1      3537 1.13790E-04-5.47297E-05-2.57710E-05-1.97051E-05-1.35411E-18-1.44532E-18
 -1      3538 1.15758E-04-1.91253E-05-4.17663E-05-6.39995E-06 3.46908E-18 1.04283E-18
 -1      3539 5.78705E-05-1.90389E-05-1.64190E-05-1.45150E-05 5.63012E-19-2.41171E-18
 -1      3540 6.88591E-05-2.21888E-05-1.99409E-05 1.52284E-05 1.73986E-18 1.02067E-18
 -1      3541 9.58532E-05-2.87926E-05-2.87411E-05-9.89207E-07 2.53802E-19-2.37133E-19
 -1      3542 9.58862E-05-2.86789E-05-2.87986E-05-9.30384E-07 1.69233E-20-2.32174E-19
 -1      3543 9.60737E-05-2.88876E-05-2.87965E-05-9.18823E-07 2.21651E-19-6.53004E-19
 -1      3544 5.47147E-05-1.68382E-05-1.58742E-05 6.61187E-06 1.44439E-18 1.47093E-18
 -1      3545 5.51903E-05-1.58401E-05-1.68633E-05 1.74657E-07 1.91082E-18-1.12761E-19
 -1      3546 6.20114E-05-1.87314E-05-1.83409E-05 9.89289E-06 1.76854E-18 9.01508E-19
 -1      3547 9.57637E-05-2.90800E-05-2.85803E-05-8.00738E-07 2.61339E-19 2.24690E-19
 -1      3548 9.56149E-05-2.90019E-05-2.85474E-05-8.68450E-07 4.30916E-19 3.26582E-19
 -1      3549 9.56376E-05-2.89986E-05-2.85588E-05-9.19329E-07 4.74894E-19 1.62902E-19
 -1      3550 9.48183E-05-2.32625E-05-3.06633E-05 2.79605E-06 7.28370E-19-8.97813E-19
 -1      3551 9.60684E-05-4.27342E-05-2.27502E-05-2.51979E-05-9.26548E-19-1.77989E-18
 -1      3552 1.24205E-04-4.86792E-05-3.24451E-05 1.08971E-05-9.89162E-19 1.86943E-18
 -1      3553 1.16625E-04-5.30331E-05-2.72135E-05-1.21710E-05-1.14781E-18-8.86132E-19
 -1      3554 1.09159E-04-9.30386E-06-4.30782E-05 7.14334E-06 2.67223E-18 3.09394E-18
 -1      3555 9.58873E-05-2.74480E-05-2.93363E-05 3.63855E-08 4.69980E-19-3.38211E-19
 -1      3556 9.58520E-05-2.70810E-05-2.94649E-05 4.11197E-07 4.00258E-19-2.84714E-19
 -1      3557 9.60981E-05-2.74889E-05-2.94067E-05-1.74547E-08 3.76099E-19-4.90514E-19
 -1      3558 1.25892E-04-5.24237E-05-3.15696E-05 5.58849E-06-9.72443E-19 2.10047E-18
 -1      3559 9.38578E-05-2.10453E-05-3.12173E-05 8.07897E-07 1.34061E-19-1.53107E-18
 -1      3560 9.38125E-05-2.09480E-05-3.12366E-05 2.47406E-07 1.13902E-19-1.55984E-18
 -1      3561 9.53084E-05-2.44172E-05-3.03912E-05-1.96873E-06-6.31332E-19-1.44060E-18
 -1      3562 9.56921E-05-2.89944E-05-2.85839E-05-9.61792E-07 4.36220E-19-8.13599E-20
 -1      3563 9.57189E-05-2.89681E-05-2.86059E-05-9.94632E-07 5.22865E-19-7.19647E-21
 -1      3564 9.59734E-05-2.90287E-05-2.86928E-05-9.37401E-07 4.88510E-19-7.57953E-19
 -1      3565 9.58669E-05-2.90827E-05-2.86237E-05-8.87688E-07 2.71853E-19-6.56158E-19
 -1      3566 9.39585E-05-2.12915E-05-3.11561E-05-2.78946E-06-6.23903E-19-1.58088E-18
 -1      3567 9.47208E-05-2.27733E-05-3.08096E-05-2.50174E-06-6.34203E-19-1.45867E-18
 -1      3568 9.59489E-05-2.83386E-05-2.89692E-05-6.94108E-07 1.98893E-19-4.64832E-20
 -1      3569 9.61764E-05-2.81521E-05-2.91558E-05-4.94187E-07 2.69317E-19-2.87123E-19
 -1      3570 9.59182E-05-2.85294E-05-2.88833E-05-8.41820E-07-3.27327E-20-1.17160E-19
 -1      3571 9.40838E-05-2.15102E-05-3.11177E-05 1.76277E-06 5.24947E-19-1.23598E-18
 -1      3572 9.39445E-05-2.12161E-05-3.11765E-05 1.24557E-06 3.04159E-19-1.30781E-18
 -1      3573 9.46038E-05-2.23832E-05-3.09337E-05 8.28540E-07 1.94369E-19-1.24776E-18
 -1      3574 9.37203E-05-2.08476E-05-3.12442E-05-2.25666E-06-3.75934E-19-1.62981E-18
 -1      3575 1.06340E-04-1.70635E-05-3.83170E-05-5.92590E-06 2.69214E-18-8.83032E-20
 -1      3576 1.11083E-04-1.36700E-05-4.20245E-05-3.30326E-06 3.50063E-18 1.25260E-18
 -1      3577 1.14030E-04-1.61760E-05-4.22866E-05-5.54163E-06 4.12442E-18 1.27791E-18
 -1      3578 1.08080E-04-1.99052E-05-3.79815E-05-7.24837E-06 2.43707E-18-2.39280E-19
 -1      3579 9.63485E-05-2.71064E-05-2.96651E-05-1.70665E-07-9.27461E-20-9.21562E-19
 -1      3580 9.64251E-05-2.76062E-05-2.95014E-05 1.20094E-07-1.20487E-19-9.42385E-19
 -1      3581 9.65111E-05-2.80203E-05-2.93484E-05 2.98673E-07-1.37311E-19-9.26384E-19
 -1      3582 9.65225E-05-2.83444E-05-2.92229E-05 4.78501E-07-3.80959E-19-6.23552E-19
 -1      3583 9.65665E-05-2.76972E-05-2.95145E-05 1.35285E-07-4.96294E-20-5.80132E-19
 -1      3584 9.65314E-05-2.86076E-05-2.91064E-05 5.78032E-07-4.66880E-19-4.42385E-19
 -1      3585 9.65001E-05-2.88056E-05-2.90138E-05 6.72161E-07-4.07853E-19-3.99413E-19
 -1      3586 9.66616E-05-2.84334E-05-2.92411E-05 4.28481E-07-2.68002E-19-5.71645E-19
 -1      3587 9.64598E-05-2.89575E-05-2.89267E-05 7.13695E-07-3.71143E-19-3.39599E-19
 -1      3588 9.64064E-05-2.90676E-05-2.88600E-05 7.47829E-07-5.35296E-20-3.53747E-19
 -1      3589 9.66297E-05-2.88877E-05-2.90336E-05 5.83595E-07-3.43801E-19-3.91919E-19
 -1      3590 9.63391E-05-2.91425E-05-2.87965E-05 7.50255E-07-9.71365E-20-5.16659E-19
 -1      3591 9.62763E-05-2.91924E-05-2.87499E-05 7.45517E-07-2.48746E-19-7.64355E-19
 -1      3592 9.65228E-05-2.91413E-05-2.88796E-05 6.41705E-07-2.84952E-19-5.65668E-19
 -1      3593 9.61972E-05-2.92157E-05-2.87050E-05 7.23988E-07-2.30515E-19-7.66872E-19
 -1      3594 9.61330E-05-2.92258E-05-2.86737E-05 6.96345E-07-4.10071E-19-6.73108E-19
 -1      3595 9.63777E-05-2.92563E-05-2.87682E-05 6.35929E-07-3.12177E-19-8.30202E-19
 -1      3596 9.60518E-05-2.92158E-05-2.86432E-05 6.62041E-07-2.98119E-19-4.92591E-19
 -1      3597 9.59908E-05-2.92003E-05-2.86234E-05 6.23000E-07-6.27143E-20-5.45306E-19
 -1      3598 9.62188E-05-2.92790E-05-2.86904E-05 5.92091E-07-1.52852E-19-4.41435E-19
 -1      3599 9.59131E-05-2.91697E-05-2.86039E-05 5.83801E-07-1.56421E-20-3.82910E-19
 -1      3600 9.58576E-05-2.91384E-05-2.85927E-05 5.41427E-07-8.21228E-20-1.59455E-20
 -1      3601 9.60615E-05-2.92426E-05-2.86384E-05 5.29013E-07-2.54834E-20-2.22653E-19
 -1      3602 9.57861E-05-2.90955E-05-2.85816E-05 5.02846E-07-1.08056E-20-4.40435E-20
 -1      3603 9.57368E-05-2.90546E-05-2.85768E-05 4.62792E-07-9.07299E-20-2.78824E-22
 -1      3604 9.59138E-05-2.91696E-05-2.86062E-05 4.59992E-07 2.35362E-19-1.20916E-19
 -1      3605 9.56723E-05-2.90045E-05-2.85720E-05 4.28710E-07-4.24440E-19 2.81851E-19
 -1      3606 9.56289E-05-2.89577E-05-2.85722E-05 3.94904E-07-5.89942E-19 4.74676E-19
 -1      3607 9.57792E-05-2.90744E-05-2.85890E-05 3.94516E-07-6.08381E-20 1.31564E-19
 -1      3608 9.55707E-05-2.89030E-05-2.85722E-05 3.67933E-07-5.66860E-19 8.71126E-19
 -1      3609 9.55319E-05-2.88518E-05-2.85760E-05 3.43133E-07-4.47353E-19 6.77101E-19
 -1      3610 9.56578E-05-2.89655E-05-2.85834E-05 3.39227E-07-2.12132E-19 8.44589E-19
 -1      3611 9.54782E-05-2.87932E-05-2.85798E-05 3.25197E-07-3.86546E-19 5.59759E-19
 -1      3612 9.54423E-05-2.87377E-05-2.85866E-05 3.11636E-07-4.36938E-19 7.26004E-19
 -1      3613 9.55471E-05-2.88468E-05-2.85865E-05 2.98651E-07-5.62989E-19 1.00187E-18
 -1      3614 9.53903E-05-2.86743E-05-2.85933E-05 3.04412E-07-3.93840E-19 8.45768E-19
 -1      3615 9.53549E-05-2.86132E-05-2.86026E-05 3.04084E-07-3.09873E-19 1.04256E-18
 -1      3616 9.54425E-05-2.87181E-05-2.85966E-05 2.76506E-07-2.94422E-19 1.10937E-18
 -1      3617 9.53013E-05-2.85428E-05-2.86117E-05 3.09160E-07-2.81893E-19 1.25784E-18
 -1      3618 9.52635E-05-2.84739E-05-2.86231E-05 3.24101E-07-5.37980E-19 1.05613E-18
 -1      3619 9.53381E-05-2.85766E-05-2.86121E-05 2.76059E-07-4.16188E-19 1.04312E-18
 -1      3620 9.52039E-05-2.83937E-05-2.86343E-05 3.43175E-07-5.01107E-19 1.13421E-18
 -1      3621 9.51604E-05-2.83138E-05-2.86476E-05 3.75654E-07 4.33536E-20 1.25339E-18
 -1      3622 9.52261E-05-2.84172E-05-2.86321E-05 3.00498E-07-2.77684E-19 9.94004E-19
 -1      3623 9.50897E-05-2.82196E-05-2.86603E-05 4.10650E-07 4.05141E-19 1.67349E-18
 -1      3624 9.50360E-05-2.81248E-05-2.86753E-05 4.63263E-07 4.16013E-19 1.92247E-18
 -1      3625 9.50972E-05-2.82326E-05-2.86555E-05 3.53252E-07 3.10927E-19 1.87246E-18
 -1      3626 9.49480E-05-2.80120E-05-2.86891E-05 5.16330E-07 3.39561E-19 1.49139E-18
 -1      3627 9.48791E-05-2.78977E-05-2.87055E-05 5.92000E-07 5.67469E-19 1.00961E-18
 -1      3628 9.49404E-05-2.80141E-05-2.86814E-05 4.38053E-07 1.86720E-19 1.40418E-18
 -1      3629 9.47664E-05-2.77608E-05-2.87195E-05 6.65415E-07 2.09191E-19 4.76375E-19
 -1      3630 9.46756E-05-2.76218E-05-2.87366E-05 7.67277E-07 6.73260E-20 4.01613E-19
 -1      3631 9.47422E-05-2.77513E-05-2.87084E-05 5.58805E-07-9.55987E-20 5.97796E-19
 -1      3632 9.45292E-05-2.74547E-05-2.87498E-05 8.63223E-07 3.29673E-19 1.50394E-19
 -1      3633 9.44084E-05-2.72852E-05-2.87666E-05 9.94373E-07 5.63223E-19 7.30767E-19
 -1      3634 9.44863E-05-2.74330E-05-2.87343E-05 7.19205E-07 9.02764E-20 7.50480E-19
 -1      3635 9.42173E-05-2.70814E-05-2.87769E-05 1.11458E-06 2.35667E-19 1.58056E-19
 -1      3636 9.40561E-05-2.68753E-05-2.87916E-05 1.27767E-06-2.77330E-20 2.12656E-19
 -1      3637 9.41532E-05-2.70466E-05-2.87560E-05 9.22083E-07 1.04397E-19-4.19778E-19
 -1      3638 9.38070E-05-2.66282E-05-2.87964E-05 1.42287E-06-5.11505E-19 1.22519E-19
 -1      3639 9.35923E-05-2.63793E-05-2.88060E-05 1.61958E-06-4.07757E-19-1.02689E-19
 -1      3640 9.37190E-05-2.65796E-05-2.87686E-05 1.16841E-06-2.34789E-19-5.12195E-19
 -1      3641 9.32690E-05-2.60824E-05-2.88010E-05 1.78886E-06-2.81393E-19-3.84231E-19
 -1      3642 9.29842E-05-2.57852E-05-2.88011E-05 2.01915E-06-1.42901E-19 5.49708E-20
 -1      3643 9.31548E-05-2.60197E-05-2.87648E-05 1.45596E-06-6.80671E-19-2.58668E-20
 -1      3644 9.25670E-05-2.54331E-05-2.87799E-05 2.20926E-06 4.10773E-19-1.07457E-20
 -1      3645 9.21918E-05-2.50833E-05-2.87637E-05 2.47077E-06 9.29047E-19-1.03477E-19
 -1      3646 9.24252E-05-2.53564E-05-2.87339E-05 1.77777E-06 1.12932E-19-9.41627E-20
 -1      3647 9.16565E-05-2.46729E-05-2.87174E-05 2.67558E-06 1.14062E-18-3.11664E-19
 -1      3648 9.11661E-05-2.42698E-05-2.86747E-05 2.96338E-06 1.11775E-18-5.80753E-20
 -1      3649 9.14875E-05-2.45829E-05-2.86603E-05 2.12065E-06 8.89927E-19 2.83183E-19
 -1      3650 9.04833E-05-2.38022E-05-2.85902E-05 3.17413E-06 5.29683E-19-1.86312E-19
 -1      3651 8.98486E-05-2.33509E-05-2.85065E-05 3.48165E-06 6.10190E-19 5.80139E-19
 -1      3652 9.02894E-05-2.36984E-05-2.85216E-05 2.46454E-06 6.97598E-19 9.17591E-21
 -1      3653 8.89816E-05-2.28338E-05-2.83651E-05 3.68879E-06 2.73701E-19 3.26597E-19
 -1      3654 8.81702E-05-2.23494E-05-2.82192E-05 4.01132E-06-7.99723E-19 4.55788E-19
 -1      3655 8.87665E-05-2.27119E-05-2.82860E-05 2.78400E-06 1.76128E-19-2.02135E-19
 -1      3656 8.70717E-05-2.18010E-05-2.79946E-05 4.20959E-06-9.98016E-19 7.10990E-19
 -1      3657 8.60488E-05-2.13142E-05-2.77565E-05 4.55286E-06-2.19734E-19 2.48420E-19
 -1      3658 8.68376E-05-2.16459E-05-2.79084E-05 3.05434E-06-5.61533E-19 8.67732E-19
 -1      3659 8.46538E-05-2.07664E-05-2.74108E-05 4.75191E-06-1.86682E-19 1.39853E-19
 -1      3660 8.33859E-05-2.03304E-05-2.70383E-05 5.14929E-06-7.31919E-19 3.63591E-19
 -1      3661 8.43948E-05-2.05399E-05-2.73245E-05 3.26555E-06-6.32203E-19 2.89995E-19
 -1      3662 8.15935E-05-1.98311E-05-2.65152E-05 5.40021E-06-5.72453E-19 4.88338E-19
 -1      3663 8.00677E-05-1.95443E-05-2.59480E-05 5.94187E-06-2.31628E-19 7.87516E-19
 -1      3664 8.12795E-05-1.94458E-05-2.64407E-05 3.45338E-06-4.68618E-19 6.63999E-19
 -1      3665 7.77228E-05-1.91671E-05-2.51621E-05 6.38328E-06-5.12773E-19 1.21212E-18
 -1      3666 7.59996E-05-1.91693E-05-2.43223E-05 7.21686E-06-4.02415E-19 7.51336E-19
 -1      3667 7.72161E-05-1.84238E-05-2.51128E-05 3.74409E-06-1.52248E-19 1.23851E-18
 -1      3668 7.31598E-05-1.93129E-05-2.31458E-05 9.15432E-06 5.92548E-19 1.01651E-18
 -1      3669 7.15753E-05-2.05077E-05-2.17639E-05 1.15030E-05 1.63517E-18 1.02349E-18
 -1      3670 6.63128E-05-1.93978E-05-2.00153E-05 1.11102E-05 1.58428E-18 1.24928E-18
 -1      3671 7.20259E-05-1.79659E-05-2.31034E-05 5.65011E-06 3.14570E-19 1.66317E-18
 -1      3672 9.53486E-05-2.86318E-05-2.85918E-05-3.25988E-07-2.98780E-19 2.00644E-19
 -1      3673 9.53756E-05-2.86848E-05-2.85825E-05-3.30421E-07 2.50788E-19 3.92425E-19
 -1      3674 9.57786E-05-2.90964E-05-2.85769E-05-6.14702E-07 1.00097E-19-2.03360E-19
 -1      3675 9.58244E-05-2.91220E-05-2.85864E-05-6.62431E-07 2.50911E-19 2.68031E-20
 -1      3676 9.54208E-05-2.87413E-05-2.85758E-05-3.41527E-07 1.75018E-19 5.74798E-20
 -1      3677 9.54490E-05-2.87900E-05-2.85687E-05-3.59765E-07 2.40968E-19-3.01612E-19
 -1      3678 9.54323E-05-2.87302E-05-2.85871E-05-3.10908E-07 8.21475E-21 8.23196E-20
 -1      3679 9.54967E-05-2.88428E-05-2.85648E-05-3.82516E-07 5.62567E-19-5.16002E-19
 -1      3680 9.55276E-05-2.88877E-05-2.85603E-05-4.12525E-07 2.64249E-19-2.12903E-19
 -1      3681 9.55243E-05-2.88465E-05-2.85769E-05-3.41842E-07 2.75027E-19-2.41651E-19
 -1      3682 9.52752E-05-2.85116E-05-2.86119E-05-3.39767E-07-4.13235E-19 1.11861E-20
 -1      3683 9.53030E-05-2.85702E-05-2.86008E-05-3.28303E-07-3.11424E-19 4.17372E-20
 -1      3684 9.53423E-05-2.86039E-05-2.86024E-05-3.03876E-07-1.92751E-19 7.05255E-19
 -1      3685 9.51955E-05-2.83766E-05-2.86355E-05-3.87236E-07-6.82873E-19-3.85978E-19
 -1      3686 9.52261E-05-2.84428E-05-2.86227E-05-3.57535E-07-6.70506E-19-3.61331E-19
 -1      3687 9.52484E-05-2.84640E-05-2.86218E-05-3.24633E-07-5.21242E-19-4.14273E-19
 -1      3688 9.51035E-05-2.82224E-05-2.86621E-05-4.73531E-07-6.53369E-19-2.74652E-19
 -1      3689 9.51392E-05-2.82982E-05-2.86477E-05-4.22863E-07-4.98237E-19-4.31231E-19
 -1      3690 9.51439E-05-2.83059E-05-2.86444E-05-3.77547E-07-7.10085E-19-9.67109E-19
 -1      3691 9.49934E-05-2.80448E-05-2.86908E-05-6.04760E-07-5.49783E-19 1.40324E-19
 -1      3692 9.50364E-05-2.81320E-05-2.86753E-05-5.29945E-07-4.40382E-19 1.96720E-19
 -1      3693 9.50216E-05-2.81245E-05-2.86694E-05-4.67825E-07-9.24225E-19-3.45492E-19
 -1      3694 9.48593E-05-2.78408E-05-2.87206E-05-7.88050E-07-6.14989E-19 2.72194E-19
 -1      3695 9.49115E-05-2.79403E-05-2.87043E-05-6.85494E-07-6.72395E-19 2.46634E-19
 -1      3696 9.48736E-05-2.79149E-05-2.86954E-05-6.01757E-07-8.34993E-19-2.53413E-19
 -1      3697 9.46964E-05-2.76096E-05-2.87496E-05-1.03145E-06 6.68029E-20 3.19865E-19
 -1      3698 9.47590E-05-2.77211E-05-2.87335E-05-8.97271E-07-3.26361E-19 9.12742E-19
 -1      3699 9.46927E-05-2.76738E-05-2.87208E-05-7.86845E-07-6.16266E-19 1.04982E-19
 -1      3700 9.45022E-05-2.73553E-05-2.87750E-05-1.34363E-06 4.52481E-20 2.38703E-19
 -1      3701 9.45750E-05-2.74757E-05-2.87604E-05-1.17392E-06 2.37420E-19 3.23595E-19
 -1      3702 9.44724E-05-2.74009E-05-2.87429E-05-1.03186E-06 6.49032E-20 6.45876E-19
 -1      3703 9.42783E-05-2.70889E-05-2.87928E-05-1.73343E-06 5.41115E-20 5.63359E-19
 -1      3704 9.43588E-05-2.72112E-05-2.87816E-05-1.52466E-06 1.11206E-20 8.08398E-19
 -1      3705 9.42088E-05-2.71011E-05-2.87581E-05-1.34680E-06-2.59607E-19 3.02331E-19
 -1      3706 9.40336E-05-2.68319E-05-2.87974E-05-2.20915E-06 6.26071E-19 2.54923E-19
 -1      3707 9.41149E-05-2.69435E-05-2.87923E-05-1.95868E-06 6.71299E-19 7.95656E-19
 -1      3708 9.39027E-05-2.67873E-05-2.87612E-05-1.74283E-06 4.91050E-19 2.91099E-19
 -1      3709 9.37885E-05-2.66215E-05-2.87817E-05-2.77758E-06 7.01765E-20-1.38484E-19
 -1      3710 9.38577E-05-2.67011E-05-2.87862E-05-2.48445E-06 3.55025E-19 1.14223E-19
 -1      3711 9.35631E-05-2.64848E-05-2.87454E-05-2.23216E-06 4.23844E-19 4.85696E-20
 -1      3712 9.35816E-05-2.65159E-05-2.87369E-05-3.44265E-06 7.11471E-19 4.88327E-19
 -1      3713 9.36155E-05-2.65311E-05-2.87553E-05-3.10861E-06 4.57092E-19 6.39507E-20
 -1      3714 9.32119E-05-2.62358E-05-2.87022E-05-2.82781E-06 2.82210E-19 2.44714E-19
 -1      3715 9.34773E-05-2.66015E-05-2.86537E-05-4.20341E-06-2.67539E-19 1.12436E-18
 -1      3716 9.34391E-05-2.65049E-05-2.86902E-05-3.83438E-06 5.29218E-19 9.55474E-19
 -1      3717 9.28906E-05-2.61064E-05-2.86215E-05-3.54336E-06 1.15896E-19 4.81814E-19
 -1      3718 9.35775E-05-2.69995E-05-2.85235E-05-5.05047E-06-5.24348E-19 5.30119E-19
 -1      3719 9.34107E-05-2.67256E-05-2.85816E-05-4.65898E-06-3.90050E-19 1.25116E-18
 -1      3720 9.26697E-05-2.61933E-05-2.84925E-05-4.39211E-06-8.92172E-20 8.42193E-19
 -1      3721 9.40347E-05-2.78724E-05-2.83421E-05-5.95896E-06-9.10193E-19 5.79718E-19
 -1      3722 9.36569E-05-2.73349E-05-2.84224E-05-5.56865E-06-6.77034E-19 2.98573E-19
 -1      3723 9.26612E-05-2.66324E-05-2.83058E-05-5.38462E-06-3.08522E-19 1.49167E-18
 -1      3724 9.50662E-05-2.94243E-05-2.81156E-05-6.87349E-06-1.06424E-18 1.74025E-18
 -1      3725 9.43651E-05-2.85178E-05-2.82125E-05-6.52793E-06-1.25434E-18 7.29890E-19
 -1      3726 9.30351E-05-2.76065E-05-2.80572E-05-6.52210E-06-1.30847E-18 1.04635E-18
 -1      3727 9.69648E-05-3.18853E-05-2.78713E-05-7.67351E-06-9.93570E-19 1.66517E-18
 -1      3728 9.57992E-05-3.04987E-05-2.79669E-05-7.45353E-06-1.11906E-18 1.73167E-18
 -1      3729 9.40431E-05-2.93526E-05-2.77545E-05-7.77715E-06-8.41477E-19 1.60371E-18
 -1      3730 1.00100E-04-3.54732E-05-2.76761E-05-8.13068E-06-1.42161E-18 2.69082E-18
 -1      3731 9.82944E-05-3.35030E-05-2.77301E-05-8.17814E-06-1.19181E-18 2.17269E-18
 -1      3732 9.60255E-05-3.21314E-05-2.74318E-05-9.04574E-06-1.11823E-18 1.42360E-18
 -1      3733 1.04820E-04-4.02375E-05-2.76675E-05-7.83362E-06-1.60367E-18 2.07208E-18
 -1      3734 1.02292E-04-3.77362E-05-2.76019E-05-8.37309E-06-1.00235E-18 2.36465E-18
 -1      3735 9.93722E-05-3.62099E-05-2.71679E-05-1.00893E-05-1.16000E-18 1.97363E-18
 -1      3736 1.10954E-04-4.57884E-05-2.79985E-05-5.99036E-06-1.09192E-18 9.20513E-19
 -1      3737 1.08148E-04-4.29842E-05-2.77772E-05-7.17715E-06-1.45745E-18 1.36193E-18
 -1      3738 1.05141E-04-4.20912E-05-2.71828E-05-1.03283E-05-8.83101E-19 5.00924E-19
 -1      3739 9.45226E-05-2.22017E-05-3.09771E-05 7.77927E-09 8.51426E-20-1.59707E-18
 -1      3740 9.38033E-05-2.09464E-05-3.12377E-05-2.17730E-07 2.37398E-19-1.52169E-18
 -1      3741 5.76238E-05-1.61735E-05-1.74266E-05-7.43973E-06 1.02781E-18-1.17425E-18
 -1      3742 6.38948E-05-1.99036E-05-1.88156E-05-1.50493E-05-2.53662E-19-1.83679E-18
 -1      3743 8.98718E-05-3.68592E-05-2.24434E-05-2.40277E-05-1.09271E-18-2.29782E-18
 -1      3744 9.93328E-05-4.31346E-05-2.43329E-05-2.11611E-05-3.66539E-19-7.87079E-19
 -1      3745 9.36920E-05-2.07614E-05-3.12659E-05-1.80886E-06-2.53630E-19-1.70191E-18
 -1      3746 9.46009E-05-2.24079E-05-3.09152E-05-1.70578E-06-3.19231E-19-1.44856E-18
 -1      3747 9.37128E-05-2.08093E-05-3.12583E-05-1.23883E-06-4.93985E-20-1.58818E-18
 -1      3748 9.52383E-05-2.41498E-05-3.04778E-05-1.65109E-06-5.19657E-19-1.41203E-18
 -1      3749 9.44733E-05-2.23576E-05-3.09294E-05 2.56067E-06 7.34293E-19-1.09295E-18
 -1      3750 9.42441E-05-2.18466E-05-3.10323E-05 2.13303E-06 6.09148E-19-1.15536E-18
 -1      3751 9.48085E-05-2.28822E-05-3.08065E-05 1.55136E-06 5.06638E-19-1.08696E-18
 -1      3752 1.08610E-04-4.69259E-05-2.61099E-05-1.53586E-05-7.82632E-19-9.30896E-19
 -1      3753 1.15664E-04-5.01562E-05-2.82287E-05-6.78683E-06-1.21950E-18 1.44538E-19
 -1      3754 9.52276E-05-2.40993E-05-3.04636E-05 2.08704E-06 6.56251E-19-8.44753E-19
 -1      3755 9.51795E-05-2.38754E-05-3.05732E-05-1.51708E-06-4.45081E-19-1.19257E-18
 -1      3756 9.57936E-05-2.53109E-05-3.01815E-05-1.09446E-06-3.63429E-19-1.18145E-18
 -1      3757 9.60009E-05-2.61099E-05-2.99610E-05-6.50871E-07-2.00673E-19-1.06942E-18
 -1      3758 9.51708E-05-2.37769E-05-3.06076E-05-1.17151E-06-2.47401E-19-1.15472E-18
 -1      3759 9.57247E-05-2.66657E-05-2.96018E-05 7.87777E-07 3.77570E-19-3.06988E-19
 -1      3760 9.56723E-05-2.61768E-05-2.97736E-05 1.34322E-06 5.90390E-19-4.51086E-19
 -1      3761 9.56301E-05-2.56667E-05-2.99950E-05 1.56624E-06 5.62599E-19-6.29362E-19
 -1      3762 9.58903E-05-2.66610E-05-2.96739E-05 6.40204E-07 3.53274E-19-7.22488E-19
 -1      3763 1.21040E-04-5.12514E-05-2.99506E-05 1.31757E-06-1.10101E-18 1.47998E-18
 -1      3764 7.31997E-05-2.57974E-05-2.02001E-05-2.09753E-05-1.06915E-18-3.45513E-18
 -1      3765 8.16579E-05-3.20985E-05-2.13675E-05-2.39837E-05-1.09901E-18-3.36739E-18
 -1      3766 8.69949E-05-3.30337E-05-2.30336E-05-2.06530E-05-8.34940E-19-2.23747E-18
 -1      3767 1.02083E-04-4.20003E-05-2.57159E-05-1.56803E-05-2.11090E-19-7.17089E-19
 -1      3768 9.56233E-05-2.89546E-05-2.85733E-05-3.93181E-07 3.36431E-19-2.47205E-19
 -1      3769 9.55799E-05-2.89372E-05-2.85599E-05-4.44968E-07-2.35821E-20-1.78753E-20
 -1      3770 9.56151E-05-2.89782E-05-2.85589E-05-4.84400E-07 9.27123E-20-5.38190E-20
 -1      3771 9.57137E-05-2.90585E-05-2.85665E-05-5.70312E-07 2.20246E-19-3.15330E-20
 -1      3772 9.58547E-05-2.91384E-05-2.85942E-05-5.38221E-07 2.07501E-19-7.11349E-19
 -1      3773 9.56735E-05-2.90233E-05-2.85631E-05-5.24531E-07 2.15492E-19-1.94885E-19
 -1      3774 9.59891E-05-2.92015E-05-2.86250E-05-6.18631E-07 4.27373E-20-1.19165E-18
 -1      3775 9.58954E-05-2.91480E-05-2.86049E-05-7.06764E-07 1.63503E-19-2.59268E-19
 -1      3776 9.59463E-05-2.91580E-05-2.86228E-05-7.50264E-07-1.06811E-19-7.23601E-19
 -1      3777 6.46640E-05-1.73540E-05-2.02915E-05 6.09009E-06 1.72809E-18 1.37829E-18
 -1      3778 9.37020E-05-2.07474E-05-3.12741E-05-7.53718E-07 1.12636E-19-1.49217E-18
 -1      3779 9.50402E-05-2.33229E-05-3.07451E-05 1.94279E-07 1.75205E-20-1.70711E-18
 -1      3780 9.50368E-05-2.33102E-05-3.07472E-05-1.88780E-07 7.71000E-20-1.59380E-18
 -1      3781 1.18535E-04-5.02929E-05-2.91438E-05-1.73461E-06-1.24348E-18 1.10319E-18
 -1      3782 6.83935E-05-1.90727E-05-2.11431E-05-1.06305E-05 1.01020E-18-7.24041E-19
 -1      3783 7.03432E-05-2.22907E-05-2.04690E-05-1.69739E-05 1.14958E-19-2.21241E-18
 -1      3784 7.65025E-05-2.45544E-05-2.22868E-05-1.62118E-05 9.51324E-20-2.24957E-18
 -1      3785 9.62693E-05-2.75098E-05-2.94735E-05-5.93884E-08 1.54134E-19-7.77565E-19
 -1      3786 9.61918E-05-2.70972E-05-2.96049E-05 2.23446E-07 1.68000E-19-9.11425E-19
 -1      3787 6.15646E-05-1.66041E-05-1.90805E-05-2.22030E-06 1.45381E-18 3.56389E-19
 -1      3788 1.12607E-04-2.10264E-05-3.93531E-05-7.08124E-06 2.29557E-18-4.37678E-19
 -1      3789 9.61386E-05-2.62225E-05-2.99632E-05-4.91795E-07-1.39756E-19-7.94235E-19
 -1      3790 9.62630E-05-2.89892E-05-2.88323E-05-8.35422E-07 3.58181E-19-9.40544E-19
 -1      3791 9.63108E-05-2.88768E-05-2.88969E-05-7.94169E-07 3.25408E-19-9.33717E-19
 -1      3792 9.61508E-05-2.86156E-05-2.89462E-05-7.89500E-07 1.95756E-19-4.70519E-19
 -1      3793 9.61472E-05-2.91210E-05-2.87252E-05-8.39713E-07 3.85181E-19-8.29350E-19
 -1      3794 9.62013E-05-2.90669E-05-2.87696E-05-8.43123E-07 4.08513E-19-1.07116E-18
 -1      3795 9.64098E-05-2.90699E-05-2.88619E-05-7.38813E-07 4.26283E-19-1.36205E-18
 -1      3796 9.63583E-05-2.82552E-05-2.91912E-05-5.03571E-07 2.60470E-19-5.22648E-19
 -1      3797 9.63527E-05-2.79322E-05-2.93167E-05-2.95148E-07 2.29515E-19-5.56313E-19
 -1      3798 9.64184E-05-2.75796E-05-2.95024E-05-9.38409E-08 8.62424E-21-9.02119E-19
 -1      3799 9.51262E-05-2.35610E-05-3.06824E-05 8.26998E-07 3.85619E-19-1.06648E-18
 -1      3800 9.50652E-05-2.33917E-05-3.07241E-05 4.78502E-07 2.55747E-19-1.34805E-18
 -1      3801 9.55735E-05-2.43559E-05-3.05056E-05 2.44322E-07 2.01705E-19-1.37096E-18
 -1      3802 9.66023E-05-2.74102E-05-2.96531E-05-8.41124E-09 5.57964E-21-6.84478E-19
 -1      3803 9.66932E-05-2.78791E-05-2.94961E-05 1.89973E-07-2.19300E-19-7.23437E-19
 -1      3804 9.67685E-05-2.82721E-05-2.93531E-05 2.81626E-07-2.84654E-19-7.83184E-19
 -1      3805 9.67784E-05-2.85746E-05-2.92326E-05 3.94690E-07-3.21201E-19-7.92440E-19
 -1      3806 9.67970E-05-2.80074E-05-2.94806E-05 1.66603E-07-2.67526E-19-9.94486E-19
 -1      3807 9.67733E-05-2.88156E-05-2.91224E-05 4.42716E-07-4.38255E-19-6.99619E-19
 -1      3808 9.67341E-05-2.89959E-05-2.90317E-05 4.99169E-07-3.60603E-19-7.70323E-19
 -1      3809 9.68615E-05-2.86705E-05-2.92251E-05 3.15086E-07-3.96358E-19-9.80669E-19
 -1      3810 9.66803E-05-2.91296E-05-2.89485E-05 5.13638E-07-2.41504E-19-7.72641E-19
 -1      3811 9.66139E-05-2.92232E-05-2.88818E-05 5.31108E-07-2.06780E-19-7.66846E-19
 -1      3812 9.68017E-05-2.90697E-05-2.90294E-05 3.88625E-07-2.57359E-19-8.25038E-19
 -1      3813 9.65338E-05-2.92823E-05-2.88206E-05 5.24106E-07-1.63387E-19-8.43674E-19
 -1      3814 9.64551E-05-2.93167E-05-2.87730E-05 5.16789E-07-7.90645E-20-8.76777E-19
 -1      3815 9.66677E-05-2.92784E-05-2.88829E-05 4.09372E-07-1.15937E-19-6.90614E-19
 -1      3816 9.63644E-05-2.93267E-05-2.87293E-05 4.97475E-07 7.31683E-20-6.76940E-19
 -1      3817 9.62834E-05-2.93224E-05-2.86966E-05 4.75669E-07 4.83423E-20-4.63827E-19
 -1      3818 9.64974E-05-2.93570E-05-2.87764E-05 3.96262E-07-1.93825E-20-6.48994E-19
 -1      3819 9.61915E-05-2.93007E-05-2.86667E-05 4.50342E-07 1.70526E-19-2.76425E-19
 -1      3820 9.61139E-05-2.92721E-05-2.86454E-05 4.21836E-07 2.58031E-19 5.21192E-20
 -1      3821 9.63160E-05-2.93505E-05-2.87014E-05 3.63444E-07 3.91499E-19-2.02693E-19
 -1      3822 9.60261E-05-2.92307E-05-2.86261E-05 3.94854E-07 6.69485E-20 3.86350E-20
 -1      3823 9.59545E-05-2.91869E-05-2.86135E-05 3.65285E-07 7.30852E-20-2.62833E-20
 -1      3824 9.61377E-05-2.92894E-05-2.86511E-05 3.22090E-07 2.46765E-19 3.97434E-19
 -1      3825 9.58735E-05-2.91339E-05-2.86024E-05 3.40219E-07 1.53752E-19-3.46630E-21
 -1      3826 9.58089E-05-2.90809E-05-2.85966E-05 3.13443E-07 2.55478E-19 3.87435E-19
 -1      3827 9.59702E-05-2.91943E-05-2.86198E-05 2.79223E-07-8.07070E-20-6.13193E-20
 -1      3828 9.57352E-05-2.90208E-05-2.85918E-05 2.92567E-07 1.09343E-19 2.65521E-20
 -1      3829 9.56769E-05-2.89621E-05-2.85910E-05 2.71226E-07-3.45875E-19 1.76277E-19
 -1      3830 9.58168E-05-2.90789E-05-2.86033E-05 2.40703E-07 1.10247E-19-4.74353E-19
 -1      3831 9.56090E-05-2.88968E-05-2.85911E-05 2.55683E-07-5.55466E-19 4.60890E-19
 -1      3832 9.55551E-05-2.88329E-05-2.85943E-05 2.41866E-07-5.98688E-19 2.29223E-19
 -1      3833 9.56768E-05-2.89503E-05-2.85980E-05 2.10294E-07-4.18287E-19-5.05950E-19
 -1      3834 9.54903E-05-2.87624E-05-2.85981E-05 2.33181E-07-3.86748E-19 4.05952E-19
 -1      3835 9.54382E-05-2.86928E-05-2.86044E-05 2.28584E-07-1.12682E-19 6.10730E-19
 -1      3836 9.55454E-05-2.88102E-05-2.86015E-05 1.90222E-07-3.33200E-19 6.45812E-21
 -1      3837 9.53732E-05-2.86155E-05-2.86111E-05 2.27761E-07-3.59544E-19 5.66874E-19
 -1      3838 9.53193E-05-2.85381E-05-2.86198E-05 2.33904E-07-5.48044E-19 7.11012E-19
 -1      3839 9.54172E-05-2.86572E-05-2.86117E-05 1.83283E-07-3.31187E-19 1.73547E-19
 -1      3840 9.52495E-05-2.84513E-05-2.86288E-05 2.41920E-07-5.45363E-19 5.72663E-19
 -1      3841 9.51897E-05-2.83629E-05-2.86395E-05 2.60346E-07-2.17401E-20 7.16530E-19
 -1      3842 9.52841E-05-2.84872E-05-2.86270E-05 1.91231E-07-5.52676E-19 6.63877E-19
 -1      3843 9.51096E-05-2.82626E-05-2.86500E-05 2.78248E-07 3.56763E-19 8.69912E-19
 -1      3844 9.50386E-05-2.81593E-05-2.86622E-05 3.10587E-07 5.36666E-19 8.85766E-19
 -1      3845 9.51361E-05-2.82935E-05-2.86462E-05 2.15917E-07 2.39971E-19 1.47209E-19
 -1      3846 9.49419E-05-2.80409E-05-2.86736E-05 3.39428E-07 1.16252E-19 1.04997E-18
 -1      3847 9.48536E-05-2.79178E-05-2.86866E-05 3.87358E-07-3.09491E-19 3.56881E-19
 -1      3848 9.49617E-05-2.80674E-05-2.86677E-05 2.59119E-07 2.80345E-19-1.63229E-19
 -1      3849 9.47326E-05-2.77759E-05-2.86979E-05 4.28077E-07-3.15566E-19 5.90047E-19
 -1      3850 9.46195E-05-2.76277E-05-2.87109E-05 4.93183E-07-1.35240E-19 3.13292E-19
 -1      3851 9.47467E-05-2.77990E-05-2.86899E-05 3.22344E-07-1.51519E-19 3.47177E-19
 -1      3852 9.44653E-05-2.74565E-05-2.87209E-05 5.46369E-07-2.07383E-19 1.14427E-19
 -1      3853 9.43184E-05-2.72774E-05-2.87325E-05 6.29861E-07-2.45975E-19 6.16375E-21
 -1      3854 9.44751E-05-2.74773E-05-2.87105E-05 4.06432E-07-3.25794E-19-5.34464E-20
 -1      3855 9.41205E-05-2.70708E-05-2.87391E-05 6.95361E-07-3.79814E-19-1.89488E-20
 -1      3856 9.39290E-05-2.68548E-05-2.87473E-05 7.97625E-07 1.31264E-20-4.49551E-19
 -1      3857 9.41275E-05-2.70908E-05-2.87261E-05 5.10878E-07-2.41395E-19-4.42383E-19
 -1      3858 9.36752E-05-2.66068E-05-2.87479E-05 8.73982E-07 1.97330E-19-1.04724E-18
 -1      3859 9.34257E-05-2.63482E-05-2.87496E-05 9.93952E-07-3.19571E-19-6.22394E-19
 -1      3860 9.36818E-05-2.66281E-05-2.87320E-05 6.32812E-07-5.88156E-20-7.21023E-19
 -1      3861 9.31017E-05-2.60535E-05-2.87401E-05 1.07765E-06-6.00381E-19-3.88018E-19
 -1      3862 9.27779E-05-2.57473E-05-2.87309E-05 1.21200E-06-3.64578E-19-3.81229E-19
 -1      3863 9.31117E-05-2.60793E-05-2.87212E-05 7.65585E-07-2.02561E-19-1.24082E-18
 -1      3864 9.23671E-05-2.54019E-05-2.87056E-05 1.29651E-06-9.20630E-20-6.37849E-19
 -1      3865 9.19494E-05-2.50445E-05-2.86788E-05 1.43877E-06 4.33570E-19-2.34729E-19
 -1      3866 9.23871E-05-2.54366E-05-2.86839E-05 8.96925E-07-1.08449E-19-5.72213E-19
 -1      3867 9.14322E-05-2.46468E-05-2.86296E-05 1.51355E-06 6.03721E-19-4.94934E-19
 -1      3868 9.08963E-05-2.42372E-05-2.85761E-05 1.65329E-06 8.30789E-19-4.07866E-19
 -1      3869 9.14724E-05-2.46968E-05-2.86061E-05 1.00678E-06 4.29836E-19-6.14515E-19
 -1      3870 9.02493E-05-2.37890E-05-2.84917E-05 1.70289E-06 4.98204E-19-5.02585E-19
 -1      3871 8.95657E-05-2.33301E-05-2.83980E-05 1.82557E-06 2.73921E-19-7.30105E-19
 -1      3872 9.03259E-05-2.38627E-05-2.84686E-05 1.06507E-06 2.40769E-19-1.10306E-18
 -1      3873 8.87596E-05-2.28380E-05-2.82627E-05 1.82928E-06 5.38156E-19-5.27083E-19
 -1      3874 8.78911E-05-2.23377E-05-2.81101E-05 1.91735E-06 5.56539E-19 2.03493E-19
 -1      3875 8.88969E-05-2.29454E-05-2.82445E-05 1.02985E-06 7.15804E-19-2.18619E-19
 -1      3876 8.68869E-05-2.18139E-05-2.79020E-05 1.85015E-06-2.46726E-19 2.76194E-19
 -1      3877 8.57851E-05-2.12866E-05-2.76639E-05 1.88694E-06-6.78537E-19 5.93432E-19
 -1      3878 8.71200E-05-2.19652E-05-2.78964E-05 8.46835E-07 4.45645E-19 1.72595E-19
 -1      3879 8.45261E-05-2.07487E-05-2.73517E-05 1.72252E-06-1.06438E-18 2.61267E-19
 -1      3880 8.31228E-05-2.02153E-05-2.69901E-05 1.70088E-06-7.66325E-19-9.08435E-20
 -1      3881 8.49046E-05-2.09508E-05-2.73720E-05 4.51604E-07-9.65395E-19 4.39542E-19
 -1      3882 8.15215E-05-1.96845E-05-2.65295E-05 1.41071E-06 1.51128E-19 5.44161E-21
 -1      3883 7.97077E-05-1.91531E-05-2.59884E-05 1.34161E-06 1.32022E-19 7.83171E-19
 -1      3884 8.21195E-05-1.99403E-05-2.65968E-05-2.25997E-07 7.77674E-21-5.94763E-19
 -1      3885 7.76279E-05-1.86996E-05-2.53072E-05 9.48088E-07-3.02897E-19 7.91576E-19
 -1      3886 7.53199E-05-1.81994E-05-2.45120E-05 7.98384E-07 5.08799E-20 6.81297E-19
 -1      3887 7.85420E-05-1.89307E-05-2.54605E-05-1.24889E-06 3.37610E-19-1.88519E-19
 -1      3888 7.14584E-05-1.74111E-05-2.32212E-05 8.26284E-07-2.16384E-19 9.77034E-19
 -1      3889 6.87052E-05-1.73180E-05-2.19397E-05 2.25239E-06 6.38413E-19 1.08070E-18
 -1      3890 9.53335E-05-2.85719E-05-2.86112E-05-2.66416E-07-2.55110E-19 2.48777E-19
 -1      3891 9.53794E-05-2.86415E-05-2.86026E-05-2.62707E-07-7.77944E-20 5.91534E-19
 -1      3892 6.44280E-05-1.65292E-05-2.04414E-05 8.45196E-07 1.26556E-18 1.30747E-18
 -1      3893 9.55449E-05-2.88410E-05-2.85864E-05-2.87033E-07 6.67662E-20 2.08227E-19
 -1      3894 9.55930E-05-2.88996E-05-2.85831E-05-3.05696E-07 1.53583E-19 1.44338E-19
 -1      3895 9.50947E-05-2.82377E-05-2.86522E-05-3.46937E-07-7.43680E-19-4.78162E-20
 -1      3896 9.51513E-05-2.83267E-05-2.86404E-05-3.12732E-07-4.50371E-19-1.88660E-19
 -1      3897 9.49447E-05-2.80324E-05-2.86759E-05-4.36078E-07-1.02325E-18-3.06174E-19
 -1      3898 9.50123E-05-2.81353E-05-2.86633E-05-3.82744E-07-7.81602E-19-2.59285E-19
 -1      3899 9.50242E-05-2.81512E-05-2.86590E-05-3.12424E-07-5.94710E-19 4.93865E-19
 -1      3900 9.47623E-05-2.77943E-05-2.86998E-05-5.65693E-07-5.28634E-19-8.87929E-19
 -1      3901 9.48447E-05-2.79133E-05-2.86871E-05-4.89942E-07-8.79429E-19-6.92595E-19
 -1      3902 9.48436E-05-2.79184E-05-2.86808E-05-3.97538E-07-5.98130E-19-4.24950E-19
 -1      3903 9.45382E-05-2.75194E-05-2.87214E-05-7.43390E-07-1.10991E-18-3.14180E-19
 -1      3904 9.46390E-05-2.76560E-05-2.87098E-05-6.41320E-07-9.50769E-19-8.83159E-19
 -1      3905 9.46224E-05-2.76477E-05-2.87015E-05-5.20032E-07-9.66567E-19-1.00387E-18
 -1      3906 9.42644E-05-2.72070E-05-2.87378E-05-9.78385E-07-3.65960E-19 7.10316E-19
 -1      3907 9.43864E-05-2.73607E-05-2.87288E-05-8.45444E-07-6.76631E-19 1.63092E-19
 -1      3908 9.43498E-05-2.73347E-05-2.87181E-05-6.87925E-07-1.21218E-18-3.94210E-19
 -1      3909 9.39355E-05-2.68623E-05-2.87442E-05-1.28174E-06-1.98152E-19 6.34026E-19
 -1      3910 9.40797E-05-2.70292E-05-2.87402E-05-1.11271E-06-2.79994E-20 6.32850E-19
 -1      3911 9.40158E-05-2.69791E-05-2.87267E-05-9.11403E-07-1.34475E-19 5.10912E-19
 -1      3912 9.35509E-05-2.64987E-05-2.87347E-05-1.66670E-06 7.28822E-19 3.13099E-19
 -1      3913 9.37151E-05-2.66703E-05-2.87386E-05-1.45564E-06 1.81619E-19 1.50992E-19
 -1      3914 9.36132E-05-2.65863E-05-2.87218E-05-1.20342E-06 2.95460E-19-3.83713E-19
 -1      3915 9.31186E-05-2.61426E-05-2.87011E-05-2.14910E-06 1.08663E-20 8.71109E-19
 -1      3916 9.32954E-05-2.63031E-05-2.87170E-05-1.88933E-06 5.41932E-19 6.35447E-19
 -1      3917 9.31395E-05-2.61711E-05-2.86962E-05-1.58056E-06 6.67684E-20-1.87413E-21
 -1      3918 9.26601E-05-2.58385E-05-2.86335E-05-2.74802E-06 4.55780E-19 5.49848E-19
 -1      3919 9.28341E-05-2.59622E-05-2.86663E-05-2.43202E-06 4.68057E-19 8.15762E-19
 -1      3920 9.26008E-05-2.57619E-05-2.86403E-05-2.06417E-06 2.51324E-19 1.24858E-18
 -1      3921 9.22173E-05-2.56552E-05-2.85201E-05-3.48653E-06-2.94763E-19 1.52216E-18
 -1      3922 9.23610E-05-2.57031E-05-2.85753E-05-3.10587E-06 3.14293E-20 7.23078E-19
 -1      3923 9.20166E-05-2.54062E-05-2.85425E-05-2.68203E-06-3.94540E-20 1.05825E-18
 -1      3924 9.18624E-05-2.56938E-05-2.83482E-05-4.39231E-06-3.19138E-19 1.75343E-18
 -1      3925 9.19305E-05-2.56094E-05-2.84314E-05-3.93786E-06-6.07033E-19 1.31051E-18
 -1      3926 9.14263E-05-2.51765E-05-2.83887E-05-3.47044E-06-2.78747E-19 1.15338E-18
 -1      3927 9.17108E-05-2.60962E-05-2.81059E-05-5.49703E-06-5.80225E-19 1.81109E-18
 -1      3928 9.16330E-05-2.58008E-05-2.82217E-05-4.96016E-06-1.84432E-19 1.90854E-18
 -1      3929 9.08992E-05-2.51791E-05-2.81639E-05-4.47657E-06-5.20608E-19 1.59069E-18
 -1      3930 9.19401E-05-2.70549E-05-2.77865E-05-6.83205E-06-1.04068E-18 1.30661E-18
 -1      3931 9.16107E-05-2.64427E-05-2.79356E-05-6.20863E-06-7.47662E-19 1.55004E-18
 -1      3932 9.05480E-05-2.55633E-05-2.78531E-05-5.76029E-06-2.95037E-19 1.39064E-18
 -1      3933 9.28152E-05-2.88245E-05-2.73951E-05-8.41546E-06-9.02517E-19 1.34697E-18
 -1      3934 9.20810E-05-2.77563E-05-2.75701E-05-7.71714E-06-1.21992E-18 6.98380E-19
 -1      3935 9.05470E-05-2.65326E-05-2.74459E-05-7.39341E-06-1.01111E-18 1.71729E-19
 -1      3936 9.47206E-05-3.17157E-05-2.69642E-05-1.01761E-05-1.03339E-18 1.28278E-18
 -1      3937 9.33932E-05-3.00498E-05-2.71400E-05-9.47869E-06-6.91099E-19 1.63194E-18
 -1      3938 9.11870E-05-2.83919E-05-2.69420E-05-9.45665E-06-9.79796E-19 2.07580E-19
 -1      3939 9.84100E-05-3.61479E-05-2.66262E-05-1.18215E-05-9.85588E-19 3.64717E-19
 -1      3940 9.60167E-05-3.36357E-05-2.67027E-05-1.13797E-05-9.43456E-19 1.23731E-18
 -1      3941 9.29550E-05-3.14877E-05-2.63763E-05-1.19621E-05-9.94253E-19 3.38697E-20
 -1      3942 9.86663E-05-3.84318E-05-2.57286E-05-1.52473E-05-6.27909E-19-4.06215E-19
 -1      3943 6.59691E-05-1.72985E-05-2.09170E-05-5.95218E-06 7.74492E-19 9.11302E-19
 -1      3944 9.45352E-05-2.22455E-05-3.09616E-05-8.60364E-07 5.72491E-20-1.32485E-18
 -1      3945 9.55268E-05-2.42626E-05-3.05266E-05-2.54927E-07 1.94192E-19-1.45160E-18
 -1      3946 9.50188E-05-2.32958E-05-3.07479E-05-4.85958E-07 2.19188E-19-1.24177E-18
 -1      3947 9.50350E-05-2.33550E-05-3.07304E-05-8.89501E-07 2.29562E-20-1.22046E-18
 -1      3948 9.54643E-05-2.48238E-05-3.02737E-05 1.53842E-06 5.66250E-19-9.20372E-19
 -1      3949 9.63477E-05-2.87240E-05-2.89837E-05-7.39559E-07 2.84627E-19-7.39121E-19
 -1      3950 9.63770E-05-2.85247E-05-2.90747E-05-6.30034E-07 3.63875E-19-5.74714E-19
 -1      3951 9.65071E-05-2.88079E-05-2.90155E-05-6.61358E-07 4.36156E-19-1.27807E-18
 -1      3952 9.60205E-05-2.91635E-05-2.86522E-05-7.88062E-07-8.81930E-20-6.14448E-19
 -1      3953 9.60748E-05-2.91482E-05-2.86814E-05-8.18074E-07 2.37273E-19-7.38823E-19
 -1      3954 9.62775E-05-2.91947E-05-2.87517E-05-7.38450E-07 1.74467E-19-9.02788E-19
 -1      3955 9.61327E-05-2.92279E-05-2.86754E-05-6.90796E-07-1.70530E-19-1.05015E-18
 -1      3956 9.52213E-05-2.84155E-05-2.86303E-05-2.92061E-07-5.16111E-19-1.32719E-19
 -1      3957 9.52708E-05-2.84935E-05-2.86198E-05-2.74245E-07-2.95579E-19 9.15674E-20
 -1      3958 9.53063E-05-2.85275E-05-2.86194E-05-2.30452E-07-5.84218E-20 5.50925E-19
 -1      3959 9.53168E-05-2.41047E-05-3.05298E-05 1.35166E-06 5.44229E-19-9.93965E-19
 -1      3960 9.51983E-05-2.37599E-05-3.06192E-05 1.07688E-06 4.08265E-19-9.20267E-19
 -1      3961 9.56451E-05-2.46268E-05-3.04219E-05 6.98195E-07 3.95898E-19-9.52112E-19
 -1      3962 9.56148E-05-2.46320E-05-3.04106E-05-7.60063E-07-9.60466E-20-9.55371E-19
 -1      3963 9.60397E-05-2.66446E-05-2.97469E-05 5.08292E-07 2.72701E-19-9.33052E-19
 -1      3964 9.59345E-05-2.61728E-05-2.98905E-05 9.08190E-07 3.77142E-19-9.30509E-19
 -1      3965 9.61715E-05-2.66167E-05-2.98094E-05 4.32539E-07 1.66651E-19-1.07072E-18
 -1      3966 9.54390E-05-2.87124E-05-2.85962E-05-2.65907E-07-6.99732E-20 2.52538E-19
 -1      3967 9.54845E-05-2.87757E-05-2.85900E-05-2.74327E-07 9.32371E-20 1.82554E-19
 -1      3968 9.54273E-05-2.86839E-05-2.86046E-05-2.24710E-07-1.52759E-19 5.39322E-19
 -1      3969 9.60350E-05-2.56759E-05-3.01566E-05-5.80414E-07-6.75632E-20-8.85270E-19
 -1      3970 9.64084E-05-2.67623E-05-2.98524E-05-1.38315E-07 8.12221E-20-7.47863E-19
 -1      3971 9.65282E-05-2.69298E-05-2.98252E-05-8.04185E-08 5.60916E-20-9.09150E-19
 -1      3972 9.59215E-05-2.52838E-05-3.02733E-05-3.87763E-07 8.35226E-20-9.62454E-19
 -1      3973 8.38664E-05-2.90324E-05-2.32961E-05-1.82450E-05-8.02008E-19-2.20957E-18
 -1      3974 8.98235E-05-3.35268E-05-2.41966E-05-1.81792E-05-9.84491E-19-1.60273E-18
 -1      3975 9.56566E-05-2.89600E-05-2.85832E-05-3.26018E-07 8.55475E-20-1.28380E-19
 -1      3976 9.57098E-05-2.90141E-05-2.85837E-05-3.52260E-07 2.04234E-20-3.20314E-19
 -1      3977 9.56682E-05-2.89569E-05-2.85920E-05-2.67974E-07-1.24571E-19 1.03447E-19
 -1      3978 9.57329E-05-2.90534E-05-2.85781E-05-4.60268E-07 2.18396E-19-4.79524E-19
 -1      3979 7.28225E-05-1.77131E-05-2.35145E-05-2.19430E-06 5.38693E-20-1.82984E-19
 -1      3980 9.60648E-05-2.92429E-05-2.86368E-05-5.13294E-07-4.56279E-20-1.05302E-18
 -1      3981 9.61359E-05-2.92665E-05-2.86575E-05-5.47164E-07-1.20272E-19-1.28778E-18
 -1      3982 9.55295E-05-2.47753E-05-3.03257E-05 1.30913E-06 5.13617E-19-1.02077E-18
 -1      3983 9.55462E-05-2.88261E-05-2.85950E-05-2.37987E-07 2.24028E-20-9.09083E-20
 -1      3984 9.51751E-05-2.83520E-05-2.86380E-05-2.58381E-07-4.83642E-19 3.65048E-19
 -1      3985 9.41315E-05-3.55211E-05-2.51457E-05-1.66066E-05-9.80561E-19-1.02583E-18
 -1      3986 9.06343E-05-3.17437E-05-2.52920E-05-1.48246E-05-8.91496E-19-1.00526E-18
 -1      3987 9.59289E-05-2.52531E-05-3.02977E-05 2.75870E-07 3.50636E-19-1.06657E-18
 -1      3988 9.59103E-05-2.51911E-05-3.03163E-05 7.10237E-08 1.71542E-19-1.37734E-18
 -1      3989 7.09110E-05-1.89085E-05-2.22685E-05-7.73541E-06 1.14657E-18 2.69661E-21
 -1      3990 9.59313E-05-2.52264E-05-3.03089E-05-5.07791E-08 2.69418E-19-1.51416E-18
 -1      3991 9.59007E-05-2.51984E-05-3.03091E-05-2.70297E-07 1.98896E-19-1.18538E-18
 -1      3992 9.63118E-05-2.61308E-05-3.00678E-05-1.41904E-07 8.64923E-20-1.01429E-18
 -1      3993 9.62872E-05-2.59921E-05-3.01110E-05 3.40076E-08 3.14820E-19-1.42121E-18
 -1      3994 9.66388E-05-2.89176E-05-2.90247E-05-5.87071E-07 4.63798E-19-1.34324E-18
 -1      3995 9.66746E-05-2.87306E-05-2.91160E-05-5.15667E-07 3.92789E-19-1.27887E-18
 -1      3996 9.65250E-05-2.83380E-05-2.92240E-05-4.66552E-07 2.88233E-19-1.08419E-18
 -1      3997 8.03892E-05-2.57236E-05-2.34168E-05-1.48946E-05 3.37291E-20-1.60627E-18
 -1      3998 9.58489E-05-2.54862E-05-3.01558E-05 8.23499E-07 4.35936E-19-9.41598E-19
 -1      3999 9.62819E-05-2.66734E-05-2.98400E-05 2.63223E-07 6.17671E-20-9.38147E-19
 -1      4000 9.61200E-05-2.61333E-05-2.99890E-05 5.77639E-07 3.35592E-19-9.72718E-19
 -1      4001 9.59467E-05-2.55332E-05-3.01807E-05 6.18666E-07 4.16220E-19-8.52931E-19
 -1      4002 9.59163E-05-2.91673E-05-2.86053E-05-4.45341E-07 2.05605E-20-5.09789E-19
 -1      4003 9.59805E-05-2.92057E-05-2.86173E-05-4.80994E-07-2.58299E-20-7.38620E-19
 -1      4004 9.61084E-05-2.92708E-05-2.86465E-05-4.14981E-07-1.89865E-19-6.95350E-19
 -1      4005 9.65911E-05-2.90588E-05-2.89400E-05-6.12113E-07 3.85793E-19-1.25149E-18
 -1      4006 9.67343E-05-2.89963E-05-2.90320E-05-4.85952E-07 3.43547E-19-9.59106E-19
 -1      4007 9.65301E-05-2.91592E-05-2.88735E-05-6.35417E-07 1.60374E-19-9.85190E-19
 -1      4008 9.65749E-05-2.77667E-05-2.94927E-05-1.83650E-07 5.39305E-20-1.02782E-18
 -1      4009 9.64950E-05-2.72925E-05-2.96531E-05 6.37434E-08-5.65480E-20-1.09054E-18
 -1      4010 9.64380E-05-2.68635E-05-2.98200E-05 1.57310E-07 1.87990E-19-1.01736E-18
 -1      4011 9.57807E-05-2.90710E-05-2.85886E-05-3.80952E-07 5.73371E-20-3.07166E-19
 -1      4012 9.58383E-05-2.91187E-05-2.85940E-05-4.13953E-07 1.27842E-19-4.05145E-19
 -1      4013 9.59490E-05-2.91856E-05-2.86148E-05-3.60696E-07-1.15706E-19-4.27860E-19
 -1      4014 9.58051E-05-2.90805E-05-2.85979E-05-3.11075E-07-8.94481E-20-2.88657E-19
 -1      4015 9.69343E-05-2.85462E-05-2.93065E-05 1.83148E-07-2.45456E-19-8.88873E-19
 -1      4016 9.69281E-05-2.88086E-05-2.91940E-05 2.48087E-07-2.42792E-19-7.13545E-19
 -1      4017 9.68989E-05-2.90129E-05-2.90929E-05 2.51717E-07-2.68939E-19-6.15140E-19
 -1      4018 9.68473E-05-2.91611E-05-2.90077E-05 2.84083E-07-1.51810E-19-5.54262E-19
 -1      4019 9.69523E-05-2.89009E-05-2.91682E-05 1.34436E-07-1.32171E-19-4.16646E-19
 -1      4020 9.67774E-05-2.92681E-05-2.89315E-05 2.77407E-07-1.39126E-19-4.99486E-19
 -1      4021 9.66966E-05-2.93357E-05-2.88685E-05 2.86268E-07-8.45677E-20-3.81922E-19
 -1      4022 9.68569E-05-2.92199E-05-2.89900E-05 1.55346E-07-1.33093E-19-4.92864E-19
 -1      4023 9.66077E-05-2.93751E-05-2.88127E-05 2.78196E-07-4.28506E-20-6.39608E-20
 -1      4024 9.65172E-05-2.93910E-05-2.87675E-05 2.72491E-07 1.96810E-19-1.10206E-19
 -1      4025 9.66927E-05-2.93670E-05-2.88559E-05 1.59453E-07 2.07189E-19 1.22543E-19
 -1      4026 9.64188E-05-2.93851E-05-2.87278E-05 2.60155E-07 3.29495E-19-1.35377E-19
 -1      4027 9.63287E-05-2.93665E-05-2.86966E-05 2.48147E-07 5.08993E-19-1.33937E-19
 -1      4028 9.65055E-05-2.94051E-05-2.87597E-05 1.48706E-07 2.71548E-19 2.51755E-19
 -1      4029 9.62311E-05-2.93336E-05-2.86696E-05 2.31304E-07 2.60182E-19-2.80310E-19
 -1      4030 9.61428E-05-2.92921E-05-2.86493E-05 2.15792E-07-2.57148E-19-4.07411E-19
 -1      4031 9.63173E-05-2.93725E-05-2.86932E-05 1.32841E-07 6.43746E-20-1.01692E-18
 -1      4032 9.60516E-05-2.92413E-05-2.86322E-05 2.02475E-07-4.35250E-19-1.97400E-19
 -1      4033 9.59701E-05-2.91870E-05-2.86204E-05 1.86738E-07-1.61767E-19-4.22680E-19
 -1      4034 9.61261E-05-2.92855E-05-2.86483E-05 1.18831E-07-2.52650E-19-1.04547E-18
 -1      4035 9.58858E-05-2.91259E-05-2.86109E-05 1.75816E-07-1.73956E-20-6.18286E-19
 -1      4036 9.58131E-05-2.90639E-05-2.86056E-05 1.62877E-07-1.56744E-19-6.91596E-19
 -1      4037 9.59504E-05-2.91720E-05-2.86213E-05 1.02923E-07-2.36164E-19-9.36110E-19
 -1      4038 9.57351E-05-2.89967E-05-2.86019E-05 1.51927E-07-8.47886E-20-7.35772E-19
 -1      4039 9.56672E-05-2.89283E-05-2.86015E-05 1.42377E-07-2.59525E-19-8.80717E-20
 -1      4040 9.57943E-05-2.90457E-05-2.86083E-05 8.78502E-08-6.39567E-20-9.77837E-19
 -1      4041 9.55943E-05-2.88548E-05-2.86025E-05 1.35902E-07-3.59413E-19-3.07673E-20
 -1      4042 9.55295E-05-2.87805E-05-2.86060E-05 1.31375E-07-2.62896E-19 2.92468E-19
 -1      4043 9.56437E-05-2.89008E-05-2.86055E-05 7.90509E-08-1.58208E-19-4.51908E-19
 -1      4044 9.54581E-05-2.87008E-05-2.86105E-05 1.28321E-07-2.17011E-19 4.89429E-19
 -1      4045 9.53932E-05-2.86193E-05-2.86169E-05 1.29667E-07-1.83056E-19 5.06193E-19
 -1      4046 9.55015E-05-2.87446E-05-2.86108E-05 7.48180E-08-2.02879E-19-3.43293E-19
 -1      4047 9.53190E-05-2.85309E-05-2.86240E-05 1.30450E-07-7.06416E-19 6.86882E-19
 -1      4048 9.52494E-05-2.84393E-05-2.86326E-05 1.38515E-07-7.63309E-19 5.48573E-19
 -1      4049 9.53581E-05-2.85728E-05-2.86222E-05 7.55496E-08-3.46228E-19 3.17469E-20
 -1      4050 9.51669E-05-2.83388E-05-2.86415E-05 1.43431E-07-5.05862E-19 4.78309E-19
 -1      4051 9.50872E-05-2.82331E-05-2.86517E-05 1.58976E-07 1.57667E-19-1.01641E-19
 -1      4052 9.52041E-05-2.83797E-05-2.86380E-05 8.19387E-08-8.64761E-19-4.34588E-19
 -1      4053 9.49903E-05-2.81162E-05-2.86617E-05 1.68192E-07 3.94236E-19-7.07514E-19
 -1      4054 9.48940E-05-2.79920E-05-2.86726E-05 1.91806E-07 2.46386E-19-7.42520E-19
 -1      4055 9.50280E-05-2.81576E-05-2.86567E-05 9.41784E-08-3.04846E-19-1.00790E-18
 -1      4056 9.47755E-05-2.78536E-05-2.86826E-05 2.05260E-07 2.18848E-19-7.83914E-19
 -1      4057 9.46551E-05-2.77057E-05-2.86933E-05 2.37193E-07-1.92407E-19-9.13711E-19
 -1      4058 9.48165E-05-2.78972E-05-2.86763E-05 1.11907E-07 1.29301E-19-1.53379E-18
 -1      4059 9.45067E-05-2.75405E-05-2.87021E-05 2.54382E-07-6.52922E-19-8.66939E-19
 -1      4060 9.43531E-05-2.73634E-05-2.87112E-05 2.94257E-07-7.32844E-19-8.95127E-19
 -1      4061 9.45545E-05-2.75885E-05-2.86947E-05 1.33853E-07-3.19474E-19-1.51975E-18
 -1      4062 9.41655E-05-2.71661E-05-2.87170E-05 3.13895E-07-2.54706E-19-9.29143E-19
 -1      4063 9.39682E-05-2.69543E-05-2.87224E-05 3.60256E-07-8.11692E-21-1.06796E-18
 -1      4064 9.42243E-05-2.72212E-05-2.87087E-05 1.57224E-07-5.58921E-19-1.36308E-18
 -1      4065 9.37312E-05-2.67201E-05-2.87226E-05 3.79762E-07 3.27315E-20-9.14181E-19
 -1      4066 9.34777E-05-2.64687E-05-2.87215E-05 4.29424E-07-1.45190E-19-1.16136E-18
 -1      4067 9.38064E-05-2.67855E-05-2.87139E-05 1.76785E-07-2.23249E-19-1.08319E-18
 -1      4068 9.31798E-05-2.61937E-05-2.87126E-05 4.44213E-07-3.92693E-19-1.00659E-18
 -1      4069 9.28558E-05-2.58989E-05-2.87008E-05 4.91385E-07-6.78733E-19-1.38412E-18
 -1      4070 9.32791E-05-2.62738E-05-2.87041E-05 1.83544E-07-2.65914E-19-1.44603E-18
 -1      4071 9.24848E-05-2.55813E-05-2.86778E-05 4.93913E-07-4.59902E-19-1.35971E-18
 -1      4072 9.20731E-05-2.52414E-05-2.86495E-05 5.29101E-07-5.53363E-20-1.33119E-18
 -1      4073 9.26185E-05-2.56821E-05-2.86708E-05 1.62956E-07-5.90224E-19-1.90367E-18
 -1      4074 9.16161E-05-2.48823E-05-2.86056E-05 5.07661E-07-1.28900E-19-9.81629E-19
 -1      4075 9.10967E-05-2.44986E-05-2.85526E-05 5.16391E-07 4.18750E-19-1.24029E-18
 -1      4076 9.17990E-05-2.50119E-05-2.86021E-05 9.25732E-08-1.64288E-19-1.83746E-18
 -1      4077 9.05399E-05-2.41035E-05-2.84785E-05 4.53657E-07 4.43396E-19-1.30507E-18
 -1      4078 8.98884E-05-2.36810E-05-2.83896E-05 4.15170E-07 2.42189E-19-7.59997E-19
 -1      4079 9.07935E-05-2.42727E-05-2.84821E-05-6.09222E-08 4.23217E-19-1.31014E-18
 -1      4080 8.92168E-05-2.32611E-05-2.82729E-05 2.86514E-07 5.05749E-19-5.48589E-19
 -1      4081 8.84028E-05-2.28099E-05-2.81324E-05 1.72673E-07 8.92790E-19-2.91787E-19
 -1      4082 8.95728E-05-2.34846E-05-2.82892E-05-3.45380E-07 5.59324E-19-5.68933E-19
 -1      4083 8.75987E-05-2.23825E-05-2.79562E-05-5.57593E-08 5.51274E-19-5.07487E-19
 -1      4084 8.65809E-05-2.19176E-05-2.77427E-05-2.80952E-07-4.27828E-19-7.73397E-19
 -1      4085 8.81036E-05-2.26806E-05-2.79945E-05-8.27798E-07 3.31348E-19-1.08485E-18
 -1      4086 8.56198E-05-2.15064E-05-2.74839E-05-6.54464E-07-8.72886E-19-7.18765E-19
 -1      4087 8.43383E-05-2.10469E-05-2.71669E-05-1.03405E-06-6.72324E-19-4.16151E-19
 -1      4088 8.63439E-05-2.19075E-05-2.75590E-05-1.60084E-06-3.79782E-19-1.93747E-18
 -1      4089 8.31779E-05-2.06763E-05-2.67932E-05-1.60980E-06-5.62602E-19-5.16356E-19
 -1      4090 8.15509E-05-2.02484E-05-2.63296E-05-2.19100E-06 2.06598E-19-3.61010E-19
 -1      4091 8.42283E-05-2.12243E-05-2.69290E-05-2.79442E-06-6.50738E-19-1.19984E-18
 -1      4092 8.01270E-05-1.99667E-05-2.57954E-05-3.03749E-06 3.64333E-19-2.34946E-19
 -1      4093 7.80408E-05-1.95086E-05-2.51411E-05-3.83376E-06-1.79463E-19-3.96661E-19
 -1      4094 8.15991E-05-2.06878E-05-2.60272E-05-4.60169E-06-1.48972E-19-7.17270E-19
 -1      4095 9.59268E-05-2.53594E-05-3.02463E-05 4.63522E-07 3.28250E-19-9.81003E-19
 -1      4096 9.52785E-05-2.84830E-05-2.86261E-05-1.82572E-07-1.88029E-19 9.33275E-19
 -1      4097 9.53414E-05-2.85678E-05-2.86178E-05-1.74071E-07-7.29401E-20 1.00194E-18
 -1      4098 9.49601E-05-2.80744E-05-2.86651E-05-2.59370E-07-6.07640E-19 4.07538E-19
 -1      4099 9.50429E-05-2.81857E-05-2.86544E-05-2.27266E-07-5.09037E-19 5.13658E-19
 -1      4100 9.41826E-05-2.71767E-05-2.87170E-05-5.91306E-07-1.25816E-18-6.78451E-19
 -1      4101 9.43350E-05-2.73513E-05-2.87106E-05-5.02767E-07-1.08407E-18-6.24775E-19
 -1      4102 9.37949E-05-2.67825E-05-2.87196E-05-7.90627E-07 2.31512E-19-4.63366E-19
 -1      4103 9.39801E-05-2.69801E-05-2.87186E-05-6.74305E-07-7.17520E-19-6.50720E-19
 -1      4104 9.39918E-05-2.69810E-05-2.87116E-05-4.72505E-07-1.06923E-18-1.59704E-18
 -1      4105 9.33256E-05-2.63447E-05-2.87058E-05-1.05502E-06 4.36419E-19-2.86237E-19
 -1      4106 9.35461E-05-2.65613E-05-2.87134E-05-9.04205E-07 7.82468E-19 1.50665E-19
 -1      4107 9.35447E-05-2.65411E-05-2.87061E-05-6.45191E-07-1.29953E-20-1.34089E-18
 -1      4108 9.27698E-05-2.58776E-05-2.86671E-05-1.40337E-06-4.29321E-19 1.33589E-19
 -1      4109 9.30248E-05-2.61039E-05-2.86876E-05-1.20932E-06-9.67674E-20-4.95617E-20
 -1      4110 9.30005E-05-2.60505E-05-2.86804E-05-8.81838E-07 1.17368E-19-3.77175E-20
 -1      4111 9.21309E-05-2.54093E-05-2.85928E-05-1.86112E-06 2.76386E-19 4.18159E-19
 -1      4112 9.24138E-05-2.56284E-05-2.86315E-05-1.61229E-06 4.40469E-20 5.97143E-19
 -1      4113 9.23506E-05-2.55229E-05-2.86246E-05-1.20530E-06 5.73170E-20-4.16684E-19
 -1      4114 9.14245E-05-2.49864E-05-2.84692E-05-2.46266E-06-8.76119E-20 1.72677E-19
 -1      4115 9.17203E-05-2.51710E-05-2.85329E-05-2.14369E-06 5.45776E-19 6.65651E-19
 -1      4116 9.15932E-05-2.49860E-05-2.85261E-05-1.64745E-06 2.29708E-19-1.03420E-19
 -1      4117 9.06852E-05-2.46809E-05-2.82800E-05-3.25445E-06-2.82695E-19 3.73661E-19
 -1      4118 9.09664E-05-2.47896E-05-2.83764E-05-2.84490E-06-2.75502E-19 1.26597E-19
 -1      4119 9.07367E-05-2.44851E-05-2.83689E-05-2.25264E-06-6.58353E-21-7.44447E-19
 -1      4120 8.99755E-05-2.45969E-05-2.80067E-05-4.29891E-06-4.47563E-19 6.75355E-19
 -1      4121 9.01957E-05-2.45703E-05-2.81440E-05-3.77180E-06-6.41255E-19 4.98093E-19
 -1      4122 8.98049E-05-2.40898E-05-2.81332E-05-3.08235E-06-5.10175E-19-6.44449E-19
 -1      4123 8.93980E-05-2.48809E-05-2.76299E-05-5.67835E-06-2.61959E-19 7.35486E-19
 -1      4124 8.94837E-05-2.46358E-05-2.78157E-05-4.99922E-06-1.35182E-21 9.76497E-19
 -1      4125 8.88439E-05-2.39005E-05-2.77958E-05-4.22118E-06-2.01883E-19-4.79435E-19
 -1      4126 8.91167E-05-2.57356E-05-2.71325E-05-7.49926E-06-2.38649E-19-1.67899E-19
 -1      4127 8.89534E-05-2.51560E-05-2.73717E-05-6.62512E-06-1.47959E-19 5.15695E-19
 -1      4128 8.79320E-05-2.40582E-05-2.73301E-05-5.78379E-06 3.36633E-19 4.78097E-19
 -1      4129 8.93628E-05-2.74471E-05-2.65025E-05-9.93982E-06-1.42552E-18-4.14421E-19
 -1      4130 8.87835E-05-2.63345E-05-2.67957E-05-8.77723E-06-1.15764E-18-9.41589E-19
 -1      4131 8.71897E-05-2.47579E-05-2.67092E-05-7.91260E-06-2.66971E-19 2.83194E-20
 -1      4132 9.04189E-05-3.01783E-05-2.57725E-05-1.29398E-05-9.86046E-19-1.00554E-18
 -1      4133 8.92447E-05-2.84261E-05-2.60937E-05-1.14308E-05-7.48311E-19-7.11956E-19
 -1      4134 8.67714E-05-2.62914E-05-2.59565E-05-1.06961E-05-6.44953E-19-1.10009E-18
 -1      4135 8.68719E-05-2.84844E-05-2.49696E-05-1.41806E-05-6.49466E-19-1.38384E-18
 -1      4136 9.62797E-05-2.93231E-05-2.86977E-05-4.67922E-07 7.96138E-20-6.17434E-19
 -1      4137 9.62234E-05-2.92833E-05-2.86878E-05-5.77687E-07-2.62372E-20-1.09926E-18
 -1      4138 9.62974E-05-2.92815E-05-2.87199E-05-6.02863E-07-2.93177E-20-8.53747E-19
 -1      4139 9.62559E-05-2.60631E-05-3.00715E-05 2.68720E-07 3.58576E-19-9.42568E-19
 -1      4140 7.44840E-05-1.93898E-05-2.36382E-05-6.64768E-06 3.12721E-19-7.21996E-19
 -1      4141 9.55409E-05-2.88033E-05-2.86009E-05-1.79359E-07-2.80244E-19 4.51640E-19
 -1      4142 9.56014E-05-2.88732E-05-2.85978E-05-1.87870E-07-2.03961E-19 1.17448E-19
 -1      4143 9.66733E-05-2.84841E-05-2.92266E-05-4.50868E-07 4.01066E-19-1.40588E-18
 -1      4144 9.66530E-05-2.81655E-05-2.93490E-05-3.07205E-07 2.34496E-19-1.24889E-18
 -1      4145 9.67029E-05-2.78974E-05-2.94883E-05-1.80304E-07 3.03137E-19-1.33959E-18
 -1      4146 9.67822E-05-2.85804E-05-2.92301E-05-3.82948E-07 3.13965E-19-1.25780E-18
 -1      4147 9.64750E-05-2.67624E-05-2.98807E-05 8.26154E-08 3.70674E-19-1.02008E-18
 -1      4148 9.44981E-05-2.75220E-05-2.87041E-05-4.42952E-07-9.06055E-19-4.22823E-19
 -1      4149 9.46220E-05-2.76733E-05-2.86948E-05-3.76997E-07-5.33976E-19-2.59018E-19
 -1      4150 9.43542E-05-2.73653E-05-2.87041E-05-3.47420E-07-8.63884E-19-2.73176E-19
 -1      4151 9.54119E-05-2.86511E-05-2.86111E-05-1.73249E-07-3.93419E-19 6.86603E-19
 -1      4152 9.54717E-05-2.87274E-05-2.86049E-05-1.73898E-07-3.87662E-19 6.45370E-19
 -1      4153 9.53830E-05-2.86097E-05-2.86175E-05-1.23681E-07-4.71846E-19 4.16278E-19
 -1      4154 9.47531E-05-2.78196E-05-2.86857E-05-3.34971E-07-1.71861E-20-4.04459E-19
 -1      4155 9.48537E-05-2.79494E-05-2.86751E-05-2.87536E-07-4.56879E-19 1.79580E-19
 -1      4156 9.48812E-05-2.79779E-05-2.86703E-05-1.96496E-07-4.32270E-19 3.26714E-19
 -1      4157 9.46459E-05-2.76958E-05-2.86890E-05-2.58218E-07-2.15019E-19-1.87650E-19
 -1      4158 9.68135E-05-2.77835E-05-2.95835E-05 5.82710E-08-1.52320E-19-9.52459E-19
 -1      4159 9.68845E-05-2.82040E-05-2.94373E-05 1.63264E-07-2.87410E-19-9.17378E-19
 -1      4160 9.69388E-05-2.83451E-05-2.94002E-05 9.50169E-08-1.66458E-19-8.62044E-19
 -1      4161 9.51313E-05-2.82931E-05-2.86446E-05-2.10102E-07-5.98890E-19 7.46854E-19
 -1      4162 9.52017E-05-2.83895E-05-2.86347E-05-1.90807E-07-1.17069E-19 1.12286E-18
 -1      4163 9.50741E-05-2.82189E-05-2.86508E-05-1.56216E-07-6.58559E-19 6.33700E-19
 -1      4164 7.72244E-05-2.07860E-05-2.41345E-05-8.64979E-06 1.54493E-19-1.04900E-18
 -1      4165 9.68054E-05-2.90955E-05-2.90190E-05-3.90623E-07 1.72703E-19-9.40064E-19
 -1      4166 9.68554E-05-2.89335E-05-2.91065E-05-3.47436E-07 2.77365E-19-1.00716E-18
 -1      4167 9.65032E-05-2.67192E-05-2.99120E-05-1.02566E-07 1.24409E-19-9.43206E-19
 -1      4168 9.66996E-05-2.73664E-05-2.97139E-05 2.72814E-08 3.48951E-20-9.01250E-19
 -1      4169 9.67842E-05-2.75732E-05-2.96630E-05 2.19618E-08-7.24706E-20-1.09574E-18
 -1      4170 9.64864E-05-2.66151E-05-2.99463E-05-5.07997E-08 2.13422E-19-1.07814E-18
 -1      4171 9.52375E-05-2.84269E-05-2.86327E-05-1.33013E-07-2.81467E-19 9.40053E-19
 -1      4172 9.55209E-05-2.87738E-05-2.86070E-05-1.25740E-07-4.45286E-19 5.47821E-19
 -1      4173 9.63142E-05-2.93518E-05-2.86976E-05-3.50950E-07 1.62377E-19-7.02617E-19
 -1      4174 9.64012E-05-2.93640E-05-2.87295E-05-3.69046E-07 1.17606E-19-5.58719E-19
 -1      4175 9.68688E-05-2.87183E-05-2.92093E-05-3.27866E-07 2.40736E-19-1.08091E-18
 -1      4176 9.68685E-05-2.84469E-05-2.93237E-05-2.46146E-07 2.00265E-19-1.14316E-18
 -1      4177 9.69225E-05-2.88106E-05-2.91930E-05-2.32392E-07 1.74829E-19-9.64766E-19
 -1      4178 9.64695E-05-2.65688E-05-2.99630E-05 5.90895E-08 3.45406E-19-1.34237E-18
 -1      4179 9.64812E-05-2.65986E-05-2.99566E-05-1.59613E-08 3.14124E-19-1.37291E-18
 -1      4180 9.66776E-05-2.71167E-05-2.98050E-05-2.29838E-09 2.23859E-19-1.27955E-18
 -1      4181 9.56602E-05-2.89240E-05-2.86028E-05-1.36710E-07-2.62906E-19 1.80228E-19
 -1      4182 9.56738E-05-2.89440E-05-2.85974E-05-1.98475E-07-1.97327E-19-8.61096E-21
 -1      4183 9.57406E-05-2.90095E-05-2.85981E-05-2.15350E-07-2.74985E-19-1.82457E-19
 -1      4184 7.76131E-05-2.23195E-05-2.36594E-05-1.17488E-05 5.65013E-19-2.90489E-19
 -1      4185 8.36923E-05-2.66372E-05-2.45075E-05-1.37332E-05-3.14666E-19-8.05158E-19
 -1      4186 9.64554E-05-2.92248E-05-2.88114E-05-6.31604E-07 2.08827E-19-9.02042E-19
 -1      4187 9.66119E-05-2.92232E-05-2.88826E-05-5.20052E-07 8.75237E-20-7.24222E-19
 -1      4188 9.63836E-05-2.92660E-05-2.87642E-05-6.24301E-07 1.03497E-19-8.92329E-19
 -1      4189 9.61381E-05-2.92867E-05-2.86487E-05-3.06886E-07-3.98040E-19-3.30405E-19
 -1      4190 9.62210E-05-2.93231E-05-2.86693E-05-3.29347E-07-3.41770E-21-3.50706E-19
 -1      4191 9.63232E-05-2.93678E-05-2.86965E-05-2.41139E-07-1.83865E-20-6.65171E-19
 -1      4192 8.38401E-05-2.53328E-05-2.50917E-05-1.16962E-05 1.83776E-19-7.94461E-19
 -1      4193 9.69772E-05-2.88726E-05-2.91875E-05-5.92541E-08-7.86723E-20-4.56767E-19
 -1      4194 9.69437E-05-2.90672E-05-2.90868E-05-4.34850E-08-3.67951E-20-4.12770E-19
 -1      4195 9.67458E-05-2.92141E-05-2.89399E-05-3.88682E-07 1.27210E-19-9.37237E-19
 -1      4196 9.68436E-05-2.91644E-05-2.90090E-05-2.72809E-07 5.91298E-20-7.22118E-19
 -1      4197 9.66690E-05-2.92918E-05-2.88753E-05-4.01403E-07-8.79246E-20-8.32920E-19
 -1      4198 9.68852E-05-2.92053E-05-2.90046E-05-6.14644E-08-9.37641E-20-3.29528E-19
 -1      4199 9.68093E-05-2.93047E-05-2.89286E-05-5.35523E-08-8.68457E-20-2.49979E-19
 -1      4200 9.65752E-05-2.94157E-05-2.87814E-05 2.91362E-08 9.58505E-20-2.28129E-19
 -1      4201 9.64808E-05-2.94145E-05-2.87412E-05 2.67840E-08 9.43996E-20-3.54823E-19
 -1      4202 9.63406E-05-2.93771E-05-2.86975E-05-4.76608E-08-6.45691E-20-3.95694E-19
 -1      4203 9.62434E-05-2.93412E-05-2.86712E-05-4.61655E-08-4.58904E-21-6.60960E-19
 -1      4204 9.60085E-05-2.92081E-05-2.86272E-05 2.40396E-08-3.43522E-19-4.95995E-19
 -1      4205 9.59253E-05-2.91480E-05-2.86172E-05 1.75105E-08-8.76065E-20-4.39407E-19
 -1      4206 9.58106E-05-2.90564E-05-2.86084E-05-2.89426E-08-2.10997E-19-4.26936E-19
 -1      4207 9.57348E-05-2.89867E-05-2.86053E-05-2.92885E-08-2.48961E-19-4.63423E-19
 -1      4208 9.56629E-05-2.89151E-05-2.86052E-05-2.48621E-08-2.97016E-19-3.09802E-19
 -1      4209 9.55892E-05-2.88399E-05-2.86061E-05-2.53477E-08-2.39240E-19-1.07770E-19
 -1      4210 9.55190E-05-2.87616E-05-2.86097E-05-2.36644E-08-2.79062E-19-3.14371E-19
 -1      4211 9.54463E-05-2.86795E-05-2.86140E-05-2.33499E-08-4.12194E-19-5.18351E-19
 -1      4212 9.53745E-05-2.85935E-05-2.86203E-05-2.53392E-08-4.48649E-19-2.82305E-19
 -1      4213 9.52986E-05-2.85020E-05-2.86273E-05-2.37146E-08-4.65395E-19-2.37791E-19
 -1      4214 9.52205E-05-2.84056E-05-2.86355E-05-3.04339E-08-6.95704E-19-2.22331E-19
 -1      4215 9.51360E-05-2.83012E-05-2.86442E-05-2.74976E-08-8.26974E-19-3.34061E-19
 -1      4216 9.50460E-05-2.81906E-05-2.86536E-05-4.01649E-08-8.42643E-19-1.00704E-19
 -1      4217 9.49467E-05-2.80692E-05-2.86632E-05-3.62076E-08-3.92199E-19-4.22048E-19
 -1      4218 9.48384E-05-2.79403E-05-2.86728E-05-5.64560E-08-2.01201E-20-6.23364E-19
 -1      4219 9.47169E-05-2.77970E-05-2.86823E-05-5.21888E-08-8.29947E-20-7.44239E-19
 -1      4220 9.45834E-05-2.76455E-05-2.86909E-05-8.23030E-08-2.53707E-19-6.87032E-19
 -1      4221 9.44315E-05-2.74754E-05-2.86989E-05-7.91054E-08-6.94337E-19-7.44820E-19
 -1      4222 9.42651E-05-2.72976E-05-2.87048E-05-1.22328E-07-1.04432E-18-1.18930E-18
 -1      4223 9.40734E-05-2.70960E-05-2.87094E-05-1.22628E-07-8.89137E-19-1.29032E-18
 -1      4224 9.38664E-05-2.68891E-05-2.87103E-05-1.83584E-07-4.53971E-19-1.62770E-18
 -1      4225 9.36244E-05-2.66526E-05-2.87090E-05-1.91412E-07-2.68032E-19-1.98783E-18
 -1      4226 9.33693E-05-2.64158E-05-2.87018E-05-2.76702E-07-1.31677E-19-1.59261E-18
 -1      4227 9.30659E-05-2.61424E-05-2.86907E-05-2.98451E-07-2.92901E-19-1.36217E-18
 -1      4228 9.27560E-05-2.58785E-05-2.86711E-05-4.17480E-07-1.39269E-19-1.41488E-18
 -1      4229 9.23793E-05-2.55693E-05-2.86453E-05-4.62938E-07 1.94500E-19-1.23500E-18
 -1      4230 9.20101E-05-2.52855E-05-2.86076E-05-6.29044E-07 2.20840E-19-1.32172E-18
 -1      4231 9.15473E-05-2.49458E-05-2.85602E-05-7.12727E-07 3.00202E-19-7.84885E-19
 -1      4232 9.11178E-05-2.46565E-05-2.84972E-05-9.44721E-07 8.26385E-20-7.30927E-19
 -1      4233 9.05560E-05-2.42971E-05-2.84189E-05-1.08756E-06 5.13604E-19-7.59243E-19
 -1      4234 9.00703E-05-2.40258E-05-2.83212E-05-1.41180E-06 2.43294E-21-8.86998E-19
 -1      4235 8.93955E-05-2.36650E-05-2.82000E-05-1.64330E-06-1.90729E-20-1.05023E-18
 -1      4236 8.88656E-05-2.34468E-05-2.80561E-05-2.09639E-06 4.28076E-20-1.28334E-18
 -1      4237 8.80622E-05-2.31117E-05-2.78756E-05-2.45758E-06-1.91888E-19-1.34956E-18
 -1      4238 8.75114E-05-2.29969E-05-2.76717E-05-3.08987E-06-4.00529E-20-1.02487E-18
 -1      4239 8.65595E-05-2.27251E-05-2.74104E-05-3.63823E-06-1.21431E-19-7.10111E-19
 -1      4240 8.60303E-05-2.27836E-05-2.71305E-05-4.51664E-06-1.62007E-19-3.68204E-19
 -1      4241 8.49051E-05-2.26244E-05-2.67592E-05-5.34129E-06-2.25858E-19-2.24373E-20
 -1      4242 8.44885E-05-2.29607E-05-2.63871E-05-6.53450E-06-6.72531E-19 1.44315E-19
 -1      4243 8.32968E-05-2.30172E-05-2.58910E-05-7.72005E-06-1.79995E-19-3.95684E-19
 -1      4244 8.06049E-05-2.20095E-05-2.51216E-05-8.20778E-06 1.60288E-19-5.76796E-19
 -1      4245 9.64520E-05-2.93171E-05-2.87740E-05-5.07538E-07 1.68059E-20-5.03818E-19
 -1      4246 9.66621E-05-2.72658E-05-2.97339E-05 5.93243E-09 3.90095E-19-1.12123E-18
 -1      4247 9.68454E-05-2.81427E-05-2.94435E-05-1.94835E-07 3.40111E-19-1.03831E-18
 -1      4248 9.67695E-05-2.77309E-05-2.95904E-05-6.50044E-08 3.81107E-19-9.50949E-19
 -1      4249 9.67769E-05-2.75438E-05-2.96727E-05-1.52910E-08 3.00944E-19-1.01539E-18
 -1      4250 9.69192E-05-2.82879E-05-2.94150E-05-1.29124E-07 2.37018E-19-8.80770E-19
 -1      4251 9.69018E-05-2.79630E-05-2.95388E-05-2.25937E-08 8.10892E-20-9.23562E-19
 -1      4252 9.69581E-05-2.83497E-05-2.94048E-05-1.53093E-09 8.67820E-20-7.03649E-19
 -1      4253 9.67907E-05-2.75560E-05-2.96739E-05 1.19745E-08 4.00886E-20-1.30317E-18
 -1      4254 9.67645E-05-2.93570E-05-2.88877E-05 3.29005E-08 5.09053E-20-2.08457E-19
 -1      4255 9.66708E-05-2.93997E-05-2.88296E-05 3.26104E-08 2.26564E-19-5.82490E-22
 -1      4256 9.61647E-05-2.93079E-05-2.86557E-05-1.81417E-07 7.99095E-20-1.81064E-20
 -1      4257 9.61732E-05-2.93063E-05-2.86554E-05-6.62572E-09 1.28331E-19-8.36626E-19
 -1      4258 9.60778E-05-2.92548E-05-2.86377E-05-9.39981E-09-8.08044E-20-4.48374E-19
 -1      4259 9.60715E-05-2.92545E-05-2.86355E-05-2.59139E-07-1.93614E-19-3.32567E-19
 -1      4260 9.58430E-05-2.90879E-05-2.86113E-05-1.05511E-07-3.11154E-19-8.20522E-20
 -1      4261 8.42232E-05-2.44277E-05-2.55702E-05-1.00144E-05 1.48965E-19-1.13464E-19
 -1      4262 9.66172E-05-2.94045E-05-2.88066E-05-9.34314E-08 9.70148E-21-6.81139E-19
 -1      4263 9.65096E-05-2.93884E-05-2.87676E-05-2.61151E-07 3.34558E-20-8.15918E-19
 -1      4264 9.64974E-05-2.93633E-05-2.87709E-05-3.84250E-07-6.24949E-20-4.65101E-19
 -1      4265 9.59959E-05-2.92049E-05-2.86231E-05-2.38316E-07 4.57680E-20-2.21976E-19
 -1      4266 9.65829E-05-2.93404E-05-2.88172E-05-3.92329E-07-1.93573E-19-6.44372E-19
 -1      4267 9.64686E-05-2.94007E-05-2.87428E-05-1.71863E-07 8.48052E-20-9.02799E-19
 -1      4268 9.65687E-05-2.94037E-05-2.87850E-05-1.77122E-07 4.98989E-20-7.40745E-19
 -1      4269 9.67529E-05-2.93375E-05-2.88940E-05-1.90168E-07-2.15874E-19-6.64309E-19
 -1      4270 9.60298E-05-2.92279E-05-2.86315E-05-9.96143E-08-7.11996E-20 7.52093E-20
 -1      4271 9.58555E-05-2.91023E-05-2.86080E-05-1.81156E-07-2.20050E-19-1.14380E-19
 -1      4272 9.69828E-05-2.86210E-05-2.92932E-05-4.15293E-08 6.84572E-20-6.84844E-19
 -1      4273 9.59287E-05-2.91605E-05-2.86145E-05-1.98270E-07-6.52764E-20-1.04385E-19
 -1      4274 9.63756E-05-2.93835E-05-2.87125E-05-1.60236E-07-2.13422E-20-6.91568E-19
 -1      4275 9.66623E-05-2.93824E-05-2.88335E-05-1.88641E-07-2.33772E-19-6.23914E-19
 -1      4276 9.66899E-05-2.93348E-05-2.88681E-05-2.74009E-07-2.69246E-19-7.35751E-19
 -3
    1PSTEP                         4           1           1          
  100CL  101 1.000000000        4276                     0    1           1
 -4  ERROR       1    1
 -5  STR(%)      1    1    0    0
 -1         1 2.36232E+01
 -1         2 2.46310E+01
 -1         3 3.01176E-01
 -1         4 4.93158E-01
 -1         5 1.40386E+01
 -1         6 1.31427E+01
 -1         7 1.31427E+01
 -1         8 3.66362E+00
 -1         9 1.82411E+00
 -1        10 1.29173E+00
 -1        11 1.04607E+00
 -1        12 8.99354E-01
 -1        13 8.08846E-01
 -1        14 7.53699E-01
 -1        15 7.55655E-01
 -1        16 8.13108E-01
 -1        17 9.00880E-01
 -1        18 1.05275E+00
 -1        19 1.30796E+00
 -1        20 1.83595E+00
 -1        21 3.50541E+00
 -1        22 8.64076E+00
 -1        23 1.31427E+01
 -1        24 4.31737E+00
 -1        25 3.34030E+00
 -1        26 2.11071E+00
 -1        27 1.36172E+00
 -1        28 1.01368E+00
 -1        29 7.74594E-01
 -1        30 5.94666E-01
 -1        31 4.54206E-01
 -1        32 3.46330E-01
 -1        33 2.67070E-01
 -1        34 2.03180E-01
 -1        35 1.52581E-01
 -1        36 1.13272E-01
 -1        37 8.34321E-02
 -1        38 6.31267E-02
 -1        39 4.89463E-02
 -1        40 3.75424E-02
 -1        41 3.17115E-02
 -1        42 3.13391E-02
 -1        43 3.91585E-02
 -1        44 5.00074E-02
 -1        45 6.37454E-02
 -1        46 8.02014E-02
 -1        47 1.00330E-01
 -1        48 1.39851E-01
 -1        49 1.91992E-01
 -1        50 2.59402E-01
 -1        51 3.44743E-01
 -1        52 4.50075E-01
 -1        53 5.75656E-01
 -1        54 7.17779E-01
 -1        55 9.21397E-01
 -1        56 1.22591E+00
 -1        57 1.56746E+00
 -1        58 2.01826E+00
 -1        59 2.45947E+00
 -1        60 2.67054E+00
 -1        61 2.86655E+00
 -1        62 2.86655E+00
 -1        63 4.26109E+00
 -1        64 8.06323E+00
 -1        65 1.20468E+01
 -1        66 1.20468E+01
 -1        67 1.19612E+01
 -1        68 1.09834E+01
 -1        69 7.17450E+00
 -1        70 3.59953E+00
 -1        71 1.43841E+00
 -1        72 1.40386E+01
 -1        73 3.39452E+00
 -1        74 2.41275E+00
 -1        75 1.66545E+00
 -1        76 1.14428E+00
 -1        77 9.06030E-01
 -1        78 7.31321E-01
 -1        79 5.87745E-01
 -1        80 4.67981E-01
 -1        81 3.68165E-01
 -1        82 2.93525E-01
 -1        83 2.31219E-01
 -1        84 1.79520E-01
 -1        85 1.37593E-01
 -1        86 1.04405E-01
 -1        87 7.88869E-02
 -1        88 6.00356E-02
 -1        89 4.69687E-02
 -1        90 3.89529E-02
 -1        91 3.73337E-02
 -1        92 4.50216E-02
 -1        93 5.65955E-02
 -1        94 7.18355E-02
 -1        95 9.03467E-02
 -1        96 1.11370E-01
 -1        97 1.33529E-01
 -1        98 1.63614E-01
 -1        99 2.06388E-01
 -1       100 2.51611E-01
 -1       101 2.94446E-01
 -1       102 3.27080E-01
 -1       103 3.39048E-01
 -1       104 4.06424E-01
 -1       105 5.32907E-01
 -1       106 6.47033E-01
 -1       107 7.90811E-01
 -1       108 1.07538E+00
 -1       109 1.27941E+00
 -1       110 1.50655E+00
 -1       111 1.92764E+00
 -1       112 2.21622E+00
 -1       113 3.27197E+00
 -1       114 4.04000E+00
 -1       115 4.18656E+00
 -1       116 4.53400E+00
 -1       117 4.53400E+00
 -1       118 3.87717E+00
 -1       119 2.52862E+00
 -1       120 1.56637E+00
 -1       121 7.64140E-01
 -1       122 4.29035E-01
 -1       123 5.09072E-01
 -1       124 1.12938E+00
 -1       125 2.00659E+00
 -1       126 2.99301E+00
 -1       127 3.29361E+00
 -1       128 3.34550E+00
 -1       129 3.21750E+00
 -1       130 4.97930E+00
 -1       131 4.97930E+00
 -1       132 3.02591E+00
 -1       133 3.02591E+00
 -1       134 3.00314E+00
 -1       135 1.90641E+00
 -1       136 1.22568E+00
 -1       137 2.46310E+01
 -1       138 4.50709E+01
 -1       139 4.50709E+01
 -1       140 1.76429E+01
 -1       141 1.21946E+01
 -1       142 1.21946E+01
 -1       143 1.25354E+01
 -1       144 1.35357E+01
 -1       145 1.35357E+01
 -1       146 1.19501E+01
 -1       147 2.58649E+01
 -1       148 2.96548E+01
 -1       149 2.96548E+01
 -1       150 2.30711E+01
 -1       151 2.36232E+01
 -1       152 2.83677E+01
 -1       153 2.83677E+01
 -1       154 2.64552E+01
 -1       155 1.25854E+01
 -1       156 1.29346E+01
 -1       157 1.29346E+01
 -1       158 1.24142E+01
 -1       159 1.26150E+01
 -1       160 1.26150E+01
 -1       161 2.15500E+01
 -1       162 4.77279E+01
 -1       163 4.77279E+01
 -1       164 2.49868E+01
 -1       165 6.07767E+00
 -1       166 2.29829E+00
 -1       167 1.50852E+00
 -1       168 1.15761E+00
 -1       169 9.73290E-01
 -1       170 8.64127E-01
 -1       171 7.95968E-01
 -1       172 7.55655E-01
 -1       173 7.99348E-01
 -1       174 8.67211E-01
 -1       175 9.81100E-01
 -1       176 1.17267E+00
 -1       177 1.52779E+00
 -1       178 2.26100E+00
 -1       179 3.93101E+00
 -1       180 1.40386E+01
 -1       181 4.31737E+00
 -1       182 3.34030E+00
 -1       183 2.11071E+00
 -1       184 1.44632E+00
 -1       185 1.02473E+00
 -1       186 7.74594E-01
 -1       187 5.94666E-01
 -1       188 4.66932E-01
 -1       189 3.66579E-01
 -1       190 2.88283E-01
 -1       191 2.31187E-01
 -1       192 1.82635E-01
 -1       193 1.42455E-01
 -1       194 1.10022E-01
 -1       195 8.44982E-02
 -1       196 6.49805E-02
 -1       197 5.05811E-02
 -1       198 4.04682E-02
 -1       199 3.38800E-02
 -1       200 3.27549E-02
 -1       201 3.91585E-02
 -1       202 5.00074E-02
 -1       203 6.37454E-02
 -1       204 8.25633E-02
 -1       205 1.12636E-01
 -1       206 1.52047E-01
 -1       207 2.02617E-01
 -1       208 2.66156E-01
 -1       209 3.64065E-01
 -1       210 5.08776E-01
 -1       211 6.93287E-01
 -1       212 9.18717E-01
 -1       213 1.17707E+00
 -1       214 1.44324E+00
 -1       215 1.67538E+00
 -1       216 2.01826E+00
 -1       217 2.45947E+00
 -1       218 2.67054E+00
 -1       219 2.86655E+00
 -1       220 2.74240E+00
 -1       221 4.59066E+00
 -1       222 8.06323E+00
 -1       223 1.20468E+01
 -1       224 1.19612E+01
 -1       225 1.09834E+01
 -1       226 7.29983E+00
 -1       227 4.65652E+00
 -1       228 2.54296E+00
 -1       229 3.39452E+00
 -1       230 2.41275E+00
 -1       231 1.66545E+00
 -1       232 1.14428E+00
 -1       233 9.06030E-01
 -1       234 7.31321E-01
 -1       235 5.87745E-01
 -1       236 4.67981E-01
 -1       237 3.68165E-01
 -1       238 2.93525E-01
 -1       239 2.31219E-01
 -1       240 1.82391E-01
 -1       241 1.42547E-01
 -1       242 1.10248E-01
 -1       243 8.47927E-02
 -1       244 6.54135E-02
 -1       245 5.13666E-02
 -1       246 4.19786E-02
 -1       247 3.67844E-02
 -1       248 4.16143E-02
 -1       249 4.96440E-02
 -1       250 6.05133E-02
 -1       251 7.37076E-02
 -1       252 9.03467E-02
 -1       253 1.13661E-01
 -1       254 1.44934E-01
 -1       255 1.79743E-01
 -1       256 2.15675E-01
 -1       257 2.51611E-01
 -1       258 2.94446E-01
 -1       259 3.27080E-01
 -1       260 3.53465E-01
 -1       261 4.40243E-01
 -1       262 5.32907E-01
 -1       263 6.47033E-01
 -1       264 7.90811E-01
 -1       265 1.07538E+00
 -1       266 1.27941E+00
 -1       267 1.50655E+00
 -1       268 1.92764E+00
 -1       269 2.47649E+00
 -1       270 3.27197E+00
 -1       271 4.04000E+00
 -1       272 4.18656E+00
 -1       273 4.53400E+00
 -1       274 3.87717E+00
 -1       275 2.52862E+00
 -1       276 1.56637E+00
 -1       277 5.05847E-01
 -1       278 6.20833E-01
 -1       279 1.45292E+00
 -1       280 2.67785E+00
 -1       281 4.09440E+00
 -1       282 4.64198E+00
 -1       283 4.64198E+00
 -1       284 5.49243E+00
 -1       285 9.58357E+00
 -1       286 9.58357E+00
 -1       287 5.68033E+00
 -1       288 4.63024E+00
 -1       289 4.53716E+00
 -1       290 3.83409E+00
 -1       291 3.01937E+00
 -1       292 3.42068E+01
 -1       293 3.90849E+01
 -1       294 4.50709E+01
 -1       295 1.90964E+01
 -1       296 1.08313E+01
 -1       297 1.21946E+01
 -1       298 1.19956E+01
 -1       299 1.25354E+01
 -1       300 1.35357E+01
 -1       301 1.19431E+01
 -1       302 1.19501E+01
 -1       303 2.83226E+01
 -1       304 2.96548E+01
 -1       305 2.30711E+01
 -1       306 2.80756E+01
 -1       307 2.80756E+01
 -1       308 2.35716E+01
 -1       309 2.83677E+01
 -1       310 2.75877E+01
 -1       311 1.25204E+01
 -1       312 1.25854E+01
 -1       313 1.29346E+01
 -1       314 1.21208E+01
 -1       315 1.24142E+01
 -1       316 1.26150E+01
 -1       317 1.14849E+01
 -1       318 2.30382E+01
 -1       319 4.77279E+01
 -1       320 2.90410E+01
 -1       321 3.42068E+01
 -1       322 1.04717E+00
 -1       323 2.48016E+00
 -1       324 7.91659E-01
 -1       325 6.94130E-01
 -1       326 6.31738E-01
 -1       327 5.87521E-01
 -1       328 5.90789E-01
 -1       329 6.34523E-01
 -1       330 7.01332E-01
 -1       331 7.96609E-01
 -1       332 9.32057E-01
 -1       333 1.16040E+00
 -1       334 1.32932E+00
 -1       335 2.20033E+00
 -1       336 1.91372E+00
 -1       337 1.99846E+01
 -1       338 1.72856E+00
 -1       339 1.26666E+00
 -1       340 9.06139E-01
 -1       341 6.54838E-01
 -1       342 5.37702E-01
 -1       343 4.40363E-01
 -1       344 3.54495E-01
 -1       345 2.88741E-01
 -1       346 2.33134E-01
 -1       347 1.85280E-01
 -1       348 1.49800E-01
 -1       349 1.20245E-01
 -1       350 9.54798E-02
 -1       351 7.53063E-02
 -1       352 5.92952E-02
 -1       353 4.68938E-02
 -1       354 3.74843E-02
 -1       355 3.04090E-02
 -1       356 3.14700E-02
 -1       357 3.50175E-02
 -1       358 4.54383E-02
 -1       359 6.01832E-02
 -1       360 8.25633E-02
 -1       361 1.18541E-01
 -1       362 1.72920E-01
 -1       363 2.46143E-01
 -1       364 3.43083E-01
 -1       365 4.68931E-01
 -1       366 6.28331E-01
 -1       367 8.23567E-01
 -1       368 1.05118E+00
 -1       369 1.29645E+00
 -1       370 1.52580E+00
 -1       371 1.71747E+00
 -1       372 1.93852E+00
 -1       373 2.02072E+00
 -1       374 2.10257E+00
 -1       375 2.41742E+00
 -1       376 2.88874E+00
 -1       377 4.53563E+00
 -1       378 6.20641E+00
 -1       379 7.10082E+00
 -1       380 6.24172E+00
 -1       381 5.63200E+00
 -1       382 4.85733E+00
 -1       383 3.92569E+00
 -1       384 1.13002E+00
 -1       385 8.90413E-01
 -1       386 7.02757E-01
 -1       387 5.43757E-01
 -1       388 4.36747E-01
 -1       389 3.69923E-01
 -1       390 3.05794E-01
 -1       391 2.49953E-01
 -1       392 2.04235E-01
 -1       393 1.64118E-01
 -1       394 1.30099E-01
 -1       395 1.02166E-01
 -1       396 7.99019E-02
 -1       397 6.25418E-02
 -1       398 4.96129E-02
 -1       399 4.06409E-02
 -1       400 3.51864E-02
 -1       401 3.36579E-02
 -1       402 3.73034E-02
 -1       403 4.38089E-02
 -1       404 5.67211E-02
 -1       405 7.38424E-02
 -1       406 9.48412E-02
 -1       407 1.28065E-01
 -1       408 1.74686E-01
 -1       409 2.29568E-01
 -1       410 2.90346E-01
 -1       411 3.51965E-01
 -1       412 4.05668E-01
 -1       413 4.61954E-01
 -1       414 4.90684E-01
 -1       415 4.90684E-01
 -1       416 4.65815E-01
 -1       417 4.38287E-01
 -1       418 5.60871E-01
 -1       419 9.18222E-01
 -1       420 1.44806E+00
 -1       421 2.09398E+00
 -1       422 2.55813E+00
 -1       423 2.67751E+00
 -1       424 2.67751E+00
 -1       425 2.44439E+00
 -1       426 2.64280E+00
 -1       427 2.47751E+00
 -1       428 1.81556E+00
 -1       429 1.07482E+00
 -1       430 2.20494E+00
 -1       431 1.41230E+00
 -1       432 1.06455E+00
 -1       433 3.52350E+00
 -1       434 4.57061E+00
 -1       435 6.25982E+00
 -1       436 9.31029E+00
 -1       437 1.28210E+01
 -1       438 1.28210E+01
 -1       439 1.21168E+01
 -1       440 9.56603E+00
 -1       441 6.39910E+00
 -1       442 5.12472E+00
 -1       443 2.57761E+01
 -1       444 3.42068E+01
 -1       445 2.70108E+01
 -1       446 1.41651E+01
 -1       447 9.61071E+00
 -1       448 2.37834E+01
 -1       449 8.15636E+00
 -1       450 9.18463E-01
 -1       451 1.09557E+01
 -1       452 1.12736E+01
 -1       453 1.08709E+01
 -1       454 8.04295E+00
 -1       455 7.52110E+00
 -1       456 2.37834E+01
 -1       457 2.83520E+01
 -1       458 2.83520E+01
 -1       459 2.15269E+01
 -1       460 1.91402E+01
 -1       461 1.13925E+01
 -1       462 6.54911E+00
 -1       463 9.41232E+00
 -1       464 1.20084E+01
 -1       465 1.13274E+01
 -1       466 1.04981E+01
 -1       467 7.97774E+00
 -1       468 9.69882E+00
 -1       469 1.65410E+01
 -1       470 2.90410E+01
 -1       471 2.79547E+01
 -1       472 8.05302E+00
 -1       473 3.72906E+00
 -1       474 8.72828E+00
 -1       475 1.04711E+00
 -1       476 4.86182E-01
 -1       477 5.10982E-01
 -1       478 4.31575E-01
 -1       479 4.57532E-01
 -1       480 4.87137E-01
 -1       481 5.11451E-01
 -1       482 5.11451E-01
 -1       483 6.09613E-01
 -1       484 8.02673E-01
 -1       485 8.90413E-01
 -1       486 8.73614E-01
 -1       487 2.79547E+01
 -1       488 7.01839E-01
 -1       489 5.87766E-01
 -1       490 4.75244E-01
 -1       491 3.76398E-01
 -1       492 3.21672E-01
 -1       493 2.71336E-01
 -1       494 2.23660E-01
 -1       495 1.84983E-01
 -1       496 1.51072E-01
 -1       497 1.21527E-01
 -1       498 9.66236E-02
 -1       499 7.78199E-02
 -1       500 6.22894E-02
 -1       501 4.94170E-02
 -1       502 3.88217E-02
 -1       503 3.04090E-02
 -1       504 2.67811E-02
 -1       505 2.75231E-02
 -1       506 3.47801E-02
 -1       507 4.71187E-02
 -1       508 7.25206E-02
 -1       509 1.06716E-01
 -1       510 1.52435E-01
 -1       511 2.12951E-01
 -1       512 2.92113E-01
 -1       513 3.94286E-01
 -1       514 5.24128E-01
 -1       515 6.86044E-01
 -1       516 8.83112E-01
 -1       517 1.11512E+00
 -1       518 1.37538E+00
 -1       519 1.64617E+00
 -1       520 1.89462E+00
 -1       521 2.20112E+00
 -1       522 2.78925E+00
 -1       523 3.55861E+00
 -1       524 4.64557E+00
 -1       525 3.74475E+00
 -1       526 4.88342E+00
 -1       527 7.10082E+00
 -1       528 7.10082E+00
 -1       529 6.22194E+00
 -1       530 4.85733E+00
 -1       531 5.43757E-01
 -1       532 4.36747E-01
 -1       533 3.69923E-01
 -1       534 3.05794E-01
 -1       535 2.49953E-01
 -1       536 2.05012E-01
 -1       537 1.65486E-01
 -1       538 1.31684E-01
 -1       539 1.06497E-01
 -1       540 8.54316E-02
 -1       541 6.79107E-02
 -1       542 5.36465E-02
 -1       543 4.21873E-02
 -1       544 3.29773E-02
 -1       545 2.75289E-02
 -1       546 2.70771E-02
 -1       547 3.36416E-02
 -1       548 4.34087E-02
 -1       549 5.93373E-02
 -1       550 8.58967E-02
 -1       551 1.19341E-01
 -1       552 1.60174E-01
 -1       553 2.08094E-01
 -1       554 2.61464E-01
 -1       555 3.16638E-01
 -1       556 3.67182E-01
 -1       557 4.22343E-01
 -1       558 4.61954E-01
 -1       559 4.90684E-01
 -1       560 4.65815E-01
 -1       561 4.06712E-01
 -1       562 4.98847E-01
 -1       563 7.07078E-01
 -1       564 1.16360E+00
 -1       565 1.74729E+00
 -1       566 2.19357E+00
 -1       567 2.55813E+00
 -1       568 2.67751E+00
 -1       569 2.44439E+00
 -1       570 2.33183E+00
 -1       571 2.29621E+00
 -1       572 2.20741E+00
 -1       573 3.75032E+00
 -1       574 4.57061E+00
 -1       575 2.20741E+00
 -1       576 2.82897E+00
 -1       577 6.33775E+00
 -1       578 1.13933E+01
 -1       579 1.13933E+01
 -1       580 2.05449E+01
 -1       581 1.30672E+01
 -1       582 1.25835E+01
 -1       583 7.02757E-01
 -1       584 1.53290E+01
 -1       585 6.35171E+00
 -1       586 6.40972E+00
 -1       587 2.83520E+01
 -1       588 5.64188E+00
 -1       589 1.86450E+01
 -1       590 2.70108E+01
 -1       591 9.53035E+00
 -1       592 4.57295E-01
 -1       593 7.84561E+00
 -1       594 9.47334E+00
 -1       595 4.01335E+00
 -1       596 8.80528E+00
 -1       597 8.55428E+00
 -1       598 4.19103E+00
 -1       599 2.15269E+01
 -1       600 1.54138E+01
 -1       601 5.20945E+00
 -1       602 4.73537E+00
 -1       603 6.70106E+00
 -1       604 7.52072E+00
 -1       605 2.37834E+01
 -1       606 4.54105E+00
 -1       607 7.43730E+00
 -1       608 2.40735E+01
 -1       609 1.32773E+00
 -1       610 1.06834E+01
 -1       611 7.20145E-01
 -1       612 6.98126E+00
 -1       613 4.85733E+00
 -1       614 9.34415E+00
 -1       615 1.27981E+01
 -1       616 3.58393E-01
 -1       617 3.42657E-01
 -1       618 3.61858E-01
 -1       619 3.38294E-01
 -1       620 5.43694E-01
 -1       621 4.07480E-01
 -1       622 3.96759E-01
 -1       623 3.83005E-01
 -1       624 3.42130E-01
 -1       625 2.92411E-01
 -1       626 2.42629E-01
 -1       627 2.11455E-01
 -1       628 1.78888E-01
 -1       629 1.47865E-01
 -1       630 1.19945E-01
 -1       631 9.66114E-02
 -1       632 7.78610E-02
 -1       633 6.22894E-02
 -1       634 4.94170E-02
 -1       635 3.88217E-02
 -1       636 3.00756E-02
 -1       637 2.37410E-02
 -1       638 1.96489E-02
 -1       639 2.38684E-02
 -1       640 3.73910E-02
 -1       641 5.80531E-02
 -1       642 8.50344E-02
 -1       643 1.20281E-01
 -1       644 1.66096E-01
 -1       645 2.25207E-01
 -1       646 3.00851E-01
 -1       647 3.96935E-01
 -1       648 5.24128E-01
 -1       649 6.93499E-01
 -1       650 9.10204E-01
 -1       651 1.17393E+00
 -1       652 1.49053E+00
 -1       653 1.90804E+00
 -1       654 2.48781E+00
 -1       655 3.24701E+00
 -1       656 4.58724E+00
 -1       657 5.26131E+00
 -1       658 3.26537E-01
 -1       659 1.65024E+01
 -1       660 3.95084E-01
 -1       661 2.31914E-01
 -1       662 1.94452E-01
 -1       663 1.60334E-01
 -1       664 1.32263E-01
 -1       665 1.07353E-01
 -1       666 8.60118E-02
 -1       667 6.82142E-02
 -1       668 5.38523E-02
 -1       669 4.24149E-02
 -1       670 3.29773E-02
 -1       671 2.59990E-02
 -1       672 2.11569E-02
 -1       673 2.51975E-02
 -1       674 3.23631E-02
 -1       675 5.04249E-02
 -1       676 7.32695E-02
 -1       677 1.01870E-01
 -1       678 1.36990E-01
 -1       679 1.78960E-01
 -1       680 2.27343E-01
 -1       681 2.80485E-01
 -1       682 3.35483E-01
 -1       683 3.94411E-01
 -1       684 4.40951E-01
 -1       685 4.89542E-01
 -1       686 5.35583E-01
 -1       687 5.61210E-01
 -1       688 6.72211E-01
 -1       689 8.92411E-01
 -1       690 1.09026E+00
 -1       691 1.46638E+00
 -1       692 1.88408E+00
 -1       693 2.20788E+00
 -1       694 2.67745E+00
 -1       695 2.89687E+00
 -1       696 2.46357E+00
 -1       697 2.73226E+00
 -1       698 2.45848E+00
 -1       699 5.14114E-01
 -1       700 3.75032E+00
 -1       701 1.26010E+01
 -1       702 3.95355E+00
 -1       703 6.35418E+00
 -1       704 1.24058E+01
 -1       705 4.62806E-01
 -1       706 5.98285E+00
 -1       707 2.71871E-01
 -1       708 6.59433E+00
 -1       709 9.88806E+00
 -1       710 3.61858E-01
 -1       711 1.19980E+01
 -1       712 3.71340E+00
 -1       713 3.61461E-01
 -1       714 4.18929E+00
 -1       715 1.67056E+01
 -1       716 4.85322E+00
 -1       717 4.15289E-01
 -1       718 3.41892E-01
 -1       719 3.64863E+00
 -1       720 5.64846E+00
 -1       721 1.21427E+01
 -1       722 3.90470E+00
 -1       723 2.69518E+00
 -1       724 4.48133E-01
 -1       725 3.10445E+00
 -1       726 3.57366E-01
 -1       727 7.63364E+00
 -1       728 2.45633E-01
 -1       729 1.03648E+01
 -1       730 2.32485E-01
 -1       731 2.54447E-01
 -1       732 2.47632E-01
 -1       733 2.25777E-01
 -1       734 1.97378E-01
 -1       735 1.70824E-01
 -1       736 1.49593E-01
 -1       737 1.27322E-01
 -1       738 1.05908E-01
 -1       739 8.64088E-02
 -1       740 6.92793E-02
 -1       741 5.45657E-02
 -1       742 4.20479E-02
 -1       743 3.13290E-02
 -1       744 2.18769E-02
 -1       745 1.38077E-02
 -1       746 1.34611E-02
 -1       747 2.49338E-02
 -1       748 4.21531E-02
 -1       749 6.48254E-02
 -1       750 9.48155E-02
 -1       751 1.36624E-01
 -1       752 1.92690E-01
 -1       753 2.66915E-01
 -1       754 3.64481E-01
 -1       755 4.91839E-01
 -1       756 6.56961E-01
 -1       757 8.69608E-01
 -1       758 1.14129E+00
 -1       759 1.48396E+00
 -1       760 1.91216E+00
 -1       761 2.50729E+00
 -1       762 3.46777E+00
 -1       763 6.19361E+00
 -1       764 1.61940E-01
 -1       765 1.87673E-01
 -1       766 1.12060E-01
 -1       767 9.06158E-02
 -1       768 7.21050E-02
 -1       769 5.64555E-02
 -1       770 4.33429E-02
 -1       771 3.26364E-02
 -1       772 2.47122E-02
 -1       773 1.75583E-02
 -1       774 1.54349E-02
 -1       775 2.25132E-02
 -1       776 3.73534E-02
 -1       777 5.58284E-02
 -1       778 7.89456E-02
 -1       779 1.07719E-01
 -1       780 1.43088E-01
 -1       781 1.85787E-01
 -1       782 2.38569E-01
 -1       783 2.99334E-01
 -1       784 3.65978E-01
 -1       785 4.32463E-01
 -1       786 4.92920E-01
 -1       787 5.85640E-01
 -1       788 6.97969E-01
 -1       789 8.09215E-01
 -1       790 9.78612E-01
 -1       791 1.36996E+00
 -1       792 1.56698E+00
 -1       793 2.89072E+00
 -1       794 3.70254E+00
 -1       795 3.95227E+00
 -1       796 5.20958E+00
 -1       797 5.43108E+00
 -1       798 3.19304E+00
 -1       799 2.73226E+00
 -1       800 1.96156E-01
 -1       801 9.63406E+00
 -1       802 6.53014E+00
 -1       803 1.36133E-01
 -1       804 2.06466E-01
 -1       805 5.20958E+00
 -1       806 2.84696E-01
 -1       807 4.18718E+00
 -1       808 4.51521E+00
 -1       809 2.81921E-01
 -1       810 2.88606E-01
 -1       811 9.15804E+00
 -1       812 8.14320E+00
 -1       813 3.95227E+00
 -1       814 2.81628E-01
 -1       815 5.43108E+00
 -1       816 7.88129E+00
 -1       817 3.90470E+00
 -1       818 2.38937E-01
 -1       819 2.16060E-01
 -1       820 8.43036E+00
 -1       821 2.79051E-01
 -1       822 2.73351E-01
 -1       823 2.52896E-01
 -1       824 2.88606E-01
 -1       825 2.01961E-01
 -1       826 2.48500E-01
 -1       827 1.74318E-01
 -1       828 1.81739E-01
 -1       829 1.74538E-01
 -1       830 1.58781E-01
 -1       831 1.39122E-01
 -1       832 1.22597E-01
 -1       833 1.06186E-01
 -1       834 8.96152E-02
 -1       835 7.39922E-02
 -1       836 5.98742E-02
 -1       837 4.74354E-02
 -1       838 3.66035E-02
 -1       839 2.71117E-02
 -1       840 1.87824E-02
 -1       841 1.99915E-02
 -1       842 2.42101E-02
 -1       843 3.93604E-02
 -1       844 5.95040E-02
 -1       845 8.71428E-02
 -1       846 1.23554E-01
 -1       847 1.71301E-01
 -1       848 2.33591E-01
 -1       849 3.14534E-01
 -1       850 4.19568E-01
 -1       851 5.56267E-01
 -1       852 7.35843E-01
 -1       853 9.76219E-01
 -1       854 1.30794E+00
 -1       855 1.78140E+00
 -1       856 2.50729E+00
 -1       857 3.46777E+00
 -1       858 4.29663E+00
 -1       859 1.98711E-01
 -1       860 7.95233E-02
 -1       861 9.67876E-02
 -1       862 5.06783E-02
 -1       863 3.90622E-02
 -1       864 2.89641E-02
 -1       865 1.99142E-02
 -1       866 1.64285E-02
 -1       867 1.83248E-02
 -1       868 3.11124E-02
 -1       869 4.77984E-02
 -1       870 6.98442E-02
 -1       871 9.73287E-02
 -1       872 1.30891E-01
 -1       873 1.70708E-01
 -1       874 2.16131E-01
 -1       875 2.65161E-01
 -1       876 3.22930E-01
 -1       877 4.03585E-01
 -1       878 4.98812E-01
 -1       879 6.06478E-01
 -1       880 7.35691E-01
 -1       881 9.45448E-01
 -1       882 1.23136E+00
 -1       883 1.37646E+00
 -1       884 3.38699E+00
 -1       885 3.27351E+00
 -1       886 8.36014E+00
 -1       887 4.83334E+00
 -1       888 2.71674E+00
 -1       889 2.67629E-01
 -1       890 2.08571E-01
 -1       891 1.67996E-01
 -1       892 6.41103E-02
 -1       893 5.85833E+00
 -1       894 1.51339E-01
 -1       895 1.52799E-01
 -1       896 5.60500E+00
 -1       897 1.74923E-01
 -1       898 6.65388E+00
 -1       899 1.15357E-01
 -1       900 1.85559E-01
 -1       901 2.17224E-01
 -1       902 1.34153E-01
 -1       903 2.48500E-01
 -1       904 1.95684E-01
 -1       905 2.17224E-01
 -1       906 3.19304E+00
 -1       907 1.23453E-01
 -1       908 1.35394E-01
 -1       909 1.34855E-01
 -1       910 1.26026E-01
 -1       911 1.12774E-01
 -1       912 9.76561E-02
 -1       913 8.51068E-02
 -1       914 7.22759E-02
 -1       915 5.99872E-02
 -1       916 4.87311E-02
 -1       917 3.87374E-02
 -1       918 3.00155E-02
 -1       919 2.36603E-02
 -1       920 2.41997E-02
 -1       921 2.69708E-02
 -1       922 3.31871E-02
 -1       923 4.99898E-02
 -1       924 7.21086E-02
 -1       925 1.00837E-01
 -1       926 1.37882E-01
 -1       927 1.85291E-01
 -1       928 2.45592E-01
 -1       929 3.22084E-01
 -1       930 4.19436E-01
 -1       931 5.44963E-01
 -1       932 7.11292E-01
 -1       933 9.42305E-01
 -1       934 1.28723E+00
 -1       935 1.87742E+00
 -1       936 2.98658E+00
 -1       937 3.94371E+00
 -1       938 2.45127E-02
 -1       939 7.99649E-02
 -1       940 3.30119E-02
 -1       941 4.27348E-02
 -1       942 2.19501E-02
 -1       943 2.37685E-02
 -1       944 2.83797E-02
 -1       945 4.37922E-02
 -1       946 6.38259E-02
 -1       947 8.92221E-02
 -1       948 1.20986E-01
 -1       949 1.59998E-01
 -1       950 2.06840E-01
 -1       951 2.61501E-01
 -1       952 3.22930E-01
 -1       953 3.88304E-01
 -1       954 4.77811E-01
 -1       955 5.94293E-01
 -1       956 7.91162E-01
 -1       957 1.04306E+00
 -1       958 1.27587E+00
 -1       959 2.22577E+00
 -1       960 3.96377E+00
 -1       961 2.38195E-01
 -1       962 6.48584E+00
 -1       963 3.96377E+00
 -1       964 2.48500E-01
 -1       965 2.05950E-01
 -1       966 1.52799E-01
 -1       967 1.73029E-01
 -1       968 4.44056E+00
 -1       969 5.38487E-02
 -1       970 6.62120E-02
 -1       971 9.44173E-02
 -1       972 1.52514E-01
 -1       973 4.05443E+00
 -1       974 1.42344E-01
 -1       975 1.40003E-01
 -1       976 1.24131E-01
 -1       977 1.51216E-01
 -1       978 1.52514E-01
 -1       979 8.94580E-02
 -1       980 1.01675E-01
 -1       981 1.02902E-01
 -1       982 9.75127E-02
 -1       983 8.81632E-02
 -1       984 7.69512E-02
 -1       985 6.53421E-02
 -1       986 5.47209E-02
 -1       987 4.53646E-02
 -1       988 3.69763E-02
 -1       989 2.97265E-02
 -1       990 2.68396E-02
 -1       991 2.65308E-02
 -1       992 2.84681E-02
 -1       993 3.29273E-02
 -1       994 4.20322E-02
 -1       995 5.59801E-02
 -1       996 7.49643E-02
 -1       997 1.00180E-01
 -1       998 1.33164E-01
 -1       999 1.76386E-01
 -1      1000 2.34428E-01
 -1      1001 3.10325E-01
 -1      1002 4.10236E-01
 -1      1003 5.43697E-01
 -1      1004 7.26579E-01
 -1      1005 9.85256E-01
 -1      1006 1.35042E+00
 -1      1007 2.73113E+00
 -1      1008 4.00566E+00
 -1      1009 2.53969E-02
 -1      1010 3.29419E-02
 -1      1011 2.98583E-02
 -1      1012 3.65765E-02
 -1      1013 5.25566E-02
 -1      1014 7.39273E-02
 -1      1015 1.01408E-01
 -1      1016 1.36364E-01
 -1      1017 1.80312E-01
 -1      1018 2.34887E-01
 -1      1019 3.01761E-01
 -1      1020 3.82442E-01
 -1      1021 4.77811E-01
 -1      1022 5.87160E-01
 -1      1023 7.66319E-01
 -1      1024 1.01851E+00
 -1      1025 1.61050E+00
 -1      1026 1.89752E+00
 -1      1027 1.49605E-01
 -1      1028 1.51591E-01
 -1      1029 1.08464E-01
 -1      1030 2.64683E-02
 -1      1031 1.42378E-01
 -1      1032 1.27108E-01
 -1      1033 2.65891E-02
 -1      1034 1.13093E-01
 -1      1035 4.05443E+00
 -1      1036 5.69277E-02
 -1      1037 7.35776E-02
 -1      1038 1.06856E-01
 -1      1039 1.13093E-01
 -1      1040 1.16918E-01
 -1      1041 9.34924E-02
 -1      1042 6.23539E-02
 -1      1043 1.09997E-01
 -1      1044 1.08321E-01
 -1      1045 5.92421E-02
 -1      1046 8.07612E-02
 -1      1047 8.35464E-02
 -1      1048 7.18063E-02
 -1      1049 6.47056E-02
 -1      1050 7.95463E-02
 -1      1051 5.34851E-02
 -1      1052 4.47591E-02
 -1      1053 5.33630E-02
 -1      1054 3.41306E-02
 -1      1055 2.91298E-02
 -1      1056 2.68396E-02
 -1      1057 2.84681E-02
 -1      1058 3.29273E-02
 -1      1059 4.13509E-02
 -1      1060 5.39559E-02
 -1      1061 7.10088E-02
 -1      1062 9.33109E-02
 -1      1063 1.21786E-01
 -1      1064 1.57513E-01
 -1      1065 2.04304E-01
 -1      1066 2.62787E-01
 -1      1067 3.40915E-01
 -1      1068 4.82472E-01
 -1      1069 6.87574E-01
 -1      1070 9.87014E-01
 -1      1071 1.48416E+00
 -1      1072 2.21004E+00
 -1      1073 2.64683E-02
 -1      1074 3.65765E-02
 -1      1075 8.09985E-02
 -1      1076 1.04931E-01
 -1      1077 1.40153E-01
 -1      1078 1.88147E-01
 -1      1079 2.50867E-01
 -1      1080 3.40915E-01
 -1      1081 4.82472E-01
 -1      1082 6.87574E-01
 -1      1083 9.87014E-01
 -1      1084 1.41834E+00
 -1      1085 2.11961E+00
 -1      1086 1.68818E+00
 -1      1087 8.60832E-02
 -1      1088 3.27992E-02
 -1      1089 1.15355E-01
 -1      1090 6.19607E-02
 -1      1091 2.77144E-02
 -1      1092 4.73320E-02
 -1      1093 6.52114E-02
 -1      1094 2.98583E-02
 -1      1095 8.82085E-02
 -1      1096 5.24751E-02
 -1      1097 7.66598E-02
 -1      1098 8.62612E-02
 -1      1099 5.82585E-02
 -1      1100 5.33630E-02
 -1      1101 2.81213E+00
 -1      1102 9.89732E-02
 -1      1103 7.95463E-02
 -1      1104 8.35808E-02
 -1      1105 7.95463E-02
 -1      1106 5.69277E-02
 -1      1107 8.37538E-02
 -1      1108 6.41988E-02
 -1      1109 5.92421E-02
 -1      1110 7.51203E-02
 -1      1111 1.31427E+01
 -1      1112 8.40318E+00
 -1      1113 2.74386E+00
 -1      1114 1.55792E+00
 -1      1115 1.16890E+00
 -1      1116 9.72713E-01
 -1      1117 8.54100E-01
 -1      1118 7.81273E-01
 -1      1119 7.54677E-01
 -1      1120 7.84381E-01
 -1      1121 8.56994E-01
 -1      1122 9.76815E-01
 -1      1123 1.18035E+00
 -1      1124 1.57195E+00
 -1      1125 2.67068E+00
 -1      1126 6.07308E+00
 -1      1127 1.13397E+01
 -1      1128 1.31427E+01
 -1      1129 8.73006E+00
 -1      1130 3.82883E+00
 -1      1131 2.72550E+00
 -1      1132 1.73622E+00
 -1      1133 1.18770E+00
 -1      1134 8.94136E-01
 -1      1135 6.84630E-01
 -1      1136 5.24436E-01
 -1      1137 4.00268E-01
 -1      1138 3.06700E-01
 -1      1139 2.35125E-01
 -1      1140 1.77881E-01
 -1      1141 1.32927E-01
 -1      1142 9.83522E-02
 -1      1143 7.32794E-02
 -1      1144 5.60365E-02
 -1      1145 4.32443E-02
 -1      1146 3.46270E-02
 -1      1147 3.15253E-02
 -1      1148 3.52488E-02
 -1      1149 4.45829E-02
 -1      1150 5.68764E-02
 -1      1151 7.19734E-02
 -1      1152 9.02659E-02
 -1      1153 1.20091E-01
 -1      1154 1.65921E-01
 -1      1155 2.25697E-01
 -1      1156 3.02073E-01
 -1      1157 3.97409E-01
 -1      1158 5.12866E-01
 -1      1159 6.46718E-01
 -1      1160 8.19588E-01
 -1      1161 1.07365E+00
 -1      1162 1.39668E+00
 -1      1163 1.79286E+00
 -1      1164 2.23887E+00
 -1      1165 2.56501E+00
 -1      1166 2.76854E+00
 -1      1167 2.86655E+00
 -1      1168 3.56382E+00
 -1      1169 6.16216E+00
 -1      1170 1.00550E+01
 -1      1171 1.20468E+01
 -1      1172 1.20040E+01
 -1      1173 1.14723E+01
 -1      1174 9.07894E+00
 -1      1175 5.38702E+00
 -1      1176 2.51897E+00
 -1      1177 9.65782E-01
 -1      1178 1.40386E+01
 -1      1179 8.71655E+00
 -1      1180 2.90363E+00
 -1      1181 2.03910E+00
 -1      1182 1.40487E+00
 -1      1183 1.02516E+00
 -1      1184 8.18676E-01
 -1      1185 6.59533E-01
 -1      1186 5.27863E-01
 -1      1187 4.18073E-01
 -1      1188 3.30845E-01
 -1      1189 2.62372E-01
 -1      1190 2.05369E-01
 -1      1191 1.58556E-01
 -1      1192 1.20999E-01
 -1      1193 9.16459E-02
 -1      1194 6.94613E-02
 -1      1195 5.35021E-02
 -1      1196 4.29608E-02
 -1      1197 3.81433E-02
 -1      1198 4.11777E-02
 -1      1199 5.08086E-02
 -1      1200 6.42155E-02
 -1      1201 8.10911E-02
 -1      1202 1.00858E-01
 -1      1203 1.22449E-01
 -1      1204 1.48572E-01
 -1      1205 1.85001E-01
 -1      1206 2.29000E-01
 -1      1207 2.73028E-01
 -1      1208 3.10763E-01
 -1      1209 3.33064E-01
 -1      1210 3.72736E-01
 -1      1211 4.69666E-01
 -1      1212 5.89970E-01
 -1      1213 7.18922E-01
 -1      1214 9.33094E-01
 -1      1215 1.17739E+00
 -1      1216 1.39298E+00
 -1      1217 1.71710E+00
 -1      1218 2.07193E+00
 -1      1219 2.74410E+00
 -1      1220 3.65598E+00
 -1      1221 4.11328E+00
 -1      1222 4.36028E+00
 -1      1223 4.53400E+00
 -1      1224 4.20559E+00
 -1      1225 3.20290E+00
 -1      1226 2.04749E+00
 -1      1227 9.33773E-01
 -1      1228 5.32658E-01
 -1      1229 5.96587E-01
 -1      1230 4.69054E-01
 -1      1231 8.19227E-01
 -1      1232 1.56799E+00
 -1      1233 2.49980E+00
 -1      1234 3.14331E+00
 -1      1235 3.31956E+00
 -1      1236 3.28150E+00
 -1      1237 4.09840E+00
 -1      1238 4.97930E+00
 -1      1239 4.00260E+00
 -1      1240 3.02591E+00
 -1      1241 3.01453E+00
 -1      1242 2.45478E+00
 -1      1243 1.56604E+00
 -1      1244 8.59418E-01
 -1      1245 2.46310E+01
 -1      1246 3.48510E+01
 -1      1247 4.50709E+01
 -1      1248 3.13569E+01
 -1      1249 1.49188E+01
 -1      1250 1.21946E+01
 -1      1251 1.23650E+01
 -1      1252 1.30356E+01
 -1      1253 1.35357E+01
 -1      1254 1.27429E+01
 -1      1255 1.89075E+01
 -1      1256 2.77598E+01
 -1      1257 2.96548E+01
 -1      1258 2.63629E+01
 -1      1259 2.33471E+01
 -1      1260 2.36232E+01
 -1      1261 2.59955E+01
 -1      1262 2.83677E+01
 -1      1263 2.74115E+01
 -1      1264 1.95203E+01
 -1      1265 1.27600E+01
 -1      1266 1.29346E+01
 -1      1267 1.26744E+01
 -1      1268 1.25146E+01
 -1      1269 1.26150E+01
 -1      1270 1.70825E+01
 -1      1271 3.46389E+01
 -1      1272 4.77279E+01
 -1      1273 3.63573E+01
 -1      1274 2.48089E+01
 -1      1275 1.31427E+01
 -1      1276 4.87065E+00
 -1      1277 9.61021E+00
 -1      1278 2.06120E+00
 -1      1279 2.98095E+00
 -1      1280 4.18798E+00
 -1      1281 1.40013E+00
 -1      1282 1.66632E+00
 -1      1283 1.90341E+00
 -1      1284 1.10184E+00
 -1      1285 1.22467E+00
 -1      1286 1.33307E+00
 -1      1287 9.36322E-01
 -1      1288 1.00968E+00
 -1      1289 1.06545E+00
 -1      1290 8.36486E-01
 -1      1291 8.81740E-01
 -1      1292 9.18708E-01
 -1      1293 7.74834E-01
 -1      1294 8.02407E-01
 -1      1295 8.30047E-01
 -1      1296 7.55655E-01
 -1      1297 7.54677E-01
 -1      1298 7.75812E-01
 -1      1299 8.06228E-01
 -1      1300 7.77501E-01
 -1      1301 7.77501E-01
 -1      1302 8.84045E-01
 -1      1303 8.40159E-01
 -1      1304 8.33279E-01
 -1      1305 1.01693E+00
 -1      1306 9.40990E-01
 -1      1307 9.24155E-01
 -1      1308 1.24032E+00
 -1      1309 1.11271E+00
 -1      1310 1.07689E+00
 -1      1311 1.68187E+00
 -1      1312 1.41787E+00
 -1      1313 1.35023E+00
 -1      1314 2.88320E+00
 -1      1315 2.04847E+00
 -1      1316 1.89439E+00
 -1      1317 6.28588E+00
 -1      1318 3.71821E+00
 -1      1319 3.09600E+00
 -1      1320 1.40386E+01
 -1      1321 1.13397E+01
 -1      1322 8.98480E+00
 -1      1323 1.40386E+01
 -1      1324 8.73006E+00
 -1      1325 4.31737E+00
 -1      1326 3.82883E+00
 -1      1327 3.34030E+00
 -1      1328 3.82883E+00
 -1      1329 2.72550E+00
 -1      1330 2.11071E+00
 -1      1331 2.72550E+00
 -1      1332 1.77851E+00
 -1      1333 1.40402E+00
 -1      1334 1.77851E+00
 -1      1335 1.19323E+00
 -1      1336 1.01920E+00
 -1      1337 1.23552E+00
 -1      1338 8.94136E-01
 -1      1339 7.74594E-01
 -1      1340 8.99662E-01
 -1      1341 6.84630E-01
 -1      1342 5.94666E-01
 -1      1343 6.84630E-01
 -1      1344 5.30799E-01
 -1      1345 4.60569E-01
 -1      1346 5.30799E-01
 -1      1347 4.10392E-01
 -1      1348 3.56454E-01
 -1      1349 4.16755E-01
 -1      1350 3.17306E-01
 -1      1351 2.77676E-01
 -1      1352 3.27431E-01
 -1      1353 2.49128E-01
 -1      1354 2.17183E-01
 -1      1355 2.59735E-01
 -1      1356 1.92908E-01
 -1      1357 1.67608E-01
 -1      1358 2.06911E-01
 -1      1359 1.47518E-01
 -1      1360 1.27864E-01
 -1      1361 1.62545E-01
 -1      1362 1.11647E-01
 -1      1363 9.67271E-02
 -1      1364 1.26239E-01
 -1      1365 8.39652E-02
 -1      1366 7.38124E-02
 -1      1367 9.72602E-02
 -1      1368 6.40536E-02
 -1      1369 5.69634E-02
 -1      1370 7.47394E-02
 -1      1371 4.97637E-02
 -1      1372 4.40618E-02
 -1      1373 5.77808E-02
 -1      1374 3.90053E-02
 -1      1375 3.60899E-02
 -1      1376 4.55246E-02
 -1      1377 3.27958E-02
 -1      1378 3.26096E-02
 -1      1379 3.71741E-02
 -1      1380 3.20470E-02
 -1      1381 3.59567E-02
 -1      1382 3.33175E-02
 -1      1383 3.91585E-02
 -1      1384 4.45829E-02
 -1      1385 3.59567E-02
 -1      1386 5.00074E-02
 -1      1387 5.68764E-02
 -1      1388 4.45829E-02
 -1      1389 6.37454E-02
 -1      1390 7.19734E-02
 -1      1391 5.68764E-02
 -1      1392 8.13824E-02
 -1      1393 9.14468E-02
 -1      1394 7.31543E-02
 -1      1395 1.06483E-01
 -1      1396 1.26243E-01
 -1      1397 9.75997E-02
 -1      1398 1.45949E-01
 -1      1399 1.72019E-01
 -1      1400 1.32342E-01
 -1      1401 1.97304E-01
 -1      1402 2.31010E-01
 -1      1403 1.77332E-01
 -1      1404 2.62779E-01
 -1      1405 3.05449E-01
 -1      1406 2.34386E-01
 -1      1407 3.54404E-01
 -1      1408 4.07070E-01
 -1      1409 3.15111E-01
 -1      1410 4.79425E-01
 -1      1411 5.42216E-01
 -1      1412 4.36421E-01
 -1      1413 6.34472E-01
 -1      1414 7.05533E-01
 -1      1415 6.01032E-01
 -1      1416 8.18248E-01
 -1      1417 9.20057E-01
 -1      1418 8.06002E-01
 -1      1419 1.04923E+00
 -1      1420 1.20149E+00
 -1      1421 1.04789E+00
 -1      1422 1.33458E+00
 -1      1423 1.50535E+00
 -1      1424 1.31015E+00
 -1      1425 1.62142E+00
 -1      1426 1.84682E+00
 -1      1427 1.55931E+00
 -1      1428 2.01826E+00
 -1      1429 2.23887E+00
 -1      1430 1.84682E+00
 -1      1431 2.45947E+00
 -1      1432 2.56501E+00
 -1      1433 2.23887E+00
 -1      1434 2.67054E+00
 -1      1435 2.76854E+00
 -1      1436 2.56501E+00
 -1      1437 2.86655E+00
 -1      1438 2.86655E+00
 -1      1439 2.76854E+00
 -1      1440 2.80448E+00
 -1      1441 3.50175E+00
 -1      1442 2.80448E+00
 -1      1443 4.42588E+00
 -1      1444 6.32695E+00
 -1      1445 3.66653E+00
 -1      1446 8.06323E+00
 -1      1447 1.00550E+01
 -1      1448 6.32695E+00
 -1      1449 1.20468E+01
 -1      1450 1.20468E+01
 -1      1451 1.00550E+01
 -1      1452 1.20040E+01
 -1      1453 1.19612E+01
 -1      1454 1.20040E+01
 -1      1455 1.14723E+01
 -1      1456 1.09834E+01
 -1      1457 1.14723E+01
 -1      1458 9.14161E+00
 -1      1459 7.23716E+00
 -1      1460 9.14161E+00
 -1      1461 5.91551E+00
 -1      1462 4.12802E+00
 -1      1463 5.97817E+00
 -1      1464 3.07125E+00
 -1      1465 1.99068E+00
 -1      1466 3.59974E+00
 -1      1467 1.33204E+00
 -1      1468 1.88432E+00
 -1      1469 3.39452E+00
 -1      1470 8.71655E+00
 -1      1471 8.71655E+00
 -1      1472 2.41275E+00
 -1      1473 2.90363E+00
 -1      1474 2.90363E+00
 -1      1475 1.66545E+00
 -1      1476 2.03910E+00
 -1      1477 2.03910E+00
 -1      1478 1.14428E+00
 -1      1479 1.40487E+00
 -1      1480 1.40487E+00
 -1      1481 9.06030E-01
 -1      1482 1.02516E+00
 -1      1483 1.02516E+00
 -1      1484 7.31321E-01
 -1      1485 8.18676E-01
 -1      1486 8.18676E-01
 -1      1487 5.87745E-01
 -1      1488 6.59533E-01
 -1      1489 6.59533E-01
 -1      1490 4.67981E-01
 -1      1491 5.27863E-01
 -1      1492 5.27863E-01
 -1      1493 3.68165E-01
 -1      1494 4.18073E-01
 -1      1495 4.18073E-01
 -1      1496 2.93525E-01
 -1      1497 3.30845E-01
 -1      1498 3.30845E-01
 -1      1499 2.31219E-01
 -1      1500 2.62372E-01
 -1      1501 2.62372E-01
 -1      1502 1.80955E-01
 -1      1503 2.06805E-01
 -1      1504 2.06805E-01
 -1      1505 1.40070E-01
 -1      1506 1.61033E-01
 -1      1507 1.62469E-01
 -1      1508 1.07327E-01
 -1      1509 1.23921E-01
 -1      1510 1.26397E-01
 -1      1511 8.18398E-02
 -1      1512 9.45988E-02
 -1      1513 9.75204E-02
 -1      1514 6.27246E-02
 -1      1515 7.21502E-02
 -1      1516 7.51031E-02
 -1      1517 4.91676E-02
 -1      1518 5.57011E-02
 -1      1519 5.83901E-02
 -1      1520 4.04657E-02
 -1      1521 4.44736E-02
 -1      1522 4.66726E-02
 -1      1523 3.70590E-02
 -1      1524 3.78686E-02
 -1      1525 3.93815E-02
 -1      1526 4.33180E-02
 -1      1527 3.94740E-02
 -1      1528 3.91993E-02
 -1      1529 5.31198E-02
 -1      1530 4.73328E-02
 -1      1531 4.56292E-02
 -1      1532 6.61744E-02
 -1      1533 5.85544E-02
 -1      1534 5.50787E-02
 -1      1535 8.20271E-02
 -1      1536 7.27715E-02
 -1      1537 6.71105E-02
 -1      1538 1.00858E-01
 -1      1539 9.03467E-02
 -1      1540 8.20271E-02
 -1      1541 1.23595E-01
 -1      1542 1.12515E-01
 -1      1543 1.02004E-01
 -1      1544 1.54274E-01
 -1      1545 1.39231E-01
 -1      1546 1.29297E-01
 -1      1547 1.93065E-01
 -1      1548 1.71679E-01
 -1      1549 1.62338E-01
 -1      1550 2.33643E-01
 -1      1551 2.11031E-01
 -1      1552 1.97709E-01
 -1      1553 2.73028E-01
 -1      1554 2.51611E-01
 -1      1555 2.33643E-01
 -1      1556 3.10763E-01
 -1      1557 2.94446E-01
 -1      1558 2.73028E-01
 -1      1559 3.33064E-01
 -1      1560 3.27080E-01
 -1      1561 3.10763E-01
 -1      1562 3.79945E-01
 -1      1563 3.46256E-01
 -1      1564 3.40273E-01
 -1      1565 4.86575E-01
 -1      1566 4.23334E-01
 -1      1567 3.96854E-01
 -1      1568 5.89970E-01
 -1      1569 5.32907E-01
 -1      1570 4.86575E-01
 -1      1571 7.18922E-01
 -1      1572 6.47033E-01
 -1      1573 5.89970E-01
 -1      1574 9.33094E-01
 -1      1575 7.90811E-01
 -1      1576 7.18922E-01
 -1      1577 1.17739E+00
 -1      1578 1.07538E+00
 -1      1579 9.33094E-01
 -1      1580 1.39298E+00
 -1      1581 1.27941E+00
 -1      1582 1.17739E+00
 -1      1583 1.71710E+00
 -1      1584 1.50655E+00
 -1      1585 1.39298E+00
 -1      1586 2.07193E+00
 -1      1587 1.92764E+00
 -1      1588 1.71710E+00
 -1      1589 2.87423E+00
 -1      1590 2.34636E+00
 -1      1591 2.20207E+00
 -1      1592 3.65598E+00
 -1      1593 3.27197E+00
 -1      1594 2.87423E+00
 -1      1595 4.11328E+00
 -1      1596 4.04000E+00
 -1      1597 3.65598E+00
 -1      1598 4.36028E+00
 -1      1599 4.18656E+00
 -1      1600 4.11328E+00
 -1      1601 4.53400E+00
 -1      1602 4.53400E+00
 -1      1603 4.36028E+00
 -1      1604 3.87717E+00
 -1      1605 4.20559E+00
 -1      1606 4.20559E+00
 -1      1607 2.52862E+00
 -1      1608 3.20290E+00
 -1      1609 3.20290E+00
 -1      1610 1.56637E+00
 -1      1611 2.04749E+00
 -1      1612 2.04749E+00
 -1      1613 1.16525E+00
 -1      1614 4.67441E-01
 -1      1615 6.34993E-01
 -1      1616 5.64953E-01
 -1      1617 5.24934E-01
 -1      1618 5.63340E-01
 -1      1619 1.29115E+00
 -1      1620 9.80998E-01
 -1      1621 1.03688E+00
 -1      1622 2.34222E+00
 -1      1623 1.90362E+00
 -1      1624 2.06539E+00
 -1      1625 3.54370E+00
 -1      1626 3.05050E+00
 -1      1627 3.38612E+00
 -1      1628 3.96780E+00
 -1      1629 3.81750E+00
 -1      1630 4.36819E+00
 -1      1631 3.99374E+00
 -1      1632 3.96780E+00
 -1      1633 4.64198E+00
 -1      1634 4.35497E+00
 -1      1635 4.41897E+00
 -1      1636 5.06721E+00
 -1      1637 7.28144E+00
 -1      1638 6.40054E+00
 -1      1639 7.53800E+00
 -1      1640 7.28144E+00
 -1      1641 7.28144E+00
 -1      1642 9.58357E+00
 -1      1643 4.35312E+00
 -1      1644 5.32981E+00
 -1      1645 7.63195E+00
 -1      1646 3.82807E+00
 -1      1647 3.82807E+00
 -1      1648 5.15528E+00
 -1      1649 3.77015E+00
 -1      1650 3.78153E+00
 -1      1651 4.58370E+00
 -1      1652 2.87025E+00
 -1      1653 3.41862E+00
 -1      1654 4.18562E+00
 -1      1655 2.12253E+00
 -1      1656 2.46289E+00
 -1      1657 3.42673E+00
 -1      1658 2.78117E+00
 -1      1659 2.94189E+01
 -1      1660 2.94189E+01
 -1      1661 4.20779E+01
 -1      1662 3.18579E+01
 -1      1663 4.50709E+01
 -1      1664 4.50709E+01
 -1      1665 1.83697E+01
 -1      1666 3.20837E+01
 -1      1667 1.15129E+01
 -1      1668 1.42371E+01
 -1      1669 1.21946E+01
 -1      1670 1.21946E+01
 -1      1671 1.22655E+01
 -1      1672 1.20951E+01
 -1      1673 1.30356E+01
 -1      1674 1.25354E+01
 -1      1675 1.35357E+01
 -1      1676 1.35357E+01
 -1      1677 1.19466E+01
 -1      1678 1.27394E+01
 -1      1679 1.89075E+01
 -1      1680 1.19501E+01
 -1      1681 2.89887E+01
 -1      1682 2.70937E+01
 -1      1683 2.01363E+01
 -1      1684 2.96548E+01
 -1      1685 2.96548E+01
 -1      1686 2.30711E+01
 -1      1687 2.63629E+01
 -1      1688 2.58494E+01
 -1      1689 2.55733E+01
 -1      1690 2.58494E+01
 -1      1691 2.58494E+01
 -1      1692 2.59696E+01
 -1      1693 2.35974E+01
 -1      1694 2.83677E+01
 -1      1695 2.83677E+01
 -1      1696 2.70214E+01
 -1      1697 2.79777E+01
 -1      1698 1.25529E+01
 -1      1699 1.94878E+01
 -1      1700 1.27600E+01
 -1      1701 1.25854E+01
 -1      1702 1.29346E+01
 -1      1703 1.29346E+01
 -1      1704 1.22675E+01
 -1      1705 1.25277E+01
 -1      1706 1.25146E+01
 -1      1707 1.24142E+01
 -1      1708 1.26150E+01
 -1      1709 1.26150E+01
 -1      1710 1.65175E+01
 -1      1711 1.20499E+01
 -1      1712 3.53830E+01
 -1      1713 2.22941E+01
 -1      1714 4.77279E+01
 -1      1715 4.77279E+01
 -1      1716 2.70139E+01
 -1      1717 3.83844E+01
 -1      1718 2.94189E+01
 -1      1719 2.95968E+01
 -1      1720 1.49639E+01
 -1      1721 3.20837E+01
 -1      1722 1.16525E+00
 -1      1723 1.03611E+00
 -1      1724 3.66458E+01
 -1      1725 4.20779E+01
 -1      1726 3.42068E+01
 -1      1727 1.15129E+01
 -1      1728 1.20951E+01
 -1      1729 1.22655E+01
 -1      1730 1.30356E+01
 -1      1731 1.27394E+01
 -1      1732 1.19466E+01
 -1      1733 2.63629E+01
 -1      1734 2.55733E+01
 -1      1735 2.80756E+01
 -1      1736 2.58236E+01
 -1      1737 2.59696E+01
 -1      1738 2.79777E+01
 -1      1739 2.00540E+01
 -1      1740 1.25529E+01
 -1      1741 1.27600E+01
 -1      1742 1.25277E+01
 -1      1743 1.22675E+01
 -1      1744 1.25146E+01
 -1      1745 1.20499E+01
 -1      1746 1.72616E+01
 -1      1747 3.53830E+01
 -1      1748 3.83844E+01
 -1      1749 3.16239E+01
 -1      1750 9.61021E+00
 -1      1751 2.89887E+01
 -1      1752 1.27785E+00
 -1      1753 1.67273E+00
 -1      1754 2.38923E+00
 -1      1755 4.27892E+00
 -1      1756 1.76367E+00
 -1      1757 8.82474E-01
 -1      1758 9.74637E-01
 -1      1759 7.79128E-01
 -1      1760 8.33710E-01
 -1      1761 7.42895E-01
 -1      1762 7.13853E-01
 -1      1763 7.47932E-01
 -1      1764 6.62934E-01
 -1      1765 6.71588E-01
 -1      1766 6.91745E-01
 -1      1767 6.09629E-01
 -1      1768 6.95069E-01
 -1      1769 6.73222E-01
 -1      1770 5.89155E-01
 -1      1771 7.50867E-01
 -1      1772 7.16935E-01
 -1      1773 6.12656E-01
 -1      1774 8.41216E-01
 -1      1775 7.84271E-01
 -1      1776 6.67928E-01
 -1      1777 9.84642E-01
 -1      1778 8.88855E-01
 -1      1779 7.48971E-01
 -1      1780 1.22992E+00
 -1      1781 1.05237E+00
 -1      1782 8.64333E-01
 -1      1783 1.71070E+00
 -1      1784 1.34410E+00
 -1      1785 1.04623E+00
 -1      1786 2.63016E+00
 -1      1787 1.79516E+00
 -1      1788 1.24486E+00
 -1      1789 8.11946E+00
 -1      1790 3.06567E+00
 -1      1791 1.76482E+00
 -1      1792 2.79742E+00
 -1      1793 5.19752E+00
 -1      1794 2.16323E+00
 -1      1795 2.65412E+00
 -1      1796 2.05703E+00
 -1      1797 2.48197E+01
 -1      1798 2.41536E+01
 -1      1799 3.39877E+00
 -1      1800 2.53443E+00
 -1      1801 1.91963E+00
 -1      1802 1.68868E+00
 -1      1803 1.35649E+00
 -1      1804 1.49761E+00
 -1      1805 1.17623E+00
 -1      1806 9.65435E-01
 -1      1807 1.08640E+00
 -1      1808 8.39784E-01
 -1      1809 7.14716E-01
 -1      1810 7.80489E-01
 -1      1811 6.56148E-01
 -1      1812 5.66184E-01
 -1      1813 5.96270E-01
 -1      1814 5.17515E-01
 -1      1815 4.53647E-01
 -1      1816 4.89033E-01
 -1      1817 4.10714E-01
 -1      1818 3.60537E-01
 -1      1819 3.97429E-01
 -1      1820 3.27660E-01
 -1      1821 2.88512E-01
 -1      1822 3.21618E-01
 -1      1823 2.60708E-01
 -1      1824 2.32160E-01
 -1      1825 2.60937E-01
 -1      1826 2.08233E-01
 -1      1827 1.83957E-01
 -1      1828 2.09207E-01
 -1      1829 1.66217E-01
 -1      1830 1.46128E-01
 -1      1831 1.67540E-01
 -1      1832 1.31350E-01
 -1      1833 1.15133E-01
 -1      1834 1.35022E-01
 -1      1835 1.02751E-01
 -1      1836 8.99890E-02
 -1      1837 1.07862E-01
 -1      1838 7.99022E-02
 -1      1839 7.01434E-02
 -1      1840 8.53931E-02
 -1      1841 6.21379E-02
 -1      1842 5.49381E-02
 -1      1843 6.73008E-02
 -1      1844 4.87375E-02
 -1      1845 4.36810E-02
 -1      1846 5.30945E-02
 -1      1847 3.89763E-02
 -1      1848 3.56822E-02
 -1      1849 4.21891E-02
 -1      1850 3.21445E-02
 -1      1851 3.15820E-02
 -1      1852 3.39467E-02
 -1      1853 3.21124E-02
 -1      1854 3.53142E-02
 -1      1855 3.09395E-02
 -1      1856 3.70880E-02
 -1      1857 4.25125E-02
 -1      1858 3.32437E-02
 -1      1859 4.77228E-02
 -1      1860 5.45918E-02
 -1      1861 4.02279E-02
 -1      1862 6.19643E-02
 -1      1863 7.13732E-02
 -1      1864 5.28107E-02
 -1      1865 8.25633E-02
 -1      1866 9.75997E-02
 -1      1867 7.13732E-02
 -1      1868 1.15588E-01
 -1      1869 1.35294E-01
 -1      1870 1.00552E-01
 -1      1871 1.62484E-01
 -1      1872 1.87769E-01
 -1      1873 1.45731E-01
 -1      1874 2.24380E-01
 -1      1875 2.56150E-01
 -1      1876 2.09532E-01
 -1      1877 3.04620E-01
 -1      1878 3.53574E-01
 -1      1879 2.94613E-01
 -1      1880 4.16498E-01
 -1      1881 4.88853E-01
 -1      1882 4.06007E-01
 -1      1883 5.68553E-01
 -1      1884 6.60809E-01
 -1      1885 5.48631E-01
 -1      1886 7.58427E-01
 -1      1887 8.71142E-01
 -1      1888 7.25949E-01
 -1      1889 9.84951E-01
 -1      1890 1.11413E+00
 -1      1891 9.37376E-01
 -1      1892 1.23676E+00
 -1      1893 1.36985E+00
 -1      1894 1.17382E+00
 -1      1895 1.48452E+00
 -1      1896 1.60059E+00
 -1      1897 1.41113E+00
 -1      1898 1.69643E+00
 -1      1899 1.86787E+00
 -1      1900 1.62164E+00
 -1      1901 1.97839E+00
 -1      1902 2.19899E+00
 -1      1903 1.82799E+00
 -1      1904 2.24010E+00
 -1      1905 2.34563E+00
 -1      1906 1.97962E+00
 -1      1907 2.38656E+00
 -1      1908 2.48456E+00
 -1      1909 2.06165E+00
 -1      1910 2.64198E+00
 -1      1911 2.57991E+00
 -1      1912 2.25999E+00
 -1      1913 2.81557E+00
 -1      1914 3.73970E+00
 -1      1915 2.65308E+00
 -1      1916 4.56315E+00
 -1      1917 6.29943E+00
 -1      1918 3.71219E+00
 -1      1919 7.13482E+00
 -1      1920 9.12661E+00
 -1      1921 5.37102E+00
 -1      1922 9.57382E+00
 -1      1923 9.53099E+00
 -1      1924 6.65361E+00
 -1      1925 9.10143E+00
 -1      1926 8.61255E+00
 -1      1927 6.67127E+00
 -1      1928 8.30769E+00
 -1      1929 6.46592E+00
 -1      1930 5.93686E+00
 -1      1931 6.07858E+00
 -1      1932 4.75692E+00
 -1      1933 5.24466E+00
 -1      1934 4.29111E+00
 -1      1935 3.23433E+00
 -1      1936 3.47253E+00
 -1      1937 4.39151E+00
 -1      1938 1.39774E+00
 -1      1939 1.77138E+00
 -1      1940 1.52187E+00
 -1      1941 1.01735E+00
 -1      1942 1.27793E+00
 -1      1943 1.01022E+00
 -1      1944 8.04394E-01
 -1      1945 9.23519E-01
 -1      1946 7.96585E-01
 -1      1947 6.37539E-01
 -1      1948 7.24894E-01
 -1      1949 6.23257E-01
 -1      1950 5.12246E-01
 -1      1951 5.84034E-01
 -1      1952 4.90252E-01
 -1      1953 4.18952E-01
 -1      1954 4.78834E-01
 -1      1955 4.03335E-01
 -1      1956 3.36980E-01
 -1      1957 3.86888E-01
 -1      1958 3.37858E-01
 -1      1959 2.71739E-01
 -1      1960 3.09059E-01
 -1      1961 2.77874E-01
 -1      1962 2.17727E-01
 -1      1963 2.48880E-01
 -1      1964 2.27094E-01
 -1      1965 1.73255E-01
 -1      1966 1.97669E-01
 -1      1967 1.84177E-01
 -1      1968 1.36323E-01
 -1      1969 1.56245E-01
 -1      1970 1.47109E-01
 -1      1971 1.06207E-01
 -1      1972 1.22356E-01
 -1      1973 1.16133E-01
 -1      1974 8.23473E-02
 -1      1975 9.50750E-02
 -1      1976 9.10341E-02
 -1      1977 6.39777E-02
 -1      1978 7.36672E-02
 -1      1979 7.12219E-02
 -1      1980 5.04898E-02
 -1      1981 5.75132E-02
 -1      1982 5.60774E-02
 -1      1983 4.13098E-02
 -1      1984 4.60038E-02
 -1      1985 4.51269E-02
 -1      1986 3.59854E-02
 -1      1987 3.85825E-02
 -1      1988 3.79137E-02
 -1      1989 3.76361E-02
 -1      1990 3.52211E-02
 -1      1991 3.44222E-02
 -1      1992 4.34737E-02
 -1      1993 3.94589E-02
 -1      1994 3.54806E-02
 -1      1995 5.21611E-02
 -1      1996 4.67265E-02
 -1      1997 4.05561E-02
 -1      1998 6.52144E-02
 -1      1999 5.86172E-02
 -1      2000 5.02650E-02
 -1      2001 8.20945E-02
 -1      2002 7.37750E-02
 -1      2003 6.52818E-02
 -1      2004 1.04251E-01
 -1      2005 9.25939E-02
 -1      2006 8.43418E-02
 -1      2007 1.36499E-01
 -1      2008 1.20863E-01
 -1      2009 1.11453E-01
 -1      2010 1.77214E-01
 -1      2011 1.59810E-01
 -1      2012 1.51375E-01
 -1      2013 2.22621E-01
 -1      2014 2.04655E-01
 -1      2015 2.02127E-01
 -1      2016 2.70978E-01
 -1      2017 2.53010E-01
 -1      2018 2.59957E-01
 -1      2019 3.23205E-01
 -1      2020 3.01788E-01
 -1      2021 3.21155E-01
 -1      2022 3.66374E-01
 -1      2023 3.50057E-01
 -1      2024 3.78817E-01
 -1      2025 4.07710E-01
 -1      2026 3.94517E-01
 -1      2027 4.33811E-01
 -1      2028 4.65464E-01
 -1      2029 4.22075E-01
 -1      2030 4.76319E-01
 -1      2031 5.11796E-01
 -1      2032 4.65464E-01
 -1      2033 4.90684E-01
 -1      2034 5.56424E-01
 -1      2035 4.99361E-01
 -1      2036 4.78250E-01
 -1      2037 6.14549E-01
 -1      2038 5.42660E-01
 -1      2039 4.52051E-01
 -1      2040 8.18124E-01
 -1      2041 6.75841E-01
 -1      2042 4.99579E-01
 -1      2043 1.09882E+00
 -1      2044 9.96799E-01
 -1      2045 7.39546E-01
 -1      2046 1.47730E+00
 -1      2047 1.36374E+00
 -1      2048 1.18314E+00
 -1      2049 2.01081E+00
 -1      2050 1.80027E+00
 -1      2051 1.77102E+00
 -1      2052 2.51731E+00
 -1      2053 2.24289E+00
 -1      2054 2.32606E+00
 -1      2055 2.97474E+00
 -1      2056 2.57700E+00
 -1      2057 2.61782E+00
 -1      2058 3.35875E+00
 -1      2059 2.97474E+00
 -1      2060 2.67751E+00
 -1      2061 3.31547E+00
 -1      2062 3.24219E+00
 -1      2063 2.56095E+00
 -1      2064 3.58840E+00
 -1      2065 3.41468E+00
 -1      2066 2.54360E+00
 -1      2067 3.17734E+00
 -1      2068 3.50575E+00
 -1      2069 2.56015E+00
 -1      2070 2.17209E+00
 -1      2071 2.84637E+00
 -1      2072 2.14653E+00
 -1      2073 1.32060E+00
 -1      2074 1.80172E+00
 -1      2075 1.44519E+00
 -1      2076 7.90335E-01
 -1      2077 2.44140E+00
 -1      2078 1.82893E+00
 -1      2079 1.43261E+00
 -1      2080 1.01657E+00
 -1      2081 1.80862E+00
 -1      2082 8.42691E-01
 -1      2083 7.85198E-01
 -1      2084 1.06969E+00
 -1      2085 1.23842E+00
 -1      2086 3.80895E+00
 -1      2087 3.10068E+00
 -1      2088 2.86422E+00
 -1      2089 4.60630E+00
 -1      2090 4.33251E+00
 -1      2091 4.04706E+00
 -1      2092 5.45090E+00
 -1      2093 5.45090E+00
 -1      2094 5.41521E+00
 -1      2095 7.40136E+00
 -1      2096 6.97613E+00
 -1      2097 7.78505E+00
 -1      2098 1.12023E+01
 -1      2099 9.15671E+00
 -1      2100 1.10656E+01
 -1      2101 1.12023E+01
 -1      2102 1.12023E+01
 -1      2103 1.28210E+01
 -1      2104 8.89858E+00
 -1      2105 1.08502E+01
 -1      2106 7.09813E+00
 -1      2107 7.62318E+00
 -1      2108 5.46813E+00
 -1      2109 5.51467E+00
 -1      2110 7.98256E+00
 -1      2111 4.47941E+00
 -1      2112 4.83094E+00
 -1      2113 5.76191E+00
 -1      2114 3.54235E+01
 -1      2115 3.24305E+01
 -1      2116 3.42068E+01
 -1      2117 3.42068E+01
 -1      2118 3.30478E+01
 -1      2119 3.06088E+01
 -1      2120 1.66308E+01
 -1      2121 2.96180E+01
 -1      2122 1.89666E+01
 -1      2123 1.07804E+01
 -1      2124 2.59295E+01
 -1      2125 2.34272E+01
 -1      2126 9.49383E+00
 -1      2127 1.36264E+01
 -1      2128 1.03804E+00
 -1      2129 1.21349E+00
 -1      2130 9.82819E-01
 -1      2131 8.55061E-01
 -1      2132 1.14756E+01
 -1      2133 1.15751E+01
 -1      2134 1.19045E+01
 -1      2135 1.16346E+01
 -1      2136 1.11147E+01
 -1      2137 1.22033E+01
 -1      2138 1.17032E+01
 -1      2139 9.99300E+00
 -1      2140 1.07893E+01
 -1      2141 9.73559E+00
 -1      2142 9.73208E+00
 -1      2143 7.78202E+00
 -1      2144 2.34272E+01
 -1      2145 2.67191E+01
 -1      2146 2.82138E+01
 -1      2147 2.82138E+01
 -1      2148 2.59618E+01
 -1      2149 2.82138E+01
 -1      2150 2.49473E+01
 -1      2151 2.25492E+01
 -1      2152 2.49394E+01
 -1      2153 2.33639E+01
 -1      2154 2.37540E+01
 -1      2155 1.19564E+01
 -1      2156 1.94901E+01
 -1      2157 9.56724E+00
 -1      2158 9.53477E+00
 -1      2159 1.11735E+01
 -1      2160 1.09988E+01
 -1      2161 1.20646E+01
 -1      2162 1.24715E+01
 -1      2163 1.18708E+01
 -1      2164 1.17241E+01
 -1      2165 1.15565E+01
 -1      2166 1.14562E+01
 -1      2167 9.73132E+00
 -1      2168 1.02964E+01
 -1      2169 1.63685E+01
 -1      2170 1.05919E+01
 -1      2171 8.83828E+00
 -1      2172 3.21344E+01
 -1      2173 1.97896E+01
 -1      2174 2.90410E+01
 -1      2175 3.83844E+01
 -1      2176 3.10808E+01
 -1      2177 2.84978E+01
 -1      2178 1.01238E+01
 -1      2179 9.44216E+00
 -1      2180 1.47976E+01
 -1      2181 3.06088E+01
 -1      2182 2.18840E+01
 -1      2183 2.91023E+00
 -1      2184 2.10436E+00
 -1      2185 2.63935E+01
 -1      2186 1.24689E+01
 -1      2187 1.08414E+01
 -1      2188 1.99706E+01
 -1      2189 3.37422E+00
 -1      2190 3.78157E+00
 -1      2191 4.42689E+00
 -1      2192 3.82738E+00
 -1      2193 3.10808E+01
 -1      2194 8.56590E+00
 -1      2195 9.50436E+00
 -1      2196 2.84978E+01
 -1      2197 1.31199E+01
 -1      2198 9.23793E+00
 -1      2199 2.37834E+01
 -1      2200 1.09127E+01
 -1      2201 1.11608E+01
 -1      2202 1.16679E+01
 -1      2203 1.07104E+01
 -1      2204 7.98072E+00
 -1      2205 8.97079E+00
 -1      2206 2.03336E+01
 -1      2207 2.83520E+01
 -1      2208 8.10469E+00
 -1      2209 2.60677E+01
 -1      2210 1.10723E+01
 -1      2211 1.11320E+01
 -1      2212 9.79958E+00
 -1      2213 8.38561E+00
 -1      2214 1.52663E+01
 -1      2215 2.27910E+01
 -1      2216 1.08857E+00
 -1      2217 1.48042E+00
 -1      2218 5.58960E-01
 -1      2219 5.90156E-01
 -1      2220 6.02556E-01
 -1      2221 6.51320E-01
 -1      2222 4.98582E-01
 -1      2223 5.11182E-01
 -1      2224 5.09548E-01
 -1      2225 5.46027E-01
 -1      2226 5.24161E-01
 -1      2227 4.44554E-01
 -1      2228 5.94235E-01
 -1      2229 5.60830E-01
 -1      2230 4.72334E-01
 -1      2231 6.54030E-01
 -1      2232 6.06392E-01
 -1      2233 4.99294E-01
 -1      2234 7.21754E-01
 -1      2235 6.54030E-01
 -1      2236 5.11451E-01
 -1      2237 8.85008E-01
 -1      2238 7.70835E-01
 -1      2239 5.60532E-01
 -1      2240 1.26562E+00
 -1      2241 1.03467E+00
 -1      2242 8.90413E-01
 -1      2243 1.01022E+00
 -1      2244 9.68762E-01
 -1      2245 1.67689E+00
 -1      2246 1.30109E+00
 -1      2247 8.38143E-01
 -1      2248 9.60395E-01
 -1      2249 3.10808E+01
 -1      2250 2.79547E+01
 -1      2251 9.84249E-01
 -1      2252 8.03989E-01
 -1      2253 7.52256E-01
 -1      2254 7.46952E-01
 -1      2255 6.21302E-01
 -1      2256 6.44803E-01
 -1      2257 5.65041E-01
 -1      2258 5.06473E-01
 -1      2259 5.31505E-01
 -1      2260 4.57050E-01
 -1      2261 4.08380E-01
 -1      2262 4.25821E-01
 -1      2263 3.81018E-01
 -1      2264 3.38084E-01
 -1      2265 3.49035E-01
 -1      2266 3.12916E-01
 -1      2267 2.80038E-01
 -1      2268 2.96504E-01
 -1      2269 2.56200E-01
 -1      2270 2.28397E-01
 -1      2271 2.47498E-01
 -1      2272 2.09058E-01
 -1      2273 1.85132E-01
 -1      2274 2.04322E-01
 -1      2275 1.68176E-01
 -1      2276 1.50436E-01
 -1      2277 1.68028E-01
 -1      2278 1.35663E-01
 -1      2279 1.20886E-01
 -1      2280 1.36300E-01
 -1      2281 1.08434E-01
 -1      2282 9.60517E-02
 -1      2283 1.09075E-01
 -1      2284 8.66499E-02
 -1      2285 7.65631E-02
 -1      2286 8.72218E-02
 -1      2287 6.87979E-02
 -1      2288 6.07923E-02
 -1      2289 7.00547E-02
 -1      2290 5.43561E-02
 -1      2291 4.81554E-02
 -1      2292 5.58532E-02
 -1      2293 4.28578E-02
 -1      2294 3.81530E-02
 -1      2295 4.41194E-02
 -1      2296 3.39467E-02
 -1      2297 3.04090E-02
 -1      2298 3.46154E-02
 -1      2299 2.85951E-02
 -1      2300 2.91256E-02
 -1      2301 2.85951E-02
 -1      2302 2.94965E-02
 -1      2303 3.12703E-02
 -1      2304 2.71521E-02
 -1      2305 3.48988E-02
 -1      2306 4.01092E-02
 -1      2307 3.11516E-02
 -1      2308 4.62785E-02
 -1      2309 5.36509E-02
 -1      2310 4.09494E-02
 -1      2311 6.63519E-02
 -1      2312 7.75419E-02
 -1      2313 5.98196E-02
 -1      2314 9.46398E-02
 -1      2315 1.12629E-01
 -1      2316 8.96185E-02
 -1      2317 1.35488E-01
 -1      2318 1.62678E-01
 -1      2319 1.29576E-01
 -1      2320 1.92936E-01
 -1      2321 2.29547E-01
 -1      2322 1.82693E-01
 -1      2323 2.69128E-01
 -1      2324 3.17598E-01
 -1      2325 2.52532E-01
 -1      2326 3.68685E-01
 -1      2327 4.31608E-01
 -1      2328 3.43200E-01
 -1      2329 4.96529E-01
 -1      2330 5.76229E-01
 -1      2331 4.59207E-01
 -1      2332 6.57187E-01
 -1      2333 7.54806E-01
 -1      2334 6.05086E-01
 -1      2335 8.53339E-01
 -1      2336 9.67148E-01
 -1      2337 7.84578E-01
 -1      2338 1.08315E+00
 -1      2339 1.20579E+00
 -1      2340 9.99116E-01
 -1      2341 1.33592E+00
 -1      2342 1.45059E+00
 -1      2343 1.24525E+00
 -1      2344 1.58599E+00
 -1      2345 1.68182E+00
 -1      2346 1.51078E+00
 -1      2347 1.80605E+00
 -1      2348 1.91657E+00
 -1      2349 1.77040E+00
 -1      2350 2.06982E+00
 -1      2351 2.11092E+00
 -1      2352 2.04787E+00
 -1      2353 2.40499E+00
 -1      2354 2.44591E+00
 -1      2355 2.49519E+00
 -1      2356 2.83059E+00
 -1      2357 2.98801E+00
 -1      2358 3.17393E+00
 -1      2359 3.53149E+00
 -1      2360 3.76715E+00
 -1      2361 4.10209E+00
 -1      2362 3.31674E+00
 -1      2363 4.14019E+00
 -1      2364 4.19516E+00
 -1      2365 4.70952E+00
 -1      2366 5.54491E+00
 -1      2367 4.31408E+00
 -1      2368 6.65361E+00
 -1      2369 7.10082E+00
 -1      2370 5.99212E+00
 -1      2371 7.10082E+00
 -1      2372 6.67127E+00
 -1      2373 7.10082E+00
 -1      2374 6.23183E+00
 -1      2375 5.92697E+00
 -1      2376 6.66138E+00
 -1      2377 5.24466E+00
 -1      2378 4.85733E+00
 -1      2379 5.53963E+00
 -1      2380 5.43757E-01
 -1      2381 6.23257E-01
 -1      2382 4.36747E-01
 -1      2383 4.90252E-01
 -1      2384 4.90252E-01
 -1      2385 3.69923E-01
 -1      2386 4.03335E-01
 -1      2387 4.03335E-01
 -1      2388 3.05794E-01
 -1      2389 3.37858E-01
 -1      2390 3.37858E-01
 -1      2391 2.49953E-01
 -1      2392 2.77874E-01
 -1      2393 2.77874E-01
 -1      2394 2.04624E-01
 -1      2395 2.27482E-01
 -1      2396 2.27482E-01
 -1      2397 1.64802E-01
 -1      2398 1.84861E-01
 -1      2399 1.85249E-01
 -1      2400 1.30892E-01
 -1      2401 1.47901E-01
 -1      2402 1.48585E-01
 -1      2403 1.04332E-01
 -1      2404 1.18298E-01
 -1      2405 1.19090E-01
 -1      2406 8.26667E-02
 -1      2407 9.37989E-02
 -1      2408 9.59642E-02
 -1      2409 6.52263E-02
 -1      2410 7.39063E-02
 -1      2411 7.66712E-02
 -1      2412 5.16297E-02
 -1      2413 5.80942E-02
 -1      2414 6.07786E-02
 -1      2415 4.14141E-02
 -1      2416 4.59001E-02
 -1      2417 4.79169E-02
 -1      2418 3.40819E-02
 -1      2419 3.68091E-02
 -1      2420 3.75823E-02
 -1      2421 3.05934E-02
 -1      2422 3.13576E-02
 -1      2423 3.02531E-02
 -1      2424 3.21903E-02
 -1      2425 3.03675E-02
 -1      2426 2.73030E-02
 -1      2427 3.87252E-02
 -1      2428 3.54725E-02
 -1      2429 3.03593E-02
 -1      2430 5.00649E-02
 -1      2431 4.36088E-02
 -1      2432 3.85252E-02
 -1      2433 6.65899E-02
 -1      2434 5.80292E-02
 -1      2435 5.13730E-02
 -1      2436 9.03690E-02
 -1      2437 7.98696E-02
 -1      2438 7.26170E-02
 -1      2439 1.23703E-01
 -1      2440 1.07091E-01
 -1      2441 1.02619E-01
 -1      2442 1.67430E-01
 -1      2443 1.44119E-01
 -1      2444 1.39757E-01
 -1      2445 2.18831E-01
 -1      2446 1.91390E-01
 -1      2447 1.84134E-01
 -1      2448 2.75905E-01
 -1      2449 2.45516E-01
 -1      2450 2.34779E-01
 -1      2451 3.34301E-01
 -1      2452 3.03492E-01
 -1      2453 2.89051E-01
 -1      2454 3.86425E-01
 -1      2455 3.59573E-01
 -1      2456 3.41910E-01
 -1      2457 4.42148E-01
 -1      2458 4.14005E-01
 -1      2459 3.94762E-01
 -1      2460 4.76319E-01
 -1      2461 4.61954E-01
 -1      2462 4.42148E-01
 -1      2463 4.90684E-01
 -1      2464 4.90684E-01
 -1      2465 4.76319E-01
 -1      2466 4.65815E-01
 -1      2467 4.78250E-01
 -1      2468 4.78250E-01
 -1      2469 4.22500E-01
 -1      2470 4.36264E-01
 -1      2471 4.36264E-01
 -1      2472 5.29859E-01
 -1      2473 4.68567E-01
 -1      2474 4.52780E-01
 -1      2475 8.12650E-01
 -1      2476 6.33974E-01
 -1      2477 6.02962E-01
 -1      2478 1.30583E+00
 -1      2479 1.04091E+00
 -1      2480 9.35341E-01
 -1      2481 1.92064E+00
 -1      2482 1.59768E+00
 -1      2483 1.45545E+00
 -1      2484 2.37585E+00
 -1      2485 2.14378E+00
 -1      2486 1.97043E+00
 -1      2487 2.61782E+00
 -1      2488 2.55813E+00
 -1      2489 2.37585E+00
 -1      2490 2.67751E+00
 -1      2491 2.67751E+00
 -1      2492 2.61782E+00
 -1      2493 2.44439E+00
 -1      2494 2.56095E+00
 -1      2495 2.56095E+00
 -1      2496 2.48732E+00
 -1      2497 2.38811E+00
 -1      2498 2.38811E+00
 -1      2499 2.38686E+00
 -1      2500 2.46951E+00
 -1      2501 2.31402E+00
 -1      2502 2.01149E+00
 -1      2503 2.34246E+00
 -1      2504 2.25181E+00
 -1      2505 1.44006E+00
 -1      2506 4.16047E+00
 -1      2507 3.63691E+00
 -1      2508 5.41521E+00
 -1      2509 4.57061E+00
 -1      2510 4.16047E+00
 -1      2511 2.20618E+00
 -1      2512 1.80986E+00
 -1      2513 3.17623E+00
 -1      2514 2.51695E+00
 -1      2515 2.51819E+00
 -1      2516 3.28965E+00
 -1      2517 5.73124E+00
 -1      2518 6.36842E+00
 -1      2519 1.03518E+01
 -1      2520 8.82657E+00
 -1      2521 7.98197E+00
 -1      2522 1.21072E+01
 -1      2523 1.03518E+01
 -1      2524 1.50555E+01
 -1      2525 1.63309E+01
 -1      2526 1.36162E+01
 -1      2527 1.94216E+01
 -1      2528 9.49128E+00
 -1      2529 1.10747E+01
 -1      2530 1.65642E+01
 -1      2531 9.46060E+00
 -1      2532 7.02757E-01
 -1      2533 7.96585E-01
 -1      2534 6.23257E-01
 -1      2535 1.95562E+01
 -1      2536 1.76568E+01
 -1      2537 7.98121E+00
 -1      2538 6.93640E+00
 -1      2539 7.19373E+00
 -1      2540 8.45393E+00
 -1      2541 2.83520E+01
 -1      2542 2.83520E+01
 -1      2543 8.29879E+00
 -1      2544 6.84745E+00
 -1      2545 2.22106E+01
 -1      2546 2.28279E+01
 -1      2547 2.70108E+01
 -1      2548 3.06088E+01
 -1      2549 2.74827E+01
 -1      2550 2.28279E+01
 -1      2551 1.04289E+01
 -1      2552 1.07694E+01
 -1      2553 5.22408E-01
 -1      2554 5.44516E-01
 -1      2555 4.71739E-01
 -1      2556 4.44435E-01
 -1      2557 9.55962E+00
 -1      2558 9.40066E+00
 -1      2559 1.04329E+01
 -1      2560 1.43068E+01
 -1      2561 5.76722E+00
 -1      2562 6.02815E+00
 -1      2563 9.65170E+00
 -1      2564 1.00663E+01
 -1      2565 9.16782E+00
 -1      2566 7.60750E+00
 -1      2567 9.71258E+00
 -1      2568 9.91396E+00
 -1      2569 2.42498E+01
 -1      2570 2.47929E+01
 -1      2571 6.12202E+00
 -1      2572 6.17369E+00
 -1      2573 2.15269E+01
 -1      2574 2.49394E+01
 -1      2575 1.72770E+01
 -1      2576 1.84703E+01
 -1      2577 5.87928E+00
 -1      2578 8.30096E+00
 -1      2579 7.07385E+00
 -1      2580 5.64224E+00
 -1      2581 9.35473E+00
 -1      2582 8.05669E+00
 -1      2583 5.71822E+00
 -1      2584 7.83854E+00
 -1      2585 1.08429E+01
 -1      2586 2.37834E+01
 -1      2587 2.37834E+01
 -1      2588 7.11994E+00
 -1      2589 6.25940E+00
 -1      2590 1.19891E+01
 -1      2591 8.56806E+00
 -1      2592 5.98917E+00
 -1      2593 2.62127E+01
 -1      2594 2.39284E+01
 -1      2595 2.39284E+01
 -1      2596 1.62073E+00
 -1      2597 1.76403E+00
 -1      2598 1.32852E+00
 -1      2599 1.18742E+00
 -1      2600 1.53340E+01
 -1      2601 1.01471E+01
 -1      2602 6.74375E+00
 -1      2603 6.15563E-01
 -1      2604 7.55902E-01
 -1      2605 8.19304E-01
 -1      2606 1.30062E+01
 -1      2607 8.92607E+00
 -1      2608 7.76777E+00
 -1      2609 7.85477E+00
 -1      2610 1.24407E+00
 -1      2611 8.96038E-01
 -1      2612 4.85733E+00
 -1      2613 4.39151E+00
 -1      2614 4.29319E+00
 -1      2615 4.85733E+00
 -1      2616 1.63598E+00
 -1      2617 7.96585E-01
 -1      2618 1.80986E+00
 -1      2619 1.57330E+01
 -1      2620 1.50192E+01
 -1      2621 2.42498E+01
 -1      2622 2.00358E+01
 -1      2623 1.57330E+01
 -1      2624 8.11570E+00
 -1      2625 8.51756E+00
 -1      2626 4.97241E+00
 -1      2627 1.02939E+01
 -1      2628 1.95562E+01
 -1      2629 1.42422E+01
 -1      2630 1.23790E+01
 -1      2631 9.40874E+00
 -1      2632 5.18253E+00
 -1      2633 4.99102E+00
 -1      2634 1.84703E+01
 -1      2635 4.91646E+00
 -1      2636 8.19995E+00
 -1      2637 5.59754E+00
 -1      2638 2.62127E+01
 -1      2639 2.49394E+01
 -1      2640 5.47539E+00
 -1      2641 2.20741E+00
 -1      2642 2.03878E+01
 -1      2643 7.34140E+00
 -1      2644 6.37081E+00
 -1      2645 9.68672E-01
 -1      2646 5.85588E+00
 -1      2647 2.09195E+01
 -1      2648 1.46695E+01
 -1      2649 1.01177E+01
 -1      2650 4.22765E-01
 -1      2651 4.07963E-01
 -1      2652 4.00094E-01
 -1      2653 3.87116E-01
 -1      2654 3.50525E-01
 -1      2655 4.36655E-01
 -1      2656 4.36655E-01
 -1      2657 4.73954E-01
 -1      2658 4.24873E-01
 -1      2659 3.50076E-01
 -1      2660 7.17053E-01
 -1      2661 7.95403E-01
 -1      2662 5.59754E+00
 -1      2663 6.05076E-01
 -1      2664 5.54659E-01
 -1      2665 5.49299E-01
 -1      2666 4.92262E-01
 -1      2667 4.02119E-01
 -1      2668 4.85385E-01
 -1      2669 4.29124E-01
 -1      2670 3.89882E-01
 -1      2671 4.08687E-01
 -1      2672 3.59264E-01
 -1      2673 3.62568E-01
 -1      2674 3.34404E-01
 -1      2675 3.07041E-01
 -1      2676 3.17270E-01
 -1      2677 2.82150E-01
 -1      2678 2.56982E-01
 -1      2679 2.67520E-01
 -1      2680 2.41396E-01
 -1      2681 2.17558E-01
 -1      2682 2.27042E-01
 -1      2683 2.01274E-01
 -1      2684 1.81935E-01
 -1      2685 1.95172E-01
 -1      2686 1.66424E-01
 -1      2687 1.49469E-01
 -1      2688 1.63376E-01
 -1      2689 1.35509E-01
 -1      2690 1.20736E-01
 -1      2691 1.33905E-01
 -1      2692 1.09069E-01
 -1      2693 9.66175E-02
 -1      2694 1.08278E-01
 -1      2695 8.72423E-02
 -1      2696 7.78405E-02
 -1      2697 8.72362E-02
 -1      2698 7.00547E-02
 -1      2699 6.22894E-02
 -1      2700 7.00752E-02
 -1      2701 5.58532E-02
 -1      2702 4.94170E-02
 -1      2703 5.58532E-02
 -1      2704 4.41194E-02
 -1      2705 3.88217E-02
 -1      2706 4.41194E-02
 -1      2707 3.44487E-02
 -1      2708 3.02423E-02
 -1      2709 3.44487E-02
 -1      2710 2.70750E-02
 -1      2711 2.52611E-02
 -1      2712 2.69083E-02
 -1      2713 2.32150E-02
 -1      2714 2.35860E-02
 -1      2715 2.16949E-02
 -1      2716 2.56957E-02
 -1      2717 2.93243E-02
 -1      2718 2.17586E-02
 -1      2719 3.60855E-02
 -1      2720 4.22548E-02
 -1      2721 3.06297E-02
 -1      2722 5.25859E-02
 -1      2723 6.52868E-02
 -1      2724 4.77220E-02
 -1      2725 7.87775E-02
 -1      2726 9.58754E-02
 -1      2727 7.15438E-02
 -1      2728 1.13499E-01
 -1      2729 1.36358E-01
 -1      2730 1.02658E-01
 -1      2731 1.59266E-01
 -1      2732 1.89524E-01
 -1      2733 1.43189E-01
 -1      2734 2.19079E-01
 -1      2735 2.58660E-01
 -1      2736 1.95652E-01
 -1      2737 2.96482E-01
 -1      2738 3.47569E-01
 -1      2739 2.63029E-01
 -1      2740 3.95611E-01
 -1      2741 4.60531E-01
 -1      2742 3.48893E-01
 -1      2743 5.24128E-01
 -1      2744 6.05086E-01
 -1      2745 4.60531E-01
 -1      2746 6.89771E-01
 -1      2747 7.88305E-01
 -1      2748 6.08813E-01
 -1      2749 8.96658E-01
 -1      2750 1.01266E+00
 -1      2751 8.01852E-01
 -1      2752 1.14452E+00
 -1      2753 1.27465E+00
 -1      2754 1.04207E+00
 -1      2755 1.43295E+00
 -1      2756 1.56835E+00
 -1      2757 1.33223E+00
 -1      2758 1.77711E+00
 -1      2759 1.90133E+00
 -1      2760 1.69929E+00
 -1      2761 2.19122E+00
 -1      2762 2.34447E+00
 -1      2763 2.19793E+00
 -1      2764 2.72407E+00
 -1      2765 3.01813E+00
 -1      2766 2.86741E+00
 -1      2767 3.68825E+00
 -1      2768 4.07292E+00
 -1      2769 3.91712E+00
 -1      2770 4.40996E+00
 -1      2771 4.95344E+00
 -1      2772 4.92427E+00
 -1      2773 5.79224E+00
 -1      2774 6.90094E+00
 -1      2775 6.31583E+00
 -1      2776 5.63352E+00
 -1      2777 3.48230E-01
 -1      2778 3.81642E-01
 -1      2779 2.02879E+01
 -1      2780 2.01429E+01
 -1      2781 4.15916E-01
 -1      2782 4.69421E-01
 -1      2783 3.60810E-01
 -1      2784 2.40933E-01
 -1      2785 2.68854E-01
 -1      2786 1.99732E-01
 -1      2787 2.22203E-01
 -1      2788 2.13183E-01
 -1      2789 1.62910E-01
 -1      2790 1.82673E-01
 -1      2791 1.77393E-01
 -1      2792 1.31974E-01
 -1      2793 1.48875E-01
 -1      2794 1.46299E-01
 -1      2795 1.06925E-01
 -1      2796 1.19519E-01
 -1      2797 1.19808E-01
 -1      2798 8.57217E-02
 -1      2799 9.62543E-02
 -1      2800 9.66825E-02
 -1      2801 6.80625E-02
 -1      2802 7.68229E-02
 -1      2803 7.71130E-02
 -1      2804 5.37494E-02
 -1      2805 6.08815E-02
 -1      2806 6.10333E-02
 -1      2807 4.23011E-02
 -1      2808 4.80307E-02
 -1      2809 4.81336E-02
 -1      2810 3.29773E-02
 -1      2811 3.75823E-02
 -1      2812 3.76961E-02
 -1      2813 2.67639E-02
 -1      2814 2.94882E-02
 -1      2815 2.94882E-02
 -1      2816 2.41170E-02
 -1      2817 2.43429E-02
 -1      2818 2.35780E-02
 -1      2819 2.94195E-02
 -1      2820 2.61373E-02
 -1      2821 2.31772E-02
 -1      2822 3.78859E-02
 -1      2823 3.30023E-02
 -1      2824 2.87803E-02
 -1      2825 5.48811E-02
 -1      2826 4.69168E-02
 -1      2827 4.13940E-02
 -1      2828 7.95831E-02
 -1      2829 6.63034E-02
 -1      2830 6.18472E-02
 -1      2831 1.10605E-01
 -1      2832 9.38834E-02
 -1      2833 8.75698E-02
 -1      2834 1.48582E-01
 -1      2835 1.28166E-01
 -1      2836 1.19430E-01
 -1      2837 1.93527E-01
 -1      2838 1.69567E-01
 -1      2839 1.57975E-01
 -1      2840 2.44404E-01
 -1      2841 2.17718E-01
 -1      2842 2.03151E-01
 -1      2843 2.98561E-01
 -1      2844 2.70975E-01
 -1      2845 2.53914E-01
 -1      2846 3.51333E-01
 -1      2847 3.26061E-01
 -1      2848 3.07984E-01
 -1      2849 4.08377E-01
 -1      2850 3.80797E-01
 -1      2851 3.64947E-01
 -1      2852 4.51453E-01
 -1      2853 4.31647E-01
 -1      2854 4.17681E-01
 -1      2855 4.90113E-01
 -1      2856 4.75748E-01
 -1      2857 4.65247E-01
 -1      2858 5.00699E-01
 -1      2859 5.13134E-01
 -1      2860 5.12563E-01
 -1      2861 4.83961E-01
 -1      2862 5.13512E-01
 -1      2863 5.48397E-01
 -1      2864 5.85529E-01
 -1      2865 5.39462E-01
 -1      2866 6.16711E-01
 -1      2867 7.99745E-01
 -1      2868 6.95629E-01
 -1      2869 7.82311E-01
 -1      2870 1.12693E+00
 -1      2871 8.98670E-01
 -1      2872 9.91336E-01
 -1      2873 1.60684E+00
 -1      2874 1.31499E+00
 -1      2875 1.27832E+00
 -1      2876 2.03883E+00
 -1      2877 1.81569E+00
 -1      2878 1.67523E+00
 -1      2879 2.38301E+00
 -1      2880 2.20073E+00
 -1      2881 2.04598E+00
 -1      2882 2.67748E+00
 -1      2883 2.61779E+00
 -1      2884 2.44267E+00
 -1      2885 2.67063E+00
 -1      2886 2.78719E+00
 -1      2887 2.78716E+00
 -1      2888 2.39770E+00
 -1      2889 2.45398E+00
 -1      2890 2.68022E+00
 -1      2891 2.51423E+00
 -1      2892 2.53204E+00
 -1      2893 2.59791E+00
 -1      2894 2.33295E+00
 -1      2895 2.37735E+00
 -1      2896 2.59537E+00
 -1      2897 2.33295E+00
 -1      2898 6.08435E-01
 -1      2899 7.02263E-01
 -1      2900 5.28904E-01
 -1      2901 1.13933E+01
 -1      2902 1.99159E+01
 -1      2903 4.16047E+00
 -1      2904 3.75032E+00
 -1      2905 2.04765E+01
 -1      2906 1.83372E+01
 -1      2907 8.31558E+00
 -1      2908 4.80940E+00
 -1      2909 4.69919E+00
 -1      2910 4.41848E+00
 -1      2911 4.34446E+00
 -1      2912 4.58150E+00
 -1      2913 3.84915E+00
 -1      2914 5.78182E+00
 -1      2915 7.91376E+00
 -1      2916 5.15387E+00
 -1      2917 7.96879E-01
 -1      2918 1.58561E+01
 -1      2919 1.80946E+01
 -1      2920 1.38674E+01
 -1      2921 1.44541E+01
 -1      2922 5.03281E-01
 -1      2923 5.82781E-01
 -1      2924 4.88460E-01
 -1      2925 4.28945E-01
 -1      2926 7.26857E+00
 -1      2927 6.91423E+00
 -1      2928 2.88832E-01
 -1      2929 3.20897E-01
 -1      2930 2.99204E-01
 -1      2931 2.51892E-01
 -1      2932 8.63887E+00
 -1      2933 6.47302E+00
 -1      2934 1.26085E+01
 -1      2935 1.02857E+01
 -1      2936 4.36655E-01
 -1      2937 4.24497E-01
 -1      2938 3.60126E-01
 -1      2939 3.61858E-01
 -1      2940 1.37059E+01
 -1      2941 1.67624E+01
 -1      2942 7.51361E+00
 -1      2943 5.03255E+00
 -1      2944 3.86337E+00
 -1      2945 4.23822E-01
 -1      2946 4.36221E-01
 -1      2947 8.28362E-01
 -1      2948 4.10132E+00
 -1      2949 6.45878E+00
 -1      2950 1.66715E+01
 -1      2951 5.43940E+00
 -1      2952 1.91162E+01
 -1      2953 2.25288E+01
 -1      2954 1.43518E+01
 -1      2955 6.34941E+00
 -1      2956 5.24755E+00
 -1      2957 4.63135E-01
 -1      2958 5.67717E-01
 -1      2959 3.88375E-01
 -1      2960 3.42274E-01
 -1      2961 3.86734E-01
 -1      2962 3.99593E-01
 -1      2963 5.58528E+00
 -1      2964 3.91983E+00
 -1      2965 5.58468E+00
 -1      2966 6.31486E+00
 -1      2967 7.10137E+00
 -1      2968 5.81565E+00
 -1      2969 1.44241E+01
 -1      2970 2.02473E+01
 -1      2971 1.23718E+01
 -1      2972 4.37896E+00
 -1      2973 4.77329E+00
 -1      2974 4.04787E+00
 -1      2975 5.49987E+00
 -1      2976 5.04946E+00
 -1      2977 7.84916E+00
 -1      2978 8.31558E+00
 -1      2979 7.95305E+00
 -1      2980 5.15386E+00
 -1      2981 5.41803E+00
 -1      2982 2.45130E+00
 -1      2983 2.57683E+00
 -1      2984 2.76207E+00
 -1      2985 3.77667E+00
 -1      2986 1.45517E+01
 -1      2987 5.84139E-01
 -1      2988 6.60873E-01
 -1      2989 6.25403E-01
 -1      2990 4.31711E-01
 -1      2991 3.95134E+00
 -1      2992 1.11469E+01
 -1      2993 3.42739E+00
 -1      2994 2.96671E+00
 -1      2995 2.89982E+00
 -1      2996 3.42739E+00
 -1      2997 8.24119E+00
 -1      2998 4.07330E-01
 -1      2999 4.21774E-01
 -1      3000 3.59414E-01
 -1      3001 3.49629E-01
 -1      3002 5.76654E-01
 -1      3003 4.40994E-01
 -1      3004 4.27806E-01
 -1      3005 6.88752E+00
 -1      3006 5.80774E+00
 -1      3007 9.56791E+00
 -1      3008 1.15237E+01
 -1      3009 9.81580E+00
 -1      3010 8.48890E+00
 -1      3011 2.91964E-01
 -1      3012 3.03745E-01
 -1      3013 1.14829E+01
 -1      3014 1.34336E+01
 -1      3015 3.14622E-01
 -1      3016 3.07745E-01
 -1      3017 3.18726E-01
 -1      3018 2.98288E-01
 -1      3019 2.43466E-01
 -1      3020 2.94881E-01
 -1      3021 2.70022E-01
 -1      3022 2.51040E-01
 -1      3023 2.59094E-01
 -1      3024 2.34203E-01
 -1      3025 2.36705E-01
 -1      3026 2.20004E-01
 -1      3027 2.04417E-01
 -1      3028 2.11577E-01
 -1      3029 1.91140E-01
 -1      3030 1.74856E-01
 -1      3031 1.84101E-01
 -1      3032 1.64240E-01
 -1      3033 1.48729E-01
 -1      3034 1.60208E-01
 -1      3035 1.37593E-01
 -1      3036 1.23634E-01
 -1      3037 1.38458E-01
 -1      3038 1.12927E-01
 -1      3039 1.01260E-01
 -1      3040 1.16615E-01
 -1      3041 9.15101E-02
 -1      3042 8.21349E-02
 -1      3043 9.61585E-02
 -1      3044 7.35702E-02
 -1      3045 6.57844E-02
 -1      3046 7.78440E-02
 -1      3047 5.84275E-02
 -1      3048 5.19914E-02
 -1      3049 6.19225E-02
 -1      3050 4.57325E-02
 -1      3051 4.04348E-02
 -1      3052 4.83068E-02
 -1      3053 3.50753E-02
 -1      3054 3.07023E-02
 -1      3055 3.66885E-02
 -1      3056 2.59763E-02
 -1      3057 2.28090E-02
 -1      3058 2.66029E-02
 -1      3059 1.87744E-02
 -1      3060 1.67283E-02
 -1      3061 1.78423E-02
 -1      3062 1.65550E-02
 -1      3063 1.86648E-02
 -1      3064 1.36344E-02
 -1      3065 2.44011E-02
 -1      3066 3.11624E-02
 -1      3067 1.91975E-02
 -1      3068 3.97721E-02
 -1      3069 5.01031E-02
 -1      3070 3.35434E-02
 -1      3071 6.14392E-02
 -1      3072 7.49299E-02
 -1      3073 5.34892E-02
 -1      3074 8.99250E-02
 -1      3075 1.07548E-01
 -1      3076 7.98204E-02
 -1      3077 1.28452E-01
 -1      3078 1.51360E-01
 -1      3079 1.15720E-01
 -1      3080 1.79393E-01
 -1      3081 2.08949E-01
 -1      3082 1.64657E-01
 -1      3083 2.46061E-01
 -1      3084 2.83883E-01
 -1      3085 2.29803E-01
 -1      3086 3.32666E-01
 -1      3087 3.80708E-01
 -1      3088 3.15698E-01
 -1      3089 4.44387E-01
 -1      3090 5.07983E-01
 -1      3091 4.28160E-01
 -1      3092 5.90544E-01
 -1      3093 6.75230E-01
 -1      3094 5.74400E-01
 -1      3095 7.81553E-01
 -1      3096 8.89906E-01
 -1      3097 7.63284E-01
 -1      3098 1.02575E+00
 -1      3099 1.15761E+00
 -1      3100 1.00545E+00
 -1      3101 1.32894E+00
 -1      3102 1.48724E+00
 -1      3103 1.31262E+00
 -1      3104 1.70135E+00
 -1      3105 1.91010E+00
 -1      3106 1.69806E+00
 -1      3107 2.20767E+00
 -1      3108 2.49755E+00
 -1      3109 2.20973E+00
 -1      3110 2.97779E+00
 -1      3111 3.35739E+00
 -1      3112 2.98753E+00
 -1      3113 4.72031E+00
 -1      3114 5.39043E+00
 -1      3115 4.83069E+00
 -1      3116 6.11044E+00
 -1      3117 6.44747E+00
 -1      3118 1.61137E-01
 -1      3119 1.78196E-01
 -1      3120 1.91063E-01
 -1      3121 2.09793E-01
 -1      3122 1.74807E-01
 -1      3123 1.09707E-01
 -1      3124 1.22162E-01
 -1      3125 8.83138E-02
 -1      3126 9.89845E-02
 -1      3127 1.01338E-01
 -1      3128 7.01596E-02
 -1      3129 7.90584E-02
 -1      3130 8.13604E-02
 -1      3131 5.51539E-02
 -1      3132 6.23348E-02
 -1      3133 6.42803E-02
 -1      3134 4.28789E-02
 -1      3135 4.85976E-02
 -1      3136 4.98992E-02
 -1      3137 3.28068E-02
 -1      3138 3.75256E-02
 -1      3139 3.79896E-02
 -1      3140 2.53556E-02
 -1      3141 2.88447E-02
 -1      3142 2.86743E-02
 -1      3143 1.93576E-02
 -1      3144 2.17787E-02
 -1      3145 2.11353E-02
 -1      3146 2.03162E-02
 -1      3147 1.82959E-02
 -1      3148 1.64966E-02
 -1      3149 2.74381E-02
 -1      3150 2.38553E-02
 -1      3151 1.89740E-02
 -1      3152 4.38892E-02
 -1      3153 3.48583E-02
 -1      3154 2.99333E-02
 -1      3155 6.45489E-02
 -1      3156 5.31266E-02
 -1      3157 4.65909E-02
 -1      3158 9.04078E-02
 -1      3159 7.61076E-02
 -1      3160 6.73870E-02
 -1      3161 1.22354E-01
 -1      3162 1.04794E-01
 -1      3163 9.33322E-02
 -1      3164 1.61024E-01
 -1      3165 1.40039E-01
 -1      3166 1.25403E-01
 -1      3167 2.06565E-01
 -1      3168 1.82373E-01
 -1      3169 1.64438E-01
 -1      3170 2.59527E-01
 -1      3171 2.32956E-01
 -1      3172 2.12178E-01
 -1      3173 3.17409E-01
 -1      3174 2.89909E-01
 -1      3175 2.68951E-01
 -1      3176 3.80195E-01
 -1      3177 3.50731E-01
 -1      3178 3.32656E-01
 -1      3179 4.36707E-01
 -1      3180 4.13437E-01
 -1      3181 3.99221E-01
 -1      3182 4.91231E-01
 -1      3183 4.66936E-01
 -1      3184 4.62692E-01
 -1      3185 5.60612E-01
 -1      3186 5.37591E-01
 -1      3187 5.39280E-01
 -1      3188 6.29589E-01
 -1      3189 6.16776E-01
 -1      3190 6.41805E-01
 -1      3191 7.40713E-01
 -1      3192 6.85212E-01
 -1      3193 7.53592E-01
 -1      3194 9.35511E-01
 -1      3195 8.25411E-01
 -1      3196 8.93913E-01
 -1      3197 1.23011E+00
 -1      3198 1.13119E+00
 -1      3199 1.17429E+00
 -1      3200 1.51668E+00
 -1      3201 1.32862E+00
 -1      3202 1.46847E+00
 -1      3203 2.38740E+00
 -1      3204 2.17855E+00
 -1      3205 2.22885E+00
 -1      3206 2.95521E+00
 -1      3207 2.79331E+00
 -1      3208 3.29663E+00
 -1      3209 3.31486E+00
 -1      3210 3.08008E+00
 -1      3211 3.82741E+00
 -1      3212 4.05323E+00
 -1      3213 3.94352E+00
 -1      3214 4.58093E+00
 -1      3215 3.94733E+00
 -1      3216 4.16398E+00
 -1      3217 5.32033E+00
 -1      3218 2.96265E+00
 -1      3219 2.82830E+00
 -1      3220 4.31206E+00
 -1      3221 2.59537E+00
 -1      3222 2.73226E+00
 -1      3223 2.96265E+00
 -1      3224 2.71372E+00
 -1      3225 3.01818E-01
 -1      3226 2.96458E-01
 -1      3227 2.14320E-01
 -1      3228 9.45702E+00
 -1      3229 6.04567E+00
 -1      3230 1.30682E+01
 -1      3231 1.10199E+01
 -1      3232 9.99941E+00
 -1      3233 8.20910E+00
 -1      3234 6.56223E+00
 -1      3235 1.34198E-01
 -1      3236 1.48234E-01
 -1      3237 1.49037E-01
 -1      3238 1.24096E-01
 -1      3239 3.27299E-01
 -1      3240 3.06973E-01
 -1      3241 3.10878E-01
 -1      3242 4.69944E+00
 -1      3243 6.09542E+00
 -1      3244 3.05616E-01
 -1      3245 3.39890E-01
 -1      3246 5.39075E+00
 -1      3247 3.95029E+00
 -1      3248 5.24903E+00
 -1      3249 4.68421E+00
 -1      3250 4.12808E-01
 -1      3251 3.10108E-01
 -1      3252 2.63777E-01
 -1      3253 3.98018E-01
 -1      3254 3.23500E-01
 -1      3255 3.15631E-01
 -1      3256 1.22303E+01
 -1      3257 1.05780E+01
 -1      3258 1.29318E+01
 -1      3259 1.02745E+01
 -1      3260 9.01563E+00
 -1      3261 8.88863E+00
 -1      3262 3.83283E+00
 -1      3263 4.07078E+00
 -1      3264 3.12142E-01
 -1      3265 3.11760E-01
 -1      3266 2.85117E-01
 -1      3267 5.42902E+00
 -1      3268 5.35866E+00
 -1      3269 7.30273E+00
 -1      3270 5.53977E+00
 -1      3271 5.70697E+00
 -1      3272 4.97315E+00
 -1      3273 1.22934E+01
 -1      3274 1.00120E+01
 -1      3275 8.51967E+00
 -1      3276 4.37896E+00
 -1      3277 3.90470E+00
 -1      3278 8.39584E+00
 -1      3279 6.91363E+00
 -1      3280 2.01311E-01
 -1      3281 3.50872E-01
 -1      3282 3.76525E-01
 -1      3283 2.60429E-01
 -1      3284 2.01867E-01
 -1      3285 2.23987E-01
 -1      3286 2.43966E-01
 -1      3287 1.02865E+01
 -1      3288 1.05157E+01
 -1      3289 9.39757E+00
 -1      3290 4.58093E+00
 -1      3291 3.20454E-01
 -1      3292 3.20454E-01
 -1      3293 2.62342E-01
 -1      3294 7.33667E+00
 -1      3295 3.34217E-01
 -1      3296 3.68078E-01
 -1      3297 2.56144E-01
 -1      3298 2.79024E-01
 -1      3299 2.62384E-01
 -1      3300 2.89717E-01
 -1      3301 2.34478E-01
 -1      3302 3.25232E-01
 -1      3303 3.23500E-01
 -1      3304 2.88606E-01
 -1      3305 2.83829E-01
 -1      3306 2.68796E-01
 -1      3307 4.06972E+00
 -1      3308 4.20996E+00
 -1      3309 1.26908E+01
 -1      3310 2.81711E-01
 -1      3311 3.08625E-01
 -1      3312 2.04213E-01
 -1      3313 4.10962E+00
 -1      3314 3.02933E-01
 -1      3315 3.04980E-01
 -1      3316 2.25230E-01
 -1      3317 3.69948E+00
 -1      3318 3.82751E+00
 -1      3319 3.82751E+00
 -1      3320 1.22303E+01
 -1      3321 7.67583E+00
 -1      3322 2.14383E-01
 -1      3323 2.10975E-01
 -1      3324 2.14686E-01
 -1      3325 2.03758E-01
 -1      3326 1.78028E-01
 -1      3327 2.00158E-01
 -1      3328 1.85958E-01
 -1      3329 1.78139E-01
 -1      3330 1.78080E-01
 -1      3331 1.64802E-01
 -1      3332 1.66660E-01
 -1      3333 1.54973E-01
 -1      3334 1.44357E-01
 -1      3335 1.48951E-01
 -1      3336 1.36095E-01
 -1      3337 1.24960E-01
 -1      3338 1.30859E-01
 -1      3339 1.16754E-01
 -1      3340 1.06047E-01
 -1      3341 1.14392E-01
 -1      3342 9.77617E-02
 -1      3343 8.80120E-02
 -1      3344 9.79007E-02
 -1      3345 8.02005E-02
 -1      3346 7.16357E-02
 -1      3347 8.18037E-02
 -1      3348 6.45767E-02
 -1      3349 5.72199E-02
 -1      3350 6.69332E-02
 -1      3351 5.10005E-02
 -1      3352 4.47417E-02
 -1      3353 5.36548E-02
 -1      3354 3.93257E-02
 -1      3355 3.39663E-02
 -1      3356 4.20195E-02
 -1      3357 2.92204E-02
 -1      3358 2.44943E-02
 -1      3359 3.18576E-02
 -1      3360 2.03296E-02
 -1      3361 1.62951E-02
 -1      3362 2.29471E-02
 -1      3363 1.68996E-02
 -1      3364 1.67263E-02
 -1      3365 1.93870E-02
 -1      3366 1.88356E-02
 -1      3367 2.45719E-02
 -1      3368 2.21008E-02
 -1      3369 3.21471E-02
 -1      3370 4.07568E-02
 -1      3371 3.17852E-02
 -1      3372 5.08286E-02
 -1      3373 6.21647E-02
 -1      3374 4.94322E-02
 -1      3375 7.59841E-02
 -1      3376 9.09791E-02
 -1      3377 7.33234E-02
 -1      3378 1.09185E-01
 -1      3379 1.30089E-01
 -1      3380 1.05348E-01
 -1      3381 1.53962E-01
 -1      3382 1.81996E-01
 -1      3383 1.47427E-01
 -1      3384 2.13141E-01
 -1      3385 2.50253E-01
 -1      3386 2.02446E-01
 -1      3387 2.90724E-01
 -1      3388 3.39507E-01
 -1      3389 2.74062E-01
 -1      3390 3.92025E-01
 -1      3391 4.55703E-01
 -1      3392 3.67051E-01
 -1      3393 5.24053E-01
 -1      3394 6.06614E-01
 -1      3395 4.87918E-01
 -1      3396 6.96402E-01
 -1      3397 8.02725E-01
 -1      3398 6.46055E-01
 -1      3399 9.22913E-01
 -1      3400 1.05876E+00
 -1      3401 8.56031E-01
 -1      3402 1.22462E+00
 -1      3403 1.39595E+00
 -1      3404 1.14208E+00
 -1      3405 1.63268E+00
 -1      3406 1.84678E+00
 -1      3407 1.54467E+00
 -1      3408 2.20973E+00
 -1      3409 2.50729E+00
 -1      3410 2.14434E+00
 -1      3411 2.98753E+00
 -1      3412 3.46777E+00
 -1      3413 2.98753E+00
 -1      3414 3.88220E+00
 -1      3415 5.24512E+00
 -1      3416 6.72733E+00
 -1      3417 3.88220E+00
 -1      3418 2.02588E-01
 -1      3419 1.97433E-01
 -1      3420 2.15598E-01
 -1      3421 2.00336E-01
 -1      3422 7.58142E-02
 -1      3423 8.50696E-02
 -1      3424 9.37017E-02
 -1      3425 1.04424E-01
 -1      3426 8.81555E-02
 -1      3427 4.70106E-02
 -1      3428 5.35669E-02
 -1      3429 3.58493E-02
 -1      3430 4.12025E-02
 -1      3431 4.48703E-02
 -1      3432 2.68381E-02
 -1      3433 3.08002E-02
 -1      3434 3.40131E-02
 -1      3435 1.87363E-02
 -1      3436 2.23132E-02
 -1      3437 2.44391E-02
 -1      3438 1.59317E-02
 -1      3439 1.69934E-02
 -1      3440 1.81713E-02
 -1      3441 2.04190E-02
 -1      3442 1.68798E-02
 -1      3443 1.73766E-02
 -1      3444 3.42329E-02
 -1      3445 2.68128E-02
 -1      3446 2.47186E-02
 -1      3447 5.18134E-02
 -1      3448 4.25759E-02
 -1      3449 3.94554E-02
 -1      3450 7.43949E-02
 -1      3451 6.28363E-02
 -1      3452 5.88213E-02
 -1      3453 1.02524E-01
 -1      3454 8.81372E-02
 -1      3455 8.35865E-02
 -1      3456 1.36990E-01
 -1      3457 1.19305E-01
 -1      3458 1.14110E-01
 -1      3459 1.78248E-01
 -1      3460 1.56898E-01
 -1      3461 1.50800E-01
 -1      3462 2.27350E-01
 -1      3463 2.00959E-01
 -1      3464 1.93420E-01
 -1      3465 2.82248E-01
 -1      3466 2.51865E-01
 -1      3467 2.40646E-01
 -1      3468 3.44454E-01
 -1      3469 3.11132E-01
 -1      3470 2.94046E-01
 -1      3471 4.18024E-01
 -1      3472 3.84782E-01
 -1      3473 3.63258E-01
 -1      3474 4.95866E-01
 -1      3475 4.65637E-01
 -1      3476 4.51199E-01
 -1      3477 5.96059E-01
 -1      3478 5.49699E-01
 -1      3479 5.52645E-01
 -1      3480 7.16830E-01
 -1      3481 6.60665E-01
 -1      3482 6.71085E-01
 -1      3483 8.77331E-01
 -1      3484 8.21708E-01
 -1      3485 8.40569E-01
 -1      3486 1.10498E+00
 -1      3487 1.02029E+00
 -1      3488 1.08840E+00
 -1      3489 1.37321E+00
 -1      3490 1.17754E+00
 -1      3491 1.30391E+00
 -1      3492 2.47699E+00
 -1      3493 2.37848E+00
 -1      3494 2.38173E+00
 -1      3495 3.08212E+00
 -1      3496 2.42025E+00
 -1      3497 3.33025E+00
 -1      3498 3.95227E+00
 -1      3499 3.82741E+00
 -1      3500 5.20958E+00
 -1      3501 4.58093E+00
 -1      3502 4.31206E+00
 -1      3503 5.43108E+00
 -1      3504 9.36245E+00
 -1      3505 8.99710E+00
 -1      3506 3.50458E+00
 -1      3507 5.42902E+00
 -1      3508 5.68174E+00
 -1      3509 4.51026E+00
 -1      3510 2.91060E+00
 -1      3511 2.70596E+00
 -1      3512 2.72450E+00
 -1      3513 3.31072E+00
 -1      3514 3.04760E-01
 -1      3515 3.12497E-01
 -1      3516 2.58064E-01
 -1      3517 2.74628E-01
 -1      3518 2.30734E-01
 -1      3519 2.46634E-01
 -1      3520 3.94486E+00
 -1      3521 2.24959E-01
 -1      3522 2.06814E-01
 -1      3523 2.03467E-01
 -1      3524 6.02829E-02
 -1      3525 6.81077E-02
 -1      3526 7.18168E-02
 -1      3527 5.73943E-02
 -1      3528 7.74619E+00
 -1      3529 7.00076E+00
 -1      3530 7.10923E+00
 -1      3531 1.56640E-01
 -1      3532 1.69506E-01
 -1      3533 1.92642E-01
 -1      3534 2.03623E-01
 -1      3535 1.63559E-01
 -1      3536 6.87410E+00
 -1      3537 6.06757E+00
 -1      3538 3.61598E+00
 -1      3539 8.39525E+00
 -1      3540 6.08896E+00
 -1      3541 1.81298E-01
 -1      3542 1.95492E-01
 -1      3543 1.63131E-01
 -1      3544 9.39829E+00
 -1      3545 7.54212E+00
 -1      3546 7.26759E+00
 -1      3547 1.06072E-01
 -1      3548 1.13709E-01
 -1      3549 1.25745E-01
 -1      3550 2.23523E-01
 -1      3551 5.73166E+00
 -1      3552 3.53895E+00
 -1      3553 5.21917E+00
 -1      3554 5.53977E+00
 -1      3555 2.35128E-01
 -1      3556 2.29455E-01
 -1      3557 1.97065E-01
 -1      3558 3.73034E+00
 -1      3559 2.52915E-01
 -1      3560 2.49426E-01
 -1      3561 1.75755E-01
 -1      3562 1.35143E-01
 -1      3563 1.48047E-01
 -1      3564 1.42746E-01
 -1      3565 1.24755E-01
 -1      3566 2.25230E-01
 -1      3567 2.23605E-01
 -1      3568 2.24290E-01
 -1      3569 2.02128E-01
 -1      3570 2.05872E-01
 -1      3571 2.52915E-01
 -1      3572 2.52915E-01
 -1      3573 2.17224E-01
 -1      3574 2.48500E-01
 -1      3575 3.19304E+00
 -1      3576 4.31206E+00
 -1      3577 3.85412E+00
 -1      3578 2.96265E+00
 -1      3579 1.48886E-01
 -1      3580 1.52596E-01
 -1      3581 1.58566E-01
 -1      3582 1.54966E-01
 -1      3583 1.29423E-01
 -1      3584 1.54697E-01
 -1      3585 1.46818E-01
 -1      3586 1.35124E-01
 -1      3587 1.42404E-01
 -1      3588 1.32574E-01
 -1      3589 1.30440E-01
 -1      3590 1.25948E-01
 -1      3591 1.17686E-01
 -1      3592 1.19400E-01
 -1      3593 1.10127E-01
 -1      3594 1.01921E-01
 -1      3595 1.05215E-01
 -1      3596 9.56465E-02
 -1      3597 8.73610E-02
 -1      3598 9.13814E-02
 -1      3599 8.09455E-02
 -1      3600 7.31340E-02
 -1      3601 7.86913E-02
 -1      3602 6.69897E-02
 -1      3603 5.99307E-02
 -1      3604 6.61316E-02
 -1      3605 5.43027E-02
 -1      3606 4.80833E-02
 -1      3607 5.43592E-02
 -1      3608 4.30864E-02
 -1      3609 3.76705E-02
 -1      3610 4.37343E-02
 -1      3611 3.33095E-02
 -1      3612 2.85636E-02
 -1      3613 3.43765E-02
 -1      3614 2.53860E-02
 -1      3615 2.12214E-02
 -1      3616 2.68379E-02
 -1      3617 2.14910E-02
 -1      3618 2.20956E-02
 -1      3619 2.39300E-02
 -1      3620 2.34812E-02
 -1      3621 2.55905E-02
 -1      3622 2.55852E-02
 -1      3623 2.86986E-02
 -1      3624 3.62737E-02
 -1      3625 3.00789E-02
 -1      3626 4.46751E-02
 -1      3627 5.47469E-02
 -1      3628 4.15885E-02
 -1      3629 6.58063E-02
 -1      3630 7.96257E-02
 -1      3631 6.10492E-02
 -1      3632 9.39899E-02
 -1      3633 1.12196E-01
 -1      3634 8.64728E-02
 -1      3635 1.30718E-01
 -1      3636 1.54591E-01
 -1      3637 1.19360E-01
 -1      3638 1.78296E-01
 -1      3639 2.09441E-01
 -1      3640 1.61586E-01
 -1      3641 2.39592E-01
 -1      3642 2.80063E-01
 -1      3643 2.15441E-01
 -1      3644 3.18309E-01
 -1      3645 3.70826E-01
 -1      3646 2.83838E-01
 -1      3647 4.19502E-01
 -1      3648 4.87851E-01
 -1      3649 3.70760E-01
 -1      3650 5.50615E-01
 -1      3651 6.40403E-01
 -1      3652 4.82199E-01
 -1      3653 7.23567E-01
 -1      3654 8.43755E-01
 -1      3655 6.28127E-01
 -1      3656 9.59262E-01
 -1      3657 1.12512E+00
 -1      3658 8.26798E-01
 -1      3659 1.29759E+00
 -1      3660 1.53432E+00
 -1      3661 1.11477E+00
 -1      3662 1.82941E+00
 -1      3663 2.19236E+00
 -1      3664 1.58233E+00
 -1      3665 2.74694E+00
 -1      3666 3.22718E+00
 -1      3667 2.43200E+00
 -1      3668 3.70574E+00
 -1      3669 4.12017E+00
 -1      3670 5.91250E+00
 -1      3671 3.46515E+00
 -1      3672 2.22134E-02
 -1      3673 2.67384E-02
 -1      3674 7.97441E-02
 -1      3675 8.83763E-02
 -1      3676 3.09880E-02
 -1      3677 3.60371E-02
 -1      3678 2.87623E-02
 -1      3679 4.08985E-02
 -1      3680 4.67066E-02
 -1      3681 3.78734E-02
 -1      3682 1.91893E-02
 -1      3683 2.09321E-02
 -1      3684 2.32314E-02
 -1      3685 2.10467E-02
 -1      3686 2.00985E-02
 -1      3687 2.28593E-02
 -1      3688 2.97460E-02
 -1      3689 2.33522E-02
 -1      3690 2.60741E-02
 -1      3691 4.57953E-02
 -1      3692 3.74523E-02
 -1      3693 3.60859E-02
 -1      3694 6.68351E-02
 -1      3695 5.58121E-02
 -1      3696 5.38091E-02
 -1      3697 9.32754E-02
 -1      3698 7.95332E-02
 -1      3699 7.65240E-02
 -1      3700 1.25938E-01
 -1      3701 1.09157E-01
 -1      3702 1.05104E-01
 -1      3703 1.65353E-01
 -1      3704 1.45445E-01
 -1      3705 1.40492E-01
 -1      3706 2.11485E-01
 -1      3707 1.88774E-01
 -1      3708 1.83419E-01
 -1      3709 2.63331E-01
 -1      3710 2.38816E-01
 -1      3711 2.34171E-01
 -1      3712 3.22930E-01
 -1      3713 2.94046E-01
 -1      3714 2.92216E-01
 -1      3715 3.95945E-01
 -1      3716 3.55617E-01
 -1      3717 3.55617E-01
 -1      3718 4.88311E-01
 -1      3719 4.40698E-01
 -1      3720 4.33057E-01
 -1      3721 6.00386E-01
 -1      3722 5.46552E-01
 -1      3723 5.36052E-01
 -1      3724 7.63427E-01
 -1      3725 6.98820E-01
 -1      3726 6.92728E-01
 -1      3727 9.94256E-01
 -1      3728 8.89377E-01
 -1      3729 9.17113E-01
 -1      3730 1.25361E+00
 -1      3731 1.11066E+00
 -1      3732 1.15947E+00
 -1      3733 1.80111E+00
 -1      3734 1.72856E+00
 -1      3735 1.75082E+00
 -1      3736 3.67538E+00
 -1      3737 2.67012E+00
 -1      3738 3.09477E+00
 -1      3739 2.27710E-01
 -1      3740 2.59912E-01
 -1      3741 7.45810E+00
 -1      3742 7.42299E+00
 -1      3743 4.91105E+00
 -1      3744 4.78439E+00
 -1      3745 2.48500E-01
 -1      3746 2.48500E-01
 -1      3747 2.58064E-01
 -1      3748 2.00650E-01
 -1      3749 2.42500E-01
 -1      3750 2.47278E-01
 -1      3751 2.11587E-01
 -1      3752 4.78439E+00
 -1      3753 4.39856E+00
 -1      3754 1.86973E-01
 -1      3755 2.00650E-01
 -1      3756 1.52799E-01
 -1      3757 1.63559E-01
 -1      3758 2.00650E-01
 -1      3759 2.23190E-01
 -1      3760 2.05983E-01
 -1      3761 1.70512E-01
 -1      3762 1.79294E-01
 -1      3763 4.05343E+00
 -1      3764 6.40035E+00
 -1      3765 5.14944E+00
 -1      3766 4.20217E+00
 -1      3767 3.96377E+00
 -1      3768 4.82918E-02
 -1      3769 5.22635E-02
 -1      3770 5.89795E-02
 -1      3771 7.28677E-02
 -1      3772 7.30885E-02
 -1      3773 6.51612E-02
 -1      3774 8.71911E-02
 -1      3775 9.56025E-02
 -1      3776 1.04887E-01
 -1      3777 5.29880E+00
 -1      3778 2.52912E-01
 -1      3779 1.84869E-01
 -1      3780 1.95355E-01
 -1      3781 4.11017E+00
 -1      3782 5.27014E+00
 -1      3783 6.20728E+00
 -1      3784 4.24750E+00
 -1      3785 1.75458E-01
 -1      3786 1.63952E-01
 -1      3787 6.56986E+00
 -1      3788 2.95489E+00
 -1      3789 1.38126E-01
 -1      3790 1.45671E-01
 -1      3791 1.57463E-01
 -1      3792 1.85304E-01
 -1      3793 1.29142E-01
 -1      3794 1.37735E-01
 -1      3795 1.32067E-01
 -1      3796 1.73450E-01
 -1      3797 1.79894E-01
 -1      3798 1.46780E-01
 -1      3799 1.84869E-01
 -1      3800 1.84869E-01
 -1      3801 1.52514E-01
 -1      3802 1.06456E-01
 -1      3803 1.12426E-01
 -1      3804 1.18534E-01
 -1      3805 1.18265E-01
 -1      3806 9.55665E-02
 -1      3807 1.18878E-01
 -1      3808 1.14464E-01
 -1      3809 1.02288E-01
 -1      3810 1.11769E-01
 -1      3811 1.05143E-01
 -1      3812 1.00207E-01
 -1      3813 1.00468E-01
 -1      3814 9.29097E-02
 -1      3815 9.28380E-02
 -1      3816 8.73037E-02
 -1      3817 8.10290E-02
 -1      3818 8.25572E-02
 -1      3819 7.52244E-02
 -1      3820 6.88090E-02
 -1      3821 7.11467E-02
 -1      3822 6.34984E-02
 -1      3823 5.73541E-02
 -1      3824 6.00315E-02
 -1      3825 5.26759E-02
 -1      3826 4.70479E-02
 -1      3827 5.00428E-02
 -1      3828 4.28537E-02
 -1      3829 3.78569E-02
 -1      3830 4.11704E-02
 -1      3831 3.42320E-02
 -1      3832 2.98710E-02
 -1      3833 3.33514E-02
 -1      3834 2.84276E-02
 -1      3835 2.52500E-02
 -1      3836 2.82831E-02
 -1      3837 2.50956E-02
 -1      3838 2.53652E-02
 -1      3839 2.66852E-02
 -1      3840 2.63339E-02
 -1      3841 2.77195E-02
 -1      3842 2.74995E-02
 -1      3843 2.99491E-02
 -1      3844 3.30572E-02
 -1      3845 3.06977E-02
 -1      3846 3.76097E-02
 -1      3847 4.60110E-02
 -1      3848 3.74798E-02
 -1      3849 5.29850E-02
 -1      3850 6.40443E-02
 -1      3851 4.90062E-02
 -1      3852 7.35364E-02
 -1      3853 8.79007E-02
 -1      3854 6.54722E-02
 -1      3855 1.00509E-01
 -1      3856 1.19031E-01
 -1      3857 8.75724E-02
 -1      3858 1.35523E-01
 -1      3859 1.59227E-01
 -1      3860 1.16672E-01
 -1      3861 1.80838E-01
 -1      3862 2.10989E-01
 -1      3863 1.54775E-01
 -1      3864 2.40010E-01
 -1      3865 2.78256E-01
 -1      3866 2.05407E-01
 -1      3867 3.16205E-01
 -1      3868 3.64881E-01
 -1      3869 2.72377E-01
 -1      3870 4.14836E-01
 -1      3871 4.77599E-01
 -1      3872 3.60281E-01
 -1      3873 5.44330E-01
 -1      3874 6.27494E-01
 -1      3875 4.76967E-01
 -1      3876 7.18935E-01
 -1      3877 8.34442E-01
 -1      3878 6.35138E-01
 -1      3879 9.63780E-01
 -1      3880 1.13624E+00
 -1      3881 8.55917E-01
 -1      3882 1.31883E+00
 -1      3883 1.61392E+00
 -1      3884 1.16784E+00
 -1      3885 2.30428E+00
 -1      3886 2.85886E+00
 -1      3887 2.04077E+00
 -1      3888 3.49612E+00
 -1      3889 3.97469E+00
 -1      3890 2.36735E-02
 -1      3891 2.49548E-02
 -1      3892 5.32977E+00
 -1      3893 3.29769E-02
 -1      3894 3.78384E-02
 -1      3895 2.91190E-02
 -1      3896 2.68134E-02
 -1      3897 4.01844E-02
 -1      3898 3.24781E-02
 -1      3899 3.32174E-02
 -1      3900 5.81913E-02
 -1      3901 4.81744E-02
 -1      3902 4.45666E-02
 -1      3903 8.15747E-02
 -1      3904 6.88766E-02
 -1      3905 6.32420E-02
 -1      3906 1.11197E-01
 -1      3907 9.53149E-02
 -1      3908 8.76675E-02
 -1      3909 1.48181E-01
 -1      3910 1.28675E-01
 -1      3911 1.18886E-01
 -1      3912 1.93576E-01
 -1      3913 1.70155E-01
 -1      3914 1.58338E-01
 -1      3915 2.48194E-01
 -1      3916 2.20863E-01
 -1      3917 2.07600E-01
 -1      3918 3.12346E-01
 -1      3919 2.81631E-01
 -1      3920 2.68324E-01
 -1      3921 3.85373E-01
 -1      3922 3.52686E-01
 -1      3923 3.42102E-01
 -1      3924 4.77811E-01
 -1      3925 4.33057E-01
 -1      3926 4.30126E-01
 -1      3927 5.90726E-01
 -1      3928 5.32485E-01
 -1      3929 5.32485E-01
 -1      3930 7.78741E-01
 -1      3931 6.80306E-01
 -1      3932 6.76740E-01
 -1      3933 1.03079E+00
 -1      3934 9.04839E-01
 -1      3935 8.92417E-01
 -1      3936 1.44319E+00
 -1      3937 1.32678E+00
 -1      3938 1.31451E+00
 -1      3939 2.06164E+00
 -1      3940 1.58669E+00
 -1      3941 1.75401E+00
 -1      3942 3.09477E+00
 -1      3943 5.24575E+00
 -1      3944 2.43348E-01
 -1      3945 1.51060E-01
 -1      3946 1.93900E-01
 -1      3947 1.99053E-01
 -1      3948 1.89489E-01
 -1      3949 1.63257E-01
 -1      3950 1.73638E-01
 -1      3951 1.45797E-01
 -1      3952 1.11911E-01
 -1      3953 1.21308E-01
 -1      3954 1.16297E-01
 -1      3955 1.01441E-01
 -1      3956 2.51184E-02
 -1      3957 2.42092E-02
 -1      3958 2.59326E-02
 -1      3959 1.74164E-01
 -1      3960 1.79801E-01
 -1      3961 1.47446E-01
 -1      3962 1.51202E-01
 -1      3963 1.56334E-01
 -1      3964 1.50069E-01
 -1      3965 1.34726E-01
 -1      3966 2.55509E-02
 -1      3967 2.98005E-02
 -1      3968 2.59930E-02
 -1      3969 1.32946E-01
 -1      3970 1.18273E-01
 -1      3971 1.01276E-01
 -1      3972 1.31349E-01
 -1      3973 4.24750E+00
 -1      3974 4.00910E+00
 -1      3975 4.98313E-02
 -1      3976 5.53882E-02
 -1      3977 4.49348E-02
 -1      3978 6.00303E-02
 -1      3979 3.36840E+00
 -1      3980 7.67713E-02
 -1      3981 8.39975E-02
 -1      3982 1.66529E-01
 -1      3983 2.97655E-02
 -1      3984 2.81633E-02
 -1      3985 2.93064E+00
 -1      3986 2.97598E+00
 -1      3987 1.29685E-01
 -1      3988 1.29685E-01
 -1      3989 4.03005E+00
 -1      3990 1.32804E-01
 -1      3991 1.31349E-01
 -1      3992 1.13093E-01
 -1      3993 1.09974E-01
 -1      3994 1.28461E-01
 -1      3995 1.34255E-01
 -1      3996 1.51404E-01
 -1      3997 4.05443E+00
 -1      3998 1.34743E-01
 -1      3999 1.17918E-01
 -1      4000 1.10300E-01
 -1      4001 1.17935E-01
 -1      4002 6.42830E-02
 -1      4003 7.11594E-02
 -1      4004 6.79657E-02
 -1      4005 1.25000E-01
 -1      4006 1.13458E-01
 -1      4007 1.17064E-01
 -1      4008 1.29769E-01
 -1      4009 1.25333E-01
 -1      4010 1.00907E-01
 -1      4011 5.65454E-02
 -1      4012 6.27271E-02
 -1      4013 6.07980E-02
 -1      4014 5.80849E-02
 -1      4015 9.12181E-02
 -1      4016 9.18314E-02
 -1      4017 9.32240E-02
 -1      4018 9.05296E-02
 -1      4019 8.21538E-02
 -1      4020 8.46595E-02
 -1      4021 7.99848E-02
 -1      4022 7.76764E-02
 -1      4023 7.64344E-02
 -1      4024 7.08284E-02
 -1      4025 6.82560E-02
 -1      4026 7.82488E-02
 -1      4027 7.24442E-02
 -1      4028 7.21259E-02
 -1      4029 5.94136E-02
 -1      4030 5.41030E-02
 -1      4031 6.65157E-02
 -1      4032 4.97400E-02
 -1      4033 4.50618E-02
 -1      4034 4.91221E-02
 -1      4035 4.93638E-02
 -1      4036 4.51696E-02
 -1      4037 4.90610E-02
 -1      4038 3.55534E-02
 -1      4039 3.19285E-02
 -1      4040 4.37468E-02
 -1      4041 2.94281E-02
 -1      4042 2.79847E-02
 -1      4043 3.16302E-02
 -1      4044 2.68396E-02
 -1      4045 2.66852E-02
 -1      4046 2.79847E-02
 -1      4047 2.74995E-02
 -1      4048 2.84681E-02
 -1      4049 2.76539E-02
 -1      4050 3.06977E-02
 -1      4051 3.29273E-02
 -1      4052 3.06977E-02
 -1      4053 3.71391E-02
 -1      4054 4.16916E-02
 -1      4055 3.71391E-02
 -1      4056 4.79941E-02
 -1      4057 5.49680E-02
 -1      4058 4.76534E-02
 -1      4059 6.34944E-02
 -1      4060 7.29865E-02
 -1      4061 6.24824E-02
 -1      4062 8.41376E-02
 -1      4063 9.67457E-02
 -1      4064 8.21598E-02
 -1      4065 1.10983E-01
 -1      4066 1.27475E-01
 -1      4067 1.07548E-01
 -1      4068 1.45339E-01
 -1      4069 1.66950E-01
 -1      4070 1.39650E-01
 -1      4071 1.90345E-01
 -1      4072 2.19366E-01
 -1      4073 1.80909E-01
 -1      4074 2.48607E-01
 -1      4075 2.86556E-01
 -1      4076 2.33546E-01
 -1      4077 3.25620E-01
 -1      4078 3.75575E-01
 -1      4079 3.01851E-01
 -1      4080 4.46354E-01
 -1      4081 5.13084E-01
 -1      4082 4.11693E-01
 -1      4083 6.15636E-01
 -1      4084 7.07077E-01
 -1      4085 5.85023E-01
 -1      4086 8.56796E-01
 -1      4087 9.86135E-01
 -1      4088 8.37294E-01
 -1      4089 1.23471E+00
 -1      4090 1.41729E+00
 -1      4091 1.23559E+00
 -1      4092 1.78023E+00
 -1      4093 2.47059E+00
 -1      4094 1.84710E+00
 -1      4095 1.23003E-01
 -1      4096 2.64683E-02
 -1      4097 2.59326E-02
 -1      4098 3.65765E-02
 -1      4099 3.32174E-02
 -1      4100 9.12031E-02
 -1      4101 7.74629E-02
 -1      4102 1.20647E-01
 -1      4103 1.03169E-01
 -1      4104 9.29645E-02
 -1      4105 1.60232E-01
 -1      4106 1.38258E-01
 -1      4107 1.22542E-01
 -1      4108 2.11517E-01
 -1      4109 1.84229E-01
 -1      4110 1.64150E-01
 -1      4111 2.76314E-01
 -1      4112 2.42877E-01
 -1      4113 2.19507E-01
 -1      4114 3.61678E-01
 -1      4115 3.21338E-01
 -1      4116 2.95891E-01
 -1      4117 4.80141E-01
 -1      4118 4.32457E-01
 -1      4119 4.11693E-01
 -1      4120 6.37367E-01
 -1      4121 5.82692E-01
 -1      4122 5.85023E-01
 -1      4123 8.76666E-01
 -1      4124 7.87087E-01
 -1      4125 8.37294E-01
 -1      4126 1.21843E+00
 -1      4127 1.09233E+00
 -1      4128 1.20268E+00
 -1      4129 1.86506E+00
 -1      4130 1.56906E+00
 -1      4131 1.76898E+00
 -1      4132 1.79285E+00
 -1      4133 1.64934E+00
 -1      4134 1.90390E+00
 -1      4135 2.87131E+00
 -1      4136 7.98304E-02
 -1      4137 9.02502E-02
 -1      4138 9.72735E-02
 -1      4139 1.00174E-01
 -1      4140 3.39278E+00
 -1      4141 2.96941E-02
 -1      4142 3.28705E-02
 -1      4143 1.33473E-01
 -1      4144 1.33286E-01
 -1      4145 1.11838E-01
 -1      4146 1.16137E-01
 -1      4147 1.07588E-01
 -1      4148 6.79440E-02
 -1      4149 5.72587E-02
 -1      4150 7.14796E-02
 -1      4151 2.65557E-02
 -1      4152 2.71518E-02
 -1      4153 2.70914E-02
 -1      4154 4.99443E-02
 -1      4155 4.19542E-02
 -1      4156 4.19542E-02
 -1      4157 5.46463E-02
 -1      4158 7.73347E-02
 -1      4159 8.34432E-02
 -1      4160 7.29863E-02
 -1      4161 2.98583E-02
 -1      4162 2.81633E-02
 -1      4163 3.32174E-02
 -1      4164 3.13224E+00
 -1      4165 9.91029E-02
 -1      4166 1.02563E-01
 -1      4167 8.27841E-02
 -1      4168 7.09665E-02
 -1      4169 5.88432E-02
 -1      4170 8.27841E-02
 -1      4171 2.81633E-02
 -1      4172 3.02568E-02
 -1      4173 7.51187E-02
 -1      4174 8.13715E-02
 -1      4175 1.01590E-01
 -1      4176 1.00808E-01
 -1      4177 8.72348E-02
 -1      4178 8.25571E-02
 -1      4179 8.56758E-02
 -1      4180 5.53668E-02
 -1      4181 4.30811E-02
 -1      4182 4.31524E-02
 -1      4183 5.51453E-02
 -1      4184 3.43328E+00
 -1      4185 3.43328E+00
 -1      4186 1.11552E-01
 -1      4187 1.04485E-01
 -1      4188 1.03719E-01
 -1      4189 7.09501E-02
 -1      4190 7.65619E-02
 -1      4191 7.81030E-02
 -1      4192 2.25015E+00
 -1      4193 8.44848E-02
 -1      4194 8.58774E-02
 -1      4195 9.67890E-02
 -1      4196 8.58947E-02
 -1      4197 9.12770E-02
 -1      4198 8.35636E-02
 -1      4199 7.76936E-02
 -1      4200 7.21259E-02
 -1      4201 7.95463E-02
 -1      4202 7.95463E-02
 -1      4203 6.65157E-02
 -1      4204 5.08434E-02
 -1      4205 5.51453E-02
 -1      4206 5.33630E-02
 -1      4207 4.37468E-02
 -1      4208 3.34649E-02
 -1      4209 3.09645E-02
 -1      4210 2.84221E-02
 -1      4211 2.72770E-02
 -1      4212 2.66539E-02
 -1      4213 2.74682E-02
 -1      4214 2.91632E-02
 -1      4215 3.13928E-02
 -1      4216 3.47519E-02
 -1      4217 3.89637E-02
 -1      4218 4.43414E-02
 -1      4219 5.06440E-02
 -1      4220 5.79583E-02
 -1      4221 6.64847E-02
 -1      4222 7.60036E-02
 -1      4223 8.71547E-02
 -1      4224 9.91207E-02
 -1      4225 1.13358E-01
 -1      4226 1.30969E-01
 -1      4227 1.48833E-01
 -1      4228 1.72830E-01
 -1      4229 1.96226E-01
 -1      4230 2.27586E-01
 -1      4231 2.56827E-01
 -1      4232 3.01851E-01
 -1      4233 3.40915E-01
 -1      4234 4.11693E-01
 -1      4235 4.82472E-01
 -1      4236 5.85023E-01
 -1      4237 6.87574E-01
 -1      4238 8.37294E-01
 -1      4239 9.87014E-01
 -1      4240 1.20268E+00
 -1      4241 1.45125E+00
 -1      4242 1.80189E+00
 -1      4243 2.16483E+00
 -1      4244 2.51108E+00
 -1      4245 9.25282E-02
 -1      4246 8.32898E-02
 -1      4247 9.95546E-02
 -1      4248 9.60375E-02
 -1      4249 7.10061E-02
 -1      4250 8.50075E-02
 -1      4251 7.44826E-02
 -1      4252 8.22575E-02
 -1      4253 6.17349E-02
 -1      4254 6.80026E-02
 -1      4255 6.44522E-02
 -1      4256 6.93942E-02
 -1      4257 5.63636E-02
 -1      4258 5.20006E-02
 -1      4259 6.07980E-02
 -1      4260 5.51453E-02
 -1      4261 2.46587E+00
 -1      4262 7.18725E-02
 -1      4263 7.58900E-02
 -1      4264 8.06017E-02
 -1      4265 5.92421E-02
 -1      4266 8.70468E-02
 -1      4267 7.81030E-02
 -1      4268 7.73333E-02
 -1      4269 7.38898E-02
 -1      4270 5.80849E-02
 -1      4271 5.69277E-02
 -1      4272 8.35112E-02
 -1      4273 5.80849E-02
 -1      4274 7.95463E-02
 -1      4275 6.96595E-02
 -1      4276 7.93506E-02
 -3
 9999
