    1C
    1UUSER                                                              
    1UDATE              27.october.2022                                 
    1UTIME              00:04:52                                        
    1UHOST                                                              
    1UPGM               CalculiX                                        
    1UVERSION           Version 2.17                             
    1UCOMPILETIME       Thu Jul 23 21:43:50 CEST 2020                    
    1UDIR                                                               
    1UDBN                                                               
    1UMAT    1SOLIDMATERIAL                                             
    2C                          4327                                     1
 -1         1 1.11131E+02 3.82315E+01 0.00000E+00
 -1         2 1.24566E+02 3.54758E+01 0.00000E+00
 -1         3 1.50000E+02 0.00000E+00 0.00000E+00
 -1         4 1.50000E+02 5.00000E+01 0.00000E+00
 -1         5 0.00000E+00 0.00000E+00 0.00000E+00
 -1         6 0.00000E+00 5.00000E+01 0.00000E+00
 -1         7 0.00000E+00 4.70500E+01 0.00000E+00
 -1         8 0.00000E+00 4.41000E+01 0.00000E+00
 -1         9 0.00000E+00 4.11500E+01 0.00000E+00
 -1        10 0.00000E+00 3.82000E+01 0.00000E+00
 -1        11 0.00000E+00 3.52500E+01 0.00000E+00
 -1        12 0.00000E+00 3.23500E+01 0.00000E+00
 -1        13 0.00000E+00 2.94000E+01 0.00000E+00
 -1        14 0.00000E+00 2.64500E+01 0.00000E+00
 -1        15 0.00000E+00 2.35000E+01 0.00000E+00
 -1        16 0.00000E+00 2.05500E+01 0.00000E+00
 -1        17 0.00000E+00 1.76000E+01 0.00000E+00
 -1        18 0.00000E+00 1.47000E+01 0.00000E+00
 -1        19 0.00000E+00 1.17500E+01 0.00000E+00
 -1        20 0.00000E+00 8.80000E+00 0.00000E+00
 -1        21 0.00000E+00 5.85000E+00 0.00000E+00
 -1        22 0.00000E+00 2.90000E+00 0.00000E+00
 -1        23 3.00000E+00 5.00000E+01 0.00000E+00
 -1        24 6.00000E+00 5.00000E+01 0.00000E+00
 -1        25 9.00000E+00 5.00000E+01 0.00000E+00
 -1        26 1.20000E+01 5.00000E+01 0.00000E+00
 -1        27 1.50000E+01 5.00000E+01 0.00000E+00
 -1        28 1.80000E+01 5.00000E+01 0.00000E+00
 -1        29 2.08500E+01 5.00000E+01 0.00000E+00
 -1        30 2.38500E+01 5.00000E+01 0.00000E+00
 -1        31 2.68500E+01 5.00000E+01 0.00000E+00
 -1        32 2.98500E+01 5.00000E+01 0.00000E+00
 -1        33 3.28500E+01 5.00000E+01 0.00000E+00
 -1        34 3.58500E+01 5.00000E+01 0.00000E+00
 -1        35 3.88500E+01 5.00000E+01 0.00000E+00
 -1        36 4.17000E+01 5.00000E+01 0.00000E+00
 -1        37 4.47000E+01 5.00000E+01 0.00000E+00
 -1        38 4.77000E+01 5.00000E+01 0.00000E+00
 -1        39 5.07000E+01 5.00000E+01 0.00000E+00
 -1        40 5.37000E+01 5.00000E+01 0.00000E+00
 -1        41 5.67000E+01 5.00000E+01 0.00000E+00
 -1        42 5.95500E+01 5.00000E+01 0.00000E+00
 -1        43 6.25500E+01 5.00000E+01 0.00000E+00
 -1        44 6.55500E+01 5.00000E+01 0.00000E+00
 -1        45 6.85500E+01 5.00000E+01 0.00000E+00
 -1        46 7.15500E+01 5.00000E+01 0.00000E+00
 -1        47 7.45500E+01 5.00000E+01 0.00000E+00
 -1        48 7.75500E+01 5.00000E+01 0.00000E+00
 -1        49 8.04000E+01 5.00000E+01 0.00000E+00
 -1        50 8.34000E+01 5.00000E+01 0.00000E+00
 -1        51 8.64000E+01 5.00000E+01 0.00000E+00
 -1        52 8.94000E+01 5.00000E+01 0.00000E+00
 -1        53 9.24000E+01 5.00000E+01 0.00000E+00
 -1        54 9.54000E+01 5.00000E+01 0.00000E+00
 -1        55 9.82500E+01 5.00000E+01 0.00000E+00
 -1        56 1.01250E+02 5.00000E+01 0.00000E+00
 -1        57 1.04250E+02 5.00000E+01 0.00000E+00
 -1        58 1.07250E+02 5.00000E+01 0.00000E+00
 -1        59 1.10250E+02 5.00000E+01 0.00000E+00
 -1        60 1.13100E+02 5.00000E+01 0.00000E+00
 -1        61 1.15500E+02 5.00000E+01 0.00000E+00
 -1        62 1.17750E+02 5.00000E+01 0.00000E+00
 -1        63 1.20450E+02 5.00000E+01 0.00000E+00
 -1        64 1.23300E+02 5.00000E+01 0.00000E+00
 -1        65 1.26300E+02 5.00000E+01 0.00000E+00
 -1        66 1.29300E+02 5.00000E+01 0.00000E+00
 -1        67 1.32150E+02 5.00000E+01 0.00000E+00
 -1        68 1.35150E+02 5.00000E+01 0.00000E+00
 -1        69 1.38150E+02 5.00000E+01 0.00000E+00
 -1        70 1.41150E+02 5.00000E+01 0.00000E+00
 -1        71 1.44150E+02 5.00000E+01 0.00000E+00
 -1        72 1.47150E+02 5.00000E+01 0.00000E+00
 -1        73 3.15000E+00 0.00000E+00 0.00000E+00
 -1        74 6.15000E+00 0.00000E+00 0.00000E+00
 -1        75 9.15000E+00 0.00000E+00 0.00000E+00
 -1        76 1.21500E+01 0.00000E+00 0.00000E+00
 -1        77 1.51500E+01 0.00000E+00 0.00000E+00
 -1        78 1.81500E+01 0.00000E+00 0.00000E+00
 -1        79 2.11500E+01 0.00000E+00 0.00000E+00
 -1        80 2.41500E+01 0.00000E+00 0.00000E+00
 -1        81 2.71500E+01 0.00000E+00 0.00000E+00
 -1        82 3.01500E+01 0.00000E+00 0.00000E+00
 -1        83 3.31500E+01 0.00000E+00 0.00000E+00
 -1        84 3.61500E+01 0.00000E+00 0.00000E+00
 -1        85 3.91500E+01 0.00000E+00 0.00000E+00
 -1        86 4.21500E+01 0.00000E+00 0.00000E+00
 -1        87 4.51500E+01 0.00000E+00 0.00000E+00
 -1        88 4.81500E+01 0.00000E+00 0.00000E+00
 -1        89 5.11500E+01 0.00000E+00 0.00000E+00
 -1        90 5.41500E+01 0.00000E+00 0.00000E+00
 -1        91 5.71500E+01 0.00000E+00 0.00000E+00
 -1        92 6.01500E+01 0.00000E+00 0.00000E+00
 -1        93 6.31500E+01 0.00000E+00 0.00000E+00
 -1        94 6.61500E+01 0.00000E+00 0.00000E+00
 -1        95 6.91500E+01 0.00000E+00 0.00000E+00
 -1        96 7.21500E+01 0.00000E+00 0.00000E+00
 -1        97 7.51500E+01 0.00000E+00 0.00000E+00
 -1        98 7.81500E+01 0.00000E+00 0.00000E+00
 -1        99 8.11500E+01 0.00000E+00 0.00000E+00
 -1       100 8.41500E+01 0.00000E+00 0.00000E+00
 -1       101 8.71500E+01 0.00000E+00 0.00000E+00
 -1       102 9.01500E+01 0.00000E+00 0.00000E+00
 -1       103 9.31500E+01 0.00000E+00 0.00000E+00
 -1       104 9.61500E+01 0.00000E+00 0.00000E+00
 -1       105 9.91500E+01 0.00000E+00 0.00000E+00
 -1       106 1.02150E+02 0.00000E+00 0.00000E+00
 -1       107 1.05150E+02 0.00000E+00 0.00000E+00
 -1       108 1.08150E+02 0.00000E+00 0.00000E+00
 -1       109 1.11150E+02 0.00000E+00 0.00000E+00
 -1       110 1.14150E+02 0.00000E+00 0.00000E+00
 -1       111 1.17150E+02 0.00000E+00 0.00000E+00
 -1       112 1.20150E+02 0.00000E+00 0.00000E+00
 -1       113 1.23150E+02 0.00000E+00 0.00000E+00
 -1       114 1.26150E+02 0.00000E+00 0.00000E+00
 -1       115 1.29150E+02 0.00000E+00 0.00000E+00
 -1       116 1.32150E+02 0.00000E+00 0.00000E+00
 -1       117 1.35150E+02 0.00000E+00 0.00000E+00
 -1       118 1.38150E+02 0.00000E+00 0.00000E+00
 -1       119 1.41150E+02 0.00000E+00 0.00000E+00
 -1       120 1.44150E+02 0.00000E+00 0.00000E+00
 -1       121 1.47150E+02 0.00000E+00 0.00000E+00
 -1       122 1.50000E+02 2.95000E+00 0.00000E+00
 -1       123 1.50000E+02 5.90000E+00 0.00000E+00
 -1       124 1.50000E+02 8.85000E+00 0.00000E+00
 -1       125 1.50000E+02 1.18000E+01 0.00000E+00
 -1       126 1.50000E+02 1.47500E+01 0.00000E+00
 -1       127 1.50000E+02 1.76500E+01 0.00000E+00
 -1       128 1.50000E+02 2.06000E+01 0.00000E+00
 -1       129 1.50000E+02 2.35500E+01 0.00000E+00
 -1       130 1.50000E+02 2.65000E+01 0.00000E+00
 -1       131 1.50000E+02 2.94500E+01 0.00000E+00
 -1       132 1.50000E+02 3.24000E+01 0.00000E+00
 -1       133 1.50000E+02 3.53000E+01 0.00000E+00
 -1       134 1.50000E+02 3.82500E+01 0.00000E+00
 -1       135 1.50000E+02 4.12000E+01 0.00000E+00
 -1       136 1.50000E+02 4.41500E+01 0.00000E+00
 -1       137 1.50000E+02 4.71000E+01 0.00000E+00
 -1       138 1.24427E+02 3.40894E+01 0.00000E+00
 -1       139 1.24006E+02 3.27323E+01 0.00000E+00
 -1       140 1.23313E+02 3.14796E+01 0.00000E+00
 -1       141 1.22373E+02 3.03873E+01 0.00000E+00
 -1       142 1.21231E+02 2.95122E+01 0.00000E+00
 -1       143 1.19888E+02 2.88723E+01 0.00000E+00
 -1       144 1.18501E+02 2.85386E+01 0.00000E+00
 -1       145 1.17039E+02 2.84957E+01 0.00000E+00
 -1       146 1.15619E+02 2.87519E+01 0.00000E+00
 -1       147 1.14269E+02 2.93010E+01 0.00000E+00
 -1       148 1.12937E+02 3.02249E+01 0.00000E+00
 -1       149 1.11979E+02 3.12582E+01 0.00000E+00
 -1       150 1.11222E+02 3.25159E+01 0.00000E+00
 -1       151 1.10715E+02 3.40370E+01 0.00000E+00
 -1       152 1.10566E+02 3.54448E+01 0.00000E+00
 -1       153 1.10703E+02 3.68531E+01 0.00000E+00
 -1       154 1.11811E+02 3.94605E+01 0.00000E+00
 -1       155 1.12754E+02 4.05601E+01 0.00000E+00
 -1       156 1.13892E+02 4.14343E+01 0.00000E+00
 -1       157 1.15269E+02 4.20881E+01 0.00000E+00
 -1       158 1.16734E+02 4.24262E+01 0.00000E+00
 -1       159 1.18230E+02 4.24442E+01 0.00000E+00
 -1       160 1.19731E+02 4.21325E+01 0.00000E+00
 -1       161 1.21057E+02 4.15428E+01 0.00000E+00
 -1       162 1.22206E+02 4.07171E+01 0.00000E+00
 -1       163 1.23258E+02 3.95494E+01 0.00000E+00
 -1       164 1.23967E+02 3.83085E+01 0.00000E+00
 -1       165 1.24418E+02 3.69084E+01 0.00000E+00
 -1       166 2.59800E+00 4.55750E+01 0.00000E+00
 -1       167 2.59800E+00 4.26250E+01 0.00000E+00
 -1       168 2.59800E+00 3.96750E+01 0.00000E+00
 -1       169 2.59800E+00 3.67250E+01 0.00000E+00
 -1       170 2.59800E+00 3.38250E+01 0.00000E+00
 -1       171 2.59800E+00 3.08750E+01 0.00000E+00
 -1       172 2.59800E+00 2.79250E+01 0.00000E+00
 -1       173 2.59800E+00 2.49750E+01 0.00000E+00
 -1       174 2.59800E+00 2.20250E+01 0.00000E+00
 -1       175 2.59800E+00 1.90750E+01 0.00000E+00
 -1       176 2.59800E+00 1.61750E+01 0.00000E+00
 -1       177 2.59800E+00 1.32250E+01 0.00000E+00
 -1       178 2.59800E+00 1.02750E+01 0.00000E+00
 -1       179 2.59800E+00 7.32500E+00 0.00000E+00
 -1       180 2.59800E+00 4.37500E+00 0.00000E+00
 -1       181 2.87400E+00 2.18750E+00 0.00000E+00
 -1       182 4.50000E+00 4.74020E+01 0.00000E+00
 -1       183 7.50000E+00 4.74020E+01 0.00000E+00
 -1       184 1.05000E+01 4.74020E+01 0.00000E+00
 -1       185 1.35000E+01 4.74020E+01 0.00000E+00
 -1       186 1.65000E+01 4.74020E+01 0.00000E+00
 -1       187 1.93500E+01 4.74020E+01 0.00000E+00
 -1       188 2.23500E+01 4.74020E+01 0.00000E+00
 -1       189 2.53500E+01 4.74020E+01 0.00000E+00
 -1       190 2.83500E+01 4.74020E+01 0.00000E+00
 -1       191 3.13500E+01 4.74020E+01 0.00000E+00
 -1       192 3.43500E+01 4.74020E+01 0.00000E+00
 -1       193 3.73500E+01 4.74020E+01 0.00000E+00
 -1       194 4.02000E+01 4.74020E+01 0.00000E+00
 -1       195 4.32000E+01 4.74020E+01 0.00000E+00
 -1       196 4.62000E+01 4.74020E+01 0.00000E+00
 -1       197 4.92000E+01 4.74020E+01 0.00000E+00
 -1       198 5.22000E+01 4.74020E+01 0.00000E+00
 -1       199 5.52000E+01 4.74020E+01 0.00000E+00
 -1       200 5.80500E+01 4.74020E+01 0.00000E+00
 -1       201 6.10500E+01 4.74020E+01 0.00000E+00
 -1       202 6.40500E+01 4.74020E+01 0.00000E+00
 -1       203 6.70500E+01 4.74020E+01 0.00000E+00
 -1       204 7.00500E+01 4.74020E+01 0.00000E+00
 -1       205 7.30500E+01 4.74020E+01 0.00000E+00
 -1       206 7.60500E+01 4.74020E+01 0.00000E+00
 -1       207 7.89000E+01 4.74020E+01 0.00000E+00
 -1       208 8.19000E+01 4.74020E+01 0.00000E+00
 -1       209 8.49000E+01 4.74020E+01 0.00000E+00
 -1       210 8.79000E+01 4.74020E+01 0.00000E+00
 -1       211 9.09000E+01 4.74020E+01 0.00000E+00
 -1       212 9.39000E+01 4.74020E+01 0.00000E+00
 -1       213 9.67500E+01 4.74020E+01 0.00000E+00
 -1       214 9.97500E+01 4.74020E+01 0.00000E+00
 -1       215 1.02750E+02 4.74020E+01 0.00000E+00
 -1       216 1.05750E+02 4.74020E+01 0.00000E+00
 -1       217 1.08750E+02 4.74020E+01 0.00000E+00
 -1       218 1.11600E+02 4.74020E+01 0.00000E+00
 -1       219 1.14000E+02 4.74020E+01 0.00000E+00
 -1       220 1.16250E+02 4.74020E+01 0.00000E+00
 -1       221 1.18950E+02 4.74020E+01 0.00000E+00
 -1       222 1.21800E+02 4.74020E+01 0.00000E+00
 -1       223 1.24800E+02 4.74020E+01 0.00000E+00
 -1       224 1.27800E+02 4.74020E+01 0.00000E+00
 -1       225 1.30650E+02 4.74020E+01 0.00000E+00
 -1       226 1.33650E+02 4.74020E+01 0.00000E+00
 -1       227 1.36650E+02 4.74020E+01 0.00000E+00
 -1       228 1.39650E+02 4.74020E+01 0.00000E+00
 -1       229 1.42650E+02 4.74020E+01 0.00000E+00
 -1       230 1.45650E+02 4.74020E+01 0.00000E+00
 -1       231 5.87400E+00 2.18750E+00 0.00000E+00
 -1       232 8.87400E+00 2.18750E+00 0.00000E+00
 -1       233 1.18740E+01 2.18750E+00 0.00000E+00
 -1       234 1.48740E+01 2.18750E+00 0.00000E+00
 -1       235 1.78740E+01 2.18750E+00 0.00000E+00
 -1       236 2.08740E+01 2.18750E+00 0.00000E+00
 -1       237 2.38740E+01 2.18750E+00 0.00000E+00
 -1       238 2.68740E+01 2.18750E+00 0.00000E+00
 -1       239 2.98740E+01 2.18750E+00 0.00000E+00
 -1       240 3.28740E+01 2.18750E+00 0.00000E+00
 -1       241 3.58740E+01 2.18750E+00 0.00000E+00
 -1       242 3.88740E+01 2.18750E+00 0.00000E+00
 -1       243 4.18740E+01 2.18750E+00 0.00000E+00
 -1       244 4.48740E+01 2.18750E+00 0.00000E+00
 -1       245 4.78740E+01 2.18750E+00 0.00000E+00
 -1       246 5.08740E+01 2.18750E+00 0.00000E+00
 -1       247 5.38740E+01 2.18750E+00 0.00000E+00
 -1       248 5.68740E+01 2.18750E+00 0.00000E+00
 -1       249 5.98740E+01 2.18750E+00 0.00000E+00
 -1       250 6.28740E+01 2.18750E+00 0.00000E+00
 -1       251 6.58740E+01 2.18750E+00 0.00000E+00
 -1       252 6.88740E+01 2.18750E+00 0.00000E+00
 -1       253 7.18740E+01 2.18750E+00 0.00000E+00
 -1       254 7.48740E+01 2.18750E+00 0.00000E+00
 -1       255 7.78740E+01 2.18750E+00 0.00000E+00
 -1       256 8.08740E+01 2.18750E+00 0.00000E+00
 -1       257 8.38740E+01 2.18750E+00 0.00000E+00
 -1       258 8.68740E+01 2.18750E+00 0.00000E+00
 -1       259 8.98740E+01 2.18750E+00 0.00000E+00
 -1       260 9.28740E+01 2.18750E+00 0.00000E+00
 -1       261 9.58740E+01 2.18750E+00 0.00000E+00
 -1       262 9.88740E+01 2.18750E+00 0.00000E+00
 -1       263 1.01874E+02 2.18750E+00 0.00000E+00
 -1       264 1.04874E+02 2.18750E+00 0.00000E+00
 -1       265 1.07874E+02 2.18750E+00 0.00000E+00
 -1       266 1.10874E+02 2.18750E+00 0.00000E+00
 -1       267 1.13874E+02 2.18750E+00 0.00000E+00
 -1       268 1.16874E+02 2.18750E+00 0.00000E+00
 -1       269 1.19874E+02 2.18750E+00 0.00000E+00
 -1       270 1.22874E+02 2.18750E+00 0.00000E+00
 -1       271 1.25874E+02 2.18750E+00 0.00000E+00
 -1       272 1.28874E+02 2.18750E+00 0.00000E+00
 -1       273 1.31874E+02 2.18750E+00 0.00000E+00
 -1       274 1.34874E+02 2.18750E+00 0.00000E+00
 -1       275 1.37874E+02 2.18750E+00 0.00000E+00
 -1       276 1.40874E+02 2.18750E+00 0.00000E+00
 -1       277 1.43874E+02 2.18750E+00 0.00000E+00
 -1       278 1.46874E+02 2.18750E+00 0.00000E+00
 -1       279 1.47402E+02 4.42500E+00 0.00000E+00
 -1       280 1.47402E+02 7.37500E+00 0.00000E+00
 -1       281 1.47402E+02 1.03250E+01 0.00000E+00
 -1       282 1.47402E+02 1.32750E+01 0.00000E+00
 -1       283 1.47402E+02 1.61750E+01 0.00000E+00
 -1       284 1.47402E+02 1.91250E+01 0.00000E+00
 -1       285 1.47402E+02 2.20750E+01 0.00000E+00
 -1       286 1.47402E+02 2.50250E+01 0.00000E+00
 -1       287 1.47402E+02 2.79750E+01 0.00000E+00
 -1       288 1.47402E+02 3.09250E+01 0.00000E+00
 -1       289 1.47402E+02 3.38250E+01 0.00000E+00
 -1       290 1.47402E+02 3.67750E+01 0.00000E+00
 -1       291 1.47402E+02 3.97250E+01 0.00000E+00
 -1       292 1.47402E+02 4.26750E+01 0.00000E+00
 -1       293 1.25703E+02 3.46619E+01 0.00000E+00
 -1       294 1.25374E+02 3.30514E+01 0.00000E+00
 -1       295 1.24720E+02 3.15192E+01 0.00000E+00
 -1       296 1.23762E+02 3.01425E+01 0.00000E+00
 -1       297 1.22540E+02 2.89876E+01 0.00000E+00
 -1       298 1.21117E+02 2.80221E+01 0.00000E+00
 -1       299 1.19478E+02 2.75267E+01 0.00000E+00
 -1       300 1.17808E+02 2.72215E+01 0.00000E+00
 -1       301 1.16113E+02 2.74307E+01 0.00000E+00
 -1       302 1.14487E+02 2.79033E+01 0.00000E+00
 -1       303 1.12721E+02 2.84914E+01 0.00000E+00
 -1       304 1.11569E+02 2.99174E+01 0.00000E+00
 -1       305 1.10562E+02 3.12621E+01 0.00000E+00
 -1       306 1.09580E+02 3.28135E+01 0.00000E+00
 -1       307 1.09435E+02 3.46130E+01 0.00000E+00
 -1       308 1.09428E+02 3.62661E+01 0.00000E+00
 -1       309 1.09679E+02 3.79270E+01 0.00000E+00
 -1       310 1.10410E+02 3.94327E+01 0.00000E+00
 -1       311 1.11299E+02 4.08545E+01 0.00000E+00
 -1       312 1.12534E+02 4.20250E+01 0.00000E+00
 -1       313 1.13988E+02 4.30077E+01 0.00000E+00
 -1       314 1.15729E+02 4.34385E+01 0.00000E+00
 -1       315 1.17467E+02 4.36475E+01 0.00000E+00
 -1       316 1.19244E+02 4.35575E+01 0.00000E+00
 -1       317 1.20887E+02 4.29455E+01 0.00000E+00
 -1       318 1.22339E+02 4.21143E+01 0.00000E+00
 -1       319 1.23757E+02 4.10572E+01 0.00000E+00
 -1       320 1.24666E+02 3.95301E+01 0.00000E+00
 -1       321 1.25346E+02 3.79798E+01 0.00000E+00
 -1       322 1.25781E+02 3.63254E+01 0.00000E+00
 -1       323 1.47402E+02 4.56250E+01 0.00000E+00
 -1       324 5.19600E+00 4.11500E+01 0.00000E+00
 -1       325 5.19600E+00 4.41000E+01 0.00000E+00
 -1       326 5.19600E+00 3.52750E+01 0.00000E+00
 -1       327 5.19600E+00 3.23250E+01 0.00000E+00
 -1       328 5.19600E+00 2.93750E+01 0.00000E+00
 -1       329 5.19600E+00 2.64250E+01 0.00000E+00
 -1       330 5.19600E+00 2.34750E+01 0.00000E+00
 -1       331 5.19600E+00 2.05250E+01 0.00000E+00
 -1       332 5.19600E+00 1.76250E+01 0.00000E+00
 -1       333 5.19600E+00 1.46750E+01 0.00000E+00
 -1       334 5.19600E+00 1.17250E+01 0.00000E+00
 -1       335 5.19600E+00 8.77500E+00 0.00000E+00
 -1       336 5.19600E+00 5.82500E+00 0.00000E+00
 -1       337 5.53500E+00 4.00625E+00 0.00000E+00
 -1       338 8.53500E+00 4.00625E+00 0.00000E+00
 -1       339 9.00000E+00 4.48040E+01 0.00000E+00
 -1       340 1.20000E+01 4.48040E+01 0.00000E+00
 -1       341 1.50000E+01 4.48040E+01 0.00000E+00
 -1       342 1.78500E+01 4.48040E+01 0.00000E+00
 -1       343 2.08500E+01 4.48040E+01 0.00000E+00
 -1       344 2.38500E+01 4.48040E+01 0.00000E+00
 -1       345 2.68500E+01 4.48040E+01 0.00000E+00
 -1       346 2.98500E+01 4.48040E+01 0.00000E+00
 -1       347 3.28500E+01 4.48040E+01 0.00000E+00
 -1       348 3.58500E+01 4.48040E+01 0.00000E+00
 -1       349 3.87000E+01 4.48040E+01 0.00000E+00
 -1       350 4.17000E+01 4.48040E+01 0.00000E+00
 -1       351 4.47000E+01 4.48040E+01 0.00000E+00
 -1       352 4.77000E+01 4.48040E+01 0.00000E+00
 -1       353 5.07000E+01 4.48040E+01 0.00000E+00
 -1       354 5.37000E+01 4.48040E+01 0.00000E+00
 -1       355 5.65500E+01 4.48040E+01 0.00000E+00
 -1       356 5.95500E+01 4.48040E+01 0.00000E+00
 -1       357 6.25500E+01 4.48040E+01 0.00000E+00
 -1       358 6.55500E+01 4.48040E+01 0.00000E+00
 -1       359 6.85500E+01 4.48040E+01 0.00000E+00
 -1       360 7.15500E+01 4.48040E+01 0.00000E+00
 -1       361 7.45500E+01 4.48040E+01 0.00000E+00
 -1       362 7.74000E+01 4.48040E+01 0.00000E+00
 -1       363 8.04000E+01 4.48040E+01 0.00000E+00
 -1       364 8.34000E+01 4.48040E+01 0.00000E+00
 -1       365 8.64000E+01 4.48040E+01 0.00000E+00
 -1       366 8.94000E+01 4.48040E+01 0.00000E+00
 -1       367 9.24000E+01 4.48040E+01 0.00000E+00
 -1       368 9.52500E+01 4.48040E+01 0.00000E+00
 -1       369 9.82500E+01 4.48040E+01 0.00000E+00
 -1       370 1.01250E+02 4.48040E+01 0.00000E+00
 -1       371 1.04250E+02 4.48040E+01 0.00000E+00
 -1       372 1.07250E+02 4.48040E+01 0.00000E+00
 -1       373 1.10100E+02 4.48040E+01 0.00000E+00
 -1       374 1.15125E+02 4.53517E+01 0.00000E+00
 -1       375 1.17600E+02 4.55193E+01 0.00000E+00
 -1       376 1.20375E+02 4.53517E+01 0.00000E+00
 -1       377 1.23300E+02 4.50166E+01 0.00000E+00
 -1       378 1.26300E+02 4.50166E+01 0.00000E+00
 -1       379 1.29150E+02 4.50166E+01 0.00000E+00
 -1       380 1.32150E+02 4.50166E+01 0.00000E+00
 -1       381 1.35150E+02 4.50166E+01 0.00000E+00
 -1       382 1.38150E+02 4.50166E+01 0.00000E+00
 -1       383 1.41150E+02 4.50166E+01 0.00000E+00
 -1       384 1.44150E+02 4.50166E+01 0.00000E+00
 -1       385 1.15350E+01 4.00625E+00 0.00000E+00
 -1       386 1.26317E+02 3.17436E+01 0.00000E+00
 -1       387 1.45350E+01 4.00625E+00 0.00000E+00
 -1       388 1.75350E+01 4.00625E+00 0.00000E+00
 -1       389 2.05350E+01 4.00625E+00 0.00000E+00
 -1       390 2.35350E+01 4.00625E+00 0.00000E+00
 -1       391 2.65350E+01 4.00625E+00 0.00000E+00
 -1       392 2.95350E+01 4.00625E+00 0.00000E+00
 -1       393 3.25350E+01 4.00625E+00 0.00000E+00
 -1       394 3.55350E+01 4.00625E+00 0.00000E+00
 -1       395 3.85350E+01 4.00625E+00 0.00000E+00
 -1       396 4.15350E+01 4.00625E+00 0.00000E+00
 -1       397 4.45350E+01 4.00625E+00 0.00000E+00
 -1       398 4.75350E+01 4.00625E+00 0.00000E+00
 -1       399 5.05350E+01 4.00625E+00 0.00000E+00
 -1       400 5.35350E+01 4.00625E+00 0.00000E+00
 -1       401 5.65350E+01 4.00625E+00 0.00000E+00
 -1       402 5.95350E+01 4.00625E+00 0.00000E+00
 -1       403 6.25350E+01 4.00625E+00 0.00000E+00
 -1       404 6.55350E+01 4.00625E+00 0.00000E+00
 -1       405 6.85350E+01 4.00625E+00 0.00000E+00
 -1       406 7.15350E+01 4.00625E+00 0.00000E+00
 -1       407 7.45350E+01 4.00625E+00 0.00000E+00
 -1       408 7.75350E+01 4.00625E+00 0.00000E+00
 -1       409 8.05350E+01 4.00625E+00 0.00000E+00
 -1       410 8.35350E+01 4.00625E+00 0.00000E+00
 -1       411 8.65350E+01 4.00625E+00 0.00000E+00
 -1       412 8.95350E+01 4.00625E+00 0.00000E+00
 -1       413 9.25350E+01 4.00625E+00 0.00000E+00
 -1       414 9.55350E+01 4.00625E+00 0.00000E+00
 -1       415 9.85350E+01 4.00625E+00 0.00000E+00
 -1       416 1.01535E+02 4.00625E+00 0.00000E+00
 -1       417 1.04535E+02 4.00625E+00 0.00000E+00
 -1       418 1.07535E+02 4.00625E+00 0.00000E+00
 -1       419 1.10535E+02 4.00625E+00 0.00000E+00
 -1       420 1.13535E+02 4.00625E+00 0.00000E+00
 -1       421 1.16535E+02 4.00625E+00 0.00000E+00
 -1       422 1.19535E+02 4.00625E+00 0.00000E+00
 -1       423 1.22535E+02 4.00625E+00 0.00000E+00
 -1       424 1.25535E+02 4.00625E+00 0.00000E+00
 -1       425 1.28535E+02 4.00625E+00 0.00000E+00
 -1       426 1.31535E+02 4.00625E+00 0.00000E+00
 -1       427 1.34535E+02 4.00625E+00 0.00000E+00
 -1       428 1.37535E+02 4.00625E+00 0.00000E+00
 -1       429 1.40535E+02 4.00625E+00 0.00000E+00
 -1       430 1.43535E+02 4.00625E+00 0.00000E+00
 -1       431 1.45469E+02 4.21562E+00 0.00000E+00
 -1       432 1.44804E+02 1.18000E+01 0.00000E+00
 -1       433 1.44804E+02 8.85000E+00 0.00000E+00
 -1       434 1.45136E+02 6.53281E+00 0.00000E+00
 -1       435 1.44804E+02 1.47000E+01 0.00000E+00
 -1       436 1.44804E+02 1.76500E+01 0.00000E+00
 -1       437 1.44804E+02 2.06000E+01 0.00000E+00
 -1       438 1.44804E+02 2.35500E+01 0.00000E+00
 -1       439 1.44804E+02 2.65000E+01 0.00000E+00
 -1       440 1.44804E+02 2.94500E+01 0.00000E+00
 -1       441 1.44804E+02 3.23500E+01 0.00000E+00
 -1       442 1.44804E+02 3.53000E+01 0.00000E+00
 -1       443 1.44804E+02 3.82500E+01 0.00000E+00
 -1       444 1.44804E+02 4.12000E+01 0.00000E+00
 -1       445 1.25580E+02 2.98987E+01 0.00000E+00
 -1       446 1.27037E+02 3.54328E+01 0.00000E+00
 -1       447 5.19600E+00 3.82125E+01 0.00000E+00
 -1       448 1.24358E+02 2.87438E+01 0.00000E+00
 -1       449 1.22556E+02 2.74324E+01 0.00000E+00
 -1       450 1.20770E+02 2.62128E+01 0.00000E+00
 -1       451 1.18891E+02 2.60166E+01 0.00000E+00
 -1       452 1.16771E+02 2.57902E+01 0.00000E+00
 -1       453 1.15145E+02 2.62628E+01 0.00000E+00
 -1       454 1.13142E+02 2.68085E+01 0.00000E+00
 -1       455 1.11071E+02 2.83373E+01 0.00000E+00
 -1       456 1.09961E+02 2.97626E+01 0.00000E+00
 -1       457 1.08834E+02 3.12552E+01 0.00000E+00
 -1       458 1.07965E+02 3.35887E+01 0.00000E+00
 -1       459 1.07958E+02 3.52419E+01 0.00000E+00
 -1       460 1.08023E+02 3.73283E+01 0.00000E+00
 -1       461 1.08803E+02 3.92824E+01 0.00000E+00
 -1       462 1.09684E+02 4.08752E+01 0.00000E+00
 -1       463 1.10967E+02 4.24412E+01 0.00000E+00
 -1       464 1.12395E+02 4.37988E+01 0.00000E+00
 -1       465 1.14527E+02 4.45627E+01 0.00000E+00
 -1       466 1.16423E+02 4.49963E+01 0.00000E+00
 -1       467 1.20547E+02 4.45447E+01 0.00000E+00
 -1       468 1.22257E+02 4.36549E+01 0.00000E+00
 -1       469 1.23923E+02 4.27592E+01 0.00000E+00
 -1       470 1.25541E+02 4.10849E+01 0.00000E+00
 -1       471 1.26270E+02 3.93099E+01 0.00000E+00
 -1       472 1.26817E+02 3.74819E+01 0.00000E+00
 -1       473 1.26891E+02 3.35808E+01 0.00000E+00
 -1       474 1.12800E+02 4.50166E+01 0.00000E+00
 -1       475 1.11492E+02 2.66544E+01 0.00000E+00
 -1       476 7.79400E+00 3.08500E+01 0.00000E+00
 -1       477 7.79400E+00 3.38000E+01 0.00000E+00
 -1       478 7.79400E+00 2.49500E+01 0.00000E+00
 -1       479 7.79400E+00 2.20000E+01 0.00000E+00
 -1       480 7.79400E+00 1.91000E+01 0.00000E+00
 -1       481 7.79400E+00 1.61500E+01 0.00000E+00
 -1       482 7.79400E+00 1.32000E+01 0.00000E+00
 -1       483 7.79400E+00 1.02500E+01 0.00000E+00
 -1       484 7.79400E+00 7.30000E+00 0.00000E+00
 -1       485 8.16450E+00 5.65312E+00 0.00000E+00
 -1       486 1.05000E+01 4.22060E+01 0.00000E+00
 -1       487 1.41804E+02 4.12000E+01 0.00000E+00
 -1       488 1.26089E+02 2.81356E+01 0.00000E+00
 -1       489 1.35000E+01 4.22060E+01 0.00000E+00
 -1       490 1.63500E+01 4.22060E+01 0.00000E+00
 -1       491 1.93500E+01 4.22060E+01 0.00000E+00
 -1       492 2.23500E+01 4.22060E+01 0.00000E+00
 -1       493 2.53500E+01 4.22060E+01 0.00000E+00
 -1       494 2.83500E+01 4.22060E+01 0.00000E+00
 -1       495 3.13500E+01 4.22060E+01 0.00000E+00
 -1       496 3.43500E+01 4.22060E+01 0.00000E+00
 -1       497 3.72000E+01 4.22060E+01 0.00000E+00
 -1       498 4.02000E+01 4.22060E+01 0.00000E+00
 -1       499 4.32000E+01 4.22060E+01 0.00000E+00
 -1       500 4.62000E+01 4.22060E+01 0.00000E+00
 -1       501 4.92000E+01 4.22060E+01 0.00000E+00
 -1       502 5.22000E+01 4.22060E+01 0.00000E+00
 -1       503 5.50500E+01 4.22060E+01 0.00000E+00
 -1       504 5.80500E+01 4.22060E+01 0.00000E+00
 -1       505 6.10500E+01 4.22060E+01 0.00000E+00
 -1       506 6.40500E+01 4.22060E+01 0.00000E+00
 -1       507 6.70500E+01 4.22060E+01 0.00000E+00
 -1       508 7.00500E+01 4.22060E+01 0.00000E+00
 -1       509 7.30500E+01 4.22060E+01 0.00000E+00
 -1       510 7.59000E+01 4.22060E+01 0.00000E+00
 -1       511 7.89000E+01 4.22060E+01 0.00000E+00
 -1       512 8.19000E+01 4.22060E+01 0.00000E+00
 -1       513 8.49000E+01 4.22060E+01 0.00000E+00
 -1       514 8.79000E+01 4.22060E+01 0.00000E+00
 -1       515 9.09000E+01 4.22060E+01 0.00000E+00
 -1       516 9.37500E+01 4.22060E+01 0.00000E+00
 -1       517 9.67500E+01 4.22060E+01 0.00000E+00
 -1       518 9.97500E+01 4.22060E+01 0.00000E+00
 -1       519 1.02750E+02 4.22060E+01 0.00000E+00
 -1       520 1.05750E+02 4.22060E+01 0.00000E+00
 -1       521 1.08675E+02 4.29213E+01 0.00000E+00
 -1       522 1.11645E+01 5.65312E+00 0.00000E+00
 -1       523 1.28466E+02 3.66221E+01 0.00000E+00
 -1       524 1.27725E+02 4.26312E+01 0.00000E+00
 -1       525 1.30725E+02 4.26312E+01 0.00000E+00
 -1       526 1.33725E+02 4.26312E+01 0.00000E+00
 -1       527 1.36725E+02 4.26312E+01 0.00000E+00
 -1       528 1.39264E+02 4.19156E+01 0.00000E+00
 -1       529 1.60350E+01 6.60425E+00 0.00000E+00
 -1       530 1.35997E+01 6.12869E+00 0.00000E+00
 -1       531 2.20350E+01 6.60425E+00 0.00000E+00
 -1       532 2.50350E+01 6.60425E+00 0.00000E+00
 -1       533 2.80350E+01 6.60425E+00 0.00000E+00
 -1       534 3.10350E+01 6.60425E+00 0.00000E+00
 -1       535 3.40350E+01 6.60425E+00 0.00000E+00
 -1       536 3.70350E+01 6.60425E+00 0.00000E+00
 -1       537 4.00350E+01 6.60425E+00 0.00000E+00
 -1       538 4.30350E+01 6.60425E+00 0.00000E+00
 -1       539 4.60350E+01 6.60425E+00 0.00000E+00
 -1       540 4.90350E+01 6.60425E+00 0.00000E+00
 -1       541 5.20350E+01 6.60425E+00 0.00000E+00
 -1       542 5.50350E+01 6.60425E+00 0.00000E+00
 -1       543 5.80350E+01 6.60425E+00 0.00000E+00
 -1       544 6.10350E+01 6.60425E+00 0.00000E+00
 -1       545 6.40350E+01 6.60425E+00 0.00000E+00
 -1       546 6.70350E+01 6.60425E+00 0.00000E+00
 -1       547 7.00350E+01 6.60425E+00 0.00000E+00
 -1       548 7.30350E+01 6.60425E+00 0.00000E+00
 -1       549 7.60350E+01 6.60425E+00 0.00000E+00
 -1       550 7.90350E+01 6.60425E+00 0.00000E+00
 -1       551 8.20350E+01 6.60425E+00 0.00000E+00
 -1       552 8.50350E+01 6.60425E+00 0.00000E+00
 -1       553 8.80350E+01 6.60425E+00 0.00000E+00
 -1       554 9.10350E+01 6.60425E+00 0.00000E+00
 -1       555 9.40350E+01 6.60425E+00 0.00000E+00
 -1       556 9.70350E+01 6.60425E+00 0.00000E+00
 -1       557 1.00035E+02 6.60425E+00 0.00000E+00
 -1       558 1.03035E+02 6.60425E+00 0.00000E+00
 -1       559 1.06035E+02 6.60425E+00 0.00000E+00
 -1       560 1.09035E+02 6.60425E+00 0.00000E+00
 -1       561 1.12035E+02 6.60425E+00 0.00000E+00
 -1       562 1.15035E+02 6.60425E+00 0.00000E+00
 -1       563 1.18035E+02 6.60425E+00 0.00000E+00
 -1       564 1.21035E+02 6.60425E+00 0.00000E+00
 -1       565 1.24035E+02 6.60425E+00 0.00000E+00
 -1       566 1.27035E+02 6.60425E+00 0.00000E+00
 -1       567 1.30035E+02 6.60425E+00 0.00000E+00
 -1       568 1.33035E+02 6.60425E+00 0.00000E+00
 -1       569 1.36035E+02 6.60425E+00 0.00000E+00
 -1       570 1.39035E+02 6.60425E+00 0.00000E+00
 -1       571 1.42035E+02 6.60425E+00 0.00000E+00
 -1       572 1.42206E+02 1.61750E+01 0.00000E+00
 -1       573 1.42206E+02 1.91250E+01 0.00000E+00
 -1       574 1.42206E+02 1.03250E+01 0.00000E+00
 -1       575 1.42206E+02 1.32500E+01 0.00000E+00
 -1       576 1.42206E+02 2.20750E+01 0.00000E+00
 -1       577 1.42206E+02 2.50250E+01 0.00000E+00
 -1       578 1.42206E+02 2.79750E+01 0.00000E+00
 -1       579 1.42206E+02 3.08750E+01 0.00000E+00
 -1       580 1.42206E+02 3.38250E+01 0.00000E+00
 -1       581 1.42206E+02 3.67750E+01 0.00000E+00
 -1       582 1.18031E+02 2.40313E+01 0.00000E+00
 -1       583 1.19910E+02 2.42276E+01 0.00000E+00
 -1       584 7.84800E+00 4.16780E+01 0.00000E+00
 -1       585 1.28241E+02 3.21506E+01 0.00000E+00
 -1       586 1.06871E+02 3.18526E+01 0.00000E+00
 -1       587 1.90350E+01 6.60425E+00 0.00000E+00
 -1       588 1.27504E+02 3.03058E+01 0.00000E+00
 -1       589 7.79400E+00 2.79000E+01 0.00000E+00
 -1       590 1.22630E+02 2.54061E+01 0.00000E+00
 -1       591 1.24467E+02 2.67015E+01 0.00000E+00
 -1       592 1.15479E+02 2.43796E+01 0.00000E+00
 -1       593 1.06898E+02 3.89099E+01 0.00000E+00
 -1       594 1.13476E+02 2.49252E+01 0.00000E+00
 -1       595 1.09163E+02 2.79958E+01 0.00000E+00
 -1       596 1.08036E+02 2.94884E+01 0.00000E+00
 -1       597 1.06246E+02 3.44076E+01 0.00000E+00
 -1       598 1.06312E+02 3.64940E+01 0.00000E+00
 -1       599 1.07890E+02 4.08281E+01 0.00000E+00
 -1       600 1.25845E+02 4.29975E+01 0.00000E+00
 -1       601 1.27415E+02 4.08166E+01 0.00000E+00
 -1       602 1.27963E+02 3.89886E+01 0.00000E+00
 -1       603 1.28674E+02 3.43721E+01 0.00000E+00
 -1       604 7.79400E+00 3.67375E+01 0.00000E+00
 -1       605 7.82100E+00 3.92077E+01 0.00000E+00
 -1       606 1.11827E+02 2.47711E+01 0.00000E+00
 -1       607 1.09584E+02 2.63130E+01 0.00000E+00
 -1       608 1.03920E+01 2.05500E+01 0.00000E+00
 -1       609 1.03920E+01 2.35000E+01 0.00000E+00
 -1       610 1.03920E+01 1.46750E+01 0.00000E+00
 -1       611 1.03920E+01 1.17250E+01 0.00000E+00
 -1       612 1.03920E+01 8.77500E+00 0.00000E+00
 -1       613 1.07782E+01 7.21406E+00 0.00000E+00
 -1       614 1.04730E+01 3.97357E+01 0.00000E+00
 -1       615 2.65350E+01 9.20225E+00 0.00000E+00
 -1       616 1.34730E+01 3.97357E+01 0.00000E+00
 -1       617 1.63230E+01 3.97357E+01 0.00000E+00
 -1       618 1.93230E+01 3.97357E+01 0.00000E+00
 -1       619 2.23230E+01 3.97357E+01 0.00000E+00
 -1       620 2.53230E+01 3.97357E+01 0.00000E+00
 -1       621 2.83230E+01 3.97357E+01 0.00000E+00
 -1       622 3.13230E+01 3.97357E+01 0.00000E+00
 -1       623 3.43230E+01 3.97357E+01 0.00000E+00
 -1       624 3.71730E+01 3.97357E+01 0.00000E+00
 -1       625 4.01730E+01 3.97357E+01 0.00000E+00
 -1       626 4.31730E+01 3.97357E+01 0.00000E+00
 -1       627 4.61730E+01 3.97357E+01 0.00000E+00
 -1       628 4.91730E+01 3.97357E+01 0.00000E+00
 -1       629 5.21730E+01 3.97357E+01 0.00000E+00
 -1       630 5.50230E+01 3.97357E+01 0.00000E+00
 -1       631 5.80230E+01 3.97357E+01 0.00000E+00
 -1       632 6.10230E+01 3.97357E+01 0.00000E+00
 -1       633 6.40230E+01 3.97357E+01 0.00000E+00
 -1       634 6.70230E+01 3.97357E+01 0.00000E+00
 -1       635 7.00230E+01 3.97357E+01 0.00000E+00
 -1       636 7.30230E+01 3.97357E+01 0.00000E+00
 -1       637 7.58730E+01 3.97357E+01 0.00000E+00
 -1       638 7.88730E+01 3.97357E+01 0.00000E+00
 -1       639 8.18730E+01 3.97357E+01 0.00000E+00
 -1       640 8.48730E+01 3.97357E+01 0.00000E+00
 -1       641 8.78730E+01 3.97357E+01 0.00000E+00
 -1       642 9.08730E+01 3.97357E+01 0.00000E+00
 -1       643 9.37230E+01 3.97357E+01 0.00000E+00
 -1       644 9.67230E+01 3.97357E+01 0.00000E+00
 -1       645 9.97230E+01 3.97357E+01 0.00000E+00
 -1       646 1.02723E+02 3.97357E+01 0.00000E+00
 -1       647 1.26747E+02 2.57567E+01 0.00000E+00
 -1       648 1.29776E+02 3.04679E+01 0.00000E+00
 -1       649 1.32225E+02 4.00332E+01 0.00000E+00
 -1       650 1.35225E+02 4.00332E+01 0.00000E+00
 -1       651 2.95350E+01 9.20225E+00 0.00000E+00
 -1       652 2.35350E+01 9.20225E+00 0.00000E+00
 -1       653 3.25350E+01 9.20225E+00 0.00000E+00
 -1       654 3.55350E+01 9.20225E+00 0.00000E+00
 -1       655 3.85350E+01 9.20225E+00 0.00000E+00
 -1       656 4.15350E+01 9.20225E+00 0.00000E+00
 -1       657 4.45350E+01 9.20225E+00 0.00000E+00
 -1       658 4.75350E+01 9.20225E+00 0.00000E+00
 -1       659 5.05350E+01 9.20225E+00 0.00000E+00
 -1       660 5.35350E+01 9.20225E+00 0.00000E+00
 -1       661 5.65350E+01 9.20225E+00 0.00000E+00
 -1       662 5.95350E+01 9.20225E+00 0.00000E+00
 -1       663 6.25350E+01 9.20225E+00 0.00000E+00
 -1       664 6.55350E+01 9.20225E+00 0.00000E+00
 -1       665 6.85350E+01 9.20225E+00 0.00000E+00
 -1       666 7.15350E+01 9.20225E+00 0.00000E+00
 -1       667 7.45350E+01 9.20225E+00 0.00000E+00
 -1       668 7.75350E+01 9.20225E+00 0.00000E+00
 -1       669 8.05350E+01 9.20225E+00 0.00000E+00
 -1       670 8.35350E+01 9.20225E+00 0.00000E+00
 -1       671 8.65350E+01 9.20225E+00 0.00000E+00
 -1       672 8.95350E+01 9.20225E+00 0.00000E+00
 -1       673 9.25350E+01 9.20225E+00 0.00000E+00
 -1       674 9.55350E+01 9.20225E+00 0.00000E+00
 -1       675 9.85350E+01 9.20225E+00 0.00000E+00
 -1       676 1.01535E+02 9.20225E+00 0.00000E+00
 -1       677 1.04535E+02 9.20225E+00 0.00000E+00
 -1       678 1.07535E+02 9.20225E+00 0.00000E+00
 -1       679 1.10535E+02 9.20225E+00 0.00000E+00
 -1       680 1.13535E+02 9.20225E+00 0.00000E+00
 -1       681 1.16535E+02 9.20225E+00 0.00000E+00
 -1       682 1.19535E+02 9.20225E+00 0.00000E+00
 -1       683 1.22535E+02 9.20225E+00 0.00000E+00
 -1       684 1.25535E+02 9.20225E+00 0.00000E+00
 -1       685 1.28535E+02 9.20225E+00 0.00000E+00
 -1       686 1.31535E+02 9.20225E+00 0.00000E+00
 -1       687 1.34535E+02 9.20225E+00 0.00000E+00
 -1       688 1.37535E+02 9.20225E+00 0.00000E+00
 -1       689 1.39870E+02 9.76363E+00 0.00000E+00
 -1       690 1.39608E+02 2.35500E+01 0.00000E+00
 -1       691 1.39608E+02 1.76500E+01 0.00000E+00
 -1       692 1.39608E+02 2.65000E+01 0.00000E+00
 -1       693 1.39608E+02 2.06000E+01 0.00000E+00
 -1       694 1.39608E+02 2.94000E+01 0.00000E+00
 -1       695 1.39608E+02 3.23500E+01 0.00000E+00
 -1       696 1.39608E+02 3.53000E+01 0.00000E+00
 -1       697 1.16523E+02 2.25061E+01 0.00000E+00
 -1       698 1.19183E+02 2.20903E+01 0.00000E+00
 -1       699 1.30056E+02 3.81970E+01 0.00000E+00
 -1       700 1.28514E+02 2.81011E+01 0.00000E+00
 -1       701 1.39418E+02 3.87524E+01 0.00000E+00
 -1       702 1.24910E+02 2.44613E+01 0.00000E+00
 -1       703 1.03920E+01 1.76125E+01 0.00000E+00
 -1       704 1.22152E+02 2.27818E+01 0.00000E+00
 -1       705 1.05915E+02 2.99121E+01 0.00000E+00
 -1       706 1.03920E+01 3.23250E+01 0.00000E+00
 -1       707 1.13983E+02 2.28359E+01 0.00000E+00
 -1       708 1.07097E+02 2.76079E+01 0.00000E+00
 -1       709 1.04230E+02 3.55152E+01 0.00000E+00
 -1       710 1.30209E+02 3.26893E+01 0.00000E+00
 -1       711 1.04775E+02 3.81459E+01 0.00000E+00
 -1       712 1.29508E+02 4.00249E+01 0.00000E+00
 -1       713 1.30278E+02 3.56547E+01 0.00000E+00
 -1       714 1.04892E+02 3.27229E+01 0.00000E+00
 -1       715 1.03920E+01 2.64500E+01 0.00000E+00
 -1       716 1.03920E+01 2.93875E+01 0.00000E+00
 -1       717 2.05350E+01 9.20225E+00 0.00000E+00
 -1       718 1.05256E+02 4.01417E+01 0.00000E+00
 -1       719 1.37321E+02 3.93928E+01 0.00000E+00
 -1       720 1.43194E+01 8.91630E+00 0.00000E+00
 -1       721 1.39870E+02 1.26886E+01 0.00000E+00
 -1       722 1.03920E+01 3.52625E+01 0.00000E+00
 -1       723 1.75350E+01 9.20225E+00 0.00000E+00
 -1       724 1.07518E+02 2.59250E+01 0.00000E+00
 -1       725 1.39739E+02 1.51693E+01 0.00000E+00
 -1       726 1.12333E+02 2.26818E+01 0.00000E+00
 -1       727 1.29900E+01 1.02500E+01 0.00000E+00
 -1       728 1.29900E+01 1.32000E+01 0.00000E+00
 -1       729 1.19730E+01 3.71377E+01 0.00000E+00
 -1       730 1.03635E+02 3.06737E+01 0.00000E+00
 -1       731 1.33725E+02 3.74352E+01 0.00000E+00
 -1       732 1.48230E+01 3.71377E+01 0.00000E+00
 -1       733 1.78230E+01 3.71377E+01 0.00000E+00
 -1       734 2.08230E+01 3.71377E+01 0.00000E+00
 -1       735 2.38230E+01 3.71377E+01 0.00000E+00
 -1       736 2.68230E+01 3.71377E+01 0.00000E+00
 -1       737 2.98230E+01 3.71377E+01 0.00000E+00
 -1       738 3.28230E+01 3.71377E+01 0.00000E+00
 -1       739 3.56730E+01 3.71377E+01 0.00000E+00
 -1       740 3.86730E+01 3.71377E+01 0.00000E+00
 -1       741 4.16730E+01 3.71377E+01 0.00000E+00
 -1       742 4.46730E+01 3.71377E+01 0.00000E+00
 -1       743 4.76730E+01 3.71377E+01 0.00000E+00
 -1       744 5.06730E+01 3.71377E+01 0.00000E+00
 -1       745 5.35230E+01 3.71377E+01 0.00000E+00
 -1       746 5.65230E+01 3.71377E+01 0.00000E+00
 -1       747 5.95230E+01 3.71377E+01 0.00000E+00
 -1       748 6.25230E+01 3.71377E+01 0.00000E+00
 -1       749 6.55230E+01 3.71377E+01 0.00000E+00
 -1       750 6.85230E+01 3.71377E+01 0.00000E+00
 -1       751 7.15230E+01 3.71377E+01 0.00000E+00
 -1       752 7.43730E+01 3.71377E+01 0.00000E+00
 -1       753 7.73730E+01 3.71377E+01 0.00000E+00
 -1       754 8.03730E+01 3.71377E+01 0.00000E+00
 -1       755 8.33730E+01 3.71377E+01 0.00000E+00
 -1       756 8.63730E+01 3.71377E+01 0.00000E+00
 -1       757 8.93730E+01 3.71377E+01 0.00000E+00
 -1       758 9.22230E+01 3.71377E+01 0.00000E+00
 -1       759 9.52230E+01 3.71377E+01 0.00000E+00
 -1       760 9.82230E+01 3.71377E+01 0.00000E+00
 -1       761 1.01223E+02 3.71377E+01 0.00000E+00
 -1       762 1.31250E+02 2.81620E+01 0.00000E+00
 -1       763 2.80350E+01 1.18003E+01 0.00000E+00
 -1       764 3.40350E+01 1.18003E+01 0.00000E+00
 -1       765 2.50350E+01 1.18003E+01 0.00000E+00
 -1       766 3.70350E+01 1.18003E+01 0.00000E+00
 -1       767 4.00350E+01 1.18003E+01 0.00000E+00
 -1       768 4.30350E+01 1.18003E+01 0.00000E+00
 -1       769 4.60350E+01 1.18003E+01 0.00000E+00
 -1       770 4.90350E+01 1.18003E+01 0.00000E+00
 -1       771 5.20350E+01 1.18003E+01 0.00000E+00
 -1       772 5.50350E+01 1.18003E+01 0.00000E+00
 -1       773 5.80350E+01 1.18003E+01 0.00000E+00
 -1       774 6.10350E+01 1.18003E+01 0.00000E+00
 -1       775 6.40350E+01 1.18003E+01 0.00000E+00
 -1       776 6.70350E+01 1.18003E+01 0.00000E+00
 -1       777 7.00350E+01 1.18003E+01 0.00000E+00
 -1       778 7.30350E+01 1.18003E+01 0.00000E+00
 -1       779 7.60350E+01 1.18003E+01 0.00000E+00
 -1       780 7.90350E+01 1.18003E+01 0.00000E+00
 -1       781 8.20350E+01 1.18003E+01 0.00000E+00
 -1       782 8.50350E+01 1.18003E+01 0.00000E+00
 -1       783 8.80350E+01 1.18003E+01 0.00000E+00
 -1       784 9.10350E+01 1.18003E+01 0.00000E+00
 -1       785 9.40350E+01 1.18003E+01 0.00000E+00
 -1       786 9.70350E+01 1.18003E+01 0.00000E+00
 -1       787 1.00035E+02 1.18003E+01 0.00000E+00
 -1       788 1.03035E+02 1.18003E+01 0.00000E+00
 -1       789 1.06035E+02 1.18003E+01 0.00000E+00
 -1       790 1.09035E+02 1.18003E+01 0.00000E+00
 -1       791 1.12035E+02 1.18003E+01 0.00000E+00
 -1       792 1.15035E+02 1.18003E+01 0.00000E+00
 -1       793 1.18035E+02 1.18003E+01 0.00000E+00
 -1       794 1.21035E+02 1.18003E+01 0.00000E+00
 -1       795 1.24035E+02 1.18003E+01 0.00000E+00
 -1       796 1.27035E+02 1.18003E+01 0.00000E+00
 -1       797 1.30035E+02 1.18003E+01 0.00000E+00
 -1       798 1.33035E+02 1.18003E+01 0.00000E+00
 -1       799 1.36035E+02 1.18003E+01 0.00000E+00
 -1       800 1.37953E+02 1.22444E+01 0.00000E+00
 -1       801 1.37010E+02 3.08750E+01 0.00000E+00
 -1       802 1.37010E+02 3.38250E+01 0.00000E+00
 -1       803 1.37010E+02 2.50250E+01 0.00000E+00
 -1       804 1.17537E+02 2.02725E+01 0.00000E+00
 -1       805 1.37166E+02 3.66089E+01 0.00000E+00
 -1       806 1.02403E+02 3.36070E+01 0.00000E+00
 -1       807 1.14996E+02 2.06024E+01 0.00000E+00
 -1       808 1.27107E+02 2.32967E+01 0.00000E+00
 -1       809 1.24684E+02 2.17272E+01 0.00000E+00
 -1       810 1.32170E+02 3.11544E+01 0.00000E+00
 -1       811 1.21095E+02 2.06025E+01 0.00000E+00
 -1       812 3.10350E+01 1.18003E+01 0.00000E+00
 -1       813 1.29900E+01 2.20250E+01 0.00000E+00
 -1       814 1.09544E+02 2.38526E+01 0.00000E+00
 -1       815 1.37010E+02 2.79500E+01 0.00000E+00
 -1       816 1.04682E+02 2.78244E+01 0.00000E+00
 -1       817 1.31875E+02 3.70749E+01 0.00000E+00
 -1       818 1.32238E+02 3.41198E+01 0.00000E+00
 -1       819 1.29535E+02 2.54928E+01 0.00000E+00
 -1       820 1.29900E+01 1.61375E+01 0.00000E+00
 -1       821 9.65429E+00 3.69238E+01 0.00000E+00
 -1       822 1.29900E+01 1.90812E+01 0.00000E+00
 -1       823 1.35445E+02 3.70221E+01 0.00000E+00
 -1       824 2.20350E+01 1.18003E+01 0.00000E+00
 -1       825 1.05103E+02 2.61415E+01 0.00000E+00
 -1       826 1.37010E+02 2.20750E+01 0.00000E+00
 -1       827 1.37010E+02 1.91250E+01 0.00000E+00
 -1       828 1.19448E+02 1.87847E+01 0.00000E+00
 -1       829 1.13347E+02 2.04482E+01 0.00000E+00
 -1       830 1.29900E+01 3.37938E+01 0.00000E+00
 -1       831 1.90350E+01 1.18003E+01 0.00000E+00
 -1       832 1.37141E+02 1.66443E+01 0.00000E+00
 -1       833 1.29900E+01 3.08563E+01 0.00000E+00
 -1       834 1.23627E+02 1.95479E+01 0.00000E+00
 -1       835 1.52625E+01 1.12011E+01 0.00000E+00
 -1       836 1.29900E+01 2.49750E+01 0.00000E+00
 -1       837 1.29900E+01 2.79188E+01 0.00000E+00
 -1       838 1.63230E+01 3.45397E+01 0.00000E+00
 -1       839 1.93230E+01 3.45397E+01 0.00000E+00
 -1       840 2.23230E+01 3.45397E+01 0.00000E+00
 -1       841 2.53230E+01 3.45397E+01 0.00000E+00
 -1       842 2.83230E+01 3.45397E+01 0.00000E+00
 -1       843 3.13230E+01 3.45397E+01 0.00000E+00
 -1       844 3.41730E+01 3.45397E+01 0.00000E+00
 -1       845 3.71730E+01 3.45397E+01 0.00000E+00
 -1       846 4.01730E+01 3.45397E+01 0.00000E+00
 -1       847 4.31730E+01 3.45397E+01 0.00000E+00
 -1       848 4.61730E+01 3.45397E+01 0.00000E+00
 -1       849 4.91730E+01 3.45397E+01 0.00000E+00
 -1       850 5.20230E+01 3.45397E+01 0.00000E+00
 -1       851 5.50230E+01 3.45397E+01 0.00000E+00
 -1       852 5.80230E+01 3.45397E+01 0.00000E+00
 -1       853 6.10230E+01 3.45397E+01 0.00000E+00
 -1       854 6.40230E+01 3.45397E+01 0.00000E+00
 -1       855 6.70230E+01 3.45397E+01 0.00000E+00
 -1       856 7.00230E+01 3.45397E+01 0.00000E+00
 -1       857 7.28730E+01 3.45397E+01 0.00000E+00
 -1       858 7.58730E+01 3.45397E+01 0.00000E+00
 -1       859 7.88730E+01 3.45397E+01 0.00000E+00
 -1       860 8.18730E+01 3.45397E+01 0.00000E+00
 -1       861 8.48730E+01 3.45397E+01 0.00000E+00
 -1       862 8.78730E+01 3.45397E+01 0.00000E+00
 -1       863 9.07230E+01 3.45397E+01 0.00000E+00
 -1       864 9.37230E+01 3.45397E+01 0.00000E+00
 -1       865 9.67230E+01 3.45397E+01 0.00000E+00
 -1       866 9.95631E+01 3.40734E+01 0.00000E+00
 -1       867 2.65350E+01 1.43982E+01 0.00000E+00
 -1       868 1.27193E+02 2.05100E+01 0.00000E+00
 -1       869 3.85350E+01 1.43982E+01 0.00000E+00
 -1       870 1.33842E+02 3.55710E+01 0.00000E+00
 -1       871 4.15350E+01 1.43982E+01 0.00000E+00
 -1       872 4.45350E+01 1.43982E+01 0.00000E+00
 -1       873 4.75350E+01 1.43982E+01 0.00000E+00
 -1       874 5.05350E+01 1.43982E+01 0.00000E+00
 -1       875 5.35350E+01 1.43982E+01 0.00000E+00
 -1       876 5.65350E+01 1.43982E+01 0.00000E+00
 -1       877 5.95350E+01 1.43982E+01 0.00000E+00
 -1       878 6.25350E+01 1.43982E+01 0.00000E+00
 -1       879 6.55350E+01 1.43982E+01 0.00000E+00
 -1       880 6.85350E+01 1.43982E+01 0.00000E+00
 -1       881 7.15350E+01 1.43982E+01 0.00000E+00
 -1       882 7.45350E+01 1.43982E+01 0.00000E+00
 -1       883 7.75350E+01 1.43982E+01 0.00000E+00
 -1       884 8.05350E+01 1.43982E+01 0.00000E+00
 -1       885 8.35350E+01 1.43982E+01 0.00000E+00
 -1       886 8.65350E+01 1.43982E+01 0.00000E+00
 -1       887 8.95350E+01 1.43982E+01 0.00000E+00
 -1       888 9.25350E+01 1.43982E+01 0.00000E+00
 -1       889 9.55350E+01 1.43982E+01 0.00000E+00
 -1       890 9.85350E+01 1.43982E+01 0.00000E+00
 -1       891 1.01535E+02 1.43982E+01 0.00000E+00
 -1       892 1.04535E+02 1.43982E+01 0.00000E+00
 -1       893 1.07535E+02 1.43982E+01 0.00000E+00
 -1       894 1.10535E+02 1.43982E+01 0.00000E+00
 -1       895 1.13535E+02 1.43982E+01 0.00000E+00
 -1       896 1.16535E+02 1.43982E+01 0.00000E+00
 -1       897 1.19535E+02 1.43982E+01 0.00000E+00
 -1       898 1.22535E+02 1.43982E+01 0.00000E+00
 -1       899 1.25535E+02 1.43982E+01 0.00000E+00
 -1       900 1.28535E+02 1.43982E+01 0.00000E+00
 -1       901 1.31535E+02 1.43982E+01 0.00000E+00
 -1       902 1.34535E+02 1.43982E+01 0.00000E+00
 -1       903 1.34412E+02 3.23500E+01 0.00000E+00
 -1       904 1.33990E+02 2.89575E+01 0.00000E+00
 -1       905 1.15959E+02 1.80719E+01 0.00000E+00
 -1       906 1.02077E+02 2.84841E+01 0.00000E+00
 -1       907 1.37547E+02 1.44444E+01 0.00000E+00
 -1       908 1.00820E+02 3.12787E+01 0.00000E+00
 -1       909 3.55350E+01 1.43982E+01 0.00000E+00
 -1       910 1.32399E+02 2.55380E+01 0.00000E+00
 -1       911 1.06945E+02 2.33385E+01 0.00000E+00
 -1       912 1.10080E+02 2.12221E+01 0.00000E+00
 -1       913 1.58421E+01 1.41513E+01 0.00000E+00
 -1       914 1.30033E+02 2.25013E+01 0.00000E+00
 -1       915 2.35350E+01 1.43982E+01 0.00000E+00
 -1       916 1.02498E+02 2.68012E+01 0.00000E+00
 -1       917 1.34412E+02 2.35500E+01 0.00000E+00
 -1       918 1.34412E+02 2.06000E+01 0.00000E+00
 -1       919 2.95350E+01 1.43982E+01 0.00000E+00
 -1       920 1.14310E+02 1.79178E+01 0.00000E+00
 -1       921 1.07481E+02 2.07081E+01 0.00000E+00
 -1       922 1.34543E+02 1.81193E+01 0.00000E+00
 -1       923 1.63230E+01 3.16022E+01 0.00000E+00
 -1       924 1.21981E+02 1.77301E+01 0.00000E+00
 -1       925 1.55880E+01 2.05531E+01 0.00000E+00
 -1       926 3.25350E+01 1.43982E+01 0.00000E+00
 -1       927 1.55880E+01 2.35031E+01 0.00000E+00
 -1       928 1.89790E+01 1.50678E+01 0.00000E+00
 -1       929 2.12570E+01 1.47330E+01 0.00000E+00
 -1       930 2.08230E+01 3.19417E+01 0.00000E+00
 -1       931 2.38230E+01 3.19417E+01 0.00000E+00
 -1       932 2.68230E+01 3.19417E+01 0.00000E+00
 -1       933 2.98230E+01 3.19417E+01 0.00000E+00
 -1       934 3.26730E+01 3.19417E+01 0.00000E+00
 -1       935 3.56730E+01 3.19417E+01 0.00000E+00
 -1       936 3.86730E+01 3.19417E+01 0.00000E+00
 -1       937 4.16730E+01 3.19417E+01 0.00000E+00
 -1       938 4.46730E+01 3.19417E+01 0.00000E+00
 -1       939 4.76730E+01 3.19417E+01 0.00000E+00
 -1       940 5.05230E+01 3.19417E+01 0.00000E+00
 -1       941 5.35230E+01 3.19417E+01 0.00000E+00
 -1       942 5.65230E+01 3.19417E+01 0.00000E+00
 -1       943 5.95230E+01 3.19417E+01 0.00000E+00
 -1       944 6.25230E+01 3.19417E+01 0.00000E+00
 -1       945 6.55230E+01 3.19417E+01 0.00000E+00
 -1       946 6.85230E+01 3.19417E+01 0.00000E+00
 -1       947 7.13730E+01 3.19417E+01 0.00000E+00
 -1       948 7.43730E+01 3.19417E+01 0.00000E+00
 -1       949 7.73730E+01 3.19417E+01 0.00000E+00
 -1       950 8.03730E+01 3.19417E+01 0.00000E+00
 -1       951 8.33730E+01 3.19417E+01 0.00000E+00
 -1       952 8.63730E+01 3.19417E+01 0.00000E+00
 -1       953 8.92230E+01 3.19417E+01 0.00000E+00
 -1       954 9.22230E+01 3.19417E+01 0.00000E+00
 -1       955 9.52230E+01 3.19417E+01 0.00000E+00
 -1       956 9.80214E+01 3.16102E+01 0.00000E+00
 -1       957 1.55880E+01 1.76094E+01 0.00000E+00
 -1       958 1.26087E+02 1.75206E+01 0.00000E+00
 -1       959 1.34428E+02 2.65468E+01 0.00000E+00
 -1       960 4.90350E+01 1.69963E+01 0.00000E+00
 -1       961 5.20350E+01 1.69963E+01 0.00000E+00
 -1       962 5.50350E+01 1.69963E+01 0.00000E+00
 -1       963 5.80350E+01 1.69963E+01 0.00000E+00
 -1       964 6.10350E+01 1.69963E+01 0.00000E+00
 -1       965 6.40350E+01 1.69963E+01 0.00000E+00
 -1       966 6.70350E+01 1.69963E+01 0.00000E+00
 -1       967 7.00350E+01 1.69963E+01 0.00000E+00
 -1       968 7.30350E+01 1.69963E+01 0.00000E+00
 -1       969 7.60350E+01 1.69963E+01 0.00000E+00
 -1       970 7.90350E+01 1.69963E+01 0.00000E+00
 -1       971 8.20350E+01 1.69963E+01 0.00000E+00
 -1       972 8.50350E+01 1.69963E+01 0.00000E+00
 -1       973 8.80350E+01 1.69963E+01 0.00000E+00
 -1       974 9.10350E+01 1.69963E+01 0.00000E+00
 -1       975 9.40350E+01 1.69963E+01 0.00000E+00
 -1       976 9.70350E+01 1.69963E+01 0.00000E+00
 -1       977 1.00035E+02 1.69963E+01 0.00000E+00
 -1       978 1.03035E+02 1.69963E+01 0.00000E+00
 -1       979 1.06035E+02 1.69963E+01 0.00000E+00
 -1       980 1.09035E+02 1.69963E+01 0.00000E+00
 -1       981 1.30035E+02 1.69963E+01 0.00000E+00
 -1       982 1.31814E+02 2.20750E+01 0.00000E+00
 -1       983 1.30104E+02 1.93782E+01 0.00000E+00
 -1       984 4.60350E+01 1.69963E+01 0.00000E+00
 -1       985 1.63230E+01 2.86647E+01 0.00000E+00
 -1       986 3.70350E+01 1.69963E+01 0.00000E+00
 -1       987 1.59555E+01 2.60839E+01 0.00000E+00
 -1       988 1.11164E+02 1.85140E+01 0.00000E+00
 -1       989 4.30350E+01 1.69963E+01 0.00000E+00
 -1       990 1.85730E+01 3.17720E+01 0.00000E+00
 -1       991 1.04030E+02 2.34300E+01 0.00000E+00
 -1       992 4.00350E+01 1.69963E+01 0.00000E+00
 -1       993 1.81860E+01 1.90812E+01 0.00000E+00
 -1       994 1.04567E+02 2.07996E+01 0.00000E+00
 -1       995 9.97667E+01 2.70121E+01 0.00000E+00
 -1       996 3.40350E+01 1.69963E+01 0.00000E+00
 -1       997 1.33035E+02 1.69963E+01 0.00000E+00
 -1       998 1.81860E+01 2.20313E+01 0.00000E+00
 -1       999 9.88941E+01 2.93112E+01 0.00000E+00
 -1      1000 1.32324E+02 1.87488E+01 0.00000E+00
 -1      1001 1.08258E+02 1.88522E+01 0.00000E+00
 -1      1002 2.80350E+01 1.69963E+01 0.00000E+00
 -1      1003 2.50350E+01 1.69963E+01 0.00000E+00
 -1      1004 2.04640E+01 1.87465E+01 0.00000E+00
 -1      1005 4.15350E+01 1.95942E+01 0.00000E+00
 -1      1006 2.53230E+01 2.93438E+01 0.00000E+00
 -1      1007 2.83230E+01 2.93438E+01 0.00000E+00
 -1      1008 3.11730E+01 2.93438E+01 0.00000E+00
 -1      1009 3.41730E+01 2.93438E+01 0.00000E+00
 -1      1010 3.71730E+01 2.93438E+01 0.00000E+00
 -1      1011 4.01730E+01 2.93438E+01 0.00000E+00
 -1      1012 4.31730E+01 2.93438E+01 0.00000E+00
 -1      1013 4.61730E+01 2.93438E+01 0.00000E+00
 -1      1014 4.90230E+01 2.93438E+01 0.00000E+00
 -1      1015 5.20230E+01 2.93438E+01 0.00000E+00
 -1      1016 5.50230E+01 2.93438E+01 0.00000E+00
 -1      1017 5.80230E+01 2.93438E+01 0.00000E+00
 -1      1018 6.10230E+01 2.93438E+01 0.00000E+00
 -1      1019 6.40230E+01 2.93438E+01 0.00000E+00
 -1      1020 6.70230E+01 2.93438E+01 0.00000E+00
 -1      1021 6.98730E+01 2.93438E+01 0.00000E+00
 -1      1022 7.28730E+01 2.93438E+01 0.00000E+00
 -1      1023 7.58730E+01 2.93438E+01 0.00000E+00
 -1      1024 7.88730E+01 2.93438E+01 0.00000E+00
 -1      1025 8.18730E+01 2.93438E+01 0.00000E+00
 -1      1026 8.48730E+01 2.93438E+01 0.00000E+00
 -1      1027 8.77230E+01 2.93438E+01 0.00000E+00
 -1      1028 9.07230E+01 2.93438E+01 0.00000E+00
 -1      1029 9.37230E+01 2.93438E+01 0.00000E+00
 -1      1030 5.35350E+01 1.95942E+01 0.00000E+00
 -1      1031 1.01300E+02 2.36409E+01 0.00000E+00
 -1      1032 1.85730E+01 2.88345E+01 0.00000E+00
 -1      1033 5.05350E+01 1.95942E+01 0.00000E+00
 -1      1034 5.95350E+01 1.95942E+01 0.00000E+00
 -1      1035 6.25350E+01 1.95942E+01 0.00000E+00
 -1      1036 6.55350E+01 1.95942E+01 0.00000E+00
 -1      1037 6.85350E+01 1.95942E+01 0.00000E+00
 -1      1038 7.15350E+01 1.95942E+01 0.00000E+00
 -1      1039 7.45350E+01 1.95942E+01 0.00000E+00
 -1      1040 7.75350E+01 1.95942E+01 0.00000E+00
 -1      1041 8.05350E+01 1.95942E+01 0.00000E+00
 -1      1042 8.35350E+01 1.95942E+01 0.00000E+00
 -1      1043 8.65350E+01 1.95942E+01 0.00000E+00
 -1      1044 8.95350E+01 1.95942E+01 0.00000E+00
 -1      1045 9.25350E+01 1.95942E+01 0.00000E+00
 -1      1046 9.55350E+01 1.95942E+01 0.00000E+00
 -1      1047 9.85350E+01 1.95942E+01 0.00000E+00
 -1      1048 1.01535E+02 1.95942E+01 0.00000E+00
 -1      1049 3.10350E+01 1.69963E+01 0.00000E+00
 -1      1050 4.75350E+01 1.95942E+01 0.00000E+00
 -1      1051 2.23230E+01 2.93438E+01 0.00000E+00
 -1      1052 4.45350E+01 1.95942E+01 0.00000E+00
 -1      1053 3.85350E+01 1.95942E+01 0.00000E+00
 -1      1054 5.65350E+01 1.95942E+01 0.00000E+00
 -1      1055 2.27495E+01 1.78714E+01 0.00000E+00
 -1      1056 9.63085E+01 2.93275E+01 0.00000E+00
 -1      1057 1.82055E+01 2.62537E+01 0.00000E+00
 -1      1058 3.55350E+01 1.95942E+01 0.00000E+00
 -1      1059 2.04640E+01 2.16965E+01 0.00000E+00
 -1      1060 1.82097E+01 2.38902E+01 0.00000E+00
 -1      1061 2.04480E+01 2.90891E+01 0.00000E+00
 -1      1062 2.95350E+01 1.95942E+01 0.00000E+00
 -1      1063 2.65350E+01 1.95942E+01 0.00000E+00
 -1      1064 9.71812E+01 2.70284E+01 0.00000E+00
 -1      1065 9.87140E+01 2.36572E+01 0.00000E+00
 -1      1066 2.97480E+01 2.67458E+01 0.00000E+00
 -1      1067 3.27480E+01 2.67458E+01 0.00000E+00
 -1      1068 3.57480E+01 2.67458E+01 0.00000E+00
 -1      1069 3.87480E+01 2.67458E+01 0.00000E+00
 -1      1070 4.17480E+01 2.67458E+01 0.00000E+00
 -1      1071 4.47480E+01 2.67458E+01 0.00000E+00
 -1      1072 4.75980E+01 2.67458E+01 0.00000E+00
 -1      1073 5.05980E+01 2.67458E+01 0.00000E+00
 -1      1074 5.35980E+01 2.67458E+01 0.00000E+00
 -1      1075 5.65980E+01 2.67458E+01 0.00000E+00
 -1      1076 5.95980E+01 2.67458E+01 0.00000E+00
 -1      1077 6.25980E+01 2.67458E+01 0.00000E+00
 -1      1078 6.55980E+01 2.67458E+01 0.00000E+00
 -1      1079 6.84480E+01 2.67458E+01 0.00000E+00
 -1      1080 7.14480E+01 2.67458E+01 0.00000E+00
 -1      1081 7.44480E+01 2.67458E+01 0.00000E+00
 -1      1082 7.74480E+01 2.67458E+01 0.00000E+00
 -1      1083 8.04480E+01 2.67458E+01 0.00000E+00
 -1      1084 8.34480E+01 2.67458E+01 0.00000E+00
 -1      1085 8.62980E+01 2.67458E+01 0.00000E+00
 -1      1086 8.92980E+01 2.67458E+01 0.00000E+00
 -1      1087 9.22980E+01 2.67458E+01 0.00000E+00
 -1      1088 5.20350E+01 2.21922E+01 0.00000E+00
 -1      1089 6.40350E+01 2.21922E+01 0.00000E+00
 -1      1090 6.10350E+01 2.21922E+01 0.00000E+00
 -1      1091 7.00350E+01 2.21922E+01 0.00000E+00
 -1      1092 7.30350E+01 2.21922E+01 0.00000E+00
 -1      1093 7.60350E+01 2.21922E+01 0.00000E+00
 -1      1094 7.90350E+01 2.21922E+01 0.00000E+00
 -1      1095 8.20350E+01 2.21922E+01 0.00000E+00
 -1      1096 8.50350E+01 2.21922E+01 0.00000E+00
 -1      1097 8.80350E+01 2.21922E+01 0.00000E+00
 -1      1098 9.10350E+01 2.21922E+01 0.00000E+00
 -1      1099 9.40350E+01 2.21922E+01 0.00000E+00
 -1      1100 3.25350E+01 1.95942E+01 0.00000E+00
 -1      1101 2.67480E+01 2.67458E+01 0.00000E+00
 -1      1102 5.50350E+01 2.21922E+01 0.00000E+00
 -1      1103 4.90350E+01 2.21922E+01 0.00000E+00
 -1      1104 2.37480E+01 2.67458E+01 0.00000E+00
 -1      1105 5.80350E+01 2.21922E+01 0.00000E+00
 -1      1106 6.70350E+01 2.21922E+01 0.00000E+00
 -1      1107 4.00350E+01 2.21922E+01 0.00000E+00
 -1      1108 2.27495E+01 2.08214E+01 0.00000E+00
 -1      1109 9.47396E+01 2.68871E+01 0.00000E+00
 -1      1110 2.00805E+01 2.65083E+01 0.00000E+00
 -1      1111 3.70350E+01 2.21922E+01 0.00000E+00
 -1      1112 4.60350E+01 2.21922E+01 0.00000E+00
 -1      1113 2.80350E+01 2.21922E+01 0.00000E+00
 -1      1114 3.10350E+01 2.21922E+01 0.00000E+00
 -1      1115 2.19142E+01 2.66270E+01 0.00000E+00
 -1      1116 4.30350E+01 2.21922E+01 0.00000E+00
 -1      1117 3.12480E+01 2.41478E+01 0.00000E+00
 -1      1118 2.04597E+01 2.40600E+01 0.00000E+00
 -1      1119 3.42480E+01 2.41478E+01 0.00000E+00
 -1      1120 3.40350E+01 2.21922E+01 0.00000E+00
 -1      1121 2.52480E+01 2.41478E+01 0.00000E+00
 -1      1122 2.88915E+01 2.44690E+01 0.00000E+00
 -1      1123 2.34142E+01 2.40290E+01 0.00000E+00
 -1      1124 0.00000E+00 4.85250E+01 0.00000E+00
 -1      1125 0.00000E+00 4.55750E+01 0.00000E+00
 -1      1126 0.00000E+00 4.26250E+01 0.00000E+00
 -1      1127 0.00000E+00 3.96750E+01 0.00000E+00
 -1      1128 0.00000E+00 3.67250E+01 0.00000E+00
 -1      1129 0.00000E+00 3.38000E+01 0.00000E+00
 -1      1130 0.00000E+00 3.08750E+01 0.00000E+00
 -1      1131 0.00000E+00 2.79250E+01 0.00000E+00
 -1      1132 0.00000E+00 2.49750E+01 0.00000E+00
 -1      1133 0.00000E+00 2.20250E+01 0.00000E+00
 -1      1134 0.00000E+00 1.90750E+01 0.00000E+00
 -1      1135 0.00000E+00 1.61500E+01 0.00000E+00
 -1      1136 0.00000E+00 1.32250E+01 0.00000E+00
 -1      1137 0.00000E+00 1.02750E+01 0.00000E+00
 -1      1138 0.00000E+00 7.32500E+00 0.00000E+00
 -1      1139 0.00000E+00 4.37500E+00 0.00000E+00
 -1      1140 0.00000E+00 1.45000E+00 0.00000E+00
 -1      1141 1.50000E+00 5.00000E+01 0.00000E+00
 -1      1142 4.50000E+00 5.00000E+01 0.00000E+00
 -1      1143 7.50000E+00 5.00000E+01 0.00000E+00
 -1      1144 1.05000E+01 5.00000E+01 0.00000E+00
 -1      1145 1.35000E+01 5.00000E+01 0.00000E+00
 -1      1146 1.65000E+01 5.00000E+01 0.00000E+00
 -1      1147 1.94250E+01 5.00000E+01 0.00000E+00
 -1      1148 2.23500E+01 5.00000E+01 0.00000E+00
 -1      1149 2.53500E+01 5.00000E+01 0.00000E+00
 -1      1150 2.83500E+01 5.00000E+01 0.00000E+00
 -1      1151 3.13500E+01 5.00000E+01 0.00000E+00
 -1      1152 3.43500E+01 5.00000E+01 0.00000E+00
 -1      1153 3.73500E+01 5.00000E+01 0.00000E+00
 -1      1154 4.02750E+01 5.00000E+01 0.00000E+00
 -1      1155 4.32000E+01 5.00000E+01 0.00000E+00
 -1      1156 4.62000E+01 5.00000E+01 0.00000E+00
 -1      1157 4.92000E+01 5.00000E+01 0.00000E+00
 -1      1158 5.22000E+01 5.00000E+01 0.00000E+00
 -1      1159 5.52000E+01 5.00000E+01 0.00000E+00
 -1      1160 5.81250E+01 5.00000E+01 0.00000E+00
 -1      1161 6.10500E+01 5.00000E+01 0.00000E+00
 -1      1162 6.40500E+01 5.00000E+01 0.00000E+00
 -1      1163 6.70500E+01 5.00000E+01 0.00000E+00
 -1      1164 7.00500E+01 5.00000E+01 0.00000E+00
 -1      1165 7.30500E+01 5.00000E+01 0.00000E+00
 -1      1166 7.60500E+01 5.00000E+01 0.00000E+00
 -1      1167 7.89750E+01 5.00000E+01 0.00000E+00
 -1      1168 8.19000E+01 5.00000E+01 0.00000E+00
 -1      1169 8.49000E+01 5.00000E+01 0.00000E+00
 -1      1170 8.79000E+01 5.00000E+01 0.00000E+00
 -1      1171 9.09000E+01 5.00000E+01 0.00000E+00
 -1      1172 9.39000E+01 5.00000E+01 0.00000E+00
 -1      1173 9.68250E+01 5.00000E+01 0.00000E+00
 -1      1174 9.97500E+01 5.00000E+01 0.00000E+00
 -1      1175 1.02750E+02 5.00000E+01 0.00000E+00
 -1      1176 1.05750E+02 5.00000E+01 0.00000E+00
 -1      1177 1.08750E+02 5.00000E+01 0.00000E+00
 -1      1178 1.11675E+02 5.00000E+01 0.00000E+00
 -1      1179 1.14300E+02 5.00000E+01 0.00000E+00
 -1      1180 1.16625E+02 5.00000E+01 0.00000E+00
 -1      1181 1.19100E+02 5.00000E+01 0.00000E+00
 -1      1182 1.21875E+02 5.00000E+01 0.00000E+00
 -1      1183 1.24800E+02 5.00000E+01 0.00000E+00
 -1      1184 1.27800E+02 5.00000E+01 0.00000E+00
 -1      1185 1.30725E+02 5.00000E+01 0.00000E+00
 -1      1186 1.33650E+02 5.00000E+01 0.00000E+00
 -1      1187 1.36650E+02 5.00000E+01 0.00000E+00
 -1      1188 1.39650E+02 5.00000E+01 0.00000E+00
 -1      1189 1.42650E+02 5.00000E+01 0.00000E+00
 -1      1190 1.45650E+02 5.00000E+01 0.00000E+00
 -1      1191 1.48575E+02 5.00000E+01 0.00000E+00
 -1      1192 1.57500E+00 0.00000E+00 0.00000E+00
 -1      1193 4.65000E+00 0.00000E+00 0.00000E+00
 -1      1194 7.65000E+00 0.00000E+00 0.00000E+00
 -1      1195 1.06500E+01 0.00000E+00 0.00000E+00
 -1      1196 1.36500E+01 0.00000E+00 0.00000E+00
 -1      1197 1.66500E+01 0.00000E+00 0.00000E+00
 -1      1198 1.96500E+01 0.00000E+00 0.00000E+00
 -1      1199 2.26500E+01 0.00000E+00 0.00000E+00
 -1      1200 2.56500E+01 0.00000E+00 0.00000E+00
 -1      1201 2.86500E+01 0.00000E+00 0.00000E+00
 -1      1202 3.16500E+01 0.00000E+00 0.00000E+00
 -1      1203 3.46500E+01 0.00000E+00 0.00000E+00
 -1      1204 3.76500E+01 0.00000E+00 0.00000E+00
 -1      1205 4.06500E+01 0.00000E+00 0.00000E+00
 -1      1206 4.36500E+01 0.00000E+00 0.00000E+00
 -1      1207 4.66500E+01 0.00000E+00 0.00000E+00
 -1      1208 4.96500E+01 0.00000E+00 0.00000E+00
 -1      1209 5.26500E+01 0.00000E+00 0.00000E+00
 -1      1210 5.56500E+01 0.00000E+00 0.00000E+00
 -1      1211 5.86500E+01 0.00000E+00 0.00000E+00
 -1      1212 6.16500E+01 0.00000E+00 0.00000E+00
 -1      1213 6.46500E+01 0.00000E+00 0.00000E+00
 -1      1214 6.76500E+01 0.00000E+00 0.00000E+00
 -1      1215 7.06500E+01 0.00000E+00 0.00000E+00
 -1      1216 7.36500E+01 0.00000E+00 0.00000E+00
 -1      1217 7.66500E+01 0.00000E+00 0.00000E+00
 -1      1218 7.96500E+01 0.00000E+00 0.00000E+00
 -1      1219 8.26500E+01 0.00000E+00 0.00000E+00
 -1      1220 8.56500E+01 0.00000E+00 0.00000E+00
 -1      1221 8.86500E+01 0.00000E+00 0.00000E+00
 -1      1222 9.16500E+01 0.00000E+00 0.00000E+00
 -1      1223 9.46500E+01 0.00000E+00 0.00000E+00
 -1      1224 9.76500E+01 0.00000E+00 0.00000E+00
 -1      1225 1.00650E+02 0.00000E+00 0.00000E+00
 -1      1226 1.03650E+02 0.00000E+00 0.00000E+00
 -1      1227 1.06650E+02 0.00000E+00 0.00000E+00
 -1      1228 1.09650E+02 0.00000E+00 0.00000E+00
 -1      1229 1.12650E+02 0.00000E+00 0.00000E+00
 -1      1230 1.15650E+02 0.00000E+00 0.00000E+00
 -1      1231 1.18650E+02 0.00000E+00 0.00000E+00
 -1      1232 1.21650E+02 0.00000E+00 0.00000E+00
 -1      1233 1.24650E+02 0.00000E+00 0.00000E+00
 -1      1234 1.27650E+02 0.00000E+00 0.00000E+00
 -1      1235 1.30650E+02 0.00000E+00 0.00000E+00
 -1      1236 1.33650E+02 0.00000E+00 0.00000E+00
 -1      1237 1.36650E+02 0.00000E+00 0.00000E+00
 -1      1238 1.39650E+02 0.00000E+00 0.00000E+00
 -1      1239 1.42650E+02 0.00000E+00 0.00000E+00
 -1      1240 1.45650E+02 0.00000E+00 0.00000E+00
 -1      1241 1.48575E+02 0.00000E+00 0.00000E+00
 -1      1242 1.50000E+02 1.47500E+00 0.00000E+00
 -1      1243 1.50000E+02 4.42500E+00 0.00000E+00
 -1      1244 1.50000E+02 7.37500E+00 0.00000E+00
 -1      1245 1.50000E+02 1.03250E+01 0.00000E+00
 -1      1246 1.50000E+02 1.32750E+01 0.00000E+00
 -1      1247 1.50000E+02 1.62000E+01 0.00000E+00
 -1      1248 1.50000E+02 1.91250E+01 0.00000E+00
 -1      1249 1.50000E+02 2.20750E+01 0.00000E+00
 -1      1250 1.50000E+02 2.50250E+01 0.00000E+00
 -1      1251 1.50000E+02 2.79750E+01 0.00000E+00
 -1      1252 1.50000E+02 3.09250E+01 0.00000E+00
 -1      1253 1.50000E+02 3.38500E+01 0.00000E+00
 -1      1254 1.50000E+02 3.67750E+01 0.00000E+00
 -1      1255 1.50000E+02 3.97250E+01 0.00000E+00
 -1      1256 1.50000E+02 4.26750E+01 0.00000E+00
 -1      1257 1.50000E+02 4.56250E+01 0.00000E+00
 -1      1258 1.50000E+02 4.85500E+01 0.00000E+00
 -1      1259 1.24531E+02 3.47791E+01 0.00000E+00
 -1      1260 1.24251E+02 3.34001E+01 0.00000E+00
 -1      1261 1.23692E+02 3.20882E+01 0.00000E+00
 -1      1262 1.22871E+02 3.09092E+01 0.00000E+00
 -1      1263 1.21825E+02 2.99204E+01 0.00000E+00
 -1      1264 1.20577E+02 2.91565E+01 0.00000E+00
 -1      1265 1.19203E+02 2.86700E+01 0.00000E+00
 -1      1266 1.17771E+02 2.84788E+01 0.00000E+00
 -1      1267 1.16322E+02 2.85871E+01 0.00000E+00
 -1      1268 1.14930E+02 2.89912E+01 0.00000E+00
 -1      1269 1.13576E+02 2.97243E+01 0.00000E+00
 -1      1270 1.12432E+02 3.07174E+01 0.00000E+00
 -1      1271 1.11568E+02 3.18672E+01 0.00000E+00
 -1      1272 1.10925E+02 3.32619E+01 0.00000E+00
 -1      1273 1.10605E+02 3.47371E+01 0.00000E+00
 -1      1274 1.10599E+02 3.61524E+01 0.00000E+00
 -1      1275 1.10881E+02 3.75534E+01 0.00000E+00
 -1      1276 1.11440E+02 3.88631E+01 0.00000E+00
 -1      1277 1.12254E+02 4.00348E+01 0.00000E+00
 -1      1278 1.13301E+02 4.10264E+01 0.00000E+00
 -1      1279 1.14563E+02 4.17988E+01 0.00000E+00
 -1      1280 1.15992E+02 4.22966E+01 0.00000E+00
 -1      1281 1.17481E+02 4.24753E+01 0.00000E+00
 -1      1282 1.18989E+02 4.23296E+01 0.00000E+00
 -1      1283 1.20410E+02 4.18721E+01 0.00000E+00
 -1      1284 1.21653E+02 4.11590E+01 0.00000E+00
 -1      1285 1.22765E+02 4.01629E+01 0.00000E+00
 -1      1286 1.23645E+02 3.89470E+01 0.00000E+00
 -1      1287 1.24229E+02 3.76203E+01 0.00000E+00
 -1      1288 1.24529E+02 3.61959E+01 0.00000E+00
 -1      1289 1.50000E+00 4.85250E+01 0.00000E+00
 -1      1290 1.29900E+00 4.48375E+01 0.00000E+00
 -1      1291 1.29900E+00 4.63125E+01 0.00000E+00
 -1      1292 1.29900E+00 4.18875E+01 0.00000E+00
 -1      1293 1.29900E+00 4.33625E+01 0.00000E+00
 -1      1294 2.59800E+00 4.41000E+01 0.00000E+00
 -1      1295 1.29900E+00 3.89375E+01 0.00000E+00
 -1      1296 1.29900E+00 4.04125E+01 0.00000E+00
 -1      1297 2.59800E+00 4.11500E+01 0.00000E+00
 -1      1298 1.29900E+00 3.59875E+01 0.00000E+00
 -1      1299 1.29900E+00 3.74625E+01 0.00000E+00
 -1      1300 2.59800E+00 3.82000E+01 0.00000E+00
 -1      1301 1.29900E+00 3.30875E+01 0.00000E+00
 -1      1302 1.29900E+00 3.45375E+01 0.00000E+00
 -1      1303 2.59800E+00 3.52750E+01 0.00000E+00
 -1      1304 1.29900E+00 3.01375E+01 0.00000E+00
 -1      1305 1.29900E+00 3.16125E+01 0.00000E+00
 -1      1306 2.59800E+00 3.23500E+01 0.00000E+00
 -1      1307 1.29900E+00 2.71875E+01 0.00000E+00
 -1      1308 1.29900E+00 2.86625E+01 0.00000E+00
 -1      1309 2.59800E+00 2.94000E+01 0.00000E+00
 -1      1310 1.29900E+00 2.42375E+01 0.00000E+00
 -1      1311 1.29900E+00 2.57125E+01 0.00000E+00
 -1      1312 2.59800E+00 2.64500E+01 0.00000E+00
 -1      1313 1.29900E+00 2.12875E+01 0.00000E+00
 -1      1314 1.29900E+00 2.27625E+01 0.00000E+00
 -1      1315 2.59800E+00 2.35000E+01 0.00000E+00
 -1      1316 1.29900E+00 1.83375E+01 0.00000E+00
 -1      1317 1.29900E+00 1.98125E+01 0.00000E+00
 -1      1318 2.59800E+00 2.05500E+01 0.00000E+00
 -1      1319 1.29900E+00 1.54375E+01 0.00000E+00
 -1      1320 1.29900E+00 1.68875E+01 0.00000E+00
 -1      1321 2.59800E+00 1.76250E+01 0.00000E+00
 -1      1322 1.29900E+00 1.24875E+01 0.00000E+00
 -1      1323 1.29900E+00 1.39625E+01 0.00000E+00
 -1      1324 2.59800E+00 1.47000E+01 0.00000E+00
 -1      1325 1.29900E+00 9.53750E+00 0.00000E+00
 -1      1326 1.29900E+00 1.10125E+01 0.00000E+00
 -1      1327 2.59800E+00 1.17500E+01 0.00000E+00
 -1      1328 1.29900E+00 6.58750E+00 0.00000E+00
 -1      1329 1.29900E+00 8.06250E+00 0.00000E+00
 -1      1330 2.59800E+00 8.80000E+00 0.00000E+00
 -1      1331 1.29900E+00 3.63750E+00 0.00000E+00
 -1      1332 1.29900E+00 5.11250E+00 0.00000E+00
 -1      1333 2.59800E+00 5.85000E+00 0.00000E+00
 -1      1334 1.43700E+00 1.09375E+00 0.00000E+00
 -1      1335 1.43700E+00 2.54375E+00 0.00000E+00
 -1      1336 2.73600E+00 3.28125E+00 0.00000E+00
 -1      1337 3.01200E+00 1.09375E+00 0.00000E+00
 -1      1338 3.75000E+00 4.87010E+01 0.00000E+00
 -1      1339 5.25000E+00 4.87010E+01 0.00000E+00
 -1      1340 6.75000E+00 4.87010E+01 0.00000E+00
 -1      1341 8.25000E+00 4.87010E+01 0.00000E+00
 -1      1342 6.00000E+00 4.74020E+01 0.00000E+00
 -1      1343 9.75000E+00 4.87010E+01 0.00000E+00
 -1      1344 1.12500E+01 4.87010E+01 0.00000E+00
 -1      1345 9.00000E+00 4.74020E+01 0.00000E+00
 -1      1346 1.27500E+01 4.87010E+01 0.00000E+00
 -1      1347 1.42500E+01 4.87010E+01 0.00000E+00
 -1      1348 1.20000E+01 4.74020E+01 0.00000E+00
 -1      1349 1.57500E+01 4.87010E+01 0.00000E+00
 -1      1350 1.72500E+01 4.87010E+01 0.00000E+00
 -1      1351 1.50000E+01 4.74020E+01 0.00000E+00
 -1      1352 1.86750E+01 4.87010E+01 0.00000E+00
 -1      1353 2.01000E+01 4.87010E+01 0.00000E+00
 -1      1354 1.79250E+01 4.74020E+01 0.00000E+00
 -1      1355 2.16000E+01 4.87010E+01 0.00000E+00
 -1      1356 2.31000E+01 4.87010E+01 0.00000E+00
 -1      1357 2.08500E+01 4.74020E+01 0.00000E+00
 -1      1358 2.46000E+01 4.87010E+01 0.00000E+00
 -1      1359 2.61000E+01 4.87010E+01 0.00000E+00
 -1      1360 2.38500E+01 4.74020E+01 0.00000E+00
 -1      1361 2.76000E+01 4.87010E+01 0.00000E+00
 -1      1362 2.91000E+01 4.87010E+01 0.00000E+00
 -1      1363 2.68500E+01 4.74020E+01 0.00000E+00
 -1      1364 3.06000E+01 4.87010E+01 0.00000E+00
 -1      1365 3.21000E+01 4.87010E+01 0.00000E+00
 -1      1366 2.98500E+01 4.74020E+01 0.00000E+00
 -1      1367 3.36000E+01 4.87010E+01 0.00000E+00
 -1      1368 3.51000E+01 4.87010E+01 0.00000E+00
 -1      1369 3.28500E+01 4.74020E+01 0.00000E+00
 -1      1370 3.66000E+01 4.87010E+01 0.00000E+00
 -1      1371 3.81000E+01 4.87010E+01 0.00000E+00
 -1      1372 3.58500E+01 4.74020E+01 0.00000E+00
 -1      1373 3.95250E+01 4.87010E+01 0.00000E+00
 -1      1374 4.09500E+01 4.87010E+01 0.00000E+00
 -1      1375 3.87750E+01 4.74020E+01 0.00000E+00
 -1      1376 4.24500E+01 4.87010E+01 0.00000E+00
 -1      1377 4.39500E+01 4.87010E+01 0.00000E+00
 -1      1378 4.17000E+01 4.74020E+01 0.00000E+00
 -1      1379 4.54500E+01 4.87010E+01 0.00000E+00
 -1      1380 4.69500E+01 4.87010E+01 0.00000E+00
 -1      1381 4.47000E+01 4.74020E+01 0.00000E+00
 -1      1382 4.84500E+01 4.87010E+01 0.00000E+00
 -1      1383 4.99500E+01 4.87010E+01 0.00000E+00
 -1      1384 4.77000E+01 4.74020E+01 0.00000E+00
 -1      1385 5.14500E+01 4.87010E+01 0.00000E+00
 -1      1386 5.29500E+01 4.87010E+01 0.00000E+00
 -1      1387 5.07000E+01 4.74020E+01 0.00000E+00
 -1      1388 5.44500E+01 4.87010E+01 0.00000E+00
 -1      1389 5.59500E+01 4.87010E+01 0.00000E+00
 -1      1390 5.37000E+01 4.74020E+01 0.00000E+00
 -1      1391 5.73750E+01 4.87010E+01 0.00000E+00
 -1      1392 5.88000E+01 4.87010E+01 0.00000E+00
 -1      1393 5.66250E+01 4.74020E+01 0.00000E+00
 -1      1394 6.03000E+01 4.87010E+01 0.00000E+00
 -1      1395 6.18000E+01 4.87010E+01 0.00000E+00
 -1      1396 5.95500E+01 4.74020E+01 0.00000E+00
 -1      1397 6.33000E+01 4.87010E+01 0.00000E+00
 -1      1398 6.48000E+01 4.87010E+01 0.00000E+00
 -1      1399 6.25500E+01 4.74020E+01 0.00000E+00
 -1      1400 6.63000E+01 4.87010E+01 0.00000E+00
 -1      1401 6.78000E+01 4.87010E+01 0.00000E+00
 -1      1402 6.55500E+01 4.74020E+01 0.00000E+00
 -1      1403 6.93000E+01 4.87010E+01 0.00000E+00
 -1      1404 7.08000E+01 4.87010E+01 0.00000E+00
 -1      1405 6.85500E+01 4.74020E+01 0.00000E+00
 -1      1406 7.23000E+01 4.87010E+01 0.00000E+00
 -1      1407 7.38000E+01 4.87010E+01 0.00000E+00
 -1      1408 7.15500E+01 4.74020E+01 0.00000E+00
 -1      1409 7.53000E+01 4.87010E+01 0.00000E+00
 -1      1410 7.68000E+01 4.87010E+01 0.00000E+00
 -1      1411 7.45500E+01 4.74020E+01 0.00000E+00
 -1      1412 7.82250E+01 4.87010E+01 0.00000E+00
 -1      1413 7.96500E+01 4.87010E+01 0.00000E+00
 -1      1414 7.74750E+01 4.74020E+01 0.00000E+00
 -1      1415 8.11500E+01 4.87010E+01 0.00000E+00
 -1      1416 8.26500E+01 4.87010E+01 0.00000E+00
 -1      1417 8.04000E+01 4.74020E+01 0.00000E+00
 -1      1418 8.41500E+01 4.87010E+01 0.00000E+00
 -1      1419 8.56500E+01 4.87010E+01 0.00000E+00
 -1      1420 8.34000E+01 4.74020E+01 0.00000E+00
 -1      1421 8.71500E+01 4.87010E+01 0.00000E+00
 -1      1422 8.86500E+01 4.87010E+01 0.00000E+00
 -1      1423 8.64000E+01 4.74020E+01 0.00000E+00
 -1      1424 9.01500E+01 4.87010E+01 0.00000E+00
 -1      1425 9.16500E+01 4.87010E+01 0.00000E+00
 -1      1426 8.94000E+01 4.74020E+01 0.00000E+00
 -1      1427 9.31500E+01 4.87010E+01 0.00000E+00
 -1      1428 9.46500E+01 4.87010E+01 0.00000E+00
 -1      1429 9.24000E+01 4.74020E+01 0.00000E+00
 -1      1430 9.60750E+01 4.87010E+01 0.00000E+00
 -1      1431 9.75000E+01 4.87010E+01 0.00000E+00
 -1      1432 9.53250E+01 4.74020E+01 0.00000E+00
 -1      1433 9.90000E+01 4.87010E+01 0.00000E+00
 -1      1434 1.00500E+02 4.87010E+01 0.00000E+00
 -1      1435 9.82500E+01 4.74020E+01 0.00000E+00
 -1      1436 1.02000E+02 4.87010E+01 0.00000E+00
 -1      1437 1.03500E+02 4.87010E+01 0.00000E+00
 -1      1438 1.01250E+02 4.74020E+01 0.00000E+00
 -1      1439 1.05000E+02 4.87010E+01 0.00000E+00
 -1      1440 1.06500E+02 4.87010E+01 0.00000E+00
 -1      1441 1.04250E+02 4.74020E+01 0.00000E+00
 -1      1442 1.08000E+02 4.87010E+01 0.00000E+00
 -1      1443 1.09500E+02 4.87010E+01 0.00000E+00
 -1      1444 1.07250E+02 4.74020E+01 0.00000E+00
 -1      1445 1.10925E+02 4.87010E+01 0.00000E+00
 -1      1446 1.12350E+02 4.87010E+01 0.00000E+00
 -1      1447 1.10175E+02 4.74020E+01 0.00000E+00
 -1      1448 1.13550E+02 4.87010E+01 0.00000E+00
 -1      1449 1.14750E+02 4.87010E+01 0.00000E+00
 -1      1450 1.12800E+02 4.74020E+01 0.00000E+00
 -1      1451 1.15875E+02 4.87010E+01 0.00000E+00
 -1      1452 1.17000E+02 4.87010E+01 0.00000E+00
 -1      1453 1.15125E+02 4.74020E+01 0.00000E+00
 -1      1454 1.18350E+02 4.87010E+01 0.00000E+00
 -1      1455 1.19700E+02 4.87010E+01 0.00000E+00
 -1      1456 1.17600E+02 4.74020E+01 0.00000E+00
 -1      1457 1.21125E+02 4.87010E+01 0.00000E+00
 -1      1458 1.22550E+02 4.87010E+01 0.00000E+00
 -1      1459 1.20375E+02 4.74020E+01 0.00000E+00
 -1      1460 1.24050E+02 4.87010E+01 0.00000E+00
 -1      1461 1.25550E+02 4.87010E+01 0.00000E+00
 -1      1462 1.23300E+02 4.74020E+01 0.00000E+00
 -1      1463 1.27050E+02 4.87010E+01 0.00000E+00
 -1      1464 1.28550E+02 4.87010E+01 0.00000E+00
 -1      1465 1.26300E+02 4.74020E+01 0.00000E+00
 -1      1466 1.29975E+02 4.87010E+01 0.00000E+00
 -1      1467 1.31400E+02 4.87010E+01 0.00000E+00
 -1      1468 1.29225E+02 4.74020E+01 0.00000E+00
 -1      1469 1.32900E+02 4.87010E+01 0.00000E+00
 -1      1470 1.34400E+02 4.87010E+01 0.00000E+00
 -1      1471 1.32150E+02 4.74020E+01 0.00000E+00
 -1      1472 1.35900E+02 4.87010E+01 0.00000E+00
 -1      1473 1.37400E+02 4.87010E+01 0.00000E+00
 -1      1474 1.35150E+02 4.74020E+01 0.00000E+00
 -1      1475 1.38900E+02 4.87010E+01 0.00000E+00
 -1      1476 1.40400E+02 4.87010E+01 0.00000E+00
 -1      1477 1.38150E+02 4.74020E+01 0.00000E+00
 -1      1478 1.41900E+02 4.87010E+01 0.00000E+00
 -1      1479 1.43400E+02 4.87010E+01 0.00000E+00
 -1      1480 1.41150E+02 4.74020E+01 0.00000E+00
 -1      1481 1.44900E+02 4.87010E+01 0.00000E+00
 -1      1482 1.46400E+02 4.87010E+01 0.00000E+00
 -1      1483 1.44150E+02 4.74020E+01 0.00000E+00
 -1      1484 1.48575E+02 4.85500E+01 0.00000E+00
 -1      1485 6.01200E+00 1.09375E+00 0.00000E+00
 -1      1486 4.51200E+00 1.09375E+00 0.00000E+00
 -1      1487 4.37400E+00 2.18750E+00 0.00000E+00
 -1      1488 9.01200E+00 1.09375E+00 0.00000E+00
 -1      1489 7.51200E+00 1.09375E+00 0.00000E+00
 -1      1490 7.37400E+00 2.18750E+00 0.00000E+00
 -1      1491 1.20120E+01 1.09375E+00 0.00000E+00
 -1      1492 1.05120E+01 1.09375E+00 0.00000E+00
 -1      1493 1.03740E+01 2.18750E+00 0.00000E+00
 -1      1494 1.50120E+01 1.09375E+00 0.00000E+00
 -1      1495 1.35120E+01 1.09375E+00 0.00000E+00
 -1      1496 1.33740E+01 2.18750E+00 0.00000E+00
 -1      1497 1.80120E+01 1.09375E+00 0.00000E+00
 -1      1498 1.65120E+01 1.09375E+00 0.00000E+00
 -1      1499 1.63740E+01 2.18750E+00 0.00000E+00
 -1      1500 2.10120E+01 1.09375E+00 0.00000E+00
 -1      1501 1.95120E+01 1.09375E+00 0.00000E+00
 -1      1502 1.93740E+01 2.18750E+00 0.00000E+00
 -1      1503 2.40120E+01 1.09375E+00 0.00000E+00
 -1      1504 2.25120E+01 1.09375E+00 0.00000E+00
 -1      1505 2.23740E+01 2.18750E+00 0.00000E+00
 -1      1506 2.70120E+01 1.09375E+00 0.00000E+00
 -1      1507 2.55120E+01 1.09375E+00 0.00000E+00
 -1      1508 2.53740E+01 2.18750E+00 0.00000E+00
 -1      1509 3.00120E+01 1.09375E+00 0.00000E+00
 -1      1510 2.85120E+01 1.09375E+00 0.00000E+00
 -1      1511 2.83740E+01 2.18750E+00 0.00000E+00
 -1      1512 3.30120E+01 1.09375E+00 0.00000E+00
 -1      1513 3.15120E+01 1.09375E+00 0.00000E+00
 -1      1514 3.13740E+01 2.18750E+00 0.00000E+00
 -1      1515 3.60120E+01 1.09375E+00 0.00000E+00
 -1      1516 3.45120E+01 1.09375E+00 0.00000E+00
 -1      1517 3.43740E+01 2.18750E+00 0.00000E+00
 -1      1518 3.90120E+01 1.09375E+00 0.00000E+00
 -1      1519 3.75120E+01 1.09375E+00 0.00000E+00
 -1      1520 3.73740E+01 2.18750E+00 0.00000E+00
 -1      1521 4.20120E+01 1.09375E+00 0.00000E+00
 -1      1522 4.05120E+01 1.09375E+00 0.00000E+00
 -1      1523 4.03740E+01 2.18750E+00 0.00000E+00
 -1      1524 4.50120E+01 1.09375E+00 0.00000E+00
 -1      1525 4.35120E+01 1.09375E+00 0.00000E+00
 -1      1526 4.33740E+01 2.18750E+00 0.00000E+00
 -1      1527 4.80120E+01 1.09375E+00 0.00000E+00
 -1      1528 4.65120E+01 1.09375E+00 0.00000E+00
 -1      1529 4.63740E+01 2.18750E+00 0.00000E+00
 -1      1530 5.10120E+01 1.09375E+00 0.00000E+00
 -1      1531 4.95120E+01 1.09375E+00 0.00000E+00
 -1      1532 4.93740E+01 2.18750E+00 0.00000E+00
 -1      1533 5.40120E+01 1.09375E+00 0.00000E+00
 -1      1534 5.25120E+01 1.09375E+00 0.00000E+00
 -1      1535 5.23740E+01 2.18750E+00 0.00000E+00
 -1      1536 5.70120E+01 1.09375E+00 0.00000E+00
 -1      1537 5.55120E+01 1.09375E+00 0.00000E+00
 -1      1538 5.53740E+01 2.18750E+00 0.00000E+00
 -1      1539 6.00120E+01 1.09375E+00 0.00000E+00
 -1      1540 5.85120E+01 1.09375E+00 0.00000E+00
 -1      1541 5.83740E+01 2.18750E+00 0.00000E+00
 -1      1542 6.30120E+01 1.09375E+00 0.00000E+00
 -1      1543 6.15120E+01 1.09375E+00 0.00000E+00
 -1      1544 6.13740E+01 2.18750E+00 0.00000E+00
 -1      1545 6.60120E+01 1.09375E+00 0.00000E+00
 -1      1546 6.45120E+01 1.09375E+00 0.00000E+00
 -1      1547 6.43740E+01 2.18750E+00 0.00000E+00
 -1      1548 6.90120E+01 1.09375E+00 0.00000E+00
 -1      1549 6.75120E+01 1.09375E+00 0.00000E+00
 -1      1550 6.73740E+01 2.18750E+00 0.00000E+00
 -1      1551 7.20120E+01 1.09375E+00 0.00000E+00
 -1      1552 7.05120E+01 1.09375E+00 0.00000E+00
 -1      1553 7.03740E+01 2.18750E+00 0.00000E+00
 -1      1554 7.50120E+01 1.09375E+00 0.00000E+00
 -1      1555 7.35120E+01 1.09375E+00 0.00000E+00
 -1      1556 7.33740E+01 2.18750E+00 0.00000E+00
 -1      1557 7.80120E+01 1.09375E+00 0.00000E+00
 -1      1558 7.65120E+01 1.09375E+00 0.00000E+00
 -1      1559 7.63740E+01 2.18750E+00 0.00000E+00
 -1      1560 8.10120E+01 1.09375E+00 0.00000E+00
 -1      1561 7.95120E+01 1.09375E+00 0.00000E+00
 -1      1562 7.93740E+01 2.18750E+00 0.00000E+00
 -1      1563 8.40120E+01 1.09375E+00 0.00000E+00
 -1      1564 8.25120E+01 1.09375E+00 0.00000E+00
 -1      1565 8.23740E+01 2.18750E+00 0.00000E+00
 -1      1566 8.70120E+01 1.09375E+00 0.00000E+00
 -1      1567 8.55120E+01 1.09375E+00 0.00000E+00
 -1      1568 8.53740E+01 2.18750E+00 0.00000E+00
 -1      1569 9.00120E+01 1.09375E+00 0.00000E+00
 -1      1570 8.85120E+01 1.09375E+00 0.00000E+00
 -1      1571 8.83740E+01 2.18750E+00 0.00000E+00
 -1      1572 9.30120E+01 1.09375E+00 0.00000E+00
 -1      1573 9.15120E+01 1.09375E+00 0.00000E+00
 -1      1574 9.13740E+01 2.18750E+00 0.00000E+00
 -1      1575 9.60120E+01 1.09375E+00 0.00000E+00
 -1      1576 9.45120E+01 1.09375E+00 0.00000E+00
 -1      1577 9.43740E+01 2.18750E+00 0.00000E+00
 -1      1578 9.90120E+01 1.09375E+00 0.00000E+00
 -1      1579 9.75120E+01 1.09375E+00 0.00000E+00
 -1      1580 9.73740E+01 2.18750E+00 0.00000E+00
 -1      1581 1.02012E+02 1.09375E+00 0.00000E+00
 -1      1582 1.00512E+02 1.09375E+00 0.00000E+00
 -1      1583 1.00374E+02 2.18750E+00 0.00000E+00
 -1      1584 1.05012E+02 1.09375E+00 0.00000E+00
 -1      1585 1.03512E+02 1.09375E+00 0.00000E+00
 -1      1586 1.03374E+02 2.18750E+00 0.00000E+00
 -1      1587 1.08012E+02 1.09375E+00 0.00000E+00
 -1      1588 1.06512E+02 1.09375E+00 0.00000E+00
 -1      1589 1.06374E+02 2.18750E+00 0.00000E+00
 -1      1590 1.11012E+02 1.09375E+00 0.00000E+00
 -1      1591 1.09512E+02 1.09375E+00 0.00000E+00
 -1      1592 1.09374E+02 2.18750E+00 0.00000E+00
 -1      1593 1.14012E+02 1.09375E+00 0.00000E+00
 -1      1594 1.12512E+02 1.09375E+00 0.00000E+00
 -1      1595 1.12374E+02 2.18750E+00 0.00000E+00
 -1      1596 1.17012E+02 1.09375E+00 0.00000E+00
 -1      1597 1.15512E+02 1.09375E+00 0.00000E+00
 -1      1598 1.15374E+02 2.18750E+00 0.00000E+00
 -1      1599 1.20012E+02 1.09375E+00 0.00000E+00
 -1      1600 1.18512E+02 1.09375E+00 0.00000E+00
 -1      1601 1.18374E+02 2.18750E+00 0.00000E+00
 -1      1602 1.23012E+02 1.09375E+00 0.00000E+00
 -1      1603 1.21512E+02 1.09375E+00 0.00000E+00
 -1      1604 1.21374E+02 2.18750E+00 0.00000E+00
 -1      1605 1.26012E+02 1.09375E+00 0.00000E+00
 -1      1606 1.24512E+02 1.09375E+00 0.00000E+00
 -1      1607 1.24374E+02 2.18750E+00 0.00000E+00
 -1      1608 1.29012E+02 1.09375E+00 0.00000E+00
 -1      1609 1.27512E+02 1.09375E+00 0.00000E+00
 -1      1610 1.27374E+02 2.18750E+00 0.00000E+00
 -1      1611 1.32012E+02 1.09375E+00 0.00000E+00
 -1      1612 1.30512E+02 1.09375E+00 0.00000E+00
 -1      1613 1.30374E+02 2.18750E+00 0.00000E+00
 -1      1614 1.35012E+02 1.09375E+00 0.00000E+00
 -1      1615 1.33512E+02 1.09375E+00 0.00000E+00
 -1      1616 1.33374E+02 2.18750E+00 0.00000E+00
 -1      1617 1.38012E+02 1.09375E+00 0.00000E+00
 -1      1618 1.36512E+02 1.09375E+00 0.00000E+00
 -1      1619 1.36374E+02 2.18750E+00 0.00000E+00
 -1      1620 1.41012E+02 1.09375E+00 0.00000E+00
 -1      1621 1.39512E+02 1.09375E+00 0.00000E+00
 -1      1622 1.39374E+02 2.18750E+00 0.00000E+00
 -1      1623 1.44012E+02 1.09375E+00 0.00000E+00
 -1      1624 1.42512E+02 1.09375E+00 0.00000E+00
 -1      1625 1.42374E+02 2.18750E+00 0.00000E+00
 -1      1626 1.47012E+02 1.09375E+00 0.00000E+00
 -1      1627 1.45512E+02 1.09375E+00 0.00000E+00
 -1      1628 1.45374E+02 2.18750E+00 0.00000E+00
 -1      1629 1.48575E+02 1.47500E+00 0.00000E+00
 -1      1630 1.48701E+02 5.16250E+00 0.00000E+00
 -1      1631 1.48701E+02 3.68750E+00 0.00000E+00
 -1      1632 1.48701E+02 8.11250E+00 0.00000E+00
 -1      1633 1.48701E+02 6.63750E+00 0.00000E+00
 -1      1634 1.47402E+02 5.90000E+00 0.00000E+00
 -1      1635 1.48701E+02 1.10625E+01 0.00000E+00
 -1      1636 1.48701E+02 9.58750E+00 0.00000E+00
 -1      1637 1.47402E+02 8.85000E+00 0.00000E+00
 -1      1638 1.48701E+02 1.40125E+01 0.00000E+00
 -1      1639 1.48701E+02 1.25375E+01 0.00000E+00
 -1      1640 1.47402E+02 1.18000E+01 0.00000E+00
 -1      1641 1.48701E+02 1.69125E+01 0.00000E+00
 -1      1642 1.48701E+02 1.54625E+01 0.00000E+00
 -1      1643 1.47402E+02 1.47250E+01 0.00000E+00
 -1      1644 1.48701E+02 1.98625E+01 0.00000E+00
 -1      1645 1.48701E+02 1.83875E+01 0.00000E+00
 -1      1646 1.47402E+02 1.76500E+01 0.00000E+00
 -1      1647 1.48701E+02 2.28125E+01 0.00000E+00
 -1      1648 1.48701E+02 2.13375E+01 0.00000E+00
 -1      1649 1.47402E+02 2.06000E+01 0.00000E+00
 -1      1650 1.48701E+02 2.57625E+01 0.00000E+00
 -1      1651 1.48701E+02 2.42875E+01 0.00000E+00
 -1      1652 1.47402E+02 2.35500E+01 0.00000E+00
 -1      1653 1.48701E+02 2.87125E+01 0.00000E+00
 -1      1654 1.48701E+02 2.72375E+01 0.00000E+00
 -1      1655 1.47402E+02 2.65000E+01 0.00000E+00
 -1      1656 1.48701E+02 3.16625E+01 0.00000E+00
 -1      1657 1.48701E+02 3.01875E+01 0.00000E+00
 -1      1658 1.47402E+02 2.94500E+01 0.00000E+00
 -1      1659 1.48701E+02 3.45625E+01 0.00000E+00
 -1      1660 1.48701E+02 3.31125E+01 0.00000E+00
 -1      1661 1.47402E+02 3.23750E+01 0.00000E+00
 -1      1662 1.48701E+02 3.75125E+01 0.00000E+00
 -1      1663 1.48701E+02 3.60375E+01 0.00000E+00
 -1      1664 1.47402E+02 3.53000E+01 0.00000E+00
 -1      1665 1.48701E+02 4.04625E+01 0.00000E+00
 -1      1666 1.48701E+02 3.89875E+01 0.00000E+00
 -1      1667 1.47402E+02 3.82500E+01 0.00000E+00
 -1      1668 1.48701E+02 4.34125E+01 0.00000E+00
 -1      1669 1.48701E+02 4.19375E+01 0.00000E+00
 -1      1670 1.47402E+02 4.12000E+01 0.00000E+00
 -1      1671 1.25065E+02 3.43757E+01 0.00000E+00
 -1      1672 1.25134E+02 3.50689E+01 0.00000E+00
 -1      1673 1.24690E+02 3.28918E+01 0.00000E+00
 -1      1674 1.24901E+02 3.35704E+01 0.00000E+00
 -1      1675 1.24017E+02 3.14994E+01 0.00000E+00
 -1      1676 1.24363E+02 3.21258E+01 0.00000E+00
 -1      1677 1.23067E+02 3.02649E+01 0.00000E+00
 -1      1678 1.23537E+02 3.08111E+01 0.00000E+00
 -1      1679 1.21886E+02 2.92499E+01 0.00000E+00
 -1      1680 1.22456E+02 2.96874E+01 0.00000E+00
 -1      1681 1.20503E+02 2.84472E+01 0.00000E+00
 -1      1682 1.21174E+02 2.87672E+01 0.00000E+00
 -1      1683 1.18990E+02 2.80326E+01 0.00000E+00
 -1      1684 1.19683E+02 2.81995E+01 0.00000E+00
 -1      1685 1.17423E+02 2.78586E+01 0.00000E+00
 -1      1686 1.18155E+02 2.78800E+01 0.00000E+00
 -1      1687 1.15866E+02 2.80913E+01 0.00000E+00
 -1      1688 1.16576E+02 2.79632E+01 0.00000E+00
 -1      1689 1.14378E+02 2.86021E+01 0.00000E+00
 -1      1690 1.15053E+02 2.83276E+01 0.00000E+00
 -1      1691 1.12829E+02 2.93582E+01 0.00000E+00
 -1      1692 1.13495E+02 2.88962E+01 0.00000E+00
 -1      1693 1.11774E+02 3.05878E+01 0.00000E+00
 -1      1694 1.12253E+02 3.00712E+01 0.00000E+00
 -1      1695 1.10892E+02 3.18890E+01 0.00000E+00
 -1      1696 1.11270E+02 3.12601E+01 0.00000E+00
 -1      1697 1.10148E+02 3.34253E+01 0.00000E+00
 -1      1698 1.10401E+02 3.26647E+01 0.00000E+00
 -1      1699 1.10000E+02 3.50289E+01 0.00000E+00
 -1      1700 1.10075E+02 3.43250E+01 0.00000E+00
 -1      1701 1.10065E+02 3.65596E+01 0.00000E+00
 -1      1702 1.09997E+02 3.58554E+01 0.00000E+00
 -1      1703 1.10405E+02 3.80792E+01 0.00000E+00
 -1      1704 1.10191E+02 3.73901E+01 0.00000E+00
 -1      1705 1.11110E+02 3.94466E+01 0.00000E+00
 -1      1706 1.10770E+02 3.88321E+01 0.00000E+00
 -1      1707 1.12027E+02 4.07073E+01 0.00000E+00
 -1      1708 1.11555E+02 4.01575E+01 0.00000E+00
 -1      1709 1.13213E+02 4.17297E+01 0.00000E+00
 -1      1710 1.12644E+02 4.12926E+01 0.00000E+00
 -1      1711 1.14628E+02 4.25479E+01 0.00000E+00
 -1      1712 1.13940E+02 4.22210E+01 0.00000E+00
 -1      1713 1.16231E+02 4.29323E+01 0.00000E+00
 -1      1714 1.15499E+02 4.27633E+01 0.00000E+00
 -1      1715 1.17848E+02 4.30459E+01 0.00000E+00
 -1      1716 1.17101E+02 4.30368E+01 0.00000E+00
 -1      1717 1.19487E+02 4.28450E+01 0.00000E+00
 -1      1718 1.18737E+02 4.30009E+01 0.00000E+00
 -1      1719 1.20972E+02 4.22441E+01 0.00000E+00
 -1      1720 1.20309E+02 4.25390E+01 0.00000E+00
 -1      1721 1.22273E+02 4.14157E+01 0.00000E+00
 -1      1722 1.21698E+02 4.18285E+01 0.00000E+00
 -1      1723 1.23508E+02 4.03033E+01 0.00000E+00
 -1      1724 1.22981E+02 4.08871E+01 0.00000E+00
 -1      1725 1.24316E+02 3.89193E+01 0.00000E+00
 -1      1726 1.23962E+02 3.95398E+01 0.00000E+00
 -1      1727 1.24882E+02 3.74441E+01 0.00000E+00
 -1      1728 1.24657E+02 3.81441E+01 0.00000E+00
 -1      1729 1.25173E+02 3.59006E+01 0.00000E+00
 -1      1730 1.25099E+02 3.66169E+01 0.00000E+00
 -1      1731 1.47825E+02 4.72510E+01 0.00000E+00
 -1      1732 1.25047E+02 3.22853E+01 0.00000E+00
 -1      1733 1.48437E+02 2.56875E+00 0.00000E+00
 -1      1734 1.47138E+02 3.30625E+00 0.00000E+00
 -1      1735 1.25742E+02 3.54937E+01 0.00000E+00
 -1      1736 1.25539E+02 3.38566E+01 0.00000E+00
 -1      1737 1.48701E+02 4.63625E+01 0.00000E+00
 -1      1738 1.48701E+02 4.48875E+01 0.00000E+00
 -1      1739 1.47402E+02 4.41500E+01 0.00000E+00
 -1      1740 1.24241E+02 3.08309E+01 0.00000E+00
 -1      1741 1.23151E+02 2.95650E+01 0.00000E+00
 -1      1742 1.21829E+02 2.85048E+01 0.00000E+00
 -1      1743 1.20298E+02 2.77744E+01 0.00000E+00
 -1      1744 1.18643E+02 2.73741E+01 0.00000E+00
 -1      1745 1.16961E+02 2.73261E+01 0.00000E+00
 -1      1746 1.15300E+02 2.76670E+01 0.00000E+00
 -1      1747 1.13604E+02 2.81974E+01 0.00000E+00
 -1      1748 1.12145E+02 2.92044E+01 0.00000E+00
 -1      1749 1.11065E+02 3.05897E+01 0.00000E+00
 -1      1750 1.10071E+02 3.20378E+01 0.00000E+00
 -1      1751 1.09508E+02 3.37132E+01 0.00000E+00
 -1      1752 1.09431E+02 3.54395E+01 0.00000E+00
 -1      1753 1.09553E+02 3.70966E+01 0.00000E+00
 -1      1754 1.10044E+02 3.86798E+01 0.00000E+00
 -1      1755 1.10854E+02 4.01436E+01 0.00000E+00
 -1      1756 1.11916E+02 4.14398E+01 0.00000E+00
 -1      1757 1.13261E+02 4.25164E+01 0.00000E+00
 -1      1758 1.14859E+02 4.32231E+01 0.00000E+00
 -1      1759 1.16598E+02 4.35430E+01 0.00000E+00
 -1      1760 1.18355E+02 4.36025E+01 0.00000E+00
 -1      1761 1.20065E+02 4.32515E+01 0.00000E+00
 -1      1762 1.21613E+02 4.25299E+01 0.00000E+00
 -1      1763 1.23048E+02 4.15857E+01 0.00000E+00
 -1      1764 1.24211E+02 4.02937E+01 0.00000E+00
 -1      1765 1.25006E+02 3.87550E+01 0.00000E+00
 -1      1766 1.25564E+02 3.71526E+01 0.00000E+00
 -1      1767 2.79900E+00 4.77875E+01 0.00000E+00
 -1      1768 3.89700E+00 4.04125E+01 0.00000E+00
 -1      1769 3.89700E+00 4.18875E+01 0.00000E+00
 -1      1770 3.89700E+00 4.33625E+01 0.00000E+00
 -1      1771 3.89700E+00 4.48375E+01 0.00000E+00
 -1      1772 5.19600E+00 4.26250E+01 0.00000E+00
 -1      1773 3.89700E+00 3.45500E+01 0.00000E+00
 -1      1774 3.89700E+00 3.60000E+01 0.00000E+00
 -1      1775 3.89700E+00 3.16000E+01 0.00000E+00
 -1      1776 3.89700E+00 3.30750E+01 0.00000E+00
 -1      1777 5.19600E+00 3.38000E+01 0.00000E+00
 -1      1778 3.89700E+00 2.86500E+01 0.00000E+00
 -1      1779 3.89700E+00 3.01250E+01 0.00000E+00
 -1      1780 5.19600E+00 3.08500E+01 0.00000E+00
 -1      1781 3.89700E+00 2.57000E+01 0.00000E+00
 -1      1782 3.89700E+00 2.71750E+01 0.00000E+00
 -1      1783 5.19600E+00 2.79000E+01 0.00000E+00
 -1      1784 3.89700E+00 2.27500E+01 0.00000E+00
 -1      1785 3.89700E+00 2.42250E+01 0.00000E+00
 -1      1786 5.19600E+00 2.49500E+01 0.00000E+00
 -1      1787 3.89700E+00 1.98000E+01 0.00000E+00
 -1      1788 3.89700E+00 2.12750E+01 0.00000E+00
 -1      1789 5.19600E+00 2.20000E+01 0.00000E+00
 -1      1790 3.89700E+00 1.69000E+01 0.00000E+00
 -1      1791 3.89700E+00 1.83500E+01 0.00000E+00
 -1      1792 5.19600E+00 1.90750E+01 0.00000E+00
 -1      1793 3.89700E+00 1.39500E+01 0.00000E+00
 -1      1794 3.89700E+00 1.54250E+01 0.00000E+00
 -1      1795 5.19600E+00 1.61500E+01 0.00000E+00
 -1      1796 3.89700E+00 1.10000E+01 0.00000E+00
 -1      1797 3.89700E+00 1.24750E+01 0.00000E+00
 -1      1798 5.19600E+00 1.32000E+01 0.00000E+00
 -1      1799 3.89700E+00 8.05000E+00 0.00000E+00
 -1      1800 3.89700E+00 9.52500E+00 0.00000E+00
 -1      1801 5.19600E+00 1.02500E+01 0.00000E+00
 -1      1802 3.89700E+00 5.10000E+00 0.00000E+00
 -1      1803 3.89700E+00 6.57500E+00 0.00000E+00
 -1      1804 5.19600E+00 7.30000E+00 0.00000E+00
 -1      1805 4.20450E+00 3.09687E+00 0.00000E+00
 -1      1806 4.06650E+00 4.19063E+00 0.00000E+00
 -1      1807 5.36550E+00 4.91563E+00 0.00000E+00
 -1      1808 5.70450E+00 3.09687E+00 0.00000E+00
 -1      1809 3.54900E+00 4.64885E+01 0.00000E+00
 -1      1810 8.70450E+00 3.09687E+00 0.00000E+00
 -1      1811 7.20450E+00 3.09687E+00 0.00000E+00
 -1      1812 7.03500E+00 4.00625E+00 0.00000E+00
 -1      1813 8.25000E+00 4.61030E+01 0.00000E+00
 -1      1814 9.75000E+00 4.61030E+01 0.00000E+00
 -1      1815 1.12500E+01 4.61030E+01 0.00000E+00
 -1      1816 1.27500E+01 4.61030E+01 0.00000E+00
 -1      1817 1.05000E+01 4.48040E+01 0.00000E+00
 -1      1818 1.42500E+01 4.61030E+01 0.00000E+00
 -1      1819 1.57500E+01 4.61030E+01 0.00000E+00
 -1      1820 1.35000E+01 4.48040E+01 0.00000E+00
 -1      1821 1.71750E+01 4.61030E+01 0.00000E+00
 -1      1822 1.86000E+01 4.61030E+01 0.00000E+00
 -1      1823 1.64250E+01 4.48040E+01 0.00000E+00
 -1      1824 2.01000E+01 4.61030E+01 0.00000E+00
 -1      1825 2.16000E+01 4.61030E+01 0.00000E+00
 -1      1826 1.93500E+01 4.48040E+01 0.00000E+00
 -1      1827 2.31000E+01 4.61030E+01 0.00000E+00
 -1      1828 2.46000E+01 4.61030E+01 0.00000E+00
 -1      1829 2.23500E+01 4.48040E+01 0.00000E+00
 -1      1830 2.61000E+01 4.61030E+01 0.00000E+00
 -1      1831 2.76000E+01 4.61030E+01 0.00000E+00
 -1      1832 2.53500E+01 4.48040E+01 0.00000E+00
 -1      1833 2.91000E+01 4.61030E+01 0.00000E+00
 -1      1834 3.06000E+01 4.61030E+01 0.00000E+00
 -1      1835 2.83500E+01 4.48040E+01 0.00000E+00
 -1      1836 3.21000E+01 4.61030E+01 0.00000E+00
 -1      1837 3.36000E+01 4.61030E+01 0.00000E+00
 -1      1838 3.13500E+01 4.48040E+01 0.00000E+00
 -1      1839 3.51000E+01 4.61030E+01 0.00000E+00
 -1      1840 3.66000E+01 4.61030E+01 0.00000E+00
 -1      1841 3.43500E+01 4.48040E+01 0.00000E+00
 -1      1842 3.80250E+01 4.61030E+01 0.00000E+00
 -1      1843 3.94500E+01 4.61030E+01 0.00000E+00
 -1      1844 3.72750E+01 4.48040E+01 0.00000E+00
 -1      1845 4.09500E+01 4.61030E+01 0.00000E+00
 -1      1846 4.24500E+01 4.61030E+01 0.00000E+00
 -1      1847 4.02000E+01 4.48040E+01 0.00000E+00
 -1      1848 4.39500E+01 4.61030E+01 0.00000E+00
 -1      1849 4.54500E+01 4.61030E+01 0.00000E+00
 -1      1850 4.32000E+01 4.48040E+01 0.00000E+00
 -1      1851 4.69500E+01 4.61030E+01 0.00000E+00
 -1      1852 4.84500E+01 4.61030E+01 0.00000E+00
 -1      1853 4.62000E+01 4.48040E+01 0.00000E+00
 -1      1854 4.99500E+01 4.61030E+01 0.00000E+00
 -1      1855 5.14500E+01 4.61030E+01 0.00000E+00
 -1      1856 4.92000E+01 4.48040E+01 0.00000E+00
 -1      1857 5.29500E+01 4.61030E+01 0.00000E+00
 -1      1858 5.44500E+01 4.61030E+01 0.00000E+00
 -1      1859 5.22000E+01 4.48040E+01 0.00000E+00
 -1      1860 5.58750E+01 4.61030E+01 0.00000E+00
 -1      1861 5.73000E+01 4.61030E+01 0.00000E+00
 -1      1862 5.51250E+01 4.48040E+01 0.00000E+00
 -1      1863 5.88000E+01 4.61030E+01 0.00000E+00
 -1      1864 6.03000E+01 4.61030E+01 0.00000E+00
 -1      1865 5.80500E+01 4.48040E+01 0.00000E+00
 -1      1866 6.18000E+01 4.61030E+01 0.00000E+00
 -1      1867 6.33000E+01 4.61030E+01 0.00000E+00
 -1      1868 6.10500E+01 4.48040E+01 0.00000E+00
 -1      1869 6.48000E+01 4.61030E+01 0.00000E+00
 -1      1870 6.63000E+01 4.61030E+01 0.00000E+00
 -1      1871 6.40500E+01 4.48040E+01 0.00000E+00
 -1      1872 6.78000E+01 4.61030E+01 0.00000E+00
 -1      1873 6.93000E+01 4.61030E+01 0.00000E+00
 -1      1874 6.70500E+01 4.48040E+01 0.00000E+00
 -1      1875 7.08000E+01 4.61030E+01 0.00000E+00
 -1      1876 7.23000E+01 4.61030E+01 0.00000E+00
 -1      1877 7.00500E+01 4.48040E+01 0.00000E+00
 -1      1878 7.38000E+01 4.61030E+01 0.00000E+00
 -1      1879 7.53000E+01 4.61030E+01 0.00000E+00
 -1      1880 7.30500E+01 4.48040E+01 0.00000E+00
 -1      1881 7.67250E+01 4.61030E+01 0.00000E+00
 -1      1882 7.81500E+01 4.61030E+01 0.00000E+00
 -1      1883 7.59750E+01 4.48040E+01 0.00000E+00
 -1      1884 7.96500E+01 4.61030E+01 0.00000E+00
 -1      1885 8.11500E+01 4.61030E+01 0.00000E+00
 -1      1886 7.89000E+01 4.48040E+01 0.00000E+00
 -1      1887 8.26500E+01 4.61030E+01 0.00000E+00
 -1      1888 8.41500E+01 4.61030E+01 0.00000E+00
 -1      1889 8.19000E+01 4.48040E+01 0.00000E+00
 -1      1890 8.56500E+01 4.61030E+01 0.00000E+00
 -1      1891 8.71500E+01 4.61030E+01 0.00000E+00
 -1      1892 8.49000E+01 4.48040E+01 0.00000E+00
 -1      1893 8.86500E+01 4.61030E+01 0.00000E+00
 -1      1894 9.01500E+01 4.61030E+01 0.00000E+00
 -1      1895 8.79000E+01 4.48040E+01 0.00000E+00
 -1      1896 9.16500E+01 4.61030E+01 0.00000E+00
 -1      1897 9.31500E+01 4.61030E+01 0.00000E+00
 -1      1898 9.09000E+01 4.48040E+01 0.00000E+00
 -1      1899 9.45750E+01 4.61030E+01 0.00000E+00
 -1      1900 9.60000E+01 4.61030E+01 0.00000E+00
 -1      1901 9.38250E+01 4.48040E+01 0.00000E+00
 -1      1902 9.75000E+01 4.61030E+01 0.00000E+00
 -1      1903 9.90000E+01 4.61030E+01 0.00000E+00
 -1      1904 9.67500E+01 4.48040E+01 0.00000E+00
 -1      1905 1.00500E+02 4.61030E+01 0.00000E+00
 -1      1906 1.02000E+02 4.61030E+01 0.00000E+00
 -1      1907 9.97500E+01 4.48040E+01 0.00000E+00
 -1      1908 1.03500E+02 4.61030E+01 0.00000E+00
 -1      1909 1.05000E+02 4.61030E+01 0.00000E+00
 -1      1910 1.02750E+02 4.48040E+01 0.00000E+00
 -1      1911 1.06500E+02 4.61030E+01 0.00000E+00
 -1      1912 1.08000E+02 4.61030E+01 0.00000E+00
 -1      1913 1.05750E+02 4.48040E+01 0.00000E+00
 -1      1914 1.09425E+02 4.61030E+01 0.00000E+00
 -1      1915 1.10850E+02 4.61030E+01 0.00000E+00
 -1      1916 1.08675E+02 4.48040E+01 0.00000E+00
 -1      1917 1.14563E+02 4.63769E+01 0.00000E+00
 -1      1918 1.15688E+02 4.63769E+01 0.00000E+00
 -1      1919 1.16925E+02 4.64607E+01 0.00000E+00
 -1      1920 1.18275E+02 4.64607E+01 0.00000E+00
 -1      1921 1.19662E+02 4.63769E+01 0.00000E+00
 -1      1922 1.21088E+02 4.63769E+01 0.00000E+00
 -1      1923 1.22550E+02 4.62093E+01 0.00000E+00
 -1      1924 1.24050E+02 4.62093E+01 0.00000E+00
 -1      1925 1.25550E+02 4.62093E+01 0.00000E+00
 -1      1926 1.27050E+02 4.62093E+01 0.00000E+00
 -1      1927 1.24800E+02 4.50166E+01 0.00000E+00
 -1      1928 1.28475E+02 4.62093E+01 0.00000E+00
 -1      1929 1.29900E+02 4.62093E+01 0.00000E+00
 -1      1930 1.27725E+02 4.50166E+01 0.00000E+00
 -1      1931 1.31400E+02 4.62093E+01 0.00000E+00
 -1      1932 1.32900E+02 4.62093E+01 0.00000E+00
 -1      1933 1.30650E+02 4.50166E+01 0.00000E+00
 -1      1934 1.34400E+02 4.62093E+01 0.00000E+00
 -1      1935 1.35900E+02 4.62093E+01 0.00000E+00
 -1      1936 1.33650E+02 4.50166E+01 0.00000E+00
 -1      1937 1.37400E+02 4.62093E+01 0.00000E+00
 -1      1938 1.38900E+02 4.62093E+01 0.00000E+00
 -1      1939 1.36650E+02 4.50166E+01 0.00000E+00
 -1      1940 1.40400E+02 4.62093E+01 0.00000E+00
 -1      1941 1.41900E+02 4.62093E+01 0.00000E+00
 -1      1942 1.39650E+02 4.50166E+01 0.00000E+00
 -1      1943 1.43400E+02 4.62093E+01 0.00000E+00
 -1      1944 1.44900E+02 4.62093E+01 0.00000E+00
 -1      1945 1.42650E+02 4.50166E+01 0.00000E+00
 -1      1946 1.17045E+01 3.09687E+00 0.00000E+00
 -1      1947 1.02045E+01 3.09687E+00 0.00000E+00
 -1      1948 1.00350E+01 4.00625E+00 0.00000E+00
 -1      1949 1.25519E+02 3.16314E+01 0.00000E+00
 -1      1950 1.25845E+02 3.23975E+01 0.00000E+00
 -1      1951 1.47045E+01 3.09687E+00 0.00000E+00
 -1      1952 1.32045E+01 3.09687E+00 0.00000E+00
 -1      1953 1.30350E+01 4.00625E+00 0.00000E+00
 -1      1954 1.77045E+01 3.09687E+00 0.00000E+00
 -1      1955 1.62045E+01 3.09687E+00 0.00000E+00
 -1      1956 1.60350E+01 4.00625E+00 0.00000E+00
 -1      1957 2.07045E+01 3.09687E+00 0.00000E+00
 -1      1958 1.92045E+01 3.09687E+00 0.00000E+00
 -1      1959 1.90350E+01 4.00625E+00 0.00000E+00
 -1      1960 2.37045E+01 3.09687E+00 0.00000E+00
 -1      1961 2.22045E+01 3.09687E+00 0.00000E+00
 -1      1962 2.20350E+01 4.00625E+00 0.00000E+00
 -1      1963 2.67045E+01 3.09687E+00 0.00000E+00
 -1      1964 2.52045E+01 3.09687E+00 0.00000E+00
 -1      1965 2.50350E+01 4.00625E+00 0.00000E+00
 -1      1966 2.97045E+01 3.09687E+00 0.00000E+00
 -1      1967 2.82045E+01 3.09687E+00 0.00000E+00
 -1      1968 2.80350E+01 4.00625E+00 0.00000E+00
 -1      1969 3.27045E+01 3.09687E+00 0.00000E+00
 -1      1970 3.12045E+01 3.09687E+00 0.00000E+00
 -1      1971 3.10350E+01 4.00625E+00 0.00000E+00
 -1      1972 3.57045E+01 3.09687E+00 0.00000E+00
 -1      1973 3.42045E+01 3.09687E+00 0.00000E+00
 -1      1974 3.40350E+01 4.00625E+00 0.00000E+00
 -1      1975 3.87045E+01 3.09687E+00 0.00000E+00
 -1      1976 3.72045E+01 3.09687E+00 0.00000E+00
 -1      1977 3.70350E+01 4.00625E+00 0.00000E+00
 -1      1978 4.17045E+01 3.09687E+00 0.00000E+00
 -1      1979 4.02045E+01 3.09687E+00 0.00000E+00
 -1      1980 4.00350E+01 4.00625E+00 0.00000E+00
 -1      1981 4.47045E+01 3.09687E+00 0.00000E+00
 -1      1982 4.32045E+01 3.09687E+00 0.00000E+00
 -1      1983 4.30350E+01 4.00625E+00 0.00000E+00
 -1      1984 4.77045E+01 3.09687E+00 0.00000E+00
 -1      1985 4.62045E+01 3.09687E+00 0.00000E+00
 -1      1986 4.60350E+01 4.00625E+00 0.00000E+00
 -1      1987 5.07045E+01 3.09687E+00 0.00000E+00
 -1      1988 4.92045E+01 3.09687E+00 0.00000E+00
 -1      1989 4.90350E+01 4.00625E+00 0.00000E+00
 -1      1990 5.37045E+01 3.09687E+00 0.00000E+00
 -1      1991 5.22045E+01 3.09687E+00 0.00000E+00
 -1      1992 5.20350E+01 4.00625E+00 0.00000E+00
 -1      1993 5.67045E+01 3.09687E+00 0.00000E+00
 -1      1994 5.52045E+01 3.09687E+00 0.00000E+00
 -1      1995 5.50350E+01 4.00625E+00 0.00000E+00
 -1      1996 5.97045E+01 3.09687E+00 0.00000E+00
 -1      1997 5.82045E+01 3.09687E+00 0.00000E+00
 -1      1998 5.80350E+01 4.00625E+00 0.00000E+00
 -1      1999 6.27045E+01 3.09687E+00 0.00000E+00
 -1      2000 6.12045E+01 3.09687E+00 0.00000E+00
 -1      2001 6.10350E+01 4.00625E+00 0.00000E+00
 -1      2002 6.57045E+01 3.09687E+00 0.00000E+00
 -1      2003 6.42045E+01 3.09687E+00 0.00000E+00
 -1      2004 6.40350E+01 4.00625E+00 0.00000E+00
 -1      2005 6.87045E+01 3.09687E+00 0.00000E+00
 -1      2006 6.72045E+01 3.09687E+00 0.00000E+00
 -1      2007 6.70350E+01 4.00625E+00 0.00000E+00
 -1      2008 7.17045E+01 3.09687E+00 0.00000E+00
 -1      2009 7.02045E+01 3.09687E+00 0.00000E+00
 -1      2010 7.00350E+01 4.00625E+00 0.00000E+00
 -1      2011 7.47045E+01 3.09687E+00 0.00000E+00
 -1      2012 7.32045E+01 3.09687E+00 0.00000E+00
 -1      2013 7.30350E+01 4.00625E+00 0.00000E+00
 -1      2014 7.77045E+01 3.09687E+00 0.00000E+00
 -1      2015 7.62045E+01 3.09687E+00 0.00000E+00
 -1      2016 7.60350E+01 4.00625E+00 0.00000E+00
 -1      2017 8.07045E+01 3.09687E+00 0.00000E+00
 -1      2018 7.92045E+01 3.09687E+00 0.00000E+00
 -1      2019 7.90350E+01 4.00625E+00 0.00000E+00
 -1      2020 8.37045E+01 3.09687E+00 0.00000E+00
 -1      2021 8.22045E+01 3.09687E+00 0.00000E+00
 -1      2022 8.20350E+01 4.00625E+00 0.00000E+00
 -1      2023 8.67045E+01 3.09687E+00 0.00000E+00
 -1      2024 8.52045E+01 3.09687E+00 0.00000E+00
 -1      2025 8.50350E+01 4.00625E+00 0.00000E+00
 -1      2026 8.97045E+01 3.09687E+00 0.00000E+00
 -1      2027 8.82045E+01 3.09687E+00 0.00000E+00
 -1      2028 8.80350E+01 4.00625E+00 0.00000E+00
 -1      2029 9.27045E+01 3.09687E+00 0.00000E+00
 -1      2030 9.12045E+01 3.09687E+00 0.00000E+00
 -1      2031 9.10350E+01 4.00625E+00 0.00000E+00
 -1      2032 9.57045E+01 3.09687E+00 0.00000E+00
 -1      2033 9.42045E+01 3.09687E+00 0.00000E+00
 -1      2034 9.40350E+01 4.00625E+00 0.00000E+00
 -1      2035 9.87045E+01 3.09687E+00 0.00000E+00
 -1      2036 9.72045E+01 3.09687E+00 0.00000E+00
 -1      2037 9.70350E+01 4.00625E+00 0.00000E+00
 -1      2038 1.01704E+02 3.09687E+00 0.00000E+00
 -1      2039 1.00204E+02 3.09687E+00 0.00000E+00
 -1      2040 1.00035E+02 4.00625E+00 0.00000E+00
 -1      2041 1.04704E+02 3.09687E+00 0.00000E+00
 -1      2042 1.03204E+02 3.09687E+00 0.00000E+00
 -1      2043 1.03035E+02 4.00625E+00 0.00000E+00
 -1      2044 1.07704E+02 3.09687E+00 0.00000E+00
 -1      2045 1.06204E+02 3.09687E+00 0.00000E+00
 -1      2046 1.06035E+02 4.00625E+00 0.00000E+00
 -1      2047 1.10704E+02 3.09687E+00 0.00000E+00
 -1      2048 1.09204E+02 3.09687E+00 0.00000E+00
 -1      2049 1.09035E+02 4.00625E+00 0.00000E+00
 -1      2050 1.13704E+02 3.09687E+00 0.00000E+00
 -1      2051 1.12204E+02 3.09687E+00 0.00000E+00
 -1      2052 1.12035E+02 4.00625E+00 0.00000E+00
 -1      2053 1.16704E+02 3.09687E+00 0.00000E+00
 -1      2054 1.15204E+02 3.09687E+00 0.00000E+00
 -1      2055 1.15035E+02 4.00625E+00 0.00000E+00
 -1      2056 1.19704E+02 3.09687E+00 0.00000E+00
 -1      2057 1.18204E+02 3.09687E+00 0.00000E+00
 -1      2058 1.18035E+02 4.00625E+00 0.00000E+00
 -1      2059 1.22704E+02 3.09687E+00 0.00000E+00
 -1      2060 1.21204E+02 3.09687E+00 0.00000E+00
 -1      2061 1.21035E+02 4.00625E+00 0.00000E+00
 -1      2062 1.25704E+02 3.09687E+00 0.00000E+00
 -1      2063 1.24204E+02 3.09687E+00 0.00000E+00
 -1      2064 1.24035E+02 4.00625E+00 0.00000E+00
 -1      2065 1.28704E+02 3.09687E+00 0.00000E+00
 -1      2066 1.27204E+02 3.09687E+00 0.00000E+00
 -1      2067 1.27035E+02 4.00625E+00 0.00000E+00
 -1      2068 1.31704E+02 3.09687E+00 0.00000E+00
 -1      2069 1.30204E+02 3.09687E+00 0.00000E+00
 -1      2070 1.30035E+02 4.00625E+00 0.00000E+00
 -1      2071 1.34704E+02 3.09687E+00 0.00000E+00
 -1      2072 1.33204E+02 3.09687E+00 0.00000E+00
 -1      2073 1.33035E+02 4.00625E+00 0.00000E+00
 -1      2074 1.37704E+02 3.09687E+00 0.00000E+00
 -1      2075 1.36204E+02 3.09687E+00 0.00000E+00
 -1      2076 1.36035E+02 4.00625E+00 0.00000E+00
 -1      2077 1.40704E+02 3.09687E+00 0.00000E+00
 -1      2078 1.39204E+02 3.09687E+00 0.00000E+00
 -1      2079 1.39035E+02 4.00625E+00 0.00000E+00
 -1      2080 1.43704E+02 3.09687E+00 0.00000E+00
 -1      2081 1.42204E+02 3.09687E+00 0.00000E+00
 -1      2082 1.42035E+02 4.00625E+00 0.00000E+00
 -1      2083 1.46171E+02 3.20156E+00 0.00000E+00
 -1      2084 1.44671E+02 3.20156E+00 0.00000E+00
 -1      2085 1.44502E+02 4.11094E+00 0.00000E+00
 -1      2086 1.46435E+02 4.32031E+00 0.00000E+00
 -1      2087 1.46103E+02 1.25375E+01 0.00000E+00
 -1      2088 1.46103E+02 1.10625E+01 0.00000E+00
 -1      2089 1.46103E+02 9.58750E+00 0.00000E+00
 -1      2090 1.46103E+02 8.11250E+00 0.00000E+00
 -1      2091 1.44804E+02 1.03250E+01 0.00000E+00
 -1      2092 1.46269E+02 6.95391E+00 0.00000E+00
 -1      2093 1.46269E+02 5.47891E+00 0.00000E+00
 -1      2094 1.45302E+02 5.37422E+00 0.00000E+00
 -1      2095 1.44970E+02 7.69141E+00 0.00000E+00
 -1      2096 1.46103E+02 1.54375E+01 0.00000E+00
 -1      2097 1.46103E+02 1.39875E+01 0.00000E+00
 -1      2098 1.44804E+02 1.32500E+01 0.00000E+00
 -1      2099 1.46103E+02 1.83875E+01 0.00000E+00
 -1      2100 1.46103E+02 1.69125E+01 0.00000E+00
 -1      2101 1.44804E+02 1.61750E+01 0.00000E+00
 -1      2102 1.46103E+02 2.13375E+01 0.00000E+00
 -1      2103 1.46103E+02 1.98625E+01 0.00000E+00
 -1      2104 1.44804E+02 1.91250E+01 0.00000E+00
 -1      2105 1.46103E+02 2.42875E+01 0.00000E+00
 -1      2106 1.46103E+02 2.28125E+01 0.00000E+00
 -1      2107 1.44804E+02 2.20750E+01 0.00000E+00
 -1      2108 1.46103E+02 2.72375E+01 0.00000E+00
 -1      2109 1.46103E+02 2.57625E+01 0.00000E+00
 -1      2110 1.44804E+02 2.50250E+01 0.00000E+00
 -1      2111 1.46103E+02 3.01875E+01 0.00000E+00
 -1      2112 1.46103E+02 2.87125E+01 0.00000E+00
 -1      2113 1.44804E+02 2.79750E+01 0.00000E+00
 -1      2114 1.46103E+02 3.30875E+01 0.00000E+00
 -1      2115 1.46103E+02 3.16375E+01 0.00000E+00
 -1      2116 1.44804E+02 3.09000E+01 0.00000E+00
 -1      2117 1.46103E+02 3.60375E+01 0.00000E+00
 -1      2118 1.46103E+02 3.45625E+01 0.00000E+00
 -1      2119 1.44804E+02 3.38250E+01 0.00000E+00
 -1      2120 1.46103E+02 3.89875E+01 0.00000E+00
 -1      2121 1.46103E+02 3.75125E+01 0.00000E+00
 -1      2122 1.44804E+02 3.67750E+01 0.00000E+00
 -1      2123 1.46103E+02 4.19375E+01 0.00000E+00
 -1      2124 1.46103E+02 4.04625E+01 0.00000E+00
 -1      2125 1.44804E+02 3.97250E+01 0.00000E+00
 -1      2126 1.24671E+02 3.00206E+01 0.00000E+00
 -1      2127 1.25150E+02 3.07090E+01 0.00000E+00
 -1      2128 1.46526E+02 4.65135E+01 0.00000E+00
 -1      2129 4.84800E+00 4.57510E+01 0.00000E+00
 -1      2130 1.26370E+02 3.50474E+01 0.00000E+00
 -1      2131 1.26409E+02 3.58791E+01 0.00000E+00
 -1      2132 3.89700E+00 3.74688E+01 0.00000E+00
 -1      2133 3.89700E+00 3.89437E+01 0.00000E+00
 -1      2134 5.19600E+00 3.96813E+01 0.00000E+00
 -1      2135 5.19600E+00 3.67438E+01 0.00000E+00
 -1      2136 1.23449E+02 2.88657E+01 0.00000E+00
 -1      2137 1.24060E+02 2.94431E+01 0.00000E+00
 -1      2138 1.24969E+02 2.93212E+01 0.00000E+00
 -1      2139 1.21837E+02 2.77272E+01 0.00000E+00
 -1      2140 1.22548E+02 2.82100E+01 0.00000E+00
 -1      2141 1.20124E+02 2.68698E+01 0.00000E+00
 -1      2142 1.20944E+02 2.71175E+01 0.00000E+00
 -1      2143 1.18350E+02 2.66190E+01 0.00000E+00
 -1      2144 1.19185E+02 2.67716E+01 0.00000E+00
 -1      2145 1.16442E+02 2.66104E+01 0.00000E+00
 -1      2146 1.17290E+02 2.65059E+01 0.00000E+00
 -1      2147 1.14816E+02 2.70831E+01 0.00000E+00
 -1      2148 1.15629E+02 2.68468E+01 0.00000E+00
 -1      2149 1.15958E+02 2.60265E+01 0.00000E+00
 -1      2150 1.12931E+02 2.76500E+01 0.00000E+00
 -1      2151 1.13814E+02 2.73559E+01 0.00000E+00
 -1      2152 1.11320E+02 2.91273E+01 0.00000E+00
 -1      2153 1.11896E+02 2.84143E+01 0.00000E+00
 -1      2154 1.10261E+02 3.05123E+01 0.00000E+00
 -1      2155 1.10765E+02 2.98400E+01 0.00000E+00
 -1      2156 1.09207E+02 3.20344E+01 0.00000E+00
 -1      2157 1.09698E+02 3.12586E+01 0.00000E+00
 -1      2158 1.08700E+02 3.41008E+01 0.00000E+00
 -1      2159 1.08773E+02 3.32011E+01 0.00000E+00
 -1      2160 1.08693E+02 3.57540E+01 0.00000E+00
 -1      2161 1.08696E+02 3.49274E+01 0.00000E+00
 -1      2162 1.07961E+02 3.44153E+01 0.00000E+00
 -1      2163 1.08851E+02 3.76276E+01 0.00000E+00
 -1      2164 1.08725E+02 3.67972E+01 0.00000E+00
 -1      2165 1.09606E+02 3.93575E+01 0.00000E+00
 -1      2166 1.09241E+02 3.86047E+01 0.00000E+00
 -1      2167 1.10492E+02 4.08649E+01 0.00000E+00
 -1      2168 1.10047E+02 4.01539E+01 0.00000E+00
 -1      2169 1.11750E+02 4.22331E+01 0.00000E+00
 -1      2170 1.11133E+02 4.16479E+01 0.00000E+00
 -1      2171 1.13192E+02 4.34032E+01 0.00000E+00
 -1      2172 1.12464E+02 4.29119E+01 0.00000E+00
 -1      2173 1.15128E+02 4.40006E+01 0.00000E+00
 -1      2174 1.14258E+02 4.37852E+01 0.00000E+00
 -1      2175 1.16945E+02 4.43219E+01 0.00000E+00
 -1      2176 1.16076E+02 4.42174E+01 0.00000E+00
 -1      2177 1.18422E+02 4.45384E+01 0.00000E+00
 -1      2178 1.17534E+02 4.45834E+01 0.00000E+00
 -1      2179 1.20717E+02 4.37451E+01 0.00000E+00
 -1      2180 1.19895E+02 4.40511E+01 0.00000E+00
 -1      2181 1.22298E+02 4.28846E+01 0.00000E+00
 -1      2182 1.21572E+02 4.33002E+01 0.00000E+00
 -1      2183 1.23840E+02 4.19082E+01 0.00000E+00
 -1      2184 1.23131E+02 4.24367E+01 0.00000E+00
 -1      2185 1.25103E+02 4.03075E+01 0.00000E+00
 -1      2186 1.24649E+02 4.10711E+01 0.00000E+00
 -1      2187 1.25808E+02 3.86449E+01 0.00000E+00
 -1      2188 1.25468E+02 3.94200E+01 0.00000E+00
 -1      2189 1.26299E+02 3.69037E+01 0.00000E+00
 -1      2190 1.26082E+02 3.77309E+01 0.00000E+00
 -1      2191 1.26133E+02 3.33161E+01 0.00000E+00
 -1      2192 1.26297E+02 3.41214E+01 0.00000E+00
 -1      2193 1.45776E+02 4.53208E+01 0.00000E+00
 -1      2194 1.26927E+02 3.64574E+01 0.00000E+00
 -1      2195 1.26604E+02 3.26622E+01 0.00000E+00
 -1      2196 6.34800E+00 4.57510E+01 0.00000E+00
 -1      2197 7.09800E+00 4.44520E+01 0.00000E+00
 -1      2198 1.12200E+02 4.62093E+01 0.00000E+00
 -1      2199 1.13400E+02 4.62093E+01 0.00000E+00
 -1      2200 1.18988E+02 4.54355E+01 0.00000E+00
 -1      2201 1.21838E+02 4.51842E+01 0.00000E+00
 -1      2202 1.25948E+02 3.08212E+01 0.00000E+00
 -1      2203 1.17831E+02 2.59034E+01 0.00000E+00
 -1      2204 1.23457E+02 2.80881E+01 0.00000E+00
 -1      2205 1.45776E+02 4.38458E+01 0.00000E+00
 -1      2206 1.26964E+02 3.45068E+01 0.00000E+00
 -1      2207 1.26543E+02 3.83959E+01 0.00000E+00
 -1      2208 1.25905E+02 4.01974E+01 0.00000E+00
 -1      2209 1.24732E+02 4.19221E+01 0.00000E+00
 -1      2210 1.23090E+02 4.32070E+01 0.00000E+00
 -1      2211 1.21402E+02 4.40998E+01 0.00000E+00
 -1      2212 1.17012E+02 4.52578E+01 0.00000E+00
 -1      2213 1.15475E+02 4.47795E+01 0.00000E+00
 -1      2214 1.13461E+02 4.41807E+01 0.00000E+00
 -1      2215 1.11681E+02 4.31200E+01 0.00000E+00
 -1      2216 1.10326E+02 4.16582E+01 0.00000E+00
 -1      2217 1.09244E+02 4.00788E+01 0.00000E+00
 -1      2218 1.07990E+02 3.62851E+01 0.00000E+00
 -1      2219 1.08400E+02 3.24219E+01 0.00000E+00
 -1      2220 1.09397E+02 3.05089E+01 0.00000E+00
 -1      2221 1.10516E+02 2.90499E+01 0.00000E+00
 -1      2222 1.14143E+02 2.65357E+01 0.00000E+00
 -1      2223 1.11450E+02 4.49103E+01 0.00000E+00
 -1      2224 1.44477E+02 4.31083E+01 0.00000E+00
 -1      2225 1.19831E+02 2.61147E+01 0.00000E+00
 -1      2226 1.21663E+02 2.68226E+01 0.00000E+00
 -1      2227 1.12106E+02 2.75729E+01 0.00000E+00
 -1      2228 1.12317E+02 2.67315E+01 0.00000E+00
 -1      2229 1.11282E+02 2.74958E+01 0.00000E+00
 -1      2230 1.08413E+02 3.83053E+01 0.00000E+00
 -1      2231 6.49500E+00 3.01125E+01 0.00000E+00
 -1      2232 6.49500E+00 3.15875E+01 0.00000E+00
 -1      2233 6.49500E+00 3.30625E+01 0.00000E+00
 -1      2234 6.49500E+00 3.45375E+01 0.00000E+00
 -1      2235 7.79400E+00 3.23250E+01 0.00000E+00
 -1      2236 6.49500E+00 2.42125E+01 0.00000E+00
 -1      2237 6.49500E+00 2.56875E+01 0.00000E+00
 -1      2238 6.49500E+00 2.12625E+01 0.00000E+00
 -1      2239 6.49500E+00 2.27375E+01 0.00000E+00
 -1      2240 7.79400E+00 2.34750E+01 0.00000E+00
 -1      2241 6.49500E+00 1.83625E+01 0.00000E+00
 -1      2242 6.49500E+00 1.98125E+01 0.00000E+00
 -1      2243 7.79400E+00 2.05500E+01 0.00000E+00
 -1      2244 6.49500E+00 1.54125E+01 0.00000E+00
 -1      2245 6.49500E+00 1.68875E+01 0.00000E+00
 -1      2246 7.79400E+00 1.76250E+01 0.00000E+00
 -1      2247 6.49500E+00 1.24625E+01 0.00000E+00
 -1      2248 6.49500E+00 1.39375E+01 0.00000E+00
 -1      2249 7.79400E+00 1.46750E+01 0.00000E+00
 -1      2250 6.49500E+00 9.51250E+00 0.00000E+00
 -1      2251 6.49500E+00 1.09875E+01 0.00000E+00
 -1      2252 7.79400E+00 1.17250E+01 0.00000E+00
 -1      2253 6.49500E+00 6.56250E+00 0.00000E+00
 -1      2254 6.49500E+00 8.03750E+00 0.00000E+00
 -1      2255 7.79400E+00 8.77500E+00 0.00000E+00
 -1      2256 6.84975E+00 4.82969E+00 0.00000E+00
 -1      2257 6.68025E+00 5.73906E+00 0.00000E+00
 -1      2258 7.97925E+00 6.47656E+00 0.00000E+00
 -1      2259 8.34975E+00 4.82969E+00 0.00000E+00
 -1      2260 9.75000E+00 4.35050E+01 0.00000E+00
 -1      2261 1.12500E+01 4.35050E+01 0.00000E+00
 -1      2262 1.42977E+02 4.31083E+01 0.00000E+00
 -1      2263 1.43304E+02 4.12000E+01 0.00000E+00
 -1      2264 1.41477E+02 4.31083E+01 0.00000E+00
 -1      2265 1.16337E+02 4.61992E+01 0.00000E+00
 -1      2266 1.13963E+02 4.51842E+01 0.00000E+00
 -1      2267 1.25224E+02 2.84397E+01 0.00000E+00
 -1      2268 1.25835E+02 2.90172E+01 0.00000E+00
 -1      2269 1.27500E+01 4.35050E+01 0.00000E+00
 -1      2270 1.42500E+01 4.35050E+01 0.00000E+00
 -1      2271 1.20000E+01 4.22060E+01 0.00000E+00
 -1      2272 1.56750E+01 4.35050E+01 0.00000E+00
 -1      2273 1.71000E+01 4.35050E+01 0.00000E+00
 -1      2274 1.49250E+01 4.22060E+01 0.00000E+00
 -1      2275 1.86000E+01 4.35050E+01 0.00000E+00
 -1      2276 2.01000E+01 4.35050E+01 0.00000E+00
 -1      2277 1.78500E+01 4.22060E+01 0.00000E+00
 -1      2278 2.16000E+01 4.35050E+01 0.00000E+00
 -1      2279 2.31000E+01 4.35050E+01 0.00000E+00
 -1      2280 2.08500E+01 4.22060E+01 0.00000E+00
 -1      2281 2.46000E+01 4.35050E+01 0.00000E+00
 -1      2282 2.61000E+01 4.35050E+01 0.00000E+00
 -1      2283 2.38500E+01 4.22060E+01 0.00000E+00
 -1      2284 2.76000E+01 4.35050E+01 0.00000E+00
 -1      2285 2.91000E+01 4.35050E+01 0.00000E+00
 -1      2286 2.68500E+01 4.22060E+01 0.00000E+00
 -1      2287 3.06000E+01 4.35050E+01 0.00000E+00
 -1      2288 3.21000E+01 4.35050E+01 0.00000E+00
 -1      2289 2.98500E+01 4.22060E+01 0.00000E+00
 -1      2290 3.36000E+01 4.35050E+01 0.00000E+00
 -1      2291 3.51000E+01 4.35050E+01 0.00000E+00
 -1      2292 3.28500E+01 4.22060E+01 0.00000E+00
 -1      2293 3.65250E+01 4.35050E+01 0.00000E+00
 -1      2294 3.79500E+01 4.35050E+01 0.00000E+00
 -1      2295 3.57750E+01 4.22060E+01 0.00000E+00
 -1      2296 3.94500E+01 4.35050E+01 0.00000E+00
 -1      2297 4.09500E+01 4.35050E+01 0.00000E+00
 -1      2298 3.87000E+01 4.22060E+01 0.00000E+00
 -1      2299 4.24500E+01 4.35050E+01 0.00000E+00
 -1      2300 4.39500E+01 4.35050E+01 0.00000E+00
 -1      2301 4.17000E+01 4.22060E+01 0.00000E+00
 -1      2302 4.54500E+01 4.35050E+01 0.00000E+00
 -1      2303 4.69500E+01 4.35050E+01 0.00000E+00
 -1      2304 4.47000E+01 4.22060E+01 0.00000E+00
 -1      2305 4.84500E+01 4.35050E+01 0.00000E+00
 -1      2306 4.99500E+01 4.35050E+01 0.00000E+00
 -1      2307 4.77000E+01 4.22060E+01 0.00000E+00
 -1      2308 5.14500E+01 4.35050E+01 0.00000E+00
 -1      2309 5.29500E+01 4.35050E+01 0.00000E+00
 -1      2310 5.07000E+01 4.22060E+01 0.00000E+00
 -1      2311 5.43750E+01 4.35050E+01 0.00000E+00
 -1      2312 5.58000E+01 4.35050E+01 0.00000E+00
 -1      2313 5.36250E+01 4.22060E+01 0.00000E+00
 -1      2314 5.73000E+01 4.35050E+01 0.00000E+00
 -1      2315 5.88000E+01 4.35050E+01 0.00000E+00
 -1      2316 5.65500E+01 4.22060E+01 0.00000E+00
 -1      2317 6.03000E+01 4.35050E+01 0.00000E+00
 -1      2318 6.18000E+01 4.35050E+01 0.00000E+00
 -1      2319 5.95500E+01 4.22060E+01 0.00000E+00
 -1      2320 6.33000E+01 4.35050E+01 0.00000E+00
 -1      2321 6.48000E+01 4.35050E+01 0.00000E+00
 -1      2322 6.25500E+01 4.22060E+01 0.00000E+00
 -1      2323 6.63000E+01 4.35050E+01 0.00000E+00
 -1      2324 6.78000E+01 4.35050E+01 0.00000E+00
 -1      2325 6.55500E+01 4.22060E+01 0.00000E+00
 -1      2326 6.93000E+01 4.35050E+01 0.00000E+00
 -1      2327 7.08000E+01 4.35050E+01 0.00000E+00
 -1      2328 6.85500E+01 4.22060E+01 0.00000E+00
 -1      2329 7.23000E+01 4.35050E+01 0.00000E+00
 -1      2330 7.38000E+01 4.35050E+01 0.00000E+00
 -1      2331 7.15500E+01 4.22060E+01 0.00000E+00
 -1      2332 7.52250E+01 4.35050E+01 0.00000E+00
 -1      2333 7.66500E+01 4.35050E+01 0.00000E+00
 -1      2334 7.44750E+01 4.22060E+01 0.00000E+00
 -1      2335 7.81500E+01 4.35050E+01 0.00000E+00
 -1      2336 7.96500E+01 4.35050E+01 0.00000E+00
 -1      2337 7.74000E+01 4.22060E+01 0.00000E+00
 -1      2338 8.11500E+01 4.35050E+01 0.00000E+00
 -1      2339 8.26500E+01 4.35050E+01 0.00000E+00
 -1      2340 8.04000E+01 4.22060E+01 0.00000E+00
 -1      2341 8.41500E+01 4.35050E+01 0.00000E+00
 -1      2342 8.56500E+01 4.35050E+01 0.00000E+00
 -1      2343 8.34000E+01 4.22060E+01 0.00000E+00
 -1      2344 8.71500E+01 4.35050E+01 0.00000E+00
 -1      2345 8.86500E+01 4.35050E+01 0.00000E+00
 -1      2346 8.64000E+01 4.22060E+01 0.00000E+00
 -1      2347 9.01500E+01 4.35050E+01 0.00000E+00
 -1      2348 9.16500E+01 4.35050E+01 0.00000E+00
 -1      2349 8.94000E+01 4.22060E+01 0.00000E+00
 -1      2350 9.30750E+01 4.35050E+01 0.00000E+00
 -1      2351 9.45000E+01 4.35050E+01 0.00000E+00
 -1      2352 9.23250E+01 4.22060E+01 0.00000E+00
 -1      2353 9.60000E+01 4.35050E+01 0.00000E+00
 -1      2354 9.75000E+01 4.35050E+01 0.00000E+00
 -1      2355 9.52500E+01 4.22060E+01 0.00000E+00
 -1      2356 9.90000E+01 4.35050E+01 0.00000E+00
 -1      2357 1.00500E+02 4.35050E+01 0.00000E+00
 -1      2358 9.82500E+01 4.22060E+01 0.00000E+00
 -1      2359 1.02000E+02 4.35050E+01 0.00000E+00
 -1      2360 1.03500E+02 4.35050E+01 0.00000E+00
 -1      2361 1.01250E+02 4.22060E+01 0.00000E+00
 -1      2362 1.05000E+02 4.35050E+01 0.00000E+00
 -1      2363 1.06500E+02 4.35050E+01 0.00000E+00
 -1      2364 1.04250E+02 4.22060E+01 0.00000E+00
 -1      2365 1.07963E+02 4.38627E+01 0.00000E+00
 -1      2366 1.09387E+02 4.38627E+01 0.00000E+00
 -1      2367 1.13497E+01 4.82969E+00 0.00000E+00
 -1      2368 9.84975E+00 4.82969E+00 0.00000E+00
 -1      2369 9.66450E+00 5.65312E+00 0.00000E+00
 -1      2370 1.27751E+02 3.60274E+01 0.00000E+00
 -1      2371 1.27642E+02 3.70520E+01 0.00000E+00
 -1      2372 1.27012E+02 4.38239E+01 0.00000E+00
 -1      2373 1.28438E+02 4.38239E+01 0.00000E+00
 -1      2374 1.29938E+02 4.38239E+01 0.00000E+00
 -1      2375 1.31438E+02 4.38239E+01 0.00000E+00
 -1      2376 1.29225E+02 4.26312E+01 0.00000E+00
 -1      2377 1.32938E+02 4.38239E+01 0.00000E+00
 -1      2378 1.34438E+02 4.38239E+01 0.00000E+00
 -1      2379 1.32225E+02 4.26312E+01 0.00000E+00
 -1      2380 1.35938E+02 4.38239E+01 0.00000E+00
 -1      2381 1.37438E+02 4.38239E+01 0.00000E+00
 -1      2382 1.35225E+02 4.26312E+01 0.00000E+00
 -1      2383 1.38707E+02 4.34661E+01 0.00000E+00
 -1      2384 1.40207E+02 4.34661E+01 0.00000E+00
 -1      2385 1.40534E+02 4.15578E+01 0.00000E+00
 -1      2386 1.37995E+02 4.22734E+01 0.00000E+00
 -1      2387 1.67850E+01 5.30525E+00 0.00000E+00
 -1      2388 1.52850E+01 5.30525E+00 0.00000E+00
 -1      2389 1.40674E+01 5.06747E+00 0.00000E+00
 -1      2390 1.25674E+01 5.06747E+00 0.00000E+00
 -1      2391 1.23821E+01 5.89091E+00 0.00000E+00
 -1      2392 1.48174E+01 6.36647E+00 0.00000E+00
 -1      2393 2.27850E+01 5.30525E+00 0.00000E+00
 -1      2394 2.12850E+01 5.30525E+00 0.00000E+00
 -1      2395 2.57850E+01 5.30525E+00 0.00000E+00
 -1      2396 2.42850E+01 5.30525E+00 0.00000E+00
 -1      2397 2.35350E+01 6.60425E+00 0.00000E+00
 -1      2398 2.87850E+01 5.30525E+00 0.00000E+00
 -1      2399 2.72850E+01 5.30525E+00 0.00000E+00
 -1      2400 2.65350E+01 6.60425E+00 0.00000E+00
 -1      2401 3.17850E+01 5.30525E+00 0.00000E+00
 -1      2402 3.02850E+01 5.30525E+00 0.00000E+00
 -1      2403 2.95350E+01 6.60425E+00 0.00000E+00
 -1      2404 3.47850E+01 5.30525E+00 0.00000E+00
 -1      2405 3.32850E+01 5.30525E+00 0.00000E+00
 -1      2406 3.25350E+01 6.60425E+00 0.00000E+00
 -1      2407 3.77850E+01 5.30525E+00 0.00000E+00
 -1      2408 3.62850E+01 5.30525E+00 0.00000E+00
 -1      2409 3.55350E+01 6.60425E+00 0.00000E+00
 -1      2410 4.07850E+01 5.30525E+00 0.00000E+00
 -1      2411 3.92850E+01 5.30525E+00 0.00000E+00
 -1      2412 3.85350E+01 6.60425E+00 0.00000E+00
 -1      2413 4.37850E+01 5.30525E+00 0.00000E+00
 -1      2414 4.22850E+01 5.30525E+00 0.00000E+00
 -1      2415 4.15350E+01 6.60425E+00 0.00000E+00
 -1      2416 4.67850E+01 5.30525E+00 0.00000E+00
 -1      2417 4.52850E+01 5.30525E+00 0.00000E+00
 -1      2418 4.45350E+01 6.60425E+00 0.00000E+00
 -1      2419 4.97850E+01 5.30525E+00 0.00000E+00
 -1      2420 4.82850E+01 5.30525E+00 0.00000E+00
 -1      2421 4.75350E+01 6.60425E+00 0.00000E+00
 -1      2422 5.27850E+01 5.30525E+00 0.00000E+00
 -1      2423 5.12850E+01 5.30525E+00 0.00000E+00
 -1      2424 5.05350E+01 6.60425E+00 0.00000E+00
 -1      2425 5.57850E+01 5.30525E+00 0.00000E+00
 -1      2426 5.42850E+01 5.30525E+00 0.00000E+00
 -1      2427 5.35350E+01 6.60425E+00 0.00000E+00
 -1      2428 5.87850E+01 5.30525E+00 0.00000E+00
 -1      2429 5.72850E+01 5.30525E+00 0.00000E+00
 -1      2430 5.65350E+01 6.60425E+00 0.00000E+00
 -1      2431 6.17850E+01 5.30525E+00 0.00000E+00
 -1      2432 6.02850E+01 5.30525E+00 0.00000E+00
 -1      2433 5.95350E+01 6.60425E+00 0.00000E+00
 -1      2434 6.47850E+01 5.30525E+00 0.00000E+00
 -1      2435 6.32850E+01 5.30525E+00 0.00000E+00
 -1      2436 6.25350E+01 6.60425E+00 0.00000E+00
 -1      2437 6.77850E+01 5.30525E+00 0.00000E+00
 -1      2438 6.62850E+01 5.30525E+00 0.00000E+00
 -1      2439 6.55350E+01 6.60425E+00 0.00000E+00
 -1      2440 7.07850E+01 5.30525E+00 0.00000E+00
 -1      2441 6.92850E+01 5.30525E+00 0.00000E+00
 -1      2442 6.85350E+01 6.60425E+00 0.00000E+00
 -1      2443 7.37850E+01 5.30525E+00 0.00000E+00
 -1      2444 7.22850E+01 5.30525E+00 0.00000E+00
 -1      2445 7.15350E+01 6.60425E+00 0.00000E+00
 -1      2446 7.67850E+01 5.30525E+00 0.00000E+00
 -1      2447 7.52850E+01 5.30525E+00 0.00000E+00
 -1      2448 7.45350E+01 6.60425E+00 0.00000E+00
 -1      2449 7.97850E+01 5.30525E+00 0.00000E+00
 -1      2450 7.82850E+01 5.30525E+00 0.00000E+00
 -1      2451 7.75350E+01 6.60425E+00 0.00000E+00
 -1      2452 8.27850E+01 5.30525E+00 0.00000E+00
 -1      2453 8.12850E+01 5.30525E+00 0.00000E+00
 -1      2454 8.05350E+01 6.60425E+00 0.00000E+00
 -1      2455 8.57850E+01 5.30525E+00 0.00000E+00
 -1      2456 8.42850E+01 5.30525E+00 0.00000E+00
 -1      2457 8.35350E+01 6.60425E+00 0.00000E+00
 -1      2458 8.87850E+01 5.30525E+00 0.00000E+00
 -1      2459 8.72850E+01 5.30525E+00 0.00000E+00
 -1      2460 8.65350E+01 6.60425E+00 0.00000E+00
 -1      2461 9.17850E+01 5.30525E+00 0.00000E+00
 -1      2462 9.02850E+01 5.30525E+00 0.00000E+00
 -1      2463 8.95350E+01 6.60425E+00 0.00000E+00
 -1      2464 9.47850E+01 5.30525E+00 0.00000E+00
 -1      2465 9.32850E+01 5.30525E+00 0.00000E+00
 -1      2466 9.25350E+01 6.60425E+00 0.00000E+00
 -1      2467 9.77850E+01 5.30525E+00 0.00000E+00
 -1      2468 9.62850E+01 5.30525E+00 0.00000E+00
 -1      2469 9.55350E+01 6.60425E+00 0.00000E+00
 -1      2470 1.00785E+02 5.30525E+00 0.00000E+00
 -1      2471 9.92850E+01 5.30525E+00 0.00000E+00
 -1      2472 9.85350E+01 6.60425E+00 0.00000E+00
 -1      2473 1.03785E+02 5.30525E+00 0.00000E+00
 -1      2474 1.02285E+02 5.30525E+00 0.00000E+00
 -1      2475 1.01535E+02 6.60425E+00 0.00000E+00
 -1      2476 1.06785E+02 5.30525E+00 0.00000E+00
 -1      2477 1.05285E+02 5.30525E+00 0.00000E+00
 -1      2478 1.04535E+02 6.60425E+00 0.00000E+00
 -1      2479 1.09785E+02 5.30525E+00 0.00000E+00
 -1      2480 1.08285E+02 5.30525E+00 0.00000E+00
 -1      2481 1.07535E+02 6.60425E+00 0.00000E+00
 -1      2482 1.12785E+02 5.30525E+00 0.00000E+00
 -1      2483 1.11285E+02 5.30525E+00 0.00000E+00
 -1      2484 1.10535E+02 6.60425E+00 0.00000E+00
 -1      2485 1.15785E+02 5.30525E+00 0.00000E+00
 -1      2486 1.14285E+02 5.30525E+00 0.00000E+00
 -1      2487 1.13535E+02 6.60425E+00 0.00000E+00
 -1      2488 1.18785E+02 5.30525E+00 0.00000E+00
 -1      2489 1.17285E+02 5.30525E+00 0.00000E+00
 -1      2490 1.16535E+02 6.60425E+00 0.00000E+00
 -1      2491 1.21785E+02 5.30525E+00 0.00000E+00
 -1      2492 1.20285E+02 5.30525E+00 0.00000E+00
 -1      2493 1.19535E+02 6.60425E+00 0.00000E+00
 -1      2494 1.24785E+02 5.30525E+00 0.00000E+00
 -1      2495 1.23285E+02 5.30525E+00 0.00000E+00
 -1      2496 1.22535E+02 6.60425E+00 0.00000E+00
 -1      2497 1.27785E+02 5.30525E+00 0.00000E+00
 -1      2498 1.26285E+02 5.30525E+00 0.00000E+00
 -1      2499 1.25535E+02 6.60425E+00 0.00000E+00
 -1      2500 1.30785E+02 5.30525E+00 0.00000E+00
 -1      2501 1.29285E+02 5.30525E+00 0.00000E+00
 -1      2502 1.28535E+02 6.60425E+00 0.00000E+00
 -1      2503 1.33785E+02 5.30525E+00 0.00000E+00
 -1      2504 1.32285E+02 5.30525E+00 0.00000E+00
 -1      2505 1.31535E+02 6.60425E+00 0.00000E+00
 -1      2506 1.36785E+02 5.30525E+00 0.00000E+00
 -1      2507 1.35285E+02 5.30525E+00 0.00000E+00
 -1      2508 1.34535E+02 6.60425E+00 0.00000E+00
 -1      2509 1.39785E+02 5.30525E+00 0.00000E+00
 -1      2510 1.38285E+02 5.30525E+00 0.00000E+00
 -1      2511 1.37535E+02 6.60425E+00 0.00000E+00
 -1      2512 1.42785E+02 5.30525E+00 0.00000E+00
 -1      2513 1.41285E+02 5.30525E+00 0.00000E+00
 -1      2514 1.40535E+02 6.60425E+00 0.00000E+00
 -1      2515 1.44336E+02 5.26953E+00 0.00000E+00
 -1      2516 1.43505E+02 1.69125E+01 0.00000E+00
 -1      2517 1.43505E+02 1.54375E+01 0.00000E+00
 -1      2518 1.43505E+02 1.98625E+01 0.00000E+00
 -1      2519 1.43505E+02 1.83875E+01 0.00000E+00
 -1      2520 1.42206E+02 1.76500E+01 0.00000E+00
 -1      2521 1.43505E+02 1.10625E+01 0.00000E+00
 -1      2522 1.43505E+02 9.58750E+00 0.00000E+00
 -1      2523 1.43505E+02 1.39750E+01 0.00000E+00
 -1      2524 1.43505E+02 1.25250E+01 0.00000E+00
 -1      2525 1.42206E+02 1.17875E+01 0.00000E+00
 -1      2526 1.42206E+02 1.47125E+01 0.00000E+00
 -1      2527 1.43505E+02 2.28125E+01 0.00000E+00
 -1      2528 1.43505E+02 2.13375E+01 0.00000E+00
 -1      2529 1.42206E+02 2.06000E+01 0.00000E+00
 -1      2530 1.43505E+02 2.57625E+01 0.00000E+00
 -1      2531 1.43505E+02 2.42875E+01 0.00000E+00
 -1      2532 1.42206E+02 2.35500E+01 0.00000E+00
 -1      2533 1.43505E+02 2.87125E+01 0.00000E+00
 -1      2534 1.43505E+02 2.72375E+01 0.00000E+00
 -1      2535 1.42206E+02 2.65000E+01 0.00000E+00
 -1      2536 1.43505E+02 3.16125E+01 0.00000E+00
 -1      2537 1.43505E+02 3.01625E+01 0.00000E+00
 -1      2538 1.42206E+02 2.94250E+01 0.00000E+00
 -1      2539 1.43505E+02 3.45625E+01 0.00000E+00
 -1      2540 1.43505E+02 3.30875E+01 0.00000E+00
 -1      2541 1.42206E+02 3.23500E+01 0.00000E+00
 -1      2542 1.43505E+02 3.75125E+01 0.00000E+00
 -1      2543 1.43505E+02 3.60375E+01 0.00000E+00
 -1      2544 1.42206E+02 3.53000E+01 0.00000E+00
 -1      2545 1.43304E+02 3.97250E+01 0.00000E+00
 -1      2546 1.17401E+02 2.49108E+01 0.00000E+00
 -1      2547 1.18461E+02 2.50240E+01 0.00000E+00
 -1      2548 1.19400E+02 2.51221E+01 0.00000E+00
 -1      2549 1.20340E+02 2.52202E+01 0.00000E+00
 -1      2550 1.18970E+02 2.41295E+01 0.00000E+00
 -1      2551 6.52200E+00 4.28890E+01 0.00000E+00
 -1      2552 8.42400E+00 4.32410E+01 0.00000E+00
 -1      2553 9.17400E+00 4.19420E+01 0.00000E+00
 -1      2554 6.52200E+00 4.14140E+01 0.00000E+00
 -1      2555 1.27279E+02 3.19471E+01 0.00000E+00
 -1      2556 1.27566E+02 3.28657E+01 0.00000E+00
 -1      2557 1.19074E+02 4.50320E+01 0.00000E+00
 -1      2558 1.07418E+02 3.27207E+01 0.00000E+00
 -1      2559 1.07852E+02 3.15539E+01 0.00000E+00
 -1      2560 1.97850E+01 5.30525E+00 0.00000E+00
 -1      2561 1.82850E+01 5.30525E+00 0.00000E+00
 -1      2562 1.75350E+01 6.60425E+00 0.00000E+00
 -1      2563 2.05350E+01 6.60425E+00 0.00000E+00
 -1      2564 1.26542E+02 3.01023E+01 0.00000E+00
 -1      2565 1.26910E+02 3.10247E+01 0.00000E+00
 -1      2566 1.27872E+02 3.12282E+01 0.00000E+00
 -1      2567 6.49500E+00 2.71625E+01 0.00000E+00
 -1      2568 6.49500E+00 2.86375E+01 0.00000E+00
 -1      2569 7.79400E+00 2.93750E+01 0.00000E+00
 -1      2570 7.79400E+00 2.64250E+01 0.00000E+00
 -1      2571 1.21700E+02 2.58095E+01 0.00000E+00
 -1      2572 1.22593E+02 2.64192E+01 0.00000E+00
 -1      2573 1.23512E+02 2.70669E+01 0.00000E+00
 -1      2574 1.24412E+02 2.77226E+01 0.00000E+00
 -1      2575 1.15312E+02 2.53212E+01 0.00000E+00
 -1      2576 1.16125E+02 2.50849E+01 0.00000E+00
 -1      2577 1.07850E+02 3.90962E+01 0.00000E+00
 -1      2578 1.07461E+02 3.81191E+01 0.00000E+00
 -1      2579 1.13309E+02 2.58669E+01 0.00000E+00
 -1      2580 1.14310E+02 2.55940E+01 0.00000E+00
 -1      2581 1.14478E+02 2.46524E+01 0.00000E+00
 -1      2582 1.09562E+02 2.88792E+01 0.00000E+00
 -1      2583 1.10117E+02 2.81665E+01 0.00000E+00
 -1      2584 1.08435E+02 3.03718E+01 0.00000E+00
 -1      2585 1.08999E+02 2.96255E+01 0.00000E+00
 -1      2586 1.08600E+02 2.87421E+01 0.00000E+00
 -1      2587 1.07102E+02 3.48248E+01 0.00000E+00
 -1      2588 1.07106E+02 3.39982E+01 0.00000E+00
 -1      2589 1.07168E+02 3.69112E+01 0.00000E+00
 -1      2590 1.07135E+02 3.58680E+01 0.00000E+00
 -1      2591 1.06279E+02 3.54508E+01 0.00000E+00
 -1      2592 1.08787E+02 4.08516E+01 0.00000E+00
 -1      2593 1.08346E+02 4.00552E+01 0.00000E+00
 -1      2594 1.09821E+02 4.26813E+01 0.00000E+00
 -1      2595 1.09180E+02 4.18983E+01 0.00000E+00
 -1      2596 1.25693E+02 4.20412E+01 0.00000E+00
 -1      2597 1.24884E+02 4.28784E+01 0.00000E+00
 -1      2598 1.26842E+02 4.00633E+01 0.00000E+00
 -1      2599 1.26478E+02 4.09508E+01 0.00000E+00
 -1      2600 1.27390E+02 3.82353E+01 0.00000E+00
 -1      2601 1.27116E+02 3.91493E+01 0.00000E+00
 -1      2602 1.27689E+02 3.99026E+01 0.00000E+00
 -1      2603 1.27782E+02 3.39765E+01 0.00000E+00
 -1      2604 1.27855E+02 3.49024E+01 0.00000E+00
 -1      2605 7.79400E+00 3.52687E+01 0.00000E+00
 -1      2606 6.49500E+00 3.60062E+01 0.00000E+00
 -1      2607 6.49500E+00 3.74750E+01 0.00000E+00
 -1      2608 1.28214E+02 3.78054E+01 0.00000E+00
 -1      2609 1.26797E+02 2.92207E+01 0.00000E+00
 -1      2610 1.25278E+02 2.74186E+01 0.00000E+00
 -1      2611 1.10533E+02 4.36226E+01 0.00000E+00
 -1      2612 1.07213E+02 4.25637E+01 0.00000E+00
 -1      2613 1.28570E+02 3.54971E+01 0.00000E+00
 -1      2614 1.43586E+02 6.56853E+00 0.00000E+00
 -1      2615 1.07394E+02 3.98690E+01 0.00000E+00
 -1      2616 1.43419E+02 7.72713E+00 0.00000E+00
 -1      2617 1.42005E+02 3.89875E+01 0.00000E+00
 -1      2618 1.16755E+02 2.42055E+01 0.00000E+00
 -1      2619 1.21270E+02 2.48168E+01 0.00000E+00
 -1      2620 6.50850E+00 3.87101E+01 0.00000E+00
 -1      2621 6.50850E+00 4.01789E+01 0.00000E+00
 -1      2622 7.83450E+00 4.04429E+01 0.00000E+00
 -1      2623 7.80750E+00 3.79726E+01 0.00000E+00
 -1      2624 1.06559E+02 3.31301E+01 0.00000E+00
 -1      2625 1.26630E+02 4.19071E+01 0.00000E+00
 -1      2626 1.06605E+02 3.77020E+01 0.00000E+00
 -1      2627 1.07454E+02 3.06705E+01 0.00000E+00
 -1      2628 1.12484E+02 2.57898E+01 0.00000E+00
 -1      2629 1.12651E+02 2.48482E+01 0.00000E+00
 -1      2630 1.11659E+02 2.57127E+01 0.00000E+00
 -1      2631 1.11247E+02 4.43014E+01 0.00000E+00
 -1      2632 1.12597E+02 4.44077E+01 0.00000E+00
 -1      2633 1.09373E+02 2.71544E+01 0.00000E+00
 -1      2634 1.10328E+02 2.73251E+01 0.00000E+00
 -1      2635 1.10538E+02 2.64837E+01 0.00000E+00
 -1      2636 1.23612E+02 4.38879E+01 0.00000E+00
 -1      2637 1.25112E+02 4.38879E+01 0.00000E+00
 -1      2638 1.23548E+02 2.60538E+01 0.00000E+00
 -1      2639 1.28457E+02 3.32613E+01 0.00000E+00
 -1      2640 1.22778E+02 4.43358E+01 0.00000E+00
 -1      2641 1.21924E+02 4.47806E+01 0.00000E+00
 -1      2642 1.26073E+02 4.40071E+01 0.00000E+00
 -1      2643 1.13663E+02 4.47896E+01 0.00000E+00
 -1      2644 1.42120E+02 8.46463E+00 0.00000E+00
 -1      2645 1.08282E+02 4.18747E+01 0.00000E+00
 -1      2646 1.26785E+02 4.28144E+01 0.00000E+00
 -1      2647 9.09300E+00 1.98250E+01 0.00000E+00
 -1      2648 9.09300E+00 2.12750E+01 0.00000E+00
 -1      2649 9.09300E+00 2.27500E+01 0.00000E+00
 -1      2650 9.09300E+00 2.42250E+01 0.00000E+00
 -1      2651 1.03920E+01 2.20250E+01 0.00000E+00
 -1      2652 9.09300E+00 1.39375E+01 0.00000E+00
 -1      2653 9.09300E+00 1.54125E+01 0.00000E+00
 -1      2654 9.09300E+00 1.09875E+01 0.00000E+00
 -1      2655 9.09300E+00 1.24625E+01 0.00000E+00
 -1      2656 1.03920E+01 1.32000E+01 0.00000E+00
 -1      2657 9.09300E+00 8.03750E+00 0.00000E+00
 -1      2658 9.09300E+00 9.51250E+00 0.00000E+00
 -1      2659 1.03920E+01 1.02500E+01 0.00000E+00
 -1      2660 9.47138E+00 6.43359E+00 0.00000E+00
 -1      2661 9.28613E+00 7.25703E+00 0.00000E+00
 -1      2662 1.05851E+01 7.99453E+00 0.00000E+00
 -1      2663 1.09714E+01 6.43359E+00 0.00000E+00
 -1      2664 9.16050E+00 4.07069E+01 0.00000E+00
 -1      2665 1.04865E+01 4.09709E+01 0.00000E+00
 -1      2666 9.14700E+00 3.94717E+01 0.00000E+00
 -1      2667 2.72850E+01 7.90325E+00 0.00000E+00
 -1      2668 2.57850E+01 7.90325E+00 0.00000E+00
 -1      2669 1.19865E+01 4.09709E+01 0.00000E+00
 -1      2670 1.34865E+01 4.09709E+01 0.00000E+00
 -1      2671 1.19730E+01 3.97357E+01 0.00000E+00
 -1      2672 1.15774E+02 4.51740E+01 0.00000E+00
 -1      2673 1.49115E+01 4.09709E+01 0.00000E+00
 -1      2674 1.63365E+01 4.09709E+01 0.00000E+00
 -1      2675 1.48980E+01 3.97357E+01 0.00000E+00
 -1      2676 1.78365E+01 4.09709E+01 0.00000E+00
 -1      2677 1.93365E+01 4.09709E+01 0.00000E+00
 -1      2678 1.78230E+01 3.97357E+01 0.00000E+00
 -1      2679 2.08365E+01 4.09709E+01 0.00000E+00
 -1      2680 2.23365E+01 4.09709E+01 0.00000E+00
 -1      2681 2.08230E+01 3.97357E+01 0.00000E+00
 -1      2682 2.38365E+01 4.09709E+01 0.00000E+00
 -1      2683 2.53365E+01 4.09709E+01 0.00000E+00
 -1      2684 2.38230E+01 3.97357E+01 0.00000E+00
 -1      2685 2.68365E+01 4.09709E+01 0.00000E+00
 -1      2686 2.83365E+01 4.09709E+01 0.00000E+00
 -1      2687 2.68230E+01 3.97357E+01 0.00000E+00
 -1      2688 2.98365E+01 4.09709E+01 0.00000E+00
 -1      2689 3.13365E+01 4.09709E+01 0.00000E+00
 -1      2690 2.98230E+01 3.97357E+01 0.00000E+00
 -1      2691 3.28365E+01 4.09709E+01 0.00000E+00
 -1      2692 3.43365E+01 4.09709E+01 0.00000E+00
 -1      2693 3.28230E+01 3.97357E+01 0.00000E+00
 -1      2694 3.57615E+01 4.09709E+01 0.00000E+00
 -1      2695 3.71865E+01 4.09709E+01 0.00000E+00
 -1      2696 3.57480E+01 3.97357E+01 0.00000E+00
 -1      2697 3.86865E+01 4.09709E+01 0.00000E+00
 -1      2698 4.01865E+01 4.09709E+01 0.00000E+00
 -1      2699 3.86730E+01 3.97357E+01 0.00000E+00
 -1      2700 4.16865E+01 4.09709E+01 0.00000E+00
 -1      2701 4.31865E+01 4.09709E+01 0.00000E+00
 -1      2702 4.16730E+01 3.97357E+01 0.00000E+00
 -1      2703 4.46865E+01 4.09709E+01 0.00000E+00
 -1      2704 4.61865E+01 4.09709E+01 0.00000E+00
 -1      2705 4.46730E+01 3.97357E+01 0.00000E+00
 -1      2706 4.76865E+01 4.09709E+01 0.00000E+00
 -1      2707 4.91865E+01 4.09709E+01 0.00000E+00
 -1      2708 4.76730E+01 3.97357E+01 0.00000E+00
 -1      2709 5.06865E+01 4.09709E+01 0.00000E+00
 -1      2710 5.21865E+01 4.09709E+01 0.00000E+00
 -1      2711 5.06730E+01 3.97357E+01 0.00000E+00
 -1      2712 5.36115E+01 4.09709E+01 0.00000E+00
 -1      2713 5.50365E+01 4.09709E+01 0.00000E+00
 -1      2714 5.35980E+01 3.97357E+01 0.00000E+00
 -1      2715 5.65365E+01 4.09709E+01 0.00000E+00
 -1      2716 5.80365E+01 4.09709E+01 0.00000E+00
 -1      2717 5.65230E+01 3.97357E+01 0.00000E+00
 -1      2718 5.95365E+01 4.09709E+01 0.00000E+00
 -1      2719 6.10365E+01 4.09709E+01 0.00000E+00
 -1      2720 5.95230E+01 3.97357E+01 0.00000E+00
 -1      2721 6.25365E+01 4.09709E+01 0.00000E+00
 -1      2722 6.40365E+01 4.09709E+01 0.00000E+00
 -1      2723 6.25230E+01 3.97357E+01 0.00000E+00
 -1      2724 6.55365E+01 4.09709E+01 0.00000E+00
 -1      2725 6.70365E+01 4.09709E+01 0.00000E+00
 -1      2726 6.55230E+01 3.97357E+01 0.00000E+00
 -1      2727 6.85365E+01 4.09709E+01 0.00000E+00
 -1      2728 7.00365E+01 4.09709E+01 0.00000E+00
 -1      2729 6.85230E+01 3.97357E+01 0.00000E+00
 -1      2730 7.15365E+01 4.09709E+01 0.00000E+00
 -1      2731 7.30365E+01 4.09709E+01 0.00000E+00
 -1      2732 7.15230E+01 3.97357E+01 0.00000E+00
 -1      2733 7.44615E+01 4.09709E+01 0.00000E+00
 -1      2734 7.58865E+01 4.09709E+01 0.00000E+00
 -1      2735 7.44480E+01 3.97357E+01 0.00000E+00
 -1      2736 7.73865E+01 4.09709E+01 0.00000E+00
 -1      2737 7.88865E+01 4.09709E+01 0.00000E+00
 -1      2738 7.73730E+01 3.97357E+01 0.00000E+00
 -1      2739 8.03865E+01 4.09709E+01 0.00000E+00
 -1      2740 8.18865E+01 4.09709E+01 0.00000E+00
 -1      2741 8.03730E+01 3.97357E+01 0.00000E+00
 -1      2742 8.33865E+01 4.09709E+01 0.00000E+00
 -1      2743 8.48865E+01 4.09709E+01 0.00000E+00
 -1      2744 8.33730E+01 3.97357E+01 0.00000E+00
 -1      2745 8.63865E+01 4.09709E+01 0.00000E+00
 -1      2746 8.78865E+01 4.09709E+01 0.00000E+00
 -1      2747 8.63730E+01 3.97357E+01 0.00000E+00
 -1      2748 8.93865E+01 4.09709E+01 0.00000E+00
 -1      2749 9.08865E+01 4.09709E+01 0.00000E+00
 -1      2750 8.93730E+01 3.97357E+01 0.00000E+00
 -1      2751 9.23115E+01 4.09709E+01 0.00000E+00
 -1      2752 9.37365E+01 4.09709E+01 0.00000E+00
 -1      2753 9.22980E+01 3.97357E+01 0.00000E+00
 -1      2754 9.52365E+01 4.09709E+01 0.00000E+00
 -1      2755 9.67365E+01 4.09709E+01 0.00000E+00
 -1      2756 9.52230E+01 3.97357E+01 0.00000E+00
 -1      2757 9.82365E+01 4.09709E+01 0.00000E+00
 -1      2758 9.97365E+01 4.09709E+01 0.00000E+00
 -1      2759 9.82230E+01 3.97357E+01 0.00000E+00
 -1      2760 1.01237E+02 4.09709E+01 0.00000E+00
 -1      2761 1.02737E+02 4.09709E+01 0.00000E+00
 -1      2762 1.01223E+02 3.97357E+01 0.00000E+00
 -1      2763 1.04237E+02 4.09709E+01 0.00000E+00
 -1      2764 1.14826E+02 4.49572E+01 0.00000E+00
 -1      2765 1.25607E+02 2.62291E+01 0.00000E+00
 -1      2766 1.26418E+02 2.69462E+01 0.00000E+00
 -1      2767 1.28640E+02 3.03868E+01 0.00000E+00
 -1      2768 1.29009E+02 3.13092E+01 0.00000E+00
 -1      2769 1.31475E+02 4.13322E+01 0.00000E+00
 -1      2770 1.32975E+02 4.13322E+01 0.00000E+00
 -1      2771 1.34475E+02 4.13322E+01 0.00000E+00
 -1      2772 1.35975E+02 4.13322E+01 0.00000E+00
 -1      2773 1.33725E+02 4.00332E+01 0.00000E+00
 -1      2774 3.02850E+01 7.90325E+00 0.00000E+00
 -1      2775 2.87850E+01 7.90325E+00 0.00000E+00
 -1      2776 2.80350E+01 9.20225E+00 0.00000E+00
 -1      2777 2.42850E+01 7.90325E+00 0.00000E+00
 -1      2778 2.27850E+01 7.90325E+00 0.00000E+00
 -1      2779 2.50350E+01 9.20225E+00 0.00000E+00
 -1      2780 3.32850E+01 7.90325E+00 0.00000E+00
 -1      2781 3.17850E+01 7.90325E+00 0.00000E+00
 -1      2782 3.10350E+01 9.20225E+00 0.00000E+00
 -1      2783 3.62850E+01 7.90325E+00 0.00000E+00
 -1      2784 3.47850E+01 7.90325E+00 0.00000E+00
 -1      2785 3.40350E+01 9.20225E+00 0.00000E+00
 -1      2786 3.92850E+01 7.90325E+00 0.00000E+00
 -1      2787 3.77850E+01 7.90325E+00 0.00000E+00
 -1      2788 3.70350E+01 9.20225E+00 0.00000E+00
 -1      2789 4.22850E+01 7.90325E+00 0.00000E+00
 -1      2790 4.07850E+01 7.90325E+00 0.00000E+00
 -1      2791 4.00350E+01 9.20225E+00 0.00000E+00
 -1      2792 4.52850E+01 7.90325E+00 0.00000E+00
 -1      2793 4.37850E+01 7.90325E+00 0.00000E+00
 -1      2794 4.30350E+01 9.20225E+00 0.00000E+00
 -1      2795 4.82850E+01 7.90325E+00 0.00000E+00
 -1      2796 4.67850E+01 7.90325E+00 0.00000E+00
 -1      2797 4.60350E+01 9.20225E+00 0.00000E+00
 -1      2798 5.12850E+01 7.90325E+00 0.00000E+00
 -1      2799 4.97850E+01 7.90325E+00 0.00000E+00
 -1      2800 4.90350E+01 9.20225E+00 0.00000E+00
 -1      2801 5.42850E+01 7.90325E+00 0.00000E+00
 -1      2802 5.27850E+01 7.90325E+00 0.00000E+00
 -1      2803 5.20350E+01 9.20225E+00 0.00000E+00
 -1      2804 5.72850E+01 7.90325E+00 0.00000E+00
 -1      2805 5.57850E+01 7.90325E+00 0.00000E+00
 -1      2806 5.50350E+01 9.20225E+00 0.00000E+00
 -1      2807 6.02850E+01 7.90325E+00 0.00000E+00
 -1      2808 5.87850E+01 7.90325E+00 0.00000E+00
 -1      2809 5.80350E+01 9.20225E+00 0.00000E+00
 -1      2810 6.32850E+01 7.90325E+00 0.00000E+00
 -1      2811 6.17850E+01 7.90325E+00 0.00000E+00
 -1      2812 6.10350E+01 9.20225E+00 0.00000E+00
 -1      2813 6.62850E+01 7.90325E+00 0.00000E+00
 -1      2814 6.47850E+01 7.90325E+00 0.00000E+00
 -1      2815 6.40350E+01 9.20225E+00 0.00000E+00
 -1      2816 6.92850E+01 7.90325E+00 0.00000E+00
 -1      2817 6.77850E+01 7.90325E+00 0.00000E+00
 -1      2818 6.70350E+01 9.20225E+00 0.00000E+00
 -1      2819 7.22850E+01 7.90325E+00 0.00000E+00
 -1      2820 7.07850E+01 7.90325E+00 0.00000E+00
 -1      2821 7.00350E+01 9.20225E+00 0.00000E+00
 -1      2822 7.52850E+01 7.90325E+00 0.00000E+00
 -1      2823 7.37850E+01 7.90325E+00 0.00000E+00
 -1      2824 7.30350E+01 9.20225E+00 0.00000E+00
 -1      2825 7.82850E+01 7.90325E+00 0.00000E+00
 -1      2826 7.67850E+01 7.90325E+00 0.00000E+00
 -1      2827 7.60350E+01 9.20225E+00 0.00000E+00
 -1      2828 8.12850E+01 7.90325E+00 0.00000E+00
 -1      2829 7.97850E+01 7.90325E+00 0.00000E+00
 -1      2830 7.90350E+01 9.20225E+00 0.00000E+00
 -1      2831 8.42850E+01 7.90325E+00 0.00000E+00
 -1      2832 8.27850E+01 7.90325E+00 0.00000E+00
 -1      2833 8.20350E+01 9.20225E+00 0.00000E+00
 -1      2834 8.72850E+01 7.90325E+00 0.00000E+00
 -1      2835 8.57850E+01 7.90325E+00 0.00000E+00
 -1      2836 8.50350E+01 9.20225E+00 0.00000E+00
 -1      2837 9.02850E+01 7.90325E+00 0.00000E+00
 -1      2838 8.87850E+01 7.90325E+00 0.00000E+00
 -1      2839 8.80350E+01 9.20225E+00 0.00000E+00
 -1      2840 9.32850E+01 7.90325E+00 0.00000E+00
 -1      2841 9.17850E+01 7.90325E+00 0.00000E+00
 -1      2842 9.10350E+01 9.20225E+00 0.00000E+00
 -1      2843 9.62850E+01 7.90325E+00 0.00000E+00
 -1      2844 9.47850E+01 7.90325E+00 0.00000E+00
 -1      2845 9.40350E+01 9.20225E+00 0.00000E+00
 -1      2846 9.92850E+01 7.90325E+00 0.00000E+00
 -1      2847 9.77850E+01 7.90325E+00 0.00000E+00
 -1      2848 9.70350E+01 9.20225E+00 0.00000E+00
 -1      2849 1.02285E+02 7.90325E+00 0.00000E+00
 -1      2850 1.00785E+02 7.90325E+00 0.00000E+00
 -1      2851 1.00035E+02 9.20225E+00 0.00000E+00
 -1      2852 1.05285E+02 7.90325E+00 0.00000E+00
 -1      2853 1.03785E+02 7.90325E+00 0.00000E+00
 -1      2854 1.03035E+02 9.20225E+00 0.00000E+00
 -1      2855 1.08285E+02 7.90325E+00 0.00000E+00
 -1      2856 1.06785E+02 7.90325E+00 0.00000E+00
 -1      2857 1.06035E+02 9.20225E+00 0.00000E+00
 -1      2858 1.11285E+02 7.90325E+00 0.00000E+00
 -1      2859 1.09785E+02 7.90325E+00 0.00000E+00
 -1      2860 1.09035E+02 9.20225E+00 0.00000E+00
 -1      2861 1.14285E+02 7.90325E+00 0.00000E+00
 -1      2862 1.12785E+02 7.90325E+00 0.00000E+00
 -1      2863 1.12035E+02 9.20225E+00 0.00000E+00
 -1      2864 1.17285E+02 7.90325E+00 0.00000E+00
 -1      2865 1.15785E+02 7.90325E+00 0.00000E+00
 -1      2866 1.15035E+02 9.20225E+00 0.00000E+00
 -1      2867 1.20285E+02 7.90325E+00 0.00000E+00
 -1      2868 1.18785E+02 7.90325E+00 0.00000E+00
 -1      2869 1.18035E+02 9.20225E+00 0.00000E+00
 -1      2870 1.23285E+02 7.90325E+00 0.00000E+00
 -1      2871 1.21785E+02 7.90325E+00 0.00000E+00
 -1      2872 1.21035E+02 9.20225E+00 0.00000E+00
 -1      2873 1.26285E+02 7.90325E+00 0.00000E+00
 -1      2874 1.24785E+02 7.90325E+00 0.00000E+00
 -1      2875 1.24035E+02 9.20225E+00 0.00000E+00
 -1      2876 1.29285E+02 7.90325E+00 0.00000E+00
 -1      2877 1.27785E+02 7.90325E+00 0.00000E+00
 -1      2878 1.27035E+02 9.20225E+00 0.00000E+00
 -1      2879 1.32285E+02 7.90325E+00 0.00000E+00
 -1      2880 1.30785E+02 7.90325E+00 0.00000E+00
 -1      2881 1.30035E+02 9.20225E+00 0.00000E+00
 -1      2882 1.35285E+02 7.90325E+00 0.00000E+00
 -1      2883 1.33785E+02 7.90325E+00 0.00000E+00
 -1      2884 1.33035E+02 9.20225E+00 0.00000E+00
 -1      2885 1.38285E+02 7.90325E+00 0.00000E+00
 -1      2886 1.36785E+02 7.90325E+00 0.00000E+00
 -1      2887 1.36035E+02 9.20225E+00 0.00000E+00
 -1      2888 1.40953E+02 8.18394E+00 0.00000E+00
 -1      2889 1.39453E+02 8.18394E+00 0.00000E+00
 -1      2890 1.38703E+02 9.48294E+00 0.00000E+00
 -1      2891 1.41038E+02 1.00443E+01 0.00000E+00
 -1      2892 1.40907E+02 2.42875E+01 0.00000E+00
 -1      2893 1.40907E+02 2.28125E+01 0.00000E+00
 -1      2894 1.06820E+02 4.15170E+01 0.00000E+00
 -1      2895 1.40907E+02 1.83875E+01 0.00000E+00
 -1      2896 1.40907E+02 1.69125E+01 0.00000E+00
 -1      2897 1.40907E+02 2.72375E+01 0.00000E+00
 -1      2898 1.40907E+02 2.57625E+01 0.00000E+00
 -1      2899 1.39608E+02 2.50250E+01 0.00000E+00
 -1      2900 1.40907E+02 2.13375E+01 0.00000E+00
 -1      2901 1.40907E+02 1.98625E+01 0.00000E+00
 -1      2902 1.39608E+02 1.91250E+01 0.00000E+00
 -1      2903 1.39608E+02 2.20750E+01 0.00000E+00
 -1      2904 1.40907E+02 3.01375E+01 0.00000E+00
 -1      2905 1.40907E+02 2.86875E+01 0.00000E+00
 -1      2906 1.39608E+02 2.79500E+01 0.00000E+00
 -1      2907 1.40907E+02 3.30875E+01 0.00000E+00
 -1      2908 1.40907E+02 3.16125E+01 0.00000E+00
 -1      2909 1.39608E+02 3.08750E+01 0.00000E+00
 -1      2910 1.40907E+02 3.60375E+01 0.00000E+00
 -1      2911 1.40907E+02 3.45625E+01 0.00000E+00
 -1      2912 1.39608E+02 3.38250E+01 0.00000E+00
 -1      2913 1.16001E+02 2.34428E+01 0.00000E+00
 -1      2914 1.17277E+02 2.32687E+01 0.00000E+00
 -1      2915 1.18607E+02 2.30608E+01 0.00000E+00
 -1      2916 1.19547E+02 2.31590E+01 0.00000E+00
 -1      2917 1.29261E+02 3.74095E+01 0.00000E+00
 -1      2918 1.29009E+02 3.85928E+01 0.00000E+00
 -1      2919 1.27302E+02 2.81183E+01 0.00000E+00
 -1      2920 1.28009E+02 2.92034E+01 0.00000E+00
 -1      2921 1.40611E+02 3.99762E+01 0.00000E+00
 -1      2922 1.40812E+02 3.77637E+01 0.00000E+00
 -1      2923 1.23770E+02 2.49337E+01 0.00000E+00
 -1      2924 1.24688E+02 2.55814E+01 0.00000E+00
 -1      2925 1.25828E+02 2.51090E+01 0.00000E+00
 -1      2926 9.09300E+00 1.68813E+01 0.00000E+00
 -1      2927 9.09300E+00 1.83563E+01 0.00000E+00
 -1      2928 1.03920E+01 1.90812E+01 0.00000E+00
 -1      2929 1.03920E+01 1.61437E+01 0.00000E+00
 -1      2930 1.21031E+02 2.35047E+01 0.00000E+00
 -1      2931 1.22391E+02 2.40939E+01 0.00000E+00
 -1      2932 1.06393E+02 3.08824E+01 0.00000E+00
 -1      2933 1.06976E+02 2.97003E+01 0.00000E+00
 -1      2934 9.09300E+00 3.15875E+01 0.00000E+00
 -1      2935 9.09300E+00 3.30625E+01 0.00000E+00
 -1      2936 1.13729E+02 2.38806E+01 0.00000E+00
 -1      2937 1.14731E+02 2.36077E+01 0.00000E+00
 -1      2938 1.27570E+02 4.17239E+01 0.00000E+00
 -1      2939 1.07567E+02 2.85481E+01 0.00000E+00
 -1      2940 1.08130E+02 2.78019E+01 0.00000E+00
 -1      2941 1.05271E+02 3.60046E+01 0.00000E+00
 -1      2942 1.05238E+02 3.49614E+01 0.00000E+00
 -1      2943 1.29225E+02 3.24200E+01 0.00000E+00
 -1      2944 1.29441E+02 3.35307E+01 0.00000E+00
 -1      2945 1.29993E+02 3.15786E+01 0.00000E+00
 -1      2946 1.05837E+02 3.85279E+01 0.00000E+00
 -1      2947 1.05544E+02 3.73200E+01 0.00000E+00
 -1      2948 1.28735E+02 3.95068E+01 0.00000E+00
 -1      2949 1.28461E+02 4.04208E+01 0.00000E+00
 -1      2950 1.29782E+02 3.91109E+01 0.00000E+00
 -1      2951 1.29476E+02 3.50134E+01 0.00000E+00
 -1      2952 1.29372E+02 3.61384E+01 0.00000E+00
 -1      2953 1.05569E+02 3.35653E+01 0.00000E+00
 -1      2954 1.05882E+02 3.22878E+01 0.00000E+00
 -1      2955 1.03920E+01 2.49750E+01 0.00000E+00
 -1      2956 9.09300E+00 2.57000E+01 0.00000E+00
 -1      2957 9.09300E+00 2.71750E+01 0.00000E+00
 -1      2958 9.09300E+00 2.86437E+01 0.00000E+00
 -1      2959 9.09300E+00 3.01187E+01 0.00000E+00
 -1      2960 1.03920E+01 3.08563E+01 0.00000E+00
 -1      2961 1.03920E+01 2.79188E+01 0.00000E+00
 -1      2962 2.20350E+01 9.20225E+00 0.00000E+00
 -1      2963 2.12850E+01 7.90325E+00 0.00000E+00
 -1      2964 1.97850E+01 7.90325E+00 0.00000E+00
 -1      2965 1.06077E+02 3.95258E+01 0.00000E+00
 -1      2966 1.05016E+02 3.91438E+01 0.00000E+00
 -1      2967 1.30116E+02 4.13281E+01 0.00000E+00
 -1      2968 1.30866E+02 4.00291E+01 0.00000E+00
 -1      2969 1.29145E+02 2.92845E+01 0.00000E+00
 -1      2970 1.04561E+02 3.41191E+01 0.00000E+00
 -1      2971 1.39341E+02 4.03340E+01 0.00000E+00
 -1      2972 1.37023E+02 4.10120E+01 0.00000E+00
 -1      2973 1.38293E+02 4.06542E+01 0.00000E+00
 -1      2974 1.38369E+02 3.90726E+01 0.00000E+00
 -1      2975 1.36273E+02 3.97130E+01 0.00000E+00
 -1      2976 1.51772E+01 7.76028E+00 0.00000E+00
 -1      2977 1.39596E+01 7.52250E+00 0.00000E+00
 -1      2978 1.41038E+02 1.15068E+01 0.00000E+00
 -1      2979 1.39870E+02 1.12261E+01 0.00000E+00
 -1      2980 1.41038E+02 1.29693E+01 0.00000E+00
 -1      2981 1.06573E+02 4.04849E+01 0.00000E+00
 -1      2982 1.05503E+02 4.11738E+01 0.00000E+00
 -1      2983 1.17853E+02 2.22982E+01 0.00000E+00
 -1      2984 1.39513E+02 3.70262E+01 0.00000E+00
 -1      2985 1.15253E+02 2.26710E+01 0.00000E+00
 -1      2986 1.20667E+02 2.24360E+01 0.00000E+00
 -1      2987 1.30167E+02 3.69258E+01 0.00000E+00
 -1      2988 9.09300E+00 3.45313E+01 0.00000E+00
 -1      2989 9.09300E+00 3.60000E+01 0.00000E+00
 -1      2990 1.03920E+01 3.37938E+01 0.00000E+00
 -1      2991 1.82850E+01 7.90325E+00 0.00000E+00
 -1      2992 1.67850E+01 7.90325E+00 0.00000E+00
 -1      2993 1.90350E+01 9.20225E+00 0.00000E+00
 -1      2994 1.08340E+02 2.69604E+01 0.00000E+00
 -1      2995 1.08551E+02 2.61190E+01 0.00000E+00
 -1      2996 1.07308E+02 2.67665E+01 0.00000E+00
 -1      2997 1.10705E+02 2.55420E+01 0.00000E+00
 -1      2998 1.40973E+02 1.56722E+01 0.00000E+00
 -1      2999 1.40973E+02 1.42097E+01 0.00000E+00
 -1      3000 1.39805E+02 1.39290E+01 0.00000E+00
 -1      3001 1.39674E+02 1.64097E+01 0.00000E+00
 -1      3002 1.23531E+02 2.36215E+01 0.00000E+00
 -1      3003 1.20461E+02 4.49482E+01 0.00000E+00
 -1      3004 1.28616E+02 4.13281E+01 0.00000E+00
 -1      3005 1.05404E+02 3.13175E+01 0.00000E+00
 -1      3006 1.27630E+02 2.69289E+01 0.00000E+00
 -1      3007 1.12905E+02 2.38035E+01 0.00000E+00
 -1      3008 1.13158E+02 2.27588E+01 0.00000E+00
 -1      3009 1.12080E+02 2.37264E+01 0.00000E+00
 -1      3010 1.06506E+02 2.87600E+01 0.00000E+00
 -1      3011 1.59272E+01 9.05928E+00 0.00000E+00
 -1      3012 1.30243E+02 3.41720E+01 0.00000E+00
 -1      3013 1.04503E+02 3.68306E+01 0.00000E+00
 -1      3014 1.16910E+01 9.51250E+00 0.00000E+00
 -1      3015 1.16910E+01 1.09875E+01 0.00000E+00
 -1      3016 1.16910E+01 1.24625E+01 0.00000E+00
 -1      3017 1.16910E+01 1.39375E+01 0.00000E+00
 -1      3018 1.29900E+01 1.17250E+01 0.00000E+00
 -1      3019 1.21890E+01 6.67137E+00 0.00000E+00
 -1      3020 1.12230E+01 3.84367E+01 0.00000E+00
 -1      3021 1.27230E+01 3.84367E+01 0.00000E+00
 -1      3022 1.04264E+02 3.16983E+01 0.00000E+00
 -1      3023 1.04775E+02 3.02929E+01 0.00000E+00
 -1      3024 1.31140E+02 3.91151E+01 0.00000E+00
 -1      3025 1.32975E+02 3.87342E+01 0.00000E+00
 -1      3026 1.34475E+02 3.87342E+01 0.00000E+00
 -1      3027 1.41480E+01 3.84367E+01 0.00000E+00
 -1      3028 1.55730E+01 3.84367E+01 0.00000E+00
 -1      3029 1.33980E+01 3.71377E+01 0.00000E+00
 -1      3030 1.70730E+01 3.84367E+01 0.00000E+00
 -1      3031 1.85730E+01 3.84367E+01 0.00000E+00
 -1      3032 1.63230E+01 3.71377E+01 0.00000E+00
 -1      3033 2.00730E+01 3.84367E+01 0.00000E+00
 -1      3034 2.15730E+01 3.84367E+01 0.00000E+00
 -1      3035 1.93230E+01 3.71377E+01 0.00000E+00
 -1      3036 2.30730E+01 3.84367E+01 0.00000E+00
 -1      3037 2.45730E+01 3.84367E+01 0.00000E+00
 -1      3038 2.23230E+01 3.71377E+01 0.00000E+00
 -1      3039 2.60730E+01 3.84367E+01 0.00000E+00
 -1      3040 2.75730E+01 3.84367E+01 0.00000E+00
 -1      3041 2.53230E+01 3.71377E+01 0.00000E+00
 -1      3042 2.90730E+01 3.84367E+01 0.00000E+00
 -1      3043 3.05730E+01 3.84367E+01 0.00000E+00
 -1      3044 2.83230E+01 3.71377E+01 0.00000E+00
 -1      3045 3.20730E+01 3.84367E+01 0.00000E+00
 -1      3046 3.35730E+01 3.84367E+01 0.00000E+00
 -1      3047 3.13230E+01 3.71377E+01 0.00000E+00
 -1      3048 3.49980E+01 3.84367E+01 0.00000E+00
 -1      3049 3.64230E+01 3.84367E+01 0.00000E+00
 -1      3050 3.42480E+01 3.71377E+01 0.00000E+00
 -1      3051 3.79230E+01 3.84367E+01 0.00000E+00
 -1      3052 3.94230E+01 3.84367E+01 0.00000E+00
 -1      3053 3.71730E+01 3.71377E+01 0.00000E+00
 -1      3054 4.09230E+01 3.84367E+01 0.00000E+00
 -1      3055 4.24230E+01 3.84367E+01 0.00000E+00
 -1      3056 4.01730E+01 3.71377E+01 0.00000E+00
 -1      3057 4.39230E+01 3.84367E+01 0.00000E+00
 -1      3058 4.54230E+01 3.84367E+01 0.00000E+00
 -1      3059 4.31730E+01 3.71377E+01 0.00000E+00
 -1      3060 4.69230E+01 3.84367E+01 0.00000E+00
 -1      3061 4.84230E+01 3.84367E+01 0.00000E+00
 -1      3062 4.61730E+01 3.71377E+01 0.00000E+00
 -1      3063 4.99230E+01 3.84367E+01 0.00000E+00
 -1      3064 5.14230E+01 3.84367E+01 0.00000E+00
 -1      3065 4.91730E+01 3.71377E+01 0.00000E+00
 -1      3066 5.28480E+01 3.84367E+01 0.00000E+00
 -1      3067 5.42730E+01 3.84367E+01 0.00000E+00
 -1      3068 5.20980E+01 3.71377E+01 0.00000E+00
 -1      3069 5.57730E+01 3.84367E+01 0.00000E+00
 -1      3070 5.72730E+01 3.84367E+01 0.00000E+00
 -1      3071 5.50230E+01 3.71377E+01 0.00000E+00
 -1      3072 5.87730E+01 3.84367E+01 0.00000E+00
 -1      3073 6.02730E+01 3.84367E+01 0.00000E+00
 -1      3074 5.80230E+01 3.71377E+01 0.00000E+00
 -1      3075 6.17730E+01 3.84367E+01 0.00000E+00
 -1      3076 6.32730E+01 3.84367E+01 0.00000E+00
 -1      3077 6.10230E+01 3.71377E+01 0.00000E+00
 -1      3078 6.47730E+01 3.84367E+01 0.00000E+00
 -1      3079 6.62730E+01 3.84367E+01 0.00000E+00
 -1      3080 6.40230E+01 3.71377E+01 0.00000E+00
 -1      3081 6.77730E+01 3.84367E+01 0.00000E+00
 -1      3082 6.92730E+01 3.84367E+01 0.00000E+00
 -1      3083 6.70230E+01 3.71377E+01 0.00000E+00
 -1      3084 7.07730E+01 3.84367E+01 0.00000E+00
 -1      3085 7.22730E+01 3.84367E+01 0.00000E+00
 -1      3086 7.00230E+01 3.71377E+01 0.00000E+00
 -1      3087 7.36980E+01 3.84367E+01 0.00000E+00
 -1      3088 7.51230E+01 3.84367E+01 0.00000E+00
 -1      3089 7.29480E+01 3.71377E+01 0.00000E+00
 -1      3090 7.66230E+01 3.84367E+01 0.00000E+00
 -1      3091 7.81230E+01 3.84367E+01 0.00000E+00
 -1      3092 7.58730E+01 3.71377E+01 0.00000E+00
 -1      3093 7.96230E+01 3.84367E+01 0.00000E+00
 -1      3094 8.11230E+01 3.84367E+01 0.00000E+00
 -1      3095 7.88730E+01 3.71377E+01 0.00000E+00
 -1      3096 8.26230E+01 3.84367E+01 0.00000E+00
 -1      3097 8.41230E+01 3.84367E+01 0.00000E+00
 -1      3098 8.18730E+01 3.71377E+01 0.00000E+00
 -1      3099 8.56230E+01 3.84367E+01 0.00000E+00
 -1      3100 8.71230E+01 3.84367E+01 0.00000E+00
 -1      3101 8.48730E+01 3.71377E+01 0.00000E+00
 -1      3102 8.86230E+01 3.84367E+01 0.00000E+00
 -1      3103 9.01230E+01 3.84367E+01 0.00000E+00
 -1      3104 8.78730E+01 3.71377E+01 0.00000E+00
 -1      3105 9.15480E+01 3.84367E+01 0.00000E+00
 -1      3106 9.29730E+01 3.84367E+01 0.00000E+00
 -1      3107 9.07980E+01 3.71377E+01 0.00000E+00
 -1      3108 9.44730E+01 3.84367E+01 0.00000E+00
 -1      3109 9.59730E+01 3.84367E+01 0.00000E+00
 -1      3110 9.37230E+01 3.71377E+01 0.00000E+00
 -1      3111 9.74730E+01 3.84367E+01 0.00000E+00
 -1      3112 9.89730E+01 3.84367E+01 0.00000E+00
 -1      3113 9.67230E+01 3.71377E+01 0.00000E+00
 -1      3114 1.00473E+02 3.84367E+01 0.00000E+00
 -1      3115 1.01973E+02 3.84367E+01 0.00000E+00
 -1      3116 9.97230E+01 3.71377E+01 0.00000E+00
 -1      3117 1.29882E+02 2.81315E+01 0.00000E+00
 -1      3118 1.30513E+02 2.93149E+01 0.00000E+00
 -1      3119 2.87850E+01 1.05013E+01 0.00000E+00
 -1      3120 2.72850E+01 1.05013E+01 0.00000E+00
 -1      3121 1.25488E+01 8.06518E+00 0.00000E+00
 -1      3122 3.47850E+01 1.05013E+01 0.00000E+00
 -1      3123 3.32850E+01 1.05013E+01 0.00000E+00
 -1      3124 2.57850E+01 1.05013E+01 0.00000E+00
 -1      3125 2.42850E+01 1.05013E+01 0.00000E+00
 -1      3126 2.65350E+01 1.18003E+01 0.00000E+00
 -1      3127 3.77850E+01 1.05013E+01 0.00000E+00
 -1      3128 3.62850E+01 1.05013E+01 0.00000E+00
 -1      3129 3.55350E+01 1.18003E+01 0.00000E+00
 -1      3130 4.07850E+01 1.05013E+01 0.00000E+00
 -1      3131 3.92850E+01 1.05013E+01 0.00000E+00
 -1      3132 3.85350E+01 1.18003E+01 0.00000E+00
 -1      3133 4.37850E+01 1.05013E+01 0.00000E+00
 -1      3134 4.22850E+01 1.05013E+01 0.00000E+00
 -1      3135 4.15350E+01 1.18003E+01 0.00000E+00
 -1      3136 4.67850E+01 1.05013E+01 0.00000E+00
 -1      3137 4.52850E+01 1.05013E+01 0.00000E+00
 -1      3138 4.45350E+01 1.18003E+01 0.00000E+00
 -1      3139 4.97850E+01 1.05013E+01 0.00000E+00
 -1      3140 4.82850E+01 1.05013E+01 0.00000E+00
 -1      3141 4.75350E+01 1.18003E+01 0.00000E+00
 -1      3142 5.27850E+01 1.05013E+01 0.00000E+00
 -1      3143 5.12850E+01 1.05013E+01 0.00000E+00
 -1      3144 5.05350E+01 1.18003E+01 0.00000E+00
 -1      3145 5.57850E+01 1.05013E+01 0.00000E+00
 -1      3146 5.42850E+01 1.05013E+01 0.00000E+00
 -1      3147 5.35350E+01 1.18003E+01 0.00000E+00
 -1      3148 5.87850E+01 1.05013E+01 0.00000E+00
 -1      3149 5.72850E+01 1.05013E+01 0.00000E+00
 -1      3150 5.65350E+01 1.18003E+01 0.00000E+00
 -1      3151 6.17850E+01 1.05013E+01 0.00000E+00
 -1      3152 6.02850E+01 1.05013E+01 0.00000E+00
 -1      3153 5.95350E+01 1.18003E+01 0.00000E+00
 -1      3154 6.47850E+01 1.05013E+01 0.00000E+00
 -1      3155 6.32850E+01 1.05013E+01 0.00000E+00
 -1      3156 6.25350E+01 1.18003E+01 0.00000E+00
 -1      3157 6.77850E+01 1.05013E+01 0.00000E+00
 -1      3158 6.62850E+01 1.05013E+01 0.00000E+00
 -1      3159 6.55350E+01 1.18003E+01 0.00000E+00
 -1      3160 7.07850E+01 1.05013E+01 0.00000E+00
 -1      3161 6.92850E+01 1.05013E+01 0.00000E+00
 -1      3162 6.85350E+01 1.18003E+01 0.00000E+00
 -1      3163 7.37850E+01 1.05013E+01 0.00000E+00
 -1      3164 7.22850E+01 1.05013E+01 0.00000E+00
 -1      3165 7.15350E+01 1.18003E+01 0.00000E+00
 -1      3166 7.67850E+01 1.05013E+01 0.00000E+00
 -1      3167 7.52850E+01 1.05013E+01 0.00000E+00
 -1      3168 7.45350E+01 1.18003E+01 0.00000E+00
 -1      3169 7.97850E+01 1.05013E+01 0.00000E+00
 -1      3170 7.82850E+01 1.05013E+01 0.00000E+00
 -1      3171 7.75350E+01 1.18003E+01 0.00000E+00
 -1      3172 8.27850E+01 1.05013E+01 0.00000E+00
 -1      3173 8.12850E+01 1.05013E+01 0.00000E+00
 -1      3174 8.05350E+01 1.18003E+01 0.00000E+00
 -1      3175 8.57850E+01 1.05013E+01 0.00000E+00
 -1      3176 8.42850E+01 1.05013E+01 0.00000E+00
 -1      3177 8.35350E+01 1.18003E+01 0.00000E+00
 -1      3178 8.87850E+01 1.05013E+01 0.00000E+00
 -1      3179 8.72850E+01 1.05013E+01 0.00000E+00
 -1      3180 8.65350E+01 1.18003E+01 0.00000E+00
 -1      3181 9.17850E+01 1.05013E+01 0.00000E+00
 -1      3182 9.02850E+01 1.05013E+01 0.00000E+00
 -1      3183 8.95350E+01 1.18003E+01 0.00000E+00
 -1      3184 9.47850E+01 1.05013E+01 0.00000E+00
 -1      3185 9.32850E+01 1.05013E+01 0.00000E+00
 -1      3186 9.25350E+01 1.18003E+01 0.00000E+00
 -1      3187 9.77850E+01 1.05013E+01 0.00000E+00
 -1      3188 9.62850E+01 1.05013E+01 0.00000E+00
 -1      3189 9.55350E+01 1.18003E+01 0.00000E+00
 -1      3190 1.00785E+02 1.05013E+01 0.00000E+00
 -1      3191 9.92850E+01 1.05013E+01 0.00000E+00
 -1      3192 9.85350E+01 1.18003E+01 0.00000E+00
 -1      3193 1.03785E+02 1.05013E+01 0.00000E+00
 -1      3194 1.02285E+02 1.05013E+01 0.00000E+00
 -1      3195 1.01535E+02 1.18003E+01 0.00000E+00
 -1      3196 1.06785E+02 1.05013E+01 0.00000E+00
 -1      3197 1.05285E+02 1.05013E+01 0.00000E+00
 -1      3198 1.04535E+02 1.18003E+01 0.00000E+00
 -1      3199 1.09785E+02 1.05013E+01 0.00000E+00
 -1      3200 1.08285E+02 1.05013E+01 0.00000E+00
 -1      3201 1.07535E+02 1.18003E+01 0.00000E+00
 -1      3202 1.12785E+02 1.05013E+01 0.00000E+00
 -1      3203 1.11285E+02 1.05013E+01 0.00000E+00
 -1      3204 1.10535E+02 1.18003E+01 0.00000E+00
 -1      3205 1.15785E+02 1.05013E+01 0.00000E+00
 -1      3206 1.14285E+02 1.05013E+01 0.00000E+00
 -1      3207 1.13535E+02 1.18003E+01 0.00000E+00
 -1      3208 1.18785E+02 1.05013E+01 0.00000E+00
 -1      3209 1.17285E+02 1.05013E+01 0.00000E+00
 -1      3210 1.16535E+02 1.18003E+01 0.00000E+00
 -1      3211 1.21785E+02 1.05013E+01 0.00000E+00
 -1      3212 1.20285E+02 1.05013E+01 0.00000E+00
 -1      3213 1.19535E+02 1.18003E+01 0.00000E+00
 -1      3214 1.24785E+02 1.05013E+01 0.00000E+00
 -1      3215 1.23285E+02 1.05013E+01 0.00000E+00
 -1      3216 1.22535E+02 1.18003E+01 0.00000E+00
 -1      3217 1.27785E+02 1.05013E+01 0.00000E+00
 -1      3218 1.26285E+02 1.05013E+01 0.00000E+00
 -1      3219 1.25535E+02 1.18003E+01 0.00000E+00
 -1      3220 1.30785E+02 1.05013E+01 0.00000E+00
 -1      3221 1.29285E+02 1.05013E+01 0.00000E+00
 -1      3222 1.28535E+02 1.18003E+01 0.00000E+00
 -1      3223 1.33785E+02 1.05013E+01 0.00000E+00
 -1      3224 1.32285E+02 1.05013E+01 0.00000E+00
 -1      3225 1.31535E+02 1.18003E+01 0.00000E+00
 -1      3226 1.36785E+02 1.05013E+01 0.00000E+00
 -1      3227 1.35285E+02 1.05013E+01 0.00000E+00
 -1      3228 1.34535E+02 1.18003E+01 0.00000E+00
 -1      3229 1.38912E+02 1.10040E+01 0.00000E+00
 -1      3230 1.37744E+02 1.07233E+01 0.00000E+00
 -1      3231 1.36994E+02 1.20223E+01 0.00000E+00
 -1      3232 1.38912E+02 1.24665E+01 0.00000E+00
 -1      3233 1.38309E+02 3.16125E+01 0.00000E+00
 -1      3234 1.38309E+02 3.01375E+01 0.00000E+00
 -1      3235 1.38309E+02 3.45625E+01 0.00000E+00
 -1      3236 1.38309E+02 3.30875E+01 0.00000E+00
 -1      3237 1.37010E+02 3.23500E+01 0.00000E+00
 -1      3238 1.38309E+02 2.57625E+01 0.00000E+00
 -1      3239 1.38309E+02 2.42875E+01 0.00000E+00
 -1      3240 1.17030E+02 2.13893E+01 0.00000E+00
 -1      3241 1.18360E+02 2.11814E+01 0.00000E+00
 -1      3242 1.38292E+02 3.76807E+01 0.00000E+00
 -1      3243 1.38387E+02 3.59545E+01 0.00000E+00
 -1      3244 1.37088E+02 3.52170E+01 0.00000E+00
 -1      3245 1.37243E+02 3.80009E+01 0.00000E+00
 -1      3246 1.03317E+02 3.45611E+01 0.00000E+00
 -1      3247 1.03648E+02 3.31649E+01 0.00000E+00
 -1      3248 1.14490E+02 2.17191E+01 0.00000E+00
 -1      3249 1.15760E+02 2.15542E+01 0.00000E+00
 -1      3250 1.16267E+02 2.04375E+01 0.00000E+00
 -1      3251 1.26009E+02 2.38790E+01 0.00000E+00
 -1      3252 1.26927E+02 2.45267E+01 0.00000E+00
 -1      3253 1.23418E+02 2.22545E+01 0.00000E+00
 -1      3254 1.24797E+02 2.30942E+01 0.00000E+00
 -1      3255 1.30973E+02 3.08111E+01 0.00000E+00
 -1      3256 1.31189E+02 3.19219E+01 0.00000E+00
 -1      3257 1.20139E+02 2.13464E+01 0.00000E+00
 -1      3258 1.21623E+02 2.16921E+01 0.00000E+00
 -1      3259 3.17850E+01 1.05013E+01 0.00000E+00
 -1      3260 3.02850E+01 1.05013E+01 0.00000E+00
 -1      3261 2.95350E+01 1.18003E+01 0.00000E+00
 -1      3262 3.25350E+01 1.18003E+01 0.00000E+00
 -1      3263 1.16910E+01 2.12875E+01 0.00000E+00
 -1      3264 1.16910E+01 2.27625E+01 0.00000E+00
 -1      3265 1.09564E+02 2.50828E+01 0.00000E+00
 -1      3266 1.10685E+02 2.43118E+01 0.00000E+00
 -1      3267 1.38309E+02 2.86750E+01 0.00000E+00
 -1      3268 1.38309E+02 2.72250E+01 0.00000E+00
 -1      3269 1.37010E+02 2.64875E+01 0.00000E+00
 -1      3270 1.37010E+02 2.94125E+01 0.00000E+00
 -1      3271 1.05299E+02 2.88683E+01 0.00000E+00
 -1      3272 1.05889E+02 2.77162E+01 0.00000E+00
 -1      3273 1.31076E+02 3.63648E+01 0.00000E+00
 -1      3274 1.30965E+02 3.76360E+01 0.00000E+00
 -1      3275 1.31224E+02 3.34046E+01 0.00000E+00
 -1      3276 1.31258E+02 3.48873E+01 0.00000E+00
 -1      3277 1.32204E+02 3.26371E+01 0.00000E+00
 -1      3278 1.02999E+02 3.76418E+01 0.00000E+00
 -1      3279 1.02726E+02 3.63265E+01 0.00000E+00
 -1      3280 1.28141E+02 2.56248E+01 0.00000E+00
 -1      3281 1.29025E+02 2.67969E+01 0.00000E+00
 -1      3282 1.29900E+01 1.46687E+01 0.00000E+00
 -1      3283 1.16910E+01 1.54063E+01 0.00000E+00
 -1      3284 1.16910E+01 1.68750E+01 0.00000E+00
 -1      3285 1.03019E+02 3.21404E+01 0.00000E+00
 -1      3286 8.73765E+00 3.80658E+01 0.00000E+00
 -1      3287 1.00636E+01 3.83298E+01 0.00000E+00
 -1      3288 1.08136E+01 3.70308E+01 0.00000E+00
 -1      3289 1.04158E+02 2.92491E+01 0.00000E+00
 -1      3290 1.32050E+02 3.85541E+01 0.00000E+00
 -1      3291 1.03989E+02 3.99387E+01 0.00000E+00
 -1      3292 1.32800E+02 3.72551E+01 0.00000E+00
 -1      3293 1.31710E+02 2.96582E+01 0.00000E+00
 -1      3294 1.30393E+02 2.68274E+01 0.00000E+00
 -1      3295 1.28321E+02 2.43948E+01 0.00000E+00
 -1      3296 1.16910E+01 1.83469E+01 0.00000E+00
 -1      3297 1.16910E+01 1.98156E+01 0.00000E+00
 -1      3298 1.29900E+01 2.05531E+01 0.00000E+00
 -1      3299 1.29900E+01 1.76094E+01 0.00000E+00
 -1      3300 1.35335E+02 3.85276E+01 0.00000E+00
 -1      3301 1.36383E+02 3.82074E+01 0.00000E+00
 -1      3302 1.36305E+02 3.68155E+01 0.00000E+00
 -1      3303 1.34585E+02 3.72286E+01 0.00000E+00
 -1      3304 1.36547E+01 9.58315E+00 0.00000E+00
 -1      3305 1.18841E+01 8.73203E+00 0.00000E+00
 -1      3306 2.35350E+01 1.18003E+01 0.00000E+00
 -1      3307 2.27850E+01 1.05013E+01 0.00000E+00
 -1      3308 2.12850E+01 1.05013E+01 0.00000E+00
 -1      3309 1.04892E+02 2.69830E+01 0.00000E+00
 -1      3310 1.06100E+02 2.68747E+01 0.00000E+00
 -1      3311 1.06310E+02 2.60333E+01 0.00000E+00
 -1      3312 1.03749E+02 3.89408E+01 0.00000E+00
 -1      3313 1.37010E+02 2.35500E+01 0.00000E+00
 -1      3314 1.38309E+02 2.28125E+01 0.00000E+00
 -1      3315 1.38309E+02 2.13375E+01 0.00000E+00
 -1      3316 1.01813E+02 3.53724E+01 0.00000E+00
 -1      3317 1.38309E+02 1.98625E+01 0.00000E+00
 -1      3318 1.38309E+02 1.83875E+01 0.00000E+00
 -1      3319 1.37010E+02 2.06000E+01 0.00000E+00
 -1      3320 1.18492E+02 1.95286E+01 0.00000E+00
 -1      3321 1.19316E+02 2.04375E+01 0.00000E+00
 -1      3322 1.20271E+02 1.96936E+01 0.00000E+00
 -1      3323 1.13665E+02 2.16421E+01 0.00000E+00
 -1      3324 1.14172E+02 2.05253E+01 0.00000E+00
 -1      3325 1.12840E+02 2.15650E+01 0.00000E+00
 -1      3326 1.16910E+01 3.30594E+01 0.00000E+00
 -1      3327 1.16910E+01 3.45281E+01 0.00000E+00
 -1      3328 8.72415E+00 3.68306E+01 0.00000E+00
 -1      3329 1.97850E+01 1.05013E+01 0.00000E+00
 -1      3330 1.82850E+01 1.05013E+01 0.00000E+00
 -1      3331 2.05350E+01 1.18003E+01 0.00000E+00
 -1      3332 1.25896E+02 2.25119E+01 0.00000E+00
 -1      3333 1.37076E+02 1.78847E+01 0.00000E+00
 -1      3334 1.38375E+02 1.71472E+01 0.00000E+00
 -1      3335 1.38440E+02 1.59068E+01 0.00000E+00
 -1      3336 1.16910E+01 3.01219E+01 0.00000E+00
 -1      3337 1.16910E+01 3.15906E+01 0.00000E+00
 -1      3338 1.29900E+01 3.23250E+01 0.00000E+00
 -1      3339 1.22361E+02 2.00752E+01 0.00000E+00
 -1      3340 1.22889E+02 2.11648E+01 0.00000E+00
 -1      3341 1.24156E+02 2.06375E+01 0.00000E+00
 -1      3342 1.10939E+02 2.32672E+01 0.00000E+00
 -1      3343 1.47910E+01 1.00587E+01 0.00000E+00
 -1      3344 1.41263E+01 1.07256E+01 0.00000E+00
 -1      3345 1.41263E+01 1.22006E+01 0.00000E+00
 -1      3346 1.63988E+01 1.02017E+01 0.00000E+00
 -1      3347 1.08531E+02 2.48888E+01 0.00000E+00
 -1      3348 1.16910E+01 2.42375E+01 0.00000E+00
 -1      3349 1.16910E+01 2.57125E+01 0.00000E+00
 -1      3350 1.29900E+01 2.35000E+01 0.00000E+00
 -1      3351 1.32057E+02 3.55974E+01 0.00000E+00
 -1      3352 1.71488E+01 1.15007E+01 0.00000E+00
 -1      3353 1.16910E+01 2.71844E+01 0.00000E+00
 -1      3354 1.16910E+01 2.86531E+01 0.00000E+00
 -1      3355 1.29900E+01 2.93875E+01 0.00000E+00
 -1      3356 1.55730E+01 3.58387E+01 0.00000E+00
 -1      3357 1.70730E+01 3.58387E+01 0.00000E+00
 -1      3358 1.85730E+01 3.58387E+01 0.00000E+00
 -1      3359 2.00730E+01 3.58387E+01 0.00000E+00
 -1      3360 1.78230E+01 3.45397E+01 0.00000E+00
 -1      3361 2.15730E+01 3.58387E+01 0.00000E+00
 -1      3362 2.30730E+01 3.58387E+01 0.00000E+00
 -1      3363 2.08230E+01 3.45397E+01 0.00000E+00
 -1      3364 2.45730E+01 3.58387E+01 0.00000E+00
 -1      3365 2.60730E+01 3.58387E+01 0.00000E+00
 -1      3366 2.38230E+01 3.45397E+01 0.00000E+00
 -1      3367 2.75730E+01 3.58387E+01 0.00000E+00
 -1      3368 2.90730E+01 3.58387E+01 0.00000E+00
 -1      3369 2.68230E+01 3.45397E+01 0.00000E+00
 -1      3370 3.05730E+01 3.58387E+01 0.00000E+00
 -1      3371 3.20730E+01 3.58387E+01 0.00000E+00
 -1      3372 2.98230E+01 3.45397E+01 0.00000E+00
 -1      3373 3.34980E+01 3.58387E+01 0.00000E+00
 -1      3374 3.49230E+01 3.58387E+01 0.00000E+00
 -1      3375 3.27480E+01 3.45397E+01 0.00000E+00
 -1      3376 3.64230E+01 3.58387E+01 0.00000E+00
 -1      3377 3.79230E+01 3.58387E+01 0.00000E+00
 -1      3378 3.56730E+01 3.45397E+01 0.00000E+00
 -1      3379 3.94230E+01 3.58387E+01 0.00000E+00
 -1      3380 4.09230E+01 3.58387E+01 0.00000E+00
 -1      3381 3.86730E+01 3.45397E+01 0.00000E+00
 -1      3382 4.24230E+01 3.58387E+01 0.00000E+00
 -1      3383 4.39230E+01 3.58387E+01 0.00000E+00
 -1      3384 4.16730E+01 3.45397E+01 0.00000E+00
 -1      3385 4.54230E+01 3.58387E+01 0.00000E+00
 -1      3386 4.69230E+01 3.58387E+01 0.00000E+00
 -1      3387 4.46730E+01 3.45397E+01 0.00000E+00
 -1      3388 4.84230E+01 3.58387E+01 0.00000E+00
 -1      3389 4.99230E+01 3.58387E+01 0.00000E+00
 -1      3390 4.76730E+01 3.45397E+01 0.00000E+00
 -1      3391 5.13480E+01 3.58387E+01 0.00000E+00
 -1      3392 5.27730E+01 3.58387E+01 0.00000E+00
 -1      3393 5.05980E+01 3.45397E+01 0.00000E+00
 -1      3394 5.42730E+01 3.58387E+01 0.00000E+00
 -1      3395 5.57730E+01 3.58387E+01 0.00000E+00
 -1      3396 5.35230E+01 3.45397E+01 0.00000E+00
 -1      3397 5.72730E+01 3.58387E+01 0.00000E+00
 -1      3398 5.87730E+01 3.58387E+01 0.00000E+00
 -1      3399 5.65230E+01 3.45397E+01 0.00000E+00
 -1      3400 6.02730E+01 3.58387E+01 0.00000E+00
 -1      3401 6.17730E+01 3.58387E+01 0.00000E+00
 -1      3402 5.95230E+01 3.45397E+01 0.00000E+00
 -1      3403 6.32730E+01 3.58387E+01 0.00000E+00
 -1      3404 6.47730E+01 3.58387E+01 0.00000E+00
 -1      3405 6.25230E+01 3.45397E+01 0.00000E+00
 -1      3406 6.62730E+01 3.58387E+01 0.00000E+00
 -1      3407 6.77730E+01 3.58387E+01 0.00000E+00
 -1      3408 6.55230E+01 3.45397E+01 0.00000E+00
 -1      3409 6.92730E+01 3.58387E+01 0.00000E+00
 -1      3410 7.07730E+01 3.58387E+01 0.00000E+00
 -1      3411 6.85230E+01 3.45397E+01 0.00000E+00
 -1      3412 7.21980E+01 3.58387E+01 0.00000E+00
 -1      3413 7.36230E+01 3.58387E+01 0.00000E+00
 -1      3414 7.14480E+01 3.45397E+01 0.00000E+00
 -1      3415 7.51230E+01 3.58387E+01 0.00000E+00
 -1      3416 7.66230E+01 3.58387E+01 0.00000E+00
 -1      3417 7.43730E+01 3.45397E+01 0.00000E+00
 -1      3418 7.81230E+01 3.58387E+01 0.00000E+00
 -1      3419 7.96230E+01 3.58387E+01 0.00000E+00
 -1      3420 7.73730E+01 3.45397E+01 0.00000E+00
 -1      3421 8.11230E+01 3.58387E+01 0.00000E+00
 -1      3422 8.26230E+01 3.58387E+01 0.00000E+00
 -1      3423 8.03730E+01 3.45397E+01 0.00000E+00
 -1      3424 8.41230E+01 3.58387E+01 0.00000E+00
 -1      3425 8.56230E+01 3.58387E+01 0.00000E+00
 -1      3426 8.33730E+01 3.45397E+01 0.00000E+00
 -1      3427 8.71230E+01 3.58387E+01 0.00000E+00
 -1      3428 8.86230E+01 3.58387E+01 0.00000E+00
 -1      3429 8.63730E+01 3.45397E+01 0.00000E+00
 -1      3430 9.00480E+01 3.58387E+01 0.00000E+00
 -1      3431 9.14730E+01 3.58387E+01 0.00000E+00
 -1      3432 8.92980E+01 3.45397E+01 0.00000E+00
 -1      3433 9.29730E+01 3.58387E+01 0.00000E+00
 -1      3434 9.44730E+01 3.58387E+01 0.00000E+00
 -1      3435 9.22230E+01 3.45397E+01 0.00000E+00
 -1      3436 9.59730E+01 3.58387E+01 0.00000E+00
 -1      3437 9.74730E+01 3.58387E+01 0.00000E+00
 -1      3438 9.52230E+01 3.45397E+01 0.00000E+00
 -1      3439 9.88931E+01 3.56056E+01 0.00000E+00
 -1      3440 1.00393E+02 3.56056E+01 0.00000E+00
 -1      3441 1.00983E+02 3.38402E+01 0.00000E+00
 -1      3442 9.81431E+01 3.43066E+01 0.00000E+00
 -1      3443 2.72850E+01 1.30992E+01 0.00000E+00
 -1      3444 2.57850E+01 1.30992E+01 0.00000E+00
 -1      3445 1.25938E+02 2.11186E+01 0.00000E+00
 -1      3446 1.27150E+02 2.19033E+01 0.00000E+00
 -1      3447 3.92850E+01 1.30992E+01 0.00000E+00
 -1      3448 3.77850E+01 1.30992E+01 0.00000E+00
 -1      3449 1.32858E+02 3.63229E+01 0.00000E+00
 -1      3450 1.33783E+02 3.65031E+01 0.00000E+00
 -1      3451 1.34643E+02 3.62965E+01 0.00000E+00
 -1      3452 1.33040E+02 3.48454E+01 0.00000E+00
 -1      3453 4.22850E+01 1.30992E+01 0.00000E+00
 -1      3454 4.07850E+01 1.30992E+01 0.00000E+00
 -1      3455 4.00350E+01 1.43982E+01 0.00000E+00
 -1      3456 4.52850E+01 1.30992E+01 0.00000E+00
 -1      3457 4.37850E+01 1.30992E+01 0.00000E+00
 -1      3458 4.30350E+01 1.43982E+01 0.00000E+00
 -1      3459 4.82850E+01 1.30992E+01 0.00000E+00
 -1      3460 4.67850E+01 1.30992E+01 0.00000E+00
 -1      3461 4.60350E+01 1.43982E+01 0.00000E+00
 -1      3462 5.12850E+01 1.30992E+01 0.00000E+00
 -1      3463 4.97850E+01 1.30992E+01 0.00000E+00
 -1      3464 4.90350E+01 1.43982E+01 0.00000E+00
 -1      3465 5.42850E+01 1.30992E+01 0.00000E+00
 -1      3466 5.27850E+01 1.30992E+01 0.00000E+00
 -1      3467 5.20350E+01 1.43982E+01 0.00000E+00
 -1      3468 5.72850E+01 1.30992E+01 0.00000E+00
 -1      3469 5.57850E+01 1.30992E+01 0.00000E+00
 -1      3470 5.50350E+01 1.43982E+01 0.00000E+00
 -1      3471 6.02850E+01 1.30992E+01 0.00000E+00
 -1      3472 5.87850E+01 1.30992E+01 0.00000E+00
 -1      3473 5.80350E+01 1.43982E+01 0.00000E+00
 -1      3474 6.32850E+01 1.30992E+01 0.00000E+00
 -1      3475 6.17850E+01 1.30992E+01 0.00000E+00
 -1      3476 6.10350E+01 1.43982E+01 0.00000E+00
 -1      3477 6.62850E+01 1.30992E+01 0.00000E+00
 -1      3478 6.47850E+01 1.30992E+01 0.00000E+00
 -1      3479 6.40350E+01 1.43982E+01 0.00000E+00
 -1      3480 6.92850E+01 1.30992E+01 0.00000E+00
 -1      3481 6.77850E+01 1.30992E+01 0.00000E+00
 -1      3482 6.70350E+01 1.43982E+01 0.00000E+00
 -1      3483 7.22850E+01 1.30992E+01 0.00000E+00
 -1      3484 7.07850E+01 1.30992E+01 0.00000E+00
 -1      3485 7.00350E+01 1.43982E+01 0.00000E+00
 -1      3486 7.52850E+01 1.30992E+01 0.00000E+00
 -1      3487 7.37850E+01 1.30992E+01 0.00000E+00
 -1      3488 7.30350E+01 1.43982E+01 0.00000E+00
 -1      3489 7.82850E+01 1.30992E+01 0.00000E+00
 -1      3490 7.67850E+01 1.30992E+01 0.00000E+00
 -1      3491 7.60350E+01 1.43982E+01 0.00000E+00
 -1      3492 8.12850E+01 1.30992E+01 0.00000E+00
 -1      3493 7.97850E+01 1.30992E+01 0.00000E+00
 -1      3494 7.90350E+01 1.43982E+01 0.00000E+00
 -1      3495 8.42850E+01 1.30992E+01 0.00000E+00
 -1      3496 8.27850E+01 1.30992E+01 0.00000E+00
 -1      3497 8.20350E+01 1.43982E+01 0.00000E+00
 -1      3498 8.72850E+01 1.30992E+01 0.00000E+00
 -1      3499 8.57850E+01 1.30992E+01 0.00000E+00
 -1      3500 8.50350E+01 1.43982E+01 0.00000E+00
 -1      3501 9.02850E+01 1.30992E+01 0.00000E+00
 -1      3502 8.87850E+01 1.30992E+01 0.00000E+00
 -1      3503 8.80350E+01 1.43982E+01 0.00000E+00
 -1      3504 9.32850E+01 1.30992E+01 0.00000E+00
 -1      3505 9.17850E+01 1.30992E+01 0.00000E+00
 -1      3506 9.10350E+01 1.43982E+01 0.00000E+00
 -1      3507 9.62850E+01 1.30992E+01 0.00000E+00
 -1      3508 9.47850E+01 1.30992E+01 0.00000E+00
 -1      3509 9.40350E+01 1.43982E+01 0.00000E+00
 -1      3510 9.92850E+01 1.30992E+01 0.00000E+00
 -1      3511 9.77850E+01 1.30992E+01 0.00000E+00
 -1      3512 9.70350E+01 1.43982E+01 0.00000E+00
 -1      3513 1.02285E+02 1.30992E+01 0.00000E+00
 -1      3514 1.00785E+02 1.30992E+01 0.00000E+00
 -1      3515 1.00035E+02 1.43982E+01 0.00000E+00
 -1      3516 1.05285E+02 1.30992E+01 0.00000E+00
 -1      3517 1.03785E+02 1.30992E+01 0.00000E+00
 -1      3518 1.03035E+02 1.43982E+01 0.00000E+00
 -1      3519 1.08285E+02 1.30992E+01 0.00000E+00
 -1      3520 1.06785E+02 1.30992E+01 0.00000E+00
 -1      3521 1.06035E+02 1.43982E+01 0.00000E+00
 -1      3522 1.11285E+02 1.30992E+01 0.00000E+00
 -1      3523 1.09785E+02 1.30992E+01 0.00000E+00
 -1      3524 1.09035E+02 1.43982E+01 0.00000E+00
 -1      3525 1.14285E+02 1.30992E+01 0.00000E+00
 -1      3526 1.12785E+02 1.30992E+01 0.00000E+00
 -1      3527 1.12035E+02 1.43982E+01 0.00000E+00
 -1      3528 1.17285E+02 1.30992E+01 0.00000E+00
 -1      3529 1.15785E+02 1.30992E+01 0.00000E+00
 -1      3530 1.15035E+02 1.43982E+01 0.00000E+00
 -1      3531 1.20285E+02 1.30992E+01 0.00000E+00
 -1      3532 1.18785E+02 1.30992E+01 0.00000E+00
 -1      3533 1.18035E+02 1.43982E+01 0.00000E+00
 -1      3534 1.23285E+02 1.30992E+01 0.00000E+00
 -1      3535 1.21785E+02 1.30992E+01 0.00000E+00
 -1      3536 1.21035E+02 1.43982E+01 0.00000E+00
 -1      3537 1.26285E+02 1.30992E+01 0.00000E+00
 -1      3538 1.24785E+02 1.30992E+01 0.00000E+00
 -1      3539 1.24035E+02 1.43982E+01 0.00000E+00
 -1      3540 1.29285E+02 1.30992E+01 0.00000E+00
 -1      3541 1.27785E+02 1.30992E+01 0.00000E+00
 -1      3542 1.27035E+02 1.43982E+01 0.00000E+00
 -1      3543 1.32285E+02 1.30992E+01 0.00000E+00
 -1      3544 1.30785E+02 1.30992E+01 0.00000E+00
 -1      3545 1.30035E+02 1.43982E+01 0.00000E+00
 -1      3546 1.35285E+02 1.30992E+01 0.00000E+00
 -1      3547 1.33785E+02 1.30992E+01 0.00000E+00
 -1      3548 1.33035E+02 1.43982E+01 0.00000E+00
 -1      3549 1.35711E+02 3.30875E+01 0.00000E+00
 -1      3550 1.35711E+02 3.16125E+01 0.00000E+00
 -1      3551 1.32620E+02 2.85597E+01 0.00000E+00
 -1      3552 1.33080E+02 3.00560E+01 0.00000E+00
 -1      3553 1.00231E+01 3.60931E+01 0.00000E+00
 -1      3554 1.15478E+02 1.93371E+01 0.00000E+00
 -1      3555 1.16748E+02 1.91722E+01 0.00000E+00
 -1      3556 1.02856E+02 2.95789E+01 0.00000E+00
 -1      3557 1.03379E+02 2.81542E+01 0.00000E+00
 -1      3558 1.38643E+02 1.48068E+01 0.00000E+00
 -1      3559 1.38709E+02 1.35665E+01 0.00000E+00
 -1      3560 1.37750E+02 1.33444E+01 0.00000E+00
 -1      3561 1.37344E+02 1.55443E+01 0.00000E+00
 -1      3562 1.01612E+02 3.24428E+01 0.00000E+00
 -1      3563 1.02227E+02 3.09762E+01 0.00000E+00
 -1      3564 1.01448E+02 2.98814E+01 0.00000E+00
 -1      3565 1.00191E+02 3.26760E+01 0.00000E+00
 -1      3566 1.33291E+02 3.17522E+01 0.00000E+00
 -1      3567 1.33325E+02 3.32349E+01 0.00000E+00
 -1      3568 3.62850E+01 1.30992E+01 0.00000E+00
 -1      3569 3.47850E+01 1.30992E+01 0.00000E+00
 -1      3570 3.70350E+01 1.43982E+01 0.00000E+00
 -1      3571 1.30967E+02 2.55154E+01 0.00000E+00
 -1      3572 1.31825E+02 2.68500E+01 0.00000E+00
 -1      3573 1.07231E+02 2.46318E+01 0.00000E+00
 -1      3574 1.08244E+02 2.35955E+01 0.00000E+00
 -1      3575 1.09812E+02 2.25373E+01 0.00000E+00
 -1      3576 1.11207E+02 2.19519E+01 0.00000E+00
 -1      3577 1.55523E+01 1.26762E+01 0.00000E+00
 -1      3578 1.44161E+01 1.36757E+01 0.00000E+00
 -1      3579 1.74386E+01 1.29758E+01 0.00000E+00
 -1      3580 1.28570E+02 2.28990E+01 0.00000E+00
 -1      3581 1.29784E+02 2.39971E+01 0.00000E+00
 -1      3582 1.11825E+01 3.62001E+01 0.00000E+00
 -1      3583 1.24815E+01 3.54658E+01 0.00000E+00
 -1      3584 1.39065E+01 3.54658E+01 0.00000E+00
 -1      3585 1.46565E+01 3.41668E+01 0.00000E+00
 -1      3586 2.50350E+01 1.43982E+01 0.00000E+00
 -1      3587 2.42850E+01 1.30992E+01 0.00000E+00
 -1      3588 2.27850E+01 1.30992E+01 0.00000E+00
 -1      3589 1.25410E+02 2.00289E+01 0.00000E+00
 -1      3590 1.28613E+02 2.15056E+01 0.00000E+00
 -1      3591 1.33195E+02 2.72477E+01 0.00000E+00
 -1      3592 1.03590E+02 2.73128E+01 0.00000E+00
 -1      3593 1.03800E+02 2.64714E+01 0.00000E+00
 -1      3594 1.02287E+02 2.76426E+01 0.00000E+00
 -1      3595 1.35711E+02 2.42875E+01 0.00000E+00
 -1      3596 1.35711E+02 2.28125E+01 0.00000E+00
 -1      3597 1.35426E+02 3.46980E+01 0.00000E+00
 -1      3598 1.34127E+02 3.39605E+01 0.00000E+00
 -1      3599 1.36791E+02 1.31223E+01 0.00000E+00
 -1      3600 1.35711E+02 2.13375E+01 0.00000E+00
 -1      3601 1.35711E+02 1.98625E+01 0.00000E+00
 -1      3602 1.34412E+02 2.20750E+01 0.00000E+00
 -1      3603 1.17704E+02 1.84283E+01 0.00000E+00
 -1      3604 1.34201E+02 3.06537E+01 0.00000E+00
 -1      3605 1.11714E+02 2.08352E+01 0.00000E+00
 -1      3606 2.87850E+01 1.30992E+01 0.00000E+00
 -1      3607 2.80350E+01 1.43982E+01 0.00000E+00
 -1      3608 3.02850E+01 1.30992E+01 0.00000E+00
 -1      3609 1.14653E+02 1.92601E+01 0.00000E+00
 -1      3610 1.15135E+02 1.79948E+01 0.00000E+00
 -1      3611 1.13828E+02 1.91830E+01 0.00000E+00
 -1      3612 1.08513E+02 2.22803E+01 0.00000E+00
 -1      3613 1.08781E+02 2.09651E+01 0.00000E+00
 -1      3614 1.07213E+02 2.20233E+01 0.00000E+00
 -1      3615 1.35777E+02 1.86222E+01 0.00000E+00
 -1      3616 1.35842E+02 1.73818E+01 0.00000E+00
 -1      3617 1.34478E+02 1.93597E+01 0.00000E+00
 -1      3618 1.46565E+01 3.12292E+01 0.00000E+00
 -1      3619 1.46565E+01 3.26980E+01 0.00000E+00
 -1      3620 1.63230E+01 3.30710E+01 0.00000E+00
 -1      3621 1.06024E+02 2.47400E+01 0.00000E+00
 -1      3622 1.44161E+01 1.51444E+01 0.00000E+00
 -1      3623 1.21538E+02 1.91663E+01 0.00000E+00
 -1      3624 1.22804E+02 1.86390E+01 0.00000E+00
 -1      3625 1.20714E+02 1.82574E+01 0.00000E+00
 -1      3626 1.42890E+01 1.98172E+01 0.00000E+00
 -1      3627 1.42890E+01 2.12891E+01 0.00000E+00
 -1      3628 1.31216E+02 2.40196E+01 0.00000E+00
 -1      3629 1.35500E+02 2.99162E+01 0.00000E+00
 -1      3630 1.35500E+02 2.84537E+01 0.00000E+00
 -1      3631 1.29900E+01 2.64469E+01 0.00000E+00
 -1      3632 3.32850E+01 1.30992E+01 0.00000E+00
 -1      3633 3.17850E+01 1.30992E+01 0.00000E+00
 -1      3634 3.10350E+01 1.43982E+01 0.00000E+00
 -1      3635 3.40350E+01 1.43982E+01 0.00000E+00
 -1      3636 1.42890E+01 2.27641E+01 0.00000E+00
 -1      3637 1.42890E+01 2.42391E+01 0.00000E+00
 -1      3638 1.55880E+01 2.20281E+01 0.00000E+00
 -1      3639 1.90070E+01 1.34340E+01 0.00000E+00
 -1      3640 1.74106E+01 1.46096E+01 0.00000E+00
 -1      3641 2.16460E+01 1.32666E+01 0.00000E+00
 -1      3642 2.01460E+01 1.32666E+01 0.00000E+00
 -1      3643 2.01180E+01 1.49004E+01 0.00000E+00
 -1      3644 2.23960E+01 1.45656E+01 0.00000E+00
 -1      3645 1.36041E+02 1.44213E+01 0.00000E+00
 -1      3646 1.35838E+02 1.55213E+01 0.00000E+00
 -1      3647 2.00730E+01 3.32407E+01 0.00000E+00
 -1      3648 2.15730E+01 3.32407E+01 0.00000E+00
 -1      3649 2.30730E+01 3.32407E+01 0.00000E+00
 -1      3650 2.45730E+01 3.32407E+01 0.00000E+00
 -1      3651 2.23230E+01 3.19417E+01 0.00000E+00
 -1      3652 2.60730E+01 3.32407E+01 0.00000E+00
 -1      3653 2.75730E+01 3.32407E+01 0.00000E+00
 -1      3654 2.53230E+01 3.19417E+01 0.00000E+00
 -1      3655 2.90730E+01 3.32407E+01 0.00000E+00
 -1      3656 3.05730E+01 3.32407E+01 0.00000E+00
 -1      3657 2.83230E+01 3.19417E+01 0.00000E+00
 -1      3658 3.19980E+01 3.32407E+01 0.00000E+00
 -1      3659 3.34230E+01 3.32407E+01 0.00000E+00
 -1      3660 3.12480E+01 3.19417E+01 0.00000E+00
 -1      3661 3.49230E+01 3.32407E+01 0.00000E+00
 -1      3662 3.64230E+01 3.32407E+01 0.00000E+00
 -1      3663 3.41730E+01 3.19417E+01 0.00000E+00
 -1      3664 3.79230E+01 3.32407E+01 0.00000E+00
 -1      3665 3.94230E+01 3.32407E+01 0.00000E+00
 -1      3666 3.71730E+01 3.19417E+01 0.00000E+00
 -1      3667 4.09230E+01 3.32407E+01 0.00000E+00
 -1      3668 4.24230E+01 3.32407E+01 0.00000E+00
 -1      3669 4.01730E+01 3.19417E+01 0.00000E+00
 -1      3670 4.39230E+01 3.32407E+01 0.00000E+00
 -1      3671 4.54230E+01 3.32407E+01 0.00000E+00
 -1      3672 4.31730E+01 3.19417E+01 0.00000E+00
 -1      3673 4.69230E+01 3.32407E+01 0.00000E+00
 -1      3674 4.84230E+01 3.32407E+01 0.00000E+00
 -1      3675 4.61730E+01 3.19417E+01 0.00000E+00
 -1      3676 4.98480E+01 3.32407E+01 0.00000E+00
 -1      3677 5.12730E+01 3.32407E+01 0.00000E+00
 -1      3678 4.90980E+01 3.19417E+01 0.00000E+00
 -1      3679 5.27730E+01 3.32407E+01 0.00000E+00
 -1      3680 5.42730E+01 3.32407E+01 0.00000E+00
 -1      3681 5.20230E+01 3.19417E+01 0.00000E+00
 -1      3682 5.57730E+01 3.32407E+01 0.00000E+00
 -1      3683 5.72730E+01 3.32407E+01 0.00000E+00
 -1      3684 5.50230E+01 3.19417E+01 0.00000E+00
 -1      3685 5.87730E+01 3.32407E+01 0.00000E+00
 -1      3686 6.02730E+01 3.32407E+01 0.00000E+00
 -1      3687 5.80230E+01 3.19417E+01 0.00000E+00
 -1      3688 6.17730E+01 3.32407E+01 0.00000E+00
 -1      3689 6.32730E+01 3.32407E+01 0.00000E+00
 -1      3690 6.10230E+01 3.19417E+01 0.00000E+00
 -1      3691 6.47730E+01 3.32407E+01 0.00000E+00
 -1      3692 6.62730E+01 3.32407E+01 0.00000E+00
 -1      3693 6.40230E+01 3.19417E+01 0.00000E+00
 -1      3694 6.77730E+01 3.32407E+01 0.00000E+00
 -1      3695 6.92730E+01 3.32407E+01 0.00000E+00
 -1      3696 6.70230E+01 3.19417E+01 0.00000E+00
 -1      3697 7.06980E+01 3.32407E+01 0.00000E+00
 -1      3698 7.21230E+01 3.32407E+01 0.00000E+00
 -1      3699 6.99480E+01 3.19417E+01 0.00000E+00
 -1      3700 7.36230E+01 3.32407E+01 0.00000E+00
 -1      3701 7.51230E+01 3.32407E+01 0.00000E+00
 -1      3702 7.28730E+01 3.19417E+01 0.00000E+00
 -1      3703 7.66230E+01 3.32407E+01 0.00000E+00
 -1      3704 7.81230E+01 3.32407E+01 0.00000E+00
 -1      3705 7.58730E+01 3.19417E+01 0.00000E+00
 -1      3706 7.96230E+01 3.32407E+01 0.00000E+00
 -1      3707 8.11230E+01 3.32407E+01 0.00000E+00
 -1      3708 7.88730E+01 3.19417E+01 0.00000E+00
 -1      3709 8.26230E+01 3.32407E+01 0.00000E+00
 -1      3710 8.41230E+01 3.32407E+01 0.00000E+00
 -1      3711 8.18730E+01 3.19417E+01 0.00000E+00
 -1      3712 8.56230E+01 3.32407E+01 0.00000E+00
 -1      3713 8.71230E+01 3.32407E+01 0.00000E+00
 -1      3714 8.48730E+01 3.19417E+01 0.00000E+00
 -1      3715 8.85480E+01 3.32407E+01 0.00000E+00
 -1      3716 8.99730E+01 3.32407E+01 0.00000E+00
 -1      3717 8.77980E+01 3.19417E+01 0.00000E+00
 -1      3718 9.14730E+01 3.32407E+01 0.00000E+00
 -1      3719 9.29730E+01 3.32407E+01 0.00000E+00
 -1      3720 9.07230E+01 3.19417E+01 0.00000E+00
 -1      3721 9.44730E+01 3.32407E+01 0.00000E+00
 -1      3722 9.59730E+01 3.32407E+01 0.00000E+00
 -1      3723 9.37230E+01 3.19417E+01 0.00000E+00
 -1      3724 9.73722E+01 3.30750E+01 0.00000E+00
 -1      3725 9.87923E+01 3.28418E+01 0.00000E+00
 -1      3726 9.94206E+01 3.14445E+01 0.00000E+00
 -1      3727 9.66222E+01 3.17760E+01 0.00000E+00
 -1      3728 1.42890E+01 1.68734E+01 0.00000E+00
 -1      3729 1.42890E+01 1.83453E+01 0.00000E+00
 -1      3730 1.55880E+01 1.90812E+01 0.00000E+00
 -1      3731 1.35504E+02 3.60899E+01 0.00000E+00
 -1      3732 1.24857E+02 1.85342E+01 0.00000E+00
 -1      3733 1.26640E+02 1.90153E+01 0.00000E+00
 -1      3734 1.35719E+02 2.57859E+01 0.00000E+00
 -1      3735 1.34420E+02 2.50484E+01 0.00000E+00
 -1      3736 4.97850E+01 1.56973E+01 0.00000E+00
 -1      3737 4.82850E+01 1.56973E+01 0.00000E+00
 -1      3738 5.27850E+01 1.56973E+01 0.00000E+00
 -1      3739 5.12850E+01 1.56973E+01 0.00000E+00
 -1      3740 5.05350E+01 1.69963E+01 0.00000E+00
 -1      3741 5.57850E+01 1.56973E+01 0.00000E+00
 -1      3742 5.42850E+01 1.56973E+01 0.00000E+00
 -1      3743 5.35350E+01 1.69963E+01 0.00000E+00
 -1      3744 5.87850E+01 1.56973E+01 0.00000E+00
 -1      3745 5.72850E+01 1.56973E+01 0.00000E+00
 -1      3746 5.65350E+01 1.69963E+01 0.00000E+00
 -1      3747 6.17850E+01 1.56973E+01 0.00000E+00
 -1      3748 6.02850E+01 1.56973E+01 0.00000E+00
 -1      3749 5.95350E+01 1.69963E+01 0.00000E+00
 -1      3750 6.47850E+01 1.56973E+01 0.00000E+00
 -1      3751 6.32850E+01 1.56973E+01 0.00000E+00
 -1      3752 6.25350E+01 1.69963E+01 0.00000E+00
 -1      3753 6.77850E+01 1.56973E+01 0.00000E+00
 -1      3754 6.62850E+01 1.56973E+01 0.00000E+00
 -1      3755 6.55350E+01 1.69963E+01 0.00000E+00
 -1      3756 7.07850E+01 1.56973E+01 0.00000E+00
 -1      3757 6.92850E+01 1.56973E+01 0.00000E+00
 -1      3758 6.85350E+01 1.69963E+01 0.00000E+00
 -1      3759 7.37850E+01 1.56973E+01 0.00000E+00
 -1      3760 7.22850E+01 1.56973E+01 0.00000E+00
 -1      3761 7.15350E+01 1.69963E+01 0.00000E+00
 -1      3762 7.67850E+01 1.56973E+01 0.00000E+00
 -1      3763 7.52850E+01 1.56973E+01 0.00000E+00
 -1      3764 7.45350E+01 1.69963E+01 0.00000E+00
 -1      3765 7.97850E+01 1.56973E+01 0.00000E+00
 -1      3766 7.82850E+01 1.56973E+01 0.00000E+00
 -1      3767 7.75350E+01 1.69963E+01 0.00000E+00
 -1      3768 8.27850E+01 1.56973E+01 0.00000E+00
 -1      3769 8.12850E+01 1.56973E+01 0.00000E+00
 -1      3770 8.05350E+01 1.69963E+01 0.00000E+00
 -1      3771 8.57850E+01 1.56973E+01 0.00000E+00
 -1      3772 8.42850E+01 1.56973E+01 0.00000E+00
 -1      3773 8.35350E+01 1.69963E+01 0.00000E+00
 -1      3774 8.87850E+01 1.56973E+01 0.00000E+00
 -1      3775 8.72850E+01 1.56973E+01 0.00000E+00
 -1      3776 8.65350E+01 1.69963E+01 0.00000E+00
 -1      3777 9.17850E+01 1.56973E+01 0.00000E+00
 -1      3778 9.02850E+01 1.56973E+01 0.00000E+00
 -1      3779 8.95350E+01 1.69963E+01 0.00000E+00
 -1      3780 9.47850E+01 1.56973E+01 0.00000E+00
 -1      3781 9.32850E+01 1.56973E+01 0.00000E+00
 -1      3782 9.25350E+01 1.69963E+01 0.00000E+00
 -1      3783 9.77850E+01 1.56973E+01 0.00000E+00
 -1      3784 9.62850E+01 1.56973E+01 0.00000E+00
 -1      3785 9.55350E+01 1.69963E+01 0.00000E+00
 -1      3786 1.00785E+02 1.56973E+01 0.00000E+00
 -1      3787 9.92850E+01 1.56973E+01 0.00000E+00
 -1      3788 9.85350E+01 1.69963E+01 0.00000E+00
 -1      3789 1.03785E+02 1.56973E+01 0.00000E+00
 -1      3790 1.02285E+02 1.56973E+01 0.00000E+00
 -1      3791 1.01535E+02 1.69963E+01 0.00000E+00
 -1      3792 1.06785E+02 1.56973E+01 0.00000E+00
 -1      3793 1.05285E+02 1.56973E+01 0.00000E+00
 -1      3794 1.04535E+02 1.69963E+01 0.00000E+00
 -1      3795 1.09785E+02 1.56973E+01 0.00000E+00
 -1      3796 1.08285E+02 1.56973E+01 0.00000E+00
 -1      3797 1.07535E+02 1.69963E+01 0.00000E+00
 -1      3798 1.15423E+02 1.61580E+01 0.00000E+00
 -1      3799 1.13923E+02 1.61580E+01 0.00000E+00
 -1      3800 1.19491E+02 1.65915E+01 0.00000E+00
 -1      3801 1.17991E+02 1.65915E+01 0.00000E+00
 -1      3802 1.22258E+02 1.60642E+01 0.00000E+00
 -1      3803 1.20758E+02 1.60642E+01 0.00000E+00
 -1      3804 1.23758E+02 1.60642E+01 0.00000E+00
 -1      3805 1.27311E+02 1.59594E+01 0.00000E+00
 -1      3806 1.25811E+02 1.59594E+01 0.00000E+00
 -1      3807 1.30785E+02 1.56973E+01 0.00000E+00
 -1      3808 1.29285E+02 1.56973E+01 0.00000E+00
 -1      3809 1.33113E+02 2.28125E+01 0.00000E+00
 -1      3810 1.33113E+02 2.13375E+01 0.00000E+00
 -1      3811 1.28648E+02 1.99441E+01 0.00000E+00
 -1      3812 1.30069E+02 2.09398E+01 0.00000E+00
 -1      3813 4.67850E+01 1.56973E+01 0.00000E+00
 -1      3814 4.52850E+01 1.56973E+01 0.00000E+00
 -1      3815 4.75350E+01 1.69963E+01 0.00000E+00
 -1      3816 1.46565E+01 2.82917E+01 0.00000E+00
 -1      3817 1.46565E+01 2.97605E+01 0.00000E+00
 -1      3818 1.63230E+01 3.01335E+01 0.00000E+00
 -1      3819 3.77850E+01 1.56973E+01 0.00000E+00
 -1      3820 3.62850E+01 1.56973E+01 0.00000E+00
 -1      3821 1.44727E+01 2.55295E+01 0.00000E+00
 -1      3822 1.44727E+01 2.70013E+01 0.00000E+00
 -1      3823 1.61392E+01 2.73743E+01 0.00000E+00
 -1      3824 1.57718E+01 2.47935E+01 0.00000E+00
 -1      3825 1.34539E+02 1.62588E+01 0.00000E+00
 -1      3826 1.10622E+02 1.98681E+01 0.00000E+00
 -1      3827 1.12255E+02 1.94811E+01 0.00000E+00
 -1      3828 4.37850E+01 1.56973E+01 0.00000E+00
 -1      3829 4.22850E+01 1.56973E+01 0.00000E+00
 -1      3830 4.45350E+01 1.69963E+01 0.00000E+00
 -1      3831 1.35719E+02 2.72484E+01 0.00000E+00
 -1      3832 1.57151E+01 1.58803E+01 0.00000E+00
 -1      3833 1.74480E+01 3.31559E+01 0.00000E+00
 -1      3834 1.89480E+01 3.31559E+01 0.00000E+00
 -1      3835 1.96980E+01 3.18569E+01 0.00000E+00
 -1      3836 1.74480E+01 3.16871E+01 0.00000E+00
 -1      3837 1.72835E+01 1.63386E+01 0.00000E+00
 -1      3838 1.04567E+02 2.47858E+01 0.00000E+00
 -1      3839 1.05488E+02 2.33843E+01 0.00000E+00
 -1      3840 4.07850E+01 1.56973E+01 0.00000E+00
 -1      3841 3.92850E+01 1.56973E+01 0.00000E+00
 -1      3842 4.15350E+01 1.69963E+01 0.00000E+00
 -1      3843 1.68870E+01 1.83453E+01 0.00000E+00
 -1      3844 1.68870E+01 1.98172E+01 0.00000E+00
 -1      3845 1.04299E+02 2.21148E+01 0.00000E+00
 -1      3846 1.05756E+02 2.20691E+01 0.00000E+00
 -1      3847 1.06024E+02 2.07538E+01 0.00000E+00
 -1      3848 1.24034E+02 1.76254E+01 0.00000E+00
 -1      3849 1.33414E+02 2.60424E+01 0.00000E+00
 -1      3850 1.33406E+02 2.45440E+01 0.00000E+00
 -1      3851 1.00922E+02 2.77481E+01 0.00000E+00
 -1      3852 1.01132E+02 2.69066E+01 0.00000E+00
 -1      3853 1.03264E+02 2.51156E+01 0.00000E+00
 -1      3854 3.55350E+01 1.69963E+01 0.00000E+00
 -1      3855 3.47850E+01 1.56973E+01 0.00000E+00
 -1      3856 3.32850E+01 1.56973E+01 0.00000E+00
 -1      3857 1.10849E+02 1.64561E+01 0.00000E+00
 -1      3858 1.10099E+02 1.77551E+01 0.00000E+00
 -1      3859 1.12349E+02 1.64561E+01 0.00000E+00
 -1      3860 1.28061E+02 1.72584E+01 0.00000E+00
 -1      3861 1.33785E+02 1.56973E+01 0.00000E+00
 -1      3862 1.32285E+02 1.56973E+01 0.00000E+00
 -1      3863 1.28095E+02 1.84494E+01 0.00000E+00
 -1      3864 1.30959E+02 2.07266E+01 0.00000E+00
 -1      3865 1.30924E+02 2.22881E+01 0.00000E+00
 -1      3866 1.68870E+01 2.12922E+01 0.00000E+00
 -1      3867 1.68870E+01 2.27672E+01 0.00000E+00
 -1      3868 1.81860E+01 2.05562E+01 0.00000E+00
 -1      3869 1.12737E+02 1.82159E+01 0.00000E+00
 -1      3870 1.34209E+02 2.77521E+01 0.00000E+00
 -1      3871 9.98569E+01 3.02949E+01 0.00000E+00
 -1      3872 1.00485E+02 2.88976E+01 0.00000E+00
 -1      3873 9.93304E+01 2.81616E+01 0.00000E+00
 -1      3874 9.84577E+01 3.04607E+01 0.00000E+00
 -1      3875 3.85350E+01 1.69963E+01 0.00000E+00
 -1      3876 1.32069E+02 2.04119E+01 0.00000E+00
 -1      3877 1.33368E+02 1.96744E+01 0.00000E+00
 -1      3878 1.33433E+02 1.84340E+01 0.00000E+00
 -1      3879 1.31214E+02 1.90635E+01 0.00000E+00
 -1      3880 1.32223E+02 2.30257E+01 0.00000E+00
 -1      3881 1.09169E+02 2.00372E+01 0.00000E+00
 -1      3882 1.09711E+02 1.86831E+01 0.00000E+00
 -1      3883 1.08647E+02 1.79242E+01 0.00000E+00
 -1      3884 1.07870E+02 1.97801E+01 0.00000E+00
 -1      3885 1.31535E+02 1.69963E+01 0.00000E+00
 -1      3886 2.87850E+01 1.56973E+01 0.00000E+00
 -1      3887 2.72850E+01 1.56973E+01 0.00000E+00
 -1      3888 1.85825E+01 1.70745E+01 0.00000E+00
 -1      3889 2.65350E+01 1.69963E+01 0.00000E+00
 -1      3890 2.57850E+01 1.56973E+01 0.00000E+00
 -1      3891 2.42850E+01 1.56973E+01 0.00000E+00
 -1      3892 2.08605E+01 1.67397E+01 0.00000E+00
 -1      3893 1.97215E+01 1.69071E+01 0.00000E+00
 -1      3894 1.93250E+01 1.89139E+01 0.00000E+00
 -1      3895 4.22850E+01 1.82952E+01 0.00000E+00
 -1      3896 4.07850E+01 1.82952E+01 0.00000E+00
 -1      3897 2.45730E+01 3.06427E+01 0.00000E+00
 -1      3898 2.60730E+01 3.06427E+01 0.00000E+00
 -1      3899 2.75730E+01 3.06427E+01 0.00000E+00
 -1      3900 2.90730E+01 3.06427E+01 0.00000E+00
 -1      3901 2.68230E+01 2.93438E+01 0.00000E+00
 -1      3902 3.04980E+01 3.06427E+01 0.00000E+00
 -1      3903 3.19230E+01 3.06427E+01 0.00000E+00
 -1      3904 2.97480E+01 2.93438E+01 0.00000E+00
 -1      3905 3.34230E+01 3.06427E+01 0.00000E+00
 -1      3906 3.49230E+01 3.06427E+01 0.00000E+00
 -1      3907 3.26730E+01 2.93438E+01 0.00000E+00
 -1      3908 3.64230E+01 3.06427E+01 0.00000E+00
 -1      3909 3.79230E+01 3.06427E+01 0.00000E+00
 -1      3910 3.56730E+01 2.93438E+01 0.00000E+00
 -1      3911 3.94230E+01 3.06427E+01 0.00000E+00
 -1      3912 4.09230E+01 3.06427E+01 0.00000E+00
 -1      3913 3.86730E+01 2.93438E+01 0.00000E+00
 -1      3914 4.24230E+01 3.06427E+01 0.00000E+00
 -1      3915 4.39230E+01 3.06427E+01 0.00000E+00
 -1      3916 4.16730E+01 2.93438E+01 0.00000E+00
 -1      3917 4.54230E+01 3.06427E+01 0.00000E+00
 -1      3918 4.69230E+01 3.06427E+01 0.00000E+00
 -1      3919 4.46730E+01 2.93438E+01 0.00000E+00
 -1      3920 4.83480E+01 3.06427E+01 0.00000E+00
 -1      3921 4.97730E+01 3.06427E+01 0.00000E+00
 -1      3922 4.75980E+01 2.93438E+01 0.00000E+00
 -1      3923 5.12730E+01 3.06427E+01 0.00000E+00
 -1      3924 5.27730E+01 3.06427E+01 0.00000E+00
 -1      3925 5.05230E+01 2.93438E+01 0.00000E+00
 -1      3926 5.42730E+01 3.06427E+01 0.00000E+00
 -1      3927 5.57730E+01 3.06427E+01 0.00000E+00
 -1      3928 5.35230E+01 2.93438E+01 0.00000E+00
 -1      3929 5.72730E+01 3.06427E+01 0.00000E+00
 -1      3930 5.87730E+01 3.06427E+01 0.00000E+00
 -1      3931 5.65230E+01 2.93438E+01 0.00000E+00
 -1      3932 6.02730E+01 3.06427E+01 0.00000E+00
 -1      3933 6.17730E+01 3.06427E+01 0.00000E+00
 -1      3934 5.95230E+01 2.93438E+01 0.00000E+00
 -1      3935 6.32730E+01 3.06427E+01 0.00000E+00
 -1      3936 6.47730E+01 3.06427E+01 0.00000E+00
 -1      3937 6.25230E+01 2.93438E+01 0.00000E+00
 -1      3938 6.62730E+01 3.06427E+01 0.00000E+00
 -1      3939 6.77730E+01 3.06427E+01 0.00000E+00
 -1      3940 6.55230E+01 2.93438E+01 0.00000E+00
 -1      3941 6.91980E+01 3.06427E+01 0.00000E+00
 -1      3942 7.06230E+01 3.06427E+01 0.00000E+00
 -1      3943 6.84480E+01 2.93438E+01 0.00000E+00
 -1      3944 7.21230E+01 3.06427E+01 0.00000E+00
 -1      3945 7.36230E+01 3.06427E+01 0.00000E+00
 -1      3946 7.13730E+01 2.93438E+01 0.00000E+00
 -1      3947 7.51230E+01 3.06427E+01 0.00000E+00
 -1      3948 7.66230E+01 3.06427E+01 0.00000E+00
 -1      3949 7.43730E+01 2.93438E+01 0.00000E+00
 -1      3950 7.81230E+01 3.06427E+01 0.00000E+00
 -1      3951 7.96230E+01 3.06427E+01 0.00000E+00
 -1      3952 7.73730E+01 2.93438E+01 0.00000E+00
 -1      3953 8.11230E+01 3.06427E+01 0.00000E+00
 -1      3954 8.26230E+01 3.06427E+01 0.00000E+00
 -1      3955 8.03730E+01 2.93438E+01 0.00000E+00
 -1      3956 8.41230E+01 3.06427E+01 0.00000E+00
 -1      3957 8.56230E+01 3.06427E+01 0.00000E+00
 -1      3958 8.33730E+01 2.93438E+01 0.00000E+00
 -1      3959 8.70480E+01 3.06427E+01 0.00000E+00
 -1      3960 8.84730E+01 3.06427E+01 0.00000E+00
 -1      3961 8.62980E+01 2.93438E+01 0.00000E+00
 -1      3962 8.99730E+01 3.06427E+01 0.00000E+00
 -1      3963 9.14730E+01 3.06427E+01 0.00000E+00
 -1      3964 8.92230E+01 2.93438E+01 0.00000E+00
 -1      3965 9.29730E+01 3.06427E+01 0.00000E+00
 -1      3966 9.44730E+01 3.06427E+01 0.00000E+00
 -1      3967 9.22230E+01 2.93438E+01 0.00000E+00
 -1      3968 5.42850E+01 1.82952E+01 0.00000E+00
 -1      3969 5.27850E+01 1.82952E+01 0.00000E+00
 -1      3970 1.00533E+02 2.53265E+01 0.00000E+00
 -1      3971 1.01899E+02 2.52210E+01 0.00000E+00
 -1      3972 1.02665E+02 2.35354E+01 0.00000E+00
 -1      3973 1.74480E+01 2.87496E+01 0.00000E+00
 -1      3974 1.74480E+01 3.02184E+01 0.00000E+00
 -1      3975 1.85730E+01 3.03032E+01 0.00000E+00
 -1      3976 5.12850E+01 1.82952E+01 0.00000E+00
 -1      3977 4.97850E+01 1.82952E+01 0.00000E+00
 -1      3978 5.20350E+01 1.95942E+01 0.00000E+00
 -1      3979 6.02850E+01 1.82952E+01 0.00000E+00
 -1      3980 5.87850E+01 1.82952E+01 0.00000E+00
 -1      3981 6.32850E+01 1.82952E+01 0.00000E+00
 -1      3982 6.17850E+01 1.82952E+01 0.00000E+00
 -1      3983 6.10350E+01 1.95942E+01 0.00000E+00
 -1      3984 6.62850E+01 1.82952E+01 0.00000E+00
 -1      3985 6.47850E+01 1.82952E+01 0.00000E+00
 -1      3986 6.40350E+01 1.95942E+01 0.00000E+00
 -1      3987 6.92850E+01 1.82952E+01 0.00000E+00
 -1      3988 6.77850E+01 1.82952E+01 0.00000E+00
 -1      3989 6.70350E+01 1.95942E+01 0.00000E+00
 -1      3990 7.22850E+01 1.82952E+01 0.00000E+00
 -1      3991 7.07850E+01 1.82952E+01 0.00000E+00
 -1      3992 7.00350E+01 1.95942E+01 0.00000E+00
 -1      3993 7.52850E+01 1.82952E+01 0.00000E+00
 -1      3994 7.37850E+01 1.82952E+01 0.00000E+00
 -1      3995 7.30350E+01 1.95942E+01 0.00000E+00
 -1      3996 7.82850E+01 1.82952E+01 0.00000E+00
 -1      3997 7.67850E+01 1.82952E+01 0.00000E+00
 -1      3998 7.60350E+01 1.95942E+01 0.00000E+00
 -1      3999 8.12850E+01 1.82952E+01 0.00000E+00
 -1      4000 7.97850E+01 1.82952E+01 0.00000E+00
 -1      4001 7.90350E+01 1.95942E+01 0.00000E+00
 -1      4002 8.42850E+01 1.82952E+01 0.00000E+00
 -1      4003 8.27850E+01 1.82952E+01 0.00000E+00
 -1      4004 8.20350E+01 1.95942E+01 0.00000E+00
 -1      4005 8.72850E+01 1.82952E+01 0.00000E+00
 -1      4006 8.57850E+01 1.82952E+01 0.00000E+00
 -1      4007 8.50350E+01 1.95942E+01 0.00000E+00
 -1      4008 9.02850E+01 1.82952E+01 0.00000E+00
 -1      4009 8.87850E+01 1.82952E+01 0.00000E+00
 -1      4010 8.80350E+01 1.95942E+01 0.00000E+00
 -1      4011 9.32850E+01 1.82952E+01 0.00000E+00
 -1      4012 9.17850E+01 1.82952E+01 0.00000E+00
 -1      4013 9.10350E+01 1.95942E+01 0.00000E+00
 -1      4014 9.62850E+01 1.82952E+01 0.00000E+00
 -1      4015 9.47850E+01 1.82952E+01 0.00000E+00
 -1      4016 9.40350E+01 1.95942E+01 0.00000E+00
 -1      4017 9.92850E+01 1.82952E+01 0.00000E+00
 -1      4018 9.77850E+01 1.82952E+01 0.00000E+00
 -1      4019 9.70350E+01 1.95942E+01 0.00000E+00
 -1      4020 1.02285E+02 1.82952E+01 0.00000E+00
 -1      4021 1.00785E+02 1.82952E+01 0.00000E+00
 -1      4022 1.00035E+02 1.95942E+01 0.00000E+00
 -1      4023 1.05301E+02 1.88979E+01 0.00000E+00
 -1      4024 1.03801E+02 1.88979E+01 0.00000E+00
 -1      4025 1.07147E+02 1.79242E+01 0.00000E+00
 -1      4026 1.16247E+02 1.62351E+01 0.00000E+00
 -1      4027 1.33789E+02 1.75578E+01 0.00000E+00
 -1      4028 3.02850E+01 1.56973E+01 0.00000E+00
 -1      4029 2.95350E+01 1.69963E+01 0.00000E+00
 -1      4030 3.17850E+01 1.56973E+01 0.00000E+00
 -1      4031 4.82850E+01 1.82952E+01 0.00000E+00
 -1      4032 4.67850E+01 1.82952E+01 0.00000E+00
 -1      4033 4.90350E+01 1.95942E+01 0.00000E+00
 -1      4034 1.30070E+02 1.81872E+01 0.00000E+00
 -1      4035 2.15730E+01 3.06427E+01 0.00000E+00
 -1      4036 2.30730E+01 3.06427E+01 0.00000E+00
 -1      4037 2.38230E+01 2.93438E+01 0.00000E+00
 -1      4038 1.32679E+02 1.78725E+01 0.00000E+00
 -1      4039 4.52850E+01 1.82952E+01 0.00000E+00
 -1      4040 4.37850E+01 1.82952E+01 0.00000E+00
 -1      4041 4.30350E+01 1.95942E+01 0.00000E+00
 -1      4042 4.60350E+01 1.95942E+01 0.00000E+00
 -1      4043 3.92850E+01 1.82952E+01 0.00000E+00
 -1      4044 3.77850E+01 1.82952E+01 0.00000E+00
 -1      4045 4.00350E+01 1.95942E+01 0.00000E+00
 -1      4046 5.72850E+01 1.82952E+01 0.00000E+00
 -1      4047 5.57850E+01 1.82952E+01 0.00000E+00
 -1      4048 5.80350E+01 1.95942E+01 0.00000E+00
 -1      4049 2.31422E+01 1.61348E+01 0.00000E+00
 -1      4050 2.20033E+01 1.63022E+01 0.00000E+00
 -1      4051 2.16067E+01 1.83089E+01 0.00000E+00
 -1      4052 2.38922E+01 1.74338E+01 0.00000E+00
 -1      4053 1.31179E+02 1.78725E+01 0.00000E+00
 -1      4054 5.50350E+01 1.95942E+01 0.00000E+00
 -1      4055 9.57658E+01 3.06346E+01 0.00000E+00
 -1      4056 9.71650E+01 3.04688E+01 0.00000E+00
 -1      4057 9.76013E+01 2.93193E+01 0.00000E+00
 -1      4058 9.50158E+01 2.93356E+01 0.00000E+00
 -1      4059 1.01417E+02 2.16176E+01 0.00000E+00
 -1      4060 1.02783E+02 2.15121E+01 0.00000E+00
 -1      4061 1.72642E+01 2.74592E+01 0.00000E+00
 -1      4062 1.83892E+01 2.75441E+01 0.00000E+00
 -1      4063 1.70805E+01 2.61688E+01 0.00000E+00
 -1      4064 3.62850E+01 1.82952E+01 0.00000E+00
 -1      4065 3.47850E+01 1.82952E+01 0.00000E+00
 -1      4066 3.70350E+01 1.95942E+01 0.00000E+00
 -1      4067 1.03051E+02 2.01969E+01 0.00000E+00
 -1      4068 3.25350E+01 1.69963E+01 0.00000E+00
 -1      4069 1.93250E+01 2.03889E+01 0.00000E+00
 -1      4070 1.93250E+01 2.18639E+01 0.00000E+00
 -1      4071 2.04640E+01 2.02215E+01 0.00000E+00
 -1      4072 1.81979E+01 2.29607E+01 0.00000E+00
 -1      4073 1.68989E+01 2.36967E+01 0.00000E+00
 -1      4074 1.70826E+01 2.49871E+01 0.00000E+00
 -1      4075 1.93369E+01 2.27933E+01 0.00000E+00
 -1      4076 1.95105E+01 3.04306E+01 0.00000E+00
 -1      4077 2.06355E+01 3.05154E+01 0.00000E+00
 -1      4078 2.13855E+01 2.92164E+01 0.00000E+00
 -1      4079 1.95105E+01 2.89618E+01 0.00000E+00
 -1      4080 3.02850E+01 1.82952E+01 0.00000E+00
 -1      4081 2.87850E+01 1.82952E+01 0.00000E+00
 -1      4082 2.72850E+01 1.82952E+01 0.00000E+00
 -1      4083 2.57850E+01 1.82952E+01 0.00000E+00
 -1      4084 2.80350E+01 1.95942E+01 0.00000E+00
 -1      4085 9.80376E+01 2.81698E+01 0.00000E+00
 -1      4086 9.84740E+01 2.70202E+01 0.00000E+00
 -1      4087 9.67449E+01 2.81779E+01 0.00000E+00
 -1      4088 9.92404E+01 2.53346E+01 0.00000E+00
 -1      4089 1.00007E+02 2.36490E+01 0.00000E+00
 -1      4090 9.79476E+01 2.53428E+01 0.00000E+00
 -1      4091 1.06758E+02 1.88522E+01 0.00000E+00
 -1      4092 2.90355E+01 2.80448E+01 0.00000E+00
 -1      4093 3.04605E+01 2.80448E+01 0.00000E+00
 -1      4094 3.19605E+01 2.80448E+01 0.00000E+00
 -1      4095 3.34605E+01 2.80448E+01 0.00000E+00
 -1      4096 3.12480E+01 2.67458E+01 0.00000E+00
 -1      4097 3.49605E+01 2.80448E+01 0.00000E+00
 -1      4098 3.64605E+01 2.80448E+01 0.00000E+00
 -1      4099 3.42480E+01 2.67458E+01 0.00000E+00
 -1      4100 3.79605E+01 2.80448E+01 0.00000E+00
 -1      4101 3.94605E+01 2.80448E+01 0.00000E+00
 -1      4102 3.72480E+01 2.67458E+01 0.00000E+00
 -1      4103 4.09605E+01 2.80448E+01 0.00000E+00
 -1      4104 4.24605E+01 2.80448E+01 0.00000E+00
 -1      4105 4.02480E+01 2.67458E+01 0.00000E+00
 -1      4106 4.39605E+01 2.80448E+01 0.00000E+00
 -1      4107 4.54605E+01 2.80448E+01 0.00000E+00
 -1      4108 4.32480E+01 2.67458E+01 0.00000E+00
 -1      4109 4.68855E+01 2.80448E+01 0.00000E+00
 -1      4110 4.83105E+01 2.80448E+01 0.00000E+00
 -1      4111 4.61730E+01 2.67458E+01 0.00000E+00
 -1      4112 4.98105E+01 2.80448E+01 0.00000E+00
 -1      4113 5.13105E+01 2.80448E+01 0.00000E+00
 -1      4114 4.90980E+01 2.67458E+01 0.00000E+00
 -1      4115 5.28105E+01 2.80448E+01 0.00000E+00
 -1      4116 5.43105E+01 2.80448E+01 0.00000E+00
 -1      4117 5.20980E+01 2.67458E+01 0.00000E+00
 -1      4118 5.58105E+01 2.80448E+01 0.00000E+00
 -1      4119 5.73105E+01 2.80448E+01 0.00000E+00
 -1      4120 5.50980E+01 2.67458E+01 0.00000E+00
 -1      4121 5.88105E+01 2.80448E+01 0.00000E+00
 -1      4122 6.03105E+01 2.80448E+01 0.00000E+00
 -1      4123 5.80980E+01 2.67458E+01 0.00000E+00
 -1      4124 6.18105E+01 2.80448E+01 0.00000E+00
 -1      4125 6.33105E+01 2.80448E+01 0.00000E+00
 -1      4126 6.10980E+01 2.67458E+01 0.00000E+00
 -1      4127 6.48105E+01 2.80448E+01 0.00000E+00
 -1      4128 6.63105E+01 2.80448E+01 0.00000E+00
 -1      4129 6.40980E+01 2.67458E+01 0.00000E+00
 -1      4130 6.77355E+01 2.80448E+01 0.00000E+00
 -1      4131 6.91605E+01 2.80448E+01 0.00000E+00
 -1      4132 6.70230E+01 2.67458E+01 0.00000E+00
 -1      4133 7.06605E+01 2.80448E+01 0.00000E+00
 -1      4134 7.21605E+01 2.80448E+01 0.00000E+00
 -1      4135 6.99480E+01 2.67458E+01 0.00000E+00
 -1      4136 7.36605E+01 2.80448E+01 0.00000E+00
 -1      4137 7.51605E+01 2.80448E+01 0.00000E+00
 -1      4138 7.29480E+01 2.67458E+01 0.00000E+00
 -1      4139 7.66605E+01 2.80448E+01 0.00000E+00
 -1      4140 7.81605E+01 2.80448E+01 0.00000E+00
 -1      4141 7.59480E+01 2.67458E+01 0.00000E+00
 -1      4142 7.96605E+01 2.80448E+01 0.00000E+00
 -1      4143 8.11605E+01 2.80448E+01 0.00000E+00
 -1      4144 7.89480E+01 2.67458E+01 0.00000E+00
 -1      4145 8.26605E+01 2.80448E+01 0.00000E+00
 -1      4146 8.41605E+01 2.80448E+01 0.00000E+00
 -1      4147 8.19480E+01 2.67458E+01 0.00000E+00
 -1      4148 8.55855E+01 2.80448E+01 0.00000E+00
 -1      4149 8.70105E+01 2.80448E+01 0.00000E+00
 -1      4150 8.48730E+01 2.67458E+01 0.00000E+00
 -1      4151 8.85105E+01 2.80448E+01 0.00000E+00
 -1      4152 9.00105E+01 2.80448E+01 0.00000E+00
 -1      4153 8.77980E+01 2.67458E+01 0.00000E+00
 -1      4154 9.15105E+01 2.80448E+01 0.00000E+00
 -1      4155 9.30105E+01 2.80448E+01 0.00000E+00
 -1      4156 9.07980E+01 2.67458E+01 0.00000E+00
 -1      4157 5.27850E+01 2.08932E+01 0.00000E+00
 -1      4158 5.12850E+01 2.08932E+01 0.00000E+00
 -1      4159 6.47850E+01 2.08932E+01 0.00000E+00
 -1      4160 6.32850E+01 2.08932E+01 0.00000E+00
 -1      4161 6.17850E+01 2.08932E+01 0.00000E+00
 -1      4162 6.02850E+01 2.08932E+01 0.00000E+00
 -1      4163 6.25350E+01 2.21922E+01 0.00000E+00
 -1      4164 7.07850E+01 2.08932E+01 0.00000E+00
 -1      4165 6.92850E+01 2.08932E+01 0.00000E+00
 -1      4166 7.37850E+01 2.08932E+01 0.00000E+00
 -1      4167 7.22850E+01 2.08932E+01 0.00000E+00
 -1      4168 7.15350E+01 2.21922E+01 0.00000E+00
 -1      4169 7.67850E+01 2.08932E+01 0.00000E+00
 -1      4170 7.52850E+01 2.08932E+01 0.00000E+00
 -1      4171 7.45350E+01 2.21922E+01 0.00000E+00
 -1      4172 7.97850E+01 2.08932E+01 0.00000E+00
 -1      4173 7.82850E+01 2.08932E+01 0.00000E+00
 -1      4174 7.75350E+01 2.21922E+01 0.00000E+00
 -1      4175 8.27850E+01 2.08932E+01 0.00000E+00
 -1      4176 8.12850E+01 2.08932E+01 0.00000E+00
 -1      4177 8.05350E+01 2.21922E+01 0.00000E+00
 -1      4178 8.57850E+01 2.08932E+01 0.00000E+00
 -1      4179 8.42850E+01 2.08932E+01 0.00000E+00
 -1      4180 8.35350E+01 2.21922E+01 0.00000E+00
 -1      4181 8.87850E+01 2.08932E+01 0.00000E+00
 -1      4182 8.72850E+01 2.08932E+01 0.00000E+00
 -1      4183 8.65350E+01 2.21922E+01 0.00000E+00
 -1      4184 9.17850E+01 2.08932E+01 0.00000E+00
 -1      4185 9.02850E+01 2.08932E+01 0.00000E+00
 -1      4186 8.95350E+01 2.21922E+01 0.00000E+00
 -1      4187 9.47850E+01 2.08932E+01 0.00000E+00
 -1      4188 9.32850E+01 2.08932E+01 0.00000E+00
 -1      4189 9.25350E+01 2.21922E+01 0.00000E+00
 -1      4190 9.86245E+01 2.16257E+01 0.00000E+00
 -1      4191 9.71245E+01 2.16257E+01 0.00000E+00
 -1      4192 9.99173E+01 2.16176E+01 0.00000E+00
 -1      4193 3.32850E+01 1.82952E+01 0.00000E+00
 -1      4194 3.17850E+01 1.82952E+01 0.00000E+00
 -1      4195 3.10350E+01 1.95942E+01 0.00000E+00
 -1      4196 3.40350E+01 1.95942E+01 0.00000E+00
 -1      4197 2.60355E+01 2.80448E+01 0.00000E+00
 -1      4198 2.75355E+01 2.80448E+01 0.00000E+00
 -1      4199 2.82480E+01 2.67458E+01 0.00000E+00
 -1      4200 5.57850E+01 2.08932E+01 0.00000E+00
 -1      4201 5.42850E+01 2.08932E+01 0.00000E+00
 -1      4202 5.35350E+01 2.21922E+01 0.00000E+00
 -1      4203 4.97850E+01 2.08932E+01 0.00000E+00
 -1      4204 4.82850E+01 2.08932E+01 0.00000E+00
 -1      4205 5.05350E+01 2.21922E+01 0.00000E+00
 -1      4206 2.30355E+01 2.80448E+01 0.00000E+00
 -1      4207 2.45355E+01 2.80448E+01 0.00000E+00
 -1      4208 2.52480E+01 2.67458E+01 0.00000E+00
 -1      4209 5.87850E+01 2.08932E+01 0.00000E+00
 -1      4210 5.72850E+01 2.08932E+01 0.00000E+00
 -1      4211 5.65350E+01 2.21922E+01 0.00000E+00
 -1      4212 6.77850E+01 2.08932E+01 0.00000E+00
 -1      4213 6.62850E+01 2.08932E+01 0.00000E+00
 -1      4214 6.55350E+01 2.21922E+01 0.00000E+00
 -1      4215 4.07850E+01 2.08932E+01 0.00000E+00
 -1      4216 3.92850E+01 2.08932E+01 0.00000E+00
 -1      4217 2.27495E+01 1.93464E+01 0.00000E+00
 -1      4218 2.16067E+01 1.97839E+01 0.00000E+00
 -1      4219 2.16067E+01 2.12589E+01 0.00000E+00
 -1      4220 9.42313E+01 2.81154E+01 0.00000E+00
 -1      4221 9.55241E+01 2.81073E+01 0.00000E+00
 -1      4222 9.59604E+01 2.69577E+01 0.00000E+00
 -1      4223 9.35188E+01 2.68164E+01 0.00000E+00
 -1      4224 1.82076E+01 2.50719E+01 0.00000E+00
 -1      4225 1.91430E+01 2.63810E+01 0.00000E+00
 -1      4226 1.93267E+01 2.76714E+01 0.00000E+00
 -1      4227 2.02642E+01 2.77987E+01 0.00000E+00
 -1      4228 3.85350E+01 2.21922E+01 0.00000E+00
 -1      4229 3.77850E+01 2.08932E+01 0.00000E+00
 -1      4230 3.62850E+01 2.08932E+01 0.00000E+00
 -1      4231 6.85350E+01 2.21922E+01 0.00000E+00
 -1      4232 5.95350E+01 2.21922E+01 0.00000E+00
 -1      4233 9.63745E+01 2.29247E+01 0.00000E+00
 -1      4234 4.75350E+01 2.21922E+01 0.00000E+00
 -1      4235 4.67850E+01 2.08932E+01 0.00000E+00
 -1      4236 4.52850E+01 2.08932E+01 0.00000E+00
 -1      4237 2.87850E+01 2.08932E+01 0.00000E+00
 -1      4238 2.72850E+01 2.08932E+01 0.00000E+00
 -1      4239 3.17850E+01 2.08932E+01 0.00000E+00
 -1      4240 3.02850E+01 2.08932E+01 0.00000E+00
 -1      4241 2.95350E+01 2.21922E+01 0.00000E+00
 -1      4242 2.46422E+01 1.87328E+01 0.00000E+00
 -1      4243 9.56081E+01 2.46103E+01 0.00000E+00
 -1      4244 2.11811E+01 2.78581E+01 0.00000E+00
 -1      4245 2.21186E+01 2.79854E+01 0.00000E+00
 -1      4246 2.28311E+01 2.66864E+01 0.00000E+00
 -1      4247 2.09974E+01 2.65677E+01 0.00000E+00
 -1      4248 4.37850E+01 2.08932E+01 0.00000E+00
 -1      4249 4.22850E+01 2.08932E+01 0.00000E+00
 -1      4250 4.15350E+01 2.21922E+01 0.00000E+00
 -1      4251 4.45350E+01 2.21922E+01 0.00000E+00
 -1      4252 3.04980E+01 2.54468E+01 0.00000E+00
 -1      4253 3.19980E+01 2.54468E+01 0.00000E+00
 -1      4254 1.93347E+01 2.39751E+01 0.00000E+00
 -1      4255 1.93326E+01 2.51568E+01 0.00000E+00
 -1      4256 2.04619E+01 2.28782E+01 0.00000E+00
 -1      4257 3.34980E+01 2.54468E+01 0.00000E+00
 -1      4258 3.49980E+01 2.54468E+01 0.00000E+00
 -1      4259 3.27480E+01 2.41478E+01 0.00000E+00
 -1      4260 3.63915E+01 2.44690E+01 0.00000E+00
 -1      4261 3.78915E+01 2.44690E+01 0.00000E+00
 -1      4262 3.93915E+01 2.44690E+01 0.00000E+00
 -1      4263 4.08915E+01 2.44690E+01 0.00000E+00
 -1      4264 4.23915E+01 2.44690E+01 0.00000E+00
 -1      4265 4.38915E+01 2.44690E+01 0.00000E+00
 -1      4266 4.53915E+01 2.44690E+01 0.00000E+00
 -1      4267 4.68165E+01 2.44690E+01 0.00000E+00
 -1      4268 4.83165E+01 2.44690E+01 0.00000E+00
 -1      4269 4.98165E+01 2.44690E+01 0.00000E+00
 -1      4270 5.13165E+01 2.44690E+01 0.00000E+00
 -1      4271 5.28165E+01 2.44690E+01 0.00000E+00
 -1      4272 5.43165E+01 2.44690E+01 0.00000E+00
 -1      4273 5.58165E+01 2.44690E+01 0.00000E+00
 -1      4274 5.73165E+01 2.44690E+01 0.00000E+00
 -1      4275 5.88165E+01 2.44690E+01 0.00000E+00
 -1      4276 6.03165E+01 2.44690E+01 0.00000E+00
 -1      4277 6.18165E+01 2.44690E+01 0.00000E+00
 -1      4278 6.33165E+01 2.44690E+01 0.00000E+00
 -1      4279 6.48165E+01 2.44690E+01 0.00000E+00
 -1      4280 6.63165E+01 2.44690E+01 0.00000E+00
 -1      4281 6.77415E+01 2.44690E+01 0.00000E+00
 -1      4282 6.92415E+01 2.44690E+01 0.00000E+00
 -1      4283 7.07415E+01 2.44690E+01 0.00000E+00
 -1      4284 7.22415E+01 2.44690E+01 0.00000E+00
 -1      4285 7.37415E+01 2.44690E+01 0.00000E+00
 -1      4286 7.52415E+01 2.44690E+01 0.00000E+00
 -1      4287 7.67415E+01 2.44690E+01 0.00000E+00
 -1      4288 7.82415E+01 2.44690E+01 0.00000E+00
 -1      4289 7.97415E+01 2.44690E+01 0.00000E+00
 -1      4290 8.12415E+01 2.44690E+01 0.00000E+00
 -1      4291 8.27415E+01 2.44690E+01 0.00000E+00
 -1      4292 8.42415E+01 2.44690E+01 0.00000E+00
 -1      4293 8.56665E+01 2.44690E+01 0.00000E+00
 -1      4294 8.71665E+01 2.44690E+01 0.00000E+00
 -1      4295 8.86665E+01 2.44690E+01 0.00000E+00
 -1      4296 9.01665E+01 2.44690E+01 0.00000E+00
 -1      4297 9.16665E+01 2.44690E+01 0.00000E+00
 -1      4298 9.31665E+01 2.44690E+01 0.00000E+00
 -1      4299 3.47850E+01 2.08932E+01 0.00000E+00
 -1      4300 3.32850E+01 2.08932E+01 0.00000E+00
 -1      4301 3.25350E+01 2.21922E+01 0.00000E+00
 -1      4302 3.55350E+01 2.21922E+01 0.00000E+00
 -1      4303 2.46422E+01 2.02078E+01 0.00000E+00
 -1      4304 2.44980E+01 2.54468E+01 0.00000E+00
 -1      4305 2.59980E+01 2.54468E+01 0.00000E+00
 -1      4306 2.66415E+01 2.31700E+01 0.00000E+00
 -1      4307 2.58915E+01 2.18710E+01 0.00000E+00
 -1      4308 9.43873E+01 2.45397E+01 0.00000E+00
 -1      4309 2.02701E+01 2.52841E+01 0.00000E+00
 -1      4310 2.84632E+01 2.33306E+01 0.00000E+00
 -1      4311 2.70697E+01 2.43084E+01 0.00000E+00
 -1      4312 2.78197E+01 2.56074E+01 0.00000E+00
 -1      4313 2.99632E+01 2.33306E+01 0.00000E+00
 -1      4314 2.35811E+01 2.53874E+01 0.00000E+00
 -1      4315 2.43311E+01 2.40884E+01 0.00000E+00
 -1      4316 2.26642E+01 2.53280E+01 0.00000E+00
 -1      4317 2.39987E+01 2.24846E+01 0.00000E+00
 -1      4318 2.93197E+01 2.56074E+01 0.00000E+00
 -1      4319 3.00697E+01 2.43084E+01 0.00000E+00
 -1      4320 3.26415E+01 2.31700E+01 0.00000E+00
 -1      4321 3.41415E+01 2.31700E+01 0.00000E+00
 -1      4322 3.56415E+01 2.31700E+01 0.00000E+00
 -1      4323 2.11870E+01 2.53435E+01 0.00000E+00
 -1      4324 2.19370E+01 2.40445E+01 0.00000E+00
 -1      4325 3.11415E+01 2.31700E+01 0.00000E+00
 -1      4326 2.30819E+01 2.24252E+01 0.00000E+00
 -1      4327 2.19391E+01 2.28627E+01 0.00000E+00
 -3
    3C                          2081                                     1
 -1       166    8    0    1
 -2         6         7        23      1124      1289      1141
 -1       167    8    0    1
 -2         7         8       166      1125      1290      1291
 -1       168    8    0    1
 -2         8         9       167      1126      1292      1293
 -1       169    8    0    1
 -2         8       167       166      1293      1294      1290
 -1       170    8    0    1
 -2         9        10       168      1127      1295      1296
 -1       171    8    0    1
 -2         9       168       167      1296      1297      1292
 -1       172    8    0    1
 -2        10        11       169      1128      1298      1299
 -1       173    8    0    1
 -2        10       169       168      1299      1300      1295
 -1       174    8    0    1
 -2        11        12       170      1129      1301      1302
 -1       175    8    0    1
 -2        11       170       169      1302      1303      1298
 -1       176    8    0    1
 -2        12        13       171      1130      1304      1305
 -1       177    8    0    1
 -2        12       171       170      1305      1306      1301
 -1       178    8    0    1
 -2        13        14       172      1131      1307      1308
 -1       179    8    0    1
 -2        13       172       171      1308      1309      1304
 -1       180    8    0    1
 -2        14        15       173      1132      1310      1311
 -1       181    8    0    1
 -2        14       173       172      1311      1312      1307
 -1       182    8    0    1
 -2        15        16       174      1133      1313      1314
 -1       183    8    0    1
 -2        15       174       173      1314      1315      1310
 -1       184    8    0    1
 -2        16        17       175      1134      1316      1317
 -1       185    8    0    1
 -2        16       175       174      1317      1318      1313
 -1       186    8    0    1
 -2        17        18       176      1135      1319      1320
 -1       187    8    0    1
 -2        17       176       175      1320      1321      1316
 -1       188    8    0    1
 -2        18        19       177      1136      1322      1323
 -1       189    8    0    1
 -2        18       177       176      1323      1324      1319
 -1       190    8    0    1
 -2        19        20       178      1137      1325      1326
 -1       191    8    0    1
 -2        19       178       177      1326      1327      1322
 -1       192    8    0    1
 -2        20        21       179      1138      1328      1329
 -1       193    8    0    1
 -2        20       179       178      1329      1330      1325
 -1       194    8    0    1
 -2        21        22       180      1139      1331      1332
 -1       195    8    0    1
 -2        21       180       179      1332      1333      1328
 -1       196    8    0    1
 -2        22         5       181      1140      1334      1335
 -1       197    8    0    1
 -2       180        22       181      1331      1335      1336
 -1       198    8    0    1
 -2         5        73       181      1192      1337      1334
 -1       199    8    0    1
 -2        24        23       182      1142      1338      1339
 -1       200    8    0    1
 -2        25        24       183      1143      1340      1341
 -1       201    8    0    1
 -2        24       182       183      1339      1342      1340
 -1       202    8    0    1
 -2        26        25       184      1144      1343      1344
 -1       203    8    0    1
 -2        25       183       184      1341      1345      1343
 -1       204    8    0    1
 -2        27        26       185      1145      1346      1347
 -1       205    8    0    1
 -2        26       184       185      1344      1348      1346
 -1       206    8    0    1
 -2        28        27       186      1146      1349      1350
 -1       207    8    0    1
 -2        27       185       186      1347      1351      1349
 -1       208    8    0    1
 -2        29        28       187      1147      1352      1353
 -1       209    8    0    1
 -2        28       186       187      1350      1354      1352
 -1       210    8    0    1
 -2        30        29       188      1148      1355      1356
 -1       211    8    0    1
 -2        29       187       188      1353      1357      1355
 -1       212    8    0    1
 -2        31        30       189      1149      1358      1359
 -1       213    8    0    1
 -2        30       188       189      1356      1360      1358
 -1       214    8    0    1
 -2        32        31       190      1150      1361      1362
 -1       215    8    0    1
 -2        31       189       190      1359      1363      1361
 -1       216    8    0    1
 -2        33        32       191      1151      1364      1365
 -1       217    8    0    1
 -2        32       190       191      1362      1366      1364
 -1       218    8    0    1
 -2        34        33       192      1152      1367      1368
 -1       219    8    0    1
 -2        33       191       192      1365      1369      1367
 -1       220    8    0    1
 -2        35        34       193      1153      1370      1371
 -1       221    8    0    1
 -2        34       192       193      1368      1372      1370
 -1       222    8    0    1
 -2        36        35       194      1154      1373      1374
 -1       223    8    0    1
 -2        35       193       194      1371      1375      1373
 -1       224    8    0    1
 -2        37        36       195      1155      1376      1377
 -1       225    8    0    1
 -2        36       194       195      1374      1378      1376
 -1       226    8    0    1
 -2        38        37       196      1156      1379      1380
 -1       227    8    0    1
 -2        37       195       196      1377      1381      1379
 -1       228    8    0    1
 -2        39        38       197      1157      1382      1383
 -1       229    8    0    1
 -2        38       196       197      1380      1384      1382
 -1       230    8    0    1
 -2        40        39       198      1158      1385      1386
 -1       231    8    0    1
 -2        39       197       198      1383      1387      1385
 -1       232    8    0    1
 -2        41        40       199      1159      1388      1389
 -1       233    8    0    1
 -2        40       198       199      1386      1390      1388
 -1       234    8    0    1
 -2        42        41       200      1160      1391      1392
 -1       235    8    0    1
 -2        41       199       200      1389      1393      1391
 -1       236    8    0    1
 -2        43        42       201      1161      1394      1395
 -1       237    8    0    1
 -2        42       200       201      1392      1396      1394
 -1       238    8    0    1
 -2        44        43       202      1162      1397      1398
 -1       239    8    0    1
 -2        43       201       202      1395      1399      1397
 -1       240    8    0    1
 -2        45        44       203      1163      1400      1401
 -1       241    8    0    1
 -2        44       202       203      1398      1402      1400
 -1       242    8    0    1
 -2        46        45       204      1164      1403      1404
 -1       243    8    0    1
 -2        45       203       204      1401      1405      1403
 -1       244    8    0    1
 -2        47        46       205      1165      1406      1407
 -1       245    8    0    1
 -2        46       204       205      1404      1408      1406
 -1       246    8    0    1
 -2        48        47       206      1166      1409      1410
 -1       247    8    0    1
 -2        47       205       206      1407      1411      1409
 -1       248    8    0    1
 -2        49        48       207      1167      1412      1413
 -1       249    8    0    1
 -2        48       206       207      1410      1414      1412
 -1       250    8    0    1
 -2        50        49       208      1168      1415      1416
 -1       251    8    0    1
 -2        49       207       208      1413      1417      1415
 -1       252    8    0    1
 -2        51        50       209      1169      1418      1419
 -1       253    8    0    1
 -2        50       208       209      1416      1420      1418
 -1       254    8    0    1
 -2        52        51       210      1170      1421      1422
 -1       255    8    0    1
 -2        51       209       210      1419      1423      1421
 -1       256    8    0    1
 -2        53        52       211      1171      1424      1425
 -1       257    8    0    1
 -2        52       210       211      1422      1426      1424
 -1       258    8    0    1
 -2        54        53       212      1172      1427      1428
 -1       259    8    0    1
 -2        53       211       212      1425      1429      1427
 -1       260    8    0    1
 -2        55        54       213      1173      1430      1431
 -1       261    8    0    1
 -2        54       212       213      1428      1432      1430
 -1       262    8    0    1
 -2        56        55       214      1174      1433      1434
 -1       263    8    0    1
 -2        55       213       214      1431      1435      1433
 -1       264    8    0    1
 -2        57        56       215      1175      1436      1437
 -1       265    8    0    1
 -2        56       214       215      1434      1438      1436
 -1       266    8    0    1
 -2        58        57       216      1176      1439      1440
 -1       267    8    0    1
 -2        57       215       216      1437      1441      1439
 -1       268    8    0    1
 -2        59        58       217      1177      1442      1443
 -1       269    8    0    1
 -2        58       216       217      1440      1444      1442
 -1       270    8    0    1
 -2        60        59       218      1178      1445      1446
 -1       271    8    0    1
 -2        59       217       218      1443      1447      1445
 -1       272    8    0    1
 -2        61        60       219      1179      1448      1449
 -1       273    8    0    1
 -2        60       218       219      1446      1450      1448
 -1       274    8    0    1
 -2        62        61       220      1180      1451      1452
 -1       275    8    0    1
 -2        61       219       220      1449      1453      1451
 -1       276    8    0    1
 -2        63        62       221      1181      1454      1455
 -1       277    8    0    1
 -2        62       220       221      1452      1456      1454
 -1       278    8    0    1
 -2        64        63       222      1182      1457      1458
 -1       279    8    0    1
 -2        63       221       222      1455      1459      1457
 -1       280    8    0    1
 -2        65        64       223      1183      1460      1461
 -1       281    8    0    1
 -2        64       222       223      1458      1462      1460
 -1       282    8    0    1
 -2        66        65       224      1184      1463      1464
 -1       283    8    0    1
 -2        65       223       224      1461      1465      1463
 -1       284    8    0    1
 -2        67        66       225      1185      1466      1467
 -1       285    8    0    1
 -2        66       224       225      1464      1468      1466
 -1       286    8    0    1
 -2        68        67       226      1186      1469      1470
 -1       287    8    0    1
 -2        67       225       226      1467      1471      1469
 -1       288    8    0    1
 -2        69        68       227      1187      1472      1473
 -1       289    8    0    1
 -2        68       226       227      1470      1474      1472
 -1       290    8    0    1
 -2        70        69       228      1188      1475      1476
 -1       291    8    0    1
 -2        69       227       228      1473      1477      1475
 -1       292    8    0    1
 -2        71        70       229      1189      1478      1479
 -1       293    8    0    1
 -2        70       228       229      1476      1480      1478
 -1       294    8    0    1
 -2        72        71       230      1190      1481      1482
 -1       295    8    0    1
 -2        71       229       230      1479      1483      1481
 -1       296    8    0    1
 -2         4        72       137      1191      1484      1258
 -1       297    8    0    1
 -2        73        74       231      1193      1485      1486
 -1       298    8    0    1
 -2        73       231       181      1486      1487      1337
 -1       299    8    0    1
 -2        74        75       232      1194      1488      1489
 -1       300    8    0    1
 -2        74       232       231      1489      1490      1485
 -1       301    8    0    1
 -2        75        76       233      1195      1491      1492
 -1       302    8    0    1
 -2        75       233       232      1492      1493      1488
 -1       303    8    0    1
 -2        76        77       234      1196      1494      1495
 -1       304    8    0    1
 -2        76       234       233      1495      1496      1491
 -1       305    8    0    1
 -2        77        78       235      1197      1497      1498
 -1       306    8    0    1
 -2        77       235       234      1498      1499      1494
 -1       307    8    0    1
 -2        78        79       236      1198      1500      1501
 -1       308    8    0    1
 -2        78       236       235      1501      1502      1497
 -1       309    8    0    1
 -2        79        80       237      1199      1503      1504
 -1       310    8    0    1
 -2        79       237       236      1504      1505      1500
 -1       311    8    0    1
 -2        80        81       238      1200      1506      1507
 -1       312    8    0    1
 -2        80       238       237      1507      1508      1503
 -1       313    8    0    1
 -2        81        82       239      1201      1509      1510
 -1       314    8    0    1
 -2        81       239       238      1510      1511      1506
 -1       315    8    0    1
 -2        82        83       240      1202      1512      1513
 -1       316    8    0    1
 -2        82       240       239      1513      1514      1509
 -1       317    8    0    1
 -2        83        84       241      1203      1515      1516
 -1       318    8    0    1
 -2        83       241       240      1516      1517      1512
 -1       319    8    0    1
 -2        84        85       242      1204      1518      1519
 -1       320    8    0    1
 -2        84       242       241      1519      1520      1515
 -1       321    8    0    1
 -2        85        86       243      1205      1521      1522
 -1       322    8    0    1
 -2        85       243       242      1522      1523      1518
 -1       323    8    0    1
 -2        86        87       244      1206      1524      1525
 -1       324    8    0    1
 -2        86       244       243      1525      1526      1521
 -1       325    8    0    1
 -2        87        88       245      1207      1527      1528
 -1       326    8    0    1
 -2        87       245       244      1528      1529      1524
 -1       327    8    0    1
 -2        88        89       246      1208      1530      1531
 -1       328    8    0    1
 -2        88       246       245      1531      1532      1527
 -1       329    8    0    1
 -2        89        90       247      1209      1533      1534
 -1       330    8    0    1
 -2        89       247       246      1534      1535      1530
 -1       331    8    0    1
 -2        90        91       248      1210      1536      1537
 -1       332    8    0    1
 -2        90       248       247      1537      1538      1533
 -1       333    8    0    1
 -2        91        92       249      1211      1539      1540
 -1       334    8    0    1
 -2        91       249       248      1540      1541      1536
 -1       335    8    0    1
 -2        92        93       250      1212      1542      1543
 -1       336    8    0    1
 -2        92       250       249      1543      1544      1539
 -1       337    8    0    1
 -2        93        94       251      1213      1545      1546
 -1       338    8    0    1
 -2        93       251       250      1546      1547      1542
 -1       339    8    0    1
 -2        94        95       252      1214      1548      1549
 -1       340    8    0    1
 -2        94       252       251      1549      1550      1545
 -1       341    8    0    1
 -2        95        96       253      1215      1551      1552
 -1       342    8    0    1
 -2        95       253       252      1552      1553      1548
 -1       343    8    0    1
 -2        96        97       254      1216      1554      1555
 -1       344    8    0    1
 -2        96       254       253      1555      1556      1551
 -1       345    8    0    1
 -2        97        98       255      1217      1557      1558
 -1       346    8    0    1
 -2        97       255       254      1558      1559      1554
 -1       347    8    0    1
 -2        98        99       256      1218      1560      1561
 -1       348    8    0    1
 -2        98       256       255      1561      1562      1557
 -1       349    8    0    1
 -2        99       100       257      1219      1563      1564
 -1       350    8    0    1
 -2        99       257       256      1564      1565      1560
 -1       351    8    0    1
 -2       100       101       258      1220      1566      1567
 -1       352    8    0    1
 -2       100       258       257      1567      1568      1563
 -1       353    8    0    1
 -2       101       102       259      1221      1569      1570
 -1       354    8    0    1
 -2       101       259       258      1570      1571      1566
 -1       355    8    0    1
 -2       102       103       260      1222      1572      1573
 -1       356    8    0    1
 -2       102       260       259      1573      1574      1569
 -1       357    8    0    1
 -2       103       104       261      1223      1575      1576
 -1       358    8    0    1
 -2       103       261       260      1576      1577      1572
 -1       359    8    0    1
 -2       104       105       262      1224      1578      1579
 -1       360    8    0    1
 -2       104       262       261      1579      1580      1575
 -1       361    8    0    1
 -2       105       106       263      1225      1581      1582
 -1       362    8    0    1
 -2       105       263       262      1582      1583      1578
 -1       363    8    0    1
 -2       106       107       264      1226      1584      1585
 -1       364    8    0    1
 -2       106       264       263      1585      1586      1581
 -1       365    8    0    1
 -2       107       108       265      1227      1587      1588
 -1       366    8    0    1
 -2       107       265       264      1588      1589      1584
 -1       367    8    0    1
 -2       108       109       266      1228      1590      1591
 -1       368    8    0    1
 -2       108       266       265      1591      1592      1587
 -1       369    8    0    1
 -2       109       110       267      1229      1593      1594
 -1       370    8    0    1
 -2       109       267       266      1594      1595      1590
 -1       371    8    0    1
 -2       110       111       268      1230      1596      1597
 -1       372    8    0    1
 -2       110       268       267      1597      1598      1593
 -1       373    8    0    1
 -2       111       112       269      1231      1599      1600
 -1       374    8    0    1
 -2       111       269       268      1600      1601      1596
 -1       375    8    0    1
 -2       112       113       270      1232      1602      1603
 -1       376    8    0    1
 -2       112       270       269      1603      1604      1599
 -1       377    8    0    1
 -2       113       114       271      1233      1605      1606
 -1       378    8    0    1
 -2       113       271       270      1606      1607      1602
 -1       379    8    0    1
 -2       114       115       272      1234      1608      1609
 -1       380    8    0    1
 -2       114       272       271      1609      1610      1605
 -1       381    8    0    1
 -2       115       116       273      1235      1611      1612
 -1       382    8    0    1
 -2       115       273       272      1612      1613      1608
 -1       383    8    0    1
 -2       116       117       274      1236      1614      1615
 -1       384    8    0    1
 -2       116       274       273      1615      1616      1611
 -1       385    8    0    1
 -2       117       118       275      1237      1617      1618
 -1       386    8    0    1
 -2       117       275       274      1618      1619      1614
 -1       387    8    0    1
 -2       118       119       276      1238      1620      1621
 -1       388    8    0    1
 -2       118       276       275      1621      1622      1617
 -1       389    8    0    1
 -2       119       120       277      1239      1623      1624
 -1       390    8    0    1
 -2       119       277       276      1624      1625      1620
 -1       391    8    0    1
 -2       120       121       278      1240      1626      1627
 -1       392    8    0    1
 -2       120       278       277      1627      1628      1623
 -1       393    8    0    1
 -2       121         3       122      1241      1242      1629
 -1       394    8    0    1
 -2       122       123       279      1243      1630      1631
 -1       395    8    0    1
 -2       123       124       280      1244      1632      1633
 -1       396    8    0    1
 -2       123       280       279      1633      1634      1630
 -1       397    8    0    1
 -2       124       125       281      1245      1635      1636
 -1       398    8    0    1
 -2       124       281       280      1636      1637      1632
 -1       399    8    0    1
 -2       125       126       282      1246      1638      1639
 -1       400    8    0    1
 -2       125       282       281      1639      1640      1635
 -1       401    8    0    1
 -2       126       127       283      1247      1641      1642
 -1       402    8    0    1
 -2       126       283       282      1642      1643      1638
 -1       403    8    0    1
 -2       127       128       284      1248      1644      1645
 -1       404    8    0    1
 -2       127       284       283      1645      1646      1641
 -1       405    8    0    1
 -2       128       129       285      1249      1647      1648
 -1       406    8    0    1
 -2       128       285       284      1648      1649      1644
 -1       407    8    0    1
 -2       129       130       286      1250      1650      1651
 -1       408    8    0    1
 -2       129       286       285      1651      1652      1647
 -1       409    8    0    1
 -2       130       131       287      1251      1653      1654
 -1       410    8    0    1
 -2       130       287       286      1654      1655      1650
 -1       411    8    0    1
 -2       131       132       288      1252      1656      1657
 -1       412    8    0    1
 -2       131       288       287      1657      1658      1653
 -1       413    8    0    1
 -2       132       133       289      1253      1659      1660
 -1       414    8    0    1
 -2       132       289       288      1660      1661      1656
 -1       415    8    0    1
 -2       133       134       290      1254      1662      1663
 -1       416    8    0    1
 -2       133       290       289      1663      1664      1659
 -1       417    8    0    1
 -2       134       135       291      1255      1665      1666
 -1       418    8    0    1
 -2       134       291       290      1666      1667      1662
 -1       419    8    0    1
 -2       135       136       292      1256      1668      1669
 -1       420    8    0    1
 -2       135       292       291      1669      1670      1665
 -1       421    8    0    1
 -2         2       138       293      1259      1671      1672
 -1       422    8    0    1
 -2       138       139       294      1260      1673      1674
 -1       423    8    0    1
 -2       139       140       295      1261      1675      1676
 -1       424    8    0    1
 -2       140       141       296      1262      1677      1678
 -1       425    8    0    1
 -2       141       142       297      1263      1679      1680
 -1       426    8    0    1
 -2       142       143       298      1264      1681      1682
 -1       427    8    0    1
 -2       143       144       299      1265      1683      1684
 -1       428    8    0    1
 -2       144       145       300      1266      1685      1686
 -1       429    8    0    1
 -2       145       146       301      1267      1687      1688
 -1       430    8    0    1
 -2       146       147       302      1268      1689      1690
 -1       431    8    0    1
 -2       147       148       303      1269      1691      1692
 -1       432    8    0    1
 -2       148       149       304      1270      1693      1694
 -1       433    8    0    1
 -2       149       150       305      1271      1695      1696
 -1       434    8    0    1
 -2       150       151       306      1272      1697      1698
 -1       435    8    0    1
 -2       151       152       307      1273      1699      1700
 -1       436    8    0    1
 -2       152       153       308      1274      1701      1702
 -1       437    8    0    1
 -2       153         1       309      1275      1703      1704
 -1       438    8    0    1
 -2         1       154       310      1276      1705      1706
 -1       439    8    0    1
 -2       154       155       311      1277      1707      1708
 -1       440    8    0    1
 -2       155       156       312      1278      1709      1710
 -1       441    8    0    1
 -2       156       157       313      1279      1711      1712
 -1       442    8    0    1
 -2       157       158       314      1280      1713      1714
 -1       443    8    0    1
 -2       158       159       315      1281      1715      1716
 -1       444    8    0    1
 -2       159       160       316      1282      1717      1718
 -1       445    8    0    1
 -2       160       161       317      1283      1719      1720
 -1       446    8    0    1
 -2       161       162       318      1284      1721      1722
 -1       447    8    0    1
 -2       162       163       319      1285      1723      1724
 -1       448    8    0    1
 -2       163       164       320      1286      1725      1726
 -1       449    8    0    1
 -2       164       165       321      1287      1727      1728
 -1       450    8    0    1
 -2       165         2       322      1288      1729      1730
 -1       451    8    0    1
 -2       137        72       230      1484      1482      1731
 -1       452    8    0    1
 -2       294       139       295      1673      1676      1732
 -1       453    8    0    1
 -2       121       122       278      1629      1733      1626
 -1       454    8    0    1
 -2       122       279       278      1631      1734      1733
 -1       455    8    0    1
 -2         2       293       322      1672      1735      1729
 -1       456    8    0    1
 -2       293       138       294      1671      1674      1736
 -1       457    8    0    1
 -2       136       137       323      1257      1737      1738
 -1       458    8    0    1
 -2       136       323       292      1738      1739      1668
 -1       459    8    0    1
 -2       140       296       295      1678      1740      1675
 -1       460    8    0    1
 -2       141       297       296      1680      1741      1677
 -1       461    8    0    1
 -2       142       298       297      1682      1742      1679
 -1       462    8    0    1
 -2       143       299       298      1684      1743      1681
 -1       463    8    0    1
 -2       144       300       299      1686      1744      1683
 -1       464    8    0    1
 -2       145       301       300      1688      1745      1685
 -1       465    8    0    1
 -2       146       302       301      1690      1746      1687
 -1       466    8    0    1
 -2       147       303       302      1692      1747      1689
 -1       467    8    0    1
 -2       148       304       303      1694      1748      1691
 -1       468    8    0    1
 -2       149       305       304      1696      1749      1693
 -1       469    8    0    1
 -2       150       306       305      1698      1750      1695
 -1       470    8    0    1
 -2       151       307       306      1700      1751      1697
 -1       471    8    0    1
 -2       152       308       307      1702      1752      1699
 -1       472    8    0    1
 -2       153       309       308      1704      1753      1701
 -1       473    8    0    1
 -2         1       310       309      1706      1754      1703
 -1       474    8    0    1
 -2       154       311       310      1708      1755      1705
 -1       475    8    0    1
 -2       155       312       311      1710      1756      1707
 -1       476    8    0    1
 -2       156       313       312      1712      1757      1709
 -1       477    8    0    1
 -2       157       314       313      1714      1758      1711
 -1       478    8    0    1
 -2       158       315       314      1716      1759      1713
 -1       479    8    0    1
 -2       159       316       315      1718      1760      1715
 -1       480    8    0    1
 -2       160       317       316      1720      1761      1717
 -1       481    8    0    1
 -2       161       318       317      1722      1762      1719
 -1       482    8    0    1
 -2       162       319       318      1724      1763      1721
 -1       483    8    0    1
 -2       163       320       319      1726      1764      1723
 -1       484    8    0    1
 -2       164       321       320      1728      1765      1725
 -1       485    8    0    1
 -2       165       322       321      1730      1766      1727
 -1       486    8    0    1
 -2        23         7       166      1289      1291      1767
 -1       487    8    0    1
 -2       167       168       324      1297      1768      1769
 -1       488    8    0    1
 -2       166       167       325      1294      1770      1771
 -1       489    8    0    1
 -2       167       324       325      1769      1772      1770
 -1       490    8    0    1
 -2       169       170       326      1303      1773      1774
 -1       491    8    0    1
 -2       170       171       327      1306      1775      1776
 -1       492    8    0    1
 -2       170       327       326      1776      1777      1773
 -1       493    8    0    1
 -2       171       172       328      1309      1778      1779
 -1       494    8    0    1
 -2       171       328       327      1779      1780      1775
 -1       495    8    0    1
 -2       172       173       329      1312      1781      1782
 -1       496    8    0    1
 -2       172       329       328      1782      1783      1778
 -1       497    8    0    1
 -2       173       174       330      1315      1784      1785
 -1       498    8    0    1
 -2       173       330       329      1785      1786      1781
 -1       499    8    0    1
 -2       174       175       331      1318      1787      1788
 -1       500    8    0    1
 -2       174       331       330      1788      1789      1784
 -1       501    8    0    1
 -2       175       176       332      1321      1790      1791
 -1       502    8    0    1
 -2       175       332       331      1791      1792      1787
 -1       503    8    0    1
 -2       176       177       333      1324      1793      1794
 -1       504    8    0    1
 -2       176       333       332      1794      1795      1790
 -1       505    8    0    1
 -2       177       178       334      1327      1796      1797
 -1       506    8    0    1
 -2       177       334       333      1797      1798      1793
 -1       507    8    0    1
 -2       178       179       335      1330      1799      1800
 -1       508    8    0    1
 -2       178       335       334      1800      1801      1796
 -1       509    8    0    1
 -2       179       180       336      1333      1802      1803
 -1       510    8    0    1
 -2       179       336       335      1803      1804      1799
 -1       511    8    0    1
 -2       180       181       337      1336      1805      1806
 -1       512    8    0    1
 -2       336       180       337      1802      1806      1807
 -1       513    8    0    1
 -2       181       231       337      1487      1808      1805
 -1       514    8    0    1
 -2       182        23       166      1338      1767      1809
 -1       515    8    0    1
 -2       231       232       338      1490      1810      1811
 -1       516    8    0    1
 -2       231       338       337      1811      1812      1808
 -1       517    8    0    1
 -2       184       183       339      1345      1813      1814
 -1       518    8    0    1
 -2       185       184       340      1348      1815      1816
 -1       519    8    0    1
 -2       184       339       340      1814      1817      1815
 -1       520    8    0    1
 -2       186       185       341      1351      1818      1819
 -1       521    8    0    1
 -2       185       340       341      1816      1820      1818
 -1       522    8    0    1
 -2       187       186       342      1354      1821      1822
 -1       523    8    0    1
 -2       186       341       342      1819      1823      1821
 -1       524    8    0    1
 -2       188       187       343      1357      1824      1825
 -1       525    8    0    1
 -2       187       342       343      1822      1826      1824
 -1       526    8    0    1
 -2       189       188       344      1360      1827      1828
 -1       527    8    0    1
 -2       188       343       344      1825      1829      1827
 -1       528    8    0    1
 -2       190       189       345      1363      1830      1831
 -1       529    8    0    1
 -2       189       344       345      1828      1832      1830
 -1       530    8    0    1
 -2       191       190       346      1366      1833      1834
 -1       531    8    0    1
 -2       190       345       346      1831      1835      1833
 -1       532    8    0    1
 -2       192       191       347      1369      1836      1837
 -1       533    8    0    1
 -2       191       346       347      1834      1838      1836
 -1       534    8    0    1
 -2       193       192       348      1372      1839      1840
 -1       535    8    0    1
 -2       192       347       348      1837      1841      1839
 -1       536    8    0    1
 -2       194       193       349      1375      1842      1843
 -1       537    8    0    1
 -2       193       348       349      1840      1844      1842
 -1       538    8    0    1
 -2       195       194       350      1378      1845      1846
 -1       539    8    0    1
 -2       194       349       350      1843      1847      1845
 -1       540    8    0    1
 -2       196       195       351      1381      1848      1849
 -1       541    8    0    1
 -2       195       350       351      1846      1850      1848
 -1       542    8    0    1
 -2       197       196       352      1384      1851      1852
 -1       543    8    0    1
 -2       196       351       352      1849      1853      1851
 -1       544    8    0    1
 -2       198       197       353      1387      1854      1855
 -1       545    8    0    1
 -2       197       352       353      1852      1856      1854
 -1       546    8    0    1
 -2       199       198       354      1390      1857      1858
 -1       547    8    0    1
 -2       198       353       354      1855      1859      1857
 -1       548    8    0    1
 -2       200       199       355      1393      1860      1861
 -1       549    8    0    1
 -2       199       354       355      1858      1862      1860
 -1       550    8    0    1
 -2       201       200       356      1396      1863      1864
 -1       551    8    0    1
 -2       200       355       356      1861      1865      1863
 -1       552    8    0    1
 -2       202       201       357      1399      1866      1867
 -1       553    8    0    1
 -2       201       356       357      1864      1868      1866
 -1       554    8    0    1
 -2       203       202       358      1402      1869      1870
 -1       555    8    0    1
 -2       202       357       358      1867      1871      1869
 -1       556    8    0    1
 -2       204       203       359      1405      1872      1873
 -1       557    8    0    1
 -2       203       358       359      1870      1874      1872
 -1       558    8    0    1
 -2       205       204       360      1408      1875      1876
 -1       559    8    0    1
 -2       204       359       360      1873      1877      1875
 -1       560    8    0    1
 -2       206       205       361      1411      1878      1879
 -1       561    8    0    1
 -2       205       360       361      1876      1880      1878
 -1       562    8    0    1
 -2       207       206       362      1414      1881      1882
 -1       563    8    0    1
 -2       206       361       362      1879      1883      1881
 -1       564    8    0    1
 -2       208       207       363      1417      1884      1885
 -1       565    8    0    1
 -2       207       362       363      1882      1886      1884
 -1       566    8    0    1
 -2       209       208       364      1420      1887      1888
 -1       567    8    0    1
 -2       208       363       364      1885      1889      1887
 -1       568    8    0    1
 -2       210       209       365      1423      1890      1891
 -1       569    8    0    1
 -2       209       364       365      1888      1892      1890
 -1       570    8    0    1
 -2       211       210       366      1426      1893      1894
 -1       571    8    0    1
 -2       210       365       366      1891      1895      1893
 -1       572    8    0    1
 -2       212       211       367      1429      1896      1897
 -1       573    8    0    1
 -2       211       366       367      1894      1898      1896
 -1       574    8    0    1
 -2       213       212       368      1432      1899      1900
 -1       575    8    0    1
 -2       212       367       368      1897      1901      1899
 -1       576    8    0    1
 -2       214       213       369      1435      1902      1903
 -1       577    8    0    1
 -2       213       368       369      1900      1904      1902
 -1       578    8    0    1
 -2       215       214       370      1438      1905      1906
 -1       579    8    0    1
 -2       214       369       370      1903      1907      1905
 -1       580    8    0    1
 -2       216       215       371      1441      1908      1909
 -1       581    8    0    1
 -2       215       370       371      1906      1910      1908
 -1       582    8    0    1
 -2       217       216       372      1444      1911      1912
 -1       583    8    0    1
 -2       216       371       372      1909      1913      1911
 -1       584    8    0    1
 -2       218       217       373      1447      1914      1915
 -1       585    8    0    1
 -2       217       372       373      1912      1916      1914
 -1       586    8    0    1
 -2       220       219       374      1453      1917      1918
 -1       587    8    0    1
 -2       221       220       375      1456      1919      1920
 -1       588    8    0    1
 -2       222       221       376      1459      1921      1922
 -1       589    8    0    1
 -2       223       222       377      1462      1923      1924
 -1       590    8    0    1
 -2       224       223       378      1465      1925      1926
 -1       591    8    0    1
 -2       223       377       378      1924      1927      1925
 -1       592    8    0    1
 -2       225       224       379      1468      1928      1929
 -1       593    8    0    1
 -2       224       378       379      1926      1930      1928
 -1       594    8    0    1
 -2       226       225       380      1471      1931      1932
 -1       595    8    0    1
 -2       225       379       380      1929      1933      1931
 -1       596    8    0    1
 -2       227       226       381      1474      1934      1935
 -1       597    8    0    1
 -2       226       380       381      1932      1936      1934
 -1       598    8    0    1
 -2       228       227       382      1477      1937      1938
 -1       599    8    0    1
 -2       227       381       382      1935      1939      1937
 -1       600    8    0    1
 -2       229       228       383      1480      1940      1941
 -1       601    8    0    1
 -2       228       382       383      1938      1942      1940
 -1       602    8    0    1
 -2       230       229       384      1483      1943      1944
 -1       603    8    0    1
 -2       229       383       384      1941      1945      1943
 -1       604    8    0    1
 -2       232       233       385      1493      1946      1947
 -1       605    8    0    1
 -2       232       385       338      1947      1948      1810
 -1       606    8    0    1
 -2       294       295       386      1732      1949      1950
 -1       607    8    0    1
 -2       233       234       387      1496      1951      1952
 -1       608    8    0    1
 -2       233       387       385      1952      1953      1946
 -1       609    8    0    1
 -2       234       235       388      1499      1954      1955
 -1       610    8    0    1
 -2       234       388       387      1955      1956      1951
 -1       611    8    0    1
 -2       235       236       389      1502      1957      1958
 -1       612    8    0    1
 -2       235       389       388      1958      1959      1954
 -1       613    8    0    1
 -2       236       237       390      1505      1960      1961
 -1       614    8    0    1
 -2       236       390       389      1961      1962      1957
 -1       615    8    0    1
 -2       237       238       391      1508      1963      1964
 -1       616    8    0    1
 -2       237       391       390      1964      1965      1960
 -1       617    8    0    1
 -2       238       239       392      1511      1966      1967
 -1       618    8    0    1
 -2       238       392       391      1967      1968      1963
 -1       619    8    0    1
 -2       239       240       393      1514      1969      1970
 -1       620    8    0    1
 -2       239       393       392      1970      1971      1966
 -1       621    8    0    1
 -2       240       241       394      1517      1972      1973
 -1       622    8    0    1
 -2       240       394       393      1973      1974      1969
 -1       623    8    0    1
 -2       241       242       395      1520      1975      1976
 -1       624    8    0    1
 -2       241       395       394      1976      1977      1972
 -1       625    8    0    1
 -2       242       243       396      1523      1978      1979
 -1       626    8    0    1
 -2       242       396       395      1979      1980      1975
 -1       627    8    0    1
 -2       243       244       397      1526      1981      1982
 -1       628    8    0    1
 -2       243       397       396      1982      1983      1978
 -1       629    8    0    1
 -2       244       245       398      1529      1984      1985
 -1       630    8    0    1
 -2       244       398       397      1985      1986      1981
 -1       631    8    0    1
 -2       245       246       399      1532      1987      1988
 -1       632    8    0    1
 -2       245       399       398      1988      1989      1984
 -1       633    8    0    1
 -2       246       247       400      1535      1990      1991
 -1       634    8    0    1
 -2       246       400       399      1991      1992      1987
 -1       635    8    0    1
 -2       247       248       401      1538      1993      1994
 -1       636    8    0    1
 -2       247       401       400      1994      1995      1990
 -1       637    8    0    1
 -2       248       249       402      1541      1996      1997
 -1       638    8    0    1
 -2       248       402       401      1997      1998      1993
 -1       639    8    0    1
 -2       249       250       403      1544      1999      2000
 -1       640    8    0    1
 -2       249       403       402      2000      2001      1996
 -1       641    8    0    1
 -2       250       251       404      1547      2002      2003
 -1       642    8    0    1
 -2       250       404       403      2003      2004      1999
 -1       643    8    0    1
 -2       251       252       405      1550      2005      2006
 -1       644    8    0    1
 -2       251       405       404      2006      2007      2002
 -1       645    8    0    1
 -2       252       253       406      1553      2008      2009
 -1       646    8    0    1
 -2       252       406       405      2009      2010      2005
 -1       647    8    0    1
 -2       253       254       407      1556      2011      2012
 -1       648    8    0    1
 -2       253       407       406      2012      2013      2008
 -1       649    8    0    1
 -2       254       255       408      1559      2014      2015
 -1       650    8    0    1
 -2       254       408       407      2015      2016      2011
 -1       651    8    0    1
 -2       255       256       409      1562      2017      2018
 -1       652    8    0    1
 -2       255       409       408      2018      2019      2014
 -1       653    8    0    1
 -2       256       257       410      1565      2020      2021
 -1       654    8    0    1
 -2       256       410       409      2021      2022      2017
 -1       655    8    0    1
 -2       257       258       411      1568      2023      2024
 -1       656    8    0    1
 -2       257       411       410      2024      2025      2020
 -1       657    8    0    1
 -2       258       259       412      1571      2026      2027
 -1       658    8    0    1
 -2       258       412       411      2027      2028      2023
 -1       659    8    0    1
 -2       259       260       413      1574      2029      2030
 -1       660    8    0    1
 -2       259       413       412      2030      2031      2026
 -1       661    8    0    1
 -2       260       261       414      1577      2032      2033
 -1       662    8    0    1
 -2       260       414       413      2033      2034      2029
 -1       663    8    0    1
 -2       261       262       415      1580      2035      2036
 -1       664    8    0    1
 -2       261       415       414      2036      2037      2032
 -1       665    8    0    1
 -2       262       263       416      1583      2038      2039
 -1       666    8    0    1
 -2       262       416       415      2039      2040      2035
 -1       667    8    0    1
 -2       263       264       417      1586      2041      2042
 -1       668    8    0    1
 -2       263       417       416      2042      2043      2038
 -1       669    8    0    1
 -2       264       265       418      1589      2044      2045
 -1       670    8    0    1
 -2       264       418       417      2045      2046      2041
 -1       671    8    0    1
 -2       265       266       419      1592      2047      2048
 -1       672    8    0    1
 -2       265       419       418      2048      2049      2044
 -1       673    8    0    1
 -2       266       267       420      1595      2050      2051
 -1       674    8    0    1
 -2       266       420       419      2051      2052      2047
 -1       675    8    0    1
 -2       267       268       421      1598      2053      2054
 -1       676    8    0    1
 -2       267       421       420      2054      2055      2050
 -1       677    8    0    1
 -2       268       269       422      1601      2056      2057
 -1       678    8    0    1
 -2       268       422       421      2057      2058      2053
 -1       679    8    0    1
 -2       269       270       423      1604      2059      2060
 -1       680    8    0    1
 -2       269       423       422      2060      2061      2056
 -1       681    8    0    1
 -2       270       271       424      1607      2062      2063
 -1       682    8    0    1
 -2       270       424       423      2063      2064      2059
 -1       683    8    0    1
 -2       271       272       425      1610      2065      2066
 -1       684    8    0    1
 -2       271       425       424      2066      2067      2062
 -1       685    8    0    1
 -2       272       273       426      1613      2068      2069
 -1       686    8    0    1
 -2       272       426       425      2069      2070      2065
 -1       687    8    0    1
 -2       273       274       427      1616      2071      2072
 -1       688    8    0    1
 -2       273       427       426      2072      2073      2068
 -1       689    8    0    1
 -2       274       275       428      1619      2074      2075
 -1       690    8    0    1
 -2       274       428       427      2075      2076      2071
 -1       691    8    0    1
 -2       275       276       429      1622      2077      2078
 -1       692    8    0    1
 -2       275       429       428      2078      2079      2074
 -1       693    8    0    1
 -2       276       277       430      1625      2080      2081
 -1       694    8    0    1
 -2       276       430       429      2081      2082      2077
 -1       695    8    0    1
 -2       277       278       431      1628      2083      2084
 -1       696    8    0    1
 -2       430       277       431      2080      2084      2085
 -1       697    8    0    1
 -2       278       279       431      1734      2086      2083
 -1       698    8    0    1
 -2       281       282       432      1640      2087      2088
 -1       699    8    0    1
 -2       280       281       433      1637      2089      2090
 -1       700    8    0    1
 -2       281       432       433      2088      2091      2089
 -1       701    8    0    1
 -2       279       280       434      1634      2092      2093
 -1       702    8    0    1
 -2       431       279       434      2086      2093      2094
 -1       703    8    0    1
 -2       280       433       434      2090      2095      2092
 -1       704    8    0    1
 -2       282       283       435      1643      2096      2097
 -1       705    8    0    1
 -2       282       435       432      2097      2098      2087
 -1       706    8    0    1
 -2       283       284       436      1646      2099      2100
 -1       707    8    0    1
 -2       283       436       435      2100      2101      2096
 -1       708    8    0    1
 -2       284       285       437      1649      2102      2103
 -1       709    8    0    1
 -2       284       437       436      2103      2104      2099
 -1       710    8    0    1
 -2       285       286       438      1652      2105      2106
 -1       711    8    0    1
 -2       285       438       437      2106      2107      2102
 -1       712    8    0    1
 -2       286       287       439      1655      2108      2109
 -1       713    8    0    1
 -2       286       439       438      2109      2110      2105
 -1       714    8    0    1
 -2       287       288       440      1658      2111      2112
 -1       715    8    0    1
 -2       287       440       439      2112      2113      2108
 -1       716    8    0    1
 -2       288       289       441      1661      2114      2115
 -1       717    8    0    1
 -2       288       441       440      2115      2116      2111
 -1       718    8    0    1
 -2       289       290       442      1664      2117      2118
 -1       719    8    0    1
 -2       289       442       441      2118      2119      2114
 -1       720    8    0    1
 -2       290       291       443      1667      2120      2121
 -1       721    8    0    1
 -2       290       443       442      2121      2122      2117
 -1       722    8    0    1
 -2       291       292       444      1670      2123      2124
 -1       723    8    0    1
 -2       291       444       443      2124      2125      2120
 -1       724    8    0    1
 -2       295       296       445      1740      2126      2127
 -1       725    8    0    1
 -2       323       137       230      1737      1731      2128
 -1       726    8    0    1
 -2       182       166       325      1809      1771      2129
 -1       727    8    0    1
 -2       322       293       446      1735      2130      2131
 -1       728    8    0    1
 -2       168       169       447      1300      2132      2133
 -1       729    8    0    1
 -2       324       168       447      1768      2133      2134
 -1       730    8    0    1
 -2       169       326       447      1774      2135      2132
 -1       731    8    0    1
 -2       296       297       448      1741      2136      2137
 -1       732    8    0    1
 -2       296       448       445      2137      2138      2126
 -1       733    8    0    1
 -2       297       298       449      1742      2139      2140
 -1       734    8    0    1
 -2       298       299       450      1743      2141      2142
 -1       735    8    0    1
 -2       299       300       451      1744      2143      2144
 -1       736    8    0    1
 -2       300       301       452      1745      2145      2146
 -1       737    8    0    1
 -2       301       302       453      1746      2147      2148
 -1       738    8    0    1
 -2       301       453       452      2148      2149      2145
 -1       739    8    0    1
 -2       302       303       454      1747      2150      2151
 -1       740    8    0    1
 -2       303       304       455      1748      2152      2153
 -1       741    8    0    1
 -2       304       305       456      1749      2154      2155
 -1       742    8    0    1
 -2       305       306       457      1750      2156      2157
 -1       743    8    0    1
 -2       306       307       458      1751      2158      2159
 -1       744    8    0    1
 -2       307       308       459      1752      2160      2161
 -1       745    8    0    1
 -2       307       459       458      2161      2162      2158
 -1       746    8    0    1
 -2       308       309       460      1753      2163      2164
 -1       747    8    0    1
 -2       309       310       461      1754      2165      2166
 -1       748    8    0    1
 -2       310       311       462      1755      2167      2168
 -1       749    8    0    1
 -2       311       312       463      1756      2169      2170
 -1       750    8    0    1
 -2       312       313       464      1757      2171      2172
 -1       751    8    0    1
 -2       313       314       465      1758      2173      2174
 -1       752    8    0    1
 -2       314       315       466      1759      2175      2176
 -1       753    8    0    1
 -2       315       316       375      1760      2177      2178
 -1       754    8    0    1
 -2       316       317       467      1761      2179      2180
 -1       755    8    0    1
 -2       317       318       468      1762      2181      2182
 -1       756    8    0    1
 -2       318       319       469      1763      2183      2184
 -1       757    8    0    1
 -2       319       320       470      1764      2185      2186
 -1       758    8    0    1
 -2       320       321       471      1765      2187      2188
 -1       759    8    0    1
 -2       321       322       472      1766      2189      2190
 -1       760    8    0    1
 -2       293       294       473      1736      2191      2192
 -1       761    8    0    1
 -2       323       230       384      2128      1944      2193
 -1       762    8    0    1
 -2       322       446       472      2131      2194      2189
 -1       763    8    0    1
 -2       294       386       473      1950      2195      2191
 -1       764    8    0    1
 -2       339       183       325      1813      2196      2197
 -1       765    8    0    1
 -2       183       182       325      1342      2129      2196
 -1       766    8    0    1
 -2       219       218       474      1450      2198      2199
 -1       767    8    0    1
 -2       221       375       376      1920      2200      1921
 -1       768    8    0    1
 -2       222       376       377      1922      2201      1923
 -1       769    8    0    1
 -2       386       295       445      1949      2127      2202
 -1       770    8    0    1
 -2       451       300       452      2143      2146      2203
 -1       771    8    0    1
 -2       297       449       448      2140      2204      2136
 -1       772    8    0    1
 -2       292       323       384      1739      2193      2205
 -1       773    8    0    1
 -2       446       293       473      2130      2192      2206
 -1       774    8    0    1
 -2       471       321       472      2187      2190      2207
 -1       775    8    0    1
 -2       470       320       471      2185      2188      2208
 -1       776    8    0    1
 -2       469       319       470      2183      2186      2209
 -1       777    8    0    1
 -2       468       318       469      2181      2184      2210
 -1       778    8    0    1
 -2       467       317       468      2179      2182      2211
 -1       779    8    0    1
 -2       466       315       375      2175      2178      2212
 -1       780    8    0    1
 -2       465       314       466      2173      2176      2213
 -1       781    8    0    1
 -2       464       313       465      2171      2174      2214
 -1       782    8    0    1
 -2       463       312       464      2169      2172      2215
 -1       783    8    0    1
 -2       462       311       463      2167      2170      2216
 -1       784    8    0    1
 -2       461       310       462      2165      2168      2217
 -1       785    8    0    1
 -2       459       308       460      2160      2164      2218
 -1       786    8    0    1
 -2       457       306       458      2156      2159      2219
 -1       787    8    0    1
 -2       456       305       457      2154      2157      2220
 -1       788    8    0    1
 -2       455       304       456      2152      2155      2221
 -1       789    8    0    1
 -2       453       302       454      2147      2151      2222
 -1       790    8    0    1
 -2       474       218       373      2198      1915      2223
 -1       791    8    0    1
 -2       292       384       444      2205      2224      2123
 -1       792    8    0    1
 -2       450       299       451      2141      2144      2225
 -1       793    8    0    1
 -2       449       298       450      2139      2142      2226
 -1       794    8    0    1
 -2       454       303       475      2150      2227      2228
 -1       795    8    0    1
 -2       303       455       475      2153      2229      2227
 -1       796    8    0    1
 -2       460       309       461      2163      2166      2230
 -1       797    8    0    1
 -2       327       328       476      1780      2231      2232
 -1       798    8    0    1
 -2       326       327       477      1777      2233      2234
 -1       799    8    0    1
 -2       327       476       477      2232      2235      2233
 -1       800    8    0    1
 -2       329       330       478      1786      2236      2237
 -1       801    8    0    1
 -2       330       331       479      1789      2238      2239
 -1       802    8    0    1
 -2       330       479       478      2239      2240      2236
 -1       803    8    0    1
 -2       331       332       480      1792      2241      2242
 -1       804    8    0    1
 -2       331       480       479      2242      2243      2238
 -1       805    8    0    1
 -2       332       333       481      1795      2244      2245
 -1       806    8    0    1
 -2       332       481       480      2245      2246      2241
 -1       807    8    0    1
 -2       333       334       482      1798      2247      2248
 -1       808    8    0    1
 -2       333       482       481      2248      2249      2244
 -1       809    8    0    1
 -2       334       335       483      1801      2250      2251
 -1       810    8    0    1
 -2       334       483       482      2251      2252      2247
 -1       811    8    0    1
 -2       335       336       484      1804      2253      2254
 -1       812    8    0    1
 -2       335       484       483      2254      2255      2250
 -1       813    8    0    1
 -2       336       337       485      1807      2256      2257
 -1       814    8    0    1
 -2       484       336       485      2253      2257      2258
 -1       815    8    0    1
 -2       337       338       485      1812      2259      2256
 -1       816    8    0    1
 -2       340       339       486      1817      2260      2261
 -1       817    8    0    1
 -2       444       384       487      2224      2262      2263
 -1       818    8    0    1
 -2       384       383       487      1945      2264      2262
 -1       819    8    0    1
 -2       375       220       466      1919      2265      2212
 -1       820    8    0    1
 -2       219       474       374      2199      2266      1917
 -1       821    8    0    1
 -2       445       448       488      2138      2267      2268
 -1       822    8    0    1
 -2       341       340       489      1820      2269      2270
 -1       823    8    0    1
 -2       340       486       489      2261      2271      2269
 -1       824    8    0    1
 -2       342       341       490      1823      2272      2273
 -1       825    8    0    1
 -2       341       489       490      2270      2274      2272
 -1       826    8    0    1
 -2       343       342       491      1826      2275      2276
 -1       827    8    0    1
 -2       342       490       491      2273      2277      2275
 -1       828    8    0    1
 -2       344       343       492      1829      2278      2279
 -1       829    8    0    1
 -2       343       491       492      2276      2280      2278
 -1       830    8    0    1
 -2       345       344       493      1832      2281      2282
 -1       831    8    0    1
 -2       344       492       493      2279      2283      2281
 -1       832    8    0    1
 -2       346       345       494      1835      2284      2285
 -1       833    8    0    1
 -2       345       493       494      2282      2286      2284
 -1       834    8    0    1
 -2       347       346       495      1838      2287      2288
 -1       835    8    0    1
 -2       346       494       495      2285      2289      2287
 -1       836    8    0    1
 -2       348       347       496      1841      2290      2291
 -1       837    8    0    1
 -2       347       495       496      2288      2292      2290
 -1       838    8    0    1
 -2       349       348       497      1844      2293      2294
 -1       839    8    0    1
 -2       348       496       497      2291      2295      2293
 -1       840    8    0    1
 -2       350       349       498      1847      2296      2297
 -1       841    8    0    1
 -2       349       497       498      2294      2298      2296
 -1       842    8    0    1
 -2       351       350       499      1850      2299      2300
 -1       843    8    0    1
 -2       350       498       499      2297      2301      2299
 -1       844    8    0    1
 -2       352       351       500      1853      2302      2303
 -1       845    8    0    1
 -2       351       499       500      2300      2304      2302
 -1       846    8    0    1
 -2       353       352       501      1856      2305      2306
 -1       847    8    0    1
 -2       352       500       501      2303      2307      2305
 -1       848    8    0    1
 -2       354       353       502      1859      2308      2309
 -1       849    8    0    1
 -2       353       501       502      2306      2310      2308
 -1       850    8    0    1
 -2       355       354       503      1862      2311      2312
 -1       851    8    0    1
 -2       354       502       503      2309      2313      2311
 -1       852    8    0    1
 -2       356       355       504      1865      2314      2315
 -1       853    8    0    1
 -2       355       503       504      2312      2316      2314
 -1       854    8    0    1
 -2       357       356       505      1868      2317      2318
 -1       855    8    0    1
 -2       356       504       505      2315      2319      2317
 -1       856    8    0    1
 -2       358       357       506      1871      2320      2321
 -1       857    8    0    1
 -2       357       505       506      2318      2322      2320
 -1       858    8    0    1
 -2       359       358       507      1874      2323      2324
 -1       859    8    0    1
 -2       358       506       507      2321      2325      2323
 -1       860    8    0    1
 -2       360       359       508      1877      2326      2327
 -1       861    8    0    1
 -2       359       507       508      2324      2328      2326
 -1       862    8    0    1
 -2       361       360       509      1880      2329      2330
 -1       863    8    0    1
 -2       360       508       509      2327      2331      2329
 -1       864    8    0    1
 -2       362       361       510      1883      2332      2333
 -1       865    8    0    1
 -2       361       509       510      2330      2334      2332
 -1       866    8    0    1
 -2       363       362       511      1886      2335      2336
 -1       867    8    0    1
 -2       362       510       511      2333      2337      2335
 -1       868    8    0    1
 -2       364       363       512      1889      2338      2339
 -1       869    8    0    1
 -2       363       511       512      2336      2340      2338
 -1       870    8    0    1
 -2       365       364       513      1892      2341      2342
 -1       871    8    0    1
 -2       364       512       513      2339      2343      2341
 -1       872    8    0    1
 -2       366       365       514      1895      2344      2345
 -1       873    8    0    1
 -2       365       513       514      2342      2346      2344
 -1       874    8    0    1
 -2       367       366       515      1898      2347      2348
 -1       875    8    0    1
 -2       366       514       515      2345      2349      2347
 -1       876    8    0    1
 -2       368       367       516      1901      2350      2351
 -1       877    8    0    1
 -2       367       515       516      2348      2352      2350
 -1       878    8    0    1
 -2       369       368       517      1904      2353      2354
 -1       879    8    0    1
 -2       368       516       517      2351      2355      2353
 -1       880    8    0    1
 -2       370       369       518      1907      2356      2357
 -1       881    8    0    1
 -2       369       517       518      2354      2358      2356
 -1       882    8    0    1
 -2       371       370       519      1910      2359      2360
 -1       883    8    0    1
 -2       370       518       519      2357      2361      2359
 -1       884    8    0    1
 -2       372       371       520      1913      2362      2363
 -1       885    8    0    1
 -2       371       519       520      2360      2364      2362
 -1       886    8    0    1
 -2       373       372       521      1916      2365      2366
 -1       887    8    0    1
 -2       338       385       522      1948      2367      2368
 -1       888    8    0    1
 -2       338       522       485      2368      2369      2259
 -1       889    8    0    1
 -2       472       446       523      2194      2370      2371
 -1       890    8    0    1
 -2       379       378       524      1930      2372      2373
 -1       891    8    0    1
 -2       380       379       525      1933      2374      2375
 -1       892    8    0    1
 -2       379       524       525      2373      2376      2374
 -1       893    8    0    1
 -2       381       380       526      1936      2377      2378
 -1       894    8    0    1
 -2       380       525       526      2375      2379      2377
 -1       895    8    0    1
 -2       382       381       527      1939      2380      2381
 -1       896    8    0    1
 -2       381       526       527      2378      2382      2380
 -1       897    8    0    1
 -2       383       382       528      1942      2383      2384
 -1       898    8    0    1
 -2       487       383       528      2264      2384      2385
 -1       899    8    0    1
 -2       382       527       528      2381      2386      2383
 -1       900    8    0    1
 -2       387       388       529      1956      2387      2388
 -1       901    8    0    1
 -2       385       387       530      1953      2389      2390
 -1       902    8    0    1
 -2       522       385       530      2367      2390      2391
 -1       903    8    0    1
 -2       387       529       530      2388      2392      2389
 -1       904    8    0    1
 -2       389       390       531      1962      2393      2394
 -1       905    8    0    1
 -2       390       391       532      1965      2395      2396
 -1       906    8    0    1
 -2       390       532       531      2396      2397      2393
 -1       907    8    0    1
 -2       391       392       533      1968      2398      2399
 -1       908    8    0    1
 -2       391       533       532      2399      2400      2395
 -1       909    8    0    1
 -2       392       393       534      1971      2401      2402
 -1       910    8    0    1
 -2       392       534       533      2402      2403      2398
 -1       911    8    0    1
 -2       393       394       535      1974      2404      2405
 -1       912    8    0    1
 -2       393       535       534      2405      2406      2401
 -1       913    8    0    1
 -2       394       395       536      1977      2407      2408
 -1       914    8    0    1
 -2       394       536       535      2408      2409      2404
 -1       915    8    0    1
 -2       395       396       537      1980      2410      2411
 -1       916    8    0    1
 -2       395       537       536      2411      2412      2407
 -1       917    8    0    1
 -2       396       397       538      1983      2413      2414
 -1       918    8    0    1
 -2       396       538       537      2414      2415      2410
 -1       919    8    0    1
 -2       397       398       539      1986      2416      2417
 -1       920    8    0    1
 -2       397       539       538      2417      2418      2413
 -1       921    8    0    1
 -2       398       399       540      1989      2419      2420
 -1       922    8    0    1
 -2       398       540       539      2420      2421      2416
 -1       923    8    0    1
 -2       399       400       541      1992      2422      2423
 -1       924    8    0    1
 -2       399       541       540      2423      2424      2419
 -1       925    8    0    1
 -2       400       401       542      1995      2425      2426
 -1       926    8    0    1
 -2       400       542       541      2426      2427      2422
 -1       927    8    0    1
 -2       401       402       543      1998      2428      2429
 -1       928    8    0    1
 -2       401       543       542      2429      2430      2425
 -1       929    8    0    1
 -2       402       403       544      2001      2431      2432
 -1       930    8    0    1
 -2       402       544       543      2432      2433      2428
 -1       931    8    0    1
 -2       403       404       545      2004      2434      2435
 -1       932    8    0    1
 -2       403       545       544      2435      2436      2431
 -1       933    8    0    1
 -2       404       405       546      2007      2437      2438
 -1       934    8    0    1
 -2       404       546       545      2438      2439      2434
 -1       935    8    0    1
 -2       405       406       547      2010      2440      2441
 -1       936    8    0    1
 -2       405       547       546      2441      2442      2437
 -1       937    8    0    1
 -2       406       407       548      2013      2443      2444
 -1       938    8    0    1
 -2       406       548       547      2444      2445      2440
 -1       939    8    0    1
 -2       407       408       549      2016      2446      2447
 -1       940    8    0    1
 -2       407       549       548      2447      2448      2443
 -1       941    8    0    1
 -2       408       409       550      2019      2449      2450
 -1       942    8    0    1
 -2       408       550       549      2450      2451      2446
 -1       943    8    0    1
 -2       409       410       551      2022      2452      2453
 -1       944    8    0    1
 -2       409       551       550      2453      2454      2449
 -1       945    8    0    1
 -2       410       411       552      2025      2455      2456
 -1       946    8    0    1
 -2       410       552       551      2456      2457      2452
 -1       947    8    0    1
 -2       411       412       553      2028      2458      2459
 -1       948    8    0    1
 -2       411       553       552      2459      2460      2455
 -1       949    8    0    1
 -2       412       413       554      2031      2461      2462
 -1       950    8    0    1
 -2       412       554       553      2462      2463      2458
 -1       951    8    0    1
 -2       413       414       555      2034      2464      2465
 -1       952    8    0    1
 -2       413       555       554      2465      2466      2461
 -1       953    8    0    1
 -2       414       415       556      2037      2467      2468
 -1       954    8    0    1
 -2       414       556       555      2468      2469      2464
 -1       955    8    0    1
 -2       415       416       557      2040      2470      2471
 -1       956    8    0    1
 -2       415       557       556      2471      2472      2467
 -1       957    8    0    1
 -2       416       417       558      2043      2473      2474
 -1       958    8    0    1
 -2       416       558       557      2474      2475      2470
 -1       959    8    0    1
 -2       417       418       559      2046      2476      2477
 -1       960    8    0    1
 -2       417       559       558      2477      2478      2473
 -1       961    8    0    1
 -2       418       419       560      2049      2479      2480
 -1       962    8    0    1
 -2       418       560       559      2480      2481      2476
 -1       963    8    0    1
 -2       419       420       561      2052      2482      2483
 -1       964    8    0    1
 -2       419       561       560      2483      2484      2479
 -1       965    8    0    1
 -2       420       421       562      2055      2485      2486
 -1       966    8    0    1
 -2       420       562       561      2486      2487      2482
 -1       967    8    0    1
 -2       421       422       563      2058      2488      2489
 -1       968    8    0    1
 -2       421       563       562      2489      2490      2485
 -1       969    8    0    1
 -2       422       423       564      2061      2491      2492
 -1       970    8    0    1
 -2       422       564       563      2492      2493      2488
 -1       971    8    0    1
 -2       423       424       565      2064      2494      2495
 -1       972    8    0    1
 -2       423       565       564      2495      2496      2491
 -1       973    8    0    1
 -2       424       425       566      2067      2497      2498
 -1       974    8    0    1
 -2       424       566       565      2498      2499      2494
 -1       975    8    0    1
 -2       425       426       567      2070      2500      2501
 -1       976    8    0    1
 -2       425       567       566      2501      2502      2497
 -1       977    8    0    1
 -2       426       427       568      2073      2503      2504
 -1       978    8    0    1
 -2       426       568       567      2504      2505      2500
 -1       979    8    0    1
 -2       427       428       569      2076      2506      2507
 -1       980    8    0    1
 -2       427       569       568      2507      2508      2503
 -1       981    8    0    1
 -2       428       429       570      2079      2509      2510
 -1       982    8    0    1
 -2       428       570       569      2510      2511      2506
 -1       983    8    0    1
 -2       429       430       571      2082      2512      2513
 -1       984    8    0    1
 -2       429       571       570      2513      2514      2509
 -1       985    8    0    1
 -2       430       431       434      2085      2094      2515
 -1       986    8    0    1
 -2       435       436       572      2101      2516      2517
 -1       987    8    0    1
 -2       436       437       573      2104      2518      2519
 -1       988    8    0    1
 -2       436       573       572      2519      2520      2516
 -1       989    8    0    1
 -2       433       432       574      2091      2521      2522
 -1       990    8    0    1
 -2       432       435       575      2098      2523      2524
 -1       991    8    0    1
 -2       574       432       575      2521      2524      2525
 -1       992    8    0    1
 -2       435       572       575      2517      2526      2523
 -1       993    8    0    1
 -2       437       438       576      2107      2527      2528
 -1       994    8    0    1
 -2       437       576       573      2528      2529      2518
 -1       995    8    0    1
 -2       438       439       577      2110      2530      2531
 -1       996    8    0    1
 -2       438       577       576      2531      2532      2527
 -1       997    8    0    1
 -2       439       440       578      2113      2533      2534
 -1       998    8    0    1
 -2       439       578       577      2534      2535      2530
 -1       999    8    0    1
 -2       440       441       579      2116      2536      2537
 -1      1000    8    0    1
 -2       440       579       578      2537      2538      2533
 -1      1001    8    0    1
 -2       441       442       580      2119      2539      2540
 -1      1002    8    0    1
 -2       441       580       579      2540      2541      2536
 -1      1003    8    0    1
 -2       442       443       581      2122      2542      2543
 -1      1004    8    0    1
 -2       442       581       580      2543      2544      2539
 -1      1005    8    0    1
 -2       443       444       487      2125      2263      2545
 -1      1006    8    0    1
 -2       451       452       582      2203      2546      2547
 -1      1007    8    0    1
 -2       450       451       583      2225      2548      2549
 -1      1008    8    0    1
 -2       451       582       583      2547      2550      2548
 -1      1009    8    0    1
 -2       339       325       584      2197      2551      2552
 -1      1010    8    0    1
 -2       486       339       584      2260      2552      2553
 -1      1011    8    0    1
 -2       325       324       584      1772      2554      2551
 -1      1012    8    0    1
 -2       473       386       585      2195      2555      2556
 -1      1013    8    0    1
 -2       375       316       467      2177      2180      2557
 -1      1014    8    0    1
 -2       457       458       586      2219      2558      2559
 -1      1015    8    0    1
 -2       388       389       587      1959      2560      2561
 -1      1016    8    0    1
 -2       529       388       587      2387      2561      2562
 -1      1017    8    0    1
 -2       389       531       587      2394      2563      2560
 -1      1018    8    0    1
 -2       386       445       588      2202      2564      2565
 -1      1019    8    0    1
 -2       386       588       585      2565      2566      2555
 -1      1020    8    0    1
 -2       328       329       589      1783      2567      2568
 -1      1021    8    0    1
 -2       476       328       589      2231      2568      2569
 -1      1022    8    0    1
 -2       329       478       589      2237      2570      2567
 -1      1023    8    0    1
 -2       449       450       590      2226      2571      2572
 -1      1024    8    0    1
 -2       448       449       591      2204      2573      2574
 -1      1025    8    0    1
 -2       452       453       592      2149      2575      2576
 -1      1026    8    0    1
 -2       460       461       593      2230      2577      2578
 -1      1027    8    0    1
 -2       453       454       594      2222      2579      2580
 -1      1028    8    0    1
 -2       453       594       592      2580      2581      2575
 -1      1029    8    0    1
 -2       455       456       595      2221      2582      2583
 -1      1030    8    0    1
 -2       456       457       596      2220      2584      2585
 -1      1031    8    0    1
 -2       456       596       595      2585      2586      2582
 -1      1032    8    0    1
 -2       458       459       597      2162      2587      2588
 -1      1033    8    0    1
 -2       459       460       598      2218      2589      2590
 -1      1034    8    0    1
 -2       459       598       597      2590      2591      2587
 -1      1035    8    0    1
 -2       461       462       599      2217      2592      2593
 -1      1036    8    0    1
 -2       462       463       521      2216      2594      2595
 -1      1037    8    0    1
 -2       469       470       600      2209      2596      2597
 -1      1038    8    0    1
 -2       470       471       601      2208      2598      2599
 -1      1039    8    0    1
 -2       471       472       602      2207      2600      2601
 -1      1040    8    0    1
 -2       471       602       601      2601      2602      2598
 -1      1041    8    0    1
 -2       446       473       603      2206      2603      2604
 -1      1042    8    0    1
 -2       326       477       604      2234      2605      2606
 -1      1043    8    0    1
 -2       326       604       447      2606      2607      2135
 -1      1044    8    0    1
 -2       472       523       602      2371      2608      2600
 -1      1045    8    0    1
 -2       588       445       488      2564      2268      2609
 -1      1046    8    0    1
 -2       488       448       591      2267      2574      2610
 -1      1047    8    0    1
 -2       373       521       463      2366      2594      2611
 -1      1048    8    0    1
 -2       521       372       520      2365      2363      2612
 -1      1049    8    0    1
 -2       523       446       603      2370      2604      2613
 -1      1050    8    0    1
 -2       430       434       571      2515      2614      2512
 -1      1051    8    0    1
 -2       593       461       599      2577      2593      2615
 -1      1052    8    0    1
 -2       434       433       571      2095      2616      2614
 -1      1053    8    0    1
 -2       443       487       581      2545      2617      2542
 -1      1054    8    0    1
 -2       582       452       592      2546      2576      2618
 -1      1055    8    0    1
 -2       450       583       590      2549      2619      2571
 -1      1056    8    0    1
 -2       324       447       605      2134      2620      2621
 -1      1057    8    0    1
 -2       584       324       605      2554      2621      2622
 -1      1058    8    0    1
 -2       447       604       605      2607      2623      2620
 -1      1059    8    0    1
 -2       586       458       597      2558      2588      2624
 -1      1060    8    0    1
 -2       600       470       601      2596      2599      2625
 -1      1061    8    0    1
 -2       598       460       593      2589      2578      2626
 -1      1062    8    0    1
 -2       596       457       586      2584      2559      2627
 -1      1063    8    0    1
 -2       594       454       606      2579      2628      2629
 -1      1064    8    0    1
 -2       454       475       606      2228      2630      2628
 -1      1065    8    0    1
 -2       474       373       464      2223      2631      2632
 -1      1066    8    0    1
 -2       455       595       607      2583      2633      2634
 -1      1067    8    0    1
 -2       455       607       475      2634      2635      2229
 -1      1068    8    0    1
 -2       378       377       469      1927      2636      2637
 -1      1069    8    0    1
 -2       591       449       590      2573      2572      2638
 -1      1070    8    0    1
 -2       473       585       603      2556      2639      2603
 -1      1071    8    0    1
 -2       373       463       464      2611      2215      2631
 -1      1072    8    0    1
 -2       469       377       468      2636      2640      2210
 -1      1073    8    0    1
 -2       468       377       467      2640      2641      2211
 -1      1074    8    0    1
 -2       378       469       600      2637      2597      2642
 -1      1075    8    0    1
 -2       474       464       465      2632      2214      2643
 -1      1076    8    0    1
 -2       571       433       574      2616      2522      2644
 -1      1077    8    0    1
 -2       599       462       521      2592      2595      2645
 -1      1078    8    0    1
 -2       378       600       524      2642      2646      2372
 -1      1079    8    0    1
 -2       479       480       608      2243      2647      2648
 -1      1080    8    0    1
 -2       478       479       609      2240      2649      2650
 -1      1081    8    0    1
 -2       479       608       609      2648      2651      2649
 -1      1082    8    0    1
 -2       481       482       610      2249      2652      2653
 -1      1083    8    0    1
 -2       482       483       611      2252      2654      2655
 -1      1084    8    0    1
 -2       482       611       610      2655      2656      2652
 -1      1085    8    0    1
 -2       483       484       612      2255      2657      2658
 -1      1086    8    0    1
 -2       483       612       611      2658      2659      2654
 -1      1087    8    0    1
 -2       484       485       613      2258      2660      2661
 -1      1088    8    0    1
 -2       612       484       613      2657      2661      2662
 -1      1089    8    0    1
 -2       485       522       613      2369      2663      2660
 -1      1090    8    0    1
 -2       486       584       614      2553      2664      2665
 -1      1091    8    0    1
 -2       584       605       614      2622      2666      2664
 -1      1092    8    0    1
 -2       532       533       615      2400      2667      2668
 -1      1093    8    0    1
 -2       489       486       616      2271      2669      2670
 -1      1094    8    0    1
 -2       486       614       616      2665      2671      2669
 -1      1095    8    0    1
 -2       220       374       466      1918      2672      2265
 -1      1096    8    0    1
 -2       490       489       617      2274      2673      2674
 -1      1097    8    0    1
 -2       489       616       617      2670      2675      2673
 -1      1098    8    0    1
 -2       491       490       618      2277      2676      2677
 -1      1099    8    0    1
 -2       490       617       618      2674      2678      2676
 -1      1100    8    0    1
 -2       492       491       619      2280      2679      2680
 -1      1101    8    0    1
 -2       491       618       619      2677      2681      2679
 -1      1102    8    0    1
 -2       493       492       620      2283      2682      2683
 -1      1103    8    0    1
 -2       492       619       620      2680      2684      2682
 -1      1104    8    0    1
 -2       494       493       621      2286      2685      2686
 -1      1105    8    0    1
 -2       493       620       621      2683      2687      2685
 -1      1106    8    0    1
 -2       495       494       622      2289      2688      2689
 -1      1107    8    0    1
 -2       494       621       622      2686      2690      2688
 -1      1108    8    0    1
 -2       496       495       623      2292      2691      2692
 -1      1109    8    0    1
 -2       495       622       623      2689      2693      2691
 -1      1110    8    0    1
 -2       497       496       624      2295      2694      2695
 -1      1111    8    0    1
 -2       496       623       624      2692      2696      2694
 -1      1112    8    0    1
 -2       498       497       625      2298      2697      2698
 -1      1113    8    0    1
 -2       497       624       625      2695      2699      2697
 -1      1114    8    0    1
 -2       499       498       626      2301      2700      2701
 -1      1115    8    0    1
 -2       498       625       626      2698      2702      2700
 -1      1116    8    0    1
 -2       500       499       627      2304      2703      2704
 -1      1117    8    0    1
 -2       499       626       627      2701      2705      2703
 -1      1118    8    0    1
 -2       501       500       628      2307      2706      2707
 -1      1119    8    0    1
 -2       500       627       628      2704      2708      2706
 -1      1120    8    0    1
 -2       502       501       629      2310      2709      2710
 -1      1121    8    0    1
 -2       501       628       629      2707      2711      2709
 -1      1122    8    0    1
 -2       503       502       630      2313      2712      2713
 -1      1123    8    0    1
 -2       502       629       630      2710      2714      2712
 -1      1124    8    0    1
 -2       504       503       631      2316      2715      2716
 -1      1125    8    0    1
 -2       503       630       631      2713      2717      2715
 -1      1126    8    0    1
 -2       505       504       632      2319      2718      2719
 -1      1127    8    0    1
 -2       504       631       632      2716      2720      2718
 -1      1128    8    0    1
 -2       506       505       633      2322      2721      2722
 -1      1129    8    0    1
 -2       505       632       633      2719      2723      2721
 -1      1130    8    0    1
 -2       507       506       634      2325      2724      2725
 -1      1131    8    0    1
 -2       506       633       634      2722      2726      2724
 -1      1132    8    0    1
 -2       508       507       635      2328      2727      2728
 -1      1133    8    0    1
 -2       507       634       635      2725      2729      2727
 -1      1134    8    0    1
 -2       509       508       636      2331      2730      2731
 -1      1135    8    0    1
 -2       508       635       636      2728      2732      2730
 -1      1136    8    0    1
 -2       510       509       637      2334      2733      2734
 -1      1137    8    0    1
 -2       509       636       637      2731      2735      2733
 -1      1138    8    0    1
 -2       511       510       638      2337      2736      2737
 -1      1139    8    0    1
 -2       510       637       638      2734      2738      2736
 -1      1140    8    0    1
 -2       512       511       639      2340      2739      2740
 -1      1141    8    0    1
 -2       511       638       639      2737      2741      2739
 -1      1142    8    0    1
 -2       513       512       640      2343      2742      2743
 -1      1143    8    0    1
 -2       512       639       640      2740      2744      2742
 -1      1144    8    0    1
 -2       514       513       641      2346      2745      2746
 -1      1145    8    0    1
 -2       513       640       641      2743      2747      2745
 -1      1146    8    0    1
 -2       515       514       642      2349      2748      2749
 -1      1147    8    0    1
 -2       514       641       642      2746      2750      2748
 -1      1148    8    0    1
 -2       516       515       643      2352      2751      2752
 -1      1149    8    0    1
 -2       515       642       643      2749      2753      2751
 -1      1150    8    0    1
 -2       517       516       644      2355      2754      2755
 -1      1151    8    0    1
 -2       516       643       644      2752      2756      2754
 -1      1152    8    0    1
 -2       518       517       645      2358      2757      2758
 -1      1153    8    0    1
 -2       517       644       645      2755      2759      2757
 -1      1154    8    0    1
 -2       519       518       646      2361      2760      2761
 -1      1155    8    0    1
 -2       518       645       646      2758      2762      2760
 -1      1156    8    0    1
 -2       520       519       646      2364      2761      2763
 -1      1157    8    0    1
 -2       466       374       465      2672      2764      2213
 -1      1158    8    0    1
 -2       488       591       647      2610      2765      2766
 -1      1159    8    0    1
 -2       585       588       648      2566      2767      2768
 -1      1160    8    0    1
 -2       526       525       649      2379      2769      2770
 -1      1161    8    0    1
 -2       527       526       650      2382      2771      2772
 -1      1162    8    0    1
 -2       526       649       650      2770      2773      2771
 -1      1163    8    0    1
 -2       533       534       651      2403      2774      2775
 -1      1164    8    0    1
 -2       533       651       615      2775      2776      2667
 -1      1165    8    0    1
 -2       531       532       652      2397      2777      2778
 -1      1166    8    0    1
 -2       532       615       652      2668      2779      2777
 -1      1167    8    0    1
 -2       534       535       653      2406      2780      2781
 -1      1168    8    0    1
 -2       534       653       651      2781      2782      2774
 -1      1169    8    0    1
 -2       535       536       654      2409      2783      2784
 -1      1170    8    0    1
 -2       535       654       653      2784      2785      2780
 -1      1171    8    0    1
 -2       536       537       655      2412      2786      2787
 -1      1172    8    0    1
 -2       536       655       654      2787      2788      2783
 -1      1173    8    0    1
 -2       537       538       656      2415      2789      2790
 -1      1174    8    0    1
 -2       537       656       655      2790      2791      2786
 -1      1175    8    0    1
 -2       538       539       657      2418      2792      2793
 -1      1176    8    0    1
 -2       538       657       656      2793      2794      2789
 -1      1177    8    0    1
 -2       539       540       658      2421      2795      2796
 -1      1178    8    0    1
 -2       539       658       657      2796      2797      2792
 -1      1179    8    0    1
 -2       540       541       659      2424      2798      2799
 -1      1180    8    0    1
 -2       540       659       658      2799      2800      2795
 -1      1181    8    0    1
 -2       541       542       660      2427      2801      2802
 -1      1182    8    0    1
 -2       541       660       659      2802      2803      2798
 -1      1183    8    0    1
 -2       542       543       661      2430      2804      2805
 -1      1184    8    0    1
 -2       542       661       660      2805      2806      2801
 -1      1185    8    0    1
 -2       543       544       662      2433      2807      2808
 -1      1186    8    0    1
 -2       543       662       661      2808      2809      2804
 -1      1187    8    0    1
 -2       544       545       663      2436      2810      2811
 -1      1188    8    0    1
 -2       544       663       662      2811      2812      2807
 -1      1189    8    0    1
 -2       545       546       664      2439      2813      2814
 -1      1190    8    0    1
 -2       545       664       663      2814      2815      2810
 -1      1191    8    0    1
 -2       546       547       665      2442      2816      2817
 -1      1192    8    0    1
 -2       546       665       664      2817      2818      2813
 -1      1193    8    0    1
 -2       547       548       666      2445      2819      2820
 -1      1194    8    0    1
 -2       547       666       665      2820      2821      2816
 -1      1195    8    0    1
 -2       548       549       667      2448      2822      2823
 -1      1196    8    0    1
 -2       548       667       666      2823      2824      2819
 -1      1197    8    0    1
 -2       549       550       668      2451      2825      2826
 -1      1198    8    0    1
 -2       549       668       667      2826      2827      2822
 -1      1199    8    0    1
 -2       550       551       669      2454      2828      2829
 -1      1200    8    0    1
 -2       550       669       668      2829      2830      2825
 -1      1201    8    0    1
 -2       551       552       670      2457      2831      2832
 -1      1202    8    0    1
 -2       551       670       669      2832      2833      2828
 -1      1203    8    0    1
 -2       552       553       671      2460      2834      2835
 -1      1204    8    0    1
 -2       552       671       670      2835      2836      2831
 -1      1205    8    0    1
 -2       553       554       672      2463      2837      2838
 -1      1206    8    0    1
 -2       553       672       671      2838      2839      2834
 -1      1207    8    0    1
 -2       554       555       673      2466      2840      2841
 -1      1208    8    0    1
 -2       554       673       672      2841      2842      2837
 -1      1209    8    0    1
 -2       555       556       674      2469      2843      2844
 -1      1210    8    0    1
 -2       555       674       673      2844      2845      2840
 -1      1211    8    0    1
 -2       556       557       675      2472      2846      2847
 -1      1212    8    0    1
 -2       556       675       674      2847      2848      2843
 -1      1213    8    0    1
 -2       557       558       676      2475      2849      2850
 -1      1214    8    0    1
 -2       557       676       675      2850      2851      2846
 -1      1215    8    0    1
 -2       558       559       677      2478      2852      2853
 -1      1216    8    0    1
 -2       558       677       676      2853      2854      2849
 -1      1217    8    0    1
 -2       559       560       678      2481      2855      2856
 -1      1218    8    0    1
 -2       559       678       677      2856      2857      2852
 -1      1219    8    0    1
 -2       560       561       679      2484      2858      2859
 -1      1220    8    0    1
 -2       560       679       678      2859      2860      2855
 -1      1221    8    0    1
 -2       561       562       680      2487      2861      2862
 -1      1222    8    0    1
 -2       561       680       679      2862      2863      2858
 -1      1223    8    0    1
 -2       562       563       681      2490      2864      2865
 -1      1224    8    0    1
 -2       562       681       680      2865      2866      2861
 -1      1225    8    0    1
 -2       563       564       682      2493      2867      2868
 -1      1226    8    0    1
 -2       563       682       681      2868      2869      2864
 -1      1227    8    0    1
 -2       564       565       683      2496      2870      2871
 -1      1228    8    0    1
 -2       564       683       682      2871      2872      2867
 -1      1229    8    0    1
 -2       565       566       684      2499      2873      2874
 -1      1230    8    0    1
 -2       565       684       683      2874      2875      2870
 -1      1231    8    0    1
 -2       566       567       685      2502      2876      2877
 -1      1232    8    0    1
 -2       566       685       684      2877      2878      2873
 -1      1233    8    0    1
 -2       567       568       686      2505      2879      2880
 -1      1234    8    0    1
 -2       567       686       685      2880      2881      2876
 -1      1235    8    0    1
 -2       568       569       687      2508      2882      2883
 -1      1236    8    0    1
 -2       568       687       686      2883      2884      2879
 -1      1237    8    0    1
 -2       569       570       688      2511      2885      2886
 -1      1238    8    0    1
 -2       569       688       687      2886      2887      2882
 -1      1239    8    0    1
 -2       570       571       689      2514      2888      2889
 -1      1240    8    0    1
 -2       688       570       689      2885      2889      2890
 -1      1241    8    0    1
 -2       571       574       689      2644      2891      2888
 -1      1242    8    0    1
 -2       576       577       690      2532      2892      2893
 -1      1243    8    0    1
 -2       599       521       520      2645      2612      2894
 -1      1244    8    0    1
 -2       572       573       691      2520      2895      2896
 -1      1245    8    0    1
 -2       577       578       692      2535      2897      2898
 -1      1246    8    0    1
 -2       577       692       690      2898      2899      2892
 -1      1247    8    0    1
 -2       573       576       693      2529      2900      2901
 -1      1248    8    0    1
 -2       691       573       693      2895      2901      2902
 -1      1249    8    0    1
 -2       576       690       693      2893      2903      2900
 -1      1250    8    0    1
 -2       578       579       694      2538      2904      2905
 -1      1251    8    0    1
 -2       578       694       692      2905      2906      2897
 -1      1252    8    0    1
 -2       579       580       695      2541      2907      2908
 -1      1253    8    0    1
 -2       579       695       694      2908      2909      2904
 -1      1254    8    0    1
 -2       580       581       696      2544      2910      2911
 -1      1255    8    0    1
 -2       580       696       695      2911      2912      2907
 -1      1256    8    0    1
 -2       582       592       697      2618      2913      2914
 -1      1257    8    0    1
 -2       583       582       698      2550      2915      2916
 -1      1258    8    0    1
 -2       602       523       699      2608      2917      2918
 -1      1259    8    0    1
 -2       588       488       700      2609      2919      2920
 -1      1260    8    0    1
 -2       581       487       701      2617      2921      2922
 -1      1261    8    0    1
 -2       591       590       702      2638      2923      2924
 -1      1262    8    0    1
 -2       591       702       647      2924      2925      2765
 -1      1263    8    0    1
 -2       480       481       703      2246      2926      2927
 -1      1264    8    0    1
 -2       608       480       703      2647      2927      2928
 -1      1265    8    0    1
 -2       481       610       703      2653      2929      2926
 -1      1266    8    0    1
 -2       590       583       704      2619      2930      2931
 -1      1267    8    0    1
 -2       596       586       705      2627      2932      2933
 -1      1268    8    0    1
 -2       477       476       706      2235      2934      2935
 -1      1269    8    0    1
 -2       592       594       707      2581      2936      2937
 -1      1270    8    0    1
 -2       600       601       524      2625      2938      2646
 -1      1271    8    0    1
 -2       595       596       708      2586      2939      2940
 -1      1272    8    0    1
 -2       597       598       709      2591      2941      2942
 -1      1273    8    0    1
 -2       603       585       710      2639      2943      2944
 -1      1274    8    0    1
 -2       585       648       710      2768      2945      2943
 -1      1275    8    0    1
 -2       474       465       374      2643      2764      2266
 -1      1276    8    0    1
 -2       598       593       711      2626      2946      2947
 -1      1277    8    0    1
 -2       601       602       712      2602      2948      2949
 -1      1278    8    0    1
 -2       602       699       712      2918      2950      2948
 -1      1279    8    0    1
 -2       523       603       713      2613      2951      2952
 -1      1280    8    0    1
 -2       586       597       714      2624      2953      2954
 -1      1281    8    0    1
 -2       478       609       715      2650      2955      2956
 -1      1282    8    0    1
 -2       478       715       589      2956      2957      2570
 -1      1283    8    0    1
 -2       476       589       716      2569      2958      2959
 -1      1284    8    0    1
 -2       706       476       716      2934      2959      2960
 -1      1285    8    0    1
 -2       589       715       716      2957      2961      2958
 -1      1286    8    0    1
 -2       531       652       717      2778      2962      2963
 -1      1287    8    0    1
 -2       531       717       587      2963      2964      2563
 -1      1288    8    0    1
 -2       711       593       718      2946      2965      2966
 -1      1289    8    0    1
 -2       649       525       712      2769      2967      2968
 -1      1290    8    0    1
 -2       648       588       700      2767      2920      2969
 -1      1291    8    0    1
 -2       714       597       709      2953      2942      2970
 -1      1292    8    0    1
 -2       487       528       701      2385      2971      2921
 -1      1293    8    0    1
 -2       528       527       719      2386      2972      2973
 -1      1294    8    0    1
 -2       701       528       719      2971      2973      2974
 -1      1295    8    0    1
 -2       527       650       719      2772      2975      2972
 -1      1296    8    0    1
 -2       530       529       720      2392      2976      2977
 -1      1297    8    0    1
 -2       689       574       721      2891      2978      2979
 -1      1298    8    0    1
 -2       574       575       721      2525      2980      2978
 -1      1299    8    0    1
 -2       593       599       718      2615      2981      2965
 -1      1300    8    0    1
 -2       599       520       718      2894      2982      2981
 -1      1301    8    0    1
 -2       698       582       697      2915      2914      2983
 -1      1302    8    0    1
 -2       696       581       701      2910      2922      2984
 -1      1303    8    0    1
 -2       697       592       707      2913      2937      2985
 -1      1304    8    0    1
 -2       583       698       704      2916      2986      2930
 -1      1305    8    0    1
 -2       523       713       699      2952      2987      2917
 -1      1306    8    0    1
 -2       604       477       722      2605      2988      2989
 -1      1307    8    0    1
 -2       477       706       722      2935      2990      2988
 -1      1308    8    0    1
 -2       529       587       723      2562      2991      2992
 -1      1309    8    0    1
 -2       587       717       723      2964      2993      2991
 -1      1310    8    0    1
 -2       607       595       724      2633      2994      2995
 -1      1311    8    0    1
 -2       595       708       724      2940      2996      2994
 -1      1312    8    0    1
 -2       606       475       607      2630      2635      2997
 -1      1313    8    0    1
 -2       575       572       725      2526      2998      2999
 -1      1314    8    0    1
 -2       721       575       725      2980      2999      3000
 -1      1315    8    0    1
 -2       572       691       725      2896      3001      2998
 -1      1316    8    0    1
 -2       702       590       704      2923      2931      3002
 -1      1317    8    0    1
 -2       377       376       467      2201      3003      2641
 -1      1318    8    0    1
 -2       525       524       712      2376      3004      2967
 -1      1319    8    0    1
 -2       705       586       714      2932      2954      3005
 -1      1320    8    0    1
 -2       700       488       647      2919      2766      3006
 -1      1321    8    0    1
 -2       707       594       726      2936      3007      3008
 -1      1322    8    0    1
 -2       594       606       726      2629      3009      3007
 -1      1323    8    0    1
 -2       596       705       708      2933      3010      2939
 -1      1324    8    0    1
 -2       529       723       720      2992      3011      2976
 -1      1325    8    0    1
 -2       524       601       712      2938      2949      3004
 -1      1326    8    0    1
 -2       603       710       713      2944      3012      2951
 -1      1327    8    0    1
 -2       598       711       709      2947      3013      2941
 -1      1328    8    0    1
 -2       611       612       727      2659      3014      3015
 -1      1329    8    0    1
 -2       610       611       728      2656      3016      3017
 -1      1330    8    0    1
 -2       611       727       728      3015      3018      3016
 -1      1331    8    0    1
 -2       613       522       530      2663      2391      3019
 -1      1332    8    0    1
 -2       616       614       729      2671      3020      3021
 -1      1333    8    0    1
 -2       705       714       730      3005      3022      3023
 -1      1334    8    0    1
 -2       649       712       699      2968      2950      3024
 -1      1335    8    0    1
 -2       650       649       731      2773      3025      3026
 -1      1336    8    0    1
 -2       617       616       732      2675      3027      3028
 -1      1337    8    0    1
 -2       616       729       732      3021      3029      3027
 -1      1338    8    0    1
 -2       618       617       733      2678      3030      3031
 -1      1339    8    0    1
 -2       617       732       733      3028      3032      3030
 -1      1340    8    0    1
 -2       619       618       734      2681      3033      3034
 -1      1341    8    0    1
 -2       618       733       734      3031      3035      3033
 -1      1342    8    0    1
 -2       620       619       735      2684      3036      3037
 -1      1343    8    0    1
 -2       619       734       735      3034      3038      3036
 -1      1344    8    0    1
 -2       621       620       736      2687      3039      3040
 -1      1345    8    0    1
 -2       620       735       736      3037      3041      3039
 -1      1346    8    0    1
 -2       622       621       737      2690      3042      3043
 -1      1347    8    0    1
 -2       621       736       737      3040      3044      3042
 -1      1348    8    0    1
 -2       623       622       738      2693      3045      3046
 -1      1349    8    0    1
 -2       622       737       738      3043      3047      3045
 -1      1350    8    0    1
 -2       624       623       739      2696      3048      3049
 -1      1351    8    0    1
 -2       623       738       739      3046      3050      3048
 -1      1352    8    0    1
 -2       625       624       740      2699      3051      3052
 -1      1353    8    0    1
 -2       624       739       740      3049      3053      3051
 -1      1354    8    0    1
 -2       626       625       741      2702      3054      3055
 -1      1355    8    0    1
 -2       625       740       741      3052      3056      3054
 -1      1356    8    0    1
 -2       627       626       742      2705      3057      3058
 -1      1357    8    0    1
 -2       626       741       742      3055      3059      3057
 -1      1358    8    0    1
 -2       628       627       743      2708      3060      3061
 -1      1359    8    0    1
 -2       627       742       743      3058      3062      3060
 -1      1360    8    0    1
 -2       629       628       744      2711      3063      3064
 -1      1361    8    0    1
 -2       628       743       744      3061      3065      3063
 -1      1362    8    0    1
 -2       630       629       745      2714      3066      3067
 -1      1363    8    0    1
 -2       629       744       745      3064      3068      3066
 -1      1364    8    0    1
 -2       631       630       746      2717      3069      3070
 -1      1365    8    0    1
 -2       630       745       746      3067      3071      3069
 -1      1366    8    0    1
 -2       632       631       747      2720      3072      3073
 -1      1367    8    0    1
 -2       631       746       747      3070      3074      3072
 -1      1368    8    0    1
 -2       633       632       748      2723      3075      3076
 -1      1369    8    0    1
 -2       632       747       748      3073      3077      3075
 -1      1370    8    0    1
 -2       634       633       749      2726      3078      3079
 -1      1371    8    0    1
 -2       633       748       749      3076      3080      3078
 -1      1372    8    0    1
 -2       635       634       750      2729      3081      3082
 -1      1373    8    0    1
 -2       634       749       750      3079      3083      3081
 -1      1374    8    0    1
 -2       636       635       751      2732      3084      3085
 -1      1375    8    0    1
 -2       635       750       751      3082      3086      3084
 -1      1376    8    0    1
 -2       637       636       752      2735      3087      3088
 -1      1377    8    0    1
 -2       636       751       752      3085      3089      3087
 -1      1378    8    0    1
 -2       638       637       753      2738      3090      3091
 -1      1379    8    0    1
 -2       637       752       753      3088      3092      3090
 -1      1380    8    0    1
 -2       639       638       754      2741      3093      3094
 -1      1381    8    0    1
 -2       638       753       754      3091      3095      3093
 -1      1382    8    0    1
 -2       640       639       755      2744      3096      3097
 -1      1383    8    0    1
 -2       639       754       755      3094      3098      3096
 -1      1384    8    0    1
 -2       641       640       756      2747      3099      3100
 -1      1385    8    0    1
 -2       640       755       756      3097      3101      3099
 -1      1386    8    0    1
 -2       642       641       757      2750      3102      3103
 -1      1387    8    0    1
 -2       641       756       757      3100      3104      3102
 -1      1388    8    0    1
 -2       643       642       758      2753      3105      3106
 -1      1389    8    0    1
 -2       642       757       758      3103      3107      3105
 -1      1390    8    0    1
 -2       644       643       759      2756      3108      3109
 -1      1391    8    0    1
 -2       643       758       759      3106      3110      3108
 -1      1392    8    0    1
 -2       645       644       760      2759      3111      3112
 -1      1393    8    0    1
 -2       644       759       760      3109      3113      3111
 -1      1394    8    0    1
 -2       646       645       761      2762      3114      3115
 -1      1395    8    0    1
 -2       645       760       761      3112      3116      3114
 -1      1396    8    0    1
 -2       648       700       762      2969      3117      3118
 -1      1397    8    0    1
 -2       376       375       467      2200      2557      3003
 -1      1398    8    0    1
 -2       615       651       763      2776      3119      3120
 -1      1399    8    0    1
 -2       530       720       613      2977      3121      3019
 -1      1400    8    0    1
 -2       653       654       764      2785      3122      3123
 -1      1401    8    0    1
 -2       652       615       765      2779      3124      3125
 -1      1402    8    0    1
 -2       615       763       765      3120      3126      3124
 -1      1403    8    0    1
 -2       654       655       766      2788      3127      3128
 -1      1404    8    0    1
 -2       654       766       764      3128      3129      3122
 -1      1405    8    0    1
 -2       655       656       767      2791      3130      3131
 -1      1406    8    0    1
 -2       655       767       766      3131      3132      3127
 -1      1407    8    0    1
 -2       656       657       768      2794      3133      3134
 -1      1408    8    0    1
 -2       656       768       767      3134      3135      3130
 -1      1409    8    0    1
 -2       657       658       769      2797      3136      3137
 -1      1410    8    0    1
 -2       657       769       768      3137      3138      3133
 -1      1411    8    0    1
 -2       658       659       770      2800      3139      3140
 -1      1412    8    0    1
 -2       658       770       769      3140      3141      3136
 -1      1413    8    0    1
 -2       659       660       771      2803      3142      3143
 -1      1414    8    0    1
 -2       659       771       770      3143      3144      3139
 -1      1415    8    0    1
 -2       660       661       772      2806      3145      3146
 -1      1416    8    0    1
 -2       660       772       771      3146      3147      3142
 -1      1417    8    0    1
 -2       661       662       773      2809      3148      3149
 -1      1418    8    0    1
 -2       661       773       772      3149      3150      3145
 -1      1419    8    0    1
 -2       662       663       774      2812      3151      3152
 -1      1420    8    0    1
 -2       662       774       773      3152      3153      3148
 -1      1421    8    0    1
 -2       663       664       775      2815      3154      3155
 -1      1422    8    0    1
 -2       663       775       774      3155      3156      3151
 -1      1423    8    0    1
 -2       664       665       776      2818      3157      3158
 -1      1424    8    0    1
 -2       664       776       775      3158      3159      3154
 -1      1425    8    0    1
 -2       665       666       777      2821      3160      3161
 -1      1426    8    0    1
 -2       665       777       776      3161      3162      3157
 -1      1427    8    0    1
 -2       666       667       778      2824      3163      3164
 -1      1428    8    0    1
 -2       666       778       777      3164      3165      3160
 -1      1429    8    0    1
 -2       667       668       779      2827      3166      3167
 -1      1430    8    0    1
 -2       667       779       778      3167      3168      3163
 -1      1431    8    0    1
 -2       668       669       780      2830      3169      3170
 -1      1432    8    0    1
 -2       668       780       779      3170      3171      3166
 -1      1433    8    0    1
 -2       669       670       781      2833      3172      3173
 -1      1434    8    0    1
 -2       669       781       780      3173      3174      3169
 -1      1435    8    0    1
 -2       670       671       782      2836      3175      3176
 -1      1436    8    0    1
 -2       670       782       781      3176      3177      3172
 -1      1437    8    0    1
 -2       671       672       783      2839      3178      3179
 -1      1438    8    0    1
 -2       671       783       782      3179      3180      3175
 -1      1439    8    0    1
 -2       672       673       784      2842      3181      3182
 -1      1440    8    0    1
 -2       672       784       783      3182      3183      3178
 -1      1441    8    0    1
 -2       673       674       785      2845      3184      3185
 -1      1442    8    0    1
 -2       673       785       784      3185      3186      3181
 -1      1443    8    0    1
 -2       674       675       786      2848      3187      3188
 -1      1444    8    0    1
 -2       674       786       785      3188      3189      3184
 -1      1445    8    0    1
 -2       675       676       787      2851      3190      3191
 -1      1446    8    0    1
 -2       675       787       786      3191      3192      3187
 -1      1447    8    0    1
 -2       676       677       788      2854      3193      3194
 -1      1448    8    0    1
 -2       676       788       787      3194      3195      3190
 -1      1449    8    0    1
 -2       677       678       789      2857      3196      3197
 -1      1450    8    0    1
 -2       677       789       788      3197      3198      3193
 -1      1451    8    0    1
 -2       678       679       790      2860      3199      3200
 -1      1452    8    0    1
 -2       678       790       789      3200      3201      3196
 -1      1453    8    0    1
 -2       679       680       791      2863      3202      3203
 -1      1454    8    0    1
 -2       679       791       790      3203      3204      3199
 -1      1455    8    0    1
 -2       680       681       792      2866      3205      3206
 -1      1456    8    0    1
 -2       680       792       791      3206      3207      3202
 -1      1457    8    0    1
 -2       681       682       793      2869      3208      3209
 -1      1458    8    0    1
 -2       681       793       792      3209      3210      3205
 -1      1459    8    0    1
 -2       682       683       794      2872      3211      3212
 -1      1460    8    0    1
 -2       682       794       793      3212      3213      3208
 -1      1461    8    0    1
 -2       683       684       795      2875      3214      3215
 -1      1462    8    0    1
 -2       683       795       794      3215      3216      3211
 -1      1463    8    0    1
 -2       684       685       796      2878      3217      3218
 -1      1464    8    0    1
 -2       684       796       795      3218      3219      3214
 -1      1465    8    0    1
 -2       685       686       797      2881      3220      3221
 -1      1466    8    0    1
 -2       685       797       796      3221      3222      3217
 -1      1467    8    0    1
 -2       686       687       798      2884      3223      3224
 -1      1468    8    0    1
 -2       686       798       797      3224      3225      3220
 -1      1469    8    0    1
 -2       687       688       799      2887      3226      3227
 -1      1470    8    0    1
 -2       687       799       798      3227      3228      3223
 -1      1471    8    0    1
 -2       688       689       800      2890      3229      3230
 -1      1472    8    0    1
 -2       799       688       800      3226      3230      3231
 -1      1473    8    0    1
 -2       689       721       800      2979      3232      3229
 -1      1474    8    0    1
 -2       694       695       801      2909      3233      3234
 -1      1475    8    0    1
 -2       695       696       802      2912      3235      3236
 -1      1476    8    0    1
 -2       695       802       801      3236      3237      3233
 -1      1477    8    0    1
 -2       690       692       803      2899      3238      3239
 -1      1478    8    0    1
 -2       698       697       804      2983      3240      3241
 -1      1479    8    0    1
 -2       696       701       805      2984      3242      3243
 -1      1480    8    0    1
 -2       802       696       805      3235      3243      3244
 -1      1481    8    0    1
 -2       701       719       805      2974      3245      3242
 -1      1482    8    0    1
 -2       714       709       806      2970      3246      3247
 -1      1483    8    0    1
 -2       697       707       807      2985      3248      3249
 -1      1484    8    0    1
 -2       697       807       804      3249      3250      3240
 -1      1485    8    0    1
 -2       647       702       808      2925      3251      3252
 -1      1486    8    0    1
 -2       702       704       809      3002      3253      3254
 -1      1487    8    0    1
 -2       710       648       810      2945      3255      3256
 -1      1488    8    0    1
 -2       704       698       811      2986      3257      3258
 -1      1489    8    0    1
 -2       651       653       812      2782      3259      3260
 -1      1490    8    0    1
 -2       763       651       812      3119      3260      3261
 -1      1491    8    0    1
 -2       653       764       812      3123      3262      3259
 -1      1492    8    0    1
 -2       609       608       813      2651      3263      3264
 -1      1493    8    0    1
 -2       606       607       814      2997      3265      3266
 -1      1494    8    0    1
 -2       692       694       815      2906      3267      3268
 -1      1495    8    0    1
 -2       803       692       815      3238      3268      3269
 -1      1496    8    0    1
 -2       694       801       815      3234      3270      3267
 -1      1497    8    0    1
 -2       708       705       816      3010      3271      3272
 -1      1498    8    0    1
 -2       699       713       817      2987      3273      3274
 -1      1499    8    0    1
 -2       713       710       818      3012      3275      3276
 -1      1500    8    0    1
 -2       710       810       818      3256      3277      3275
 -1      1501    8    0    1
 -2       709       711       761      3013      3278      3279
 -1      1502    8    0    1
 -2       700       647       819      3006      3280      3281
 -1      1503    8    0    1
 -2       610       728       820      3017      3282      3283
 -1      1504    8    0    1
 -2       610       820       703      3283      3284      2929
 -1      1505    8    0    1
 -2       730       714       806      3022      3247      3285
 -1      1506    8    0    1
 -2       614       605       821      2666      3286      3287
 -1      1507    8    0    1
 -2       729       614       821      3020      3287      3288
 -1      1508    8    0    1
 -2       705       730       816      3023      3289      3271
 -1      1509    8    0    1
 -2       649       699       817      3024      3274      3290
 -1      1510    8    0    1
 -2       718       520       646      2982      2763      3291
 -1      1511    8    0    1
 -2       731       649       817      3025      3290      3292
 -1      1512    8    0    1
 -2       648       762       810      3118      3293      3255
 -1      1513    8    0    1
 -2       762       700       819      3117      3281      3294
 -1      1514    8    0    1
 -2       647       808       819      3252      3295      3280
 -1      1515    8    0    1
 -2       608       703       822      2928      3296      3297
 -1      1516    8    0    1
 -2       813       608       822      3263      3297      3298
 -1      1517    8    0    1
 -2       703       820       822      3284      3299      3296
 -1      1518    8    0    1
 -2       719       650       823      2975      3300      3301
 -1      1519    8    0    1
 -2       805       719       823      3245      3301      3302
 -1      1520    8    0    1
 -2       650       731       823      3026      3303      3300
 -1      1521    8    0    1
 -2       613       720       727      3121      3304      3305
 -1      1522    8    0    1
 -2       652       765       824      3125      3306      3307
 -1      1523    8    0    1
 -2       652       824       717      3307      3308      2962
 -1      1524    8    0    1
 -2       708       816       825      3272      3309      3310
 -1      1525    8    0    1
 -2       708       825       724      3310      3311      2996
 -1      1526    8    0    1
 -2       646       761       711      3115      3278      3312
 -1      1527    8    0    1
 -2       690       803       826      3239      3313      3314
 -1      1528    8    0    1
 -2       690       826       693      3314      3315      2903
 -1      1529    8    0    1
 -2       806       709       761      3246      3279      3316
 -1      1530    8    0    1
 -2       691       693       827      2902      3317      3318
 -1      1531    8    0    1
 -2       693       826       827      3315      3319      3317
 -1      1532    8    0    1
 -2       698       804       828      3241      3320      3321
 -1      1533    8    0    1
 -2       698       828       811      3321      3322      3257
 -1      1534    8    0    1
 -2       807       707       829      3248      3323      3324
 -1      1535    8    0    1
 -2       707       726       829      3008      3325      3323
 -1      1536    8    0    1
 -2       722       706       830      2990      3326      3327
 -1      1537    8    0    1
 -2       605       604       821      2623      3328      3286
 -1      1538    8    0    1
 -2       711       718       646      2966      3291      3312
 -1      1539    8    0    1
 -2       723       717       831      2993      3329      3330
 -1      1540    8    0    1
 -2       717       824       831      3308      3331      3329
 -1      1541    8    0    1
 -2       808       702       809      3251      3254      3332
 -1      1542    8    0    1
 -2       691       827       832      3318      3333      3334
 -1      1543    8    0    1
 -2       691       832       725      3334      3335      3001
 -1      1544    8    0    1
 -2       706       716       833      2960      3336      3337
 -1      1545    8    0    1
 -2       706       833       830      3337      3338      3326
 -1      1546    8    0    1
 -2       704       811       834      3258      3339      3340
 -1      1547    8    0    1
 -2       704       834       809      3340      3341      3253
 -1      1548    8    0    1
 -2       726       606       814      3009      3266      3342
 -1      1549    8    0    1
 -2       727       720       835      3304      3343      3344
 -1      1550    8    0    1
 -2       728       727       835      3018      3344      3345
 -1      1551    8    0    1
 -2       720       723       835      3011      3346      3343
 -1      1552    8    0    1
 -2       814       607       724      3265      2995      3347
 -1      1553    8    0    1
 -2       715       609       836      2955      3348      3349
 -1      1554    8    0    1
 -2       609       813       836      3264      3350      3348
 -1      1555    8    0    1
 -2       817       713       818      3273      3276      3351
 -1      1556    8    0    1
 -2       835       723       831      3346      3330      3352
 -1      1557    8    0    1
 -2       716       715       837      2961      3353      3354
 -1      1558    8    0    1
 -2       716       837       833      3354      3355      3336
 -1      1559    8    0    1
 -2       733       732       838      3032      3356      3357
 -1      1560    8    0    1
 -2       734       733       839      3035      3358      3359
 -1      1561    8    0    1
 -2       733       838       839      3357      3360      3358
 -1      1562    8    0    1
 -2       735       734       840      3038      3361      3362
 -1      1563    8    0    1
 -2       734       839       840      3359      3363      3361
 -1      1564    8    0    1
 -2       736       735       841      3041      3364      3365
 -1      1565    8    0    1
 -2       735       840       841      3362      3366      3364
 -1      1566    8    0    1
 -2       737       736       842      3044      3367      3368
 -1      1567    8    0    1
 -2       736       841       842      3365      3369      3367
 -1      1568    8    0    1
 -2       738       737       843      3047      3370      3371
 -1      1569    8    0    1
 -2       737       842       843      3368      3372      3370
 -1      1570    8    0    1
 -2       739       738       844      3050      3373      3374
 -1      1571    8    0    1
 -2       738       843       844      3371      3375      3373
 -1      1572    8    0    1
 -2       740       739       845      3053      3376      3377
 -1      1573    8    0    1
 -2       739       844       845      3374      3378      3376
 -1      1574    8    0    1
 -2       741       740       846      3056      3379      3380
 -1      1575    8    0    1
 -2       740       845       846      3377      3381      3379
 -1      1576    8    0    1
 -2       742       741       847      3059      3382      3383
 -1      1577    8    0    1
 -2       741       846       847      3380      3384      3382
 -1      1578    8    0    1
 -2       743       742       848      3062      3385      3386
 -1      1579    8    0    1
 -2       742       847       848      3383      3387      3385
 -1      1580    8    0    1
 -2       744       743       849      3065      3388      3389
 -1      1581    8    0    1
 -2       743       848       849      3386      3390      3388
 -1      1582    8    0    1
 -2       745       744       850      3068      3391      3392
 -1      1583    8    0    1
 -2       744       849       850      3389      3393      3391
 -1      1584    8    0    1
 -2       746       745       851      3071      3394      3395
 -1      1585    8    0    1
 -2       745       850       851      3392      3396      3394
 -1      1586    8    0    1
 -2       747       746       852      3074      3397      3398
 -1      1587    8    0    1
 -2       746       851       852      3395      3399      3397
 -1      1588    8    0    1
 -2       748       747       853      3077      3400      3401
 -1      1589    8    0    1
 -2       747       852       853      3398      3402      3400
 -1      1590    8    0    1
 -2       749       748       854      3080      3403      3404
 -1      1591    8    0    1
 -2       748       853       854      3401      3405      3403
 -1      1592    8    0    1
 -2       750       749       855      3083      3406      3407
 -1      1593    8    0    1
 -2       749       854       855      3404      3408      3406
 -1      1594    8    0    1
 -2       751       750       856      3086      3409      3410
 -1      1595    8    0    1
 -2       750       855       856      3407      3411      3409
 -1      1596    8    0    1
 -2       752       751       857      3089      3412      3413
 -1      1597    8    0    1
 -2       751       856       857      3410      3414      3412
 -1      1598    8    0    1
 -2       753       752       858      3092      3415      3416
 -1      1599    8    0    1
 -2       752       857       858      3413      3417      3415
 -1      1600    8    0    1
 -2       754       753       859      3095      3418      3419
 -1      1601    8    0    1
 -2       753       858       859      3416      3420      3418
 -1      1602    8    0    1
 -2       755       754       860      3098      3421      3422
 -1      1603    8    0    1
 -2       754       859       860      3419      3423      3421
 -1      1604    8    0    1
 -2       756       755       861      3101      3424      3425
 -1      1605    8    0    1
 -2       755       860       861      3422      3426      3424
 -1      1606    8    0    1
 -2       757       756       862      3104      3427      3428
 -1      1607    8    0    1
 -2       756       861       862      3425      3429      3427
 -1      1608    8    0    1
 -2       758       757       863      3107      3430      3431
 -1      1609    8    0    1
 -2       757       862       863      3428      3432      3430
 -1      1610    8    0    1
 -2       759       758       864      3110      3433      3434
 -1      1611    8    0    1
 -2       758       863       864      3431      3435      3433
 -1      1612    8    0    1
 -2       760       759       865      3113      3436      3437
 -1      1613    8    0    1
 -2       759       864       865      3434      3438      3436
 -1      1614    8    0    1
 -2       761       760       866      3116      3439      3440
 -1      1615    8    0    1
 -2       806       761       866      3316      3440      3441
 -1      1616    8    0    1
 -2       760       865       866      3437      3442      3439
 -1      1617    8    0    1
 -2       765       763       867      3126      3443      3444
 -1      1618    8    0    1
 -2       808       809       868      3332      3445      3446
 -1      1619    8    0    1
 -2       766       767       869      3132      3447      3448
 -1      1620    8    0    1
 -2       731       817       870      3292      3449      3450
 -1      1621    8    0    1
 -2       823       731       870      3303      3450      3451
 -1      1622    8    0    1
 -2       817       818       870      3351      3452      3449
 -1      1623    8    0    1
 -2       767       768       871      3135      3453      3454
 -1      1624    8    0    1
 -2       767       871       869      3454      3455      3447
 -1      1625    8    0    1
 -2       768       769       872      3138      3456      3457
 -1      1626    8    0    1
 -2       768       872       871      3457      3458      3453
 -1      1627    8    0    1
 -2       769       770       873      3141      3459      3460
 -1      1628    8    0    1
 -2       769       873       872      3460      3461      3456
 -1      1629    8    0    1
 -2       770       771       874      3144      3462      3463
 -1      1630    8    0    1
 -2       770       874       873      3463      3464      3459
 -1      1631    8    0    1
 -2       771       772       875      3147      3465      3466
 -1      1632    8    0    1
 -2       771       875       874      3466      3467      3462
 -1      1633    8    0    1
 -2       772       773       876      3150      3468      3469
 -1      1634    8    0    1
 -2       772       876       875      3469      3470      3465
 -1      1635    8    0    1
 -2       773       774       877      3153      3471      3472
 -1      1636    8    0    1
 -2       773       877       876      3472      3473      3468
 -1      1637    8    0    1
 -2       774       775       878      3156      3474      3475
 -1      1638    8    0    1
 -2       774       878       877      3475      3476      3471
 -1      1639    8    0    1
 -2       775       776       879      3159      3477      3478
 -1      1640    8    0    1
 -2       775       879       878      3478      3479      3474
 -1      1641    8    0    1
 -2       776       777       880      3162      3480      3481
 -1      1642    8    0    1
 -2       776       880       879      3481      3482      3477
 -1      1643    8    0    1
 -2       777       778       881      3165      3483      3484
 -1      1644    8    0    1
 -2       777       881       880      3484      3485      3480
 -1      1645    8    0    1
 -2       778       779       882      3168      3486      3487
 -1      1646    8    0    1
 -2       778       882       881      3487      3488      3483
 -1      1647    8    0    1
 -2       779       780       883      3171      3489      3490
 -1      1648    8    0    1
 -2       779       883       882      3490      3491      3486
 -1      1649    8    0    1
 -2       780       781       884      3174      3492      3493
 -1      1650    8    0    1
 -2       780       884       883      3493      3494      3489
 -1      1651    8    0    1
 -2       781       782       885      3177      3495      3496
 -1      1652    8    0    1
 -2       781       885       884      3496      3497      3492
 -1      1653    8    0    1
 -2       782       783       886      3180      3498      3499
 -1      1654    8    0    1
 -2       782       886       885      3499      3500      3495
 -1      1655    8    0    1
 -2       783       784       887      3183      3501      3502
 -1      1656    8    0    1
 -2       783       887       886      3502      3503      3498
 -1      1657    8    0    1
 -2       784       785       888      3186      3504      3505
 -1      1658    8    0    1
 -2       784       888       887      3505      3506      3501
 -1      1659    8    0    1
 -2       785       786       889      3189      3507      3508
 -1      1660    8    0    1
 -2       785       889       888      3508      3509      3504
 -1      1661    8    0    1
 -2       786       787       890      3192      3510      3511
 -1      1662    8    0    1
 -2       786       890       889      3511      3512      3507
 -1      1663    8    0    1
 -2       787       788       891      3195      3513      3514
 -1      1664    8    0    1
 -2       787       891       890      3514      3515      3510
 -1      1665    8    0    1
 -2       788       789       892      3198      3516      3517
 -1      1666    8    0    1
 -2       788       892       891      3517      3518      3513
 -1      1667    8    0    1
 -2       789       790       893      3201      3519      3520
 -1      1668    8    0    1
 -2       789       893       892      3520      3521      3516
 -1      1669    8    0    1
 -2       790       791       894      3204      3522      3523
 -1      1670    8    0    1
 -2       790       894       893      3523      3524      3519
 -1      1671    8    0    1
 -2       791       792       895      3207      3525      3526
 -1      1672    8    0    1
 -2       791       895       894      3526      3527      3522
 -1      1673    8    0    1
 -2       792       793       896      3210      3528      3529
 -1      1674    8    0    1
 -2       792       896       895      3529      3530      3525
 -1      1675    8    0    1
 -2       793       794       897      3213      3531      3532
 -1      1676    8    0    1
 -2       793       897       896      3532      3533      3528
 -1      1677    8    0    1
 -2       794       795       898      3216      3534      3535
 -1      1678    8    0    1
 -2       794       898       897      3535      3536      3531
 -1      1679    8    0    1
 -2       795       796       899      3219      3537      3538
 -1      1680    8    0    1
 -2       795       899       898      3538      3539      3534
 -1      1681    8    0    1
 -2       796       797       900      3222      3540      3541
 -1      1682    8    0    1
 -2       796       900       899      3541      3542      3537
 -1      1683    8    0    1
 -2       797       798       901      3225      3543      3544
 -1      1684    8    0    1
 -2       797       901       900      3544      3545      3540
 -1      1685    8    0    1
 -2       798       799       902      3228      3546      3547
 -1      1686    8    0    1
 -2       798       902       901      3547      3548      3543
 -1      1687    8    0    1
 -2       801       802       903      3237      3549      3550
 -1      1688    8    0    1
 -2       810       762       904      3293      3551      3552
 -1      1689    8    0    1
 -2       821       604       722      3328      2989      3553
 -1      1690    8    0    1
 -2       804       807       905      3250      3554      3555
 -1      1691    8    0    1
 -2       816       730       906      3289      3556      3557
 -1      1692    8    0    1
 -2       721       725       907      3000      3558      3559
 -1      1693    8    0    1
 -2       800       721       907      3232      3559      3560
 -1      1694    8    0    1
 -2       725       832       907      3335      3561      3558
 -1      1695    8    0    1
 -2       730       806       908      3285      3562      3563
 -1      1696    8    0    1
 -2       906       730       908      3556      3563      3564
 -1      1697    8    0    1
 -2       806       866       908      3441      3565      3562
 -1      1698    8    0    1
 -2       818       810       903      3277      3566      3567
 -1      1699    8    0    1
 -2       764       766       909      3129      3568      3569
 -1      1700    8    0    1
 -2       766       869       909      3448      3570      3568
 -1      1701    8    0    1
 -2       762       819       910      3294      3571      3572
 -1      1702    8    0    1
 -2       814       724       911      3347      3573      3574
 -1      1703    8    0    1
 -2       726       814       912      3342      3575      3576
 -1      1704    8    0    1
 -2       612       613       727      2662      3305      3014
 -1      1705    8    0    1
 -2       728       835       913      3345      3577      3578
 -1      1706    8    0    1
 -2       835       831       913      3352      3579      3577
 -1      1707    8    0    1
 -2       819       808       914      3295      3580      3581
 -1      1708    8    0    1
 -2       821       722       729      3553      3582      3288
 -1      1709    8    0    1
 -2       729       722       830      3582      3327      3583
 -1      1710    8    0    1
 -2       729       830       732      3583      3584      3029
 -1      1711    8    0    1
 -2       732       830       838      3584      3585      3356
 -1      1712    8    0    1
 -2       765       867       915      3444      3586      3587
 -1      1713    8    0    1
 -2       765       915       824      3587      3588      3306
 -1      1714    8    0    1
 -2       868       809       834      3445      3341      3589
 -1      1715    8    0    1
 -2       808       868       914      3446      3590      3580
 -1      1716    8    0    1
 -2       762       910       904      3572      3591      3551
 -1      1717    8    0    1
 -2       825       816       916      3309      3592      3593
 -1      1718    8    0    1
 -2       816       906       916      3557      3594      3592
 -1      1719    8    0    1
 -2       826       803       917      3313      3595      3596
 -1      1720    8    0    1
 -2       903       802       870      3549      3597      3598
 -1      1721    8    0    1
 -2       799       800       907      3231      3560      3599
 -1      1722    8    0    1
 -2       827       826       918      3319      3600      3601
 -1      1723    8    0    1
 -2       826       917       918      3596      3602      3600
 -1      1724    8    0    1
 -2       828       804       905      3320      3555      3603
 -1      1725    8    0    1
 -2       810       904       903      3552      3604      3566
 -1      1726    8    0    1
 -2       829       726       912      3325      3576      3605
 -1      1727    8    0    1
 -2       867       763       919      3443      3606      3607
 -1      1728    8    0    1
 -2       763       812       919      3261      3608      3606
 -1      1729    8    0    1
 -2       905       807       920      3554      3609      3610
 -1      1730    8    0    1
 -2       807       829       920      3324      3611      3609
 -1      1731    8    0    1
 -2       912       814       921      3575      3612      3613
 -1      1732    8    0    1
 -2       814       911       921      3574      3614      3612
 -1      1733    8    0    1
 -2       832       827       922      3333      3615      3616
 -1      1734    8    0    1
 -2       827       918       922      3601      3617      3615
 -1      1735    8    0    1
 -2       818       903       870      3567      3598      3452
 -1      1736    8    0    1
 -2       830       833       923      3338      3618      3619
 -1      1737    8    0    1
 -2       830       923       838      3619      3620      3585
 -1      1738    8    0    1
 -2       911       724       825      3573      3311      3621
 -1      1739    8    0    1
 -2       820       728       913      3282      3578      3622
 -1      1740    8    0    1
 -2       834       811       924      3339      3623      3624
 -1      1741    8    0    1
 -2       811       828       924      3322      3625      3623
 -1      1742    8    0    1
 -2       813       822       925      3298      3626      3627
 -1      1743    8    0    1
 -2       910       819       914      3571      3581      3628
 -1      1744    8    0    1
 -2       815       801       904      3270      3629      3630
 -1      1745    8    0    1
 -2       837       715       836      3353      3349      3631
 -1      1746    8    0    1
 -2       812       764       926      3262      3632      3633
 -1      1747    8    0    1
 -2       919       812       926      3608      3633      3634
 -1      1748    8    0    1
 -2       764       909       926      3569      3635      3632
 -1      1749    8    0    1
 -2       836       813       927      3350      3636      3637
 -1      1750    8    0    1
 -2       813       925       927      3627      3638      3636
 -1      1751    8    0    1
 -2       913       831       928      3579      3639      3640
 -1      1752    8    0    1
 -2       831       824       929      3331      3641      3642
 -1      1753    8    0    1
 -2       928       831       929      3639      3642      3643
 -1      1754    8    0    1
 -2       824       915       929      3588      3644      3641
 -1      1755    8    0    1
 -2       799       907       902      3599      3645      3546
 -1      1756    8    0    1
 -2       904       801       903      3629      3550      3604
 -1      1757    8    0    1
 -2       902       907       832      3645      3561      3646
 -1      1758    8    0    1
 -2       840       839       930      3363      3647      3648
 -1      1759    8    0    1
 -2       841       840       931      3366      3649      3650
 -1      1760    8    0    1
 -2       840       930       931      3648      3651      3649
 -1      1761    8    0    1
 -2       842       841       932      3369      3652      3653
 -1      1762    8    0    1
 -2       841       931       932      3650      3654      3652
 -1      1763    8    0    1
 -2       843       842       933      3372      3655      3656
 -1      1764    8    0    1
 -2       842       932       933      3653      3657      3655
 -1      1765    8    0    1
 -2       844       843       934      3375      3658      3659
 -1      1766    8    0    1
 -2       843       933       934      3656      3660      3658
 -1      1767    8    0    1
 -2       845       844       935      3378      3661      3662
 -1      1768    8    0    1
 -2       844       934       935      3659      3663      3661
 -1      1769    8    0    1
 -2       846       845       936      3381      3664      3665
 -1      1770    8    0    1
 -2       845       935       936      3662      3666      3664
 -1      1771    8    0    1
 -2       847       846       937      3384      3667      3668
 -1      1772    8    0    1
 -2       846       936       937      3665      3669      3667
 -1      1773    8    0    1
 -2       848       847       938      3387      3670      3671
 -1      1774    8    0    1
 -2       847       937       938      3668      3672      3670
 -1      1775    8    0    1
 -2       849       848       939      3390      3673      3674
 -1      1776    8    0    1
 -2       848       938       939      3671      3675      3673
 -1      1777    8    0    1
 -2       850       849       940      3393      3676      3677
 -1      1778    8    0    1
 -2       849       939       940      3674      3678      3676
 -1      1779    8    0    1
 -2       851       850       941      3396      3679      3680
 -1      1780    8    0    1
 -2       850       940       941      3677      3681      3679
 -1      1781    8    0    1
 -2       852       851       942      3399      3682      3683
 -1      1782    8    0    1
 -2       851       941       942      3680      3684      3682
 -1      1783    8    0    1
 -2       853       852       943      3402      3685      3686
 -1      1784    8    0    1
 -2       852       942       943      3683      3687      3685
 -1      1785    8    0    1
 -2       854       853       944      3405      3688      3689
 -1      1786    8    0    1
 -2       853       943       944      3686      3690      3688
 -1      1787    8    0    1
 -2       855       854       945      3408      3691      3692
 -1      1788    8    0    1
 -2       854       944       945      3689      3693      3691
 -1      1789    8    0    1
 -2       856       855       946      3411      3694      3695
 -1      1790    8    0    1
 -2       855       945       946      3692      3696      3694
 -1      1791    8    0    1
 -2       857       856       947      3414      3697      3698
 -1      1792    8    0    1
 -2       856       946       947      3695      3699      3697
 -1      1793    8    0    1
 -2       858       857       948      3417      3700      3701
 -1      1794    8    0    1
 -2       857       947       948      3698      3702      3700
 -1      1795    8    0    1
 -2       859       858       949      3420      3703      3704
 -1      1796    8    0    1
 -2       858       948       949      3701      3705      3703
 -1      1797    8    0    1
 -2       860       859       950      3423      3706      3707
 -1      1798    8    0    1
 -2       859       949       950      3704      3708      3706
 -1      1799    8    0    1
 -2       861       860       951      3426      3709      3710
 -1      1800    8    0    1
 -2       860       950       951      3707      3711      3709
 -1      1801    8    0    1
 -2       862       861       952      3429      3712      3713
 -1      1802    8    0    1
 -2       861       951       952      3710      3714      3712
 -1      1803    8    0    1
 -2       863       862       953      3432      3715      3716
 -1      1804    8    0    1
 -2       862       952       953      3713      3717      3715
 -1      1805    8    0    1
 -2       864       863       954      3435      3718      3719
 -1      1806    8    0    1
 -2       863       953       954      3716      3720      3718
 -1      1807    8    0    1
 -2       865       864       955      3438      3721      3722
 -1      1808    8    0    1
 -2       864       954       955      3719      3723      3721
 -1      1809    8    0    1
 -2       866       865       956      3442      3724      3725
 -1      1810    8    0    1
 -2       908       866       956      3565      3725      3726
 -1      1811    8    0    1
 -2       865       955       956      3722      3727      3724
 -1      1812    8    0    1
 -2       822       820       957      3299      3728      3729
 -1      1813    8    0    1
 -2       822       957       925      3729      3730      3626
 -1      1814    8    0    1
 -2       870       802       805      3597      3244      3731
 -1      1815    8    0    1
 -2       868       834       958      3589      3732      3733
 -1      1816    8    0    1
 -2       917       803       959      3595      3734      3735
 -1      1817    8    0    1
 -2       873       874       960      3464      3736      3737
 -1      1818    8    0    1
 -2       874       875       961      3467      3738      3739
 -1      1819    8    0    1
 -2       874       961       960      3739      3740      3736
 -1      1820    8    0    1
 -2       875       876       962      3470      3741      3742
 -1      1821    8    0    1
 -2       875       962       961      3742      3743      3738
 -1      1822    8    0    1
 -2       876       877       963      3473      3744      3745
 -1      1823    8    0    1
 -2       876       963       962      3745      3746      3741
 -1      1824    8    0    1
 -2       877       878       964      3476      3747      3748
 -1      1825    8    0    1
 -2       877       964       963      3748      3749      3744
 -1      1826    8    0    1
 -2       878       879       965      3479      3750      3751
 -1      1827    8    0    1
 -2       878       965       964      3751      3752      3747
 -1      1828    8    0    1
 -2       879       880       966      3482      3753      3754
 -1      1829    8    0    1
 -2       879       966       965      3754      3755      3750
 -1      1830    8    0    1
 -2       880       881       967      3485      3756      3757
 -1      1831    8    0    1
 -2       880       967       966      3757      3758      3753
 -1      1832    8    0    1
 -2       881       882       968      3488      3759      3760
 -1      1833    8    0    1
 -2       881       968       967      3760      3761      3756
 -1      1834    8    0    1
 -2       882       883       969      3491      3762      3763
 -1      1835    8    0    1
 -2       882       969       968      3763      3764      3759
 -1      1836    8    0    1
 -2       883       884       970      3494      3765      3766
 -1      1837    8    0    1
 -2       883       970       969      3766      3767      3762
 -1      1838    8    0    1
 -2       884       885       971      3497      3768      3769
 -1      1839    8    0    1
 -2       884       971       970      3769      3770      3765
 -1      1840    8    0    1
 -2       885       886       972      3500      3771      3772
 -1      1841    8    0    1
 -2       885       972       971      3772      3773      3768
 -1      1842    8    0    1
 -2       886       887       973      3503      3774      3775
 -1      1843    8    0    1
 -2       886       973       972      3775      3776      3771
 -1      1844    8    0    1
 -2       887       888       974      3506      3777      3778
 -1      1845    8    0    1
 -2       887       974       973      3778      3779      3774
 -1      1846    8    0    1
 -2       888       889       975      3509      3780      3781
 -1      1847    8    0    1
 -2       888       975       974      3781      3782      3777
 -1      1848    8    0    1
 -2       889       890       976      3512      3783      3784
 -1      1849    8    0    1
 -2       889       976       975      3784      3785      3780
 -1      1850    8    0    1
 -2       890       891       977      3515      3786      3787
 -1      1851    8    0    1
 -2       890       977       976      3787      3788      3783
 -1      1852    8    0    1
 -2       891       892       978      3518      3789      3790
 -1      1853    8    0    1
 -2       891       978       977      3790      3791      3786
 -1      1854    8    0    1
 -2       892       893       979      3521      3792      3793
 -1      1855    8    0    1
 -2       892       979       978      3793      3794      3789
 -1      1856    8    0    1
 -2       893       894       980      3524      3795      3796
 -1      1857    8    0    1
 -2       893       980       979      3796      3797      3792
 -1      1858    8    0    1
 -2       895       896       920      3530      3798      3799
 -1      1859    8    0    1
 -2       896       897       828      3533      3800      3801
 -1      1860    8    0    1
 -2       897       898       924      3536      3802      3803
 -1      1861    8    0    1
 -2       898       899       924      3539      3804      3802
 -1      1862    8    0    1
 -2       899       900       958      3542      3805      3806
 -1      1863    8    0    1
 -2       900       901       981      3545      3807      3808
 -1      1864    8    0    1
 -2       828       897       924      3800      3803      3625
 -1      1865    8    0    1
 -2       918       917       982      3602      3809      3810
 -1      1866    8    0    1
 -2       914       868       983      3590      3811      3812
 -1      1867    8    0    1
 -2       872       873       984      3461      3813      3814
 -1      1868    8    0    1
 -2       873       960       984      3737      3815      3813
 -1      1869    8    0    1
 -2       833       837       985      3355      3816      3817
 -1      1870    8    0    1
 -2       833       985       923      3817      3818      3618
 -1      1871    8    0    1
 -2       909       869       986      3570      3819      3820
 -1      1872    8    0    1
 -2       837       836       987      3631      3821      3822
 -1      1873    8    0    1
 -2       985       837       987      3816      3822      3823
 -1      1874    8    0    1
 -2       836       927       987      3637      3824      3821
 -1      1875    8    0    1
 -2       902       832       922      3646      3616      3825
 -1      1876    8    0    1
 -2       829       912       988      3605      3826      3827
 -1      1877    8    0    1
 -2       871       872       989      3458      3828      3829
 -1      1878    8    0    1
 -2       872       984       989      3814      3830      3828
 -1      1879    8    0    1
 -2       803       815       959      3269      3831      3734
 -1      1880    8    0    1
 -2       820       913       957      3622      3832      3728
 -1      1881    8    0    1
 -2       839       838       990      3360      3833      3834
 -1      1882    8    0    1
 -2       930       839       990      3647      3834      3835
 -1      1883    8    0    1
 -2       838       923       990      3620      3836      3833
 -1      1884    8    0    1
 -2       913       928       957      3640      3837      3832
 -1      1885    8    0    1
 -2       911       825       991      3621      3838      3839
 -1      1886    8    0    1
 -2       869       871       992      3455      3840      3841
 -1      1887    8    0    1
 -2       871       989       992      3829      3842      3840
 -1      1888    8    0    1
 -2       925       957       993      3730      3843      3844
 -1      1889    8    0    1
 -2       911       991       994      3839      3845      3846
 -1      1890    8    0    1
 -2       911       994       921      3846      3847      3614
 -1      1891    8    0    1
 -2       958       834       924      3732      3624      3848
 -1      1892    8    0    1
 -2       917       959       910      3735      3849      3850
 -1      1893    8    0    1
 -2       916       906       995      3594      3851      3852
 -1      1894    8    0    1
 -2       825       916       991      3593      3853      3838
 -1      1895    8    0    1
 -2       909       986       996      3820      3854      3855
 -1      1896    8    0    1
 -2       909       996       926      3855      3856      3635
 -1      1897    8    0    1
 -2       980       894       988      3795      3857      3858
 -1      1898    8    0    1
 -2       894       895       988      3527      3859      3857
 -1      1899    8    0    1
 -2       924       899       958      3804      3806      3848
 -1      1900    8    0    1
 -2       958       900       981      3805      3808      3860
 -1      1901    8    0    1
 -2       901       902       997      3548      3861      3862
 -1      1902    8    0    1
 -2       983       868       958      3811      3733      3863
 -1      1903    8    0    1
 -2       914       983       982      3812      3864      3865
 -1      1904    8    0    1
 -2       927       925       998      3638      3866      3867
 -1      1905    8    0    1
 -2       925       993       998      3844      3868      3866
 -1      1906    8    0    1
 -2       920       829       988      3611      3827      3869
 -1      1907    8    0    1
 -2       959       815       904      3831      3630      3870
 -1      1908    8    0    1
 -2       906       908       999      3564      3871      3872
 -1      1909    8    0    1
 -2       995       906       999      3851      3872      3873
 -1      1910    8    0    1
 -2       908       956       999      3726      3874      3871
 -1      1911    8    0    1
 -2       986       869       992      3819      3841      3875
 -1      1912    8    0    1
 -2       918       982      1000      3810      3876      3877
 -1      1913    8    0    1
 -2       922       918      1000      3617      3877      3878
 -1      1914    8    0    1
 -2       982       983      1000      3864      3879      3876
 -1      1915    8    0    1
 -2       910       914       917      3628      3880      3850
 -1      1916    8    0    1
 -2       988       912      1001      3826      3881      3882
 -1      1917    8    0    1
 -2       980       988      1001      3858      3882      3883
 -1      1918    8    0    1
 -2       912       921      1001      3613      3884      3881
 -1      1919    8    0    1
 -2       910       959       904      3849      3870      3591
 -1      1920    8    0    1
 -2       988       895       920      3859      3799      3869
 -1      1921    8    0    1
 -2       901       997       981      3862      3885      3807
 -1      1922    8    0    1
 -2       867       919      1002      3607      3886      3887
 -1      1923    8    0    1
 -2       957       928       993      3837      3888      3843
 -1      1924    8    0    1
 -2       867      1002      1003      3887      3889      3890
 -1      1925    8    0    1
 -2       867      1003       915      3890      3891      3586
 -1      1926    8    0    1
 -2       928       929      1004      3643      3892      3893
 -1      1927    8    0    1
 -2       928      1004       993      3893      3894      3888
 -1      1928    8    0    1
 -2       992       989      1005      3842      3895      3896
 -1      1929    8    0    1
 -2       932       931      1006      3654      3897      3898
 -1      1930    8    0    1
 -2       933       932      1007      3657      3899      3900
 -1      1931    8    0    1
 -2       932      1006      1007      3898      3901      3899
 -1      1932    8    0    1
 -2       934       933      1008      3660      3902      3903
 -1      1933    8    0    1
 -2       933      1007      1008      3900      3904      3902
 -1      1934    8    0    1
 -2       935       934      1009      3663      3905      3906
 -1      1935    8    0    1
 -2       934      1008      1009      3903      3907      3905
 -1      1936    8    0    1
 -2       936       935      1010      3666      3908      3909
 -1      1937    8    0    1
 -2       935      1009      1010      3906      3910      3908
 -1      1938    8    0    1
 -2       937       936      1011      3669      3911      3912
 -1      1939    8    0    1
 -2       936      1010      1011      3909      3913      3911
 -1      1940    8    0    1
 -2       938       937      1012      3672      3914      3915
 -1      1941    8    0    1
 -2       937      1011      1012      3912      3916      3914
 -1      1942    8    0    1
 -2       939       938      1013      3675      3917      3918
 -1      1943    8    0    1
 -2       938      1012      1013      3915      3919      3917
 -1      1944    8    0    1
 -2       940       939      1014      3678      3920      3921
 -1      1945    8    0    1
 -2       939      1013      1014      3918      3922      3920
 -1      1946    8    0    1
 -2       941       940      1015      3681      3923      3924
 -1      1947    8    0    1
 -2       940      1014      1015      3921      3925      3923
 -1      1948    8    0    1
 -2       942       941      1016      3684      3926      3927
 -1      1949    8    0    1
 -2       941      1015      1016      3924      3928      3926
 -1      1950    8    0    1
 -2       943       942      1017      3687      3929      3930
 -1      1951    8    0    1
 -2       942      1016      1017      3927      3931      3929
 -1      1952    8    0    1
 -2       944       943      1018      3690      3932      3933
 -1      1953    8    0    1
 -2       943      1017      1018      3930      3934      3932
 -1      1954    8    0    1
 -2       945       944      1019      3693      3935      3936
 -1      1955    8    0    1
 -2       944      1018      1019      3933      3937      3935
 -1      1956    8    0    1
 -2       946       945      1020      3696      3938      3939
 -1      1957    8    0    1
 -2       945      1019      1020      3936      3940      3938
 -1      1958    8    0    1
 -2       947       946      1021      3699      3941      3942
 -1      1959    8    0    1
 -2       946      1020      1021      3939      3943      3941
 -1      1960    8    0    1
 -2       948       947      1022      3702      3944      3945
 -1      1961    8    0    1
 -2       947      1021      1022      3942      3946      3944
 -1      1962    8    0    1
 -2       949       948      1023      3705      3947      3948
 -1      1963    8    0    1
 -2       948      1022      1023      3945      3949      3947
 -1      1964    8    0    1
 -2       950       949      1024      3708      3950      3951
 -1      1965    8    0    1
 -2       949      1023      1024      3948      3952      3950
 -1      1966    8    0    1
 -2       951       950      1025      3711      3953      3954
 -1      1967    8    0    1
 -2       950      1024      1025      3951      3955      3953
 -1      1968    8    0    1
 -2       952       951      1026      3714      3956      3957
 -1      1969    8    0    1
 -2       951      1025      1026      3954      3958      3956
 -1      1970    8    0    1
 -2       953       952      1027      3717      3959      3960
 -1      1971    8    0    1
 -2       952      1026      1027      3957      3961      3959
 -1      1972    8    0    1
 -2       954       953      1028      3720      3962      3963
 -1      1973    8    0    1
 -2       953      1027      1028      3960      3964      3962
 -1      1974    8    0    1
 -2       955       954      1029      3723      3965      3966
 -1      1975    8    0    1
 -2       954      1028      1029      3963      3967      3965
 -1      1976    8    0    1
 -2       961       962      1030      3743      3968      3969
 -1      1977    8    0    1
 -2       916       995      1031      3852      3970      3971
 -1      1978    8    0    1
 -2       916      1031       991      3971      3972      3853
 -1      1979    8    0    1
 -2       923       985      1032      3818      3973      3974
 -1      1980    8    0    1
 -2       923      1032       990      3974      3975      3836
 -1      1981    8    0    1
 -2       960       961      1033      3740      3976      3977
 -1      1982    8    0    1
 -2       961      1030      1033      3969      3978      3976
 -1      1983    8    0    1
 -2       963       964      1034      3749      3979      3980
 -1      1984    8    0    1
 -2       964       965      1035      3752      3981      3982
 -1      1985    8    0    1
 -2       964      1035      1034      3982      3983      3979
 -1      1986    8    0    1
 -2       965       966      1036      3755      3984      3985
 -1      1987    8    0    1
 -2       965      1036      1035      3985      3986      3981
 -1      1988    8    0    1
 -2       966       967      1037      3758      3987      3988
 -1      1989    8    0    1
 -2       966      1037      1036      3988      3989      3984
 -1      1990    8    0    1
 -2       967       968      1038      3761      3990      3991
 -1      1991    8    0    1
 -2       967      1038      1037      3991      3992      3987
 -1      1992    8    0    1
 -2       968       969      1039      3764      3993      3994
 -1      1993    8    0    1
 -2       968      1039      1038      3994      3995      3990
 -1      1994    8    0    1
 -2       969       970      1040      3767      3996      3997
 -1      1995    8    0    1
 -2       969      1040      1039      3997      3998      3993
 -1      1996    8    0    1
 -2       970       971      1041      3770      3999      4000
 -1      1997    8    0    1
 -2       970      1041      1040      4000      4001      3996
 -1      1998    8    0    1
 -2       971       972      1042      3773      4002      4003
 -1      1999    8    0    1
 -2       971      1042      1041      4003      4004      3999
 -1      2000    8    0    1
 -2       972       973      1043      3776      4005      4006
 -1      2001    8    0    1
 -2       972      1043      1042      4006      4007      4002
 -1      2002    8    0    1
 -2       973       974      1044      3779      4008      4009
 -1      2003    8    0    1
 -2       973      1044      1043      4009      4010      4005
 -1      2004    8    0    1
 -2       974       975      1045      3782      4011      4012
 -1      2005    8    0    1
 -2       974      1045      1044      4012      4013      4008
 -1      2006    8    0    1
 -2       975       976      1046      3785      4014      4015
 -1      2007    8    0    1
 -2       975      1046      1045      4015      4016      4011
 -1      2008    8    0    1
 -2       976       977      1047      3788      4017      4018
 -1      2009    8    0    1
 -2       976      1047      1046      4018      4019      4014
 -1      2010    8    0    1
 -2       977       978      1048      3791      4020      4021
 -1      2011    8    0    1
 -2       977      1048      1047      4021      4022      4017
 -1      2012    8    0    1
 -2       978       979       994      3794      4023      4024
 -1      2013    8    0    1
 -2       979       980      1001      3797      3883      4025
 -1      2014    8    0    1
 -2       896       828       905      3801      3603      4026
 -1      2015    8    0    1
 -2       997       902       922      3861      3825      4027
 -1      2016    8    0    1
 -2      1002       919      1049      3886      4028      4029
 -1      2017    8    0    1
 -2       919       926      1049      3634      4030      4028
 -1      2018    8    0    1
 -2       984       960      1050      3815      4031      4032
 -1      2019    8    0    1
 -2       960      1033      1050      3977      4033      4031
 -1      2020    8    0    1
 -2       983       958       981      3863      3860      4034
 -1      2021    8    0    1
 -2       931       930      1051      3651      4035      4036
 -1      2022    8    0    1
 -2       931      1051      1006      4036      4037      3897
 -1      2023    8    0    1
 -2       997       922      1000      4027      3878      4038
 -1      2024    8    0    1
 -2       989       984      1052      3830      4039      4040
 -1      2025    8    0    1
 -2      1005       989      1052      3895      4040      4041
 -1      2026    8    0    1
 -2       984      1050      1052      4032      4042      4039
 -1      2027    8    0    1
 -2       986       992      1053      3875      4043      4044
 -1      2028    8    0    1
 -2       992      1005      1053      3896      4045      4043
 -1      2029    8    0    1
 -2       962       963      1054      3746      4046      4047
 -1      2030    8    0    1
 -2       963      1034      1054      3980      4048      4046
 -1      2031    8    0    1
 -2       929       915      1055      3644      4049      4050
 -1      2032    8    0    1
 -2      1004       929      1055      3892      4050      4051
 -1      2033    8    0    1
 -2       915      1003      1055      3891      4052      4049
 -1      2034    8    0    1
 -2       981       997      1000      3885      4038      4053
 -1      2035    8    0    1
 -2       983       981      1000      4034      4053      3879
 -1      2036    8    0    1
 -2       896       905       920      4026      3610      3798
 -1      2037    8    0    1
 -2      1030       962      1054      3968      4047      4054
 -1      2038    8    0    1
 -2       956       955      1056      3727      4055      4056
 -1      2039    8    0    1
 -2       999       956      1056      3874      4056      4057
 -1      2040    8    0    1
 -2       955      1029      1056      3966      4058      4055
 -1      2041    8    0    1
 -2       991      1031      1048      3972      4059      4060
 -1      2042    8    0    1
 -2      1032       985      1057      3973      4061      4062
 -1      2043    8    0    1
 -2       985       987      1057      3823      4063      4061
 -1      2044    8    0    1
 -2       823       870       805      3451      3731      3302
 -1      2045    8    0    1
 -2       996       986      1058      3854      4064      4065
 -1      2046    8    0    1
 -2       986      1053      1058      4044      4066      4064
 -1      2047    8    0    1
 -2       978       994      1048      4024      4067      4020
 -1      2048    8    0    1
 -2      1049       926       996      4030      3856      4068
 -1      2049    8    0    1
 -2       998       993      1059      3868      4069      4070
 -1      2050    8    0    1
 -2       993      1004      1059      3894      4071      4069
 -1      2051    8    0    1
 -2       927       998      1060      3867      4072      4073
 -1      2052    8    0    1
 -2       987       927      1060      3824      4073      4074
 -1      2053    8    0    1
 -2       998      1059      1060      4070      4075      4072
 -1      2054    8    0    1
 -2       930       990      1061      3835      4076      4077
 -1      2055    8    0    1
 -2      1051       930      1061      4035      4077      4078
 -1      2056    8    0    1
 -2       990      1032      1061      3975      4079      4076
 -1      2057    8    0    1
 -2      1002      1049      1062      4029      4080      4081
 -1      2058    8    0    1
 -2      1003      1002      1063      3889      4082      4083
 -1      2059    8    0    1
 -2      1002      1062      1063      4081      4084      4082
 -1      2060    8    0    1
 -2       995       999      1064      3873      4085      4086
 -1      2061    8    0    1
 -2       999      1056      1064      4057      4087      4085
 -1      2062    8    0    1
 -2      1031       995      1065      3970      4088      4089
 -1      2063    8    0    1
 -2       995      1064      1065      4086      4090      4088
 -1      2064    8    0    1
 -2       921       994       979      3847      4023      4091
 -1      2065    8    0    1
 -2       991      1048       994      4060      4067      3845
 -1      2066    8    0    1
 -2      1008      1007      1066      3904      4092      4093
 -1      2067    8    0    1
 -2      1009      1008      1067      3907      4094      4095
 -1      2068    8    0    1
 -2      1008      1066      1067      4093      4096      4094
 -1      2069    8    0    1
 -2      1010      1009      1068      3910      4097      4098
 -1      2070    8    0    1
 -2      1009      1067      1068      4095      4099      4097
 -1      2071    8    0    1
 -2      1011      1010      1069      3913      4100      4101
 -1      2072    8    0    1
 -2      1010      1068      1069      4098      4102      4100
 -1      2073    8    0    1
 -2      1012      1011      1070      3916      4103      4104
 -1      2074    8    0    1
 -2      1011      1069      1070      4101      4105      4103
 -1      2075    8    0    1
 -2      1013      1012      1071      3919      4106      4107
 -1      2076    8    0    1
 -2      1012      1070      1071      4104      4108      4106
 -1      2077    8    0    1
 -2      1014      1013      1072      3922      4109      4110
 -1      2078    8    0    1
 -2      1013      1071      1072      4107      4111      4109
 -1      2079    8    0    1
 -2      1015      1014      1073      3925      4112      4113
 -1      2080    8    0    1
 -2      1014      1072      1073      4110      4114      4112
 -1      2081    8    0    1
 -2      1016      1015      1074      3928      4115      4116
 -1      2082    8    0    1
 -2      1015      1073      1074      4113      4117      4115
 -1      2083    8    0    1
 -2      1017      1016      1075      3931      4118      4119
 -1      2084    8    0    1
 -2      1016      1074      1075      4116      4120      4118
 -1      2085    8    0    1
 -2      1018      1017      1076      3934      4121      4122
 -1      2086    8    0    1
 -2      1017      1075      1076      4119      4123      4121
 -1      2087    8    0    1
 -2      1019      1018      1077      3937      4124      4125
 -1      2088    8    0    1
 -2      1018      1076      1077      4122      4126      4124
 -1      2089    8    0    1
 -2      1020      1019      1078      3940      4127      4128
 -1      2090    8    0    1
 -2      1019      1077      1078      4125      4129      4127
 -1      2091    8    0    1
 -2      1021      1020      1079      3943      4130      4131
 -1      2092    8    0    1
 -2      1020      1078      1079      4128      4132      4130
 -1      2093    8    0    1
 -2      1022      1021      1080      3946      4133      4134
 -1      2094    8    0    1
 -2      1021      1079      1080      4131      4135      4133
 -1      2095    8    0    1
 -2      1023      1022      1081      3949      4136      4137
 -1      2096    8    0    1
 -2      1022      1080      1081      4134      4138      4136
 -1      2097    8    0    1
 -2      1024      1023      1082      3952      4139      4140
 -1      2098    8    0    1
 -2      1023      1081      1082      4137      4141      4139
 -1      2099    8    0    1
 -2      1025      1024      1083      3955      4142      4143
 -1      2100    8    0    1
 -2      1024      1082      1083      4140      4144      4142
 -1      2101    8    0    1
 -2      1026      1025      1084      3958      4145      4146
 -1      2102    8    0    1
 -2      1025      1083      1084      4143      4147      4145
 -1      2103    8    0    1
 -2      1027      1026      1085      3961      4148      4149
 -1      2104    8    0    1
 -2      1026      1084      1085      4146      4150      4148
 -1      2105    8    0    1
 -2      1028      1027      1086      3964      4151      4152
 -1      2106    8    0    1
 -2      1027      1085      1086      4149      4153      4151
 -1      2107    8    0    1
 -2      1029      1028      1087      3967      4154      4155
 -1      2108    8    0    1
 -2      1028      1086      1087      4152      4156      4154
 -1      2109    8    0    1
 -2       921       979      1001      4091      4025      3884
 -1      2110    8    0    1
 -2      1033      1030      1088      3978      4157      4158
 -1      2111    8    0    1
 -2      1035      1036      1089      3986      4159      4160
 -1      2112    8    0    1
 -2      1034      1035      1090      3983      4161      4162
 -1      2113    8    0    1
 -2      1035      1089      1090      4160      4163      4161
 -1      2114    8    0    1
 -2      1037      1038      1091      3992      4164      4165
 -1      2115    8    0    1
 -2      1038      1039      1092      3995      4166      4167
 -1      2116    8    0    1
 -2      1038      1092      1091      4167      4168      4164
 -1      2117    8    0    1
 -2      1039      1040      1093      3998      4169      4170
 -1      2118    8    0    1
 -2      1039      1093      1092      4170      4171      4166
 -1      2119    8    0    1
 -2      1040      1041      1094      4001      4172      4173
 -1      2120    8    0    1
 -2      1040      1094      1093      4173      4174      4169
 -1      2121    8    0    1
 -2      1041      1042      1095      4004      4175      4176
 -1      2122    8    0    1
 -2      1041      1095      1094      4176      4177      4172
 -1      2123    8    0    1
 -2      1042      1043      1096      4007      4178      4179
 -1      2124    8    0    1
 -2      1042      1096      1095      4179      4180      4175
 -1      2125    8    0    1
 -2      1043      1044      1097      4010      4181      4182
 -1      2126    8    0    1
 -2      1043      1097      1096      4182      4183      4178
 -1      2127    8    0    1
 -2      1044      1045      1098      4013      4184      4185
 -1      2128    8    0    1
 -2      1044      1098      1097      4185      4186      4181
 -1      2129    8    0    1
 -2      1045      1046      1099      4016      4187      4188
 -1      2130    8    0    1
 -2      1045      1099      1098      4188      4189      4184
 -1      2131    8    0    1
 -2      1046      1047      1065      4019      4190      4191
 -1      2132    8    0    1
 -2      1047      1048      1031      4022      4059      4192
 -1      2133    8    0    1
 -2      1049       996      1100      4068      4193      4194
 -1      2134    8    0    1
 -2      1062      1049      1100      4080      4194      4195
 -1      2135    8    0    1
 -2       996      1058      1100      4065      4196      4193
 -1      2136    8    0    1
 -2      1007      1006      1101      3901      4197      4198
 -1      2137    8    0    1
 -2      1007      1101      1066      4198      4199      4092
 -1      2138    8    0    1
 -2      1030      1054      1102      4054      4200      4201
 -1      2139    8    0    1
 -2      1030      1102      1088      4201      4202      4157
 -1      2140    8    0    1
 -2      1050      1033      1103      4033      4203      4204
 -1      2141    8    0    1
 -2      1033      1088      1103      4158      4205      4203
 -1      2142    8    0    1
 -2       917       914       982      3880      3865      3809
 -1      2143    8    0    1
 -2      1006      1051      1104      4037      4206      4207
 -1      2144    8    0    1
 -2      1006      1104      1101      4207      4208      4197
 -1      2145    8    0    1
 -2      1054      1034      1105      4048      4209      4210
 -1      2146    8    0    1
 -2      1054      1105      1102      4210      4211      4200
 -1      2147    8    0    1
 -2      1036      1037      1106      3989      4212      4213
 -1      2148    8    0    1
 -2      1036      1106      1089      4213      4214      4159
 -1      2149    8    0    1
 -2      1053      1005      1107      4045      4215      4216
 -1      2150    8    0    1
 -2      1004      1055      1108      4051      4217      4218
 -1      2151    8    0    1
 -2      1004      1108      1059      4218      4219      4071
 -1      2152    8    0    1
 -2      1056      1029      1109      4058      4220      4221
 -1      2153    8    0    1
 -2      1064      1056      1109      4087      4221      4222
 -1      2154    8    0    1
 -2      1029      1087      1109      4155      4223      4220
 -1      2155    8    0    1
 -2      1057       987      1060      4063      4074      4224
 -1      2156    8    0    1
 -2      1032      1057      1110      4062      4225      4226
 -1      2157    8    0    1
 -2      1032      1110      1061      4226      4227      4079
 -1      2158    8    0    1
 -2      1053      1107      1111      4216      4228      4229
 -1      2159    8    0    1
 -2      1053      1111      1058      4229      4230      4066
 -1      2160    8    0    1
 -2      1037      1091      1106      4165      4231      4212
 -1      2161    8    0    1
 -2      1034      1090      1105      4162      4232      4209
 -1      2162    8    0    1
 -2      1046      1065      1099      4191      4233      4187
 -1      2163    8    0    1
 -2      1047      1031      1065      4192      4089      4190
 -1      2164    8    0    1
 -2      1050      1103      1112      4204      4234      4235
 -1      2165    8    0    1
 -2      1050      1112      1052      4235      4236      4042
 -1      2166    8    0    1
 -2      1063      1062      1113      4084      4237      4238
 -1      2167    8    0    1
 -2      1062      1100      1114      4195      4239      4240
 -1      2168    8    0    1
 -2      1062      1114      1113      4240      4241      4237
 -1      2169    8    0    1
 -2      1003      1063      1055      4083      4242      4052
 -1      2170    8    0    1
 -2      1065      1064      1099      4090      4243      4233
 -1      2171    8    0    1
 -2      1051      1061      1115      4078      4244      4245
 -1      2172    8    0    1
 -2      1104      1051      1115      4206      4245      4246
 -1      2173    8    0    1
 -2      1061      1110      1115      4227      4247      4244
 -1      2174    8    0    1
 -2      1005      1052      1116      4041      4248      4249
 -1      2175    8    0    1
 -2      1107      1005      1116      4215      4249      4250
 -1      2176    8    0    1
 -2      1052      1112      1116      4236      4251      4248
 -1      2177    8    0    1
 -2      1067      1066      1117      4096      4252      4253
 -1      2178    8    0    1
 -2      1057      1060      1118      4224      4254      4255
 -1      2179    8    0    1
 -2      1060      1059      1118      4075      4256      4254
 -1      2180    8    0    1
 -2      1068      1067      1119      4099      4257      4258
 -1      2181    8    0    1
 -2      1067      1117      1119      4253      4259      4257
 -1      2182    8    0    1
 -2      1069      1068      1111      4102      4260      4261
 -1      2183    8    0    1
 -2      1070      1069      1107      4105      4262      4263
 -1      2184    8    0    1
 -2      1071      1070      1116      4108      4264      4265
 -1      2185    8    0    1
 -2      1072      1071      1112      4111      4266      4267
 -1      2186    8    0    1
 -2      1073      1072      1103      4114      4268      4269
 -1      2187    8    0    1
 -2      1074      1073      1088      4117      4270      4271
 -1      2188    8    0    1
 -2      1075      1074      1102      4120      4272      4273
 -1      2189    8    0    1
 -2      1076      1075      1105      4123      4274      4275
 -1      2190    8    0    1
 -2      1077      1076      1090      4126      4276      4277
 -1      2191    8    0    1
 -2      1078      1077      1089      4129      4278      4279
 -1      2192    8    0    1
 -2      1079      1078      1106      4132      4280      4281
 -1      2193    8    0    1
 -2      1080      1079      1091      4135      4282      4283
 -1      2194    8    0    1
 -2      1081      1080      1092      4138      4284      4285
 -1      2195    8    0    1
 -2      1082      1081      1093      4141      4286      4287
 -1      2196    8    0    1
 -2      1083      1082      1094      4144      4288      4289
 -1      2197    8    0    1
 -2      1084      1083      1095      4147      4290      4291
 -1      2198    8    0    1
 -2      1085      1084      1096      4150      4292      4293
 -1      2199    8    0    1
 -2      1086      1085      1097      4153      4294      4295
 -1      2200    8    0    1
 -2      1087      1086      1098      4156      4296      4297
 -1      2201    8    0    1
 -2      1093      1094      1082      4174      4288      4287
 -1      2202    8    0    1
 -2      1106      1078      1089      4280      4279      4214
 -1      2203    8    0    1
 -2      1090      1076      1105      4276      4275      4232
 -1      2204    8    0    1
 -2      1105      1075      1102      4274      4273      4211
 -1      2205    8    0    1
 -2      1102      1074      1088      4272      4271      4202
 -1      2206    8    0    1
 -2      1092      1093      1081      4171      4286      4285
 -1      2207    8    0    1
 -2      1091      1092      1080      4168      4284      4283
 -1      2208    8    0    1
 -2      1094      1095      1083      4177      4290      4289
 -1      2209    8    0    1
 -2      1095      1096      1084      4180      4292      4291
 -1      2210    8    0    1
 -2      1096      1097      1085      4183      4294      4293
 -1      2211    8    0    1
 -2      1097      1098      1086      4186      4296      4295
 -1      2212    8    0    1
 -2      1098      1099      1087      4189      4298      4297
 -1      2213    8    0    1
 -2      1088      1073      1103      4270      4269      4205
 -1      2214    8    0    1
 -2      1103      1072      1112      4268      4267      4234
 -1      2215    8    0    1
 -2      1100      1058      1120      4196      4299      4300
 -1      2216    8    0    1
 -2      1114      1100      1120      4239      4300      4301
 -1      2217    8    0    1
 -2      1058      1111      1120      4230      4302      4299
 -1      2218    8    0    1
 -2      1055      1063      1108      4242      4303      4217
 -1      2219    8    0    1
 -2      1101      1104      1121      4208      4304      4305
 -1      2220    8    0    1
 -2      1063      1113      1121      4238      4306      4307
 -1      2221    8    0    1
 -2      1106      1091      1079      4231      4282      4281
 -1      2222    8    0    1
 -2      1089      1077      1090      4278      4277      4163
 -1      2223    8    0    1
 -2      1107      1069      1111      4262      4261      4228
 -1      2224    8    0    1
 -2      1070      1107      1116      4263      4250      4264
 -1      2225    8    0    1
 -2      1109      1087      1099      4223      4298      4308
 -1      2226    8    0    1
 -2      1057      1118      1110      4255      4309      4225
 -1      2227    8    0    1
 -2      1071      1116      1112      4265      4251      4266
 -1      2228    8    0    1
 -2      1121      1113      1122      4306      4310      4311
 -1      2229    8    0    1
 -2      1101      1121      1122      4305      4311      4312
 -1      2230    8    0    1
 -2      1113      1114      1122      4241      4313      4310
 -1      2231    8    0    1
 -2      1121      1104      1123      4304      4314      4315
 -1      2232    8    0    1
 -2      1104      1115      1123      4246      4316      4314
 -1      2233    8    0    1
 -2      1063      1121      1108      4307      4317      4303
 -1      2234    8    0    1
 -2      1064      1109      1099      4222      4308      4243
 -1      2235    8    0    1
 -2      1101      1122      1066      4312      4318      4199
 -1      2236    8    0    1
 -2      1066      1122      1117      4318      4319      4252
 -1      2237    8    0    1
 -2      1119      1117      1120      4259      4320      4321
 -1      2238    8    0    1
 -2      1111      1068      1119      4260      4258      4322
 -1      2239    8    0    1
 -2      1110      1118      1115      4309      4323      4247
 -1      2240    8    0    1
 -2      1115      1118      1123      4323      4324      4316
 -1      2241    8    0    1
 -2      1122      1114      1117      4313      4325      4319
 -1      2242    8    0    1
 -2      1059      1108      1123      4219      4326      4327
 -1      2243    8    0    1
 -2      1123      1118      1059      4324      4256      4327
 -1      2244    8    0    1
 -2      1111      1119      1120      4322      4321      4302
 -1      2245    8    0    1
 -2      1117      1114      1120      4325      4301      4320
 -1      2246    8    0    1
 -2      1121      1123      1108      4315      4326      4317
 -3
    1PSTEP                         1           1           1          
  100CL  101 1.000000000        4327                     0    1           1
 -4  DISP        4    1
 -5  D1          1    2    1    0
 -5  D2          1    2    2    0
 -5  D3          1    2    3    0
 -5  ALL         1    2    0    0    1ALL
 -1         1 9.74128E-03-1.00517E-03-3.75980E-14
 -1         2 1.43977E-02-1.03634E-03-4.59864E-14
 -1         3 1.38086E-02-1.17399E-03-6.15912E-14
 -1         4 1.63928E-02-2.24210E-03-6.44861E-14
 -1         5 0.00000E+00 0.00000E+00 0.00000E+00
 -1         6 0.00000E+00 0.00000E+00 0.00000E+00
 -1         7 0.00000E+00 0.00000E+00 0.00000E+00
 -1         8 0.00000E+00 0.00000E+00 0.00000E+00
 -1         9 0.00000E+00 0.00000E+00 0.00000E+00
 -1        10 0.00000E+00 0.00000E+00 0.00000E+00
 -1        11 0.00000E+00 0.00000E+00 0.00000E+00
 -1        12 0.00000E+00 0.00000E+00 0.00000E+00
 -1        13 0.00000E+00 0.00000E+00 0.00000E+00
 -1        14 0.00000E+00 0.00000E+00 0.00000E+00
 -1        15 0.00000E+00 0.00000E+00 0.00000E+00
 -1        16 0.00000E+00 0.00000E+00 0.00000E+00
 -1        17 0.00000E+00 0.00000E+00 0.00000E+00
 -1        18 0.00000E+00 0.00000E+00 0.00000E+00
 -1        19 0.00000E+00 0.00000E+00 0.00000E+00
 -1        20 0.00000E+00 0.00000E+00 0.00000E+00
 -1        21 0.00000E+00 0.00000E+00 0.00000E+00
 -1        22 0.00000E+00 0.00000E+00 0.00000E+00
 -1        23 3.95235E-04-2.52088E-04 6.07153E-18
 -1        24 6.89639E-04-3.95237E-04-5.87739E-17
 -1        25 9.60262E-04-4.94364E-04-1.93510E-16
 -1        26 1.22494E-03-5.64274E-04-3.95951E-16
 -1        27 1.48851E-03-6.14371E-04-6.64816E-16
 -1        28 1.75315E-03-6.50151E-04-9.96866E-16
 -1        29 2.00647E-03-6.74342E-04-1.37074E-15
 -1        30 2.27550E-03-6.92128E-04-1.82195E-15
 -1        31 2.54705E-03-7.04078E-04-2.33463E-15
 -1        32 2.82099E-03-7.11767E-04-2.91474E-15
 -1        33 3.09711E-03-7.16386E-04-3.55883E-15
 -1        34 3.37512E-03-7.18828E-04-4.26323E-15
 -1        35 3.65473E-03-7.19751E-04-5.02328E-15
 -1        36 3.92161E-03-7.19656E-04-5.79706E-15
 -1        37 4.20360E-03-7.18853E-04-6.66531E-15
 -1        38 4.48648E-03-7.17547E-04-7.59531E-15
 -1        39 4.77008E-03-7.15872E-04-8.58272E-15
 -1        40 5.05426E-03-7.13896E-04-9.62319E-15
 -1        41 5.33896E-03-7.11632E-04-1.07168E-14
 -1        42 5.60987E-03-7.09190E-04-1.18043E-14
 -1        43 5.89554E-03-7.06257E-04-1.30027E-14
 -1        44 6.18182E-03-7.02875E-04-1.42600E-14
 -1        45 6.46890E-03-6.98951E-04-1.55732E-14
 -1        46 6.75710E-03-6.94390E-04-1.69287E-14
 -1        47 7.04692E-03-6.89115E-04-1.83312E-14
 -1        48 7.33907E-03-6.83095E-04-1.97777E-14
 -1        49 7.61977E-03-6.76765E-04-2.11880E-14
 -1        50 7.92010E-03-6.69738E-04-2.27107E-14
 -1        51 8.22776E-03-6.63056E-04-2.42810E-14
 -1        52 8.54625E-03-6.58265E-04-2.59005E-14
 -1        53 8.88064E-03-6.58473E-04-2.75651E-14
 -1        54 9.23805E-03-6.69627E-04-2.92691E-14
 -1        55 9.60728E-03-7.00368E-04-3.09165E-14
 -1        56 1.00366E-02-7.71844E-04-3.26651E-14
 -1        57 1.05127E-02-9.11771E-04-3.44324E-14
 -1        58 1.10246E-02-1.15468E-03-3.62099E-14
 -1        59 1.15288E-02-1.51699E-03-3.79725E-14
 -1        60 1.19338E-02-1.92354E-03-3.96441E-14
 -1        61 1.21854E-02-2.21368E-03-4.10689E-14
 -1        62 1.23671E-02-2.35284E-03-4.24305E-14
 -1        63 1.25938E-02-2.30624E-03-4.41259E-14
 -1        64 1.29257E-02-2.09041E-03-4.59724E-14
 -1        65 1.33832E-02-1.84950E-03-4.79618E-14
 -1        66 1.38853E-02-1.70454E-03-4.99920E-14
 -1        67 1.43455E-02-1.67060E-03-5.19459E-14
 -1        68 1.47842E-02-1.71629E-03-5.40115E-14
 -1        69 1.51725E-02-1.81087E-03-5.60805E-14
 -1        70 1.55178E-02-1.92678E-03-5.81728E-14
 -1        71 1.58304E-02-2.04477E-03-6.02886E-14
 -1        72 1.61222E-02-2.15240E-03-6.24272E-14
 -1        73 4.13846E-04 2.61432E-04 4.58889E-17
 -1        74 7.03237E-04 4.03674E-04 5.12590E-17
 -1        75 9.74054E-04 5.00113E-04 1.39964E-17
 -1        76 1.23887E-03 5.68793E-04-7.12355E-17
 -1        77 1.50258E-03 6.18106E-04-2.06151E-16
 -1        78 1.76738E-03 6.53369E-04-3.93525E-16
 -1        79 2.03424E-03 6.78269E-04-6.35204E-16
 -1        80 2.30355E-03 6.95498E-04-9.29497E-16
 -1        81 2.57536E-03 7.07075E-04-1.27928E-15
 -1        82 2.84955E-03 7.14529E-04-1.69055E-15
 -1        83 3.12587E-03 7.19015E-04-2.16227E-15
 -1        84 3.40407E-03 7.21401E-04-2.69004E-15
 -1        85 3.68385E-03 7.22325E-04-3.27493E-15
 -1        86 3.96494E-03 7.22249E-04-3.91791E-15
 -1        87 4.24712E-03 7.21495E-04-4.62308E-15
 -1        88 4.53017E-03 7.20279E-04-5.39272E-15
 -1        89 4.81394E-03 7.18739E-04-6.22404E-15
 -1        90 5.09831E-03 7.16951E-04-7.10854E-15
 -1        91 5.38322E-03 7.14958E-04-8.05841E-15
 -1        92 5.66865E-03 7.12780E-04-9.06531E-15
 -1        93 5.95461E-03 7.10434E-04-1.01192E-14
 -1        94 6.24120E-03 7.07954E-04-1.12244E-14
 -1        95 6.52852E-03 7.05410E-04-1.23937E-14
 -1        96 6.81671E-03 7.02932E-04-1.36111E-14
 -1        97 7.10594E-03 7.00730E-04-1.48707E-14
 -1        98 7.39636E-03 6.99116E-04-1.61734E-14
 -1        99 7.68802E-03 6.98517E-04-1.75195E-14
 -1       100 7.98085E-03 6.99462E-04-1.89082E-14
 -1       101 8.27453E-03 7.02538E-04-2.03442E-14
 -1       102 8.56837E-03 7.08285E-04-2.18409E-14
 -1       103 8.86121E-03 7.17012E-04-2.33841E-14
 -1       104 9.15135E-03 7.28516E-04-2.49889E-14
 -1       105 9.43655E-03 7.41731E-04-2.66521E-14
 -1       106 9.71428E-03 7.54359E-04-2.83742E-14
 -1       107 9.98213E-03 7.62618E-04-3.01596E-14
 -1       108 1.02385E-02 7.61295E-04-3.19998E-14
 -1       109 1.04831E-02 7.44266E-04-3.38742E-14
 -1       110 1.07178E-02 7.05507E-04-3.57840E-14
 -1       111 1.09461E-02 6.40395E-04-3.77374E-14
 -1       112 1.11731E-02 5.46849E-04-3.97335E-14
 -1       113 1.14037E-02 4.25856E-04-4.17740E-14
 -1       114 1.16419E-02 2.81123E-04-4.38543E-14
 -1       115 1.18901E-02 1.18020E-04-4.59732E-14
 -1       116 1.21485E-02-5.77351E-05-4.81357E-14
 -1       117 1.24158E-02-2.41170E-04-5.03271E-14
 -1       118 1.26902E-02-4.28623E-04-5.25476E-14
 -1       119 1.29695E-02-6.17755E-04-5.48079E-14
 -1       120 1.32523E-02-8.07150E-04-5.71043E-14
 -1       121 1.35372E-02-9.95827E-04-5.94023E-14
 -1       122 1.39925E-02-1.25826E-03-6.17923E-14
 -1       123 1.41755E-02-1.34348E-03-6.19686E-14
 -1       124 1.43588E-02-1.43056E-03-6.21086E-14
 -1       125 1.45447E-02-1.51905E-03-6.22461E-14
 -1       126 1.47354E-02-1.60697E-03-6.23877E-14
 -1       127 1.49281E-02-1.68961E-03-6.25375E-14
 -1       128 1.51283E-02-1.76572E-03-6.27021E-14
 -1       129 1.53285E-02-1.82970E-03-6.28782E-14
 -1       130 1.55222E-02-1.87875E-03-6.30585E-14
 -1       131 1.57008E-02-1.91281E-03-6.32423E-14
 -1       132 1.58561E-02-1.93566E-03-6.34193E-14
 -1       133 1.59810E-02-1.95450E-03-6.35963E-14
 -1       134 1.60803E-02-1.97963E-03-6.37932E-14
 -1       135 1.61588E-02-2.01993E-03-6.39675E-14
 -1       136 1.62292E-02-2.08041E-03-6.41339E-14
 -1       137 1.63058E-02-2.15845E-03-6.43202E-14
 -1       138 1.42910E-02-8.52468E-04-4.57990E-14
 -1       139 1.40926E-02-6.69079E-04-4.54206E-14
 -1       140 1.38103E-02-4.93048E-04-4.48671E-14
 -1       141 1.34547E-02-3.30376E-04-4.41691E-14
 -1       142 1.30424E-02-1.88795E-04-4.33589E-14
 -1       143 1.25747E-02-7.02896E-05-4.24431E-14
 -1       144 1.21030E-02 1.12034E-05-4.15249E-14
 -1       145 1.16169E-02 5.88734E-05-4.05869E-14
 -1       146 1.11517E-02 6.83769E-05-3.96996E-14
 -1       147 1.07142E-02 4.03157E-05-3.88843E-14
 -1       148 1.02900E-02-3.40090E-05-3.81105E-14
 -1       149 9.98524E-03-1.30803E-04-3.75878E-14
 -1       150 9.74689E-03-2.61516E-04-3.72184E-14
 -1       151 9.58872E-03-4.31041E-04-3.70241E-14
 -1       152 9.54480E-03-6.04355E-04-3.70401E-14
 -1       153 9.59397E-03-7.95144E-04-3.72322E-14
 -1       154 9.97714E-03-1.22354E-03-3.81095E-14
 -1       155 1.03128E-02-1.45564E-03-3.87680E-14
 -1       156 1.07295E-02-1.68002E-03-3.95334E-14
 -1       157 1.12468E-02-1.88804E-03-4.04338E-14
 -1       158 1.18100E-02-2.03002E-03-4.13736E-14
 -1       159 1.23837E-02-2.08389E-03-4.23152E-14
 -1       160 1.29452E-02-2.04408E-03-4.32430E-14
 -1       161 1.34198E-02-1.93549E-03-4.40582E-14
 -1       162 1.38048E-02-1.78804E-03-4.47532E-14
 -1       163 1.41280E-02-1.59998E-03-4.53785E-14
 -1       164 1.43190E-02-1.41809E-03-4.57751E-14
 -1       165 1.44107E-02-1.22582E-03-4.59868E-14
 -1       166 2.40362E-04-1.25524E-04-1.96647E-17
 -1       167 2.25279E-04-9.46283E-05-2.67527E-17
 -1       168 2.19533E-04-7.27934E-05-2.98122E-17
 -1       169 2.16714E-04-5.51116E-05-3.07439E-17
 -1       170 2.15215E-04-3.99707E-05-3.06253E-17
 -1       171 2.14375E-04-2.59195E-05-2.97817E-17
 -1       172 2.13953E-04-1.26504E-05-2.86399E-17
 -1       173 2.13830E-04 2.63552E-07-2.75150E-17
 -1       174 2.13972E-04 1.31895E-05-2.60513E-17
 -1       175 2.14414E-04 2.64971E-05-2.39575E-17
 -1       176 2.15261E-04 4.03744E-05-2.10877E-17
 -1       177 2.16814E-04 5.58920E-05-1.72219E-17
 -1       178 2.19682E-04 7.37949E-05-1.18686E-17
 -1       179 2.25447E-04 9.60020E-05-3.64902E-18
 -1       180 2.39348E-04 1.27575E-04 8.73122E-18
 -1       181 2.97729E-04 1.85489E-04 2.29309E-17
 -1       182 4.53552E-04-2.56608E-04-4.82504E-17
 -1       183 7.52411E-04-3.77241E-04-1.57958E-16
 -1       184 1.03677E-03-4.61602E-04-3.31820E-16
 -1       185 1.31442E-03-5.21392E-04-5.69145E-16
 -1       186 1.58914E-03-5.63819E-04-8.69395E-16
 -1       187 1.84938E-03-5.92423E-04-1.21194E-15
 -1       188 2.12366E-03-6.13445E-04-1.63058E-15
 -1       189 2.39892E-03-6.27604E-04-2.10932E-15
 -1       190 2.67544E-03-6.36766E-04-2.65090E-15
 -1       191 2.95330E-03-6.42335E-04-3.25578E-15
 -1       192 3.23246E-03-6.45361E-04-3.92046E-15
 -1       193 3.51282E-03-6.46620E-04-4.64444E-15
 -1       194 3.78013E-03-6.46692E-04-5.38399E-15
 -1       195 4.06239E-03-6.45968E-04-6.21730E-15
 -1       196 4.34543E-03-6.44686E-04-7.10834E-15
 -1       197 4.62912E-03-6.43015E-04-8.05734E-15
 -1       198 4.91336E-03-6.41044E-04-9.06113E-15
 -1       199 5.19809E-03-6.38800E-04-1.01173E-14
 -1       200 5.46902E-03-6.36397E-04-1.11719E-14
 -1       201 5.75469E-03-6.33528E-04-1.23373E-14
 -1       202 6.04091E-03-6.30227E-04-1.35581E-14
 -1       203 6.32782E-03-6.26385E-04-1.48332E-14
 -1       204 6.61564E-03-6.21879E-04-1.61590E-14
 -1       205 6.90471E-03-6.16582E-04-1.75299E-14
 -1       206 7.19551E-03-6.10381E-04-1.89467E-14
 -1       207 7.47400E-03-6.03603E-04-2.03329E-14
 -1       208 7.77044E-03-5.95582E-04-2.18288E-14
 -1       209 8.07160E-03-5.86979E-04-2.33692E-14
 -1       210 8.37940E-03-5.78639E-04-2.49572E-14
 -1       211 8.69641E-03-5.72469E-04-2.65907E-14
 -1       212 9.02609E-03-5.72401E-04-2.82626E-14
 -1       213 9.35497E-03-5.84991E-04-2.98855E-14
 -1       214 9.72238E-03-6.24964E-04-3.16175E-14
 -1       215 1.01162E-02-7.15902E-04-3.33672E-14
 -1       216 1.05392E-02-8.92835E-04-3.51358E-14
 -1       217 1.09876E-02-1.19232E-03-3.69079E-14
 -1       218 1.14230E-02-1.59008E-03-3.85896E-14
 -1       219 1.17795E-02-1.94799E-03-4.00165E-14
 -1       220 1.20962E-02-2.20204E-03-4.13747E-14
 -1       221 1.24635E-02-2.28394E-03-4.30455E-14
 -1       222 1.28646E-02-2.11517E-03-4.48689E-14
 -1       223 1.33109E-02-1.83928E-03-4.68386E-14
 -1       224 1.37600E-02-1.63588E-03-4.88467E-14
 -1       225 1.41678E-02-1.55852E-03-5.07830E-14
 -1       226 1.45675E-02-1.57848E-03-5.28414E-14
 -1       227 1.49360E-02-1.66353E-03-5.49106E-14
 -1       228 1.52768E-02-1.78057E-03-5.69981E-14
 -1       229 1.55951E-02-1.90632E-03-5.90990E-14
 -1       230 1.58962E-02-2.02500E-03-6.12244E-14
 -1       231 6.04615E-04 3.31023E-04 1.48773E-17
 -1       232 8.93740E-04 4.32629E-04-3.37593E-17
 -1       233 1.17265E-03 5.04360E-04-1.28424E-16
 -1       234 1.44703E-03 5.55447E-04-2.71989E-16
 -1       235 1.71989E-03 5.91709E-04-4.66918E-16
 -1       236 1.99284E-03 6.17120E-04-7.15431E-16
 -1       237 2.26672E-03 6.34557E-04-1.01761E-15
 -1       238 2.54194E-03 6.46157E-04-1.37504E-15
 -1       239 2.81863E-03 6.53526E-04-1.78980E-15
 -1       240 3.09677E-03 6.57871E-04-2.26450E-15
 -1       241 3.37627E-03 6.60091E-04-2.79718E-15
 -1       242 3.65696E-03 6.60848E-04-3.38586E-15
 -1       243 3.93870E-03 6.60613E-04-4.03212E-15
 -1       244 4.22131E-03 6.59718E-04-4.73871E-15
 -1       245 4.50467E-03 6.58378E-04-5.50917E-15
 -1       246 4.78865E-03 6.56730E-04-6.34080E-15
 -1       247 5.07317E-03 6.54847E-04-7.22937E-15
 -1       248 5.35819E-03 6.52765E-04-8.17869E-15
 -1       249 5.64368E-03 6.50495E-04-9.18382E-15
 -1       250 5.92968E-03 6.48046E-04-1.02418E-14
 -1       251 6.21622E-03 6.45441E-04-1.13515E-14
 -1       252 6.50340E-03 6.42738E-04-1.25180E-14
 -1       253 6.79132E-03 6.40056E-04-1.37308E-14
 -1       254 7.08010E-03 6.37595E-04-1.49898E-14
 -1       255 7.36982E-03 6.35666E-04-1.62981E-14
 -1       256 7.66052E-03 6.34703E-04-1.76490E-14
 -1       257 7.95213E-03 6.35262E-04-1.90435E-14
 -1       258 8.24439E-03 6.37985E-04-2.04833E-14
 -1       259 8.53680E-03 6.43499E-04-2.19769E-14
 -1       260 8.82853E-03 6.52243E-04-2.35217E-14
 -1       261 9.11836E-03 6.64184E-04-2.51234E-14
 -1       262 9.40475E-03 6.78440E-04-2.67802E-14
 -1       263 9.68596E-03 6.92876E-04-2.84979E-14
 -1       264 9.96032E-03 7.03786E-04-3.02757E-14
 -1       265 1.02267E-02 7.05876E-04-3.21032E-14
 -1       266 1.04848E-02 6.92737E-04-3.39709E-14
 -1       267 1.07358E-02 6.57885E-04-3.58726E-14
 -1       268 1.09821E-02 5.96169E-04-3.78175E-14
 -1       269 1.12270E-02 5.05077E-04-3.98027E-14
 -1       270 1.14741E-02 3.85393E-04-4.18323E-14
 -1       271 1.17261E-02 2.40905E-04-4.39048E-14
 -1       272 1.19847E-02 7.72753E-05-4.60122E-14
 -1       273 1.22503E-02-9.94057E-05-4.81598E-14
 -1       274 1.25223E-02-2.83839E-04-5.03388E-14
 -1       275 1.27993E-02-4.72162E-04-5.25461E-14
 -1       276 1.30799E-02-6.61971E-04-5.47890E-14
 -1       277 1.33629E-02-8.51895E-04-5.70634E-14
 -1       278 1.36476E-02-1.04099E-03-5.93507E-14
 -1       279 1.38365E-02-1.13846E-03-5.99085E-14
 -1       280 1.40188E-02-1.22419E-03-6.00961E-14
 -1       281 1.42028E-02-1.31078E-03-6.02681E-14
 -1       282 1.43911E-02-1.39725E-03-6.04364E-14
 -1       283 1.45820E-02-1.48039E-03-6.06030E-14
 -1       284 1.47822E-02-1.56060E-03-6.07771E-14
 -1       285 1.49859E-02-1.63368E-03-6.09550E-14
 -1       286 1.51873E-02-1.69731E-03-6.11376E-14
 -1       287 1.53781E-02-1.75051E-03-6.13199E-14
 -1       288 1.55487E-02-1.79443E-03-6.15007E-14
 -1       289 1.56890E-02-1.83208E-03-6.16834E-14
 -1       290 1.58007E-02-1.87038E-03-6.18670E-14
 -1       291 1.58848E-02-1.91493E-03-6.20445E-14
 -1       292 1.59525E-02-1.97079E-03-6.22149E-14
 -1       293 1.43755E-02-1.02876E-03-4.67024E-14
 -1       294 1.41755E-02-9.10301E-04-4.63693E-14
 -1       295 1.38652E-02-7.57588E-04-4.58205E-14
 -1       296 1.34793E-02-5.68768E-04-4.50800E-14
 -1       297 1.30563E-02-3.58127E-04-4.41823E-14
 -1       298 1.26137E-02-1.51673E-04-4.31730E-14
 -1       299 1.22070E-02 1.74067E-05-4.20689E-14
 -1       300 1.18089E-02 1.20441E-04-4.09662E-14
 -1       301 1.14265E-02 1.36603E-04-3.98999E-14
 -1       302 1.10440E-02 8.04141E-05-3.89073E-14
 -1       303 1.06600E-02-4.45081E-05-3.78458E-14
 -1       304 1.02558E-02-1.81870E-04-3.72419E-14
 -1       305 9.93225E-03-3.15517E-04-3.67313E-14
 -1       306 9.67105E-03-4.49293E-04-3.62644E-14
 -1       307 9.53143E-03-5.44526E-04-3.63190E-14
 -1       308 9.53287E-03-6.43244E-04-3.64459E-14
 -1       309 9.67153E-03-7.58965E-04-3.67299E-14
 -1       310 9.93350E-03-9.32872E-04-3.72846E-14
 -1       311 1.03067E-02-1.14857E-03-3.79297E-14
 -1       312 1.07459E-02-1.43053E-03-3.87611E-14
 -1       313 1.12310E-02-1.74051E-03-3.97174E-14
 -1       314 1.16887E-02-2.01477E-03-4.08137E-14
 -1       315 1.21423E-02-2.15900E-03-4.19057E-14
 -1       316 1.25830E-02-2.14790E-03-4.30160E-14
 -1       317 1.30275E-02-1.99293E-03-4.40310E-14
 -1       318 1.34460E-02-1.78445E-03-4.49285E-14
 -1       319 1.38369E-02-1.55452E-03-4.58011E-14
 -1       320 1.41729E-02-1.37954E-03-4.63167E-14
 -1       321 1.43773E-02-1.24161E-03-4.66782E-14
 -1       322 1.44484E-02-1.13154E-03-4.68645E-14
 -1       323 1.60199E-02-2.03956E-03-6.23785E-14
 -1       324 4.55328E-04-1.64789E-04-1.01102E-16
 -1       325 4.74344E-04-2.13107E-04-9.10052E-17
 -1       326 4.40444E-04-9.40276E-05-1.06032E-16
 -1       327 4.37468E-04-6.49220E-05-1.04551E-16
 -1       328 4.35838E-04-3.79182E-05-1.02291E-16
 -1       329 4.35124E-04-1.20337E-05-9.89402E-17
 -1       330 4.35154E-04 1.35148E-05-9.48372E-17
 -1       331 4.35933E-04 3.94553E-05-8.93145E-17
 -1       332 4.37604E-04 6.61074E-05-8.19623E-17
 -1       333 4.40668E-04 9.53803E-05-7.27432E-17
 -1       334 4.46068E-04 1.28293E-04-6.05662E-17
 -1       335 4.55994E-04 1.67281E-04-4.37137E-17
 -1       336 4.75902E-04 2.16945E-04-2.07049E-17
 -1       337 5.32022E-04 2.69931E-04-6.19350E-18
 -1       338 8.24534E-04 3.73439E-04-6.24026E-17
 -1       339 8.49000E-04-3.53442E-04-2.65013E-16
 -1       340 1.13556E-03-4.23302E-04-4.74349E-16
 -1       341 1.41850E-03-4.73315E-04-7.44904E-16
 -1       342 1.68531E-03-5.07205E-04-1.05755E-15
 -1       343 1.96518E-03-5.32245E-04-1.44436E-15
 -1       344 2.24480E-03-5.49240E-04-1.89014E-15
 -1       345 2.52468E-03-5.60367E-04-2.39573E-15
 -1       346 2.80510E-03-5.67264E-04-2.96200E-15
 -1       347 3.08617E-03-5.71160E-04-3.58903E-15
 -1       348 3.36793E-03-5.72967E-04-4.27460E-15
 -1       349 3.63623E-03-5.73356E-04-4.97992E-15
 -1       350 3.91925E-03-5.72823E-04-5.77742E-15
 -1       351 4.20282E-03-5.71645E-04-6.63254E-15
 -1       352 4.48687E-03-5.70032E-04-7.54382E-15
 -1       353 4.77136E-03-5.68105E-04-8.51095E-15
 -1       354 5.05624E-03-5.65913E-04-9.53311E-15
 -1       355 5.32721E-03-5.63581E-04-1.05516E-14
 -1       356 5.61282E-03-5.60820E-04-1.16800E-14
 -1       357 5.89883E-03-5.57666E-04-1.28661E-14
 -1       358 6.18534E-03-5.54012E-04-1.41078E-14
 -1       359 6.47244E-03-5.49732E-04-1.53998E-14
 -1       360 6.76031E-03-5.44687E-04-1.67388E-14
 -1       361 7.04919E-03-5.38744E-04-1.81237E-14
 -1       362 7.32483E-03-5.32167E-04-1.94799E-14
 -1       363 7.61664E-03-5.24235E-04-2.09530E-14
 -1       364 7.91063E-03-5.15411E-04-2.24677E-14
 -1       365 8.20740E-03-5.06194E-04-2.40247E-14
 -1       366 8.50764E-03-4.97789E-04-2.56263E-14
 -1       367 8.81217E-03-4.92743E-04-2.72705E-14
 -1       368 9.10640E-03-4.95590E-04-2.88648E-14
 -1       369 9.42292E-03-5.15370E-04-3.05765E-14
 -1       370 9.74992E-03-5.68117E-04-3.23086E-14
 -1       371 1.00952E-02-6.80031E-04-3.40677E-14
 -1       372 1.04746E-02-8.89069E-04-3.58363E-14
 -1       373 1.08832E-02-1.21578E-03-3.75210E-14
 -1       374 1.17861E-02-2.01927E-03-4.05689E-14
 -1       375 1.22268E-02-2.22839E-03-4.20997E-14
 -1       376 1.27078E-02-2.14810E-03-4.38383E-14
 -1       377 1.32227E-02-1.84477E-03-4.57236E-14
 -1       378 1.36870E-02-1.58817E-03-4.77174E-14
 -1       379 1.40747E-02-1.47133E-03-4.96409E-14
 -1       380 1.44385E-02-1.46429E-03-5.16861E-14
 -1       381 1.47733E-02-1.53445E-03-5.37497E-14
 -1       382 1.50907E-02-1.64626E-03-5.58279E-14
 -1       383 1.53962E-02-1.77457E-03-5.79254E-14
 -1       384 1.56926E-02-1.90187E-03-6.00394E-14
 -1       385 1.11002E-03 4.47746E-04-1.63074E-16
 -1       386 1.39970E-02-9.42856E-04-4.69178E-14
 -1       387 1.39082E-03 5.00827E-04-3.12071E-16
 -1       388 1.66919E-03 5.38457E-04-5.11486E-16
 -1       389 1.94663E-03 5.64757E-04-7.63973E-16
 -1       390 2.22410E-03 5.82745E-04-1.07001E-15
 -1       391 2.50213E-03 5.94665E-04-1.43073E-15
 -1       392 2.78100E-03 6.02197E-04-1.84756E-15
 -1       393 3.06081E-03 6.06603E-04-2.32323E-15
 -1       394 3.34157E-03 6.08822E-04-2.85709E-15
 -1       395 3.62320E-03 6.09540E-04-3.44630E-15
 -1       396 3.90562E-03 6.09250E-04-4.09328E-15
 -1       397 4.18874E-03 6.08292E-04-4.79956E-15
 -1       398 4.47245E-03 6.06892E-04-5.56917E-15
 -1       399 4.75668E-03 6.05187E-04-6.40012E-15
 -1       400 5.04138E-03 6.03254E-04-7.28871E-15
 -1       401 5.32649E-03 6.01125E-04-8.23513E-15
 -1       402 5.61202E-03 5.98807E-04-9.23936E-15
 -1       403 5.89798E-03 5.96302E-04-1.02965E-14
 -1       404 6.18440E-03 5.93625E-04-1.14060E-14
 -1       405 6.47136E-03 5.90822E-04-1.25693E-14
 -1       406 6.75895E-03 5.87998E-04-1.37808E-14
 -1       407 7.04725E-03 5.85339E-04-1.50407E-14
 -1       408 7.33636E-03 5.83143E-04-1.63493E-14
 -1       409 7.62634E-03 5.81834E-04-1.76991E-14
 -1       410 7.91717E-03 5.81970E-04-1.90968E-14
 -1       411 8.20872E-03 5.84215E-04-2.05365E-14
 -1       412 8.50071E-03 5.89254E-04-2.20294E-14
 -1       413 8.79258E-03 5.97628E-04-2.35720E-14
 -1       414 9.08352E-03 6.09465E-04-2.51677E-14
 -1       415 9.37240E-03 6.24103E-04-2.68195E-14
 -1       416 9.65787E-03 6.39650E-04-2.85294E-14
 -1       417 9.93850E-03 6.52607E-04-3.03006E-14
 -1       418 1.02131E-02 6.57742E-04-3.21179E-14
 -1       419 1.04813E-02 6.48477E-04-3.39767E-14
 -1       420 1.07436E-02 6.17893E-04-3.58715E-14
 -1       421 1.10017E-02 5.60244E-04-3.78061E-14
 -1       422 1.12584E-02 4.72448E-04-3.97844E-14
 -1       423 1.15165E-02 3.54958E-04-4.18060E-14
 -1       424 1.17784E-02 2.11556E-04-4.38702E-14
 -1       425 1.20455E-02 4.81628E-05-4.59695E-14
 -1       426 1.23180E-02-1.28763E-04-4.81006E-14
 -1       427 1.25951E-02-3.13594E-04-5.02638E-14
 -1       428 1.28757E-02-5.02264E-04-5.24609E-14
 -1       429 1.31587E-02-6.92312E-04-5.46910E-14
 -1       430 1.34429E-02-8.82452E-04-5.69483E-14
 -1       431 1.36395E-02-1.01068E-03-5.84275E-14
 -1       432 1.40466E-02-1.19115E-03-5.84560E-14
 -1       433 1.38616E-02-1.10377E-03-5.82600E-14
 -1       434 1.37505E-02-1.05678E-03-5.83451E-14
 -1       435 1.42341E-02-1.27716E-03-5.86427E-14
 -1       436 1.44321E-02-1.36314E-03-5.88308E-14
 -1       437 1.46365E-02-1.44539E-03-5.90191E-14
 -1       438 1.48433E-02-1.52141E-03-5.92053E-14
 -1       439 1.50451E-02-1.58897E-03-5.93944E-14
 -1       440 1.52317E-02-1.64710E-03-5.95837E-14
 -1       441 1.53901E-02-1.69619E-03-5.97696E-14
 -1       442 1.55183E-02-1.74162E-03-5.99520E-14
 -1       443 1.56125E-02-1.78823E-03-6.01281E-14
 -1       444 1.56807E-02-1.84154E-03-6.02955E-14
 -1       445 1.35973E-02-7.86493E-04-4.62866E-14
 -1       446 1.44429E-02-1.11654E-03-4.76553E-14
 -1       447 4.45693E-04-1.26509E-04-1.05229E-16
 -1       448 1.32351E-02-5.89480E-04-4.53776E-14
 -1       449 1.27394E-02-3.03235E-04-4.40754E-14
 -1       450 1.22828E-02-5.88932E-05-4.28027E-14
 -1       451 1.19505E-02 9.82369E-05-4.15603E-14
 -1       452 1.15805E-02 1.77051E-04-4.01754E-14
 -1       453 1.12976E-02 1.51901E-04-3.91825E-14
 -1       454 1.09327E-02 4.48696E-05-3.79694E-14
 -1       455 1.04551E-02-1.56720E-04-3.68135E-14
 -1       456 1.01232E-02-2.95755E-04-3.62524E-14
 -1       457 9.82349E-03-4.13928E-04-3.56990E-14
 -1       458 9.55537E-03-5.11109E-04-3.53741E-14
 -1       459 9.49765E-03-5.56333E-04-3.55034E-14
 -1       460 9.57632E-03-6.14955E-04-3.57124E-14
 -1       461 9.82925E-03-7.37633E-04-3.63300E-14
 -1       462 1.01671E-02-9.08304E-04-3.69794E-14
 -1       463 1.06258E-02-1.18296E-03-3.78603E-14
 -1       464 1.11010E-02-1.50739E-03-3.88145E-14
 -1       465 1.15966E-02-1.90201E-03-4.01542E-14
 -1       466 1.19919E-02-2.14543E-03-4.13403E-14
 -1       467 1.27813E-02-2.09964E-03-4.39035E-14
 -1       468 1.31770E-02-1.87628E-03-4.49632E-14
 -1       469 1.35653E-02-1.63273E-03-4.60093E-14
 -1       470 1.40073E-02-1.38871E-03-4.69947E-14
 -1       471 1.42848E-02-1.26081E-03-4.73816E-14
 -1       472 1.44421E-02-1.17842E-03-4.76372E-14
 -1       473 1.42894E-02-1.05252E-03-4.74346E-14
 -1       474 1.13489E-02-1.64969E-03-3.91428E-14
 -1       475 1.06933E-02-4.51861E-05-3.69329E-14
 -1       476 6.65813E-04-7.51569E-05-2.20334E-16
 -1       477 6.69788E-04-1.15916E-04-2.23942E-16
 -1       478 6.63131E-04 1.07724E-06-2.07581E-16
 -1       479 6.63850E-04 3.87346E-05-1.98063E-16
 -1       480 6.65993E-04 7.67837E-05-1.86141E-16
 -1       481 6.70093E-04 1.17691E-04-1.70498E-16
 -1       482 6.77111E-04 1.62309E-04-1.50741E-16
 -1       483 6.89031E-04 2.12688E-04-1.25408E-16
 -1       484 7.09809E-04 2.71697E-04-9.28009E-17
 -1       485 7.63550E-04 3.20475E-04-8.03970E-17
 -1       486 9.62094E-04-3.25491E-04-3.80826E-16
 -1       487 1.54073E-02-1.71381E-03-5.81849E-14
 -1       488 1.33457E-02-7.33608E-04-4.65009E-14
 -1       489 1.24802E-03-3.81210E-04-6.22817E-16
 -1       490 1.51889E-03-4.19922E-04-9.07152E-16
 -1       491 1.80311E-03-4.49024E-04-1.26333E-15
 -1       492 2.08672E-03-4.69086E-04-1.67751E-15
 -1       493 2.37003E-03-4.82456E-04-2.14938E-15
 -1       494 2.65329E-03-4.90952E-04-2.67945E-15
 -1       495 2.93668E-03-4.95962E-04-3.26785E-15
 -1       496 3.22030E-03-4.98524E-04-3.91546E-15
 -1       497 3.48999E-03-4.99392E-04-4.58552E-15
 -1       498 3.77415E-03-4.99191E-04-5.34666E-15
 -1       499 4.05860E-03-4.98230E-04-6.16573E-15
 -1       500 4.34330E-03-4.96766E-04-7.04110E-15
 -1       501 4.62825E-03-4.94959E-04-7.97148E-15
 -1       502 4.91343E-03-4.92885E-04-8.95880E-15
 -1       503 5.18454E-03-4.90686E-04-9.94548E-15
 -1       504 5.47014E-03-4.88103E-04-1.10358E-14
 -1       505 5.75597E-03-4.85184E-04-1.21846E-14
 -1       506 6.04205E-03-4.81839E-04-1.33900E-14
 -1       507 6.32840E-03-4.77957E-04-1.46489E-14
 -1       508 6.61507E-03-4.73420E-04-1.59562E-14
 -1       509 6.90210E-03-4.68112E-04-1.73088E-14
 -1       510 7.17511E-03-4.62278E-04-1.86363E-14
 -1       511 7.46282E-03-4.55282E-04-2.00784E-14
 -1       512 7.75074E-03-4.47528E-04-2.15682E-14
 -1       513 8.03858E-03-4.39404E-04-2.30971E-14
 -1       514 8.32579E-03-4.31792E-04-2.46700E-14
 -1       515 8.61145E-03-4.26439E-04-2.62818E-14
 -1       516 8.88020E-03-4.26355E-04-2.78511E-14
 -1       517 9.15896E-03-4.36770E-04-2.95363E-14
 -1       518 9.43290E-03-4.66781E-04-3.12549E-14
 -1       519 9.70502E-03-5.30497E-04-3.29980E-14
 -1       520 9.98693E-03-6.53485E-04-3.47593E-14
 -1       521 1.04075E-02-9.18114E-04-3.65398E-14
 -1       522 1.05092E-03 3.95763E-04-1.85460E-16
 -1       523 1.44949E-02-1.17438E-03-4.87020E-14
 -1       524 1.40714E-02-1.38227E-03-4.85492E-14
 -1       525 1.43872E-02-1.36108E-03-5.05903E-14
 -1       526 1.46746E-02-1.42178E-03-5.26391E-14
 -1       527 1.49538E-02-1.52677E-03-5.47111E-14
 -1       528 1.51857E-02-1.61734E-03-5.64430E-14
 -1       529 1.50134E-03 4.50150E-04-4.87007E-16
 -1       530 1.27623E-03 4.28604E-04-3.17949E-16
 -1       531 2.06612E-03 5.02399E-04-1.02027E-15
 -1       532 2.34789E-03 5.16738E-04-1.36620E-15
 -1       533 2.62976E-03 5.25966E-04-1.76705E-15
 -1       534 2.91193E-03 5.31531E-04-2.22469E-15
 -1       535 3.19452E-03 5.34518E-04-2.73966E-15
 -1       536 3.47755E-03 5.35730E-04-3.31210E-15
 -1       537 3.76102E-03 5.35744E-04-3.94131E-15
 -1       538 4.04492E-03 5.34969E-04-4.62874E-15
 -1       539 4.32919E-03 5.33678E-04-5.37684E-15
 -1       540 4.61380E-03 5.32043E-04-6.18596E-15
 -1       541 4.89872E-03 5.30164E-04-7.05537E-15
 -1       542 5.18393E-03 5.28085E-04-7.98077E-15
 -1       543 5.46941E-03 5.25817E-04-8.96321E-15
 -1       544 5.75519E-03 5.23357E-04-1.00010E-14
 -1       545 6.04127E-03 5.20700E-04-1.10915E-14
 -1       546 6.32772E-03 5.17862E-04-1.22349E-14
 -1       547 6.61459E-03 5.14904E-04-1.34295E-14
 -1       548 6.90198E-03 5.11951E-04-1.46715E-14
 -1       549 7.18999E-03 5.09224E-04-1.59655E-14
 -1       550 7.47874E-03 5.07064E-04-1.73021E-14
 -1       551 7.76835E-03 5.05951E-04-1.86823E-14
 -1       552 8.05895E-03 5.06505E-04-2.01070E-14
 -1       553 8.35057E-03 5.09446E-04-2.15827E-14
 -1       554 8.64317E-03 5.15494E-04-2.31081E-14
 -1       555 8.93653E-03 5.25176E-04-2.46796E-14
 -1       556 9.23012E-03 5.38504E-04-2.63057E-14
 -1       557 9.52307E-03 5.54540E-04-2.79863E-14
 -1       558 9.81414E-03 5.70880E-04-2.97234E-14
 -1       559 1.01019E-02 5.83222E-04-3.15147E-14
 -1       560 1.03849E-02 5.85305E-04-3.33502E-14
 -1       561 1.06626E-02 5.69525E-04-3.52234E-14
 -1       562 1.09357E-02 5.28412E-04-3.71321E-14
 -1       563 1.12061E-02 4.56602E-04-3.90842E-14
 -1       564 1.14767E-02 3.52506E-04-4.10793E-14
 -1       565 1.17501E-02 2.18813E-04-4.31188E-14
 -1       566 1.20278E-02 6.14847E-05-4.51916E-14
 -1       567 1.23098E-02-1.12187E-04-4.72966E-14
 -1       568 1.25953E-02-2.95481E-04-4.94294E-14
 -1       569 1.28827E-02-4.83411E-04-5.15965E-14
 -1       570 1.31707E-02-6.72989E-04-5.37979E-14
 -1       571 1.34583E-02-8.62828E-04-5.60301E-14
 -1       572 1.40776E-02-1.16572E-03-5.68684E-14
 -1       573 1.42798E-02-1.25710E-03-5.70682E-14
 -1       574 1.37020E-02-9.84805E-04-5.64458E-14
 -1       575 1.38860E-02-1.07464E-03-5.66619E-14
 -1       576 1.44894E-02-1.34530E-03-5.72684E-14
 -1       577 1.47009E-02-1.42689E-03-5.74667E-14
 -1       578 1.49045E-02-1.49855E-03-5.76621E-14
 -1       579 1.50847E-02-1.55774E-03-5.78489E-14
 -1       580 1.52351E-02-1.60818E-03-5.80336E-14
 -1       581 1.53453E-02-1.65415E-03-5.82105E-14
 -1       582 1.17282E-02 1.62056E-04-4.08310E-14
 -1       583 1.19976E-02 5.58345E-05-4.20686E-14
 -1       584 7.05666E-04-2.49942E-04-2.18572E-16
 -1       585 1.41642E-02-1.07429E-03-4.82562E-14
 -1       586 9.63982E-03-4.53709E-04-3.45893E-14
 -1       587 1.78410E-03 4.81035E-04-7.26917E-16
 -1       588 1.38450E-02-9.61471E-04-4.76231E-14
 -1       589 6.63743E-04-3.65457E-05-2.15153E-16
 -1       590 1.24867E-02-2.26220E-04-4.39637E-14
 -1       591 1.29133E-02-4.87715E-04-4.52950E-14
 -1       592 1.13783E-02 1.90920E-04-3.92265E-14
 -1       593 9.68832E-03-6.00776E-04-3.51786E-14
 -1       594 1.10826E-02 1.23861E-04-3.80133E-14
 -1       595 1.02479E-02-2.33375E-04-3.56246E-14
 -1       596 9.96345E-03-3.47080E-04-3.50769E-14
 -1       597 9.47418E-03-5.02658E-04-3.44338E-14
 -1       598 9.49084E-03-5.32142E-04-3.46408E-14
 -1       599 1.00021E-02-7.32079E-04-3.59153E-14
 -1       600 1.38048E-02-1.48859E-03-4.73047E-14
 -1       601 1.42096E-02-1.29804E-03-4.82418E-14
 -1       602 1.43995E-02-1.22254E-03-4.85083E-14
 -1       603 1.44111E-02-1.14393E-03-4.86995E-14
 -1       604 6.76606E-04-1.60112E-04-2.25013E-16
 -1       605 6.88381E-04-2.02085E-04-2.23789E-16
 -1       606 1.08495E-02 5.77527E-05-3.69744E-14
 -1       607 1.04480E-02-1.19079E-04-3.57356E-14
 -1       608 8.99737E-04 7.40728E-05-3.33938E-16
 -1       609 8.97646E-04 2.51423E-05-3.51268E-16
 -1       610 9.11822E-04 1.78183E-04-2.85128E-16
 -1       611 9.24186E-04 2.36705E-04-2.51355E-16
 -1       612 9.43857E-04 3.01652E-04-2.09515E-16
 -1       613 9.95449E-04 3.47465E-04-1.99822E-16
 -1       614 9.39828E-04-2.67941E-04-3.88632E-16
 -1       615 2.47551E-03 4.48464E-04-1.67614E-15
 -1       616 1.22454E-03-3.18117E-04-6.31304E-16
 -1       617 1.49618E-03-3.53806E-04-9.14809E-16
 -1       618 1.78236E-03-3.81016E-04-1.26882E-15
 -1       619 2.06842E-03-3.99927E-04-1.67935E-15
 -1       620 2.35427E-03-4.12580E-04-2.14700E-15
 -1       621 2.63996E-03-4.20629E-04-2.67107E-15
 -1       622 2.92553E-03-4.25366E-04-3.25167E-15
 -1       623 3.21104E-03-4.27772E-04-3.89085E-15
 -1       624 3.48226E-03-4.28567E-04-4.55248E-15
 -1       625 3.76775E-03-4.28342E-04-5.30625E-15
 -1       626 4.05327E-03-4.27395E-04-6.11692E-15
 -1       627 4.33882E-03-4.25973E-04-6.98423E-15
 -1       628 4.62441E-03-4.24228E-04-7.90769E-15
 -1       629 4.91005E-03-4.22234E-04-8.88561E-15
 -1       630 5.18145E-03-4.20128E-04-9.86533E-15
 -1       631 5.46717E-03-4.17665E-04-1.09465E-14
 -1       632 5.75294E-03-4.14897E-04-1.20875E-14
 -1       633 6.03873E-03-4.11749E-04-1.32835E-14
 -1       634 6.32451E-03-4.08133E-04-1.45330E-14
 -1       635 6.61022E-03-4.03966E-04-1.58319E-14
 -1       636 6.89574E-03-3.99186E-04-1.71751E-14
 -1       637 7.16662E-03-3.94065E-04-1.84944E-14
 -1       638 7.45103E-03-3.88148E-04-1.99311E-14
 -1       639 7.73414E-03-3.81951E-04-2.14136E-14
 -1       640 8.01502E-03-3.76040E-04-2.29365E-14
 -1       641 8.29225E-03-3.71468E-04-2.45007E-14
 -1       642 8.56373E-03-3.70060E-04-2.61034E-14
 -1       643 8.81365E-03-3.74282E-04-2.76638E-14
 -1       644 9.06473E-03-3.88734E-04-2.93444E-14
 -1       645 9.29935E-03-4.19401E-04-3.10587E-14
 -1       646 9.51434E-03-4.75353E-04-3.27968E-14
 -1       647 1.31103E-02-6.46796E-04-4.67595E-14
 -1       648 1.40525E-02-1.08265E-03-4.91850E-14
 -1       649 1.46178E-02-1.31833E-03-5.14690E-14
 -1       650 1.48410E-02-1.41672E-03-5.35273E-14
 -1       651 2.76019E-03 4.55350E-04-2.11628E-15
 -1       652 2.19073E-03 4.37419E-04-1.29039E-15
 -1       653 3.04488E-03 4.59277E-04-2.61339E-15
 -1       654 3.32963E-03 4.61143E-04-3.16720E-15
 -1       655 3.61449E-03 4.61608E-04-3.77892E-15
 -1       656 3.89947E-03 4.61143E-04-4.44930E-15
 -1       657 4.18458E-03 4.60070E-04-5.17774E-15
 -1       658 4.46980E-03 4.58602E-04-5.96771E-15
 -1       659 4.75515E-03 4.56863E-04-6.81430E-15
 -1       660 5.04061E-03 4.54916E-04-7.72123E-15
 -1       661 5.32619E-03 4.52784E-04-8.68335E-15
 -1       662 5.61189E-03 4.50459E-04-9.69920E-15
 -1       663 5.89773E-03 4.47927E-04-1.07702E-14
 -1       664 6.18375E-03 4.45179E-04-1.18961E-14
 -1       665 6.46999E-03 4.42231E-04-1.30728E-14
 -1       666 6.75654E-03 4.39146E-04-1.42975E-14
 -1       667 7.04351E-03 4.36058E-04-1.55742E-14
 -1       668 7.33107E-03 4.33200E-04-1.68979E-14
 -1       669 7.61943E-03 4.30931E-04-1.82619E-14
 -1       670 7.90887E-03 4.29756E-04-1.96717E-14
 -1       671 8.19975E-03 4.30332E-04-2.11290E-14
 -1       672 8.49242E-03 4.33432E-04-2.26359E-14
 -1       673 8.78719E-03 4.39847E-04-2.41908E-14
 -1       674 9.08419E-03 4.50182E-04-2.57932E-14
 -1       675 9.38315E-03 4.64491E-04-2.74490E-14
 -1       676 9.68319E-03 4.81735E-04-2.91576E-14
 -1       677 9.98274E-03 4.99088E-04-3.09165E-14
 -1       678 1.02797E-02 5.11313E-04-3.27266E-14
 -1       679 1.05721E-02 5.10664E-04-3.45772E-14
 -1       680 1.08591E-02 4.87881E-04-3.64634E-14
 -1       681 1.11418E-02 4.34574E-04-3.83904E-14
 -1       682 1.14232E-02 3.46028E-04-4.03611E-14
 -1       683 1.17067E-02 2.23063E-04-4.23711E-14
 -1       684 1.19948E-02 7.17001E-05-4.44181E-14
 -1       685 1.22876E-02-9.93870E-05-4.65030E-14
 -1       686 1.25837E-02-2.81716E-04-4.86093E-14
 -1       687 1.28809E-02-4.68972E-04-5.07470E-14
 -1       688 1.31770E-02-6.57503E-04-5.29221E-14
 -1       689 1.34396E-02-8.21553E-04-5.46814E-14
 -1       690 1.43420E-02-1.25949E-03-5.55352E-14
 -1       691 1.39162E-02-1.06314E-03-5.51050E-14
 -1       692 1.45623E-02-1.34722E-03-5.57375E-14
 -1       693 1.41242E-02-1.16299E-03-5.53225E-14
 -1       694 1.47680E-02-1.41980E-03-5.59270E-14
 -1       695 1.49487E-02-1.47775E-03-5.61164E-14
 -1       696 1.50844E-02-1.52352E-03-5.62993E-14
 -1       697 1.14917E-02 2.09026E-04-3.97222E-14
 -1       698 1.18056E-02 1.26288E-04-4.14048E-14
 -1       699 1.45334E-02-1.23166E-03-4.98809E-14
 -1       700 1.36245E-02-9.10148E-04-4.81482E-14
 -1       701 1.51626E-02-1.56615E-03-5.63723E-14
 -1       702 1.27221E-02-4.11525E-04-4.54113E-14
 -1       703 9.04191E-04 1.24575E-04-3.12393E-16
 -1       704 1.22158E-02-9.23081E-05-4.34214E-14
 -1       705 9.72935E-03-3.75583E-04-3.38621E-14
 -1       706 9.03834E-04-1.22244E-04-3.82757E-16
 -1       707 1.11738E-02 1.90324E-04-3.81420E-14
 -1       708 1.00340E-02-2.59044E-04-3.43563E-14
 -1       709 9.40254E-03-4.64820E-04-3.33433E-14
 -1       710 1.43277E-02-1.16225E-03-4.96340E-14
 -1       711 9.52475E-03-5.05646E-04-3.38726E-14
 -1       712 1.44286E-02-1.26309E-03-4.96159E-14
 -1       713 1.45293E-02-1.20632E-03-4.98759E-14
 -1       714 9.47942E-03-4.45127E-04-3.34994E-14
 -1       715 8.97587E-04-2.31915E-05-3.65020E-16
 -1       716 8.99539E-04-7.18609E-05-3.75256E-16
 -1       717 1.90573E-03 4.20654E-04-9.58126E-16
 -1       718 9.72001E-03-5.62168E-04-3.43104E-14
 -1       719 1.50032E-02-1.48857E-03-5.49474E-14
 -1       720 1.31656E-03 3.65948E-04-4.29303E-16
 -1       721 1.36188E-02-9.14054E-04-5.49189E-14
 -1       722 9.11246E-04-1.75691E-04-3.86860E-16
 -1       723 1.62038E-03 3.96170E-04-6.78124E-16
 -1       724 1.02004E-02-1.57569E-04-3.44567E-14
 -1       725 1.37638E-02-9.87401E-04-5.50170E-14
 -1       726 1.09595E-02 1.51862E-04-3.70964E-14
 -1       727 1.17932E-03 3.12957E-04-3.72430E-16
 -1       728 1.16154E-03 2.43593E-04-4.22659E-16
 -1       729 1.06665E-03-2.35955E-04-5.06837E-16
 -1       730 9.50068E-03-3.71338E-04-3.25918E-14
 -1       731 1.47324E-02-1.32810E-03-5.23430E-14
 -1       732 1.33672E-03-2.71601E-04-7.62648E-16
 -1       733 1.62308E-03-2.99831E-04-1.08675E-15
 -1       734 1.91042E-03-3.20070E-04-1.46635E-15
 -1       735 2.19811E-03-3.34015E-04-1.90094E-15
 -1       736 2.48580E-03-3.43185E-04-2.39118E-15
 -1       737 2.77334E-03-3.48841E-04-2.93692E-15
 -1       738 3.06066E-03-3.51978E-04-3.53880E-15
 -1       739 3.33340E-03-3.53322E-04-4.16449E-15
 -1       740 3.62027E-03-3.53556E-04-4.88116E-15
 -1       741 3.90692E-03-3.52979E-04-5.65461E-15
 -1       742 4.19339E-03-3.51870E-04-6.48565E-15
 -1       743 4.47970E-03-3.50410E-04-7.37314E-15
 -1       744 4.76586E-03-3.48699E-04-8.31593E-15
 -1       745 5.03758E-03-3.46884E-04-9.26086E-15
 -1       746 5.32347E-03-3.44775E-04-1.03084E-14
 -1       747 5.60921E-03-3.42436E-04-1.14125E-14
 -1       748 5.89476E-03-3.39820E-04-1.25725E-14
 -1       749 6.18006E-03-3.36878E-04-1.37878E-14
 -1       750 6.46499E-03-3.33566E-04-1.50534E-14
 -1       751 6.74934E-03-3.29875E-04-1.63631E-14
 -1       752 7.01867E-03-3.26061E-04-1.76510E-14
 -1       753 7.30089E-03-3.21875E-04-1.90559E-14
 -1       754 7.58107E-03-3.17839E-04-2.05114E-14
 -1       755 7.85815E-03-3.14556E-04-2.20062E-14
 -1       756 8.13054E-03-3.13046E-04-2.35421E-14
 -1       757 8.39595E-03-3.14918E-04-2.51187E-14
 -1       758 8.63871E-03-3.21954E-04-2.66539E-14
 -1       759 8.88012E-03-3.37991E-04-2.83098E-14
 -1       760 9.10128E-03-3.66728E-04-3.00022E-14
 -1       761 9.29346E-03-4.12379E-04-3.17242E-14
 -1       762 1.39147E-02-1.05334E-03-5.00272E-14
 -1       763 2.60670E-03 3.78275E-04-2.00033E-15
 -1       764 3.17999E-03 3.85729E-04-3.01444E-15
 -1       765 2.31978E-03 3.70167E-04-1.57539E-15
 -1       766 3.46639E-03 3.86734E-04-3.60833E-15
 -1       767 3.75264E-03 3.86678E-04-4.26075E-15
 -1       768 4.03878E-03 3.85926E-04-4.97124E-15
 -1       769 4.32481E-03 3.84721E-04-5.74038E-15
 -1       770 4.61076E-03 3.83215E-04-6.56832E-15
 -1       771 4.89664E-03 3.81492E-04-7.45423E-15
 -1       772 5.18245E-03 3.79585E-04-8.39763E-15
 -1       773 5.46822E-03 3.77494E-04-9.39478E-15
 -1       774 5.75395E-03 3.75197E-04-1.04442E-14
 -1       775 6.03967E-03 3.72669E-04-1.15501E-14
 -1       776 6.32540E-03 3.69889E-04-1.27102E-14
 -1       777 6.61123E-03 3.66862E-04-1.39186E-14
 -1       778 6.89723E-03 3.63636E-04-1.51765E-14
 -1       779 7.18360E-03 3.60328E-04-1.64834E-14
 -1       780 7.47057E-03 3.57146E-04-1.78357E-14
 -1       781 7.75853E-03 3.54429E-04-1.92312E-14
 -1       782 8.04799E-03 3.52673E-04-2.06711E-14
 -1       783 8.33962E-03 3.52557E-04-2.21588E-14
 -1       784 8.63419E-03 3.54943E-04-2.36951E-14
 -1       785 8.93247E-03 3.60809E-04-2.52802E-14
 -1       786 9.23498E-03 3.71054E-04-2.69147E-14
 -1       787 9.54161E-03 3.86087E-04-2.85996E-14
 -1       788 9.85127E-03 4.05064E-04-3.03306E-14
 -1       789 1.01616E-02 4.24791E-04-3.21098E-14
 -1       790 1.04692E-02 4.38607E-04-3.39366E-14
 -1       791 1.07713E-02 4.36176E-04-3.58008E-14
 -1       792 1.10671E-02 4.05384E-04-3.77029E-14
 -1       793 1.13590E-02 3.36559E-04-3.96469E-14
 -1       794 1.16517E-02 2.26693E-04-4.16313E-14
 -1       795 1.19495E-02 8.12208E-05-4.36519E-14
 -1       796 1.22535E-02-8.89313E-05-4.57098E-14
 -1       797 1.25620E-02-2.72247E-04-4.77952E-14
 -1       798 1.28714E-02-4.60073E-04-4.99141E-14
 -1       799 1.31783E-02-6.47743E-04-5.20636E-14
 -1       800 1.33989E-02-7.81529E-04-5.34879E-14
 -1       801 1.46501E-02-1.35128E-03-5.42038E-14
 -1       802 1.48263E-02-1.40214E-03-5.43928E-14
 -1       803 1.41981E-02-1.18640E-03-5.38089E-14
 -1       804 1.15539E-02 2.08256E-04-4.01666E-14
 -1       805 1.49434E-02-1.44420E-03-5.46737E-14
 -1       806 9.32389E-03-4.03252E-04-3.21218E-14
 -1       807 1.12713E-02 2.39083E-04-3.85714E-14
 -1       808 1.29138E-02-5.39029E-04-4.68031E-14
 -1       809 1.24795E-02-2.67939E-04-4.50218E-14
 -1       810 1.43043E-02-1.19081E-03-5.08728E-14
 -1       811 1.19751E-02 3.67574E-05-4.25223E-14
 -1       812 2.89343E-03 3.83146E-04-2.47937E-15
 -1       813 1.13823E-03 5.90087E-05-5.26445E-16
 -1       814 1.05642E-02 1.11546E-05-3.54887E-14
 -1       815 1.44322E-02-1.27927E-03-5.40118E-14
 -1       816 9.75777E-03-2.76912E-04-3.29521E-14
 -1       817 1.46273E-02-1.26545E-03-5.10535E-14
 -1       818 1.45410E-02-1.24680E-03-5.11185E-14
 -1       819 1.34342E-02-8.31009E-04-4.86455E-14
 -1       820 1.14978E-03 1.79055E-04-4.64259E-16
 -1       821 8.48668E-04-1.95875E-04-3.36665E-16
 -1       822 1.14235E-03 1.17888E-04-4.98282E-16
 -1       823 1.48347E-02-1.38393E-03-5.35059E-14
 -1       824 2.03273E-03 3.57599E-04-1.20385E-15
 -1       825 9.89810E-03-1.96314E-04-3.30444E-14
 -1       826 1.39660E-02-1.07995E-03-5.35925E-14
 -1       827 1.37487E-02-9.69170E-04-5.33677E-14
 -1       828 1.17197E-02 1.56985E-04-4.12659E-14
 -1       829 1.10756E-02 2.31478E-04-3.75171E-14
 -1       830 1.14921E-03-1.76177E-04-5.88881E-16
 -1       831 1.74570E-03 3.39043E-04-8.85634E-16
 -1       832 1.35930E-02-8.85082E-04-5.32656E-14
 -1       833 1.14201E-03-1.15237E-04-5.79902E-16
 -1       834 1.22273E-02-1.10490E-04-4.41116E-14
 -1       835 1.38914E-03 3.19497E-04-5.46025E-16
 -1       836 1.13686E-03 1.15757E-06-5.48993E-16
 -1       837 1.13807E-03-5.65500E-05-5.66648E-16
 -1       838 1.46753E-03-2.22265E-04-9.13664E-16
 -1       839 1.75454E-03-2.42092E-04-1.26254E-15
 -1       840 2.04287E-03-2.56206E-04-1.66476E-15
 -1       841 2.33177E-03-2.65804E-04-2.12175E-15
 -1       842 2.62078E-03-2.71973E-04-2.63292E-15
 -1       843 2.90963E-03-2.75625E-04-3.19880E-15
 -1       844 3.18377E-03-2.77426E-04-3.78960E-15
 -1       845 3.47197E-03-2.78099E-04-4.46770E-15
 -1       846 3.75980E-03-2.77918E-04-5.20451E-15
 -1       847 4.04725E-03-2.77176E-04-5.99841E-15
 -1       848 4.33436E-03-2.76064E-04-6.85011E-15
 -1       849 4.62114E-03-2.74704E-04-7.75740E-15
 -1       850 4.89330E-03-2.73240E-04-8.66837E-15
 -1       851 5.17949E-03-2.71543E-04-9.68077E-15
 -1       852 5.46537E-03-2.69681E-04-1.07490E-14
 -1       853 5.75089E-03-2.67639E-04-1.18745E-14
 -1       854 6.03599E-03-2.65395E-04-1.30539E-14
 -1       855 6.32053E-03-2.62946E-04-1.42865E-14
 -1       856 6.60430E-03-2.60325E-04-1.55638E-14
 -1       857 6.87288E-03-2.57762E-04-1.68194E-14
 -1       858 7.15410E-03-2.55190E-04-1.81918E-14
 -1       859 7.43313E-03-2.53116E-04-1.96154E-14
 -1       860 7.70899E-03-2.52168E-04-2.10828E-14
 -1       861 7.98033E-03-2.53337E-04-2.25903E-14
 -1       862 8.24524E-03-2.58107E-04-2.41392E-14
 -1       863 8.48858E-03-2.67854E-04-2.56471E-14
 -1       864 8.73260E-03-2.86237E-04-2.72798E-14
 -1       865 8.95949E-03-3.16148E-04-2.89483E-14
 -1       866 9.15218E-03-3.52339E-04-3.05228E-14
 -1       867 2.45269E-03 3.00852E-04-1.87527E-15
 -1       868 1.27166E-02-4.11612E-04-4.66188E-14
 -1       869 3.60482E-03 3.11534E-04-4.06403E-15
 -1       870 1.46960E-02-1.31279E-03-5.23108E-14
 -1       871 3.89208E-03 3.11163E-04-4.75691E-15
 -1       872 4.17903E-03 3.10297E-04-5.50729E-15
 -1       873 4.46570E-03 3.09106E-04-6.31526E-15
 -1       874 4.75213E-03 3.07689E-04-7.18099E-15
 -1       875 5.03831E-03 3.06095E-04-8.10485E-15
 -1       876 5.32429E-03 3.04329E-04-9.08357E-15
 -1       877 5.61005E-03 3.02373E-04-1.01144E-14
 -1       878 5.89562E-03 3.00190E-04-1.11996E-14
 -1       879 6.18101E-03 2.97737E-04-1.23423E-14
 -1       880 6.46626E-03 2.94972E-04-1.35335E-14
 -1       881 6.75144E-03 2.91871E-04-1.47723E-14
 -1       882 7.03669E-03 2.88438E-04-1.60633E-14
 -1       883 7.32222E-03 2.84733E-04-1.74015E-14
 -1       884 7.60842E-03 2.80898E-04-1.87843E-14
 -1       885 7.89584E-03 2.77201E-04-2.02094E-14
 -1       886 8.18529E-03 2.74094E-04-2.16776E-14
 -1       887 8.47785E-03 2.72280E-04-2.31948E-14
 -1       888 8.77479E-03 2.72790E-04-2.47637E-14
 -1       889 9.07746E-03 2.76991E-04-2.63805E-14
 -1       890 9.38691E-03 2.86441E-04-2.80452E-14
 -1       891 9.70325E-03 3.02425E-04-2.97524E-14
 -1       892 1.00249E-02 3.24711E-04-3.15060E-14
 -1       893 1.03482E-02 3.49678E-04-3.33042E-14
 -1       894 1.06681E-02 3.68139E-04-3.51455E-14
 -1       895 1.09799E-02 3.64525E-04-3.70257E-14
 -1       896 1.12847E-02 3.22535E-04-3.89382E-14
 -1       897 1.15869E-02 2.31463E-04-4.08966E-14
 -1       898 1.18940E-02 9.33358E-05-4.28942E-14
 -1       899 1.22098E-02-7.78298E-05-4.49266E-14
 -1       900 1.25321E-02-2.65970E-04-4.69892E-14
 -1       901 1.28559E-02-4.57151E-04-4.90869E-14
 -1       902 1.31761E-02-6.45212E-04-5.12140E-14
 -1       903 1.45580E-02-1.28945E-03-5.25002E-14
 -1       904 1.42474E-02-1.19253E-03-5.19788E-14
 -1       905 1.13218E-02 2.69613E-04-3.89417E-14
 -1       906 9.47608E-03-2.76804E-04-3.14934E-14
 -1       907 1.34934E-02-8.31158E-04-5.33784E-14
 -1       908 9.27477E-03-3.31948E-04-3.10096E-14
 -1       909 3.31724E-03 3.11147E-04-3.43038E-15
 -1       910 1.37658E-02-9.91363E-04-5.06267E-14
 -1       911 1.02412E-02-2.77319E-05-3.38726E-14
 -1       912 1.06787E-02 1.42269E-04-3.55662E-14
 -1       913 1.42779E-03 2.51868E-04-6.51470E-16
 -1       914 1.32160E-02-7.06972E-04-4.87462E-14
 -1       915 2.16417E-03 2.91987E-04-1.46536E-15
 -1       916 9.58878E-03-2.18063E-04-3.15846E-14
 -1       917 1.38072E-02-1.00582E-03-5.18795E-14
 -1       918 1.35745E-02-8.81954E-04-5.16475E-14
 -1       919 2.74113E-03 3.06425E-04-2.33895E-15
 -1       920 1.11401E-02 2.86927E-04-3.78761E-14
 -1       921 1.03598E-02 1.08500E-04-3.39357E-14
 -1       922 1.34130E-02-7.87814E-04-5.15364E-14
 -1       923 1.45812E-03-1.51755E-04-9.01223E-16
 -1       924 1.19601E-02 4.47056E-05-4.28407E-14
 -1       925 1.38415E-03 1.00001E-04-7.29543E-16
 -1       926 3.02934E-03 3.09620E-04-2.85592E-15
 -1       927 1.38100E-03 3.39900E-05-7.63688E-16
 -1       928 1.72365E-03 2.52106E-04-9.60237E-16
 -1       929 1.94375E-03 2.73281E-04-1.19838E-15
 -1       930 1.88985E-03-1.80556E-04-1.43924E-15
 -1       931 2.17907E-03-1.89488E-04-1.86289E-15
 -1       932 2.46889E-03-1.95448E-04-2.34077E-15
 -1       933 2.75883E-03-1.99158E-04-2.87182E-15
 -1       934 3.03408E-03-2.01157E-04-3.42648E-15
 -1       935 3.32344E-03-2.02121E-04-4.06721E-15
 -1       936 3.61234E-03-2.02278E-04-4.76574E-15
 -1       937 3.90075E-03-2.01894E-04-5.52319E-15
 -1       938 4.18866E-03-2.01155E-04-6.33794E-15
 -1       939 4.47611E-03-2.00184E-04-7.20983E-15
 -1       940 4.74877E-03-1.99113E-04-8.08846E-15
 -1       941 5.03535E-03-1.97865E-04-9.06567E-15
 -1       942 5.32150E-03-1.96509E-04-1.00985E-14
 -1       943 5.60718E-03-1.95050E-04-1.11877E-14
 -1       944 5.89232E-03-1.93492E-04-1.23314E-14
 -1       945 6.17680E-03-1.91861E-04-1.35286E-14
 -1       946 6.46044E-03-1.90215E-04-1.47740E-14
 -1       947 6.72887E-03-1.88752E-04-1.59982E-14
 -1       948 7.00997E-03-1.87539E-04-1.73373E-14
 -1       949 7.28906E-03-1.87036E-04-1.87280E-14
 -1       950 7.56538E-03-1.87847E-04-2.01669E-14
 -1       951 7.83796E-03-1.90882E-04-2.16474E-14
 -1       952 8.10549E-03-1.97451E-04-2.31663E-14
 -1       953 8.35347E-03-2.08578E-04-2.46496E-14
 -1       954 8.60603E-03-2.27610E-04-2.62529E-14
 -1       955 8.84750E-03-2.56697E-04-2.78996E-14
 -1       956 9.06433E-03-2.89047E-04-2.94414E-14
 -1       957 1.39069E-03 1.67329E-04-6.88668E-16
 -1       958 1.24146E-02-2.14924E-04-4.55921E-14
 -1       959 1.40699E-02-1.12678E-03-5.21118E-14
 -1       960 4.60725E-03 2.33413E-04-6.90174E-15
 -1       961 4.89391E-03 2.32200E-04-7.80539E-15
 -1       962 5.18020E-03 2.30838E-04-8.76484E-15
 -1       963 5.46614E-03 2.29311E-04-9.77846E-15
 -1       964 5.75172E-03 2.27583E-04-1.08453E-14
 -1       965 6.03695E-03 2.25598E-04-1.19674E-14
 -1       966 6.32183E-03 2.23288E-04-1.31413E-14
 -1       967 6.60638E-03 2.20575E-04-1.43637E-14
 -1       968 6.89069E-03 2.17379E-04-1.56389E-14
 -1       969 7.17489E-03 2.13628E-04-1.69605E-14
 -1       970 7.45928E-03 2.09279E-04-1.83312E-14
 -1       971 7.74433E-03 2.04349E-04-1.97433E-14
 -1       972 8.03080E-03 1.98981E-04-2.11931E-14
 -1       973 8.31979E-03 1.93539E-04-2.26919E-14
 -1       974 8.61286E-03 1.88759E-04-2.42444E-14
 -1       975 8.91193E-03 1.85951E-04-2.58454E-14
 -1       976 9.21919E-03 1.87146E-04-2.74910E-14
 -1       977 9.53653E-03 1.95165E-04-2.91780E-14
 -1       978 9.86441E-03 2.13022E-04-3.09091E-14
 -1       979 1.02008E-02 2.41620E-04-3.26812E-14
 -1       980 1.05398E-02 2.76858E-04-3.44965E-14
 -1       981 1.28375E-02-4.59714E-04-4.82694E-14
 -1       982 1.33936E-02-7.97059E-04-4.99463E-14
 -1       983 1.29937E-02-5.64714E-04-4.85286E-14
 -1       984 4.32021E-03 2.34460E-04-6.05635E-15
 -1       985 1.45251E-03-8.32285E-05-8.82219E-16
 -1       986 3.45651E-03 2.35783E-04-3.86142E-15
 -1       987 1.41552E-03-2.36590E-05-8.23885E-16
 -1       988 1.07980E-02 2.54448E-04-3.59642E-14
 -1       989 4.03275E-03 2.35286E-04-5.26621E-15
 -1       990 1.67335E-03-1.67124E-04-1.15528E-15
 -1       991 9.88499E-03-6.55872E-05-3.21581E-14
 -1       992 3.74486E-03 2.35785E-04-4.53459E-15
 -1       993 1.63444E-03 1.45782E-04-9.58906E-16
 -1       994 1.00080E-02 6.33597E-05-3.22092E-14
 -1       995 9.31782E-03-1.96904E-04-3.00321E-14
 -1       996 3.16771E-03 2.35024E-04-3.24758E-15
 -1       997 1.31736E-02-6.51164E-04-5.03739E-14
 -1       998 1.62924E-03 7.31382E-05-1.00588E-15
 -1       999 9.17663E-03-2.52676E-04-2.97392E-14
 -1      1000 1.32082E-02-6.79189E-04-5.00239E-14
 -1      1001 1.04609E-02 1.99000E-04-3.42168E-14
 -1      1002 2.58899E-03 2.29657E-04-2.19049E-15
 -1      1003 2.29941E-03 2.23917E-04-1.74302E-15
 -1      1004 1.85377E-03 1.62952E-04-1.20149E-15
 -1      1005 3.88634E-03 1.59721E-04-5.01938E-15
 -1      1006 2.31857E-03-1.20092E-04-2.05958E-15
 -1      1007 2.60906E-03-1.23166E-04-2.55661E-15
 -1      1008 2.88505E-03-1.24925E-04-3.07760E-15
 -1      1009 3.17529E-03-1.25890E-04-3.68002E-15
 -1      1010 3.46506E-03-1.26215E-04-4.34101E-15
 -1      1011 3.75429E-03-1.26107E-04-5.06095E-15
 -1      1012 4.04294E-03-1.25712E-04-5.83843E-15
 -1      1013 4.33102E-03-1.25129E-04-6.67337E-15
 -1      1014 4.60418E-03-1.24462E-04-7.51897E-15
 -1      1015 4.89120E-03-1.23677E-04-8.46170E-15
 -1      1016 5.17769E-03-1.22832E-04-9.45934E-15
 -1      1017 5.46364E-03-1.21944E-04-1.05128E-14
 -1      1018 5.74899E-03-1.21036E-04-1.16210E-14
 -1      1019 6.03366E-03-1.20146E-04-1.27817E-14
 -1      1020 6.31749E-03-1.19350E-04-1.39939E-14
 -1      1021 6.58618E-03-1.18800E-04-1.51897E-14
 -1      1022 6.86772E-03-1.18653E-04-1.64968E-14
 -1      1023 7.14756E-03-1.19291E-04-1.78541E-14
 -1      1024 7.42523E-03-1.21246E-04-1.92596E-14
 -1      1025 7.70010E-03-1.25291E-04-2.07085E-14
 -1      1026 7.97148E-03-1.32504E-04-2.22013E-14
 -1      1027 8.22534E-03-1.43570E-04-2.36583E-14
 -1      1028 8.48768E-03-1.61293E-04-2.52336E-14
 -1      1029 8.74455E-03-1.87016E-04-2.68565E-14
 -1      1030 5.03608E-03 1.56917E-04-8.44044E-15
 -1      1031 9.57310E-03-7.78696E-05-3.05929E-14
 -1      1032 1.66723E-03-9.36944E-05-1.13135E-15
 -1      1033 4.74940E-03 1.57826E-04-7.50043E-15
 -1      1034 5.60803E-03 1.54685E-04-1.04857E-14
 -1      1035 5.89327E-03 1.53276E-04-1.15882E-14
 -1      1036 6.17800E-03 1.51575E-04-1.27429E-14
 -1      1037 6.46219E-03 1.49478E-04-1.39503E-14
 -1      1038 6.74585E-03 1.46854E-04-1.52082E-14
 -1      1039 7.02902E-03 1.43541E-04-1.65153E-14
 -1      1040 7.31183E-03 1.39351E-04-1.78701E-14
 -1      1041 7.59459E-03 1.34083E-04-1.92690E-14
 -1      1042 7.87784E-03 1.27567E-04-2.07084E-14
 -1      1043 8.16247E-03 1.19745E-04-2.21875E-14
 -1      1044 8.44989E-03 1.10831E-04-2.37224E-14
 -1      1045 8.74216E-03 1.01583E-04-2.53067E-14
 -1      1046 9.04196E-03 9.37847E-05-2.69369E-14
 -1      1047 9.35303E-03 9.00951E-05-2.86046E-14
 -1      1048 9.67812E-03 9.59755E-05-3.03168E-14
 -1      1049 2.87850E-03 2.33145E-04-2.69120E-15
 -1      1050 4.46223E-03 1.58615E-04-6.61772E-15
 -1      1051 2.02860E-03-1.15354E-04-1.61581E-15
 -1      1052 4.17455E-03 1.59265E-04-5.78988E-15
 -1      1053 3.59758E-03 1.59888E-04-4.30738E-15
 -1      1054 5.32229E-03 1.55881E-04-9.43591E-15
 -1      1055 2.07630E-03 1.93661E-04-1.45945E-15
 -1      1056 8.96195E-03-2.16418E-04-2.82838E-14
 -1      1057 1.62961E-03-2.96847E-05-1.06248E-15
 -1      1058 3.30827E-03 1.59614E-04-3.65420E-15
 -1      1059 1.84809E-03 8.61592E-05-1.25794E-15
 -1      1060 1.63000E-03 2.78291E-05-1.03402E-15
 -1      1061 1.84753E-03-1.04712E-04-1.36294E-15
 -1      1062 2.72829E-03 1.56797E-04-2.52074E-15
 -1      1063 2.43796E-03 1.53566E-04-2.03672E-15
 -1      1064 9.08035E-03-1.66961E-04-2.85718E-14
 -1      1065 9.30241E-03-6.69599E-05-2.91198E-14
 -1      1066 2.74464E-03-4.92491E-05-2.75507E-15
 -1      1067 3.03538E-03-4.97711E-05-3.32248E-15
 -1      1068 3.32573E-03-4.99825E-05-3.94648E-15
 -1      1069 3.61555E-03-4.99781E-05-4.63096E-15
 -1      1070 3.90477E-03-4.98274E-05-5.37172E-15
 -1      1071 4.19335E-03-4.95826E-05-6.16993E-15
 -1      1072 4.46695E-03-4.92953E-05-6.98330E-15
 -1      1073 4.75436E-03-4.89591E-05-7.89185E-15
 -1      1074 5.04120E-03-4.86080E-05-8.85507E-15
 -1      1075 5.32746E-03-4.82624E-05-9.87445E-15
 -1      1076 5.61310E-03-4.79512E-05-1.09485E-14
 -1      1077 5.89807E-03-4.77208E-05-1.20757E-14
 -1      1078 6.18227E-03-4.76483E-05-1.32537E-14
 -1      1079 6.45141E-03-4.78398E-05-1.44215E-14
 -1      1080 6.73364E-03-4.85045E-05-1.56978E-14
 -1      1081 7.01454E-03-4.99357E-05-1.70250E-14
 -1      1082 7.29382E-03-5.25672E-05-1.83971E-14
 -1      1083 7.57120E-03-5.70087E-05-1.98168E-14
 -1      1084 7.84641E-03-6.40759E-05-2.12804E-14
 -1      1085 8.10572E-03-7.41576E-05-2.27094E-14
 -1      1086 8.37655E-03-8.94325E-05-2.42575E-14
 -1      1087 8.64590E-03-1.10580E-04-2.58564E-14
 -1      1088 4.89205E-03 8.25066E-05-8.11135E-15
 -1      1089 6.03477E-03 7.95932E-05-1.23399E-14
 -1      1090 5.74998E-03 8.05900E-05-1.12037E-14
 -1      1091 6.60224E-03 7.64728E-05-1.47702E-14
 -1      1092 6.88480E-03 7.39996E-05-1.60611E-14
 -1      1093 7.16653E-03 7.05801E-05-1.74009E-14
 -1      1094 7.44750E-03 6.58696E-05-1.87850E-14
 -1      1095 7.72795E-03 5.94563E-05-2.02119E-14
 -1      1096 8.00836E-03 5.09017E-05-2.16794E-14
 -1      1097 8.28967E-03 3.98534E-05-2.31941E-14
 -1      1098 8.57349E-03 2.62594E-05-2.47628E-14
 -1      1099 8.86244E-03 1.08222E-05-2.63743E-14
 -1      1100 3.01847E-03 1.58683E-04-3.05927E-15
 -1      1101 2.45377E-03-4.82812E-05-2.24216E-15
 -1      1102 5.17859E-03 8.19883E-05-9.08715E-15
 -1      1103 4.60495E-03 8.29440E-05-7.19172E-15
 -1      1104 2.16326E-03-4.67319E-05-1.78051E-15
 -1      1105 5.46457E-03 8.13646E-05-1.01184E-14
 -1      1106 6.31888E-03 7.82704E-05-1.35295E-14
 -1      1107 3.74020E-03 8.37166E-05-4.76833E-15
 -1      1108 2.06969E-03 1.13548E-04-1.52800E-15
 -1      1109 8.86288E-03-1.36145E-04-2.72017E-14
 -1      1110 1.80942E-03-3.76772E-05-1.28566E-15
 -1      1111 3.45073E-03 8.36657E-05-4.07674E-15
 -1      1112 4.31729E-03 8.33048E-05-6.32746E-15
 -1      1113 2.57946E-03 8.11796E-05-2.34620E-15
 -1      1114 2.87022E-03 8.25573E-05-2.86713E-15
 -1      1115 1.98605E-03-4.22459E-05-1.52305E-15
 -1      1116 4.02905E-03 8.35752E-05-5.51884E-15
 -1      1117 2.88975E-03 2.58601E-05-2.96382E-15
 -1      1118 1.84566E-03 2.50986E-05-1.29666E-15
 -1      1119 3.18039E-03 2.61331E-05-3.54998E-15
 -1      1120 3.16071E-03 8.33234E-05-3.44255E-15
 -1      1121 2.30807E-03 2.47101E-05-1.95359E-15
 -1      1122 2.66119E-03 1.63034E-05-2.55003E-15
 -1      1123 2.13064E-03 2.73405E-05-1.68423E-15
 -1      1124 0.00000E+00 0.00000E+00 0.00000E+00
 -1      1125 0.00000E+00 0.00000E+00 0.00000E+00
 -1      1126 0.00000E+00 0.00000E+00 0.00000E+00
 -1      1127 0.00000E+00 0.00000E+00 0.00000E+00
 -1      1128 0.00000E+00 0.00000E+00 0.00000E+00
 -1      1129 0.00000E+00 0.00000E+00 0.00000E+00
 -1      1130 0.00000E+00 0.00000E+00 0.00000E+00
 -1      1131 0.00000E+00 0.00000E+00 0.00000E+00
 -1      1132 0.00000E+00 0.00000E+00 0.00000E+00
 -1      1133 0.00000E+00 0.00000E+00 0.00000E+00
 -1      1134 0.00000E+00 0.00000E+00 0.00000E+00
 -1      1135 0.00000E+00 0.00000E+00 0.00000E+00
 -1      1136 0.00000E+00 0.00000E+00 0.00000E+00
 -1      1137 0.00000E+00 0.00000E+00 0.00000E+00
 -1      1138 0.00000E+00 0.00000E+00 0.00000E+00
 -1      1139 0.00000E+00 0.00000E+00 0.00000E+00
 -1      1140 0.00000E+00 0.00000E+00 0.00000E+00
 -1      1141 2.02767E-04-1.43056E-04 1.21973E-18
 -1      1142 5.37073E-04-3.30307E-04-3.57109E-17
 -1      1143 8.19910E-04-4.54151E-04-1.34197E-16
 -1      1144 1.08985E-03-5.37333E-04-3.03306E-16
 -1      1145 1.35541E-03-5.95571E-04-5.39431E-16
 -1      1146 1.62026E-03-6.36993E-04-8.40501E-16
 -1      1147 1.87962E-03-6.65731E-04-1.19379E-15
 -1      1148 2.14095E-03-6.85962E-04-1.60584E-15
 -1      1149 2.41134E-03-7.00144E-04-2.08708E-15
 -1      1150 2.68414E-03-7.09435E-04-2.63385E-15
 -1      1151 2.95919E-03-7.15184E-04-3.24560E-15
 -1      1152 3.23625E-03-7.18407E-04-3.91949E-15
 -1      1153 3.51506E-03-7.19860E-04-4.65199E-15
 -1      1154 3.78831E-03-7.20100E-04-5.41944E-15
 -1      1155 4.06271E-03-7.19546E-04-6.23960E-15
 -1      1156 4.34514E-03-7.18411E-04-7.13864E-15
 -1      1157 4.62837E-03-7.16871E-04-8.09739E-15
 -1      1158 4.91225E-03-7.15019E-04-9.11204E-15
 -1      1159 5.19670E-03-7.12890E-04-1.01807E-14
 -1      1160 5.47451E-03-7.10536E-04-1.12711E-14
 -1      1161 5.75281E-03-7.07864E-04-1.24116E-14
 -1      1162 6.03881E-03-7.04720E-04-1.36389E-14
 -1      1163 6.32553E-03-7.01077E-04-1.49243E-14
 -1      1164 6.61323E-03-6.96831E-04-1.62592E-14
 -1      1165 6.90233E-03-6.91880E-04-1.76353E-14
 -1      1166 7.19343E-03-6.86143E-04-1.90588E-14
 -1      1167 7.48007E-03-6.79776E-04-2.04892E-14
 -1      1168 7.77076E-03-6.72735E-04-2.19557E-14
 -1      1169 8.07506E-03-6.65185E-04-2.35042E-14
 -1      1170 8.38849E-03-6.58187E-04-2.50991E-14
 -1      1171 8.71528E-03-6.53675E-04-2.67400E-14
 -1      1172 9.06137E-03-6.55616E-04-2.84238E-14
 -1      1173 9.42493E-03-6.71166E-04-3.00986E-14
 -1      1174 9.82288E-03-7.13714E-04-3.17956E-14
 -1      1175 1.02743E-02-8.09989E-04-3.35515E-14
 -1      1176 1.07685E-02-9.96273E-04-3.53209E-14
 -1      1177 1.12813E-02-1.30857E-03-3.70913E-14
 -1      1178 1.17426E-02-1.72528E-03-3.88136E-14
 -1      1179 1.20690E-02-2.10936E-03-4.03680E-14
 -1      1180 1.22796E-02-2.34352E-03-4.17621E-14
 -1      1181 1.24734E-02-2.39359E-03-4.32837E-14
 -1      1182 1.27458E-02-2.23028E-03-4.50535E-14
 -1      1183 1.31448E-02-1.96071E-03-4.69732E-14
 -1      1184 1.36320E-02-1.74500E-03-4.89799E-14
 -1      1185 1.41151E-02-1.65508E-03-5.09738E-14
 -1      1186 1.45643E-02-1.66802E-03-5.29859E-14
 -1      1187 1.49768E-02-1.74830E-03-5.50483E-14
 -1      1188 1.53432E-02-1.86205E-03-5.71285E-14
 -1      1189 1.56723E-02-1.98513E-03-5.92361E-14
 -1      1190 1.59745E-02-2.10128E-03-6.13630E-14
 -1      1191 1.62548E-02-2.20022E-03-6.34605E-14
 -1      1192 2.28430E-04 1.60702E-04 2.28496E-17
 -1      1193 5.53833E-04 3.42127E-04 4.41135E-17
 -1      1194 8.34439E-04 4.61144E-04 2.74981E-17
 -1      1195 1.10401E-03 5.42337E-04-3.48029E-17
 -1      1196 1.36947E-03 5.99571E-04-1.46042E-16
 -1      1197 1.63439E-03 6.40368E-04-3.07520E-16
 -1      1198 1.90057E-03 6.69307E-04-5.22504E-16
 -1      1199 2.16884E-03 6.89504E-04-7.89963E-16
 -1      1200 2.43951E-03 7.03242E-04-1.11224E-15
 -1      1201 2.71256E-03 7.12246E-04-1.49238E-15
 -1      1202 2.98784E-03 7.17824E-04-1.93451E-15
 -1      1203 3.26510E-03 7.20964E-04-2.43462E-15
 -1      1204 3.54408E-03 7.22399E-04-2.99053E-15
 -1      1205 3.82451E-03 7.22663E-04-3.60518E-15
 -1      1206 4.10613E-03 7.22134E-04-4.28036E-15
 -1      1207 4.38874E-03 7.21072E-04-5.01837E-15
 -1      1208 4.67214E-03 7.19643E-04-5.81832E-15
 -1      1209 4.95620E-03 7.17947E-04-6.67570E-15
 -1      1210 5.24084E-03 7.16036E-04-7.59242E-15
 -1      1211 5.52601E-03 7.13934E-04-8.57153E-15
 -1      1212 5.81171E-03 7.11652E-04-9.60099E-15
 -1      1213 6.09800E-03 7.09210E-04-1.06778E-14
 -1      1214 6.38495E-03 7.06652E-04-1.18124E-14
 -1      1215 6.67272E-03 7.04070E-04-1.30079E-14
 -1      1216 6.96143E-03 7.01629E-04-1.42497E-14
 -1      1217 7.25125E-03 6.99587E-04-1.55323E-14
 -1      1218 7.54226E-03 6.98317E-04-1.68541E-14
 -1      1219 7.83447E-03 6.98315E-04-1.82188E-14
 -1      1220 8.12766E-03 7.00171E-04-1.96327E-14
 -1      1221 8.42133E-03 7.04507E-04-2.10995E-14
 -1      1222 8.71455E-03 7.11830E-04-2.26211E-14
 -1      1223 9.00592E-03 7.22301E-04-2.41960E-14
 -1      1224 9.29347E-03 7.35397E-04-2.58289E-14
 -1      1225 9.57485E-03 7.49519E-04-2.75173E-14
 -1      1226 9.84761E-03 7.61632E-04-2.92709E-14
 -1      1227 1.01097E-02 7.67120E-04-3.10813E-14
 -1      1228 1.03603E-02 7.60044E-04-3.29407E-14
 -1      1229 1.06001E-02 7.33952E-04-3.48331E-14
 -1      1230 1.08318E-02 6.83132E-04-3.67647E-14
 -1      1231 1.10596E-02 6.03976E-04-3.87409E-14
 -1      1232 1.12885E-02 4.95912E-04-4.07584E-14
 -1      1233 1.15231E-02 3.61509E-04-4.28224E-14
 -1      1234 1.17664E-02 2.05682E-04-4.49223E-14
 -1      1235 1.20198E-02 3.43651E-05-4.70609E-14
 -1      1236 1.22826E-02-1.46817E-04-4.92333E-14
 -1      1237 1.25534E-02-3.33435E-04-5.14417E-14
 -1      1238 1.28302E-02-5.22521E-04-5.36822E-14
 -1      1239 1.31111E-02-7.12312E-04-5.59627E-14
 -1      1240 1.33949E-02-9.01686E-04-5.82534E-14
 -1      1241 1.36731E-02-1.08517E-03-6.04973E-14
 -1      1242 1.39009E-02-1.21627E-03-6.16930E-14
 -1      1243 1.40841E-02-1.30082E-03-6.18874E-14
 -1      1244 1.42666E-02-1.38682E-03-6.20416E-14
 -1      1245 1.44507E-02-1.47446E-03-6.21763E-14
 -1      1246 1.46387E-02-1.56249E-03-6.23166E-14
 -1      1247 1.48307E-02-1.64758E-03-6.24624E-14
 -1      1248 1.50282E-02-1.72687E-03-6.26175E-14
 -1      1249 1.52303E-02-1.79691E-03-6.27891E-14
 -1      1250 1.54298E-02-1.85355E-03-6.29679E-14
 -1      1251 1.56185E-02-1.89534E-03-6.31536E-14
 -1      1252 1.57875E-02-1.92408E-03-6.33316E-14
 -1      1253 1.59280E-02-1.94517E-03-6.35036E-14
 -1      1254 1.60389E-02-1.96729E-03-6.36933E-14
 -1      1255 1.61245E-02-2.00004E-03-6.38795E-14
 -1      1256 1.61948E-02-2.05052E-03-6.40454E-14
 -1      1257 1.62648E-02-2.12044E-03-6.42235E-14
 -1      1258 1.63459E-02-2.20267E-03-6.44125E-14
 -1      1259 1.44006E-02-9.59372E-04-4.59148E-14
 -1      1260 1.42302E-02-7.96910E-04-4.56311E-14
 -1      1261 1.39623E-02-6.24968E-04-4.51654E-14
 -1      1262 1.36154E-02-4.47160E-04-4.45407E-14
 -1      1263 1.32126E-02-2.73188E-04-4.37861E-14
 -1      1264 1.27691E-02-1.15306E-04-4.29207E-14
 -1      1265 1.23113E-02 8.47588E-06-4.19966E-14
 -1      1266 1.18551E-02 8.38591E-05-4.10644E-14
 -1      1267 1.14037E-02 1.07134E-04-4.01500E-14
 -1      1268 1.09689E-02 7.77355E-05-3.92944E-14
 -1      1269 1.05373E-02-1.97082E-06-3.84907E-14
 -1      1270 1.01588E-02-1.12291E-04-3.78388E-14
 -1      1271 9.86058E-03-2.37063E-04-3.73845E-14
 -1      1272 9.63159E-03-3.81104E-04-3.70938E-14
 -1      1273 9.51199E-03-5.32326E-04-3.70068E-14
 -1      1274 9.51009E-03-6.86876E-04-3.71096E-14
 -1      1275 9.61986E-03-8.61888E-04-3.73866E-14
 -1      1276 9.83576E-03-1.06273E-03-3.78302E-14
 -1      1277 1.01501E-02-1.29300E-03-3.84211E-14
 -1      1278 1.05503E-02-1.54599E-03-3.91401E-14
 -1      1279 1.10254E-02-1.80092E-03-3.99781E-14
 -1      1280 1.15554E-02-2.01406E-03-4.09103E-14
 -1      1281 1.21001E-02-2.12776E-03-4.18685E-14
 -1      1282 1.26427E-02-2.12216E-03-4.28123E-14
 -1      1283 1.31463E-02-2.01400E-03-4.36828E-14
 -1      1284 1.35801E-02-1.84935E-03-4.44312E-14
 -1      1285 1.39587E-02-1.65366E-03-4.50962E-14
 -1      1286 1.42443E-02-1.45971E-03-4.56043E-14
 -1      1287 1.44123E-02-1.28440E-03-4.59093E-14
 -1      1288 1.44642E-02-1.11849E-03-4.60128E-14
 -1      1289 1.58738E-04-1.05127E-04-7.57586E-18
 -1      1290 1.12510E-04-5.69441E-05-1.67374E-17
 -1      1291 1.17558E-04-6.74884E-05-1.42302E-17
 -1      1292 1.08420E-04-4.34901E-05-2.08438E-17
 -1      1293 1.10284E-04-4.95944E-05-1.98002E-17
 -1      1294 2.26312E-04-1.07621E-04-4.66478E-17
 -1      1295 1.06849E-04-3.36227E-05-2.25921E-17
 -1      1296 1.07694E-04-3.83474E-05-2.21719E-17
 -1      1297 2.19106E-04-8.24801E-05-5.34376E-17
 -1      1298 1.06067E-04-2.53510E-05-2.30257E-17
 -1      1299 1.06501E-04-2.93838E-05-2.29986E-17
 -1      1300 2.15885E-04-6.32903E-05-5.62023E-17
 -1      1301 1.05656E-04-1.80931E-05-2.30393E-17
 -1      1302 1.05887E-04-2.16611E-05-2.31477E-17
 -1      1303 2.14212E-04-4.71915E-05-5.68800E-17
 -1      1304 1.05435E-04-1.12417E-05-2.26327E-17
 -1      1305 1.05559E-04-1.46267E-05-2.28225E-17
 -1      1306 2.13287E-04-3.27578E-05-5.64734E-17
 -1      1307 1.05334E-04-4.69267E-06-2.19144E-17
 -1      1308 1.05387E-04-7.94549E-06-2.21042E-17
 -1      1309 2.12788E-04-1.91960E-05-5.52401E-17
 -1      1310 1.05322E-04 1.73809E-06-2.10742E-17
 -1      1311 1.05320E-04-1.47470E-06-2.13181E-17
 -1      1312 2.12571E-04-6.16827E-06-5.34783E-17
 -1      1313 1.05395E-04 8.21834E-06-1.98951E-17
 -1      1314 1.05338E-04 4.95922E-06-2.02068E-17
 -1      1315 2.12579E-04 6.69797E-06-5.11608E-17
 -1      1316 1.05574E-04 1.49241E-05-1.84314E-17
 -1      1317 1.05445E-04 1.15248E-05-1.89058E-17
 -1      1318 2.12812E-04 1.97509E-05-4.82063E-17
 -1      1319 1.05909E-04 2.19414E-05-1.63579E-17
 -1      1320 1.05673E-04 1.83509E-05-1.70626E-17
 -1      1321 2.13325E-04 3.32505E-05-4.42219E-17
 -1      1322 1.06535E-04 2.98066E-05-1.36203E-17
 -1      1323 1.06094E-04 2.57302E-05-1.44605E-17
 -1      1324 2.14269E-04 4.77757E-05-3.89635E-17
 -1      1325 1.07735E-04 3.89050E-05-1.00424E-17
 -1      1326 1.06882E-04 3.41095E-05-1.14112E-17
 -1      1327 2.15985E-04 6.41842E-05-3.24176E-17
 -1      1328 1.10272E-04 5.03416E-05-4.71628E-18
 -1      1329 1.08437E-04 4.41593E-05-6.96600E-18
 -1      1330 2.19229E-04 8.36932E-05-2.33103E-17
 -1      1331 1.16936E-04 6.76068E-05 3.15774E-18
 -1      1332 1.12184E-04 5.77612E-05-4.87891E-19
 -1      1333 2.26317E-04 1.09428E-04-1.05845E-17
 -1      1334 1.57585E-04 1.09849E-04 1.42302E-17
 -1      1335 1.35668E-04 8.60788E-05 7.86047E-18
 -1      1336 2.56045E-04 1.52069E-04 4.25549E-18
 -1      1337 3.35100E-04 2.20717E-04 2.34052E-17
 -1      1338 4.06140E-04-2.53619E-04-3.83537E-17
 -1      1339 5.59783E-04-3.30214E-04-7.21401E-17
 -1      1340 7.07449E-04-3.92006E-04-1.24453E-16
 -1      1341 8.50993E-04-4.42252E-04-1.93937E-16
 -1      1342 5.97285E-04-3.25005E-04-1.12933E-16
 -1      1343 9.91282E-04-4.84067E-04-2.79480E-16
 -1      1344 1.12932E-03-5.18654E-04-3.81327E-16
 -1      1345 8.91114E-04-4.27491E-04-2.54462E-16
 -1      1346 1.26594E-03-5.47930E-04-4.99573E-16
 -1      1347 1.40166E-03-5.72384E-04-6.34353E-16
 -1      1348 1.17395E-03-4.98140E-04-4.60095E-16
 -1      1349 1.53696E-03-5.93109E-04-7.84380E-16
 -1      1350 1.67208E-03-6.10445E-04-9.50086E-16
 -1      1351 1.45110E-03-5.47775E-04-7.28990E-16
 -1      1352 1.80051E-03-6.24360E-04-1.12195E-15
 -1      1353 1.92911E-03-6.36046E-04-1.30759E-15
 -1      1354 1.71903E-03-5.81976E-04-1.05080E-15
 -1      1355 2.06479E-03-6.46334E-04-1.51763E-15
 -1      1356 2.20082E-03-6.54801E-04-1.74273E-15
 -1      1357 1.98651E-03-6.05988E-04-1.43089E-15
 -1      1358 2.33728E-03-6.61737E-04-1.98303E-15
 -1      1359 2.47417E-03-6.67350E-04-2.23877E-15
 -1      1360 2.26139E-03-6.22833E-04-1.87965E-15
 -1      1361 2.61151E-03-6.71843E-04-2.51108E-15
 -1      1362 2.74929E-03-6.75384E-04-2.79948E-15
 -1      1363 2.53733E-03-6.33912E-04-2.38992E-15
 -1      1364 2.88750E-03-6.78119E-04-3.10358E-15
 -1      1365 3.02614E-03-6.80178E-04-3.42251E-15
 -1      1366 2.81454E-03-6.40828E-04-2.96325E-15
 -1      1367 3.16517E-03-6.81666E-04-3.75658E-15
 -1      1368 3.30458E-03-6.82684E-04-4.10636E-15
 -1      1369 3.09305E-03-6.44780E-04-3.59744E-15
 -1      1370 3.44434E-03-6.83305E-04-4.47045E-15
 -1      1371 3.58443E-03-6.83606E-04-4.84838E-15
 -1      1372 3.37280E-03-6.46662E-04-4.29100E-15
 -1      1373 3.71780E-03-6.83639E-04-5.22046E-15
 -1      1374 3.85142E-03-6.83478E-04-5.60478E-15
 -1      1375 3.64663E-03-6.47126E-04-5.02349E-15
 -1      1376 3.99231E-03-6.83125E-04-6.02318E-15
 -1      1377 4.13345E-03-6.82626E-04-6.45665E-15
 -1      1378 3.92139E-03-6.46675E-04-5.80922E-15
 -1      1379 4.27479E-03-6.81999E-04-6.90452E-15
 -1      1380 4.41632E-03-6.81273E-04-7.36639E-15
 -1      1381 4.20402E-03-6.45574E-04-6.67190E-15
 -1      1382 4.55804E-03-6.80455E-04-7.84255E-15
 -1      1383 4.69991E-03-6.79564E-04-8.33358E-15
 -1      1384 4.48737E-03-6.44034E-04-7.59150E-15
 -1      1385 4.84193E-03-6.78598E-04-8.83843E-15
 -1      1386 4.98409E-03-6.77570E-04-9.35652E-15
 -1      1387 4.77133E-03-6.42175E-04-8.56796E-15
 -1      1388 5.12638E-03-6.76471E-04-9.88752E-15
 -1      1389 5.26879E-03-6.75306E-04-1.04328E-14
 -1      1390 5.05581E-03-6.40049E-04-9.59902E-15
 -1      1391 5.40420E-03-6.74128E-04-1.09630E-14
 -1      1392 5.53973E-03-6.72882E-04-1.15033E-14
 -1      1393 5.33365E-03-6.37718E-04-1.06556E-14
 -1      1394 5.68251E-03-6.71478E-04-1.20870E-14
 -1      1395 5.82544E-03-6.69980E-04-1.26852E-14
 -1      1396 5.61195E-03-6.35092E-04-1.17640E-14
 -1      1397 5.96851E-03-6.68366E-04-1.32970E-14
 -1      1398 6.11176E-03-6.66634E-04-1.39229E-14
 -1      1399 5.89791E-03-6.32017E-04-1.29570E-14
 -1      1400 6.25521E-03-6.64757E-04-1.45619E-14
 -1      1401 6.39889E-03-6.62736E-04-1.52149E-14
 -1      1402 6.18451E-03-6.28454E-04-1.42038E-14
 -1      1403 6.54283E-03-6.60535E-04-1.58798E-14
 -1      1404 6.68708E-03-6.58163E-04-1.65551E-14
 -1      1405 6.47193E-03-6.24279E-04-1.55033E-14
 -1      1406 6.83171E-03-6.55576E-04-1.72424E-14
 -1      1407 6.97678E-03-6.52796E-04-1.79406E-14
 -1      1408 6.76045E-03-6.19355E-04-1.68508E-14
 -1      1409 7.12239E-03-6.49765E-04-1.86512E-14
 -1      1410 7.26863E-03-6.46531E-04-1.93723E-14
 -1      1411 7.05049E-03-6.13542E-04-1.82450E-14
 -1      1412 7.40826E-03-6.43206E-04-2.00662E-14
 -1      1413 7.54871E-03-6.39706E-04-2.07695E-14
 -1      1414 7.33532E-03-6.06902E-04-1.96457E-14
 -1      1415 7.69760E-03-6.35765E-04-2.15199E-14
 -1      1416 7.84778E-03-6.31698E-04-2.22815E-14
 -1      1417 7.62297E-03-5.99243E-04-2.10862E-14
 -1      1418 7.99951E-03-6.27431E-04-2.30551E-14
 -1      1419 8.15310E-03-6.23208E-04-2.38392E-14
 -1      1420 7.92207E-03-5.90420E-04-2.26064E-14
 -1      1421 8.30892E-03-6.18994E-04-2.46341E-14
 -1      1422 8.46739E-03-6.15199E-04-2.54400E-14
 -1      1423 8.22694E-03-5.81022E-04-2.41714E-14
 -1      1424 8.62901E-03-6.11912E-04-2.62584E-14
 -1      1425 8.79438E-03-6.09820E-04-2.70878E-14
 -1      1426 8.53983E-03-5.72137E-04-2.57806E-14
 -1      1427 8.96414E-03-6.09316E-04-2.79268E-14
 -1      1428 9.13905E-03-6.11556E-04-2.87742E-14
 -1      1429 8.86367E-03-5.66238E-04-2.74329E-14
 -1      1430 9.31066E-03-6.17175E-04-2.95871E-14
 -1      1431 9.48834E-03-6.27815E-04-3.04060E-14
 -1      1432 9.19349E-03-5.68310E-04-2.90787E-14
 -1      1433 9.68262E-03-6.46687E-04-3.12740E-14
 -1      1434 9.88497E-03-6.76317E-04-3.21454E-14
 -1      1435 9.54118E-03-5.87602E-04-3.07550E-14
 -1      1436 1.00959E-02-7.20860E-04-3.30232E-14
 -1      1437 1.03152E-02-7.84938E-04-3.39049E-14
 -1      1438 9.92068E-03-6.43719E-04-3.24954E-14
 -1      1439 1.05426E-02-8.74356E-04-3.47867E-14
 -1      1440 1.07759E-02-9.94420E-04-3.56690E-14
 -1      1441 1.03273E-02-7.68021E-04-3.42534E-14
 -1      1442 1.10133E-02-1.14935E-03-3.65545E-14
 -1      1443 1.12492E-02-1.33997E-03-3.74408E-14
 -1      1444 1.07628E-02-1.00372E-03-3.60211E-14
 -1      1445 1.14689E-02-1.54908E-03-3.82822E-14
 -1      1446 1.16766E-02-1.77262E-03-3.91272E-14
 -1      1447 1.12089E-02-1.37097E-03-3.77502E-14
 -1      1448 1.18409E-02-1.95912E-03-3.98396E-14
 -1      1449 1.19933E-02-2.12577E-03-4.05577E-14
 -1      1450 1.16094E-02-1.78593E-03-3.93085E-14
 -1      1451 1.21256E-02-2.25334E-03-4.12367E-14
 -1      1452 1.22523E-02-2.33550E-03-4.19200E-14
 -1      1453 1.19453E-02-2.12726E-03-4.07052E-14
 -1      1454 1.23985E-02-2.37231E-03-4.27561E-14
 -1      1455 1.25511E-02-2.34100E-03-4.36005E-14
 -1      1456 1.22796E-02-2.32257E-03-4.22185E-14
 -1      1457 1.27219E-02-2.24733E-03-4.45106E-14
 -1      1458 1.29091E-02-2.11779E-03-4.54363E-14
 -1      1459 1.26546E-02-2.25638E-03-4.39671E-14
 -1      1460 1.31226E-02-1.96853E-03-4.64179E-14
 -1      1461 1.33469E-02-1.83108E-03-4.74096E-14
 -1      1462 1.30795E-02-1.98257E-03-4.58611E-14
 -1      1463 1.35785E-02-1.72095E-03-4.84137E-14
 -1      1464 1.38099E-02-1.64451E-03-4.94254E-14
 -1      1465 1.35337E-02-1.70786E-03-4.78478E-14
 -1      1466 1.40269E-02-1.60362E-03-5.03948E-14
 -1      1467 1.42376E-02-1.59014E-03-5.13709E-14
 -1      1468 1.39640E-02-1.56135E-03-4.98198E-14
 -1      1469 1.44515E-02-1.60014E-03-5.23997E-14
 -1      1470 1.46560E-02-1.62975E-03-5.34323E-14
 -1      1471 1.43669E-02-1.53810E-03-5.18161E-14
 -1      1472 1.48513E-02-1.67346E-03-5.44658E-14
 -1      1473 1.50374E-02-1.72707E-03-5.54993E-14
 -1      1474 1.47495E-02-1.60121E-03-5.38805E-14
 -1      1475 1.52149E-02-1.78676E-03-5.65418E-14
 -1      1476 1.53847E-02-1.84964E-03-5.75909E-14
 -1      1477 1.51036E-02-1.71170E-03-5.59564E-14
 -1      1478 1.55477E-02-1.91333E-03-5.86453E-14
 -1      1479 1.57047E-02-1.97575E-03-5.97026E-14
 -1      1480 1.54334E-02-1.84023E-03-5.80525E-14
 -1      1481 1.58567E-02-2.03546E-03-6.07632E-14
 -1      1482 1.60047E-02-2.09077E-03-6.18310E-14
 -1      1483 1.57437E-02-1.96739E-03-6.01668E-14
 -1      1484 1.62098E-02-2.15909E-03-6.33814E-14
 -1      1485 6.43114E-04 3.71989E-04 2.15892E-17
 -1      1486 4.92977E-04 3.03667E-04 2.75523E-17
 -1      1487 4.44905E-04 2.65866E-04 1.32815E-17
 -1      1488 9.28733E-04 4.71935E-04-2.31342E-17
 -1      1489 7.87856E-04 4.26450E-04 4.85180E-18
 -1      1490 7.44797E-04 3.90673E-04-1.51246E-17
 -1      1491 1.20365E-03 5.41348E-04-1.14465E-16
 -1      1492 1.06697E-03 5.09675E-04-6.28295E-17
 -1      1493 1.03087E-03 4.76110E-04-8.77662E-17
 -1      1494 1.47424E-03 5.90531E-04-2.54584E-16
 -1      1495 1.33916E-03 5.68078E-04-1.78053E-16
 -1      1496 1.30881E-03 5.35920E-04-2.07706E-16
 -1      1497 1.74382E-03 6.25430E-04-4.46258E-16
 -1      1498 1.60898E-03 6.09526E-04-3.43638E-16
 -1      1499 1.58308E-03 5.78200E-04-3.77180E-16
 -1      1500 2.01408E-03 6.49908E-04-6.91396E-16
 -1      1501 1.87878E-03 6.38799E-04-5.62145E-16
 -1      1502 1.85629E-03 6.07935E-04-5.99049E-16
 -1      1503 2.28582E-03 6.66710E-04-9.89470E-16
 -1      1504 2.14973E-03 6.59137E-04-8.33833E-16
 -1      1505 2.12985E-03 6.28506E-04-8.74599E-16
 -1      1506 2.55938E-03 6.77883E-04-1.34413E-15
 -1      1507 2.42236E-03 6.72899E-04-1.15943E-15
 -1      1508 2.40447E-03 6.42360E-04-1.20426E-15
 -1      1509 2.83479E-03 6.84970E-04-1.75744E-15
 -1      1510 2.69685E-03 6.81860E-04-1.54351E-15
 -1      1511 2.68046E-03 6.51330E-04-1.59059E-15
 -1      1512 3.11196E-03 6.89135E-04-2.23064E-15
 -1      1513 2.97316E-03 6.87359E-04-1.98650E-15
 -1      1514 2.95788E-03 6.56790E-04-2.03598E-15
 -1      1515 3.39073E-03 6.91248E-04-2.75963E-15
 -1      1516 3.25116E-03 6.90405E-04-2.48758E-15
 -1      1517 3.23670E-03 6.59771E-04-2.53859E-15
 -1      1518 3.67089E-03 6.91946E-04-3.34733E-15
 -1      1519 3.53065E-03 6.91743E-04-3.04662E-15
 -1      1520 3.51677E-03 6.61033E-04-3.09899E-15
 -1      1521 3.95222E-03 6.91687E-04-3.99324E-15
 -1      1522 3.81142E-03 6.91914E-04-3.66267E-15
 -1      1523 3.79797E-03 6.61129E-04-3.71753E-15
 -1      1524 4.23455E-03 6.90788E-04-4.70053E-15
 -1      1525 4.09328E-03 6.91302E-04-4.33892E-15
 -1      1526 4.08013E-03 6.60445E-04-4.39472E-15
 -1      1527 4.51770E-03 6.89459E-04-5.47004E-15
 -1      1528 4.37604E-03 6.90167E-04-5.07726E-15
 -1      1529 4.36309E-03 6.59245E-04-5.13363E-15
 -1      1530 4.80154E-03 6.87829E-04-6.29965E-15
 -1      1531 4.65954E-03 6.88675E-04-5.87787E-15
 -1      1532 4.64675E-03 6.57696E-04-5.93473E-15
 -1      1533 5.08597E-03 6.85970E-04-7.18825E-15
 -1      1534 4.94368E-03 6.86924E-04-6.73650E-15
 -1      1535 4.93099E-03 6.55895E-04-6.79490E-15
 -1      1536 5.37092E-03 6.83914E-04-8.13630E-15
 -1      1537 5.22838E-03 6.84964E-04-7.65414E-15
 -1      1538 5.21576E-03 6.53889E-04-7.71339E-15
 -1      1539 5.65639E-03 6.81673E-04-9.14037E-15
 -1      1540 5.51359E-03 6.82814E-04-8.63177E-15
 -1      1541 5.50102E-03 6.51695E-04-8.69045E-15
 -1      1542 5.94239E-03 6.79254E-04-1.01960E-14
 -1      1543 5.79932E-03 6.80482E-04-9.66202E-15
 -1      1544 5.78677E-03 6.49316E-04-9.72107E-15
 -1      1545 6.22899E-03 6.76681E-04-1.13031E-14
 -1      1546 6.08562E-03 6.77981E-04-1.07423E-14
 -1      1547 6.07304E-03 6.46762E-04-1.08037E-14
 -1      1548 6.51628E-03 6.74014E-04-1.24670E-14
 -1      1549 6.37255E-03 6.75350E-04-1.18784E-14
 -1      1550 6.35991E-03 6.44064E-04-1.19403E-14
 -1      1551 6.80438E-03 6.71372E-04-1.36849E-14
 -1      1552 6.66022E-03 6.72676E-04-1.30700E-14
 -1      1553 6.64748E-03 6.41305E-04-1.31312E-14
 -1      1554 7.09342E-03 6.68960E-04-1.49479E-14
 -1      1555 6.94878E-03 6.70118E-04-1.43109E-14
 -1      1556 6.93583E-03 6.38639E-04-1.43696E-14
 -1      1557 7.38348E-03 6.67091E-04-1.62505E-14
 -1      1558 7.23831E-03 6.67932E-04-1.55928E-14
 -1      1559 7.22508E-03 6.36319E-04-1.56540E-14
 -1      1560 7.67461E-03 6.66202E-04-1.75969E-14
 -1      1561 7.52891E-03 6.66493E-04-1.69190E-14
 -1      1562 7.51527E-03 6.34720E-04-1.69808E-14
 -1      1563 7.96669E-03 6.66857E-04-1.89881E-14
 -1      1564 7.82054E-03 6.66305E-04-1.82864E-14
 -1      1565 7.80638E-03 6.34352E-04-1.83522E-14
 -1      1566 8.25941E-03 6.69702E-04-2.04299E-14
 -1      1567 8.11299E-03 6.67979E-04-1.97024E-14
 -1      1568 8.09825E-03 6.35842E-04-1.97699E-14
 -1      1569 8.55214E-03 6.75369E-04-2.19231E-14
 -1      1570 8.40582E-03 6.72173E-04-2.11705E-14
 -1      1571 8.39048E-03 6.39879E-04-2.12378E-14
 -1      1572 8.84389E-03 6.84295E-04-2.34700E-14
 -1      1573 8.69821E-03 6.79449E-04-2.26897E-14
 -1      1574 8.68240E-03 6.47073E-04-2.27583E-14
 -1      1575 9.13323E-03 6.96434E-04-2.50742E-14
 -1      1576 8.98896E-03 6.90042E-04-2.42644E-14
 -1      1577 8.97301E-03 6.57727E-04-2.43307E-14
 -1      1578 9.41834E-03 7.10872E-04-2.67320E-14
 -1      1579 9.27643E-03 7.03520E-04-2.58970E-14
 -1      1580 9.26095E-03 6.71496E-04-2.59610E-14
 -1      1581 9.69721E-03 7.25414E-04-2.84528E-14
 -1      1582 9.55868E-03 7.18377E-04-2.75842E-14
 -1      1583 9.54460E-03 6.86960E-04-2.76475E-14
 -1      1584 9.96798E-03 7.36272E-04-3.02292E-14
 -1      1585 9.83372E-03 7.31641E-04-2.93337E-14
 -1      1586 9.82229E-03 7.01223E-04-2.93938E-14
 -1      1587 1.02294E-02 7.38060E-04-3.20594E-14
 -1      1588 1.00999E-02 7.38699E-04-3.11381E-14
 -1      1589 1.00926E-02 7.09688E-04-3.11932E-14
 -1      1590 1.04814E-02 7.24297E-04-3.39317E-14
 -1      1591 1.03566E-02 7.33522E-04-3.29909E-14
 -1      1592 1.03550E-02 7.06258E-04-3.30403E-14
 -1      1593 1.07253E-02 6.88486E-04-3.58381E-14
 -1      1594 1.06042E-02 7.09467E-04-3.48805E-14
 -1      1595 1.06098E-02 6.84121E-04-3.49256E-14
 -1      1596 1.09640E-02 6.25530E-04-3.77892E-14
 -1      1597 1.08451E-02 6.60560E-04-3.68076E-14
 -1      1598 1.08587E-02 6.37063E-04-3.68490E-14
 -1      1599 1.12014E-02 5.33040E-04-3.97808E-14
 -1      1600 1.10826E-02 5.82932E-04-3.87804E-14
 -1      1601 1.11046E-02 5.60966E-04-3.88162E-14
 -1      1602 1.14413E-02 4.11956E-04-4.18164E-14
 -1      1603 1.13207E-02 4.75837E-04-4.07935E-14
 -1      1604 1.13508E-02 4.54905E-04-4.08259E-14
 -1      1605 1.16870E-02 2.66210E-04-4.38929E-14
 -1      1606 1.15633E-02 3.41805E-04-4.28491E-14
 -1      1607 1.16006E-02 3.21361E-04-4.28784E-14
 -1      1608 1.19406E-02 1.01559E-04-4.60065E-14
 -1      1609 1.18128E-02 1.85850E-04-4.49436E-14
 -1      1610 1.18560E-02 1.65426E-04-4.49673E-14
 -1      1611 1.22023E-02-7.58691E-05-4.81563E-14
 -1      1612 1.20704E-02 1.40884E-05-4.70784E-14
 -1      1613 1.21182E-02-6.62435E-06-4.70926E-14
 -1      1614 1.24714E-02-2.60800E-04-5.03401E-14
 -1      1615 1.23360E-02-1.67662E-04-4.92447E-14
 -1      1616 1.23870E-02-1.88800E-04-4.92543E-14
 -1      1617 1.27464E-02-4.49429E-04-5.25588E-14
 -1      1618 1.26083E-02-3.54822E-04-5.14444E-14
 -1      1619 1.26614E-02-3.76388E-04-5.14479E-14
 -1      1620 1.30259E-02-6.39420E-04-5.48108E-14
 -1      1621 1.28857E-02-5.44353E-04-5.36796E-14
 -1      1622 1.29400E-02-5.66275E-04-5.36746E-14
 -1      1623 1.33083E-02-8.29437E-04-5.70876E-14
 -1      1624 1.31668E-02-7.34491E-04-5.59457E-14
 -1      1625 1.32217E-02-7.56693E-04-5.59324E-14
 -1      1626 1.35928E-02-1.01853E-03-5.93742E-14
 -1      1627 1.34504E-02-9.24147E-04-5.82305E-14
 -1      1628 1.35054E-02-9.46594E-04-5.82066E-14
 -1      1629 1.37652E-02-1.12734E-03-6.05999E-14
 -1      1630 1.40059E-02-1.24128E-03-6.09397E-14
 -1      1631 1.39147E-02-1.19867E-03-6.08456E-14
 -1      1632 1.41883E-02-1.32736E-03-6.11028E-14
 -1      1633 1.40970E-02-1.28418E-03-6.10243E-14
 -1      1634 1.39275E-02-1.18124E-03-5.99993E-14
 -1      1635 1.43730E-02-1.41419E-03-6.12593E-14
 -1      1636 1.42802E-02-1.37074E-03-6.11820E-14
 -1      1637 1.41101E-02-1.26726E-03-6.01779E-14
 -1      1638 1.45625E-02-1.50038E-03-6.14167E-14
 -1      1639 1.44670E-02-1.45749E-03-6.13387E-14
 -1      1640 1.42957E-02-1.35360E-03-6.03504E-14
 -1      1641 1.47549E-02-1.58221E-03-6.15723E-14
 -1      1642 1.46579E-02-1.54182E-03-6.14943E-14
 -1      1643 1.44852E-02-1.43816E-03-6.05186E-14
 -1      1644 1.49562E-02-1.65950E-03-6.17393E-14
 -1      1645 1.48550E-02-1.62180E-03-6.16547E-14
 -1      1646 1.46814E-02-1.51962E-03-6.06872E-14
 -1      1647 1.51599E-02-1.72773E-03-6.19167E-14
 -1      1648 1.50581E-02-1.69492E-03-6.18266E-14
 -1      1649 1.48848E-02-1.59612E-03-6.08626E-14
 -1      1650 1.53594E-02-1.78465E-03-6.20977E-14
 -1      1651 1.52606E-02-1.75768E-03-6.20060E-14
 -1      1652 1.50896E-02-1.66448E-03-6.10419E-14
 -1      1653 1.55459E-02-1.82988E-03-6.22811E-14
 -1      1654 1.54548E-02-1.80866E-03-6.21912E-14
 -1      1655 1.52884E-02-1.72309E-03-6.12270E-14
 -1      1656 1.57098E-02-1.86566E-03-6.24608E-14
 -1      1657 1.56312E-02-1.84870E-03-6.23707E-14
 -1      1658 1.54716E-02-1.77200E-03-6.14107E-14
 -1      1659 1.58421E-02-1.89653E-03-6.26367E-14
 -1      1660 1.57798E-02-1.88124E-03-6.25495E-14
 -1      1661 1.56284E-02-1.81319E-03-6.15914E-14
 -1      1662 1.59458E-02-1.93038E-03-6.28274E-14
 -1      1663 1.58977E-02-1.91269E-03-6.27294E-14
 -1      1664 1.57542E-02-1.85155E-03-6.17747E-14
 -1      1665 1.60242E-02-1.97361E-03-6.30017E-14
 -1      1666 1.59876E-02-1.95046E-03-6.29179E-14
 -1      1667 1.58497E-02-1.89323E-03-6.19535E-14
 -1      1668 1.60902E-02-2.03092E-03-6.31721E-14
 -1      1669 1.60578E-02-2.00034E-03-6.30888E-14
 -1      1670 1.59216E-02-1.94345E-03-6.21277E-14
 -1      1671 1.43784E-02-9.81506E-04-4.62484E-14
 -1      1672 1.44409E-02-1.03244E-03-4.63424E-14
 -1      1673 1.41521E-02-8.51642E-04-4.58927E-14
 -1      1674 1.42718E-02-9.15093E-04-4.60816E-14
 -1      1675 1.38226E-02-6.88214E-04-4.53476E-14
 -1      1676 1.39861E-02-7.68105E-04-4.56217E-14
 -1      1677 1.34245E-02-4.92724E-04-4.46276E-14
 -1      1678 1.36149E-02-5.86323E-04-4.49788E-14
 -1      1679 1.29962E-02-2.83441E-04-4.37792E-14
 -1      1680 1.31958E-02-3.80696E-04-4.41839E-14
 -1      1681 1.25515E-02-8.51944E-05-4.28192E-14
 -1      1682 1.27536E-02-1.75204E-04-4.32808E-14
 -1      1683 1.21411E-02 6.41632E-05-4.18050E-14
 -1      1684 1.23285E-02 3.62300E-06-4.22662E-14
 -1      1685 1.17373E-02 1.44450E-04-4.07867E-14
 -1      1686 1.19206E-02 1.17704E-04-4.12565E-14
 -1      1687 1.13444E-02 1.40926E-04-3.98143E-14
 -1      1688 1.15244E-02 1.51560E-04-4.02554E-14
 -1      1689 1.09510E-02 6.74223E-05-3.89095E-14
 -1      1690 1.11329E-02 1.09664E-04-3.93163E-14
 -1      1691 1.05483E-02-7.30336E-05-3.79913E-14
 -1      1692 1.07437E-02-1.86479E-06-3.83737E-14
 -1      1693 1.01576E-02-2.08626E-04-3.74240E-14
 -1      1694 1.03185E-02-1.43891E-04-3.76855E-14
 -1      1695 9.84004E-03-3.43706E-04-3.69816E-14
 -1      1696 9.98030E-03-2.82254E-04-3.71653E-14
 -1      1697 9.59550E-03-4.77831E-04-3.66480E-14
 -1      1698 9.69899E-03-4.23517E-04-3.67439E-14
 -1      1699 9.48477E-03-5.76861E-04-3.66772E-14
 -1      1700 9.51710E-03-5.30423E-04-3.66691E-14
 -1      1701 9.51315E-03-6.84741E-04-3.68343E-14
 -1      1702 9.48345E-03-6.33381E-04-3.67381E-14
 -1      1703 9.67769E-03-8.17514E-04-3.71542E-14
 -1      1704 9.58481E-03-7.50309E-04-3.69725E-14
 -1      1705 9.95854E-03-1.00535E-03-3.76892E-14
 -1      1706 9.81520E-03-9.14717E-04-3.74340E-14
 -1      1707 1.03480E-02-1.24233E-03-3.83463E-14
 -1      1708 1.01587E-02-1.12184E-03-3.80165E-14
 -1      1709 1.07951E-02-1.53349E-03-3.91481E-14
 -1      1710 1.05850E-02-1.39515E-03-3.87676E-14
 -1      1711 1.12902E-02-1.84293E-03-4.00788E-14
 -1      1712 1.10629E-02-1.69933E-03-3.96317E-14
 -1      1713 1.17623E-02-2.09003E-03-4.11059E-14
 -1      1714 1.15406E-02-1.99041E-03-4.06329E-14
 -1      1715 1.22293E-02-2.19506E-03-4.21322E-14
 -1      1716 1.20156E-02-2.16670E-03-4.16585E-14
 -1      1717 1.26919E-02-2.13831E-03-4.31551E-14
 -1      1718 1.24780E-02-2.18530E-03-4.26898E-14
 -1      1719 1.31453E-02-1.96400E-03-4.40649E-14
 -1      1720 1.29415E-02-2.05386E-03-4.36596E-14
 -1      1721 1.35647E-02-1.74708E-03-4.48496E-14
 -1      1722 1.33754E-02-1.84938E-03-4.45057E-14
 -1      1723 1.39574E-02-1.51342E-03-4.56004E-14
 -1      1724 1.37754E-02-1.61733E-03-4.52853E-14
 -1      1725 1.42639E-02-1.34247E-03-4.60486E-14
 -1      1726 1.41424E-02-1.41798E-03-4.58536E-14
 -1      1727 1.44411E-02-1.20443E-03-4.63343E-14
 -1      1728 1.43747E-02-1.26444E-03-4.62268E-14
 -1      1729 1.44793E-02-1.09170E-03-4.64260E-14
 -1      1730 1.44795E-02-1.14035E-03-4.64261E-14
 -1      1731 1.61002E-02-2.09868E-03-6.27720E-14
 -1      1732 1.40432E-02-8.79899E-04-4.60945E-14
 -1      1733 1.38202E-02-1.15002E-03-6.05708E-14
 -1      1734 1.37423E-02-1.08977E-03-5.96283E-14
 -1      1735 1.44710E-02-1.08309E-03-4.67827E-14
 -1      1736 1.43228E-02-9.98833E-04-4.65336E-14
 -1      1737 1.61603E-02-2.10286E-03-6.33436E-14
 -1      1738 1.61238E-02-2.06518E-03-6.32545E-14
 -1      1739 1.59847E-02-2.00578E-03-6.22944E-14
 -1      1740 1.36651E-02-7.09470E-04-4.54521E-14
 -1      1741 1.32357E-02-4.93479E-04-4.46355E-14
 -1      1742 1.27903E-02-2.58234E-04-4.36877E-14
 -1      1743 1.23737E-02-4.13347E-05-4.26316E-14
 -1      1744 1.19882E-02 1.13142E-04-4.15255E-14
 -1      1745 1.16293E-02 1.75622E-04-4.04437E-14
 -1      1746 1.12683E-02 1.42002E-04-3.94156E-14
 -1      1747 1.08911E-02 2.59769E-05-3.83856E-14
 -1      1748 1.04975E-02-1.37782E-04-3.75526E-14
 -1      1749 1.01071E-02-2.91905E-04-3.69940E-14
 -1      1750 9.78354E-03-4.30933E-04-3.65030E-14
 -1      1751 9.55545E-03-5.24897E-04-3.62929E-14
 -1      1752 9.47408E-03-5.97251E-04-3.63781E-14
 -1      1753 9.54782E-03-6.75957E-04-3.65786E-14
 -1      1754 9.76727E-03-7.95726E-04-3.69959E-14
 -1      1755 1.01133E-02-9.84701E-04-3.76004E-14
 -1      1756 1.05490E-02-1.24672E-03-3.83437E-14
 -1      1757 1.10312E-02-1.57608E-03-3.92421E-14
 -1      1758 1.14964E-02-1.91383E-03-4.02729E-14
 -1      1759 1.19330E-02-2.15643E-03-4.13731E-14
 -1      1760 1.23513E-02-2.22363E-03-4.24810E-14
 -1      1761 1.27655E-02-2.11024E-03-4.35434E-14
 -1      1762 1.31932E-02-1.88872E-03-4.44939E-14
 -1      1763 1.36147E-02-1.63321E-03-4.53742E-14
 -1      1764 1.40072E-02-1.41290E-03-4.60659E-14
 -1      1765 1.43084E-02-1.26005E-03-4.65003E-14
 -1      1766 1.44671E-02-1.15664E-03-4.67721E-14
 -1      1767 2.77621E-04-1.72094E-04-3.27971E-17
 -1      1768 3.32162E-04-1.16809E-04-8.34700E-17
 -1      1769 3.36267E-04-1.33021E-04-8.03800E-17
 -1      1770 3.42230E-04-1.52031E-04-7.61923E-17
 -1      1771 3.51783E-04-1.74059E-04-6.93618E-17
 -1      1772 4.58340E-04-1.88126E-04-1.17175E-16
 -1      1773 3.24555E-04-6.53837E-05-8.68988E-17
 -1      1774 3.25707E-04-7.66784E-05-8.67904E-17
 -1      1775 3.23062E-04-4.38909E-05-8.57333E-17
 -1      1776 3.23716E-04-5.43788E-05-8.64109E-17
 -1      1777 4.36496E-04-7.92923E-05-1.27678E-16
 -1      1778 3.22276E-04-2.37773E-05-8.36869E-17
 -1      1779 3.22608E-04-3.36880E-05-8.48795E-17
 -1      1780 4.34496E-04-5.13216E-05-1.25645E-16
 -1      1781 3.21981E-04-4.34930E-06-8.07460E-17
 -1      1782 3.22078E-04-1.39982E-05-8.23723E-17
 -1      1783 4.33474E-04-2.49341E-05-1.22488E-16
 -1      1784 3.22102E-04 1.49614E-05-7.72223E-17
 -1      1785 3.21989E-04 5.30264E-06-7.92552E-17
 -1      1786 4.33175E-04 7.38720E-07-1.18110E-16
 -1      1787 3.22669E-04 3.47030E-05-7.23840E-17
 -1      1788 3.22317E-04 2.47607E-05-7.49997E-17
 -1      1789 4.33530E-04 2.64395E-05-1.12554E-16
 -1      1790 3.23799E-04 5.51338E-05-6.58382E-17
 -1      1791 3.23135E-04 4.47744E-05-6.92941E-17
 -1      1792 4.34607E-04 5.26859E-05-1.04951E-16
 -1      1793 3.25858E-04 7.77794E-05-5.77473E-17
 -1      1794 3.24659E-04 6.62013E-05-6.22061E-17
 -1      1795 4.36665E-04 8.05581E-05-9.53962E-17
 -1      1796 3.29558E-04 1.03611E-04-4.72441E-17
 -1      1797 3.27400E-04 9.02665E-05-5.30852E-17
 -1      1798 4.40315E-04 1.11525E-04-8.34836E-17
 -1      1799 3.36641E-04 1.35098E-04-3.25261E-17
 -1      1800 3.32471E-04 1.18572E-04-4.06305E-17
 -1      1801 4.46834E-04 1.47303E-04-6.74916E-17
 -1      1802 3.52273E-04 1.77539E-04-1.23599E-17
 -1      1803 3.42799E-04 1.54699E-04-2.34188E-17
 -1      1804 4.59298E-04 1.91391E-04-4.59024E-17
 -1      1805 4.07700E-04 2.33647E-04 3.61852E-18
 -1      1806 3.78088E-04 2.02630E-04-6.07153E-18
 -1      1807 4.95869E-04 2.43970E-04-2.56820E-17
 -1      1808 5.58562E-04 3.02469E-04-7.29126E-18
 -1      1809 3.32494E-04-1.87252E-04-5.25160E-17
 -1      1810 8.53638E-04 4.07049E-04-6.11626E-17
 -1      1811 7.07213E-04 3.59314E-04-2.88262E-17
 -1      1812 6.73470E-04 3.28756E-04-4.07931E-17
 -1      1813 7.92789E-04-3.69633E-04-2.28509E-16
 -1      1814 9.38260E-04-4.11537E-04-3.16628E-16
 -1      1815 1.08126E-03-4.46822E-04-4.20223E-16
 -1      1816 1.22308E-03-4.76220E-04-5.39648E-16
 -1      1817 9.89686E-04-3.94496E-04-3.80379E-16
 -1      1818 1.36358E-03-5.01131E-04-6.74225E-16
 -1      1819 1.50336E-03-5.21867E-04-8.24183E-16
 -1      1820 1.27558E-03-4.53445E-04-6.19879E-16
 -1      1821 1.63563E-03-5.38551E-04-9.80959E-16
 -1      1822 1.76758E-03-5.52505E-04-1.15140E-15
 -1      1823 1.55110E-03-4.94239E-04-9.11841E-16
 -1      1824 1.90634E-03-5.64847E-04-1.34533E-15
 -1      1825 2.04502E-03-5.74977E-04-1.55399E-15
 -1      1826 1.82483E-03-5.22979E-04-1.26094E-15
 -1      1827 2.18378E-03-5.83331E-04-1.77774E-15
 -1      1828 2.32261E-03-5.90082E-04-2.01641E-15
 -1      1829 2.10481E-03-5.43255E-04-1.67738E-15
 -1      1830 2.46165E-03-5.95538E-04-2.27028E-15
 -1      1831 2.60085E-03-5.99841E-04-2.53995E-15
 -1      1832 2.38469E-03-5.56719E-04-2.15293E-15
 -1      1833 2.74029E-03-6.03213E-04-2.82490E-15
 -1      1834 2.87995E-03-6.05766E-04-3.12517E-15
 -1      1835 2.66492E-03-5.65257E-04-2.68889E-15
 -1      1836 3.01987E-03-6.07660E-04-3.44019E-15
 -1      1837 3.16000E-03-6.08985E-04-3.76965E-15
 -1      1838 2.94570E-03-5.70283E-04-3.28523E-15
 -1      1839 3.30038E-03-6.09852E-04-4.11453E-15
 -1      1840 3.44097E-03-6.10330E-04-4.47433E-15
 -1      1841 3.22714E-03-5.72849E-04-3.94076E-15
 -1      1842 3.57475E-03-6.10495E-04-4.82943E-15
 -1      1843 3.70870E-03-6.10424E-04-5.19706E-15
 -1      1844 3.50219E-03-5.73721E-04-4.63736E-15
 -1      1845 3.84989E-03-6.10143E-04-5.59771E-15
 -1      1846 3.99126E-03-6.09688E-04-6.01292E-15
 -1      1847 3.77783E-03-5.73506E-04-5.38820E-15
 -1      1848 4.13280E-03-6.09092E-04-6.44158E-15
 -1      1849 4.27449E-03-6.08381E-04-6.88567E-15
 -1      1850 4.06112E-03-5.72534E-04-6.21438E-15
 -1      1851 4.41634E-03-6.07573E-04-7.34357E-15
 -1      1852 4.55831E-03-6.06685E-04-7.81458E-15
 -1      1853 4.34493E-03-5.71057E-04-7.09723E-15
 -1      1854 4.70042E-03-6.05724E-04-8.30075E-15
 -1      1855 4.84264E-03-6.04699E-04-8.80065E-15
 -1      1856 4.62920E-03-5.69235E-04-8.03687E-15
 -1      1857 4.98498E-03-6.03608E-04-9.31359E-15
 -1      1858 5.12742E-03-6.02457E-04-9.83991E-15
 -1      1859 4.91388E-03-5.67144E-04-9.03126E-15
 -1      1860 5.26285E-03-6.01297E-04-1.03527E-14
 -1      1861 5.39837E-03-6.00074E-04-1.08776E-14
 -1      1862 5.19182E-03-5.64864E-04-1.00531E-14
 -1      1863 5.54114E-03-5.98703E-04-1.14440E-14
 -1      1864 5.68403E-03-5.97245E-04-1.20243E-14
 -1      1865 5.47011E-03-5.62316E-04-1.11265E-14
 -1      1866 5.82704E-03-5.95677E-04-1.26182E-14
 -1      1867 5.97019E-03-5.93999E-04-1.32270E-14
 -1      1868 5.75594E-03-5.59359E-04-1.22828E-14
 -1      1869 6.11349E-03-5.92181E-04-1.38493E-14
 -1      1870 6.25696E-03-5.90223E-04-1.44837E-14
 -1      1871 6.04222E-03-5.55954E-04-1.34955E-14
 -1      1872 6.40063E-03-5.88088E-04-1.51308E-14
 -1      1873 6.54453E-03-5.85779E-04-1.57904E-14
 -1      1874 6.32906E-03-5.51979E-04-1.47616E-14
 -1      1875 6.68868E-03-5.83252E-04-1.64622E-14
 -1      1876 6.83315E-03-5.80518E-04-1.71456E-14
 -1      1877 6.61661E-03-5.47289E-04-1.60758E-14
 -1      1878 6.97794E-03-5.77524E-04-1.78394E-14
 -1      1879 7.12318E-03-5.74289E-04-1.85453E-14
 -1      1880 6.90506E-03-5.41730E-04-1.74372E-14
 -1      1881 7.26156E-03-5.70942E-04-1.92275E-14
 -1      1882 7.40049E-03-5.67360E-04-1.99174E-14
 -1      1883 7.18745E-03-5.35333E-04-1.88090E-14
 -1      1884 7.54730E-03-5.63283E-04-2.06529E-14
 -1      1885 7.69494E-03-5.58951E-04-2.14015E-14
 -1      1886 7.47130E-03-5.27860E-04-2.02222E-14
 -1      1887 7.84334E-03-5.54328E-04-2.21590E-14
 -1      1888 7.99289E-03-5.49518E-04-2.29296E-14
 -1      1889 7.76439E-03-5.19064E-04-2.17147E-14
 -1      1890 8.14345E-03-5.44536E-04-2.37103E-14
 -1      1891 8.29557E-03-5.39560E-04-2.45012E-14
 -1      1892 8.06001E-03-5.09317E-04-2.32501E-14
 -1      1893 8.44899E-03-5.34738E-04-2.53045E-14
 -1      1894 8.60451E-03-5.30370E-04-2.61179E-14
 -1      1895 8.35876E-03-4.99268E-04-2.48301E-14
 -1      1896 8.76170E-03-5.26890E-04-2.69431E-14
 -1      1897 8.92164E-03-5.24830E-04-2.77751E-14
 -1      1898 8.66134E-03-4.90482E-04-2.64529E-14
 -1      1899 9.07553E-03-5.25080E-04-2.85743E-14
 -1      1900 9.23259E-03-5.28281E-04-2.93817E-14
 -1      1901 8.96078E-03-4.86305E-04-2.80721E-14
 -1      1902 9.40061E-03-5.36676E-04-3.02389E-14
 -1      1903 9.57292E-03-5.52000E-04-3.11014E-14
 -1      1904 9.26556E-03-4.92477E-04-2.97240E-14
 -1      1905 9.74931E-03-5.77444E-04-3.19705E-14
 -1      1906 9.93088E-03-6.16513E-04-3.28452E-14
 -1      1907 9.58598E-03-5.21328E-04-3.14463E-14
 -1      1908 1.01192E-02-6.73415E-04-3.37212E-14
 -1      1909 1.03139E-02-7.55056E-04-3.46015E-14
 -1      1910 9.92013E-03-5.93729E-04-3.31900E-14
 -1      1911 1.05206E-02-8.64887E-04-3.54857E-14
 -1      1912 1.07340E-02-1.01249E-03-3.63706E-14
 -1      1913 1.02819E-02-7.43755E-04-3.49508E-14
 -1      1914 1.09524E-02-1.18524E-03-3.72125E-14
 -1      1915 1.11740E-02-1.39511E-03-3.80592E-14
 -1      1916 1.06829E-02-1.01087E-03-3.66774E-14
 -1      1917 1.17946E-02-2.01310E-03-4.03003E-14
 -1      1918 1.19686E-02-2.15810E-03-4.09844E-14
 -1      1919 1.21520E-02-2.27090E-03-4.17514E-14
 -1      1920 1.23535E-02-2.31111E-03-4.25892E-14
 -1      1921 1.25547E-02-2.26595E-03-4.34611E-14
 -1      1922 1.27746E-02-2.15821E-03-4.43733E-14
 -1      1923 1.30107E-02-1.99541E-03-4.53085E-14
 -1      1924 1.32484E-02-1.83499E-03-4.62915E-14
 -1      1925 1.34872E-02-1.69690E-03-4.72885E-14
 -1      1926 1.37100E-02-1.58983E-03-4.82931E-14
 -1      1927 1.34433E-02-1.68612E-03-4.67270E-14
 -1      1928 1.39163E-02-1.52543E-03-4.92512E-14
 -1      1929 1.41088E-02-1.49046E-03-5.02175E-14
 -1      1930 1.38806E-02-1.48974E-03-4.86854E-14
 -1      1931 1.43045E-02-1.48428E-03-5.12397E-14
 -1      1932 1.44903E-02-1.50115E-03-5.22678E-14
 -1      1933 1.42593E-02-1.43298E-03-5.06661E-14
 -1      1934 1.46697E-02-1.53660E-03-5.33009E-14
 -1      1935 1.48428E-02-1.58517E-03-5.43356E-14
 -1      1936 1.46071E-02-1.47550E-03-5.27213E-14
 -1      1937 1.50106E-02-1.64259E-03-5.53736E-14
 -1      1938 1.51740E-02-1.70567E-03-5.64177E-14
 -1      1939 1.49317E-02-1.57628E-03-5.47912E-14
 -1      1940 1.53329E-02-1.77135E-03-5.74654E-14
 -1      1941 1.54885E-02-1.83754E-03-5.85191E-14
 -1      1942 1.52425E-02-1.70388E-03-5.68800E-14
 -1      1943 1.56404E-02-1.90228E-03-5.95745E-14
 -1      1944 1.57897E-02-1.96403E-03-6.06342E-14
 -1      1945 1.55434E-02-1.83731E-03-5.89833E-14
 -1      1946 1.13872E-03 4.80007E-04-1.60042E-16
 -1      1947 9.96938E-04 4.46782E-04-1.04436E-16
 -1      1948 9.64584E-04 4.17349E-04-1.19723E-16
 -1      1949 1.39334E-02-9.08135E-04-4.63674E-14
 -1      1950 1.41013E-02-9.70079E-04-4.66402E-14
 -1      1951 1.41785E-03 5.31463E-04-3.07114E-16
 -1      1952 1.27868E-03 5.08033E-04-2.27330E-16
 -1      1953 1.24906E-03 4.79911E-04-2.44894E-16
 -1      1954 1.69427E-03 5.67750E-04-5.04561E-16
 -1      1955 1.55622E-03 5.51260E-04-3.99244E-16
 -1      1956 1.52934E-03 5.24086E-04-4.19518E-16
 -1      1957 1.96989E-03 5.93040E-04-7.55431E-16
 -1      1958 1.83209E-03 5.81601E-04-6.23267E-16
 -1      1959 1.80762E-03 5.55063E-04-6.45466E-16
 -1      1960 2.24577E-03 6.10285E-04-1.05971E-15
 -1      1961 2.10775E-03 6.02543E-04-9.00850E-16
 -1      1962 2.08528E-03 5.76409E-04-9.25163E-16
 -1      1963 2.52249E-03 6.21665E-04-1.41892E-15
 -1      1964 2.38401E-03 6.16614E-04-1.23221E-15
 -1      1965 2.36314E-03 5.90727E-04-1.25827E-15
 -1      1966 2.80029E-03 6.28812E-04-1.83559E-15
 -1      1967 2.66125E-03 6.25697E-04-1.61988E-15
 -1      1968 2.64166E-03 5.99950E-04-1.64726E-15
 -1      1969 3.07926E-03 6.32949E-04-2.31046E-15
 -1      1970 2.93964E-03 6.31204E-04-2.06572E-15
 -1      1971 2.92103E-03 6.05526E-04-2.09343E-15
 -1      1972 3.35934E-03 6.34983E-04-2.84195E-15
 -1      1973 3.21917E-03 6.34190E-04-2.56913E-15
 -1      1974 3.20132E-03 6.08537E-04-2.59740E-15
 -1      1975 3.64045E-03 6.35579E-04-3.43244E-15
 -1      1976 3.49978E-03 6.35433E-04-3.13013E-15
 -1      1977 3.48251E-03 6.09776E-04-3.15920E-15
 -1      1978 3.92248E-03 6.35211E-04-4.07988E-15
 -1      1979 3.78136E-03 6.35496E-04-3.74853E-15
 -1      1980 3.76453E-03 6.09820E-04-3.77786E-15
 -1      1981 4.20530E-03 6.34206E-04-4.78759E-15
 -1      1982 4.06380E-03 6.34775E-04-4.42588E-15
 -1      1983 4.04729E-03 6.09073E-04-4.45533E-15
 -1      1984 4.48880E-03 6.32780E-04-5.55790E-15
 -1      1985 4.34697E-03 6.33538E-04-5.16536E-15
 -1      1986 4.33069E-03 6.07807E-04-5.19441E-15
 -1      1987 4.77287E-03 6.31064E-04-6.38783E-15
 -1      1988 4.63077E-03 6.31954E-04-5.96527E-15
 -1      1989 4.61466E-03 6.06195E-04-5.99454E-15
 -1      1990 5.05747E-03 6.29127E-04-7.27752E-15
 -1      1991 4.91511E-03 6.30121E-04-6.82534E-15
 -1      1992 4.89911E-03 6.04337E-04-6.85420E-15
 -1      1993 5.34253E-03 6.26998E-04-8.22415E-15
 -1      1994 5.19994E-03 6.28086E-04-7.74310E-15
 -1      1995 5.18401E-03 6.02279E-04-7.77133E-15
 -1      1996 5.62804E-03 6.24683E-04-9.22716E-15
 -1      1997 5.48523E-03 6.25863E-04-8.71934E-15
 -1      1998 5.46934E-03 6.00034E-04-8.74627E-15
 -1      1999 5.91403E-03 6.22182E-04-1.02849E-14
 -1      2000 5.77097E-03 6.23455E-04-9.74974E-15
 -1      2001 5.75508E-03 5.97602E-04-9.77651E-15
 -1      2002 6.20054E-03 6.19510E-04-1.13940E-14
 -1      2003 6.05721E-03 6.20864E-04-1.08324E-14
 -1      2004 6.04128E-03 5.94982E-04-1.08598E-14
 -1      2005 6.48764E-03 6.16714E-04-1.25568E-14
 -1      2006 6.34401E-03 6.18121E-04-1.19695E-14
 -1      2007 6.32798E-03 5.92200E-04-1.19956E-14
 -1      2008 6.77542E-03 6.13904E-04-1.37704E-14
 -1      2009 6.63143E-03 6.15300E-04-1.31577E-14
 -1      2010 6.61526E-03 5.89324E-04-1.31836E-14
 -1      2011 7.06397E-03 6.11273E-04-1.50330E-14
 -1      2012 6.91959E-03 6.12550E-04-1.43945E-14
 -1      2013 6.90320E-03 5.86494E-04-1.44201E-14
 -1      2014 7.35338E-03 6.09126E-04-1.63364E-14
 -1      2015 7.20856E-03 6.10117E-04-1.56789E-14
 -1      2016 7.19190E-03 5.83949E-04-1.57034E-14
 -1      2017 7.64368E-03 6.07903E-04-1.76879E-14
 -1      2018 7.49842E-03 6.08371E-04-1.70072E-14
 -1      2019 7.48142E-03 5.82054E-04-1.70313E-14
 -1      2020 7.93480E-03 6.08179E-04-1.90822E-14
 -1      2021 7.78914E-03 6.07822E-04-1.83796E-14
 -1      2022 7.77178E-03 5.81311E-04-1.84052E-14
 -1      2023 8.22653E-03 6.10636E-04-2.05255E-14
 -1      2024 8.08061E-03 6.09103E-04-1.97975E-14
 -1      2025 8.06291E-03 5.82359E-04-1.98236E-14
 -1      2026 8.51847E-03 6.15973E-04-2.20179E-14
 -1      2027 8.37252E-03 6.12923E-04-2.12645E-14
 -1      2028 8.35458E-03 5.85919E-04-2.12905E-14
 -1      2029 8.80991E-03 6.24736E-04-2.35630E-14
 -1      2030 8.66432E-03 6.19929E-04-2.27845E-14
 -1      2031 8.64640E-03 5.92677E-04-2.28091E-14
 -1      2032 9.09988E-03 6.37032E-04-2.51629E-14
 -1      2033 8.95518E-03 6.30489E-04-2.43556E-14
 -1      2034 8.93769E-03 6.03065E-04-2.43791E-14
 -1      2035 9.38708E-03 6.52138E-04-2.68177E-14
 -1      2036 9.24395E-03 6.44346E-04-2.59838E-14
 -1      2037 9.22750E-03 6.16922E-04-2.60044E-14
 -1      2038 9.67005E-03 6.68055E-04-2.85311E-14
 -1      2039 9.52923E-03 6.60195E-04-2.76663E-14
 -1      2040 9.51462E-03 6.33066E-04-2.76841E-14
 -1      2041 9.94734E-03 6.81138E-04-3.03009E-14
 -1      2042 9.80953E-03 6.75245E-04-2.94099E-14
 -1      2043 9.79767E-03 6.48835E-04-2.94235E-14
 -1      2044 1.02179E-02 6.86009E-04-3.21201E-14
 -1      2045 1.00835E-02 6.84970E-04-3.12049E-14
 -1      2046 1.00754E-02 6.59786E-04-3.12154E-14
 -1      2047 1.04814E-02 6.75990E-04-3.39823E-14
 -1      2048 1.03505E-02 6.83251E-04-3.30460E-14
 -1      2049 1.03469E-02 6.59790E-04-3.30521E-14
 -1      2050 1.07387E-02 6.44174E-04-3.58816E-14
 -1      2051 1.06107E-02 6.63135E-04-3.49276E-14
 -1      2052 1.06122E-02 6.41740E-04-3.49285E-14
 -1      2053 1.09918E-02 5.84935E-04-3.78228E-14
 -1      2054 1.08656E-02 6.18164E-04-3.68470E-14
 -1      2055 1.08725E-02 5.98909E-04-3.68443E-14
 -1      2056 1.12435E-02 4.95394E-04-3.98078E-14
 -1      2057 1.11175E-02 5.43933E-04-3.88100E-14
 -1      2058 1.11300E-02 5.26578E-04-3.88031E-14
 -1      2059 1.14968E-02 3.76207E-04-4.18341E-14
 -1      2060 1.13697E-02 4.39292E-04-4.08153E-14
 -1      2061 1.13874E-02 4.23356E-04-4.08047E-14
 -1      2062 1.17542E-02 2.31301E-04-4.38985E-14
 -1      2063 1.16248E-02 3.06625E-04-4.28603E-14
 -1      2064 1.16475E-02 2.91538E-04-4.28451E-14
 -1      2065 1.20172E-02 6.66662E-05-4.60014E-14
 -1      2066 1.18850E-02 1.51068E-04-4.49463E-14
 -1      2067 1.19122E-02 1.36331E-04-4.49241E-14
 -1      2068 1.22862E-02-1.11235E-04-4.81407E-14
 -1      2069 1.21510E-02-2.09625E-05-4.70688E-14
 -1      2070 1.21821E-02-3.56823E-05-4.70420E-14
 -1      2071 1.25604E-02-2.96810E-04-5.03105E-14
 -1      2072 1.24227E-02-2.03307E-04-4.92219E-14
 -1      2073 1.24570E-02-2.18163E-04-4.91893E-14
 -1      2074 1.28388E-02-4.86042E-04-5.25133E-14
 -1      2075 1.26992E-02-3.91116E-04-5.14066E-14
 -1      2076 1.27359E-02-4.06127E-04-5.13683E-14
 -1      2077 1.31201E-02-6.76514E-04-5.47515E-14
 -1      2078 1.29792E-02-5.81196E-04-5.36273E-14
 -1      2079 1.30176E-02-5.96319E-04-5.35800E-14
 -1      2080 1.34034E-02-8.66942E-04-5.70089E-14
 -1      2081 1.32616E-02-7.71776E-04-5.58794E-14
 -1      2082 1.33011E-02-7.86983E-04-5.58238E-14
 -1      2083 1.36439E-02-1.02588E-03-5.88864E-14
 -1      2084 1.35015E-02-9.31148E-04-5.77479E-14
 -1      2085 1.35414E-02-9.46467E-04-5.76885E-14
 -1      2086 1.37381E-02-1.07467E-03-5.91651E-14
 -1      2087 1.42183E-02-1.29340E-03-5.94480E-14
 -1      2088 1.41244E-02-1.25024E-03-5.93552E-14
 -1      2089 1.40318E-02-1.20692E-03-5.92647E-14
 -1      2090 1.39401E-02-1.16376E-03-5.91691E-14
 -1      2091 1.39532E-02-1.14692E-03-5.83548E-14
 -1      2092 1.38845E-02-1.14044E-03-5.92175E-14
 -1      2093 1.37936E-02-1.09762E-03-5.91193E-14
 -1      2094 1.36951E-02-1.03353E-03-5.83834E-14
 -1      2095 1.38058E-02-1.07991E-03-5.82985E-14
 -1      2096 1.44079E-02-1.37743E-03-5.96239E-14
 -1      2097 1.43123E-02-1.33572E-03-5.95358E-14
 -1      2098 1.41391E-02-1.23354E-03-5.85462E-14
 -1      2099 1.46079E-02-1.46001E-03-5.98043E-14
 -1      2100 1.45070E-02-1.41932E-03-5.97149E-14
 -1      2101 1.43320E-02-1.31954E-03-5.87348E-14
 -1      2102 1.48133E-02-1.53738E-03-5.99865E-14
 -1      2103 1.47101E-02-1.49959E-03-5.98945E-14
 -1      2104 1.45342E-02-1.40377E-03-5.89226E-14
 -1      2105 1.50191E-02-1.60729E-03-6.01711E-14
 -1      2106 1.49165E-02-1.57344E-03-6.00794E-14
 -1      2107 1.47416E-02-1.48315E-03-5.91106E-14
 -1      2108 1.52170E-02-1.66822E-03-6.03601E-14
 -1      2109 1.51196E-02-1.63889E-03-6.02650E-14
 -1      2110 1.49484E-02-1.55527E-03-5.93018E-14
 -1      2111 1.53966E-02-1.72024E-03-6.05439E-14
 -1      2112 1.53097E-02-1.69514E-03-6.04515E-14
 -1      2113 1.51453E-02-1.61839E-03-5.94908E-14
 -1      2114 1.55460E-02-1.76488E-03-6.07273E-14
 -1      2115 1.54751E-02-1.74295E-03-6.06345E-14
 -1      2116 1.53198E-02-1.67203E-03-5.96773E-14
 -1      2117 1.56648E-02-1.80801E-03-6.09065E-14
 -1      2118 1.56097E-02-1.78617E-03-6.08167E-14
 -1      2119 1.54640E-02-1.71907E-03-5.98585E-14
 -1      2120 1.57517E-02-1.85447E-03-6.10835E-14
 -1      2121 1.57118E-02-1.83027E-03-6.09965E-14
 -1      2122 1.55739E-02-1.76455E-03-6.00386E-14
 -1      2123 1.58171E-02-1.90933E-03-6.12538E-14
 -1      2124 1.57863E-02-1.88045E-03-6.11686E-14
 -1      2125 1.56521E-02-1.81399E-03-6.02113E-14
 -1      2126 1.35107E-02-7.32166E-04-4.56852E-14
 -1      2127 1.37121E-02-8.25803E-04-4.60579E-14
 -1      2128 1.59557E-02-2.03424E-03-6.18019E-14
 -1      2129 4.51630E-04-2.33538E-04-8.93789E-17
 -1      2130 1.44530E-02-1.09088E-03-4.71795E-14
 -1      2131 1.44910E-02-1.11152E-03-4.72615E-14
 -1      2132 3.27211E-04-8.89847E-05-8.63025E-17
 -1      2133 3.29322E-04-1.02165E-04-8.53809E-17
 -1      2134 4.46359E-04-1.45152E-04-1.24941E-16
 -1      2135 4.40044E-04-1.09963E-04-1.27800E-16
 -1      2136 1.31045E-02-5.05805E-04-4.47851E-14
 -1      2137 1.33131E-02-6.22850E-04-4.52336E-14
 -1      2138 1.33967E-02-7.26906E-04-4.58363E-14
 -1      2139 1.26317E-02-2.26738E-04-4.36343E-14
 -1      2140 1.28364E-02-3.48358E-04-4.41378E-14
 -1      2141 1.22142E-02 8.24990E-06-4.24429E-14
 -1      2142 1.23854E-02-9.29554E-05-4.30009E-14
 -1      2143 1.18792E-02 1.52730E-04-4.12717E-14
 -1      2144 1.20375E-02 9.44336E-05-4.18234E-14
 -1      2145 1.15373E-02 1.97939E-04-4.00491E-14
 -1      2146 1.16844E-02 1.93189E-04-4.05807E-14
 -1      2147 1.12290E-02 1.39564E-04-3.90574E-14
 -1      2148 1.13851E-02 1.80047E-04-3.95523E-14
 -1      2149 1.14616E-02 2.01616E-04-3.96881E-14
 -1      2150 1.08569E-02-5.25277E-06-3.79184E-14
 -1      2151 1.10330E-02 7.38853E-05-3.84485E-14
 -1      2152 1.04063E-02-2.08241E-04-3.70394E-14
 -1      2153 1.05985E-02-1.22760E-04-3.73379E-14
 -1      2154 1.00508E-02-3.56381E-04-3.65029E-14
 -1      2155 1.02198E-02-2.86563E-04-3.67558E-14
 -1      2156 9.73799E-03-4.75580E-04-3.59905E-14
 -1      2157 9.88422E-03-4.23599E-04-3.62225E-14
 -1      2158 9.50898E-03-5.48995E-04-3.58482E-14
 -1      2159 9.58605E-03-5.25862E-04-3.58230E-14
 -1      2160 9.46949E-03-5.88372E-04-3.59724E-14
 -1      2161 9.47319E-03-5.71077E-04-3.59097E-14
 -1      2162 9.48307E-03-5.49352E-04-3.54397E-14
 -1      2163 9.58819E-03-6.44166E-04-3.62131E-14
 -1      2164 9.51255E-03-6.17115E-04-3.60744E-14
 -1      2165 9.86954E-03-7.72499E-04-3.67982E-14
 -1      2166 9.72437E-03-7.07391E-04-3.65199E-14
 -1      2167 1.02519E-02-9.65312E-04-3.74474E-14
 -1      2168 1.00539E-02-8.63670E-04-3.71240E-14
 -1      2169 1.07255E-02-1.26506E-03-3.83105E-14
 -1      2170 1.05025E-02-1.11501E-03-3.78937E-14
 -1      2171 1.12126E-02-1.61992E-03-3.92680E-14
 -1      2172 1.09865E-02-1.44388E-03-3.87926E-14
 -1      2173 1.16740E-02-1.99766E-03-4.04919E-14
 -1      2174 1.14766E-02-1.83765E-03-3.99434E-14
 -1      2175 1.20616E-02-2.21738E-03-4.16372E-14
 -1      2176 1.18861E-02-2.13267E-03-4.10900E-14
 -1      2177 1.23516E-02-2.25567E-03-4.25771E-14
 -1      2178 1.21874E-02-2.25572E-03-4.20221E-14
 -1      2179 1.28393E-02-2.06801E-03-4.39897E-14
 -1      2180 1.26557E-02-2.16644E-03-4.34814E-14
 -1      2181 1.32488E-02-1.81433E-03-4.49582E-14
 -1      2182 1.30560E-02-1.94008E-03-4.45139E-14
 -1      2183 1.36588E-02-1.54857E-03-4.59171E-14
 -1      2184 1.34594E-02-1.67506E-03-4.54785E-14
 -1      2185 1.40796E-02-1.32578E-03-4.66604E-14
 -1      2186 1.39029E-02-1.40990E-03-4.64037E-14
 -1      2187 1.43548E-02-1.20751E-03-4.70304E-14
 -1      2188 1.42387E-02-1.25653E-03-4.68499E-14
 -1      2189 1.44883E-02-1.13984E-03-4.72510E-14
 -1      2190 1.44437E-02-1.16508E-03-4.71570E-14
 -1      2191 1.42609E-02-1.02667E-03-4.69004E-14
 -1      2192 1.43702E-02-1.06010E-03-4.70667E-14
 -1      2193 1.58551E-02-1.97472E-03-6.12044E-14
 -1      2194 1.44997E-02-1.13397E-03-4.76490E-14
 -1      2195 1.41765E-02-1.03498E-03-4.71751E-14
 -1      2196 6.00610E-04-2.95470E-04-1.42559E-16
 -1      2197 6.56429E-04-2.90030E-04-1.85534E-16
 -1      2198 1.14056E-02-1.62165E-03-3.88715E-14
 -1      2199 1.15978E-02-1.82161E-03-3.95901E-14
 -1      2200 1.24541E-02-2.26666E-03-4.29834E-14
 -1      2201 1.29421E-02-2.01930E-03-4.47919E-14
 -1      2202 1.38023E-02-9.09091E-04-4.66024E-14
 -1      2203 1.17590E-02 1.84310E-04-4.08749E-14
 -1      2204 1.29508E-02-4.64560E-04-4.47326E-14
 -1      2205 1.58243E-02-1.93858E-03-6.11284E-14
 -1      2206 1.44161E-02-1.09993E-03-4.75471E-14
 -1      2207 1.44044E-02-1.18025E-03-4.75097E-14
 -1      2208 1.41608E-02-1.27354E-03-4.71908E-14
 -1      2209 1.37772E-02-1.46212E-03-4.65086E-14
 -1      2210 1.33380E-02-1.73575E-03-4.54979E-14
 -1      2211 1.29364E-02-2.00706E-03-4.44491E-14
 -1      2212 1.21207E-02-2.24512E-03-4.17348E-14
 -1      2213 1.18218E-02-2.07712E-03-4.07557E-14
 -1      2214 1.13854E-02-1.71878E-03-3.94868E-14
 -1      2215 1.08963E-02-1.31804E-03-3.83378E-14
 -1      2216 1.04038E-02-9.94355E-04-3.74146E-14
 -1      2217 9.97989E-03-7.70383E-04-3.66451E-14
 -1      2218 9.48071E-03-5.76754E-04-3.56045E-14
 -1      2219 9.65280E-03-5.02963E-04-3.55427E-14
 -1      2220 9.97386E-03-4.00071E-04-3.59852E-14
 -1      2221 1.03156E-02-2.60483E-04-3.65429E-14
 -1      2222 1.11501E-02 1.20848E-04-3.85842E-14
 -1      2223 1.11340E-02-1.41422E-03-3.83329E-14
 -1      2224 1.56873E-02-1.86911E-03-6.01703E-14
 -1      2225 1.20922E-02 5.29992E-05-4.21890E-14
 -1      2226 1.24653E-02-1.68925E-04-4.34467E-14
 -1      2227 1.07379E-02-6.37497E-05-3.73986E-14
 -1      2228 1.08488E-02-4.60828E-06-3.74588E-14
 -1      2229 1.06201E-02-1.18132E-04-3.68833E-14
 -1      2230 9.65709E-03-6.36869E-04-3.60133E-14
 -1      2231 5.47762E-04-5.53145E-05-1.77525E-16
 -1      2232 5.48803E-04-7.20297E-05-1.79246E-16
 -1      2233 5.50226E-04-8.93535E-05-1.80601E-16
 -1      2234 5.52097E-04-1.07333E-04-1.81550E-16
 -1      2235 6.65267E-04-9.55118E-05-2.43769E-16
 -1      2236 5.46373E-04 8.83170E-06-1.66127E-16
 -1      2237 5.46353E-04-7.00269E-06-1.69488E-16
 -1      2238 5.47129E-04 4.08361E-05-1.57887E-16
 -1      2239 5.46628E-04 2.47649E-05-1.62413E-16
 -1      2240 6.61302E-04 1.98995E-05-2.23020E-16
 -1      2241 5.48960E-04 7.34514E-05-1.47194E-16
 -1      2242 5.47894E-04 5.69621E-05-1.53049E-16
 -1      2243 6.62631E-04 5.77479E-05-2.11690E-16
 -1      2244 5.52361E-04 1.08919E-04-1.33384E-16
 -1      2245 5.50432E-04 9.08464E-05-1.40553E-16
 -1      2246 6.65500E-04 9.72096E-05-1.96823E-16
 -1      2247 5.58251E-04 1.48256E-04-1.15955E-16
 -1      2248 5.54929E-04 1.28029E-04-1.25212E-16
 -1      2249 6.70605E-04 1.39975E-04-1.77850E-16
 -1      2250 5.68637E-04 1.93860E-04-9.34176E-17
 -1      2251 5.62748E-04 1.70146E-04-1.05628E-16
 -1      2252 6.79270E-04 1.87533E-04-1.54052E-16
 -1      2253 5.88048E-04 2.49447E-04-6.37375E-17
 -1      2254 5.76903E-04 2.20186E-04-7.97160E-17
 -1      2255 6.94221E-04 2.42441E-04-1.23965E-16
 -1      2256 6.42202E-04 3.01268E-04-4.92228E-17
 -1      2257 6.14474E-04 2.73767E-04-5.78693E-17
 -1      2258 7.31586E-04 2.97780E-04-1.00004E-16
 -1      2259 7.88658E-04 3.49679E-04-8.45407E-17
 -1      2260 9.00890E-04-3.42772E-04-3.40656E-16
 -1      2261 1.04505E-03-3.76631E-04-4.45905E-16
 -1      2262 1.55456E-02-1.80470E-03-5.91112E-14
 -1      2263 1.55455E-02-1.77789E-03-5.92371E-14
 -1      2264 1.54031E-02-1.73787E-03-5.80589E-14
 -1      2265 1.20558E-02-2.22105E-03-4.13722E-14
 -1      2266 1.15933E-02-1.86283E-03-3.98599E-14
 -1      2267 1.32623E-02-6.97658E-04-4.59428E-14
 -1      2268 1.34457E-02-7.96283E-04-4.63983E-14
 -1      2269 1.18836E-03-4.05471E-04-5.65981E-16
 -1      2270 1.33123E-03-4.29763E-04-7.01276E-16
 -1      2271 1.10276E-03-3.57776E-04-5.13017E-16
 -1      2272 1.46636E-03-4.49369E-04-8.43645E-16
 -1      2273 1.60112E-03-4.65873E-04-9.99404E-16
 -1      2274 1.38200E-03-4.04301E-04-7.76424E-16
 -1      2275 1.74261E-03-4.80527E-04-1.17769E-15
 -1      2276 1.88384E-03-4.92620E-04-1.37072E-15
 -1      2277 1.66009E-03-4.37698E-04-1.09561E-15
 -1      2278 2.02490E-03-5.02647E-04-1.57807E-15
 -1      2279 2.16585E-03-5.10802E-04-1.80040E-15
 -1      2280 1.94436E-03-4.61628E-04-1.48052E-15
 -1      2281 2.30676E-03-5.17444E-04-2.03745E-15
 -1      2282 2.44765E-03-5.22731E-04-2.28909E-15
 -1      2283 2.22805E-03-4.77779E-04-1.92348E-15
 -1      2284 2.58861E-03-5.26925E-04-2.55560E-15
 -1      2285 2.72960E-03-5.30151E-04-2.83694E-15
 -1      2286 2.51149E-03-4.88246E-04-2.42463E-15
 -1      2287 2.87069E-03-5.32601E-04-3.13333E-15
 -1      2288 3.01186E-03-5.34373E-04-3.44412E-15
 -1      2289 2.79491E-03-4.94623E-04-2.98378E-15
 -1      2290 3.15316E-03-5.35604E-04-3.77010E-15
 -1      2291 3.29454E-03-5.36370E-04-4.11074E-15
 -1      2292 3.07848E-03-4.98112E-04-3.60213E-15
 -1      2293 3.42898E-03-5.36755E-04-4.44749E-15
 -1      2294 3.56351E-03-5.36855E-04-4.79788E-15
 -1      2295 3.35517E-03-4.99586E-04-4.26127E-15
 -1      2296 3.70524E-03-5.36718E-04-5.18052E-15
 -1      2297 3.84706E-03-5.36371E-04-5.57764E-15
 -1      2298 3.63212E-03-4.99765E-04-4.97573E-15
 -1      2299 3.98900E-03-5.35859E-04-5.98904E-15
 -1      2300 4.13103E-03-5.35211E-04-6.41406E-15
 -1      2301 3.91644E-03-4.99053E-04-5.76539E-15
 -1      2302 4.27316E-03-5.34454E-04-6.85368E-15
 -1      2303 4.41537E-03-5.33606E-04-7.30731E-15
 -1      2304 4.20102E-03-4.97747E-04-6.61258E-15
 -1      2305 4.55768E-03-5.32680E-04-7.77513E-15
 -1      2306 4.70006E-03-5.31688E-04-8.25667E-15
 -1      2307 4.48585E-03-4.96046E-04-7.51614E-15
 -1      2308 4.84253E-03-5.30633E-04-8.75159E-15
 -1      2309 4.98506E-03-5.29519E-04-9.26047E-15
 -1      2310 4.77091E-03-4.94063E-04-8.47434E-15
 -1      2311 5.12055E-03-5.28401E-04-9.75546E-15
 -1      2312 5.25610E-03-5.27226E-04-1.02634E-14
 -1      2313 5.04907E-03-4.91898E-04-9.46178E-15
 -1      2314 5.39887E-03-5.25916E-04-1.08125E-14
 -1      2315 5.54171E-03-5.24529E-04-1.13746E-14
 -1      2316 5.32744E-03-4.89495E-04-1.05007E-14
 -1      2317 5.68463E-03-5.23047E-04-1.19502E-14
 -1      2318 5.82764E-03-5.21465E-04-1.25401E-14
 -1      2319 5.61316E-03-4.86734E-04-1.16203E-14
 -1      2320 5.97075E-03-5.19761E-04-1.31457E-14
 -1      2321 6.11396E-03-5.17929E-04-1.37636E-14
 -1      2322 5.89914E-03-4.83591E-04-1.27976E-14
 -1      2323 6.25728E-03-5.15942E-04-1.43936E-14
 -1      2324 6.40074E-03-5.13793E-04-1.50365E-14
 -1      2325 6.18539E-03-4.79959E-04-1.40285E-14
 -1      2326 6.54432E-03-5.11453E-04-1.56912E-14
 -1      2327 6.68807E-03-5.08915E-04-1.63584E-14
 -1      2328 6.47194E-03-4.75713E-04-1.53099E-14
 -1      2329 6.83197E-03-5.06147E-04-1.70373E-14
 -1      2330 6.97609E-03-5.03149E-04-1.77265E-14
 -1      2331 6.75886E-03-4.70721E-04-1.66390E-14
 -1      2332 7.11316E-03-5.00057E-04-1.83925E-14
 -1      2333 7.25048E-03-4.96730E-04-1.90700E-14
 -1      2334 7.03896E-03-4.65019E-04-1.79792E-14
 -1      2335 7.39523E-03-4.92956E-04-1.97938E-14
 -1      2336 7.54029E-03-4.88913E-04-2.05270E-14
 -1      2337 7.31942E-03-4.58406E-04-1.93644E-14
 -1      2338 7.68558E-03-4.84607E-04-2.12710E-14
 -1      2339 7.83124E-03-4.80063E-04-2.20272E-14
 -1      2340 7.60736E-03-4.50676E-04-2.08299E-14
 -1      2341 7.97711E-03-4.75345E-04-2.27929E-14
 -1      2342 8.12341E-03-4.70504E-04-2.35701E-14
 -1      2343 7.89538E-03-4.42154E-04-2.23365E-14
 -1      2344 8.26984E-03-4.65726E-04-2.43587E-14
 -1      2345 8.41673E-03-4.61100E-04-2.51572E-14
 -1      2346 8.18303E-03-4.33345E-04-2.38875E-14
 -1      2347 8.56361E-03-4.57044E-04-2.59656E-14
 -1      2348 8.71094E-03-4.53731E-04-2.67849E-14
 -1      2349 8.46948E-03-4.25375E-04-2.54807E-14
 -1      2350 8.85069E-03-4.52030E-04-2.75719E-14
 -1      2351 8.99086E-03-4.51982E-04-2.83663E-14
 -1      2352 8.74641E-03-4.20525E-04-2.70720E-14
 -1      2353 9.13800E-03-4.55125E-04-2.92106E-14
 -1      2354 9.28578E-03-4.62205E-04-3.00624E-14
 -1      2355 9.01943E-03-4.22235E-04-2.86988E-14
 -1      2356 9.43332E-03-4.75449E-04-3.09211E-14
 -1      2357 9.58252E-03-4.96616E-04-3.17886E-14
 -1      2358 9.29398E-03-4.37371E-04-3.03989E-14
 -1      2359 9.73327E-03-5.28535E-04-3.26610E-14
 -1      2360 9.88856E-03-5.75591E-04-3.35347E-14
 -1      2361 9.56412E-03-4.76986E-04-3.21286E-14
 -1      2362 1.00499E-02-6.39544E-04-3.44139E-14
 -1      2363 1.02224E-02-7.31914E-04-3.52969E-14
 -1      2364 9.83834E-03-5.59288E-04-3.38781E-14
 -1      2365 1.04566E-02-8.71703E-04-3.61847E-14
 -1      2366 1.06578E-02-1.03191E-03-3.70279E-14
 -1      2367 1.07743E-03 4.24921E-04-1.88434E-16
 -1      2368 9.33529E-04 3.90428E-04-1.30850E-16
 -1      2369 9.04081E-04 3.63899E-04-1.40269E-16
 -1      2370 1.45071E-02-1.14457E-03-4.81803E-14
 -1      2371 1.45045E-02-1.15175E-03-4.81689E-14
 -1      2372 1.38744E-02-1.44883E-03-4.81415E-14
 -1      2373 1.40590E-02-1.39853E-03-4.91015E-14
 -1      2374 1.42389E-02-1.38273E-03-5.01182E-14
 -1      2375 1.44059E-02-1.39017E-03-5.11400E-14
 -1      2376 1.42354E-02-1.33070E-03-4.95703E-14
 -1      2377 1.45648E-02-1.41909E-03-5.21687E-14
 -1      2378 1.47187E-02-1.46184E-03-5.32004E-14
 -1      2379 1.45366E-02-1.36479E-03-5.16163E-14
 -1      2380 1.48689E-02-1.51535E-03-5.42360E-14
 -1      2381 1.50177E-02-1.57605E-03-5.52750E-14
 -1      2382 1.48173E-02-1.45805E-03-5.36788E-14
 -1      2383 1.51412E-02-1.62199E-03-5.61391E-14
 -1      2384 1.52859E-02-1.68916E-03-5.71877E-14
 -1      2385 1.52994E-02-1.66148E-03-5.73127E-14
 -1      2386 1.50735E-02-1.56320E-03-5.55804E-14
 -1      2387 1.58458E-03 4.96960E-04-5.15213E-16
 -1      2388 1.44364E-03 4.78641E-04-4.11699E-16
 -1      2389 1.33184E-03 4.67645E-04-3.30167E-16
 -1      2390 1.18985E-03 4.42426E-04-2.49854E-16
 -1      2391 1.16141E-03 4.16596E-04-2.61008E-16
 -1      2392 1.38729E-03 4.43106E-04-4.12024E-16
 -1      2393 2.14544E-03 5.44373E-04-1.06149E-15
 -1      2394 2.00544E-03 5.35723E-04-9.04943E-16
 -1      2395 2.42551E-03 5.57128E-04-1.41494E-15
 -1      2396 2.28546E-03 5.51457E-04-1.23133E-15
 -1      2397 2.20676E-03 5.11727E-04-1.20126E-15
 -1      2398 2.70595E-03 5.65194E-04-1.82425E-15
 -1      2399 2.56568E-03 5.61666E-04-1.61245E-15
 -1      2400 2.48872E-03 5.23003E-04-1.57493E-15
 -1      2401 2.98694E-03 5.69922E-04-2.29080E-15
 -1      2402 2.84638E-03 5.67913E-04-2.05013E-15
 -1      2403 2.77082E-03 5.29994E-04-2.00411E-15
 -1      2404 3.26857E-03 5.72319E-04-2.81403E-15
 -1      2405 3.12768E-03 5.71365E-04-2.54548E-15
 -1      2406 3.05325E-03 5.33951E-04-2.49045E-15
 -1      2407 3.55085E-03 5.73121E-04-3.39592E-15
 -1      2408 3.40964E-03 5.72884E-04-3.09757E-15
 -1      2409 3.33609E-03 5.35804E-04-3.03402E-15
 -1      2410 3.83374E-03 5.72858E-04-4.03452E-15
 -1      2411 3.69223E-03 5.73098E-04-3.70800E-15
 -1      2412 3.61935E-03 5.36230E-04-3.63509E-15
 -1      2413 4.11719E-03 5.71897E-04-4.73239E-15
 -1      2414 3.97540E-03 5.72447E-04-4.37584E-15
 -1      2415 3.90304E-03 5.35711E-04-4.29421E-15
 -1      2416 4.40113E-03 5.70480E-04-5.49171E-15
 -1      2417 4.25910E-03 5.71233E-04-5.10421E-15
 -1      2418 4.18713E-03 5.34577E-04-5.01251E-15
 -1      2419 4.68551E-03 5.68757E-04-6.31042E-15
 -1      2420 4.54327E-03 5.69649E-04-5.89372E-15
 -1      2421 4.47157E-03 5.33044E-04-5.79128E-15
 -1      2422 4.97029E-03 5.66810E-04-7.18939E-15
 -1      2423 4.82785E-03 5.67807E-04-6.74245E-15
 -1      2424 4.75633E-03 5.31238E-04-6.62984E-15
 -1      2425 5.25543E-03 5.64672E-04-8.12466E-15
 -1      2426 5.11281E-03 5.65763E-04-7.65001E-15
 -1      2427 5.04140E-03 5.29225E-04-7.52691E-15
 -1      2428 5.54092E-03 5.62349E-04-9.11703E-15
 -1      2429 5.39813E-03 5.63533E-04-8.61408E-15
 -1      2430 5.32675E-03 5.27027E-04-8.48083E-15
 -1      2431 5.82678E-03 5.59833E-04-1.01644E-14
 -1      2432 5.68381E-03 5.61114E-04-9.63375E-15
 -1      2433 5.61238E-03 5.24641E-04-9.49056E-15
 -1      2434 6.11304E-03 5.57126E-04-1.12646E-14
 -1      2435 5.96986E-03 5.58502E-04-1.07082E-14
 -1      2436 5.89831E-03 5.22057E-04-1.05542E-14
 -1      2437 6.39975E-03 5.54255E-04-1.24165E-14
 -1      2438 6.25634E-03 5.55707E-04-1.18338E-14
 -1      2439 6.18458E-03 5.19276E-04-1.16713E-14
 -1      2440 6.68699E-03 5.51299E-04-1.36205E-14
 -1      2441 6.54330E-03 5.52781E-04-1.30124E-14
 -1      2442 6.47124E-03 5.16329E-04-1.28402E-14
 -1      2443 6.97483E-03 5.48415E-04-1.48728E-14
 -1      2444 6.83082E-03 5.49836E-04-1.42398E-14
 -1      2445 6.75836E-03 5.13303E-04-1.40594E-14
 -1      2446 7.26337E-03 5.45863E-04-1.61686E-14
 -1      2447 7.11901E-03 5.47079E-04-1.55147E-14
 -1      2448 7.04604E-03 5.10370E-04-1.53253E-14
 -1      2449 7.55270E-03 5.44038E-04-1.75139E-14
 -1      2450 7.40794E-03 5.44834E-04-1.68360E-14
 -1      2451 7.33440E-03 5.07808E-04-1.66397E-14
 -1      2452 7.84287E-03 5.43477E-04-1.89021E-14
 -1      2453 7.69768E-03 5.43566E-04-1.82027E-14
 -1      2454 7.62354E-03 5.06035E-04-1.79981E-14
 -1      2455 8.13386E-03 5.44853E-04-2.03372E-14
 -1      2456 7.98827E-03 5.43884E-04-1.96142E-14
 -1      2457 7.91358E-03 5.05619E-04-1.94026E-14
 -1      2458 8.42555E-03 5.48917E-04-2.18210E-14
 -1      2459 8.27965E-03 5.46511E-04-2.10723E-14
 -1      2460 8.20462E-03 5.07260E-04-2.08525E-14
 -1      2461 8.71767E-03 5.56359E-04-2.33538E-14
 -1      2462 8.57161E-03 5.52188E-04-2.25799E-14
 -1      2463 8.49667E-03 5.11732E-04-2.23519E-14
 -1      2464 9.00971E-03 5.67573E-04-2.49401E-14
 -1      2465 8.86379E-03 5.61495E-04-2.41406E-14
 -1      2466 8.78960E-03 5.19737E-04-2.39012E-14
 -1      2467 9.30089E-03 5.82291E-04-2.65797E-14
 -1      2468 9.15552E-03 5.74549E-04-2.57530E-14
 -1      2469 9.08307E-03 5.31643E-04-2.55022E-14
 -1      2470 9.59011E-03 5.99118E-04-2.82747E-14
 -1      2471 9.44587E-03 5.90580E-04-2.74205E-14
 -1      2472 9.37642E-03 5.47096E-04-2.71564E-14
 -1      2473 9.87607E-03 6.15053E-04-3.00257E-14
 -1      2474 9.73363E-03 6.07445E-04-2.91437E-14
 -1      2475 9.66859E-03 5.64512E-04-2.88660E-14
 -1      2476 1.01575E-02 6.25191E-04-3.18281E-14
 -1      2477 1.00174E-02 6.21209E-04-3.09216E-14
 -1      2478 9.95821E-03 5.80553E-04-3.06286E-14
 -1      2479 1.04334E-02 6.22892E-04-3.36719E-14
 -1      2480 1.02961E-02 6.26041E-04-3.27447E-14
 -1      2481 1.02438E-02 5.89819E-04-3.24394E-14
 -1      2482 1.07038E-02 6.00657E-04-3.55557E-14
 -1      2483 1.05692E-02 6.14711E-04-3.46087E-14
 -1      2484 1.05242E-02 5.85084E-04-3.42912E-14
 -1      2485 1.09699E-02 5.51701E-04-3.74793E-14
 -1      2486 1.08372E-02 5.79853E-04-3.65127E-14
 -1      2487 1.07995E-02 5.58377E-04-3.61823E-14
 -1      2488 1.12340E-02 4.71752E-04-3.94473E-14
 -1      2489 1.11020E-02 5.15725E-04-3.84576E-14
 -1      2490 1.10710E-02 5.02852E-04-3.81136E-14
 -1      2491 1.14988E-02 3.60324E-04-4.14569E-14
 -1      2492 1.13661E-02 4.19849E-04-4.04464E-14
 -1      2493 1.13411E-02 4.14780E-04-4.00902E-14
 -1      2494 1.17668E-02 2.20828E-04-4.35024E-14
 -1      2495 1.16322E-02 2.93762E-04-4.24748E-14
 -1      2496 1.16129E-02 2.94770E-04-4.21055E-14
 -1      2497 1.20393E-02 5.93821E-05-4.55862E-14
 -1      2498 1.19024E-02 1.42428E-04-4.45388E-14
 -1      2499 1.18884E-02 1.47490E-04-4.41572E-14
 -1      2500 1.23164E-02-1.16982E-04-4.77048E-14
 -1      2501 1.21773E-02-2.73410E-05-4.66409E-14
 -1      2502 1.21684E-02-1.99804E-05-4.62446E-14
 -1      2503 1.25973E-02-3.01989E-04-4.98559E-14
 -1      2504 1.24565E-02-2.08720E-04-4.87786E-14
 -1      2505 1.24524E-02-2.00240E-04-4.83662E-14
 -1      2506 1.28809E-02-4.91077E-04-5.20359E-14
 -1      2507 1.27389E-02-3.96225E-04-5.09419E-14
 -1      2508 1.27391E-02-3.87224E-04-5.05198E-14
 -1      2509 1.31658E-02-6.81520E-04-5.42523E-14
 -1      2510 1.30232E-02-5.86235E-04-5.31389E-14
 -1      2511 1.30269E-02-5.76912E-04-5.27033E-14
 -1      2512 1.34512E-02-8.72047E-04-5.64890E-14
 -1      2513 1.33085E-02-7.76814E-04-5.53675E-14
 -1      2514 1.33148E-02-7.67191E-04-5.49168E-14
 -1      2515 1.35966E-02-9.69321E-04-5.76494E-14
 -1      2516 1.42553E-02-1.26395E-03-5.78494E-14
 -1      2517 1.41561E-02-1.21969E-03-5.77516E-14
 -1      2518 1.44597E-02-1.35084E-03-5.80427E-14
 -1      2519 1.43566E-02-1.30789E-03-5.79471E-14
 -1      2520 1.41777E-02-1.21112E-03-5.69659E-14
 -1      2521 1.38738E-02-1.08756E-03-5.74494E-14
 -1      2522 1.37820E-02-1.04347E-03-5.73454E-14
 -1      2523 1.40598E-02-1.17542E-03-5.76517E-14
 -1      2524 1.39663E-02-1.13165E-03-5.75502E-14
 -1      2525 1.37929E-02-1.02889E-03-5.65484E-14
 -1      2526 1.39804E-02-1.11951E-03-5.67606E-14
 -1      2527 1.46695E-02-1.43310E-03-5.82375E-14
 -1      2528 1.45643E-02-1.39281E-03-5.81396E-14
 -1      2529 1.43848E-02-1.30151E-03-5.71671E-14
 -1      2530 1.48778E-02-1.50783E-03-5.84330E-14
 -1      2531 1.47744E-02-1.47160E-03-5.83346E-14
 -1      2532 1.45975E-02-1.38714E-03-5.73675E-14
 -1      2533 1.50742E-02-1.57281E-03-5.86229E-14
 -1      2534 1.49782E-02-1.54156E-03-5.85280E-14
 -1      2535 1.48080E-02-1.46437E-03-5.75646E-14
 -1      2536 1.52438E-02-1.62695E-03-5.88079E-14
 -1      2537 1.51627E-02-1.60085E-03-5.87150E-14
 -1      2538 1.50027E-02-1.52983E-03-5.77537E-14
 -1      2539 1.53823E-02-1.67481E-03-5.89898E-14
 -1      2540 1.53178E-02-1.65128E-03-5.89004E-14
 -1      2541 1.51702E-02-1.58397E-03-5.79390E-14
 -1      2542 1.54825E-02-1.72089E-03-5.91708E-14
 -1      2543 1.54372E-02-1.69743E-03-5.90809E-14
 -1      2544 1.53007E-02-1.63069E-03-5.81228E-14
 -1      2545 1.55178E-02-1.74953E-03-5.91549E-14
 -1      2546 1.16669E-02 2.05818E-04-4.05124E-14
 -1      2547 1.18176E-02 1.65402E-04-4.12056E-14
 -1      2548 1.19587E-02 1.06369E-04-4.18229E-14
 -1      2549 1.20999E-02 2.34138E-05-4.24456E-14
 -1      2550 1.18506E-02 1.42492E-04-4.14571E-14
 -1      2551 5.85036E-04-2.36867E-04-1.68607E-16
 -1      2552 7.70595E-04-3.01816E-04-2.62025E-16
 -1      2553 8.30128E-04-2.90927E-04-3.13592E-16
 -1      2554 5.75505E-04-2.09131E-04-1.74665E-16
 -1      2555 1.40961E-02-1.05096E-03-4.75818E-14
 -1      2556 1.42470E-02-1.09063E-03-4.78429E-14
 -1      2557 1.24682E-02-2.24968E-03-4.30143E-14
 -1      2558 9.57816E-03-5.09227E-04-3.49841E-14
 -1      2559 9.71884E-03-4.77060E-04-3.51478E-14
 -1      2560 1.86534E-03 5.25120E-04-7.61611E-16
 -1      2561 1.72510E-03 5.12381E-04-6.31629E-16
 -1      2562 1.64191E-03 4.69099E-04-6.14892E-16
 -1      2563 1.92465E-03 4.94496E-04-8.81578E-16
 -1      2564 1.37185E-02-9.19391E-04-4.69545E-14
 -1      2565 1.39187E-02-9.91903E-04-4.72668E-14
 -1      2566 1.40224E-02-1.05207E-03-4.79368E-14
 -1      2567 5.46569E-04-2.29198E-05-1.72646E-16
 -1      2568 5.47028E-04-3.89582E-05-1.75343E-16
 -1      2569 6.62487E-04-5.58355E-05-2.39039E-16
 -1      2570 6.61252E-04-1.77297E-05-2.32141E-16
 -1      2571 1.23549E-02-1.32021E-04-4.33883E-14
 -1      2572 1.25594E-02-2.65625E-04-4.40279E-14
 -1      2573 1.27891E-02-4.11111E-04-4.46894E-14
 -1      2574 1.30274E-02-5.62272E-04-4.53424E-14
 -1      2575 1.13712E-02 1.98971E-04-3.92155E-14
 -1      2576 1.14871E-02 2.16238E-04-3.97105E-14
 -1      2577 9.73708E-03-6.24185E-04-3.57481E-14
 -1      2578 9.60327E-03-5.83087E-04-3.54422E-14
 -1      2579 1.10552E-02 9.48960E-05-3.80018E-14
 -1      2580 1.12155E-02 1.57842E-04-3.86060E-14
 -1      2581 1.12556E-02 1.84236E-04-3.86271E-14
 -1      2582 1.02183E-02-3.00654E-04-3.59517E-14
 -1      2583 1.03792E-02-2.27486E-04-3.62284E-14
 -1      2584 9.90288E-03-4.19667E-04-3.53975E-14
 -1      2585 1.00578E-02-3.65707E-04-3.56719E-14
 -1      2586 1.01170E-02-3.22341E-04-3.53597E-14
 -1      2587 9.45567E-03-5.35895E-04-3.49683E-14
 -1      2588 9.48428E-03-5.29320E-04-3.49055E-14
 -1      2589 9.49930E-03-5.53208E-04-3.51728E-14
 -1      2590 9.45746E-03-5.46708E-04-3.50709E-14
 -1      2591 9.43852E-03-5.18537E-04-3.45370E-14
 -1      2592 1.00823E-02-7.66571E-04-3.64402E-14
 -1      2593 9.90829E-03-6.92214E-04-3.61158E-14
 -1      2594 1.05344E-02-1.00014E-03-3.71964E-14
 -1      2595 1.03086E-02-8.67595E-04-3.67534E-14
 -1      2596 1.38860E-02-1.39518E-03-4.71583E-14
 -1      2597 1.36643E-02-1.51860E-03-4.66669E-14
 -1      2598 1.42512E-02-1.23597E-03-4.78145E-14
 -1      2599 1.41112E-02-1.29011E-03-4.76216E-14
 -1      2600 1.44481E-02-1.17239E-03-4.80716E-14
 -1      2601 1.43621E-02-1.19640E-03-4.79425E-14
 -1      2602 1.43269E-02-1.22138E-03-4.83762E-14
 -1      2603 1.43822E-02-1.12269E-03-4.80647E-14
 -1      2604 1.44607E-02-1.13427E-03-4.81769E-14
 -1      2605 6.70208E-04-1.37998E-04-2.46236E-16
 -1      2606 5.54582E-04-1.26241E-04-1.81794E-16
 -1      2607 5.57801E-04-1.46219E-04-1.81089E-16
 -1      2608 1.44951E-02-1.17275E-03-4.86042E-14
 -1      2609 1.35935E-02-8.85018E-04-4.70630E-14
 -1      2610 1.31053E-02-6.33893E-04-4.59008E-14
 -1      2611 1.07978E-02-1.16807E-03-3.76913E-14
 -1      2612 1.01856E-02-7.33920E-04-3.56450E-14
 -1      2613 1.45023E-02-1.15874E-03-4.87003E-14
 -1      2614 1.36045E-02-9.59521E-04-5.71846E-14
 -1      2615 9.81679E-03-6.25296E-04-3.55436E-14
 -1      2616 1.36594E-02-9.82940E-04-5.71491E-14
 -1      2617 1.53887E-02-1.67995E-03-5.82016E-14
 -1      2618 1.15621E-02 2.18869E-04-4.00354E-14
 -1      2619 1.22083E-02-5.67049E-05-4.30210E-14
 -1      2620 5.62596E-04-1.64539E-04-1.80384E-16
 -1      2621 5.68024E-04-1.87565E-04-1.77660E-16
 -1      2622 6.92616E-04-2.26409E-04-2.42251E-16
 -1      2623 6.78982E-04-1.81313E-04-2.45789E-16
 -1      2624 9.51553E-03-5.02801E-04-3.45121E-14
 -1      2625 1.40151E-02-1.34302E-03-4.77795E-14
 -1      2626 9.54171E-03-5.43075E-04-3.49080E-14
 -1      2627 9.78501E-03-4.38556E-04-3.48369E-14
 -1      2628 1.09339E-02 5.04444E-05-3.74812E-14
 -1      2629 1.09926E-02 9.84907E-05-3.75005E-14
 -1      2630 1.08132E-02 4.47029E-06-3.69629E-14
 -1      2631 1.10205E-02-1.33574E-03-3.81672E-14
 -1      2632 1.12650E-02-1.57527E-03-3.89842E-14
 -1      2633 1.03764E-02-1.95634E-04-3.56920E-14
 -1      2634 1.04976E-02-1.63780E-04-3.62851E-14
 -1      2635 1.05987E-02-9.84169E-05-3.63415E-14
 -1      2636 1.33481E-02-1.72196E-03-4.58786E-14
 -1      2637 1.35875E-02-1.57374E-03-4.68742E-14
 -1      2638 1.26644E-02-3.58771E-04-4.46331E-14
 -1      2639 1.43272E-02-1.13192E-03-4.84751E-14
 -1      2640 1.31599E-02-1.85415E-03-4.53559E-14
 -1      2641 1.29784E-02-1.98755E-03-4.48251E-14
 -1      2642 1.37236E-02-1.50914E-03-4.75230E-14
 -1      2643 1.15005E-02-1.79147E-03-3.96529E-14
 -1      2644 1.35795E-02-9.22820E-04-5.62389E-14
 -1      2645 1.02013E-02-7.81781E-04-3.62229E-14
 -1      2646 1.39349E-02-1.39235E-03-4.79338E-14
 -1      2647 7.80162E-04 7.72905E-05-2.72867E-16
 -1      2648 7.78899E-04 5.54322E-05-2.80998E-16
 -1      2649 7.78052E-04 3.35237E-05-2.88384E-16
 -1      2650 7.77629E-04 1.18629E-05-2.94876E-16
 -1      2651 8.96458E-04 4.96379E-05-3.61581E-16
 -1      2652 7.91527E-04 1.73075E-04-2.28347E-16
 -1      2653 7.87512E-04 1.47663E-04-2.41520E-16
 -1      2654 8.03405E-04 2.28276E-04-1.97704E-16
 -1      2655 7.96780E-04 1.99880E-04-2.14022E-16
 -1      2656 9.14832E-04 2.07753E-04-2.84847E-16
 -1      2657 8.23215E-04 2.91171E-04-1.59120E-16
 -1      2658 8.12124E-04 2.58621E-04-1.79585E-16
 -1      2659 9.30129E-04 2.69824E-04-2.46426E-16
 -1      2660 8.75714E-04 3.39134E-04-1.47451E-16
 -1      2661 8.49089E-04 3.14218E-04-1.54472E-16
 -1      2662 9.66326E-04 3.26341E-04-2.19524E-16
 -1      2663 1.01994E-03 3.74078E-04-2.07218E-16
 -1      2664 8.19205E-04-2.63219E-04-3.17888E-16
 -1      2665 9.47214E-04-2.97915E-04-4.04909E-16
 -1      2666 8.10424E-04-2.37136E-04-3.20802E-16
 -1      2667 2.55277E-03 4.88332E-04-1.73842E-15
 -1      2668 2.41102E-03 4.83975E-04-1.53481E-15
 -1      2669 1.09020E-03-3.26532E-04-5.18479E-16
 -1      2670 1.23354E-03-3.51210E-04-6.46537E-16
 -1      2671 1.07952E-03-2.96370E-04-5.21935E-16
 -1      2672 1.19046E-02-2.12988E-03-4.09639E-14
 -1      2673 1.36957E-03-3.71319E-04-7.81778E-16
 -1      2674 1.50561E-03-3.88458E-04-9.30151E-16
 -1      2675 1.35854E-03-3.38933E-04-7.85152E-16
 -1      2676 1.64858E-03-4.03765E-04-1.10015E-15
 -1      2677 1.79146E-03-4.16503E-04-1.28479E-15
 -1      2678 1.63803E-03-3.70106E-04-1.10285E-15
 -1      2679 1.93416E-03-4.27124E-04-1.48362E-15
 -1      2680 2.07676E-03-4.35809E-04-1.69686E-15
 -1      2681 1.92457E-03-3.92693E-04-1.48469E-15
 -1      2682 2.21925E-03-4.42929E-04-1.92455E-15
 -1      2683 2.36167E-03-4.48622E-04-2.16682E-15
 -1      2684 2.21081E-03-4.08033E-04-1.92335E-15
 -1      2685 2.50404E-03-4.53178E-04-2.42302E-15
 -1      2686 2.64637E-03-4.56702E-04-2.69354E-15
 -1      2687 2.49678E-03-4.17999E-04-2.41899E-15
 -1      2688 2.78869E-03-4.59417E-04-2.97924E-15
 -1      2689 2.93101E-03-4.61401E-04-3.27880E-15
 -1      2690 2.78254E-03-4.24071E-04-2.97162E-15
 -1      2691 3.07333E-03-4.62821E-04-3.59336E-15
 -1      2692 3.21567E-03-4.63735E-04-3.92241E-15
 -1      2693 3.06818E-03-4.27382E-04-3.58205E-15
 -1      2694 3.35091E-03-4.64247E-04-4.24857E-15
 -1      2695 3.48618E-03-4.64446E-04-4.58772E-15
 -1      2696 3.34660E-03-4.28765E-04-4.23335E-15
 -1      2697 3.62860E-03-4.64403E-04-4.95868E-15
 -1      2698 3.77104E-03-4.64128E-04-5.34453E-15
 -1      2699 3.62500E-03-4.28911E-04-4.93990E-15
 -1      2700 3.91353E-03-4.63685E-04-5.74492E-15
 -1      2701 4.05604E-03-4.63090E-04-6.15933E-15
 -1      2702 3.91053E-03-4.28204E-04-5.72159E-15
 -1      2703 4.19860E-03-4.62385E-04-6.58752E-15
 -1      2704 4.34119E-03-4.61580E-04-7.03009E-15
 -1      2705 4.19609E-03-4.26931E-04-6.56034E-15
 -1      2706 4.48381E-03-4.60701E-04-7.48655E-15
 -1      2707 4.62647E-03-4.59751E-04-7.95715E-15
 -1      2708 4.48167E-03-4.25285E-04-7.45510E-15
 -1      2709 4.76916E-03-4.58742E-04-8.44118E-15
 -1      2710 4.91188E-03-4.57674E-04-8.93938E-15
 -1      2711 4.76730E-03-4.23372E-04-8.40528E-15
 -1      2712 5.04750E-03-4.56607E-04-9.42478E-15
 -1      2713 5.18315E-03-4.55486E-04-9.92163E-15
 -1      2714 5.04583E-03-4.21292E-04-9.38491E-15
 -1      2715 5.32598E-03-4.54242E-04-1.04588E-14
 -1      2716 5.46883E-03-4.52929E-04-1.10104E-14
 -1      2717 5.32441E-03-4.18991E-04-1.04152E-14
 -1      2718 5.61173E-03-4.51532E-04-1.15748E-14
 -1      2719 5.75466E-03-4.50047E-04-1.21536E-14
 -1      2720 5.61017E-03-4.16362E-04-1.15266E-14
 -1      2721 5.89762E-03-4.48455E-04-1.27474E-14
 -1      2722 6.04063E-03-4.46752E-04-1.33551E-14
 -1      2723 5.89597E-03-4.13388E-04-1.26948E-14
 -1      2724 6.18367E-03-4.44914E-04-1.39737E-14
 -1      2725 6.32674E-03-4.42937E-04-1.46057E-14
 -1      2726 6.18179E-03-4.09981E-04-1.39169E-14
 -1      2727 6.46985E-03-4.40796E-04-1.52509E-14
 -1      2728 6.61300E-03-4.38489E-04-1.59070E-14
 -1      2729 6.46758E-03-4.06048E-04-1.51893E-14
 -1      2730 6.75615E-03-4.35989E-04-1.65753E-14
 -1      2731 6.89933E-03-4.33301E-04-1.72551E-14
 -1      2732 6.75324E-03-4.01502E-04-1.65096E-14
 -1      2733 7.03533E-03-4.30550E-04-1.79128E-14
 -1      2734 7.17134E-03-4.27620E-04-1.85797E-14
 -1      2735 7.03150E-03-3.96423E-04-1.78423E-14
 -1      2736 7.31442E-03-4.24327E-04-1.92933E-14
 -1      2737 7.45745E-03-4.20847E-04-2.00205E-14
 -1      2738 7.30923E-03-3.90717E-04-1.92206E-14
 -1      2739 7.60027E-03-4.17188E-04-2.07563E-14
 -1      2740 7.74295E-03-4.13400E-04-2.15020E-14
 -1      2741 7.59307E-03-3.84341E-04-2.06793E-14
 -1      2742 7.88522E-03-4.09539E-04-2.22598E-14
 -1      2743 8.02718E-03-4.05683E-04-2.30278E-14
 -1      2744 7.87512E-03-3.77784E-04-2.21804E-14
 -1      2745 8.16839E-03-4.01987E-04-2.38065E-14
 -1      2746 8.30903E-03-3.98567E-04-2.45965E-14
 -1      2747 8.15417E-03-3.71766E-04-2.37232E-14
 -1      2748 8.44840E-03-3.95746E-04-2.53951E-14
 -1      2749 8.58679E-03-3.93698E-04-2.62034E-14
 -1      2750 8.42837E-03-3.67601E-04-2.53072E-14
 -1      2751 8.71641E-03-3.93016E-04-2.69824E-14
 -1      2752 8.84469E-03-3.93748E-04-2.77693E-14
 -1      2753 8.68848E-03-3.67427E-04-2.68898E-14
 -1      2754 8.97689E-03-3.97015E-04-2.86051E-14
 -1      2755 9.10704E-03-4.03156E-04-2.94498E-14
 -1      2756 8.93801E-03-3.74278E-04-2.85098E-14
 -1      2757 9.23337E-03-4.13655E-04-3.03020E-14
 -1      2758 9.35743E-03-4.29086E-04-3.11627E-14
 -1      2759 9.17870E-03-3.93334E-04-3.02051E-14
 -1      2760 9.47732E-03-4.50912E-04-3.20298E-14
 -1      2761 9.59601E-03-4.81715E-04-3.29017E-14
 -1      2762 9.39963E-03-4.30474E-04-3.19292E-14
 -1      2763 9.71539E-03-5.22794E-04-3.37768E-14
 -1      2764 1.17242E-02-1.99113E-03-4.03689E-14
 -1      2765 1.29885E-02-5.87781E-04-4.60285E-14
 -1      2766 1.31973E-02-7.10295E-04-4.66354E-14
 -1      2767 1.39557E-02-1.05397E-03-4.84017E-14
 -1      2768 1.41144E-02-1.10315E-03-4.87184E-14
 -1      2769 1.45241E-02-1.31141E-03-5.10320E-14
 -1      2770 1.46494E-02-1.35188E-03-5.20590E-14
 -1      2771 1.47732E-02-1.40215E-03-5.30898E-14
 -1      2772 1.48999E-02-1.45971E-03-5.41285E-14
 -1      2773 1.47372E-02-1.35127E-03-5.24999E-14
 -1      2774 2.83631E-03 4.94337E-04-2.18769E-15
 -1      2775 2.69454E-03 4.91752E-04-1.95606E-15
 -1      2776 2.61764E-03 4.53223E-04-1.90539E-15
 -1      2777 2.26923E-03 4.78443E-04-1.34494E-15
 -1      2778 2.12741E-03 4.71606E-04-1.16851E-15
 -1      2779 2.33276E-03 4.44648E-04-1.49217E-15
 -1      2780 3.12000E-03 4.97605E-04-2.69324E-15
 -1      2781 2.97814E-03 4.96261E-04-2.43329E-15
 -1      2782 2.90243E-03 4.58312E-04-2.37415E-15
 -1      2783 3.40390E-03 4.98987E-04-3.25692E-15
 -1      2784 3.26193E-03 4.98493E-04-2.96830E-15
 -1      2785 3.18721E-03 4.60956E-04-2.89974E-15
 -1      2786 3.68806E-03 4.99100E-04-3.87788E-15
 -1      2787 3.54596E-03 4.99174E-04-3.55971E-15
 -1      2788 3.47206E-03 4.61926E-04-3.48282E-15
 -1      2789 3.97247E-03 4.98378E-04-4.55746E-15
 -1      2790 3.83024E-03 4.98824E-04-4.21032E-15
 -1      2791 3.75701E-03 4.61777E-04-4.12374E-15
 -1      2792 4.25714E-03 4.97117E-04-5.29581E-15
 -1      2793 4.11478E-03 4.97803E-04-4.91835E-15
 -1      2794 4.04207E-03 4.60898E-04-4.82336E-15
 -1      2795 4.54203E-03 4.95504E-04-6.09473E-15
 -1      2796 4.39956E-03 4.96347E-04-5.68835E-15
 -1      2797 4.32725E-03 4.59547E-04-5.58238E-15
 -1      2798 4.82714E-03 4.93646E-04-6.95222E-15
 -1      2799 4.68456E-03 4.94601E-04-6.51603E-15
 -1      2800 4.61254E-03 4.57886E-04-6.40080E-15
 -1      2801 5.11246E-03 4.91593E-04-7.86732E-15
 -1      2802 4.96977E-03 4.92642E-04-7.40247E-15
 -1      2803 4.89795E-03 4.56003E-04-7.27677E-15
 -1      2804 5.39797E-03 4.89358E-04-8.83869E-15
 -1      2805 5.25519E-03 4.90498E-04-8.34612E-15
 -1      2806 5.18347E-03 4.53935E-04-8.21016E-15
 -1      2807 5.68370E-03 4.86930E-04-9.86617E-15
 -1      2808 5.54081E-03 4.88169E-04-9.34642E-15
 -1      2809 5.46911E-03 4.51683E-04-9.19985E-15
 -1      2810 5.96966E-03 4.84296E-04-1.09465E-14
 -1      2811 5.82665E-03 4.85639E-04-1.03991E-14
 -1      2812 5.75489E-03 4.49233E-04-1.02432E-14
 -1      2813 6.25588E-03 4.81456E-04-1.20807E-14
 -1      2814 6.11273E-03 4.82901E-04-1.15069E-14
 -1      2815 6.04082E-03 4.46565E-04-1.13408E-14
 -1      2816 6.54243E-03 4.78444E-04-1.32651E-14
 -1      2817 6.39911E-03 4.79968E-04-1.26661E-14
 -1      2818 6.32694E-03 4.43680E-04-1.24922E-14
 -1      2819 6.82939E-03 4.75354E-04-1.45015E-14
 -1      2820 6.68585E-03 4.76901E-04-1.38776E-14
 -1      2821 6.61333E-03 4.40611E-04-1.36935E-14
 -1      2822 7.11686E-03 4.72363E-04-1.57817E-14
 -1      2823 6.97305E-03 4.73832E-04-1.51362E-14
 -1      2824 6.90007E-03 4.37453E-04-1.49438E-14
 -1      2825 7.40500E-03 4.69764E-04-1.71111E-14
 -1      2826 7.26084E-03 4.70993E-04-1.64399E-14
 -1      2827 7.18729E-03 4.34387E-04-1.62409E-14
 -1      2828 7.69398E-03 4.67991E-04-1.84852E-14
 -1      2829 7.54937E-03 4.68744E-04-1.77932E-14
 -1      2830 7.47520E-03 4.31710E-04-1.75850E-14
 -1      2831 7.98399E-03 4.67630E-04-1.99045E-14
 -1      2832 7.83885E-03 4.67594E-04-1.91887E-14
 -1      2833 7.76404E-03 4.29862E-04-1.89748E-14
 -1      2834 8.27526E-03 4.69405E-04-2.13713E-14
 -1      2835 8.12947E-03 4.68201E-04-2.06317E-14
 -1      2836 8.05413E-03 4.29440E-04-2.04094E-14
 -1      2837 8.56797E-03 4.74118E-04-2.28840E-14
 -1      2838 8.42145E-03 4.71343E-04-2.21207E-14
 -1      2839 8.34584E-03 4.31194E-04-2.18895E-14
 -1      2840 8.86217E-03 4.82494E-04-2.44511E-14
 -1      2841 8.71492E-03 4.77808E-04-2.36621E-14
 -1      2842 8.63954E-03 4.35959E-04-2.34203E-14
 -1      2843 9.15768E-03 4.94913E-04-2.60658E-14
 -1      2844 9.00983E-03 4.88191E-04-2.52517E-14
 -1      2845 8.93548E-03 4.44515E-04-2.50010E-14
 -1      2846 9.45393E-03 5.10985E-04-2.77338E-14
 -1      2847 9.30582E-03 5.02552E-04-2.68923E-14
 -1      2848 9.23363E-03 4.57302E-04-2.66306E-14
 -1      2849 9.74982E-03 5.28988E-04-2.94559E-14
 -1      2850 9.60206E-03 5.19917E-04-2.85887E-14
 -1      2851 9.53345E-03 4.73959E-04-2.83124E-14
 -1      2852 1.00438E-02 5.45262E-04-3.12277E-14
 -1      2853 9.89719E-03 5.37661E-04-3.03351E-14
 -1      2854 9.83371E-03 4.92667E-04-3.00450E-14
 -1      2855 1.03339E-02 5.53848E-04-3.30478E-14
 -1      2856 1.01894E-02 5.50990E-04-3.21337E-14
 -1      2857 1.01324E-02 5.09420E-04-3.18278E-14
 -1      2858 1.06190E-02 5.46786E-04-3.49084E-14
 -1      2859 1.04771E-02 5.52845E-04-3.39740E-14
 -1      2860 1.04274E-02 5.17563E-04-3.36576E-14
 -1      2861 1.08989E-02 5.15454E-04-3.68065E-14
 -1      2862 1.07595E-02 5.34677E-04-3.58523E-14
 -1      2863 1.07169E-02 5.08162E-04-3.55247E-14
 -1      2864 1.11753E-02 4.52880E-04-3.87487E-14
 -1      2865 1.10373E-02 4.88386E-04-3.77728E-14
 -1      2866 1.10012E-02 4.71785E-04-3.74321E-14
 -1      2867 1.14512E-02 3.55997E-04-4.07295E-14
 -1      2868 1.13130E-02 4.08715E-04-3.97324E-14
 -1      2869 1.12823E-02 4.01367E-04-3.93805E-14
 -1      2870 1.17296E-02 2.26785E-04-4.27541E-14
 -1      2871 1.15898E-02 2.95099E-04-4.17398E-14
 -1      2872 1.15639E-02 2.94790E-04-4.13709E-14
 -1      2873 1.20125E-02 7.14326E-05-4.48092E-14
 -1      2874 1.18704E-02 1.51859E-04-4.37766E-14
 -1      2875 1.18492E-02 1.55792E-04-4.33984E-14
 -1      2876 1.23000E-02-1.01924E-04-4.69023E-14
 -1      2877 1.21557E-02-1.35259E-05-4.58522E-14
 -1      2878 1.21397E-02-7.67510E-06-4.54599E-14
 -1      2879 1.25907E-02-2.85605E-04-4.90254E-14
 -1      2880 1.24451E-02-1.92887E-04-4.79587E-14
 -1      2881 1.24346E-02-1.86464E-04-4.75568E-14
 -1      2882 1.28828E-02-4.73939E-04-5.11816E-14
 -1      2883 1.27367E-02-3.79443E-04-5.01015E-14
 -1      2884 1.27318E-02-3.72844E-04-4.96823E-14
 -1      2885 1.31745E-02-6.63628E-04-5.33685E-14
 -1      2886 1.30288E-02-5.68718E-04-5.22715E-14
 -1      2887 1.30289E-02-5.61783E-04-5.18429E-14
 -1      2888 1.34496E-02-8.40736E-04-5.53552E-14
 -1      2889 1.33044E-02-7.45977E-04-5.42494E-14
 -1      2890 1.33080E-02-7.38663E-04-5.38089E-14
 -1      2891 1.35706E-02-9.02581E-04-5.55641E-14
 -1      2892 1.45257E-02-1.34495E-03-5.65005E-14
 -1      2893 1.44171E-02-1.30122E-03-5.63987E-14
 -1      2894 9.99809E-03-6.54605E-04-3.53341E-14
 -1      2895 1.40988E-02-1.16084E-03-5.60888E-14
 -1      2896 1.39974E-02-1.11296E-03-5.59845E-14
 -1      2897 1.47395E-02-1.42459E-03-5.66981E-14
 -1      2898 1.46338E-02-1.38630E-03-5.66003E-14
 -1      2899 1.44551E-02-1.30628E-03-5.56344E-14
 -1      2900 1.43092E-02-1.25548E-03-5.62957E-14
 -1      2901 1.42028E-02-1.20863E-03-5.61916E-14
 -1      2902 1.40189E-02-1.11342E-03-5.52149E-14
 -1      2903 1.42333E-02-1.21285E-03-5.54282E-14
 -1      2904 1.49335E-02-1.48976E-03-5.68866E-14
 -1      2905 1.48396E-02-1.45884E-03-5.67938E-14
 -1      2906 1.46718E-02-1.38713E-03-5.58315E-14
 -1      2907 1.50988E-02-1.54261E-03-5.70732E-14
 -1      2908 1.50212E-02-1.51749E-03-5.69808E-14
 -1      2909 1.48689E-02-1.45187E-03-5.60221E-14
 -1      2910 1.52201E-02-1.58686E-03-5.72568E-14
 -1      2911 1.51654E-02-1.56501E-03-5.71650E-14
 -1      2912 1.50296E-02-1.50146E-03-5.62090E-14
 -1      2913 1.14526E-02 2.27360E-04-3.94858E-14
 -1      2914 1.16057E-02 2.14736E-04-4.02884E-14
 -1      2915 1.17643E-02 1.69406E-04-4.11277E-14
 -1      2916 1.18827E-02 1.15680E-04-4.17474E-14
 -1      2917 1.45407E-02-1.18876E-03-4.92931E-14
 -1      2918 1.44920E-02-1.19654E-03-4.91929E-14
 -1      2919 1.34771E-02-8.54291E-04-4.73256E-14
 -1      2920 1.37225E-02-9.64187E-04-4.78853E-14
 -1      2921 1.52870E-02-1.63535E-03-5.72794E-14
 -1      2922 1.52614E-02-1.60794E-03-5.72945E-14
 -1      2923 1.25796E-02-3.22976E-04-4.46900E-14
 -1      2924 1.27798E-02-4.57304E-04-4.53583E-14
 -1      2925 1.28949E-02-5.38513E-04-4.60876E-14
 -1      2926 7.84360E-04 1.23411E-04-2.53066E-16
 -1      2927 7.81970E-04 9.99775E-05-2.63664E-16
 -1      2928 8.99574E-04 9.93996E-05-3.41266E-16
 -1      2929 9.05320E-04 1.51533E-04-3.16031E-16
 -1      2930 1.20916E-02-6.42035E-07-4.27504E-14
 -1      2931 1.23124E-02-1.46393E-04-4.37004E-14
 -1      2932 9.68064E-03-4.40889E-04-3.42260E-14
 -1      2933 9.84308E-03-3.94702E-04-3.44709E-14
 -1      2934 7.81713E-04-9.79927E-05-3.17129E-16
 -1      2935 7.84027E-04-1.21349E-04-3.19474E-16
 -1      2936 1.11591E-02 1.74553E-04-3.80873E-14
 -1      2937 1.12904E-02 2.10876E-04-3.86937E-14
 -1      2938 1.41389E-02-1.30384E-03-4.84006E-14
 -1      2939 1.00155E-02-3.29825E-04-3.47246E-14
 -1      2940 1.01547E-02-2.74571E-04-3.49988E-14
 -1      2941 9.42114E-03-4.91594E-04-3.39929E-14
 -1      2942 9.41144E-03-4.89347E-04-3.38901E-14
 -1      2943 1.42656E-02-1.14179E-03-4.89426E-14
 -1      2944 1.43928E-02-1.16562E-03-4.91655E-14
 -1      2945 1.42122E-02-1.14406E-03-4.94100E-14
 -1      2946 9.58169E-03-5.25674E-04-3.45246E-14
 -1      2947 9.48160E-03-5.06702E-04-3.42578E-14
 -1      2948 1.44266E-02-1.21282E-03-4.90603E-14
 -1      2949 1.43373E-02-1.23900E-03-4.89296E-14
 -1      2950 1.45079E-02-1.22210E-03-4.97501E-14
 -1      2951 1.45015E-02-1.18137E-03-4.92856E-14
 -1      2952 1.45412E-02-1.18198E-03-4.92868E-14
 -1      2953 9.45411E-03-4.86143E-04-3.39670E-14
 -1      2954 9.53911E-03-4.73989E-04-3.40439E-14
 -1      2955 8.95433E-04 9.74853E-07-3.77953E-16
 -1      2956 7.77601E-04-9.75103E-06-3.00758E-16
 -1      2957 7.77967E-04-3.13960E-05-3.05853E-16
 -1      2958 7.78749E-04-5.31790E-05-3.10217E-16
 -1      2959 7.79971E-04-7.53671E-05-3.13944E-16
 -1      2960 8.99304E-04-9.71262E-05-4.00057E-16
 -1      2961 8.96335E-04-4.75579E-05-3.90597E-16
 -1      2962 2.04764E-03 4.31209E-04-1.13286E-15
 -1      2963 1.98549E-03 4.63145E-04-1.00534E-15
 -1      2964 1.84344E-03 4.52898E-04-8.55422E-16
 -1      2965 9.69215E-03-5.53339E-04-3.47433E-14
 -1      2966 9.59543E-03-5.10266E-04-3.40927E-14
 -1      2967 1.44105E-02-1.28546E-03-5.01030E-14
 -1      2968 1.45356E-02-1.26420E-03-5.05439E-14
 -1      2969 1.38477E-02-1.02488E-03-4.86680E-14
 -1      2970 9.40094E-03-4.65386E-04-3.34236E-14
 -1      2971 1.51824E-02-1.58517E-03-5.64118E-14
 -1      2972 1.49894E-02-1.49675E-03-5.48344E-14
 -1      2973 1.50962E-02-1.54485E-03-5.56964E-14
 -1      2974 1.50888E-02-1.52210E-03-5.56601E-14
 -1      2975 1.49298E-02-1.44376E-03-5.42400E-14
 -1      2976 1.40716E-03 4.10170E-04-4.73512E-16
 -1      2977 1.29350E-03 3.99473E-04-3.88144E-16
 -1      2978 1.36606E-02-9.47893E-04-5.56749E-14
 -1      2979 1.35281E-02-8.66594E-04-5.48033E-14
 -1      2980 1.37523E-02-9.93841E-04-5.57863E-14
 -1      2981 9.84197E-03-6.01723E-04-3.51090E-14
 -1      2982 9.83829E-03-5.76795E-04-3.45343E-14
 -1      2983 1.16491E-02 2.01825E-04-4.05718E-14
 -1      2984 1.51382E-02-1.54200E-03-5.63394E-14
 -1      2985 1.13461E-02 2.29534E-04-3.89390E-14
 -1      2986 1.19928E-02 4.67226E-05-4.24178E-14
 -1      2987 1.45730E-02-1.20769E-03-4.98784E-14
 -1      2988 7.87077E-04-1.45498E-04-3.21100E-16
 -1      2989 7.90961E-04-1.70666E-04-3.21791E-16
 -1      2990 9.04864E-04-1.49105E-04-4.06115E-16
 -1      2991 1.70123E-03 4.40441E-04-7.18880E-16
 -1      2992 1.55877E-03 4.25572E-04-5.95349E-16
 -1      2993 1.76214E-03 4.11120E-04-8.26826E-16
 -1      2994 1.02525E-02-2.17277E-04-3.50524E-14
 -1      2995 1.03408E-02-1.56500E-04-3.51039E-14
 -1      2996 1.01322E-02-2.25529E-04-3.44154E-14
 -1      2997 1.06791E-02-3.48262E-05-3.63619E-14
 -1      2998 1.39208E-02-1.07648E-03-5.59409E-14
 -1      2999 1.38251E-02-1.02945E-03-5.58311E-14
 -1      3000 1.36900E-02-9.49815E-04-5.49666E-14
 -1      3001 1.38386E-02-1.02476E-03-5.50624E-14
 -1      3002 1.24389E-02-2.39631E-04-4.44188E-14
 -1      3003 1.27121E-02-2.15359E-03-4.38943E-14
 -1      3004 1.42763E-02-1.27696E-03-4.90860E-14
 -1      3005 9.57788E-03-4.37529E-04-3.36807E-14
 -1      3006 1.33562E-02-8.01671E-04-4.74570E-14
 -1      3007 1.10476E-02 1.46131E-04-3.75636E-14
 -1      3008 1.10839E-02 1.84901E-04-3.76257E-14
 -1      3009 1.09353E-02 1.13819E-04-3.70437E-14
 -1      3010 9.88040E-03-3.45163E-04-3.41120E-14
 -1      3011 1.46699E-03 3.84647E-04-5.61142E-16
 -1      3012 1.44730E-02-1.19439E-03-4.97554E-14
 -1      3013 9.42374E-03-4.74984E-04-3.36112E-14
 -1      3014 1.05887E-03 3.11067E-04-2.99863E-16
 -1      3015 1.04863E-03 2.76359E-04-3.24556E-16
 -1      3016 1.04027E-03 2.43224E-04-3.46809E-16
 -1      3017 1.03364E-03 2.11491E-04-3.67016E-16
 -1      3018 1.16748E-03 2.79028E-04-4.14070E-16
 -1      3019 1.13368E-03 3.92117E-04-2.69316E-16
 -1      3020 1.00027E-03-2.54125E-04-4.66383E-16
 -1      3021 1.14251E-03-2.77432E-04-5.87231E-16
 -1      3022 9.47966E-03-4.23422E-04-3.30476E-14
 -1      3023 9.60342E-03-3.95274E-04-3.32271E-14
 -1      3024 1.45865E-02-1.25611E-03-5.06777E-14
 -1      3025 1.47026E-02-1.30745E-03-5.19105E-14
 -1      3026 1.47999E-02-1.36140E-03-5.29427E-14
 -1      3027 1.27813E-03-2.96790E-04-7.15424E-16
 -1      3028 1.41420E-03-3.13531E-04-8.56520E-16
 -1      3029 1.19937E-03-2.56087E-04-6.47702E-16
 -1      3030 1.55761E-03-3.28676E-04-1.01853E-15
 -1      3031 1.70120E-03-3.41423E-04-1.19475E-15
 -1      3032 1.47819E-03-2.88018E-04-9.36425E-16
 -1      3033 1.84481E-03-3.52153E-04-1.38507E-15
 -1      3034 1.98844E-03-3.61009E-04-1.58925E-15
 -1      3035 1.76553E-03-3.11954E-04-1.28740E-15
 -1      3036 2.13204E-03-3.68328E-04-1.80742E-15
 -1      3037 2.27560E-03-3.74234E-04-2.03980E-15
 -1      3038 2.05341E-03-3.28707E-04-1.69396E-15
 -1      3039 2.41911E-03-3.79001E-04-2.28628E-15
 -1      3040 2.56257E-03-3.82732E-04-2.54668E-15
 -1      3041 2.34137E-03-3.39940E-04-2.15596E-15
 -1      3042 2.70597E-03-3.85639E-04-2.82137E-15
 -1      3043 2.84931E-03-3.87805E-04-3.11063E-15
 -1      3044 2.62918E-03-3.47066E-04-2.67423E-15
 -1      3045 2.99260E-03-3.89390E-04-3.41404E-15
 -1      3046 3.13584E-03-3.90458E-04-3.73157E-15
 -1      3047 2.91675E-03-3.51221E-04-3.24851E-15
 -1      3048 3.27189E-03-3.91101E-04-4.04685E-15
 -1      3049 3.40789E-03-3.91424E-04-4.37537E-15
 -1      3050 3.19688E-03-3.53251E-04-3.86361E-15
 -1      3051 3.55102E-03-3.91499E-04-4.73485E-15
 -1      3052 3.69412E-03-3.91335E-04-5.10919E-15
 -1      3053 3.47676E-03-3.53905E-04-4.53347E-15
 -1      3054 3.83719E-03-3.90992E-04-5.49812E-15
 -1      3055 3.98023E-03-3.90494E-04-5.90164E-15
 -1      3056 3.76357E-03-3.53613E-04-5.27792E-15
 -1      3057 4.12325E-03-3.89879E-04-6.31925E-15
 -1      3058 4.26625E-03-3.89164E-04-6.75041E-15
 -1      3059 4.05017E-03-3.52679E-04-6.08046E-15
 -1      3060 4.40923E-03-3.88371E-04-7.19552E-15
 -1      3061 4.55220E-03-3.87508E-04-7.65500E-15
 -1      3062 4.33659E-03-3.51328E-04-6.93916E-15
 -1      3063 4.69516E-03-3.86588E-04-8.12797E-15
 -1      3064 4.83810E-03-3.85613E-04-8.61499E-15
 -1      3065 4.62284E-03-3.49694E-04-7.85350E-15
 -1      3066 4.97388E-03-3.84639E-04-9.08977E-15
 -1      3067 5.10965E-03-3.83618E-04-9.57664E-15
 -1      3068 4.90179E-03-3.47896E-04-8.79768E-15
 -1      3069 5.25256E-03-3.82489E-04-1.01032E-14
 -1      3070 5.39546E-03-3.81300E-04-1.06433E-14
 -1      3071 5.18061E-03-3.45912E-04-9.79371E-15
 -1      3072 5.53834E-03-3.80044E-04-1.11974E-14
 -1      3073 5.68121E-03-3.78714E-04-1.17651E-14
 -1      3074 5.46645E-03-3.43668E-04-1.08699E-14
 -1      3075 5.82405E-03-3.77300E-04-1.23468E-14
 -1      3076 5.96687E-03-3.75795E-04-1.29432E-14
 -1      3077 5.75212E-03-3.41170E-04-1.20028E-14
 -1      3078 6.10965E-03-3.74188E-04-1.35521E-14
 -1      3079 6.25240E-03-3.72469E-04-1.41731E-14
 -1      3080 6.03757E-03-3.38363E-04-1.31892E-14
 -1      3081 6.39507E-03-3.70631E-04-1.48069E-14
 -1      3082 6.53768E-03-3.68664E-04-1.54530E-14
 -1      3083 6.32271E-03-3.35194E-04-1.44281E-14
 -1      3084 6.68018E-03-3.66568E-04-1.61110E-14
 -1      3085 6.82256E-03-3.64333E-04-1.67801E-14
 -1      3086 6.60739E-03-3.31624E-04-1.57146E-14
 -1      3087 6.95765E-03-3.62096E-04-1.74281E-14
 -1      3088 7.09257E-03-3.59739E-04-1.80861E-14
 -1      3089 6.88426E-03-3.27762E-04-1.70159E-14
 -1      3090 7.23429E-03-3.57167E-04-1.87896E-14
 -1      3091 7.37571E-03-3.54492E-04-1.95074E-14
 -1      3092 7.16010E-03-3.23603E-04-1.83617E-14
 -1      3093 7.51662E-03-3.51806E-04-2.02341E-14
 -1      3094 7.65703E-03-3.49092E-04-2.09724E-14
 -1      3095 7.44134E-03-3.19238E-04-1.97909E-14
 -1      3096 7.79665E-03-3.46527E-04-2.17214E-14
 -1      3097 7.93547E-03-3.44083E-04-2.24812E-14
 -1      3098 7.71999E-03-3.15201E-04-2.12642E-14
 -1      3099 8.07306E-03-3.42073E-04-2.32504E-14
 -1      3100 8.20937E-03-3.40444E-04-2.40302E-14
 -1      3101 7.99468E-03-3.12259E-04-2.27791E-14
 -1      3102 8.34382E-03-3.39722E-04-2.48216E-14
 -1      3103 8.47631E-03-3.39798E-04-2.56209E-14
 -1      3104 8.26340E-03-3.11670E-04-2.43358E-14
 -1      3105 8.59961E-03-3.41388E-04-2.63903E-14
 -1      3106 8.72032E-03-3.44239E-04-2.71702E-14
 -1      3107 8.51691E-03-3.15213E-04-2.58933E-14
 -1      3108 8.84350E-03-3.49807E-04-2.79982E-14
 -1      3109 8.96260E-03-3.57574E-04-2.88357E-14
 -1      3110 8.75819E-03-3.25396E-04-2.74881E-14
 -1      3111 9.07606E-03-3.69370E-04-2.96824E-14
 -1      3112 9.18398E-03-3.84235E-04-3.05361E-14
 -1      3113 8.98758E-03-3.46191E-04-2.91600E-14
 -1      3114 9.28416E-03-4.04815E-04-3.13964E-14
 -1      3115 9.37729E-03-4.28678E-04-3.22649E-14
 -1      3116 9.19106E-03-3.81552E-04-3.08661E-14
 -1      3117 1.37721E-02-1.00423E-03-4.90886E-14
 -1      3118 1.39813E-02-1.08568E-03-4.96064E-14
 -1      3119 2.68333E-03 4.17660E-04-2.07535E-15
 -1      3120 2.54035E-03 4.14457E-04-1.85197E-15
 -1      3121 1.15335E-03 3.62337E-04-3.18539E-16
 -1      3122 3.25492E-03 4.24004E-04-3.10951E-15
 -1      3123 3.11206E-03 4.23186E-04-2.82935E-15
 -1      3124 2.39731E-03 4.10316E-04-1.64242E-15
 -1      3125 2.25422E-03 4.05129E-04-1.44643E-15
 -1      3126 2.46280E-03 3.75529E-04-1.79659E-15
 -1      3127 3.54059E-03 4.24624E-04-3.71168E-15
 -1      3128 3.39776E-03 4.24468E-04-3.40322E-15
 -1      3129 3.32310E-03 3.86810E-04-3.32194E-15
 -1      3130 3.82622E-03 4.24268E-04-4.37284E-15
 -1      3131 3.68341E-03 4.24547E-04-4.03486E-15
 -1      3132 3.60948E-03 3.87135E-04-3.94457E-15
 -1      3133 4.11185E-03 4.23276E-04-5.09276E-15
 -1      3134 3.96904E-03 4.23837E-04-4.72585E-15
 -1      3135 3.89572E-03 3.86617E-04-4.62578E-15
 -1      3136 4.39747E-03 4.21876E-04-5.87151E-15
 -1      3137 4.25466E-03 4.22618E-04-5.47422E-15
 -1      3138 4.18183E-03 3.85554E-04-5.36522E-15
 -1      3139 4.68311E-03 4.20201E-04-6.70921E-15
 -1      3140 4.54029E-03 4.21068E-04-6.28370E-15
 -1      3141 4.46783E-03 3.84136E-04-6.16381E-15
 -1      3142 4.96877E-03 4.18324E-04-7.60431E-15
 -1      3143 4.82594E-03 4.19286E-04-7.14939E-15
 -1      3144 4.75376E-03 3.82478E-04-7.02021E-15
 -1      3145 5.25445E-03 4.16266E-04-8.55536E-15
 -1      3146 5.11161E-03 4.17317E-04-8.07264E-15
 -1      3147 5.03961E-03 3.80631E-04-7.93381E-15
 -1      3148 5.54018E-03 4.14022E-04-9.56209E-15
 -1      3149 5.39731E-03 4.15169E-04-9.05150E-15
 -1      3150 5.32541E-03 3.78609E-04-8.90331E-15
 -1      3151 5.82595E-03 4.11570E-04-1.06235E-14
 -1      3152 5.68305E-03 4.12824E-04-1.00870E-14
 -1      3153 5.61116E-03 3.76395E-04-9.92777E-15
 -1      3154 6.11180E-03 4.08888E-04-1.17389E-14
 -1      3155 5.96886E-03 4.10259E-04-1.11738E-14
 -1      3156 5.89688E-03 3.73961E-04-1.10065E-14
 -1      3157 6.39777E-03 4.05971E-04-1.29049E-14
 -1      3158 6.25477E-03 4.07458E-04-1.23152E-14
 -1      3159 6.18260E-03 3.71280E-04-1.21380E-14
 -1      3160 6.68394E-03 4.02849E-04-1.41238E-14
 -1      3161 6.54082E-03 4.04432E-04-1.35080E-14
 -1      3162 6.46837E-03 3.68341E-04-1.33222E-14
 -1      3163 6.97041E-03 3.99612E-04-1.53887E-14
 -1      3164 6.82712E-03 4.01237E-04-1.47509E-14
 -1      3165 6.75426E-03 3.65164E-04-1.45552E-14
 -1      3166 7.25735E-03 3.96437E-04-1.67018E-14
 -1      3167 7.11380E-03 3.98003E-04-1.60400E-14
 -1      3168 7.04041E-03 3.61829E-04-1.58366E-14
 -1      3169 7.54501E-03 3.93613E-04-1.80619E-14
 -1      3170 7.40107E-03 3.94957E-04-1.73758E-14
 -1      3171 7.32702E-03 3.58495E-04-1.71659E-14
 -1      3172 7.83373E-03 3.91576E-04-1.94652E-14
 -1      3173 7.68922E-03 3.92461E-04-1.87578E-14
 -1      3174 7.61441E-03 3.55437E-04-1.85396E-14
 -1      3175 8.12398E-03 3.90930E-04-2.09147E-14
 -1      3176 7.97864E-03 3.91031E-04-2.01838E-14
 -1      3177 7.90304E-03 3.53076E-04-1.99576E-14
 -1      3178 8.41628E-03 3.92444E-04-2.24108E-14
 -1      3179 8.26985E-03 3.91356E-04-2.16590E-14
 -1      3180 8.19351E-03 3.52013E-04-2.14228E-14
 -1      3181 8.71123E-03 3.97010E-04-2.39578E-14
 -1      3182 8.56342E-03 3.94276E-04-2.31766E-14
 -1      3183 8.48657E-03 3.53047E-04-2.29357E-14
 -1      3184 9.00930E-03 4.05501E-04-2.55527E-14
 -1      3185 8.85990E-03 4.00700E-04-2.47490E-14
 -1      3186 8.78303E-03 3.57151E-04-2.44964E-14
 -1      3187 9.31061E-03 4.18488E-04-2.71978E-14
 -1      3188 9.15961E-03 4.11403E-04-2.63686E-14
 -1      3189 9.08361E-03 3.65354E-04-2.61061E-14
 -1      3190 9.61464E-03 4.35727E-04-2.88929E-14
 -1      3191 9.46241E-03 4.26631E-04-2.80394E-14
 -1      3192 9.38859E-03 3.78451E-04-2.77666E-14
 -1      3193 9.91990E-03 4.55381E-04-3.06360E-14
 -1      3194 9.76731E-03 4.45465E-04-2.97587E-14
 -1      3195 9.69740E-03 3.96429E-04-2.94732E-14
 -1      3196 1.02240E-02 4.73067E-04-3.24299E-14
 -1      3197 1.00723E-02 4.64900E-04-3.15272E-14
 -1      3198 1.00082E-02 4.17468E-04-3.12285E-14
 -1      3199 1.05240E-02 4.81249E-04-3.42675E-14
 -1      3200 1.03746E-02 4.78997E-04-3.33433E-14
 -1      3201 1.03179E-02 4.36702E-04-3.30312E-14
 -1      3202 1.08180E-02 4.69715E-04-3.61411E-14
 -1      3203 1.06717E-02 4.78728E-04-3.51993E-14
 -1      3204 1.06231E-02 4.45416E-04-3.48755E-14
 -1      3205 1.11063E-02 4.27883E-04-3.80574E-14
 -1      3206 1.09626E-02 4.53199E-04-3.70929E-14
 -1      3207 1.09213E-02 4.31549E-04-3.67578E-14
 -1      3208 1.13920E-02 3.48615E-04-4.00117E-14
 -1      3209 1.12491E-02 3.93145E-04-3.90300E-14
 -1      3210 1.12136E-02 3.83273E-04-3.86783E-14
 -1      3211 1.16794E-02 2.31210E-04-4.20111E-14
 -1      3212 1.15351E-02 2.94426E-04-4.10052E-14
 -1      3213 1.15041E-02 2.93719E-04-4.06437E-14
 -1      3214 1.19720E-02 8.15839E-05-4.40406E-14
 -1      3215 1.18249E-02 1.59725E-04-4.30234E-14
 -1      3216 1.17981E-02 1.64057E-04-4.26461E-14
 -1      3217 1.22704E-02-9.00928E-05-4.61102E-14
 -1      3218 1.21206E-02-2.22124E-06-4.50714E-14
 -1      3219 1.20987E-02 3.39302E-06-4.46846E-14
 -1      3220 1.25728E-02-2.73767E-04-4.82089E-14
 -1      3221 1.24214E-02-1.81007E-04-4.71559E-14
 -1      3222 1.24055E-02-1.76063E-04-4.67573E-14
 -1      3223 1.28762E-02-4.62007E-04-5.03405E-14
 -1      3224 1.27247E-02-3.67663E-04-4.92683E-14
 -1      3225 1.27153E-02-3.63642E-04-4.88596E-14
 -1      3226 1.31777E-02-6.50681E-04-5.24989E-14
 -1      3227 1.30274E-02-5.56393E-04-5.14153E-14
 -1      3228 1.30243E-02-5.52590E-04-5.09910E-14
 -1      3229 1.34194E-02-7.99891E-04-5.40867E-14
 -1      3230 1.32865E-02-7.17954E-04-5.32148E-14
 -1      3231 1.32880E-02-7.13837E-04-5.27800E-14
 -1      3232 1.35085E-02-8.47199E-04-5.42043E-14
 -1      3233 1.48086E-02-1.41622E-03-5.51617E-14
 -1      3234 1.47127E-02-1.38701E-03-5.50652E-14
 -1      3235 1.49634E-02-1.46122E-03-5.53469E-14
 -1      3236 1.48932E-02-1.44023E-03-5.52550E-14
 -1      3237 1.47534E-02-1.38100E-03-5.43047E-14
 -1      3238 1.43859E-02-1.27104E-03-5.47719E-14
 -1      3239 1.42710E-02-1.22363E-03-5.46695E-14
 -1      3240 1.15287E-02 2.29153E-04-3.99569E-14
 -1      3241 1.16723E-02 1.90847E-04-4.07953E-14
 -1      3242 1.50600E-02-1.49987E-03-5.55277E-14
 -1      3243 1.50215E-02-1.48147E-03-5.54886E-14
 -1      3244 1.49016E-02-1.42236E-03-5.45388E-14
 -1      3245 1.49874E-02-1.46058E-03-5.48143E-14
 -1      3246 9.34272E-03-4.36039E-04-3.27355E-14
 -1      3247 9.38379E-03-4.34122E-04-3.28107E-14
 -1      3248 1.12406E-02 2.34346E-04-3.83661E-14
 -1      3249 1.13859E-02 2.43228E-04-3.91584E-14
 -1      3250 1.14179E-02 2.48724E-04-3.93762E-14
 -1      3251 1.28016E-02-4.83226E-04-4.61103E-14
 -1      3252 1.29886E-02-5.99804E-04-4.67874E-14
 -1      3253 1.23331E-02-1.75364E-04-4.42257E-14
 -1      3254 1.25721E-02-3.35665E-04-4.52254E-14
 -1      3255 1.41924E-02-1.15522E-03-5.00310E-14
 -1      3256 1.43258E-02-1.18930E-03-5.02550E-14
 -1      3257 1.18837E-02 9.93839E-05-4.19725E-14
 -1      3258 1.20752E-02-1.07149E-05-4.29810E-14
 -1      3259 2.96918E-03 4.21912E-04-2.56358E-15
 -1      3260 2.82628E-03 4.20118E-04-2.31287E-15
 -1      3261 2.74979E-03 3.81725E-04-2.24925E-15
 -1      3262 3.03655E-03 3.85210E-04-2.75729E-15
 -1      3263 1.01652E-03 6.81566E-05-4.42490E-16
 -1      3264 1.01535E-03 4.11787E-05-4.53481E-16
 -1      3265 1.05388E-02-5.97922E-05-3.56233E-14
 -1      3266 1.07277E-02 3.00287E-05-3.62371E-14
 -1      3267 1.46083E-02-1.35320E-03-5.49692E-14
 -1      3268 1.44993E-02-1.31456E-03-5.48713E-14
 -1      3269 1.43188E-02-1.23841E-03-5.39115E-14
 -1      3270 1.45508E-02-1.32163E-03-5.41108E-14
 -1      3271 9.74969E-03-3.45471E-04-3.34095E-14
 -1      3272 9.89657E-03-2.90966E-04-3.36578E-14
 -1      3273 1.46016E-02-1.23064E-03-5.04653E-14
 -1      3274 1.46040E-02-1.23363E-03-5.04690E-14
 -1      3275 1.44585E-02-1.21534E-03-5.03748E-14
 -1      3276 1.45568E-02-1.22746E-03-5.04951E-14
 -1      3277 1.44502E-02-1.23104E-03-5.10002E-14
 -1      3278 9.39332E-03-4.42803E-04-3.27985E-14
 -1      3279 9.33321E-03-4.32043E-04-3.25353E-14
 -1      3280 1.32647E-02-7.57903E-04-4.77036E-14
 -1      3281 1.35130E-02-8.86435E-04-4.84003E-14
 -1      3282 1.15306E-03 2.11756E-04-4.60542E-16
 -1      3283 1.02829E-03 1.81104E-04-3.85285E-16
 -1      3284 1.02411E-03 1.51779E-04-4.01968E-16
 -1      3285 9.38482E-03-4.02473E-04-3.23609E-14
 -1      3286 7.65362E-04-2.01561E-04-2.98671E-16
 -1      3287 8.90488E-04-2.31739E-04-3.83157E-16
 -1      3288 9.54857E-04-2.17541E-04-4.37692E-16
 -1      3289 9.61871E-03-3.45971E-04-3.27774E-14
 -1      3290 1.46496E-02-1.27648E-03-5.12654E-14
 -1      3291 9.60181E-03-4.92012E-04-3.35539E-14
 -1      3292 1.46936E-02-1.28807E-03-5.17022E-14
 -1      3293 1.41251E-02-1.14182E-03-5.04571E-14
 -1      3294 1.36753E-02-9.61999E-04-4.93415E-14
 -1      3295 1.31622E-02-6.97587E-04-4.77297E-14
 -1      3296 1.02081E-03 1.23241E-04-4.16889E-16
 -1      3297 1.01833E-03 9.54729E-05-4.30374E-16
 -1      3298 1.13810E-03 8.85667E-05-5.30568E-16
 -1      3299 1.14371E-03 1.48707E-04-4.98923E-16
 -1      3300 1.48573E-02-1.39132E-03-5.35243E-14
 -1      3301 1.49283E-02-1.42876E-03-5.42280E-14
 -1      3302 1.48982E-02-1.40978E-03-5.40962E-14
 -1      3303 1.47953E-02-1.34957E-03-5.29305E-14
 -1      3304 1.24576E-03 3.41215E-04-4.15737E-16
 -1      3305 1.08375E-03 3.33699E-04-2.95960E-16
 -1      3306 2.17560E-03 3.65536E-04-1.39868E-15
 -1      3307 2.11107E-03 3.98648E-04-1.26404E-15
 -1      3308 1.96785E-03 3.90732E-04-1.09439E-15
 -1      3309 9.83254E-03-2.51350E-04-3.30045E-14
 -1      3310 9.97779E-03-2.44853E-04-3.37075E-14
 -1      3311 1.00548E-02-1.94248E-04-3.37559E-14
 -1      3312 9.50827E-03-4.72214E-04-3.33375E-14
 -1      3313 1.40816E-02-1.13678E-03-5.37030E-14
 -1      3314 1.41571E-02-1.17327E-03-5.45638E-14
 -1      3315 1.40457E-02-1.12141E-03-5.44570E-14
 -1      3316 9.27544E-03-4.07624E-04-3.19285E-14
 -1      3317 1.39374E-02-1.06838E-03-5.43448E-14
 -1      3318 1.38327E-02-1.01547E-03-5.42344E-14
 -1      3319 1.38549E-02-1.02598E-03-5.34825E-14
 -1      3320 1.16368E-02 2.00670E-04-4.07265E-14
 -1      3321 1.17560E-02 1.56372E-04-4.13493E-14
 -1      3322 1.18370E-02 1.14759E-04-4.19057E-14
 -1      3323 1.11399E-02 2.23306E-04-3.78388E-14
 -1      3324 1.11827E-02 2.51107E-04-3.80515E-14
 -1      3325 1.10380E-02 2.06471E-04-3.73137E-14
 -1      3326 1.02365E-03-1.49138E-04-5.00874E-16
 -1      3327 1.02772E-03-1.78362E-04-5.03382E-16
 -1      3328 7.59611E-04-1.79072E-04-2.99077E-16
 -1      3329 1.82457E-03 3.81073E-04-9.38418E-16
 -1      3330 1.68121E-03 3.69495E-04-7.95601E-16
 -1      3331 1.88825E-03 3.50353E-04-1.05401E-15
 -1      3332 1.26778E-02-4.02524E-04-4.59192E-14
 -1      3333 1.36685E-02-9.27017E-04-5.33180E-14
 -1      3334 1.37545E-02-9.74873E-04-5.41888E-14
 -1      3335 1.36787E-02-9.35163E-04-5.41380E-14
 -1      3336 1.01807E-03-9.30234E-05-4.92119E-16
 -1      3337 1.02045E-03-1.20736E-04-4.96917E-16
 -1      3338 1.14326E-03-1.45937E-04-6.04836E-16
 -1      3339 1.20922E-02-2.62008E-05-4.33247E-14
 -1      3340 1.22057E-02-9.53890E-05-4.37752E-14
 -1      3341 1.23360E-02-1.80298E-04-4.45770E-14
 -1      3342 1.07849E-02 8.83392E-05-3.62961E-14
 -1      3343 1.35057E-03 3.44570E-04-5.02148E-16
 -1      3344 1.28222E-03 3.18921E-04-4.70246E-16
 -1      3345 1.27283E-03 2.82483E-04-4.98841E-16
 -1      3346 1.50310E-03 3.59524E-04-6.26547E-16
 -1      3347 1.04033E-02-8.21906E-05-3.49793E-14
 -1      3348 1.01475E-03 1.44079E-05-4.63320E-16
 -1      3349 1.01472E-03-1.22651E-05-4.72102E-16
 -1      3350 1.13543E-03 3.01170E-05-5.56616E-16
 -1      3351 1.46200E-02-1.25487E-03-5.10891E-14
 -1      3352 1.56584E-03 3.32674E-04-7.20750E-16
 -1      3353 1.01525E-03-3.89672E-05-4.79827E-16
 -1      3354 1.01634E-03-6.58058E-05-4.86536E-16
 -1      3355 1.13786E-03-8.60158E-05-5.93303E-16
 -1      3356 1.40001E-03-2.48600E-04-8.56533E-16
 -1      3357 1.54334E-03-2.61467E-04-1.01761E-15
 -1      3358 1.68704E-03-2.72436E-04-1.19207E-15
 -1      3359 1.83104E-03-2.81673E-04-1.38051E-15
 -1      3360 1.60945E-03-2.33808E-04-1.09953E-15
 -1      3361 1.97520E-03-2.89400E-04-1.58270E-15
 -1      3362 2.11947E-03-2.95757E-04-1.79869E-15
 -1      3363 1.89753E-03-2.50575E-04-1.47411E-15
 -1      3364 2.26378E-03-3.00963E-04-2.02839E-15
 -1      3365 2.40810E-03-3.05127E-04-2.27195E-15
 -1      3366 2.18647E-03-2.62196E-04-1.90333E-15
 -1      3367 2.55238E-03-3.08439E-04-2.52896E-15
 -1      3368 2.69662E-03-3.10986E-04-2.80025E-15
 -1      3369 2.47568E-03-2.69849E-04-2.38725E-15
 -1      3370 2.84079E-03-3.12922E-04-3.08564E-15
 -1      3371 2.98488E-03-3.14312E-04-3.38539E-15
 -1      3372 2.76480E-03-2.74555E-04-2.92587E-15
 -1      3373 3.12170E-03-3.15235E-04-3.68316E-15
 -1      3374 3.25844E-03-3.15813E-04-3.99374E-15
 -1      3375 3.04643E-03-2.77094E-04-3.50543E-15
 -1      3376 3.40230E-03-3.16134E-04-4.33495E-15
 -1      3377 3.54607E-03-3.16194E-04-4.69034E-15
 -1      3378 3.32770E-03-2.78210E-04-4.13906E-15
 -1      3379 3.68976E-03-3.16059E-04-5.06054E-15
 -1      3380 3.83337E-03-3.15751E-04-5.44523E-15
 -1      3381 3.61580E-03-2.78344E-04-4.84637E-15
 -1      3382 3.97691E-03-3.15316E-04-5.84488E-15
 -1      3383 4.12037E-03-3.14768E-04-6.25835E-15
 -1      3384 3.90349E-03-2.77796E-04-5.61194E-15
 -1      3385 4.26377E-03-3.14139E-04-6.68539E-15
 -1      3386 4.40710E-03-3.13434E-04-7.12672E-15
 -1      3387 4.19081E-03-2.76803E-04-6.43466E-15
 -1      3388 4.55037E-03-3.12673E-04-7.58168E-15
 -1      3389 4.69358E-03-3.11858E-04-8.05073E-15
 -1      3390 4.47779E-03-2.75519E-04-7.31300E-15
 -1      3391 4.82958E-03-3.11043E-04-8.50963E-15
 -1      3392 4.96553E-03-3.10186E-04-8.97900E-15
 -1      3393 4.75727E-03-2.74071E-04-8.22320E-15
 -1      3394 5.10858E-03-3.09243E-04-9.48779E-15
 -1      3395 5.25157E-03-3.08252E-04-1.00106E-14
 -1      3396 5.03647E-03-2.72467E-04-9.18505E-15
 -1      3397 5.39450E-03-3.07214E-04-1.05461E-14
 -1      3398 5.53738E-03-3.06123E-04-1.10968E-14
 -1      3399 5.32252E-03-2.70665E-04-1.02254E-14
 -1      3400 5.68018E-03-3.04975E-04-1.16606E-14
 -1      3401 5.82290E-03-3.03763E-04-1.22385E-14
 -1      3402 5.60825E-03-2.68691E-04-1.13219E-14
 -1      3403 5.96554E-03-3.02486E-04-1.28303E-14
 -1      3404 6.10808E-03-3.01135E-04-1.34351E-14
 -1      3405 5.89358E-03-2.66522E-04-1.24735E-14
 -1      3406 6.25049E-03-2.99711E-04-1.40515E-14
 -1      3407 6.39277E-03-2.98209E-04-1.46806E-14
 -1      3408 6.17842E-03-2.64138E-04-1.36779E-14
 -1      3409 6.53486E-03-2.96638E-04-1.53215E-14
 -1      3410 6.67676E-03-2.94991E-04-1.59739E-14
 -1      3411 6.46260E-03-2.61545E-04-1.49315E-14
 -1      3412 6.81132E-03-2.93383E-04-1.66068E-14
 -1      3413 6.94561E-03-2.91727E-04-1.72497E-14
 -1      3414 6.73879E-03-2.58869E-04-1.61999E-14
 -1      3415 7.08660E-03-2.89983E-04-1.79371E-14
 -1      3416 7.22715E-03-2.88237E-04-1.86382E-14
 -1      3417 7.01374E-03-2.56177E-04-1.75145E-14
 -1      3418 7.36714E-03-2.86587E-04-1.93499E-14
 -1      3419 7.50647E-03-2.85033E-04-2.00736E-14
 -1      3420 7.29388E-03-2.53667E-04-1.89120E-14
 -1      3421 7.64496E-03-2.83744E-04-2.08082E-14
 -1      3422 7.78249E-03-2.82720E-04-2.15539E-14
 -1      3423 7.57132E-03-2.51891E-04-2.03548E-14
 -1      3424 7.91877E-03-2.82241E-04-2.23105E-14
 -1      3425 8.05362E-03-2.82295E-04-2.30764E-14
 -1      3426 7.84486E-03-2.51639E-04-2.18424E-14
 -1      3427 8.18667E-03-2.83327E-04-2.38520E-14
 -1      3428 8.31762E-03-2.85287E-04-2.46388E-14
 -1      3429 8.11281E-03-2.54137E-04-2.33713E-14
 -1      3430 8.43964E-03-2.88653E-04-2.53963E-14
 -1      3431 8.55893E-03-2.93328E-04-2.61630E-14
 -1      3432 8.36645E-03-2.60930E-04-2.49005E-14
 -1      3433 8.68099E-03-3.00656E-04-2.69783E-14
 -1      3434 8.79873E-03-3.10084E-04-2.78040E-14
 -1      3435 8.60954E-03-2.74335E-04-2.64699E-14
 -1      3436 8.91141E-03-3.23115E-04-2.86401E-14
 -1      3437 9.01785E-03-3.38829E-04-2.94832E-14
 -1      3438 8.84365E-03-2.97985E-04-2.81196E-14
 -1      3439 9.10915E-03-3.56226E-04-3.02709E-14
 -1      3440 9.20030E-03-3.79894E-04-3.11297E-14
 -1      3441 9.22864E-03-3.78019E-04-3.13254E-14
 -1      3442 9.05040E-03-3.31376E-04-2.97403E-14
 -1      3443 2.52921E-03 3.40270E-04-1.95480E-15
 -1      3444 2.38522E-03 3.36550E-04-1.73928E-15
 -1      3445 1.25879E-02-3.40797E-04-4.58261E-14
 -1      3446 1.27971E-02-4.74457E-04-4.67196E-14
 -1      3447 3.67876E-03 3.49466E-04-4.18082E-15
 -1      3448 3.53530E-03 3.49537E-04-3.85225E-15
 -1      3449 1.46804E-02-1.28349E-03-5.16849E-14
 -1      3450 1.47338E-02-1.31565E-03-5.23327E-14
 -1      3451 1.47788E-02-1.34430E-03-5.29130E-14
 -1      3452 1.46372E-02-1.28046E-03-5.17165E-14
 -1      3453 3.96549E-03 3.48835E-04-4.88265E-15
 -1      3454 3.82216E-03 3.49225E-04-4.52423E-15
 -1      3455 3.74840E-03 3.11666E-04-4.42111E-15
 -1      3456 4.25201E-03 3.47740E-04-5.64093E-15
 -1      3457 4.10878E-03 3.48336E-04-5.25441E-15
 -1      3458 4.03555E-03 3.10964E-04-5.14186E-15
 -1      3459 4.53833E-03 3.46342E-04-6.45880E-15
 -1      3460 4.39519E-03 3.47074E-04-6.04231E-15
 -1      3461 4.32239E-03 3.09873E-04-5.92039E-15
 -1      3462 4.82448E-03 3.44731E-04-7.33487E-15
 -1      3463 4.68143E-03 3.45561E-04-6.89015E-15
 -1      3464 4.60896E-03 3.08525E-04-6.75707E-15
 -1      3465 5.11048E-03 3.42943E-04-8.26643E-15
 -1      3466 4.96750E-03 3.43859E-04-7.79354E-15
 -1      3467 4.89528E-03 3.06988E-04-7.65203E-15
 -1      3468 5.39634E-03 3.40981E-04-9.25360E-15
 -1      3469 5.25342E-03 3.41986E-04-8.75336E-15
 -1      3470 5.18137E-03 3.05285E-04-8.60180E-15
 -1      3471 5.68207E-03 3.38821E-04-1.02962E-14
 -1      3472 5.53922E-03 3.39929E-04-9.76763E-15
 -1      3473 5.46724E-03 3.03407E-04-9.60733E-15
 -1      3474 5.96770E-03 3.36427E-04-1.13921E-14
 -1      3475 5.82490E-03 3.37656E-04-1.08377E-14
 -1      3476 5.75291E-03 3.01322E-04-1.06661E-14
 -1      3477 6.25324E-03 3.33764E-04-1.25400E-14
 -1      3478 6.11047E-03 3.35132E-04-1.19595E-14
 -1      3479 6.03839E-03 2.98987E-04-1.17799E-14
 -1      3480 6.53874E-03 3.30810E-04-1.37410E-14
 -1      3481 6.39599E-03 3.32325E-04-1.31344E-14
 -1      3482 6.32370E-03 2.96356E-04-1.29460E-14
 -1      3483 6.82430E-03 3.27573E-04-1.49896E-14
 -1      3484 6.68151E-03 3.29225E-04-1.43590E-14
 -1      3485 6.60889E-03 2.93392E-04-1.41609E-14
 -1      3486 7.11007E-03 3.24109E-04-1.62864E-14
 -1      3487 6.96715E-03 3.25863E-04-1.56320E-14
 -1      3488 6.89406E-03 2.90081E-04-1.54259E-14
 -1      3489 7.39630E-03 3.20555E-04-1.76318E-14
 -1      3490 7.25311E-03 3.22331E-04-1.69533E-14
 -1      3491 7.17939E-03 2.86451E-04-1.67396E-14
 -1      3492 7.68339E-03 3.17153E-04-1.90198E-14
 -1      3493 7.53971E-03 3.18811E-04-1.83199E-14
 -1      3494 7.46518E-03 2.82598E-04-1.80999E-14
 -1      3495 7.97189E-03 3.14299E-04-2.04528E-14
 -1      3496 7.82742E-03 3.15619E-04-1.97309E-14
 -1      3497 7.75189E-03 2.78723E-04-1.95025E-14
 -1      3498 8.26259E-03 3.12586E-04-2.19332E-14
 -1      3499 8.11691E-03 3.13242E-04-2.11875E-14
 -1      3500 8.04023E-03 2.75182E-04-2.09506E-14
 -1      3501 8.55646E-03 3.12847E-04-2.34597E-14
 -1      3502 8.40908E-03 3.12389E-04-2.26910E-14
 -1      3503 8.33114E-03 2.72555E-04-2.24447E-14
 -1      3504 8.85459E-03 3.16169E-04-2.50369E-14
 -1      3505 8.70495E-03 3.14023E-04-2.42410E-14
 -1      3506 8.62586E-03 2.71724E-04-2.39867E-14
 -1      3507 9.15796E-03 3.23805E-04-2.66626E-14
 -1      3508 9.00562E-03 3.19338E-04-2.58438E-14
 -1      3509 8.92579E-03 2.73938E-04-2.55807E-14
 -1      3510 9.46704E-03 3.36890E-04-2.83360E-14
 -1      3511 9.31185E-03 3.29585E-04-2.74935E-14
 -1      3512 9.23221E-03 2.80767E-04-2.72212E-14
 -1      3513 9.78123E-03 3.55768E-04-3.00544E-14
 -1      3514 9.62368E-03 3.45630E-04-2.91900E-14
 -1      3515 9.54584E-03 2.93846E-04-2.89062E-14
 -1      3516 1.00983E-02 3.78769E-04-3.18188E-14
 -1      3517 9.93970E-03 3.67028E-04-3.09305E-14
 -1      3518 9.86597E-03 3.14072E-04-3.06357E-14
 -1      3519 1.04143E-02 4.00405E-04-3.36315E-14
 -1      3520 1.02568E-02 3.90372E-04-3.27203E-14
 -1      3521 1.01898E-02 3.39914E-04-3.24109E-14
 -1      3522 1.07248E-02 4.10385E-04-3.54838E-14
 -1      3523 1.05704E-02 4.07846E-04-3.45535E-14
 -1      3524 1.05124E-02 3.65004E-04-3.42325E-14
 -1      3525 1.10273E-02 3.94275E-04-3.73735E-14
 -1      3526 1.08769E-02 4.06636E-04-3.64234E-14
 -1      3527 1.08283E-02 3.76916E-04-3.60924E-14
 -1      3528 1.13235E-02 3.38325E-04-3.93012E-14
 -1      3529 1.11756E-02 3.71907E-04-3.83327E-14
 -1      3530 1.11350E-02 3.57654E-04-3.79885E-14
 -1      3531 1.16190E-02 2.36688E-04-4.12737E-14
 -1      3532 1.14705E-02 2.93324E-04-4.02821E-14
 -1      3533 1.14352E-02 2.92371E-04-3.99238E-14
 -1      3534 1.19204E-02 9.31381E-05-4.32816E-14
 -1      3535 1.17686E-02 1.69332E-04-4.22731E-14
 -1      3536 1.17372E-02 1.75772E-04-4.19011E-14
 -1      3537 1.22299E-02-7.92466E-05-4.53253E-14
 -1      3538 1.20741E-02 9.39749E-06-4.42988E-14
 -1      3539 1.20475E-02 1.67251E-05-4.39158E-14
 -1      3540 1.25455E-02-2.65843E-04-4.74000E-14
 -1      3541 1.23872E-02-1.71626E-04-4.63596E-14
 -1      3542 1.23669E-02-1.66946E-04-4.59645E-14
 -1      3543 1.28625E-02-4.56130E-04-4.95085E-14
 -1      3544 1.27042E-02-3.61032E-04-4.84499E-14
 -1      3545 1.26914E-02-3.59256E-04-4.80434E-14
 -1      3546 1.31763E-02-6.44494E-04-5.16431E-14
 -1      3547 1.30201E-02-5.50681E-04-5.05719E-14
 -1      3548 1.30148E-02-5.50525E-04-5.01558E-14
 -1      3549 1.47046E-02-1.34762E-03-5.34505E-14
 -1      3550 1.46092E-02-1.32363E-03-5.33535E-14
 -1      3551 1.40902E-02-1.13682E-03-5.10042E-14
 -1      3552 1.42796E-02-1.20158E-03-5.14298E-14
 -1      3553 8.77372E-04-1.86892E-04-3.82344E-16
 -1      3554 1.13047E-02 2.69864E-04-3.87663E-14
 -1      3555 1.14373E-02 2.54779E-04-3.95641E-14
 -1      3556 9.48810E-03-3.36317E-04-3.20464E-14
 -1      3557 9.61050E-03-2.93116E-04-3.22249E-14
 -1      3558 1.36282E-02-9.09200E-04-5.41979E-14
 -1      3559 1.35562E-02-8.71252E-04-5.41463E-14
 -1      3560 1.34449E-02-8.05176E-04-5.34372E-14
 -1      3561 1.35414E-02-8.57261E-04-5.33248E-14
 -1      3562 9.28822E-03-3.74449E-04-3.15714E-14
 -1      3563 9.37720E-03-3.61837E-04-3.18033E-14
 -1      3564 9.36149E-03-3.17605E-04-3.12581E-14
 -1      3565 9.19458E-03-3.47558E-04-3.07742E-14
 -1      3566 1.44465E-02-1.24880E-03-5.16905E-14
 -1      3567 1.45615E-02-1.27259E-03-5.18082E-14
 -1      3568 3.39178E-03 3.49380E-04-3.53835E-15
 -1      3569 3.24819E-03 3.48962E-04-3.23918E-15
 -1      3570 3.46092E-03 3.11768E-04-3.75839E-15
 -1      3571 1.36002E-02-9.25019E-04-4.96368E-14
 -1      3572 1.38345E-02-1.03308E-03-5.03297E-14
 -1      3573 1.02420E-02-1.00468E-04-3.41767E-14
 -1      3574 1.04145E-02-1.72156E-05-3.46867E-14
 -1      3575 1.06463E-02 8.15240E-05-3.55371E-14
 -1      3576 1.08333E-02 1.50489E-04-3.63372E-14
 -1      3577 1.40614E-03 2.86818E-04-6.14621E-16
 -1      3578 1.29257E-03 2.50321E-04-5.46302E-16
 -1      3579 1.58487E-03 2.96603E-04-7.80924E-16
 -1      3580 1.30580E-02-6.32192E-04-4.77775E-14
 -1      3581 1.33102E-02-7.75305E-04-4.87017E-14
 -1      3582 9.86023E-04-2.05936E-04-4.65258E-16
 -1      3583 1.10518E-03-2.07302E-04-5.68176E-16
 -1      3584 1.23989E-03-2.23275E-04-6.93578E-16
 -1      3585 1.30602E-03-2.00497E-04-7.62059E-16
 -1      3586 2.30775E-03 2.97627E-04-1.68028E-15
 -1      3587 2.24120E-03 3.31847E-04-1.53757E-15
 -1      3588 2.09715E-03 3.26046E-04-1.34895E-15
 -1      3589 1.24586E-02-2.54477E-04-4.53695E-14
 -1      3590 1.29548E-02-5.63059E-04-4.76879E-14
 -1      3591 1.40147E-02-1.10850E-03-5.13078E-14
 -1      3592 9.67593E-03-2.59667E-04-3.22708E-14
 -1      3593 9.74149E-03-2.21697E-04-3.23179E-14
 -1      3594 9.53042E-03-2.58385E-04-3.15435E-14
 -1      3595 1.40067E-02-1.10311E-03-5.28454E-14
 -1      3596 1.38863E-02-1.04510E-03-5.27362E-14
 -1      3597 1.47696E-02-1.35641E-03-5.33535E-14
 -1      3598 1.46522E-02-1.30537E-03-5.24103E-14
 -1      3599 1.33332E-02-7.38584E-04-5.27268E-14
 -1      3600 1.37710E-02-9.85417E-04-5.26250E-14
 -1      3601 1.36611E-02-9.26207E-04-5.25077E-14
 -1      3602 1.36864E-02-9.47087E-04-5.17682E-14
 -1      3603 1.15189E-02 2.38947E-04-4.01090E-14
 -1      3604 1.44206E-02-1.25300E-03-5.22433E-14
 -1      3605 1.08934E-02 2.01037E-04-3.65433E-14
 -1      3606 2.67314E-03 3.43194E-04-2.18389E-15
 -1      3607 2.59644E-03 3.04600E-04-2.11669E-15
 -1      3608 2.81700E-03 3.45406E-04-2.42666E-15
 -1      3609 1.12121E-02 2.74391E-04-3.82357E-14
 -1      3610 1.12347E-02 2.92140E-04-3.84168E-14
 -1      3611 1.11190E-02 2.73142E-04-3.77053E-14
 -1      3612 1.04808E-02 5.68300E-05-3.47232E-14
 -1      3613 1.05290E-02 1.24796E-04-3.47569E-14
 -1      3614 1.03178E-02 3.99131E-05-3.39157E-14
 -1      3615 1.35801E-02-8.80503E-04-5.24546E-14
 -1      3616 1.35027E-02-8.36159E-04-5.24015E-14
 -1      3617 1.34896E-02-8.35450E-04-5.15972E-14
 -1      3618 1.29762E-03-1.34092E-04-7.51122E-16
 -1      3619 1.30128E-03-1.66957E-04-7.57424E-16
 -1      3620 1.46076E-03-1.87412E-04-9.27291E-16
 -1      3621 1.00827E-02-1.24328E-04-3.34663E-14
 -1      3622 1.28619E-03 2.15821E-04-5.70832E-16
 -1      3623 1.19595E-02 4.97545E-05-4.26936E-14
 -1      3624 1.20824E-02-2.06332E-05-4.34879E-14
 -1      3625 1.18357E-02 1.15131E-04-4.20633E-14
 -1      3626 1.26110E-03 1.10594E-04-6.25381E-16
 -1      3627 1.25888E-03 7.90448E-05-6.42024E-16
 -1      3628 1.34859E-02-8.61755E-04-4.96925E-14
 -1      3629 1.44633E-02-1.28021E-03-5.30944E-14
 -1      3630 1.43420E-02-1.24033E-03-5.29934E-14
 -1      3631 1.13535E-03-2.77366E-05-5.77338E-16
 -1      3632 3.10453E-03 3.48202E-04-2.95354E-15
 -1      3633 2.96080E-03 3.47054E-04-2.68287E-15
 -1      3634 2.88492E-03 3.08769E-04-2.60732E-15
 -1      3635 3.17310E-03 3.10952E-04-3.15385E-15
 -1      3636 1.25742E-03 4.77638E-05-6.57148E-16
 -1      3637 1.25667E-03 1.66932E-05-6.70715E-16
 -1      3638 1.38058E-03 6.71073E-05-7.64647E-16
 -1      3639 1.73276E-03 2.96294E-04-9.40762E-16
 -1      3640 1.57402E-03 2.54300E-04-8.14060E-16
 -1      3641 1.98695E-03 3.16156E-04-1.21938E-15
 -1      3642 1.84292E-03 3.08025E-04-1.05390E-15
 -1      3643 1.83251E-03 2.63868E-04-1.09246E-15
 -1      3644 2.05305E-03 2.83739E-04-1.34531E-15
 -1      3645 1.33345E-02-7.38081E-04-5.22978E-14
 -1      3646 1.33817E-02-7.65675E-04-5.22459E-14
 -1      3647 1.82059E-03-2.12474E-04-1.36820E-15
 -1      3648 1.96500E-03-2.18672E-04-1.56793E-15
 -1      3649 2.10963E-03-2.23818E-04-1.78087E-15
 -1      3650 2.25440E-03-2.28017E-04-2.00773E-15
 -1      3651 2.03335E-03-1.85967E-04-1.66136E-15
 -1      3652 2.39924E-03-2.31419E-04-2.24830E-15
 -1      3653 2.54410E-03-2.34103E-04-2.50181E-15
 -1      3654 2.32317E-03-1.93257E-04-2.11180E-15
 -1      3655 2.68894E-03-2.36201E-04-2.76912E-15
 -1      3656 2.83371E-03-2.37772E-04-3.05066E-15
 -1      3657 2.61328E-03-1.97938E-04-2.61594E-15
 -1      3658 2.97118E-03-2.38877E-04-3.33122E-15
 -1      3659 3.10857E-03-2.39642E-04-3.62412E-15
 -1      3660 2.89605E-03-2.00642E-04-3.15987E-15
 -1      3661 3.25308E-03-2.40163E-04-3.94709E-15
 -1      3662 3.39748E-03-2.40420E-04-4.28399E-15
 -1      3663 3.17849E-03-2.02028E-04-3.75770E-15
 -1      3664 3.54177E-03-2.40481E-04-4.63530E-15
 -1      3665 3.68594E-03-2.40365E-04-5.00119E-15
 -1      3666 3.46773E-03-2.02494E-04-4.42757E-15
 -1      3667 3.83000E-03-2.40121E-04-5.38182E-15
 -1      3668 3.97394E-03-2.39761E-04-5.77728E-15
 -1      3669 3.75646E-03-2.02306E-04-5.15518E-15
 -1      3670 4.11777E-03-2.39318E-04-6.18658E-15
 -1      3671 4.26150E-03-2.38798E-04-6.60957E-15
 -1      3672 4.04468E-03-2.01687E-04-5.94082E-15
 -1      3673 4.40512E-03-2.38225E-04-7.04670E-15
 -1      3674 4.54864E-03-2.37599E-04-7.49764E-15
 -1      3675 4.33240E-03-2.00790E-04-6.78315E-15
 -1      3676 4.68490E-03-2.36970E-04-7.93954E-15
 -1      3677 4.82107E-03-2.36304E-04-8.39376E-15
 -1      3678 4.61247E-03-1.99735E-04-7.65929E-15
 -1      3679 4.96432E-03-2.35573E-04-8.88448E-15
 -1      3680 5.10747E-03-2.34806E-04-9.38942E-15
 -1      3681 4.89213E-03-1.98552E-04-8.58706E-15
 -1      3682 5.25052E-03-2.34008E-04-9.90733E-15
 -1      3683 5.39348E-03-2.33174E-04-1.04396E-14
 -1      3684 5.17851E-03-1.97230E-04-9.59221E-15
 -1      3685 5.53633E-03-2.32307E-04-1.09859E-14
 -1      3686 5.67908E-03-2.31400E-04-1.15458E-14
 -1      3687 5.46445E-03-1.95802E-04-1.06529E-14
 -1      3688 5.82169E-03-2.30458E-04-1.21194E-14
 -1      3689 5.96417E-03-2.29475E-04-1.27069E-14
 -1      3690 5.74987E-03-1.94270E-04-1.17687E-14
 -1      3691 6.10650E-03-2.28460E-04-1.33074E-14
 -1      3692 6.24865E-03-2.27407E-04-1.39188E-14
 -1      3693 6.03470E-03-1.92644E-04-1.29378E-14
 -1      3694 6.39058E-03-2.26334E-04-1.45438E-14
 -1      3695 6.53229E-03-2.25239E-04-1.51799E-14
 -1      3696 6.31878E-03-1.90960E-04-1.41590E-14
 -1      3697 6.66664E-03-2.24209E-04-1.57962E-14
 -1      3698 6.80070E-03-2.23188E-04-1.64237E-14
 -1      3699 6.59482E-03-1.89343E-04-1.53958E-14
 -1      3700 6.94144E-03-2.22179E-04-1.70945E-14
 -1      3701 7.08172E-03-2.21244E-04-1.77793E-14
 -1      3702 6.86961E-03-1.87911E-04-1.66776E-14
 -1      3703 7.22146E-03-2.20479E-04-1.84756E-14
 -1      3704 7.36056E-03-2.19896E-04-1.91832E-14
 -1      3705 7.14971E-03-1.86919E-04-1.80416E-14
 -1      3706 7.49889E-03-2.19651E-04-1.99043E-14
 -1      3707 7.63632E-03-2.19765E-04-2.06350E-14
 -1      3708 7.42739E-03-1.86891E-04-1.94550E-14
 -1      3709 7.77268E-03-2.20477E-04-2.13764E-14
 -1      3710 7.90778E-03-2.21813E-04-2.21288E-14
 -1      3711 7.70177E-03-1.88581E-04-2.09133E-14
 -1      3712 8.04139E-03-2.24137E-04-2.28911E-14
 -1      3713 8.17324E-03-2.27463E-04-2.36630E-14
 -1      3714 7.97166E-03-1.93105E-04-2.24123E-14
 -1      3715 8.29665E-03-2.32049E-04-2.44060E-14
 -1      3716 8.41784E-03-2.37983E-04-2.51602E-14
 -1      3717 8.22903E-03-2.01754E-04-2.39148E-14
 -1      3718 8.54282E-03-2.46415E-04-2.59633E-14
 -1      3719 8.66447E-03-2.56963E-04-2.67763E-14
 -1      3720 8.47885E-03-2.16562E-04-2.54570E-14
 -1      3721 8.78264E-03-2.70657E-04-2.75995E-14
 -1      3722 8.89619E-03-2.87113E-04-2.84333E-14
 -1      3723 8.72497E-03-2.40692E-04-2.70816E-14
 -1      3724 8.99876E-03-3.03863E-04-2.92059E-14
 -1      3725 9.09884E-03-3.23210E-04-2.99899E-14
 -1      3726 9.16325E-03-3.13105E-04-3.02308E-14
 -1      3727 8.95197E-03-2.72481E-04-2.86764E-14
 -1      3728 1.26810E-03 1.75275E-04-5.87082E-16
 -1      3729 1.26415E-03 1.42629E-04-6.07004E-16
 -1      3730 1.38536E-03 1.33919E-04-7.26619E-16
 -1      3731 1.48265E-02-1.37310E-03-5.34945E-14
 -1      3732 1.23147E-02-1.59100E-04-4.48592E-14
 -1      3733 1.25511E-02-3.06822E-04-4.61155E-14
 -1      3734 1.41339E-02-1.16009E-03-5.29596E-14
 -1      3735 1.39369E-02-1.07349E-03-5.20001E-14
 -1      3736 4.67973E-03 2.70700E-04-7.05898E-15
 -1      3737 4.53640E-03 2.71359E-04-6.62334E-15
 -1      3738 4.96616E-03 2.69265E-04-7.97160E-15
 -1      3739 4.82299E-03 2.70003E-04-7.50843E-15
 -1      3740 4.75063E-03 2.32898E-04-7.36261E-15
 -1      3741 5.25229E-03 2.67672E-04-8.93931E-15
 -1      3742 5.10927E-03 2.68490E-04-8.44863E-15
 -1      3743 5.03712E-03 2.31589E-04-8.29392E-15
 -1      3744 5.53813E-03 2.65903E-04-9.96222E-15
 -1      3745 5.39525E-03 2.66813E-04-9.44379E-15
 -1      3746 5.32325E-03 2.30130E-04-9.27978E-15
 -1      3747 5.82369E-03 2.63917E-04-1.10398E-14
 -1      3748 5.68095E-03 2.64941E-04-1.04943E-14
 -1      3749 5.60901E-03 2.28492E-04-1.03208E-14
 -1      3750 6.10898E-03 2.61661E-04-1.21702E-14
 -1      3751 5.96637E-03 2.62827E-04-1.15985E-14
 -1      3752 5.89441E-03 2.26627E-04-1.14150E-14
 -1      3753 6.39401E-03 2.59077E-04-1.33520E-14
 -1      3754 6.25152E-03 2.60415E-04-1.27550E-14
 -1      3755 6.17946E-03 2.24470E-04-1.25630E-14
 -1      3756 6.67883E-03 2.56107E-04-1.45844E-14
 -1      3757 6.53644E-03 2.57644E-04-1.39618E-14
 -1      3758 6.46416E-03 2.21944E-04-1.37607E-14
 -1      3759 6.96355E-03 2.52708E-04-1.58650E-14
 -1      3760 6.82119E-03 2.54463E-04-1.52185E-14
 -1      3761 6.74856E-03 2.18969E-04-1.50102E-14
 -1      3762 7.24837E-03 2.48869E-04-1.71950E-14
 -1      3763 7.10593E-03 2.50842E-04-1.65238E-14
 -1      3764 7.03276E-03 2.15464E-04-1.63073E-14
 -1      3765 7.53362E-03 2.44633E-04-1.85692E-14
 -1      3766 7.39091E-03 2.46792E-04-1.78764E-14
 -1      3767 7.31698E-03 2.11364E-04-1.76517E-14
 -1      3768 7.81986E-03 2.40142E-04-1.99879E-14
 -1      3769 7.67657E-03 2.42399E-04-1.92734E-14
 -1      3770 7.60159E-03 2.06647E-04-1.90424E-14
 -1      3771 8.10790E-03 2.35701E-04-2.14503E-14
 -1      3772 7.96359E-03 2.37876E-04-2.07140E-14
 -1      3773 7.88722E-03 2.01379E-04-2.04761E-14
 -1      3774 8.39891E-03 2.31868E-04-2.29604E-14
 -1      3775 8.25295E-03 2.33639E-04-2.21995E-14
 -1      3776 8.17481E-03 1.95796E-04-2.19521E-14
 -1      3777 8.69437E-03 2.29583E-04-2.45192E-14
 -1      3778 8.54599E-03 2.30422E-04-2.37339E-14
 -1      3779 8.46573E-03 1.90429E-04-2.34795E-14
 -1      3780 8.99605E-03 2.30298E-04-2.61268E-14
 -1      3781 8.84435E-03 2.29406E-04-2.53154E-14
 -1      3782 8.76179E-03 1.86288E-04-2.50532E-14
 -1      3783 9.30564E-03 2.35993E-04-2.77788E-14
 -1      3784 9.14982E-03 2.32328E-04-2.69469E-14
 -1      3785 9.06515E-03 1.85106E-04-2.66737E-14
 -1      3786 9.62417E-03 2.48991E-04-2.94781E-14
 -1      3787 9.46387E-03 2.41395E-04-2.86239E-14
 -1      3788 9.37802E-03 1.89379E-04-2.83401E-14
 -1      3789 9.95086E-03 2.70914E-04-3.12184E-14
 -1      3790 9.78675E-03 2.58799E-04-3.03431E-14
 -1      3791 9.70179E-03 2.02432E-04-3.00502E-14
 -1      3792 1.02825E-02 3.00628E-04-3.30048E-14
 -1      3793 1.01166E-02 2.85158E-04-3.21062E-14
 -1      3794 1.00358E-02 2.26851E-04-3.18027E-14
 -1      3795 1.06125E-02 3.30475E-04-3.48320E-14
 -1      3796 1.04484E-02 3.16511E-04-3.39128E-14
 -1      3797 1.03760E-02 2.61962E-04-3.35965E-14
 -1      3798 1.12200E-02 3.19457E-04-3.84170E-14
 -1      3799 1.10639E-02 3.33173E-04-3.74628E-14
 -1      3800 1.16502E-02 2.02411E-04-4.10966E-14
 -1      3801 1.14945E-02 2.56536E-04-4.01174E-14
 -1      3802 1.19227E-02 7.61022E-05-4.28795E-14
 -1      3803 1.17644E-02 1.54088E-04-4.18803E-14
 -1      3804 1.20838E-02-1.19636E-05-4.38876E-14
 -1      3805 1.24705E-02-2.37957E-04-4.62979E-14
 -1      3806 1.23039E-02-1.39551E-04-4.52701E-14
 -1      3807 1.28437E-02-4.56420E-04-4.86868E-14
 -1      3808 1.26774E-02-3.58776E-04-4.76391E-14
 -1      3809 1.36004E-02-9.09605E-04-5.09171E-14
 -1      3810 1.34819E-02-8.42367E-04-5.07997E-14
 -1      3811 1.28501E-02-4.90690E-04-4.75761E-14
 -1      3812 1.30926E-02-6.35970E-04-4.86443E-14
 -1      3813 4.39298E-03 2.71967E-04-6.20216E-15
 -1      3814 4.24948E-03 2.72527E-04-5.79623E-15
 -1      3815 4.46376E-03 2.34057E-04-6.48854E-15
 -1      3816 1.29284E-03-6.99011E-05-7.34669E-16
 -1      3817 1.29481E-03-1.01785E-04-7.43465E-16
 -1      3818 1.45331E-03-1.17710E-04-9.11123E-16
 -1      3819 3.53053E-03 2.73984E-04-3.98199E-15
 -1      3820 3.38644E-03 2.73844E-04-3.66307E-15
 -1      3821 1.27387E-03-1.05193E-05-6.97969E-16
 -1      3822 1.27444E-03-4.17650E-05-7.09217E-16
 -1      3823 1.43213E-03-5.33502E-05-8.71644E-16
 -1      3824 1.39638E-03 5.39155E-06-8.11864E-16
 -1      3825 1.32892E-02-7.14753E-04-5.13824E-14
 -1      3826 1.07558E-02 2.08308E-04-3.57735E-14
 -1      3827 1.09446E-02 2.50383E-04-3.67477E-14
 -1      3828 4.10588E-03 2.73017E-04-5.40490E-15
 -1      3829 3.96219E-03 2.73434E-04-5.02776E-15
 -1      3830 4.17647E-03 2.35035E-04-5.67074E-15
 -1      3831 1.42586E-02-1.21057E-03-5.30628E-14
 -1      3832 1.40685E-03 2.09795E-04-6.87845E-16
 -1      3833 1.56846E-03-1.96570E-04-1.05063E-15
 -1      3834 1.71221E-03-2.04859E-04-1.22649E-15
 -1      3835 1.78026E-03-1.74621E-04-1.31079E-15
 -1      3836 1.56410E-03-1.60235E-04-1.04258E-15
 -1      3837 1.55487E-03 2.09800E-04-8.36719E-16
 -1      3838 9.90433E-03-1.38741E-04-3.26101E-14
 -1      3839 1.00674E-02-5.74590E-05-3.30196E-14
 -1      3840 3.81841E-03 2.73747E-04-4.66425E-15
 -1      3841 3.67452E-03 2.73945E-04-4.31559E-15
 -1      3842 3.88875E-03 2.35754E-04-4.91104E-15
 -1      3843 1.51073E-03 1.58211E-04-8.34307E-16
 -1      3844 1.50733E-03 1.22857E-04-8.57590E-16
 -1      3845 9.95661E-03-4.67898E-06-3.21930E-14
 -1      3846 1.01353E-02 1.33055E-05-3.30495E-14
 -1      3847 1.01898E-02 8.19661E-05-3.30762E-14
 -1      3848 1.21795E-02-7.40179E-05-4.42199E-14
 -1      3849 1.39215E-02-1.06909E-03-5.13717E-14
 -1      3850 1.37828E-02-1.00388E-03-5.12541E-14
 -1      3851 9.39788E-03-2.43643E-04-3.07657E-14
 -1      3852 9.44979E-03-2.16014E-04-3.08100E-14
 -1      3853 9.74159E-03-1.54998E-04-3.18784E-14
 -1      3854 3.31191E-03 2.35793E-04-3.56583E-15
 -1      3855 3.24224E-03 2.73464E-04-3.35807E-15
 -1      3856 3.09794E-03 2.72815E-04-3.06747E-15
 -1      3857 1.07406E-02 3.17132E-04-3.55687E-14
 -1      3858 1.06749E-02 2.69866E-04-3.52391E-14
 -1      3859 1.09036E-02 3.26065E-04-3.65025E-14
 -1      3860 1.26224E-02-3.36721E-04-4.69335E-14
 -1      3861 1.31725E-02-6.46610E-04-5.07999E-14
 -1      3862 1.30092E-02-5.52447E-04-4.97406E-14
 -1      3863 1.26927E-02-3.86786E-04-4.70630E-14
 -1      3864 1.31842E-02-6.83123E-04-4.92450E-14
 -1      3865 1.33005E-02-7.56900E-04-4.93516E-14
 -1      3866 1.50482E-03 8.78370E-05-8.79085E-16
 -1      3867 1.50316E-03 5.30919E-05-8.98519E-16
 -1      3868 1.62999E-03 1.09671E-04-9.99933E-16
 -1      3869 1.09783E-02 2.86141E-04-3.69241E-14
 -1      3870 1.41607E-02-1.16813E-03-5.20483E-14
 -1      3871 9.22296E-03-2.97754E-04-3.03811E-14
 -1      3872 9.31816E-03-2.73315E-04-3.06186E-14
 -1      3873 9.24134E-03-2.32676E-04-2.98938E-14
 -1      3874 9.11127E-03-2.76219E-04-2.96003E-14
 -1      3875 3.60057E-03 2.36077E-04-4.20902E-15
 -1      3876 1.32916E-02-7.38173E-04-4.99922E-14
 -1      3877 1.33877E-02-7.83446E-04-5.08406E-14
 -1      3878 1.33090E-02-7.34679E-04-5.07828E-14
 -1      3879 1.30978E-02-6.23474E-04-4.92797E-14
 -1      3880 1.35159E-02-8.70037E-04-5.03122E-14
 -1      3881 1.05803E-02 1.71981E-04-3.49017E-14
 -1      3882 1.06388E-02 2.32914E-04-3.50958E-14
 -1      3883 1.05098E-02 2.42934E-04-3.43688E-14
 -1      3884 1.04217E-02 1.56631E-04-3.40872E-14
 -1      3885 1.30033E-02-5.56224E-04-4.93279E-14
 -1      3886 2.66449E-03 2.68512E-04-2.28166E-15
 -1      3887 2.51987E-03 2.66045E-04-2.04733E-15
 -1      3888 1.67672E-03 1.98756E-04-9.78669E-16
 -1      3889 2.44352E-03 2.27625E-04-1.97664E-15
 -1      3890 2.37522E-03 2.62873E-04-1.82642E-15
 -1      3891 2.23057E-03 2.58915E-04-1.61893E-15
 -1      3892 1.89682E-03 2.18196E-04-1.21980E-15
 -1      3893 1.78666E-03 2.08741E-04-1.09582E-15
 -1      3894 1.74268E-03 1.55005E-04-1.09335E-15
 -1      3895 3.95943E-03 1.97700E-04-5.16143E-15
 -1      3896 3.81529E-03 1.97931E-04-4.79310E-15
 -1      3897 2.24758E-03-1.55502E-04-1.97834E-15
 -1      3898 2.39275E-03-1.57928E-04-2.21546E-15
 -1      3899 2.53797E-03-1.59868E-04-2.46567E-15
 -1      3900 2.68320E-03-1.61365E-04-2.72911E-15
 -1      3901 2.46307E-03-1.22077E-04-2.31828E-15
 -1      3902 2.82114E-03-1.62459E-04-2.99210E-15
 -1      3903 2.95901E-03-1.63259E-04-3.26779E-15
 -1      3904 2.74652E-03-1.24394E-04-2.82798E-15
 -1      3905 3.10405E-03-1.63855E-04-3.57180E-15
 -1      3906 3.24897E-03-1.64220E-04-3.89048E-15
 -1      3907 3.02980E-03-1.25691E-04-3.38965E-15
 -1      3908 3.39377E-03-1.64413E-04-4.22297E-15
 -1      3909 3.53843E-03-1.64447E-04-4.56976E-15
 -1      3910 3.31993E-03-1.26270E-04-4.02182E-15
 -1      3911 3.68296E-03-1.64367E-04-4.93144E-15
 -1      3912 3.82734E-03-1.64180E-04-5.30834E-15
 -1      3913 3.60953E-03-1.26326E-04-4.71159E-15
 -1      3914 3.97159E-03-1.63921E-04-5.69858E-15
 -1      3915 4.11569E-03-1.63592E-04-6.10369E-15
 -1      3916 3.89854E-03-1.26032E-04-5.46011E-15
 -1      3917 4.25967E-03-1.63216E-04-6.52383E-15
 -1      3918 4.40351E-03-1.62794E-04-6.95680E-15
 -1      3919 4.18696E-03-1.25510E-04-6.26602E-15
 -1      3920 4.54004E-03-1.62365E-04-7.38132E-15
 -1      3921 4.67645E-03-1.61905E-04-7.81916E-15
 -1      3922 4.46761E-03-1.24859E-04-7.10715E-15
 -1      3923 4.81993E-03-1.61401E-04-8.29173E-15
 -1      3924 4.96328E-03-1.60871E-04-8.77912E-15
 -1      3925 4.74774E-03-1.24115E-04-8.00011E-15
 -1      3926 5.10651E-03-1.60324E-04-9.27989E-15
 -1      3927 5.24961E-03-1.59755E-04-9.79418E-15
 -1      3928 5.03452E-03-1.23284E-04-8.96951E-15
 -1      3929 5.39259E-03-1.59171E-04-1.03220E-14
 -1      3930 5.53543E-03-1.58566E-04-1.08643E-14
 -1      3931 5.32076E-03-1.22401E-04-9.99420E-15
 -1      3932 5.67812E-03-1.57951E-04-1.14208E-14
 -1      3933 5.82066E-03-1.57320E-04-1.19897E-14
 -1      3934 5.60643E-03-1.21484E-04-1.10744E-14
 -1      3935 5.96303E-03-1.56685E-04-1.25721E-14
 -1      3936 6.10521E-03-1.56044E-04-1.31675E-14
 -1      3937 5.89145E-03-1.20561E-04-1.22093E-14
 -1      3938 6.24717E-03-1.55419E-04-1.37763E-14
 -1      3939 6.38890E-03-1.54808E-04-1.43966E-14
 -1      3940 6.17572E-03-1.19684E-04-1.33959E-14
 -1      3941 6.52328E-03-1.54274E-04-1.49965E-14
 -1      3942 6.65739E-03-1.53788E-04-1.56083E-14
 -1      3943 6.45197E-03-1.18968E-04-1.46012E-14
 -1      3944 6.79820E-03-1.53380E-04-1.62635E-14
 -1      3945 6.93860E-03-1.53092E-04-1.69316E-14
 -1      3946 6.72710E-03-1.18550E-04-1.58518E-14
 -1      3947 7.07853E-03-1.53008E-04-1.76117E-14
 -1      3948 7.21791E-03-1.53151E-04-1.83039E-14
 -1      3949 7.00777E-03-1.18704E-04-1.71843E-14
 -1      3950 7.35667E-03-1.53650E-04-1.90078E-14
 -1      3951 7.49469E-03-1.54540E-04-1.97239E-14
 -1      3952 7.28649E-03-1.19882E-04-1.85640E-14
 -1      3953 7.63189E-03-1.56014E-04-2.04508E-14
 -1      3954 7.76812E-03-1.58121E-04-2.11884E-14
 -1      3955 7.56269E-03-1.22741E-04-1.99907E-14
 -1      3956 7.90328E-03-1.61136E-04-2.19358E-14
 -1      3957 8.03715E-03-1.65120E-04-2.26947E-14
 -1      3958 7.83567E-03-1.28219E-04-2.14614E-14
 -1      3959 8.16309E-03-1.70155E-04-2.34254E-14
 -1      3960 8.28753E-03-1.76448E-04-2.41649E-14
 -1      3961 8.09798E-03-1.37307E-04-2.29370E-14
 -1      3962 8.41693E-03-1.84915E-04-2.49546E-14
 -1      3963 8.54425E-03-1.95304E-04-2.57555E-14
 -1      3964 8.35573E-03-1.51640E-04-2.44534E-14
 -1      3965 8.66967E-03-2.08221E-04-2.65658E-14
 -1      3966 8.79255E-03-2.23646E-04-2.73872E-14
 -1      3967 8.61469E-03-1.73668E-04-2.60522E-14
 -1      3968 5.10816E-03 1.93975E-04-8.61872E-15
 -1      3969 4.96496E-03 1.94572E-04-8.13755E-15
 -1      3970 9.44427E-03-1.48422E-04-3.03212E-14
 -1      3971 9.58941E-03-1.54708E-04-3.10961E-14
 -1      3972 9.72961E-03-8.01923E-05-3.13802E-14
 -1      3973 1.55820E-03-8.88664E-05-1.02084E-15
 -1      3974 1.56069E-03-1.24374E-04-1.03276E-15
 -1      3975 1.66850E-03-1.30681E-04-1.16155E-15
 -1      3976 4.82166E-03 1.95132E-04-7.67051E-15
 -1      3977 4.67824E-03 1.95663E-04-7.21707E-15
 -1      3978 4.89280E-03 1.57431E-04-7.98027E-15
 -1      3979 5.67987E-03 1.91192E-04-1.06817E-14
 -1      3980 5.53711E-03 1.91960E-04-1.01452E-14
 -1      3981 5.96509E-03 1.89470E-04-1.17935E-14
 -1      3982 5.82254E-03 1.90367E-04-1.12314E-14
 -1      3983 5.75073E-03 1.54022E-04-1.10452E-14
 -1      3984 6.24985E-03 1.87432E-04-1.29576E-14
 -1      3985 6.10753E-03 1.88498E-04-1.23691E-14
 -1      3986 6.03572E-03 1.52466E-04-1.21744E-14
 -1      3987 6.53418E-03 1.84981E-04-1.41730E-14
 -1      3988 6.39207E-03 1.86266E-04-1.35589E-14
 -1      3989 6.32017E-03 1.50568E-04-1.33555E-14
 -1      3990 6.81809E-03 1.82005E-04-1.54379E-14
 -1      3991 6.67618E-03 1.83568E-04-1.47994E-14
 -1      3992 6.60407E-03 1.48207E-04-1.45866E-14
 -1      3993 7.10170E-03 1.78378E-04-1.67519E-14
 -1      3994 6.95992E-03 1.80282E-04-1.60891E-14
 -1      3995 6.88744E-03 1.45234E-04-1.58686E-14
 -1      3996 7.38521E-03 1.73971E-04-1.81122E-14
 -1      3997 7.24344E-03 1.76278E-04-1.74263E-14
 -1      3998 7.17036E-03 1.41467E-04-1.71984E-14
 -1      3999 7.66904E-03 1.68681E-04-1.95165E-14
 -1      4000 7.52705E-03 1.71436E-04-1.88084E-14
 -1      4001 7.45305E-03 1.36703E-04-1.85738E-14
 -1      4002 7.95386E-03 1.62480E-04-2.09642E-14
 -1      4003 7.81126E-03 1.65681E-04-2.02359E-14
 -1      4004 7.73592E-03 1.30738E-04-1.99940E-14
 -1      4005 8.24074E-03 1.55517E-04-2.24575E-14
 -1      4006 8.09695E-03 1.59055E-04-2.17047E-14
 -1      4007 8.01969E-03 1.23430E-04-2.14565E-14
 -1      4008 8.53125E-03 1.48280E-04-2.39989E-14
 -1      4009 8.38542E-03 1.51849E-04-2.32205E-14
 -1      4010 8.30554E-03 1.14813E-04-2.29634E-14
 -1      4011 8.82752E-03 1.41852E-04-2.55889E-14
 -1      4012 8.67851E-03 1.44816E-04-2.47891E-14
 -1      4013 8.59523E-03 1.05322E-04-2.45216E-14
 -1      4014 9.13217E-03 1.38297E-04-2.72230E-14
 -1      4015 8.97863E-03 1.39483E-04-2.64009E-14
 -1      4016 8.89121E-03 9.61291E-05-2.61277E-14
 -1      4017 9.44821E-03 1.40688E-04-2.89045E-14
 -1      4018 9.28868E-03 1.38363E-04-2.80580E-14
 -1      4019 9.19686E-03 8.95552E-05-2.77768E-14
 -1      4020 9.77763E-03 1.53691E-04-3.06229E-14
 -1      4021 9.61134E-03 1.45488E-04-2.97586E-14
 -1      4022 9.51582E-03 8.98593E-05-2.94672E-14
 -1      4023 1.01192E-02 1.55564E-04-3.24570E-14
 -1      4024 9.94542E-03 1.39399E-04-3.15706E-14
 -1      4025 1.03361E-02 2.21253E-04-3.34601E-14
 -1      4026 1.13064E-02 3.05581E-04-3.89524E-14
 -1      4027 1.32906E-02-7.20201E-04-5.09608E-14
 -1      4028 2.80905E-03 2.70415E-04-2.53030E-15
 -1      4029 2.73327E-03 2.32060E-04-2.45100E-15
 -1      4030 2.95354E-03 2.71813E-04-2.79193E-15
 -1      4031 4.53472E-03 1.96156E-04-6.77712E-15
 -1      4032 4.39108E-03 1.96617E-04-6.35130E-15
 -1      4033 4.60585E-03 1.58296E-04-7.06898E-15
 -1      4034 1.29082E-02-5.10556E-04-4.84077E-14
 -1      4035 1.95775E-03-1.48825E-04-1.54489E-15
 -1      4036 2.10256E-03-1.52489E-04-1.75470E-15
 -1      4037 2.17256E-03-1.18263E-04-1.84816E-15
 -1      4038 1.31872E-02-6.64881E-04-5.02050E-14
 -1      4039 4.24732E-03 1.97030E-04-5.94013E-15
 -1      4040 4.10344E-03 1.97399E-04-5.54381E-15
 -1      4041 4.03040E-03 1.59626E-04-5.41506E-15
 -1      4042 4.31839E-03 1.59039E-04-6.21387E-15
 -1      4043 3.67102E-03 1.98061E-04-4.44000E-15
 -1      4044 3.52663E-03 1.98083E-04-4.10139E-15
 -1      4045 3.74186E-03 1.59983E-04-4.67470E-15
 -1      4046 5.39423E-03 1.92674E-04-9.62341E-15
 -1      4047 5.25125E-03 1.93346E-04-9.11455E-15
 -1      4048 5.46524E-03 1.55327E-04-9.96944E-15
 -1      4049 2.11882E-03 2.43171E-04-1.48196E-15
 -1      4050 2.00842E-03 2.34556E-04-1.34448E-15
 -1      4051 1.96388E-03 1.78849E-04-1.34480E-15
 -1      4052 2.18696E-03 2.09386E-04-1.61530E-15
 -1      4053 1.30169E-02-5.69698E-04-4.91543E-14
 -1      4054 5.17926E-03 1.56448E-04-8.94731E-15
 -1      4055 8.89697E-03-2.39344E-04-2.81017E-14
 -1      4056 9.00972E-03-2.55707E-04-2.88714E-14
 -1      4057 9.06573E-03-2.37153E-04-2.90176E-14
 -1      4058 8.85078E-03-2.02380E-04-2.75768E-14
 -1      4059 9.63570E-03 5.85171E-06-3.04679E-14
 -1      4060 9.79257E-03 1.40698E-05-3.12472E-14
 -1      4061 1.53919E-03-5.75512E-05-9.89660E-16
 -1      4062 1.64673E-03-6.16642E-05-1.11480E-15
 -1      4063 1.52085E-03-2.67291E-05-9.57445E-16
 -1      4064 3.38209E-03 1.97951E-04-3.77689E-15
 -1      4065 3.23744E-03 1.97652E-04-3.46728E-15
 -1      4066 3.45274E-03 1.59988E-04-3.99186E-15
 -1      4067 9.84556E-03 7.61755E-05-3.12681E-14
 -1      4068 3.02279E-03 2.34596E-04-2.98005E-15
 -1      4069 1.73948E-03 1.17336E-04-1.12073E-15
 -1      4070 1.73719E-03 7.99093E-05-1.14584E-15
 -1      4071 1.84931E-03 1.24821E-04-1.24832E-15
 -1      4072 1.62807E-03 5.06309E-05-1.03726E-15
 -1      4073 1.50367E-03 3.13129E-05-9.11096E-16
 -1      4074 1.52082E-03 1.10483E-06-9.45085E-16
 -1      4075 1.73735E-03 5.64448E-05-1.16176E-15
 -1      4076 1.75872E-03-1.37118E-04-1.27560E-15
 -1      4077 1.86712E-03-1.42820E-04-1.41907E-15
 -1      4078 1.93688E-03-1.10401E-04-1.50377E-15
 -1      4079 1.75600E-03-9.95599E-05-1.26175E-15
 -1      4080 2.80278E-03 1.95253E-04-2.62382E-15
 -1      4081 2.65773E-03 1.93792E-04-2.37004E-15
 -1      4082 2.51264E-03 1.91878E-04-2.13078E-15
 -1      4083 2.36754E-03 1.89467E-04-1.90469E-15
 -1      4084 2.58249E-03 1.55690E-04-2.28901E-15
 -1      4085 9.12810E-03-2.13961E-04-2.91617E-14
 -1      4086 9.19625E-03-1.86236E-04-2.93042E-14
 -1      4087 9.01613E-03-1.96361E-04-2.84360E-14
 -1      4088 9.31438E-03-1.37346E-04-2.95835E-14
 -1      4089 9.43717E-03-7.77977E-05-2.98599E-14
 -1      4090 9.18830E-03-1.24772E-04-2.88538E-14
 -1      4091 1.02913E-02 1.77403E-04-3.33222E-14
 -1      4092 2.67594E-03-8.65462E-05-2.67309E-15
 -1      4093 2.81410E-03-8.71415E-05-2.93195E-15
 -1      4094 2.95949E-03-8.76079E-05-3.21767E-15
 -1      4095 3.10478E-03-8.79170E-05-3.51787E-15
 -1      4096 2.88954E-03-4.96388E-05-3.04932E-15
 -1      4097 3.24995E-03-8.81141E-05-3.83274E-15
 -1      4098 3.39499E-03-8.82002E-05-4.16111E-15
 -1      4099 3.18024E-03-4.99771E-05-3.64579E-15
 -1      4100 3.53988E-03-8.82126E-05-4.50399E-15
 -1      4101 3.68463E-03-8.81477E-05-4.86200E-15
 -1      4102 3.47044E-03-5.00504E-05-4.29977E-15
 -1      4103 3.82922E-03-8.80356E-05-5.23451E-15
 -1      4104 3.97365E-03-8.78721E-05-5.62083E-15
 -1      4105 3.76005E-03-4.99541E-05-5.01170E-15
 -1      4106 4.11793E-03-8.76795E-05-6.02167E-15
 -1      4107 4.26205E-03-8.74526E-05-6.43787E-15
 -1      4108 4.04901E-03-4.97422E-05-5.78102E-15
 -1      4109 4.39884E-03-8.72209E-05-6.84624E-15
 -1      4110 4.53548E-03-8.69679E-05-7.26646E-15
 -1      4111 4.33014E-03-4.94646E-05-6.58749E-15
 -1      4112 4.67918E-03-8.66918E-05-7.72231E-15
 -1      4113 4.82274E-03-8.63999E-05-8.19165E-15
 -1      4114 4.61069E-03-4.91440E-05-7.44719E-15
 -1      4115 4.96616E-03-8.61025E-05-8.67545E-15
 -1      4116 5.10943E-03-8.57946E-05-9.17259E-15
 -1      4117 4.89784E-03-4.87916E-05-8.38286E-15
 -1      4118 5.25256E-03-8.54858E-05-9.68338E-15
 -1      4119 5.39554E-03-8.51716E-05-1.02076E-14
 -1      4120 5.18441E-03-4.84337E-05-9.37403E-15
 -1      4121 5.53837E-03-8.48630E-05-1.07468E-14
 -1      4122 5.68104E-03-8.45565E-05-1.12991E-14
 -1      4123 5.47038E-03-4.80935E-05-1.04209E-14
 -1      4124 5.82353E-03-8.42668E-05-1.18636E-14
 -1      4125 5.96584E-03-8.39923E-05-1.24413E-14
 -1      4126 5.75570E-03-4.78066E-05-1.15207E-14
 -1      4127 6.10795E-03-8.37548E-05-1.30332E-14
 -1      4128 6.24983E-03-8.35553E-05-1.36374E-14
 -1      4129 6.04029E-03-4.76325E-05-1.26731E-14
 -1      4130 6.38439E-03-8.34324E-05-1.42229E-14
 -1      4131 6.51870E-03-8.33769E-05-1.48193E-14
 -1      4132 6.31695E-03-4.76658E-05-1.38467E-14
 -1      4133 6.65977E-03-8.34410E-05-1.54588E-14
 -1      4134 6.80051E-03-8.36401E-05-1.61113E-14
 -1      4135 6.59264E-03-4.80471E-05-1.50676E-14
 -1      4136 6.94086E-03-8.40510E-05-1.67767E-14
 -1      4137 7.08078E-03-8.46899E-05-1.74522E-14
 -1      4138 6.87418E-03-4.90378E-05-1.63697E-14
 -1      4139 7.22022E-03-8.56709E-05-1.81407E-14
 -1      4140 7.35912E-03-8.70181E-05-1.88397E-14
 -1      4141 7.15422E-03-5.09984E-05-1.77192E-14
 -1      4142 7.49744E-03-8.88946E-05-1.95513E-14
 -1      4143 7.63508E-03-9.13332E-05-2.02739E-14
 -1      4144 7.43246E-03-5.44562E-05-1.91151E-14
 -1      4145 7.77203E-03-9.45592E-05-2.10081E-14
 -1      4146 7.90817E-03-9.86127E-05-2.17521E-14
 -1      4147 7.70861E-03-6.01415E-05-2.05569E-14
 -1      4148 8.03677E-03-1.03500E-04-2.24697E-14
 -1      4149 8.16452E-03-1.09422E-04-2.31965E-14
 -1      4150 7.97562E-03-6.87465E-05-2.20042E-14
 -1      4151 8.29821E-03-1.17131E-04-2.39712E-14
 -1      4152 8.43089E-03-1.26368E-04-2.47590E-14
 -1      4153 8.24039E-03-8.14632E-05-2.34913E-14
 -1      4154 8.56286E-03-1.37540E-04-2.55579E-14
 -1      4155 8.69384E-03-1.50595E-04-2.63674E-14
 -1      4156 8.50999E-03-1.00026E-04-2.50635E-14
 -1      4157 4.96404E-03 1.19806E-04-8.29251E-15
 -1      4158 4.82065E-03 1.20162E-04-7.82150E-15
 -1      4159 6.10633E-03 1.15632E-04-1.25577E-14
 -1      4160 5.96404E-03 1.16354E-04-1.19786E-14
 -1      4161 5.82160E-03 1.16997E-04-1.14117E-14
 -1      4162 5.67901E-03 1.17577E-04-1.08580E-14
 -1      4163 5.89247E-03 8.01359E-05-1.17807E-14
 -1      4164 6.67386E-03 1.11648E-04-1.50041E-14
 -1      4165 6.53223E-03 1.12849E-04-1.43741E-14
 -1      4166 6.95663E-03 1.08689E-04-1.63025E-14
 -1      4167 6.81532E-03 1.10271E-04-1.56468E-14
 -1      4168 6.74357E-03 7.53283E-05-1.54234E-14
 -1      4169 7.23878E-03 1.04780E-04-1.76471E-14
 -1      4170 7.09777E-03 1.06868E-04-1.69685E-14
 -1      4171 7.02567E-03 7.24012E-05-1.67374E-14
 -1      4172 7.52050E-03 9.96265E-05-1.90369E-14
 -1      4173 7.37967E-03 1.02372E-04-1.83371E-14
 -1      4174 7.30695E-03 6.83480E-05-1.80971E-14
 -1      4175 7.80220E-03 9.29124E-05-2.04720E-14
 -1      4176 7.66130E-03 9.64721E-05-1.97484E-14
 -1      4177 7.58755E-03 6.27755E-05-1.95034E-14
 -1      4178 8.08460E-03 8.43589E-05-2.19501E-14
 -1      4179 7.94323E-03 8.88566E-05-2.12056E-14
 -1      4180 7.86782E-03 5.52316E-05-2.09522E-14
 -1      4181 8.36895E-03 7.38577E-05-2.34728E-14
 -1      4182 8.22640E-03 7.93066E-05-2.27058E-14
 -1      4183 8.14848E-03 4.52751E-05-2.24449E-14
 -1      4184 8.65721E-03 6.17538E-05-2.50480E-14
 -1      4185 8.51240E-03 6.78893E-05-2.42536E-14
 -1      4186 8.43080E-03 3.26119E-05-2.39860E-14
 -1      4187 8.95227E-03 4.92782E-05-2.66662E-14
 -1      4188 8.80365E-03 5.53623E-05-2.58522E-14
 -1      4189 8.71692E-03 1.74670E-05-2.55744E-14
 -1      4190 9.33404E-03 8.46859E-06-2.88752E-14
 -1      4191 9.17873E-03 1.33205E-05-2.80320E-14
 -1      4192 9.47175E-03 5.68200E-06-2.96087E-14
 -1      4193 3.09265E-03 1.97127E-04-3.17209E-15
 -1      4194 2.94776E-03 1.96353E-04-2.89120E-15
 -1      4195 2.87294E-03 1.58143E-04-2.80048E-15
 -1      4196 3.16308E-03 1.59460E-04-3.36797E-15
 -1      4197 2.38505E-03-8.46435E-05-2.16789E-15
 -1      4198 2.53048E-03-8.57088E-05-2.41387E-15
 -1      4199 2.59854E-03-4.89289E-05-2.50868E-15
 -1      4200 5.25043E-03 1.19019E-04-9.27837E-15
 -1      4201 5.10730E-03 1.19428E-04-8.77870E-15
 -1      4202 5.03539E-03 8.22802E-05-8.60899E-15
 -1      4203 4.67713E-03 1.20490E-04-7.36383E-15
 -1      4204 4.53347E-03 1.20798E-04-6.91931E-15
 -1      4205 4.74855E-03 8.27620E-05-7.66053E-15
 -1      4206 2.09456E-03-8.16304E-05-1.71556E-15
 -1      4207 2.23972E-03-8.32951E-05-1.93519E-15
 -1      4208 2.30759E-03-4.77063E-05-2.02143E-15
 -1      4209 5.53629E-03 1.18100E-04-1.03179E-14
 -1      4210 5.39343E-03 1.18580E-04-9.79161E-15
 -1      4211 5.32166E-03 8.17092E-05-9.61195E-15
 -1      4212 6.39043E-03 1.13898E-04-1.37556E-14
 -1      4213 6.24846E-03 1.14821E-04-1.31498E-14
 -1      4214 6.17692E-03 7.89878E-05-1.29435E-14
 -1      4215 3.81304E-03 1.21857E-04-4.91237E-15
 -1      4216 3.66851E-03 1.21931E-04-4.55471E-15
 -1      4217 2.07159E-03 1.53940E-04-1.51267E-15
 -1      4218 1.96031E-03 1.39339E-04-1.37732E-15
 -1      4219 1.95765E-03 1.00026E-04-1.40763E-15
 -1      4220 8.79935E-03-1.64512E-04-2.70396E-14
 -1      4221 8.91144E-03-1.78988E-04-2.77511E-14
 -1      4222 8.96960E-03-1.53575E-04-2.78902E-14
 -1      4223 8.75284E-03-1.24413E-04-2.65356E-14
 -1      4224 1.62817E-03-9.30965E-07-1.06619E-15
 -1      4225 1.71809E-03-3.37402E-05-1.18915E-15
 -1      4226 1.73671E-03-6.64486E-05-1.22608E-15
 -1      4227 1.82693E-03-7.12234E-05-1.34232E-15
 -1      4228 3.59531E-03 8.37937E-05-4.43326E-15
 -1      4229 3.52383E-03 1.21922E-04-4.21095E-15
 -1      4230 3.37900E-03 1.21829E-04-3.88147E-15
 -1      4231 6.46064E-03 7.74442E-05-1.41586E-14
 -1      4232 5.60737E-03 8.10139E-05-1.06699E-14
 -1      4233 9.08218E-03-2.93055E-05-2.77447E-14
 -1      4234 4.46114E-03 8.31695E-05-6.76909E-15
 -1      4235 4.38967E-03 1.21076E-04-6.48974E-15
 -1      4236 4.24574E-03 1.21331E-04-6.07392E-15
 -1      4237 2.65306E-03 1.19082E-04-2.45053E-15
 -1      4238 2.50768E-03 1.17856E-04-2.20590E-15
 -1      4239 2.94372E-03 1.20748E-04-2.98116E-15
 -1      4240 2.79842E-03 1.20041E-04-2.70864E-15
 -1      4241 2.72427E-03 8.21062E-05-2.61638E-15
 -1      4242 2.25595E-03 1.74985E-04-1.75301E-15
 -1      4243 8.97834E-03-7.96157E-05-2.74802E-14
 -1      4244 1.91530E-03-7.41602E-05-1.46060E-15
 -1      4245 2.00590E-03-7.88503E-05-1.58757E-15
 -1      4246 2.07358E-03-4.46235E-05-1.66670E-15
 -1      4247 1.89649E-03-4.00914E-05-1.41976E-15
 -1      4248 4.10165E-03 1.21548E-04-5.67246E-15
 -1      4249 3.95742E-03 1.21730E-04-5.28536E-15
 -1      4250 3.88454E-03 8.37229E-05-5.15419E-15
 -1      4251 4.17315E-03 8.34982E-05-5.93267E-15
 -1      4252 2.81640E-03-1.18457E-05-2.87685E-15
 -1      4253 2.96187E-03-1.18826E-05-3.15859E-15
 -1      4254 1.73637E-03 2.66563E-05-1.17937E-15
 -1      4255 1.73594E-03-3.09033E-06-1.19586E-15
 -1      4256 1.84541E-03 5.57574E-05-1.29608E-15
 -1      4257 3.10726E-03-1.19060E-05-3.45507E-15
 -1      4258 3.25253E-03-1.19035E-05-3.76564E-15
 -1      4259 3.03468E-03 2.60575E-05-3.26758E-15
 -1      4260 3.38740E-03 1.68308E-05-4.03414E-15
 -1      4261 3.53239E-03 1.68820E-05-4.37009E-15
 -1      4262 3.67723E-03 1.69036E-05-4.72133E-15
 -1      4263 3.82190E-03 1.69303E-05-5.08727E-15
 -1      4264 3.96642E-03 1.69354E-05-5.46704E-15
 -1      4265 4.11077E-03 1.69460E-05-5.86154E-15
 -1      4266 4.25496E-03 1.69397E-05-6.26976E-15
 -1      4267 4.39180E-03 1.69381E-05-6.67207E-15
 -1      4268 4.53569E-03 1.69215E-05-7.10844E-15
 -1      4269 4.67942E-03 1.69077E-05-7.55781E-15
 -1      4270 4.82301E-03 1.68790E-05-8.02158E-15
 -1      4271 4.96645E-03 1.68492E-05-8.49966E-15
 -1      4272 5.10975E-03 1.68015E-05-8.99194E-15
 -1      4273 5.25289E-03 1.67465E-05-9.49764E-15
 -1      4274 5.39588E-03 1.66669E-05-1.00170E-14
 -1      4275 5.53872E-03 1.65704E-05-1.05499E-14
 -1      4276 5.68140E-03 1.64371E-05-1.10956E-14
 -1      4277 5.82391E-03 1.62721E-05-1.16543E-14
 -1      4278 5.96623E-03 1.60501E-05-1.22272E-14
 -1      4279 6.10837E-03 1.57738E-05-1.28129E-14
 -1      4280 6.25030E-03 1.54091E-05-1.34105E-14
 -1      4281 6.38493E-03 1.49812E-05-1.39908E-14
 -1      4282 6.52642E-03 1.44006E-05-1.46148E-14
 -1      4283 6.66766E-03 1.36810E-05-1.52497E-14
 -1      4284 6.80862E-03 1.27612E-05-1.58975E-14
 -1      4285 6.94929E-03 1.16293E-05-1.65586E-14
 -1      4286 7.08967E-03 1.02034E-05-1.72292E-14
 -1      4287 7.22971E-03 8.46230E-06-1.79125E-14
 -1      4288 7.36944E-03 6.30102E-06-1.86078E-14
 -1      4289 7.50882E-03 3.68566E-06-1.93137E-14
 -1      4290 7.64791E-03 4.89800E-07-2.00299E-14
 -1      4291 7.78665E-03-3.33762E-06-2.07575E-14
 -1      4292 7.92519E-03-7.93120E-06-2.14981E-14
 -1      4293 8.05655E-03-1.30688E-05-2.22095E-14
 -1      4294 8.19483E-03-1.94074E-05-2.29701E-14
 -1      4295 8.33302E-03-2.67882E-05-2.37424E-14
 -1      4296 8.47160E-03-3.52436E-05-2.45265E-14
 -1      4297 8.61047E-03-4.49094E-05-2.53237E-14
 -1      4298 8.75043E-03-5.55364E-05-2.61319E-14
 -1      4299 3.23403E-03 1.21612E-04-3.56716E-15
 -1      4300 3.08894E-03 1.21270E-04-3.26738E-15
 -1      4301 3.01507E-03 8.31234E-05-3.16510E-15
 -1      4302 3.30546E-03 8.36350E-05-3.77016E-15
 -1      4303 2.25281E-03 1.33904E-04-1.79086E-15
 -1      4304 2.23442E-03-1.13754E-05-1.88436E-15
 -1      4305 2.37981E-03-1.15496E-05-2.11272E-15
 -1      4306 2.44283E-03 5.27696E-05-2.16277E-15
 -1      4307 2.37132E-03 8.88960E-05-2.01526E-15
 -1      4308 8.86403E-03-6.73124E-05-2.68024E-14
 -1      4309 1.82603E-03-6.43880E-06-1.31016E-15
 -1      4310 2.61945E-03 4.89351E-05-2.46415E-15
 -1      4311 2.48383E-03 2.06639E-05-2.25834E-15
 -1      4312 2.55655E-03-1.62925E-05-2.41124E-15
 -1      4313 2.76497E-03 4.93655E-05-2.72399E-15
 -1      4314 2.14563E-03-9.62555E-06-1.75028E-15
 -1      4315 2.21839E-03 2.61329E-05-1.83336E-15
 -1      4316 2.05694E-03-7.90696E-06-1.62153E-15
 -1      4317 2.18730E-03 7.01074E-05-1.75221E-15
 -1      4318 2.70210E-03-1.64230E-05-2.66897E-15
 -1      4319 2.77491E-03 2.11093E-05-2.76949E-15
 -1      4320 3.02474E-03 5.45977E-05-3.21650E-15
 -1      4321 3.17004E-03 5.48103E-05-3.51544E-15
 -1      4322 3.31521E-03 5.49468E-05-3.82759E-15
 -1      4323 1.91433E-03-8.11156E-06-1.42630E-15
 -1      4324 1.98687E-03 2.63533E-05-1.50196E-15
 -1      4325 2.87933E-03 5.43100E-05-2.93258E-15
 -1      4326 2.09866E-03 7.08066E-05-1.62390E-15
 -1      4327 1.98783E-03 5.78230E-05-1.48055E-15
 -3
    1PSTEP                         2           1           1          
  100CL  101 1.000000000        4327                     0    1           1
 -4  STRESS      6    1
 -5  SXX         1    4    1    1
 -5  SYY         1    4    2    2
 -5  SZZ         1    4    3    3
 -5  SXY         1    4    1    2
 -5  SYZ         1    4    2    3
 -5  SZX         1    4    3    1
 -1         1-2.93167E+00-1.56929E+01-3.16605E+00-5.91446E+00-1.21736E-12-7.09932E-13
 -1         2-7.23168E-01-2.77369E+01-3.58427E+00 1.74485E-01-4.25104E-13 1.31853E-13
 -1         3 2.00082E+01 9.21309E-03-1.47495E-03 8.78816E-03-3.75023E-13-4.54209E-13
 -1         4 1.99289E+01-7.38848E-02 7.52938E-02 7.30529E-02-2.22114E-14 1.84085E-13
 -1         5 3.27676E+01 6.14259E+00 2.74211E+00 6.22393E+00-2.31135E-14 1.56174E-12
 -1         6 3.59421E+01 1.23485E+01 5.21946E+00-8.75716E+00-8.81656E-14 1.00769E-12
 -1         7 2.07216E+01 6.10559E+00-1.46182E-01-4.69660E+00-1.40721E-14 1.34788E-14
 -1         8 1.96728E+01 5.93673E+00 5.07093E-02-3.27237E+00-1.39264E-14-2.35189E-13
 -1         9 1.91377E+01 5.77239E+00 4.90185E-02-2.52660E+00-8.34229E-15-3.52254E-13
 -1        10 1.88962E+01 5.69242E+00 5.12705E-02-1.95136E+00-3.58047E-15-3.96017E-13
 -1        11 1.87737E+01 5.65135E+00 5.04311E-02-1.45611E+00-1.63584E-15-3.94278E-13
 -1        12 1.87098E+01 5.62953E+00 4.87862E-02-1.01523E+00 1.67813E-15-3.83762E-13
 -1        13 1.86761E+01 5.61803E+00 4.74155E-02-5.95491E-01 1.40816E-15-3.58917E-13
 -1        14 1.86619E+01 5.61316E+00 4.66881E-02-1.91434E-01 5.93216E-15-3.39476E-13
 -1        15 1.86624E+01 5.61331E+00 4.67277E-02 2.07862E-01 8.27447E-15-3.19046E-13
 -1        16 1.86776E+01 5.61849E+00 4.75489E-02 6.12722E-01 1.05712E-14-2.91064E-13
 -1        17 1.87125E+01 5.63024E+00 4.90670E-02 1.03437E+00 1.19479E-14-2.48787E-13
 -1        18 1.87775E+01 5.65233E+00 5.08126E-02 1.47833E+00 1.18811E-14-1.74096E-13
 -1        19 1.89012E+01 5.69391E+00 5.16974E-02 1.97934E+00 1.88729E-14-8.57153E-14
 -1        20 1.91435E+01 5.77471E+00 4.91690E-02 2.56326E+00 2.16840E-14 5.93293E-14
 -1        21 1.96672E+01 5.94962E+00 4.58603E-02 3.30816E+00 2.25167E-14 3.09690E-13
 -1        22 2.12018E+01 6.38155E+00 1.39543E-01 4.52238E+00 1.12410E-15 7.46323E-13
 -1        23 2.32702E+01-1.30578E+00-9.17736E-01-8.33574E-01-6.16833E-14 6.95055E-13
 -1        24 1.94312E+01-1.08870E-01-3.30078E-01 6.49415E-02-1.66828E-14 4.22374E-13
 -1        25 1.86997E+01-5.84230E-02-7.50972E-02 6.21555E-02-1.35061E-14 1.78262E-13
 -1        26 1.84823E+01-2.29285E-02-7.90216E-03 3.37070E-02-1.08293E-14 1.84158E-14
 -1        27 1.84868E+01-1.22508E-02 1.34790E-03 2.29889E-02 1.05946E-14-5.68191E-14
 -1        28 1.85973E+01-6.33306E-03 1.77333E-03 1.68572E-02 9.04225E-15-5.28397E-14
 -1        29 1.87486E+01-3.29209E-03 1.72905E-03 1.24175E-02-2.35954E-14-9.76467E-14
 -1        30 1.89226E+01-1.37282E-03 1.88020E-03 9.48859E-03 1.76094E-14-1.35676E-13
 -1        31 1.90949E+01-2.12792E-04 2.05960E-03 7.19672E-03-7.09987E-15-1.77067E-13
 -1        32 1.92547E+01 4.51708E-04 2.10843E-03 5.43434E-03 1.20453E-15-3.22052E-13
 -1        33 1.93968E+01 8.02394E-04 2.03222E-03 4.05267E-03-1.17851E-15-3.34230E-13
 -1        34 1.95192E+01 9.51900E-04 1.86823E-03 2.96654E-03-2.98262E-14-3.82686E-13
 -1        35 1.96217E+01 9.08389E-04 1.61617E-03 2.05947E-03 2.53701E-14-3.63584E-13
 -1        36 1.97026E+01 9.42174E-04 1.43994E-03 1.47495E-03-2.99975E-14-3.81722E-13
 -1        37 1.97719E+01 7.64726E-04 1.16121E-03 9.41176E-04 6.72675E-15-5.12987E-13
 -1        38 1.98278E+01 5.98698E-04 9.03834E-04 5.29125E-04-2.05374E-15-5.93058E-13
 -1        39 1.98732E+01 3.99768E-04 6.45062E-04 2.12373E-04-1.29712E-15-6.39881E-13
 -1        40 1.99113E+01 1.69965E-04 3.78162E-04-3.09503E-05 3.63669E-14-5.61707E-13
 -1        41 1.99456E+01-8.27117E-05 8.96416E-05-2.03923E-04 4.60873E-14-3.18322E-13
 -1        42 1.99782E+01-4.14396E-04-2.19200E-04-3.48423E-04-5.95666E-14-2.71689E-13
 -1        43 2.00170E+01-8.08336E-04-6.16250E-04-4.35768E-04-2.67904E-14-4.59945E-13
 -1        44 2.00659E+01-1.33184E-03-1.13780E-03-4.69938E-04-1.76154E-14-5.12857E-13
 -1        45 2.01324E+01-2.03644E-03-1.85957E-03-4.23780E-04-1.94812E-14-4.17873E-13
 -1        46 2.02264E+01-3.00917E-03-2.90386E-03-2.42076E-04-2.73665E-14-2.86912E-13
 -1        47 2.03624E+01-4.42608E-03-4.48106E-03 1.62777E-04-4.83495E-14-4.63895E-13
 -1        48 2.05613E+01-5.91781E-03-6.78334E-03 1.51969E-03 1.30894E-14-5.94493E-13
 -1        49 2.08361E+01-9.04000E-03-1.04228E-02 2.54617E-03-3.96907E-14-7.20449E-13
 -1        50 2.12582E+01-1.25349E-02-1.60839E-02 5.86664E-03 6.60214E-15-6.76784E-13
 -1        51 2.18818E+01-1.74120E-02-2.49340E-02 1.18904E-02 1.15664E-14-6.71476E-13
 -1        52 2.28000E+01-2.32900E-02-3.80760E-02 2.30039E-02 6.59854E-14-4.77972E-13
 -1        53 2.41393E+01-2.95235E-02-5.54546E-02 4.25983E-02 7.64167E-14-4.10085E-13
 -1        54 2.60456E+01-2.99148E-02-7.04778E-02 7.86390E-02-5.54801E-14-1.69684E-13
 -1        55 2.85000E+01-2.21532E-02-6.57388E-02 1.20795E-01 2.65625E-14-1.67949E-13
 -1        56 3.16652E+01 9.57587E-03 4.09155E-03 1.72178E-01-6.81188E-14-1.04083E-15
 -1        57 3.48118E+01 7.07248E-02 1.96016E-01 1.64821E-01-2.86646E-14 7.31706E-14
 -1        58 3.62339E+01 1.32410E-01 4.54131E-01-4.02628E-02 8.76469E-15 2.40585E-13
 -1        59 3.33301E+01 1.11350E-01 4.15396E-01-5.62032E-01-4.85931E-14 3.23880E-13
 -1        60 2.58167E+01 2.46427E-02-2.85928E-01-9.81775E-01 5.40475E-14 4.85140E-13
 -1        61 1.87834E+01-1.02331E-01-1.12117E+00-6.59509E-01 8.33708E-14 1.01311E-12
 -1        62 1.59901E+01-2.46265E-01-1.52506E+00 7.27529E-02-8.18720E-14 1.16419E-12
 -1        63 2.01466E+01-1.33858E-01-9.48513E-01 8.85046E-01-1.75915E-13 9.02056E-15
 -1        64 2.86419E+01 3.65055E-02 7.70363E-02 8.52783E-01 3.42669E-14-3.76671E-13
 -1        65 3.44434E+01 1.31487E-01 5.01341E-01 2.94571E-01-3.08174E-14-4.65433E-13
 -1        66 3.49527E+01 1.07884E-01 3.42142E-01-9.11204E-02-2.14412E-14-5.18181E-13
 -1        67 3.24473E+01 4.66593E-02 1.12508E-01-1.84586E-01 9.10927E-14-7.00134E-13
 -1        68 2.88898E+01-4.87796E-03-2.55469E-02-1.65897E-01 7.00724E-14 1.37307E-13
 -1        69 2.55793E+01-2.91245E-02-6.82236E-02-1.19939E-01-3.90805E-14 6.09297E-13
 -1        70 2.29277E+01-3.90672E-02-7.58381E-02-8.30838E-02 7.17829E-15 9.30853E-14
 -1        71 2.10354E+01-3.93370E-02-8.12173E-02-4.71917E-02 5.54222E-14 2.72083E-13
 -1        72 2.00412E+01-3.13281E-03-4.95411E-02 5.12445E-03 7.70107E-14 6.18600E-13
 -1        73 2.10429E+01-4.05113E-01-9.80559E-01-3.11663E-01 1.00198E-14 1.53567E-12
 -1        74 1.93326E+01-6.60289E-02-2.90938E-01-5.40660E-02-1.92511E-15 1.31894E-12
 -1        75 1.86893E+01-2.04250E-02-6.39883E-02-2.02896E-02 1.43449E-14 1.14466E-12
 -1        76 1.84874E+01-9.87084E-03-8.88528E-03-1.54615E-02 7.72548E-16 1.03869E-12
 -1        77 1.84993E+01-5.17416E-03 7.91603E-04-1.23570E-02-6.84262E-15 9.90574E-13
 -1        78 1.86132E+01-2.62230E-03 1.67664E-03-1.01128E-02 1.30918E-14 9.28647E-13
 -1        79 1.87726E+01-1.14738E-03 1.83682E-03-8.37342E-03-1.74890E-14 9.39090E-13
 -1        80 1.89464E+01-2.82636E-04 2.05694E-03-6.94344E-03 1.60881E-14 9.13776E-13
 -1        81 1.91169E+01 2.16413E-04 2.20631E-03-5.71237E-03-8.16941E-15 8.24161E-13
 -1        82 1.92744E+01 4.85218E-04 2.21660E-03-4.64080E-03 2.67963E-14 6.98217E-13
 -1        83 1.94140E+01 6.05666E-04 2.10464E-03-3.71023E-03 1.23807E-14 6.09466E-13
 -1        84 1.95340E+01 6.29729E-04 1.90883E-03-2.90843E-03 1.63975E-15 6.18031E-13
 -1        85 1.96347E+01 5.91442E-04 1.66341E-03-2.22447E-03 6.93148E-15 5.07980E-13
 -1        86 1.97177E+01 5.13273E-04 1.39290E-03-1.64710E-03 3.14756E-14 4.50039E-13
 -1        87 1.97854E+01 4.09886E-04 1.11255E-03-1.16473E-03-3.29712E-15 3.47379E-13
 -1        88 1.98405E+01 2.90662E-04 8.30228E-04-7.66500E-04-3.95769E-14 3.25237E-13
 -1        89 1.98861E+01 1.61682E-04 5.48471E-04-4.43617E-04-1.03740E-14 4.42838E-13
 -1        90 1.99254E+01 2.75186E-05 2.66716E-04-1.90865E-04 3.93795E-14 2.98447E-13
 -1        91 1.99617E+01-1.06918E-04-1.61821E-05-8.21772E-06-1.84229E-14 2.76001E-13
 -1        92 1.99983E+01-2.34318E-04-2.98819E-04 9.75730E-05-1.54548E-14 4.31132E-13
 -1        93 2.00384E+01-3.42601E-04-5.73130E-04 1.11610E-04 7.46505E-15 6.47399E-13
 -1        94 2.00853E+01-4.12264E-04-8.18980E-04 1.02033E-05 3.60292E-14 4.06032E-13
 -1        95 2.01415E+01-4.13734E-04-9.97266E-04-2.38138E-04-6.44898E-15-1.27861E-13
 -1        96 2.02088E+01-3.05459E-04-1.04192E-03-6.68530E-04 4.46940E-14-1.43899E-13
 -1        97 2.02871E+01-3.41736E-05-8.52327E-04-1.31000E-03-9.46618E-15 2.96125E-13
 -1        98 2.03733E+01 4.60232E-04-2.89867E-04-2.16717E-03-2.76101E-14 5.64331E-13
 -1        99 2.04601E+01 1.23180E-03 8.14293E-04-3.19038E-03-9.52838E-16 8.63555E-13
 -1       100 2.05339E+01 2.30371E-03 2.62868E-03-4.23343E-03 1.37868E-14 4.68768E-13
 -1       101 2.05732E+01 3.62970E-03 5.25377E-03-5.00482E-03 2.94233E-15 3.92324E-13
 -1       102 2.05484E+01 5.04565E-03 8.60598E-03-5.03163E-03-5.30169E-15 4.25026E-13
 -1       103 2.04226E+01 6.22832E-03 1.22619E-02-3.67530E-03 2.94239E-14 2.68653E-13
 -1       104 2.01571E+01 6.69632E-03 1.53148E-02-2.58375E-04-6.67870E-14 5.16680E-13
 -1       105 1.97210E+01 5.90266E-03 1.63665E-02 5.64097E-03 5.74630E-14 5.30433E-13
 -1       106 1.91057E+01 3.45192E-03 1.38264E-02 1.37396E-02 2.80234E-14 1.04954E-13
 -1       107 1.83417E+01-6.00493E-04 6.62809E-03 2.26211E-02-4.83812E-15-4.83173E-14
 -1       108 1.75081E+01-5.52730E-03-4.81945E-03 2.96979E-02-5.36205E-14-1.65310E-13
 -1       109 1.67287E+01-1.00124E-02-1.80318E-02 3.19415E-02-8.27735E-14-2.86750E-14
 -1       110 1.61451E+01-1.26219E-02-2.89155E-02 2.73134E-02 7.70048E-14-1.47001E-13
 -1       111 1.58743E+01-1.24640E-02-3.34695E-02 1.61322E-02-3.22371E-14-6.77819E-13
 -1       112 1.59670E+01-9.65263E-03-2.98631E-02 1.37343E-03 6.73998E-14-6.37342E-13
 -1       113 1.63878E+01-5.24074E-03-1.95275E-02-1.25403E-02-4.69386E-14-7.90073E-13
 -1       114 1.70291E+01-6.81697E-04-6.40841E-03-2.18368E-02-1.01817E-14-5.82272E-13
 -1       115 1.77523E+01 2.80095E-03 5.07485E-03-2.49572E-02-7.62825E-14-2.82137E-13
 -1       116 1.84333E+01 4.61857E-03 1.20128E-02-2.27456E-02 6.37109E-14-3.53820E-13
 -1       117 1.89935E+01 4.84951E-03 1.37554E-02-1.75201E-02 2.31134E-14-4.82731E-13
 -1       118 1.94080E+01 4.14360E-03 1.16527E-02-1.19399E-02 5.40943E-14-9.51517E-13
 -1       119 1.96940E+01 3.48406E-03 8.56883E-03-8.23507E-03 2.84293E-14-9.52982E-13
 -1       120 1.98834E+01 3.48542E-03 7.46672E-03-6.75160E-03-1.29012E-13-6.98173E-13
 -1       121 1.99868E+01-1.04186E-03 4.94354E-03-3.94424E-03 1.61279E-13-3.51972E-13
 -1       122 2.00000E+01-1.93548E-02 4.42464E-03-4.71691E-03-2.07165E-14 1.40553E-13
 -1       123 1.99991E+01-1.27139E-01 2.84937E-03-1.13547E-02 1.97615E-12 3.45114E-14
 -1       124 1.99938E+01-2.57993E-01-6.89052E-03-1.25641E-02 2.32664E-12-1.58381E-13
 -1       125 1.99883E+01-3.01101E-01-1.71095E-02-8.22359E-03 1.83658E-12 1.01773E-14
 -1       126 1.99845E+01-1.52645E-01-2.52492E-02 1.55567E-03 1.64753E-12-1.88879E-13
 -1       127 1.99830E+01 2.58358E-01-2.92391E-02 1.43104E-02 9.80230E-13-1.24306E-13
 -1       128 1.99865E+01 9.78444E-01-2.58027E-02 2.97596E-02 3.06146E-13 3.42381E-14
 -1       129 1.99951E+01 1.95866E+00-1.26251E-02 4.28429E-02 1.72796E-13 1.34121E-13
 -1       130 2.00084E+01 3.05359E+00 1.01491E-02 4.78075E-02-2.17824E-13-4.62472E-15
 -1       131 2.00233E+01 4.02349E+00 3.77647E-02 3.91507E-02 4.89365E-15-1.50565E-14
 -1       132 2.00338E+01 4.58456E+00 6.05108E-02 1.38694E-02 3.52606E-13-1.50783E-13
 -1       133 2.00374E+01 4.51568E+00 6.84772E-02-2.02928E-02-2.51262E-13 9.76170E-14
 -1       134 2.00277E+01 3.74447E+00 5.19345E-02-5.67338E-02-2.91985E-13-2.71935E-13
 -1       135 2.00051E+01 2.42994E+00 9.02628E-03-8.10931E-02-2.85529E-13 1.75809E-13
 -1       136 1.99833E+01 9.91164E-01-4.54184E-02-6.54446E-02-5.62720E-13-3.28849E-13
 -1       137 1.99749E+01 1.04606E-01-2.75417E-02-2.14827E-03-9.94407E-13 2.75825E-13
 -1       138-1.31660E+00-2.17276E+01-3.16556E+00-3.88795E+00-4.26881E-14 1.24907E-13
 -1       139-1.53866E+00-9.43028E+00-2.29754E+00-3.20652E+00 1.88072E-13 9.08718E-14
 -1       140 2.65716E+00 3.47208E+00-1.07529E+00 3.32214E+00 6.84341E-13 6.14009E-13
 -1       141 1.43945E+01 1.13112E+01 3.35921E-01 1.26622E+01 1.03656E-12 1.04328E-12
 -1       142 3.29468E+01 1.17050E+01 1.72839E+00 1.91626E+01 7.47957E-13 1.22341E-12
 -1       143 5.32735E+01 6.84424E+00 2.84289E+00 1.80587E+01 2.44388E-13 6.67300E-13
 -1       144 6.69624E+01 1.92818E+00 3.47673E+00 8.59334E+00 1.31639E-13 6.08846E-13
 -1       145 6.88979E+01 1.16253E+00 3.54493E+00-4.91876E+00-4.50473E-14 1.16837E-13
 -1       146 5.81701E+01 5.21359E+00 3.04194E+00-1.62328E+01 2.40447E-13-9.38638E-13
 -1       147 3.89273E+01 1.08122E+01 2.03302E+00-1.98927E+01 8.05883E-13-1.38917E-12
 -1       148 1.79410E+01 1.19481E+01 6.21305E-01-1.44504E+01 1.50108E-12-1.79495E-12
 -1       149 4.63694E+00 6.09755E+00-7.48919E-01-5.47411E+00 1.39871E-12-9.54792E-13
 -1       150-9.34672E-01-6.37382E+00-2.02475E+00 1.87850E+00 1.15802E-12-5.15643E-13
 -1       151-1.40049E+00-2.00378E+01-3.00126E+00 3.76648E+00 9.44134E-13-1.93338E-13
 -1       152-6.63107E-01-2.70223E+01-3.49106E+00-2.17953E-02 2.01034E-13-1.35916E-13
 -1       153-1.66090E+00-2.51409E+01-3.54849E+00-4.79719E+00-2.60847E-13 4.57620E-14
 -1       154-7.61015E-01-3.23978E+00-2.32555E+00-1.19744E+00-1.38245E-12-1.05599E-12
 -1       155 9.86766E+00 6.70712E+00-9.09556E-01 8.35485E+00-1.51934E-12-1.47349E-12
 -1       156 3.03330E+01 1.00034E+01 1.10634E+00 1.71140E+01-1.05682E-12-2.06068E-12
 -1       157 5.71576E+01 6.92738E+00 3.49703E+00 1.86351E+01-8.90316E-13-2.24343E-12
 -1       158 7.74353E+01 2.05892E+00 5.25255E+00 8.75013E+00-2.28322E-13-2.23555E-12
 -1       159 7.89240E+01 1.81520E+00 5.43331E+00-7.25880E+00-6.70818E-14-9.88154E-13
 -1       160 6.07849E+01 6.51656E+00 3.90251E+00-1.83619E+01-1.73861E-13 5.28466E-13
 -1       161 3.49065E+01 1.04977E+01 1.58106E+00-1.88059E+01-4.94660E-13 1.12166E-12
 -1       162 1.33661E+01 8.50502E+00-4.99665E-01-1.07904E+01-4.14224E-13 7.01217E-13
 -1       163 2.16590E-01-1.32274E+00-2.11510E+00-1.36714E-01-1.47105E-13 1.33171E-13
 -1       164-2.80222E+00-1.42899E+01-3.06345E+00 5.57608E+00-8.73746E-14-2.69784E-14
 -1       165-1.67477E+00-2.49645E+01-3.55834E+00 4.80570E+00-6.03712E-13 1.90039E-13
 -1       166 2.10119E+01 3.70182E+00-5.20854E-02-3.62328E+00-1.83478E-13-9.63118E-14
 -1       167 1.99908E+01 4.20983E+00-4.55570E-02-2.80931E+00-1.35369E-13-2.31440E-13
 -1       168 1.95108E+01 4.47647E+00-3.13045E-02-2.19648E+00-8.25789E-14-3.01550E-13
 -1       169 1.92679E+01 4.61506E+00-2.34852E-02-1.67494E+00-4.14070E-14-3.32269E-13
 -1       170 1.91370E+01 4.69682E+00-1.95429E-02-1.21923E+00-5.55860E-15-3.25786E-13
 -1       171 1.90629E+01 4.74786E+00-1.74427E-02-7.92226E-01 2.43417E-14-3.10307E-13
 -1       172 1.90256E+01 4.77576E+00-1.64248E-02-3.87088E-01 6.47016E-14-2.86627E-13
 -1       173 1.90146E+01 4.78431E+00-1.61314E-02 7.98865E-03 9.46096E-14-2.69441E-13
 -1       174 1.90272E+01 4.77452E+00-1.64635E-02 4.03390E-01 1.19725E-13-2.54062E-13
 -1       175 1.90664E+01 4.74498E+00-1.75167E-02 8.09555E-01 1.35074E-13-2.21790E-13
 -1       176 1.91411E+01 4.69257E+00-1.96833E-02 1.23099E+00 1.60449E-13-1.59195E-13
 -1       177 1.92769E+01 4.60554E+00-2.39762E-02 1.69756E+00 2.08587E-13-9.31338E-14
 -1       178 1.95246E+01 4.45960E+00-3.25719E-02 2.22519E+00 2.19121E-13 5.62571E-15
 -1       179 2.00129E+01 4.18419E+00-4.71229E-02 2.84725E+00 2.14549E-13 1.85907E-13
 -1       180 2.11355E+01 3.46345E+00-6.00243E-02 3.53561E+00 1.67479E-13 4.64531E-13
 -1       181 2.24201E+01 1.14343E+00-3.36527E-01 3.01433E+00 9.66146E-14 8.04690E-13
 -1       182 2.20360E+01 9.23652E-01-6.75566E-04-2.03492E+00-1.67515E-13 9.61835E-14
 -1       183 2.04970E+01 2.08730E-01-1.11279E-02-8.01627E-01-1.49918E-13 2.25718E-14
 -1       184 1.96983E+01 1.05612E-01 1.32024E-02-3.00934E-01-8.79028E-14-2.76818E-14
 -1       185 1.93447E+01 4.89641E-02 1.01623E-02-7.52515E-02-4.80722E-14-6.29692E-14
 -1       186 1.92077E+01 2.34409E-02 5.35665E-03 3.60196E-02 9.01590E-15-8.26672E-14
 -1       187 1.91891E+01 1.04328E-02 2.54034E-03 8.88034E-02-1.73002E-14-7.10476E-14
 -1       188 1.92339E+01 2.71121E-03 1.22023E-03 1.13484E-01-2.73726E-14-5.91921E-14
 -1       189 1.93115E+01-1.77362E-03 5.36765E-04 1.19870E-01-2.57301E-14-9.82159E-14
 -1       190 1.94023E+01-4.22654E-03 1.82177E-04 1.15563E-01-4.28389E-14-4.59195E-14
 -1       191 1.94947E+01-5.39820E-03-1.45237E-05 1.05448E-01-1.21561E-14-6.57089E-15
 -1       192 1.95819E+01-5.74238E-03-1.20883E-04 9.26077E-02-3.34467E-14-1.79701E-14
 -1       193 1.96603E+01-5.54970E-03-1.75353E-04 7.90255E-02-3.11319E-14-6.76743E-14
 -1       194 1.97256E+01-5.07030E-03-1.82193E-04 6.66083E-02-4.92452E-14-1.56056E-13
 -1       195 1.97847E+01-4.37183E-03-1.75721E-04 5.48814E-02-3.74399E-14-1.10585E-13
 -1       196 1.98345E+01-3.54009E-03-1.46789E-04 4.49690E-02-1.45592E-14-1.35761E-13
 -1       197 1.98769E+01-2.62436E-03-1.04196E-04 3.72358E-02-3.92125E-14-1.89078E-13
 -1       198 1.99137E+01-1.62964E-03-4.99792E-05 3.19504E-02 2.80266E-14-2.29860E-13
 -1       199 1.99475E+01-5.17852E-04 1.38503E-05 2.94093E-02 1.27306E-13-2.31042E-13
 -1       200 1.99795E+01 6.70025E-04 9.89511E-05 2.98631E-02 9.09233E-15-2.12281E-13
 -1       201 2.00161E+01 2.18553E-03 1.98681E-04 3.39218E-02-1.13085E-13-1.44555E-13
 -1       202 2.00601E+01 4.11460E-03 3.34278E-04 4.25629E-02-3.64436E-14-1.99863E-14
 -1       203 2.01166E+01 6.68918E-03 5.16003E-04 5.71603E-02 5.85233E-14-2.02988E-14
 -1       204 2.01927E+01 1.02590E-02 7.64805E-04 7.98312E-02 1.01674E-14-1.15146E-13
 -1       205 2.02978E+01 1.53553E-02 1.11241E-03 1.13771E-01-3.32896E-14-1.50695E-13
 -1       206 2.04448E+01 2.28270E-02 1.56312E-03 1.64012E-01-1.03444E-13-1.47484E-13
 -1       207 2.06395E+01 3.29635E-02 2.19819E-03 2.33064E-01-1.48785E-13-2.16360E-13
 -1       208 2.09253E+01 4.86634E-02 2.98559E-03 3.37674E-01 7.63890E-14-3.37836E-13
 -1       209 2.13270E+01 7.13344E-02 3.86643E-03 4.89926E-01 3.94392E-14-2.32916E-13
 -1       210 2.18877E+01 1.03014E-01 4.56197E-03 7.07911E-01 1.95606E-13-1.04508E-13
 -1       211 2.26604E+01 1.43811E-01 4.45761E-03 1.01142E+00 1.15742E-13-1.36474E-14
 -1       212 2.37011E+01 1.86097E-01 2.45194E-03 1.41161E+00 1.33946E-13 3.78109E-14
 -1       213 2.49796E+01 2.04388E-01-1.67163E-03 1.85601E+00 1.72015E-14 1.20006E-13
 -1       214 2.66294E+01 1.35298E-01-5.08604E-03 2.26008E+00-1.39598E-14 4.92306E-14
 -1       215 2.84863E+01-1.54541E-01-2.22852E-03 2.26930E+00 7.65690E-14 1.99717E-13
 -1       216 3.02920E+01-7.97543E-01 1.33438E-02 1.26757E+00 1.83107E-13 3.19758E-13
 -1       217 3.15539E+01-1.54898E+00 8.50812E-03-1.27054E+00-4.94674E-14 2.33232E-13
 -1       218 3.15809E+01-1.25709E+00-7.55092E-02-4.25732E+00 1.17097E-13 2.40039E-13
 -1       219 3.05814E+01 4.81348E-01-1.92796E-01-4.99388E+00 3.24851E-13 3.95494E-13
 -1       220 2.93054E+01 2.41123E+00-2.96214E-01-2.61578E+00 4.63934E-14 3.12129E-14
 -1       221 2.92884E+01 2.41677E+00-2.85232E-01 2.39489E+00-4.94493E-13 3.77245E-15
 -1       222 3.04935E+01-4.57589E-02-1.83692E-01 4.91516E+00-3.99909E-13-1.43201E-13
 -1       223 3.12643E+01-1.60363E+00-2.69273E-02 2.94537E+00-1.72337E-13-1.38995E-13
 -1       224 3.04915E+01-1.25356E+00 1.53707E-02-1.77937E-01-2.44769E-14-5.16843E-13
 -1       225 2.88691E+01-5.18574E-01 6.75004E-03-1.98817E+00-2.41404E-14-3.05089E-13
 -1       226 2.68242E+01-2.69670E-02-4.41086E-03-2.54989E+00 4.05934E-13-5.70637E-14
 -1       227 2.48282E+01 1.65876E-01-2.69231E-03-2.36900E+00 2.56090E-13-5.03295E-14
 -1       228 2.30957E+01 2.11041E-01 1.60433E-03-1.91767E+00-1.03176E-13 1.28530E-13
 -1       229 2.17243E+01 2.25923E-01 3.40158E-03-1.39044E+00 6.65423E-14 4.44556E-13
 -1       230 2.07078E+01 2.93847E-01 1.74467E-03-8.04352E-01 2.20517E-13 2.46908E-13
 -1       231 2.09652E+01 2.78200E-01-5.07286E-02 1.16485E+00 1.06762E-13 7.21794E-13
 -1       232 1.98698E+01 1.28418E-01 8.90059E-03 4.44385E-01 1.00134E-13 6.18888E-13
 -1       233 1.93636E+01 5.81986E-02 1.29007E-02 1.50004E-01 5.16817E-14 5.42902E-13
 -1       234 1.91546E+01 2.76294E-02 7.57917E-03 1.03843E-02 3.26850E-14 5.02375E-13
 -1       235 1.91054E+01 1.30768E-02 3.77116E-03-5.86824E-02 3.63335E-14 4.55817E-13
 -1       236 1.91416E+01 5.14549E-03 1.87150E-03-9.11461E-02-2.27531E-15 4.36042E-13
 -1       237 1.92212E+01 6.09515E-04 9.94940E-04-1.02994E-01 4.81316E-14 3.81764E-13
 -1       238 1.93195E+01-1.97083E-03 5.42709E-04-1.02891E-01 5.71674E-14 3.24658E-13
 -1       239 1.94217E+01-3.33437E-03 2.81072E-04-9.60661E-02 6.31646E-14 2.70750E-13
 -1       240 1.95195E+01-3.91935E-03 1.21305E-04-8.58044E-02 3.39798E-14 3.29485E-13
 -1       241 1.96084E+01-4.00176E-03 2.45215E-05-7.42212E-02 2.72364E-14 2.86041E-13
 -1       242 1.96864E+01-3.76362E-03-3.04122E-05-6.26813E-02 8.46051E-14 2.19567E-13
 -1       243 1.97532E+01-3.32648E-03-5.68696E-05-5.20528E-02 7.53115E-14 1.46915E-13
 -1       244 1.98097E+01-2.76977E-03-6.39527E-05-4.28743E-02 8.35246E-15 1.24007E-13
 -1       245 1.98573E+01-2.14282E-03-5.81046E-05-3.54714E-02-3.71131E-14 2.32630E-13
 -1       246 1.98980E+01-1.47408E-03-4.40788E-05-3.00391E-02 2.11197E-14 1.98975E-13
 -1       247 1.99341E+01-7.79062E-04-2.56405E-05-2.66949E-02 4.45887E-14 1.83790E-13
 -1       248 1.99679E+01-6.82219E-05-6.13822E-06-2.55070E-02-2.16017E-15 2.34261E-13
 -1       249 2.00019E+01 6.44389E-04 1.10077E-05-2.64966E-02-1.01618E-13 2.27549E-13
 -1       250 2.00386E+01 1.33069E-03 2.18989E-05-2.96098E-02-4.92304E-14 2.19696E-13
 -1       251 2.00802E+01 1.93573E-03 2.19000E-05-3.46540E-02 1.45164E-13 1.78876E-13
 -1       252 2.01285E+01 2.36235E-03 5.66298E-06-4.11925E-02 2.27882E-13 1.00873E-13
 -1       253 2.01844E+01 2.45419E-03-3.23317E-05-4.83915E-02-2.45070E-16-1.77670E-14
 -1       254 2.02476E+01 1.98084E-03-9.64155E-05-5.48228E-02-2.10539E-13-8.75304E-16
 -1       255 2.03154E+01 6.32627E-04-1.87269E-04-5.82425E-02-2.36370E-13 2.42011E-13
 -1       256 2.03819E+01-1.96047E-03-2.98345E-04-5.53993E-02-7.54718E-14 3.55933E-13
 -1       257 2.04369E+01-6.16360E-03-4.11915E-04-4.19803E-02 1.73142E-13 3.72143E-13
 -1       258 2.04651E+01-1.21974E-02-4.96770E-04-1.28727E-02-3.08738E-14 3.26763E-13
 -1       259 2.04461E+01-1.99018E-02-5.11259E-04 3.70093E-02-1.83771E-14 3.75917E-13
 -1       260 2.03553E+01-2.84142E-02-4.16102E-04 1.11078E-01-7.13730E-15 4.26666E-13
 -1       261 2.01674E+01-3.58529E-02-1.98106E-04 2.08515E-01-1.35728E-13 5.26792E-13
 -1       262 1.98634E+01-3.92302E-02 1.00138E-04 3.21163E-01 1.97209E-13 3.21375E-13
 -1       263 1.94390E+01-3.49529E-02 3.67457E-04 4.31102E-01 1.20799E-13 3.46244E-13
 -1       264 1.89149E+01-2.02126E-02 4.62425E-04 5.11064E-01-1.08262E-14 3.88864E-13
 -1       265 1.83430E+01 4.90924E-03 2.98263E-04 5.30036E-01 1.50929E-14 3.17535E-13
 -1       266 1.78035E+01 3.57170E-02-5.85014E-05 4.64530E-01 3.61438E-14-1.49188E-14
 -1       267 1.73894E+01 6.33108E-02-3.73425E-04 3.11775E-01 9.29846E-14-1.28345E-13
 -1       268 1.71793E+01 7.79691E-02-3.86178E-04 9.70179E-02 2.42514E-13-1.09289E-13
 -1       269 1.72110E+01 7.40045E-02 4.29826E-06-1.31656E-01 8.41818E-15-2.63853E-13
 -1       270 1.74668E+01 5.30900E-02 6.32985E-04-3.20769E-01-5.30812E-14-9.10151E-14
 -1       271 1.78808E+01 2.34415E-02 1.16369E-03-4.32467E-01-9.69432E-14-2.02074E-13
 -1       272 1.83633E+01-4.68276E-03 1.30982E-03-4.57046E-01-3.99282E-13-4.65721E-14
 -1       273 1.88307E+01-2.37116E-02 1.01394E-03-4.11400E-01 2.24913E-13 1.57765E-13
 -1       274 1.92261E+01-3.10738E-02 4.08080E-04-3.27090E-01 1.70171E-13-1.06953E-13
 -1       275 1.95261E+01-2.86055E-02-2.41216E-04-2.36064E-01 1.31084E-13-3.97149E-14
 -1       276 1.97351E+01-2.12771E-02-5.66237E-04-1.60198E-01-9.03461E-14 2.83286E-13
 -1       277 1.98711E+01-1.66013E-02-4.00285E-04-1.04005E-01-1.16286E-13 4.99486E-13
 -1       278 1.99566E+01-1.97880E-02 5.27648E-04-5.39878E-02 1.03427E-15 4.31111E-13
 -1       279 1.99795E+01-6.85661E-02 6.59104E-04-8.25592E-02 3.91117E-13 1.14398E-12
 -1       280 2.00106E+01-1.30635E-01 1.51960E-03-8.62324E-02 5.58104E-13 1.73426E-13
 -1       281 2.00435E+01-1.52665E-01 1.88927E-03-1.51577E-02 5.99409E-13-3.74535E-13
 -1       282 2.00729E+01-7.57697E-02 2.36911E-03 1.30917E-01 5.93134E-13-6.20576E-14
 -1       283 2.00916E+01 1.47312E-01 2.35248E-03 3.31621E-01 4.55671E-13-5.55022E-13
 -1       284 2.00917E+01 5.55311E-01 1.62995E-03 5.57624E-01 4.01156E-13-4.71616E-13
 -1       285 2.00635E+01 1.13914E+00 1.95223E-04 7.48400E-01 3.08715E-13-1.78820E-13
 -1       286 2.00032E+01 1.83707E+00-1.63261E-03 8.29824E-01 1.26469E-13-8.71876E-14
 -1       287 1.99187E+01 2.52823E+00-3.36272E-03 7.33174E-01-6.06368E-14-1.68349E-13
 -1       288 1.98335E+01 3.04996E+00-4.43403E-03 4.27874E-01 4.65845E-14 3.64484E-13
 -1       289 1.97819E+01 3.24447E+00-4.53974E-03-3.67077E-02-7.03510E-14-3.65458E-13
 -1       290 1.97932E+01 3.02822E+00-3.15019E-03-5.57800E-01 1.30400E-13-2.83007E-14
 -1       291 1.98792E+01 2.42034E+00-2.00858E-03-9.58932E-01-1.12503E-13-2.27257E-13
 -1       292 2.00337E+01 1.57482E+00 1.05348E-03-1.06434E+00-3.28005E-13-1.02657E-13
 -1       293-9.51775E-01-1.22468E+01-1.02729E+00 1.92825E+00-1.12049E-13 2.80553E-13
 -1       294 2.62490E+00-9.54280E+00-8.37920E-01 3.90673E+00 4.25493E-14-1.90403E-14
 -1       295 9.21150E+00-5.39320E+00-5.12710E-01 6.06011E+00 2.60458E-13 9.07718E-13
 -1       296 1.82853E+01-1.03712E+00-1.19858E-01 7.83835E+00 4.42063E-13 6.07125E-13
 -1       297 2.86548E+01 2.77943E+00 3.08499E-01 8.61851E+00 5.29687E-13 5.49449E-13
 -1       298 3.86873E+01 5.08439E+00 6.42543E-01 7.10534E+00 5.27228E-13 1.33171E-13
 -1       299 4.63596E+01 6.66108E+00 9.52119E-01 4.72654E+00 1.40832E-13-3.89688E-14
 -1       300 4.87202E+01 7.36114E+00 9.75000E-01 5.35424E-01 2.22850E-13-5.62432E-14
 -1       301 4.78515E+01 6.87230E+00 9.95129E-01-3.73403E+00 4.65322E-13-3.08087E-14
 -1       302 4.13572E+01 5.92766E+00 7.61483E-01-7.02605E+00 5.91709E-13-5.00266E-13
 -1       303 3.16805E+01 2.22811E+00 2.61767E-01-7.00524E+00 7.48665E-13-2.82552E-13
 -1       304 2.02772E+01 2.57899E-01-1.48045E-02-8.32985E+00 6.16035E-13-1.07395E-12
 -1       305 1.07772E+01-4.00262E+00-4.20393E-01-6.58446E+00 4.22717E-13-5.30451E-13
 -1       306 4.09083E+00-7.82453E+00-5.70570E-01-5.25461E+00-2.42861E-14-2.94653E-13
 -1       307-7.54487E-01-1.15867E+01-9.56304E-01-2.33350E+00-1.73819E-13-2.74655E-13
 -1       308-1.65270E+00-1.25343E+01-1.07929E+00-4.65700E-01-2.96756E-13-3.94906E-13
 -1       309 1.00687E+00-1.07815E+01-9.51955E-01 1.77612E+00-5.92026E-13-7.40588E-13
 -1       310 6.71864E+00-8.22581E+00-8.66036E-01 3.65809E+00-7.47125E-13-5.89195E-13
 -1       311 1.68543E+01-4.90845E+00-4.97580E-01 5.61892E+00-6.25444E-13-7.58393E-13
 -1       312 2.90813E+01-1.53963E+00-9.93682E-03 5.84788E+00-5.98493E-13-8.49820E-13
 -1       313 4.10121E+01 1.88325E+00 5.78507E-01 3.79345E+00-3.34864E-13-9.29701E-13
 -1       314 5.10648E+01 5.58994E+00 1.40037E+00 2.46086E+00-2.36020E-13-1.10068E-12
 -1       315 5.48297E+01 7.02611E+00 1.71370E+00 8.35979E-02-4.30517E-13-1.18565E-12
 -1       316 5.12043E+01 6.29373E+00 1.43508E+00-2.12251E+00-4.14307E-13-1.21805E-12
 -1       317 4.32934E+01 3.28133E+00 8.71424E-01-5.22036E+00-1.51219E-13-5.67324E-13
 -1       318 3.11986E+01-1.33709E-01 1.24879E-01-6.57298E+00-1.76609E-13 8.48210E-14
 -1       319 1.92742E+01-4.40508E+00-3.90703E-01-6.09185E+00-1.96565E-13 5.14949E-13
 -1       320 7.77279E+00-7.74142E+00-8.21914E-01-4.26214E+00 2.32037E-14 5.65104E-14
 -1       321 1.25795E+00-1.11602E+01-1.04300E+00-1.92071E+00-2.55407E-13-2.13912E-13
 -1       322-1.42472E+00-1.22280E+01-1.00046E+00-2.76998E-02-1.24512E-13 3.61378E-14
 -1       323 2.02373E+01 7.36587E-01 6.80814E-03-7.86417E-01 7.05230E-14 9.91327E-14
 -1       324 2.01380E+01 2.99942E+00-2.19460E-02-2.09755E+00-1.26981E-13-1.95828E-13
 -1       325 2.07542E+01 2.20743E+00-1.79350E-02-2.36500E+00-1.72449E-13-1.19174E-13
 -1       326 1.95835E+01 3.69142E+00-1.56157E-02-1.31710E+00-3.03597E-14-2.45155E-13
 -1       327 1.94600E+01 3.84850E+00-1.37330E-02-9.23655E-01 8.05879E-15-2.38227E-13
 -1       328 1.93908E+01 3.93950E+00-1.27177E-02-5.43978E-01 6.53342E-14-2.00756E-13
 -1       329 1.93601E+01 3.98090E+00-1.22935E-02-1.73448E-01 1.02791E-13-1.98138E-13
 -1       330 1.93614E+01 3.97934E+00-1.23104E-02 1.94084E-01 1.38690E-13-1.92003E-13
 -1       331 1.93948E+01 3.93444E+00-1.27566E-02 5.64937E-01 1.56534E-13-1.76955E-13
 -1       332 1.94658E+01 3.84110E+00-1.37720E-02 9.38777E-01 1.85184E-13-1.32323E-13
 -1       333 1.95929E+01 3.67866E+00-1.56991E-02 1.33284E+00 2.26537E-13-5.68703E-14
 -1       334 1.98084E+01 3.40985E+00-1.90821E-02 1.73847E+00 2.46780E-13 9.30245E-15
 -1       335 2.01745E+01 2.95151E+00-2.34155E-02 2.12389E+00 2.46935E-13 1.15886E-13
 -1       336 2.07604E+01 2.10593E+00-2.94098E-02 2.30618E+00 2.04287E-13 2.82819E-13
 -1       337 2.10942E+01 1.18615E+00-2.39396E-02 1.91417E+00 1.52720E-13 4.50203E-13
 -1       338 2.03784E+01 4.91783E-01 8.38788E-03 9.18446E-01 1.48158E-13 3.97969E-13
 -1       339 2.04798E+01 7.01600E-01 1.18185E-02-1.06052E+00-1.55216E-13-7.83913E-14
 -1       340 2.00536E+01 3.48513E-01 7.18537E-03-4.77871E-01-9.38815E-14-1.10323E-13
 -1       341 1.97934E+01 1.82585E-01 4.27588E-03-1.59727E-01-1.42309E-14-1.03173E-13
 -1       342 1.96578E+01 9.72074E-02 1.98967E-03 1.02457E-02 9.75739E-15-1.08044E-13
 -1       343 1.95964E+01 4.53112E-02 8.83718E-04 1.07729E-01-1.95634E-14-1.03808E-13
 -1       344 1.95875E+01 1.47067E-02 3.06775E-04 1.54796E-01-6.14022E-15-6.08922E-14
 -1       345 1.96096E+01-3.26715E-03 2.74328E-05 1.71253E-01 3.28909E-14-5.81956E-14
 -1       346 1.96482E+01-1.33435E-02-1.18627E-04 1.69431E-01-2.48814E-14-2.54047E-14
 -1       347 1.96940E+01-1.83233E-02-1.89994E-04 1.57250E-01-3.53429E-14-5.01120E-14
 -1       348 1.97411E+01-1.99611E-02-2.20059E-04 1.39913E-01-6.92736E-14-4.23403E-14
 -1       349 1.97840E+01-1.95727E-02-2.22760E-04 1.21788E-01-8.76545E-14-9.46862E-14
 -1       350 1.98255E+01-1.77525E-02-2.04560E-04 1.03195E-01-4.94483E-14-6.74619E-14
 -1       351 1.98626E+01-1.50550E-02-1.75516E-04 8.65334E-02-3.40953E-14-7.69518E-14
 -1       352 1.98956E+01-1.17608E-02-1.37522E-04 7.28150E-02-5.47762E-14-4.16113E-15
 -1       353 1.99254E+01-8.00444E-03-9.31947E-05 6.27674E-02-5.75521E-14-7.01624E-14
 -1       354 1.99531E+01-3.75081E-03-4.40204E-05 5.70252E-02 1.17731E-13-1.42774E-14
 -1       355 1.99793E+01 8.25664E-04 1.44156E-05 5.61575E-02 1.06854E-13-4.64852E-14
 -1       356 2.00085E+01 6.54195E-03 8.25513E-05 6.09304E-02 2.97019E-14-3.29525E-14
 -1       357 2.00420E+01 1.36414E-02 1.70743E-04 7.28227E-02 2.44172E-14 1.16661E-13
 -1       358 2.00828E+01 2.28413E-02 2.86942E-04 9.37021E-02-3.92056E-14 6.62548E-14
 -1       359 2.01346E+01 3.52196E-02 4.45353E-04 1.26349E-01 1.76555E-14 9.33531E-14
 -1       360 2.02021E+01 5.23601E-02 6.68497E-04 1.74853E-01-1.20520E-13 5.69276E-14
 -1       361 2.02908E+01 7.67140E-02 9.86526E-04 2.45250E-01-1.18261E-13-8.41163E-14
 -1       362 2.04011E+01 1.09255E-01 1.40398E-03 3.40025E-01-1.58687E-13-1.04255E-14
 -1       363 2.05520E+01 1.57850E-01 2.03163E-03 4.80299E-01-3.43295E-14 9.94075E-14
 -1       364 2.07471E+01 2.26840E-01 2.84973E-03 6.78375E-01 1.72210E-13-4.31325E-15
 -1       365 2.09948E+01 3.21962E-01 3.84986E-03 9.54513E-01 1.73416E-13 7.46148E-15
 -1       366 2.13021E+01 4.45488E-01 4.83937E-03 1.33167E+00 1.20971E-13-7.26405E-14
 -1       367 2.16725E+01 5.85813E-01 5.35155E-03 1.82834E+00 2.53267E-14-1.36404E-13
 -1       368 2.20916E+01 6.91051E-01 4.26808E-03 2.40871E+00 8.13477E-15-1.55158E-13
 -1       369 2.26402E+01 6.46343E-01 2.76493E-03 3.07156E+00-1.18073E-13-2.15581E-13
 -1       370 2.34310E+01 1.72483E-01 5.69936E-03 3.60202E+00 1.29928E-13-5.81766E-14
 -1       371 2.47890E+01-1.11278E+00 1.49503E-02 3.58445E+00 1.28481E-13-3.75589E-14
 -1       372 2.73590E+01-3.35334E+00 3.10600E-02 2.29792E+00 7.38506E-14-9.11788E-14
 -1       373 3.11602E+01-4.87349E+00-5.70696E-02-6.57702E-01 4.52624E-14 6.15966E-14
 -1       374 3.73622E+01 3.41394E+00 3.06378E-02-3.78715E+00-2.57017E-14-2.10901E-13
 -1       375 3.77258E+01 6.62878E+00 5.52001E-02 2.51794E-01-2.30815E-13-1.88365E-13
 -1       376 3.71099E+01 2.84107E+00 1.46159E-02 3.76991E+00-6.07472E-13-1.84172E-13
 -1       377 3.36092E+01-3.17537E+00-1.25878E-01 2.79914E+00-3.34788E-13-3.35079E-13
 -1       378 2.96248E+01-4.32814E+00 2.86949E-02-6.95138E-01-2.66315E-13-7.27248E-14
 -1       379 2.62210E+01-2.33996E+00 1.48397E-02-3.04613E+00 2.20074E-13 2.19900E-13
 -1       380 2.40886E+01-5.51933E-01 6.31079E-03-3.88171E+00 4.05969E-13 2.56025E-13
 -1       381 2.28164E+01 3.43867E-01 3.13982E-03-3.71732E+00 2.36889E-13-2.84079E-14
 -1       382 2.19566E+01 6.44446E-01 6.99542E-03-3.15730E+00 2.17180E-13 2.00110E-13
 -1       383 2.12952E+01 7.21990E-01 9.81686E-03-2.47861E+00 8.77159E-14 1.27330E-13
 -1       384 2.07075E+01 7.87708E-01 5.47781E-03-1.74677E+00 1.42060E-13 1.90565E-13
 -1       385 1.98806E+01 2.36917E-01 1.10678E-02 3.98802E-01 9.80279E-14 3.39459E-13
 -1       386 1.03017E+01-5.95753E+00-4.21974E-02 7.78355E+00 1.38417E-13 7.25218E-13
 -1       387 1.96004E+01 1.19885E-01 6.39896E-03 1.20933E-01 7.50990E-14 2.97780E-13
 -1       388 1.94688E+01 5.76220E-02 2.64330E-03-2.91598E-02 5.75369E-14 2.47859E-13
 -1       389 1.94294E+01 2.58360E-02 1.12367E-03-1.06272E-01 2.60872E-14 1.80343E-13
 -1       390 1.94455E+01 7.34701E-03 4.36672E-04-1.41553E-01 5.44267E-14 1.67026E-13
 -1       391 1.94919E+01-3.35255E-03 1.01201E-04-1.52075E-01 7.61677E-14 2.03574E-13
 -1       392 1.95527E+01-9.24733E-03-7.87526E-05-1.48100E-01 7.74989E-14 1.90967E-13
 -1       393 1.96177E+01-1.20674E-02-1.73709E-04-1.36100E-01-5.48108E-15 1.90226E-13
 -1       394 1.96811E+01-1.28937E-02-2.16015E-04-1.20276E-01 8.66588E-14 1.39357E-13
 -1       395 1.97395E+01-1.24348E-02-2.24111E-04-1.03376E-01 1.22441E-13 5.83763E-14
 -1       396 1.97916E+01-1.11640E-02-2.09976E-04-8.71871E-02 1.17900E-13 6.66794E-14
 -1       397 1.98371E+01-9.39319E-03-1.81623E-04-7.28488E-02-3.08632E-14 8.45691E-14
 -1       398 1.98767E+01-7.32064E-03-1.44395E-04-6.10777E-02-8.04660E-14 9.93411E-14
 -1       399 1.99113E+01-5.06656E-03-1.01854E-04-5.23194E-02 4.95275E-14 1.13540E-13
 -1       400 1.99427E+01-2.70266E-03-5.65048E-05-4.68486E-02 1.69145E-14 1.55797E-13
 -1       401 1.99723E+01-2.80654E-04-1.04774E-05-4.48255E-02 1.88262E-14 2.24055E-13
 -1       402 2.00022E+01 2.13718E-03 3.37879E-05-4.63059E-02-3.76199E-14 1.12361E-13
 -1       403 2.00341E+01 4.44244E-03 7.27986E-05-5.12038E-02-5.60717E-15 8.68780E-14
 -1       404 2.00697E+01 6.43807E-03 1.01225E-04-5.91961E-02 1.01180E-13 9.12921E-15
 -1       405 2.01106E+01 7.78881E-03 1.11146E-04-6.95630E-02 2.64366E-13 9.27803E-14
 -1       406 2.01576E+01 7.96877E-03 9.15350E-05-8.09577E-02 7.37291E-14 1.86685E-13
 -1       407 2.02105E+01 6.21812E-03 2.83627E-05-9.11122E-02-2.74492E-13 2.07352E-13
 -1       408 2.02678E+01 1.53446E-03-9.40772E-05-9.65114E-02-2.84619E-13 2.97246E-13
 -1       409 2.03257E+01-7.25591E-03-2.89834E-04-9.21166E-02-9.16582E-14 1.98750E-13
 -1       410 2.03776E+01-2.12786E-02-5.65236E-04-7.12975E-02 1.35410E-13 3.65565E-13
 -1       411 2.04133E+01-4.11601E-02-9.10098E-04-2.62305E-02 7.47257E-14 3.21978E-13
 -1       412 2.04188E+01-6.62828E-02-1.28736E-03 5.08782E-02-1.23340E-13 3.93057E-13
 -1       413 2.03765E+01-9.37909E-02-1.62557E-03 1.65371E-01-1.74502E-15 5.39627E-13
 -1       414 2.02674E+01-1.17631E-01-1.82026E-03 3.16361E-01-3.17905E-14 4.05164E-13
 -1       415 2.00747E+01-1.28299E-01-1.75020E-03 4.92075E-01 2.06845E-13 2.35529E-13
 -1       416 1.97899E+01-1.14391E-01-1.32504E-03 6.65962E-01-5.56301E-14 4.74355E-13
 -1       417 1.94212E+01-6.68835E-02-5.27350E-04 7.96739E-01 5.91054E-14 4.70162E-13
 -1       418 1.90005E+01 1.43138E-02 5.62351E-04 8.36061E-01 9.52436E-14 4.45300E-13
 -1       419 1.85854E+01 1.14683E-01 1.73496E-03 7.45204E-01 2.64240E-13 3.23673E-13
 -1       420 1.82498E+01 2.05888E-01 2.74973E-03 5.16061E-01-3.97904E-14 1.99939E-13
 -1       421 1.80625E+01 2.56227E-01 3.37875E-03 1.84371E-01 1.81763E-13 1.38472E-13
 -1       422 1.80616E+01 2.46175E-01 3.43959E-03-1.76332E-01-4.43222E-16 1.26482E-13
 -1       423 1.82380E+01 1.79780E-01 2.92173E-03-4.80941E-01-1.36329E-13 1.61873E-13
 -1       424 1.85397E+01 8.29708E-02 1.93896E-03-6.66812E-01-7.37690E-14 3.63412E-13
 -1       425 1.88933E+01-1.07392E-02 7.17546E-04-7.15270E-01-3.20425E-13 1.75691E-13
 -1       426 1.92309E+01-7.58237E-02-3.94407E-04-6.50386E-01 5.36425E-14 8.83481E-14
 -1       427 1.95080E+01-1.02912E-01-1.18159E-03-5.20639E-01 1.81391E-13 6.01319E-13
 -1       428 1.97080E+01-9.75092E-02-1.55069E-03-3.76265E-01 1.31985E-13 6.82361E-13
 -1       429 1.98363E+01-7.39937E-02-1.40901E-03-2.53208E-01-2.40810E-13 7.48556E-13
 -1       430 1.99143E+01-5.48607E-02-9.11711E-04-1.63564E-01-3.15070E-13 1.30127E-12
 -1       431 1.99534E+01-5.76223E-02-1.00109E-04-1.21097E-01 4.40234E-14 1.26679E-12
 -1       432 2.02289E+01-1.63140E-01 2.20079E-03 9.66825E-02 1.72127E-13-1.17379E-13
 -1       433 2.01109E+01-1.51910E-01 4.88240E-04-8.33324E-02-8.07666E-14-9.21486E-14
 -1       434 2.00169E+01-1.08202E-01 6.49903E-06-1.37031E-01-1.60038E-13 5.36300E-13
 -1       435 2.03206E+01-9.24608E-02 2.97795E-03 3.80639E-01-8.92909E-14-7.31870E-13
 -1       436 2.03591E+01 9.79435E-02 2.90518E-03 7.39254E-01 6.14996E-14-3.07679E-13
 -1       437 2.03073E+01 4.32137E-01 1.91146E-03 1.09631E+00 2.82012E-13-3.95790E-13
 -1       438 2.01386E+01 9.06818E-01 6.64015E-05 1.34443E+00 1.01985E-13-1.96229E-13
 -1       439 1.98578E+01 1.47376E+00-2.36929E-03 1.36037E+00-3.04201E-13-5.61023E-13
 -1       440 1.95240E+01 2.02898E+00-4.68848E-03 1.04931E+00-3.15613E-13 4.07200E-13
 -1       441 1.92531E+01 2.42405E+00-6.32376E-03 4.21001E-01-3.59278E-13-1.60256E-13
 -1       442 1.91633E+01 2.54135E+00-6.37939E-03-4.21700E-01-8.44885E-14 1.52889E-13
 -1       443 1.93382E+01 2.30051E+00-2.07669E-03-1.21682E+00 4.50100E-14-3.31815E-13
 -1       444 1.98030E+01 1.75535E+00 1.78239E-03-1.73330E+00 1.24159E-13-3.30472E-13
 -1       445 1.93780E+01-5.66407E+00 1.33493E-02 7.71972E+00 8.70970E-14 5.24067E-13
 -1       446 5.89194E-01-5.42127E+00-1.06997E-01 1.36247E+00 2.54796E-14 4.92495E-13
 -1       447 1.97911E+01 3.43266E+00-1.86843E-02-1.71976E+00-8.74081E-14-2.30226E-13
 -1       448 2.57604E+01-3.94516E+00-2.52295E-02 5.98497E+00 2.23113E-13 3.28168E-13
 -1       449 3.29304E+01 5.40953E-01 4.36473E-02 3.20956E+00 3.99734E-13 4.05231E-15
 -1       450 3.57029E+01 5.07807E+00 9.11670E-03 2.18947E-01 3.55063E-13 1.79023E-15
 -1       451 3.78522E+01 8.13709E+00 4.70258E-02 2.62493E-02 2.43222E-13-7.58768E-14
 -1       452 3.71533E+01 8.73997E+00 1.88764E-02 6.75431E-02 4.01734E-13-3.05388E-13
 -1       453 3.73533E+01 6.69490E+00 7.31728E-02-4.77686E-01 4.31516E-13 5.60663E-14
 -1       454 3.40069E+01 2.29929E+00-1.40340E-02-1.59908E+00 3.74513E-13 2.03282E-13
 -1       455 2.76251E+01-2.89478E+00-4.34791E-03-5.28610E+00 1.83145E-13 1.32852E-13
 -1       456 2.03628E+01-4.83125E+00-8.80953E-03-7.55945E+00-5.36099E-14-7.23491E-13
 -1       457 1.26153E+01-5.44315E+00 8.65624E-03-8.20721E+00-2.81108E-13-4.72015E-13
 -1       458 4.05877E+00-4.52010E+00-4.05095E-03-5.74343E+00-3.53995E-13-2.78708E-13
 -1       459 9.78546E-01-4.53067E+00-2.56550E-02-2.21147E+00-3.48905E-13-4.06952E-13
 -1       460 2.47275E+00-4.67305E+00-1.56272E-02 2.52584E+00-1.80876E-13-5.41234E-13
 -1       461 8.59555E+00-6.27228E+00-9.29993E-02 5.64125E+00-2.24487E-13-4.27006E-13
 -1       462 1.72524E+01-6.95970E+00-1.09791E-01 6.07388E+00-2.22294E-13-2.42062E-13
 -1       463 2.75757E+01-6.21565E+00-6.79471E-02 3.64013E+00-8.29059E-14-5.19501E-13
 -1       464 3.49704E+01-3.34489E+00-2.08694E-02-5.73061E-01-8.31002E-14-2.94986E-13
 -1       465 3.96291E+01 2.44236E+00 1.69061E-01-2.68112E+00 1.13798E-15-4.73760E-13
 -1       466 4.02685E+01 6.18951E+00 1.73747E-01-1.91263E+00-1.63453E-13-3.49956E-13
 -1       467 3.98597E+01 2.99608E+00 1.74367E-01 2.30353E+00-5.39138E-13-6.86839E-13
 -1       468 3.66025E+01-1.92257E+00 5.51904E-02-1.70237E-01-3.64195E-13-5.70238E-13
 -1       469 2.98314E+01-5.71685E+00-5.73208E-02-2.98366E+00 1.52656E-14-2.03726E-13
 -1       470 1.88308E+01-6.91077E+00-8.18063E-02-6.32485E+00 9.62841E-14 5.12031E-13
 -1       471 9.16711E+00-6.48926E+00-1.02236E-01-6.10500E+00-1.02418E-13-2.14787E-13
 -1       472 2.54700E+00-5.84103E+00-1.28772E-01-3.24289E+00-1.72112E-13-3.21410E-13
 -1       473 3.59164E+00-5.51691E+00-7.10634E-02 5.35751E+00 3.23588E-13 1.03556E-13
 -1       474 3.51395E+01-1.72968E+00-9.11238E-02-3.65944E+00 1.56507E-13-2.66592E-14
 -1       475 3.06674E+01-1.49278E+00-5.90945E-02-1.70568E+00 3.39275E-13 2.82593E-13
 -1       476 1.97324E+01 3.10398E+00-5.42166E-03-6.33914E-01 5.05826E-14-1.85574E-13
 -1       477 1.98285E+01 2.93093E+00-6.00289E-03-9.50098E-01-4.35554E-15-2.05852E-13
 -1       478 1.96644E+01 3.22691E+00-5.02665E-03 8.61116E-03 1.35649E-13-1.83116E-13
 -1       479 1.96829E+01 3.19394E+00-5.10479E-03 3.30074E-01 1.52586E-13-1.60643E-13
 -1       480 1.97368E+01 3.09711E+00-5.41931E-03 6.45333E-01 1.77723E-13-1.36605E-13
 -1       481 1.98355E+01 2.91921E+00-5.98374E-03 9.60698E-01 2.01865E-13-7.83813E-14
 -1       482 1.99916E+01 2.63325E+00-6.73381E-03 1.25589E+00 1.98173E-13-2.64107E-14
 -1       483 2.02177E+01 2.19287E+00-6.74319E-03 1.48732E+00 2.10454E-13 6.51426E-14
 -1       484 2.04823E+01 1.53455E+00-3.59554E-03 1.53290E+00 1.88829E-13 1.24598E-13
 -1       485 2.05352E+01 9.86055E-01 4.10308E-03 1.29248E+00 1.62876E-13 2.27509E-13
 -1       486 2.03484E+01 9.99535E-01 2.57718E-03-9.63337E-01-1.32221E-13-1.21259E-13
 -1       487 1.94257E+01 1.63767E+00-1.54160E-03-2.40385E+00 1.74707E-13-1.69277E-13
 -1       488 2.48508E+01-5.59835E+00 3.44851E-02 5.65116E+00 9.79425E-14 2.48971E-13
 -1       489 2.01771E+01 5.63798E-01 2.48486E-03-4.84261E-01-5.74030E-14-1.04218E-13
 -1       490 2.00351E+01 3.26149E-01 1.40841E-03-1.89553E-01 4.07660E-17-1.13259E-13
 -1       491 1.99313E+01 1.75734E-01 7.27385E-04 1.41040E-03-2.18230E-14-9.17454E-14
 -1       492 1.98697E+01 8.43764E-02 3.47726E-04 1.10479E-01-2.76366E-14-8.57916E-14
 -1       493 1.98404E+01 2.84008E-02 1.60831E-04 1.66147E-01-1.70724E-14-1.11970E-13
 -1       494 1.98329E+01-5.21908E-03 5.91027E-05 1.87654E-01 1.19877E-14-1.48163E-13
 -1       495 1.98394E+01-2.42714E-02 7.78081E-07 1.88025E-01-4.89887E-14-1.04711E-13
 -1       496 1.98538E+01-3.36632E-02-2.84122E-05 1.76125E-01-3.71568E-14-1.06719E-13
 -1       497 1.98713E+01-3.67297E-02-5.74199E-05 1.58975E-01-6.35853E-14-1.47766E-14
 -1       498 1.98913E+01-3.57386E-02-5.52382E-05 1.38750E-01-5.69071E-14-2.50131E-14
 -1       499 1.99112E+01-3.19750E-02-5.44540E-05 1.19008E-01-3.51488E-14-1.05879E-14
 -1       500 1.99305E+01-2.63584E-02-4.69685E-05 1.01649E-01-3.12699E-14-3.93402E-14
 -1       501 1.99490E+01-1.94129E-02-3.46280E-05 8.80003E-02-1.12264E-13-4.41436E-14
 -1       502 1.99669E+01-1.13050E-02-1.94865E-05 7.91111E-02 9.48988E-15 4.83541E-14
 -1       503 1.99841E+01-2.49934E-03-4.36584E-06 7.58387E-02 1.16489E-13-1.80007E-14
 -1       504 2.00030E+01 8.38223E-03 2.24746E-05 7.88951E-02 5.19650E-14-9.87747E-14
 -1       505 2.00239E+01 2.15992E-02 5.39597E-05 8.99186E-02 9.15118E-14-1.46884E-13
 -1       506 2.00478E+01 3.82692E-02 9.67364E-05 1.10708E-01-2.40256E-14-8.59689E-14
 -1       507 2.00759E+01 6.00577E-02 1.56797E-04 1.43818E-01-4.18827E-14 2.38778E-14
 -1       508 2.01092E+01 8.93858E-02 2.45094E-04 1.92851E-01-1.02334E-13-1.59122E-13
 -1       509 2.01478E+01 1.29897E-01 3.85060E-04 2.62986E-01-1.77527E-13-1.57575E-13
 -1       510 2.01892E+01 1.82795E-01 5.31136E-04 3.55141E-01-6.34914E-14-1.70502E-13
 -1       511 2.02350E+01 2.60252E-01 8.44047E-04 4.88087E-01-4.39297E-14-7.57643E-14
 -1       512 2.02764E+01 3.68358E-01 1.26134E-03 6.69881E-01 2.47846E-14 1.39397E-13
 -1       513 2.03011E+01 5.16368E-01 1.84882E-03 9.15373E-01 8.31786E-14 2.48494E-15
 -1       514 2.02882E+01 7.11164E-01 2.59902E-03 1.24162E+00 1.70096E-13-1.75671E-13
 -1       515 2.02047E+01 9.48390E-01 3.63431E-03 1.66587E+00-1.00767E-13-2.51544E-13
 -1       516 2.00298E+01 1.17860E+00 3.86465E-03 2.17104E+00-1.05065E-13-5.40604E-13
 -1       517 1.97271E+01 1.32057E+00 5.19434E-03 2.81444E+00-6.27016E-14-4.20813E-13
 -1       518 1.93598E+01 1.09671E+00 6.66958E-03 3.56757E+00 1.98228E-13-1.69962E-13
 -1       519 1.91805E+01-2.83208E-02 3.22000E-02 4.43406E+00 3.63702E-14-1.33926E-13
 -1       520 1.98237E+01-2.47615E+00 8.65557E-02 5.15941E+00 1.50609E-14-1.25063E-13
 -1       521 2.50830E+01-5.74086E+00 5.71591E-02 4.01687E+00 8.66737E-14-2.71755E-13
 -1       522 2.01685E+01 5.05331E-01 6.73258E-03 6.44573E-01 1.32362E-13 2.36857E-13
 -1       523 4.29098E+00-1.66615E+00 1.86001E-01-1.43275E+00-7.18713E-14-1.36696E-14
 -1       524 2.26376E+01-4.61771E+00 7.79817E-02-5.13071E+00 2.63005E-13 5.82997E-13
 -1       525 2.03687E+01-1.43507E+00 5.71182E-02-5.11081E+00 2.59480E-13 3.95916E-13
 -1       526 1.97513E+01 3.94246E-01 2.01006E-02-4.47816E+00-1.15333E-14 3.65175E-13
 -1       527 1.97879E+01 1.09362E+00 6.98649E-03-3.74190E+00 2.34055E-13 3.86959E-14
 -1       528 1.94442E+01 1.43624E+00 4.18720E-03-3.06411E+00 2.32942E-13-2.87086E-13
 -1       529 1.99252E+01 2.45039E-01 1.45260E-03 1.59709E-01 1.10488E-13 1.08960E-13
 -1       530 2.00119E+01 3.51308E-01 3.78157E-03 3.60491E-01 8.27134E-14 1.74843E-13
 -1       531 1.97527E+01 5.97035E-02 3.32207E-04-1.19158E-01 5.01713E-14 6.55014E-14
 -1       532 1.97341E+01 1.79803E-02 8.23948E-05-1.67398E-01 2.79125E-14 5.00150E-14
 -1       533 1.97403E+01-6.67330E-03-4.99831E-05-1.84250E-01 8.41702E-14 6.32585E-14
 -1       534 1.97609E+01-2.03991E-02-1.19425E-04-1.82056E-01 4.26213E-14 1.36109E-13
 -1       535 1.97888E+01-2.69697E-02-1.51031E-04-1.69034E-01 6.81046E-14 7.08692E-14
 -1       536 1.98194E+01-2.88358E-02-1.58424E-04-1.50701E-01 1.73017E-13 1.93661E-14
 -1       537 1.98498E+01-2.76388E-02-1.50354E-04-1.30745E-01 8.92517E-14-2.83644E-14
 -1       538 1.98785E+01-2.44805E-02-1.32549E-04-1.11605E-01 4.28699E-15-1.51021E-14
 -1       539 1.99050E+01-2.00877E-02-1.08802E-04-9.48745E-02-1.10802E-13 4.16457E-14
 -1       540 1.99292E+01-1.49253E-02-8.15720E-05-8.15840E-02-3.14656E-14 7.60317E-14
 -1       541 1.99517E+01-9.28478E-03-5.24650E-05-7.23954E-02-6.94391E-16 1.09367E-13
 -1       542 1.99731E+01-3.36091E-03-2.26568E-05-6.77261E-02-4.11649E-14 2.29139E-13
 -1       543 1.99946E+01 2.67179E-03 6.69725E-06-6.78084E-02 7.79343E-15 2.67116E-13
 -1       544 2.00172E+01 8.57568E-03 3.40239E-05-7.26832E-02 3.09657E-15 1.60055E-13
 -1       545 2.00422E+01 1.39536E-02 5.68466E-05-8.21229E-02 1.68500E-13 1.03394E-13
 -1       546 2.00707E+01 1.81373E-02 7.12704E-05-9.54736E-02 1.24596E-13-4.78184E-15
 -1       547 2.01040E+01 2.00655E-02 7.14985E-05-1.11409E-01 5.31732E-14 1.87632E-13
 -1       548 2.01428E+01 1.81698E-02 4.95422E-05-1.27593E-01-1.38346E-13 3.48176E-13
 -1       549 2.01877E+01 1.03129E-02-4.57600E-06-1.40276E-01-2.09651E-13 1.72968E-13
 -1       550 2.02387E+01-6.14256E-03-1.01686E-04-1.43880E-01-1.81409E-13 4.15435E-15
 -1       551 2.02945E+01-3.40021E-02-2.50775E-04-1.30716E-01 1.20792E-14-1.65339E-14
 -1       552 2.03525E+01-7.54676E-02-4.54155E-04-9.10635E-02 1.00935E-13 1.00084E-13
 -1       553 2.04073E+01-1.30742E-01-7.00738E-04-1.40095E-02-8.34596E-14 2.42258E-13
 -1       554 2.04506E+01-1.95947E-01-9.57136E-04 1.10447E-01-1.21278E-13 5.72823E-14
 -1       555 2.04697E+01-2.60672E-01-1.16184E-03 2.87522E-01 2.04051E-14 1.57613E-13
 -1       556 2.04475E+01-3.06184E-01-1.22651E-03 5.11864E-01 1.34295E-13 1.97285E-13
 -1       557 2.03647E+01-3.06342E-01-1.04468E-03 7.60709E-01-6.54262E-16 4.25564E-13
 -1       558 2.02055E+01-2.34122E-01-5.75397E-04 9.88832E-01 2.30526E-14 4.33026E-13
 -1       559 1.99679E+01-7.51904E-02 1.44146E-04 1.13084E+00 1.99409E-13 4.82890E-13
 -1       560 1.96758E+01 1.55114E-01 1.02347E-03 1.11683E+00 1.66083E-13 3.79670E-13
 -1       561 1.93848E+01 4.02233E-01 1.77682E-03 9.02410E-01 1.36930E-13 5.39973E-13
 -1       562 1.91697E+01 5.85899E-01 2.25075E-03 5.01742E-01 1.92024E-13 4.12867E-13
 -1       563 1.90929E+01 6.36436E-01 2.38354E-03-2.25647E-03 1.96137E-13 2.74086E-13
 -1       564 1.91733E+01 5.32630E-01 2.08569E-03-4.82982E-01-9.40098E-14 2.69011E-13
 -1       565 1.93736E+01 3.17330E-01 1.54330E-03-8.23329E-01-1.35849E-13 4.09864E-13
 -1       566 1.96212E+01 7.21783E-02 6.97410E-04-9.65675E-01-2.02015E-14 2.92913E-13
 -1       567 1.98449E+01-1.25947E-01-1.15863E-04-9.23735E-01-2.36933E-13 2.09567E-13
 -1       568 2.00006E+01-2.35329E-01-6.89579E-04-7.60609E-01-4.76313E-14 5.30569E-13
 -1       569 2.00766E+01-2.54980E-01-1.16185E-03-5.52982E-01 1.30460E-13 4.88116E-13
 -1       570 2.00856E+01-2.12890E-01-1.51887E-03-3.64678E-01-2.14465E-13 6.16125E-13
 -1       571 2.00561E+01-1.48612E-01-9.74332E-04-2.26295E-01-4.66312E-13 7.73512E-13
 -1       572 2.07156E+01-3.33206E-01 1.74710E-03 6.61526E-01 1.99197E-13-2.97478E-13
 -1       573 2.07236E+01-2.17507E-01 1.14747E-03 1.15521E+00 2.43531E-13-1.66765E-13
 -1       574 2.03512E+01-2.69893E-01 1.00295E-03-5.46145E-02-1.36070E-13-8.69203E-14
 -1       575 2.05689E+01-3.35018E-01 1.60970E-03 2.40398E-01-6.40886E-14-4.09780E-13
 -1       576 2.05179E+01 6.07281E-02 4.47669E-04 1.61232E+00-2.02059E-14-3.82797E-13
 -1       577 2.00601E+01 5.21410E-01-6.38803E-04 1.87553E+00-2.68409E-13-5.26865E-13
 -1       578 1.94001E+01 1.12357E+00-1.80447E-03 1.76883E+00-1.86301E-13-1.17564E-13
 -1       579 1.87296E+01 1.72612E+00-2.39234E-03 1.19415E+00-2.70470E-13 3.26967E-13
 -1       580 1.82940E+01 2.15850E+00-2.80887E-03 1.81304E-01-3.72228E-14-3.14213E-14
 -1       581 1.83337E+01 2.24736E+00-2.62530E-03-1.01263E+00-6.55772E-14-4.40892E-14
 -1       582 3.07653E+01 8.12358E+00-2.06575E-01-3.47509E-01 4.66460E-13-2.81289E-13
 -1       583 3.10903E+01 6.37203E+00-1.75427E-01-1.55823E+00 3.42060E-13-2.50373E-13
 -1       584 2.03899E+01 1.78150E+00-5.18896E-03-1.53932E+00-1.49995E-13-1.44876E-13
 -1       585 1.01713E+01-3.37733E+00 1.68232E-01 7.17470E+00 2.29129E-13 1.41144E-13
 -1       586 1.09890E+01-3.32403E+00 1.47189E-01-7.58953E+00-2.75821E-13-4.73538E-13
 -1       587 1.98104E+01 1.29199E-01 8.78840E-04-2.03860E-02 7.24927E-14 8.62621E-14
 -1       588 1.66051E+01-5.20223E+00 8.95224E-02 7.93737E+00 8.29475E-14 5.44832E-13
 -1       589 1.96802E+01 3.19821E+00-5.11610E-03-3.12960E-01 1.09359E-13-1.66721E-13
 -1       590 3.15611E+01 9.17081E-01-1.30162E-01-7.26843E-01 2.30815E-13-1.39916E-13
 -1       591 2.95492E+01-3.38082E+00-4.85635E-02 2.29722E+00 4.33634E-13-2.26708E-13
 -1       592 3.13944E+01 6.90461E+00-1.93033E-01 1.29822E+00 3.28848E-13-1.13895E-13
 -1       593 9.04872E+00-2.57546E+00 1.73264E-01 4.99051E+00 7.23241E-14-3.48985E-13
 -1       594 3.14379E+01 3.36018E+00-1.68000E-01 1.36964E+00 3.78836E-13-1.60268E-13
 -1       595 2.51476E+01-5.08450E+00 1.95453E-02-5.28987E+00-2.55775E-13-2.67147E-15
 -1       596 1.95846E+01-5.25120E+00 9.06115E-02-7.52068E+00-5.35509E-13-4.64588E-13
 -1       597 5.43002E+00-1.06602E+00 1.93333E-01-3.81455E+00-1.37012E-13-3.43031E-13
 -1       598 4.65640E+00-8.11533E-01 1.96287E-01 6.22453E-01-9.62130E-14-2.17049E-13
 -1       599 1.62178E+01-4.91633E+00 9.33886E-02 6.20901E+00 2.40641E-14-8.59868E-14
 -1       600 2.62450E+01-6.00064E+00 2.16531E-02-3.73999E+00 1.29022E-13 4.30975E-14
 -1       601 1.64716E+01-4.90215E+00 9.57084E-02-6.56846E+00 4.89747E-13 8.68194E-14
 -1       602 9.40182E+00-3.27569E+00 1.60387E-01-5.67532E+00 1.84845E-13-7.75366E-13
 -1       603 5.14116E+00-1.56923E+00 1.90482E-01 3.56828E+00 1.05166E-13 7.49317E-13
 -1       604 1.99768E+01 2.65386E+00-7.04552E-03-1.24215E+00-4.94943E-14-2.08613E-13
 -1       605 2.01628E+01 2.29492E+00-5.63230E-03-1.44258E+00-1.11430E-13-1.66612E-13
 -1       606 3.01657E+01 9.63966E-02-8.64773E-02 9.33423E-01 2.82486E-13-1.12653E-13
 -1       607 2.79859E+01-4.02444E+00-5.61019E-02-2.34960E+00 1.56658E-13 1.37824E-13
 -1       608 1.99595E+01 2.44963E+00-1.58683E-03 3.93733E-01 1.71330E-13-1.24148E-13
 -1       609 1.99276E+01 2.52452E+00-1.51911E-03 1.35531E-01 1.57215E-13-1.79417E-13
 -1       610 2.01197E+01 2.04636E+00-1.70129E-03 8.49672E-01 1.76591E-13-6.17222E-14
 -1       611 2.02403E+01 1.68307E+00-1.08921E-03 9.96805E-01 1.78732E-13 5.54732E-15
 -1       612 2.03338E+01 1.19676E+00 1.36681E-04 1.00853E+00 1.47358E-13 6.32416E-14
 -1       613 2.03107E+01 8.32629E-01 5.84808E-03 8.55888E-01 1.37994E-13 1.20287E-13
 -1       614 2.02895E+01 1.45280E+00 2.05353E-04-1.01430E+00-1.10792E-13-1.21353E-13
 -1       615 1.99416E+01 2.51598E-02 8.29107E-06-1.70517E-01 3.76815E-14 1.42115E-14
 -1       616 2.02678E+01 8.81531E-01 2.23834E-04-5.77920E-01-4.85572E-14-1.04752E-13
 -1       617 2.02034E+01 5.38526E-01 1.53977E-05-2.76658E-01-1.52811E-14-1.07078E-13
 -1       618 2.01311E+01 3.06034E-01-1.51979E-04-6.27856E-02 3.49570E-16-1.30640E-13
 -1       619 2.00716E+01 1.58240E-01-1.87191E-04 6.90461E-02-2.55894E-14-1.15530E-13
 -1       620 2.00283E+01 6.45909E-02-1.64624E-04 1.43027E-01-2.81966E-14-1.04547E-13
 -1       621 1.99996E+01 6.62097E-03-1.34373E-04 1.77741E-01-2.50661E-14-6.16682E-14
 -1       622 1.99824E+01-2.74370E-02-1.07916E-04 1.86950E-01-3.56874E-14-1.23832E-13
 -1       623 1.99734E+01-4.53587E-02-9.25623E-05 1.80575E-01-3.63205E-14-1.20870E-13
 -1       624 1.99703E+01-5.22300E-02-6.94830E-05 1.66490E-01-1.65241E-14-6.14615E-14
 -1       625 1.99709E+01-5.23765E-02-5.52459E-05 1.47972E-01-4.21600E-14-1.39773E-14
 -1       626 1.99740E+01-4.75747E-02-4.32964E-05 1.28973E-01-6.56311E-14 5.15829E-14
 -1       627 1.99789E+01-3.94604E-02-3.06869E-05 1.11869E-01-4.59465E-14 3.03659E-15
 -1       628 1.99850E+01-2.89633E-02-1.85412E-05 9.83218E-02-2.55402E-14 6.78742E-15
 -1       629 1.99918E+01-1.64583E-02-1.04487E-05 8.96043E-02 3.10462E-14 6.36749E-14
 -1       630 1.99991E+01-2.64266E-03 8.75081E-06 8.67781E-02-1.59913E-14 4.78946E-15
 -1       631 2.00074E+01 1.43881E-02 2.07890E-05 9.05571E-02 2.70897E-14-4.98902E-14
 -1       632 2.00161E+01 3.50194E-02 3.83878E-05 1.02639E-01 6.34124E-14-3.51492E-14
 -1       633 2.00249E+01 6.07871E-02 6.20347E-05 1.24661E-01-3.23890E-14-6.14515E-14
 -1       634 2.00329E+01 9.39787E-02 9.41147E-05 1.58827E-01-1.07119E-13-7.37023E-14
 -1       635 2.00382E+01 1.37856E-01 1.38681E-04 2.08041E-01-1.28942E-13-1.98051E-13
 -1       636 2.00371E+01 1.96976E-01 1.87896E-04 2.76072E-01-1.12102E-13-1.61322E-13
 -1       637 2.00246E+01 2.73013E-01 2.89361E-04 3.62607E-01-1.98105E-13-2.33347E-13
 -1       638 1.99897E+01 3.81161E-01 3.96855E-04 4.81841E-01 4.41992E-14-1.35640E-13
 -1       639 1.99151E+01 5.28357E-01 5.31515E-04 6.36838E-01 1.02020E-13-1.97001E-14
 -1       640 1.97746E+01 7.24761E-01 6.75845E-04 8.34396E-01 5.70875E-14 7.85645E-15
 -1       641 1.95279E+01 9.77537E-01 7.67637E-04 1.08111E+00-2.02078E-14-4.36081E-14
 -1       642 1.91174E+01 1.28069E+00 7.14988E-04 1.38236E+00-1.24823E-13-2.02348E-13
 -1       643 1.85088E+01 1.58546E+00 5.76213E-04 1.72887E+00-1.09329E-13 1.02311E-14
 -1       644 1.75612E+01 1.82565E+00 2.74579E-03 2.17707E+00 7.41862E-14 1.29835E-13
 -1       645 1.62276E+01 1.77062E+00 1.73028E-02 2.78781E+00 1.38079E-13-2.80548E-14
 -1       646 1.44454E+01 1.03687E+00 8.78956E-02 3.69527E+00 1.51026E-13-2.37876E-13
 -1       647 2.69495E+01-4.57906E+00-1.74430E-03 2.62291E+00-6.87115E-14-6.14861E-13
 -1       648 1.56426E+01-2.98525E+00 1.06978E-01 6.84193E+00-7.09606E-14 3.91076E-13
 -1       649 1.50827E+01 5.40940E-01 6.43369E-02-4.47021E+00 1.38500E-14-3.76236E-13
 -1       650 1.65906E+01 1.53793E+00 1.53502E-02-3.48808E+00 4.22639E-14 2.76970E-14
 -1       651 1.99260E+01-1.25959E-02-2.56049E-05-1.89041E-01 2.76221E-14 2.33353E-14
 -1       652 1.99734E+01 8.80728E-02 5.90337E-05-1.20425E-01 4.82336E-14-2.05299E-14
 -1       653 1.99215E+01-3.36141E-02-4.34157E-05-1.87885E-01 8.38460E-14 1.59564E-14
 -1       654 1.99241E+01-4.34120E-02-5.03494E-05-1.75379E-01 1.38498E-13 1.85466E-14
 -1       655 1.99310E+01-4.57346E-02-5.06162E-05-1.57291E-01 1.41623E-13 8.06914E-14
 -1       656 1.99402E+01-4.31402E-02-4.65910E-05-1.37561E-01 9.36231E-14 1.24001E-13
 -1       657 1.99505E+01-3.73577E-02-3.98585E-05-1.18839E-01-7.71107E-14 7.82686E-14
 -1       658 1.99613E+01-2.95304E-02-3.14647E-05-1.02896E-01-1.35523E-13 5.76229E-14
 -1       659 1.99721E+01-2.03961E-02-2.20752E-05-9.09037E-02 1.14001E-14 1.35128E-13
 -1       660 1.99831E+01-1.04347E-02-1.21382E-05-8.36426E-02-7.29751E-14 8.93989E-14
 -1       661 1.99945E+01-3.83477E-06-2.01310E-06-8.16192E-02-2.21390E-14 3.18269E-14
 -1       662 2.00068E+01 1.05217E-02 7.88540E-06-8.51206E-02 9.22713E-14 6.23641E-14
 -1       663 2.00207E+01 2.05957E-02 1.69234E-05-9.41898E-02 9.05336E-14 6.71274E-14
 -1       664 2.00371E+01 2.93239E-02 2.40615E-05-1.08521E-01 1.39448E-13 6.98474E-14
 -1       665 2.00570E+01 3.52635E-02 2.76601E-05-1.27263E-01 1.61992E-14 9.89405E-14
 -1       666 2.00821E+01 3.62184E-02 2.52835E-05-1.48719E-01-2.73882E-14 1.58016E-13
 -1       667 2.01144E+01 2.90704E-02 1.35933E-05-1.69947E-01-1.00664E-13 1.56969E-13
 -1       668 2.01563E+01 9.74215E-03-1.15333E-05-1.86276E-01-1.66152E-14 2.68983E-15
 -1       669 2.02107E+01-2.65471E-02-5.45459E-05-1.90803E-01-1.49429E-13-1.54650E-13
 -1       670 2.02808E+01-8.44823E-02-1.18995E-04-1.74021E-01-4.74610E-14-2.73597E-14
 -1       671 2.03690E+01-1.66985E-01-2.05115E-04-1.23848E-01-5.64461E-14 4.84740E-14
 -1       672 2.04755E+01-2.72375E-01-3.07674E-04-2.65581E-02-4.98838E-15 6.83842E-14
 -1       673 2.05960E+01-3.90336E-01-4.07268E-04 1.30667E-01 1.86529E-15-6.07345E-14
 -1       674 2.07177E+01-4.97546E-01-4.68037E-04 3.54675E-01 1.87386E-14 9.15023E-14
 -1       675 2.08172E+01-5.55131E-01-4.40999E-04 6.38222E-01-1.63176E-13 2.23826E-13
 -1       676 2.08607E+01-5.12379E-01-2.27975E-04 9.49277E-01-5.02715E-14 3.37368E-13
 -1       677 2.08129E+01-3.22986E-01 7.88503E-05 1.22238E+00 6.54622E-14 3.27827E-13
 -1       678 2.06567E+01 2.48157E-02 3.57570E-04 1.36229E+00 2.89914E-13 3.41491E-13
 -1       679 2.04175E+01 4.75739E-01 7.66629E-04 1.27152E+00 1.43829E-13 2.22807E-13
 -1       680 2.01740E+01 8.96591E-01 7.16625E-04 9.04604E-01 1.56867E-13 1.31551E-13
 -1       681 2.00271E+01 1.13092E+00 4.47151E-04 3.18492E-01 1.36841E-13 1.17661E-13
 -1       682 2.00432E+01 1.07834E+00 6.87959E-04-3.31179E-01-3.98780E-14 3.76009E-13
 -1       683 2.02083E+01 7.59230E-01 7.71871E-04-8.53074E-01-1.47473E-13 4.11937E-13
 -1       684 2.04321E+01 3.12158E-01 4.23584E-04-1.11978E+00 2.73509E-14 3.32445E-13
 -1       685 2.06136E+01-1.01821E-01 9.56445E-05-1.11906E+00 5.57775E-14 1.41142E-13
 -1       686 2.06895E+01-3.70578E-01-7.36957E-05-9.27234E-01-3.20357E-13-3.70148E-13
 -1       687 2.06509E+01-4.66662E-01-3.65208E-04-6.53846E-01-1.61370E-13-3.07176E-13
 -1       688 2.05265E+01-4.23622E-01-6.67958E-04-3.92867E-01-9.08807E-14 4.18252E-14
 -1       689 2.04632E+01-3.63683E-01-6.20161E-05-2.00957E-01-4.26205E-13 2.66927E-13
 -1       690 2.06432E+01-4.52367E-01 7.09880E-05 2.16628E+00-2.19043E-13-5.57042E-13
 -1       691 2.12317E+01-7.61273E-01 6.13308E-04 9.38025E-01 7.85516E-14-2.48835E-13
 -1       692 1.97135E+01 1.07841E-01 6.25223E-05 2.45057E+00-5.10217E-15-4.10754E-13
 -1       693 2.11367E+01-7.24192E-01 2.70868E-04 1.58424E+00-2.35547E-13-4.91443E-13
 -1       694 1.85247E+01 8.81811E-01-1.28037E-04 2.18066E+00 4.25734E-15 1.95766E-13
 -1       695 1.74485E+01 1.66803E+00 1.67883E-03 1.21911E+00 6.12866E-14 2.65416E-13
 -1       696 1.70150E+01 2.14179E+00 2.53449E-03-2.77746E-01-1.51381E-13 3.60651E-14
 -1       697 2.77688E+01 6.81257E+00-1.55722E-01 8.12909E-01 3.52635E-13-2.24126E-13
 -1       698 2.72102E+01 6.06108E+00-1.43924E-01-1.20620E+00 2.72525E-13-1.99901E-13
 -1       699 9.68044E+00-1.52966E-01 1.73566E-01-3.74487E+00 9.09463E-14-9.39943E-13
 -1       700 2.19030E+01-4.99103E+00 5.27706E-02 6.02970E+00-1.52350E-13 2.76015E-13
 -1       701 1.76700E+01 2.04506E+00-1.86592E-03-2.07165E+00-1.63038E-14-1.55383E-13
 -1       702 2.87711E+01-2.28715E+00-7.08575E-02-1.45066E-01 1.35353E-13-5.92030E-13
 -1       703 2.00234E+01 2.29497E+00-1.68018E-03 6.37389E-01 1.75900E-13-1.00884E-13
 -1       704 2.83288E+01 2.55172E+00-1.15943E-01-2.20318E+00 1.31138E-13-4.82583E-13
 -1       705 1.68904E+01-3.59699E+00 1.00194E-01-7.13668E+00-4.10033E-13-2.46941E-13
 -1       706 2.00187E+01 2.30496E+00-1.56499E-03-6.28953E-01 1.98947E-14-1.58090E-13
 -1       707 2.82596E+01 4.24761E+00-1.44660E-01 2.09256E+00 3.81153E-13-1.82548E-13
 -1       708 2.30298E+01-4.87248E+00 4.11983E-02-5.38600E+00-3.31114E-13-2.13808E-13
 -1       709 8.14804E+00 1.12526E+00 1.53716E-01-1.20008E+00-3.80728E-14-3.04326E-13
 -1       710 1.05654E+01-9.36987E-01 1.56173E-01 5.31703E+00 5.12541E-14-1.66450E-13
 -1       711 9.70869E+00 4.09101E-01 1.69286E-01 3.02343E+00 6.83516E-14-2.24779E-13
 -1       712 1.38542E+01-1.79023E+00 1.36458E-01-5.72188E+00 9.04832E-14-8.37247E-14
 -1       713 7.33691E+00 4.81135E-01 1.76638E-01 6.12052E-01 3.29968E-13 6.96776E-13
 -1       714 1.02795E+01-7.55001E-01 1.41434E-01-5.52451E+00-3.54543E-14-1.91021E-13
 -1       715 1.99267E+01 2.52612E+00-1.53152E-03-1.26581E-01 1.36162E-13-1.49169E-13
 -1       716 1.99566E+01 2.45502E+00-1.59033E-03-3.84311E-01 8.80605E-14-1.06505E-13
 -1       717 2.00273E+01 1.89447E-01 1.85792E-04-2.21690E-02 7.43611E-14 9.44218E-15
 -1       718 1.40290E+01-1.17972E+00 1.32655E-01 5.11227E+00 7.92630E-14-1.37113E-13
 -1       719 1.70694E+01 1.89442E+00 6.39262E-03-2.70779E+00-2.14293E-13 5.87076E-14
 -1       720 2.01989E+01 6.08898E-01 2.46056E-03 4.29797E-01 1.25051E-13 3.25865E-14
 -1       721 2.08124E+01-5.26564E-01 7.08297E-04 8.93800E-02-3.12725E-13 3.62831E-14
 -1       722 2.01126E+01 2.06112E+00-1.37637E-03-8.41966E-01-4.22664E-14-1.57002E-13
 -1       723 2.01060E+01 3.48837E-01 1.31189E-04 1.48057E-01 1.01552E-13 4.18611E-14
 -1       724 2.55551E+01-4.50609E+00-1.59787E-02-3.09387E+00-7.96013E-14-1.24714E-13
 -1       725 2.10736E+01-6.61818E-01 9.67696E-04 4.60886E-01-1.28295E-13-8.99783E-14
 -1       726 2.80047E+01 1.76890E+00-7.78779E-02 2.09739E+00 1.49641E-13 3.10411E-14
 -1       727 2.02760E+01 9.51058E-01 4.17862E-04 6.40809E-01 1.48918E-13 2.08782E-14
 -1       728 2.02693E+01 1.30573E+00 3.89865E-04 6.31823E-01 1.32523E-13-1.25953E-14
 -1       729 2.02481E+01 1.48020E+00-2.49083E-04-7.58547E-01-7.11295E-14-1.18056E-13
 -1       730 1.49937E+01-1.38450E+00 6.70792E-02-5.74870E+00-1.11860E-13-8.00054E-15
 -1       731 1.30883E+01 1.79947E+00 6.58659E-02-1.84372E+00 3.69843E-13-1.35057E-13
 -1       732 2.02912E+01 9.63419E-01 1.63451E-05-4.50483E-01-3.83106E-14-1.01386E-13
 -1       733 2.02772E+01 5.91168E-01 8.11555E-05-2.02974E-01-1.03221E-14-5.80641E-14
 -1       734 2.02414E+01 3.39773E-01 3.60126E-05-3.32348E-02-2.38193E-14-6.08272E-14
 -1       735 2.01990E+01 1.73109E-01 3.90200E-06 7.39660E-02-1.45927E-14-5.88805E-14
 -1       736 2.01585E+01 6.51029E-02-9.86391E-06 1.34747E-01-2.54707E-14-7.54874E-14
 -1       737 2.01234E+01-2.27100E-03-1.42289E-05 1.62999E-01-8.02654E-14-7.86505E-14
 -1       738 2.00944E+01-4.14743E-02-1.67786E-05 1.69771E-01-2.46126E-14-1.43735E-14
 -1       739 2.00723E+01-6.06798E-02-1.99839E-05 1.63935E-01-1.40403E-14-2.56028E-14
 -1       740 2.00541E+01-6.79101E-02-1.80815E-05 1.50732E-01-3.57693E-14-1.03654E-13
 -1       741 2.00403E+01-6.60054E-02-1.71648E-05 1.34534E-01-7.42888E-14-1.48892E-13
 -1       742 2.00301E+01-5.79612E-02-1.51365E-05 1.18416E-01-6.20691E-14-1.46668E-13
 -1       743 2.00227E+01-4.56456E-02-1.28175E-05 1.04525E-01-2.82473E-14-7.63116E-14
 -1       744 2.00174E+01-3.00603E-02-1.17229E-05 9.44269E-02 2.37027E-14-2.39778E-14
 -1       745 2.00137E+01-1.25436E-02-9.09580E-06 8.93987E-02-3.76634E-14-1.18541E-13
 -1       746 2.00103E+01 8.98813E-03-8.39904E-06 8.99207E-02-3.51546E-14-9.14550E-14
 -1       747 2.00065E+01 3.46005E-02-8.39762E-06 9.74340E-02 6.09387E-14-1.35317E-13
 -1       748 2.00008E+01 6.57475E-02-9.19675E-06 1.13046E-01 4.55397E-14-1.82922E-13
 -1       749 1.99911E+01 1.04641E-01-1.14949E-05 1.38030E-01-3.34909E-14-6.90992E-14
 -1       750 1.99740E+01 1.54396E-01-1.71324E-05 1.73834E-01-1.26467E-13-5.10981E-15
 -1       751 1.99443E+01 2.19326E-01-1.62867E-05 2.21975E-01-1.57299E-13-5.71858E-15
 -1       752 1.98971E+01 3.00182E-01-3.85166E-05 2.80496E-01-2.08788E-13-1.22403E-13
 -1       753 1.98160E+01 4.12045E-01-5.29335E-05 3.56492E-01 9.48269E-15 3.03728E-14
 -1       754 1.96838E+01 5.60267E-01-8.58885E-05 4.46948E-01 8.61762E-14 4.61167E-14
 -1       755 1.94728E+01 7.53923E-01-1.44182E-04 5.49492E-01-4.19883E-14 2.03296E-14
 -1       756 1.91421E+01 1.00054E+00-2.63405E-04 6.58123E-01-6.94390E-14-1.39112E-13
 -1       757 1.86325E+01 1.30059E+00-3.25908E-04 7.61523E-01-8.13088E-14-5.65866E-14
 -1       758 1.79076E+01 1.62197E+00-7.32669E-04 8.43703E-01-4.25736E-14-8.59091E-14
 -1       759 1.67831E+01 1.94936E+00 1.14481E-04 9.05837E-01 1.24904E-13 2.49020E-15
 -1       760 1.51120E+01 2.16652E+00 1.12243E-02 9.56807E-01-1.44268E-14-4.33900E-15
 -1       761 1.25938E+01 2.12827E+00 5.76547E-02 1.07106E+00-1.64410E-14-7.68326E-14
 -1       762 1.97789E+01-3.09106E+00 3.99476E-02 5.46448E+00-5.44816E-14-1.77917E-13
 -1       763 2.00891E+01 2.39009E-02 1.73693E-06-1.61487E-01 2.84808E-14-2.02783E-14
 -1       764 2.00407E+01-4.85044E-02-1.39999E-05-1.75817E-01 7.10725E-14 1.72096E-14
 -1       765 2.01254E+01 1.01451E-01 3.15617E-06-1.17903E-01 5.54236E-14 2.55385E-14
 -1       766 2.00260E+01-5.97174E-02-1.46844E-05-1.64154E-01 1.13482E-13 5.03739E-14
 -1       767 2.00159E+01-6.12345E-02-1.39407E-05-1.47673E-01 7.71278E-14 5.49815E-16
 -1       768 2.00093E+01-5.63168E-02-1.22946E-05-1.30023E-01 1.86477E-14 2.70901E-14
 -1       769 2.00053E+01-4.71776E-02-1.01189E-05-1.13709E-01-7.14580E-14 4.30655E-14
 -1       770 2.00033E+01-3.52823E-02-7.61555E-06-1.00437E-01-3.98527E-14-7.49657E-14
 -1       771 2.00027E+01-2.15846E-02-4.93280E-06-9.13772E-02 7.86672E-15 2.19343E-14
 -1       772 2.00032E+01-6.72997E-03-2.15167E-06-8.73434E-02-2.23035E-14 3.78864E-14
 -1       773 2.00048E+01 8.74586E-03 6.65048E-07-8.89100E-02-6.86050E-14 1.97062E-14
 -1       774 2.00075E+01 2.42086E-02 3.42706E-06-9.64542E-02-3.01219E-14 2.46650E-14
 -1       775 2.00118E+01 3.86914E-02 5.97247E-06-1.10128E-01 3.65363E-14 2.13345E-13
 -1       776 2.00186E+01 5.06269E-02 7.99952E-06-1.29750E-01 1.49468E-14 3.14849E-13
 -1       777 2.00294E+01 5.75518E-02 8.99126E-06-1.54599E-01-6.15297E-15 2.35968E-13
 -1       778 2.00467E+01 5.58145E-02 8.10537E-06-1.83098E-01-8.40812E-14 1.79142E-13
 -1       779 2.00745E+01 4.03606E-02 4.09681E-06-2.12367E-01 8.49156E-14 6.41002E-14
 -1       780 2.01181E+01 4.75058E-03-4.62916E-06-2.37635E-01-1.64934E-14 1.46865E-13
 -1       781 2.01847E+01-5.83283E-02-2.02424E-05-2.51532E-01-1.16992E-13 7.46850E-14
 -1       782 2.02830E+01-1.55656E-01-4.49651E-05-2.43366E-01-6.88585E-14-3.12144E-14
 -1       783 2.04217E+01-2.90654E-01-7.91253E-05-1.98632E-01 1.77936E-14 4.49270E-14
 -1       784 2.06071E+01-4.58615E-01-1.24847E-04-9.93554E-02 1.94315E-14 4.08578E-14
 -1       785 2.08375E+01-6.39867E-01-1.58841E-04 7.34463E-02-1.82015E-13 1.03395E-13
 -1       786 2.10972E+01-7.92756E-01-1.50668E-04 3.33562E-01-1.34916E-13 2.22834E-13
 -1       787 2.13481E+01-8.48928E-01-8.24001E-05 6.77544E-01-6.87674E-14 1.47228E-13
 -1       788 2.15306E+01-7.21971E-01 2.96448E-04 1.06509E+00-1.11146E-13 4.75974E-14
 -1       789 2.15779E+01-3.40546E-01 4.80470E-04 1.40160E+00 1.67072E-13 4.98037E-14
 -1       790 2.14548E+01 2.91172E-01-8.49377E-05 1.54269E+00 8.78119E-14 1.86360E-13
 -1       791 2.12099E+01 1.03311E+00 6.15355E-04 1.34018E+00 9.35660E-14 4.33098E-13
 -1       792 2.09704E+01 1.62292E+00-4.03918E-04 7.68358E-01 1.31692E-14 5.06552E-13
 -1       793 2.08978E+01 1.78959E+00-9.37438E-04-3.22395E-02 4.29983E-14 2.89324E-13
 -1       794 2.10404E+01 1.44780E+00 1.70704E-03-7.84690E-01-1.52221E-14 5.10524E-14
 -1       795 2.12925E+01 7.65416E-01-5.51869E-04-1.22560E+00-7.51361E-14-1.07035E-13
 -1       796 2.14953E+01 4.45365E-02-6.05729E-04-1.28910E+00-5.61948E-14-1.15193E-13
 -1       797 2.15363E+01-4.80621E-01 1.92023E-04-1.05254E+00 9.08011E-14 1.50192E-13
 -1       798 2.13990E+01-7.23070E-01-4.05950E-04-6.87266E-01-2.34176E-13-3.60955E-14
 -1       799 2.11353E+01-7.14446E-01-4.37502E-04-3.33105E-01-2.64211E-13-6.81957E-14
 -1       800 2.09934E+01-6.44447E-01 1.00994E-03-9.87497E-02-4.06252E-13-1.33311E-14
 -1       801 1.70215E+01 8.07814E-01 1.04177E-02 2.62908E+00-1.87974E-13 3.64337E-13
 -1       802 1.55977E+01 1.78594E+00 9.91858E-03 1.04621E+00 1.43367E-13 5.87126E-14
 -1       803 2.06231E+01-1.06354E+00 2.33580E-03 2.85633E+00-2.26259E-14-2.90183E-13
 -1       804 2.51331E+01 5.49159E+00-7.15707E-02 6.45947E-02 2.32453E-13-2.48135E-13
 -1       805 1.56680E+01 2.16524E+00 1.04929E-02-9.88813E-01-1.31319E-13-7.04233E-14
 -1       806 1.15839E+01 1.10976E+00 7.35936E-02-3.05667E+00-7.18340E-14-2.01599E-13
 -1       807 2.56059E+01 4.60464E+00-8.50587E-02 1.57220E+00 2.76758E-13 1.69072E-13
 -1       808 2.67443E+01-3.17072E+00-1.35144E-02 5.25162E-01 3.90003E-14-7.41255E-13
 -1       809 2.69041E+01-3.70606E-01-3.77124E-02-1.54768E+00-1.29438E-13-5.32832E-13
 -1       810 1.47647E+01-7.87017E-01 6.33836E-02 5.07615E+00 1.93357E-13 4.22705E-13
 -1       811 2.57941E+01 3.68088E+00-6.96570E-02-1.84409E+00 1.10582E-13-4.59448E-13
 -1       812 2.00612E+01-2.28790E-02-1.07742E-05-1.77406E-01 2.39493E-14-7.16865E-14
 -1       813 2.01380E+01 1.88891E+00-3.62803E-04 1.98763E-01 1.40044E-13-1.65260E-13
 -1       814 2.77835E+01-2.30836E+00-4.52064E-02 2.33807E-01 3.34589E-14 1.42948E-13
 -1       815 1.89924E+01-3.06675E-01 4.44884E-03 3.18698E+00 3.77212E-14 6.20576E-14
 -1       816 2.03804E+01-3.51803E+00 4.15371E-02-5.39579E+00-3.20743E-13-2.64393E-13
 -1       817 1.05702E+01 1.32358E+00 1.09219E-01-1.64657E+00 3.49759E-13-3.01228E-13
 -1       818 1.10181E+01 1.02262E+00 9.38283E-02 2.41927E+00-2.74490E-13 2.72511E-13
 -1       819 2.41898E+01-4.27897E+00 6.66657E-03 3.54946E+00-2.33291E-13-4.34963E-13
 -1       820 2.02211E+01 1.58089E+00-4.42661E-05 5.34141E-01 1.32016E-13-9.07488E-14
 -1       821 2.01360E+01 2.07318E+00-1.96674E-03-1.03156E+00-6.34307E-14-1.50641E-13
 -1       822 2.01707E+01 1.77550E+00-3.18049E-04 3.81339E-01 1.61135E-13-1.10446E-13
 -1       823 1.44435E+01 2.04924E+00 2.19487E-02-1.35702E+00 2.79002E-13-1.58853E-13
 -1       824 2.01703E+01 2.25513E-01 1.40390E-04-3.30415E-02 9.96420E-14 8.73268E-14
 -1       825 2.28654E+01-3.96284E+00 7.44912E-03-3.98201E+00-3.51976E-13-4.34779E-13
 -1       826 2.15869E+01-1.38743E+00-6.66906E-04 2.06905E+00-1.04149E-13-5.27596E-13
 -1       827 2.18725E+01-1.33511E+00 1.40132E-03 1.20474E+00-3.59982E-14-5.12435E-13
 -1       828 2.40892E+01 4.13558E+00-3.42147E-02-9.35258E-01 9.32414E-14-2.44959E-13
 -1       829 2.57198E+01 3.06315E+00-4.97314E-02 2.11922E+00 1.45150E-13 3.40934E-13
 -1       830 2.02177E+01 1.59041E+00-2.51636E-04-5.29317E-01-2.86138E-14-1.06527E-13
 -1       831 2.02238E+01 4.09908E-01 2.58850E-04 1.08616E-01 7.55204E-14 6.81019E-14
 -1       832 2.17196E+01-1.12653E+00-2.45777E-05 5.91657E-01-6.49631E-14-1.66432E-13
 -1       833 2.01690E+01 1.77985E+00-2.71503E-04-3.73427E-01 5.69733E-14-5.52527E-14
 -1       834 2.53086E+01 1.11285E+00-1.73349E-02-1.95644E+00-5.66153E-14-3.58640E-13
 -1       835 2.02598E+01 7.38163E-01 5.12093E-04 3.93249E-01 1.15988E-13 3.67260E-14
 -1       836 2.01260E+01 1.92661E+00-4.77233E-04 2.74038E-03 1.43195E-13-1.51288E-13
 -1       837 2.01370E+01 1.89052E+00-4.05935E-04-1.91778E-01 1.24128E-13-1.04453E-13
 -1       838 2.03159E+01 9.57113E-01 3.34248E-04-3.02535E-01-4.75768E-15-6.71861E-14
 -1       839 2.03326E+01 5.92695E-01 5.48285E-05-1.26040E-01-3.69510E-17-4.53035E-14
 -1       840 2.03176E+01 3.37624E-01-2.42031E-05-2.83618E-03 3.81383E-15-1.88485E-14
 -1       841 2.02859E+01 1.65491E-01 4.80669E-06 7.54869E-02 8.30868E-15-2.02207E-16
 -1       842 2.02475E+01 5.27966E-02 5.66777E-06 1.19401E-01-3.39321E-14 1.67638E-14
 -1       843 2.02084E+01-1.72044E-02 6.64713E-06 1.38907E-01-5.47421E-14 3.21500E-14
 -1       844 2.01734E+01-5.56595E-02 1.09010E-06 1.42418E-01-7.77364E-14-9.49458E-15
 -1       845 2.01404E+01-7.54191E-02 4.66576E-06 1.36430E-01-1.28389E-13-3.07699E-14
 -1       846 2.01119E+01-8.03701E-02 2.62606E-06 1.25184E-01-1.09231E-13-1.34020E-13
 -1       847 2.00877E+01-7.52649E-02 2.09529E-06 1.12135E-01-2.88775E-14-8.53929E-14
 -1       848 2.00674E+01-6.32461E-02 1.87756E-06 9.97272E-02-1.92430E-14-5.04860E-14
 -1       849 2.00504E+01-4.62332E-02 1.34558E-06 8.97021E-02 2.15474E-14-1.59561E-13
 -1       850 2.00362E+01-2.63743E-02-5.24551E-07 8.34884E-02-7.74872E-14-1.77671E-13
 -1       851 2.00224E+01-1.76461E-03 3.55317E-07 8.13416E-02 3.95748E-14-1.14895E-13
 -1       852 2.00082E+01 2.71735E-02-3.06029E-07 8.44766E-02 5.53149E-14-1.00992E-14
 -1       853 1.99916E+01 6.15706E-02-1.01799E-06 9.35115E-02 3.67868E-14 4.84584E-15
 -1       854 1.99700E+01 1.03255E-01-1.97488E-06 1.08946E-01 2.56378E-14-8.37097E-14
 -1       855 1.99397E+01 1.54806E-01-4.22298E-06 1.31055E-01-8.08581E-14-7.41787E-14
 -1       856 1.98954E+01 2.19715E-01 3.33929E-06 1.59611E-01-1.11694E-13-1.49471E-13
 -1       857 1.98332E+01 2.97675E-01-1.46914E-05 1.91885E-01-1.82291E-13-9.25431E-14
 -1       858 1.97363E+01 4.01900E-01-1.27665E-05 2.28895E-01 1.43240E-14 1.22452E-13
 -1       859 1.95910E+01 5.35057E-01-1.71951E-05 2.64132E-01 4.03038E-14 9.19862E-14
 -1       860 1.93748E+01 7.03085E-01-3.30291E-05 2.88874E-01 2.80211E-15-7.30627E-14
 -1       861 1.90557E+01 9.10197E-01-7.27323E-05 2.88565E-01-1.39983E-13-1.38014E-15
 -1       862 1.85887E+01 1.15520E+00-3.96061E-05 2.39761E-01-6.35903E-14-1.47129E-13
 -1       863 1.79519E+01 1.41237E+00-2.69533E-04 1.19822E-01-1.34867E-13-1.30438E-13
 -1       864 1.69975E+01 1.67750E+00 3.47585E-04-1.26052E-01 4.09333E-15-1.88542E-13
 -1       865 1.56107E+01 1.87419E+00 4.87631E-03-5.55318E-01 5.01832E-14-3.26243E-13
 -1       866 1.38329E+01 1.76392E+00 2.51619E-02-1.53500E+00-3.12380E-14-1.30027E-13
 -1       867 2.02300E+01 9.76371E-02 1.63337E-05-1.10490E-01 4.88262E-14 3.23274E-14
 -1       868 2.55444E+01-1.74629E+00-1.96833E-02-7.89583E-01-6.42741E-14-3.29304E-13
 -1       869 2.00982E+01-7.42683E-02-3.16233E-06-1.41087E-01 1.05733E-13 6.01554E-14
 -1       870 1.25390E+01 1.80357E+00 5.16380E-02 2.12617E-01 1.64380E-13-2.03814E-13
 -1       871 2.00760E+01-7.35220E-02-2.61729E-06-1.27050E-01 6.07536E-14 1.14306E-13
 -1       872 2.00578E+01-6.53627E-02-2.09304E-06-1.12569E-01-2.68149E-14 1.40317E-13
 -1       873 2.00429E+01-5.22791E-02-1.55117E-06-9.97672E-02-6.38638E-14 3.34383E-14
 -1       874 2.00306E+01-3.59136E-02-1.06756E-06-9.01331E-02-7.39723E-14 6.10538E-14
 -1       875 2.00203E+01-1.73381E-02-6.19293E-07-8.47386E-02-5.19971E-14 3.96575E-14
 -1       876 2.00114E+01 2.69322E-03-1.53973E-07-8.44041E-02 1.50437E-14 2.45769E-14
 -1       877 2.00035E+01 2.34861E-02 3.46535E-07-8.98023E-02-4.14978E-14-9.38121E-14
 -1       878 1.99964E+01 4.41310E-02 9.00487E-07-1.01508E-01-1.11420E-13-1.40938E-14
 -1       879 1.99906E+01 6.31900E-02 1.53988E-06-1.19988E-01-2.84688E-14 1.30977E-13
 -1       880 1.99870E+01 7.83339E-02 2.23666E-06-1.45524E-01 1.07070E-13 6.09935E-14
 -1       881 1.99879E+01 8.59478E-02 2.83942E-06-1.78033E-01 1.85091E-15 4.25862E-14
 -1       882 1.99972E+01 8.07384E-02 2.99999E-06-2.16768E-01 1.86132E-14 1.09060E-14
 -1       883 2.00210E+01 5.54482E-02 2.27243E-06-2.59818E-01-7.63313E-14 7.06216E-14
 -1       884 2.00684E+01 8.95178E-04 2.12945E-07-3.03354E-01-1.71368E-13 1.32925E-13
 -1       885 2.01518E+01-9.33037E-02-5.13345E-06-3.40507E-01-1.25993E-13 1.29841E-13
 -1       886 2.02865E+01-2.36729E-01-1.66081E-05-3.59881E-01-2.88556E-14 2.05660E-13
 -1       887 2.04895E+01-4.34046E-01-3.40554E-05-3.43830E-01-6.23386E-15 1.13068E-13
 -1       888 2.07752E+01-6.77768E-01-7.47310E-05-2.67076E-01-4.02121E-14 2.07277E-13
 -1       889 2.11464E+01-9.36661E-01-6.27972E-06-9.86234E-02-3.04482E-13 2.35064E-13
 -1       890 2.15836E+01-1.14606E+00 3.68540E-05 1.92629E-01-4.39678E-14 3.44712E-13
 -1       891 2.20254E+01-1.19130E+00-8.97185E-05 6.15529E-01 3.02222E-14 2.39770E-13
 -1       892 2.23748E+01-9.33052E-01 8.01778E-04 1.12126E+00-1.65018E-13 6.93639E-14
 -1       893 2.25066E+01-2.55207E-01-2.70956E-04 1.56238E+00 1.46102E-14 1.43742E-13
 -1       894 2.23905E+01 7.91975E-01 2.56218E-03 1.71543E+00-7.15820E-14 1.57633E-13
 -1       895 2.20534E+01 1.91727E+00-6.80322E-03 1.33278E+00-1.53776E-14 2.66838E-13
 -1       896 2.17954E+01 2.58348E+00-1.09678E-02 4.53745E-01 7.00325E-14 1.38022E-13
 -1       897 2.19166E+01 2.39797E+00-1.85869E-03-5.75500E-01 1.38187E-13 1.06798E-13
 -1       898 2.22300E+01 1.49643E+00 1.74544E-04-1.31217E+00-4.59507E-15 1.13736E-13
 -1       899 2.24809E+01 3.74464E-01 1.31681E-03-1.47080E+00-9.99342E-14 1.47573E-13
 -1       900 2.25435E+01-5.60636E-01-1.71779E-04-1.17059E+00 1.95792E-14 4.19719E-14
 -1       901 2.23081E+01-1.02531E+00-1.23428E-03-6.75837E-01-2.25720E-13 2.24611E-14
 -1       902 2.18884E+01-1.09624E+00-2.37382E-03-1.84209E-01-2.87614E-13 3.32762E-13
 -1       903 1.45964E+01 8.26890E-01 3.57690E-02 3.06096E+00 5.20768E-14 5.17378E-13
 -1       904 1.80906E+01-1.11222E+00 2.59546E-02 4.45075E+00-4.12335E-14 3.33934E-15
 -1       905 2.36442E+01 3.91072E+00-3.78570E-02 8.99013E-01 8.62288E-14-1.95331E-13
 -1       906 1.82468E+01-1.71824E+00 2.30909E-02-4.68024E+00-4.84505E-14-8.11087E-14
 -1       907 2.13781E+01-8.72653E-01 7.79277E-04 1.87220E-01-2.62334E-13 2.43811E-14
 -1       908 1.50267E+01 2.88917E-01 2.76345E-02-3.79474E+00-5.39109E-14-1.42321E-13
 -1       909 2.01248E+01-6.39398E-02-3.50558E-06-1.51643E-01 5.84959E-14-3.39070E-14
 -1       910 2.20520E+01-3.03014E+00 4.64643E-03 3.77934E+00 9.54965E-15-4.35719E-13
 -1       911 2.56979E+01-3.27903E+00-2.21524E-03-9.81306E-01-3.02631E-14 2.29027E-13
 -1       912 2.62347E+01-3.66518E-01-4.54278E-02 1.67563E+00 8.56190E-14 2.99627E-13
 -1       913 2.03061E+01 9.21420E-01 1.03704E-04 3.53014E-01 1.00612E-13-3.75663E-14
 -1       914 2.47577E+01-3.26361E+00-1.47162E-03 1.45107E+00-6.23569E-14-5.98386E-13
 -1       915 2.02688E+01 2.30829E-01-7.80133E-05-4.51795E-02 9.35315E-14 2.12406E-15
 -1       916 2.04035E+01-2.60916E+00 8.29263E-03-4.19392E+00-2.61995E-13-4.25849E-13
 -1       917 2.20870E+01-2.23474E+00 2.54079E-04 2.69412E+00 1.36418E-13-4.90245E-13
 -1       918 2.26836E+01-2.04158E+00 1.02406E-03 1.47503E+00-1.07654E-14-6.38424E-13
 -1       919 2.01916E+01 1.31696E-02-3.18947E-07-1.43464E-01 5.98905E-14 3.41298E-14
 -1       920 2.37071E+01 3.14746E+00-2.25582E-02 1.50412E+00 1.13656E-13-1.96754E-13
 -1       921 2.52377E+01-1.84409E+00-1.97963E-03 7.36788E-01-9.85770E-14-1.64977E-14
 -1       922 2.25226E+01-1.65321E+00-7.10979E-04 6.51073E-01-1.06364E-13-4.41646E-13
 -1       923 2.03164E+01 1.12799E+00 5.27178E-05-2.36485E-01 2.05662E-14 1.56047E-14
 -1       924 2.38385E+01 2.31166E+00-1.39845E-02-1.66436E+00-6.21018E-14-2.47567E-13
 -1       925 2.02843E+01 1.33811E+00-5.32857E-05 1.97073E-01 1.11371E-13-1.21153E-13
 -1       926 2.01561E+01-3.72690E-02-3.08252E-06-1.54422E-01 4.79706E-14-1.83237E-14
 -1       927 2.02736E+01 1.40531E+00-3.89175E-04 7.04142E-02 1.14019E-13-1.70775E-13
 -1       928 2.03277E+01 6.05275E-01-8.58405E-05 1.45146E-01 4.18927E-14-7.55245E-14
 -1       929 2.03055E+01 3.90774E-01-1.71804E-04 3.71130E-02 6.89377E-14-3.94291E-14
 -1       930 2.03777E+01 5.50827E-01 2.38244E-05-6.17796E-02-1.00129E-14 4.15006E-14
 -1       931 2.03708E+01 3.04946E-01-3.00838E-05 1.87033E-02 1.83944E-14 1.66608E-14
 -1       932 2.03426E+01 1.38434E-01-1.20759E-06 6.90756E-02-2.28654E-14-2.18176E-14
 -1       933 2.03037E+01 2.98473E-02 2.39124E-06 9.63142E-02-4.97539E-14-5.18022E-14
 -1       934 2.02632E+01-3.41013E-02-2.51554E-06 1.07106E-01-6.03505E-14-6.79631E-14
 -1       935 2.02209E+01-7.17067E-02 3.14574E-06 1.07940E-01-1.21621E-13-3.23079E-14
 -1       936 2.01813E+01-8.76193E-02 5.32517E-06 1.02307E-01-1.62981E-13 9.44270E-15
 -1       937 2.01458E+01-8.86302E-02 5.19089E-06 9.35712E-02-4.96677E-14 6.43617E-15
 -1       938 2.01145E+01-7.93791E-02 4.82836E-06 8.41178E-02-4.06449E-14 1.67332E-15
 -1       939 2.00871E+01-6.29342E-02 3.91753E-06 7.56588E-02-6.75680E-14-4.27606E-14
 -1       940 2.00639E+01-4.23615E-02 5.84959E-07 6.95887E-02-1.78979E-14-5.04940E-14
 -1       941 2.00413E+01-1.63101E-02 9.89213E-07 6.60480E-02-7.92860E-15-2.94107E-15
 -1       942 2.00189E+01 1.42487E-02-8.08287E-07 6.59730E-02 1.17399E-13-5.28887E-14
 -1       943 1.99946E+01 4.99426E-02-2.61597E-06 6.96206E-02 2.89860E-14-6.28375E-14
 -1       944 1.99659E+01 9.20361E-02-4.68300E-06 7.69505E-02-4.30506E-14-1.12543E-13
 -1       945 1.99292E+01 1.42368E-01-7.86030E-06 8.74660E-02-8.16847E-14-1.95483E-13
 -1       946 1.98797E+01 2.03359E-01-3.34306E-06 9.98699E-02-8.11507E-14-9.69285E-14
 -1       947 1.98152E+01 2.73748E-01-1.72693E-05 1.11295E-01-1.05348E-13-4.28548E-14
 -1       948 1.97208E+01 3.63927E-01-1.52971E-05 1.18828E-01 9.42429E-14 6.39573E-14
 -1       949 1.95878E+01 4.73786E-01-1.32125E-05 1.14572E-01 3.76419E-14 1.97466E-13
 -1       950 1.94006E+01 6.05452E-01-9.87902E-06 8.70639E-02-1.20490E-13 1.10531E-13
 -1       951 1.91392E+01 7.58514E-01-3.07303E-06 1.84857E-02-9.09515E-14-1.16851E-14
 -1       952 1.87776E+01 9.26770E-01 7.31968E-05-1.18352E-01-1.51478E-13 9.09003E-15
 -1       953 1.83118E+01 1.08644E+00 1.23465E-04-3.45385E-01-7.06438E-14-7.96300E-15
 -1       954 1.76564E+01 1.22208E+00 7.39230E-04-7.37238E-01-9.96997E-14 2.19748E-14
 -1       955 1.67841E+01 1.25910E+00 2.44897E-03-1.36134E+00-1.49566E-15 3.49842E-14
 -1       956 1.59041E+01 9.96777E-01 9.12842E-03-2.36186E+00 5.81165E-14-1.09017E-13
 -1       957 2.03012E+01 1.20081E+00 4.29573E-05 3.03938E-01 1.10584E-13-1.29981E-13
 -1       958 2.40826E+01-2.63000E-01-1.40686E-02-1.54662E+00-1.82358E-14-1.41644E-13
 -1       959 2.03000E+01-1.77551E+00-1.38898E-03 3.78274E+00 2.24994E-15-1.96152E-13
 -1       960 2.00643E+01-5.18785E-02 2.68196E-06-7.97494E-02-1.66016E-14 1.69693E-13
 -1       961 2.00441E+01-3.08924E-02 1.79361E-06-7.39992E-02 3.48656E-14 7.76436E-14
 -1       962 2.00257E+01-7.35726E-03 8.48054E-07-7.22817E-02 2.00819E-14 3.26508E-14
 -1       963 2.00084E+01 1.79515E-02-1.13176E-07-7.54451E-02-5.27765E-15 1.68347E-14
 -1       964 1.99914E+01 4.42460E-02-1.07432E-06-8.43425E-02-1.75527E-13 1.26094E-13
 -1       965 1.99744E+01 7.03955E-02-2.00613E-06-9.99107E-02-5.70829E-14 1.47176E-13
 -1       966 1.99576E+01 9.45415E-02-2.55545E-06-1.23216E-01 4.72026E-14 8.81301E-15
 -1       967 1.99423E+01 1.13630E-01-3.07453E-06-1.55440E-01 3.13377E-14 2.05069E-13
 -1       968 1.99314E+01 1.22931E-01-3.15284E-06-1.97777E-01-7.59095E-14 1.03494E-13
 -1       969 1.99300E+01 1.15477E-01-2.72282E-06-2.51191E-01-2.62665E-14 1.70762E-13
 -1       970 1.99467E+01 8.16465E-02-1.12920E-06-3.15868E-01-7.59954E-14 3.84874E-14
 -1       971 1.99943E+01 9.07037E-03 3.69507E-06-3.90226E-01-1.13472E-13 6.74510E-15
 -1       972 2.00912E+01-1.16657E-01 7.25206E-06-4.69170E-01-1.86853E-14-4.59614E-14
 -1       973 2.02612E+01-3.09608E-01 2.67041E-07-5.41334E-01-2.15540E-14 4.71971E-14
 -1       974 2.05326E+01-5.78184E-01-5.66243E-05-5.85322E-01-1.63490E-13 2.36999E-13
 -1       975 2.09344E+01-9.15724E-01-2.12556E-04-5.63784E-01-2.71626E-13 2.57097E-13
 -1       976 2.14789E+01-1.27831E+00 1.72272E-04-4.29213E-01-2.01009E-13 1.27864E-13
 -1       977 2.21513E+01-1.57207E+00 7.10489E-04-1.06038E-01-1.13603E-13 1.87990E-13
 -1       978 2.28592E+01-1.60325E+00 2.00625E-04 4.43536E-01-4.79063E-14 3.46560E-13
 -1       979 2.34216E+01-1.14779E+00-2.22681E-03 1.14818E+00-3.93296E-14 3.55647E-13
 -1       980 2.36316E+01 5.47211E-03-1.73892E-03 1.72794E+00 7.74593E-14 2.32373E-13
 -1       981 2.34113E+01-1.38065E+00 5.96717E-03-6.22113E-01-1.72595E-13 2.25593E-13
 -1       982 2.37434E+01-2.83171E+00 3.60529E-03 1.66851E+00-5.92937E-14-5.53563E-13
 -1       983 2.42049E+01-2.12266E+00-5.55734E-03-1.29606E-02-1.77933E-13-4.42809E-13
 -1       984 2.00872E+01-6.92530E-02 3.13177E-06-8.85843E-02-1.41216E-14 2.52512E-13
 -1       985 2.03101E+01 1.23791E+00 1.07793E-04-1.40157E-01 8.37171E-14-2.80055E-14
 -1       986 2.01790E+01-7.84029E-02 1.51785E-06-1.19279E-01 4.79291E-14 5.96194E-14
 -1       987 2.02903E+01 1.34522E+00 7.25051E-06-4.33973E-02 1.03140E-13-1.16054E-13
 -1       988 2.44193E+01 1.15051E+00-2.02411E-02 2.03795E+00 8.56658E-14 1.27167E-13
 -1       989 2.01137E+01-8.13613E-02 3.36875E-06-9.93090E-02 1.90761E-14 2.62409E-13
 -1       990 2.03610E+01 8.07006E-01-7.23293E-05-1.41644E-01 1.37399E-14 4.73738E-14
 -1       991 2.36299E+01-3.18737E+00 1.08452E-02-2.04552E+00-2.34295E-13 1.01894E-13
 -1       992 2.01442E+01-8.56680E-02 3.08372E-06-1.10300E-01 7.32562E-15 1.69056E-13
 -1       993 2.03600E+01 8.85741E-01-6.94677E-04 1.43136E-01 7.71186E-14-1.67444E-13
 -1       994 2.40506E+01-2.51299E+00-5.32911E-03-4.06756E-01-1.21020E-13 5.11135E-14
 -1       995 1.92399E+01-1.32639E+00 7.72569E-04-3.47355E+00-1.57991E-13 5.85844E-14
 -1       996 2.02176E+01-5.41893E-02-1.54144E-06-1.23082E-01 6.87017E-14 2.87609E-14
 -1       997 2.27658E+01-1.57457E+00 4.65261E-03 7.60482E-02-2.65734E-13-9.65001E-14
 -1       998 2.03659E+01 9.72300E-01 6.37379E-04 7.95690E-02 1.22246E-13-1.33742E-13
 -1       999 1.72966E+01-1.28613E-01 1.06929E-02-3.27801E+00 1.12771E-14 1.26080E-13
 -1      1000 2.32941E+01-1.98042E+00-3.73958E-03 4.10770E-01-2.25675E-14-4.21125E-13
 -1      1001 2.45443E+01-8.29329E-01-9.04389E-03 1.41324E+00 2.07429E-13 2.11779E-13
 -1      1002 2.02997E+01 7.80691E-02 3.35769E-05-9.66014E-02 2.99616E-14-6.36629E-14
 -1      1003 2.03343E+01 2.11042E-01 1.99423E-05-5.10674E-02 6.56512E-14-6.74299E-14
 -1      1004 2.03867E+01 6.10417E-01 4.31703E-04 7.16592E-02 3.96297E-14-2.02820E-13
 -1      1005 2.01675E+01-9.27749E-02 7.43058E-06-7.50437E-02-1.32619E-14 1.21236E-13
 -1      1006 2.04036E+01 2.50132E-01-1.42210E-05 2.56532E-02-4.36256E-14-4.07106E-14
 -1      1007 2.03734E+01 9.82287E-02-8.04112E-06 5.19420E-02-6.01897E-14-3.20388E-14
 -1      1008 2.03340E+01 4.54102E-03-3.78463E-06 6.50315E-02-6.06730E-14-1.66468E-14
 -1      1009 2.02882E+01-5.51817E-02-2.59018E-06 6.98735E-02-4.66223E-14-8.21554E-15
 -1      1010 2.02422E+01-8.57068E-02 2.92269E-07 6.88161E-02-1.23308E-13-6.58709E-14
 -1      1011 2.01987E+01-9.58272E-02 1.06602E-05 6.45110E-02-7.11754E-14-1.72473E-14
 -1      1012 2.01591E+01-9.17965E-02 1.11232E-05 5.88017E-02-3.77070E-14-8.25124E-15
 -1      1013 2.01236E+01-7.79700E-02 1.11969E-05 5.30987E-02-5.89344E-14-4.76599E-14
 -1      1014 2.00932E+01-5.84052E-02 4.70568E-06 4.84995E-02-5.92354E-14 8.14299E-14
 -1      1015 2.00637E+01-3.25637E-02 3.66023E-06 4.50771E-02-1.52108E-14 6.81787E-14
 -1      1016 2.00355E+01-1.98484E-03-7.81112E-07 4.34306E-02 1.04271E-14 7.39227E-14
 -1      1017 2.00064E+01 3.33720E-02-5.78434E-06 4.35546E-02 7.13194E-14-5.89524E-14
 -1      1018 1.99741E+01 7.41446E-02-1.15139E-05 4.50872E-02 2.33554E-14-4.88122E-14
 -1      1019 1.99355E+01 1.21405E-01-1.81824E-05 4.71379E-02-9.23001E-14-8.26540E-15
 -1      1020 1.98869E+01 1.76530E-01-2.01407E-05 4.79450E-02-1.53428E-13 4.62849E-15
 -1      1021 1.98273E+01 2.37481E-01-3.49550E-05 4.49780E-02 1.37743E-14-2.06264E-14
 -1      1022 1.97449E+01 3.11812E-01-3.87190E-05 3.33580E-02 1.22275E-13 7.20681E-14
 -1      1023 1.96352E+01 3.97120E-01-3.82650E-05 5.51271E-03 1.20619E-13 1.13686E-13
 -1      1024 1.94896E+01 4.92210E-01-3.05607E-05-4.99111E-02-1.42001E-13 6.11781E-14
 -1      1025 1.92987E+01 5.92668E-01 2.03786E-06-1.49811E-01-1.13274E-13 1.59596E-13
 -1      1026 1.90522E+01 6.88110E-01 9.34138E-05-3.18645E-01-1.66186E-13 1.46043E-13
 -1      1027 1.87594E+01 7.56249E-01 2.59062E-04-5.72651E-01-1.93998E-13 1.13711E-13
 -1      1028 1.83867E+01 7.70575E-01 7.06958E-04-9.79903E-01-7.12222E-14 1.17753E-13
 -1      1029 1.79691E+01 6.57891E-01 1.99861E-03-1.58487E+00 3.98296E-14 7.37363E-14
 -1      1030 2.00454E+01-2.04116E-02 2.24240E-06-5.35872E-02-1.13507E-14 2.33775E-13
 -1      1031 2.19955E+01-2.45760E+00 6.49857E-03-2.41000E+00-3.41577E-13-1.10216E-13
 -1      1032 2.03727E+01 9.02474E-01 5.07846E-05-8.93001E-02 3.31507E-14-5.85419E-15
 -1      1033 2.00715E+01-4.59184E-02 5.19596E-06-5.58119E-02 1.84295E-14 1.72645E-13
 -1      1034 1.99959E+01 3.85979E-02-4.45654E-06-6.08031E-02-8.46208E-14 1.96714E-13
 -1      1035 1.99702E+01 7.06650E-02-7.57367E-06-7.23125E-02-6.65261E-14 1.15483E-14
 -1      1036 1.99428E+01 1.02985E-01-1.03564E-05-9.09491E-02 6.33181E-15 6.06919E-14
 -1      1037 1.99138E+01 1.33457E-01-1.00566E-05-1.18706E-01-2.40975E-14 9.53455E-14
 -1      1038 1.98844E+01 1.58518E-01-7.71188E-06-1.58100E-01 5.58102E-14 1.45032E-13
 -1      1039 1.98574E+01 1.72543E-01-6.46324E-07-2.12337E-01-9.59491E-14 1.06893E-13
 -1      1040 1.98391E+01 1.67066E-01 1.46734E-05-2.85075E-01-4.22037E-14 2.19729E-13
 -1      1041 1.98395E+01 1.30063E-01 4.39446E-05-3.79957E-01-2.60513E-14 1.28486E-13
 -1      1042 1.98751E+01 4.54602E-02 9.83082E-05-4.99403E-01-3.37626E-14 8.59843E-15
 -1      1043 1.99704E+01-1.06603E-01 1.68197E-04-6.42130E-01-1.20761E-13 1.98283E-13
 -1      1044 2.01602E+01-3.48007E-01 2.15996E-04-7.98490E-01-1.41298E-13 1.55262E-13
 -1      1045 2.04873E+01-6.94544E-01-1.21361E-04-9.43732E-01-1.69302E-13 1.59403E-13
 -1      1046 2.10187E+01-1.15196E+00-2.37631E-03-1.01375E+00-1.23854E-13-1.96383E-13
 -1      1047 2.17803E+01-1.66892E+00-4.00156E-03-9.39891E-01-2.28192E-13-1.75678E-13
 -1      1048 2.27518E+01-2.08863E+00-3.66680E-03-6.19004E-01-2.72702E-13-6.95776E-15
 -1      1049 2.02587E+01-5.43738E-03-3.93788E-06-1.17360E-01 7.98735E-14-2.30273E-14
 -1      1050 2.00999E+01-6.76142E-02 7.49028E-06-6.07608E-02-8.03057E-15 1.17600E-13
 -1      1051 2.04117E+01 4.75906E-01-6.70864E-06-1.78055E-02-3.10445E-15-5.62527E-15
 -1      1052 2.01317E+01-8.40199E-02 7.88865E-06-6.75460E-02-2.08409E-15 1.06493E-13
 -1      1053 2.02075E+01-9.02615E-02 2.18415E-06-8.18069E-02-2.43949E-14 1.11162E-13
 -1      1054 2.00206E+01 7.98630E-03-1.05784E-06-5.49413E-02 3.77860E-14 2.50867E-13
 -1      1055 2.03730E+01 3.78235E-01-1.14275E-04 4.21865E-03 5.86985E-14-1.69114E-13
 -1      1056 1.76050E+01 3.95844E-01 4.77390E-03-2.32528E+00-3.29353E-14 1.60178E-13
 -1      1057 2.03666E+01 9.93176E-01 5.66573E-05-3.17231E-02 4.25191E-14-8.15988E-14
 -1      1058 2.02509E+01-7.12875E-02-1.10901E-05-8.57226E-02 1.74652E-14 1.54486E-14
 -1      1059 2.04077E+01 6.76709E-01-1.95527E-04 4.30522E-02 7.88672E-14-1.54948E-13
 -1      1060 2.03687E+01 9.91254E-01 3.63264E-04 3.25611E-02 7.80863E-14-1.53348E-13
 -1      1061 2.04013E+01 6.68920E-01 5.19938E-05-5.19599E-02-2.26479E-14-1.97310E-14
 -1      1062 2.03396E+01 4.77877E-02-1.74390E-05-7.32977E-02-1.44828E-14-1.14776E-13
 -1      1063 2.03783E+01 1.68493E-01-4.97354E-05-4.96512E-02 2.12750E-14-1.79559E-13
 -1      1064 1.88861E+01-5.29353E-01 1.78404E-03-2.66981E+00 2.16290E-14 1.15186E-13
 -1      1065 2.09116E+01-1.64125E+00 3.90005E-03-2.25855E+00-2.34564E-13-6.30004E-14
 -1      1066 2.03805E+01 5.50621E-02 8.61065E-05 2.39796E-02-4.18693E-14 2.26721E-14
 -1      1067 2.03358E+01-2.81825E-02-1.84162E-05 2.77179E-02-6.09669E-14-9.86700E-15
 -1      1068 2.02879E+01-7.45968E-02-4.89394E-05 2.83514E-02-1.12310E-13-4.21830E-14
 -1      1069 2.02413E+01-9.57591E-02 2.32043E-05 2.74877E-02-6.51857E-14 1.70249E-14
 -1      1070 2.01962E+01-9.87199E-02 9.42184E-06 2.56590E-02-4.69860E-14-6.89521E-15
 -1      1071 2.01551E+01-8.92092E-02-3.48236E-06 2.34512E-02-1.62197E-14-3.73711E-16
 -1      1072 2.01197E+01-7.19986E-02 1.26343E-06 2.13834E-02 5.15154E-14 2.97371E-14
 -1      1073 2.00856E+01-4.77272E-02 5.66994E-06 1.95413E-02-3.55635E-14 8.06213E-14
 -1      1074 2.00536E+01-1.83811E-02 4.32794E-06 1.80399E-02 3.33852E-15 5.27594E-14
 -1      1075 2.00218E+01 1.54949E-02 2.39553E-06 1.66558E-02 2.25957E-14 1.08991E-13
 -1      1076 1.99883E+01 5.39390E-02-5.41701E-07 1.48341E-02 2.44748E-14 7.29090E-14
 -1      1077 1.99506E+01 9.73327E-02-4.69737E-06 1.15249E-02-3.09001E-14-3.77087E-14
 -1      1078 1.99059E+01 1.46203E-01 4.46532E-06 4.90933E-03-6.99624E-14-1.27434E-13
 -1      1079 1.98540E+01 1.97920E-01-2.66961E-05-6.97303E-03-1.57226E-13 4.89088E-14
 -1      1080 1.97862E+01 2.57593E-01-5.30852E-05-2.97552E-02-1.78015E-14-1.34517E-13
 -1      1081 1.97014E+01 3.21213E-01-9.43887E-05-6.97390E-02 7.72931E-14-2.61148E-13
 -1      1082 1.95962E+01 3.85150E-01-1.61439E-04-1.36715E-01 7.26916E-14-2.87515E-13
 -1      1083 1.94689E+01 4.42234E-01-2.64229E-04-2.44591E-01 6.78257E-15-1.01072E-13
 -1      1084 1.93205E+01 4.79508E-01-3.70798E-04-4.12426E-01-7.51171E-14 1.67325E-15
 -1      1085 1.91656E+01 4.77202E-01-6.52312E-04-6.49767E-01-2.71167E-13 1.30685E-13
 -1      1086 1.90076E+01 4.01907E-01-9.01929E-04-1.00858E+00-4.89341E-14 2.88479E-13
 -1      1087 1.88958E+01 2.02622E-01 5.22035E-04-1.51229E+00-6.25502E-14 3.70958E-13
 -1      1088 2.00676E+01-3.49076E-02 5.14958E-06-2.98071E-02 8.80678E-15 7.78073E-14
 -1      1089 1.99417E+01 1.02327E-01 4.16643E-06-5.35625E-02-7.37794E-14 1.07281E-13
 -1      1090 1.99760E+01 6.39501E-02 4.87059E-06-4.08233E-02-3.30271E-14 8.62142E-15
 -1      1091 1.98596E+01 1.81065E-01 1.33982E-05-1.05149E-01-7.68990E-14 2.41206E-13
 -1      1092 1.98116E+01 2.15664E-01 3.22087E-05-1.51624E-01-1.30793E-13 4.23800E-13
 -1      1093 1.97615E+01 2.39732E-01 5.77224E-05-2.19212E-01-4.18361E-15 4.03799E-13
 -1      1094 1.97149E+01 2.43669E-01 9.95202E-05-3.15396E-01 3.68463E-14 1.55934E-13
 -1      1095 1.96825E+01 2.13125E-01 1.71692E-04-4.48946E-01 6.24842E-14 9.02852E-14
 -1      1096 1.96827E+01 1.27794E-01 2.72390E-04-6.28761E-01-6.88106E-14 1.23169E-13
 -1      1097 1.97456E+01-3.95501E-02 3.01778E-04-8.61035E-01-6.28643E-14 9.45091E-14
 -1      1098 1.99199E+01-3.24875E-01 8.76452E-06-1.14379E+00-3.47541E-14-8.17447E-14
 -1      1099 2.03220E+01-7.59867E-01 6.70297E-03-1.44304E+00-2.88910E-14-8.26307E-14
 -1      1100 2.02960E+01-2.85819E-02-1.71267E-05-8.41695E-02 2.50419E-14-2.50372E-14
 -1      1101 2.04156E+01 1.86013E-01-4.04455E-05 1.56106E-02-1.85379E-14-1.30256E-14
 -1      1102 2.00374E+01-5.16338E-03 3.99652E-06-3.02555E-02 5.56710E-14 1.00065E-13
 -1      1103 2.00994E+01-6.06471E-02 9.65014E-06-3.14316E-02-2.74298E-14 1.07507E-13
 -1      1104 2.04308E+01 3.86259E-01 5.84517E-05 1.14565E-03-4.97848E-15-7.58748E-14
 -1      1105 2.00074E+01 2.79331E-02 3.83307E-06-3.35690E-02-1.91990E-14-2.36408E-15
 -1      1106 1.99031E+01 1.42025E-01-1.29909E-06-7.39435E-02 1.11144E-14 1.39976E-13
 -1      1107 2.02150E+01-9.77181E-02 2.08725E-05-4.18759E-02-3.24098E-14 9.71849E-14
 -1      1108 2.04149E+01 4.40898E-01 2.93806E-04 9.27639E-03 5.46351E-14-1.93326E-13
 -1      1109 1.87994E+01-9.62091E-02-1.39403E-02-2.01170E+00-2.91050E-14 2.36903E-13
 -1      1110 2.04046E+01 7.49621E-01 1.87729E-04-2.37573E-02-2.52397E-14-8.91195E-14
 -1      1111 2.02609E+01-8.63490E-02-9.67165E-05-4.46970E-02-3.98988E-14 7.98681E-14
 -1      1112 2.01340E+01-8.11756E-02 2.28900E-05-3.44367E-02 1.43711E-14 9.36032E-14
 -1      1113 2.03948E+01 1.19060E-01 4.49115E-05-3.09586E-02-5.02367E-14-1.23102E-13
 -1      1114 2.03540E+01 1.20312E-02 5.38853E-05-4.16913E-02-1.03815E-13-9.43934E-14
 -1      1115 2.04259E+01 5.48926E-01-1.08195E-04-1.05070E-02-1.24269E-14-4.70734E-14
 -1      1116 2.01725E+01-9.46218E-02 1.97404E-05-3.81756E-02-2.18437E-14 1.05168E-13
 -1      1117 2.03622E+01 8.63693E-03-4.99618E-05-1.25403E-02-1.19689E-13-1.98784E-14
 -1      1118 2.04125E+01 7.07027E-01 3.17415E-04 1.33643E-02 2.78249E-14-6.97352E-14
 -1      1119 2.03158E+01-5.46282E-02 3.09100E-04-1.31615E-02-6.36862E-14-4.05035E-14
 -1      1120 2.03067E+01-5.25679E-02-1.00110E-04-4.53022E-02-2.02755E-14 2.57612E-14
 -1      1121 2.04308E+01 2.78351E-01-3.39249E-04-4.88874E-03-1.02729E-14 4.48230E-14
 -1      1122 2.03961E+01 8.79600E-02 2.18236E-05-6.24304E-03-3.48642E-14 2.29495E-14
 -1      1123 2.04330E+01 4.17154E-01 1.07507E-04 8.60055E-05 4.80977E-15 1.19028E-14
 -1      1124 2.79280E+01 9.07607E+00 2.32534E+00-6.71478E+00-2.48135E-14 4.95520E-13
 -1      1125 2.05410E+01 6.22463E+00 2.07740E-01-3.89674E+00-1.26288E-14-7.73201E-14
 -1      1126 1.94351E+01 5.85300E+00 7.49051E-02-2.88732E+00-9.25648E-15-2.85416E-13
 -1      1127 1.90264E+01 5.72602E+00 6.02816E-02-2.23546E+00-3.45904E-15-3.68191E-13
 -1      1128 1.88403E+01 5.66943E+00 5.78212E-02-1.70164E+00-2.71658E-15-3.87318E-13
 -1      1129 1.87458E+01 5.64042E+00 5.55638E-02-1.23431E+00-2.61076E-16-3.83901E-13
 -1      1130 1.86966E+01 5.62512E+00 5.37659E-02-8.04522E-01 1.07553E-16-3.65838E-13
 -1      1131 1.86725E+01 5.61750E+00 5.25149E-02-3.93066E-01 2.17990E-15-3.40187E-13
 -1      1132 1.86656E+01 5.61530E+00 5.21157E-02 8.19459E-03 2.66757E-15-3.23593E-13
 -1      1133 1.86735E+01 5.61783E+00 5.26274E-02 4.09851E-01 4.33572E-15-2.96758E-13
 -1      1134 1.86987E+01 5.62581E+00 5.40159E-02 8.22611E-01 3.92871E-15-2.63505E-13
 -1      1135 1.87495E+01 5.64173E+00 5.62237E-02 1.25494E+00 6.43149E-15-2.08513E-13
 -1      1136 1.88450E+01 5.67107E+00 5.84985E-02 1.72664E+00 7.55992E-15-1.22067E-13
 -1      1137 1.90322E+01 5.72786E+00 6.06992E-02 2.26776E+00 8.93730E-15-4.63778E-15
 -1      1138 1.94318E+01 5.85039E+00 6.95032E-02 2.92819E+00 1.12133E-14 1.91125E-13
 -1      1139 2.04535E+01 6.18196E+00 1.53010E-01 3.87804E+00 8.35443E-15 5.31727E-13
 -1      1140 2.52177E+01 7.99441E+00 1.43027E+00 5.84594E+00 8.54872E-15 1.13445E-12
 -1      1141 2.91187E+01 3.74635E+00 1.36956E+00-4.36868E+00-1.03806E-13 8.58758E-13
 -1      1142 2.03933E+01-1.70653E-01-6.24133E-01-1.48953E-01-3.49165E-14 6.13620E-13
 -1      1143 1.88666E+01-9.81397E-02-2.50134E-01 6.28436E-02-1.10988E-14 2.95312E-13
 -1      1144 1.85103E+01-4.96885E-02-6.41126E-02 4.13792E-02-1.59768E-14 9.85323E-14
 -1      1145 1.84459E+01-2.54038E-02-1.64123E-02 2.72935E-02-6.44537E-15-3.69843E-14
 -1      1146 1.85234E+01-1.31522E-02-5.22256E-03 1.93865E-02 6.52083E-15-5.05811E-14
 -1      1147 1.86646E+01-7.28375E-03-1.64397E-03 1.44859E-02-1.27092E-14-8.79418E-14
 -1      1148 1.88322E+01-3.16943E-03 3.39317E-04 1.10583E-02-4.29827E-15-1.20324E-13
 -1      1149 1.90090E+01-7.82463E-04 1.76833E-03 8.40956E-03 1.82466E-15-1.42402E-13
 -1      1150 1.91770E+01 5.91884E-04 2.57220E-03 6.40594E-03-1.05861E-14-2.61749E-13
 -1      1151 1.93289E+01 1.34038E-03 2.92242E-03 4.83780E-03-3.83096E-15-3.37126E-13
 -1      1152 1.94615E+01 1.68388E-03 2.95611E-03 3.59808E-03-6.60108E-15-3.92097E-13
 -1      1153 1.95740E+01 1.75087E-03 2.77824E-03 2.61081E-03-4.99871E-15-3.67244E-13
 -1      1154 1.96654E+01 1.76209E-03 2.54892E-03 1.76192E-03 1.16010E-16-3.66800E-13
 -1      1155 1.97400E+01 1.48235E-03 2.13167E-03 1.26957E-03-1.70760E-14-4.45241E-13
 -1      1156 1.98021E+01 1.21540E-03 1.72195E-03 7.86911E-04 9.78796E-15-5.60917E-13
 -1      1157 1.98521E+01 8.93627E-04 1.28254E-03 4.16520E-04-9.69549E-15-6.76947E-13
 -1      1158 1.98932E+01 5.25243E-04 8.15570E-04 1.32587E-04 8.49267E-15-5.98960E-13
 -1      1159 1.99287E+01 1.03942E-04 3.06874E-04-7.95404E-05 6.84803E-15-4.77216E-13
 -1      1160 1.99614E+01-3.62378E-04-2.50116E-04-2.26235E-04 1.81943E-14-2.59851E-13
 -1      1161 1.99961E+01-9.64179E-04-9.25111E-04-3.35815E-04-2.29065E-14-3.61478E-13
 -1      1162 2.00387E+01-1.72693E-03-1.80223E-03-3.77902E-04-3.23162E-14-5.05033E-13
 -1      1163 2.00946E+01-2.73465E-03-2.97481E-03-3.40866E-04-4.23191E-16-4.79824E-13
 -1      1164 2.01724E+01-4.10955E-03-4.61348E-03-1.78073E-04-2.98123E-14-2.94625E-13
 -1      1165 2.02840E+01-6.02486E-03-6.97510E-03 2.04349E-04-6.22393E-14-3.92663E-13
 -1      1166 2.04465E+01-8.53714E-03-1.04001E-02 1.02689E-03 2.50597E-14-4.92248E-13
 -1      1167 2.06772E+01-1.26416E-02-1.55496E-02 2.72551E-03-4.03540E-14-7.18357E-13
 -1      1168 2.10148E+01-1.77492E-02-2.31408E-02 4.99526E-03 1.09825E-14-6.69880E-13
 -1      1169 2.15233E+01-2.51698E-02-3.46918E-02 9.92413E-03 9.41695E-15-6.37322E-13
 -1      1170 2.22745E+01-3.49513E-02-5.14104E-02 1.88686E-02 4.10839E-14-5.77476E-13
 -1      1171 2.33791E+01-4.65805E-02-7.35427E-02 3.47358E-02 2.91225E-14-4.53450E-13
 -1      1172 2.49808E+01-5.54447E-02-9.60755E-02 6.16473E-02 6.02912E-14-2.43951E-13
 -1      1173 2.71628E+01-6.06933E-02-1.02859E-01 1.00951E-01-5.12273E-14-2.75099E-13
 -1      1174 3.00193E+01-3.64035E-02-5.38624E-02 1.47301E-01-1.79635E-14-1.25733E-14
 -1      1175 3.33642E+01 3.98941E-02 1.25114E-01 1.68111E-01-4.37931E-15-1.21569E-14
 -1      1176 3.60079E+01 1.92053E-01 4.51654E-01 6.48736E-02 5.01786E-14 3.45834E-14
 -1      1177 3.55853E+01 3.37256E-01 6.69831E-01-2.95741E-01-8.08381E-15 2.74725E-13
 -1      1178 2.99851E+01 2.40677E-01 2.16506E-01-7.92182E-01-5.71904E-14 5.06484E-13
 -1      1179 2.17160E+01-1.27142E-01-8.72440E-01-8.19847E-01 7.20188E-14 7.20868E-13
 -1      1180 1.62590E+01-5.73274E-01-1.72021E+00-2.66106E-01 2.15244E-14 1.24184E-12
 -1      1181 1.69691E+01-5.77801E-01-1.59940E+00 5.22329E-01-1.61288E-13 5.70877E-13
 -1      1182 2.43170E+01-2.68150E-02-4.47050E-01 9.19667E-01-1.87038E-14-2.46803E-13
 -1      1183 3.22870E+01 3.49764E-01 5.24518E-01 5.86504E-01-2.63817E-14-4.57301E-13
 -1      1184 3.54074E+01 2.89601E-01 6.19148E-01 9.90314E-02-2.21559E-14-4.00069E-13
 -1      1185 3.40198E+01 1.41802E-01 3.14030E-01-1.42193E-01-3.73434E-14-7.04201E-13
 -1      1186 3.07166E+01 8.21208E-03 4.85815E-02-1.76590E-01 1.05139E-13-3.40866E-13
 -1      1187 2.71471E+01-4.75129E-02-7.54941E-02-1.43988E-01 2.46140E-14 5.60746E-13
 -1      1188 2.41256E+01-6.54281E-02-1.10091E-01-1.03181E-01-5.40731E-14 4.42452E-13
 -1      1189 2.18360E+01-7.17102E-02-1.21086E-01-6.84606E-02 4.07183E-14 2.22586E-13
 -1      1190 2.03743E+01-8.87641E-02-1.23910E-01-2.03451E-02-3.13465E-15 3.96991E-13
 -1      1191 1.99466E+01 1.09356E-02 1.62554E-02 2.23881E-02 9.62234E-14 4.63573E-13
 -1      1192 2.77925E+01 5.25665E-01 3.76760E-01 1.96654E+00-2.03795E-14 1.60005E-12
 -1      1193 2.00861E+01-6.65844E-02-5.73737E-01 1.29457E-01 1.46411E-15 1.44396E-12
 -1      1194 1.89094E+01-4.10611E-02-1.93108E-01 1.92614E-02 1.11022E-15 1.24835E-12
 -1      1195 1.85302E+01-2.12867E-02-5.01795E-02 1.43848E-03 1.79978E-15 1.08846E-12
 -1      1196 1.84598E+01-1.23350E-02-1.30961E-02-4.08032E-03-2.46548E-16 1.02397E-12
 -1      1197 1.85357E+01-7.41813E-03-4.67226E-03-5.53503E-03 3.00324E-17 9.75785E-13
 -1      1198 1.86801E+01-4.34881E-03-2.02017E-03-5.73377E-03 2.22619E-15 9.27657E-13
 -1      1199 1.88517E+01-2.37287E-03-4.02350E-04-5.45761E-03-8.20009E-15 9.66257E-13
 -1      1200 1.90271E+01-1.09806E-03 7.36676E-04-4.96670E-03-1.33198E-15 8.89787E-13
 -1      1201 1.91932E+01-2.89802E-04 1.45481E-03-4.37297E-03 1.10358E-14 7.65941E-13
 -1      1202 1.93432E+01 1.99319E-04 1.82497E-03-3.74514E-03 2.11618E-14 6.57983E-13
 -1      1203 1.94739E+01 4.67299E-04 1.93890E-03-3.12584E-03 9.49273E-16 6.19511E-13
 -1      1204 1.95848E+01 5.81330E-04 1.87631E-03-2.54078E-03 5.57079E-15 5.68158E-13
 -1      1205 1.96769E+01 5.87684E-04 1.69676E-03-2.00411E-03 9.64276E-16 4.83337E-13
 -1      1206 1.97523E+01 5.17782E-04 1.44109E-03-1.52194E-03 1.08340E-15 3.86882E-13
 -1      1207 1.98137E+01 3.92370E-04 1.13512E-03-1.09519E-03 1.28933E-14 3.20695E-13
 -1      1208 1.98638E+01 2.24789E-04 7.93382E-04-7.22114E-04-2.18322E-14 3.65912E-13
 -1      1209 1.99060E+01 2.39198E-05 4.22826E-04-4.00790E-04 1.94838E-16 4.22790E-13
 -1      1210 1.99434E+01-2.02738E-04 2.68208E-05-1.31489E-04 2.80738E-14 2.72285E-13
 -1      1211 1.99794E+01-4.45480E-04-3.90131E-04 8.08376E-05-7.72697E-16 3.56094E-13
 -1      1212 2.00173E+01-6.87968E-04-8.16347E-04 2.24006E-04-2.07732E-15 5.26050E-13
 -1      1213 2.00603E+01-9.01729E-04-1.22503E-03 2.76152E-04 6.17567E-15 5.92277E-13
 -1      1214 2.01113E+01-1.03968E-03-1.56412E-03 2.03912E-04 2.75440E-14 1.12240E-13
 -1      1215 2.01728E+01-1.02932E-03-1.74405E-03-3.76911E-05 3.82750E-14-2.26435E-13
 -1      1216 2.02455E+01-7.67544E-04-1.62530E-03-5.01717E-04-3.73264E-14 1.02837E-13
 -1      1217 2.03283E+01-1.20651E-04-1.00973E-03-1.23913E-03 2.12382E-14 4.47619E-13
 -1      1218 2.04162E+01 1.06382E-03 3.55378E-04-2.27796E-03-1.57775E-14 7.34262E-13
 -1      1219 2.04991E+01 2.92451E-03 2.74613E-03-3.58780E-03 7.73117E-15 6.83022E-13
 -1      1220 2.05598E+01 5.52293E-03 6.38389E-03-5.02839E-03 1.90644E-14 4.72329E-13
 -1      1221 2.05731E+01 8.74494E-03 1.12914E-02-6.28950E-03-3.54356E-14 3.89205E-13
 -1      1222 2.05053E+01 1.21802E-02 1.70824E-02-6.84592E-03 5.05822E-14 3.51790E-13
 -1      1223 2.03177E+01 1.50278E-02 2.27327E-02-5.97537E-03 7.57554E-15 3.51915E-13
 -1      1224 1.99736E+01 1.61223E-02 2.64653E-02-2.90832E-03-3.73490E-14 5.54759E-13
 -1      1225 1.94505E+01 1.42042E-02 2.59710E-02 2.83547E-03 1.28348E-15 3.19016E-13
 -1      1226 1.87567E+01 8.48884E-03 1.91738E-02 1.09643E-02-2.43065E-14 5.25829E-14
 -1      1227 1.79454E+01-6.32269E-04 5.48434E-03 2.00064E-02 1.76930E-14-1.19432E-13
 -1      1228 1.71192E+01-1.12048E-02-1.30348E-02 2.73674E-02-6.00322E-14-1.33348E-13
 -1      1229 1.64152E+01-2.01528E-02-3.15630E-02 3.01466E-02-1.18221E-15 1.16782E-14
 -1      1230 1.59692E+01-2.45732E-02-4.41260E-02 2.65055E-02 4.68735E-14-5.06355E-13
 -1      1231 1.58707E+01-2.31792E-02-4.63577E-02 1.68329E-02-9.17539E-15-6.48116E-13
 -1      1232 1.61298E+01-1.69709E-02-3.78009E-02 3.85229E-03-1.66510E-14-6.90725E-13
 -1      1233 1.66726E+01-8.59796E-03-2.21449E-02-8.56309E-03 1.16762E-14-7.25316E-13
 -1      1234 1.73709E+01-9.36926E-04-5.22071E-03-1.71676E-02-5.66753E-14-4.07268E-13
 -1      1235 1.80875E+01 4.11076E-03 7.82444E-03-2.05718E-02-8.37720E-15-2.86902E-13
 -1      1236 1.87176E+01 6.04269E-03 1.44140E-02-1.93826E-02-2.71805E-14-3.32623E-13
 -1      1237 1.92085E+01 5.52363E-03 1.48515E-02-1.55118E-02 9.50686E-14-7.73499E-13
 -1      1238 1.95581E+01 4.18322E-03 1.18654E-02-1.13260E-02 4.72658E-14-8.91077E-13
 -1      1239 1.97951E+01 4.20162E-03 9.67027E-03-8.68137E-03-4.12821E-14-8.98566E-13
 -1      1240 1.99465E+01 6.15089E-03 1.03601E-02-7.19584E-03 2.46130E-14-5.12681E-13
 -1      1241 2.00016E+01-1.22403E-04 1.57387E-03 8.53854E-04-6.26818E-14-4.20881E-13
 -1      1242 1.99984E+01 9.36610E-04 1.00640E-03-2.92494E-04-2.95195E-13-1.04781E-13
 -1      1243 2.00029E+01-6.30950E-02 7.03634E-03-6.64968E-03 8.92115E-13 1.62263E-13
 -1      1244 1.99945E+01-2.00644E-01-4.75200E-03-1.16743E-02 2.41050E-12-1.49351E-13
 -1      1245 1.99841E+01-3.07326E-01-2.07823E-02-1.00058E-02 2.07383E-12-7.52178E-14
 -1      1246 1.99748E+01-2.72299E-01-3.54088E-02-3.08681E-03 1.86569E-12-1.13337E-13
 -1      1247 1.99685E+01-2.64808E-03-4.49379E-02 8.41499E-03 1.35548E-12-9.16381E-14
 -1      1248 1.99695E+01 5.63511E-01-4.48288E-02 2.22177E-02 7.29916E-13-1.41021E-13
 -1      1249 1.99796E+01 1.43227E+00-3.08635E-02 3.62065E-02 1.32179E-13 9.09208E-14
 -1      1250 2.00001E+01 2.50716E+00-1.25181E-03 4.50060E-02 5.20417E-14-1.82440E-14
 -1      1251 2.00281E+01 3.59022E+00 3.98918E-02 4.30004E-02-1.85268E-13 9.72651E-14
 -1      1252 2.00553E+01 4.40584E+00 8.09107E-02 2.63762E-02 1.99063E-13-1.78628E-13
 -1      1253 2.00723E+01 4.67928E+00 1.05864E-01-3.95549E-03 2.12901E-13-3.75065E-14
 -1      1254 2.00672E+01 4.25185E+00 9.88747E-02-3.85254E-02-5.50490E-13-1.20027E-13
 -1      1255 2.00390E+01 3.15455E+00 5.31387E-02-6.80190E-02-1.29140E-13 9.61614E-14
 -1      1256 1.99883E+01 1.68315E+00-2.56487E-02-7.44107E-02-2.40141E-13-3.16955E-14
 -1      1257 1.99471E+01 4.05911E-01-8.13759E-02-2.53945E-02-1.07543E-12-1.20885E-13
 -1      1258 2.00272E+01-3.87115E-02 3.06717E-02 5.79279E-03-6.14692E-13 1.95372E-13
 -1      1259-1.08850E+00-2.64862E+01-3.87590E+00-2.15987E+00-8.59313E-14 1.42556E-13
 -1      1260-1.71962E+00-1.66689E+01-3.10451E+00-4.17661E+00 7.41629E-14 4.99600E-14
 -1      1261 4.77934E-02-3.19499E+00-1.87891E+00-5.05407E-01 3.98792E-13 2.32037E-13
 -1      1262 8.06396E+00 7.91315E+00-3.46399E-01 7.91641E+00 9.38583E-13 8.81295E-13
 -1      1263 2.38273E+01 1.23537E+01 1.32029E+00 1.64569E+01 8.98615E-13 1.23723E-12
 -1      1264 4.41746E+01 9.99230E+00 2.78023E+00 1.94285E+01 5.53002E-13 1.02163E-12
 -1      1265 6.21972E+01 4.67574E+00 3.82300E+00 1.40415E+01 1.56875E-13 6.30607E-13
 -1      1266 7.02869E+01 1.74537E+00 4.21975E+00 1.92805E+00 4.81351E-14 5.11188E-13
 -1      1267 6.57111E+01 3.39056E+00 3.95622E+00-1.11188E+01 1.26898E-13-4.77618E-13
 -1      1268 4.99865E+01 8.52700E+00 3.07389E+00-1.90237E+01 4.71179E-13-1.23457E-12
 -1      1269 2.87104E+01 1.23091E+01 1.65899E+00-1.77540E+01 1.21259E-12-1.69265E-12
 -1      1270 1.09988E+01 9.77691E+00 8.91657E-02-1.00619E+01 1.54232E-12-1.43907E-12
 -1      1271 1.24690E+00-2.27815E-01-1.58382E+00-1.25962E+00 1.22924E-12-6.68243E-13
 -1      1272-1.56402E+00-1.41673E+01-2.86586E+00 3.47966E+00 1.04938E-12-3.52052E-13
 -1      1273-1.04160E+00-2.53161E+01-3.73541E+00 2.22883E+00 7.19869E-13-2.57679E-13
 -1      1274-1.19353E+00-2.79178E+01-4.02968E+00-2.61355E+00-1.25427E-13 6.94583E-15
 -1      1275-2.62381E+00-2.18234E+01-3.82483E+00-5.98498E+00-6.00187E-13-3.92991E-13
 -1      1276-2.48169E+00-1.02265E+01-3.12263E+00-4.36891E+00-1.49170E-12-8.77853E-13
 -1      1277 3.74072E+00 1.86482E+00-1.78928E+00 3.13869E+00-1.36136E-12-1.23324E-12
 -1      1278 1.96989E+01 9.10943E+00 2.13669E-01 1.30033E+01-1.37357E-12-1.79345E-12
 -1      1279 4.45096E+01 9.32014E+00 2.74915E+00 1.87965E+01-9.76108E-13-2.23332E-12
 -1      1280 7.00124E+01 4.80466E+00 5.20038E+00 1.47123E+01-5.47062E-13-2.42628E-12
 -1      1281 8.17321E+01 1.95372E+00 6.31787E+00 7.98525E-01-1.29043E-13-1.68571E-12
 -1      1282 7.27078E+01 4.64435E+00 5.58592E+00-1.36604E+01-9.72555E-14-1.38778E-13
 -1      1283 4.89377E+01 9.24517E+00 3.25819E+00-1.96318E+01-3.80695E-13 8.31779E-13
 -1      1284 2.38876E+01 1.02327E+01 6.71061E-01-1.52098E+01-6.36380E-13 1.07447E-12
 -1      1285 5.96368E+00 3.87290E+00-1.44326E+00-5.12584E+00-2.30260E-13 2.79776E-13
 -1      1286-1.90683E+00-8.39780E+00-2.90571E+00 3.51699E+00-5.99520E-14 5.66214E-14
 -1      1287-2.50397E+00-2.10600E+01-3.76537E+00 5.90612E+00-2.34923E-13 1.36779E-13
 -1      1288-1.29901E+00-2.81417E+01-4.08380E+00 2.70164E+00-7.89258E-13 2.04385E-13
 -1      1289 2.23365E+01 1.89170E+00-7.17626E-01-2.85197E+00-4.03289E-14 3.44447E-13
 -1      1290 2.03605E+01 4.69654E+00-4.73040E-02-3.31055E+00-8.96644E-14-1.76421E-13
 -1      1291 2.08579E+01 4.85267E+00-9.82815E-02-4.16720E+00-1.27287E-13-6.83759E-14
 -1      1292 1.95320E+01 4.99504E+00-1.94260E-02-2.65512E+00-7.13596E-14-3.21233E-13
 -1      1293 1.98314E+01 5.09304E+00 9.78002E-04-3.04502E+00-8.92827E-14-2.62380E-13
 -1      1294 2.05287E+01 3.95430E+00-2.48667E-02-3.07870E+00-1.43222E-13-1.46258E-13
 -1      1295 1.91855E+01 5.08426E+00-3.34993E-03-2.07123E+00-4.07452E-14-3.78565E-13
 -1      1296 1.93338E+01 5.13965E+00 1.05904E-02-2.36452E+00-5.35058E-14-3.53606E-13
 -1      1297 1.97555E+01 4.36732E+00-2.37840E-02-2.49154E+00-1.04534E-13-2.62290E-13
 -1      1298 1.90093E+01 5.13093E+00 3.48161E-03-1.56482E+00-1.91167E-14-3.91269E-13
 -1      1299 1.90875E+01 5.16070E+00 1.28345E-02-1.81483E+00-2.88693E-14-3.90906E-13
 -1      1300 1.93934E+01 4.55491E+00-1.94687E-02-1.93187E+00-6.04404E-14-3.16393E-13
 -1      1301 1.89153E+01 5.16058E+00 6.55686E-03-1.11723E+00 4.52763E-16-3.82484E-13
 -1      1302 1.89578E+01 5.17699E+00 1.27801E-02-1.33868E+00-4.35069E-15-3.85228E-13
 -1      1303 1.92057E+01 4.66130E+00-1.60418E-02-1.44499E+00-1.93929E-14-3.22645E-13
 -1      1304 1.88637E+01 5.18036E+00 8.18143E-03-6.94005E-01 1.65853E-14-3.60897E-13
 -1      1305 1.88867E+01 5.18925E+00 1.19985E-02-9.04200E-01 1.27910E-14-3.73623E-13
 -1      1306 1.91026E+01 4.72672E+00-1.40028E-02-1.00446E+00 7.22664E-15-3.19012E-13
 -1      1307 1.88397E+01 5.19228E+00 9.28009E-03-2.89394E-01 4.21132E-14-3.37922E-13
 -1      1308 1.88496E+01 5.19612E+00 1.10616E-02-4.91469E-01 3.16192E-14-3.47208E-13
 -1      1309 1.90467E+01 4.76571E+00-1.29290E-02-5.88982E-01 3.84769E-14-2.91465E-13
 -1      1310 1.88359E+01 5.19723E+00 1.02135E-02 1.07908E-01 5.67430E-14-3.18672E-13
 -1      1311 1.88356E+01 5.19710E+00 1.01439E-02-9.17092E-02 5.05660E-14-3.30480E-13
 -1      1312 1.90224E+01 4.78375E+00-1.24772E-02-1.89346E-01 7.68081E-14-2.76439E-13
 -1      1313 1.88512E+01 5.19577E+00 1.11542E-02 5.08234E-01 7.28601E-14-2.95883E-13
 -1      1314 1.88406E+01 5.19166E+00 9.21895E-03 3.05752E-01 6.58222E-14-3.11669E-13
 -1      1315 1.90232E+01 4.78313E+00-1.24933E-02 2.05450E-01 1.01200E-13-2.59945E-13
 -1      1316 1.88899E+01 5.18811E+00 1.20916E-02 9.22404E-01 8.26075E-14-2.57140E-13
 -1      1317 1.88661E+01 5.17906E+00 8.12764E-03 7.11277E-01 7.76447E-14-2.83225E-13
 -1      1318 1.90492E+01 4.76370E+00-1.29787E-02 6.05750E-01 1.23510E-13-2.37227E-13
 -1      1319 1.89619E+01 5.17516E+00 1.28965E-02 1.35555E+00 9.39205E-14-1.88892E-13
 -1      1320 1.89186E+01 5.15839E+00 6.44598E-03 1.13269E+00 9.11628E-14-2.28550E-13
 -1      1321 1.91067E+01 4.72328E+00-1.40017E-02 1.01900E+00 1.41386E-13-1.87836E-13
 -1      1322 1.90949E+01 5.15684E+00 1.29199E-02 1.84009E+00 1.26326E-13-1.09034E-13
 -1      1323 1.90152E+01 5.12640E+00 3.15114E-03 1.58733E+00 1.14098E-13-1.54638E-13
 -1      1324 1.92123E+01 4.65496E+00-1.61449E-02 1.46205E+00 1.72424E-13-1.22055E-13
 -1      1325 1.93446E+01 5.13328E+00 1.04581E-02 2.39716E+00 1.35454E-13 1.45370E-14
 -1      1326 1.91940E+01 5.07640E+00-4.15159E-03 2.09979E+00 1.27631E-13-6.23356E-14
 -1      1327 1.94053E+01 4.54252E+00-1.98981E-02 1.95743E+00 2.04139E-13-4.16854E-14
 -1      1328 1.98548E+01 5.09958E+00 6.07116E-03 3.08373E+00 1.33393E-13 2.30843E-13
 -1      1329 1.95438E+01 4.98468E+00-2.02141E-02 2.69654E+00 1.26156E-13 1.04819E-13
 -1      1330 1.97743E+01 4.34585E+00-2.46871E-02 2.52784E+00 2.04902E-13 1.01238E-13
 -1      1331 2.11032E+01 4.90659E+00 8.01846E-03 4.05332E+00 9.43690E-14 5.89154E-13
 -1      1332 2.03339E+01 4.73394E+00-4.80718E-02 3.41555E+00 9.87405E-14 3.75817E-13
 -1      1333 2.05630E+01 3.91594E+00-2.28521E-02 3.17825E+00 1.81161E-13 3.29611E-13
 -1      1334 2.72028E+01 3.20527E+00 9.28847E-01 4.58199E+00 2.57294E-14 1.16274E-12
 -1      1335 2.20203E+01 3.52216E+00-1.82106E-01 3.88460E+00 3.61933E-14 7.77101E-13
 -1      1336 2.21135E+01 2.56160E+00-3.24814E-02 3.45638E+00 1.41873E-13 6.42403E-13
 -1      1337 2.14272E+01 3.59561E-01-7.63638E-01 1.18358E+00 6.00214E-14 1.15991E-12
 -1      1338 2.21288E+01 1.95658E-01-4.01982E-01-1.36893E+00-1.06290E-13 3.81667E-13
 -1      1339 2.07436E+01 3.28757E-01-1.78606E-01-8.47438E-01-9.76996E-14 2.55330E-13
 -1      1340 2.01449E+01 1.61020E-01-8.04070E-02-4.20826E-01-7.58144E-14 2.09567E-13
 -1      1341 1.96508E+01 9.40474E-02-1.86821E-02-3.46018E-01-7.51482E-14 9.92886E-14
 -1      1342 2.10351E+01 4.15861E-01-1.02811E-01-1.33475E+00-1.70183E-13 6.66862E-14
 -1      1343 1.92802E+01 6.73783E-02 1.29893E-03-1.42997E-01-5.16228E-14 7.23414E-14
 -1      1344 1.91163E+01 4.27867E-02 1.26751E-02-1.24578E-01-4.05700E-14 7.17135E-15
 -1      1345 1.99585E+01 1.41387E-01-3.68954E-02-5.29720E-01-1.21209E-13-5.78704E-15
 -1      1346 1.89489E+01 3.26520E-02 1.31079E-02-3.16669E-02-3.14336E-14-2.17291E-14
 -1      1347 1.89252E+01 2.01968E-02 1.12197E-02-2.19817E-02-2.05148E-14-5.63473E-14
 -1      1348 1.94617E+01 5.78723E-02-9.19951E-03-1.81205E-01-6.38413E-14-3.81865E-14
 -1      1349 1.88654E+01 1.62642E-02 8.83552E-03 2.33457E-02 7.45801E-15-6.18724E-14
 -1      1350 1.89058E+01 9.69399E-03 6.64459E-03 2.80601E-02 6.45079E-15-6.24049E-14
 -1      1351 1.92428E+01 2.56993E-02-3.63073E-03-1.64698E-02-2.38837E-14-7.45922E-14
 -1      1352 1.89028E+01 8.15412E-03 4.73749E-03 4.94968E-02 5.52184E-16-6.12878E-14
 -1      1353 1.89687E+01 4.23133E-03 3.85635E-03 5.13355E-02-1.89612E-14-7.55221E-14
 -1      1354 1.91807E+01 1.02845E-02-2.39398E-03 6.41229E-02-1.14275E-15-8.73078E-14
 -1      1355 1.89966E+01 3.42551E-03 2.54997E-03 6.10670E-02-2.77692E-14-6.69898E-14
 -1      1356 1.90769E+01 5.74748E-04 2.31582E-03 6.14916E-02-1.06804E-14-9.89590E-14
 -1      1357 1.92017E+01 3.50275E-03-1.39637E-03 1.02327E-01-2.94432E-14-5.04022E-14
 -1      1358 1.91196E+01 6.58713E-04 1.40608E-03 6.37405E-02-9.33335E-16-1.13471E-13
 -1      1359 1.92010E+01-1.32704E-03 1.49679E-03 6.31274E-02-1.82713E-14-1.37790E-13
 -1      1360 1.92681E+01-9.97458E-04-6.31247E-04 1.17422E-01-2.72352E-14-7.93512E-14
 -1      1361 1.92495E+01-1.01639E-03 7.87685E-04 6.10599E-02-1.85423E-14-1.23289E-13
 -1      1362 1.93260E+01-2.33724E-03 1.00801E-03 5.98988E-02-2.18153E-14-1.70994E-13
 -1      1363 1.93554E+01-3.33943E-03-4.83281E-05 1.18167E-01-3.48586E-14-9.77775E-14
 -1      1364 1.93745E+01-1.92318E-03 4.34859E-04 5.54950E-02 7.57410E-15-1.60623E-13
 -1      1365 1.94432E+01-2.78011E-03 6.86127E-04 5.40769E-02-1.85648E-15-1.60807E-13
 -1      1366 1.94489E+01-4.48623E-03 3.24247E-04 1.10776E-01-3.04497E-14-2.77601E-14
 -1      1367 1.94886E+01-2.33039E-03 2.22326E-04 4.85975E-02-1.86144E-14-1.75427E-13
 -1      1368 1.95482E+01-2.85767E-03 4.65198E-04 4.71163E-02-3.43284E-14-2.12884E-13
 -1      1369 1.95398E+01-4.87884E-03 5.28828E-04 9.91747E-02-3.13307E-14-2.12581E-14
 -1      1370 1.95887E+01-2.40549E-03 9.44752E-05 4.13792E-02-3.46023E-14-2.10315E-13
 -1      1371 1.96389E+01-2.71319E-03 2.89115E-04 3.99489E-02-7.23876E-15-2.03636E-13
 -1      1372 1.96231E+01-4.79526E-03 6.10759E-04 8.58803E-02-3.59608E-14-6.72554E-14
 -1      1373 1.96724E+01-2.36274E-03-1.00023E-05 3.47241E-02-7.48257E-15-2.56873E-13
 -1      1374 1.97123E+01-2.42653E-03 2.06924E-04 3.35087E-02-4.51904E-14-2.69474E-13
 -1      1375 1.96951E+01-4.36645E-03 6.68064E-04 7.27809E-02-3.01663E-14-1.18018E-13
 -1      1376 1.97425E+01-2.03584E-03-1.14773E-05 2.85779E-02-4.07246E-14-2.64643E-13
 -1      1377 1.97768E+01-2.05234E-03 1.47429E-04 2.74649E-02-2.02263E-14-3.23304E-13
 -1      1378 1.97572E+01-3.90268E-03 5.65948E-04 6.07182E-02-4.94202E-14-1.32435E-13
 -1      1379 1.98022E+01-1.70559E-03-2.82954E-05 2.33071E-02-5.27413E-15-3.16916E-13
 -1      1380 1.98300E+01-1.62113E-03 1.10932E-04 2.24108E-02-6.70026E-15-3.37644E-13
 -1      1381 1.98113E+01-3.23967E-03 4.88693E-04 4.98639E-02-2.99041E-14-1.31098E-13
 -1      1382 1.98515E+01-1.30789E-03-2.10766E-05 1.91679E-02-3.75881E-14-3.90994E-13
 -1      1383 1.98743E+01-1.15289E-03 1.00427E-04 1.85024E-02-1.90884E-14-3.98758E-13
 -1      1384 1.98570E+01-2.52109E-03 3.83528E-04 4.10209E-02-3.26727E-14-1.94049E-13
 -1      1385 1.98928E+01-8.61238E-04 1.01390E-06 1.62818E-02 3.01480E-14-4.00701E-13
 -1      1386 1.99121E+01-6.45769E-04 1.11688E-04 1.58645E-02 5.72417E-14-3.75069E-13
 -1      1387 1.98962E+01-1.75304E-03 2.59940E-04 3.44946E-02-5.35955E-15-1.98808E-13
 -1      1388 1.99291E+01-3.57153E-04 3.45325E-05 1.47800E-02 7.10829E-14-3.70474E-13
 -1      1389 1.99466E+01-8.59849E-05 1.37134E-04 1.46382E-02 6.37433E-14-3.01835E-13
 -1      1390 1.99310E+01-9.24341E-04 1.18575E-04 3.05581E-02 7.74450E-14-2.20029E-13
 -1      1391 1.99626E+01 2.05012E-04 7.67933E-05 1.48202E-02 4.88913E-14-2.33105E-13
 -1      1392 1.99794E+01 5.29531E-04 2.00633E-04 1.49557E-02-4.63923E-14-2.38528E-13
 -1      1393 1.99632E+01 1.00415E-05-2.76270E-05 2.95151E-02 9.21399E-14-2.35010E-13
 -1      1394 1.99976E+01 8.87946E-04 1.31300E-04 1.66203E-02-8.01199E-14-2.16636E-13
 -1      1395 2.00177E+01 1.32201E-03 2.82145E-04 1.71405E-02-6.01950E-14-3.16750E-13
 -1      1396 1.99967E+01 1.04462E-03-2.23448E-04 3.17203E-02-6.42560E-14-1.64246E-13
 -1      1397 2.00396E+01 1.77184E-03 1.97697E-04 2.07088E-02-3.27831E-14-2.50034E-13
 -1      1398 2.00649E+01 2.32803E-03 3.99162E-04 2.16952E-02-1.00540E-14-2.87624E-13
 -1      1399 2.00361E+01 2.39289E-03-4.57465E-04 3.80298E-02-8.08055E-14-1.14960E-13
 -1      1400 2.00931E+01 2.94149E-03 2.75061E-04 2.77414E-02 3.52723E-15-2.40564E-13
 -1      1401 2.01274E+01 3.67377E-03 5.58648E-04 2.93495E-02 9.86212E-15-2.47773E-13
 -1      1402 2.00851E+01 4.16747E-03-7.52986E-04 4.95817E-02 2.50864E-14-7.79100E-15
 -1      1403 2.01654E+01 4.55185E-03 3.61406E-04 3.87604E-02-1.03896E-14-2.32241E-13
 -1      1404 2.02138E+01 5.53783E-03 7.70556E-04 4.12286E-02-2.78160E-14-2.21252E-13
 -1      1405 2.01497E+01 6.60932E-03-1.14103E-03 6.81143E-02 4.24010E-14-6.75934E-14
 -1      1406 2.02665E+01 6.83334E-03 4.46757E-04 5.53494E-02-4.75604E-14-2.31481E-13
 -1      1407 2.03363E+01 8.20583E-03 1.05211E-03 5.90377E-02-6.33383E-14-3.18367E-13
 -1      1408 2.02380E+01 1.00882E-02-1.66339E-03 9.62728E-02-3.62733E-14-1.69961E-13
 -1      1409 2.04102E+01 9.98392E-03 4.53632E-04 7.98927E-02-4.53556E-14-2.69445E-13
 -1      1410 2.05118E+01 1.21329E-02 1.34161E-03 8.54197E-02-4.58015E-14-3.37722E-13
 -1      1411 2.03609E+01 1.52240E-02-2.36480E-03 1.38075E-01-5.18940E-14-1.36335E-13
 -1      1412 2.06103E+01 1.47848E-02 4.46489E-04 1.14557E-01-6.92521E-14-4.13105E-13
 -1      1413 2.07503E+01 1.73067E-02 1.69719E-03 1.21866E-01-7.98274E-14-4.56484E-13
 -1      1414 2.05282E+01 2.24286E-02-3.32922E-03 1.97659E-01-1.51811E-13-2.18315E-13
 -1      1415 2.08950E+01 2.15228E-02 1.57034E-04 1.65713E-01 2.93481E-14-5.08683E-13
 -1      1416 2.11096E+01 2.50722E-02 1.81087E-03 1.77542E-01 2.95462E-14-5.65156E-13
 -1      1417 2.07621E+01 3.33250E-02-4.71761E-03 2.83726E-01-1.07726E-15-2.48383E-13
 -1      1418 2.13142E+01 3.17134E-02-6.22405E-04 2.41462E-01 4.92792E-15-4.76112E-13
 -1      1419 2.16293E+01 3.61469E-02 1.46345E-03 2.58851E-01 3.22051E-15-4.86083E-13
 -1      1420 2.10981E+01 4.92753E-02-6.82888E-03 4.11603E-01 3.72684E-14-3.03695E-13
 -1      1421 2.19165E+01 4.59312E-02-2.57110E-03 3.50627E-01 8.76564E-14-3.94980E-13
 -1      1422 2.23773E+01 5.10083E-02-6.47054E-05 3.76056E-01 1.29978E-13-3.31898E-13
 -1      1423 2.15693E+01 7.23906E-02-9.80721E-03 5.95901E-01 1.11560E-13-1.76891E-13
 -1      1424 2.27756E+01 6.46961E-02-6.56763E-03 5.04200E-01 7.04280E-14-2.81249E-13
 -1      1425 2.34413E+01 6.90019E-02-3.50242E-03 5.40351E-01 7.15226E-14-2.26177E-13
 -1      1426 2.22245E+01 1.03542E-01-1.40125E-02 8.55986E-01 1.44594E-13-8.60981E-14
 -1      1427 2.39820E+01 8.43143E-02-1.38478E-02 7.09406E-01 1.26479E-13-1.50293E-13
 -1      1428 2.49155E+01 8.58885E-02-9.15979E-03 7.58035E-01 4.25311E-14-6.55309E-14
 -1      1429 2.31208E+01 1.40323E-01-1.93528E-02 1.20799E+00 1.51617E-13 3.58177E-14
 -1      1430 2.55840E+01 9.80668E-02-2.20411E-02 9.47824E-01-5.03530E-14-3.77198E-14
 -1      1431 2.67617E+01 8.34117E-02-1.35655E-02 9.99567E-01 3.75698E-14-2.75890E-14
 -1      1432 2.42813E+01 1.65726E-01-2.38125E-02 1.63269E+00 2.11532E-14 2.58404E-14
 -1      1433 2.76306E+01 8.20362E-02-2.31965E-02 1.16896E+00 6.79895E-14-1.11022E-16
 -1      1434 2.91081E+01 2.81339E-02-5.29536E-03 1.21358E+00-3.03845E-14 8.94840E-14
 -1      1435 2.57542E+01 1.43262E-01-2.45291E-02 2.06687E+00 7.39226E-14 6.90177E-14
 -1      1436 3.00841E+01-1.91103E-02 2.01840E-03 1.20972E+00-5.98306E-15 5.89112E-14
 -1      1437 3.14852E+01-1.34985E-01 3.58531E-02 1.18342E+00 5.11396E-14 1.75325E-13
 -1      1438 2.75524E+01-2.08677E-02-8.31917E-03 2.29870E+00-2.75084E-14 8.74925E-14
 -1      1439 3.24103E+01-2.75176E-01 7.76265E-02 7.37719E-01 5.45120E-14 2.90150E-13
 -1      1440 3.29639E+01-4.32230E-01 1.03703E-01 5.34388E-01 9.86572E-14 3.02515E-13
 -1      1441 2.94656E+01-4.51463E-01 3.42922E-02 1.84371E+00 1.65978E-13 3.20452E-13
 -1      1442 3.35291E+01-6.26051E-01 1.65922E-01-5.74360E-01-4.34930E-14 2.47358E-13
 -1      1443 3.21917E+01-6.78982E-01 9.06244E-02-1.00495E+00-5.74679E-14 2.33757E-13
 -1      1444 3.10877E+01-1.08775E+00 8.75600E-02 8.81040E-02 7.95058E-14 2.15863E-13
 -1      1445 3.20254E+01-6.24130E-01 1.04200E-01-2.31683E+00 5.90725E-14 2.67508E-13
 -1      1446 2.88109E+01-3.82169E-01-1.54197E-01-2.63150E+00 6.46150E-14 3.63876E-13
 -1      1447 3.17299E+01-1.30943E+00 5.27583E-02-2.82251E+00 2.61527E-14 2.35364E-13
 -1      1448 2.81613E+01 7.15833E-02-2.10022E-01-2.95143E+00 2.21295E-13 3.65208E-13
 -1      1449 2.52373E+01 4.69562E-01-4.56239E-01-2.74369E+00 2.13107E-13 5.60302E-13
 -1      1450 3.10499E+01-3.72730E-01-1.31674E-01-4.80826E+00 1.98674E-13 4.04286E-13
 -1      1451 2.45736E+01 9.63560E-01-5.31156E-01-1.65827E+00 8.28504E-14 4.91773E-13
 -1      1452 2.33754E+01 1.16680E+00-6.48093E-01-1.10140E+00-4.58522E-14 4.90857E-13
 -1      1453 2.98136E+01 1.28132E+00-3.40359E-01-3.97316E+00 1.99785E-13 2.45273E-13
 -1      1454 2.32309E+01 1.14044E+00-6.75882E-01 1.07636E+00-3.65208E-13 5.26801E-13
 -1      1455 2.49078E+01 8.60812E-01-5.19282E-01 1.70966E+00-4.16667E-13 6.04516E-14
 -1      1456 2.90845E+01 2.32317E+00-4.06723E-01-1.11670E-01-2.75502E-13-9.94343E-15
 -1      1457 2.57284E+01 2.56234E-01-4.01882E-01 2.82891E+00-2.71283E-13-6.08402E-14
 -1      1458 2.92568E+01-2.59601E-01-1.03469E-01 2.79554E+00-1.34906E-13-2.57849E-13
 -1      1459 2.97761E+01 1.12818E+00-2.91968E-01 3.95976E+00-4.86777E-13-9.63708E-14
 -1      1460 2.99152E+01-5.53850E-01-6.85035E-03 1.97200E+00-1.01360E-13-2.32703E-13
 -1      1461 3.24084E+01-7.37784E-01 1.47829E-01 1.50825E+00-7.24039E-14-3.20383E-13
 -1      1462 3.10227E+01-7.74665E-01-4.19805E-02 4.13922E+00-2.67952E-13-1.24041E-13
 -1      1463 3.21746E+01-5.86055E-01 1.24807E-01 1.58670E-01-8.23369E-14-4.16556E-13
 -1      1464 3.24538E+01-4.93713E-01 1.22180E-01-1.84423E-01-1.59039E-14-4.16219E-13
 -1      1465 3.10837E+01-1.30540E+00 9.50500E-02 1.33851E+00-1.20647E-13-3.06213E-13
 -1      1466 3.16594E+01-3.04464E-01 7.45024E-02-9.78516E-01-6.58432E-14-4.61148E-13
 -1      1467 3.05830E+01-1.70011E-01 4.09181E-02-1.09262E+00-4.30801E-14-4.40648E-13
 -1      1468 2.98211E+01-8.03284E-01 7.72607E-02-1.16813E+00 2.22808E-14-4.98700E-13
 -1      1469 2.95220E+01-6.33002E-02 1.76631E-02-1.34881E+00 2.99708E-13-3.97196E-13
 -1      1470 2.78964E+01 2.69309E-02-9.01035E-03-1.34423E+00 2.53763E-13-6.69742E-14
 -1      1471 2.78945E+01-2.60612E-01 1.74076E-02-2.32508E+00 2.13499E-13-1.15054E-13
 -1      1472 2.68421E+01 4.92762E-02-8.23521E-03-1.27279E+00 2.18763E-13 4.68514E-14
 -1      1473 2.52837E+01 9.37433E-02-1.99870E-02-1.22393E+00 1.20294E-13 1.83353E-13
 -1      1474 2.58018E+01 5.20113E-02-1.51037E-02-2.48256E+00 3.51197E-13 3.94719E-14
 -1      1475 2.43683E+01 8.53920E-02-1.04930E-02-1.03362E+00-8.12319E-14 2.32606E-13
 -1      1476 2.30994E+01 1.06907E-01-1.69006E-02-9.78741E-01-7.75569E-14 9.90319E-14
 -1      1477 2.39004E+01 1.57428E-01-2.56588E-02-2.14988E+00 4.03991E-14-9.21554E-14
 -1      1478 2.23778E+01 9.66819E-02-9.49405E-03-7.55061E-01 1.74149E-14 2.01013E-13
 -1      1479 2.14678E+01 1.13261E-01-1.43910E-02-6.98074E-01 4.95472E-14 3.22298E-13
 -1      1480 2.23323E+01 1.83744E-01-2.76381E-02-1.65696E+00-4.15813E-14 3.66526E-13
 -1      1481 2.09486E+01 1.29234E-01-1.06238E-02-4.43983E-01 1.34720E-13 2.55993E-13
 -1      1482 2.04373E+01 1.29555E-01-1.10260E-02-3.72347E-01 1.27877E-13 3.99770E-13
 -1      1483 2.11494E+01 2.20294E-01-2.61614E-02-1.10500E+00 1.25641E-13 4.00095E-13
 -1      1484 2.00604E+01 7.87164E-02-1.36413E-02-3.51545E-02-3.94778E-13 4.76447E-13
 -1      1485 2.02601E+01 7.59942E-02-1.51824E-01 4.83549E-01 6.16937E-14 1.01342E-12
 -1      1486 2.15306E+01 2.16148E-01-2.29243E-01 7.21027E-01 5.56222E-14 1.10319E-12
 -1      1487 2.17295E+01 8.82366E-01-8.51977E-02 2.06503E+00 1.03334E-13 7.82513E-13
 -1      1488 1.93313E+01 3.27173E-02-2.12092E-02 1.86323E-01 6.67313E-14 8.72160E-13
 -1      1489 1.97529E+01 1.13489E-01-6.24429E-02 2.38312E-01 4.60083E-14 9.46357E-13
 -1      1490 2.03046E+01 1.88341E-01-5.46715E-02 7.86679E-01 9.59788E-14 6.83624E-13
 -1      1491 1.89502E+01 1.49041E-02 5.80434E-03 5.33324E-02 2.26173E-14 7.84615E-13
 -1      1492 1.90890E+01 5.17625E-02 1.32923E-03 7.94985E-02 3.10099E-14 8.25329E-13
 -1      1493 1.95590E+01 7.37670E-02-1.13843E-02 2.99203E-01 7.96238E-14 5.85892E-13
 -1      1494 1.88404E+01 7.01082E-03 6.98798E-03-9.14644E-03 1.24471E-14 7.32503E-13
 -1      1495 1.88549E+01 2.59346E-02 1.13237E-02 5.15454E-03 1.41514E-14 7.61134E-13
 -1      1496 1.92238E+01 3.15986E-02-2.24740E-03 8.32554E-02 4.10947E-14 5.31306E-13
 -1      1497 1.88668E+01 3.20480E-03 4.72452E-03-3.93839E-02 2.43922E-14 6.82810E-13
 -1      1498 1.88229E+01 1.38356E-02 8.53729E-03-3.12469E-02 1.25056E-14 7.06123E-13
 -1      1499 1.91077E+01 1.32565E-02-1.65478E-03-2.17999E-02 3.60402E-14 4.81178E-13
 -1      1500 1.89613E+01 1.05751E-03 3.25944E-03-5.28230E-02-5.13110E-15 6.78328E-13
 -1      1501 1.88906E+01 7.28798E-03 5.31988E-03-4.83359E-02 3.67371E-15 6.65900E-13
 -1      1502 1.91091E+01 4.54091E-03-1.68081E-03-7.32348E-02 9.56960E-15 4.50984E-13
 -1      1503 1.90860E+01-1.88837E-04 2.50099E-03-5.68007E-02 3.76745E-14 6.39802E-13
 -1      1504 1.90056E+01 3.46200E-03 3.41172E-03-5.45745E-02 7.57361E-15 6.47270E-13
 -1      1505 1.91721E+01-1.00876E-04-1.40419E-03-9.59265E-02 1.49805E-14 4.30431E-13
 -1      1506 1.92191E+01-8.93051E-04 2.04415E-03-5.53267E-02 2.97477E-14 5.69211E-13
 -1      1507 1.91387E+01 1.13148E-03 2.32473E-03-5.45194E-02 3.06481E-14 6.00769E-13
 -1      1508 1.92644E+01-2.61893E-03-1.01478E-03-1.02163E-01 5.19330E-14 3.68585E-13
 -1      1509 1.93482E+01-1.25017E-03 1.70018E-03-5.08490E-02 4.49753E-14 4.83780E-13
 -1      1510 1.92730E+01-2.69124E-04 1.65142E-03-5.09151E-02 2.73084E-14 5.36024E-13
 -1      1511 1.93669E+01-3.88065E-03-6.69781E-04-9.89571E-02 6.26227E-14 3.06960E-13
 -1      1512 1.94664E+01-1.38108E-03 1.40862E-03-4.49136E-02 4.07440E-14 4.70032E-13
 -1      1513 1.93993E+01-1.06608E-03 1.19230E-03-4.54898E-02 3.82547E-14 4.98319E-13
 -1      1514 1.94685E+01-4.36874E-03-4.07997E-04-9.05948E-02 5.18676E-14 2.93428E-13
 -1      1515 1.95706E+01-1.36491E-03 1.15286E-03-3.85151E-02 2.97327E-14 4.37387E-13
 -1      1516 1.95125E+01-1.46110E-03 8.61521E-04-3.93555E-02 1.91975E-14 4.44499E-13
 -1      1517 1.95628E+01-4.37400E-03-2.23251E-04-7.97977E-02 2.54869E-14 3.24668E-13
 -1      1518 1.96599E+01-1.25498E-03 9.28155E-04-3.22920E-02 4.97765E-14 3.62132E-13
 -1      1519 1.96108E+01-1.58665E-03 6.18021E-04-3.32289E-02 3.78925E-14 3.89208E-13
 -1      1520 1.96469E+01-4.08163E-03-1.00222E-04-6.83204E-02 5.95288E-14 2.52267E-13
 -1      1521 1.97348E+01-1.08715E-03 7.32081E-04-2.66460E-02 4.21862E-14 3.06142E-13
 -1      1522 1.96942E+01-1.53212E-03 4.38396E-04-2.75653E-02 2.60589E-14 3.24717E-13
 -1      1523 1.97197E+01-3.61325E-03-2.50056E-05-5.72894E-02 8.25874E-14 2.02153E-13
 -1      1524 1.97970E+01-8.84667E-04 5.62063E-04-2.18221E-02-1.19710E-14 2.29734E-13
 -1      1525 1.97637E+01-1.35764E-03 3.07140E-04-2.26461E-02 2.76288E-14 2.92142E-13
 -1      1526 1.97816E+01-3.04831E-03 1.29595E-05-4.74153E-02 4.68373E-14 1.53170E-13
 -1      1527 1.98485E+01-6.61711E-04 4.14840E-04-1.79656E-02-4.33641E-14 2.77558E-13
 -1      1528 1.98212E+01-1.10250E-03 2.12975E-04-1.86400E-02 3.57077E-15 2.64393E-13
 -1      1529 1.98337E+01-2.43642E-03 2.11065E-05-3.91350E-02-1.76598E-14 1.34500E-13
 -1      1530 1.98918E+01-4.26300E-04 2.86557E-04-1.51611E-02 2.51269E-15 3.20010E-13
 -1      1531 1.98691E+01-7.91202E-04 1.47189E-04-1.56465E-02-1.42267E-14 2.82435E-13
 -1      1532 1.98778E+01-1.80622E-03 4.31662E-06-3.27123E-02-6.50459E-15 2.49156E-13
 -1      1533 1.99297E+01-1.82936E-04 1.73081E-04-1.34594E-02 5.00850E-14 2.38935E-13
 -1      1534 1.99100E+01-4.38405E-04 1.02724E-04-1.37240E-02 2.46047E-14 2.87582E-13
 -1      1535 1.99161E+01-1.17250E-03-3.44374E-05-2.83058E-02 1.62344E-14 1.54825E-13
 -1      1536 1.99649E+01 6.46374E-05 7.04541E-05-1.28899E-02-3.97326E-14 2.29534E-13
 -1      1537 1.99467E+01-5.36448E-05 7.35828E-05-1.29069E-02 1.82246E-14 2.21841E-13
 -1      1538 1.99508E+01-5.42674E-04-9.33282E-05-2.60105E-02 4.48302E-14 2.30175E-13
 -1      1539 2.00004E+01 3.10273E-04-2.44517E-05-1.34608E-02-6.22706E-14 3.42774E-13
 -1      1540 1.99820E+01 3.53530E-04 5.43850E-05-1.32076E-02-5.35349E-14 2.62559E-13
 -1      1541 1.99845E+01 7.64997E-05-1.70671E-04-2.58737E-02-6.41020E-14 2.39811E-13
 -1      1542 2.00390E+01 5.41573E-04-1.12988E-04-1.51433E-02-2.67833E-14 4.36494E-13
 -1      1543 2.00189E+01 7.67430E-04 4.00524E-05-1.46055E-02-4.11188E-14 3.45522E-13
 -1      1544 2.00195E+01 6.71316E-04-2.63521E-04-2.78826E-02-6.33276E-14 2.46241E-13
 -1      1545 2.00834E+01 7.35183E-04-1.93340E-04-1.78372E-02 9.97480E-14 2.98268E-13
 -1      1546 2.00601E+01 1.15858E-03 2.56459E-05-1.70174E-02 6.71931E-14 4.16626E-13
 -1      1547 2.00583E+01 1.21193E-03-3.65708E-04-3.19203E-02 2.93928E-14 2.08416E-13
 -1      1548 2.01358E+01 8.51272E-04-2.58545E-04-2.13133E-02 8.43420E-14-4.80800E-15
 -1      1549 2.01080E+01 1.47431E-03 6.47069E-06-2.02472E-02 1.26682E-13 2.21569E-13
 -1      1550 2.01029E+01 1.64124E-03-4.65127E-04-3.76821E-02 2.00972E-13 1.67620E-13
 -1      1551 2.01975E+01 8.27795E-04-2.93859E-04-2.51318E-02 2.79965E-14-6.77225E-14
 -1      1552 2.01644E+01 1.62796E-03-2.13679E-05-2.39116E-02 9.66019E-15-3.98893E-14
 -1      1553 2.01548E+01 1.86210E-03-5.40246E-04-4.45483E-02 1.30012E-13 1.65366E-14
 -1      1554 2.02680E+01 5.76141E-04-2.73687E-04-2.85349E-02-1.06335E-13 1.38782E-13
 -1      1555 2.02299E+01 1.48828E-03-5.97324E-05-2.73426E-02-9.43496E-14-6.72607E-15
 -1      1556 2.02145E+01 1.72463E-03-5.56055E-04-5.14104E-02-1.31503E-13-7.76961E-15
 -1      1557 2.03445E+01-1.85663E-05-1.58968E-04-3.03269E-02-1.26817E-13 4.09865E-13
 -1      1558 2.03029E+01 8.72970E-04-1.06378E-04-2.94736E-02-1.00206E-13 2.57876E-13
 -1      1559 2.02804E+01 1.01775E-03-4.60313E-04-5.64619E-02-1.86644E-13 8.56722E-14
 -1      1560 2.04202E+01-1.08680E-03 1.02867E-04-2.87700E-02-4.70407E-14 6.19501E-13
 -1      1561 2.03789E+01-4.45902E-04-1.52189E-04-2.87353E-02-8.35172E-14 4.77162E-13
 -1      1562 2.03485E+01-5.26236E-04-1.82086E-04-5.69899E-02-1.82606E-13 3.58050E-13
 -1      1563 2.04832E+01-2.74527E-03 5.71297E-04-2.15533E-02 9.59289E-14 4.13259E-13
 -1      1564 2.04488E+01-2.71240E-03-1.78681E-04-2.30090E-02 1.05352E-13 5.79868E-13
 -1      1565 2.04110E+01-3.19972E-03 3.63744E-04-4.92456E-02 8.42740E-14 3.68063E-13
 -1      1566 2.05149E+01-5.03942E-03 1.29338E-03-5.93425E-03-2.13707E-15 3.83654E-13
 -1      1567 2.04979E+01-6.11645E-03-1.58084E-04-9.72288E-03-1.25319E-14 3.91435E-13
 -1      1568 2.04555E+01-7.23996E-03 1.26032E-03-2.85347E-02 3.13994E-14 3.39015E-13
 -1      1569 2.04904E+01-7.85238E-03 2.26521E-03 2.08112E-02-3.77151E-14 3.86595E-13
 -1      1570 2.05051E+01-1.06675E-02-6.00708E-05 1.37855E-02-2.21728E-14 3.75643E-13
 -1      1571 2.04640E+01-1.26799E-02 2.55457E-03 1.02604E-02-2.45411E-14 3.98990E-13
 -1      1572 2.03793E+01-1.07908E-02 3.37284E-03 6.04918E-02 2.77365E-14 3.63262E-13
 -1      1573 2.04432E+01-1.60117E-02 1.30167E-04 4.95071E-02 3.77471E-14 4.09352E-13
 -1      1574 2.04138E+01-1.91224E-02 4.20137E-03 7.14717E-02 5.58321E-15 3.62756E-13
 -1      1575 2.01503E+01-1.30896E-02 4.32701E-03 1.12606E-01-1.18727E-13 5.05162E-13
 -1      1576 2.02812E+01-2.12325E-02 3.80931E-04 9.75284E-02-8.91652E-14 3.67778E-13
 -1      1577 2.02796E+01-2.54736E-02 5.99419E-03 1.56566E-01-9.27479E-14 4.63780E-13
 -1      1578 1.97791E+01-1.36275E-02 4.63479E-03 1.72659E-01 1.42682E-13 4.38167E-13
 -1      1579 1.99911E+01-2.47445E-02 5.78240E-04 1.54462E-01 4.44675E-14 5.12347E-13
 -1      1580 2.00379E+01-2.97564E-02 7.51318E-03 2.61310E-01 1.40933E-14 5.11765E-13
 -1      1581 1.92606E+01-1.11795E-02 3.68354E-03 2.30870E-01 1.20176E-13 2.02630E-13
 -1      1582 1.95566E+01-2.44707E-02 5.13224E-04 2.12075E-01 1.19389E-13 3.82942E-13
 -1      1583 1.96755E+01-2.92436E-02 8.14808E-03 3.72945E-01 1.59470E-13 2.14203E-13
 -1      1584 1.86209E+01-4.98069E-03 1.00681E-03 2.72468E-01-6.67532E-15 1.35041E-13
 -1      1585 1.89856E+01-1.84934E-02-6.05682E-05 2.57148E-01 1.41770E-14 2.35598E-13
 -1      1586 1.91992E+01-2.11941E-02 7.27072E-03 4.69041E-01 4.19250E-14 4.50749E-13
 -1      1587 1.79254E+01 4.53505E-03-3.31319E-03 2.80832E-01-8.03399E-15 8.46337E-14
 -1      1588 1.83208E+01-6.16307E-03-1.27738E-03 2.73797E-01 3.69877E-14 1.32352E-13
 -1      1589 1.86441E+01-4.29922E-03 4.56007E-03 5.20346E-01 3.81498E-14 3.60901E-13
 -1      1590 1.72746E+01 1.52814E-02-8.33088E-03 2.43674E-01-6.85370E-14-5.99347E-14
 -1      1591 1.76426E+01 1.08056E-02-2.96677E-03 2.48745E-01-1.71933E-14-8.39329E-14
 -1      1592 1.80770E+01 1.96072E-02 3.36412E-04 4.99132E-01 4.90281E-14 1.49582E-13
 -1      1593 1.67835E+01 2.39445E-02-1.23524E-02 1.60107E-01 1.35349E-13-1.07758E-13
 -1      1594 1.70583E+01 2.81392E-02-4.56567E-03 1.78121E-01 1.90794E-14-7.27127E-14
 -1      1595 1.75869E+01 4.48047E-02-4.33754E-03 3.91578E-01 1.98973E-14-1.04992E-13
 -1      1596 1.65475E+01 2.73727E-02-1.36509E-02 4.43659E-02 9.55252E-14-3.71260E-13
 -1      1597 1.66751E+01 4.03639E-02-5.30202E-03 7.20804E-02 1.39210E-13-1.70699E-13
 -1      1598 1.72631E+01 6.31077E-02-8.03244E-03 2.08373E-01 1.80292E-13-1.22605E-13
 -1      1599 1.66093E+01 2.42242E-02-1.14187E-02-7.73202E-02 5.21315E-14-4.76381E-13
 -1      1600 1.65665E+01 4.32951E-02-4.60855E-03-4.64651E-02-8.43076E-16-4.77056E-13
 -1      1601 1.71670E+01 6.74544E-02-9.62516E-03-1.39041E-02 1.27768E-13-1.89423E-13
 -1      1602 1.69430E+01 1.57901E-02-6.33184E-03-1.76363E-01-5.28258E-14-4.99097E-13
 -1      1603 1.67460E+01 3.62292E-02-2.51403E-03-1.49735E-01 3.09275E-14-4.28197E-13
 -1      1604 1.73101E+01 5.57398E-02-8.85741E-03-2.24033E-01-3.77146E-14-2.07814E-13
 -1      1605 1.74637E+01 5.30090E-03-2.47423E-04-2.33091E-01-6.03710E-14-4.56801E-13
 -1      1606 1.71622E+01 2.23125E-02 2.91352E-04-2.15941E-01-8.60067E-14-4.87353E-13
 -1      1607 1.76499E+01 3.22470E-02-6.41967E-03-3.75695E-01-5.61023E-14-1.29169E-13
 -1      1608 1.80597E+01-3.79336E-03 4.77715E-03-2.43205E-01-1.73013E-13-1.98959E-13
 -1      1609 1.77179E+01 6.76785E-03 2.81747E-03-2.37010E-01-1.98671E-13-2.81084E-13
 -1      1610 1.81060E+01 5.45961E-03-3.46764E-03-4.44649E-01-2.71213E-13-8.00332E-14
 -1      1611 1.86288E+01-9.29502E-03 7.46616E-03-2.16549E-01 1.09267E-13-9.95870E-14
 -1      1612 1.83048E+01-5.66310E-03 4.28338E-03-2.19270E-01 4.05938E-14-8.18789E-15
 -1      1613 1.85889E+01-1.62792E-02-1.02705E-03-4.34374E-01-8.96130E-14 5.61079E-14
 -1      1614 1.91042E+01-1.07893E-02 7.65608E-03-1.70440E-01 4.34010E-14-2.95661E-13
 -1      1615 1.88354E+01-1.24644E-02 4.44253E-03-1.78123E-01 1.07883E-13-2.61027E-13
 -1      1616 1.90264E+01-2.82090E-02 3.56297E-04-3.69251E-01 1.97749E-13 1.98153E-14
 -1      1617 1.94613E+01-9.24075E-03 6.10517E-03-1.21991E-01 7.05781E-14-4.65964E-13
 -1      1618 1.92604E+01-1.36379E-02 3.56840E-03-1.30580E-01 8.82757E-14-3.46575E-13
 -1      1619 1.93774E+01-3.00464E-02 6.72123E-04-2.81280E-01 1.60754E-13-1.24806E-13
 -1      1620 1.97097E+01-6.58593E-03 4.19528E-03-8.24776E-02-5.35813E-14-3.08567E-13
 -1      1621 1.95700E+01-1.12153E-02 2.29210E-03-8.92738E-02-4.40986E-14-3.70716E-13
 -1      1622 1.96328E+01-2.49143E-02 4.07369E-04-1.97642E-01-4.71845E-15 1.64051E-13
 -1      1623 1.98731E+01-5.57063E-03 3.16376E-03-5.32503E-02-1.12160E-13-1.59868E-13
 -1      1624 1.97810E+01-8.85045E-03 1.38880E-03-5.84260E-02-6.06952E-14-2.69981E-13
 -1      1625 1.98060E+01-1.81457E-02 4.86239E-04-1.31876E-01-1.25788E-13 4.74065E-13
 -1      1626 1.99672E+01-8.30622E-03 2.06710E-03-2.72511E-02 2.64992E-14-5.90938E-14
 -1      1627 1.99170E+01-9.77759E-03 1.45804E-03-3.22012E-02-4.38616E-14-2.11960E-13
 -1      1628 1.99185E+01-1.63509E-02 1.89624E-03-7.92460E-02 1.80442E-14 4.43843E-13
 -1      1629 1.99906E+01-1.13592E-02 2.86456E-03-7.36419E-03-2.87227E-15-8.17412E-14
 -1      1630 1.99950E+01-9.64946E-02 2.53511E-03-4.62427E-02 1.03892E-12 6.67617E-13
 -1      1631 1.99894E+01-4.84305E-02 1.59436E-03-3.94993E-02 2.56674E-13 6.28169E-13
 -1      1632 2.00096E+01-1.83953E-01 1.22960E-03-4.57720E-02 1.37423E-12-9.94828E-14
 -1      1633 2.00015E+01-1.30786E-01 1.54055E-03-4.81906E-02 1.27761E-12 7.28535E-14
 -1      1634 1.99935E+01-1.03882E-01-4.74196E-04-8.77277E-02 4.62345E-13 7.46799E-13
 -1      1635 2.00245E+01-2.07394E-01-6.07358E-05-5.29443E-03 1.09085E-12-2.13081E-13
 -1      1636 2.00166E+01-1.98104E-01 2.89073E-05-1.61519E-02 1.38680E-12-2.48487E-13
 -1      1637 2.00224E+01-1.56299E-01-3.50153E-03-5.43916E-02 6.50942E-13-1.81463E-13
 -1      1638 2.00370E+01-8.92915E-02-1.31134E-03 7.43029E-02 1.12801E-12-2.03167E-13
 -1      1639 2.00311E+01-1.71145E-01-1.69782E-03 5.56479E-02 1.19055E-12 2.16971E-14
 -1      1640 2.00468E+01-1.40924E-01-8.04220E-03 5.44183E-02 5.20674E-13-1.18845E-13
 -1      1641 2.00432E+01 2.27969E-01-2.51434E-03 1.81604E-01 7.57028E-13-2.70554E-13
 -1      1642 2.00420E+01 2.36388E-02-3.26340E-03 1.58427E-01 1.05322E-12-3.74952E-13
 -1      1643 2.00662E+01 2.69502E-04-1.15869E-02 2.29288E-01 5.49583E-13-4.46878E-13
 -1      1644 2.00393E+01 7.84563E-01-3.39258E-03 3.00340E-01 4.39445E-13-2.01215E-13
 -1      1645 2.00448E+01 4.37677E-01-4.60346E-03 2.76005E-01 6.57679E-13-2.20077E-13
 -1      1646 2.00737E+01 3.12543E-01-1.32884E-02 4.44789E-01 4.38240E-13-3.88798E-13
 -1      1647 2.00217E+01 1.55049E+00-3.24787E-03 3.97297E-01 1.93984E-13-6.96101E-15
 -1      1648 2.00355E+01 1.08743E+00-4.86600E-03 3.79765E-01 2.01516E-13-5.56725E-14
 -1      1649 2.00618E+01 8.15806E-01-1.19280E-02 6.56730E-01 3.62470E-13-4.21546E-13
 -1      1650 1.99899E+01 2.42407E+00-1.53549E-03 4.32986E-01 1.76976E-14-1.16247E-13
 -1      1651 2.00109E+01 1.91451E+00-3.42760E-03 4.30810E-01 1.38674E-13 5.67141E-14
 -1      1652 2.00257E+01 1.47623E+00-6.16620E-03 7.96748E-01 1.80592E-13-4.94125E-14
 -1      1653 1.99496E+01 3.23079E+00 1.73570E-03 3.72049E-01-7.95579E-14 4.31504E-14
 -1      1654 1.99732E+01 2.78589E+00-7.82169E-06 3.92026E-01-1.20227E-13-8.00922E-14
 -1      1655 1.99672E+01 2.20126E+00 4.02585E-03 7.92063E-01 7.59028E-14-2.83651E-13
 -1      1656 1.99132E+01 3.75665E+00 5.55287E-03 2.01292E-01 1.47968E-13-3.23960E-14
 -1      1657 1.99319E+01 3.50463E+00 4.71901E-03 2.44282E-01 3.68837E-14 1.30292E-13
 -1      1658 1.98992E+01 2.84244E+00 1.65553E-02 5.91192E-01-4.48279E-14 2.73295E-13
 -1      1659 1.98971E+01 3.81998E+00 8.35405E-03-4.92387E-02-1.43935E-13-1.31874E-13
 -1      1660 1.99012E+01 3.85748E+00 8.62645E-03 6.72347E-03 1.70012E-13-2.42389E-13
 -1      1661 1.98451E+01 3.22657E+00 2.72478E-02 2.01612E-01-4.08389E-14-8.11747E-14
 -1      1662 1.99130E+01 3.34751E+00 7.78500E-03-3.21390E-01-1.70249E-13-2.44351E-13
 -1      1663 1.98981E+01 3.70417E+00 1.03912E-02-2.66379E-01-1.19481E-13 9.94682E-14
 -1      1664 1.98297E+01 3.22339E+00 3.10614E-02-2.98614E-01-3.59305E-15-1.28094E-13
 -1      1665 1.99626E+01 2.42789E+00 2.30857E-03-5.21694E-01-2.45567E-13-4.08892E-14
 -1      1666 1.99284E+01 3.02490E+00 6.89101E-03-4.88240E-01-8.76660E-14-2.19774E-13
 -1      1667 1.98686E+01 2.79037E+00 2.41785E-02-7.69162E-01 1.63480E-14-2.39569E-13
 -1      1668 2.00429E+01 1.33055E+00-6.51610E-03-5.48935E-01-4.13756E-13-1.44341E-13
 -1      1669 1.99972E+01 1.97761E+00-2.63526E-03-5.63975E-01-3.22277E-13 4.29385E-14
 -1      1670 1.99708E+01 2.01568E+00 6.49287E-03-1.03370E+00-2.49800E-13-1.96522E-13
 -1      1671-6.25142E-01-1.64555E+01-1.76331E+00-6.57675E-01-5.52891E-14 1.58262E-13
 -1      1672-6.83696E-01-1.91158E+01-2.00610E+00 7.85300E-01-2.14551E-13 1.46383E-13
 -1      1673 1.20147E+00-9.28716E+00-1.27177E+00 4.69121E-01 1.11022E-13 9.63951E-14
 -1      1674 5.28545E-01-1.47985E+01-1.81496E+00-3.33178E-03-3.04201E-14 7.79168E-14
 -1      1675 6.42992E+00-8.99267E-01-5.75556E-01 4.49701E+00 4.24105E-13 7.09655E-13
 -1      1676 3.59263E+00-6.87838E+00-1.35769E+00 1.68644E+00 2.20046E-13 4.88054E-13
 -1      1677 1.63637E+01 5.24311E+00 1.93552E-01 9.84522E+00 7.35190E-13 7.09210E-13
 -1      1678 1.02538E+01 1.24717E+00-7.09734E-01 5.97148E+00 5.81313E-13 6.19504E-13
 -1      1679 3.01923E+01 7.34918E+00 9.11892E-01 1.35022E+01 6.23057E-13 8.52651E-13
 -1      1680 2.14217E+01 6.49968E+00 7.33553E-02 1.09191E+01 7.52953E-13 8.62199E-13
 -1      1681 4.48965E+01 6.11656E+00 1.50396E+00 1.24312E+01 3.88384E-13 3.83693E-13
 -1      1682 3.56835E+01 7.49983E+00 8.28823E-01 1.30809E+01 6.19005E-13 5.75540E-13
 -1      1683 5.55113E+01 4.21910E+00 1.86074E+00 6.88766E+00 1.03167E-13 2.66898E-13
 -1      1684 4.92716E+01 5.91659E+00 1.45252E+00 1.10189E+01 1.43038E-13 2.79887E-13
 -1      1685 5.77960E+01 3.84710E+00 1.82763E+00-1.69050E+00 1.32061E-13 2.92405E-14
 -1      1686 5.69420E+01 4.10042E+00 1.78094E+00 4.07698E+00 1.60649E-13 2.58349E-13
 -1      1687 5.24279E+01 5.33654E+00 1.60703E+00-9.60816E+00 3.74673E-13-4.52194E-13
 -1      1688 5.72114E+01 3.87661E+00 1.88824E+00-4.66987E+00 2.22600E-13-1.96509E-14
 -1      1689 3.97781E+01 7.56245E+00 1.00833E+00-1.33865E+01 6.47149E-13-1.00453E-12
 -1      1690 4.87155E+01 5.76685E+00 1.67432E+00-1.16412E+01 4.18512E-13-7.69607E-13
 -1      1691 2.49880E+01 6.36600E+00 1.99222E-01-1.10063E+01 1.07514E-12-1.07692E-12
 -1      1692 3.45100E+01 6.57276E+00 9.86381E-01-1.28936E+01 8.26672E-13-8.16680E-13
 -1      1693 1.21654E+01 3.08750E+00-5.41099E-01-7.24179E+00 9.45910E-13-1.02685E-12
 -1      1694 1.87965E+01 6.12053E+00 2.68025E-01-1.09222E+01 1.06082E-12-1.36802E-12
 -1      1695 4.66629E+00-4.58762E+00-1.16532E+00-2.62547E+00 7.24532E-13-4.98324E-13
 -1      1696 8.09335E+00 1.15947E+00-3.90408E-01-5.77133E+00 8.95506E-13-6.81344E-13
 -1      1697 1.23907E+00-1.29789E+01-1.57297E+00-8.95577E-01 4.16778E-13-1.90938E-13
 -1      1698 2.37468E+00-7.05448E+00-9.89467E-01-1.84429E+00 6.05072E-13-4.19914E-13
 -1      1699-6.43494E-01-1.85342E+01-1.97834E+00-8.91177E-01 6.09512E-14-2.54463E-13
 -1      1700-5.45536E-01-1.53244E+01-1.64579E+00 4.40345E-01 3.86691E-13-2.02810E-13
 -1      1701-1.15468E+00-1.81963E+01-1.96237E+00-2.26825E+00-3.32512E-13-1.66200E-13
 -1      1702-8.92204E-01-1.90293E+01-1.97575E+00-5.42595E-01-7.63417E-14-2.22378E-13
 -1      1703-1.96787E-01-1.28651E+01-1.68684E+00-1.80484E+00-8.30336E-13-7.66553E-13
 -1      1704-3.57446E-01-1.70081E+01-1.98989E+00-1.57480E+00-4.17777E-13-3.58991E-13
 -1      1705 3.66714E+00-5.52347E+00-1.28117E+00 1.17857E+00-1.10134E-12-8.15570E-13
 -1      1706 1.69430E+00-1.11759E+01-1.87225E+00-9.04458E-01-9.78773E-13-6.25056E-13
 -1      1707 1.37258E+01 9.38447E-01-5.14800E-01 6.62179E+00-1.02718E-12-1.14264E-12
 -1      1708 7.96358E+00-3.78721E+00-1.40313E+00 2.74011E+00-9.89431E-13-9.45355E-13
 -1      1709 2.92100E+01 4.35414E+00 5.10240E-01 1.09987E+01-8.79408E-13-1.41664E-12
 -1      1710 1.94378E+01 2.28720E+00-6.20641E-01 7.57900E+00-1.08491E-12-1.11466E-12
 -1      1711 4.77893E+01 4.53487E+00 1.75620E+00 1.08467E+01-6.46982E-13-1.50324E-12
 -1      1712 3.57749E+01 5.01391E+00 5.15615E-01 1.04861E+01-6.62137E-13-1.50724E-12
 -1      1713 6.26874E+01 3.79828E+00 2.87278E+00 5.98875E+00-2.50022E-13-1.68288E-12
 -1      1714 5.36441E+01 5.33368E+00 1.97832E+00 1.02046E+01-5.29105E-13-1.64535E-12
 -1      1715 6.55569E+01 3.96523E+00 3.02010E+00-2.91598E+00-2.39697E-13-1.14536E-12
 -1      1716 6.50942E+01 4.06893E+00 3.00108E+00 3.76112E+00-3.21076E-13-1.58701E-12
 -1      1717 5.54607E+01 5.30426E+00 2.14124E+00-9.79013E+00-2.26222E-13-3.58158E-13
 -1      1718 6.32645E+01 3.83699E+00 2.87159E+00-5.20380E+00-2.43860E-13-1.01896E-12
 -1      1719 3.89565E+01 6.04643E+00 8.74240E-01-1.20471E+01-2.67564E-13 2.98872E-13
 -1      1720 5.06029E+01 5.02619E+00 2.04791E+00-1.16789E+01-1.97564E-13-5.01821E-14
 -1      1721 2.22215E+01 3.87448E+00-3.63506E-01-9.09962E+00-3.53717E-13 4.83169E-13
 -1      1722 3.25440E+01 5.42967E+00 8.33612E-01-1.22492E+01-4.25104E-13 5.70433E-13
 -1      1723 9.75300E+00-2.68843E+00-1.26373E+00-3.71676E+00-2.24709E-13 2.84661E-13
 -1      1724 1.66656E+01 2.01037E+00-2.74216E-01-7.98041E+00-2.69562E-13 5.00489E-13
 -1      1725 2.21028E+00-1.03237E+01-1.85162E+00 4.18003E-01-8.21565E-14-6.61693E-14
 -1      1726 4.62966E+00-4.35779E+00-1.17420E+00-2.07658E+00-2.86438E-14 1.57985E-13
 -1      1727-2.67824E-01-1.71353E+01-2.05709E+00 1.50506E+00-3.66707E-13-4.24660E-15
 -1      1728-5.12315E-02-1.23956E+01-1.70511E+00 1.61251E+00-1.89182E-13-1.54973E-13
 -1      1729-8.52058E-01-1.91039E+01-1.96156E+00 3.58297E-01-3.47850E-13 1.22791E-13
 -1      1730-1.05652E+00-1.79182E+01-1.91771E+00 1.99105E+00-3.61322E-13 1.05471E-14
 -1      1731 2.02528E+01 2.59509E-01-1.99662E-02-3.90502E-01-2.08521E-13 2.51773E-13
 -1      1732 5.56710E+00-8.00147E+00-9.07842E-01 4.87212E+00 1.87406E-13 4.20212E-13
 -1      1733 1.99850E+01-2.31341E-02 3.56983E-03-2.93653E-02-2.78232E-14 2.42271E-13
 -1      1734 1.99678E+01-4.39951E-02 8.36776E-04-6.84212E-02 2.08375E-13 8.84132E-13
 -1      1735-1.68942E+00-1.32121E+01-1.41317E+00 9.60353E-01-1.69337E-13 3.00149E-13
 -1      1736 3.64266E-01-1.17279E+01-1.28525E+00 2.83508E+00-2.32037E-14 9.34808E-14
 -1      1737 2.01023E+01 4.51563E-01-4.47460E-03-3.54885E-01-4.64748E-13 2.01042E-13
 -1      1738 2.00809E+01 8.85053E-01-1.55374E-02-4.33917E-01-2.45456E-13-2.53027E-13
 -1      1739 2.00977E+01 1.13133E+00-1.22651E-02-9.43138E-01-1.23448E-13-1.40523E-13
 -1      1740 1.36296E+01-3.34954E+00-3.81862E-01 6.91969E+00 3.76810E-13 8.05800E-13
 -1      1741 2.37034E+01 1.14298E+00 2.41790E-01 8.35819E+00 5.16698E-13 6.06626E-13
 -1      1742 3.44793E+01 4.40258E+00 8.23431E-01 8.11044E+00 5.39735E-13 2.93432E-13
 -1      1743 4.35021E+01 6.57628E+00 1.27339E+00 6.04605E+00 3.22325E-13 1.26232E-13
 -1      1744 4.90219E+01 7.65433E+00 1.54971E+00 2.73452E+00 1.32061E-13-1.44329E-14
 -1      1745 4.96811E+01 7.84576E+00 1.57498E+00-1.62538E+00 3.87523E-13-7.97973E-14
 -1      1746 4.58639E+01 6.99500E+00 1.38670E+00-5.56320E+00 5.28078E-13-2.76557E-13
 -1      1747 3.67809E+01 4.52796E+00 7.30643E-01-7.03244E+00 6.93917E-13-4.79394E-13
 -1      1748 2.66268E+01 1.70810E+00 4.01247E-01-8.13620E+00 7.57838E-13-7.57061E-13
 -1      1749 1.54353E+01-1.86917E+00-2.33503E-01-7.45337E+00 5.00044E-13-8.28670E-13
 -1      1750 7.11443E+00-6.63645E+00-7.51763E-01-5.72051E+00 2.02616E-13-4.27172E-13
 -1      1751 1.15737E+00-1.03055E+01-1.07076E+00-3.78077E+00-1.07248E-13-1.97620E-13
 -1      1752-1.72000E+00-1.31279E+01-1.44440E+00-1.36025E+00-1.46938E-13-4.06453E-13
 -1      1753-8.56727E-01-1.25797E+01-1.41218E+00 5.51540E-01-4.66849E-13-5.40457E-13
 -1      1754 3.35220E+00-1.02984E+01-1.25437E+00 2.52991E+00-6.15286E-13-7.03604E-13
 -1      1755 1.14495E+01-6.86217E+00-8.53991E-01 4.61851E+00-7.99805E-13-6.95166E-13
 -1      1756 2.29881E+01-3.21307E+00-2.30960E-01 5.78910E+00-5.78204E-13-8.12128E-13
 -1      1757 3.58164E+01 4.60082E-01 5.71380E-01 5.00611E+00-5.15865E-13-9.92539E-13
 -1      1758 4.70641E+01 4.39581E+00 1.46784E+00 3.18469E+00-3.04326E-13-1.01674E-12
 -1      1759 5.48764E+01 7.18461E+00 2.31867E+00 1.28287E+00-3.02536E-13-1.11644E-12
 -1      1760 5.45369E+01 7.75707E+00 2.29720E+00-9.42507E-01-4.48197E-13-1.24473E-12
 -1      1761 4.88356E+01 5.35376E+00 1.75511E+00-3.82801E+00-3.03313E-13-9.47242E-13
 -1      1762 3.79126E+01 1.97788E+00 7.96139E-01-6.08523E+00-1.65812E-13-1.76303E-13
 -1      1763 2.52027E+01-2.33585E+00-1.36999E-01-6.21996E+00-1.05360E-13 3.93019E-13
 -1      1764 1.33032E+01-6.24465E+00-7.20204E-01-5.27705E+00-2.37588E-14 3.94462E-13
 -1      1765 4.02664E+00-1.01198E+01-1.23526E+00-2.93332E+00-1.30229E-13-1.87430E-13
 -1      1766-5.98705E-01-1.26395E+01-1.40997E+00-8.65037E-01-1.77858E-13-1.83187E-14
 -1      1767 2.29233E+01 2.00775E+00-2.67461E-02-2.77972E+00-1.29629E-13 2.61513E-13
 -1      1768 1.98232E+01 3.71745E+00-3.48751E-02-2.15565E+00-1.03828E-13-2.22159E-13
 -1      1769 2.00529E+01 3.56061E+00-4.24811E-02-2.44295E+00-1.33794E-13-1.88887E-13
 -1      1770 2.03672E+01 3.17995E+00-4.50315E-02-2.58625E+00-1.45729E-13-1.41810E-13
 -1      1771 2.05843E+01 2.81612E+00-1.39075E-01-2.86459E+00-1.70784E-13-8.61464E-14
 -1      1772 2.04320E+01 2.68594E+00-3.72991E-03-2.22163E+00-1.49764E-13-1.53960E-13
 -1      1773 1.93547E+01 4.18879E+00-2.02101E-02-1.27054E+00-1.63075E-14-2.58621E-13
 -1      1774 1.94283E+01 4.14905E+00-1.71685E-02-1.49501E+00-3.44074E-14-2.61843E-13
 -1      1775 1.92578E+01 4.29465E+00-1.68232E-02-8.59700E-01 1.96132E-14-2.45566E-13
 -1      1776 1.93006E+01 4.27067E+00-1.43744E-02-1.07047E+00-2.51058E-15-2.54590E-13
 -1      1777 1.95264E+01 3.78279E+00-9.32306E-03-1.11953E+00-1.91659E-14-2.43297E-13
 -1      1778 1.92060E+01 4.35515E+00-1.48113E-02-4.66913E-01 6.35348E-14-2.18213E-13
 -1      1779 1.92281E+01 4.34229E+00-1.33303E-02-6.67180E-01 4.35509E-14-2.30958E-13
 -1      1780 1.94290E+01 3.90330E+00-9.23164E-03-7.33225E-01 4.23849E-14-2.19299E-13
 -1      1781 1.91865E+01 4.38082E+00-1.36710E-02-8.38603E-02 1.01608E-13-2.09130E-13
 -1      1782 1.91930E+01 4.37688E+00-1.32181E-02-2.79257E-01 8.51426E-14-2.19266E-13
 -1      1783 1.93786E+01 3.96788E+00-9.16425E-03-3.58424E-01 8.10788E-14-1.97908E-13
 -1      1784 1.91946E+01 4.37555E+00-1.31698E-02 2.97771E-01 1.28245E-13-1.96426E-13
 -1      1785 1.91870E+01 4.38001E+00-1.37516E-02 1.02219E-01 1.21799E-13-2.07088E-13
 -1      1786 1.93637E+01 3.98735E+00-9.14468E-03 1.03064E-02 1.24016E-13-1.98230E-13
 -1      1787 1.92320E+01 4.33837E+00-1.33268E-02 6.86384E-01 1.45471E-13-1.76558E-13
 -1      1788 1.92087E+01 4.35206E+00-1.49163E-02 4.85633E-01 1.41454E-13-1.92117E-13
 -1      1789 1.93812E+01 3.96466E+00-9.18523E-03 3.79215E-01 1.43505E-13-1.81776E-13
 -1      1790 1.93057E+01 4.26496E+00-1.44049E-02 1.08394E+00 1.76956E-13-1.20173E-13
 -1      1791 1.92622E+01 4.28941E+00-1.69766E-02 8.76014E-01 1.56786E-13-1.52212E-13
 -1      1792 1.94341E+01 3.89715E+00-9.19343E-03 7.51248E-01 1.61068E-13-1.59638E-13
 -1      1793 1.94376E+01 4.13777E+00-1.74172E-02 1.51392E+00 2.20864E-13-5.54660E-14
 -1      1794 1.93610E+01 4.18029E+00-2.05140E-02 1.28441E+00 1.92568E-13-8.84084E-14
 -1      1795 1.95341E+01 3.77315E+00-9.25741E-03 1.13492E+00 2.03791E-13-9.23914E-14
 -1      1796 1.96667E+01 3.92129E+00-2.53036E-02 1.97898E+00 2.34692E-13 2.47163E-14
 -1      1797 1.95342E+01 3.99813E+00-2.68992E-02 1.72162E+00 2.26484E-13-2.65170E-14
 -1      1798 1.97076E+01 3.56584E+00-8.87549E-03 1.53465E+00 2.32438E-13-2.05738E-14
 -1      1799 2.00788E+01 3.52277E+00-4.42893E-02 2.47548E+00 2.32881E-13 1.65208E-13
 -1      1800 1.98413E+01 3.68398E+00-3.78971E-02 2.18086E+00 2.28807E-13 7.81528E-14
 -1      1801 2.00023E+01 3.22119E+00-6.61993E-03 1.93147E+00 2.40891E-13 6.08263E-14
 -1      1802 2.09196E+01 2.66933E+00-6.21173E-02 2.85457E+00 1.88714E-13 3.79731E-13
 -1      1803 2.04130E+01 3.10026E+00-4.96538E-02 2.61245E+00 2.06466E-13 2.51341E-13
 -1      1804 2.04976E+01 2.60857E+00-1.02102E-03 2.23789E+00 2.23490E-13 2.02966E-13
 -1      1805 2.17304E+01 1.21134E+00-1.23337E-01 2.32827E+00 1.33303E-13 6.31412E-13
 -1      1806 2.12781E+01 2.27253E+00 3.42746E-03 2.74103E+00 1.58110E-13 4.69277E-13
 -1      1807 2.09598E+01 1.68883E+00-1.35994E-02 2.14491E+00 1.83152E-13 3.67421E-13
 -1      1808 2.09606E+01 7.78901E-01-6.04442E-02 1.52317E+00 1.31971E-13 5.90911E-13
 -1      1809 2.18229E+01 2.49040E+00 9.18506E-02-3.08623E+00-1.71013E-13 2.59653E-14
 -1      1810 2.01075E+01 2.96241E-01-8.12688E-03 6.58047E-01 1.22936E-13 5.20731E-13
 -1      1811 2.06497E+01 4.38088E-01-1.47495E-02 1.03356E+00 1.14429E-13 5.55896E-13
 -1      1812 2.07504E+01 8.50548E-01 6.99053E-03 1.40847E+00 1.42501E-13 4.21874E-13
 -1      1813 2.05540E+01 5.24355E-01 3.08869E-02-9.59963E-01-1.48201E-13-2.99739E-14
 -1      1814 2.01145E+01 3.65754E-01 6.80068E-03-6.54507E-01-1.18959E-13-6.54017E-14
 -1      1815 1.99181E+01 2.66178E-01 2.76701E-02-4.09709E-01-9.52996E-14-7.63218E-14
 -1      1816 1.97201E+01 1.84221E-01 1.04844E-02-2.66776E-01-6.31491E-14-9.48720E-14
 -1      1817 2.02191E+01 5.01352E-01-6.16594E-03-7.49802E-01-1.27115E-13-9.08362E-14
 -1      1818 1.95946E+01 1.36779E-01 1.68911E-02-1.29241E-01-3.08269E-14-9.09403E-14
 -1      1819 1.95131E+01 9.67145E-02 7.36257E-03-5.62410E-02 6.56766E-15-9.70456E-14
 -1      1820 1.98869E+01 2.52587E-01-5.85352E-03-3.10968E-01-6.17817E-14-1.08536E-13
 -1      1821 1.94479E+01 7.21344E-02 8.93310E-03 1.66180E-02 1.85240E-14-1.05466E-13
 -1      1822 1.94311E+01 5.07401E-02 4.48442E-03 5.28082E-02 8.66169E-15-1.01947E-13
 -1      1823 1.97018E+01 1.30346E-01-5.03692E-03-7.05947E-02-3.15741E-15-1.06534E-13
 -1      1824 1.94018E+01 3.47499E-02 4.41328E-03 9.44079E-02-2.75381E-14-9.32104E-14
 -1      1825 1.94194E+01 2.20394E-02 2.61201E-03 1.12574E-01-1.91123E-14-8.94285E-14
 -1      1826 1.96115E+01 6.59972E-02-3.52399E-03 6.16737E-02-4.74967E-15-1.06073E-13
 -1      1827 1.94156E+01 1.28142E-02 2.00121E-03 1.32059E-01-1.97177E-14-7.97716E-14
 -1      1828 1.94516E+01 5.24338E-03 1.53526E-03 1.38310E-01-1.21116E-14-7.96589E-14
 -1      1829 1.95825E+01 2.67325E-02-2.43908E-03 1.32867E-01-2.25962E-14-8.51908E-14
 -1      1830 1.94630E+01-2.75581E-04 6.30737E-04 1.44574E-01 3.91675E-16-7.96582E-14
 -1      1831 1.95069E+01-4.50053E-03 8.89975E-04 1.43770E-01-1.82305E-15-5.62891E-14
 -1      1832 1.95931E+01 3.89967E-03-1.53764E-03 1.63987E-01 1.16756E-14-6.58187E-14
 -1      1833 1.95262E+01-7.70819E-03-1.30321E-04 1.42196E-01-3.44915E-14-2.33487E-14
 -1      1834 1.95716E+01-9.82931E-03 4.72442E-04 1.37427E-01-2.22950E-14-1.29004E-14
 -1      1835 1.96261E+01-9.17275E-03-8.79496E-04 1.70906E-01 4.97039E-15-3.90154E-14
 -1      1836 1.95944E+01-1.15166E-02-5.39098E-04 1.31457E-01-3.15004E-14-2.82968E-14
 -1      1837 1.96377E+01-1.22881E-02 2.07568E-04 1.24703E-01-2.25744E-14-1.72128E-14
 -1      1838 1.96701E+01-1.60953E-02-4.32865E-04 1.63643E-01-3.85791E-14-6.12874E-14
 -1      1839 1.96610E+01-1.29715E-02-7.34987E-04 1.16601E-01-4.94739E-14-4.92504E-15
 -1      1840 1.97002E+01-1.28691E-02 2.75762E-05 1.09136E-01-4.85880E-14-4.53265E-14
 -1      1841 1.97176E+01-1.90392E-02-1.46388E-04 1.48707E-01-4.39581E-14-3.69309E-14
 -1      1842 1.97212E+01-1.29935E-02-8.19806E-04 1.00857E-01-5.13253E-14-9.10796E-14
 -1      1843 1.97542E+01-1.23019E-02-4.76151E-05 9.38642E-02-5.66310E-14-9.84679E-14
 -1      1844 1.97632E+01-1.94227E-02 6.26873E-05 1.30836E-01-9.23593E-14-1.02856E-13
 -1      1845 1.97748E+01-1.19044E-02-7.65752E-04 8.53804E-02-4.63958E-14-1.10271E-13
 -1      1846 1.98045E+01-1.09696E-02-6.93136E-05 7.87068E-02-2.60381E-14-5.69607E-14
 -1      1847 1.98056E+01-1.82818E-02 1.02976E-04 1.12443E-01-6.46251E-14-7.09128E-14
 -1      1848 1.98228E+01-1.02733E-02-6.94743E-04 7.11452E-02-3.76894E-14-7.59914E-14
 -1      1849 1.98481E+01-9.11442E-03-5.38794E-05 6.54770E-02-1.59622E-14-1.02209E-13
 -1      1850 1.98449E+01-1.60198E-02 1.36732E-04 9.47562E-02-4.47736E-14-6.45615E-14
 -1      1851 1.98643E+01-8.22084E-03-5.87454E-04 5.92649E-02-4.66872E-14-1.02940E-13
 -1      1852 1.98859E+01-6.91323E-03 1.42566E-06 5.48376E-02-3.55986E-14-1.13942E-13
 -1      1853 1.98798E+01-1.30782E-02 1.24872E-04 7.95316E-02-5.10945E-14-6.33146E-14
 -1      1854 1.99006E+01-5.86682E-03-4.61991E-04 5.02834E-02-4.30347E-14-1.44752E-13
 -1      1855 1.99194E+01-4.42502E-03 9.39013E-05 4.72818E-02-3.85702E-14-1.75842E-13
 -1      1856 1.99110E+01-9.65067E-03 8.04503E-05 6.76220E-02-4.80257E-14-2.08822E-14
 -1      1857 1.99331E+01-3.22108E-03-3.25214E-04 4.46489E-02 5.92600E-14-1.42288E-13
 -1      1858 1.99505E+01-1.62518E-03 2.11792E-04 4.32702E-02 1.35545E-13-1.00169E-13
 -1      1859 1.99394E+01-5.79283E-03 9.43260E-06 5.96931E-02 2.54708E-14-6.84329E-14
 -1      1860 1.99633E+01-3.19185E-04-1.83710E-04 4.28535E-02 1.20527E-13-1.41501E-13
 -1      1861 1.99799E+01 1.45231E-03 3.96703E-04 4.32247E-02 4.91852E-14-1.81382E-13
 -1      1862 1.99660E+01-1.47726E-03-5.93460E-05 5.63933E-02 1.10579E-13 2.27247E-14
 -1      1863 1.99942E+01 3.11266E-03-4.02836E-05 4.52873E-02 2.17505E-14-1.64687E-13
 -1      1864 2.00133E+01 5.35892E-03 6.58913E-04 4.78535E-02-4.29668E-14-9.00308E-14
 -1      1865 1.99932E+01 3.41322E-03-1.98914E-04 5.82729E-02 6.84888E-14-7.11651E-14
 -1      1866 2.00296E+01 7.39725E-03 1.19908E-04 5.30891E-02-5.25558E-14 9.88731E-15
 -1      1867 2.00525E+01 1.02514E-02 1.00911E-03 5.83877E-02-1.68528E-14 8.13658E-14
 -1      1868 2.00239E+01 9.57259E-03-3.46225E-04 6.65511E-02 3.63495E-14 4.57950E-14
 -1      1869 2.00724E+01 1.28890E-02 2.95237E-04 6.76306E-02-2.08848E-14 8.00918E-14
 -1      1870 2.01019E+01 1.66749E-02 1.49758E-03 7.64765E-02 7.25552E-14 7.73602E-14
 -1      1871 2.00602E+01 1.74099E-02-5.23360E-04 8.28456E-02-1.24135E-14 4.95267E-14
 -1      1872 2.01271E+01 2.02152E-02 4.90471E-04 9.09796E-02 3.57148E-14 4.16682E-14
 -1      1873 2.01668E+01 2.54133E-02 2.18497E-03 1.04603E-01 2.01752E-14 3.85035E-14
 -1      1874 2.01055E+01 2.78067E-02-7.36249E-04 1.09473E-01-2.92756E-15 7.55537E-14
 -1      1875 2.01996E+01 3.03027E-02 7.09810E-04 1.26218E-01-5.73875E-14-6.13197E-14
 -1      1876 2.02544E+01 3.76189E-02 3.15875E-03 1.46462E-01-5.29480E-14-5.38530E-14
 -1      1877 2.01639E+01 4.20727E-02-9.86733E-04 1.49846E-01-6.17858E-14 8.70530E-14
 -1      1878 2.02974E+01 4.44729E-02 9.37598E-04 1.77862E-01-3.93739E-14-1.36125E-13
 -1      1879 2.03737E+01 5.49225E-02 4.42821E-03 2.07549E-01-9.94799E-14-1.47771E-13
 -1      1880 2.02404E+01 6.21383E-02-1.26244E-03 2.08945E-01-1.07494E-13-1.35845E-14
 -1      1881 2.04269E+01 6.42032E-02 1.22762E-03 2.50281E-01-1.56407E-13-1.40274E-13
 -1      1882 2.05285E+01 7.82735E-02 6.26854E-03 2.90425E-01-1.99949E-13-1.10036E-13
 -1      1883 2.03384E+01 9.01580E-02-1.42940E-03 2.91412E-01-1.34087E-13-8.49394E-14
 -1      1884 2.06011E+01 9.21368E-02 1.37829E-03 3.53747E-01-1.12144E-13-6.38168E-14
 -1      1885 2.07500E+01 1.13534E-01 8.95890E-03 4.14574E-01 3.93704E-14-9.47842E-14
 -1      1886 2.04663E+01 1.29510E-01-1.83858E-03 4.08034E-01-1.07962E-13 6.26002E-14
 -1      1887 2.08433E+01 1.33158E-01 1.53835E-03 5.04310E-01 1.49625E-13-1.48680E-13
 -1      1888 2.10520E+01 1.63062E-01 1.23320E-02 5.91640E-01 1.33797E-13-3.41310E-14
 -1      1889 2.06367E+01 1.87123E-01-2.10731E-03 5.76499E-01 8.49997E-14 1.65738E-14
 -1      1890 2.11699E+01 1.90234E-01 1.33162E-03 7.17462E-01 1.21305E-13-3.97176E-14
 -1      1891 2.14601E+01 2.30781E-01 1.64054E-02 8.40895E-01 2.06933E-13 1.77874E-14
 -1      1892 2.08556E+01 2.67928E-01-2.20446E-03 8.12594E-01 1.58477E-13 8.94445E-15
 -1      1893 2.16056E+01 2.66125E-01 4.68369E-04 1.01395E+00 1.78219E-13-4.35817E-14
 -1      1894 2.20037E+01 3.16697E-01 2.05387E-02 1.18341E+00 1.18362E-13-2.31781E-15
 -1      1895 2.11313E+01 3.76146E-01-2.09814E-03 1.13817E+00 1.83339E-13-3.49403E-14
 -1      1896 2.21790E+01 3.56151E-01-1.57214E-03 1.41297E+00 1.08275E-13-6.74550E-14
 -1      1897 2.27094E+01 4.08632E-01 2.28317E-02 1.63278E+00 1.29815E-13-9.35276E-15
 -1      1898 2.14704E+01 5.07605E-01-1.91334E-03 1.57440E+00 4.26369E-14-1.54377E-13
 -1      1899 2.29058E+01 4.34947E-01-4.60519E-03 1.90485E+00 1.01493E-13-7.57716E-14
 -1      1900 2.35573E+01 4.59536E-01 2.09444E-02 2.14262E+00 2.19018E-14-3.11105E-14
 -1      1901 2.18695E+01 6.32101E-01-9.85469E-04 2.11367E+00 4.22926E-14-1.21593E-13
 -1      1902 2.38262E+01 4.40856E-01-4.40910E-03 2.45441E+00 3.51282E-15-3.05849E-14
 -1      1903 2.46506E+01 3.70100E-01 1.38348E-02 2.67207E+00-3.80815E-14-3.89185E-14
 -1      1904 2.23500E+01 6.63839E-01-4.41718E-03 2.73960E+00-6.67283E-14-2.39691E-13
 -1      1905 2.50566E+01 2.16406E-01 8.78378E-03 2.91588E+00-2.27526E-14-5.72268E-14
 -1      1906 2.59688E+01-8.12699E-02-1.87544E-04 2.93273E+00 9.17651E-14 8.69790E-15
 -1      1907 2.30019E+01 4.04937E-01-9.79948E-03 3.35023E+00-1.35655E-15-1.08003E-13
 -1      1908 2.66962E+01-4.99123E-01 4.49831E-02 2.89317E+00 1.27367E-13 1.00593E-13
 -1      1909 2.75586E+01-1.15254E+00-2.10766E-02 2.42434E+00 2.17291E-13 6.86595E-14
 -1      1910 2.40216E+01-4.72909E-01-1.63296E-02 3.62813E+00 1.46855E-13-1.54703E-14
 -1      1911 2.89390E+01-1.88560E+00 9.53697E-02 1.70743E+00 9.64714E-14 7.18939E-14
 -1      1912 2.95407E+01-2.64001E+00-3.79334E-02 4.82891E-01 3.01981E-14 1.22651E-13
 -1      1913 2.58826E+01-2.29526E+00-3.71239E-02 3.04189E+00 1.15213E-13-1.07338E-13
 -1      1914 3.14865E+01-3.11197E+00 4.71575E-02-1.01167E+00 2.06085E-15 1.89466E-13
 -1      1915 3.16053E+01-2.91862E+00-7.26122E-02-2.50182E+00 3.21791E-14 1.45814E-13
 -1      1916 2.89413E+01-4.13068E+00-6.31044E-02 9.36937E-01 1.04597E-13 2.34864E-14
 -1      1917 3.37255E+01 1.66060E+00-1.76574E-01-4.36848E+00 1.21680E-13 1.57457E-13
 -1      1918 3.31895E+01 3.22635E+00-1.45020E-01-3.18942E+00 5.10703E-14-3.07254E-14
 -1      1919 3.30067E+01 4.37299E+00-1.89472E-01-1.37972E+00-5.76761E-14-6.38977E-14
 -1      1920 3.32029E+01 4.28178E+00-2.15158E-01 1.05084E+00-1.79190E-13-1.46688E-14
 -1      1921 3.29880E+01 3.19603E+00-1.40836E-01 3.11495E+00-4.87499E-13-1.71890E-13
 -1      1922 3.35684E+01 8.78381E-01-2.06098E-01 4.30250E+00-5.31880E-13-1.38278E-13
 -1      1923 3.22388E+01-1.15131E+00-1.24741E-01 3.93179E+00-3.18856E-13-2.02366E-13
 -1      1924 3.25338E+01-2.69204E+00-7.04169E-02 2.89646E+00-1.73306E-13-2.12622E-13
 -1      1925 3.04722E+01-2.92743E+00-3.77622E-02 1.10196E+00-2.34569E-13-2.21403E-13
 -1      1926 3.00681E+01-2.62363E+00 7.07226E-02-4.07489E-01-1.39173E-13-3.24289E-13
 -1      1927 3.13836E+01-4.01598E+00-1.04147E-01 1.11071E+00-2.47757E-13-3.47139E-13
 -1      1928 2.83657E+01-1.99427E+00-3.85842E-02-1.61322E+00 1.00302E-13-3.22829E-13
 -1      1929 2.76141E+01-1.25764E+00 6.83848E-02-2.47905E+00 1.45273E-13-1.78288E-13
 -1      1930 2.75961E+01-3.35826E+00-6.10156E-02-1.97445E+00-6.77097E-14 1.61330E-13
 -1      1931 2.64788E+01-6.86189E-01-1.86968E-02-2.93224E+00 2.24400E-13 3.28331E-14
 -1      1932 2.54979E+01-1.80085E-01 2.71027E-02-3.19341E+00 3.47887E-13 1.17304E-13
 -1      1933 2.50217E+01-1.47246E+00-2.89940E-02-3.53356E+00 3.93262E-13 2.82503E-13
 -1      1934 2.48267E+01 9.24270E-02 1.17687E-03-3.13226E+00 3.18447E-13 3.30014E-14
 -1      1935 2.38431E+01 3.05056E-01 4.10556E-03-3.02670E+00 2.47073E-13 3.27845E-14
 -1      1936 2.33982E+01-1.09318E-01-1.46063E-02-3.82797E+00 3.13527E-13 8.43392E-14
 -1      1937 2.34053E+01 3.94321E-01 1.66713E-02-2.76263E+00 1.81805E-13 7.43867E-14
 -1      1938 2.25329E+01 4.49258E-01-1.67759E-03-2.51251E+00 5.89719E-14 2.01145E-13
 -1      1939 2.23554E+01 4.85202E-01-8.53759E-03-3.44487E+00 2.38998E-13 6.58154E-14
 -1      1940 2.22117E+01 4.75537E-01 2.40932E-02-2.19628E+00 5.81479E-15 2.55421E-13
 -1      1941 2.15057E+01 4.89293E-01 9.02381E-04-1.89977E+00 1.28524E-13 2.64569E-13
 -1      1942 2.15826E+01 6.57549E-01-1.18484E-02-2.81830E+00 8.61663E-14 1.82538E-13
 -1      1943 2.12438E+01 5.08653E-01 1.87151E-02-1.56943E+00 1.47422E-13 3.23440E-13
 -1      1944 2.07285E+01 5.53452E-01 5.38684E-03-1.25563E+00 1.49162E-13 1.64661E-13
 -1      1945 2.09645E+01 7.28861E-01-1.17991E-02-2.10883E+00 1.59099E-13 1.45650E-13
 -1      1946 1.96219E+01 1.38857E-01 7.34784E-03 2.57973E-01 8.34298E-14 4.40937E-13
 -1      1947 1.98872E+01 2.05283E-01 1.51365E-02 4.30936E-01 9.98524E-14 4.82628E-13
 -1      1948 2.01099E+01 3.64346E-01 6.09126E-03 6.56205E-01 1.26057E-13 3.76896E-13
 -1      1949 9.96293E+00-5.60330E+00-1.63730E-01 7.03788E+00 2.31815E-13 9.08461E-13
 -1      1950 6.40359E+00-7.51339E+00-4.38817E-01 5.78947E+00 6.75016E-14 3.12389E-13
 -1      1951 1.93795E+01 7.07670E-02 6.61653E-03 5.50387E-02 6.06507E-14 4.03869E-13
 -1      1952 1.94915E+01 1.02427E-01 1.36165E-02 1.43983E-01 6.30529E-14 4.17727E-13
 -1      1953 1.97155E+01 1.70810E-01 1.05627E-03 2.59396E-01 8.08659E-14 3.22247E-13
 -1      1954 1.92895E+01 3.60902E-02 4.35232E-03-4.95708E-02 5.47284E-14 3.55518E-13
 -1      1955 1.93192E+01 5.20080E-02 8.25612E-03-2.29261E-03 4.77196E-14 3.87153E-13
 -1      1956 1.95138E+01 8.06594E-02-2.47246E-03 4.42561E-02 6.84743E-14 2.93131E-13
 -1      1957 1.92881E+01 1.62741E-02 2.82097E-03-1.02240E-01 1.33320E-14 3.05041E-13
 -1      1958 1.92727E+01 2.51482E-02 4.31236E-03-7.75527E-02 2.52115E-14 3.35111E-13
 -1      1959 1.94335E+01 3.75501E-02-2.94266E-03-6.83721E-02 3.86147E-14 2.16379E-13
 -1      1960 1.93359E+01 4.63840E-03 1.98078E-03-1.24458E-01 5.66641E-14 2.70809E-13
 -1      1961 1.92972E+01 9.67529E-03 2.12766E-03-1.12967E-01 2.92254E-14 2.99906E-13
 -1      1962 1.94275E+01 1.37521E-02-2.34077E-03-1.24163E-01 3.94129E-14 1.84529E-13
 -1      1963 1.94079E+01-2.13664E-03 1.45045E-03-1.28787E-01 7.10678E-14 2.54216E-13
 -1      1964 1.93591E+01 6.04463E-04 9.46196E-04-1.25221E-01 6.38590E-14 2.91705E-13
 -1      1965 1.94625E+01 1.61388E-04-1.69998E-03-1.46850E-01 5.64519E-14 1.93103E-13
 -1      1966 1.94891E+01-5.88246E-03 1.07219E-03-1.22805E-01 6.19800E-14 2.28246E-13
 -1      1967 1.94378E+01-4.56837E-03 2.79075E-04-1.23943E-01 6.67793E-14 2.45532E-13
 -1      1968 1.95186E+01-7.41777E-03-1.17384E-03-1.50015E-01 8.90446E-14 1.97605E-13
 -1      1969 1.95702E+01-7.67641E-03 7.89926E-04-1.11293E-01-1.11624E-15 2.63845E-13
 -1      1970 1.95208E+01-7.26217E-03-1.01629E-04-1.15071E-01 4.01158E-14 2.20164E-13
 -1      1971 1.95831E+01-1.12784E-02-7.82654E-04-1.41972E-01 4.23970E-14 1.92925E-13
 -1      1972 1.96460E+01-8.19867E-03 5.78502E-04-9.73491E-02 4.16669E-14 2.18798E-13
 -1      1973 1.96010E+01-8.34643E-03-3.07604E-04-1.02406E-01 3.84910E-14 2.58968E-13
 -1      1974 1.96484E+01-1.27710E-02-5.03944E-04-1.28035E-01 3.37066E-14 1.76045E-13
 -1      1975 1.97140E+01-7.89780E-03 4.22884E-04-8.29875E-02 1.10071E-13 1.40230E-13
 -1      1976 1.96744E+01-8.38445E-03-4.01469E-04-8.84241E-02 6.84166E-14 1.69458E-13
 -1      1977 1.97100E+01-1.27467E-02-3.11384E-04-1.11664E-01 9.95297E-14 9.33077E-14
 -1      1978 1.97733E+01-7.07401E-03 3.12425E-04-6.95072E-02 1.19424E-13 9.80055E-14
 -1      1979 1.97392E+01-7.75157E-03-4.22263E-04-7.47294E-02 1.08468E-13 1.40044E-13
 -1      1980 1.97657E+01-1.17632E-02-1.83332E-04-9.51195E-02 1.24661E-13 5.77899E-14
 -1      1981 1.98241E+01-5.92524E-03 2.39155E-04-5.77283E-02 1.08263E-14 1.00659E-13
 -1      1982 1.97952E+01-6.69758E-03-3.95717E-04-6.23480E-02 3.29111E-14 1.25949E-13
 -1      1983 1.98146E+01-1.01888E-02-1.03577E-04-7.98584E-02 3.05830E-14 1.04777E-13
 -1      1984 1.98675E+01-4.57722E-03 1.96919E-04-4.81588E-02-8.28325E-14 1.65879E-13
 -1      1985 1.98432E+01-5.38422E-03-3.39058E-04-5.19230E-02-4.56643E-14 1.03053E-13
 -1      1986 1.98572E+01-8.26108E-03-6.02973E-05-6.68060E-02-3.44066E-14 5.60689E-14
 -1      1987 1.99052E+01-3.10618E-03 1.80720E-04-4.11095E-02 4.25686E-14 1.70304E-13
 -1      1988 1.98843E+01-3.91177E-03-2.63852E-04-4.38510E-02-1.21328E-14 1.88978E-13
 -1      1989 1.98942E+01-6.12728E-03-4.49473E-05-5.65407E-02-3.20984E-14 9.67247E-14
 -1      1990 1.99389E+01-1.55822E-03 1.86040E-04-3.67705E-02 7.98867E-15 1.68997E-13
 -1      1991 1.99204E+01-2.34035E-03-1.77983E-04-3.83745E-02 1.84703E-14 1.46557E-13
 -1      1992 1.99271E+01-3.87481E-03-5.13721E-05-4.94214E-02 6.24219E-14 1.53967E-13
 -1      1993 1.99706E+01 3.19058E-05 2.07995E-04-3.52509E-02 4.30969E-14 2.44567E-13
 -1      1994 1.99533E+01-7.09482E-04-8.72292E-05-3.56380E-02 2.49764E-14 2.42627E-13
 -1      1995 1.99574E+01-1.55919E-03-7.50533E-05-4.56655E-02-6.15869E-15 2.17637E-13
 -1      1996 2.00026E+01 1.62020E-03 2.40273E-04-3.65844E-02-9.60080E-14 1.24983E-13
 -1      1997 1.99852E+01 9.41628E-04 3.31637E-06-3.57088E-02-1.53628E-14 2.01991E-13
 -1      1998 1.99869E+01 7.67883E-04-1.12388E-04-4.53826E-02 1.77721E-14 1.75637E-13
 -1      1999 2.00369E+01 3.12943E-03 2.73807E-04-4.06939E-02-1.35430E-14 1.22035E-13
 -1      2000 2.00183E+01 2.55101E-03 8.78756E-05-3.85602E-02-5.51717E-14 1.38169E-13
 -1      2001 2.00175E+01 3.02708E-03-1.59919E-04-4.85615E-02-3.95922E-14 8.37155E-14
 -1      2002 2.00756E+01 4.42022E-03 2.95203E-04-4.73103E-02 1.40467E-13 5.98881E-14
 -1      2003 2.00546E+01 4.00641E-03 1.58594E-04-4.40128E-02 3.30504E-14 9.50979E-14
 -1      2004 2.00511E+01 5.07424E-03-2.13433E-04-5.50041E-02 4.30037E-14 6.00029E-14
 -1      2005 2.01201E+01 5.25767E-03 2.85159E-04-5.58374E-02 2.49976E-13 9.13106E-14
 -1      2006 2.00959E+01 5.11274E-03 2.04188E-04-5.16249E-02 2.01601E-13 1.24029E-13
 -1      2007 2.00891E+01 6.65653E-03-2.66868E-04-6.42000E-02 1.87121E-13 5.99810E-14
 -1      2008 2.01715E+01 5.27645E-03 2.17345E-04-6.51571E-02 2.75283E-14 6.31137E-14
 -1      2009 2.01436E+01 5.55613E-03 2.08817E-04-6.05281E-02 1.83465E-13 1.32948E-13
 -1      2010 2.01330E+01 7.36398E-03-3.10943E-04-7.51315E-02 1.70118E-13 1.30151E-13
 -1      2011 2.02294E+01 3.95324E-03 5.86836E-05-7.33813E-02-2.81008E-13 7.80240E-14
 -1      2012 2.01981E+01 4.87082E-03 1.51608E-04-6.92063E-02-1.73198E-13 4.24934E-14
 -1      2013 2.01830E+01 6.58419E-03-3.31511E-04-8.60122E-02-1.07577E-13 1.68653E-13
 -1      2014 2.02915E+01 6.04776E-04-2.27459E-04-7.75768E-02-2.79269E-13 2.41239E-13
 -1      2015 2.02583E+01 2.42269E-03 7.51654E-06-7.52378E-02-2.55993E-13 1.52900E-13
 -1      2016 2.02385E+01 3.47841E-03-3.07722E-04-9.39753E-02-2.79525E-13 2.82536E-13
 -1      2017 2.03529E+01-5.55682E-03-6.73221E-04-7.35349E-02-4.15333E-14 2.60667E-13
 -1      2018 2.03209E+01-2.56427E-03-2.49481E-04-7.50461E-02-1.73945E-13 2.49644E-13
 -1      2019 2.02970E+01-2.98697E-03-2.10395E-04-9.47686E-02-2.09563E-13 2.50796E-13
 -1      2020 2.04052E+01-1.52643E-02-1.29148E-03-5.57190E-02 1.46033E-13 4.00108E-13
 -1      2021 2.03795E+01-1.08972E-02-6.39732E-04-6.37659E-02 4.07981E-14 3.04647E-13
 -1      2022 2.03532E+01-1.38988E-02-1.61644E-06-8.25733E-02 4.40187E-14 2.34309E-13
 -1      2023 2.04357E+01-2.88760E-02-2.05425E-03-1.76162E-02-8.66711E-16 3.00164E-13
 -1      2024 2.04240E+01-2.31641E-02-1.16704E-03-3.54010E-02 9.62658E-14 3.53880E-13
 -1      2025 2.03990E+01-3.00731E-02 3.62408E-04-5.01523E-02 1.24308E-13 3.87788E-13
 -1      2026 2.04272E+01-4.58596E-02-2.86840E-03 4.72017E-02-5.54669E-14 3.60521E-13
 -1      2027 2.04394E+01-3.92931E-02-1.80384E-03 1.64607E-02-9.61212E-14 3.63263E-13
 -1      2028 2.04222E+01-5.14798E-02 9.21711E-04 1.03617E-02-9.12128E-14 3.30621E-13
 -1      2029 2.03588E+01-6.41242E-02-3.56081E-03 1.42996E-01-5.11960E-16 4.80675E-13
 -1      2030 2.04069E+01-5.79203E-02-2.47509E-03 9.70691E-02 1.28218E-14 4.51018E-13
 -1      2031 2.04069E+01-7.64111E-02 1.69150E-03 1.05670E-01-3.18807E-14 4.71827E-13
 -1      2032 2.02092E+01-7.94121E-02-3.89298E-03 2.68644E-01-5.64947E-14 4.29742E-13
 -1      2033 2.03048E+01-7.56958E-02-3.04672E-03 2.07858E-01-7.79971E-14 4.27417E-13
 -1      2034 2.03344E+01-1.00558E-01 2.62641E-03 2.38220E-01-3.29827E-14 4.86791E-13
 -1      2035 1.99606E+01-8.52354E-02-3.63048E-03 4.13738E-01 1.91453E-13 2.20005E-13
 -1      2036 2.01125E+01-8.68932E-02-3.32605E-03 3.42889E-01 5.94377E-14 3.63745E-13
 -1      2037 2.01860E+01-1.16460E-01 3.57465E-03 4.01963E-01 1.05338E-13 3.00189E-13
 -1      2038 1.96074E+01-7.40863E-02-2.67617E-03 5.55495E-01 1.32117E-14 4.39057E-13
 -1      2039 1.98168E+01-8.39865E-02-3.09078E-03 4.85357E-01 1.24612E-13 3.47175E-13
 -1      2040 1.99480E+01-1.14181E-01 4.24011E-03 5.77973E-01 8.23321E-14 3.41829E-13
 -1      2041 1.91638E+01-4.04662E-02-1.20135E-03 6.59186E-01-6.19203E-14 4.72263E-13
 -1      2042 1.94202E+01-5.99211E-02-2.14416E-03 6.06278E-01 2.81491E-14 4.77370E-13
 -1      2043 1.96192E+01-8.41568E-02 4.20432E-03 7.32326E-01 2.57132E-14 4.55266E-13
 -1      2044 1.86710E+01 1.47562E-02 3.26833E-04 6.85072E-01 3.15257E-14 4.23308E-13
 -1      2045 1.89498E+01-1.21623E-02-3.99646E-04 6.68248E-01 2.82299E-14 4.34468E-13
 -1      2046 1.92188E+01-2.23501E-02 3.09686E-03 8.19754E-01 5.82178E-14 4.41910E-13
 -1      2047 1.81966E+01 8.09628E-02 1.32748E-03 6.02646E-01 1.70717E-13 1.47367E-13
 -1      2048 1.84602E+01 5.29745E-02 1.99334E-03 6.36222E-01 1.21823E-13 2.82079E-13
 -1      2049 1.87921E+01 6.40827E-02 8.75072E-04 7.95785E-01 1.98501E-13 4.28001E-13
 -1      2050 1.78229E+01 1.39012E-01 1.49426E-03 4.07638E-01 1.28608E-14 5.12732E-14
 -1      2051 1.80279E+01 1.19118E-01 4.58879E-03 4.93448E-01 3.62644E-14 9.41452E-14
 -1      2052 1.84069E+01 1.54730E-01-1.92093E-03 6.35976E-01 1.18004E-13 2.05649E-13
 -1      2053 1.76236E+01 1.68595E-01 1.02324E-03 1.31794E-01 2.66896E-13 4.42651E-14
 -1      2054 1.77323E+01 1.64737E-01 6.68720E-03 2.54996E-01 1.04306E-13 6.78509E-14
 -1      2055 1.81374E+01 2.21434E-01-4.22609E-03 3.53751E-01 3.42764E-14 1.76142E-13
 -1      2056 1.76375E+01 1.58360E-01 5.00473E-04-1.63346E-01-1.23465E-14-3.22082E-14
 -1      2057 1.76305E+01 1.72930E-01 7.56743E-03-3.09221E-02 1.51495E-13-2.91228E-14
 -1      2058 1.80398E+01 2.40256E-01-5.08198E-03 4.38060E-03 1.21993E-13 1.00010E-13
 -1      2059 1.78528E+01 1.12578E-01 4.94214E-04-4.08667E-01-1.57110E-13 7.89308E-14
 -1      2060 1.77358E+01 1.40649E-01 6.85673E-03-2.98011E-01-8.31939E-14-3.64140E-14
 -1      2061 1.81295E+01 2.03924E-01-4.23480E-03-3.31356E-01-7.40623E-14 1.69217E-13
 -1      2062 1.82111E+01 4.90148E-02 1.11005E-03-5.54781E-01-4.00992E-14 1.48651E-13
 -1      2063 1.80134E+01 8.07841E-02 4.74198E-03-4.87492E-01-3.82632E-14 2.66350E-13
 -1      2064 1.83745E+01 1.26306E-01-2.31784E-03-5.78191E-01-1.00875E-13 2.10652E-13
 -1      2065 1.86309E+01-1.07029E-02 1.98849E-03-5.88499E-01-3.98019E-13 8.34554E-14
 -1      2066 1.83946E+01 1.50913E-02 1.92104E-03-5.70002E-01-2.24084E-13 6.69716E-14
 -1      2067 1.87094E+01 3.51335E-02-4.43721E-04-6.95065E-01-1.91701E-13 2.81541E-13
 -1      2068 1.90354E+01-5.08782E-02 2.68285E-03-5.31058E-01 1.55497E-13 6.21699E-14
 -1      2069 1.88016E+01-3.66457E-02-7.45663E-04-5.51852E-01-2.60550E-13-3.86618E-14
 -1      2070 1.90612E+01-4.14477E-02 6.86343E-04-6.85220E-01-1.57570E-13 6.74938E-14
 -1      2071 1.93731E+01-6.64058E-02 2.88818E-03-4.22810E-01 2.24105E-13 2.15856E-13
 -1      2072 1.91713E+01-6.41090E-02-2.63307E-03-4.65353E-01 2.94251E-13 3.07778E-13
 -1      2073 1.93725E+01-8.64122E-02 9.43107E-04-5.85892E-01 1.59415E-13 3.49403E-13
 -1      2074 1.96236E+01-6.15303E-02 2.59551E-03-3.04749E-01 1.53621E-13 2.89034E-13
 -1      2075 1.94675E+01-6.77305E-02-3.52481E-03-3.51438E-01 1.39850E-13 3.65789E-13
 -1      2076 1.96125E+01-9.75546E-02 5.64330E-04-4.47242E-01 1.39928E-13 6.56988E-13
 -1      2077 1.97913E+01-4.64620E-02 1.89578E-03-2.05652E-01-1.55113E-13 5.29061E-13
 -1      2078 1.96812E+01-5.53566E-02-3.45213E-03-2.44207E-01-7.61028E-14 3.93062E-13
 -1      2079 1.97766E+01-8.38399E-02 1.17675E-04-3.12575E-01-6.97764E-14 6.18599E-13
 -1      2080 1.98948E+01-3.55175E-02 7.76673E-04-1.32678E-01-2.04402E-13 9.89689E-13
 -1      2081 1.98247E+01-4.04146E-02-2.50785E-03-1.61106E-01-1.60900E-13 8.06444E-13
 -1      2082 1.98784E+01-6.39280E-02-3.86854E-04-2.06836E-01-2.61610E-13 1.01382E-12
 -1      2083 1.99528E+01-3.91632E-02 1.87261E-04-8.53711E-02 8.54709E-14 1.00105E-12
 -1      2084 1.99092E+01-3.80900E-02-1.50356E-03-1.12669E-01-4.62531E-14 9.61326E-13
 -1      2085 1.99361E+01-5.73533E-02-2.96221E-04-1.42760E-01-1.32917E-13 1.34643E-12
 -1      2086 1.99691E+01-5.95831E-02 2.25837E-03-1.01142E-01 2.37521E-13 1.15760E-12
 -1      2087 2.01660E+01-1.04450E-01 9.99359E-03 1.21689E-01 3.96860E-13-5.17654E-14
 -1      2088 2.01284E+01-1.52281E-01 1.32929E-03 3.71975E-02 4.13103E-13-2.22591E-13
 -1      2089 2.00909E+01-1.40794E-01 7.20350E-03-4.42094E-02 3.39081E-13-3.20292E-13
 -1      2090 2.00523E+01-1.38250E-01 1.32979E-04-8.42905E-02 2.33128E-13 1.00049E-13
 -1      2091 2.01638E+01-1.71019E-01-3.70093E-03-3.40697E-04 1.31960E-13-1.68281E-13
 -1      2092 2.00221E+01-1.13320E-01 4.38794E-03-1.09625E-01 2.28670E-13 4.24316E-13
 -1      2093 1.99906E+01-8.63382E-02 1.33705E-04-1.09242E-01 1.28020E-13 8.03311E-13
 -1      2094 1.99816E+01-8.41473E-02-7.85652E-04-1.30496E-01-5.55090E-14 8.01677E-13
 -1      2095 2.00677E+01-1.35527E-01-1.20080E-04-1.12313E-01-1.53757E-13 3.03863E-13
 -1      2096 2.02177E+01 4.40310E-02 1.07235E-02 3.65285E-01 1.05464E-13-7.52927E-13
 -1      2097 2.01936E+01-7.38092E-02 3.52563E-03 2.50009E-01 2.49641E-13-4.70856E-13
 -1      2098 2.02657E+01-1.48181E-01-5.45216E-03 2.34197E-01 1.00979E-14-4.13745E-13
 -1      2099 2.02292E+01 3.40997E-01 8.86358E-03 6.57206E-01 2.11397E-13-4.59853E-13
 -1      2100 2.02288E+01 1.36214E-01 5.14706E-03 5.27180E-01 2.21620E-13-3.81591E-13
 -1      2101 2.03285E+01-2.24357E-02-7.16552E-03 5.57706E-01-3.22713E-15-5.02127E-13
 -1      2102 2.01765E+01 7.92409E-01 3.49054E-03 9.27721E-01 3.20706E-13-3.77564E-13
 -1      2103 2.02125E+01 5.08586E-01 6.20223E-03 8.17912E-01 2.88946E-13-4.91240E-13
 -1      2104 2.03207E+01 2.39475E-01-8.39430E-03 9.19914E-01 1.45332E-13-3.16198E-13
 -1      2105 2.00468E+01 1.36609E+00-4.89808E-03 1.08599E+00 8.80732E-14-1.23255E-13
 -1      2106 2.01238E+01 1.03535E+00 5.99975E-03 1.03864E+00 2.44794E-13-1.79022E-13
 -1      2107 2.02127E+01 6.50316E-01-7.66291E-03 1.22831E+00 2.50097E-13-3.80034E-13
 -1      2108 1.98517E+01 1.98014E+00-1.42505E-02 1.03693E+00-1.52720E-13-4.52920E-13
 -1      2109 1.99596E+01 1.66061E+00 3.88055E-03 1.09167E+00-6.67626E-14-2.73422E-13
 -1      2110 1.99945E+01 1.18617E+00-3.90480E-03 1.36632E+00-1.34304E-13-3.08227E-13
 -1      2111 1.96396E+01 2.50658E+00-2.09378E-02 7.20748E-01-1.08084E-13 5.42753E-13
 -1      2112 1.97483E+01 2.27218E+00-6.59595E-04 8.95537E-01-1.99429E-13 4.42858E-14
 -1      2113 1.96982E+01 1.76984E+00 3.18492E-03 1.22215E+00-3.10079E-13-2.36039E-13
 -1      2114 1.94901E+01 2.79720E+00-2.19548E-02 1.70568E-01-2.01835E-13-2.35433E-13
 -1      2115 1.95558E+01 2.71647E+00-7.44304E-03 4.36545E-01-2.13874E-13 2.27839E-13
 -1      2116 1.94078E+01 2.26815E+00 1.15356E-02 7.49194E-01-4.01375E-13 3.19232E-13
 -1      2117 1.94772E+01 2.75699E+00-1.45706E-02-5.09796E-01 7.23649E-14 1.26086E-13
 -1      2118 1.94623E+01 2.86104E+00-1.42722E-02-2.09276E-01-5.52589E-14-1.08483E-13
 -1      2119 1.92367E+01 2.54058E+00 1.81858E-02 5.62336E-03-1.88016E-13-9.07963E-14
 -1      2120 1.96424E+01 2.35240E+00-1.70368E-03-1.09359E+00 3.49686E-14-2.99113E-13
 -1      2121 1.95379E+01 2.62609E+00-1.76999E-02-8.67879E-01 7.48503E-14-1.39096E-13
 -1      2122 1.92950E+01 2.47515E+00 2.14505E-02-8.35162E-01-9.83911E-14 1.38171E-14
 -1      2123 1.99766E+01 1.66365E+00 1.13680E-02-1.39551E+00-3.88578E-14-2.15731E-13
 -1      2124 1.97811E+01 2.06354E+00-1.72616E-02-1.32849E+00-3.65211E-14-2.29941E-13
 -1      2125 1.95274E+01 2.06324E+00 1.85344E-04-1.48254E+00 1.13457E-13-4.08198E-13
 -1      2126 1.90186E+01-3.46754E+00 2.84032E-02 7.76624E+00 2.33147E-13 4.95937E-13
 -1      2127 1.44060E+01-5.53092E+00-2.95606E-01 7.00253E+00 1.57541E-13 6.87117E-13
 -1      2128 2.04656E+01 5.12208E-01 2.64456E-04-7.95637E-01 9.83545E-14 2.75969E-13
 -1      2129 2.15355E+01 1.76918E+00 7.84463E-02-2.36931E+00-1.68556E-13-1.36974E-14
 -1      2130-4.07696E-02-8.56141E+00-4.60416E-01 1.89204E+00-7.68829E-15 4.95048E-13
 -1      2131-2.73950E-01-8.54894E+00-4.48707E-01 4.51399E-01-5.91333E-14 1.89238E-13
 -1      2132 1.95232E+01 4.01550E+00-2.56551E-02-1.70100E+00-6.41449E-14-2.59178E-13
 -1      2133 1.96518E+01 3.94211E+00-2.42566E-02-1.95631E+00-8.90147E-14-2.38254E-13
 -1      2134 1.99739E+01 3.25157E+00-8.19566E-03-1.90909E+00-1.10264E-13-2.11364E-13
 -1      2135 1.96937E+01 3.58246E+00-9.35172E-03-1.51742E+00-5.55025E-14-2.42991E-13
 -1      2136 2.69541E+01-6.20114E-01 1.39874E-01 7.21672E+00 4.28491E-13 3.61045E-13
 -1      2137 2.19366E+01-2.75540E+00-2.08140E-01 6.82806E+00 2.89158E-13 4.58855E-13
 -1      2138 2.27095E+01-4.83983E+00 4.74878E-02 6.78553E+00 1.57541E-13 4.57939E-13
 -1      2139 3.53144E+01 2.82664E+00 2.46797E-01 5.19332E+00 4.85958E-13 1.26676E-13
 -1      2140 3.07387E+01 1.31942E+00 2.42077E-02 5.73050E+00 4.20886E-13 2.24487E-13
 -1      2141 4.04036E+01 5.85438E+00 3.59610E-01 2.55836E+00 3.05589E-13 1.26010E-14
 -1      2142 3.70369E+01 4.64972E+00 1.20525E-01 3.29202E+00 4.81004E-13 1.19349E-13
 -1      2143 4.26990E+01 7.65359E+00 3.27817E-01 5.54246E-01 1.93068E-13 6.17978E-14
 -1      2144 4.16817E+01 7.09169E+00 2.83853E-01 2.03114E+00 1.75970E-13 1.12688E-14
 -1      2145 4.20208E+01 7.51906E+00 2.96032E-01-1.42346E+00 3.92020E-13-1.00003E-13
 -1      2146 4.23351E+01 7.89585E+00 2.94546E-01-5.17092E-02 2.73337E-13-1.53526E-13
 -1      2147 3.92179E+01 5.89329E+00 2.04379E-01-3.44034E+00 4.97158E-13-8.67639E-14
 -1      2148 4.20259E+01 6.73165E+00 3.87521E-01-2.24101E+00 4.51195E-13 2.32037E-14
 -1      2149 3.79656E+01 8.11493E+00 3.57717E-01-2.08397E-01 4.18443E-13-1.64702E-13
 -1      2150 3.28869E+01 2.18640E+00 5.66937E-02-4.30363E+00 5.23498E-13-7.60503E-14
 -1      2151 3.76036E+01 4.28235E+00 4.48644E-01-4.42606E+00 4.95673E-13-1.57097E-13
 -1      2152 2.40893E+01-1.58988E+00-1.04120E-01-6.73018E+00 4.33709E-13-5.15699E-13
 -1      2153 2.90253E+01-4.02618E-01-1.46106E-02-6.06271E+00 4.74898E-13-3.85803E-14
 -1      2154 1.55314E+01-4.41799E+00-2.89619E-01-7.11921E+00 1.98730E-13-6.95111E-13
 -1      2155 2.03146E+01-2.30559E+00 3.94838E-02-7.91303E+00 2.78444E-13-9.06164E-13
 -1      2156 8.34500E+00-6.35739E+00-2.57940E-01-6.66580E+00-1.90903E-13-3.53217E-13
 -1      2157 1.20281E+01-4.76803E+00-9.56347E-02-7.55361E+00 6.17284E-14-4.15334E-13
 -1      2158 1.71937E+00-7.71763E+00-4.24263E-01-3.92542E+00-3.03257E-13-2.30427E-13
 -1      2159 4.15690E+00-5.95686E+00-1.71582E-01-5.65687E+00-2.43472E-13-2.97984E-13
 -1      2160-2.64057E-01-8.12702E+00-4.24027E-01-1.11376E+00-3.08817E-13-4.13225E-13
 -1      2161 3.16974E-01-7.67451E+00-3.36676E-01-2.51194E+00-2.55018E-13-3.93241E-13
 -1      2162 2.37193E+00-4.85034E+00-1.60121E-01-3.99218E+00-3.17607E-13-3.17968E-13
 -1      2163 2.02292E+00-7.42999E+00-3.17585E-01 2.40625E+00-3.92686E-13-5.76206E-13
 -1      2164 4.31856E-01-8.16612E+00-4.50277E-01 8.56146E-01-2.70922E-13-4.43756E-13
 -1      2165 8.04081E+00-7.15838E+00-3.24119E-01 4.81704E+00-4.75620E-13-4.86944E-13
 -1      2166 4.71985E+00-8.18449E+00-4.88123E-01 3.66953E+00-4.39426E-13-5.81674E-13
 -1      2167 1.71720E+01-5.84372E+00-1.90824E-01 5.88598E+00-4.66738E-13-4.30184E-13
 -1      2168 1.19134E+01-7.48754E+00-5.36298E-01 4.90887E+00-5.34017E-13-4.49960E-13
 -1      2169 2.81500E+01-3.87121E+00-2.55800E-02 4.74052E+00-3.06644E-13-6.99885E-13
 -1      2170 2.20796E+01-5.64113E+00-4.11836E-01 4.60003E+00-3.47056E-13-6.22946E-13
 -1      2171 3.75809E+01-9.05954E-01 1.89316E-01 1.64702E+00-2.14884E-13-5.70544E-13
 -1      2172 3.21411E+01-2.73072E+00-1.48597E-01 2.36740E+00-3.05311E-13-5.65104E-13
 -1      2173 4.47218E+01 3.88585E+00 6.39828E-01 6.62498E-03-1.59761E-13-7.14206E-13
 -1      2174 4.00353E+01 2.08020E+00 2.11055E-01 2.73268E-01-1.29230E-13-7.23199E-13
 -1      2175 4.65227E+01 6.37060E+00 6.12456E-01-7.08410E-01-2.88547E-13-7.55229E-13
 -1      2176 4.52044E+01 5.80199E+00 5.90117E-01-2.23084E-01-1.80522E-13-6.84786E-13
 -1      2177 4.39831E+01 6.58538E+00 5.38545E-01-1.66513E-01-3.37286E-13-7.04548E-13
 -1      2178 4.52571E+01 6.55073E+00 5.99766E-01-1.61687E-01-3.66152E-13-7.14512E-13
 -1      2179 4.13397E+01 2.78168E+00 3.18454E-01-9.42359E-01-3.45057E-13-7.65943E-13
 -1      2180 4.49194E+01 4.47252E+00 6.09674E-01-8.06818E-02-5.11258E-13-1.01541E-12
 -1      2181 3.37047E+01-1.27165E+00-1.01419E-01-3.18615E+00-2.99150E-13-3.25295E-13
 -1      2182 3.95212E+01 7.67336E-01 4.35546E-01-2.75949E+00-2.37088E-13-5.66103E-13
 -1      2183 2.44834E+01-4.98389E+00-2.95794E-01-4.56593E+00-8.50431E-14 1.41609E-13
 -1      2184 3.04706E+01-2.92978E+00 9.53090E-02-4.76973E+00-5.37903E-14-1.10689E-13
 -1      2185 1.33727E+01-7.29214E+00-4.95319E-01-5.36764E+00 8.45990E-14 4.09117E-13
 -1      2186 1.90987E+01-5.65024E+00-1.60155E-01-6.25995E+00-6.38378E-14 5.40901E-13
 -1      2187 5.11411E+00-8.53989E+00-5.64259E-01-3.96345E+00-1.08802E-13-3.65041E-13
 -1      2188 8.75815E+00-7.05206E+00-3.28006E-01-5.32248E+00-6.99441E-14-1.45217E-13
 -1      2189 5.62156E-01-8.71908E+00-4.98269E-01-1.46844E+00-6.03406E-14 3.26406E-14
 -1      2190 2.20765E+00-8.31588E+00-4.48564E-01-2.82852E+00-1.78857E-13-1.12022E-13
 -1      2191 3.34284E+00-7.33324E+00-3.13203E-01 4.86108E+00 1.81244E-13-2.99205E-14
 -1      2192 1.35285E+00-8.54392E+00-4.81154E-01 3.49170E+00 5.57332E-14 2.33147E-13
 -1      2193 2.04884E+01 7.46879E-01 5.83276E-03-1.24507E+00 9.39812E-14 2.58718E-13
 -1      2194 1.27219E+00-6.03436E+00-2.60515E-01-9.31921E-01-6.11178E-14 7.13318E-14
 -1      2195 6.75573E+00-6.07342E+00-1.72948E-01 6.58901E+00 2.23599E-13 2.69007E-13
 -1      2196 2.07504E+01 1.12031E+00-2.41371E-02-1.63558E+00-1.67220E-13-5.06140E-14
 -1      2197 2.06382E+01 1.35010E+00-1.80028E-02-1.69807E+00-1.69968E-13-8.59070E-14
 -1      2198 3.34320E+01-1.79437E+00-8.94615E-02-4.03102E+00 1.50283E-13 1.30312E-13
 -1      2199 3.29553E+01-2.69286E-01-1.44292E-01-4.39238E+00 2.41501E-13 2.37754E-13
 -1      2200 3.76640E+01 4.93022E+00 8.68768E-03 1.98160E+00-4.44755E-13-2.48301E-13
 -1      2201 3.55360E+01-1.91578E-01 1.97263E-02 3.44669E+00-4.64712E-13-1.33948E-13
 -1      2202 1.48435E+01-5.94310E+00-5.43871E-02 7.90261E+00 1.88904E-13 7.77623E-13
 -1      2203 3.83356E+01 8.85509E+00 3.35149E-01 5.54303E-02 3.77975E-13-2.57357E-13
 -1      2204 2.97168E+01-1.56715E+00 1.57610E-01 4.67818E+00 2.90934E-13 1.20737E-13
 -1      2205 2.02812E+01 1.16279E+00-7.97904E-03-1.40351E+00-3.81275E-14 1.52434E-13
 -1      2206 1.85094E+00-5.84567E+00-2.39389E-01 3.38384E+00 2.11997E-13 4.46865E-13
 -1      2207 5.63139E+00-6.48381E+00-2.39655E-01-4.66658E+00-1.65978E-13-3.58602E-13
 -1      2208 1.39813E+01-6.79965E+00-1.19252E-01-6.32954E+00-5.13478E-14 2.58737E-13
 -1      2209 2.45419E+01-6.38159E+00-2.14553E-03-4.81101E+00 4.04121E-14 9.11771E-14
 -1      2210 3.32536E+01-3.80406E+00-1.04885E-03-1.39374E+00-1.87461E-13-3.24185E-13
 -1      2211 3.86868E+01 8.70237E-01 3.47525E-01 9.88000E-01-4.08645E-13-5.76650E-13
 -1      2212 3.93154E+01 6.65957E+00 3.83846E-01-9.69830E-01-2.21934E-13-2.75127E-13
 -1      2213 4.06877E+01 4.79571E+00 4.69228E-01-2.33595E+00-8.03801E-14-3.78919E-13
 -1      2214 3.77313E+01-4.08832E-01 1.79171E-01-1.67218E+00-6.48648E-14-4.67903E-13
 -1      2215 3.17973E+01-4.66623E+00 1.05697E-01 1.62111E+00-1.05749E-13-4.23939E-13
 -1      2216 2.25577E+01-6.66417E+00-4.93725E-02 4.96819E+00-1.75915E-13-3.87468E-13
 -1      2217 1.28060E+01-6.83620E+00-1.77481E-01 5.87286E+00-2.59459E-13-3.69399E-13
 -1      2218 1.38675E+00-5.03253E+00-1.88333E-01 1.45880E-01-2.72060E-13-4.91995E-13
 -1      2219 8.12989E+00-5.31953E+00-7.71429E-02-7.07539E+00-3.23075E-13-4.29545E-13
 -1      2220 1.64812E+01-5.35221E+00-5.07549E-02-7.84437E+00-1.56042E-13-6.18006E-13
 -1      2221 2.42985E+01-3.70776E+00 1.18643E-01-6.52113E+00 5.03486E-14-3.30624E-13
 -1      2222 3.61881E+01 4.72379E+00 2.01271E-01-1.07615E+00 3.92908E-13 1.46327E-13
 -1      2223 3.31440E+01-3.47113E+00-3.64006E-02-2.31495E+00 8.63545E-14 1.72640E-14
 -1      2224 2.02589E+01 1.28001E+00 8.39745E-03-1.77625E+00 1.61136E-13-7.11174E-14
 -1      2225 3.73234E+01 7.04044E+00 3.08459E-01 9.19917E-02 2.66676E-13-2.15383E-14
 -1      2226 3.50315E+01 3.03926E+00 2.38919E-01 1.81748E+00 4.30017E-13 1.22458E-13
 -1      2227 3.13727E+01 1.54998E-01 1.29253E-01-4.09401E+00 5.19446E-13 1.56208E-13
 -1      2228 3.20927E+01 1.55515E-01-1.46249E-01-1.54918E+00 3.60295E-13 2.33924E-13
 -1      2229 2.96185E+01-1.98774E+00 1.27947E-01-3.59459E+00 2.78472E-13 2.56961E-13
 -1      2230 5.25167E+00-5.87468E+00-1.96851E-01 4.07390E+00-1.78524E-13-5.03542E-13
 -1      2231 1.95594E+01 3.51616E+00-1.11382E-02-5.91583E-01 6.10229E-14-1.92460E-13
 -1      2232 1.95949E+01 3.47019E+00-1.05582E-02-7.75925E-01 2.92659E-14-2.15484E-13
 -1      2233 1.96418E+01 3.38210E+00-1.28231E-02-9.40300E-01 4.20806E-15-2.25270E-13
 -1      2234 1.97030E+01 3.30157E+00-1.28396E-02-1.12953E+00-2.01948E-14-2.22323E-13
 -1      2235 1.97862E+01 3.03326E+00 1.10415E-04-7.92224E-01 2.30260E-14-1.96704E-13
 -1      2236 1.95118E+01 3.59884E+00-9.62190E-03 9.92016E-02 1.43094E-13-1.87274E-13
 -1      2237 1.95112E+01 3.59964E+00-9.62861E-03-8.02604E-02 1.15203E-13-1.86598E-13
 -1      2238 1.95380E+01 3.55945E+00-9.72209E-03 4.45193E-01 1.59596E-13-1.66602E-13
 -1      2239 1.95205E+01 3.58202E+00-1.01405E-02 2.64382E-01 1.40730E-13-1.78515E-13
 -1      2240 1.96779E+01 3.22163E+00-8.99518E-04 1.69332E-01 1.45590E-13-1.76938E-13
 -1      2241 1.96000E+01 3.46288E+00-1.06209E-02 7.89116E-01 1.81764E-13-1.41645E-13
 -1      2242 1.95636E+01 3.50992E+00-1.12138E-02 6.07690E-01 1.64812E-13-1.62930E-13
 -1      2243 1.97148E+01 3.15812E+00-5.02762E-04 4.87695E-01 1.65390E-13-1.49976E-13
 -1      2244 1.97110E+01 3.28900E+00-1.29852E-02 1.14238E+00 2.17136E-13-6.85407E-14
 -1      2245 1.96481E+01 3.37242E+00-1.29053E-02 9.53122E-01 1.92897E-13-1.09208E-13
 -1      2246 1.97920E+01 3.02443E+00 2.53187E-04 8.03272E-01 1.83689E-13-1.08537E-13
 -1      2247 1.98904E+01 3.00328E+00-1.83387E-02 1.48935E+00 2.28024E-13-2.62811E-16
 -1      2248 1.97909E+01 3.14446E+00-1.53062E-02 1.29906E+00 2.12012E-13-3.99793E-14
 -1      2249 1.99216E+01 2.79908E+00 1.87732E-03 1.10931E+00 1.97576E-13-5.39282E-14
 -1      2250 2.01692E+01 2.53828E+00-2.80519E-02 1.78905E+00 2.32477E-13 8.42659E-14
 -1      2251 2.00184E+01 2.78367E+00-1.71752E-02 1.62048E+00 2.28405E-13 3.20993E-14
 -1      2252 2.01166E+01 2.44701E+00 5.07374E-03 1.37542E+00 2.00171E-13 2.05513E-14
 -1      2253 2.05854E+01 1.78913E+00-2.83264E-02 1.88912E+00 1.92983E-13 2.02940E-13
 -1      2254 2.03627E+01 2.22575E+00-1.10590E-02 1.85028E+00 2.19348E-13 1.27263E-13
 -1      2255 2.03747E+01 1.90907E+00 9.80811E-03 1.52700E+00 2.05651E-13 1.02881E-13
 -1      2256 2.07916E+01 1.06451E+00-1.88013E-02 1.59094E+00 1.51303E-13 3.36292E-13
 -1      2257 2.06811E+01 1.53986E+00 2.74779E-03 1.79223E+00 1.78428E-13 2.52791E-13
 -1      2258 2.05117E+01 1.27772E+00 2.90424E-03 1.42080E+00 1.77372E-13 1.75157E-13
 -1      2259 2.04446E+01 7.39649E-01-3.15639E-03 1.10670E+00 1.59098E-13 3.11958E-13
 -1      2260 2.04140E+01 8.79523E-01 1.16646E-02-1.03131E+00-1.43410E-13-9.82556E-14
 -1      2261 2.02047E+01 6.47985E-01-3.61870E-03-7.15487E-01-1.10933E-13-1.08847E-13
 -1      2262 2.01550E+01 1.23292E+00 6.20700E-03-2.11510E+00 1.23282E-13-1.58916E-14
 -1      2263 1.96416E+01 1.67645E+00-2.07176E-04-2.05773E+00 1.74488E-13-1.67527E-13
 -1      2264 2.04006E+01 1.20222E+00 2.47495E-02-2.48550E+00 1.50872E-13-9.38160E-15
 -1      2265 3.45335E+01 4.14200E+00-1.35819E-01-2.37380E+00-2.70339E-14-1.36280E-13
 -1      2266 3.65202E+01 9.04636E-01 3.26641E-02-3.85058E+00 5.70377E-14-1.62925E-13
 -1      2267 2.51653E+01-4.86554E+00-4.14342E-02 5.92098E+00 1.57485E-13 2.56878E-13
 -1      2268 2.22531E+01-5.49333E+00 6.15165E-02 6.57627E+00 1.09190E-13 3.81889E-13
 -1      2269 2.01341E+01 4.82119E-01 1.48920E-02-4.93773E-01-7.45059E-14-9.77780E-14
 -1      2270 1.99961E+01 3.56958E-01 1.37377E-03-3.18143E-01-3.62531E-14-1.02226E-13
 -1      2271 2.02529E+01 7.70933E-01-3.15105E-04-7.14244E-01-9.64333E-14-1.11415E-13
 -1      2272 1.99301E+01 2.70966E-01 1.00327E-02-1.83010E-01-6.40178E-15-1.05680E-13
 -1      2273 1.98558E+01 2.01427E-01 1.70334E-03-8.67863E-02 1.14232E-15-1.04350E-13
 -1      2274 2.00936E+01 4.37159E-01-1.99787E-03-3.32646E-01-2.70305E-14-1.11680E-13
 -1      2275 1.98053E+01 1.46944E-01 5.90661E-03 5.25461E-04-1.00429E-14-8.70555E-14
 -1      2276 1.97699E+01 1.03944E-01 1.29529E-03 5.70123E-02-8.63545E-15-8.23794E-14
 -1      2277 1.99720E+01 2.45521E-01-2.09907E-03-9.15316E-02-1.67658E-14-9.96145E-14
 -1      2278 1.97399E+01 7.15940E-02 3.35543E-03 1.05665E-01-1.69301E-14-7.35194E-14
 -1      2279 1.97325E+01 4.54676E-02 1.01987E-03 1.34383E-01-4.32244E-16-6.08432E-14
 -1      2280 1.98916E+01 1.26094E-01-2.01883E-03 5.72197E-02-2.47885E-14-8.52203E-14
 -1      2281 1.97179E+01 2.57003E-02 1.72533E-03 1.58294E-01-8.03018E-15-7.64467E-14
 -1      2282 1.97273E+01 1.01184E-02 8.04075E-04 1.69897E-01 2.12004E-14-6.75609E-14
 -1      2283 1.98484E+01 5.34947E-02-1.69381E-03 1.38848E-01-2.61663E-14-1.18509E-13
 -1      2284 1.97234E+01-1.80164E-03 7.24276E-04 1.78116E-01 3.33855E-14-9.07496E-14
 -1      2285 1.97418E+01-1.06768E-02 6.18507E-04 1.79334E-01 2.61746E-15-6.70710E-14
 -1      2286 1.98318E+01 9.45629E-03-1.33873E-03 1.77024E-01 3.12966E-15-1.20104E-13
 -1      2287 1.97447E+01-1.74889E-02 1.14405E-04 1.77949E-01-3.54071E-14-5.27100E-14
 -1      2288 1.97673E+01-2.19959E-02 4.70443E-04 1.73143E-01-4.62942E-14-6.56613E-14
 -1      2289 1.98327E+01-1.63278E-02-1.02924E-03 1.87731E-01-1.15651E-14-1.24270E-13
 -1      2290 1.97741E+01-2.54455E-02-2.46622E-04 1.66283E-01-3.76998E-14-7.05899E-14
 -1      2291 1.97976E+01-2.70641E-02 3.35440E-04 1.58311E-01-3.89938E-14-8.53890E-14
 -1      2292 1.98442E+01-3.01392E-02-7.73732E-04 1.81851E-01-5.12803E-14-1.02169E-13
 -1      2293 1.98058E+01-2.82620E-02-4.45954E-04 1.49310E-01-6.59703E-14-5.27916E-14
 -1      2294 1.98275E+01-2.80581E-02 2.69106E-04 1.40581E-01-8.24799E-14-5.23081E-14
 -1      2295 1.98610E+01-3.60585E-02-5.80398E-04 1.67245E-01-3.95947E-14-8.16910E-14
 -1      2296 1.98371E+01-2.78291E-02-5.14990E-04 1.30249E-01-7.25065E-14-5.73852E-14
 -1      2297 1.98582E+01-2.64635E-02 2.28742E-04 1.21110E-01-6.20647E-14-4.32255E-14
 -1      2298 1.98801E+01-3.68921E-02-4.65135E-04 1.48541E-01-7.29322E-14-1.52713E-14
 -1      2299 1.98677E+01-2.52044E-02-5.26824E-04 1.11160E-01-5.06031E-14-3.53908E-14
 -1      2300 1.98867E+01-2.30731E-02 2.08597E-04 1.02887E-01-2.47010E-14-2.60607E-14
 -1      2301 1.99004E+01-3.44018E-02-3.78998E-04 1.28546E-01-4.63853E-14-2.06977E-14
 -1      2302 1.98959E+01-2.11395E-02-4.96059E-04 9.41861E-02-3.43889E-14-3.19375E-14
 -1      2303 1.99129E+01-1.84840E-02 2.19407E-04 8.73682E-02-2.85944E-14 3.35374E-15
 -1      2304 1.99202E+01-2.96361E-02-3.30399E-04 1.09991E-01-2.45739E-14-4.04136E-15
 -1      2305 1.99217E+01-1.60609E-02-4.39304E-04 8.05052E-02-9.13392E-14-2.95962E-15
 -1      2306 1.99371E+01-1.29983E-02 2.62658E-04 7.55726E-02-1.11284E-13-2.98832E-14
 -1      2307 1.99391E+01-2.33372E-02-3.18958E-04 9.44801E-02-6.62227E-14-4.10776E-14
 -1      2308 1.99457E+01-1.01572E-02-3.71643E-04 7.09996E-02-2.79614E-14-3.87901E-14
 -1      2309 1.99601E+01-6.71768E-03 3.13903E-04 6.83309E-02 6.40014E-14-2.43663E-14
 -1      2310 1.99573E+01-1.58446E-02-3.37775E-04 8.31801E-02-6.82242E-14-5.18861E-15
 -1      2311 1.99682E+01-3.56682E-03-2.91427E-04 6.64988E-02 1.17539E-13-1.34965E-14
 -1      2312 1.99819E+01 1.92068E-04 4.37494E-04 6.63978E-02 1.13999E-13-1.00267E-14
 -1      2313 1.99746E+01-7.44390E-03-3.87522E-04 7.71060E-02 8.43155E-14 5.09552E-14
 -1      2314 1.99909E+01 4.10183E-03-2.31860E-04 6.74847E-02 9.82354E-14-6.59152E-14
 -1      2315 2.00063E+01 8.79743E-03 6.29537E-04 7.04845E-02 2.43809E-14-6.65075E-14
 -1      2316 1.99924E+01 2.19617E-03-5.07144E-04 7.68956E-02 6.91688E-14-7.04054E-14
 -1      2317 2.00161E+01 1.35384E-02-1.73211E-04 7.53037E-02 6.24272E-14-5.24434E-14
 -1      2318 2.00338E+01 1.93443E-02 8.79678E-04 8.21678E-02 7.05105E-14-3.84108E-14
 -1      2319 2.00118E+01 1.40054E-02-6.59577E-04 8.38361E-02 7.00807E-14-1.20039E-13
 -1      2320 2.00449E+01 2.53488E-02-1.31258E-04 9.15290E-02-1.08718E-15-1.40994E-14
 -1      2321 2.00665E+01 3.28230E-02 1.23119E-03 1.03295E-01-5.75442E-14-3.93640E-14
 -1      2322 2.00336E+01 2.86124E-02-8.63588E-04 9.95839E-02 2.52573E-14-1.77148E-13
 -1      2323 2.00794E+01 4.07007E-02-1.17253E-04 1.18372E-01-6.86166E-14 4.34782E-14
 -1      2324 2.01069E+01 5.06656E-02 1.72236E-03 1.36548E-01 1.81195E-14 4.00896E-14
 -1      2325 2.00589E+01 4.73854E-02-1.12875E-03 1.26302E-01-3.33649E-14-1.63458E-14
 -1      2326 2.01218E+01 6.13055E-02-1.49025E-04 1.59010E-01-2.66158E-14-2.04287E-14
 -1      2327 2.01577E+01 7.49639E-02 2.41193E-03 1.85782E-01-9.99448E-14-5.35817E-14
 -1      2328 2.00886E+01 7.23417E-02-1.45859E-03 1.67045E-01-6.44167E-14-1.43828E-14
 -1      2329 2.01747E+01 8.95939E-02-2.70540E-04 2.18003E-01-1.48777E-13-4.19030E-14
 -1      2330 2.02217E+01 1.08527E-01 3.21249E-03 2.56536E-01-1.66733E-13-8.39971E-14
 -1      2331 2.01234E+01 1.06478E-01-1.81856E-03 2.26127E-01-1.48474E-13-2.01445E-13
 -1      2332 2.02390E+01 1.28071E-01-4.01614E-04 2.99308E-01-1.04377E-13-9.33773E-14
 -1      2333 2.02982E+01 1.53103E-01 4.44245E-03 3.50629E-01-7.81466E-14-3.36793E-14
 -1      2334 2.01623E+01 1.52520E-01-2.14965E-03 3.06901E-01-1.21215E-13-1.65143E-13
 -1      2335 2.03162E+01 1.81620E-01-8.82296E-04 4.12365E-01-9.81162E-14-4.00651E-15
 -1      2336 2.03970E+01 2.18826E-01 6.27803E-03 4.88048E-01-6.29133E-14 4.64110E-14
 -1      2337 2.02042E+01 2.16200E-01-2.68691E-03 4.18411E-01-3.92938E-14-1.41868E-13
 -1      2338 2.04105E+01 2.58581E-01-1.54551E-03 5.72977E-01 1.79960E-14 1.21019E-13
 -1      2339 2.05152E+01 3.10345E-01 8.46263E-03 6.78612E-01 8.81792E-14 6.37473E-14
 -1      2340 2.02463E+01 3.07609E-01-3.01313E-03 5.74823E-01-2.08992E-14 1.72121E-14
 -1      2341 2.05174E+01 3.64973E-01-2.65604E-03 7.94231E-01 8.58768E-14-2.75609E-14
 -1      2342 2.06505E+01 4.35173E-01 1.11133E-02 9.39710E-01 1.08695E-13-5.67276E-14
 -1      2343 2.02786E+01 4.34258E-01-3.01265E-03 7.87314E-01 5.11162E-14 8.24018E-14
 -1      2344 2.06302E+01 5.07233E-01-4.33998E-03 1.09503E+00 1.70457E-13-1.23846E-13
 -1      2345 2.07951E+01 5.97258E-01 1.40375E-02 1.29094E+00 1.60470E-13-1.90676E-13
 -1      2346 2.02849E+01 6.04546E-01-2.43498E-03 1.07211E+00 1.13247E-13-1.11644E-13
 -1      2347 2.07365E+01 6.84354E-01-6.66270E-03 1.49579E+00 1.96588E-14-2.04755E-13
 -1      2348 2.09323E+01 7.86268E-01 1.60155E-02 1.74992E+00-4.41591E-14-2.59895E-13
 -1      2349 2.02400E+01 8.20323E-01-9.64112E-04 1.44676E+00 6.06095E-14-1.41314E-13
 -1      2350 2.08241E+01 8.68176E-01-9.11074E-03 1.99912E+00-3.79662E-14-3.04194E-13
 -1      2351 2.10488E+01 9.50552E-01 1.73244E-02 2.28981E+00-2.66844E-14-3.07643E-13
 -1      2352 2.01159E+01 1.05562E+00 1.93848E-03 1.91239E+00-1.27216E-13-4.31372E-13
 -1      2353 2.08831E+01 9.94483E-01-8.96449E-03 2.61179E+00-1.05270E-13-2.70457E-13
 -1      2354 2.11672E+01 9.89309E-01 1.99884E-02 2.94318E+00-1.53211E-13-3.61207E-13
 -1      2355 1.98767E+01 1.24158E+00 1.64296E-03 2.48920E+00-9.04873E-14-4.81447E-13
 -1      2356 2.09857E+01 8.80645E-01 1.64695E-03 3.32142E+00-2.59428E-14-1.81567E-13
 -1      2357 2.13916E+01 6.25059E-01 3.10524E-02 3.59415E+00 1.64898E-13-7.96132E-14
 -1      2358 1.95213E+01 1.20378E+00-1.75023E-03 3.19192E+00 6.39451E-14-2.71923E-13
 -1      2359 2.13623E+01 1.24494E-01 3.14773E-02 3.99098E+00 1.23970E-13-2.03448E-14
 -1      2360 2.20758E+01-5.95843E-01 6.21217E-02 4.00581E+00 6.94965E-14-1.75623E-14
 -1      2361 1.91925E+01 5.47084E-01-1.53129E-02 4.00835E+00 1.11787E-13-1.81867E-13
 -1      2362 2.25170E+01-1.68526E+00 9.35811E-02 4.30669E+00 1.86934E-14-1.02106E-13
 -1      2363 2.37321E+01-3.13537E+00 4.54394E-02 3.86057E+00 5.36515E-14-1.97987E-13
 -1      2364 1.94128E+01-1.13710E+00 6.32603E-02 4.77732E+00 1.00406E-14-9.16767E-14
 -1      2365 2.64900E+01-4.40289E+00 1.57032E-01 3.04559E+00 7.41490E-14-1.64134E-13
 -1      2366 2.84345E+01-5.35366E+00 4.55942E-02 1.81559E+00 7.06102E-14-1.21944E-13
 -1      2367 2.00275E+01 3.63702E-01 4.57353E-03 5.16535E-01 1.14168E-13 2.82219E-13
 -1      2368 2.02740E+01 5.08243E-01 8.49462E-03 7.83284E-01 1.47566E-13 3.16467E-13
 -1      2369 2.03569E+01 7.53917E-01 1.18817E-02 9.65801E-01 1.48534E-13 2.34481E-13
 -1      2370 2.42145E+00-3.40898E+00 5.46148E-02 3.77324E-02-1.06469E-13 3.18301E-13
 -1      2371 3.43094E+00-3.67226E+00 4.83481E-02-2.43809E+00-1.91652E-13-2.40863E-13
 -1      2372 2.63317E+01-4.62989E+00 2.18877E-02-3.02200E+00-1.39888E-14 3.49790E-13
 -1      2373 2.46991E+01-3.32184E+00 1.28099E-01-3.93942E+00 2.01290E-13 5.10497E-13
 -1      2374 2.34195E+01-2.00042E+00 5.64206E-02-4.13011E+00 3.06304E-13 3.66636E-13
 -1      2375 2.23462E+01-8.92981E-01 7.08216E-02-4.43835E+00 4.19453E-13 3.00503E-13
 -1      2376 2.12255E+01-3.08400E+00-8.81392E-03-5.17944E+00 2.03837E-13 4.14349E-13
 -1      2377 2.19661E+01-1.26274E-01 3.34375E-02-4.18739E+00 2.25911E-13 2.09173E-13
 -1      2378 2.13200E+01 4.06884E-01 1.86905E-02-4.08308E+00 6.99371E-14 1.03650E-13
 -1      2379 1.99573E+01-5.25637E-01 7.45961E-04-4.80372E+00 1.70634E-13 4.23675E-13
 -1      2380 2.13245E+01 7.08378E-01 2.38734E-02-3.70873E+00 2.01924E-13-3.37315E-14
 -1      2381 2.08931E+01 8.77592E-01 5.02762E-03-3.42870E+00 2.80472E-13 4.83012E-14
 -1      2382 1.97564E+01 7.50072E-01 3.84077E-03-4.10700E+00 5.83830E-14 2.14420E-13
 -1      2383 2.07194E+01 1.04782E+00 2.66088E-02-3.12645E+00 2.27367E-13-5.17377E-14
 -1      2384 2.04140E+01 1.08182E+00 4.86047E-03-2.77769E+00 1.25397E-13-1.37289E-13
 -1      2385 1.93650E+01 1.49881E+00-3.04191E-02-2.72301E+00 2.08143E-13-2.83354E-13
 -1      2386 1.95388E+01 1.23878E+00-1.99850E-02-3.39751E+00 2.45504E-13-1.97897E-13
 -1      2387 1.97050E+01 1.44049E-01 3.02698E-03 5.90542E-02 8.48121E-14 1.76610E-13
 -1      2388 1.97781E+01 1.97137E-01 9.58545E-03 1.47783E-01 9.00877E-14 2.06179E-13
 -1      2389 1.98182E+01 2.30362E-01 6.17143E-03 2.34762E-01 7.82542E-14 2.32412E-13
 -1      2390 1.99573E+01 3.11090E-01 1.18681E-02 3.89503E-01 8.26075E-14 2.60888E-13
 -1      2391 2.00749E+01 4.19459E-01-1.98552E-03 5.00764E-01 1.00453E-13 2.10984E-13
 -1      2392 1.99509E+01 2.88250E-01-5.46084E-03 2.55327E-01 9.88456E-14 1.44028E-13
 -1      2393 1.96019E+01 3.08512E-02 1.31793E-03-1.32711E-01 4.47201E-14 1.03866E-13
 -1      2394 1.95986E+01 4.97895E-02 3.64109E-03-1.10137E-01 3.57536E-14 9.48600E-14
 -1      2395 1.96143E+01 5.83654E-03 8.74587E-04-1.61278E-01 5.06640E-14 1.32323E-13
 -1      2396 1.95940E+01 1.70660E-02 1.80617E-03-1.52970E-01 4.15258E-14 1.24798E-13
 -1      2397 1.97355E+01 3.60575E-02-2.29788E-03-1.44913E-01 3.08673E-14 8.25340E-14
 -1      2398 1.96468E+01-8.71838E-03 5.59104E-04-1.67139E-01 9.43742E-14 1.36049E-13
 -1      2399 1.96182E+01-2.31694E-03 7.17076E-04-1.67356E-01 9.32514E-14 1.37863E-13
 -1      2400 1.97323E+01 3.98362E-03-1.51506E-03-1.76846E-01 6.02034E-14 3.34407E-14
 -1      2401 1.96890E+01-1.65401E-02 3.38814E-04-1.59645E-01 1.50499E-14 1.58489E-13
 -1      2402 1.96575E+01-1.32622E-02 6.57978E-05-1.64719E-01 6.55750E-14 1.45453E-13
 -1      2403 1.97478E+01-1.44470E-02-9.37791E-04-1.83765E-01 6.92579E-14 1.03676E-13
 -1      2404 1.97344E+01-1.99494E-02 1.92648E-04-1.44959E-01 9.00030E-14 9.31316E-14
 -1      2405 1.97031E+01-1.87152E-02-3.08938E-04-1.52488E-01 3.67480E-14 1.35906E-13
 -1      2406 1.97735E+01-2.40928E-02-5.35147E-04-1.75879E-01 5.15240E-14 1.18196E-13
 -1      2407 1.97788E+01-2.04659E-02 1.04282E-04-1.27179E-01 1.40514E-13 3.03308E-14
 -1      2408 1.97496E+01-2.05627E-02-5.04116E-04-1.35574E-01 1.37838E-13 6.45453E-14
 -1      2409 1.98036E+01-2.79955E-02-2.67276E-04-1.60014E-01 1.32342E-13 4.96821E-14
 -1      2410 1.98200E+01-1.91092E-02 6.08375E-05-1.09015E-01 9.16423E-14 2.19520E-14
 -1      2411 1.97938E+01-2.00593E-02-5.82241E-04-1.17234E-01 1.02942E-13 1.79801E-14
 -1      2412 1.98346E+01-2.81478E-02-9.89346E-05-1.40743E-01 1.29867E-13-7.90969E-15
 -1      2413 1.98572E+01-1.65611E-02 5.27064E-05-9.22377E-02-1.90855E-14 5.43570E-14
 -1      2414 1.98342E+01-1.80478E-02-5.85396E-04-9.96053E-02 5.92758E-14 5.65496E-14
 -1      2415 1.98645E+01-2.58822E-02-2.74841E-06-1.21112E-01 4.98169E-14-2.36915E-14
 -1      2416 1.98904E+01-1.32673E-02 7.28556E-05-7.79901E-02-7.78274E-14 7.45498E-14
 -1      2417 1.98702E+01-1.50866E-02-5.42195E-04-8.40718E-02-6.53624E-14 5.33693E-14
 -1      2418 1.98922E+01-2.20850E-02 4.16306E-05-1.03122E-01-5.06303E-14-1.14026E-14
 -1      2419 1.99200E+01-9.50943E-03 1.15994E-04-6.69997E-02-9.24038E-16 5.20642E-14
 -1      2420 1.99022E+01-1.15344E-02-4.71989E-04-7.15197E-02-4.77043E-14 7.68138E-14
 -1      2421 1.99175E+01-1.73319E-02 4.90486E-05-8.80752E-02-6.21168E-14 7.09624E-14
 -1      2422 1.99471E+01-5.46355E-03 1.77569E-04-5.97280E-02 1.85103E-14 1.36025E-13
 -1      2423 1.99310E+01-7.61548E-03-3.87624E-04-6.25112E-02 3.14144E-14 9.66772E-14
 -1      2424 1.99407E+01-1.19870E-02 3.02384E-05-7.68121E-02-2.45308E-14 6.80182E-14
 -1      2425 1.99728E+01-1.25312E-03 2.52538E-04-5.64572E-02-2.68160E-14 1.89963E-13
 -1      2426 1.99576E+01-3.47371E-03-2.97380E-04-5.73983E-02-1.40784E-14 2.18224E-13
 -1      2427 1.99625E+01-6.28320E-03-7.06457E-06-6.98683E-02-2.26743E-14 2.12661E-13
 -1      2428 1.99987E+01 2.99666E-03 3.33856E-04-5.73247E-02 1.23773E-14 2.34970E-13
 -1      2429 1.99833E+01 7.74014E-04-2.06363E-04-5.63813E-02 2.21491E-14 2.39500E-13
 -1      2430 1.99837E+01-3.97350E-04-5.71808E-05-6.75676E-02-2.12201E-14 2.16498E-13
 -1      2431 2.00261E+01 7.09779E-03 4.10622E-04-6.22983E-02-1.98009E-14 1.53607E-13
 -1      2432 2.00098E+01 4.98095E-03-1.17558E-04-5.95116E-02-3.17820E-14 1.59631E-13
 -1      2433 2.00056E+01 5.47107E-03-1.15672E-04-7.00481E-02 1.58577E-14 2.19191E-13
 -1      2434 2.00565E+01 1.07282E-02 4.65913E-04-7.10892E-02 1.05399E-13 4.20616E-14
 -1      2435 2.00384E+01 8.90500E-03-3.26544E-05-6.66344E-02 8.44962E-14 9.42851E-14
 -1      2436 2.00291E+01 1.10116E-02-1.78636E-04-7.72215E-02 7.48285E-14 1.27190E-13
 -1      2437 2.00913E+01 1.33498E-02 4.74464E-04-8.29902E-02 2.06295E-13 2.76248E-15
 -1      2438 2.00706E+01 1.21321E-02 4.72870E-05-7.72631E-02 1.29357E-13-3.85206E-14
 -1      2439 2.00557E+01 1.56999E-02-2.42054E-04-8.86557E-02 1.44436E-13 4.32501E-14
 -1      2440 2.01312E+01 1.41207E-02 4.00711E-04-9.66359E-02 4.95666E-14 1.92585E-13
 -1      2441 2.01078E+01 1.39904E-02 1.21244E-04-9.03759E-02 1.60349E-13 1.23362E-13
 -1      2442 2.00864E+01 1.86827E-02-3.01133E-04-1.03373E-01 9.91878E-14 7.16913E-14
 -1      2443 2.01768E+01 1.18197E-02 1.98157E-04-1.09686E-01-1.84614E-13 2.80129E-13
 -1      2444 2.01507E+01 1.34652E-02 1.87601E-04-1.04133E-01-1.94957E-14 2.82650E-13
 -1      2445 2.01224E+01 1.86606E-02-3.49529E-04-1.19559E-01-3.29476E-14 2.94879E-13
 -1      2446 2.02274E+01 4.82007E-03-1.88201E-04-1.18459E-01-2.44481E-13 2.12758E-13
 -1      2447 2.01995E+01 9.14091E-03 2.43276E-04-1.15528E-01-2.37645E-13 2.67445E-13
 -1      2448 2.01644E+01 1.38013E-02-3.78204E-04-1.34188E-01-2.09258E-13 2.85926E-13
 -1      2449 2.02809E+01-8.82106E-03-8.13800E-04-1.17595E-01-1.72613E-13 1.34947E-13
 -1      2450 2.02534E+01-7.80615E-04 2.82253E-04-1.20015E-01-2.21620E-13 1.74340E-13
 -1      2451 2.02126E+01 1.74357E-03-3.73569E-04-1.42617E-01-1.81531E-13 5.65801E-14
 -1      2452 2.03336E+01-3.10526E-02-1.71749E-03-9.98870E-02 8.11266E-14 1.63958E-13
 -1      2453 2.03098E+01-1.83003E-02 2.93062E-04-1.11236E-01-5.66075E-14 9.62736E-14
 -1      2454 2.02666E+01-2.02016E-02-3.14561E-04-1.38217E-01-1.06561E-13 5.54149E-15
 -1      2455 2.03789E+01-6.31664E-02-2.89260E-03-5.65405E-02 1.13297E-13 2.41554E-13
 -1      2456 2.03640E+01-4.51603E-02 2.54827E-04-8.10260E-02 1.41479E-13 2.35280E-13
 -1      2457 2.03245E+01-5.45004E-02-1.68587E-04-1.12270E-01 9.47834E-14-1.19524E-14
 -1      2458 2.04074E+01-1.04664E-01-4.24560E-03 2.17626E-02-1.33546E-13 3.08779E-13
 -1      2459 2.04083E+01-8.19654E-02 1.32079E-04-2.00380E-02-2.05754E-14 3.11227E-13
 -1      2460 2.03822E+01-1.02315E-01 1.12170E-04-5.44022E-02-3.57142E-15 2.00778E-13
 -1      2461 2.04063E+01-1.51664E-01-5.55017E-03 1.42562E-01-6.90574E-14 3.25993E-13
 -1      2462 2.04314E+01-1.26811E-01-1.27992E-04 8.05857E-02-1.02117E-13 2.97377E-13
 -1      2463 2.04331E+01-1.61770E-01 5.89305E-04 4.59688E-02-1.09133E-13 1.52716E-13
 -1      2464 2.03604E+01-1.95216E-01-6.41818E-03 3.07755E-01 1.37043E-14 2.95495E-13
 -1      2465 2.04183E+01-1.73567E-01-5.89195E-04 2.26068E-01-9.72464E-15 3.67037E-13
 -1      2466 2.04665E+01-2.25714E-01 1.32075E-03 1.96666E-01-5.92294E-14 1.32742E-13
 -1      2467 2.02534E+01-2.20430E-01-6.32617E-03 5.08358E-01 1.56818E-13 2.52516E-13
 -1      2468 2.03512E+01-2.10413E-01-1.29665E-03 4.13233E-01 6.34627E-14 2.80314E-13
 -1      2469 2.04674E+01-2.79630E-01 2.31418E-03 3.97923E-01 8.21849E-14 1.32012E-13
 -1      2470 2.00721E+01-2.08120E-01-4.76969E-03 7.19184E-01-9.91978E-14 4.42338E-13
 -1      2471 2.02124E+01-2.19915E-01-2.20298E-03 6.24811E-01 1.06058E-13 3.88568E-13
 -1      2472 2.04170E+01-3.01296E-01 3.43682E-03 6.36003E-01 9.07472E-14 3.15225E-13
 -1      2473 1.98131E+01-1.40842E-01-1.57550E-03 8.96528E-01 8.30330E-14 4.19365E-13
 -1      2474 1.99904E+01-1.82602E-01-3.08428E-03 8.25074E-01-2.66907E-14 4.40418E-13
 -1      2475 2.02967E+01-2.64595E-01 4.29223E-03 8.77071E-01-2.24614E-14 4.10417E-13
 -1      2476 1.94908E+01-1.34661E-02 2.76514E-03 9.83485E-01 1.12712E-13 4.68656E-13
 -1      2477 1.96891E+01-8.54209E-02-3.44395E-03 9.61085E-01 1.45407E-13 5.08186E-13
 -1      2478 2.00961E+01-1.49634E-01 4.17965E-03 1.06549E+00 1.21720E-13 4.66136E-13
 -1      2479 1.91444E+01 1.55718E-01 6.94281E-03 9.26452E-01 2.01371E-13 4.30358E-13
 -1      2480 1.93371E+01 6.65386E-02-2.58005E-03 9.74269E-01 1.35427E-13 4.90599E-13
 -1      2481 1.98251E+01 4.23083E-02 2.43342E-03 1.13255E+00 1.96707E-13 4.35584E-13
 -1      2482 1.88360E+01 3.22281E-01 9.27918E-03 7.00829E-01 3.62128E-14 4.34389E-13
 -1      2483 1.89907E+01 2.41486E-01-5.95323E-05 8.23431E-01 1.97757E-13 4.70225E-13
 -1      2484 1.95240E+01 2.76196E-01-1.02448E-03 1.01938E+00 1.30741E-13 3.85492E-13
 -1      2485 1.86352E+01 4.29972E-01 8.77366E-03 3.33210E-01 1.59745E-13 2.50656E-13
 -1      2486 1.87227E+01 3.86172E-01 3.81712E-03 5.11150E-01 6.27914E-14 3.70627E-13
 -1      2487 1.92610E+01 4.86200E-01-5.00835E-03 7.09523E-01 1.97988E-13 5.62029E-13
 -1      2488 1.85916E+01 4.37393E-01 5.75282E-03-9.74928E-02 8.18208E-14 1.87797E-13
 -1      2489 1.85960E+01 4.47892E-01 7.75391E-03 9.56833E-02 1.87562E-13 1.56281E-13
 -1      2490 1.91091E+01 5.99923E-01-7.49031E-03 2.51833E-01 1.97983E-13 3.20529E-13
 -1      2491 1.87123E+01 3.41426E-01 1.80034E-03-4.86270E-01-1.11717E-13 2.83417E-13
 -1      2492 1.86365E+01 4.01844E-01 9.94014E-03-3.24115E-01-7.60811E-14 2.22062E-13
 -1      2493 1.91122E+01 5.73972E-01-6.97136E-03-2.46908E-01 1.70950E-14 2.63097E-13
 -1      2494 1.89553E+01 1.80779E-01-1.26515E-03-7.45379E-01-1.61370E-13 3.73343E-13
 -1      2495 1.88206E+01 2.67023E-01 9.24582E-03-6.47572E-01-1.30969E-13 2.81890E-13
 -1      2496 1.92605E+01 4.18908E-01-3.66508E-03-6.61857E-01-9.73592E-14 3.34690E-13
 -1      2497 1.92502E+01 1.35686E-02-2.64852E-03-8.38206E-01-1.14844E-13 2.59517E-13
 -1      2498 1.90876E+01 9.55341E-02 5.87922E-03-8.13846E-01-3.95218E-14 3.56155E-13
 -1      2499 1.94946E+01 1.94049E-01 3.07382E-04-9.04032E-01-1.01359E-13 4.33613E-13
 -1      2500 1.95284E+01-1.11433E-01-2.41526E-03-7.84102E-01-3.03772E-14 1.65898E-13
 -1      2501 1.93683E+01-5.58321E-02 1.33604E-03-8.19466E-01-1.90612E-13 1.91818E-13
 -1      2502 1.97385E+01-2.34950E-02 3.14891E-03-9.52020E-01-1.06282E-13 1.80122E-13
 -1      2503 1.97451E+01-1.72134E-01-1.28130E-03-6.38319E-01 1.08897E-14 6.45564E-13
 -1      2504 1.96089E+01-1.50296E-01-2.70726E-03-7.07225E-01 9.19328E-15 3.78247E-13
 -1      2505 1.99325E+01-1.75526E-01 4.14473E-03-8.45886E-01-1.63471E-13 3.25041E-13
 -1      2506 1.98852E+01-1.73665E-01-1.19788E-04-4.63483E-01 1.87696E-13 6.13741E-13
 -1      2507 1.97828E+01-1.80010E-01-5.28948E-03-5.39445E-01 1.07852E-13 6.74667E-13
 -1      2508 2.00489E+01-2.40238E-01 3.61327E-03-6.57074E-01 2.71661E-14 5.32555E-13
 -1      2509 1.99578E+01-1.38025E-01 1.05051E-03-3.06959E-01-2.34049E-13 6.77707E-13
 -1      2510 1.98884E+01-1.60313E-01-6.11755E-03-3.72064E-01-3.40873E-14 7.17213E-13
 -1      2511 2.00911E+01-2.29977E-01 2.57518E-03-4.56854E-01-7.37648E-15 5.35689E-13
 -1      2512 1.99813E+01-9.82637E-02 4.03636E-04-1.94655E-01-4.78370E-13 9.06970E-13
 -1      2513 1.99388E+01-1.16302E-01-5.09901E-03-2.40936E-01-3.18092E-13 7.30213E-13
 -1      2514 2.00803E+01-1.73867E-01 3.48315E-03-2.92012E-01-3.26786E-13 6.84971E-13
 -1      2515 1.99640E+01-8.28584E-02-1.75017E-03-1.50856E-01-2.67063E-13 8.65556E-13
 -1      2516 2.05468E+01-1.06440E-01 9.54340E-03 7.06534E-01 1.81695E-13-2.80349E-13
 -1      2517 2.05133E+01-2.07676E-01 1.47687E-03 5.17914E-01 1.21352E-13-4.50251E-13
 -1      2518 2.05112E+01 1.15432E-01 5.21015E-03 1.13048E+00 2.74514E-13-2.28421E-13
 -1      2519 2.05475E+01-4.97432E-02 4.69894E-03 9.41353E-01 1.99247E-13-2.35158E-13
 -1      2520 2.07132E+01-2.93979E-01-6.44218E-03 9.06814E-01 2.61812E-13-2.37473E-13
 -1      2521 2.03115E+01-2.07192E-01 9.75775E-03 2.86096E-02 9.27633E-15-1.02908E-13
 -1      2522 2.02194E+01-2.14150E-01-3.29596E-03-7.13817E-02-4.12080E-14-5.76111E-14
 -1      2523 2.04618E+01-2.03059E-01 1.04444E-02 3.17568E-01-1.14962E-13-5.22356E-13
 -1      2524 2.03884E+01-2.47655E-01-9.03629E-04 1.67480E-01-6.91997E-14-2.80982E-13
 -1      2525 2.04516E+01-3.15425E-01-5.00702E-03 8.80780E-02-1.26375E-13-3.07673E-13
 -1      2526 2.06365E+01-3.50259E-01-5.07544E-03 4.46609E-01 4.36569E-14-3.63881E-13
 -1      2527 2.03051E+01 4.83282E-01-2.83512E-03 1.47957E+00 1.08191E-13-3.02307E-13
 -1      2528 2.04343E+01 2.61399E-01 8.88571E-03 1.34546E+00 2.12301E-13-3.30161E-13
 -1      2529 2.06104E+01-1.00042E-01-9.37569E-03 1.38825E+00 7.80646E-14-2.08546E-13
 -1      2530 1.99160E+01 9.84602E-01-1.33836E-02 1.61331E+00-3.04347E-13-5.64661E-13
 -1      2531 2.01375E+01 7.31924E-01 1.24586E-02 1.59963E+00-1.20144E-13-3.17754E-13
 -1      2532 2.02784E+01 2.70839E-01-9.92793E-03 1.75687E+00-1.14585E-13-4.96590E-13
 -1      2533 1.94086E+01 1.55136E+00-2.22366E-02 1.39732E+00-2.41368E-13 4.59238E-14
 -1      2534 1.96769E+01 1.31394E+00 1.28117E-02 1.55654E+00-2.68118E-13-4.49009E-13
 -1      2535 1.97241E+01 8.12850E-01-6.22027E-03 1.84356E+00-2.41920E-13-4.11276E-13
 -1      2536 1.89454E+01 2.04364E+00-2.49538E-02 7.91131E-01-3.61706E-13 5.97465E-14
 -1      2537 1.91678E+01 1.88262E+00 7.63873E-03 1.11934E+00-3.17743E-13 4.13099E-13
 -1      2538 1.90679E+01 1.43526E+00 2.30432E-03 1.50469E+00-1.85234E-13 2.20362E-13
 -1      2539 1.87130E+01 2.32273E+00-1.81992E-02-1.35809E-01-4.97512E-14 5.00294E-14
 -1      2540 1.87901E+01 2.27983E+00-3.34059E-03 3.10494E-01-1.45144E-13-2.31179E-13
 -1      2541 1.85288E+01 1.97560E+00 1.35764E-02 7.05948E-01-1.97907E-13 8.18477E-14
 -1      2542 1.88761E+01 2.27596E+00 5.51064E-03-1.13623E+00-8.63368E-14-1.74665E-13
 -1      2543 1.87189E+01 2.36043E+00-2.25829E-02-6.95356E-01-9.10191E-14 4.45321E-14
 -1      2544 1.83520E+01 2.24427E+00 2.07015E-02-4.07420E-01-5.46378E-15-1.99695E-14
 -1      2545 1.92790E+01 1.93720E+00-1.85459E-02-1.77121E+00 1.74543E-13-2.29428E-13
 -1      2546 3.36891E+01 8.38642E+00-1.78272E-01-9.11589E-03 4.98712E-13-3.23373E-13
 -1      2547 3.40495E+01 8.03206E+00-1.59911E-01-3.39664E-01 4.07008E-13-2.70950E-13
 -1      2548 3.41194E+01 7.08432E+00-1.53014E-01-6.37785E-01 2.43361E-13-2.15675E-13
 -1      2549 3.32756E+01 5.77905E+00-1.21138E-01-8.56898E-01 2.23155E-13-2.18242E-13
 -1      2550 3.11818E+01 7.37833E+00-7.31797E-02-9.58997E-01 3.89327E-13-1.86566E-13
 -1      2551 2.05458E+01 1.96816E+00-1.46411E-02-1.91003E+00-1.56377E-13-1.34965E-13
 -1      2552 2.04224E+01 1.24526E+00-5.94041E-03-1.31442E+00-1.59715E-13-1.11070E-13
 -1      2553 2.03772E+01 1.40223E+00 4.00977E-03-1.25253E+00-1.46792E-13-1.25158E-13
 -1      2554 2.02873E+01 2.37939E+00-7.41462E-03-1.83496E+00-1.27651E-13-1.67682E-13
 -1      2555 1.01343E+01-4.67025E+00 5.37545E-02 7.55830E+00 1.79912E-13 3.65846E-13
 -1      2556 6.99429E+00-4.27827E+00 8.58160E-02 6.21987E+00 3.09336E-13 8.93730E-14
 -1      2557 3.99673E+01 5.41373E+00 3.83107E-01 1.53845E+00-4.64517E-13-4.80699E-13
 -1      2558 7.65005E+00-3.76109E+00 1.17331E-01-6.61837E+00-2.82774E-13-3.61461E-13
 -1      2559 1.15981E+01-4.47607E+00 1.94734E-02-7.98649E+00-2.73559E-13-5.19973E-13
 -1      2560 1.96251E+01 7.27726E-02 1.98605E-03-6.68656E-02 4.83087E-14 1.05959E-13
 -1      2561 1.96521E+01 1.04332E-01 6.68747E-03-2.04422E-02 6.54280E-14 1.48391E-13
 -1      2562 1.98499E+01 1.80873E-01-4.13755E-03 6.42377E-02 9.82673E-14 1.03094E-13
 -1      2563 1.97693E+01 9.01268E-02-3.23285E-03-7.24459E-02 6.09534E-14 7.05085E-14
 -1      2564 1.76727E+01-5.51978E+00-2.02022E-02 7.89243E+00 5.72875E-14 5.98480E-13
 -1      2565 1.36477E+01-5.46133E+00 6.44937E-02 7.76587E+00 1.26066E-13 6.47205E-13
 -1      2566 1.34316E+01-4.36026E+00 1.38572E-01 7.60228E+00 1.66395E-13 3.95947E-13
 -1      2567 1.95185E+01 3.58496E+00-1.01026E-02-2.45457E-01 1.02441E-13-1.89527E-13
 -1      2568 1.95346E+01 3.56424E+00-9.67720E-03-4.26165E-01 8.52346E-14-1.85484E-13
 -1      2569 1.97110E+01 3.16365E+00-6.04115E-04-4.73436E-01 8.37894E-14-1.69970E-13
 -1      2570 1.96766E+01 3.22368E+00-9.21153E-04-1.52168E-01 1.13333E-13-1.77549E-13
 -1      2571 3.32504E+01 2.82243E+00-1.87711E-01-1.54144E-01 2.82163E-13-1.35808E-13
 -1      2572 3.23461E+01 7.01054E-01-3.93937E-02 1.04199E+00 3.28432E-13-1.33671E-13
 -1      2573 3.09217E+01-1.59368E+00-8.12703E-02 2.80135E+00 4.09124E-13-2.10332E-13
 -1      2574 2.78136E+01-3.59345E+00-3.91743E-02 4.07242E+00 2.74336E-13 1.27370E-13
 -1      2575 3.41811E+01 6.69744E+00-1.19015E-01 5.86748E-01 3.39728E-13-8.65696E-14
 -1      2576 3.39146E+01 7.70116E+00-1.93702E-01 5.84005E-01 3.22964E-13-1.40277E-13
 -1      2577 8.86338E+00-4.46682E+00 4.09959E-02 5.41903E+00-5.77871E-14-3.81195E-13
 -1      2578 5.76395E+00-3.50260E+00 8.48802E-02 3.72856E+00-3.92741E-14-4.50084E-13
 -1      2579 3.26863E+01 2.79562E+00-1.41177E-01 6.31188E-03 3.09086E-13 8.65419E-14
 -1      2580 3.41333E+01 4.97399E+00-9.34477E-02 3.46477E-01 3.68788E-13-8.87346E-14
 -1      2581 3.17553E+01 5.26852E+00-6.67941E-02 1.34681E+00 4.13447E-13-1.92235E-13
 -1      2582 2.28707E+01-4.96066E+00-1.04060E-02-6.32806E+00-1.47660E-13-3.19300E-13
 -1      2583 2.60341E+01-4.13784E+00-8.63566E-02-5.26900E+00-2.81997E-14 9.96425E-15
 -1      2584 1.62850E+01-5.20813E+00 8.28134E-02-7.78205E+00-4.21718E-13-5.93928E-13
 -1      2585 1.98623E+01-5.14794E+00 3.88425E-03-7.59237E+00-2.49356E-13-6.28234E-13
 -1      2586 2.25323E+01-5.19798E+00 9.46856E-02-6.39851E+00-3.35232E-13-2.07181E-13
 -1      2587 3.39514E+00-2.69150E+00 1.14638E-01-2.91609E+00-2.14453E-13-2.99316E-13
 -1      2588 4.67293E+00-2.69205E+00 8.84770E-02-4.83709E+00-2.47163E-13-2.35811E-13
 -1      2589 3.61186E+00-2.65068E+00 1.13965E-01 1.65229E+00-1.22097E-13-4.17777E-13
 -1      2590 2.79175E+00-2.58658E+00 8.94597E-02-8.69583E-01-2.11772E-13-2.89158E-13
 -1      2591 5.02930E+00-1.04765E+00 1.77756E-01-1.63412E+00-7.50129E-14-2.69784E-13
 -1      2592 1.66685E+01-6.02225E+00-3.91139E-02 6.19523E+00-8.23785E-14-1.66700E-13
 -1      2593 1.25004E+01-5.45342E+00 1.88004E-02 5.85048E+00-9.44245E-14-2.03004E-13
 -1      2594 2.60691E+01-6.20835E+00-8.24669E-02 3.81934E+00-1.58762E-14-4.14641E-13
 -1      2595 2.14407E+01-6.26101E+00 7.05877E-03 4.92506E+00-3.29181E-14-2.84321E-13
 -1      2596 2.28008E+01-6.40683E+00 4.65507E-03-4.88661E+00 1.03417E-13 1.00767E-13
 -1      2597 2.77533E+01-6.05543E+00-8.67150E-02-3.27360E+00 8.46823E-14-1.61204E-13
 -1      2598 1.30116E+01-5.56498E+00 2.61555E-02-6.24473E+00 1.24178E-13 4.99600E-14
 -1      2599 1.73767E+01-5.99229E+00-7.33689E-02-6.52327E+00 3.08642E-13 2.09346E-13
 -1      2600 6.02038E+00-4.40149E+00 3.75717E-02-4.42041E+00-1.45162E-13-7.62890E-13
 -1      2601 9.29370E+00-4.89601E+00 2.55490E-02-5.96427E+00 4.58522E-14-4.01151E-13
 -1      2602 1.29694E+01-4.17594E+00 1.10955E-01-6.19292E+00 3.18634E-13-1.59706E-13
 -1      2603 4.32726E+00-3.43895E+00 6.96375E-02 4.54039E+00 2.50772E-13 3.59435E-13
 -1      2604 2.98020E+00-3.29578E+00 8.79766E-02 2.38953E+00 6.00908E-14 7.06712E-13
 -1      2605 1.99109E+01 2.81205E+00 5.31720E-04-1.09780E+00-3.17463E-14-2.07741E-13
 -1      2606 1.97822E+01 3.16121E+00-1.46790E-02-1.28672E+00-3.99856E-14-2.30608E-13
 -1      2607 1.98785E+01 3.02619E+00-1.68201E-02-1.47667E+00-6.82765E-14-2.22213E-13
 -1      2608 6.66218E+00-2.57544E+00 1.48607E-01-3.62998E+00-1.20737E-14-6.00964E-13
 -1      2609 2.08485E+01-5.53324E+00 8.51898E-02 6.95277E+00 7.49678E-14 4.98046E-13
 -1      2610 2.74091E+01-4.51467E+00 3.91056E-02 3.93456E+00 2.43167E-13 6.12843E-14
 -1      2611 2.96812E+01-5.53201E+00-2.50496E-02 1.26778E+00-6.32827E-15-1.79523E-13
 -1      2612 2.20858E+01-4.20715E+00-9.33264E-03 4.64788E+00 9.57429E-14-1.87461E-13
 -1      2613 4.61118E+00-1.71138E+00 1.68961E-01 1.12942E+00 4.33681E-16 6.07958E-13
 -1      2614 2.00375E+01-1.28495E-01-1.21246E-03-1.78108E-01-3.70206E-13 6.91478E-13
 -1      2615 1.25382E+01-3.91207E+00 9.27354E-02 5.67695E+00 3.94407E-14-1.99146E-13
 -1      2616 2.01018E+01-1.46408E-01 4.10383E-03-1.50680E-01-2.77082E-13 4.11992E-13
 -1      2617 1.88380E+01 2.00502E+00 1.55846E-02-1.73933E+00 3.29055E-14-5.33115E-14
 -1      2618 3.14536E+01 7.75739E+00-8.74799E-02 4.93413E-01 3.78753E-13-1.23068E-13
 -1      2619 3.17238E+01 3.81276E+00-6.98964E-02-1.21578E+00 3.20799E-13-1.48243E-13
 -1      2620 1.99850E+01 2.84566E+00-1.49798E-02-1.58785E+00-9.61401E-14-1.94414E-13
 -1      2621 2.01317E+01 2.61835E+00-2.22263E-02-1.75505E+00-1.20711E-13-1.85763E-13
 -1      2622 2.02817E+01 2.06898E+00 2.91572E-03-1.49829E+00-1.35798E-13-1.58447E-13
 -1      2623 2.00756E+01 2.49868E+00 6.38101E-04-1.34252E+00-7.61696E-14-1.82641E-13
 -1      2624 8.08878E+00-2.23795E+00 1.78884E-01-5.77433E+00-2.19325E-13-3.52940E-13
 -1      2625 2.15975E+01-5.60619E+00 1.10782E-01-5.29461E+00 3.56715E-13 4.87596E-14
 -1      2626 6.65635E+00-1.77925E+00 1.62299E-01 2.84000E+00 1.86240E-14-3.30236E-13
 -1      2627 1.53458E+01-4.42960E+00 1.28419E-01-7.69114E+00-4.55802E-13-4.96672E-13
 -1      2628 3.19884E+01 1.00521E+00-7.78906E-02-2.00066E-01 3.13000E-13 4.61020E-14
 -1      2629 3.07482E+01 1.73432E+00-1.23440E-01 1.18922E+00 2.84772E-13-1.70169E-13
 -1      2630 3.05581E+01-5.07370E-01-9.87043E-04-3.60819E-01 3.24685E-13 5.58997E-14
 -1      2631 3.26390E+01-4.51931E+00-1.60514E-01-4.87751E-01-4.28407E-14-1.51490E-13
 -1      2632 3.49581E+01-2.21779E+00 1.00891E-02-2.13127E+00 5.57644E-14-1.60649E-13
 -1      2633 2.68169E+01-4.39057E+00 8.56542E-02-3.91609E+00-3.79141E-14 4.32987E-14
 -1      2634 2.80557E+01-3.49028E+00 3.63479E-02-3.76158E+00 2.12025E-13 1.87017E-13
 -1      2635 2.89361E+01-3.02241E+00-2.21225E-01-2.03704E+00 2.89019E-13 1.97536E-13
 -1      2636 3.21244E+01-4.18651E+00-1.59720E-02-1.46761E-01-2.25778E-13-3.55493E-13
 -1      2637 2.98108E+01-5.34086E+00-2.78343E-02-1.58488E+00-1.03112E-13-1.23179E-13
 -1      2638 3.08695E+01-1.20881E+00 3.56135E-03 8.31975E-01 3.01877E-13-2.37171E-13
 -1      2639 7.60964E+00-2.59763E+00 1.67870E-01 5.42677E+00 2.64400E-13 2.56462E-13
 -1      2640 3.52503E+01-2.78371E+00-3.02976E-02 1.32448E+00-3.91791E-13-4.74787E-13
 -1      2641 3.61841E+01-4.45023E-01-7.81693E-02 2.47125E+00-4.59049E-13-3.48666E-13
 -1      2642 2.84004E+01-4.90550E+00 2.06245E-01-2.15016E+00-8.63754E-14 1.04763E-13
 -1      2643 3.71224E+01-8.60762E-02-1.07460E-01-2.81862E+00 5.04041E-14-2.74725E-13
 -1      2644 2.01971E+01-2.18815E-01-4.20506E-03-1.51631E-01-2.39864E-13 4.21164E-13
 -1      2645 2.07684E+01-5.44130E+00 5.82962E-02 5.28743E+00 5.36238E-14-2.15605E-13
 -1      2646 2.41107E+01-5.53239E+00-9.39366E-02-4.54500E+00 2.25486E-13 4.23380E-13
 -1      2647 1.98444E+01 2.76528E+00-6.30045E-03 5.15817E-01 1.75172E-13-1.24247E-13
 -1      2648 1.98195E+01 2.81504E+00-5.70634E-03 3.65007E-01 1.58278E-13-1.39865E-13
 -1      2649 1.98025E+01 2.85258E+00-5.61372E-03 2.29584E-01 1.57686E-13-1.73222E-13
 -1      2650 1.97940E+01 2.86942E+00-5.44519E-03 7.50215E-02 1.46188E-13-1.82628E-13
 -1      2651 1.99489E+01 2.50135E+00 3.64206E-03 2.64916E-01 1.67443E-13-1.56816E-13
 -1      2652 2.00435E+01 2.32368E+00-1.09502E-02 1.04504E+00 1.91046E-13-4.91232E-14
 -1      2653 1.99789E+01 2.47323E+00-6.40160E-03 9.09665E-01 1.92687E-13-6.90394E-14
 -1      2654 2.02057E+01 1.91476E+00-1.51175E-02 1.22982E+00 1.89382E-13 3.30912E-14
 -1      2655 2.01233E+01 2.14696E+00-5.18327E-03 1.13244E+00 1.86352E-13-1.73589E-14
 -1      2656 2.01901E+01 1.89025E+00 7.53216E-03 9.27110E-01 1.78777E-13-3.00247E-14
 -1      2657 2.03875E+01 1.34869E+00-9.43632E-03 1.25495E+00 1.69138E-13 8.32296E-14
 -1      2658 2.02993E+01 1.68564E+00 6.60437E-04 1.25954E+00 1.80155E-13 7.24230E-14
 -1      2659 2.03042E+01 1.46590E+00 9.12391E-03 1.01311E+00 1.61369E-13 4.44870E-14
 -1      2660 2.04125E+01 8.99922E-01-6.24703E-04 1.06795E+00 1.54446E-13 1.77756E-13
 -1      2661 2.04037E+01 1.17814E+00 6.12418E-03 1.18722E+00 1.56532E-13 1.18138E-13
 -1      2662 2.03229E+01 1.02026E+00 3.30980E-03 9.34004E-01 1.38484E-13 8.73120E-14
 -1      2663 2.02413E+01 6.72515E-01 6.07067E-03 7.52086E-01 1.42748E-13 1.89351E-13
 -1      2664 2.03217E+01 1.60501E+00-8.70594E-03-1.25884E+00-1.32854E-13-1.37799E-13
 -1      2665 2.03066E+01 1.24032E+00 6.44593E-04-9.91714E-01-1.28499E-13-1.27766E-13
 -1      2666 2.02417E+01 1.87026E+00 1.80091E-03-1.23324E+00-1.11052E-13-1.43991E-13
 -1      2667 1.98424E+01 7.14771E-03 2.00043E-04-1.78019E-01 4.24810E-14 4.42857E-14
 -1      2668 1.98422E+01 2.63872E-02 1.78510E-03-1.66829E-01 3.15434E-14 2.29132E-14
 -1      2669 2.03007E+01 9.39970E-01 1.03668E-03-7.61607E-01-8.52792E-14-1.22436E-13
 -1      2670 2.02104E+01 7.28354E-01-1.71479E-03-5.29565E-01-5.37263E-14-1.10258E-13
 -1      2671 2.02849E+01 1.16486E+00 3.51309E-03-7.93649E-01-8.09150E-14-1.12934E-13
 -1      2672 3.88206E+01 4.50659E+00 9.23516E-03-2.64756E+00-9.69225E-14-3.08420E-13
 -1      2673 2.01906E+01 5.55503E-01 2.30526E-03-3.80274E-01-3.45779E-14-1.09654E-13
 -1      2674 2.01139E+01 4.34661E-01-1.24985E-03-2.31115E-01-6.52852E-15-1.21857E-13
 -1      2675 2.02337E+01 7.11688E-01 1.23492E-03-4.26125E-01-3.20587E-14-9.80976E-14
 -1      2676 2.00863E+01 3.20762E-01 2.10142E-03-1.27255E-01 4.59359E-15-1.22946E-13
 -1      2677 2.00297E+01 2.42320E-01-5.93569E-04-2.87209E-02-1.74358E-14-1.22152E-13
 -1      2678 2.01620E+01 4.21725E-01-4.27661E-04-1.68182E-01-7.28588E-15-1.11003E-13
 -1      2679 2.00061E+01 1.71136E-01 1.69636E-03 3.35785E-02-2.77933E-14-1.10651E-13
 -1      2680 1.99715E+01 1.22323E-01-5.72612E-05 9.15362E-02-4.39892E-14-1.15895E-13
 -1      2681 2.00950E+01 2.31082E-01-1.32520E-03 3.93413E-03-8.73826E-15-1.18998E-13
 -1      2682 1.99539E+01 7.77118E-02 1.26742E-03 1.25299E-01-3.45263E-14-1.11057E-13
 -1      2683 1.99363E+01 4.73517E-02 3.08306E-04 1.56101E-01-3.01634E-14-1.28134E-13
 -1      2684 2.00439E+01 1.10016E-01-1.57298E-03 1.06447E-01-3.26909E-14-1.23972E-13
 -1      2685 1.99245E+01 1.98598E-02 9.03492E-04 1.70844E-01-1.70299E-14-9.92286E-14
 -1      2686 1.99187E+01 1.46612E-03 5.09213E-04 1.83954E-01-1.48646E-14-1.17824E-13
 -1      2687 2.00088E+01 3.41544E-02-1.51578E-03 1.60496E-01-2.61132E-14-7.14162E-14
 -1      2688 1.99115E+01-1.47084E-02 6.14677E-04 1.86536E-01-1.24221E-14-1.51349E-13
 -1      2689 1.99134E+01-2.51585E-02 5.98017E-04 1.88512E-01-3.98419E-14-1.30554E-13
 -1      2690 1.99867E+01-1.17652E-02-1.34239E-03 1.82256E-01-3.11923E-14-9.38497E-14
 -1      2691 1.99096E+01-3.37805E-02 3.85496E-04 1.83802E-01-4.61607E-14-1.29863E-13
 -1      2692 1.99160E+01-3.88937E-02 6.08563E-04 1.79134E-01-3.34091E-14-9.11176E-14
 -1      2693 1.99744E+01-3.75816E-02-1.13737E-03 1.83542E-01-4.55488E-14-1.36645E-13
 -1      2694 1.99147E+01-4.22973E-02 2.46804E-04 1.71012E-01-2.75132E-14-8.78312E-14
 -1      2695 1.99230E+01-4.39039E-02 5.94332E-04 1.63357E-01-4.02292E-14-3.57546E-14
 -1      2696 1.99692E+01-4.98472E-02-9.53486E-04 1.73254E-01-1.73234E-14-8.23395E-14
 -1      2697 1.99233E+01-4.42179E-02 1.34851E-04 1.53299E-01-5.52224E-14-2.72682E-14
 -1      2698 1.99330E+01-4.35359E-02 5.66199E-04 1.43898E-01-4.89724E-14-2.52378E-14
 -1      2699 1.99684E+01-5.31895E-02-7.78792E-04 1.56926E-01-3.58270E-14-5.72573E-14
 -1      2700 1.99344E+01-4.15335E-02 7.73672E-05 1.33765E-01-5.30236E-14 2.38844E-14
 -1      2701 1.99444E+01-3.92886E-02 5.30828E-04 1.24427E-01-4.67411E-14-9.48740E-15
 -1      2702 1.99708E+01-5.07388E-02-6.50524E-04 1.38134E-01-5.81304E-14 4.56129E-14
 -1      2703 1.99465E+01-3.57505E-02 4.25267E-05 1.15388E-01-4.34039E-14-1.79356E-14
 -1      2704 1.99563E+01-3.24351E-02 5.08733E-04 1.07127E-01-3.96999E-14-6.41870E-14
 -1      2705 1.99751E+01-4.41800E-02-5.43314E-04 1.20075E-01-4.10878E-14 2.18893E-14
 -1      2706 1.99589E+01-2.78057E-02 3.19651E-05 9.99535E-02-3.61384E-14-5.09405E-14
 -1      2707 1.99684E+01-2.36984E-02 5.07314E-04 9.34912E-02-4.06638E-14-2.81582E-14
 -1      2708 1.99808E+01-3.48080E-02-4.66445E-04 1.04742E-01-5.10698E-14-1.23048E-14
 -1      2709 1.99715E+01-1.81831E-02 3.53933E-05 8.87562E-02-2.88064E-14-3.84905E-15
 -1      2710 1.99808E+01-1.33628E-02 5.21588E-04 8.46568E-02 5.13089E-15 6.35515E-14
 -1      2711 1.99874E+01-2.32814E-02-4.18179E-04 9.35856E-02 9.62566E-15 5.01287E-14
 -1      2712 1.99840E+01-7.23644E-03 7.12169E-05 8.29481E-02 3.11365E-14 6.01257E-14
 -1      2713 1.99931E+01-1.96101E-03 5.89345E-04 8.16319E-02 7.57255E-14 1.09917E-14
 -1      2714 1.99945E+01-1.00811E-02-3.79975E-04 8.78250E-02 1.51309E-14 3.56570E-14
 -1      2715 1.99968E+01 5.55056E-03 9.57090E-05 8.31186E-02 3.90968E-14-4.88154E-14
 -1      2716 2.00070E+01 1.21576E-02 7.17893E-04 8.51305E-02 3.32433E-14-4.21929E-14
 -1      2717 2.00022E+01 5.24611E-03-4.02839E-04 8.82005E-02-2.04136E-14-3.78180E-14
 -1      2718 2.00108E+01 2.12253E-02 1.50097E-04 9.06791E-02 6.77074E-14-4.12488E-14
 -1      2719 2.00221E+01 2.92977E-02 9.03422E-04 9.67826E-02 7.21782E-14-5.48086E-14
 -1      2720 2.00106E+01 2.39669E-02-4.45070E-04 9.60563E-02 6.97693E-14-5.74887E-14
 -1      2721 2.00260E+01 4.05844E-02 2.09676E-04 1.07197E-01 2.68857E-14-1.14850E-13
 -1      2722 2.00391E+01 5.08241E-02 1.17735E-03 1.18338E-01-1.86408E-14-7.29332E-14
 -1      2723 2.00192E+01 4.70034E-02-5.03120E-04 1.12980E-01 3.70501E-15-4.51422E-14
 -1      2724 2.00425E+01 6.53201E-02 2.76241E-04 1.34702E-01-6.77957E-14-4.11643E-14
 -1      2725 2.00580E+01 7.87426E-02 1.56869E-03 1.52186E-01-1.07123E-13-6.58805E-14
 -1      2726 2.00274E+01 7.62537E-02-5.77730E-04 1.40892E-01-4.88358E-14-5.74152E-14
 -1      2727 2.00599E+01 9.78612E-02 3.43604E-04 1.75956E-01-1.14254E-13-1.17286E-13
 -1      2728 2.00785E+01 1.15928E-01 2.11190E-03 2.01599E-01-1.34715E-13-2.10804E-13
 -1      2729 2.00338E+01 1.14481E-01-6.58106E-04 1.82329E-01-1.42816E-13-1.43751E-13
 -1      2730 2.00771E+01 1.41602E-01 3.83748E-04 2.34660E-01-1.19988E-13-2.00226E-13
 -1      2731 2.00987E+01 1.66450E-01 2.79249E-03 2.70964E-01-1.45548E-13-1.77213E-13
 -1      2732 2.00358E+01 1.65546E-01-7.26100E-04 2.40606E-01-1.12502E-13-1.54529E-13
 -1      2733 2.00913E+01 1.99597E-01 4.64797E-04 3.13621E-01-1.60247E-13-1.89144E-13
 -1      2734 2.01153E+01 2.31766E-01 3.71618E-03 3.60688E-01-1.18961E-13-1.97276E-13
 -1      2735 2.00292E+01 2.33044E-01-6.28408E-04 3.17603E-01-1.66066E-13-1.93107E-13
 -1      2736 2.00966E+01 2.78912E-01 3.47257E-04 4.19736E-01-1.50988E-14-1.99649E-13
 -1      2737 2.01235E+01 3.25943E-01 5.07952E-03 4.87459E-01 2.68600E-14-1.50360E-13
 -1      2738 2.00060E+01 3.24352E-01-5.67906E-04 4.19781E-01-6.07873E-14-2.13927E-13
 -1      2739 2.00846E+01 3.90200E-01 2.00642E-04 5.64950E-01 5.93185E-14-4.90168E-14
 -1      2740 2.01103E+01 4.54921E-01 6.65920E-03 6.56442E-01 7.42094E-14 6.08278E-14
 -1      2741 1.99524E+01 4.51619E-01-2.48428E-04 5.56279E-01 6.58899E-14-6.47659E-14
 -1      2742 2.00381E+01 5.41051E-01-2.12739E-04 7.56478E-01 2.11644E-14 6.11795E-14
 -1      2743 2.00564E+01 6.28290E-01 8.48026E-03 8.78493E-01 1.04096E-13 5.41222E-14
 -1      2744 1.98476E+01 6.23324E-01 5.31379E-04 7.31802E-01 5.22048E-14-2.43095E-14
 -1      2745 1.99308E+01 7.39980E-01-9.90302E-04 1.00528E+00 4.33582E-14 1.40858E-14
 -1      2746 1.99310E+01 8.52404E-01 1.03366E-02 1.16527E+00 8.86882E-14-7.90419E-14
 -1      2747 1.96590E+01 8.48615E-01 1.99617E-03 9.53124E-01 1.03063E-14-1.24610E-14
 -1      2748 1.97242E+01 9.88280E-01-2.25276E-03 1.32272E+00 5.10414E-14-1.48128E-13
 -1      2749 1.96883E+01 1.12108E+00 1.17660E-02 1.52740E+00-1.40864E-13-2.25858E-13
 -1      2750 1.93392E+01 1.12907E+00 4.40246E-03 1.22653E+00-2.75219E-14-9.13745E-14
 -1      2751 1.93807E+01 1.25952E+00-3.79853E-03 1.71162E+00-1.80646E-13-2.02040E-13
 -1      2752 1.93044E+01 1.38219E+00 1.25821E-02 1.95136E+00-1.48878E-13-3.37048E-13
 -1      2753 1.88416E+01 1.43967E+00 9.18499E-03 1.54910E+00-1.66726E-13-1.37525E-13
 -1      2754 1.88348E+01 1.49935E+00-3.60668E-03 2.18895E+00-5.63606E-14-2.59381E-13
 -1      2755 1.86954E+01 1.56115E+00 1.63905E-02 2.49598E+00 4.21870E-14-1.95292E-13
 -1      2756 1.80818E+01 1.72167E+00 1.55352E-02 1.94429E+00 2.27325E-15 1.08552E-13
 -1      2757 1.80426E+01 1.55333E+00 4.95508E-03 2.80591E+00 9.75236E-14-2.37018E-13
 -1      2758 1.78753E+01 1.40108E+00 2.71993E-02 3.18350E+00 1.98472E-13-1.76554E-13
 -1      2759 1.69585E+01 1.83045E+00 3.04384E-02 2.46574E+00 1.10500E-13 9.53404E-14
 -1      2760 1.70664E+01 1.09191E+00 4.11522E-02 3.59288E+00 1.81708E-13-2.48489E-13
 -1      2761 1.67384E+01 4.25488E-01 3.28464E-02 4.15016E+00 7.24178E-14-2.22711E-13
 -1      2762 1.54532E+01 1.40417E+00 5.97652E-02 3.20040E+00 1.25924E-13-1.71856E-13
 -1      2763 1.67753E+01-7.26747E-01 6.50042E-02 4.56863E+00 7.35315E-14-9.66449E-14
 -1      2764 3.86844E+01 3.16410E+00 2.12323E-01-3.36077E+00 4.16334E-14-3.28237E-13
 -1      2765 2.79436E+01-4.14182E+00-1.15307E-01 2.54281E+00 1.99146E-13-3.75297E-13
 -1      2766 2.60984E+01-4.92056E+00 7.70376E-02 3.97290E+00-3.89064E-14-1.33518E-13
 -1      2767 1.58682E+01-4.15978E+00 1.38409E-02 7.43735E+00 2.72837E-14 4.33972E-13
 -1      2768 1.30815E+01-3.06816E+00 1.73501E-01 6.92213E+00 1.87628E-14 3.41782E-13
 -1      2769 1.77510E+01-4.36233E-01 9.95995E-02-4.82182E+00 1.73809E-13 9.46743E-14
 -1      2770 1.74541E+01 4.43509E-01 2.75795E-02-4.47818E+00 6.64295E-14 9.77482E-14
 -1      2771 1.81901E+01 9.90500E-01 4.75729E-02-3.95967E+00-3.87225E-14 2.30191E-13
 -1      2772 1.82043E+01 1.29767E+00-9.14037E-04-3.62127E+00 7.66383E-14 2.18304E-13
 -1      2773 1.59345E+01 1.06215E+00 5.51092E-02-3.94901E+00 8.69443E-14-2.57849E-13
 -1      2774 1.98444E+01-1.76753E-02 2.52926E-04-1.85930E-01 3.69410E-14 8.96961E-14
 -1      2775 1.98358E+01-6.67749E-03 8.79482E-04-1.85314E-01 5.73407E-14 5.30617E-14
 -1      2776 1.99296E+01 4.79352E-03-1.25449E-03-1.80827E-01 4.39774E-14 3.27448E-14
 -1      2777 1.98558E+01 4.95377E-02 5.38226E-05-1.44905E-01 3.38962E-14 2.81341E-14
 -1      2778 1.98696E+01 8.13584E-02 3.13031E-03-1.16527E-01 5.32875E-14 4.57239E-14
 -1      2779 1.99515E+01 5.44128E-02-1.76686E-03-1.47122E-01 5.09145E-14-1.30459E-14
 -1      2780 1.98558E+01-3.08564E-02 2.64387E-04-1.78670E-01 5.79456E-14 4.09331E-14
 -1      2781 1.98427E+01-2.53285E-02 2.93601E-04-1.84191E-01 5.50541E-14 8.80081E-14
 -1      2782 1.99210E+01-2.40656E-02-8.50666E-04-1.89095E-01 5.16382E-14 1.82909E-14
 -1      2783 1.98722E+01-3.62768E-02 2.60174E-04-1.63144E-01 1.60236E-13 2.11337E-14
 -1      2784 1.98573E+01-3.43820E-02-7.08063E-05-1.71800E-01 1.12106E-13 2.44531E-14
 -1      2785 1.99211E+01-3.91014E-02-5.52237E-04-1.81972E-01 1.07096E-13-3.62460E-15
 -1      2786 1.98907E+01-3.65628E-02 2.52953E-04-1.44062E-01 1.29425E-13 3.14719E-14
 -1      2787 1.98755E+01-3.70548E-02-2.82762E-04-1.53833E-01 1.65968E-13 5.92671E-14
 -1      2788 1.99265E+01-4.49079E-02-3.41573E-04-1.66476E-01 1.42434E-13 6.89762E-14
 -1      2789 1.99096E+01-3.34985E-02 2.49925E-04-1.24602E-01 2.73636E-14 5.15878E-14
 -1      2790 1.98950E+01-3.55341E-02-3.92246E-04-1.34140E-01 8.59215E-14 2.76956E-14
 -1      2791 1.99351E+01-4.46077E-02-1.99844E-04-1.47431E-01 1.14867E-13 7.09635E-14
 -1      2792 1.99279E+01-2.82797E-02 2.55233E-04-1.06876E-01-1.02326E-13 2.75554E-14
 -1      2793 1.99143E+01-3.12986E-02-4.34837E-04-1.15294E-01-4.27127E-14 3.61549E-14
 -1      2794 1.99451E+01-4.03215E-02-1.10516E-04-1.28115E-01 1.97131E-14 1.47381E-13
 -1      2795 1.99454E+01-2.16885E-02 2.71164E-04-9.22765E-02-1.07268E-13 8.63639E-14
 -1      2796 1.99328E+01-2.53288E-02-4.35595E-04-9.89961E-02-1.46170E-13 3.21315E-14
 -1      2797 1.99558E+01-3.34675E-02-6.03087E-05-1.10722E-01-1.01837E-13-1.21953E-14
 -1      2798 1.99621E+01-1.42256E-02 2.98563E-04-8.17170E-02 1.40163E-14 1.20346E-13
 -1      2799 1.99504E+01-1.82577E-02-4.11755E-04-8.63620E-02-8.34882E-15 1.42904E-13
 -1      2800 1.99666E+01-2.49730E-02-3.90029E-05-9.67136E-02-7.77211E-14 1.47074E-13
 -1      2801 1.99784E+01-6.22158E-03 3.36665E-04-7.57907E-02-6.71534E-14 1.51071E-13
 -1      2802 1.99671E+01-1.04917E-02-3.74563E-04-7.81224E-02-3.43463E-14 1.27889E-13
 -1      2803 1.99775E+01-1.54369E-02-3.91136E-05-8.70604E-02-1.71781E-14 1.05655E-13
 -1      2804 1.99949E+01 2.05675E-03 3.82521E-04-7.48632E-02-2.35090E-14 1.33964E-13
 -1      2805 1.99836E+01-2.31753E-03-3.30381E-04-7.47462E-02-2.59002E-14 1.56793E-13
 -1      2806 1.99887E+01-5.27096E-03-5.55267E-05-8.24011E-02-4.91149E-14 7.13488E-14
 -1      2807 2.00125E+01 1.02939E-02 4.30048E-04-7.90935E-02 8.45650E-14 1.11991E-13
 -1      2808 2.00006E+01 5.98922E-03-2.81266E-04-7.64973E-02 4.23692E-14 1.64013E-13
 -1      2809 2.00004E+01 5.16337E-03-8.51985E-05-8.31322E-02 1.93296E-14 1.31910E-14
 -1      2810 2.00320E+01 1.79990E-02 4.68760E-04-8.83834E-02 1.18534E-13 6.40738E-14
 -1      2811 2.00189E+01 1.40459E-02-2.25129E-04-8.34196E-02 5.45251E-14 6.93988E-14
 -1      2812 2.00134E+01 1.54088E-02-1.27034E-04-8.94214E-02 1.02553E-13 8.15179E-14
 -1      2813 2.00545E+01 2.43596E-02 4.82229E-04-1.02246E-01 9.68885E-14 1.01923E-13
 -1      2814 2.00397E+01 2.12271E-02-1.55542E-04-9.52466E-02 1.59021E-13 8.76795E-14
 -1      2815 2.00284E+01 2.47463E-02-1.81951E-04-1.01144E-01 9.50990E-14 2.47887E-14
 -1      2816 2.00810E+01 2.80798E-02 4.46492E-04-1.19581E-01 2.92495E-14 1.32331E-13
 -1      2817 2.00641E+01 2.65095E-02-6.13912E-05-1.11224E-01 6.02624E-14 1.12896E-13
 -1      2818 2.00464E+01 3.20072E-02-2.53006E-04-1.17731E-01 1.05752E-13 1.12352E-13
 -1      2819 2.01129E+01 2.72208E-02 3.28817E-04-1.38363E-01-7.75192E-14 2.10889E-13
 -1      2820 2.00934E+01 2.83084E-02 7.32547E-05-1.29836E-01 1.58033E-14 1.76537E-13
 -1      2821 2.00687E+01 3.53702E-02-3.45367E-04-1.37924E-01-5.78177E-15 1.37763E-13
 -1      2822 2.01513E+01 1.90898E-02 8.76407E-05-1.55233E-01-1.55123E-13 1.63185E-13
 -1      2823 2.01292E+01 2.43336E-02 2.68417E-04-1.48440E-01-1.26228E-13 2.65310E-13
 -1      2824 2.00972E+01 3.21745E-02-4.65711E-04-1.59424E-01-6.89057E-14 1.40411E-13
 -1      2825 2.01974E+01 2.66945E-04-3.24879E-04-1.65053E-01-1.06344E-13-3.59995E-14
 -1      2826 2.01729E+01 1.15306E-02 5.45407E-04-1.62821E-01-8.84205E-14 3.51879E-14
 -1      2827 2.01340E+01 1.88186E-02-6.19988E-04-1.78447E-01-4.58578E-14 8.02090E-14
 -1      2828 2.02519E+01-3.30780E-02-9.55449E-04-1.60516E-01-7.02693E-14-1.06276E-13
 -1      2829 2.02259E+01-1.37755E-02 9.20096E-04-1.66737E-01-1.39773E-13-9.80801E-14
 -1      2830 2.01818E+01-9.12808E-03-8.08273E-04-1.89226E-01-1.01037E-13-5.77630E-14
 -1      2831 2.03152E+01-8.43596E-02-1.83396E-03-1.32001E-01 2.94857E-14 4.09673E-14
 -1      2832 2.02893E+01-5.53488E-02 1.39002E-03-1.51602E-01 1.65849E-14-2.46529E-14
 -1      2833 2.02437E+01-5.63895E-02-1.01493E-03-1.83569E-01-8.76317E-14-1.18843E-13
 -1      2834 2.03857E+01-1.54982E-01-2.94544E-03-6.80113E-02-6.34655E-14 1.71579E-13
 -1      2835 2.03628E+01-1.15879E-01 1.91328E-03-1.06552E-01-3.13087E-14 1.40674E-13
 -1      2836 2.03226E+01-1.26737E-01-1.19257E-03-1.50669E-01-7.43831E-14-5.80062E-15
 -1      2837 2.04595E+01-2.41790E-01-4.18464E-03 4.33050E-02-3.86370E-14 4.86170E-16
 -1      2838 2.04437E+01-1.94941E-01 2.37913E-03-1.93473E-02-1.43694E-14 1.33902E-13
 -1      2839 2.04200E+01-2.20716E-01-1.24196E-03-7.75604E-02-3.28685E-14 9.05220E-14
 -1      2840 2.05280E+01-3.33749E-01-5.29945E-03 2.10920E-01-9.49761E-17 4.25759E-14
 -1      2841 2.05253E+01-2.86011E-01 2.58330E-03 1.21280E-01-7.36316E-14-4.54481E-14
 -1      2842 2.05341E+01-3.32184E-01-9.96560E-04 4.91839E-02 5.71354E-15 3.35044E-14
 -1      2843 2.05770E+01-4.08839E-01-5.83940E-03 4.35486E-01 7.05289E-14 1.56929E-13
 -1      2844 2.05945E+01-3.73084E-01 2.22697E-03 3.21165E-01 1.72433E-14 9.13737E-14
 -1      2845 2.06568E+01-4.44127E-01-2.42802E-04 2.39678E-01 1.78059E-14-4.66889E-14
 -1      2846 2.05856E+01-4.33410E-01-5.16139E-03 7.01787E-01-4.83386E-14 2.54012E-13
 -1      2847 2.06309E+01-4.28362E-01 9.82289E-04 5.73807E-01 2.96683E-14 2.27171E-13
 -1      2848 2.07704E+01-5.25209E-01 1.20452E-03 4.94160E-01-5.28483E-14 1.81772E-13
 -1      2849 2.05297E+01-3.67957E-01-2.66388E-03 9.70824E-01-2.00664E-14 3.42060E-13
 -1      2850 2.06078E+01-4.14096E-01-1.28032E-03 8.51805E-01-3.89651E-15 3.71758E-13
 -1      2851 2.08460E+01-5.30670E-01 3.26817E-03 7.93543E-01-1.08312E-13 2.90062E-13
 -1      2852 2.03914E+01-1.83140E-01 1.66841E-03 1.17674E+00 1.86303E-13 3.28872E-13
 -1      2853 2.05005E+01-2.93045E-01-4.26419E-03 1.10027E+00 1.03188E-13 3.94188E-13
 -1      2854 2.08477E+01-4.12443E-01 5.31788E-03 1.08940E+00 1.12824E-14 3.84891E-13
 -1      2855 2.01733E+01 1.15738E-01 6.80737E-03 1.23689E+00 2.33760E-13 3.06735E-13
 -1      2856 2.03012E+01-4.93342E-02-6.86805E-03 1.23999E+00 2.86274E-13 3.83947E-13
 -1      2857 2.07467E+01-1.42928E-01 5.92967E-03 1.30085E+00 1.85365E-13 3.00547E-13
 -1      2858 1.99134E+01 4.67872E-01 1.04083E-02 1.08096E+00 1.09632E-13 2.38221E-13
 -1      2859 2.00367E+01 2.86686E-01-7.22754E-03 1.18870E+00 1.64647E-13 3.13865E-13
 -1      2860 2.05445E+01 2.54517E-01 3.85769E-03 1.32967E+00 2.15322E-13 3.28287E-13
 -1      2861 1.96854E+01 7.62686E-01 1.00779E-02 6.95481E-01 2.15284E-13 2.17332E-13
 -1      2862 1.97751E+01 6.26104E-01-4.23411E-03 9.01809E-01 1.97150E-13 2.99890E-13
 -1      2863 2.02934E+01 6.85323E-01-9.43935E-04 1.10093E+00 1.16055E-13 1.01501E-13
 -1      2864 1.95692E+01 8.88295E-01 5.48821E-03 1.51910E-01 1.76835E-13 2.15211E-13
 -1      2865 1.96025E+01 8.50406E-01 1.61624E-03 4.13563E-01 1.64493E-13 2.30220E-13
 -1      2866 2.00884E+01 1.00680E+00-6.32796E-03 6.19153E-01 1.61289E-13 1.29823E-13
 -1      2867 1.96090E+01 7.90775E-01-1.07274E-03-4.08805E-01-8.16278E-14 2.46691E-13
 -1      2868 1.95797E+01 8.68676E-01 7.93983E-03-1.59482E-01 5.63898E-14 3.15097E-13
 -1      2869 2.00198E+01 1.09557E+00-8.06933E-03-7.97701E-03 3.62712E-14 2.68678E-13
 -1      2870 1.97840E+01 5.11630E-01-6.06549E-03-8.34767E-01-1.46602E-13 3.90828E-13
 -1      2871 1.97047E+01 6.71556E-01 1.11008E-02-6.60604E-01-1.01449E-13 2.80986E-13
 -1      2872 2.01168E+01 9.14249E-01-4.31058E-03-6.02472E-01-5.99750E-14 2.87730E-13
 -1      2873 2.00156E+01 1.64552E-01-7.75247E-03-1.03653E+00 1.76133E-14 2.72537E-13
 -1      2874 1.99135E+01 3.43472E-01 9.60162E-03-9.66746E-01-8.79049E-15 3.60645E-13
 -1      2875 2.03222E+01 5.36928E-01 1.02557E-03-9.99815E-01-1.03669E-13 4.90219E-13
 -1      2876 2.02188E+01-1.33581E-01-6.05931E-03-1.01510E+00-1.89789E-13 1.24743E-13
 -1      2877 2.01219E+01 7.27657E-03 4.88720E-03-1.04103E+00-2.60892E-14 1.03906E-13
 -1      2878 2.05331E+01 1.10704E-01 5.04838E-03-1.13086E+00 8.21289E-14 1.80879E-13
 -1      2879 2.03382E+01-3.11563E-01-2.64527E-03-8.39477E-01-1.51918E-13-3.05257E-14
 -1      2880 2.02656E+01-2.37640E-01-4.36081E-04-9.26696E-01-3.36161E-13-8.89095E-14
 -1      2881 2.06643E+01-2.29764E-01 6.25688E-03-1.02934E+00-1.54546E-13-9.37882E-14
 -1      2882 2.03606E+01-3.60281E-01 2.01088E-04-6.01264E-01 7.47086E-15 4.22397E-15
 -1      2883 2.03206E+01-3.51022E-01-4.39270E-03-7.09650E-01-4.08339E-14 1.17044E-13
 -1      2884 2.06809E+01-4.13642E-01 5.06039E-03-7.91556E-01-2.55905E-13-4.08053E-13
 -1      2885 2.03011E+01-3.13794E-01 3.08073E-05-3.77396E-01-1.46830E-13 3.28839E-13
 -1      2886 2.02950E+01-3.45947E-01-6.29597E-03-4.73202E-01 9.96826E-15 2.61387E-13
 -1      2887 2.05979E+01-4.43379E-01 3.31333E-03-5.20333E-01-1.07649E-13-1.40990E-13
 -1      2888 2.02479E+01-2.52696E-01-6.03819E-04-2.16747E-01-3.93139E-13 5.02946E-13
 -1      2889 2.02653E+01-2.97478E-01-6.76623E-03-2.88181E-01-2.82142E-13 4.36290E-13
 -1      2890 2.05126E+01-3.86226E-01 6.64467E-03-2.93095E-01-2.47349E-13 2.72987E-13
 -1      2891 2.04216E+01-3.02759E-01 8.73304E-03-1.25192E-01-3.18568E-13 7.19430E-14
 -1      2892 2.03133E+01 3.14025E-02-7.77608E-03 2.02181E+00-1.70032E-13-5.60116E-13
 -1      2893 2.06137E+01-1.73662E-01 1.36425E-02 1.87696E+00-1.48734E-13-4.75850E-13
 -1      2894 1.83933E+01-3.50891E+00 2.08667E-01 5.51069E+00 2.01367E-14-1.56139E-13
 -1      2895 2.09846E+01-4.80665E-01 7.54801E-03 1.05134E+00 1.41350E-13-2.67419E-13
 -1      2896 2.09687E+01-5.43010E-01 3.45835E-04 7.99357E-01 1.59490E-13-2.76082E-13
 -1      2897 1.94932E+01 5.98291E-01-1.99545E-02 2.10441E+00-1.16856E-13-2.17256E-13
 -1      2898 1.99456E+01 3.44493E-01 2.16712E-02 2.14634E+00-1.58257E-13-4.23856E-13
 -1      2899 2.01633E+01-2.04397E-01-1.49606E-02 2.32848E+00-8.50160E-14-5.02329E-13
 -1      2900 2.08155E+01-3.25207E-01 2.41596E-03 1.60224E+00-1.89145E-13-4.01924E-13
 -1      2901 2.09396E+01-4.59766E-01 5.08217E-03 1.36370E+00 1.37482E-14-3.42434E-13
 -1      2902 2.11806E+01-7.59827E-01-7.59013E-03 1.25872E+00-1.08851E-13-4.39960E-13
 -1      2903 2.08770E+01-6.15308E-01-1.35321E-02 1.88204E+00-2.52770E-13-4.05154E-13
 -1      2904 1.85561E+01 1.27388E+00-2.77859E-02 1.67383E+00-1.22369E-13 2.64595E-13
 -1      2905 1.90331E+01 1.03160E+00 2.39168E-02 1.95914E+00-5.28195E-14 1.67123E-13
 -1      2906 1.91043E+01 4.73513E-01-9.91500E-03 2.34710E+00 4.67764E-14-6.58604E-14
 -1      2907 1.78227E+01 1.88154E+00-2.42771E-02 6.83144E-01-1.73347E-14 1.40173E-13
 -1      2908 1.81461E+01 1.71018E+00 1.63387E-02 1.20159E+00-8.49109E-14 2.71161E-13
 -1      2909 1.79892E+01 1.28003E+00 5.92480E-03 1.73379E+00-4.88691E-14 2.41034E-13
 -1      2910 1.76996E+01 2.17333E+00-4.04208E-03-6.46044E-01-5.14311E-14-2.40146E-14
 -1      2911 1.76632E+01 2.13676E+00-3.61548E-03-3.80698E-02-4.28702E-14-1.23580E-14
 -1      2912 1.72534E+01 1.93732E+00 2.25107E-02 4.88526E-01-5.84433E-14 6.84879E-14
 -1      2913 2.95730E+01 6.90290E+00-1.66465E-01 1.12321E+00 3.38618E-13-2.16140E-13
 -1      2914 2.92099E+01 7.46328E+00-1.98169E-01 1.94882E-01 3.45307E-13-2.20745E-13
 -1      2915 2.88693E+01 6.96575E+00-2.12722E-01-6.90249E-01 3.68150E-13-2.86982E-13
 -1      2916 2.90688E+01 6.28653E+00-1.42731E-01-1.45348E+00 3.97821E-13-2.76813E-13
 -1      2917 7.02052E+00-8.39740E-01 1.84918E-01-2.60929E+00 7.94989E-14-6.71352E-13
 -1      2918 9.39207E+00-1.70348E+00 1.30871E-01-4.70858E+00 1.90375E-13-9.47936E-13
 -1      2919 2.30292E+01-5.49225E+00-7.33100E-02 5.93102E+00-4.28269E-14 3.56779E-13
 -1      2920 1.94916E+01-4.92591E+00 1.40106E-01 6.90330E+00-2.72143E-14 3.59331E-13
 -1      2921 1.86131E+01 1.85152E+00 8.45328E-03-2.23708E+00 5.90786E-14-2.35996E-13
 -1      2922 1.79261E+01 2.11711E+00-2.60753E-02-1.52424E+00 3.89330E-14-1.60526E-13
 -1      2923 2.98620E+01-9.03111E-01-1.95041E-01-3.32426E-01 1.79447E-13-3.29431E-13
 -1      2924 2.92081E+01-2.69898E+00-1.90097E-02 9.61208E-01 3.37860E-13-4.55871E-13
 -1      2925 2.79919E+01-3.43924E+00 6.80578E-03 1.23015E+00 7.91815E-14-6.48794E-13
 -1      2926 1.99229E+01 2.59618E+00-7.91621E-03 7.93908E-01 1.91641E-13-9.28561E-14
 -1      2927 1.98791E+01 2.68833E+00-6.13764E-03 6.45007E-01 1.80855E-13-1.18650E-13
 -1      2928 1.99977E+01 2.38874E+00 4.32963E-03 5.16314E-01 1.74072E-13-1.14990E-13
 -1      2929 2.00794E+01 2.19100E+00 5.60675E-03 7.45271E-01 1.73398E-13-8.06265E-14
 -1      2930 2.94806E+01 4.33760E+00-2.23075E-01-1.82381E+00 3.50303E-13-3.87620E-13
 -1      2931 3.00396E+01 1.94033E+00-6.44841E-02-1.62111E+00 1.87322E-13-2.22072E-13
 -1      2932 1.41858E+01-3.34233E+00 1.87110E-01-7.29444E+00-3.89161E-13-3.70939E-13
 -1      2933 1.79224E+01-4.57231E+00-1.31836E-02-7.38007E+00-5.37459E-13-2.76425E-13
 -1      2934 1.98746E+01 2.69665E+00-6.08622E-03-6.35141E-01 4.07553E-14-1.83256E-13
 -1      2935 1.99177E+01 2.60768E+00-7.50737E-03-7.84422E-01 6.94453E-15-1.88433E-13
 -1      2936 2.98507E+01 3.82541E+00-1.60203E-01 1.79115E+00 4.51778E-13-1.56070E-13
 -1      2937 2.97127E+01 5.48755E+00-1.97220E-01 1.62820E+00 3.93963E-13-1.56528E-13
 -1      2938 1.98282E+01-4.60498E+00 2.00588E-01-5.77609E+00 4.43451E-13 2.58196E-13
 -1      2939 2.15050E+01-4.95916E+00 1.12311E-01-6.30688E+00-4.35652E-13-2.36436E-13
 -1      2940 2.38544E+01-5.06715E+00-3.97872E-02-5.35818E+00-2.96083E-13-7.37119E-14
 -1      2941 6.49191E+00 1.70156E-01 1.66034E-01-2.55076E-01-9.35120E-14-1.84075E-13
 -1      2942 6.72437E+00 4.06950E-02 1.41018E-01-2.50541E+00-6.67938E-14-3.65485E-13
 -1      2943 1.02346E+01-2.22140E+00 9.71494E-02 6.25584E+00 1.85102E-13-8.61811E-14
 -1      2944 7.97344E+00-1.18507E+00 2.00215E-01 4.43854E+00 1.07442E-13 2.36311E-13
 -1      2945 1.32070E+01-2.00170E+00 1.56178E-01 6.13647E+00 4.15779E-14 1.13173E-13
 -1      2946 9.30889E+00-1.06604E+00 1.54406E-01 4.01078E+00 1.03501E-13-3.30930E-13
 -1      2947 7.14606E+00-2.01526E-01 1.62933E-01 1.84094E+00-7.57033E-15-1.86268E-13
 -1      2948 1.18414E+01-2.42822E+00 1.98453E-01-5.53441E+00 2.04281E-13-3.52607E-13
 -1      2949 1.47586E+01-3.43661E+00 2.11449E-03-6.21786E+00 2.76612E-13-5.33462E-14
 -1      2950 1.18989E+01-1.00618E+00 1.83068E-01-4.70032E+00 1.47937E-14-4.42230E-13
 -1      2951 6.09110E+00-5.87638E-01 1.22867E-01 2.09581E+00 1.87995E-13 8.18817E-13
 -1      2952 5.88717E+00-5.65808E-01 1.77511E-01-4.49347E-01 1.93033E-13 2.91794E-13
 -1      2953 7.90858E+00-8.76768E-01 1.71705E-01-4.63684E+00-1.52302E-13-3.17829E-13
 -1      2954 1.03929E+01-2.11203E+00 5.69786E-02-6.59166E+00-1.54946E-13-3.63404E-13
 -1      2955 1.99323E+01 2.53885E+00 3.41813E-03 4.44787E-03 1.42455E-13-1.57885E-13
 -1      2956 1.97934E+01 2.87025E+00-5.48929E-03-6.20178E-02 1.39449E-13-1.66670E-13
 -1      2957 1.98009E+01 2.85552E+00-5.56630E-03-2.16670E-01 1.24356E-13-1.58093E-13
 -1      2958 1.98166E+01 2.81997E+00-5.71131E-03-3.51777E-01 1.04010E-13-1.31001E-13
 -1      2959 1.98408E+01 2.77153E+00-6.24909E-03-5.05382E-01 6.79546E-14-1.45793E-13
 -1      2960 1.99938E+01 2.39609E+00 4.25165E-03-5.07516E-01 5.30584E-14-1.38343E-13
 -1      2961 1.99471E+01 2.50465E+00 3.60232E-03-2.55756E-01 1.09858E-13-1.30693E-13
 -1      2962 1.99920E+01 1.35570E-01-2.36797E-03-7.36875E-02 5.56190E-14-8.98316E-16
 -1      2963 1.98926E+01 1.18977E-01-2.77109E-04-7.20799E-02 6.00733E-14 4.80955E-14
 -1      2964 1.99282E+01 1.70801E-01 5.22083E-03-1.65798E-02 6.11257E-14 5.83051E-14
 -1      2965 1.17175E+01-1.77256E+00 1.89272E-01 4.95965E+00 6.68909E-14-2.10360E-13
 -1      2966 1.20100E+01-4.76554E-01 1.75962E-01 4.06092E+00 9.51184E-14-2.37116E-13
 -1      2967 1.72204E+01-1.57016E+00 1.09677E-01-5.43287E+00 1.51310E-13 1.21542E-13
 -1      2968 1.44515E+01-6.34731E-01 5.31245E-02-5.08305E+00 4.86694E-14-2.60292E-13
 -1      2969 1.88955E+01-4.02446E+00 1.26430E-01 6.52150E+00-7.62168E-14 3.02987E-13
 -1      2970 9.14697E+00 2.43501E-01 1.93386E-01-3.34435E+00-9.48686E-14-2.95319E-13
 -1      2971 1.86329E+01 1.77349E+00 3.69402E-02-2.58741E+00 7.07227E-14-1.43606E-13
 -1      2972 1.84478E+01 1.51423E+00 3.26861E-02-3.25741E+00 1.27220E-15 1.21123E-13
 -1      2973 1.83014E+01 1.66480E+00 6.43472E-03-2.88824E+00 6.18960E-15-6.47251E-14
 -1      2974 1.73310E+01 1.93254E+00-2.38447E-02-2.37870E+00-1.43799E-13-2.99977E-14
 -1      2975 1.68103E+01 1.70232E+00 1.59276E-03-3.08809E+00-1.10200E-13 1.04124E-13
 -1      2976 2.00705E+01 4.15990E-01 1.00584E-03 2.95617E-01 1.12427E-13 6.49340E-14
 -1      2977 2.01154E+01 4.95398E-01 8.31831E-03 4.01789E-01 1.01576E-13 9.68487E-14
 -1      2978 2.05703E+01-3.95862E-01-1.23272E-03 1.75068E-02-2.28596E-13-3.96043E-14
 -1      2979 2.06267E+01-4.55897E-01-6.68326E-03-6.14763E-02-4.00101E-13 1.19062E-13
 -1      2980 2.07046E+01-4.17384E-01 9.31188E-03 1.67848E-01-1.25828E-13-2.03142E-13
 -1      2981 1.48312E+01-2.99474E+00 7.44997E-02 5.67949E+00 6.65579E-14-9.11771E-14
 -1      2982 1.67760E+01-1.93469E+00 4.75305E-02 5.24711E+00 3.05728E-14-1.16768E-13
 -1      2983 2.75884E+01 6.56058E+00-1.23647E-01-2.26655E-01 2.60403E-13-1.26146E-13
 -1      2984 1.73260E+01 2.14327E+00 2.14204E-02-1.18957E+00-8.75806E-14-4.72863E-14
 -1      2985 2.81793E+01 5.60147E+00-1.14323E-01 1.51570E+00 3.50220E-13-2.05412E-13
 -1      2986 2.78904E+01 4.43600E+00-1.07434E-01-1.74243E+00 2.75821E-13-2.54928E-13
 -1      2987 8.47951E+00 1.84588E-01 2.13053E-01-1.62505E+00 2.35909E-13-2.51327E-13
 -1      2988 1.99725E+01 2.48754E+00-5.92331E-03-9.03309E-01-2.51335E-14-1.84476E-13
 -1      2989 2.00384E+01 2.34783E+00-7.10440E-03-1.03559E+00-4.79537E-14-1.80300E-13
 -1      2990 2.00738E+01 2.20078E+00 4.97608E-03-7.38200E-01-1.42106E-14-1.56401E-13
 -1      2991 1.99615E+01 2.31888E-01-7.62110E-04 6.22430E-02 8.90942E-14 7.01700E-14
 -1      2992 2.00285E+01 3.14151E-01 8.04945E-03 1.59997E-01 1.06619E-13 6.42815E-14
 -1      2993 2.00560E+01 2.66746E-01-2.72153E-03 5.93172E-02 9.38002E-14 2.58292E-14
 -1      2994 2.54837E+01-4.71407E+00 4.64326E-02-4.11958E+00-2.10047E-13-9.86711E-14
 -1      2995 2.64273E+01-4.40540E+00-1.55274E-01-2.76857E+00-4.74169E-14-1.34892E-14
 -1      2996 2.43346E+01-4.62177E+00 3.47828E-02-4.27993E+00-1.76484E-13-2.19998E-13
 -1      2997 2.93403E+01-2.04357E+00-4.56682E-02-7.21368E-01 2.54047E-13 7.93254E-14
 -1      2998 2.09075E+01-4.85964E-01 9.20481E-03 5.64100E-01-9.86516E-16-2.23365E-13
 -1      2999 2.08137E+01-4.95846E-01-4.21654E-04 3.49983E-01-5.12602E-14-2.38360E-13
 -1      3000 2.09361E+01-6.02778E-01-4.57247E-03 2.71334E-01-2.25137E-13-7.78428E-14
 -1      3001 2.11471E+01-7.19298E-01-4.23905E-03 6.94565E-01 3.31727E-14-1.11353E-13
 -1      3002 2.88329E+01 1.79007E-01-4.71401E-02-1.26722E+00 3.51802E-14-5.11952E-13
 -1      3003 3.86456E+01 2.88202E+00 1.28128E-01 2.99977E+00-5.33962E-13-4.09228E-13
 -1      3004 1.81817E+01-3.21050E+00 1.61410E-01-5.62635E+00 1.82354E-13 1.88044E-13
 -1      3005 1.36021E+01-2.16801E+00 1.67502E-01-6.46700E+00-1.61648E-13-1.99313E-13
 -1      3006 2.46412E+01-4.90994E+00 4.99519E-02 4.39888E+00-1.33137E-13-1.84755E-13
 -1      3007 2.96430E+01 2.41049E+00-1.46504E-01 1.69640E+00 3.12084E-13-8.53484E-14
 -1      3008 2.81492E+01 3.05321E+00-8.54528E-02 2.11512E+00 2.93154E-13-1.49075E-13
 -1      3009 2.90791E+01 1.13753E+00-3.73675E-02 1.55441E+00 2.22947E-13-1.98175E-14
 -1      3010 2.01252E+01-4.33131E+00 9.34832E-02-6.32085E+00-4.22468E-13-2.53228E-13
 -1      3011 2.01381E+01 4.67183E-01-4.51515E-03 2.83594E-01 1.10940E-13 3.48250E-14
 -1      3012 8.79735E+00-1.73539E-01 1.91807E-01 3.06861E+00 1.25497E-13 4.33709E-13
 -1      3013 8.91608E+00 7.47207E-01 1.84925E-01 9.04375E-01 6.45317E-15-1.51879E-13
 -1      3014 2.02860E+01 1.07332E+00-4.84388E-03 8.17579E-01 1.43755E-13 4.33166E-14
 -1      3015 2.02729E+01 1.31078E+00 2.62123E-03 8.23374E-01 1.63111E-13 2.24855E-14
 -1      3016 2.02368E+01 1.47874E+00-8.87540E-03 8.05373E-01 1.59355E-13-7.32791E-15
 -1      3017 2.02000E+01 1.66822E+00-1.08381E-03 7.45783E-01 1.50750E-13-4.19825E-14
 -1      3018 2.02858E+01 1.14651E+00 7.69285E-03 6.41030E-01 1.41150E-13 9.07049E-15
 -1      3019 2.01697E+01 5.80535E-01 6.42114E-03 6.01652E-01 1.11140E-13 1.52841E-13
 -1      3020 2.02668E+01 1.47128E+00-1.55400E-04-8.87476E-01-8.50346E-14-1.13223E-13
 -1      3021 2.02576E+01 1.16990E+00-4.59085E-03-6.70673E-01-6.27842E-14-1.07736E-13
 -1      3022 1.27505E+01-1.03537E+00 1.20593E-01-5.61952E+00-5.55112E-15-4.50889E-14
 -1      3023 1.56681E+01-2.59794E+00-1.27864E-02-6.47665E+00-1.94511E-13-8.15875E-14
 -1      3024 1.25814E+01 2.56835E-01 1.42793E-01-4.06492E+00-4.25007E-14-5.98466E-13
 -1      3025 1.38823E+01 1.19461E+00 5.23763E-02-3.13246E+00 1.61593E-13-2.33778E-13
 -1      3026 1.47270E+01 1.64366E+00-4.38201E-03-2.71356E+00 2.83282E-13-1.35558E-13
 -1      3027 2.02849E+01 9.33964E-01 3.76488E-03-5.18560E-01-4.51325E-14-1.00550E-13
 -1      3028 2.02479E+01 7.40393E-01-3.34751E-03-3.64699E-01-2.89404E-14-1.08371E-13
 -1      3029 2.02697E+01 1.22203E+00 1.12192E-03-5.99973E-01-5.22529E-14-1.05813E-13
 -1      3030 2.02463E+01 5.74746E-01 3.72479E-03-2.43448E-01-1.31360E-14-8.07916E-14
 -1      3031 2.02056E+01 4.39498E-01-2.36958E-03-1.33077E-01-1.13518E-14-9.51537E-14
 -1      3032 2.02815E+01 7.76707E-01 6.15435E-04-3.23170E-01-2.74848E-14-7.73593E-14
 -1      3033 2.01917E+01 3.31296E-01 3.14951E-03-5.12668E-02-1.21017E-14-9.92422E-14
 -1      3034 2.01579E+01 2.42518E-01-1.36848E-03 1.82969E-02-2.00408E-14-8.02046E-14
 -1      3035 2.02553E+01 4.63776E-01-5.33698E-04-1.15174E-01-1.78834E-14-5.91174E-14
 -1      3036 2.01396E+01 1.72045E-01 2.35666E-03 6.89533E-02-1.34581E-14-8.36313E-14
 -1      3037 2.01149E+01 1.14552E-01-6.47702E-04 1.09136E-01-1.39383E-14-8.04739E-14
 -1      3038 2.02157E+01 2.54722E-01-9.52834E-04 2.26094E-02-2.49121E-14-6.24516E-14
 -1      3039 2.00966E+01 6.94355E-02 1.62917E-03 1.36939E-01-2.43136E-14-7.48178E-14
 -1      3040 2.00801E+01 3.32102E-02-1.71214E-04 1.56940E-01-3.13077E-14-5.89856E-14
 -1      3041 2.01746E+01 1.17575E-01-1.03472E-03 1.05959E-01-1.38217E-14-7.05899E-14
 -1      3042 2.00636E+01 5.33348E-03 1.04197E-03 1.68916E-01-4.55526E-14-8.38072E-14
 -1      3043 2.00537E+01-1.63155E-02 1.25258E-04 1.75645E-01-5.62638E-14-1.07781E-13
 -1      3044 2.01374E+01 3.01204E-02-9.56539E-04 1.49957E-01-5.57144E-14-8.51102E-14
 -1      3045 2.00397E+01-3.24250E-02 5.94137E-04 1.77308E-01-3.11181E-14-7.09638E-14
 -1      3046 2.00345E+01-4.40276E-02 2.96631E-04 1.75764E-01-3.19317E-14-7.03356E-14
 -1      3047 2.01060E+01-2.29286E-02-8.21928E-04 1.67080E-01-6.13170E-14-4.97926E-14
 -1      3048 2.00235E+01-5.17317E-02 2.94871E-04 1.71513E-01-1.69129E-14-7.12721E-14
 -1      3049 2.00218E+01-5.65379E-02 3.79520E-04 1.65731E-01-1.54639E-15-4.67394E-14
 -1      3050 2.00811E+01-5.19285E-02-6.97314E-04 1.67246E-01-1.77879E-14 6.12731E-15
 -1      3051 2.00126E+01-5.94124E-02 7.23609E-05 1.58075E-01-1.48097E-14-7.31114E-14
 -1      3052 2.00129E+01-5.98642E-02 4.21221E-04 1.49835E-01-3.94047E-14-4.13907E-14
 -1      3053 2.00614E+01-6.49553E-02-5.50220E-04 1.57541E-01-2.04258E-14-7.62365E-14
 -1      3054 2.00057E+01-5.89047E-02-6.37885E-05 1.40879E-01-4.59730E-14-5.20558E-14
 -1      3055 2.00075E+01-5.62615E-02 4.33698E-04 1.32184E-01-7.13814E-14-2.85771E-14
 -1      3056 2.00458E+01-6.74631E-02-4.37527E-04 1.42684E-01-4.73957E-14-1.22584E-13
 -1      3057 2.00020E+01-5.27796E-02-1.58012E-04 1.23448E-01-5.98290E-14-4.76475E-14
 -1      3058 2.00048E+01-4.80095E-02 4.37056E-04 1.15534E-01-3.90546E-14-4.95029E-14
 -1      3059 2.00341E+01-6.23705E-02-3.42929E-04 1.26420E-01-7.40672E-14-1.44512E-13
 -1      3060 2.00006E+01-4.27799E-02-2.20310E-04 1.08043E-01-5.27894E-14-3.44816E-14
 -1      3061 2.00041E+01-3.64728E-02 4.40469E-04 1.01793E-01-4.01506E-14-5.98950E-14
 -1      3062 2.00256E+01-5.20993E-02-2.65291E-04 1.11342E-01-6.01382E-14-1.15177E-13
 -1      3063 2.00009E+01-2.99110E-02-2.67114E-04 9.62770E-02-6.48086E-16-7.98121E-15
 -1      3064 2.00049E+01-2.23471E-02 4.29963E-04 9.23736E-02 2.83713E-14 1.45114E-14
 -1      3065 2.00194E+01-3.80855E-02-1.99910E-04 9.92835E-02 1.72934E-14-6.14310E-14
 -1      3066 2.00024E+01-1.49724E-02-3.00897E-04 8.95034E-02 5.51077E-15-1.46300E-14
 -1      3067 2.00066E+01-6.57417E-03 4.54120E-04 8.84478E-02-6.57751E-14-6.11675E-14
 -1      3068 2.00151E+01-2.14038E-02-1.16313E-04 9.17132E-02-6.73537E-15-5.52625E-14
 -1      3069 2.00043E+01 2.49702E-03-3.63944E-04 8.83322E-02-4.46514E-14-5.35475E-14
 -1      3070 2.00091E+01 1.29186E-02 5.23963E-04 9.06424E-02 3.25525E-15-6.44974E-14
 -1      3071 2.00117E+01-1.90844E-03-8.88252E-05 8.93810E-02-3.93902E-14-1.26152E-13
 -1      3072 2.00065E+01 2.36808E-02-4.40499E-04 9.40251E-02 6.40842E-14-9.81395E-14
 -1      3073 2.00116E+01 3.62417E-02 5.90660E-04 1.00482E-01 8.29323E-14-1.04594E-13
 -1      3074 2.00083E+01 2.17370E-02-2.24349E-05 9.33609E-02 3.09104E-15-1.12453E-13
 -1      3075 2.00078E+01 4.93807E-02-5.56829E-04 1.07908E-01 5.08795E-14-1.24038E-13
 -1      3076 2.00131E+01 6.49599E-02 6.81451E-04 1.19345E-01-1.89294E-14-1.23906E-13
 -1      3077 2.00037E+01 5.01967E-02 6.97825E-05 1.04871E-01 8.00933E-14-1.45451E-13
 -1      3078 2.00071E+01 8.14647E-02-7.32327E-04 1.31459E-01-4.80045E-14-5.48591E-14
 -1      3079 2.00121E+01 1.01329E-01 7.92227E-04 1.48955E-01-5.21674E-14-7.26428E-14
 -1      3080 1.99964E+01 8.53426E-02 2.10586E-04 1.25107E-01 8.06131E-16-1.30125E-13
 -1      3081 2.00020E+01 1.22614E-01-9.93199E-04 1.66516E-01-1.23990E-13-4.40663E-14
 -1      3082 2.00058E+01 1.48525E-01 9.08026E-04 1.91464E-01-1.45617E-13-8.59663E-14
 -1      3083 1.99836E+01 1.29872E-01 4.33946E-04 1.55427E-01-7.88303E-14-6.68774E-14
 -1      3084 1.99891E+01 1.76613E-01-1.35678E-03 2.15314E-01-1.43640E-13-7.45650E-14
 -1      3085 1.99896E+01 2.10870E-01 9.42784E-04 2.49499E-01-1.53676E-13-9.40997E-14
 -1      3086 1.99612E+01 1.87478E-01 7.83165E-04 1.97323E-01-1.45954E-13-7.26630E-15
 -1      3087 1.99634E+01 2.46295E-01-1.87805E-03 2.78837E-01-1.63707E-13-1.74546E-13
 -1      3088 1.99586E+01 2.89567E-01 9.48093E-04 3.21680E-01-2.36311E-13-1.58569E-13
 -1      3089 1.99243E+01 2.61327E-01 1.46580E-03 2.50639E-01-1.82188E-13-7.69246E-14
 -1      3090 1.99150E+01 3.39244E-01-2.68639E-03 3.60318E-01-1.28819E-13-6.45445E-14
 -1      3091 1.98987E+01 4.00199E-01 1.00576E-03 4.18826E-01 1.26563E-14-4.24741E-14
 -1      3092 1.98627E+01 3.58090E-01 2.21936E-03 3.17785E-01-8.35304E-14-4.29654E-15
 -1      3093 1.98283E+01 4.66679E-01-3.81109E-03 4.65744E-01 8.19985E-14-3.68113E-14
 -1      3094 1.97919E+01 5.47945E-01 6.72922E-04 5.40528E-01 9.03327E-14 1.38439E-14
 -1      3095 1.97599E+01 4.89682E-01 3.62743E-03 4.01038E-01 5.77725E-14 3.79200E-15
 -1      3096 1.96810E+01 6.36122E-01-5.37815E-03 5.95409E-01 1.37580E-14-2.64520E-14
 -1      3097 1.96108E+01 7.42468E-01-9.78029E-05 6.88718E-01-6.84587E-15 9.37797E-15
 -1      3098 1.95944E+01 6.62832E-01 5.75315E-03 4.97679E-01 1.68120E-14 5.53502E-14
 -1      3099 1.94385E+01 8.56449E-01-7.56300E-03 7.49985E-01-3.47714E-15-7.63093E-14
 -1      3100 1.93137E+01 9.90729E-01-1.59464E-03 8.63273E-01-5.21465E-14-1.32930E-13
 -1      3101 1.93331E+01 8.86366E-01 8.92770E-03 6.03572E-01-6.72658E-14-5.62014E-14
 -1      3102 1.90509E+01 1.13172E+00-1.04618E-02 9.27878E-01-4.40477E-14-1.03527E-13
 -1      3103 1.88407E+01 1.29029E+00-4.03942E-03 1.06145E+00-7.76807E-14-1.12320E-13
 -1      3104 1.89277E+01 1.16457E+00 1.34890E-02 7.10396E-01-7.60678E-14-1.11306E-13
 -1      3105 1.84669E+01 1.44006E+00-1.50527E-02 1.12268E+00-6.94364E-14-1.11346E-13
 -1      3106 1.81570E+01 1.59996E+00-7.42548E-03 1.26841E+00-2.04598E-14 3.26143E-14
 -1      3107 1.83302E+01 1.48404E+00 2.08084E-02 8.02890E-01-8.33357E-14-7.30486E-14
 -1      3108 1.75841E+01 1.74963E+00-2.07124E-02 1.33487E+00 4.28537E-14 5.12093E-14
 -1      3109 1.70946E+01 1.88381E+00-8.65664E-03 1.51375E+00 1.02885E-13 1.18252E-13
 -1      3110 1.74391E+01 1.81792E+00 3.04201E-02 8.76055E-01 4.92575E-14-5.55805E-14
 -1      3111 1.62513E+01 1.96181E+00-2.45269E-02 1.59304E+00 3.62731E-14 1.08338E-13
 -1      3112 1.55597E+01 1.97227E+00 3.36800E-03 1.82373E+00 4.55031E-14 9.78731E-14
 -1      3113 1.61041E+01 2.10331E+00 5.26219E-02 9.32390E-01 5.74517E-14-3.70407E-15
 -1      3114 1.43096E+01 1.87022E+00-6.60736E-03 2.00099E+00 3.72289E-14 5.68295E-15
 -1      3115 1.34967E+01 1.50781E+00 6.25413E-02 2.34377E+00 5.17746E-14-8.70484E-14
 -1      3116 1.41017E+01 2.18995E+00 9.98778E-02 9.98750E-01 7.63755E-15-2.06953E-14
 -1      3117 2.04960E+01-4.15445E+00-6.91536E-02 5.79335E+00-1.10384E-13 9.11424E-14
 -1      3118 1.79323E+01-2.92908E+00 1.37791E-01 6.07711E+00-4.76771E-14 1.33504E-13
 -1      3119 2.00085E+01 3.49475E-03-1.07103E-04-1.75778E-01 1.37452E-14-5.41956E-15
 -1      3120 2.00189E+01 2.88838E-02 1.58961E-03-1.64196E-01 3.38992E-14-1.93657E-14
 -1      3121 2.02346E+01 7.17320E-01-1.08227E-03 6.33253E-01 1.28625E-13 7.33638E-14
 -1      3122 1.99831E+01-4.64991E-02 2.44585E-04-1.75911E-01 9.26786E-14 1.41906E-15
 -1      3123 1.99826E+01-3.94278E-02 4.35447E-04-1.81033E-01 9.14029E-14 6.57305E-15
 -1      3124 2.00346E+01 5.97937E-02-4.82802E-04-1.44852E-01 3.27722E-14 9.39002E-15
 -1      3125 2.00544E+01 1.01202E-01 2.48886E-03-1.16628E-01 4.69432E-14-1.77137E-14
 -1      3126 2.01029E+01 6.10348E-02-1.18830E-03-1.41133E-01 4.15146E-14-5.06875E-15
 -1      3127 1.99791E+01-5.28184E-02 3.13152E-04-1.60970E-01 1.18575E-13 6.98608E-14
 -1      3128 1.99760E+01-5.07370E-02 1.18381E-04-1.69251E-01 1.18820E-13 6.11801E-14
 -1      3129 2.00314E+01-5.47868E-02-5.56143E-04-1.70284E-01 6.90489E-14 2.92528E-14
 -1      3130 1.99786E+01-5.19784E-02 3.46434E-04-1.42817E-01 7.79756E-14 6.90889E-14
 -1      3131 1.99740E+01-5.32092E-02-8.50333E-05-1.52181E-01 9.61112E-14 3.41436E-14
 -1      3132 2.00196E+01-6.09618E-02-4.11080E-04-1.56028E-01 1.15819E-13 2.12871E-14
 -1      3133 1.99804E+01-4.64264E-02 3.61245E-04-1.24601E-01-2.63354E-14 1.12393E-13
 -1      3134 1.99750E+01-4.98253E-02-2.09304E-04-1.33637E-01 6.10689E-14 1.24494E-13
 -1      3135 2.00117E+01-5.91206E-02-2.99632E-04-1.38836E-01 3.27696E-14 6.80843E-15
 -1      3136 1.99837E+01-3.78059E-02 3.68829E-04-1.08456E-01-8.57165E-14 4.52867E-14
 -1      3137 1.99780E+01-4.26107E-02-2.80537E-04-1.16216E-01-6.04841E-14 9.25321E-14
 -1      3138 2.00066E+01-5.19910E-02-2.16824E-04-1.21768E-01-4.61023E-15 4.11429E-14
 -1      3139 1.99881E+01-2.71943E-02 3.76638E-04-9.58189E-02-3.32102E-14 3.34152E-14
 -1      3140 1.99822E+01-3.29096E-02-3.17835E-04-1.01669E-01-8.54761E-14 2.73594E-14
 -1      3141 2.00038E+01-4.14035E-02-1.57302E-04-1.06917E-01-8.58363E-14-2.60964E-14
 -1      3142 1.99933E+01-1.52928E-02 3.89238E-04-8.76618E-02-2.75410E-14 3.77497E-14
 -1      3143 1.99872E+01-2.15960E-02-3.34536E-04-9.11785E-02 2.48146E-14 3.88522E-14
 -1      3144 2.00026E+01-2.85607E-02-1.16670E-04-9.57104E-02-5.94726E-15-3.29191E-14
 -1      3145 1.99993E+01-2.59491E-03 4.08672E-04-8.46434E-02-3.03597E-14 1.26044E-14
 -1      3146 1.99930E+01-9.25038E-03-3.38905E-04-8.55476E-02-3.86677E-14 6.43126E-14
 -1      3147 2.00027E+01-1.42573E-02-9.20268E-05-8.91348E-02 1.33175E-15 6.09568E-14
 -1      3148 2.00063E+01 1.04440E-02 4.34412E-04-8.71922E-02-8.99909E-15 1.53214E-14
 -1      3149 1.99995E+01 3.67292E-03-3.34384E-04-8.53212E-02-4.94199E-14 5.39418E-15
 -1      3150 2.00038E+01 9.18861E-04-8.24011E-05-8.78811E-02-5.34242E-14 3.50647E-15
 -1      3151 2.00146E+01 2.32253E-02 4.63034E-04-9.55163E-02 3.75064E-14 1.17406E-13
 -1      3152 2.00070E+01 1.66723E-02-3.19443E-04-9.08326E-02 1.99415E-14 7.86673E-14
 -1      3153 2.00059E+01 1.63834E-02-8.92329E-05-9.24246E-02-6.39378E-14-3.42840E-15
 -1      3154 2.00250E+01 3.47999E-02 4.87536E-04-1.09537E-01 8.70170E-14 1.33566E-13
 -1      3155 2.00161E+01 2.90059E-02-2.86968E-04-1.02177E-01 7.90598E-14 1.50441E-13
 -1      3156 2.00093E+01 3.13328E-02-1.17177E-04-1.03033E-01 1.78917E-14 1.12996E-13
 -1      3157 2.00384E+01 4.36334E-02 4.96345E-04-1.28737E-01 1.80181E-14 2.12739E-13
 -1      3158 2.00278E+01 3.94707E-02-2.23261E-04-1.19105E-01 1.12617E-13 2.09049E-13
 -1      3159 2.00147E+01 4.44930E-02-1.75103E-04-1.19698E-01 3.80454E-14 2.68338E-13
 -1      3160 2.00564E+01 4.73538E-02 4.71995E-04-1.51908E-01-3.00060E-14 2.02439E-13
 -1      3161 2.00434E+01 4.61569E-02-1.06947E-04-1.40819E-01-9.27672E-15 1.75567E-13
 -1      3162 2.00233E+01 5.38360E-02-2.76948E-04-1.41978E-01 4.90448E-15 2.86752E-13
 -1      3163 2.00812E+01 4.25207E-02 3.89421E-04-1.76790E-01-1.13446E-13 1.70859E-13
 -1      3164 2.00649E+01 4.62001E-02 9.17239E-05-1.65665E-01-6.35328E-14 2.11789E-13
 -1      3165 2.00370E+01 5.62855E-02-4.42306E-04-1.68741E-01-3.63160E-14 1.63134E-13
 -1      3166 2.01161E+01 2.45007E-02 2.14194E-04-1.99610E-01 4.55075E-14 7.59321E-14
 -1      3167 2.00954E+01 3.55881E-02 4.10164E-04-1.90710E-01-8.13029E-15 1.57548E-13
 -1      3168 2.00591E+01 4.74621E-02-6.95496E-04-1.97780E-01-2.19542E-14 1.21880E-13
 -1      3169 2.01650E+01-1.23893E-02-9.86715E-05-2.14531E-01-9.41188E-14-1.91078E-14
 -1      3170 2.01388E+01 9.14314E-03 8.89349E-04-2.11209E-01 2.86202E-14 7.35699E-14
 -1      3171 2.00939E+01 2.15884E-02-1.06113E-03-2.25298E-01 6.01949E-14 1.08911E-13
 -1      3172 2.02332E+01-7.42091E-02-6.03597E-04-2.13112E-01-9.12357E-14 6.98259E-15
 -1      3173 2.02002E+01-3.91142E-02 1.56315E-03-2.20005E-01-1.40179E-13-5.99629E-14
 -1      3174 2.01478E+01-2.82395E-02-1.55404E-03-2.45258E-01-7.71935E-14 8.70367E-14
 -1      3175 2.03262E+01-1.65821E-01-1.35613E-03-1.83948E-01-4.22212E-14-7.28250E-14
 -1      3176 2.02855E+01-1.14905E-01 2.43715E-03-2.06999E-01-6.40609E-14-2.11533E-14
 -1      3177 2.02288E+01-1.09076E-01-2.15942E-03-2.48660E-01-9.82154E-14 5.44666E-14
 -1      3178 2.04482E+01-2.87979E-01-2.38994E-03-1.12882E-01-4.41638E-14 4.70505E-14
 -1      3179 2.04002E+01-2.21520E-01 3.45204E-03-1.58951E-01 9.65923E-15 5.96879E-15
 -1      3180 2.03456E+01-2.25979E-01-2.79955E-03-2.22921E-01-1.32341E-14-4.67346E-14
 -1      3181 2.06002E+01-4.32782E-01-3.65310E-03 1.55614E-02 4.21440E-15-5.77500E-14
 -1      3182 2.05472E+01-3.56148E-01 4.42502E-03-6.01607E-02-2.26315E-14 1.84401E-14
 -1      3183 2.05062E+01-3.78164E-01-3.28955E-03-1.51772E-01-1.87594E-16 8.76146E-14
 -1      3184 2.07749E+01-5.77943E-01-4.92059E-03 2.14359E-01-6.38775E-14 1.18972E-13
 -1      3185 2.07228E+01-5.04599E-01 5.00282E-03 1.04981E-01-6.51044E-14 3.88914E-14
 -1      3186 2.07136E+01-5.53113E-01-3.28498E-03-1.65620E-02-8.42564E-14 6.33924E-14
 -1      3187 2.09530E+01-6.81743E-01-5.63707E-03 4.86869E-01-1.55595E-13 2.50326E-13
 -1      3188 2.09121E+01-6.35711E-01 4.62831E-03 3.46350E-01-3.86758E-14 2.51366E-13
 -1      3189 2.09604E+01-7.19737E-01-2.32704E-03 1.99415E-01-1.58274E-13 1.82503E-13
 -1      3190 2.10997E+01-6.82738E-01-4.84715E-03 8.15081E-01-7.79731E-14 2.73356E-13
 -1      3191 2.10835E+01-6.97689E-01 2.60878E-03 6.58036E-01-1.39031E-13 2.67966E-13
 -1      3192 2.12206E+01-8.22181E-01 1.14342E-04 5.02096E-01-9.06905E-14 1.63538E-13
 -1      3193 2.11687E+01-5.13316E-01-1.56401E-03 1.14560E+00-3.54556E-14 2.42806E-13
 -1      3194 2.11901E+01-6.23361E-01-1.31888E-03 1.00378E+00-7.47436E-14 2.62326E-13
 -1      3195 2.14453E+01-7.83299E-01 3.90031E-03 8.70611E-01-1.11048E-13 1.35650E-13
 -1      3196 2.11190E+01-1.33647E-01 4.01975E-03 1.38237E+00 2.47319E-13 2.04841E-13
 -1      3197 2.11823E+01-3.53067E-01-6.81932E-03 1.30427E+00 9.61369E-14 1.67184E-13
 -1      3198 2.15691E+01-5.23957E-01 8.13656E-03 1.23839E+00 4.50168E-14 5.30733E-14
 -1      3199 2.09453E+01 4.20349E-01 1.01741E-02 1.40456E+00 1.50274E-13 2.57958E-13
 -1      3200 2.10380E+01 1.21866E-01-1.18154E-02 1.44182E+00 1.94018E-13 2.76188E-13
 -1      3201 2.15363E+01-1.53629E-02 9.17501E-03 1.48481E+00 1.24337E-13 9.17878E-14
 -1      3202 2.07056E+01 1.00088E+00 1.28370E-02 1.11644E+00 8.44006E-14 2.66055E-13
 -1      3203 2.07961E+01 7.14417E-01-1.22787E-02 1.29766E+00 1.53836E-13 3.32880E-13
 -1      3204 2.13462E+01 6.71440E-01 5.90012E-03 1.46006E+00 1.18842E-13 3.66833E-13
 -1      3205 2.05112E+01 1.39177E+00 7.79015E-03 5.35938E-01 1.05438E-13 2.49253E-13
 -1      3206 2.05656E+01 1.22923E+00-7.36866E-03 8.34548E-01 7.10428E-14 3.42611E-13
 -1      3207 2.10950E+01 1.32934E+00-4.61566E-04 1.07362E+00 1.95885E-14 4.57221E-13
 -1      3208 2.04707E+01 1.42049E+00-1.88119E-03-1.84695E-01-2.48065E-16 3.83573E-13
 -1      3209 2.04688E+01 1.45713E+00 2.33376E-03 1.48055E-01 6.93445E-14 2.42724E-13
 -1      3210 2.09311E+01 1.69749E+00-7.43382E-03 3.72325E-01 4.76709E-14 4.37103E-13
 -1      3211 2.06120E+01 1.06745E+00-9.62289E-03-8.14304E-01-9.15212E-14 2.06561E-13
 -1      3212 2.05551E+01 1.28907E+00 1.17903E-02-5.50655E-01 2.29265E-15 2.21496E-13
 -1      3213 2.09659E+01 1.61811E+00-3.82455E-03-4.20283E-01 3.35591E-14 9.69446E-14
 -1      3214 2.08439E+01 4.98546E-01-1.35517E-02-1.16297E+00-6.92372E-14 1.83422E-13
 -1      3215 2.07633E+01 8.00912E-01 1.25933E-02-1.03514E+00-1.12125E-13 2.25892E-13
 -1      3216 2.11748E+01 1.11119E+00 2.55470E-03-1.02481E+00-7.41362E-14 1.77026E-14
 -1      3217 2.10370E+01-5.92274E-02-1.10698E-02-1.19324E+00 4.91689E-14 1.30643E-13
 -1      3218 2.09696E+01 2.12367E-01 7.89108E-03-1.20273E+00-2.98150E-14 1.46282E-13
 -1      3219 2.14102E+01 4.11955E-01 5.65458E-03-1.27483E+00-3.17821E-14-1.56177E-13
 -1      3220 2.11021E+01-4.39982E-01-4.98344E-03-9.83755E-01-7.99927E-14-6.13710E-15
 -1      3221 2.10737E+01-2.73743E-01 1.26351E-03-1.08743E+00 1.49404E-13 2.35757E-13
 -1      3222 2.15358E+01-2.07153E-01 9.76243E-03-1.18016E+00 3.38388E-14 2.52561E-14
 -1      3223 2.10217E+01-5.94490E-01 3.24236E-04-6.68386E-01-2.50103E-13-1.59670E-13
 -1      3224 2.10390E+01-5.44487E-01-4.03762E-03-8.09972E-01-3.17907E-13-1.23163E-13
 -1      3225 2.14813E+01-5.95909E-01 7.04961E-03-8.72063E-01-9.09509E-14 4.15655E-14
 -1      3226 2.08263E+01-5.63955E-01 6.15947E-04-3.64700E-01-1.82969E-13-7.85632E-14
 -1      3227 2.08850E+01-5.96153E-01-6.28378E-03-4.94051E-01-2.41456E-13-1.69060E-13
 -1      3228 2.12725E+01-7.16594E-01 3.32041E-03-5.06023E-01-2.28171E-13-1.23145E-13
 -1      3229 2.07181E+01-5.04549E-01-1.83854E-03-1.50235E-01-4.19972E-13 6.49419E-14
 -1      3230 2.07492E+01-5.42294E-01-6.43822E-03-2.51150E-01-2.39892E-13-8.46286E-14
 -1      3231 2.10706E+01-6.80554E-01 1.75808E-03-2.12120E-01-3.37760E-13 4.60895E-14
 -1      3232 2.09164E+01-5.79275E-01 7.13164E-03-2.04466E-03-3.89094E-13 5.25620E-14
 -1      3233 1.71461E+01 1.19156E+00-3.26745E-02 1.90446E+00-4.57310E-14 3.94886E-13
 -1      3234 1.78866E+01 8.89786E-01 4.26582E-02 2.37463E+00-4.12235E-14 2.45668E-13
 -1      3235 1.62637E+01 1.93484E+00-1.70135E-02 3.64891E-01-1.61617E-14-8.39511E-14
 -1      3236 1.65875E+01 1.74564E+00 2.55480E-02 1.13011E+00 9.70734E-14 2.49301E-14
 -1      3237 1.63257E+01 1.30259E+00 2.41683E-02 1.88860E+00-9.83840E-14 2.77020E-13
 -1      3238 2.01123E+01-4.82017E-01-1.01679E-02 2.65382E+00 1.16829E-14-4.06940E-13
 -1      3239 2.06842E+01-7.24245E-01 2.24475E-02 2.49091E+00-1.43180E-13-4.23275E-13
 -1      3240 2.64190E+01 6.11165E+00-1.15147E-01 4.51093E-01 3.24074E-13-2.62042E-13
 -1      3241 2.61409E+01 5.83492E+00-9.91316E-02-5.19287E-01 2.00145E-13-2.08625E-13
 -1      3242 1.66582E+01 2.09323E+00-5.92638E-03-1.54058E+00-1.03095E-13-1.99246E-14
 -1      3243 1.63293E+01 2.13278E+00-4.44552E-04-6.26465E-01-2.37693E-13 4.38040E-14
 -1      3244 1.56627E+01 2.00774E+00 3.70021E-02 2.47480E-02-2.25412E-14-1.25142E-13
 -1      3245 1.63701E+01 2.06778E+00 3.19871E-02-1.85764E+00-1.26930E-13-7.24464E-15
 -1      3246 9.76074E+00 1.07458E+00 5.71927E-02-2.11593E+00-4.31443E-14-3.49817E-13
 -1      3247 1.08965E+01 1.74133E-01 8.22815E-02-4.28487E+00-6.19713E-14-2.03185E-13
 -1      3248 2.69294E+01 4.49447E+00-1.06388E-01 1.84933E+00 3.13777E-13-7.50788E-14
 -1      3249 2.66176E+01 5.65291E+00-1.35555E-01 1.18316E+00 3.64431E-13-1.30694E-13
 -1      3250 2.54442E+01 5.05303E+00-7.74169E-02 8.18200E-01 2.57384E-13-1.09584E-13
 -1      3251 2.75088E+01-2.88885E+00-1.34240E-01 3.06651E-01 1.55771E-13-6.55840E-13
 -1      3252 2.69597E+01-3.66001E+00 6.93666E-02 1.46183E+00 8.58324E-14-6.76698E-13
 -1      3253 2.74906E+01 9.48171E-01-1.20585E-01-1.85000E+00-6.78138E-14-5.90764E-13
 -1      3254 2.79626E+01-1.14367E+00 5.38215E-03-9.43130E-01-2.04975E-14-5.33351E-13
 -1      3255 1.49204E+01-1.97673E+00-1.75695E-02 5.95188E+00 8.44533E-14 3.44405E-13
 -1      3256 1.29209E+01-7.93503E-01 1.67007E-01 5.12006E+00 1.53981E-13 3.20577E-15
 -1      3257 2.64903E+01 4.82115E+00-1.18604E-01-1.53863E+00 1.94206E-13-3.72848E-13
 -1      3258 2.70583E+01 3.25741E+00-6.72333E-02-2.01440E+00 1.03098E-13-4.49443E-13
 -1      3259 1.99922E+01-2.94488E-02 1.15900E-04-1.83047E-01 6.80893E-14-3.95255E-14
 -1      3260 1.99960E+01-1.49617E-02 9.10387E-04-1.81986E-01 1.64204E-14-3.54477E-14
 -1      3261 2.00718E+01-7.23271E-04-9.50402E-04-1.70379E-01 2.23144E-14-3.94289E-14
 -1      3262 2.00484E+01-3.66158E-02-7.37690E-04-1.77172E-01 5.66720E-14-2.36400E-14
 -1      3263 2.00442E+01 2.16094E+00-4.28350E-03 2.92243E-01 1.64651E-13-1.44587E-13
 -1      3264 2.00309E+01 2.19962E+00-3.38043E-03 1.70556E-01 1.54071E-13-1.75156E-13
 -1      3265 2.80543E+01-2.91054E+00 3.85913E-02-9.73259E-01 4.84300E-14 1.48784E-13
 -1      3266 2.87213E+01-1.30280E+00-1.69243E-01 4.83792E-01 1.54824E-13 3.26128E-15
 -1      3267 1.86553E+01 2.66206E-01-2.86069E-02 2.68216E+00 7.46213E-14 1.58035E-13
 -1      3268 1.94402E+01-5.25536E-02 3.54975E-02 2.79131E+00 4.06255E-14-1.37375E-13
 -1      3269 1.98000E+01-7.36604E-01-1.58993E-02 3.04623E+00 2.71384E-14-1.61978E-13
 -1      3270 1.79536E+01 2.17471E-01-1.31609E-02 2.96253E+00-3.01929E-15 1.26403E-13
 -1      3271 1.88988E+01-3.46098E+00 1.35737E-01-6.17707E+00-3.75075E-13-2.36280E-13
 -1      3272 2.14860E+01-4.28254E+00-2.52000E-02-5.41566E+00-3.43295E-13-2.42133E-13
 -1      3273 8.95392E+00 8.75459E-01 1.19909E-01-5.30992E-01 3.36316E-13 1.44051E-13
 -1      3274 1.00386E+01 5.22891E-01 9.41693E-02-2.73292E+00 2.01689E-13-5.83811E-13
 -1      3275 1.05337E+01-2.16936E-02 3.91761E-02 3.84034E+00-1.94587E-13 4.82669E-14
 -1      3276 9.25928E+00 8.02471E-01 1.51948E-01 1.53055E+00-1.11291E-14 5.87586E-13
 -1      3277 1.29099E+01 1.40364E-01 1.08718E-01 3.84429E+00-2.35229E-15 2.34715E-13
 -1      3278 1.11980E+01 1.37617E+00 1.10358E-01 2.01848E+00-2.29816E-14-9.13714E-14
 -1      3279 1.04821E+01 1.69094E+00 1.13231E-01-3.06904E-02-2.03696E-14-2.23044E-13
 -1      3280 2.52536E+01-4.61774E+00-1.13641E-01 3.17754E+00-1.41418E-13-5.76596E-13
 -1      3281 2.32755E+01-4.44779E+00 1.13919E-01 4.66804E+00-2.39829E-13-2.08473E-13
 -1      3282 2.02560E+01 1.46264E+00 7.91847E-03 5.86970E-01 1.30603E-13-5.13882E-14
 -1      3283 2.01579E+01 1.80019E+00-7.52141E-03 6.84389E-01 1.50369E-13-8.05300E-14
 -1      3284 2.01226E+01 1.93095E+00-2.67170E-03 5.89273E-01 1.51294E-13-9.46571E-14
 -1      3285 1.32902E+01-7.37487E-02 1.23754E-01-4.46004E+00-9.70543E-14-1.49526E-13
 -1      3286 2.01372E+01 2.17498E+00-9.56891E-03-1.23136E+00-8.32521E-14-1.59219E-13
 -1      3287 2.02139E+01 1.76900E+00-1.84509E-03-1.02884E+00-8.70833E-14-1.32282E-13
 -1      3288 2.01964E+01 1.78210E+00 2.32214E-03-8.95303E-01-7.06148E-14-1.33812E-13
 -1      3289 1.78180E+01-2.51396E+00 8.37199E-02-5.67430E+00-2.30357E-13-1.14311E-13
 -1      3290 1.27427E+01 8.69812E-01 6.60833E-02-3.19554E+00 6.99094E-14-3.86774E-13
 -1      3291 1.42635E+01 6.83860E-02 1.62913E-01 4.35291E+00 9.49588E-14-2.03726E-13
 -1      3292 1.19582E+01 1.60913E+00 1.20792E-01-1.73018E+00 3.23248E-13-2.65205E-13
 -1      3293 1.73450E+01-1.95063E+00 8.40166E-02 5.35685E+00 4.52208E-14 1.71904E-13
 -1      3294 2.21307E+01-3.72884E+00 6.04666E-02 4.56294E+00-2.00440E-13-2.53464E-13
 -1      3295 2.56031E+01-3.81450E+00 1.48913E-02 2.05586E+00-4.67716E-14-6.14599E-13
 -1      3296 2.00899E+01 2.02492E+00-5.44157E-03 5.04308E-01 1.72511E-13-1.00011E-13
 -1      3297 2.00646E+01 2.10533E+00-3.06702E-03 3.91012E-01 1.68272E-13-1.18685E-13
 -1      3298 2.01605E+01 1.84778E+00 5.30164E-03 2.90859E-01 1.46515E-13-1.34178E-13
 -1      3299 2.02021E+01 1.69701E+00 6.26829E-03 4.59587E-01 1.56123E-13-1.02489E-13
 -1      3300 1.54659E+01 1.82503E+00 3.49731E-02-2.43789E+00 2.49670E-13-4.57967E-14
 -1      3301 1.57335E+01 1.95837E+00-9.55748E-04-2.03974E+00 7.80626E-14 1.99615E-14
 -1      3302 1.50518E+01 2.08323E+00-2.46468E-03-1.17122E+00 5.67402E-14-7.67494E-14
 -1      3303 1.38271E+01 1.92368E+00 5.52719E-02-1.58960E+00 3.69189E-13-2.29660E-13
 -1      3304 2.02394E+01 7.72173E-01-1.07855E-04 5.33804E-01 1.41955E-13 2.75779E-14
 -1      3305 2.02865E+01 9.14703E-01 4.68458E-03 7.54536E-01 1.34919E-13 6.02261E-14
 -1      3306 2.01426E+01 1.60473E-01-1.45636E-03-7.76807E-02 8.06373E-14 4.96803E-14
 -1      3307 2.00729E+01 1.50851E-01-1.05085E-03-7.76298E-02 6.22949E-14 2.09944E-14
 -1      3308 2.01050E+01 2.15889E-01 3.55164E-03-2.41131E-02 8.83024E-14 4.51885E-14
 -1      3309 2.15531E+01-3.71706E+00 1.02614E-02-4.71833E+00-3.33143E-13-4.02062E-13
 -1      3310 2.30237E+01-4.31814E+00 7.37495E-02-4.59211E+00-3.76504E-13-3.99953E-13
 -1      3311 2.39773E+01-4.34057E+00-8.01240E-02-3.59636E+00-1.88911E-13-3.10607E-13
 -1      3312 1.20946E+01 7.33900E-01 9.58840E-02 3.32611E+00 1.04562E-13-2.42362E-13
 -1      3313 2.10821E+01-1.26754E+00-2.14995E-02 2.47536E+00-1.25065E-13-3.96365E-13
 -1      3314 2.10954E+01-9.11155E-01 1.66589E-03 2.12397E+00-2.59435E-13-5.27654E-13
 -1      3315 2.13736E+01-1.03920E+00 6.83951E-03 1.81948E+00-1.72740E-13-5.21796E-13
 -1      3316 1.19310E+01 1.65751E+00 7.13809E-02-9.11437E-01-1.76525E-14-2.28331E-13
 -1      3317 2.15133E+01-1.02089E+00 8.88529E-03 1.39931E+00-1.43105E-13-5.03191E-13
 -1      3318 2.15443E+01-1.04742E+00-1.12714E-03 1.07143E+00 9.78021E-15-3.22942E-13
 -1      3319 2.17276E+01-1.37954E+00-9.55506E-03 1.63185E+00-5.15968E-14-5.86704E-13
 -1      3320 2.46097E+01 4.85613E+00-4.07880E-02-4.66512E-01 1.30902E-13-1.67658E-13
 -1      3321 2.56098E+01 4.94186E+00-9.17012E-02-1.06331E+00 9.39387E-14-2.48182E-13
 -1      3322 2.49715E+01 3.92008E+00-4.65693E-02-1.36303E+00 8.17471E-14-3.54274E-13
 -1      3323 2.69368E+01 3.52463E+00-1.23624E-01 2.03452E+00 2.80380E-13 1.84401E-14
 -1      3324 2.56960E+01 3.86023E+00-5.03519E-02 1.86449E+00 2.16244E-13 2.35551E-13
 -1      3325 2.68676E+01 2.59597E+00-2.40197E-02 2.12560E+00 1.37598E-13 1.66575E-13
 -1      3326 2.01184E+01 1.94211E+00-2.35062E-03-5.84121E-01-4.32900E-15-1.17932E-13
 -1      3327 2.01564E+01 1.82356E+00-3.39950E-03-6.79890E-01-3.32067E-14-1.31772E-13
 -1      3328 2.00577E+01 2.35447E+00-5.96756E-03-1.13689E+00-5.20947E-14-1.78840E-13
 -1      3329 2.01249E+01 2.93686E-01-1.88001E-03 4.31045E-02 8.81668E-14 4.68643E-14
 -1      3330 2.01735E+01 3.97476E-01 7.06916E-03 1.32966E-01 9.01285E-14 6.08857E-14
 -1      3331 2.01890E+01 3.16911E-01-1.59495E-03 3.55365E-02 9.25001E-14 9.57122E-14
 -1      3332 2.69648E+01-1.81219E+00-1.21455E-02-5.73679E-01-3.83790E-14-6.22783E-13
 -1      3333 2.17858E+01-1.22791E+00-3.29611E-03 8.88957E-01-1.66148E-14-3.69575E-13
 -1      3334 2.14843E+01-9.30950E-01 8.42317E-03 7.66567E-01 4.51332E-14-1.66553E-13
 -1      3335 2.13823E+01-8.95540E-01-3.38923E-03 5.32284E-01-1.25475E-13-9.40559E-14
 -1      3336 2.00623E+01 2.11152E+00-2.92336E-03-3.83417E-01 8.11646E-14-8.59283E-14
 -1      3337 2.00867E+01 2.03296E+00-5.34536E-03-4.97523E-01 3.57136E-14-1.08048E-13
 -1      3338 2.01991E+01 1.70295E+00 5.86557E-03-4.52093E-01 4.87734E-15-7.94582E-14
 -1      3339 2.55265E+01 2.40535E+00-3.54990E-02-1.94572E+00 1.02834E-14-4.50980E-13
 -1      3340 2.67026E+01 1.69255E+00-7.83813E-02-2.02957E+00-1.99354E-14-4.58255E-13
 -1      3341 2.61467E+01 4.90939E-01 1.70092E-02-1.74770E+00-1.33199E-13-4.45618E-13
 -1      3342 2.80238E+01-3.66205E-01-7.12519E-02 1.22230E+00 9.79564E-14 9.99756E-14
 -1      3343 2.02377E+01 6.95370E-01 9.19914E-03 4.16651E-01 1.22249E-13 4.32983E-14
 -1      3344 2.02544E+01 8.34132E-01-6.48582E-03 5.12266E-01 1.39994E-13 3.38639E-14
 -1      3345 2.02714E+01 1.01563E+00 1.40596E-04 5.17523E-01 1.23389E-13 1.43872E-14
 -1      3346 2.01814E+01 5.28706E-01-3.28983E-03 2.66909E-01 1.01304E-13 4.05219E-14
 -1      3347 2.69270E+01-3.43990E+00 1.61420E-02-1.45148E+00-1.36523E-14 1.46501E-13
 -1      3348 2.00241E+01 2.21884E+00-3.52361E-03 6.59258E-02 1.48237E-13-1.64007E-13
 -1      3349 2.00234E+01 2.21899E+00-3.80262E-03-5.81924E-02 1.36252E-13-1.43818E-13
 -1      3350 2.01374E+01 1.92304E+00 4.94910E-03 1.00936E-01 1.40430E-13-1.67448E-13
 -1      3351 1.07336E+01 1.24561E+00 1.38220E-01 4.26240E-01 6.88668E-14 1.24678E-13
 -1      3352 2.02293E+01 5.60097E-01-4.78388E-03 2.41182E-01 9.51572E-14 3.72968E-14
 -1      3353 2.00302E+01 2.20246E+00-3.13723E-03-1.62676E-01 1.23667E-13-1.24333E-13
 -1      3354 2.00422E+01 2.16462E+00-4.46300E-03-2.84369E-01 1.04546E-13-1.04740E-13
 -1      3355 2.01592E+01 1.85232E+00 5.63430E-03-2.83206E-01 9.19823E-14-8.42166E-14
 -1      3356 2.03036E+01 9.65072E-01 1.11256E-03-3.79821E-01-1.96968E-14-8.42279E-14
 -1      3357 2.02939E+01 7.66422E-01-3.23007E-03-2.53091E-01-1.99065E-15-6.32658E-14
 -1      3358 2.03079E+01 5.99183E-01 2.42235E-03-1.66800E-01 1.39911E-15-4.52646E-14
 -1      3359 2.02858E+01 4.59078E-01-2.51561E-03-7.97289E-02-6.06191E-15-5.61975E-14
 -1      3360 2.03251E+01 7.73174E-01 9.99318E-04-2.11334E-01 1.15079E-15-4.13134E-14
 -1      3361 2.02833E+01 3.45570E-01 2.41478E-03-2.02075E-02-1.46606E-14-3.45081E-14
 -1      3362 2.02578E+01 2.50212E-01-1.71902E-03 3.56494E-02-1.76909E-14-3.66675E-14
 -1      3363 2.03239E+01 4.63226E-01 4.26406E-05-6.21658E-02 8.47602E-16-3.27264E-14
 -1      3364 2.02459E+01 1.74786E-01 1.96052E-03 7.28721E-02-7.85048E-15-1.75004E-14
 -1      3365 2.02224E+01 1.11747E-01-9.72594E-04 1.05393E-01-2.84674E-15-2.48878E-14
 -1      3366 2.02993E+01 2.50600E-01-2.85695E-04 3.80736E-02 5.02001E-16-2.42473E-14
 -1      3367 2.02059E+01 6.29634E-02 1.42210E-03 1.25568E-01-3.78342E-14-1.59990E-14
 -1      3368 2.01860E+01 2.30200E-02-4.31560E-04 1.41575E-01-6.34218E-14-2.08225E-14
 -1      3369 2.02640E+01 1.08116E-01-5.21232E-04 9.86853E-02-2.10376E-14 1.74599E-14
 -1      3370 2.01681E+01-7.00525E-03 9.57682E-04 1.49800E-01-7.47971E-14 4.52713E-15
 -1      3371 2.01521E+01-3.05607E-02-5.42534E-05 1.54726E-01-4.78111E-14 7.65138E-15
 -1      3372 2.02253E+01 1.67704E-02-6.19375E-04 1.30012E-01-4.03792E-14 1.80354E-14
 -1      3373 2.01355E+01-4.67254E-02 6.06460E-04 1.55199E-01-4.08084E-14-2.26547E-15
 -1      3374 2.01236E+01-5.87139E-02 1.69337E-04 1.53546E-01-4.86796E-14-1.31597E-14
 -1      3375 2.01885E+01-3.73507E-02-6.59101E-04 1.41194E-01-5.73093E-14 1.80566E-14
 -1      3376 2.01076E+01-6.69959E-02 3.29142E-04 1.49539E-01-8.28306E-14-2.44320E-14
 -1      3377 2.00981E+01-7.17611E-02 2.90676E-04 1.43961E-01-9.65872E-14-6.98769E-14
 -1      3378 2.01548E+01-6.63385E-02-5.73062E-04 1.39745E-01-1.07729E-13-1.72902E-14
 -1      3379 2.00838E+01-7.35882E-02 1.35528E-04 1.37487E-01-7.88022E-14-1.34963E-13
 -1      3380 2.00768E+01-7.29565E-02 3.63306E-04 1.30206E-01-8.61318E-14-1.73834E-13
 -1      3381 2.01244E+01-7.85585E-02-5.05346E-04 1.30947E-01-1.30700E-13-7.89221E-14
 -1      3382 2.00645E+01-7.04781E-02-7.86315E-06 1.23011E-01-6.66691E-14-1.51237E-13
 -1      3383 2.00596E+01-6.61610E-02 3.99560E-04 1.15587E-01-5.01969E-14-1.33603E-13
 -1      3384 2.00983E+01-7.83615E-02-4.27555E-04 1.18676E-01-5.09469E-14-1.15658E-13
 -1      3385 2.00491E+01-6.07343E-02-1.13094E-04 1.08863E-01-3.49403E-14-9.59197E-14
 -1      3386 2.00457E+01-5.38469E-02 4.12545E-04 1.02402E-01-7.57797E-15-3.56396E-14
 -1      3387 2.00764E+01-6.96886E-02-3.46119E-04 1.05862E-01-2.49735E-14-4.87038E-14
 -1      3388 2.00367E+01-4.62953E-02-1.95912E-04 9.69895E-02 4.92068E-15-6.69483E-14
 -1      3389 2.00344E+01-3.74772E-02 3.96415E-04 9.22943E-02 2.44681E-14-7.36602E-14
 -1      3390 2.00580E+01-5.50765E-02-2.62100E-04 9.45780E-02-1.56211E-14-1.03941E-13
 -1      3391 2.00267E+01-2.86934E-02-2.63230E-04 8.89537E-02-3.85044E-14-7.64189E-14
 -1      3392 2.00254E+01-1.87153E-02 3.92764E-04 8.66427E-02-6.31260E-14-1.51092E-13
 -1      3393 2.00427E+01-3.64830E-02-1.58485E-04 8.64459E-02-2.47172E-14-1.59243E-13
 -1      3394 2.00179E+01-7.83047E-03-3.41766E-04 8.53897E-02-9.26793E-15-1.37658E-13
 -1      3395 2.00168E+01 4.45089E-03 4.04623E-04 8.58022E-02-1.96562E-14-1.00941E-13
 -1      3396 2.00290E+01-1.42133E-02-8.73210E-05 8.22017E-02-3.08807E-14-1.87155E-13
 -1      3397 2.00089E+01 1.72594E-02-4.35219E-04 8.73022E-02 1.01716E-14-2.67965E-14
 -1      3398 2.00076E+01 3.17846E-02 3.96729E-04 9.10755E-02 4.31296E-14-5.88647E-14
 -1      3399 2.00152E+01 1.26836E-02 2.30413E-05 8.26728E-02 6.57853E-14-4.33173E-14
 -1      3400 1.99985E+01 4.70939E-02-5.55619E-04 9.56676E-02 3.34623E-14-3.71080E-14
 -1      3401 1.99963E+01 6.46000E-02 3.78626E-04 1.03323E-01 5.79169E-14-7.39899E-14
 -1      3402 2.00002E+01 4.44915E-02 1.64355E-04 8.87327E-02 1.57351E-14 1.58136E-14
 -1      3403 1.99845E+01 8.33132E-02-7.18120E-04 1.11313E-01 4.03123E-14-1.14499E-13
 -1      3404 1.99804E+01 1.04899E-01 3.35866E-04 1.23410E-01 3.90416E-15-7.15350E-14
 -1      3405 1.99816E+01 8.27214E-02 3.57276E-04 1.00949E-01 4.91389E-14-3.96972E-14
 -1      3406 1.99641E+01 1.28307E-01-9.39093E-04 1.35035E-01-4.96182E-14-8.58909E-14
 -1      3407 1.99563E+01 1.55482E-01 2.38156E-04 1.52163E-01-5.84578E-14-2.70958E-14
 -1      3408 1.99564E+01 1.29608E-01 6.31969E-04 1.19712E-01-2.98824E-14-9.81315E-14
 -1      3409 1.99328E+01 1.85410E-01-1.21728E-03 1.67496E-01-8.70853E-14-3.31067E-14
 -1      3410 1.99185E+01 2.20142E-01 2.11999E-05 1.90203E-01-1.03092E-13-3.94384E-14
 -1      3411 1.99202E+01 1.88172E-01 1.02391E-03 1.45072E-01-9.02465E-14-1.26666E-13
 -1      3412 1.98858E+01 2.56632E-01-1.62740E-03 2.08028E-01-1.57703E-13-6.28903E-14
 -1      3413 1.98628E+01 2.99075E-01-3.43252E-04 2.35073E-01-2.14904E-13-7.57552E-14
 -1      3414 1.98684E+01 2.60463E-01 1.67129E-03 1.75527E-01-1.44259E-13-1.60088E-13
 -1      3415 1.98127E+01 3.48821E-01-2.13151E-03 2.56398E-01-8.11001E-14-7.72084E-15
 -1      3416 1.97720E+01 4.06357E-01-8.95803E-04 2.90709E-01 4.67942E-14 4.74275E-14
 -1      3417 1.97914E+01 3.52105E-01 2.44057E-03 2.10323E-01-8.38738E-14 7.54237E-14
 -1      3418 1.96975E+01 4.71125E-01-2.86050E-03 3.12893E-01 3.09050E-14 1.58181E-14
 -1      3419 1.96305E+01 5.45532E-01-1.92470E-03 3.52207E-01 5.38997E-14 7.24235E-14
 -1      3420 1.96738E+01 4.72203E-01 3.72987E-03 2.46707E-01 4.02754E-15 1.14584E-13
 -1      3421 1.95204E+01 6.29177E-01-3.77937E-03 3.71817E-01 1.05895E-14-2.60847E-15
 -1      3422 1.94125E+01 7.23827E-01-3.60794E-03 4.13770E-01-3.70876E-14-3.74983E-14
 -1      3423 1.94983E+01 6.24729E-01 5.57269E-03 2.77170E-01 3.15098E-14 4.20489E-14
 -1      3424 1.92511E+01 8.29706E-01-4.98133E-03 4.24902E-01-1.02230E-13 6.86327E-15
 -1      3425 1.90810E+01 9.46681E-01-6.25674E-03 4.64777E-01-1.11341E-13-6.69686E-14
 -1      3426 1.92383E+01 8.15111E-01 8.20404E-03 2.90150E-01-7.13540E-14-4.34945E-14
 -1      3427 1.88462E+01 1.07629E+00-6.47209E-03 4.58171E-01-6.01809E-14-9.07836E-14
 -1      3428 1.85830E+01 1.21390E+00-9.97472E-03 4.87977E-01-5.42575E-14-8.71287E-14
 -1      3429 1.88566E+01 1.04508E+00 1.18588E-02 2.67054E-01-1.21391E-13-6.31494E-14
 -1      3430 1.82623E+01 1.35339E+00-9.23137E-03 4.52596E-01-1.42986E-13-6.89916E-14
 -1      3431 1.78881E+01 1.49561E+00-1.56494E-02 4.62717E-01-1.39262E-13-1.33429E-13
 -1      3432 1.83192E+01 1.30197E+00 1.71224E-02 1.83096E-01-8.44690E-14-1.93265E-13
 -1      3433 1.74092E+01 1.64698E+00-1.24398E-02 3.79066E-01-1.82309E-14-1.32931E-13
 -1      3434 1.68246E+01 1.78235E+00-2.29704E-02 3.60551E-01 9.20323E-14-1.13649E-13
 -1      3435 1.75490E+01 1.57058E+00 2.46417E-02 3.62484E-03-6.42904E-14-1.03702E-13
 -1      3436 1.61247E+01 1.90819E+00-1.71207E-02 2.08577E-01 6.92580E-14-1.58276E-13
 -1      3437 1.52319E+01 1.97329E+00-3.48105E-02 1.67520E-01-1.90100E-14-1.68288E-13
 -1      3438 1.64195E+01 1.81153E+00 3.76732E-02-3.31843E-01 3.65166E-14-2.98342E-13
 -1      3439 1.43235E+01 1.96808E+00-9.52774E-03-2.34738E-01-4.18376E-14-1.42972E-13
 -1      3440 1.29929E+01 1.87630E+00-1.78861E-02-3.33765E-01-3.63251E-15-1.75370E-13
 -1      3441 1.28606E+01 1.50855E+00 9.32437E-02-2.26333E+00-4.98698E-14-1.23210E-13
 -1      3442 1.48752E+01 1.87490E+00 6.33135E-02-1.02867E+00-4.94049E-15-1.72637E-13
 -1      3443 2.01601E+01 5.77330E-02-6.26383E-04-1.36434E-01 4.48981E-14 1.18423E-14
 -1      3444 2.01813E+01 1.04538E-01 1.84915E-03-1.12314E-01 6.64443E-14 2.73175E-14
 -1      3445 2.60729E+01-1.24667E+00-1.10552E-01-1.10213E+00-8.91977E-14-4.70570E-13
 -1      3446 2.62428E+01-2.24582E+00 6.10822E-02-2.06138E-01-5.46785E-14-6.24724E-13
 -1      3447 2.00578E+01-6.77153E-02 3.30241E-04-1.44711E-01 1.06544E-13 3.45050E-14
 -1      3448 2.00631E+01-6.62479E-02 1.85695E-04-1.52085E-01 1.24139E-13 5.65686E-14
 -1      3449 1.15443E+01 1.60265E+00 8.88543E-02-6.37422E-01 3.07378E-13-1.83298E-13
 -1      3450 1.28443E+01 1.76553E+00 6.46436E-02-8.45641E-01 2.40250E-13-1.76040E-13
 -1      3451 1.35465E+01 1.92745E+00 4.62858E-02-6.26070E-01 1.35862E-13-3.54067E-13
 -1      3452 1.16203E+01 1.35539E+00 1.62382E-02 1.28997E+00-8.27567E-14 1.18960E-13
 -1      3453 2.00433E+01-6.46090E-02 3.77980E-04-1.28828E-01 2.55963E-14 5.56749E-14
 -1      3454 2.00466E+01-6.71100E-02 1.06278E-05-1.37003E-01 5.58922E-14 4.93942E-14
 -1      3455 2.00856E+01-7.44535E-02-4.44021E-04-1.34142E-01 8.68771E-14 5.28377E-14
 -1      3456 2.00322E+01-5.57786E-02 3.98068E-04-1.13396E-01-6.62155E-14 5.20445E-14
 -1      3457 2.00339E+01-6.09069E-02-1.08952E-04-1.21071E-01-1.74622E-15 5.92863E-14
 -1      3458 2.00657E+01-6.98804E-02-3.56742E-04-1.19777E-01 2.20539E-14 1.69941E-13
 -1      3459 2.00236E+01-4.31686E-02 4.04355E-04-1.00330E-01-3.29206E-14-2.93521E-14
 -1      3460 2.00243E+01-5.00305E-02-1.90687E-04-1.06612E-01-7.44203E-14 2.04877E-14
 -1      3461 2.00494E+01-5.91558E-02-2.77740E-04-1.06062E-01-5.63887E-14 7.41364E-14
 -1      3462 2.00172E+01-2.80531E-02 4.06670E-04-9.09584E-02-6.60585E-14 5.30064E-14
 -1      3463 2.00170E+01-3.60668E-02-2.48235E-04-9.52335E-02-4.99619E-14-1.32730E-14
 -1      3464 2.00361E+01-4.43442E-02-2.08217E-04-9.47920E-02-5.55753E-14 3.48777E-14
 -1      3465 2.00122E+01-1.12740E-02 4.11938E-04-8.62265E-02-3.65620E-14 9.18647E-14
 -1      3466 2.00114E+01-2.00515E-02-2.91122E-04-8.80617E-02-4.36392E-14 6.59293E-14
 -1      3467 2.00250E+01-2.68010E-02-1.48717E-04-8.72393E-02-7.58448E-14 4.91312E-14
 -1      3468 2.00086E+01 6.53299E-03 4.24718E-04-8.68314E-02-4.05340E-14 5.80973E-14
 -1      3469 2.00072E+01-2.69897E-03-3.24648E-04-8.59182E-02-1.15170E-14 6.54605E-14
 -1      3470 2.00156E+01-7.43862E-03-1.00768E-04-8.43443E-02-1.91880E-15 5.05742E-14
 -1      3471 2.00060E+01 2.47065E-02 4.47673E-04-9.32991E-02-4.55874E-14-8.28102E-14
 -1      3472 2.00039E+01 1.53711E-02-3.49606E-04-8.94278E-02-5.12925E-14-1.43120E-14
 -1      3473 2.00073E+01 1.30175E-02-6.76212E-05-8.68502E-02 2.62061E-15-3.06288E-14
 -1      3474 2.00046E+01 4.23044E-02 4.81800E-04-1.05995E-01-4.44351E-14 1.08759E-13
 -1      3475 2.00017E+01 3.33917E-02-3.61629E-04-9.90640E-02-4.48173E-14-1.64530E-14
 -1      3476 1.99998E+01 3.37610E-02-5.57500E-05-9.53798E-02-7.89724E-14-8.72203E-14
 -1      3477 2.00051E+01 5.78117E-02 5.26077E-04-1.25068E-01-1.90282E-14 2.37088E-13
 -1      3478 2.00010E+01 5.01774E-02-3.49873E-04-1.15130E-01-5.58944E-15 1.94835E-13
 -1      3479 1.99933E+01 5.36087E-02-7.65286E-05-1.10456E-01-8.89893E-14 6.69320E-14
 -1      3480 2.00088E+01 6.88105E-02 5.76683E-04-1.50304E-01 5.33521E-14 1.61030E-13
 -1      3481 2.00027E+01 6.38125E-02-2.95253E-04-1.37662E-01 3.67177E-14 1.71526E-13
 -1      3482 1.99884E+01 7.06600E-02-1.48327E-04-1.32458E-01 4.76577E-14 1.08814E-13
 -1      3483 2.00182E+01 7.16319E-02 6.25158E-04-1.80885E-01-8.05488E-15 1.04322E-13
 -1      3484 2.00088E+01 7.13085E-02-1.68509E-04-1.66236E-01 4.35853E-14 1.55986E-13
 -1      3485 1.99868E+01 8.19173E-02-2.97704E-04-1.61494E-01 6.45389E-14 4.71927E-14
 -1      3486 2.00370E+01 6.10475E-02 6.54613E-04-2.15012E-01 3.86362E-14-9.83149E-15
 -1      3487 2.00226E+01 6.82677E-02 7.18949E-05-1.99660E-01-2.98438E-14 9.64425E-14
 -1      3488 1.99913E+01 8.28874E-02-5.61853E-04-1.97164E-01-1.32571E-15 2.63154E-14
 -1      3489 2.00711E+01 3.01285E-02 6.34078E-04-2.49362E-01-5.96329E-14 9.56153E-14
 -1      3490 2.00491E+01 4.86365E-02 4.80597E-04-2.35495E-01 2.26330E-14 1.93350E-14
 -1      3491 2.00069E+01 6.72442E-02-9.86465E-04-2.38166E-01-2.92446E-14 2.76166E-14
 -1      3492 2.01285E+01-2.94851E-02 5.09545E-04-2.78345E-01-1.19190E-13 1.11183E-13
 -1      3493 2.00957E+01 4.73277E-03 1.12256E-03-2.69393E-01-9.42744E-14 1.91713E-13
 -1      3494 2.00409E+01 2.67063E-02-1.62054E-03-2.81668E-01-1.12014E-13 1.24452E-13
 -1      3495 2.02198E+01-1.26517E-01 1.93601E-04-2.93178E-01-8.22064E-14 1.19442E-13
 -1      3496 2.01722E+01-7.21487E-02 2.06176E-03-2.94187E-01-1.18239E-13 1.78189E-13
 -1      3497 2.01041E+01-4.85697E-02-2.50180E-03-3.22377E-01-1.54305E-13 8.95023E-14
 -1      3498 2.03567E+01-2.67614E-01-4.38033E-04-2.80867E-01-2.18698E-14 1.63851E-13
 -1      3499 2.02906E+01-1.90075E-01 3.33506E-03-2.98812E-01-4.92491E-14 1.35580E-13
 -1      3500 2.02101E+01-1.68601E-01-3.62700E-03-3.51236E-01-5.56897E-14 1.73608E-13
 -1      3501 2.05508E+01-4.52818E-01-1.53984E-03-2.23501E-01 3.06035E-14 1.65418E-13
 -1      3502 2.04638E+01-3.53101E-01 4.90070E-03-2.67246E-01 3.39318E-14 1.25800E-13
 -1      3503 2.03755E+01-3.40467E-01-4.89586E-03-3.53805E-01-1.64156E-14 1.39669E-13
 -1      3504 2.08079E+01-6.68165E-01-3.15923E-03-9.87050E-02-1.16031E-13 9.31729E-14
 -1      3505 2.07014E+01-5.55499E-01 6.52572E-03-1.78098E-01 1.73470E-14 1.59440E-13
 -1      3506 2.06165E+01-5.62592E-01-6.04167E-03-3.08712E-01-4.62864E-14 1.86206E-13
 -1      3507 2.11211E+01-8.76529E-01-5.16198E-03 1.16076E-01-2.04761E-13 1.23237E-13
 -1      3508 2.10031E+01-7.72955E-01 7.73643E-03-6.79736E-03-2.36180E-13 9.45435E-14
 -1      3509 2.09431E+01-8.15013E-01-6.41662E-03-1.87512E-01-1.76571E-13 2.36698E-13
 -1      3510 2.14622E+01-1.00837E+00-6.68745E-03 4.35135E-01-7.01833E-14 1.67392E-13
 -1      3511 2.13497E+01-9.54215E-01 7.54583E-03 2.68025E-01-1.11885E-13 2.56457E-13
 -1      3512 2.13491E+01-1.04902E+00-5.15708E-03 4.07308E-02-1.75123E-13 2.74830E-13
 -1      3513 2.17719E+01-9.60159E-01-6.22869E-03 8.42002E-01-7.66888E-14 1.05858E-13
 -1      3514 2.16900E+01-1.01148E+00 4.51564E-03 6.48115E-01 1.15711E-15 1.52897E-13
 -1      3515 2.17963E+01-1.17308E+00-1.42082E-03 3.98157E-01 1.61445E-14 2.75482E-13
 -1      3516 2.19713E+01-6.22167E-01-1.33180E-03 1.26504E+00-2.75051E-15 9.20657E-14
 -1      3517 2.19448E+01-8.34188E-01-1.56966E-03 1.08849E+00-1.29332E-13-8.57887E-15
 -1      3518 2.22050E+01-1.06173E+00 4.45213E-03 8.65417E-01-1.01195E-13 1.56281E-13
 -1      3519 2.19811E+01 5.24225E-02 4.75965E-03 1.55323E+00 4.86549E-14 1.18401E-13
 -1      3520 2.20221E+01-3.29009E-01-1.11475E-02 1.46970E+00 8.98181E-14 6.17776E-14
 -1      3521 2.24628E+01-5.80873E-01 1.24273E-02 1.35056E+00-6.21473E-14 1.10835E-13
 -1      3522 2.18053E+01 9.73909E-01 1.59922E-02 1.52716E+00-2.43906E-14 2.76177E-13
 -1      3523 2.18919E+01 4.90192E-01-1.79699E-02 1.61349E+00-2.34853E-14 1.55565E-13
 -1      3524 2.24797E+01 2.70993E-01 1.07066E-02 1.65578E+00-3.57570E-15 1.87794E-13
 -1      3525 2.15431E+01 1.79924E+00 1.37806E-02 1.04706E+00-5.04939E-14 3.92829E-13
 -1      3526 2.16087E+01 1.39770E+00-2.53784E-02 1.31441E+00-3.74050E-15 3.32280E-13
 -1      3527 2.22472E+01 1.40628E+00 1.43934E-02 1.55734E+00-8.38856E-14 1.49495E-13
 -1      3528 2.13596E+01 2.16395E+00-1.13743E-02 2.20026E-01 1.15483E-13 1.85980E-13
 -1      3529 2.14023E+01 2.05289E+00-1.44995E-02 6.04483E-01 7.65551E-14 3.69212E-13
 -1      3530 2.20143E+01 2.27870E+00 1.94867E-02 9.21202E-01 6.03170E-14 3.22293E-13
 -1      3531 2.14641E+01 1.87785E+00-1.56448E-02-6.74260E-01 1.14167E-13 9.43690E-15
 -1      3532 2.14283E+01 2.12026E+00 9.97770E-03-3.14723E-01 1.43551E-13 1.24554E-13
 -1      3533 2.18965E+01 2.53672E+00 1.25803E-02-8.19501E-02 8.36197E-14 4.95298E-14
 -1      3534 2.17327E+01 1.07600E+00-2.06017E-02-1.25597E+00-6.48405E-14-3.57621E-14
 -1      3535 2.16432E+01 1.53525E+00 1.72390E-02-1.04831E+00-1.06321E-14 2.78258E-14
 -1      3536 2.20939E+01 2.01479E+00 1.34202E-02-9.68589E-01 7.99252E-14 7.54787E-14
 -1      3537 2.19636E+01 1.72995E-01-1.79175E-02-1.36931E+00-1.45627E-13-4.23833E-14
 -1      3538 2.19005E+01 6.31609E-01 1.28227E-02-1.34184E+00-9.07850E-14-5.80347E-14
 -1      3539 2.23712E+01 8.94034E-01-3.62836E-03-1.39416E+00-8.30846E-15 1.86288E-13
 -1      3540 2.20217E+01-5.36309E-01-9.15878E-03-1.10233E+00 3.05342E-14 4.03132E-14
 -1      3541 2.20223E+01-2.24779E-01 3.51567E-03-1.23435E+00-1.10473E-14-6.09695E-14
 -1      3542 2.25424E+01-8.84392E-02 8.73475E-03-1.34978E+00-5.81427E-14 1.22553E-13
 -1      3543 2.18495E+01-8.74636E-01-6.22940E-04-6.78344E-01-1.66696E-13-1.37937E-14
 -1      3544 2.19159E+01-7.46728E-01-4.53362E-03-8.67240E-01-6.76029E-14 5.88935E-14
 -1      3545 2.24408E+01-7.77505E-01 8.33621E-03-9.26772E-01-1.05226E-13-1.64658E-14
 -1      3546 2.15122E+01-8.89667E-01 4.81489E-03-2.59837E-01-2.87596E-13 6.54381E-14
 -1      3547 2.16356E+01-9.14588E-01-7.17802E-03-4.33879E-01-2.53514E-13 1.17667E-13
 -1      3548 2.21028E+01-1.06094E+00 2.97692E-03-4.23410E-01-2.57204E-13 2.31478E-13
 -1      3549 1.49521E+01 1.26950E+00-3.22002E-02 2.01349E+00 7.96333E-14 4.14589E-13
 -1      3550 1.59614E+01 8.74581E-01 6.89497E-02 2.82134E+00-1.49544E-13 3.97232E-13
 -1      3551 1.86477E+01-2.19969E+00-6.77454E-02 4.98892E+00 2.98667E-14-2.03827E-13
 -1      3552 1.66619E+01-8.63331E-01 1.15544E-01 4.69528E+00 9.38034E-14 3.92457E-13
 -1      3553 2.01297E+01 2.07587E+00 2.91454E-03-9.33755E-01-5.14097E-14-1.54172E-13
 -1      3554 2.46097E+01 4.26745E+00-5.63017E-02 1.22938E+00 1.62398E-13 1.01124E-13
 -1      3555 2.43863E+01 4.68384E+00-5.80543E-02 4.54237E-01 1.40721E-13-1.64889E-13
 -1      3556 1.67859E+01-1.50719E+00 7.73150E-02-5.19316E+00-9.15917E-14-7.69176E-14
 -1      3557 1.91539E+01-2.69456E+00-2.06818E-02-5.05437E+00-1.81860E-13-2.10287E-13
 -1      3558 2.12378E+01-7.61729E-01 6.92317E-03 3.25284E-01-1.86658E-13-4.84371E-14
 -1      3559 2.10839E+01-6.98286E-01-1.46784E-03 1.42257E-01-3.34810E-13-1.38644E-14
 -1      3560 2.11851E+01-7.54989E-01 5.86032E-04 4.08322E-02-3.79741E-13 8.32902E-14
 -1      3561 2.15642E+01-9.94052E-01 5.34836E-03 3.83505E-01-1.52781E-13-3.18326E-14
 -1      3562 1.32744E+01 6.46594E-01 1.15019E-02-3.48071E+00-9.13462E-14-1.67165E-13
 -1      3563 1.48998E+01-5.68680E-01 7.29780E-03-4.75877E+00-8.37698E-14-1.47521E-13
 -1      3564 1.66982E+01-7.19807E-01 5.75498E-02-4.30438E+00-1.49845E-14-1.26227E-13
 -1      3565 1.44349E+01 1.07644E+00 5.43146E-02-2.63319E+00-7.15839E-14-1.25592E-13
 -1      3566 1.44341E+01-8.73147E-02-4.82426E-02 4.06763E+00 1.47143E-13 5.11452E-13
 -1      3567 1.30094E+01 9.83253E-01 1.17461E-01 2.73408E+00-5.53932E-14 3.55341E-13
 -1      3568 2.00762E+01-6.22034E-02 2.35635E-04-1.58269E-01 8.10064E-14-4.34380E-15
 -1      3569 2.00842E+01-5.48069E-02 4.38276E-04-1.62963E-01 5.90768E-14 4.04063E-15
 -1      3570 2.01096E+01-6.98022E-02-5.37343E-04-1.46589E-01 7.76279E-14 2.27977E-14
 -1      3571 2.28550E+01-3.78931E+00-9.80919E-02 3.73569E+00-1.19089E-13-2.98718E-13
 -1      3572 2.11297E+01-2.93303E+00 1.01335E-01 4.51917E+00 2.11090E-14-2.75129E-13
 -1      3573 2.58319E+01-3.75287E+00 6.75493E-02-1.97220E+00-4.00049E-14 1.01592E-13
 -1      3574 2.65359E+01-2.88334E+00-8.03401E-02-4.36416E-01-2.77408E-14 1.56344E-13
 -1      3575 2.70425E+01-1.16130E+00-5.42005E-03 9.94191E-01 7.49713E-14 1.64632E-13
 -1      3576 2.70206E+01 5.33053E-01-1.22186E-01 1.84084E+00 8.63754E-14 1.52992E-13
 -1      3577 2.02953E+01 8.48464E-01 8.10682E-03 3.77001E-01 1.03842E-13-7.14972E-15
 -1      3578 2.02724E+01 1.10098E+00-6.98713E-03 4.84327E-01 1.23139E-13-2.03983E-14
 -1      3579 2.02680E+01 6.49566E-01-2.00357E-03 2.30002E-01 7.91667E-14 2.64144E-15
 -1      3580 2.55300E+01-3.37231E+00-9.81275E-02 1.05707E+00-9.87717E-14-6.99094E-13
 -1      3581 2.46423E+01-3.56580E+00 8.63655E-02 2.38332E+00-1.44687E-13-6.22793E-13
 -1      3582 2.01778E+01 1.76376E+00-4.30235E-03-8.02232E-01-5.56985E-14-1.38860E-13
 -1      3583 2.02340E+01 1.55128E+00 3.35767E-03-6.48064E-01-4.85836E-14-1.20919E-13
 -1      3584 2.02567E+01 1.27207E+00-2.65128E-03-4.97073E-01-3.25051E-14-1.03844E-13
 -1      3585 2.02716E+01 1.26499E+00 3.11523E-04-4.16499E-01-1.75333E-14-8.24036E-14
 -1      3586 2.02461E+01 1.62073E-01-7.22027E-04-7.98688E-02 8.46606E-14 1.10417E-14
 -1      3587 2.01972E+01 1.61507E-01-1.08906E-03-8.23160E-02 8.23193E-14 2.78000E-14
 -1      3588 2.02234E+01 2.33113E-01 1.89298E-03-3.68463E-02 9.65279E-14 4.15146E-14
 -1      3589 2.55071E+01-3.51502E-01-1.93491E-02-1.43917E+00-7.96169E-14-2.76782E-13
 -1      3590 2.52409E+01-2.56566E+00-5.42086E-03 3.15981E-01-4.91508E-14-4.89260E-13
 -1      3591 2.00943E+01-2.10730E+00 2.31383E-02 4.20181E+00 1.03372E-14-2.37919E-13
 -1      3592 2.04546E+01-2.96268E+00 7.18096E-02-4.71131E+00-2.73460E-13-3.42809E-13
 -1      3593 2.14185E+01-3.34211E+00-5.47002E-02-4.13811E+00-2.90197E-13-4.15451E-13
 -1      3594 1.93034E+01-2.16426E+00 1.18918E-02-4.46360E+00-1.77580E-13-2.44346E-13
 -1      3595 2.13363E+01-1.64716E+00-6.63929E-04 2.77609E+00 4.98972E-14-3.34361E-13
 -1      3596 2.18688E+01-1.77019E+00 1.47137E-02 2.35089E+00 5.28293E-14-4.27631E-13
 -1      3597 1.41467E+01 1.83197E+00 4.32281E-02 6.77970E-01 2.08631E-13 2.82413E-14
 -1      3598 1.35429E+01 1.38480E+00 7.91199E-02 1.70893E+00 9.63951E-14 2.65295E-13
 -1      3599 2.12586E+01-8.08311E-01-5.39568E-03-7.35168E-02-2.59130E-13 7.10024E-14
 -1      3600 2.21383E+01-1.69934E+00 1.01649E-02 1.77678E+00-1.52648E-14-5.85233E-13
 -1      3601 2.22563E+01-1.68689E+00-3.52728E-03 1.34195E+00-2.35588E-14-6.76209E-13
 -1      3602 2.23800E+01-2.12251E+00-6.82936E-03 2.06591E+00 8.26726E-14-5.29537E-13
 -1      3603 2.39038E+01 4.13372E+00-2.80135E-02-2.57879E-02 1.20917E-13-1.64407E-13
 -1      3604 1.63309E+01-1.63816E-01 3.29356E-02 3.82299E+00 5.61010E-14 3.39709E-13
 -1      3605 2.60936E+01 1.31433E+00-4.50758E-02 1.97897E+00 8.65974E-14 3.66367E-13
 -1      3606 2.01432E+01 2.21250E-02 1.28852E-03-1.51049E-01 3.90867E-14 2.12299E-14
 -1      3607 2.02077E+01 5.43018E-02-7.08522E-04-1.28170E-01 4.89687E-14 2.39535E-14
 -1      3608 2.01271E+01-6.70534E-03-2.11076E-04-1.60853E-01 2.85344E-14 4.34169E-15
 -1      3609 2.46169E+01 3.75537E+00-7.82105E-02 1.48923E+00 2.06026E-13 9.76814E-14
 -1      3610 2.37023E+01 3.57054E+00-8.04861E-03 1.20805E+00 1.08507E-13-2.45458E-13
 -1      3611 2.47211E+01 3.20424E+00-4.90832E-03 1.82548E+00 1.36849E-13 1.07827E-13
 -1      3612 2.64394E+01-2.07641E+00-2.15074E-02 4.86887E-01-2.53885E-14 3.21791E-14
 -1      3613 2.57248E+01-1.12439E+00-1.47099E-02 1.20775E+00 3.68941E-14 1.20690E-13
 -1      3614 2.54291E+01-2.52636E+00-1.55411E-02-1.33148E-01-9.21208E-14 7.21244E-14
 -1      3615 2.22247E+01-1.48517E+00 1.44885E-02 9.27789E-01-1.07771E-13-4.44079E-13
 -1      3616 2.21015E+01-1.40404E+00-8.74660E-03 6.23342E-01-5.62563E-14-3.44353E-13
 -1      3617 2.26199E+01-1.83811E+00 4.07496E-03 1.04892E+00-7.93091E-14-5.96154E-13
 -1      3618 2.02464E+01 1.44228E+00-1.13658E-03-3.07368E-01 3.79382E-14-8.43520E-15
 -1      3619 2.02613E+01 1.34611E+00-4.04057E-03-3.74092E-01-4.45401E-15-4.99157E-14
 -1      3620 2.03158E+01 1.05245E+00 2.13457E-03-2.70394E-01-2.21573E-15-3.52366E-14
 -1      3621 2.45044E+01-3.71693E+00 2.26521E-02-2.49097E+00-1.32210E-13-2.46678E-15
 -1      3622 2.02684E+01 1.24605E+00 1.37077E-05 4.48789E-01 1.16883E-13-5.81721E-14
 -1      3623 2.47982E+01 2.86229E+00-7.05353E-02-1.73638E+00 1.04222E-14-2.80578E-13
 -1      3624 2.46088E+01 1.86409E+00 2.16137E-02-1.79742E+00-2.49731E-14-3.29671E-13
 -1      3625 2.40015E+01 3.27340E+00-7.49184E-03-1.35305E+00 3.19918E-14-3.23627E-13
 -1      3626 2.02215E+01 1.54758E+00-4.17729E-03 2.84735E-01 1.31559E-13-1.16195E-13
 -1      3627 2.02104E+01 1.60653E+00-2.19443E-03 2.01285E-01 1.22386E-13-1.43107E-13
 -1      3628 2.34874E+01-3.23101E+00 2.21855E-03 2.66368E+00-1.01009E-13-5.94663E-13
 -1      3629 1.73403E+01-1.57887E-01-3.06896E-02 3.50475E+00-1.04476E-13 1.58804E-13
 -1      3630 1.86256E+01-6.49785E-01 4.40934E-02 3.76190E+00-9.05174E-14-2.07952E-14
 -1      3631 2.01372E+01 1.92455E+00 5.18682E-03-9.46195E-02 1.30937E-13-1.28665E-13
 -1      3632 2.00991E+01-4.38657E-02 6.71448E-05-1.65524E-01 6.43672E-14 1.76885E-14
 -1      3633 2.01107E+01-2.77350E-02 7.93353E-04-1.64849E-01 3.22688E-14-8.18820E-15
 -1      3634 2.01711E+01-1.30674E-02-7.00251E-04-1.49673E-01 5.27071E-14 3.34651E-14
 -1      3635 2.01382E+01-5.14559E-02-6.27800E-04-1.53470E-01 5.31812E-14-4.26467E-14
 -1      3636 2.02030E+01 1.63947E+00-3.12936E-03 1.30535E-01 1.27119E-13-1.74984E-13
 -1      3637 2.01974E+01 1.65713E+00-3.40336E-03 3.87729E-02 1.31661E-13-1.63918E-13
 -1      3638 2.02841E+01 1.38591E+00 4.66466E-03 1.34412E-01 1.12947E-13-1.49817E-13
 -1      3639 2.02813E+01 5.20125E-01 4.17297E-03 1.29340E-01 6.17451E-14-1.16326E-14
 -1      3640 2.03070E+01 7.46167E-01-6.22821E-03 2.42291E-01 7.84091E-14-5.45898E-14
 -1      3641 2.02377E+01 3.05167E-01-1.19527E-03 1.01896E-03 9.77544E-14 3.07541E-14
 -1      3642 2.02659E+01 4.05061E-01 5.63012E-04 7.35914E-02 7.68243E-14 1.54098E-14
 -1      3643 2.03120E+01 5.03084E-01 4.48232E-04 9.09429E-02 5.62959E-14-6.49798E-14
 -1      3644 2.02839E+01 3.11061E-01-2.67501E-04-4.96879E-03 8.28953E-14-2.91883E-14
 -1      3645 2.16220E+01-9.99583E-01-4.98656E-03 1.46281E-02-2.83105E-13 1.22655E-13
 -1      3646 2.18346E+01-1.12579E+00 2.70421E-03 2.04074E-01-2.25769E-13 1.25895E-13
 -1      3647 2.03559E+01 5.74840E-01 6.23829E-04-9.52441E-02-9.70228E-15-1.80459E-14
 -1      3648 2.03466E+01 4.39187E-01-1.82686E-03-3.25418E-02 7.02143E-16 4.05378E-15
 -1      3649 2.03466E+01 3.25893E-01 1.43773E-03 6.63800E-03 1.12275E-14-8.53824E-15
 -1      3650 2.03277E+01 2.31457E-01-1.42368E-03 4.70628E-02 1.26433E-14-1.12650E-14
 -1      3651 2.03743E+01 4.26069E-01 4.12905E-04-1.97488E-02-3.34204E-15 2.74028E-14
 -1      3652 2.03166E+01 1.55780E-01 1.27540E-03 7.10301E-02-7.47457E-15-1.22548E-14
 -1      3653 2.02951E+01 9.30269E-02-8.06674E-04 9.44388E-02-2.94714E-14-1.47393E-15
 -1      3654 2.03554E+01 2.21194E-01 7.82983E-05 4.50891E-02 1.84700E-15-2.63568E-15
 -1      3655 2.02777E+01 4.41260E-02 9.81748E-04 1.06775E-01-2.86561E-14-1.81870E-14
 -1      3656 2.02565E+01 4.75798E-03-3.22231E-04 1.17949E-01-4.21598E-14-2.35631E-14
 -1      3657 2.03213E+01 8.33704E-02-2.58529E-04 8.35410E-02-4.43783E-14-2.98955E-14
 -1      3658 2.02375E+01-2.35660E-02 7.23176E-04 1.22028E-01-5.62221E-14-8.03046E-15
 -1      3659 2.02190E+01-4.57195E-02-1.23512E-05 1.25142E-01-7.95505E-14-3.97181E-14
 -1      3660 2.02813E+01-2.91326E-03-4.96043E-04 1.02286E-01-4.97925E-14-4.69304E-14
 -1      3661 2.01986E+01-6.23839E-02 4.76477E-04 1.24431E-01-1.11102E-13-3.82585E-14
 -1      3662 2.01814E+01-7.38882E-02 1.74732E-04 1.22620E-01-1.16253E-13-3.97867E-14
 -1      3663 2.02399E+01-5.37512E-02-5.25412E-04 1.07890E-01-9.51596E-14-7.27664E-14
 -1      3664 2.01620E+01-8.07172E-02 2.94457E-04 1.18761E-01-1.51365E-13-3.50879E-14
 -1      3665 2.01474E+01-8.39505E-02 2.94224E-04 1.14169E-01-1.57974E-13-5.15740E-14
 -1      3666 2.01991E+01-8.04130E-02-5.28574E-04 1.05314E-01-1.40877E-13 3.74710E-15
 -1      3667 2.01297E+01-8.41008E-02 1.48260E-04 1.08913E-01-8.16864E-14-6.62633E-14
 -1      3668 2.01175E+01-8.16532E-02 3.56767E-04 1.03242E-01-3.19480E-14-4.70296E-14
 -1      3669 2.01618E+01-8.87878E-02-4.93051E-04 9.80133E-02-1.12468E-13 1.59219E-14
 -1      3670 2.01017E+01-7.72261E-02 3.21705E-05 9.77858E-02-3.63898E-14-2.43006E-14
 -1      3671 2.00917E+01-7.08603E-02 3.79507E-04 9.22663E-02-4.13369E-14-1.83523E-14
 -1      3672 2.01287E+01-8.45653E-02-4.30414E-04 8.88330E-02-2.73196E-14-7.21672E-15
 -1      3673 2.00776E+01-6.32349E-02-6.40671E-05 8.74553E-02-6.71152E-14-6.52318E-14
 -1      3674 2.00693E+01-5.40634E-02 3.63208E-04 8.29578E-02-6.66165E-15-1.13250E-13
 -1      3675 2.00997E+01-7.16105E-02-3.47590E-04 7.98121E-02-7.15619E-14-7.05770E-15
 -1      3676 2.00573E+01-4.45677E-02-1.41250E-04 7.95416E-02 2.78970E-15-1.34539E-13
 -1      3677 2.00505E+01-3.37974E-02 3.42741E-04 7.67599E-02-4.71572E-14-1.00830E-13
 -1      3678 2.00747E+01-5.29381E-02-2.42543E-04 7.25360E-02-2.52665E-14-4.83551E-14
 -1      3679 2.00387E+01-2.18072E-02-2.27165E-04 7.47155E-02-3.13536E-14-1.03772E-13
 -1      3680 2.00322E+01-8.42834E-03 3.22329E-04 7.38623E-02 2.85068E-14-7.53058E-14
 -1      3681 2.00521E+01-2.95510E-02-1.46786E-04 6.76759E-02-2.86465E-14-2.55119E-14
 -1      3682 2.00204E+01 5.65485E-03-3.16099E-04 7.37077E-02 9.28619E-14-6.02003E-14
 -1      3683 2.00137E+01 2.13022E-02 2.73179E-04 7.53096E-02 8.33382E-14-5.68051E-14
 -1      3684 2.00299E+01-1.09728E-03-1.89473E-05 6.58558E-02 6.33008E-14 4.31748E-15
 -1      3685 2.00009E+01 3.78476E-02-4.18800E-04 7.72053E-02 4.17984E-14-6.56963E-14
 -1      3686 1.99931E+01 5.62838E-02 2.00525E-04 8.15418E-02 2.59422E-14-2.62584E-14
 -1      3687 2.00070E+01 3.21935E-02 1.36850E-04 6.76353E-02 7.97509E-14-7.97250E-14
 -1      3688 1.99780E+01 7.59779E-02-5.41805E-04 8.55169E-02 3.84807E-15-1.15040E-13
 -1      3689 1.99676E+01 9.80351E-02 8.76399E-05 9.27702E-02-8.24228E-15-1.17842E-13
 -1      3690 1.99811E+01 7.12919E-02 3.34671E-04 7.31320E-02-2.39323E-14-9.20290E-14
 -1      3691 1.99485E+01 1.21890E-01-6.90590E-04 9.86586E-02-2.00190E-14-1.35271E-13
 -1      3692 1.99336E+01 1.48711E-01-9.61995E-05 1.08855E-01-7.40980E-14-1.38203E-13
 -1      3693 1.99490E+01 1.17772E-01 5.95237E-04 8.20841E-02-5.63134E-14-1.50842E-13
 -1      3694 1.99082E+01 1.78133E-01-8.51431E-04 1.16169E-01-1.00182E-13-6.00593E-14
 -1      3695 1.98859E+01 2.11182E-01-3.93017E-04 1.29021E-01-9.19040E-14-1.43829E-13
 -1      3696 1.99069E+01 1.73754E-01 9.39743E-04 9.36299E-02-7.86393E-14-1.69876E-13
 -1      3697 1.98529E+01 2.45781E-01-1.07780E-03 1.36355E-01-1.41609E-13-1.18415E-13
 -1      3698 1.98216E+01 2.84598E-01-8.63812E-04 1.50381E-01-1.42495E-13-1.24028E-13
 -1      3699 1.98511E+01 2.40093E-01 1.44587E-03 1.05618E-01-9.52092E-14-6.24944E-14
 -1      3700 1.97740E+01 3.30010E-01-1.28301E-03 1.56779E-01-3.52721E-14 5.19075E-16
 -1      3701 1.97243E+01 3.80574E-01-1.57214E-03 1.71868E-01 4.64901E-14 4.90216E-14
 -1      3702 1.97737E+01 3.20878E-01 2.06207E-03 1.15372E-01 2.63872E-15 1.61711E-14
 -1      3703 1.96576E+01 4.37432E-01-1.55317E-03 1.73756E-01-2.85927E-14 1.29845E-13
 -1      3704 1.95827E+01 5.00090E-01-2.70999E-03 1.86221E-01 7.37304E-15 9.11697E-14
 -1      3705 1.96625E+01 4.21950E-01 3.00534E-03 1.17367E-01 6.30316E-14 1.42146E-13
 -1      3706 1.94897E+01 5.70632E-01-1.78300E-03 1.78486E-01-1.92973E-14 8.48307E-14
 -1      3707 1.93775E+01 6.46861E-01-4.45072E-03 1.83167E-01-2.87028E-14 2.28035E-14
 -1      3708 1.95060E+01 5.44078E-01 4.27375E-03 1.02086E-01-4.54664E-14 1.43425E-13
 -1      3709 1.92485E+01 7.32557E-01-1.94780E-03 1.57787E-01-1.56525E-14-6.83100E-14
 -1      3710 1.90821E+01 8.22363E-01-7.04576E-03 1.46304E-01-7.49352E-14 8.99568E-15
 -1      3711 1.92867E+01 6.88318E-01 5.98088E-03 5.49593E-02-1.08821E-13 1.46042E-16
 -1      3712 1.89049E+01 9.22749E-01-1.90792E-03 9.12808E-02-1.66058E-13 1.60533E-14
 -1      3713 1.86610E+01 1.02305E+00-1.04445E-02 5.04370E-02-1.58317E-13-5.05859E-14
 -1      3714 1.89819E+01 8.51524E-01 8.18758E-03-4.61367E-02-1.12453E-13 2.82314E-14
 -1      3715 1.84333E+01 1.12662E+00-2.06026E-03-4.59060E-02-5.61749E-14-9.93365E-14
 -1      3716 1.80998E+01 1.22278E+00-1.56713E-02-1.27439E-01-6.37308E-14-9.13791E-14
 -1      3717 1.85757E+01 1.01802E+00 1.08464E-02-2.27316E-01-1.10098E-13 8.99129E-16
 -1      3718 1.77812E+01 1.32887E+00-1.20048E-03-2.96621E-01-1.09716E-13-2.33042E-14
 -1      3719 1.72804E+01 1.40998E+00-2.26595E-02-4.53738E-01-7.80764E-14-7.28939E-14
 -1      3720 1.80281E+01 1.17028E+00 1.48968E-02-5.32841E-01-8.33238E-14 6.88035E-16
 -1      3721 1.68575E+01 1.48937E+00 1.61042E-03-7.23319E-01-7.60535E-14-9.70513E-14
 -1      3722 1.61379E+01 1.51126E+00-2.80356E-02-9.88403E-01 3.45583E-14-1.80611E-13
 -1      3723 1.72775E+01 1.26338E+00 1.99190E-02-1.03708E+00-8.19289E-14 4.26310E-14
 -1      3724 1.57193E+01 1.47487E+00 1.86799E-02-1.44092E+00 9.14327E-14-2.26790E-13
 -1      3725 1.48093E+01 1.30004E+00-2.70766E-02-1.98364E+00 3.83183E-14-5.00607E-14
 -1      3726 1.54800E+01 6.59213E-01 1.87685E-02-3.05131E+00-1.31848E-14-5.71036E-14
 -1      3727 1.63831E+01 1.15389E+00 2.04956E-02-1.84468E+00 5.75648E-14-8.52348E-14
 -1      3728 2.02496E+01 1.37813E+00-6.58332E-03 4.12135E-01 1.27323E-13-1.12961E-13
 -1      3729 2.02356E+01 1.48256E+00-1.51979E-03 3.44872E-01 1.32625E-13-1.21870E-13
 -1      3730 2.02980E+01 1.28617E+00 5.69222E-03 2.51564E-01 1.05086E-13-1.11857E-13
 -1      3731 1.41587E+01 1.97170E+00 9.05137E-03-4.10734E-01 7.24997E-14-2.93057E-13
 -1      3732 2.45984E+01 2.71910E-01-8.48806E-02-1.71175E+00 5.33818E-15-2.86902E-13
 -1      3733 2.48865E+01-7.79860E-01 5.15375E-02-1.22396E+00-5.75408E-14-2.54964E-13
 -1      3734 2.05440E+01-1.36069E+00 3.56341E-02 3.30162E+00-2.26074E-14-1.76993E-13
 -1      3735 2.12219E+01-2.07883E+00-2.81365E-02 3.27544E+00 8.92105E-14-3.76126E-13
 -1      3736 2.00480E+01-4.32792E-02 3.91905E-04-8.51956E-02-4.44841E-14 1.04219E-13
 -1      3737 2.00538E+01-5.23520E-02-1.33508E-04-8.96028E-02-6.06782E-14 1.12327E-13
 -1      3738 2.00327E+01-2.34295E-02 3.88655E-04-7.95825E-02-1.77978E-14 3.55175E-14
 -1      3739 2.00374E+01-3.38397E-02-2.03385E-04-8.19950E-02-3.61062E-15 7.66401E-14
 -1      3740 2.00535E+01-4.16488E-02-2.13107E-04-7.67242E-02 9.40209E-15 1.08252E-13
 -1      3741 2.00190E+01-1.58485E-03 3.90759E-04-7.85214E-02 1.23281E-14-1.76867E-14
 -1      3742 2.00229E+01-1.29215E-02-2.66357E-04-7.85115E-02-2.75028E-15 2.51870E-15
 -1      3743 2.00345E+01-1.92919E-02-1.35424E-04-7.29540E-02 1.71146E-14 8.58085E-14
 -1      3744 2.00064E+01 2.15322E-02 4.05437E-04-8.27755E-02-7.78825E-16-3.12372E-14
 -1      3745 2.00097E+01 9.62618E-03-3.25426E-04-7.99883E-02 3.96140E-14-2.31755E-14
 -1      3746 2.00168E+01 5.21707E-03-6.58143E-05-7.36424E-02 1.21912E-14-3.08965E-15
 -1      3747 1.99943E+01 4.50817E-02 4.39601E-04-9.30632E-02-1.58713E-13 2.72205E-14
 -1      3748 1.99972E+01 3.30575E-02-3.80079E-04-8.71871E-02-1.11837E-13 1.89749E-14
 -1      3749 1.99999E+01 3.10920E-02-1.09453E-05-7.96361E-02-8.35676E-14 7.29495E-14
 -1      3750 1.99829E+01 6.77844E-02 5.00647E-04-1.10094E-01-6.04007E-14 9.17069E-14
 -1      3751 1.99851E+01 5.63558E-02-4.24972E-04-1.00859E-01-1.08949E-13 8.94266E-14
 -1      3752 1.99830E+01 5.73651E-02 1.83583E-05-9.18274E-02-1.46442E-13 1.41471E-13
 -1      3753 1.99729E+01 8.75452E-02 5.95830E-04-1.34554E-01 1.13989E-13 7.20766E-14
 -1      3754 1.99737E+01 7.78875E-02-4.47803E-04-1.21759E-01 4.30005E-14 7.19611E-14
 -1      3755 1.99661E+01 8.25266E-02 4.68060E-06-1.11216E-01 1.93141E-14 5.28530E-14
 -1      3756 1.99659E+01 1.01022E-01 7.32243E-04-1.67008E-01-1.90209E-14 8.61239E-14
 -1      3757 1.99644E+01 9.49939E-02-4.26899E-04-1.50599E-01 1.02297E-13 1.18633E-13
 -1      3758 1.99499E+01 1.04093E-01-7.98341E-05-1.38930E-01 5.47476E-14 1.20197E-13
 -1      3759 1.99655E+01 1.03178E-01 9.13209E-04-2.07706E-01-2.91047E-14 8.75253E-14
 -1      3760 1.99597E+01 1.03555E-01-3.27803E-04-1.87904E-01-6.69738E-14 7.54605E-14
 -1      3761 1.99364E+01 1.18135E-01-2.74676E-04-1.76159E-01-3.07809E-14 1.52429E-13
 -1      3762 1.99774E+01 8.68447E-02 1.13210E-03-2.56204E-01-4.48097E-14 1.38200E-13
 -1      3763 1.99642E+01 9.75343E-02-9.75276E-05-2.33733E-01 7.14731E-15 1.30376E-13
 -1      3764 1.99294E+01 1.18745E-01-6.35694E-04-2.23999E-01-7.20769E-14 1.49530E-13
 -1      3765 2.00102E+01 4.25159E-02 1.36101E-03-3.10713E-01-1.42586E-13 3.95043E-14
 -1      3766 1.99854E+01 6.86312E-02 3.39712E-04-2.87161E-01-5.93639E-14 8.59144E-14
 -1      3767 1.99356E+01 9.75479E-02-1.23495E-03-2.83053E-01-1.84354E-14 1.05760E-13
 -1      3768 2.00768E+01-4.13707E-02 1.52990E-03-3.67036E-01-1.47657E-13-9.57033E-15
 -1      3769 2.00344E+01 6.27914E-03 1.08671E-03-3.45395E-01-1.77587E-13 2.97881E-14
 -1      3770 1.99654E+01 4.34473E-02-2.15621E-03-3.52677E-01-1.33465E-13 1.20162E-15
 -1      3771 2.01938E+01-1.77099E-01 1.49630E-03-4.16928E-01 6.17887E-16 2.05781E-14
 -1      3772 2.01267E+01-1.01632E-01 2.26472E-03-4.02359E-01-7.53364E-14 2.48507E-15
 -1      3773 2.00342E+01-5.70553E-02-3.48160E-03-4.29625E-01-6.18166E-14-1.73164E-14
 -1      3774 2.03814E+01-3.74425E-01 1.03191E-03-4.45811E-01-1.72053E-14 2.26209E-14
 -1      3775 2.02821E+01-2.66605E-01 3.98870E-03-4.46593E-01 1.56852E-14 6.82968E-14
 -1      3776 2.01629E+01-2.18319E-01-5.26461E-03-5.05816E-01 2.67072E-15-3.35993E-14
 -1      3777 2.06604E+01-6.34353E-01-2.86560E-04-4.30266E-01-1.21501E-13 2.09873E-13
 -1      3778 2.05232E+01-4.94905E-01 6.30106E-03-4.58568E-01-1.22040E-13 1.61451E-13
 -1      3779 2.03777E+01-4.51547E-01-7.43609E-03-5.65019E-01-1.27592E-13 1.58663E-13
 -1      3780 2.10455E+01-9.36741E-01-2.52148E-03-3.35633E-01-2.99426E-13 2.96448E-13
 -1      3781 2.08704E+01-7.79254E-01 8.98451E-03-4.07571E-01-1.34535E-13 2.65515E-13
 -1      3782 2.07074E+01-7.57612E-01-9.87446E-03-5.78720E-01-1.81374E-13 2.68649E-13
 -1      3783 2.15333E+01-1.22976E+00-6.07178E-03-1.21513E-01-1.02725E-13 2.55470E-13
 -1      3784 2.13312E+01-1.08439E+00 1.16641E-02-2.53620E-01-2.73999E-13 2.43768E-13
 -1      3785 2.11751E+01-1.11083E+00-1.15342E-02-5.02254E-01-2.60572E-13 1.58680E-13
 -1      3786 2.20834E+01-1.39916E+00-9.42436E-03 2.53006E-01-5.15728E-14 2.06944E-13
 -1      3787 2.18833E+01-1.33343E+00 1.22836E-02 5.25036E-02-4.76036E-14 2.43086E-13
 -1      3788 2.17854E+01-1.44017E+00-9.58605E-03-2.77998E-01-1.33125E-13 1.22299E-13
 -1      3789 2.26012E+01-1.27669E+00-9.91856E-03 7.73753E-01-1.32633E-13 2.56570E-13
 -1      3790 2.24444E+01-1.37835E+00 8.31858E-03 5.27472E-01-5.69629E-15 3.53123E-13
 -1      3791 2.24775E+01-1.60233E+00-7.09640E-03 1.57340E-01-7.66952E-14 3.12134E-13
 -1      3792 2.29683E+01-6.78695E-01 8.89120E-04 1.35230E+00-1.15978E-14 2.46120E-13
 -1      3793 2.28940E+01-1.05083E+00-1.10737E-03 1.12020E+00-9.23502E-14 2.44281E-13
 -1      3794 2.31407E+01-1.38375E+00-1.64129E-03 7.90903E-01-8.33667E-14 4.04525E-13
 -1      3795 2.29976E+01 4.12140E-01-4.28209E-03 1.70169E+00 4.38731E-14 1.97747E-13
 -1      3796 2.30416E+01-1.70593E-01-1.77896E-02 1.63492E+00 1.65679E-14 2.11465E-13
 -1      3797 2.35735E+01-5.80071E-01 1.45032E-02 1.45194E+00 8.02906E-15 3.27259E-13
 -1      3798 2.27229E+01 2.91986E+00-1.07444E-02 9.17450E-01 7.98805E-14 2.72464E-14
 -1      3799 2.27968E+01 2.45084E+00-5.22009E-02 1.39490E+00 8.05312E-14 7.07438E-14
 -1      3800 2.29355E+01 3.15297E+00-4.19384E-02-7.11026E-01 1.02221E-13-2.90766E-14
 -1      3801 2.28767E+01 3.41026E+00-1.86109E-02-1.63889E-01 6.03267E-14-6.52551E-14
 -1      3802 2.29875E+01 1.89841E+00-1.05167E-02-1.45755E+00-5.95921E-15-3.85872E-14
 -1      3803 2.28263E+01 2.46023E+00-4.01880E-03-1.06730E+00 8.32667E-17-1.82597E-14
 -1      3804 2.31251E+01 1.21450E+00-2.43782E-02-1.57194E+00 1.38869E-14-2.53884E-14
 -1      3805 2.32790E+01-4.50126E-01-1.20797E-02-1.31739E+00 9.02230E-15 5.49772E-14
 -1      3806 2.32704E+01 1.60480E-01 1.82092E-02-1.50710E+00-7.70651E-15 9.38676E-14
 -1      3807 2.28491E+01-1.19677E+00 1.38965E-03-6.46964E-01-2.37038E-13 5.08142E-14
 -1      3808 2.29544E+01-9.60221E-01-4.68287E-03-8.87158E-01-8.84768E-14 1.12612E-13
 -1      3809 2.28529E+01-2.56964E+00-6.00767E-03 2.22587E+00-8.55999E-15-4.86988E-13
 -1      3810 2.31567E+01-2.47051E+00-1.97171E-02 1.58597E+00-2.81780E-14-4.61767E-13
 -1      3811 2.47532E+01-2.08978E+00-7.86498E-02-3.34243E-01-1.51184E-13-3.98434E-13
 -1      3812 2.45650E+01-2.52282E+00 5.05092E-02 6.36847E-01-9.46170E-14-5.29379E-13
 -1      3813 2.00657E+01-6.02420E-02 3.91837E-04-9.44738E-02-4.71764E-14 1.41401E-13
 -1      3814 2.00729E+01-6.73722E-02-5.04150E-05-1.00322E-01-4.47062E-15 2.02648E-13
 -1      3815 2.00748E+01-6.09327E-02-2.94522E-04-8.40597E-02-1.73281E-14 2.05556E-13
 -1      3816 2.02257E+01 1.55283E+00-1.70380E-03-1.68250E-01 1.09687E-13-6.29507E-14
 -1      3817 2.02338E+01 1.49589E+00-4.56102E-03-2.50743E-01 6.87449E-14-4.05514E-14
 -1      3818 2.03172E+01 1.19568E+00 4.06314E-03-1.88732E-01 4.50647E-14-2.48591E-15
 -1      3819 2.01394E+01-7.64992E-02 2.44706E-04-1.30593E-01 6.44273E-14 5.22983E-14
 -1      3820 2.01532E+01-7.00694E-02 3.78067E-04-1.34771E-01 4.60592E-14 1.44410E-15
 -1      3821 2.02079E+01 1.62701E+00-2.23047E-03-2.39880E-02 1.27884E-13-1.39788E-13
 -1      3822 2.02093E+01 1.60648E+00-4.17620E-03-1.14227E-01 1.21084E-13-1.05420E-13
 -1      3823 2.03049E+01 1.30291E+00 4.16827E-03-9.22536E-02 8.95443E-14-6.92290E-14
 -1      3824 2.02875E+01 1.38723E+00 4.40000E-03 1.33689E-02 1.08412E-13-1.50069E-13
 -1      3825 2.22232E+01-1.36019E+00 6.03731E-04 2.14933E-01-1.48425E-13-1.35713E-14
 -1      3826 2.53988E+01 5.03839E-01 2.88298E-03 1.88576E+00 9.32900E-14 2.60546E-13
 -1      3827 2.49806E+01 1.96670E+00-8.58650E-02 2.04685E+00 1.17507E-13 2.50949E-13
 -1      3828 2.00865E+01-7.29786E-02 3.77529E-04-1.06281E-01 2.10036E-15 2.21780E-13
 -1      3829 2.00955E+01-7.72281E-02 5.48844E-05-1.12806E-01 5.16644E-14 2.11046E-13
 -1      3830 2.00992E+01-7.57827E-02-3.75361E-04-9.38972E-02 1.06913E-14 2.73658E-13
 -1      3831 1.96138E+01-1.01339E+00 6.96994E-03 3.45503E+00 2.75040E-15-3.63425E-14
 -1      3832 2.03140E+01 1.08164E+00 7.46412E-03 3.33990E-01 1.10788E-13-8.56354E-14
 -1      3833 2.03367E+01 8.81178E-01-9.57136E-04-2.19545E-01 4.35118E-15-2.30016E-14
 -1      3834 2.03452E+01 6.98875E-01-1.31241E-03-1.34440E-01-1.52480E-15-1.25221E-14
 -1      3835 2.03702E+01 6.80643E-01 1.23160E-03-1.02088E-01-1.12079E-15 6.17556E-14
 -1      3836 2.03395E+01 9.69805E-01 1.10981E-03-1.91332E-01 2.37926E-14 3.18075E-14
 -1      3837 2.03217E+01 8.90938E-01-3.21409E-04 2.28086E-01 7.65643E-14-1.00103E-13
 -1      3838 2.34501E+01-3.46743E+00 7.97247E-02-2.98478E+00-2.58043E-13-8.92064E-14
 -1      3839 2.44907E+01-3.33486E+00-5.36260E-02-1.55781E+00-6.84492E-14 2.05783E-13
 -1      3840 2.01109E+01-7.94288E-02 3.34830E-04-1.19056E-01 4.80868E-14 1.41055E-13
 -1      3841 2.01221E+01-7.93763E-02 1.94005E-04-1.25177E-01 5.40585E-14 1.09491E-13
 -1      3842 2.01274E+01-8.40999E-02-4.49833E-04-1.04835E-01 8.75309E-15 2.21146E-13
 -1      3843 2.03244E+01 1.03231E+00-4.66303E-03 2.21136E-01 9.35035E-14-1.33371E-13
 -1      3844 2.03237E+01 1.10485E+00-1.26633E-03 1.73284E-01 9.29253E-14-1.30281E-13
 -1      3845 2.38394E+01-2.85406E+00-1.36291E-03-1.24109E+00-1.67159E-13 1.10740E-13
 -1      3846 2.48925E+01-2.87181E+00 2.10756E-02-6.96045E-01-8.25941E-14 1.41314E-13
 -1      3847 2.46269E+01-2.20615E+00-1.17371E-02 1.64160E-01-1.28089E-13 3.69973E-14
 -1      3848 2.40090E+01 9.84176E-01-1.51526E-02-1.66498E+00 2.15158E-14-2.30975E-13
 -1      3849 2.10482E+01-2.42957E+00-3.41279E-02 3.80279E+00 4.08840E-14-3.98728E-13
 -1      3850 2.21960E+01-2.53105E+00 6.02057E-02 3.18696E+00 7.27357E-14-5.49945E-13
 -1      3851 1.88046E+01-1.44830E+00 4.07194E-02-3.99461E+00-1.18997E-13 3.26059E-14
 -1      3852 1.96412E+01-1.99479E+00-5.37973E-02-3.84057E+00-2.20130E-13-2.08141E-13
 -1      3853 2.21673E+01-2.97624E+00 2.55719E-02-3.17597E+00-2.63343E-13-1.97156E-13
 -1      3854 2.01963E+01-6.70828E-02-5.49727E-04-1.21477E-01 4.37019E-14 4.24353E-14
 -1      3855 2.01720E+01-5.97121E-02 8.36532E-05-1.37780E-01 5.86580E-14-3.60225E-14
 -1      3856 2.01885E+01-4.39413E-02 6.21641E-04-1.37862E-01 6.35187E-14-2.08453E-14
 -1      3857 2.33295E+01 9.38788E-01-2.74526E-02 1.85033E+00 1.81626E-14 1.79817E-13
 -1      3858 2.40098E+01 5.23114E-01-1.79891E-02 1.86705E+00 1.07997E-13 2.02762E-13
 -1      3859 2.32090E+01 1.66755E+00-2.11715E-03 1.69021E+00 1.68442E-14 1.02815E-13
 -1      3860 2.37308E+01-9.12356E-01-2.18941E-02-1.05983E+00-9.72408E-14 5.82125E-14
 -1      3861 2.23135E+01-1.33108E+00-3.46589E-03-6.08833E-02-2.33985E-13 1.00029E-13
 -1      3862 2.25249E+01-1.31727E+00-1.06895E-02-2.94494E-01-2.81663E-13-2.33851E-14
 -1      3863 2.42345E+01-1.23281E+00-1.45524E-03-8.15872E-01-1.35289E-13-3.47410E-13
 -1      3864 2.40575E+01-2.43169E+00 2.23755E-02 8.06012E-01-9.30432E-14-5.38406E-13
 -1      3865 2.41788E+01-3.03745E+00-8.50178E-03 1.59631E+00-3.78152E-14-4.94248E-13
 -1      3866 2.03219E+01 1.14710E+00-2.65015E-03 1.34820E-01 1.20269E-13-1.36835E-13
 -1      3867 2.03192E+01 1.18149E+00-1.75810E-03 7.77437E-02 1.11410E-13-1.46467E-13
 -1      3868 2.03658E+01 9.37597E-01 2.66004E-03 1.11018E-01 1.00079E-13-1.60250E-13
 -1      3869 2.41512E+01 2.19839E+00 1.74111E-03 1.85264E+00 6.29670E-14-8.55080E-14
 -1      3870 1.93128E+01-1.45107E+00 3.68753E-02 4.12863E+00-8.37438E-14-1.25452E-13
 -1      3871 1.62192E+01 7.96830E-02 2.30668E-02-3.52847E+00-9.82938E-16-1.20425E-14
 -1      3872 1.76381E+01-9.32892E-01-1.50769E-02-3.97529E+00-2.31252E-14 8.71872E-15
 -1      3873 1.82735E+01-7.20659E-01 1.78968E-02-3.40942E+00-6.18360E-14 1.20348E-13
 -1      3874 1.66697E+01 4.51202E-01 3.87111E-02-2.81685E+00 1.53395E-14-1.14587E-14
 -1      3875 2.01598E+01-8.27237E-02-5.10646E-04-1.14933E-01 2.91357E-14 9.50756E-14
 -1      3876 2.35775E+01-2.35066E+00 1.80304E-02 9.87946E-01-1.47566E-14-5.73726E-13
 -1      3877 2.30448E+01-2.00902E+00 1.52618E-02 9.26919E-01-5.64353E-14-5.51503E-13
 -1      3878 2.28534E+01-1.84013E+00-2.01703E-02 5.51545E-01-1.04299E-13-4.78881E-13
 -1      3879 2.36523E+01-2.10454E+00-4.53498E-02 2.34158E-01-7.81528E-14-3.32602E-13
 -1      3880 2.32962E+01-2.84176E+00-2.61213E-02 2.17348E+00 3.62474E-14-4.90012E-13
 -1      3881 2.53568E+01-6.78071E-01-4.26392E-02 1.50506E+00 1.55228E-13 2.86262E-13
 -1      3882 2.45734E+01 1.48464E-01 5.76749E-03 1.76974E+00 1.62963E-13 2.71274E-13
 -1      3883 2.41112E+01-3.61581E-01 9.23044E-03 1.59980E+00 1.49098E-13 2.29930E-13
 -1      3884 2.48964E+01-1.31185E+00-1.47866E-03 1.04783E+00 5.82893E-14 3.92908E-14
 -1      3885 2.30785E+01-1.51118E+00-2.26681E-03-2.58597E-01-2.19029E-13 1.15676E-13
 -1      3886 2.02459E+01 4.33351E-02-5.78326E-04-1.20302E-01 6.36638E-14-1.60375E-14
 -1      3887 2.02674E+01 9.18203E-02 1.38785E-03-1.02305E-01 3.28954E-14-6.43734E-15
 -1      3888 2.03519E+01 7.54574E-01 2.92937E-03 1.49124E-01 5.76392E-14-1.08829E-13
 -1      3889 2.03151E+01 1.44056E-01-7.03940E-05-7.59223E-02 4.02191E-14-7.66977E-14
 -1      3890 2.02820E+01 1.50684E-01-1.09514E-03-8.14796E-02 5.52266E-14-1.33687E-14
 -1      3891 2.03037E+01 2.22710E-01 4.87035E-04-4.67668E-02 8.46470E-14-2.39415E-14
 -1      3892 2.03493E+01 5.00783E-01-1.29904E-04 5.60327E-02 3.92881E-14-9.98150E-14
 -1      3893 2.03565E+01 6.11029E-01-8.23511E-04 1.09884E-01 3.20099E-14-1.26364E-13
 -1      3894 2.03716E+01 7.51666E-01 7.66594E-04 1.08730E-01 6.29966E-14-1.94031E-13
 -1      3895 2.01414E+01-8.67602E-02 3.36056E-04-8.75726E-02-4.06370E-15 1.71396E-13
 -1      3896 2.01567E+01-8.87588E-02 1.88120E-04-9.21912E-02-7.66858E-15 1.56307E-13
 -1      3897 2.03886E+01 2.80374E-01 7.44905E-04 2.14225E-02-8.15820E-15-4.42550E-15
 -1      3898 2.03726E+01 1.91909E-01-1.01127E-03 4.73742E-02-3.42192E-14-4.25548E-14
 -1      3899 2.03596E+01 1.20699E-01 7.32456E-04 5.97061E-02-3.60346E-14-3.64986E-14
 -1      3900 2.03387E+01 6.25322E-02-5.05762E-04 7.43469E-02-5.62914E-14-4.37381E-14
 -1      3901 2.03876E+01 1.73884E-01 2.14421E-04 3.95406E-02-5.39688E-14-4.23907E-14
 -1      3902 2.03204E+01 1.91393E-02 6.22315E-04 7.97715E-02-5.78187E-14-4.55680E-14
 -1      3903 2.02992E+01-1.56907E-02-1.57164E-04 8.64003E-02-4.90220E-14-5.24969E-14
 -1      3904 2.03521E+01 5.09619E-02-2.01921E-04 5.89331E-02-6.61830E-14-2.57170E-14
 -1      3905 2.02770E+01-4.33419E-02 4.69220E-04 8.77652E-02-5.07030E-14-5.73806E-14
 -1      3906 2.02553E+01-6.38237E-02 6.84302E-05 8.93639E-02-8.25415E-14-2.83582E-14
 -1      3907 2.03092E+01-2.61039E-02-3.77777E-04 6.77501E-02-5.05047E-14-7.07686E-15
 -1      3908 2.02327E+01-7.77953E-02 3.53948E-04 8.77335E-02-1.28569E-13-4.61667E-14
 -1      3909 2.02126E+01-8.66787E-02 2.24100E-04 8.60245E-02-1.30645E-13-2.31108E-14
 -1      3910 2.02632E+01-7.12425E-02-5.04052E-04 6.95003E-02-8.80712E-14-4.30610E-14
 -1      3911 2.01910E+01-9.11268E-02 2.51844E-04 8.28687E-02-1.17199E-13-2.89005E-15
 -1      3912 2.01731E+01-9.19955E-02 3.08512E-04 7.94760E-02-7.55282E-14 2.15652E-14
 -1      3913 2.02185E+01-9.15278E-02-5.32759E-04 6.67466E-02-8.81124E-14-4.85240E-14
 -1      3914 2.01532E+01-8.98943E-02 1.53958E-04 7.57525E-02-3.62236E-14 1.18271E-14
 -1      3915 2.01376E+01-8.52155E-02 3.39414E-04 7.18518E-02-3.07383E-14-1.17862E-14
 -1      3916 2.01772E+01-9.44970E-02-5.04640E-04 6.16565E-02-5.24475E-14 9.17109E-15
 -1      3917 2.01196E+01-7.85838E-02 6.62777E-05 6.82757E-02-5.65070E-14-2.71703E-14
 -1      3918 2.01060E+01-7.00330E-02 3.25360E-04 6.46974E-02-6.31977E-14-3.30056E-14
 -1      3919 2.01399E+01-8.54650E-02-4.33329E-04 5.59034E-02-4.34285E-14-5.70113E-14
 -1      3920 2.00905E+01-6.06862E-02-5.73996E-06 6.18783E-02-6.30344E-14-6.00673E-16
 -1      3921 2.00791E+01-4.99422E-02 2.94749E-04 5.92923E-02-1.06297E-14 3.85129E-15
 -1      3922 2.01073E+01-6.86055E-02-3.38026E-04 5.07565E-02-6.64324E-14 3.32687E-14
 -1      3923 2.00640E+01-3.76686E-02-9.17811E-05 5.71950E-02-2.51568E-14 1.28788E-14
 -1      3924 2.00529E+01-2.40029E-02 2.53856E-04 5.57413E-02-3.26886E-14 2.79822E-14
 -1      3925 2.00777E+01-4.58031E-02-2.30361E-04 4.67004E-02-2.94292E-14 7.17420E-14
 -1      3926 2.00383E+01-9.45127E-03-1.71699E-04 5.47079E-02-1.85803E-15 3.30517E-14
 -1      3927 2.00273E+01 6.49803E-03 1.81192E-04 5.47797E-02 7.63379E-14-1.29998E-14
 -1      3928 2.00492E+01-1.74319E-02-9.84364E-05 4.41666E-02-1.12179E-14 6.51785E-14
 -1      3929 2.00124E+01 2.34201E-02-2.56373E-04 5.48390E-02 8.51480E-14-5.14654E-14
 -1      3930 2.00004E+01 4.18980E-02 7.98782E-05 5.65401E-02 3.43000E-14-4.20791E-14
 -1      3931 2.00210E+01 1.57094E-02 5.65665E-05 4.34137E-02 4.88820E-14 2.65557E-15
 -1      3932 1.99838E+01 6.15979E-02-3.45240E-04 5.75488E-02 4.75134E-15-3.58137E-14
 -1      3933 1.99696E+01 8.31195E-02-6.52119E-05 6.08070E-02-5.24233E-15-1.91412E-14
 -1      3934 1.99908E+01 5.39767E-02 2.42155E-04 4.42688E-02 5.02953E-14-7.34733E-14
 -1      3935 1.99499E+01 1.06268E-01-4.35850E-04 6.23794E-02-5.68848E-14 8.42347E-15
 -1      3936 1.99314E+01 1.31567E-01-2.79881E-04 6.68639E-02-8.97957E-14-9.55759E-14
 -1      3937 1.99560E+01 9.82396E-02 4.70412E-04 4.61135E-02-2.75548E-14-2.07419E-14
 -1      3938 1.99069E+01 1.59093E-01-5.08840E-04 6.82423E-02-1.27943E-13-9.52952E-14
 -1      3939 1.98818E+01 1.89085E-01-5.86684E-04 7.31833E-02-1.06086E-13-7.46962E-14
 -1      3940 1.99133E+01 1.49722E-01 7.53581E-04 4.76565E-02-1.22226E-13-3.66352E-14
 -1      3941 1.98519E+01 2.20208E-01-5.94410E-04 7.30526E-02-6.71281E-14-7.99475E-14
 -1      3942 1.98188E+01 2.53928E-01-1.05766E-03 7.69994E-02-2.89940E-14 5.23438E-15
 -1      3943 1.98601E+01 2.08205E-01 1.11569E-03 4.66707E-02-8.78430E-14-1.72358E-14
 -1      3944 1.97781E+01 2.93014E-01-5.90647E-04 7.33436E-02 2.43272E-14 3.30260E-14
 -1      3945 1.97292E+01 3.34867E-01-1.75320E-03 7.43059E-02 1.22344E-13 1.15420E-13
 -1      3946 1.97905E+01 2.76262E-01 1.56406E-03 3.97060E-02 8.35876E-14-1.32652E-14
 -1      3947 1.96753E+01 3.81468E-01-5.41475E-04 6.35232E-02 1.20698E-13 1.19735E-13
 -1      3948 1.96059E+01 4.30495E-01-2.77694E-03 5.73826E-02 1.30510E-13 2.26842E-13
 -1      3949 1.96961E+01 3.56791E-01 2.17875E-03 2.03620E-02 1.22794E-13 1.34050E-13
 -1      3950 1.95353E+01 4.85169E-01-3.13555E-04 3.41417E-02-1.91403E-14 1.49944E-13
 -1      3951 1.94370E+01 5.40993E-01-4.26103E-03 1.47128E-02-1.38281E-13 1.51307E-13
 -1      3952 1.95707E+01 4.47838E-01 2.93204E-03-2.06477E-02 5.88407E-15 9.95152E-14
 -1      3953 1.93455E+01 6.03179E-01 1.87266E-04-2.89834E-02-1.55934E-13 1.08234E-13
 -1      3954 1.92075E+01 6.63676E-01-6.33618E-03-7.11687E-02-1.27279E-13 7.65700E-14
 -1      3955 1.94051E+01 5.46653E-01 3.84056E-03-9.73846E-02-1.65125E-13 1.40017E-13
 -1      3956 1.90907E+01 7.30556E-01 1.14830E-03-1.46731E-01-1.32643E-13 1.16211E-13
 -1      3957 1.88997E+01 7.90524E-01-8.81290E-03-2.25859E-01-1.31479E-13 1.02310E-13
 -1      3958 1.91894E+01 6.46042E-01 4.88051E-03-2.30309E-01-1.04054E-13 1.51357E-13
 -1      3959 1.87628E+01 8.51547E-01 2.53064E-03-3.42595E-01-1.25295E-13 1.04512E-14
 -1      3960 1.85149E+01 8.97428E-01-1.23930E-02-4.68726E-01-1.07444E-13 7.43089E-14
 -1      3961 1.89223E+01 7.27876E-01 5.56303E-03-4.40846E-01-2.05398E-13 1.09742E-13
 -1      3962 1.83434E+01 9.45745E-01 5.50227E-03-6.57334E-01-9.20491E-14-1.96008E-14
 -1      3963 1.79946E+01 9.61816E-01-1.70898E-02-8.72028E-01-3.77749E-14 6.54211E-14
 -1      3964 1.85933E+01 7.71564E-01 6.89757E-03-7.68202E-01-1.28098E-13 1.04532E-13
 -1      3965 1.78048E+01 9.67348E-01 1.04657E-02-1.15501E+00-3.50978E-14 1.83961E-14
 -1      3966 1.73524E+01 9.17064E-01-1.79830E-02-1.49264E+00 2.89072E-14 9.03670E-14
 -1      3967 1.81954E+01 7.26785E-01 7.74458E-03-1.27084E+00-3.21054E-15 1.18612E-13
 -1      3968 2.00360E+01-1.32506E-02 3.36771E-04-6.31174E-02 6.73987E-15 1.61611E-13
 -1      3969 2.00448E+01-2.60423E-02-1.71213E-04-6.37290E-02 2.91170E-14 1.66733E-13
 -1      3970 2.07054E+01-1.90232E+00 3.26302E-02-3.00248E+00-2.61268E-13-9.24504E-14
 -1      3971 2.13670E+01-2.46766E+00 5.81553E-02-3.27912E+00-2.99790E-13-2.57167E-13
 -1      3972 2.26521E+01-2.90508E+00-5.14575E-02-2.26180E+00-3.01043E-13-1.50630E-14
 -1      3973 2.03417E+01 1.07083E+00 5.91242E-04-1.17134E-01 6.12917E-14-7.66741E-15
 -1      3974 2.03409E+01 1.01325E+00-2.11309E-03-1.60050E-01 3.01168E-14 1.20599E-14
 -1      3975 2.03671E+01 8.59148E-01 7.15871E-04-1.15078E-01 2.42683E-14 2.86020E-14
 -1      3976 2.00583E+01-3.78233E-02 3.47028E-04-6.51432E-02 2.71292E-14 1.07432E-13
 -1      3977 2.00681E+01-4.91232E-02-8.92183E-05-6.76233E-02 1.01326E-14 1.56494E-13
 -1      3978 2.00578E+01-3.34079E-02-1.91758E-04-5.45610E-02 8.72410E-15 2.45972E-13
 -1      3979 1.99940E+01 4.22118E-02 3.59183E-04-7.26683E-02-1.37345E-13 1.73403E-13
 -1      3980 2.00018E+01 2.75523E-02-3.44567E-04-6.82323E-02-7.92711E-14 1.39685E-13
 -1      3981 1.99726E+01 7.14587E-02 4.14566E-04-8.61871E-02-9.00886E-14 7.62954E-14
 -1      3982 1.99803E+01 5.65449E-02-4.39205E-04-7.85130E-02-1.43191E-13 7.75627E-14
 -1      3983 1.99832E+01 5.47478E-02 8.95950E-05-6.62838E-02-7.66383E-14 9.60863E-14
 -1      3984 1.99506E+01 9.98970E-02 5.19914E-04-1.07168E-01 3.16928E-14 2.89495E-14
 -1      3985 1.99580E+01 8.55680E-02-5.35942E-04-9.56810E-02 2.54336E-14 7.94913E-14
 -1      3986 1.99569E+01 8.70332E-02 1.49438E-04-8.12815E-02-2.75156E-14 3.37560E-16
 -1      3987 1.99287E+01 1.24958E-01 6.92792E-04-1.37217E-01-2.91158E-15 1.52818E-13
 -1      3988 1.99351E+01 1.12650E-01-6.24192E-04-1.21248E-01-2.37834E-14 3.88266E-14
 -1      3989 1.99289E+01 1.18490E-01 1.65327E-04-1.04374E-01-8.93497E-16 8.85895E-14
 -1      3990 1.99089E+01 1.42515E-01 9.56035E-04-1.78221E-01-1.50255E-14 1.02127E-13
 -1      3991 1.99127E+01 1.34501E-01-6.84756E-04-1.57046E-01 3.60997E-14 1.32422E-13
 -1      3992 1.98995E+01 1.46248E-01 1.07135E-04-1.37816E-01 2.22769E-14 9.49413E-14
 -1      3993 1.98954E+01 1.46260E-01 1.33084E-03-2.32298E-01-8.10702E-14 1.16619E-13
 -1      3994 1.98940E+01 1.46000E-01-6.79783E-04-2.05230E-01-8.04627E-14 6.62001E-14
 -1      3995 1.98709E+01 1.65669E-01-7.98596E-05-1.84466E-01-2.86227E-14 1.40645E-13
 -1      3996 1.98955E+01 1.27100E-01 1.82902E-03-3.01421E-01-4.51314E-14 1.51817E-13
 -1      3997 1.98847E+01 1.39533E-01-5.46519E-04-2.68050E-01-4.15917E-14 2.17376E-13
 -1      3998 1.98473E+01 1.69628E-01-4.66771E-04-2.47761E-01-9.18613E-14 1.61326E-13
 -1      3999 1.99210E+01 7.27072E-02 2.43661E-03-3.86677E-01-9.31498E-14 5.64605E-14
 -1      4000 1.98943E+01 1.04463E-01-1.81637E-04-3.47326E-01-6.81329E-14 1.43360E-13
 -1      4001 1.98366E+01 1.47770E-01-1.15504E-03-3.31382E-01 1.14887E-14 2.28935E-13
 -1      4002 1.99891E+01-3.24462E-02 3.07683E-03-4.86780E-01-6.65742E-14 4.22307E-14
 -1      4003 1.99377E+01 2.68832E-02 5.75000E-04-4.43332E-01-7.74258E-14 4.66842E-14
 -1      4004 1.98516E+01 8.58876E-02-2.27597E-03-4.38421E-01-6.90696E-14-2.53219E-14
 -1      4005 2.01241E+01-2.05858E-01 3.52356E-03-5.95473E-01-7.90322E-14 2.00193E-13
 -1      4006 2.00367E+01-1.09834E-01 1.93808E-03-5.52698E-01-7.13983E-14 1.18185E-13
 -1      4007 1.99124E+01-3.41440E-02-3.97973E-03-5.69573E-01-7.00544E-14 7.02310E-14
 -1      4008 2.03571E+01-4.63357E-01 3.38700E-03-6.97091E-01-1.61905E-13 2.37116E-13
 -1      4009 2.02210E+01-3.22915E-01 4.16854E-03-6.64740E-01-1.25491E-13 2.18161E-13
 -1      4010 2.00481E+01-2.33589E-01-6.51141E-03-7.19694E-01-1.48408E-13 1.92797E-13
 -1      4011 2.07236E+01-8.11720E-01 1.67782E-03-7.61691E-01-2.20168E-13 2.57104E-13
 -1      4012 2.05268E+01-6.23750E-01 7.50661E-03-7.56210E-01-1.55498E-13 2.21421E-13
 -1      4013 2.02976E+01-5.32007E-01-1.01311E-02-8.71377E-01-1.59546E-13 1.41915E-13
 -1      4014 2.12574E+01-1.22189E+00 6.51812E-04-7.41814E-01-2.01347E-13-4.23765E-14
 -1      4015 2.09931E+01-1.00472E+00 1.25439E-02-7.84015E-01-2.27960E-13 2.70732E-14
 -1      4016 2.06998E+01-9.43394E-01-1.95802E-02-9.84833E-01-8.49210E-14 3.45242E-15
 -1      4017 2.19609E+01-1.64713E+00-8.42350E-03-5.40589E-01-1.50474E-13-1.77508E-14
 -1      4018 2.16540E+01-1.44088E+00 1.73619E-02-6.80849E-01-1.93051E-13-3.84091E-14
 -1      4019 2.13440E+01-1.43412E+00-2.29044E-02-9.85087E-01-2.17721E-13-1.66877E-13
 -1      4020 2.28282E+01-1.87611E+00-4.27138E-03-9.65145E-02-1.73090E-13 1.27996E-13
 -1      4021 2.24881E+01-1.79155E+00 2.32925E-02-3.61018E-01-2.15867E-13 1.05966E-13
 -1      4022 2.21902E+01-1.89931E+00-2.55696E-02-7.95314E-01-2.61665E-13-1.28242E-13
 -1      4023 2.37882E+01-1.82748E+00-9.31565E-03 4.21504E-01-9.76921E-14 1.22088E-13
 -1      4024 2.34694E+01-2.00259E+00 9.86772E-03 6.24781E-02-9.78870E-14 1.19506E-13
 -1      4025 2.39109E+01-1.01051E+00-2.43637E-02 1.25473E+00 8.56637E-14 2.33512E-13
 -1      4026 2.26388E+01 3.17731E+00-5.43233E-02 6.62891E-01 6.05549E-14-2.30900E-14
 -1      4027 2.26582E+01-1.60873E+00 7.20485E-03 3.58157E-01-1.91311E-13-3.01726E-13
 -1      4028 2.02272E+01 6.51612E-03 9.20262E-04-1.29290E-01 7.33684E-14-2.75337E-15
 -1      4029 2.02769E+01 3.54271E-02-4.51047E-04-1.07688E-01 5.69094E-14-4.69624E-14
 -1      4030 2.02080E+01-2.26948E-02-1.78491E-04-1.36288E-01 7.16114E-14-2.66377E-14
 -1      4031 2.00827E+01-5.92216E-02 3.58129E-04-7.05504E-02 1.30588E-14 1.56124E-13
 -1      4032 2.00940E+01-6.84758E-02-5.96159E-06-7.44154E-02-1.70470E-14 1.86110E-13
 -1      4033 2.00847E+01-5.71340E-02-2.91349E-04-5.81838E-02 1.16755E-14 1.26873E-13
 -1      4034 2.38614E+01-1.69968E+00 2.84792E-02-3.39539E-01-1.58310E-13-8.33218E-14
 -1      4035 2.03948E+01 5.14795E-01 8.47424E-05-3.98939E-02-1.16537E-14 2.94451E-14
 -1      4036 2.03905E+01 3.87155E-01-1.25126E-03 6.51578E-05 1.00696E-14 1.42339E-14
 -1      4037 2.04080E+01 3.61574E-01 5.16301E-04 5.01586E-03-1.35921E-14-2.13015E-14
 -1      4038 2.30458E+01-1.74966E+00 1.51658E-02 2.47888E-01-1.41641E-13-2.71005E-13
 -1      4039 2.01102E+01-7.61962E-02 3.58699E-04-7.84141E-02-1.11962E-14 1.64765E-13
 -1      4040 2.01233E+01-8.25098E-02 8.43976E-05-8.30614E-02 1.84301E-14 1.57389E-13
 -1      4041 2.01481E+01-8.90073E-02-4.67931E-04-7.12813E-02-1.14135E-14 1.23488E-13
 -1      4042 2.01145E+01-7.63113E-02-3.85461E-04-6.40899E-02-2.08423E-14 1.04659E-13
 -1      4043 2.01767E+01-8.78840E-02 2.70094E-04-9.64813E-02-8.68360E-15 1.40432E-13
 -1      4044 2.01943E+01-8.35042E-02 3.13909E-04-9.99442E-02 1.81378E-14 1.07447E-13
 -1      4045 2.01857E+01-9.22346E-02-5.24992E-04-7.84868E-02-1.13384E-14 1.26976E-13
 -1      4046 2.00149E+01 1.36663E-02 3.37350E-04-6.53271E-02-5.71756E-15 1.64413E-13
 -1      4047 2.00230E+01-2.37404E-04-2.55369E-04-6.36358E-02 4.21333E-14 1.54864E-13
 -1      4048 2.00082E+01 2.32959E-02 5.29590E-06-5.76542E-02-3.36463E-14 2.34112E-13
 -1      4049 2.03227E+01 3.05208E-01-3.81661E-04-2.00842E-02 8.25986E-14-6.33218E-14
 -1      4050 2.03403E+01 3.88020E-01 2.05901E-04 2.29120E-02 5.77504E-14-7.99775E-14
 -1      4051 2.03793E+01 4.92872E-01 2.04510E-04 3.98415E-02 4.16753E-14-1.86021E-13
 -1      4052 2.03525E+01 2.89821E-01-1.23609E-03-2.41019E-02 7.21951E-14-1.17584E-13
 -1      4053 2.33862E+01-1.70938E+00 9.05329E-04-1.00685E-01-7.72972E-14-4.53318E-14
 -1      4054 2.00327E+01-6.33037E-03-9.10904E-05-5.40894E-02 2.56050E-14 1.98872E-13
 -1      4055 1.72048E+01 8.56735E-01 2.12931E-02-1.84288E+00-1.26604E-14 1.04970E-13
 -1      4056 1.67479E+01 6.58715E-01-1.14834E-02-2.35183E+00-3.11699E-14-3.86852E-14
 -1      4057 1.74341E+01 1.10825E-01-7.39179E-03-2.78247E+00-1.09723E-14 1.20373E-13
 -1      4058 1.77924E+01 5.25328E-01 3.14892E-03-1.94522E+00 1.11459E-14 2.09541E-13
 -1      4059 2.24298E+01-2.29846E+00-3.04440E-03-1.50331E+00-2.96065E-13-5.98661E-14
 -1      4060 2.32478E+01-2.55532E+00 3.40247E-02-1.24849E+00-2.59679E-13 6.23971E-14
 -1      4061 2.03340E+01 1.11284E+00-2.43508E-03-8.54537E-02 7.25854E-14-6.43318E-14
 -1      4062 2.03708E+01 9.52541E-01 1.36075E-03-6.03666E-02 3.71920E-14-5.36080E-14
 -1      4063 2.03276E+01 1.16852E+00-1.64072E-04-4.04903E-02 7.74783E-14-8.94118E-14
 -1      4064 2.02157E+01-7.50978E-02 1.35850E-04-1.02943E-01 4.22912E-14 4.56151E-14
 -1      4065 2.02356E+01-6.14589E-02 4.56805E-04-1.03670E-01 3.82258E-14 2.21594E-14
 -1      4066 2.02272E+01-8.15001E-02-5.33817E-04-8.39369E-02-1.62959E-14 6.54523E-14
 -1      4067 2.32837E+01-2.30031E+00-2.93276E-02-5.29406E-01-1.73823E-13 9.32249E-14
 -1      4068 2.02359E+01-3.06601E-02-5.40482E-04-1.20740E-01 8.77576E-14 2.27456E-14
 -1      4069 2.03817E+01 7.81244E-01-1.30015E-03 8.89726E-02 7.08974E-14-1.74658E-13
 -1      4070 2.03844E+01 8.21933E-01-9.38212E-04 6.24339E-02 1.02660E-13-1.29596E-13
 -1      4071 2.03967E+01 6.51358E-01 1.96815E-03 5.55805E-02 6.26830E-14-1.93086E-13
 -1      4072 2.03709E+01 9.88130E-01 3.30485E-03 5.69806E-02 1.03709E-13-1.32035E-13
 -1      4073 2.03191E+01 1.19307E+00-1.55853E-03 4.89514E-02 9.33372E-14-1.52972E-13
 -1      4074 2.03259E+01 1.16408E+00-2.31079E-03-2.99444E-03 8.55429E-14-1.34237E-13
 -1      4075 2.03878E+01 8.30593E-01-9.34431E-04 4.16245E-02 8.85738E-14-1.45701E-13
 -1      4076 2.03798E+01 7.36827E-01-9.92159E-04-9.51759E-02-2.52353E-15 2.53604E-14
 -1      4077 2.03887E+01 6.11322E-01-3.99168E-04-5.69626E-02-1.80414E-14 2.20348E-14
 -1      4078 2.04066E+01 5.74180E-01 8.84035E-04-3.59990E-02-1.97655E-14-1.21149E-14
 -1      4079 2.03881E+01 7.85771E-01 8.49772E-04-7.21727E-02 8.80533E-15-6.89521E-15
 -1      4080 2.02995E+01 1.97066E-02-3.97986E-04-9.56417E-02 4.89536E-14-7.91866E-14
 -1      4081 2.03215E+01 6.53826E-02 8.45566E-04-8.38836E-02 9.17102E-15-9.55571E-14
 -1      4082 2.03381E+01 1.21481E-01-9.20677E-04-7.28400E-02 1.54340E-14-1.29520E-13
 -1      4083 2.03578E+01 1.95777E-01 1.92034E-03-5.06899E-02 4.50430E-14-1.27382E-13
 -1      4084 2.03563E+01 1.08266E-01-2.58019E-04-6.18064E-02-6.16037E-15-1.35245E-13
 -1      4085 1.80998E+01-3.07351E-01 9.87949E-03-2.95515E+00-4.07530E-15 2.12658E-13
 -1      4086 1.89418E+01-9.89419E-01-4.96509E-02-3.07402E+00-4.99704E-14 1.19786E-13
 -1      4087 1.82787E+01-1.55446E-02 3.42846E-02-2.51262E+00 1.26478E-14 1.04389E-13
 -1      4088 2.01865E+01-1.47030E+00 3.15208E-02-2.87232E+00-1.52090E-13 2.35877E-14
 -1      4089 2.13219E+01-2.10577E+00-4.05347E-02-2.34963E+00-2.91412E-13-1.28727E-13
 -1      4090 1.99744E+01-1.08284E+00 3.23298E-02-2.50214E+00-3.89245E-14 4.69299E-14
 -1      4091 2.43186E+01-1.45105E+00 4.35522E-03 9.51137E-01-7.33667E-14 1.16478E-13
 -1      4092 2.03778E+01 7.77901E-02 2.64233E-04 3.72322E-02-6.11460E-14-1.24108E-14
 -1      4093 2.03578E+01 2.92220E-02-1.52060E-04 4.48817E-02-6.21439E-14 1.10996E-14
 -1      4094 2.03360E+01-1.10152E-02 2.76510E-04 4.58015E-02-5.70883E-14 2.00065E-14
 -1      4095 2.03128E+01-4.17550E-02 5.59028E-05 4.93040E-02-5.48949E-14 2.97993E-15
 -1      4096 2.03567E+01 1.24040E-02-2.53313E-04 2.59862E-02-4.67970E-14 2.07485E-14
 -1      4097 2.02887E+01-6.42067E-02 2.52861E-04 4.87884E-02-9.65827E-14-1.79563E-14
 -1      4098 2.02658E+01-8.00955E-02 2.45018E-04 4.95917E-02-1.20590E-13-4.79155E-14
 -1      4099 2.03092E+01-5.21903E-02-5.68443E-04 2.80641E-02-9.89595E-14-3.50352E-14
 -1      4100 2.02421E+01-9.00560E-02 3.49554E-04 4.74795E-02-7.36653E-14-2.02542E-14
 -1      4101 2.02202E+01-9.53340E-02 3.59319E-04 4.67354E-02-4.33759E-14-2.15169E-14
 -1      4102 2.02618E+01-8.65604E-02-9.06536E-04 2.79871E-02-7.72208E-14-3.27329E-14
 -1      4103 2.01978E+01-9.67173E-02 2.97611E-04 4.44131E-02-5.52713E-14-2.47630E-14
 -1      4104 2.01779E+01-9.46795E-02 3.78282E-04 4.28088E-02-5.03347E-14-1.44487E-14
 -1      4105 2.02151E+01-9.87355E-02-1.12744E-03 2.67173E-02-5.54260E-14-2.45477E-15
 -1      4106 2.01573E+01-9.00860E-02 2.24068E-04 4.05520E-02-5.05272E-14-2.28532E-14
 -1      4107 2.01396E+01-8.30003E-02 3.53118E-04 3.87178E-02-4.91224E-14-5.77346E-14
 -1      4108 2.01725E+01-9.52835E-02-1.03812E-03 2.46498E-02-2.81268E-14-3.09106E-16
 -1      4109 2.01218E+01-7.46717E-02 1.60218E-04 3.68164E-02 1.25687E-15 2.46769E-15
 -1      4110 2.01067E+01-6.46920E-02 2.99282E-04 3.52817E-02 1.41275E-15 8.48354E-14
 -1      4111 2.01348E+01-8.16799E-02-8.74614E-04 2.24775E-02 1.63204E-14-2.91620E-14
 -1      4112 2.00895E+01-5.29751E-02 6.93338E-05 3.36895E-02-4.31998E-14 1.02786E-13
 -1      4113 2.00748E+01-3.97354E-02 2.32843E-04 3.25444E-02 1.11303E-15 9.20545E-14
 -1      4114 2.01007E+01-6.06878E-02-6.40549E-04 2.04869E-02 1.12478E-14 6.80537E-14
 -1      4115 2.00587E+01-2.55035E-02-5.68363E-06 3.13627E-02-6.28519E-16 8.29443E-14
 -1      4116 2.00446E+01-9.93775E-03 1.34096E-04 3.08496E-02-4.72149E-15 9.55661E-14
 -1      4117 2.00684E+01-3.35822E-02-3.90515E-04 1.88226E-02-2.91306E-14 7.28565E-14
 -1      4118 2.00286E+01 6.60593E-03-8.03926E-05 2.99873E-02 1.27975E-14 1.02680E-13
 -1      4119 2.00140E+01 2.44507E-02 4.26649E-06 3.00913E-02 5.69582E-14 1.94880E-14
 -1      4120 2.00373E+01-1.66028E-03-1.15146E-04 1.74070E-02 9.00908E-15 7.26943E-14
 -1      4121 1.99972E+01 4.34239E-02-1.47716E-04 2.92984E-02 6.75012E-14-2.13322E-14
 -1      4122 1.99808E+01 6.37423E-02-1.71507E-04 2.98060E-02 3.26007E-14-4.42177E-14
 -1      4123 2.00055E+01 3.48327E-02 1.87454E-04 1.58611E-02 3.76705E-14 1.16173E-13
 -1      4124 1.99622E+01 8.54872E-02-1.98591E-04 2.86026E-02 1.37738E-14-4.32979E-14
 -1      4125 1.99424E+01 1.08624E-01-4.15657E-04 2.90152E-02-4.46085E-14-4.48791E-14
 -1      4126 1.99708E+01 7.61128E-02 5.21032E-04 1.33970E-02-8.50958E-15 2.73644E-14
 -1      4127 1.99205E+01 1.33616E-01-2.15998E-04 2.65812E-02-9.28788E-14-3.11309E-14
 -1      4128 1.98953E+01 1.59992E-01-7.42743E-04 2.59186E-02-1.20657E-13-2.39222E-14
 -1      4129 1.99307E+01 1.22624E-01 8.92574E-04 8.62219E-03-5.44783E-14-8.70354E-14
 -1      4130 1.98702E+01 1.87206E-01-2.06423E-04 2.12246E-02-1.78952E-13 4.05644E-14
 -1      4131 1.98388E+01 2.15436E-01-1.23594E-03 1.82837E-02-8.26200E-14 4.56032E-14
 -1      4132 1.98835E+01 1.73467E-01 1.33018E-03-4.18753E-04-1.09888E-13-6.28257E-14
 -1      4133 1.98067E+01 2.48095E-01-5.44285E-05 8.89495E-03 1.73667E-14-4.04205E-14
 -1      4134 1.97627E+01 2.81133E-01-1.94657E-03 8.24421E-04 6.66769E-14-4.09622E-14
 -1      4135 1.98251E+01 2.29623E-01 1.76611E-03-1.72879E-02-1.02378E-13 1.63678E-14
 -1      4136 1.97232E+01 3.17989E-01 2.23005E-04-1.63462E-02 1.03761E-13-4.81539E-14
 -1      4137 1.96639E+01 3.53822E-01-2.93557E-03-3.33234E-02 1.04215E-13-9.21782E-14
 -1      4138 1.97502E+01 2.91825E-01 2.20682E-03-4.80760E-02 5.44387E-14-2.41045E-13
 -1      4139 1.96161E+01 3.94199E-01 7.69896E-04-6.29587E-02 4.59249E-14-9.78596E-14
 -1      4140 1.95365E+01 4.30928E-01-4.30095E-03-9.47011E-02-5.74885E-14-1.49051E-13
 -1      4141 1.96565E+01 3.56087E-01 2.54608E-03-1.00682E-01 7.47970E-14-2.14269E-13
 -1      4142 1.94802E+01 4.72819E-01 1.71355E-03-1.43538E-01-1.11283E-13-2.28109E-14
 -1      4143 1.93745E+01 5.06570E-01-6.10993E-03-1.98609E-01-7.58286E-14 8.64353E-14
 -1      4144 1.95412E+01 4.16905E-01 2.63650E-03-1.86900E-01 5.09080E-14-1.98942E-13
 -1      4145 1.93113E+01 5.45408E-01 3.20956E-03-2.75924E-01-5.76604E-14 1.21022E-13
 -1      4146 1.91741E+01 5.69617E-01-8.07103E-03-3.66739E-01-1.14911E-13 1.06394E-13
 -1      4147 1.94031E+01 4.64020E-01 2.20338E-03-3.23020E-01-4.50562E-14-2.64451E-14
 -1      4148 1.91126E+01 5.96275E-01 5.36907E-03-4.77949E-01-2.40816E-13 1.53795E-13
 -1      4149 1.89460E+01 5.98136E-01-1.08114E-02-6.11175E-01-2.78051E-13 1.80241E-13
 -1      4150 1.92495E+01 4.80300E-01 9.44481E-04-5.24136E-01-1.71076E-13 7.31318E-14
 -1      4151 1.88890E+01 6.01692E-01 9.17658E-03-7.81365E-01-1.96909E-13 2.39485E-13
 -1      4152 1.86753E+01 5.62391E-01-1.40702E-02-9.92634E-01-1.10910E-13 2.41024E-13
 -1      4153 1.90875E+01 4.40772E-01-1.54621E-03-8.19288E-01-1.59309E-13 2.45572E-13
 -1      4154 1.86474E+01 5.18170E-01 1.44764E-02-1.23588E+00-1.01816E-13 2.83070E-13
 -1      4155 1.84126E+01 4.11240E-01-1.16647E-02-1.54459E+00-1.92620E-14 1.83603E-13
 -1      4156 1.89391E+01 2.97819E-01-6.62436E-03-1.24776E+00-5.20863E-14 3.29303E-13
 -1      4157 2.00568E+01-2.70700E-02 3.18506E-04-4.18653E-02-3.98557E-15 2.05887E-13
 -1      4158 2.00695E+01-4.05451E-02-5.03571E-05-4.25247E-02 1.53733E-14 1.89507E-13
 -1      4159 1.99429E+01 1.03505E-01 4.34036E-04-7.19431E-02-4.95861E-14 1.19165E-13
 -1      4160 1.99554E+01 8.51493E-02-6.22805E-04-6.30205E-02-2.21584E-14 8.06771E-14
 -1      4161 1.99735E+01 6.79844E-02 3.37327E-04-5.63867E-02-3.79446E-14 2.86885E-14
 -1      4162 1.99855E+01 5.03164E-02-4.39535E-04-5.08284E-02-3.33701E-14 9.16126E-14
 -1      4163 1.99602E+01 8.37721E-02 5.35424E-04-4.67852E-02-5.50939E-14 6.03114E-14
 -1      4164 1.98736E+01 1.71456E-01 9.40776E-04-1.31024E-01 1.56774E-15 2.07632E-13
 -1      4165 1.98858E+01 1.54815E-01-1.11110E-03-1.12062E-01-4.80989E-14 1.82116E-13
 -1      4166 1.98370E+01 1.96544E-01 1.44708E-03-1.81231E-01-8.79729E-14 3.04923E-13
 -1      4167 1.98469E+01 1.83975E-01-1.40768E-03-1.54880E-01-1.32133E-14 3.54450E-13
 -1      4168 1.98389E+01 2.00199E-01 1.32553E-03-1.27103E-01-1.11348E-13 3.67596E-13
 -1      4169 1.98041E+01 2.06945E-01 2.19813E-03-2.51266E-01-6.69428E-14 2.73259E-13
 -1      4170 1.98083E+01 2.02316E-01-1.71722E-03-2.15490E-01-8.94570E-14 3.24096E-13
 -1      4171 1.97900E+01 2.29805E-01 1.38747E-03-1.83574E-01-5.84104E-14 4.47019E-13
 -1      4172 1.97830E+01 1.91878E-01 3.25507E-03-3.46727E-01 1.26130E-14 1.69511E-13
 -1      4173 1.97758E+01 2.00953E-01-1.97325E-03-2.99352E-01 2.15037E-15 1.83553E-13
 -1      4174 1.97410E+01 2.43844E-01 1.16299E-03-2.64723E-01 1.22543E-14 3.00356E-13
 -1      4175 1.97871E+01 1.36086E-01 4.65910E-03-4.73256E-01 3.70539E-14 4.62925E-14
 -1      4176 1.97601E+01 1.66995E-01-2.04724E-03-4.12495E-01 1.49795E-14 1.30714E-13
 -1      4177 1.96995E+01 2.30101E-01 4.28635E-04-3.78683E-01 7.24175E-14 1.36908E-13
 -1      4178 1.98383E+01 1.92197E-02 6.37148E-03-6.34483E-01-1.10694E-13 1.38963E-13
 -1      4179 1.97789E+01 8.26113E-02-1.74191E-03-5.60245E-01-3.70889E-15 1.29756E-13
 -1      4180 1.96793E+01 1.70820E-01-1.11448E-03-5.34399E-01 9.29066E-15 9.53233E-14
 -1      4181 1.99690E+01-1.84119E-01 8.14357E-03-8.29392E-01-8.22293E-14 8.34393E-14
 -1      4182 1.98600E+01-7.46179E-02-7.00811E-04-7.45008E-01-8.68539E-14 2.10285E-13
 -1      4183 1.97031E+01 4.30888E-02-3.57737E-03-7.39384E-01-8.06947E-14 1.19240E-13
 -1      4184 2.02243E+01-5.01298E-01 9.00927E-03-1.04310E+00-1.48225E-13-5.49599E-14
 -1      4185 2.00458E+01-3.31727E-01 1.78298E-03-9.59639E-01-9.97365E-14 3.22013E-14
 -1      4186 1.98079E+01-1.88051E-01-8.75053E-03-9.96261E-01-5.51776E-14 5.23735E-14
 -1      4187 2.06926E+01-9.47754E-01 1.35200E-02-1.22714E+00 4.23012E-14-1.66072E-13
 -1      4188 2.03990E+01-7.07056E-01 8.97601E-03-1.17825E+00-1.17964E-14-3.28768E-14
 -1      4189 2.00552E+01-5.59355E-01-1.64495E-02-1.29352E+00-3.58225E-14-1.16755E-13
 -1      4190 2.14153E+01-1.67625E+00 4.53599E-03-1.59642E+00-2.79435E-13-1.32481E-13
 -1      4191 2.09969E+01-1.37129E+00 6.30389E-03-1.58242E+00-2.32198E-13-9.39505E-14
 -1      4192 2.19592E+01-2.00377E+00 2.62883E-02-1.60733E+00-2.92293E-13-1.20612E-13
 -1      4193 2.02574E+01-4.21587E-02-8.22082E-05-1.04032E-01 5.31893E-14 1.14007E-14
 -1      4194 2.02790E+01-1.51490E-02 6.34554E-04-9.99099E-02 4.70813E-14-2.57206E-14
 -1      4195 2.03159E+01 8.87586E-03-3.55114E-04-7.92631E-02 4.88134E-15-6.35048E-14
 -1      4196 2.02714E+01-5.07240E-02-4.99599E-04-8.52696E-02 3.10585E-14-3.65958E-15
 -1      4197 2.04102E+01 2.19800E-01 2.17674E-04 2.01383E-02-2.10048E-14-2.62789E-14
 -1      4198 2.03948E+01 1.41083E-01-4.80529E-04 3.37380E-02-3.94603E-14-1.09756E-14
 -1      4199 2.03971E+01 1.19629E-01 3.89144E-05 1.96648E-02-3.63133E-14 6.66231E-15
 -1      4200 2.00293E+01 1.98673E-03 2.96284E-04-4.26552E-02 4.71821E-14 1.72920E-13
 -1      4201 2.00413E+01-1.31545E-02-1.60713E-04-4.17457E-02 3.46639E-14 1.54916E-13
 -1      4202 2.00516E+01-2.03990E-02-2.79904E-04-2.98998E-02 6.10766E-14 9.51401E-14
 -1      4203 2.00857E+01-5.26710E-02 3.51151E-04-4.38985E-02-1.29622E-14 1.47169E-13
 -1      4204 2.00997E+01-6.40423E-02 5.17775E-05-4.56974E-02-2.01361E-14 1.11836E-13
 -1      4205 2.00819E+01-4.84428E-02-5.25364E-04-3.05305E-02-2.49643E-14 1.00809E-13
 -1      4206 2.04213E+01 4.31792E-01-6.94959E-05-8.22607E-03-3.72922E-15-5.16815E-14
 -1      4207 2.04170E+01 3.16257E-01-6.75131E-04 1.28265E-02-2.66342E-14-5.46889E-14
 -1      4208 2.04234E+01 2.85630E-01 5.99014E-04 8.77474E-03-2.24514E-15-4.88635E-14
 -1      4209 2.00020E+01 3.38601E-02 2.97012E-04-4.71272E-02-2.64134E-14 1.27597E-13
 -1      4210 2.00137E+01 1.73231E-02-2.88136E-04-4.41807E-02 1.21799E-14 1.62488E-13
 -1      4211 2.00223E+01 1.13355E-02-1.83509E-05-3.17215E-02-1.77035E-15 4.89809E-14
 -1      4212 1.99095E+01 1.38947E-01 6.30371E-04-9.58639E-02 1.11750E-14 1.23248E-13
 -1      4213 1.99222E+01 1.20696E-01-8.37249E-04-8.25604E-02-1.00578E-14 1.29020E-13
 -1      4214 1.99245E+01 1.23140E-01 8.07104E-04-6.31638E-02-4.23581E-14 1.42704E-13
 -1      4215 2.01915E+01-9.47785E-02 3.89690E-04-5.90922E-02-1.90582E-14 1.04912E-13
 -1      4216 2.02115E+01-9.33031E-02 3.08999E-04-6.11216E-02-2.57969E-14 8.55176E-14
 -1      4217 2.03956E+01 4.14729E-01 1.95475E-03 7.10720E-03 4.57138E-14-1.93397E-13
 -1      4218 2.03978E+01 5.20737E-01-1.48561E-03 3.82283E-02 5.23141E-14-1.91874E-13
 -1      4219 2.04095E+01 5.55282E-01-1.12020E-03 2.76189E-02 6.54654E-14-1.72480E-13
 -1      4220 1.84167E+01 3.09867E-01 1.63939E-02-1.79475E+00 1.48473E-14 1.26798E-13
 -1      4221 1.82093E+01 1.27618E-01-1.09595E-02-2.16477E+00 2.44756E-14 1.95020E-13
 -1      4222 1.88145E+01-3.32852E-01-2.19265E-02-2.33928E+00 1.67553E-15 1.00404E-13
 -1      4223 1.88297E+01 5.85611E-02-1.03078E-02-1.75830E+00-5.86874E-14 3.37190E-13
 -1      4224 2.03700E+01 1.00003E+00 2.78285E-03 1.41866E-03 5.61762E-14-1.15853E-13
 -1      4225 2.03862E+01 8.68842E-01-8.38499E-05-2.86523E-02 3.09549E-15-8.64820E-14
 -1      4226 2.03865E+01 8.23034E-01-1.55711E-03-5.63307E-02 4.47910E-15-6.31861E-14
 -1      4227 2.04027E+01 7.10866E-01 1.95519E-04-3.74695E-02-2.07871E-14-5.61654E-14
 -1      4228 2.02345E+01-9.32961E-02-1.08224E-03-4.32281E-02-3.66355E-14 7.74781E-14
 -1      4229 2.02345E+01-8.78067E-02 3.16513E-04-6.40346E-02-6.02688E-14 7.79561E-14
 -1      4230 2.02565E+01-7.74667E-02 4.45556E-04-6.45875E-02-3.95387E-14 4.33948E-14
 -1      4231 1.98841E+01 1.62991E-01 1.10262E-03-8.86696E-02-1.70906E-14 1.55277E-13
 -1      4232 1.99923E+01 4.62226E-02 2.55330E-04-3.69193E-02-9.57141E-15-3.33329E-14
 -1      4233 2.04946E+01-1.19924E+00-2.79261E-02-1.82987E+00-1.10902E-13-5.13305E-14
 -1      4234 2.01144E+01-7.18661E-02-7.44095E-04-3.28832E-02-1.12040E-15 8.98530E-14
 -1      4235 2.01173E+01-7.38116E-02 3.77188E-04-4.79852E-02 1.01561E-14 1.04110E-13
 -1      4236 2.01330E+01-8.23448E-02 1.36519E-04-5.04801E-02 1.98655E-14 1.12690E-13
 -1      4237 2.03669E+01 8.21419E-02-5.82701E-04-5.29476E-02-4.15036E-14-1.24804E-13
 -1      4238 2.03875E+01 1.45020E-01-1.79362E-04-3.93565E-02-1.37430E-14-1.62657E-13
 -1      4239 2.03253E+01-8.92290E-03-2.54931E-04-6.34641E-02-3.40862E-14-6.14045E-14
 -1      4240 2.03483E+01 3.16329E-02 5.66060E-04-5.67956E-02-7.39732E-14-9.66321E-14
 -1      4241 2.03729E+01 6.48145E-02-9.53950E-05-3.74311E-02-8.70995E-14-9.45514E-14
 -1      4242 2.03737E+01 2.67550E-01-1.09877E-03-2.65469E-02 4.10964E-14-1.81935E-13
 -1      4243 1.96956E+01-6.64538E-01 8.32362E-03-2.02219E+00-4.72448E-14 8.21053E-14
 -1      4244 2.04128E+01 6.08267E-01-6.08978E-04-3.04226E-02-1.22995E-14-5.25948E-14
 -1      4245 2.04182E+01 5.14345E-01-1.87399E-04-1.38482E-02 2.26309E-15-3.67493E-14
 -1      4246 2.04277E+01 4.69402E-01 5.43595E-04-5.74621E-03-8.62610E-15-5.59493E-14
 -1      4247 2.04155E+01 6.49728E-01 6.09855E-04-1.68877E-02-1.98982E-14-6.62965E-14
 -1      4248 2.01524E+01-8.87344E-02 4.03272E-04-5.33685E-02-7.63542E-15 1.08874E-13
 -1      4249 2.01702E+01-9.32045E-02 2.33277E-04-5.59803E-02-9.60501E-15 1.02582E-13
 -1      4250 2.01903E+01-9.76099E-02-1.08369E-03-4.00122E-02-2.84146E-14 1.22910E-13
 -1      4251 2.01504E+01-8.91197E-02-9.34832E-04-3.62575E-02-6.94527E-15 7.91030E-14
 -1      4252 2.03721E+01 3.21909E-02-6.88646E-05 5.18591E-03-6.62209E-14-1.46657E-15
 -1      4253 2.03504E+01-9.25758E-03 2.40765E-04 8.04794E-03-8.24950E-14-2.46699E-14
 -1      4254 2.03895E+01 8.45014E-01-8.50914E-04 2.13218E-02 5.49416E-14-1.17471E-13
 -1      4255 2.03880E+01 8.46044E-01-1.37037E-03-6.56236E-03 2.77817E-14-8.29087E-14
 -1      4256 2.04128E+01 6.98138E-01 2.50501E-03 2.87248E-02 6.29006E-14-1.04176E-13
 -1      4257 2.03267E+01-4.14173E-02 1.65730E-04 6.29426E-03-6.92720E-14-6.10607E-14
 -1      4258 2.03037E+01-6.45498E-02 4.25407E-04 7.48373E-03-7.92840E-14-3.59467E-14
 -1      4259 2.03374E+01-2.47125E-02-3.88669E-04-1.33303E-02-1.03143E-13-3.95918E-14
 -1      4260 2.02784E+01-7.93721E-02 5.57310E-04-8.67973E-03-4.88232E-14 2.65196E-14
 -1      4261 2.02552E+01-9.02615E-02 6.06479E-04-7.91038E-03-5.54825E-14 7.87010E-14
 -1      4262 2.02321E+01-9.60065E-02 7.30530E-04-7.83992E-03-5.73113E-14 7.70195E-14
 -1      4263 2.02095E+01-9.76709E-02 7.25186E-04-7.65802E-03-3.73899E-14 8.73261E-14
 -1      4264 2.01880E+01-9.60638E-02 7.18430E-04-6.82474E-03-3.83510E-14 7.86015E-14
 -1      4265 2.01672E+01-9.14974E-02 6.48956E-04-6.97157E-03-1.01397E-14 9.91706E-14
 -1      4266 2.01476E+01-8.46717E-02 6.30353E-04-5.95818E-03-2.84092E-15 6.21098E-14
 -1      4267 2.01296E+01-7.62752E-02 5.26725E-04-6.23887E-03 7.70925E-15 5.03503E-14
 -1      4268 2.01119E+01-6.59414E-02 4.88884E-04-5.41504E-03 1.10219E-14 4.82355E-14
 -1      4269 2.00945E+01-5.40156E-02 3.63181E-04-5.75427E-03-3.20499E-14 5.51474E-14
 -1      4270 2.00782E+01-4.09590E-02 3.47631E-04-5.43584E-03-3.45973E-14 3.27143E-14
 -1      4271 2.00617E+01-2.66251E-02 1.76055E-04-5.84680E-03 1.59093E-14 9.52551E-15
 -1      4272 2.00463E+01-1.14212E-02 1.94731E-04-6.33916E-03 4.56322E-14 5.60639E-14
 -1      4273 2.00300E+01 4.99795E-03-3.60033E-05-6.95457E-03 2.98734E-14 7.49563E-14
 -1      4274 2.00146E+01 2.21091E-02 4.29461E-05-8.64121E-03-2.57963E-15 3.62098E-14
 -1      4275 1.99974E+01 4.05195E-02-2.80034E-04-9.77015E-03 5.12180E-15 1.96467E-14
 -1      4276 1.99813E+01 5.94564E-02-9.81782E-05-1.31788E-02-1.31439E-14 4.59475E-14
 -1      4277 1.99619E+01 7.98756E-02-5.65438E-04-1.53821E-02-5.95881E-14-3.08921E-15
 -1      4278 1.99444E+01 1.00567E-01-2.15579E-04-2.12790E-02-8.62087E-14 8.91159E-15
 -1      4279 1.99214E+01 1.23005E-01-8.96934E-04-2.55020E-02-8.21985E-14-4.01551E-14
 -1      4280 1.99017E+01 1.45139E-01-3.20588E-04-3.50221E-02-3.38607E-14-2.11836E-14
 -1      4281 1.98750E+01 1.68063E-01-1.32392E-03-4.21852E-02-6.70253E-14 5.06955E-14
 -1      4282 1.98529E+01 1.91133E-01-3.32518E-04-5.68662E-02-1.12464E-13 1.09915E-13
 -1      4283 1.98182E+01 2.16371E-01-1.82445E-03-7.00454E-02-8.51801E-14 7.29018E-14
 -1      4284 1.97940E+01 2.39127E-01-2.00645E-04-9.22411E-02-1.06913E-13 6.11298E-14
 -1      4285 1.97509E+01 2.64048E-01-2.38110E-03-1.14452E-01-5.88732E-14 4.71323E-15
 -1      4286 1.97258E+01 2.84266E-01 1.92764E-04-1.47213E-01 4.49612E-14 1.65087E-14
 -1      4287 1.96729E+01 3.06117E-01-2.96541E-03-1.83321E-01 1.04637E-13 1.69401E-14
 -1      4288 1.96498E+01 3.20012E-01 9.88626E-04-2.30657E-01 8.17043E-14-1.02840E-13
 -1      4289 1.95866E+01 3.34134E-01-3.47444E-03-2.87409E-01 8.67276E-14-4.62727E-14
 -1      4290 1.95712E+01 3.35669E-01 2.40314E-03-3.54197E-01 6.38198E-14-4.08929E-14
 -1      4291 1.94988E+01 3.34565E-01-3.70050E-03-4.40492E-01-1.45557E-14-2.31591E-14
 -1      4292 1.95001E+01 3.14130E-01 4.48738E-03-5.32462E-01-7.17548E-14-1.11937E-14
 -1      4293 1.94265E+01 2.87344E-01-3.57677E-03-6.52238E-01-1.47432E-13 5.94992E-14
 -1      4294 1.94603E+01 2.33418E-01 7.90972E-03-7.72857E-01-1.52185E-13 9.95658E-15
 -1      4295 1.93904E+01 1.62283E-01-2.37620E-03-9.50649E-01-1.74921E-14 1.56759E-13
 -1      4296 1.94819E+01 5.62647E-02 1.29800E-02-1.10180E+00 3.59164E-14 5.88779E-14
 -1      4297 1.94400E+01-8.29393E-02 7.07663E-04-1.34366E+00 2.00035E-17 1.22014E-13
 -1      4298 1.96195E+01-2.79541E-01 1.34102E-02-1.52988E+00-9.14876E-14 1.48033E-13
 -1      4299 2.02796E+01-6.19632E-02-1.05169E-05-6.60790E-02 1.41229E-14 2.19545E-14
 -1      4300 2.03030E+01-3.90939E-02 4.87646E-04-6.39136E-02 1.07558E-14-8.80169E-15
 -1      4301 2.03284E+01-2.17191E-02-6.26918E-04-4.40353E-02-4.85902E-14-3.81090E-14
 -1      4302 2.02810E+01-7.02386E-02-6.50446E-04-4.57066E-02-2.71198E-14 4.28381E-14
 -1      4303 2.03968E+01 2.98406E-01-3.99514E-04-1.86958E-02 3.19864E-14-1.91277E-13
 -1      4304 2.04311E+01 3.32491E-01-1.81010E-04-1.27961E-03 4.13363E-15-1.26224E-14
 -1      4305 2.04233E+01 2.33285E-01 1.60421E-04 5.35082E-03-1.34535E-14 1.22128E-14
 -1      4306 2.04123E+01 1.97443E-01-2.88172E-04-1.58681E-02-3.31541E-14-4.10789E-14
 -1      4307 2.04086E+01 2.28112E-01 7.84948E-04-2.62045E-02-6.10270E-16-9.76912E-14
 -1      4308 1.96443E+01-4.37974E-01 1.19560E-02-1.75387E+00-1.13006E-13 1.68364E-13
 -1      4309 2.04093E+01 7.32324E-01 1.23016E-03-4.99105E-03-3.01284E-15-7.94488E-14
 -1      4310 2.03968E+01 1.05900E-01 1.08620E-03-1.83891E-02-4.70691E-14-5.31956E-14
 -1      4311 2.04125E+01 1.80235E-01 2.66897E-05-6.38218E-03-1.63311E-14 2.62359E-14
 -1      4312 2.04058E+01 1.35427E-01-5.07794E-04 4.60223E-03-2.56139E-14 1.69786E-15
 -1      4313 2.03749E+01 4.84036E-02-5.61499E-04-2.35512E-02-7.84242E-14-3.83880E-14
 -1      4314 2.04312E+01 4.04520E-01 4.57671E-05 2.91750E-03-2.13368E-15-1.05355E-14
 -1      4315 2.04299E+01 3.48365E-01-5.12881E-04-1.15011E-03-7.66328E-16 5.33955E-14
 -1      4316 2.04302E+01 4.82703E-01-2.25193E-05-4.24698E-03-9.29227E-15-9.31446E-15
 -1      4317 2.04235E+01 3.59484E-01-5.43725E-04 5.33259E-05 2.17985E-14-9.75182E-14
 -1      4318 2.03890E+01 7.33093E-02 4.24910E-04 9.71476E-03-3.41514E-14 4.41505E-14
 -1      4319 2.03773E+01 4.85275E-02-4.42711E-04-9.86002E-03-8.04371E-14 1.77610E-14
 -1      4320 2.03345E+01-2.37198E-02-2.24163E-04-2.84913E-02-8.44991E-14-2.65077E-15
 -1      4321 2.03113E+01-5.17102E-02 6.66148E-04-2.85712E-02-5.75191E-14 6.35703E-15
 -1      4322 2.02869E+01-7.18562E-02-4.75520E-04-2.85631E-02-2.63665E-14 2.35180E-14
 -1      4323 2.04187E+01 6.27122E-01-5.07572E-04 2.01046E-04-4.34765E-17-5.29274E-14
 -1      4324 2.04229E+01 5.56738E-01-3.36254E-04 6.55900E-03 1.64585E-14-3.72837E-14
 -1      4325 2.03590E+01 1.28490E-02 8.76457E-04-2.63101E-02-1.13854E-13-4.90963E-14
 -1      4326 2.04252E+01 4.36940E-01 2.00601E-03 2.36103E-03 4.12809E-14-1.13065E-13
 -1      4327 2.04196E+01 5.43281E-01-8.89046E-04 1.69806E-02 4.22763E-14-9.71955E-14
 -3
    1PSTEP                         3           1           1          
  100CL  101 1.000000000        4327                     0    1           1
 -4  TOSTRAIN    6    1
 -5  EXX         1    4    1    1
 -5  EYY         1    4    2    2
 -5  EZZ         1    4    3    3
 -5  EXY         1    4    1    2
 -5  EYZ         1    4    2    3
 -5  EZX         1    4    3    1
 -1         1 1.29810E-05-6.60170E-05 1.15301E-05-3.66133E-05-7.53563E-18-4.39441E-18
 -1         2 4.13009E-05-1.25927E-04 2.35893E-05 1.08015E-06-2.63157E-18 8.16407E-19
 -1         3 9.52662E-05-2.85372E-05-2.86033E-05 5.44029E-08-2.32157E-18-2.81177E-18
 -1         4 9.48976E-05-2.89293E-05-2.80058E-05 4.52232E-07-1.37497E-19 1.13958E-18
 -1         5 1.43344E-04-2.14778E-05-4.25284E-05 3.85291E-05-1.42884E-19 9.66803E-18
 -1         6 1.46056E-04 2.57150E-10-4.41320E-05-5.42110E-05-5.45595E-19 6.23893E-18
 -1         7 9.01610E-05-3.19237E-07-3.90207E-05-2.90742E-05-8.66091E-20 8.35122E-20
 -1         8 8.51267E-05 9.36335E-08-3.63436E-05-2.02575E-05-8.62650E-20-1.45595E-18
 -1         9 8.28154E-05 7.80549E-08-3.53524E-05-1.56408E-05-5.16293E-20-2.18063E-18
 -1        10 8.17766E-05 3.89448E-08-3.48824E-05-1.20798E-05-2.21486E-20-2.45154E-18
 -1        11 8.12534E-05 1.95219E-08-3.46529E-05-9.01400E-06-1.01313E-20-2.44077E-18
 -1        12 8.09826E-05 9.23730E-09-3.45382E-05-6.28475E-06 1.03811E-20-2.37568E-18
 -1        13 8.08404E-05 4.62676E-09-3.44801E-05-3.68637E-06 8.71517E-21-2.22186E-18
 -1        14 8.07808E-05 2.76908E-09-3.44564E-05-1.18507E-06 3.67229E-20-2.10151E-18
 -1        15 8.07827E-05 2.75659E-09-3.44571E-05 1.28676E-06 5.12232E-20-1.97505E-18
 -1        16 8.08465E-05 4.54822E-09-3.44822E-05 3.79304E-06 6.54374E-20-1.80182E-18
 -1        17 8.09937E-05 8.45158E-09-3.45417E-05 6.40325E-06 7.39648E-20-1.54011E-18
 -1        18 8.12694E-05 1.82500E-08-3.46578E-05 9.15157E-06 7.35496E-20-1.07774E-18
 -1        19 8.17978E-05 3.82500E-08-3.48897E-05 1.22531E-05 1.16857E-19-5.30625E-19
 -1        20 8.28398E-05 8.05254E-08-3.53633E-05 1.58678E-05 1.34281E-19 3.67283E-19
 -1        21 8.50886E-05 1.69937E-07-3.63771E-05 2.04791E-05 1.39443E-19 1.91713E-18
 -1        22 9.16453E-05-9.93639E-08-3.87404E-05 2.79957E-05 6.98802E-21 4.62006E-18
 -1        23 1.13987E-04-3.81500E-05-3.57479E-05-5.16022E-06-3.81800E-19 4.30240E-18
 -1        24 9.31564E-05-2.78057E-05-2.91751E-05 4.02019E-07-1.03252E-19 2.61468E-18
 -1        25 8.92369E-05-2.68848E-05-2.69880E-05 3.84772E-07-8.36131E-20 1.10354E-18
 -1        26 8.80551E-05-2.65012E-05-2.64082E-05 2.08662E-07-6.70422E-20 1.13952E-19
 -1        27 8.80478E-05-2.64699E-05-2.63857E-05 1.42312E-07 6.55826E-20-3.51750E-19
 -1        28 8.85651E-05-2.66003E-05-2.65501E-05 1.04354E-07 5.59774E-20-3.27094E-19
 -1        29 8.92812E-05-2.68018E-05-2.67707E-05 7.68700E-08-1.46066E-19-6.04480E-19
 -1        30 9.01068E-05-2.70415E-05-2.70213E-05 5.87389E-08 1.09011E-19-8.39899E-19
 -1        31 9.09254E-05-2.72824E-05-2.72683E-05 4.45511E-08-4.39515E-20-1.09612E-18
 -1        32 9.16855E-05-2.75076E-05-2.74974E-05 3.36411E-08 7.45667E-21-1.99366E-18
 -1        33 9.23618E-05-2.77088E-05-2.77012E-05 2.50879E-08-7.29553E-21-2.06904E-18
 -1        34 9.29445E-05-2.78827E-05-2.78770E-05 1.83643E-08-1.84639E-19-2.36901E-18
 -1        35 9.34332E-05-2.80290E-05-2.80246E-05 1.27491E-08 1.57053E-19-2.25076E-18
 -1        36 9.38187E-05-2.81442E-05-2.81411E-05 9.13062E-09-1.85699E-19-2.36304E-18
 -1        37 9.41493E-05-2.82436E-05-2.82412E-05 5.82633E-09 4.16419E-20-3.17563E-18
 -1        38 9.44158E-05-2.83238E-05-2.83219E-05 3.27554E-09-1.27135E-20-3.67131E-18
 -1        39 9.46326E-05-2.83892E-05-2.83877E-05 1.31469E-09-8.02979E-21-3.96117E-18
 -1        40 9.48148E-05-2.84444E-05-2.84431E-05-1.91597E-10 2.25129E-19-3.47724E-18
 -1        41 9.49790E-05-2.84942E-05-2.84932E-05-1.26238E-09 2.85302E-19-1.97056E-18
 -1        42 9.51354E-05-2.85420E-05-2.85408E-05-2.15691E-09-3.68746E-19-1.68189E-18
 -1        43 9.53212E-05-2.85987E-05-2.85975E-05-2.69761E-09-1.65845E-19-2.84728E-18
 -1        44 9.55556E-05-2.86704E-05-2.86691E-05-2.90914E-09-1.09048E-19-3.17483E-18
 -1        45 9.58740E-05-2.87676E-05-2.87665E-05-2.62340E-09-1.20598E-19-2.58683E-18
 -1        46 9.63247E-05-2.89051E-05-2.89044E-05-1.49857E-09-1.69412E-19-1.77612E-18
 -1        47 9.69767E-05-2.91039E-05-2.91042E-05 1.00767E-09-2.99305E-19-2.87173E-18
 -1        48 9.79291E-05-2.93918E-05-2.93971E-05 9.40758E-09 8.10304E-20-3.68019E-18
 -1        49 9.92472E-05-2.97940E-05-2.98025E-05 1.57620E-08-2.45705E-19-4.45993E-18
 -1        50 1.01271E-04-3.04056E-05-3.04276E-05 3.63173E-08 4.08681E-20-4.18962E-18
 -1        51 1.04259E-04-3.13070E-05-3.13536E-05 7.36069E-08 7.15958E-20-4.15674E-18
 -1        52 1.08659E-04-3.26279E-05-3.27194E-05 1.42405E-07 4.08482E-19-2.95889E-18
 -1        53 1.15070E-04-3.45461E-05-3.47066E-05 2.63703E-07 4.73061E-19-2.53858E-18
 -1        54 1.24170E-04-3.72498E-05-3.75009E-05 4.86813E-07-3.43452E-19-1.05053E-18
 -1        55 1.35840E-04-4.07258E-05-4.09956E-05 7.47776E-07 1.64430E-19-1.03968E-18
 -1        56 1.50767E-04-4.51962E-05-4.52302E-05 1.06587E-06-4.21687E-19-6.35275E-21
 -1        57 1.65390E-04-4.96744E-05-4.88988E-05 1.02032E-06-1.77437E-19 4.52871E-19
 -1        58 1.71705E-04-5.17810E-05-4.97894E-05-2.49246E-07 5.42432E-20 1.48916E-18
 -1        59 1.57962E-04-4.76777E-05-4.57955E-05-3.47925E-06-3.00776E-19 2.00461E-18
 -1        60 1.23310E-04-3.63552E-05-3.82778E-05-6.07765E-06 3.34552E-19 3.00421E-18
 -1        61 9.11928E-05-2.57191E-05-3.20262E-05-4.08268E-06 5.16200E-19 6.27133E-18
 -1        62 7.86740E-05-2.18371E-05-2.97534E-05 4.50375E-07-5.06949E-19 7.20694E-18
 -1        63 9.74823E-05-2.80632E-05-3.31063E-05 5.47885E-06-1.08911E-18 5.63277E-20
 -1        64 1.36228E-04-4.08533E-05-4.06024E-05 5.27913E-06 2.12122E-19-2.33146E-18
 -1        65 1.63112E-04-4.92949E-05-4.70053E-05 1.82353E-06-1.90702E-19-2.88150E-18
 -1        66 1.65798E-04-4.99075E-05-4.84573E-05-5.64079E-07-1.32753E-19-3.20777E-18
 -1        67 1.54284E-04-4.62919E-05-4.58843E-05-1.14268E-06 5.63899E-19-4.33411E-18
 -1        68 1.37614E-04-4.12578E-05-4.13858E-05-1.02698E-06 4.33783E-19 8.49945E-19
 -1        69 1.21945E-04-3.65831E-05-3.68251E-05-7.42479E-07-2.41929E-19 3.77181E-18
 -1        70 1.09344E-04-3.28316E-05-3.30592E-05-5.14328E-07 4.44312E-20 5.76194E-19
 -1        71 1.00341E-04-3.01218E-05-3.03811E-05-2.92139E-07 3.43090E-19 1.68423E-18
 -1        72 9.55097E-05-2.85745E-05-2.88618E-05 3.17228E-08 4.76732E-19 3.82943E-18
 -1        73 1.02184E-04-3.05896E-05-3.41519E-05-1.92934E-06 6.19922E-20 9.50678E-18
 -1        74 9.25701E-05-2.75168E-05-2.89091E-05-3.34694E-07-1.18915E-20 8.16492E-18
 -1        75 8.91173E-05-2.67049E-05-2.69745E-05-1.25602E-07 8.88069E-20 7.08595E-18
 -1        76 8.80620E-05-2.64449E-05-2.64388E-05-9.57139E-08 4.78234E-21 6.42993E-18
 -1        77 8.80982E-05-2.64534E-05-2.64164E-05-7.64956E-08-4.23603E-20 6.13212E-18
 -1        78 8.86355E-05-2.66051E-05-2.65785E-05-6.26029E-08 8.10451E-20 5.74877E-18
 -1        79 8.93923E-05-2.68261E-05-2.68076E-05-5.18354E-08-1.08265E-19 5.81341E-18
 -1        80 9.02185E-05-2.70706E-05-2.70561E-05-4.29832E-08 9.95934E-20 5.65671E-18
 -1        81 9.10296E-05-2.73120E-05-2.72997E-05-3.53623E-08-5.05727E-20 5.10195E-18
 -1        82 9.17791E-05-2.75357E-05-2.75250E-05-2.87288E-08 1.65882E-19 4.32229E-18
 -1        83 9.24437E-05-2.77344E-05-2.77251E-05-2.29681E-08 7.66422E-20 3.77288E-18
 -1        84 9.30154E-05-2.79054E-05-2.78975E-05-1.80045E-08 1.01509E-20 3.82591E-18
 -1        85 9.34954E-05-2.80491E-05-2.80425E-05-1.37705E-08 4.29092E-20 3.14464E-18
 -1        86 9.38912E-05-2.81677E-05-2.81623E-05-1.01963E-08 1.94849E-19 2.78596E-18
 -1        87 9.42141E-05-2.82645E-05-2.82602E-05-7.21022E-09-2.04108E-20 2.15044E-18
 -1        88 9.44771E-05-2.83434E-05-2.83401E-05-4.74500E-09-2.45000E-19 2.01337E-18
 -1        89 9.46949E-05-2.84088E-05-2.84064E-05-2.74620E-09-6.42200E-20 2.74138E-18
 -1        90 9.48826E-05-2.84652E-05-2.84637E-05-1.18155E-09 2.43778E-19 1.84753E-18
 -1        91 9.50559E-05-2.85172E-05-2.85166E-05-5.08716E-11-1.14046E-19 1.70858E-18
 -1        92 9.52305E-05-2.85696E-05-2.85700E-05 6.04023E-10-9.56727E-20 2.66891E-18
 -1        93 9.54223E-05-2.86271E-05-2.86285E-05 6.90916E-10 4.62122E-20 4.00771E-18
 -1        94 9.56459E-05-2.86940E-05-2.86966E-05 6.31633E-11 2.23038E-19 2.51353E-18
 -1        95 9.59140E-05-2.87741E-05-2.87777E-05-1.47419E-09-3.99223E-20-7.91523E-19
 -1        96 9.62344E-05-2.88697E-05-2.88743E-05-4.13852E-09 2.76677E-19-8.90807E-19
 -1        97 9.66065E-05-2.89805E-05-2.89856E-05-8.10952E-09-5.86001E-20 1.83316E-18
 -1        98 9.70156E-05-2.91022E-05-2.91068E-05-1.34158E-08-1.70920E-19 3.49348E-18
 -1        99 9.74262E-05-2.92240E-05-2.92266E-05-1.97500E-08-5.89855E-21 5.34582E-18
 -1       100 9.77732E-05-2.93269E-05-2.93249E-05-2.62069E-08 8.53467E-20 2.90189E-18
 -1       101 9.79550E-05-2.93805E-05-2.93705E-05-3.09822E-08 1.82144E-20 2.42867E-18
 -1       102 9.78300E-05-2.93431E-05-2.93211E-05-3.11482E-08-3.28196E-20 2.63111E-18
 -1       103 9.72242E-05-2.91631E-05-2.91257E-05-2.27519E-08 1.82146E-19 1.66309E-18
 -1       104 9.59549E-05-2.87859E-05-2.87325E-05-1.59946E-09-4.13445E-19 3.19850E-18
 -1       105 9.38775E-05-2.81681E-05-2.81033E-05 3.49203E-08 3.55724E-19 3.28362E-18
 -1       106 9.09549E-05-2.72972E-05-2.72330E-05 8.50546E-08 1.73479E-19 6.49688E-19
 -1       107 8.73326E-05-2.62147E-05-2.61699E-05 1.40035E-07-2.99500E-20-2.99075E-19
 -1       108 8.33869E-05-2.50311E-05-2.50267E-05 1.83844E-07-3.31937E-19-1.02333E-18
 -1       109 7.97007E-05-2.39201E-05-2.39698E-05 1.97733E-07-5.12407E-19-1.77493E-19
 -1       110 7.69408E-05-2.30832E-05-2.31841E-05 1.69083E-07 4.76696E-19-9.10018E-19
 -1       111 7.56576E-05-2.26891E-05-2.28192E-05 9.98659E-08-1.99564E-19-4.19603E-18
 -1       112 7.60899E-05-2.28133E-05-2.29384E-05 8.50216E-09 4.17239E-19-3.94545E-18
 -1       113 7.80723E-05-2.34081E-05-2.34966E-05-7.76302E-08-2.90572E-19-4.89091E-18
 -1       114 8.11011E-05-2.43214E-05-2.43568E-05-1.35180E-07-6.30299E-20-3.60458E-18
 -1       115 8.45236E-05-2.53544E-05-2.53403E-05-1.54497E-07-4.72225E-19-1.74660E-18
 -1       116 8.77537E-05-2.63284E-05-2.62826E-05-1.40806E-07 3.94401E-19-2.19032E-18
 -1       117 9.04185E-05-2.71301E-05-2.70749E-05-1.08458E-07 1.43083E-19-2.98837E-18
 -1       118 9.23966E-05-2.77227E-05-2.76762E-05-7.39136E-08 3.34870E-19-5.89036E-18
 -1       119 9.37637E-05-2.81299E-05-2.80984E-05-5.09790E-08 1.75992E-19-5.89942E-18
 -1       120 9.46673E-05-2.83989E-05-2.83743E-05-4.17956E-08-7.98645E-19-4.32203E-18
 -1       121 9.51697E-05-2.85646E-05-2.85276E-05-2.44167E-08 9.98391E-19-2.17887E-18
 -1       122 9.52595E-05-2.86699E-05-2.85227E-05-2.91999E-08-1.28244E-19 8.70093E-19
 -1       123 9.54113E-05-2.91796E-05-2.83749E-05-7.02908E-08 1.22333E-17 2.13643E-19
 -1       124 9.55869E-05-2.97812E-05-2.82268E-05-7.77780E-08 1.44030E-17-9.80454E-19
 -1       125 9.56369E-05-2.99641E-05-2.82060E-05-5.09079E-08 1.13693E-17 6.29989E-20
 -1       126 9.54186E-05-2.92401E-05-2.84515E-05 9.63034E-09 1.01990E-17-1.16925E-18
 -1       127 9.48298E-05-2.72751E-05-2.90555E-05 8.85879E-08 6.06806E-18-7.69520E-19
 -1       128 9.38128E-05-2.38560E-05-3.00728E-05 1.84226E-07 1.89522E-18 2.11950E-19
 -1       129 9.24349E-05-1.92195E-05-3.14227E-05 2.65218E-07 1.06968E-18 8.30271E-19
 -1       130 9.09013E-05-1.40570E-05-3.28974E-05 2.95951E-07-1.34840E-18-2.86271E-20
 -1       131 8.95472E-05-9.49916E-06-3.41727E-05 2.42361E-07 3.02550E-20-9.32051E-20
 -1       132 8.87632E-05-6.87491E-06-3.48809E-05 8.58579E-08 2.18280E-18-9.33424E-19
 -1       133 8.88674E-05-7.21945E-06-3.47497E-05-1.25622E-07-1.55543E-18 6.04302E-19
 -1       134 8.99466E-05-1.08544E-05-3.37129E-05-3.51209E-07-1.80758E-18-1.68341E-18
 -1       135 9.17782E-05-1.70205E-05-3.20071E-05-5.02005E-07-1.76757E-18 1.08834E-18
 -1       136 9.38074E-05-2.37628E-05-3.01798E-05-4.05133E-07-3.48353E-18-2.03573E-18
 -1       137 9.50086E-05-2.79982E-05-2.88162E-05-1.32988E-08-6.15585E-18 1.70750E-18
 -1       138 2.92922E-05-9.70618E-05 1.78462E-05-2.40682E-05-2.64698E-19 7.73076E-19
 -1       139 9.42707E-06-3.94258E-05 4.72925E-06-1.98499E-05 1.16382E-18 5.62218E-19
 -1       140 9.22914E-06 1.42739E-05-1.38765E-05 2.05656E-05 4.23644E-18 3.80148E-18
 -1       141 5.19063E-05 3.28196E-05-3.51228E-05 7.83853E-05 6.41670E-18 6.45947E-18
 -1       142 1.37699E-04 6.20195E-06-5.55577E-05 1.18626E-04 4.62946E-18 7.57671E-18
 -1       143 2.39844E-04-4.75746E-05-7.23449E-05 1.11792E-04 1.51280E-18 4.13098E-18
 -1       144 3.11147E-04-9.14456E-05-8.18593E-05 5.31968E-05 8.14918E-19 3.76908E-18
 -1       145 3.21360E-04-9.79539E-05-8.32057E-05-3.04495E-05-2.78806E-19 7.23472E-19
 -1       146 2.65207E-04-6.26192E-05-7.60627E-05-1.00489E-04 1.48840E-18-5.81149E-18
 -1       147 1.67018E-04-7.02831E-06-6.13754E-05-1.23145E-04 4.98966E-18-8.59993E-18
 -1       148 6.74771E-05 3.03779E-05-3.97400E-05-8.94546E-05 9.29068E-18-1.11110E-17
 -1       149 1.44398E-05 2.34816E-05-1.89013E-05-3.38874E-05 8.65795E-18-5.91144E-18
 -1       150 7.54714E-06-2.61238E-05 7.99032E-07 1.16288E-05 7.17140E-18-3.19183E-18
 -1       151 2.62439E-05-8.91297E-05 1.63344E-05 2.33163E-05 5.84537E-18-1.19707E-18
 -1       152 4.04329E-05-1.22743E-04 2.29265E-05-1.34923E-07 1.24461E-18-8.41368E-19
 -1       153 3.30759E-05-1.12277E-04 2.13908E-05-2.96969E-05-1.61550E-18 2.83207E-19
 -1       154 4.32659E-06-1.10181E-05-5.35862E-06-7.41272E-06-8.55884E-18-6.53740E-18
 -1       155 3.87066E-05 1.91414E-05-2.80095E-05 5.17205E-05-9.40630E-18-9.12254E-18
 -1       156 1.28572E-04 2.72179E-06-5.23551E-05 1.05944E-04-6.54164E-18-1.27555E-17
 -1       157 2.57287E-04-5.36620E-05-7.48975E-05 1.15360E-04-5.51207E-18-1.38871E-17
 -1       158 3.58295E-04-1.08321E-04-8.85511E-05 5.41675E-05-1.41337E-18-1.38378E-17
 -1       159 3.65474E-04-1.11867E-04-8.94688E-05-4.49355E-05-4.15231E-19-6.11685E-18
 -1       160 2.74567E-04-6.13793E-05-7.75616E-05-1.13669E-04-1.07647E-18 3.27251E-18
 -1       161 1.48966E-04-2.13618E-06-5.73342E-05-1.16418E-04-3.06160E-18 6.94482E-18
 -1       162 5.22117E-05 2.21195E-05-3.36238E-05-6.67979E-05-2.56482E-18 4.34189E-18
 -1       163 5.94258E-06-3.58663E-06-8.49166E-06-8.46326E-07-9.12678E-19 8.24587E-19
 -1       164 1.14466E-05-5.96675E-05 9.82945E-06 3.45186E-05-5.42525E-19-1.67077E-19
 -1       165 3.27718E-05-1.11403E-04 2.11116E-05 2.97495E-05-3.73753E-18 1.17630E-18
 -1       166 9.48428E-05-1.23149E-05-3.55534E-05-2.24298E-05-1.13578E-18-5.96179E-19
 -1       167 8.92454E-05-8.44642E-06-3.47893E-05-1.73909E-05-8.37987E-19-1.43266E-18
 -1       168 8.65582E-05-6.51126E-06-3.44165E-05-1.35973E-05-5.11208E-19-1.86672E-18
 -1       169 8.51926E-05-5.51557E-06-3.42304E-05-1.03687E-05-2.56330E-19-2.05691E-18
 -1       170 8.44466E-05-4.94481E-06-3.41413E-05-7.54762E-06-3.44115E-20-2.01677E-18
 -1       171 8.40180E-05-4.59894E-06-3.40985E-05-4.90425E-06 1.50686E-19-1.92096E-18
 -1       172 8.37989E-05-4.41421E-06-3.40801E-05-2.39626E-06 4.00534E-19-1.77436E-18
 -1       173 8.37341E-05-4.35824E-06-3.40753E-05 4.94536E-08 5.85679E-19-1.66795E-18
 -1       174 8.38084E-05-4.42238E-06-3.40808E-05 2.49717E-06 7.41157E-19-1.57277E-18
 -1       175 8.40391E-05-4.61762E-06-3.40997E-05 5.01153E-06 8.36170E-19-1.37297E-18
 -1       176 8.44727E-05-4.97079E-06-3.41419E-05 7.62039E-06 9.93259E-19-9.85496E-19
 -1       177 8.52496E-05-5.57301E-06-3.42319E-05 1.05087E-05 1.29125E-18-5.76532E-19
 -1       178 8.66500E-05-6.60956E-06-3.44183E-05 1.37750E-05 1.35646E-18 3.48342E-20
 -1       179 8.93892E-05-8.59777E-06-3.47916E-05 1.76258E-05 1.32817E-18 1.15083E-18
 -1       180 9.57832E-05-1.36152E-05-3.54272E-05 2.18871E-05 1.03673E-18 2.87573E-18
 -1       181 1.05610E-04-2.61031E-05-3.52648E-05 1.86601E-05 5.98144E-19 4.98151E-18
 -1       182 1.03615E-04-2.70807E-05-3.28027E-05-1.25971E-05-1.03695E-18 5.95411E-19
 -1       183 9.73226E-05-2.82716E-05-2.96326E-05-4.96246E-06-9.28057E-19 1.39731E-19
 -1       184 9.36319E-05-2.76564E-05-2.82285E-05-1.86292E-06-5.44162E-19-1.71372E-19
 -1       185 9.20330E-05-2.74166E-05-2.76568E-05-4.65843E-07-2.97586E-19-3.89797E-19
 -1       186 9.14241E-05-2.73356E-05-2.74476E-05 2.22979E-07 5.58148E-20-5.11747E-19
 -1       187 9.13583E-05-2.73670E-05-2.74159E-05 5.49735E-07-1.07097E-19-4.39816E-19
 -1       188 9.15845E-05-2.74659E-05-2.74751E-05 7.02518E-07-1.69450E-19-3.66426E-19
 -1       189 9.19611E-05-2.75970E-05-2.75827E-05 7.42054E-07-1.59281E-19-6.08004E-19
 -1       190 9.23978E-05-2.77380E-05-2.77107E-05 7.15391E-07-2.65193E-19-2.84263E-19
 -1       191 9.28397E-05-2.78753E-05-2.78420E-05 6.52773E-07-7.52521E-20-4.06763E-20
 -1       192 9.32556E-05-2.80013E-05-2.79665E-05 5.73285E-07-2.07051E-19-1.11244E-19
 -1       193 9.36289E-05-2.81124E-05-2.80791E-05 4.89206E-07-1.92722E-19-4.18937E-19
 -1       194 9.39391E-05-2.82034E-05-2.81731E-05 4.12337E-07-3.04851E-19-9.66063E-19
 -1       195 9.42192E-05-2.82844E-05-2.82584E-05 3.39742E-07-2.31771E-19-6.84572E-19
 -1       196 9.44554E-05-2.83517E-05-2.83307E-05 2.78379E-07-9.01285E-20-8.40423E-19
 -1       197 9.46556E-05-2.84079E-05-2.83923E-05 2.30508E-07-2.42744E-19-1.17048E-18
 -1       198 9.48296E-05-2.84558E-05-2.84461E-05 1.97788E-07 1.73498E-19-1.42294E-18
 -1       199 9.49889E-05-2.84989E-05-2.84956E-05 1.82058E-07 7.88082E-19-1.43026E-18
 -1       200 9.51392E-05-2.85390E-05-2.85426E-05 1.84867E-07 5.62858E-20-1.31412E-18
 -1       201 9.53115E-05-2.85843E-05-2.85966E-05 2.09992E-07-7.00051E-19-8.94863E-19
 -1       202 9.55178E-05-2.86381E-05-2.86615E-05 2.63485E-07-2.25603E-19-1.23725E-19
 -1       203 9.57831E-05-2.87069E-05-2.87451E-05 3.53850E-07 3.62287E-19-1.25660E-19
 -1       204 9.61401E-05-2.87990E-05-2.88578E-05 4.94193E-07 6.29412E-20-7.12806E-19
 -1       205 9.66327E-05-2.89253E-05-2.90135E-05 7.04300E-07-2.06078E-19-9.32875E-19
 -1       206 9.73212E-05-2.91004E-05-2.92320E-05 1.01531E-06-6.40366E-19-9.12996E-19
 -1       207 9.82331E-05-2.93312E-05-2.95216E-05 1.44278E-06-9.21055E-19-1.33937E-18
 -1       208 9.95706E-05-2.96658E-05-2.99486E-05 2.09036E-06 4.72884E-19-2.09137E-18
 -1       209 1.01450E-04-3.01330E-05-3.05507E-05 3.03288E-06 2.44147E-19-1.44186E-18
 -1       210 1.04073E-04-3.07841E-05-3.13936E-05 4.38230E-06 1.21090E-18-6.46955E-19
 -1       211 1.07695E-04-3.16935E-05-3.25562E-05 6.26118E-06 7.16494E-19-8.44839E-20
 -1       212 1.12593E-04-3.29760E-05-3.41128E-05 8.73856E-06 8.29186E-19 2.34069E-19
 -1       213 1.18661E-04-3.47095E-05-3.59851E-05 1.14896E-05 1.06491E-19 7.42904E-19
 -1       214 1.26621E-04-3.73905E-05-3.82595E-05 1.39910E-05-8.64156E-20 3.04740E-19
 -1       215 1.35873E-04-4.14274E-05-4.04845E-05 1.40480E-05 4.73998E-19 1.23635E-18
 -1       216 1.45368E-04-4.70911E-05-4.20714E-05 7.84689E-06 1.13349E-18 1.97946E-18
 -1       217 1.52457E-04-5.24653E-05-4.28237E-05-7.86523E-06-3.06149E-19 1.44383E-18
 -1       218 1.52289E-04-5.09939E-05-4.36793E-05-2.63548E-05 7.24848E-19 1.48593E-18
 -1       219 1.45213E-04-4.11201E-05-4.52934E-05-3.09145E-05 2.01102E-18 2.44820E-18
 -1       220 1.36528E-04-2.99596E-05-4.67200E-05-1.61929E-05 2.87462E-19 1.93210E-19
 -1       221 1.36423E-04-2.99247E-05-4.66513E-05 1.48255E-05-3.06086E-18 2.32699E-20
 -1       222 1.45535E-04-4.35176E-05-4.43714E-05 3.04272E-05-2.47551E-18-8.86427E-19
 -1       223 1.51207E-04-5.22611E-05-4.25005E-05 1.82333E-05-1.06684E-18-8.60486E-19
 -1       224 1.46966E-04-4.95506E-05-4.16953E-05-1.10152E-06-1.51553E-19-3.19950E-18
 -1       225 1.38203E-04-4.37205E-05-4.04685E-05-1.23077E-05-1.49435E-19-1.88866E-18
 -1       226 1.27779E-04-3.84423E-05-3.83027E-05-1.57850E-05 2.51292E-18-3.53266E-19
 -1       227 1.17996E-04-3.46751E-05-3.57187E-05-1.46652E-05 1.58532E-18-3.11529E-19
 -1       228 1.09676E-04-3.19913E-05-3.32878E-05-1.18713E-05-6.38709E-19 7.95672E-19
 -1       229 1.03121E-04-2.99637E-05-3.13412E-05-8.60751E-06 4.11923E-19 2.75201E-18
 -1       230 9.81863E-05-2.81858E-05-2.99940E-05-4.97932E-06 1.36510E-18 1.52849E-18
 -1       231 9.95093E-05-2.85530E-05-3.05893E-05 7.21099E-06 6.60845E-19 4.46826E-18
 -1       232 9.44218E-05-2.77866E-05-2.85265E-05 2.75096E-06 6.19869E-19 3.83123E-18
 -1       233 9.21061E-05-2.74036E-05-2.76840E-05 9.28596E-07 3.19935E-19 3.36082E-18
 -1       234 9.11622E-05-2.72430E-05-2.73671E-05 6.42839E-08 2.02336E-19 3.10994E-18
 -1       235 9.09542E-05-2.72366E-05-2.72942E-05-3.63272E-07 2.24922E-19 2.82172E-18
 -1       236 9.11405E-05-2.73233E-05-2.73436E-05-5.64238E-07-1.40846E-20 2.69931E-18
 -1       237 9.15274E-05-2.74574E-05-2.74550E-05-6.37582E-07 2.97958E-19 2.36331E-18
 -1       238 9.19995E-05-2.76094E-05-2.75938E-05-6.36945E-07 3.53894E-19 2.00979E-18
 -1       239 9.24887E-05-2.77616E-05-2.77392E-05-5.94695E-07 3.91019E-19 1.67607E-18
 -1       240 9.29556E-05-2.79039E-05-2.78789E-05-5.31170E-07 2.10351E-19 2.03967E-18
 -1       241 9.33791E-05-2.80311E-05-2.80062E-05-4.59464E-07 1.68606E-19 1.77073E-18
 -1       242 9.37501E-05-2.81413E-05-2.81182E-05-3.88027E-07 5.23746E-19 1.35922E-18
 -1       243 9.40677E-05-2.82346E-05-2.82144E-05-3.22232E-07 4.66214E-19 9.09477E-19
 -1       244 9.43358E-05-2.83126E-05-2.82959E-05-2.65412E-07 5.17056E-20 7.67660E-19
 -1       245 9.45617E-05-2.83777E-05-2.83648E-05-2.19585E-07-2.29747E-19 1.44009E-18
 -1       246 9.47547E-05-2.84327E-05-2.84239E-05-1.85956E-07 1.30741E-19 1.23175E-18
 -1       247 9.49255E-05-2.84810E-05-2.84763E-05-1.65254E-07 2.76025E-19 1.13775E-18
 -1       248 9.50855E-05-2.85259E-05-2.85255E-05-1.57901E-07-1.33725E-20 1.45018E-18
 -1       249 9.52464E-05-2.85712E-05-2.85751E-05-1.64027E-07-6.29065E-19 1.40864E-18
 -1       250 9.54200E-05-2.86203E-05-2.86284E-05-1.83299E-07-3.04760E-19 1.36002E-18
 -1       251 9.56171E-05-2.86768E-05-2.86886E-05-2.14525E-07 8.98635E-19 1.10733E-18
 -1       252 9.58464E-05-2.87437E-05-2.87583E-05-2.55001E-07 1.41070E-18 6.24454E-19
 -1       253 9.61128E-05-2.88231E-05-2.88385E-05-2.99567E-07-1.51705E-21-1.09986E-19
 -1       254 9.64146E-05-2.89156E-05-2.89285E-05-3.39379E-07-1.30334E-18-5.41845E-21
 -1       255 9.67393E-05-2.90187E-05-2.90238E-05-3.60549E-07-1.46324E-18 1.49817E-18
 -1       256 9.70597E-05-2.91258E-05-2.91156E-05-3.42948E-07-4.67207E-19 2.20340E-18
 -1       257 9.73278E-05-2.92243E-05-2.91887E-05-2.59878E-07 1.07183E-18 2.30374E-18
 -1       258 9.74712E-05-2.92933E-05-2.92208E-05-7.96880E-08-1.91124E-19 2.02282E-18
 -1       259 9.73917E-05-2.93028E-05-2.91828E-05 2.29105E-07-1.13762E-19 2.32711E-18
 -1       260 9.69710E-05-2.92136E-05-2.90403E-05 6.87628E-07-4.41839E-20 2.64127E-18
 -1       261 9.60867E-05-2.89810E-05-2.87603E-05 1.29081E-06-8.40221E-19 3.26109E-18
 -1       262 9.46433E-05-2.85632E-05-2.83197E-05 1.98815E-06 1.22082E-18 1.98946E-18
 -1       263 9.26159E-05-2.79369E-05-2.77183E-05 2.66872E-06 7.47804E-19 2.14342E-18
 -1       264 9.00991E-05-2.71182E-05-2.69902E-05 3.16373E-06-6.70190E-20 2.40726E-18
 -1       265 8.73401E-05-2.61813E-05-2.62099E-05 3.28117E-06 9.34313E-20 1.96570E-18
 -1       266 8.47278E-05-2.52635E-05-2.54849E-05 2.87566E-06 2.23746E-19-9.23464E-20
 -1       267 8.27167E-05-2.45400E-05-2.49342E-05 1.93003E-06 5.75607E-19-7.94517E-19
 -1       268 8.16953E-05-2.41700E-05-2.46551E-05 6.00587E-07 1.50128E-18-6.76549E-19
 -1       269 8.18513E-05-2.42347E-05-2.46928E-05-8.15012E-07 5.21157E-20-1.63337E-18
 -1       270 8.30984E-05-2.47006E-05-2.50254E-05-1.98571E-06-3.28597E-19-5.63431E-19
 -1       271 8.51113E-05-2.54340E-05-2.55719E-05-2.67718E-06-6.00124E-19-1.25093E-18
 -1       272 8.74492E-05-2.62575E-05-2.62204E-05-2.82933E-06-2.47175E-18-2.88306E-19
 -1       273 8.97026E-05-2.70154E-05-2.68623E-05-2.54676E-06 1.39231E-18 9.76639E-19
 -1       274 9.15967E-05-2.76144E-05-2.74195E-05-2.02484E-06 1.05344E-18-6.62092E-19
 -1       275 9.30227E-05-2.80303E-05-2.78547E-05-1.46135E-06 8.11473E-19-2.45854E-19
 -1       276 9.40080E-05-2.82936E-05-2.81653E-05-9.91704E-07-5.59283E-19 1.75367E-18
 -1       277 9.46487E-05-2.84658E-05-2.83655E-05-6.43839E-07-7.19866E-19 3.09206E-18
 -1       278 9.50587E-05-2.86044E-05-2.84786E-05-3.34210E-07 6.40238E-21 2.66878E-18
 -1       279 9.52374E-05-2.88696E-05-2.84410E-05-5.11081E-07 2.42120E-18 7.08178E-18
 -1       280 9.54729E-05-2.92108E-05-2.83927E-05-5.33820E-07 3.45493E-18 1.07359E-18
 -1       281 9.56608E-05-2.93633E-05-2.84065E-05-9.38332E-08 3.71063E-18-2.31856E-18
 -1       282 9.56902E-05-2.90398E-05-2.85561E-05 8.10439E-07 3.67178E-18-3.84166E-19
 -1       283 9.54606E-05-2.80042E-05-2.89016E-05 2.05289E-06 2.82082E-18-3.43585E-18
 -1       284 9.48791E-05-2.60604E-05-2.94880E-05 3.45196E-06 2.48335E-18-2.91953E-18
 -1       285 9.39128E-05-2.32379E-05-3.02886E-05 4.63295E-06 1.91108E-18-1.10698E-18
 -1       286 9.26313E-05-1.98257E-05-3.12082E-05 5.13701E-06 7.82910E-19-5.39733E-19
 -1       287 9.12441E-05-1.64113E-05-3.20831E-05 4.53870E-06-3.75368E-19-1.04215E-18
 -1       288 9.00943E-05-1.38036E-05-3.27117E-05 2.64874E-06 2.88375E-19 2.25634E-18
 -1       289 8.95709E-05-1.28035E-05-3.29164E-05-2.27238E-07-4.35504E-19-2.26237E-18
 -1       290 8.99318E-05-1.38514E-05-3.26170E-05-3.45305E-06 8.07249E-19-1.75197E-19
 -1       291 9.12081E-05-1.68706E-05-3.18660E-05-5.93624E-06-6.96433E-19-1.40682E-18
 -1       292 9.31471E-05-2.11219E-05-3.08642E-05-6.58875E-06-2.03051E-18-6.35498E-19
 -1       293 1.44307E-05-5.54908E-05 1.39633E-05 1.19368E-05-6.93191E-19 1.73684E-18
 -1       294 2.73291E-05-4.79948E-05 5.89262E-06 2.41845E-05 2.63004E-19-1.17791E-19
 -1       295 5.23013E-05-3.81088E-05-7.89618E-06 3.75150E-05 1.61254E-18 5.61932E-18
 -1       296 8.87256E-05-3.08893E-05-2.52110E-05 4.85231E-05 2.73676E-18 3.75829E-18
 -1       297 1.32040E-04-2.81408E-05-4.34370E-05 5.33527E-05 3.27897E-18 3.40084E-18
 -1       298 1.76044E-04-3.19742E-05-5.94713E-05 4.39854E-05 3.26385E-18 8.25010E-19
 -1       299 2.09884E-04-3.58687E-05-7.12098E-05 2.92595E-05 8.71597E-19-2.41404E-19
 -1       300 2.20092E-04-3.59401E-05-7.54734E-05 3.31453E-06 1.38013E-18-3.48210E-19
 -1       301 2.16625E-04-3.70557E-05-7.34382E-05-2.31154E-05 2.88044E-18-1.90477E-19
 -1       302 1.87383E-04-3.19426E-05-6.39237E-05-4.34946E-05 3.66291E-18-3.09760E-18
 -1       303 1.47303E-04-3.50218E-05-4.71944E-05-4.33658E-05 4.63454E-18-1.74933E-18
 -1       304 9.62109E-05-2.77182E-05-2.94064E-05-5.15658E-05 3.81250E-18-6.64900E-18
 -1       305 5.76387E-05-3.38556E-05-1.16799E-05-4.07610E-05 2.61691E-18-3.28373E-18
 -1       306 3.14731E-05-4.22886E-05 2.61685E-06-3.25286E-05-1.50137E-19-1.82414E-18
 -1       307 1.43258E-05-5.27308E-05 1.30765E-05-1.44455E-05-1.07552E-18-1.70010E-18
 -1       308 1.15779E-05-5.57841E-05 1.51276E-05-2.88291E-06-1.83700E-18-2.44454E-18
 -1       309 2.15567E-05-5.14189E-05 9.43061E-06 1.09950E-05-3.66511E-18-4.58435E-18
 -1       310 4.49819E-05-4.75314E-05-1.97087E-06 2.26453E-05-4.62501E-18-3.64756E-18
 -1       311 8.79814E-05-4.67403E-05-1.94349E-05 3.47838E-05-3.87263E-18-4.69510E-18
 -1       312 1.40696E-04-4.88620E-05-3.93925E-05 3.62012E-05-3.70513E-18-5.25986E-18
 -1       313 1.91779E-04-5.04473E-05-5.85243E-05 2.34833E-05-2.07311E-18-5.75517E-18
 -1       314 2.33180E-04-4.83315E-05-7.42669E-05 1.52339E-05-1.46113E-18-6.81269E-18
 -1       315 2.48608E-04-4.73186E-05-8.02050E-05 5.17511E-07-2.66455E-18-7.33977E-18
 -1       316 2.32789E-04-4.52290E-05-7.53063E-05-1.31394E-05-2.56566E-18-7.53986E-18
 -1       317 2.00227E-04-4.74673E-05-6.23857E-05-3.23165E-05-9.36051E-19-3.51180E-18
 -1       318 1.48577E-04-4.53845E-05-4.37837E-05-4.06899E-05-1.09331E-18 5.26007E-19
 -1       319 9.86332E-05-4.79530E-05-2.31022E-05-3.77115E-05-1.21697E-18 3.18802E-18
 -1       320 4.92466E-05-4.67937E-05-3.95869E-06-2.63847E-05 1.43360E-19 3.49719E-19
 -1       321 2.34234E-05-5.34509E-05 9.17941E-06-1.18901E-05-1.58099E-18-1.32434E-18
 -1       322 1.21134E-05-5.47640E-05 1.47398E-05-1.71475E-07-7.70694E-19 2.23617E-19
 -1       323 9.53062E-05-2.54126E-05-2.99303E-05-4.86829E-06 4.36568E-19 6.13676E-19
 -1       324 9.16417E-05-1.44543E-05-3.31580E-05-1.29848E-05-7.86073E-19-1.21225E-18
 -1       325 9.57016E-05-1.91116E-05-3.28877E-05-1.46404E-05-1.06755E-18-7.37772E-19
 -1       326 8.80038E-05-1.03760E-05-3.33243E-05-8.15346E-06-1.87941E-19-1.51763E-18
 -1       327 8.71883E-05-9.45415E-06-3.33632E-05-5.71786E-06 4.98877E-20-1.47473E-18
 -1       328 8.67273E-05-8.92342E-06-3.33895E-05-3.36749E-06 4.04450E-19-1.24278E-18
 -1       329 8.65216E-05-8.68305E-06-3.34028E-05-1.07373E-06 6.36322E-19-1.22657E-18
 -1       330 8.65299E-05-8.69231E-06-3.34025E-05 1.20147E-06 8.58555E-19-1.18859E-18
 -1       331 8.67539E-05-8.95325E-06-3.33883E-05 3.49723E-06 9.69016E-19-1.09543E-18
 -1       332 8.72266E-05-9.49764E-06-3.33611E-05 5.81147E-06 1.14638E-18-8.19144E-19
 -1       333 8.80669E-05-1.04501E-05-3.33199E-05 8.25089E-06 1.40237E-18-3.52068E-19
 -1       334 8.94817E-05-1.20330E-05-3.32598E-05 1.07619E-05 1.52768E-18 5.75949E-20
 -1       335 9.18860E-05-1.47325E-05-3.31486E-05 1.31479E-05 1.52865E-18 7.17357E-19
 -1       336 9.58924E-05-1.95874E-05-3.28062E-05 1.42764E-05 1.26463E-18 1.75078E-18
 -1       337 9.87884E-05-2.44520E-05-3.19431E-05 1.18496E-05 9.45461E-19 2.78696E-18
 -1       338 9.63253E-05-2.67821E-05-2.97746E-05 5.68562E-06 9.17184E-19 2.46363E-18
 -1       339 9.65036E-05-2.59328E-05-3.02028E-05-6.56511E-06-9.60870E-19-4.85280E-19
 -1       340 9.49852E-05-2.69987E-05-2.91117E-05-2.95825E-06-5.81164E-19-6.82954E-19
 -1       341 9.39872E-05-2.74129E-05-2.85167E-05-9.88785E-07-8.80972E-20-6.38691E-19
 -1       342 9.34671E-05-2.76226E-05-2.82120E-05 6.34258E-08 6.04024E-20-6.68846E-19
 -1       343 9.32502E-05-2.77803E-05-2.80554E-05 6.66893E-07-1.21107E-19-6.42623E-19
 -1       344 9.32521E-05-2.79125E-05-2.80016E-05 9.58262E-07-3.80106E-20-3.76952E-19
 -1       345 9.33835E-05-2.80292E-05-2.80088E-05 1.06014E-06 2.03610E-19-3.60258E-19
 -1       346 9.35821E-05-2.81322E-05-2.80504E-05 1.04886E-06-1.54028E-19-1.57267E-19
 -1       347 9.38076E-05-2.82213E-05-2.81091E-05 9.73449E-07-2.18790E-19-3.10217E-19
 -1       348 9.40341E-05-2.82963E-05-2.81741E-05 8.66125E-07-4.28836E-19-2.62107E-19
 -1       349 9.42377E-05-2.83557E-05-2.82359E-05 7.53923E-07-5.42623E-19-5.86153E-19
 -1       350 9.44328E-05-2.84064E-05-2.82977E-05 6.38829E-07-3.06109E-19-4.17621E-19
 -1       351 9.46055E-05-2.84466E-05-2.83545E-05 5.35683E-07-2.11066E-19-4.76369E-19
 -1       352 9.47579E-05-2.84781E-05-2.84061E-05 4.50760E-07-3.39091E-19-2.57593E-20
 -1       353 9.48942E-05-2.85028E-05-2.84538E-05 3.88560E-07-3.56275E-19-4.34339E-19
 -1       354 9.50203E-05-2.85223E-05-2.84993E-05 3.53013E-07 7.28809E-19-8.83836E-20
 -1       355 9.51383E-05-2.85379E-05-2.85430E-05 3.47641E-07 6.61477E-19-2.87765E-19
 -1       356 9.52693E-05-2.85526E-05-2.85926E-05 3.77188E-07 1.83869E-19-2.03992E-19
 -1       357 9.54184E-05-2.85667E-05-2.86501E-05 4.50807E-07 1.51154E-19 7.22188E-19
 -1       358 9.55993E-05-2.85813E-05-2.87210E-05 5.80061E-07-2.42701E-19 4.10149E-19
 -1       359 9.58281E-05-2.85966E-05-2.88119E-05 7.82160E-07 1.09296E-19 5.77900E-19
 -1       360 9.61245E-05-2.86117E-05-2.89317E-05 1.08242E-06-7.46073E-19 3.52409E-19
 -1       361 9.65117E-05-2.86229E-05-2.90917E-05 1.51821E-06-7.32093E-19-5.20720E-19
 -1       362 9.69899E-05-2.86261E-05-2.92938E-05 2.10492E-06-9.82345E-19-6.45385E-20
 -1       363 9.76382E-05-2.86112E-05-2.95758E-05 2.97328E-06-2.12516E-19 6.15380E-19
 -1       364 9.84675E-05-2.85626E-05-2.99492E-05 4.19946E-06 1.06606E-18-2.67024E-20
 -1       365 9.95099E-05-2.84649E-05-3.04342E-05 5.90889E-06 1.07352E-18 4.61908E-20
 -1       366 1.00795E-04-2.83170E-05-3.10449E-05 8.24369E-06 7.48873E-19-4.49679E-19
 -1       367 1.02358E-04-2.81787E-05-3.17721E-05 1.13183E-05 1.56794E-19-8.44405E-19
 -1       368 1.04205E-04-2.82748E-05-3.25263E-05 1.49111E-05 5.03621E-20-9.60503E-19
 -1       369 1.06883E-04-2.92693E-05-3.32533E-05 1.90144E-05-7.30928E-19-1.33455E-18
 -1       370 1.11322E-04-3.26597E-05-3.36922E-05 2.22982E-05 8.04317E-19-3.60143E-19
 -1       371 1.19611E-04-4.07332E-05-3.37520E-05 2.21894E-05 7.95357E-19-2.32507E-19
 -1       372 1.35027E-04-5.50969E-05-3.41459E-05 1.42252E-05 4.57292E-19-5.64448E-19
 -1       373 1.55426E-04-6.76402E-05-3.78243E-05-4.07149E-06 2.80209E-19 3.81297E-19
 -1       374 1.72994E-04-3.71615E-05-5.81057E-05-2.34443E-05-1.59030E-19-1.30560E-18
 -1       375 1.70098E-04-2.24072E-05-6.31008E-05 1.55872E-06-1.42894E-18-1.16594E-18
 -1       376 1.72634E-04-3.95061E-05-5.70032E-05 2.33376E-05-3.76061E-18-1.14032E-18
 -1       377 1.64760E-04-6.29542E-05-4.40764E-05 1.73280E-05-2.07248E-18-2.07433E-18
 -1       378 1.47213E-04-6.29724E-05-3.60015E-05-4.30324E-06-1.64870E-18-4.50224E-19
 -1       379 1.28183E-04-4.86224E-05-3.40450E-05-1.88570E-05 1.36233E-18 1.36127E-18
 -1       380 1.15487E-04-3.70496E-05-3.35938E-05-2.40296E-05 2.51315E-18 1.58491E-18
 -1       381 1.08154E-04-3.09618E-05-3.30711E-05-2.30120E-05 1.46645E-18-1.75859E-19
 -1       382 1.03625E-04-2.83078E-05-3.22539E-05-1.95452E-05 1.34445E-18 1.23878E-18
 -1       383 1.00360E-04-2.69977E-05-3.14064E-05-1.53438E-05 5.43009E-19 7.88233E-19
 -1       384 9.74738E-05-2.58389E-05-3.06813E-05-1.08133E-05 8.79422E-19 1.17969E-18
 -1       385 9.43152E-05-2.72885E-05-2.86866E-05 2.46877E-06 6.06825E-19 2.10141E-18
 -1       386 5.76268E-05-4.30256E-05-6.40690E-06 4.81839E-05 8.57091E-19 4.48965E-18
 -1       387 9.31547E-05-2.74388E-05-2.81413E-05 7.48636E-07 4.64901E-19 1.84340E-18
 -1       388 9.26227E-05-2.75420E-05-2.78824E-05-1.80513E-07 3.56179E-19 1.53436E-18
 -1       389 9.24823E-05-2.76348E-05-2.77878E-05-6.57877E-07 1.61491E-19 1.11641E-18
 -1       390 9.25866E-05-2.77449E-05-2.77877E-05-8.76279E-07 3.36928E-19 1.03397E-18
 -1       391 9.28235E-05-2.78618E-05-2.78404E-05-9.41416E-07 4.71514E-19 1.26022E-18
 -1       392 9.31213E-05-2.79763E-05-2.79196E-05-9.16810E-07 4.79755E-19 1.18218E-18
 -1       393 9.34351E-05-2.80825E-05-2.80089E-05-8.42522E-07-3.39304E-20 1.17759E-18
 -1       394 9.37381E-05-2.81769E-05-2.80984E-05-7.44563E-07 5.36459E-19 8.62685E-19
 -1       395 9.40158E-05-2.82582E-05-2.81826E-05-6.39949E-07 7.57969E-19 3.61377E-19
 -1       396 9.42620E-05-2.83266E-05-2.82588E-05-5.39730E-07 7.29857E-19 4.12777E-19
 -1       397 9.44762E-05-2.83832E-05-2.83262E-05-4.50968E-07-1.91058E-19 5.23523E-19
 -1       398 9.46614E-05-2.84299E-05-2.83854E-05-3.78100E-07-4.98123E-19 6.14969E-19
 -1       399 9.48233E-05-2.84687E-05-2.84380E-05-3.23882E-07 3.06599E-19 7.02869E-19
 -1       400 9.49690E-05-2.85023E-05-2.84859E-05-2.90015E-07 1.04709E-19 9.64455E-19
 -1       401 9.51068E-05-2.85332E-05-2.85316E-05-2.77491E-07 1.16543E-19 1.38701E-18
 -1       402 9.52454E-05-2.85644E-05-2.85775E-05-2.86656E-07-2.32885E-19 6.95565E-19
 -1       403 9.53939E-05-2.85991E-05-2.86261E-05-3.16976E-07-3.47111E-20 5.37816E-19
 -1       404 9.55609E-05-2.86406E-05-2.86798E-05-3.66452E-07 6.26351E-19 5.65142E-20
 -1       405 9.57535E-05-2.86925E-05-2.87400E-05-4.30628E-07 1.63655E-18 5.74354E-19
 -1       406 9.59769E-05-2.87587E-05-2.88075E-05-5.01167E-07 4.56418E-19 1.15567E-18
 -1       407 9.62315E-05-2.88426E-05-2.88809E-05-5.64028E-07-1.69924E-18 1.28361E-18
 -1       408 9.65112E-05-2.89465E-05-2.89566E-05-5.97452E-07-1.76193E-18 1.84009E-18
 -1       409 9.67999E-05-2.90709E-05-2.90278E-05-5.70246E-07-5.67408E-19 1.23036E-18
 -1       410 9.70675E-05-2.92114E-05-2.90832E-05-4.41366E-07 8.38255E-19 2.26302E-18
 -1       411 9.72664E-05-2.93566E-05-2.91074E-05-1.62379E-07 4.62589E-19 1.99320E-18
 -1       412 9.73287E-05-2.94834E-05-2.90811E-05 3.14961E-07-7.63531E-19 2.43321E-18
 -1       413 9.71671E-05-2.95536E-05-2.89830E-05 1.02372E-06-1.08038E-20 3.34055E-18
 -1       414 9.66821E-05-2.95110E-05-2.87940E-05 1.95843E-06-1.96800E-19 2.50816E-18
 -1       415 9.57795E-05-2.92866E-05-2.85032E-05 3.04618E-06 1.28047E-18 1.45804E-18
 -1       416 9.44029E-05-2.88141E-05-2.81142E-05 4.12262E-06-3.44378E-19 2.93649E-18
 -1       417 9.25781E-05-2.80623E-05-2.76515E-05 4.93219E-06 3.65888E-19 2.91053E-18
 -1       418 9.04572E-05-2.70762E-05-2.71613E-05 5.17562E-06 5.89603E-19 2.75662E-18
 -1       419 8.83354E-05-2.60069E-05-2.67061E-05 4.61317E-06 1.63577E-18 2.00369E-18
 -1       420 8.66058E-05-2.50947E-05-2.63522E-05 3.19467E-06-2.46318E-19 1.23772E-18
 -1       421 8.56411E-05-2.45883E-05-2.61536E-05 1.14134E-06 1.12520E-18 8.57206E-19
 -1       422 8.56508E-05-2.46349E-05-2.61375E-05-1.09158E-06-2.74459E-21 7.82986E-19
 -1       423 8.65866E-05-2.52024E-05-2.62972E-05-2.97725E-06-8.43944E-19 1.00207E-18
 -1       424 8.81628E-05-2.60929E-05-2.65945E-05-4.12789E-06-4.56664E-19 2.24969E-18
 -1       425 8.99823E-05-2.70426E-05-2.69716E-05-4.42786E-06-1.98358E-18 1.08761E-18
 -1       426 9.16846E-05-2.78332E-05-2.73663E-05-4.02620E-06 3.32073E-19 5.46917E-19
 -1       427 9.30440E-05-2.83570E-05-2.77272E-05-3.22300E-06 1.12289E-18 3.72245E-18
 -1       428 9.39894E-05-2.86165E-05-2.80224E-05-2.32926E-06 8.17051E-19 4.22414E-18
 -1       429 9.45662E-05-2.86879E-05-2.82385E-05-1.56748E-06-1.49073E-18 4.63392E-18
 -1       430 9.49097E-05-2.87090E-05-2.83750E-05-1.01254E-06-1.95043E-18 8.05549E-18
 -1       431 9.50988E-05-2.87791E-05-2.84231E-05-7.49645E-07 2.72525E-19 7.84201E-18
 -1       432 9.65579E-05-2.96784E-05-2.86549E-05 5.98511E-07 1.06555E-18-7.26635E-19
 -1       433 9.59826E-05-2.94540E-05-2.85106E-05-5.15867E-07-4.99982E-19-5.70443E-19
 -1       434 9.54730E-05-2.91108E-05-2.84409E-05-8.48289E-07-9.90710E-19 3.31995E-18
 -1       435 9.68925E-05-2.94739E-05-2.88831E-05 2.35634E-06-5.52753E-19-4.53063E-18
 -1       436 9.68038E-05-2.86221E-05-2.92105E-05 4.57633E-06 3.80711E-19-1.90468E-18
 -1       437 9.60812E-05-2.69553E-05-2.96186E-05 6.78671E-06 1.74579E-18-2.45013E-18
 -1       438 9.46028E-05-2.44514E-05-3.00646E-05 8.32265E-06 6.31339E-19-1.21475E-18
 -1       439 9.24591E-05-2.13470E-05-3.04850E-05 8.42133E-06-1.88315E-18-3.47300E-18
 -1       440 9.00794E-05-1.82228E-05-3.08122E-05 6.49571E-06-1.95379E-18 2.52076E-18
 -1       441 8.82275E-05-1.59523E-05-3.09975E-05 2.60620E-06-2.22410E-18-9.92058E-19
 -1       442 8.76325E-05-1.52654E-05-3.10370E-05-2.61053E-06-5.23024E-19 9.46458E-19
 -1       443 8.88030E-05-1.66681E-05-3.09223E-05-7.53269E-06 2.78632E-19-2.05410E-18
 -1       444 9.17899E-05-1.99338E-05-3.07892E-05-1.07300E-05 7.68602E-19-2.04578E-18
 -1       445 1.00349E-04-5.46737E-05-1.95278E-05 4.77887E-05 5.39136E-19 3.24422E-18
 -1       446 1.07032E-05-2.65044E-05 6.39345E-06 8.43431E-06 1.57786E-19 3.04868E-18
 -1       447 8.93661E-05-1.19003E-05-3.32657E-05-1.06461E-05-5.41097E-19-1.42518E-18
 -1       448 1.28340E-04-5.55510E-05-3.12848E-05 3.70498E-05 1.38109E-18 2.03150E-18
 -1       449 1.55976E-04-4.45297E-05-4.76083E-05 1.98687E-05 2.47447E-18 2.48816E-20
 -1       450 1.62746E-04-2.68359E-05-5.82151E-05 1.35539E-06 2.19805E-18 1.07997E-20
 -1       451 1.68557E-04-1.53936E-05-6.54750E-05 1.62495E-07 1.50624E-18-4.69627E-19
 -1       452 1.64408E-04-1.14843E-05-6.54720E-05 4.18124E-07 2.48699E-18-1.89045E-18
 -1       453 1.68204E-04-2.15859E-05-6.25775E-05-2.95711E-06 2.67122E-18 3.46966E-19
 -1       454 1.58673E-04-3.76123E-05-5.19328E-05-9.89905E-06 2.31851E-18 1.25784E-18
 -1       455 1.35689E-04-5.32428E-05-3.53497E-05-3.27234E-05 1.13365E-18 8.22045E-19
 -1       456 1.03880E-04-5.20830E-05-2.22298E-05-4.67966E-05-3.31825E-19-4.47863E-18
 -1       457 6.78364E-05-4.39540E-05-1.02047E-05-5.08065E-05-1.74044E-18-2.92210E-18
 -1       458 2.57906E-05-2.73167E-05 6.39741E-07-3.55546E-05-2.19159E-18-1.72541E-18
 -1       459 1.11688E-05-2.29359E-05 4.95230E-06-1.36900E-05-2.15991E-18-2.51886E-18
 -1       460 1.84731E-05-2.57628E-05 3.06887E-06 1.56362E-05-1.11972E-18-3.35023E-18
 -1       461 5.00244E-05-4.20145E-05-3.76181E-06 3.49220E-05-1.38924E-18-2.64343E-18
 -1       462 9.22537E-05-5.76309E-05-1.52267E-05 3.76002E-05-1.37590E-18-1.49843E-18
 -1       463 1.40289E-04-6.88951E-05-3.08379E-05 2.25341E-05-5.13196E-19-3.21576E-18
 -1       464 1.71334E-04-6.58559E-05-4.52786E-05-3.54752E-06-5.14467E-19-1.82578E-18
 -1       465 1.84980E-04-4.52243E-05-5.92971E-05-1.65974E-05 7.09390E-21-2.93349E-18
 -1       466 1.82664E-04-2.83007E-05-6.55412E-05-1.18401E-05-1.01220E-18-2.16645E-18
 -1       467 1.85279E-04-4.29245E-05-6.03923E-05 1.42600E-05-3.33752E-18-4.25232E-18
 -1       468 1.76965E-04-6.15233E-05-4.92800E-05-1.05385E-06-2.25462E-18-3.52959E-18
 -1       469 1.50303E-04-6.97575E-05-3.47223E-05-1.84703E-05 9.43383E-20-1.26123E-18
 -1       470 9.96600E-05-5.96927E-05-1.74182E-05-3.91538E-05 5.95252E-19 3.16961E-18
 -1       471 5.30693E-05-4.38511E-05-4.31233E-06-3.77929E-05-6.34428E-19-1.32942E-18
 -1       472 2.06569E-05-3.12690E-05 4.09255E-06-2.00750E-05-1.06562E-18-1.98979E-18
 -1       473 2.50859E-05-3.13004E-05 2.41199E-06 3.31655E-05 2.00334E-18 6.41416E-19
 -1       474 1.69932E-04-5.83057E-05-4.81623E-05-2.26537E-05 9.68820E-19-1.65171E-19
 -1       475 1.48252E-04-5.08346E-05-4.19594E-05-1.05589E-05 2.10028E-18 1.74971E-18
 -1       476 8.95371E-05-1.34005E-05-3.26492E-05-3.92423E-06 3.13130E-19-1.14879E-18
 -1       477 9.02430E-05-1.43611E-05-3.25421E-05-5.88156E-06-2.69628E-20-1.27432E-18
 -1       478 8.90375E-05-1.27186E-05-3.27259E-05 5.33072E-08 8.39734E-19-1.13357E-18
 -1       479 8.91727E-05-1.29019E-05-3.27055E-05 2.04331E-06 9.44580E-19-9.94452E-19
 -1       480 8.95679E-05-1.34395E-05-3.26456E-05 3.99492E-06 1.10019E-18-8.45652E-19
 -1       481 9.02929E-05-1.44268E-05-3.25352E-05 5.94718E-06 1.24964E-18-4.85218E-19
 -1       482 9.14459E-05-1.60105E-05-3.23533E-05 7.77456E-06 1.22679E-18-1.63491E-19
 -1       483 9.31515E-05-1.84305E-05-3.20471E-05 9.20720E-06 1.30281E-18 4.03267E-19
 -1       484 9.53478E-05-2.19479E-05-3.14698E-05 9.48939E-06 1.16894E-18 7.71317E-19
 -1       485 9.63720E-05-2.46463E-05-3.07251E-05 8.00105E-06 1.00829E-18 1.40838E-18
 -1       486 9.54656E-05-2.43131E-05-3.04848E-05-5.96351E-06-8.18508E-19-7.50649E-19
 -1       487 9.01660E-05-1.99503E-05-3.00979E-05-1.48810E-05 1.08152E-18-1.04791E-18
 -1       488 1.26285E-04-6.22092E-05-2.73393E-05 3.49834E-05 6.06581E-19 1.54126E-18
 -1       489 9.52724E-05-2.61432E-05-2.96180E-05-2.99781E-06-3.55352E-19-6.45156E-19
 -1       490 9.49373E-05-2.70705E-05-2.90808E-05-1.17343E-06 2.52393E-22-7.01128E-19
 -1       491 9.46586E-05-2.76374E-05-2.87208E-05 8.73104E-09-1.35095E-19-5.67948E-19
 -1       492 9.44968E-05-2.79841E-05-2.85042E-05 6.83920E-07-1.71084E-19-5.31091E-19
 -1       493 9.44372E-05-2.82084E-05-2.83832E-05 1.02853E-06-1.05686E-19-6.93148E-19
 -1       494 9.44500E-05-2.83577E-05-2.83250E-05 1.16167E-06 7.42098E-20-9.17202E-19
 -1       495 9.45080E-05-2.84576E-05-2.83073E-05 1.16396E-06-3.03263E-19-6.48214E-19
 -1       496 9.45902E-05-2.85229E-05-2.83147E-05 1.09030E-06-2.30018E-19-6.60641E-19
 -1       497 9.46778E-05-2.85624E-05-2.83354E-05 9.84131E-07-3.93624E-19-9.14743E-20
 -1       498 9.47715E-05-2.85862E-05-2.83653E-05 8.58930E-07-3.52282E-19-1.54843E-19
 -1       499 9.48611E-05-2.85968E-05-2.83992E-05 7.36717E-07-2.17588E-19-6.55441E-20
 -1       500 9.49449E-05-2.85976E-05-2.84347E-05 6.29258E-07-1.93576E-19-2.43534E-19
 -1       501 9.50229E-05-2.85909E-05-2.84710E-05 5.44764E-07-6.94967E-19-2.73270E-19
 -1       502 9.50967E-05-2.85780E-05-2.85081E-05 4.89736E-07 5.87469E-20 2.99335E-19
 -1       503 9.51658E-05-2.85606E-05-2.85451E-05 4.69478E-07 7.21122E-19-1.11433E-19
 -1       504 9.52405E-05-2.85359E-05-2.85876E-05 4.88398E-07 3.21688E-19-6.11462E-19
 -1       505 9.53209E-05-2.85028E-05-2.86361E-05 5.56639E-07 5.66501E-19-9.09281E-19
 -1       506 9.54109E-05-2.84576E-05-2.86939E-05 6.85338E-07-1.48730E-19-5.32188E-19
 -1       507 9.55136E-05-2.83941E-05-2.87649E-05 8.90305E-07-2.59274E-19 1.47815E-19
 -1       508 9.56299E-05-2.83021E-05-2.88539E-05 1.19384E-06-6.33495E-19-9.85042E-19
 -1       509 9.57560E-05-2.81646E-05-2.89664E-05 1.62801E-06-1.09898E-18-9.75461E-19
 -1       510 9.58773E-05-2.79721E-05-2.91004E-05 2.19849E-06-3.93042E-19-1.05549E-18
 -1       511 9.59841E-05-2.76690E-05-2.92749E-05 3.02149E-06-2.71946E-19-4.69017E-19
 -1       512 9.60261E-05-2.72140E-05-2.94865E-05 4.14688E-06 1.53429E-19 8.62932E-19
 -1       513 9.59316E-05-2.65453E-05-2.97304E-05 5.66659E-06 5.14916E-19 1.53834E-20
 -1       514 9.55906E-05-2.56003E-05-2.99867E-05 7.68620E-06 1.05297E-18-1.08749E-18
 -1       515 9.48528E-05-2.43529E-05-3.02014E-05 1.03125E-05-6.23793E-19-1.55718E-18
 -1       516 9.36909E-05-2.30072E-05-3.02794E-05 1.34398E-05-6.50405E-19-3.34660E-18
 -1       517 9.20448E-05-2.19006E-05-3.00434E-05 1.74227E-05-3.88153E-19-2.60503E-18
 -1       518 9.06135E-05-2.24440E-05-2.91919E-05 2.20849E-05 1.22713E-18-1.05215E-18
 -1       519 9.13303E-05-2.75816E-05-2.72070E-05 2.74490E-05 2.25165E-19-8.29080E-19
 -1       520 9.78123E-05-4.02344E-05-2.43700E-05 3.19392E-05 9.32001E-20-7.74188E-19
 -1       521 1.27562E-04-6.32519E-05-2.73594E-05 2.48663E-05 5.36807E-19-1.68229E-18
 -1       522 9.53087E-05-2.64154E-05-2.95019E-05 3.99021E-06 8.19384E-19 1.46626E-18
 -1       523 2.25478E-05-1.43297E-05-2.86405E-06-8.86942E-06-4.44944E-19-8.47033E-20
 -1       524 1.14283E-04-5.44399E-05-2.53714E-05-3.17616E-05 1.62810E-18 3.60905E-18
 -1       525 9.89622E-05-3.60134E-05-2.67760E-05-3.16383E-05 1.60633E-18 2.45090E-18
 -1       526 9.34618E-05-2.63675E-05-2.86836E-05-2.77220E-05-7.13857E-20 2.26059E-18
 -1       527 9.26556E-05-2.30706E-05-2.97974E-05-2.31641E-05 1.44891E-18 2.39547E-19
 -1       528 9.05339E-05-2.09442E-05-2.98093E-05-1.89683E-05 1.44203E-18-1.77720E-18
 -1       529 9.45298E-05-2.72998E-05-2.88077E-05 9.88677E-07 6.83975E-19 6.74516E-19
 -1       530 9.47873E-05-2.69209E-05-2.90722E-05 2.23161E-06 5.12036E-19 1.08236E-18
 -1       531 9.39749E-05-2.79344E-05-2.83019E-05-7.37644E-07 3.10584E-19 4.05485E-19
 -1       532 9.39463E-05-2.81061E-05-2.82169E-05-1.03627E-06 1.72791E-19 3.09616E-19
 -1       533 9.40111E-05-2.82322E-05-2.81912E-05-1.14060E-06 5.21054E-19 3.91601E-19
 -1       534 9.41290E-05-2.83269E-05-2.82013E-05-1.12701E-06 2.63846E-19 8.42578E-19
 -1       535 9.42713E-05-2.83980E-05-2.82320E-05-1.04640E-06 4.21600E-19 4.38714E-19
 -1       536 9.44196E-05-2.84505E-05-2.82730E-05-9.32909E-07 1.07106E-18 1.19886E-19
 -1       537 9.45626E-05-2.84883E-05-2.83181E-05-8.09372E-07 5.52511E-19-1.75589E-19
 -1       538 9.46949E-05-2.85143E-05-2.83636E-05-6.90887E-07 2.65385E-20-9.34891E-20
 -1       539 9.48145E-05-2.85312E-05-2.84075E-05-5.87318E-07-6.85918E-19 2.57807E-19
 -1       540 9.49224E-05-2.85412E-05-2.84494E-05-5.05044E-07-1.94787E-19 4.70673E-19
 -1       541 9.50212E-05-2.85465E-05-2.84893E-05-4.48162E-07-4.29862E-21 6.77035E-19
 -1       542 9.51149E-05-2.85490E-05-2.85283E-05-4.19257E-07-2.54830E-19 1.41848E-18
 -1       543 9.52086E-05-2.85510E-05-2.85675E-05-4.19766E-07 4.82451E-20 1.65358E-18
 -1       544 9.53079E-05-2.85553E-05-2.86081E-05-4.49944E-07 1.91693E-20 9.90818E-19
 -1       545 9.54191E-05-2.85654E-05-2.86514E-05-5.08380E-07 1.04309E-18 6.40058E-19
 -1       546 9.55490E-05-2.85862E-05-2.86981E-05-5.91027E-07 7.71308E-19-2.96019E-20
 -1       547 9.57043E-05-2.86245E-05-2.87483E-05-6.89673E-07 3.29167E-19 1.16153E-18
 -1       548 9.58919E-05-2.86889E-05-2.88011E-05-7.89860E-07-8.56428E-19 2.15537E-18
 -1       549 9.61172E-05-2.87905E-05-2.88543E-05-8.68373E-07-1.29784E-18 1.07075E-18
 -1       550 9.63836E-05-2.89415E-05-2.89041E-05-8.90688E-07-1.12301E-18 2.57174E-20
 -1       551 9.66895E-05-2.91537E-05-2.89448E-05-8.09197E-07 7.47756E-20-1.02353E-19
 -1       552 9.70249E-05-2.94337E-05-2.89693E-05-5.63726E-07 6.24836E-19 6.19569E-19
 -1       553 9.73655E-05-2.97749E-05-2.89699E-05-8.67254E-08-5.16655E-19 1.49969E-18
 -1       554 9.76652E-05-3.01469E-05-2.89398E-05 6.83719E-07-7.50771E-19 3.54605E-19
 -1       555 9.78486E-05-3.04820E-05-2.88755E-05 1.77990E-06 1.26316E-19 9.75702E-19
 -1       556 9.78081E-05-3.06669E-05-2.87791E-05 3.16868E-06 8.31352E-19 1.22129E-18
 -1       557 9.74140E-05-3.05497E-05-2.86598E-05 4.70915E-06-4.05153E-21 2.63445E-18
 -1       558 9.65520E-05-2.99791E-05-2.85333E-05 6.12134E-06 1.42706E-19 2.68064E-18
 -1       559 9.51923E-05-2.88838E-05-2.84174E-05 7.00044E-06 1.23444E-18 2.98932E-18
 -1       560 9.34711E-05-2.73711E-05-2.83250E-05 6.91369E-06 1.02813E-18 2.35034E-18
 -1       561 9.17316E-05-2.57798E-05-2.82588E-05 5.58635E-06 8.47661E-19 3.34269E-18
 -1       562 9.04440E-05-2.45985E-05-2.82116E-05 3.10602E-06 1.18872E-18 2.55585E-18
 -1       563 9.00062E-05-2.42484E-05-2.81735E-05-1.39686E-08 1.21418E-18 1.69673E-18
 -1       564 9.05376E-05-2.48571E-05-2.81414E-05-2.98989E-06-5.81965E-19 1.66530E-18
 -1       565 9.17998E-05-2.61677E-05-2.81226E-05-5.09680E-06-8.40970E-19 2.53725E-18
 -1       566 9.33300E-05-2.76875E-05-2.81300E-05-5.97799E-06-1.25057E-19 1.81327E-18
 -1       567 9.46795E-05-2.89494E-05-2.81705E-05-5.71836E-06-1.46673E-18 1.29732E-18
 -1       568 9.55782E-05-2.96919E-05-2.82394E-05-4.70853E-06-2.94860E-19 3.28448E-18
 -1       569 9.59687E-05-2.98934E-05-2.83221E-05-3.42322E-06 8.07607E-19 3.02167E-18
 -1       570 9.59520E-05-2.97053E-05-2.83968E-05-2.25753E-06-1.32764E-18 3.81411E-18
 -1       571 9.57188E-05-2.93578E-05-2.84439E-05-1.40087E-06-2.88669E-18 4.78841E-18
 -1       572 9.91194E-05-3.11830E-05-2.91094E-05 4.09516E-06 1.23313E-18-1.84153E-18
 -1       573 9.89931E-05-3.06426E-05-2.92890E-05 7.15130E-06 1.50757E-18-1.03235E-18
 -1       574 9.72948E-05-3.03598E-05-2.86829E-05-3.38090E-07-8.42340E-19-5.38079E-19
 -1       575 9.84232E-05-3.09817E-05-2.88978E-05 1.48818E-06-3.96739E-19-2.53674E-18
 -1       576 9.76168E-05-2.90227E-05-2.93959E-05 9.98100E-06-1.25084E-19-2.36970E-18
 -1       577 9.47804E-05-2.61735E-05-2.94052E-05 1.16104E-05-1.66158E-18-3.26154E-18
 -1       578 9.07791E-05-2.23616E-05-2.93282E-05 1.09499E-05-1.15329E-18-7.27774E-19
 -1       579 8.67259E-05-1.85335E-05-2.92338E-05 7.39239E-06-1.67434E-18 2.02408E-18
 -1       580 8.40349E-05-1.58518E-05-2.92313E-05 1.12236E-06-2.30427E-19-1.94512E-19
 -1       581 8.40965E-05-1.54855E-05-2.94140E-05-6.26869E-06-4.05953E-19-2.72934E-19
 -1       582 1.35191E-04-4.97161E-06-5.65393E-05-2.15125E-06 2.88754E-18-1.74132E-18
 -1       583 1.39197E-04-1.38211E-05-5.43529E-05-9.64617E-06 2.11764E-18-1.54986E-18
 -1       584 9.45571E-05-2.06377E-05-3.16981E-05-9.52911E-06-9.28540E-19-8.96852E-19
 -1       585 5.30190E-05-3.08532E-05-8.90450E-06 4.44148E-05 1.41836E-18 8.73714E-19
 -1       586 5.68671E-05-3.17376E-05-1.02491E-05-4.69828E-05-1.70730E-18-2.93126E-18
 -1       587 9.41492E-05-2.76865E-05-2.84809E-05-1.26199E-07 4.48765E-19 5.34004E-19
 -1       588 8.63757E-05-4.86220E-05-1.58635E-05 4.91361E-05 5.13725E-19 3.37270E-18
 -1       589 8.91535E-05-1.28777E-05-3.27078E-05-1.93737E-06 6.76985E-19-1.03208E-18
 -1       590 1.49167E-04-4.05343E-05-4.70172E-05-4.49950E-06 1.42900E-18-8.66091E-19
 -1       591 1.45610E-04-5.82429E-05-3.76147E-05 1.42209E-05 2.68441E-18-1.40322E-18
 -1       592 1.39909E-04-1.16943E-05-5.56321E-05 8.03659E-06 2.03595E-18-7.04970E-19
 -1       593 4.65208E-05-2.54384E-05-8.42245E-06 3.08936E-05 4.47710E-19-2.16020E-18
 -1       594 1.45144E-04-2.86705E-05-5.05116E-05 8.47873E-06 2.34522E-18-9.92087E-19
 -1       595 1.26986E-04-6.01650E-05-2.85686E-05-3.27468E-05-1.58340E-18-1.64907E-20
 -1       596 1.00632E-04-5.31132E-05-2.00448E-05-4.65566E-05-3.31497E-18-2.87601E-18
 -1       597 2.71039E-05-1.31096E-05-5.31365E-06-2.36139E-05-8.48118E-19-2.12372E-18
 -1       598 2.30523E-05-1.07969E-05-4.55797E-06 3.85328E-06-5.95597E-19-1.34350E-18
 -1       599 8.41175E-05-4.67128E-05-1.57002E-05 3.84367E-05 1.49078E-19-5.32360E-19
 -1       600 1.33518E-04-6.60982E-05-2.88174E-05-2.31523E-05 7.98699E-19 2.66802E-19
 -1       601 8.53024E-05-4.70111E-05-1.60720E-05-4.06619E-05 3.03174E-18 5.37654E-19
 -1       602 4.92210E-05-2.92588E-05-7.98786E-06-3.51330E-05 1.14434E-18-4.79961E-18
 -1       603 2.64513E-05-1.50892E-05-4.19570E-06 2.20893E-05 6.51051E-19 4.63878E-18
 -1       604 9.13466E-05-1.58908E-05-3.23631E-05-7.68947E-06-3.06394E-19-1.29142E-18
 -1       605 9.27429E-05-1.78677E-05-3.21093E-05-8.93028E-06-6.89807E-19-1.03141E-18
 -1       606 1.43632E-04-4.25113E-05-4.36434E-05 5.77833E-06 1.74878E-18-6.97320E-19
 -1       607 1.39095E-04-5.90637E-05-3.44978E-05-1.45451E-05 9.69813E-19 8.53174E-19
 -1       608 9.15479E-05-1.68464E-05-3.20206E-05 2.43740E-06 1.06062E-18-7.68532E-19
 -1       609 9.12890E-05-1.64443E-05-3.20817E-05 8.39003E-07 9.73235E-19-1.11067E-18
 -1       610 9.28873E-05-1.89955E-05-3.16739E-05 5.25988E-06 1.09318E-18-3.82090E-19
 -1       611 9.39795E-05-2.08985E-05-3.13243E-05 6.17070E-06 1.10643E-18 3.43402E-20
 -1       612 9.51175E-05-2.33495E-05-3.07572E-05 6.24326E-06 9.12215E-19 3.91496E-19
 -1       613 9.55197E-05-2.50587E-05-3.01769E-05 5.29836E-06 8.54249E-19 7.44633E-19
 -1       614 9.45409E-05-2.20672E-05-3.10594E-05-6.27901E-06-6.85855E-19-7.51232E-19
 -1       615 9.49241E-05-2.83682E-05-2.85239E-05-1.05558E-06 2.33266E-19 8.79761E-20
 -1       616 9.52535E-05-2.47565E-05-3.02122E-05-3.57760E-06-3.00592E-19-6.48462E-19
 -1       617 9.54373E-05-2.62976E-05-2.96312E-05-1.71265E-06-9.45972E-20-6.62866E-19
 -1       618 9.54253E-05-2.73012E-05-2.91966E-05-3.88673E-07 2.16421E-21-8.08723E-19
 -1       619 9.53532E-05-2.79199E-05-2.89006E-05 4.27428E-07-1.58410E-19-7.15188E-19
 -1       620 9.52810E-05-2.83041E-05-2.87050E-05 8.85407E-07-1.74550E-19-6.47198E-19
 -1       621 9.52271E-05-2.85392E-05-2.85810E-05 1.10030E-06-1.55171E-19-3.81755E-19
 -1       622 9.51935E-05-2.86767E-05-2.85076E-05 1.15731E-06-2.20922E-19-7.66579E-19
 -1       623 9.51764E-05-2.87493E-05-2.84691E-05 1.11784E-06-2.24841E-19-7.48243E-19
 -1       624 9.51713E-05-2.87776E-05-2.84547E-05 1.03065E-06-1.02292E-19-3.80476E-19
 -1       625 9.51743E-05-2.87792E-05-2.84553E-05 9.16018E-07-2.60990E-19-8.65261E-20
 -1       626 9.51825E-05-2.87608E-05-2.84666E-05 7.98406E-07-4.06288E-19 3.19323E-19
 -1       627 9.51941E-05-2.87292E-05-2.84851E-05 6.92523E-07-2.84430E-19 1.87980E-20
 -1       628 9.52079E-05-2.86878E-05-2.85087E-05 6.08659E-07-1.58106E-19 4.20174E-20
 -1       629 9.52228E-05-2.86381E-05-2.85363E-05 5.54693E-07 1.92191E-19 3.94178E-19
 -1       630 9.52375E-05-2.85827E-05-2.85663E-05 5.37198E-07-9.89940E-20 2.96490E-20
 -1       631 9.52525E-05-2.85134E-05-2.86024E-05 5.60592E-07 1.67698E-19-3.08844E-19
 -1       632 9.52646E-05-2.84277E-05-2.86443E-05 6.35382E-07 3.92553E-19-2.17591E-19
 -1       633 9.52698E-05-2.83177E-05-2.86936E-05 7.71712E-07-2.00503E-19-3.80414E-19
 -1       634 9.52604E-05-2.81711E-05-2.87523E-05 9.83213E-07-6.63119E-19-4.56252E-19
 -1       635 9.52227E-05-2.79697E-05-2.88222E-05 1.28787E-06-7.98213E-19-1.22603E-18
 -1       636 9.51330E-05-2.76867E-05-2.89049E-05 1.70902E-06-6.93962E-19-9.98657E-19
 -1       637 9.49649E-05-2.73069E-05-2.89952E-05 2.24471E-06-1.22636E-18-1.44453E-18
 -1       638 9.46437E-05-2.67422E-05-2.90993E-05 2.98283E-06 2.73614E-19-8.39675E-19
 -1       639 9.40783E-05-2.59349E-05-2.92024E-05 3.94233E-06 6.31553E-19-1.21954E-19
 -1       640 9.31283E-05-2.47991E-05-2.92816E-05 5.16531E-06 3.53399E-19 4.86355E-20
 -1       641 9.15923E-05-2.32431E-05-2.92898E-05 6.69259E-06-1.25096E-19-2.69955E-19
 -1       642 8.92048E-05-2.12131E-05-2.91368E-05 8.55749E-06-7.72717E-19-1.25263E-18
 -1       643 8.58714E-05-1.88922E-05-2.87034E-05 1.07025E-05-6.76800E-19 6.33372E-20
 -1       644 8.10127E-05-1.63978E-05-2.76824E-05 1.34771E-05 4.59248E-19 8.03740E-19
 -1       645 7.47203E-05-1.47755E-05-2.56294E-05 1.72579E-05 8.54779E-19-1.73665E-19
 -1       646 6.71809E-05-1.58244E-05-2.16990E-05 2.28755E-05 9.34918E-19-1.47257E-18
 -1       647 1.34875E-04-6.03018E-05-3.19660E-05 1.62371E-05-4.25343E-19-3.80630E-18
 -1       648 7.86002E-05-3.67148E-05-1.75725E-05 4.23548E-05-4.39187E-19 2.42095E-18
 -1       649 7.09575E-05-1.90627E-05-2.20131E-05-2.76727E-05 8.57290E-20-2.32910E-18
 -1       650 7.67841E-05-1.63994E-05-2.58249E-05-2.15929E-05 2.61624E-19 1.71458E-19
 -1       651 9.49036E-05-2.85256E-05-2.84478E-05-1.17026E-06 1.70994E-19 1.44456E-19
 -1       652 9.49857E-05-2.81142E-05-2.86590E-05-7.45490E-07 2.98589E-19-1.27090E-19
 -1       653 9.49123E-05-2.86193E-05-2.84114E-05-1.16310E-06 5.19047E-19 9.87776E-20
 -1       654 9.49388E-05-2.86697E-05-2.84012E-05-1.08568E-06 8.57366E-19 1.14812E-19
 -1       655 9.49750E-05-2.86906E-05-2.84078E-05-9.73708E-07 8.76715E-19 4.99518E-19
 -1       656 9.50152E-05-2.86914E-05-2.84247E-05-8.51566E-07 5.79571E-19 7.67624E-19
 -1       657 9.50560E-05-2.86786E-05-2.84476E-05-7.35671E-07-4.77352E-19 4.84520E-19
 -1       658 9.50958E-05-2.86567E-05-2.84740E-05-6.36972E-07-8.38951E-19 3.56713E-19
 -1       659 9.51344E-05-2.86287E-05-2.85025E-05-5.62737E-07 7.05720E-20 8.36505E-19
 -1       660 9.51726E-05-2.85970E-05-2.85324E-05-5.17787E-07-4.51751E-19 5.53422E-19
 -1       661 9.52120E-05-2.85636E-05-2.85636E-05-5.05262E-07-1.37051E-19 1.97023E-19
 -1       662 9.52556E-05-2.85311E-05-2.85962E-05-5.26937E-07 5.71203E-19 3.86063E-19
 -1       663 9.53073E-05-2.85030E-05-2.86304E-05-5.83080E-07 5.60446E-19 4.15550E-19
 -1       664 9.53726E-05-2.84848E-05-2.86661E-05-6.71798E-07 8.63249E-19 4.32388E-19
 -1       665 9.54592E-05-2.84850E-05-2.87031E-05-7.87818E-07 1.00281E-19 6.12489E-19
 -1       666 9.55775E-05-2.85163E-05-2.87404E-05-9.20641E-07-1.69546E-19 9.78192E-19
 -1       667 9.57413E-05-2.85964E-05-2.87763E-05-1.05205E-06-6.23156E-19 9.71713E-19
 -1       668 9.59683E-05-2.87482E-05-2.88086E-05-1.15314E-06-1.02856E-19 1.66513E-20
 -1       669 9.62793E-05-2.89987E-05-2.88347E-05-1.18116E-06-9.25037E-19-9.57356E-19
 -1       670 9.66959E-05-2.93746E-05-2.88524E-05-1.07727E-06-2.93806E-19-1.69370E-19
 -1       671 9.72339E-05-2.98934E-05-2.88609E-05-7.66678E-07-3.49428E-19 3.00077E-19
 -1       672 9.78921E-05-3.05474E-05-2.88631E-05-1.64407E-07-3.08805E-20 4.23331E-19
 -1       673 9.86343E-05-3.12810E-05-2.88671E-05 8.08893E-07 1.15469E-20-3.75975E-19
 -1       674 9.93671E-05-3.19653E-05-2.88881E-05 2.19561E-06 1.16001E-19 5.66443E-19
 -1       675 9.99232E-05-3.23817E-05-2.89479E-05 3.95090E-06-1.01014E-18 1.38559E-18
 -1       676 1.00069E-04-3.22406E-05-2.90701E-05 5.87648E-06-3.11205E-19 2.08847E-18
 -1       677 9.95705E-05-3.12709E-05-2.92710E-05 7.56713E-06 4.05243E-19 2.02940E-18
 -1       678 9.83294E-05-2.93920E-05-2.95434E-05 8.43322E-06 1.79470E-18 2.11399E-18
 -1       679 9.65455E-05-2.69035E-05-2.98438E-05 7.87134E-06 8.90371E-19 1.37928E-18
 -1       680 9.47849E-05-2.45516E-05-3.00974E-05 5.59993E-06 9.71084E-19 8.14364E-19
 -1       681 9.37507E-05-2.32254E-05-3.02236E-05 1.97162E-06 8.47107E-19 7.28378E-19
 -1       682 9.39023E-05-2.34992E-05-3.01703E-05-2.05015E-06-2.46864E-19 2.32767E-18
 -1       683 9.51445E-05-2.52548E-05-2.99500E-05-5.28094E-06-9.12929E-19 2.55009E-18
 -1       684 9.68491E-05-2.77028E-05-2.96326E-05-6.93199E-06 1.69315E-19 2.05799E-18
 -1       685 9.83053E-05-2.99330E-05-2.93021E-05-6.92752E-06 3.45290E-19 8.73734E-19
 -1       686 9.90508E-05-3.13209E-05-2.90274E-05-5.74002E-06-1.98316E-18-2.29139E-18
 -1       687 9.90050E-05-3.17230E-05-2.88364E-05-4.04762E-06-9.98954E-19-1.90157E-18
 -1       688 9.83513E-05-3.13398E-05-2.87216E-05-2.43203E-06-5.62594E-19 2.58918E-19
 -1       689 9.79633E-05-3.09648E-05-2.87138E-05-1.24402E-06-2.63841E-18 1.65240E-18
 -1       690 9.89472E-05-3.16445E-05-2.88437E-05 1.34103E-05-1.35598E-18-3.44835E-18
 -1       691 1.02190E-04-3.39569E-05-2.92405E-05 5.80682E-06 4.86271E-19-1.54040E-18
 -1       692 9.37197E-05-2.76487E-05-2.83159E-05 1.51702E-05-3.15872E-20-2.54276E-18
 -1       693 1.01685E-04-3.36443E-05-2.91595E-05 9.80722E-06-1.45815E-18-3.04227E-18
 -1       694 8.69533E-05-2.22646E-05-2.77242E-05 1.34993E-05 2.63527E-20 1.21188E-18
 -1       695 8.07026E-05-1.69858E-05-2.73013E-05 7.54685E-06 3.79397E-19 1.64305E-18
 -1       696 7.79605E-05-1.41118E-05-2.73548E-05-1.71938E-06-9.37121E-19 2.23260E-19
 -1       697 1.22723E-04-7.00643E-06-5.01435E-05 5.03230E-06 2.18302E-18-1.38742E-18
 -1       698 1.21119E-04-9.80388E-06-4.82158E-05-7.46696E-06 1.68695E-18-1.23749E-18
 -1       699 4.60679E-05-1.48056E-05-1.27842E-05-2.31825E-05 5.63012E-19-5.81869E-18
 -1       700 1.11355E-04-5.51322E-05-2.39086E-05 3.73267E-05-9.43065E-19 1.70866E-18
 -1       701 8.12240E-05-1.55018E-05-2.81733E-05-1.28245E-05-1.00930E-19-9.61894E-19
 -1       702 1.40374E-04-5.18915E-05-3.81716E-05-8.98026E-07 8.37874E-19-3.66501E-18
 -1       703 9.20735E-05-1.76741E-05-3.18914E-05 3.94574E-06 1.08890E-18-6.24516E-19
 -1       704 1.31419E-04-2.81530E-05-4.46671E-05-1.36387E-05 8.11775E-19-2.98734E-18
 -1       705 8.54258E-05-4.14008E-05-1.85134E-05-4.41795E-05-2.53824E-18-1.52863E-18
 -1       706 9.20366E-05-1.76199E-05-3.18984E-05-3.89352E-06 1.23157E-19-9.78652E-19
 -1       707 1.28708E-04-1.99375E-05-4.71278E-05 1.29539E-05 2.35938E-18-1.13005E-18
 -1       708 1.16568E-04-5.61609E-05-2.57429E-05-3.33419E-05-2.04974E-18-1.32355E-18
 -1       709 3.69731E-05-6.50129E-06-1.25156E-05-7.42909E-06-2.35690E-19-1.88370E-18
 -1       710 5.14268E-05-1.97784E-05-1.30112E-05 3.29149E-05 3.17399E-19-1.03026E-18
 -1       711 4.54056E-05-1.21633E-05-1.36479E-05 1.87165E-05 4.23146E-19-1.39152E-18
 -1       712 6.83349E-05-2.85116E-05-1.65845E-05-3.54212E-05 5.60153E-19-5.18252E-19
 -1       713 3.39980E-05-8.44252E-06-1.03275E-05 3.78889E-06 2.04267E-18 4.31320E-18
 -1       714 4.98264E-05-1.84822E-05-1.29329E-05-3.41993E-05-2.19461E-19-1.18251E-18
 -1       715 9.12825E-05-1.64354E-05-3.20827E-05-7.83595E-07 8.42911E-19-9.23429E-19
 -1       716 9.15267E-05-1.68166E-05-3.20242E-05-2.37907E-06 5.45137E-19-6.59319E-19
 -1       717 9.50971E-05-2.77085E-05-2.88802E-05-1.37237E-07 4.60331E-19 5.84516E-20
 -1       718 6.83004E-05-2.58486E-05-1.77244E-05 3.16474E-05 4.90644E-19-8.48727E-19
 -1       719 7.85673E-05-1.53729E-05-2.70607E-05-1.67625E-05-1.32658E-18 3.63428E-19
 -1       720 9.53121E-05-2.59596E-05-2.97138E-05 2.66065E-06 7.74123E-19 2.01726E-19
 -1       721 9.98579E-05-3.22405E-05-2.89764E-05 5.53305E-07-1.93592E-18 2.24609E-19
 -1       722 9.28317E-05-1.89154E-05-3.16833E-05-5.21217E-06-2.61649E-19-9.71918E-19
 -1       723 9.52441E-05-2.70618E-05-2.92205E-05 9.16541E-07 6.28655E-19 2.59140E-19
 -1       724 1.28151E-04-5.79421E-05-3.01462E-05-1.91525E-05-4.92761E-19-7.72018E-19
 -1       725 1.01295E-04-3.32581E-05-2.91551E-05 2.85310E-06-7.94204E-19-5.57009E-19
 -1       726 1.30940E-04-3.14721E-05-4.29045E-05 1.29839E-05 9.26363E-19 1.92210E-19
 -1       727 9.51930E-05-2.44374E-05-3.03223E-05 3.96691E-06 9.21873E-19 1.29247E-19
 -1       728 9.46546E-05-2.27389E-05-3.08196E-05 3.91129E-06 8.20379E-19-7.79709E-20
 -1       729 9.43051E-05-2.18769E-05-3.10416E-05-4.69577E-06-4.40326E-19-7.30826E-19
 -1       730 7.32805E-05-2.81082E-05-1.91222E-05-3.55872E-05-6.92436E-19-4.95647E-20
 -1       731 5.96606E-05-1.02228E-05-2.09547E-05-1.14135E-05 2.28952E-18-8.36074E-19
 -1       732 9.52482E-05-2.43997E-05-3.03636E-05-2.78871E-06-2.37161E-19-6.27627E-19
 -1       733 9.57136E-05-2.61525E-05-2.98116E-05-1.25651E-06-6.38988E-20-3.59444E-19
 -1       734 9.59020E-05-2.72983E-05-2.94015E-05-2.05739E-07-1.47453E-19-3.76549E-19
 -1       735 9.59383E-05-2.80314E-05-2.91030E-05 4.57885E-07-9.03355E-20-3.64498E-19
 -1       736 9.59001E-05-2.84879E-05-2.88910E-05 8.34151E-07-1.57676E-19-4.67303E-19
 -1       737 9.58291E-05-2.87585E-05-2.87446E-05 1.00904E-06-4.96881E-19-4.86884E-19
 -1       738 9.57470E-05-2.89038E-05-2.86472E-05 1.05096E-06-1.52364E-19-8.89787E-20
 -1       739 9.56691E-05-2.89636E-05-2.85881E-05 1.01484E-06-8.69161E-20-1.58493E-19
 -1       740 9.55929E-05-2.89721E-05-2.85518E-05 9.33100E-07-2.21429E-19-6.41665E-19
 -1       741 9.55244E-05-2.89433E-05-2.85348E-05 8.32831E-07-4.59883E-19-9.21715E-19
 -1       742 9.54642E-05-2.88904E-05-2.85317E-05 7.33049E-07-3.84237E-19-9.07942E-19
 -1       743 9.54114E-05-2.88212E-05-2.85387E-05 6.47060E-07-1.74864E-19-4.72405E-19
 -1       744 9.53639E-05-2.87394E-05-2.85534E-05 5.84548E-07 1.46731E-19-1.48434E-19
 -1       745 9.53211E-05-2.86507E-05-2.85731E-05 5.53421E-07-2.33154E-19-7.33827E-19
 -1       746 9.52744E-05-2.85433E-05-2.85990E-05 5.56652E-07-2.17623E-19-5.66150E-19
 -1       747 9.52196E-05-2.84159E-05-2.86302E-05 6.03163E-07 3.77240E-19-8.37674E-19
 -1       748 9.51481E-05-2.82595E-05-2.86666E-05 6.99810E-07 2.81912E-19-1.13238E-18
 -1       749 9.50462E-05-2.80604E-05-2.87082E-05 8.54472E-07-2.07324E-19-4.27757E-19
 -1       750 9.48938E-05-2.77991E-05-2.87549E-05 1.07612E-06-7.82889E-19-3.16321E-20
 -1       751 9.46595E-05-2.74474E-05-2.88052E-05 1.37413E-06-9.73754E-19-3.54007E-20
 -1       752 9.43194E-05-2.69950E-05-2.88535E-05 1.73641E-06-1.29250E-18-7.57736E-19
 -1       753 9.37735E-05-2.63464E-05-2.88975E-05 2.20686E-06 5.87024E-20 1.88022E-19
 -1       754 9.29321E-05-2.54516E-05-2.89205E-05 2.76682E-06 5.33472E-19 2.85485E-19
 -1       755 9.16506E-05-2.42279E-05-2.88959E-05 3.40161E-06-2.59928E-19 1.25850E-19
 -1       756 8.97237E-05-2.25810E-05-2.87764E-05 4.07410E-06-4.29861E-19-8.61172E-19
 -1       757 8.68689E-05-2.04242E-05-2.84774E-05 4.71419E-06-5.03341E-19-3.50298E-19
 -1       758 8.29581E-05-1.78575E-05-2.79028E-05 5.22292E-06-2.63552E-19-5.31818E-19
 -1       759 7.71348E-05-1.46934E-05-2.67602E-05 5.60756E-06 7.73219E-19 1.54162E-20
 -1       760 6.88508E-05-1.12879E-05-2.46301E-05 5.92309E-06-8.93082E-20-2.68499E-20
 -1       761 5.68478E-05-7.93890E-06-2.07570E-05 6.63036E-06-1.01775E-19-4.75569E-19
 -1       762 9.85438E-05-4.30319E-05-2.36495E-05 3.38277E-05-3.37265E-19-1.10139E-18
 -1       763 9.56281E-05-2.85849E-05-2.87328E-05-9.99680E-07 1.76310E-19-1.25532E-19
 -1       764 9.55010E-05-2.88605E-05-2.85603E-05-1.08839E-06 4.39973E-19 1.06536E-19
 -1       765 9.56905E-05-2.82675E-05-2.88955E-05-7.29875E-07 3.43099E-19 1.58096E-19
 -1       766 9.54472E-05-2.88929E-05-2.85233E-05-1.01619E-06 7.02508E-19 3.11838E-19
 -1       767 9.54014E-05-2.88857E-05-2.85068E-05-9.14164E-07 4.77458E-19 3.40366E-21
 -1       768 9.53630E-05-2.88529E-05-2.85044E-05-8.04903E-07 1.15438E-19 1.67701E-19
 -1       769 9.53310E-05-2.88037E-05-2.85117E-05-7.03911E-07-4.42359E-19 2.66596E-19
 -1       770 9.53042E-05-2.87441E-05-2.85258E-05-6.21754E-07-2.46707E-19-4.64074E-19
 -1       771 9.52817E-05-2.86780E-05-2.85444E-05-5.65668E-07 4.86987E-20 1.35784E-19
 -1       772 9.52630E-05-2.86081E-05-2.85664E-05-5.40697E-07-1.38069E-19 2.34535E-19
 -1       773 9.52484E-05-2.85366E-05-2.85908E-05-5.50395E-07-4.24697E-19 1.21991E-19
 -1       774 9.52392E-05-2.84669E-05-2.86167E-05-5.97097E-07-1.86469E-19 1.52688E-19
 -1       775 9.52389E-05-2.84040E-05-2.86435E-05-6.81747E-07 2.26177E-19 1.32071E-18
 -1       776 9.52541E-05-2.83569E-05-2.86702E-05-8.03216E-07 9.25277E-20 1.94907E-18
 -1       777 9.52957E-05-2.83393E-05-2.86955E-05-9.57043E-07-3.80898E-20 1.46075E-18
 -1       778 9.53810E-05-2.83724E-05-2.87179E-05-1.13347E-06-5.20503E-19 1.10897E-18
 -1       779 9.55353E-05-2.84857E-05-2.87355E-05-1.31465E-06 5.25668E-19 3.96811E-19
 -1       780 9.57938E-05-2.87176E-05-2.87470E-05-1.47107E-06-1.02102E-19 9.09163E-19
 -1       781 9.62012E-05-2.91131E-05-2.87521E-05-1.55710E-06-7.24238E-19 4.62336E-19
 -1       782 9.68081E-05-2.97169E-05-2.87536E-05-1.50655E-06-4.26267E-19-1.93232E-19
 -1       783 9.76616E-05-3.05578E-05-2.87590E-05-1.22963E-06 1.10151E-19 2.78119E-19
 -1       784 9.87842E-05-3.16224E-05-2.87841E-05-6.15058E-07 1.20290E-19 2.52929E-19
 -1       785 1.00141E-04-3.28147E-05-2.88546E-05 4.54668E-07-1.12676E-18 6.40062E-19
 -1       786 1.01595E-04-3.39136E-05-2.90070E-05 2.06491E-06-8.35195E-19 1.37945E-18
 -1       787 1.02871E-04-3.45398E-05-2.92850E-05 4.19432E-06-4.25703E-19 9.11411E-19
 -1       788 1.03558E-04-3.41964E-05-2.97252E-05 6.59339E-06-6.88046E-19 2.94651E-19
 -1       789 1.03238E-04-3.24479E-05-3.03368E-05 8.67658E-06 1.03425E-18 3.08310E-19
 -1       790 1.01750E-04-2.92630E-05-3.10661E-05 9.54996E-06 5.43598E-19 1.15366E-18
 -1       791 9.95229E-05-2.53812E-05-3.17728E-05 8.29638E-06 5.79221E-19 2.68108E-18
 -1       792 9.75411E-05-2.22289E-05-3.22781E-05 4.75650E-06 8.15236E-20 3.13580E-18
 -1       793 9.69579E-05-2.13308E-05-3.24150E-05-1.99578E-07 2.66181E-19 1.79105E-18
 -1       794 9.81218E-05-2.31659E-05-3.21179E-05-4.85761E-06-9.42316E-20 3.16034E-19
 -1       795 1.00300E-04-2.67723E-05-3.15140E-05-7.58705E-06-4.65128E-19-6.62598E-19
 -1       796 1.02296E-04-3.04946E-05-3.07741E-05-7.98012E-06-3.47872E-19-7.13100E-19
 -1       797 1.03240E-04-3.30551E-05-3.00786E-05-6.51572E-06 5.62102E-19 9.29763E-19
 -1       798 1.02934E-04-3.40126E-05-2.95390E-05-4.25451E-06-1.44966E-18-2.23448E-19
 -1       799 1.01666E-04-3.35949E-05-2.91748E-05-2.06208E-06-1.63559E-18-4.22165E-19
 -1       800 1.00888E-04-3.30608E-05-2.90651E-05-6.11308E-07-2.51490E-18-8.25260E-20
 -1       801 7.98858E-05-2.04846E-05-2.54208E-05 1.62753E-05-1.16365E-18 2.25542E-18
 -1       802 7.17092E-05-1.37921E-05-2.47865E-05 6.47655E-06 8.87512E-19 3.63453E-19
 -1       803 9.97211E-05-3.45293E-05-2.79310E-05 1.76821E-05-1.40061E-19-1.79637E-18
 -1       804 1.11938E-04-9.65174E-06-4.40903E-05 3.99872E-07 1.43895E-18-1.53607E-18
 -1       805 7.15015E-05-1.20872E-05-2.54261E-05-6.12122E-06-8.12925E-19-4.35954E-19
 -1       806 5.34707E-05-1.13689E-05-1.77833E-05-1.89222E-05-4.44682E-19-1.24801E-18
 -1       807 1.15476E-04-1.45315E-05-4.35630E-05 9.73270E-06 1.71330E-18 1.04665E-18
 -1       808 1.31903E-04-5.32855E-05-3.37409E-05 3.25100E-06 2.41428E-19-4.58872E-18
 -1       809 1.28698E-04-4.01453E-05-3.80845E-05-9.58085E-06-8.01293E-19-3.29848E-18
 -1       810 7.13418E-05-2.49307E-05-1.96663E-05 3.14238E-05 1.19692E-18 2.61674E-18
 -1       811 1.17670E-04-1.92213E-05-4.24389E-05-1.14158E-05 6.84509E-19-2.84420E-18
 -1       812 9.55623E-05-2.87678E-05-2.86262E-05-1.09823E-06 1.48258E-19-4.43773E-19
 -1       813 9.31975E-05-1.97733E-05-3.14688E-05 1.23044E-06 8.66941E-19-1.02304E-18
 -1       814 1.35665E-04-5.06183E-05-3.66083E-05 1.44737E-06 2.07116E-19 8.84924E-19
 -1       815 9.08717E-05-2.85987E-05-2.66727E-05 1.97289E-05 2.33511E-19 3.84166E-19
 -1       816 1.02016E-04-4.59267E-05-2.38913E-05-3.34025E-05-1.98553E-18-1.63671E-18
 -1       817 4.82876E-05-8.95359E-06-1.64711E-05-1.01931E-05 2.16516E-18-1.86480E-18
 -1       818 5.08720E-05-1.10045E-05-1.67542E-05 1.49764E-05-1.69922E-18 1.68692E-18
 -1       819 1.21293E-04-5.49424E-05-2.84123E-05 2.19729E-05-1.44418E-18-2.69262E-18
 -1       820 9.40325E-05-2.13592E-05-3.11459E-05 3.30659E-06 8.17241E-19-5.61778E-19
 -1       821 9.29268E-05-1.88906E-05-3.17367E-05-6.38582E-06-3.92666E-19-9.32540E-19
 -1       822 9.35152E-05-2.03601E-05-3.13533E-05 2.36067E-06 9.97502E-19-6.83711E-19
 -1       823 6.58196E-05-1.09066E-05-2.34565E-05-8.40061E-06 1.72715E-18-9.83389E-19
 -1       824 9.57265E-05-2.77410E-05-2.91362E-05-2.04543E-07 6.16832E-19 5.40594E-19
 -1       825 1.14534E-04-5.15462E-05-2.69682E-05-2.46505E-05-2.17889E-18-2.69149E-18
 -1       826 1.04778E-04-3.74442E-05-2.88595E-05 1.28084E-05-6.44729E-19-3.26607E-18
 -1       827 1.06060E-04-3.76061E-05-2.93325E-05 7.45790E-06-2.22846E-19-3.17221E-18
 -1       828 1.08852E-04-1.46711E-05-4.04841E-05-5.78969E-06 5.77207E-19-1.51641E-18
 -1       829 1.18170E-04-2.20851E-05-4.13553E-05 1.31190E-05 8.98530E-19 2.11053E-18
 -1       830 9.40030E-05-2.13087E-05-3.11556E-05-3.27672E-06-1.77133E-19-6.59452E-19
 -1       831 9.57177E-05-2.69395E-05-2.94755E-05 6.72384E-07 4.67507E-19 4.21583E-19
 -1       832 1.05036E-04-3.63924E-05-2.94188E-05 3.66264E-06-4.02152E-19-1.03029E-18
 -1       833 9.35007E-05-2.03370E-05-3.13568E-05-2.31169E-06 3.52692E-19-3.42041E-19
 -1       834 1.18952E-04-3.08311E-05-3.78275E-05-1.21113E-05-3.50480E-19-2.22016E-18
 -1       835 9.54201E-05-2.54283E-05-2.99947E-05 2.43440E-06 7.18023E-19 2.27351E-19
 -1       836 9.30864E-05-1.95764E-05-3.15060E-05 1.69643E-08 8.86443E-19-9.36542E-19
 -1       837 9.31903E-05-1.97641E-05-3.14698E-05-1.18720E-06 7.68410E-19-6.46613E-19
 -1       838 9.53747E-05-2.44655E-05-3.03884E-05-1.87283E-06-2.94523E-20-4.15914E-19
 -1       839 9.59752E-05-2.62243E-05-2.98930E-05-7.80246E-07-2.28664E-22-2.80450E-19
 -1       840 9.62683E-05-2.74174E-05-2.95076E-05-1.75573E-08 2.36094E-20-1.16681E-19
 -1       841 9.63631E-05-2.81918E-05-2.92163E-05 4.67300E-07 5.14347E-20-1.25169E-21
 -1       842 9.63414E-05-2.86736E-05-2.90005E-05 7.39149E-07-2.10056E-19 1.03776E-19
 -1       843 9.62551E-05-2.89511E-05-2.88445E-05 8.59899E-07-3.38880E-19 1.99024E-19
 -1       844 9.61434E-05-2.90842E-05-2.87396E-05 8.81634E-07-4.81225E-19-5.87759E-20
 -1       845 9.60145E-05-2.91312E-05-2.86643E-05 8.44569E-07-7.94788E-19-1.90481E-19
 -1       846 9.58856E-05-2.91139E-05-2.86164E-05 7.74946E-07-6.76193E-19-8.29645E-19
 -1       847 9.57631E-05-2.90551E-05-2.85892E-05 6.94166E-07-1.78766E-19-5.28623E-19
 -1       848 9.56495E-05-2.89689E-05-2.85774E-05 6.17359E-07-1.19123E-19-3.12533E-19
 -1       849 9.55439E-05-2.88635E-05-2.85773E-05 5.55299E-07 1.33389E-19-9.87756E-19
 -1       850 9.54482E-05-2.87487E-05-2.85855E-05 5.16833E-07-4.79683E-19-1.09987E-18
 -1       851 9.53472E-05-2.86118E-05-2.86009E-05 5.03543E-07 2.44987E-19-7.11254E-19
 -1       852 9.52381E-05-2.84537E-05-2.86219E-05 5.22950E-07 3.42426E-19-6.25192E-20
 -1       853 9.51100E-05-2.82662E-05-2.86474E-05 5.78881E-07 2.27728E-19 2.99981E-20
 -1       854 9.49478E-05-2.80369E-05-2.86761E-05 6.74429E-07 1.58710E-19-5.18203E-19
 -1       855 9.47300E-05-2.77482E-05-2.87065E-05 8.11294E-07-5.00550E-19-4.59202E-19
 -1       856 9.44259E-05-2.73757E-05-2.87358E-05 9.88066E-07-6.91442E-19-9.25298E-19
 -1       857 9.40186E-05-2.69156E-05-2.87585E-05 1.18786E-06-1.12847E-18-5.72886E-19
 -1       858 9.34083E-05-2.62809E-05-2.87689E-05 1.41697E-06 8.86720E-20 7.58038E-19
 -1       859 9.25264E-05-2.54393E-05-2.87517E-05 1.63510E-06 2.49500E-19 5.69439E-19
 -1       860 9.12568E-05-2.43303E-05-2.86829E-05 1.78827E-06 1.73466E-20-4.52293E-19
 -1       861 8.94413E-05-2.28881E-05-2.85231E-05 1.78636E-06-8.66561E-19-8.54395E-21
 -1       862 8.68674E-05-2.10543E-05-2.82058E-05 1.48423E-06-3.93654E-19-9.10798E-19
 -1       863 8.34681E-05-1.89197E-05-2.76646E-05 7.41757E-07-8.34890E-19-8.07470E-19
 -1       864 7.85434E-05-1.62945E-05-2.66769E-05-7.80321E-07 2.53418E-20-1.16716E-18
 -1       865 7.16524E-05-1.33833E-05-2.49552E-05-3.43769E-06 3.10656E-19-2.01960E-18
 -1       866 6.33152E-05-1.13976E-05-2.21614E-05-9.50238E-06-1.93385E-19-8.04916E-19
 -1       867 9.61938E-05-2.84351E-05-2.90394E-05-6.83987E-07 3.02258E-19 2.00122E-19
 -1       868 1.24163E-04-4.47795E-05-3.40910E-05-4.88789E-06-3.97892E-19-2.03855E-18
 -1       869 9.58118E-05-2.90654E-05-2.86056E-05-8.73394E-07 6.54537E-19 3.72391E-19
 -1       870 5.70590E-05-9.39815E-06-2.02434E-05 1.31620E-06 1.01759E-18-1.26175E-18
 -1       871 9.57051E-05-2.90301E-05-2.85750E-05-7.86498E-07 3.76094E-19 7.07611E-19
 -1       872 9.56067E-05-2.89652E-05-2.85606E-05-6.96854E-07-1.65997E-19 8.68628E-19
 -1       873 9.55170E-05-2.88816E-05-2.85580E-05-6.17606E-07-3.95347E-19 2.06999E-19
 -1       874 9.54352E-05-2.87862E-05-2.85639E-05-5.57967E-07-4.57924E-19 3.77952E-19
 -1       875 9.53597E-05-2.86830E-05-2.85757E-05-5.24573E-07-3.21887E-19 2.45499E-19
 -1       876 9.52887E-05-2.85749E-05-2.85916E-05-5.22502E-07 9.31279E-20 1.52143E-19
 -1       877 9.52212E-05-2.84646E-05-2.86100E-05-5.55919E-07-2.56891E-19-5.80741E-19
 -1       878 9.51581E-05-2.83562E-05-2.86294E-05-6.28380E-07-6.89743E-19-8.72471E-20
 -1       879 9.51028E-05-2.82570E-05-2.86482E-05-7.42782E-07-1.76236E-19 8.10808E-19
 -1       880 9.50641E-05-2.81798E-05-2.86647E-05-9.00864E-07 6.62816E-19 3.77579E-19
 -1       881 9.50576E-05-2.81448E-05-2.86769E-05-1.10211E-06 1.14580E-20 2.63629E-19
 -1       882 9.51094E-05-2.81830E-05-2.86828E-05-1.34189E-06 1.15224E-19 6.75132E-20
 -1       883 9.52591E-05-2.83375E-05-2.86807E-05-1.60840E-06-4.72527E-19 4.37181E-19
 -1       884 9.55627E-05-2.86649E-05-2.86705E-05-1.87790E-06-1.06085E-18 8.22872E-19
 -1       885 9.60941E-05-2.92325E-05-2.86550E-05-2.10790E-06-7.79955E-19 8.03775E-19
 -1       886 9.69405E-05-3.01079E-05-2.86426E-05-2.22783E-06-1.78630E-19 1.27313E-18
 -1       887 9.81893E-05-3.13376E-05-2.86508E-05-2.12847E-06-3.85905E-20 6.99943E-19
 -1       888 9.98979E-05-3.29062E-05-2.87110E-05-1.65333E-06-2.48932E-19 1.28314E-18
 -1       889 1.02035E-04-3.46694E-05-2.88711E-05-6.10526E-07-1.88489E-18 1.45515E-18
 -1       890 1.04416E-04-3.62912E-05-2.91963E-05 1.19246E-06-2.72181E-19 2.13393E-18
 -1       891 1.06585E-04-3.71376E-05-2.97634E-05 3.81042E-06 1.87090E-19 1.48429E-18
 -1       892 1.07879E-04-3.64083E-05-3.06273E-05 6.94114E-06-1.02154E-18 4.29395E-19
 -1       893 1.07539E-04-3.33672E-05-3.17890E-05 9.67188E-06 9.04406E-20 8.89834E-19
 -1       894 1.05486E-04-2.82188E-05-3.31056E-05 1.06194E-05-4.43127E-19 9.75824E-19
 -1       895 1.02287E-04-2.23653E-05-3.42762E-05 8.25056E-06-9.51922E-20 1.65185E-18
 -1       896 1.00113E-04-1.88183E-05-3.48792E-05 2.80890E-06 4.33530E-19 8.54413E-19
 -1       897 1.00942E-04-1.98879E-05-3.47440E-05-3.56262E-06 8.55440E-19 6.61127E-19
 -1       898 1.03719E-04-2.46315E-05-3.38940E-05-8.12293E-06-2.84434E-20 7.04083E-19
 -1       899 1.06515E-04-3.03343E-05-3.26442E-05-9.10493E-06-6.18637E-19 9.13554E-19
 -1       900 1.08151E-04-3.48744E-05-3.14049E-05-7.24650E-06 1.21203E-19 2.59828E-19
 -1       901 1.07695E-04-3.67494E-05-3.04098E-05-4.18375E-06-1.39732E-18 1.39044E-19
 -1       902 1.05800E-04-3.64859E-05-2.97144E-05-1.14034E-06-1.78046E-18 2.05995E-18
 -1       903 6.82743E-05-1.69655E-05-2.18630E-05 1.89488E-05 3.22382E-19 3.20281E-18
 -1       904 8.76975E-05-3.11771E-05-2.41312E-05 2.75522E-05-2.55248E-19 2.06795E-20
 -1       905 1.07059E-04-1.51008E-05-3.95444E-05 5.56532E-06 5.33803E-19-1.20918E-18
 -1       906 8.93112E-05-3.42819E-05-2.35023E-05-2.89729E-05-2.99940E-19-5.02109E-19
 -1       907 1.03046E-04-3.46967E-05-2.92897E-05 1.15898E-06-1.62397E-18 1.50931E-19
 -1       908 7.11034E-05-2.01304E-05-2.17478E-05-2.34913E-05-3.33739E-19-8.81040E-19
 -1       909 9.59238E-05-2.90542E-05-2.86584E-05-9.38740E-07 3.62118E-19-2.09901E-19
 -1       910 1.09332E-04-4.59388E-05-2.71520E-05 2.33959E-05 5.91070E-20-2.69732E-18
 -1       911 1.27059E-04-5.23226E-05-3.20375E-05-6.07475E-06-1.87345E-19 1.41777E-18
 -1       912 1.25516E-04-3.91585E-05-3.71708E-05 1.03730E-05 5.30011E-19 1.85483E-18
 -1       913 9.53793E-05-2.46212E-05-3.03245E-05 2.18533E-06 6.22838E-19-2.32553E-19
 -1       914 1.22558E-04-5.09071E-05-3.07129E-05 8.98283E-06-3.86020E-19-3.70430E-18
 -1       915 9.61886E-05-2.78562E-05-2.92856E-05-2.79683E-07 5.79005E-19 1.31489E-20
 -1       916 1.00875E-04-4.15843E-05-2.53810E-05-2.59624E-05-1.62186E-18-2.63621E-18
 -1       917 1.08369E-04-4.21949E-05-2.83592E-05 1.66779E-05 8.44487E-19-3.03485E-18
 -1       918 1.10932E-04-4.21285E-05-2.94838E-05 9.13114E-06-6.66422E-20-3.95215E-18
 -1       919 9.61318E-05-2.87825E-05-2.88640E-05-8.88112E-07 3.70750E-19 2.11280E-19
 -1       920 1.08427E-04-1.88472E-05-3.84711E-05 9.31119E-06 7.03597E-19-1.21799E-18
 -1       921 1.22817E-04-4.48324E-05-3.34289E-05 4.56107E-06-6.10241E-19-1.02137E-19
 -1       922 1.09613E-04-4.00465E-05-2.98168E-05 4.03045E-06-6.58441E-19-2.73400E-18
 -1       923 9.51333E-05-2.36521E-05-3.06346E-05-1.46395E-06 1.27315E-19 9.66003E-20
 -1       924 1.10234E-04-2.30270E-05-3.74239E-05-1.03032E-05-3.84411E-19-1.53256E-18
 -1       925 9.46802E-05-2.26055E-05-3.08894E-05 1.21998E-06 6.89441E-19-7.49992E-19
 -1       926 9.60346E-05-2.89719E-05-2.87412E-05-9.55948E-07 2.96961E-19-1.13432E-19
 -1       927 9.45339E-05-2.22698E-05-3.09717E-05 4.35897E-07 7.05830E-19-1.05718E-18
 -1       928 9.59339E-05-2.61572E-05-2.99046E-05 8.98521E-07 2.59336E-19-4.67533E-19
 -1       929 9.61347E-05-2.71467E-05-2.95669E-05 2.29747E-07 4.26757E-19-2.44085E-19
 -1       930 9.62496E-05-2.64880E-05-2.98977E-05-3.82445E-07-6.19845E-20 2.56908E-19
 -1       931 9.65683E-05-2.76490E-05-2.95370E-05 1.15782E-07 1.13870E-19 1.03138E-19
 -1       932 9.66720E-05-2.84017E-05-2.92587E-05 4.27611E-07-1.41548E-19-1.35061E-19
 -1       933 9.66418E-05-2.88632E-05-2.90480E-05 5.96231E-07-3.08000E-19-3.20680E-19
 -1       934 9.65400E-05-2.91098E-05-2.88987E-05 6.63039E-07-3.73599E-19-4.20724E-19
 -1       935 9.63923E-05-2.92284E-05-2.87845E-05 6.68201E-07-7.52891E-19-2.00001E-19
 -1       936 9.62268E-05-2.92477E-05-2.87053E-05 6.33331E-07-1.00893E-18 5.84548E-20
 -1       937 9.60590E-05-2.92018E-05-2.86531E-05 5.79250E-07-3.07467E-19 3.98429E-20
 -1       938 9.58968E-05-2.91130E-05-2.86216E-05 5.20729E-07-2.51611E-19 1.03586E-20
 -1       939 9.57428E-05-2.89956E-05-2.86060E-05 4.68364E-07-4.18278E-19-2.64708E-19
 -1       940 9.56029E-05-2.88644E-05-2.86022E-05 4.30787E-07-1.10797E-19-3.12582E-19
 -1       941 9.54579E-05-2.87081E-05-2.86071E-05 4.08869E-07-4.90818E-20-1.82066E-20
 -1       942 9.53076E-05-2.85305E-05-2.86187E-05 4.08405E-07 7.26759E-19-3.27406E-19
 -1       943 9.51412E-05-2.83259E-05-2.86351E-05 4.30985E-07 1.79437E-19-3.88994E-19
 -1       944 9.49442E-05-2.80844E-05-2.86542E-05 4.76360E-07-2.66504E-19-6.96698E-19
 -1       945 9.46974E-05-2.77923E-05-2.86737E-05 5.41456E-07-5.05667E-19-1.21013E-18
 -1       946 9.43747E-05-2.74312E-05-2.86901E-05 6.18243E-07-5.02361E-19-6.00034E-19
 -1       947 9.39670E-05-2.70038E-05-2.86986E-05 6.88967E-07-6.52156E-19-2.65292E-19
 -1       948 9.33889E-05-2.64396E-05-2.86926E-05 7.35603E-07 5.83408E-19 3.95926E-19
 -1       949 9.25982E-05-2.57264E-05-2.86594E-05 7.09255E-07 2.33021E-19 1.22241E-18
 -1       950 9.15190E-05-2.48321E-05-2.85801E-05 5.38967E-07-7.45891E-19 6.84241E-19
 -1       951 9.00556E-05-2.37298E-05-2.84254E-05 1.14435E-07-5.63032E-19-7.23364E-20
 -1       952 8.80930E-05-2.24120E-05-2.81487E-05-7.32653E-07-9.37724E-19 5.62724E-20
 -1       953 8.56466E-05-2.09863E-05-2.77111E-05-2.13810E-06-4.37318E-19-4.92940E-20
 -1       954 8.23313E-05-1.94051E-05-2.69658E-05-4.56385E-06-6.17189E-19 1.36036E-19
 -1       955 7.81222E-05-1.79851E-05-2.57644E-05-8.42737E-06-9.26111E-21 2.16569E-19
 -1       956 7.42968E-05-1.79866E-05-2.41006E-05-1.46211E-05 3.59763E-19-6.74877E-19
 -1       957 9.49568E-05-2.32836E-05-3.07169E-05 1.88152E-06 6.84569E-19-8.04645E-19
 -1       958 1.15075E-04-3.56360E-05-3.40950E-05-9.57429E-06-1.12893E-19-8.76841E-19
 -1       959 9.92053E-05-3.74529E-05-2.64702E-05 2.34170E-05 1.39330E-20-1.21427E-18
 -1       960 9.56182E-05-2.89103E-05-2.85891E-05-4.93687E-07-1.02772E-19 1.05048E-18
 -1       961 9.54920E-05-2.87815E-05-2.85902E-05-4.58090E-07 2.15835E-19 4.80651E-19
 -1       962 9.53711E-05-2.86432E-05-2.85977E-05-4.47458E-07 1.24317E-19 2.02124E-19
 -1       963 9.52525E-05-2.84980E-05-2.86091E-05-4.67041E-07-3.26711E-20 1.04215E-19
 -1       964 9.51340E-05-2.83485E-05-2.86224E-05-5.22120E-07-1.08660E-18 7.80582E-19
 -1       965 9.50156E-05-2.81996E-05-2.86354E-05-6.18495E-07-3.53370E-19 9.11088E-19
 -1       966 9.49011E-05-2.80607E-05-2.86459E-05-7.62769E-07 2.92207E-19 5.45568E-20
 -1       967 9.48011E-05-2.79479E-05-2.86514E-05-9.62250E-07 1.93995E-19 1.26947E-18
 -1       968 9.47358E-05-2.78880E-05-2.86491E-05-1.22434E-06-4.69916E-19 6.40679E-19
 -1       969 9.47400E-05-2.79216E-05-2.86365E-05-1.55499E-06-1.62602E-19 1.05710E-18
 -1       970 9.48677E-05-2.81065E-05-2.86120E-05-1.95537E-06-4.70448E-19 2.38255E-19
 -1       971 9.51982E-05-2.85202E-05-2.85763E-05-2.41568E-06-7.02448E-19 4.17554E-20
 -1       972 9.58389E-05-2.92572E-05-2.85350E-05-2.90439E-06-1.15671E-19-2.84523E-19
 -1       973 9.69242E-05-3.04189E-05-2.85023E-05-3.35112E-06-1.33429E-19 2.92172E-19
 -1       974 9.86004E-05-3.20855E-05-2.85066E-05-3.62342E-06-1.01208E-18 1.46713E-18
 -1       975 1.00996E-04-3.42666E-05-2.85991E-05-3.49009E-06-1.68150E-18 1.59155E-18
 -1       976 1.04106E-04-3.67716E-05-2.88571E-05-2.65703E-06-1.24434E-18 7.91539E-19
 -1       977 1.07727E-04-3.91317E-05-2.93955E-05-6.56424E-07-7.03253E-19 1.16375E-18
 -1       978 1.11144E-04-4.02909E-05-3.03647E-05 2.74570E-06-2.96565E-19 2.14537E-18
 -1       979 1.13175E-04-3.89220E-05-3.18304E-05 7.10780E-06-2.43469E-19 2.20162E-18
 -1       980 1.12526E-04-3.37309E-05-3.37756E-05 1.06968E-05 4.79510E-19 1.43851E-18
 -1       981 1.13446E-04-4.00277E-05-3.14439E-05-3.85118E-06-1.06845E-18 1.39653E-18
 -1       982 1.17104E-04-4.74087E-05-2.98567E-05 1.03288E-05-3.67063E-19-3.42682E-18
 -1       983 1.18302E-04-4.46785E-05-3.15726E-05-8.02321E-08-1.10149E-18-2.74120E-18
 -1       984 9.57524E-05-2.90258E-05-2.85971E-05-5.48379E-07-8.74197E-20 1.56317E-18
 -1       985 9.49460E-05-2.31197E-05-3.07823E-05-8.67640E-07 5.18248E-19-1.73367E-19
 -1       986 9.62026E-05-2.92005E-05-2.87152E-05-7.38394E-07 2.96704E-19 3.69072E-19
 -1       987 9.46987E-05-2.25803E-05-3.09078E-05-2.68650E-07 6.38485E-19-7.18432E-19
 -1       988 1.14668E-04-2.93772E-05-3.66247E-05 1.26159E-05 5.30322E-19 7.87220E-19
 -1       989 9.58957E-05-2.91213E-05-2.86176E-05-6.14770E-07 1.18090E-19 1.62444E-18
 -1       990 9.58045E-05-2.52442E-05-3.02404E-05-8.76845E-07 8.50566E-20 2.93266E-19
 -1       991 1.17061E-04-4.89505E-05-2.91520E-05-1.26627E-05-1.45040E-18 6.30762E-19
 -1       992 9.60473E-05-2.91854E-05-2.86551E-05-6.82811E-07 4.53491E-20 1.04654E-18
 -1       993 9.56881E-05-2.48669E-05-3.03544E-05 8.86077E-07 4.77401E-19-1.03656E-18
 -1       994 1.18124E-04-4.63170E-05-3.07934E-05-2.51801E-06-7.49174E-19 3.16415E-19
 -1       995 9.35121E-05-3.38028E-05-2.55870E-05-2.15029E-05-9.78034E-19 3.62664E-19
 -1       996 9.63519E-05-2.91404E-05-2.88049E-05-7.61937E-07 4.25296E-19 1.78044E-19
 -1       997 1.10651E-04-4.00271E-05-3.02510E-05 4.70774E-07-1.64502E-18-5.97381E-19
 -1       998 9.55905E-05-2.44650E-05-3.04801E-05 4.92570E-07 7.56763E-19-8.27925E-19
 -1       999 8.25334E-05-2.53372E-05-2.44748E-05-2.02924E-05 6.98070E-20 7.80488E-19
 -1      1000 1.13759E-04-4.27025E-05-3.04659E-05 2.54286E-06-1.39702E-19-2.60696E-18
 -1      1001 1.18075E-04-3.89995E-05-3.39216E-05 8.74862E-06 1.28409E-18 1.31101E-18
 -1      1002 9.65537E-05-2.86279E-05-2.91110E-05-5.98009E-07 1.85477E-19-3.94103E-19
 -1      1003 9.65286E-05-2.80441E-05-2.93504E-05-3.16132E-07 4.06412E-19-4.17423E-19
 -1      1004 9.62067E-05-2.62177E-05-2.99938E-05 4.43605E-07 2.45326E-19-1.25555E-18
 -1      1005 9.61684E-05-2.92526E-05-2.86782E-05-4.64556E-07-8.20974E-20 7.50506E-19
 -1      1006 9.68025E-05-2.79568E-05-2.95053E-05 1.58805E-07-2.70063E-19-2.52018E-19
 -1      1007 9.68761E-05-2.86372E-05-2.92453E-05 3.21546E-07-3.72603E-19-1.98335E-19
 -1      1008 9.68223E-05-2.90270E-05-2.90551E-05 4.02576E-07-3.75595E-19-1.03052E-19
 -1      1009 9.66893E-05-2.92459E-05-2.89043E-05 4.32551E-07-2.88615E-19-5.08581E-20
 -1      1010 9.65138E-05-2.93255E-05-2.87950E-05 4.26004E-07-7.63336E-19-4.07772E-19
 -1      1011 9.63214E-05-2.93117E-05-2.87184E-05 3.99354E-07-4.40610E-19-1.06769E-19
 -1      1012 9.61268E-05-2.92358E-05-2.86675E-05 3.64011E-07-2.33424E-19-5.10791E-20
 -1      1013 9.59378E-05-2.91192E-05-2.86365E-05 3.28706E-07-3.64832E-19-2.95037E-19
 -1      1014 9.57652E-05-2.89827E-05-2.86211E-05 3.00235E-07-3.66696E-19 5.04090E-19
 -1      1015 9.55882E-05-2.88176E-05-2.86160E-05 2.79049E-07-9.41620E-20 4.22059E-19
 -1      1016 9.54098E-05-2.86315E-05-2.86193E-05 2.68856E-07 6.45487E-20 4.57617E-19
 -1      1017 9.52208E-05-2.84216E-05-2.86282E-05 2.69624E-07 4.41501E-19-3.64943E-19
 -1      1018 9.50086E-05-2.81813E-05-2.86403E-05 2.79111E-07 1.44581E-19-3.02171E-19
 -1      1019 9.47576E-05-2.79011E-05-2.86528E-05 2.91806E-07-5.71381E-19-5.11668E-20
 -1      1020 9.44476E-05-2.75693E-05-2.86622E-05 2.96802E-07-9.49790E-19 2.86525E-20
 -1      1021 9.40766E-05-2.71938E-05-2.86642E-05 2.78435E-07 8.52692E-20-1.27687E-19
 -1      1022 9.35781E-05-2.67222E-05-2.86527E-05 2.06502E-07 7.56940E-19 4.46136E-19
 -1      1023 9.29336E-05-2.61592E-05-2.86178E-05 3.41263E-08 7.46686E-19 7.03771E-19
 -1      1024 9.21047E-05-2.54984E-05-2.85456E-05-3.08973E-07-8.79055E-19 3.78721E-19
 -1      1025 9.10517E-05-2.47473E-05-2.84162E-05-9.27399E-07-7.01218E-19 9.87974E-19
 -1      1026 8.97418E-05-2.39409E-05-2.82001E-05-1.97257E-06-1.02877E-18 9.04075E-19
 -1      1027 8.82496E-05-2.31983E-05-2.78782E-05-3.54498E-06-1.20094E-18 7.03927E-19
 -1      1028 8.64538E-05-2.25983E-05-2.73642E-05-6.06607E-06-4.40899E-19 7.28945E-19
 -1      1029 8.46245E-05-2.25402E-05-2.66005E-05-9.81112E-06 2.46564E-19 4.56461E-19
 -1      1030 9.54834E-05-2.87335E-05-2.86071E-05-3.31730E-07-7.02662E-20 1.44718E-18
 -1      1031 1.08242E-04-4.31342E-05-2.78803E-05-1.49191E-05-2.11453E-18-6.82291E-19
 -1      1032 9.57236E-05-2.48065E-05-3.03929E-05-5.52810E-07 2.05219E-19-3.62402E-20
 -1      1033 9.56439E-05-2.88922E-05-2.86079E-05-3.45502E-07 1.14087E-19 1.06876E-18
 -1      1034 9.51632E-05-2.83817E-05-2.86207E-05-3.76400E-07-5.23843E-19 1.21775E-18
 -1      1035 9.49951E-05-2.81923E-05-2.86298E-05-4.47649E-07-4.11828E-19 7.14895E-20
 -1      1036 9.48188E-05-2.79993E-05-2.86369E-05-5.63018E-07 3.91969E-20 3.75712E-19
 -1      1037 9.46372E-05-2.78128E-05-2.86390E-05-7.34844E-07-1.49175E-19 5.90234E-19
 -1      1038 9.44610E-05-2.76514E-05-2.86327E-05-9.78715E-07 3.45492E-19 8.97818E-19
 -1      1039 9.43128E-05-2.75461E-05-2.86143E-05-1.31447E-06-5.93971E-19 6.61716E-19
 -1      1040 9.42330E-05-2.75460E-05-2.85801E-05-1.76475E-06-2.61261E-19 1.36023E-18
 -1      1041 9.42879E-05-2.77228E-05-2.85277E-05-2.35211E-06-1.61270E-19 7.95388E-19
 -1      1042 9.45781E-05-2.81766E-05-2.84574E-05-3.09154E-06-2.09007E-19 5.32282E-20
 -1      1043 9.52490E-05-2.90370E-05-2.83760E-05-3.97509E-06-7.47565E-19 1.22746E-18
 -1      1044 9.64979E-05-3.04578E-05-2.83021E-05-4.94303E-06-8.74702E-19 9.61144E-19
 -1      1045 9.85510E-05-3.25748E-05-2.82759E-05-5.84215E-06-1.04806E-18 9.86778E-19
 -1      1046 1.01738E-04-3.55089E-05-2.83924E-05-6.27560E-06-7.66715E-19-1.21571E-18
 -1      1047 1.06106E-04-3.90563E-05-2.87496E-05-5.81837E-06-1.41262E-18-1.08753E-18
 -1      1048 1.11331E-04-4.24432E-05-2.95363E-05-3.83193E-06-1.68816E-18-4.30709E-20
 -1      1049 9.64778E-05-2.89669E-05-2.89333E-05-7.26517E-07 4.94455E-19-1.42550E-19
 -1      1050 9.58104E-05-2.90361E-05-2.86175E-05-3.76138E-07-4.97130E-20 7.28001E-19
 -1      1051 9.65187E-05-2.68933E-05-2.98395E-05-1.10224E-07-1.92181E-20-3.48231E-20
 -1      1052 9.59853E-05-2.91597E-05-2.86395E-05-4.18142E-07-1.29015E-20 6.59239E-19
 -1      1053 9.63550E-05-2.92976E-05-2.87389E-05-5.06424E-07-1.51016E-19 6.88144E-19
 -1      1054 9.53247E-05-2.85628E-05-2.86123E-05-3.40113E-07 2.33913E-19 1.55299E-18
 -1      1055 9.64741E-05-2.73030E-05-2.96452E-05 2.61154E-08 3.63371E-19-1.04690E-18
 -1      1056 8.32611E-05-2.32719E-05-2.56928E-05-1.43946E-05-2.03884E-19 9.91579E-19
 -1      1057 9.55651E-05-2.43659E-05-3.05138E-05-1.96381E-07 2.63214E-19-5.05135E-19
 -1      1058 9.65346E-05-2.92693E-05-2.88280E-05-5.30664E-07 1.08118E-19 9.56340E-20
 -1      1059 9.62131E-05-2.59312E-05-3.01215E-05 2.66514E-07 4.88225E-19-9.59199E-19
 -1      1060 9.55773E-05-2.43784E-05-3.05125E-05 2.01569E-07 4.83391E-19-9.49299E-19
 -1      1061 9.61935E-05-2.59595E-05-3.01001E-05-3.21656E-07-1.40201E-19-1.22144E-19
 -1      1062 9.67871E-05-2.88290E-05-2.91249E-05-4.53747E-07-8.96554E-20-7.10520E-19
 -1      1063 9.67989E-05-2.83094E-05-2.93528E-05-3.07364E-07 1.31702E-19-1.11156E-18
 -1      1064 9.06877E-05-2.95035E-05-2.62155E-05-1.65274E-05 1.33899E-19 7.13050E-19
 -1      1065 1.01918E-04-3.76947E-05-2.75105E-05-1.39815E-05-1.45206E-18-3.90001E-19
 -1      1066 9.69714E-05-2.88530E-05-2.91933E-05 1.48445E-07-2.59191E-19 1.40351E-19
 -1      1067 9.68775E-05-2.91854E-05-2.90110E-05 1.71587E-07-3.77414E-19-6.10814E-20
 -1      1068 9.67155E-05-2.93378E-05-2.88763E-05 1.75508E-07-6.95255E-19-2.61133E-19
 -1      1069 9.65237E-05-2.93721E-05-2.87792E-05 1.70162E-07-4.03531E-19 1.05392E-19
 -1      1070 9.63134E-05-2.93218E-05-2.87106E-05 1.58842E-07-2.90866E-19-4.26847E-20
 -1      1071 9.61042E-05-2.92178E-05-2.86656E-05 1.45174E-07-1.00408E-19-2.31348E-21
 -1      1072 9.59110E-05-2.90853E-05-2.86396E-05 1.32374E-07 3.18904E-19 1.84087E-19
 -1      1073 9.57140E-05-2.89210E-05-2.86255E-05 1.20970E-07-2.20155E-19 4.99084E-19
 -1      1074 9.55194E-05-2.87355E-05-2.86217E-05 1.11676E-07 2.06671E-20 3.26606E-19
 -1      1075 9.53199E-05-2.85288E-05-2.86247E-05 1.03107E-07 1.39878E-19 6.74706E-19
 -1      1076 9.51055E-05-2.82979E-05-2.86318E-05 9.18299E-08 1.51511E-19 4.51341E-19
 -1      1077 9.48640E-05-2.80374E-05-2.86400E-05 7.13443E-08-1.91286E-19-2.33435E-19
 -1      1078 9.45814E-05-2.77409E-05-2.86459E-05 3.03911E-08-4.33101E-19-7.88877E-19
 -1      1079 9.42602E-05-2.74203E-05-2.86457E-05-4.31664E-08-9.73306E-19 3.02769E-19
 -1      1080 9.38522E-05-2.70393E-05-2.86343E-05-1.84199E-07-1.10200E-19-8.32727E-19
 -1      1081 9.33573E-05-2.66151E-05-2.86041E-05-4.31718E-07 4.78481E-19-1.61663E-18
 -1      1082 9.27654E-05-2.61603E-05-2.85456E-05-8.46331E-07 4.49995E-19-1.77985E-18
 -1      1083 9.20775E-05-2.57064E-05-2.84457E-05-1.51413E-06 4.19873E-20-6.25681E-19
 -1      1084 9.13178E-05-2.53168E-05-2.82875E-05-2.55312E-06-4.65011E-19 1.03580E-20
 -1      1085 9.05842E-05-2.51062E-05-2.80643E-05-4.02237E-06-1.67865E-18 8.08999E-19
 -1      1086 8.99394E-05-2.52386E-05-2.77321E-05-6.24356E-06-3.02923E-19 1.78582E-18
 -1      1087 8.96900E-05-2.60299E-05-2.72810E-05-9.36182E-06-3.87213E-19 2.29640E-18
 -1      1088 9.56098E-05-2.88342E-05-2.86181E-05-1.84520E-07 5.45182E-20 4.81664E-19
 -1      1089 9.48142E-05-2.80009E-05-2.86343E-05-3.31578E-07-4.56729E-19 6.64118E-19
 -1      1090 9.50327E-05-2.82327E-05-2.86285E-05-2.52716E-07-2.04454E-19 5.33707E-20
 -1      1091 9.43106E-05-2.75086E-05-2.86294E-05-6.50920E-07-4.76042E-19 1.49318E-18
 -1      1092 9.40326E-05-2.72753E-05-2.86102E-05-9.38628E-07-8.09669E-19 2.62352E-18
 -1      1093 9.37597E-05-2.70892E-05-2.85729E-05-1.35703E-06-2.58984E-20 2.49971E-18
 -1      1094 9.35321E-05-2.70039E-05-2.85117E-05-1.95245E-06 2.28096E-19 9.65309E-19
 -1      1095 9.34215E-05-2.71032E-05-2.84215E-05-2.77919E-06 3.86807E-19 5.58909E-19
 -1      1096 9.35440E-05-2.75099E-05-2.82994E-05-3.89233E-06-4.25970E-19 7.62478E-19
 -1      1097 9.40826E-05-2.83967E-05-2.81500E-05-5.33021E-06-3.89161E-19 5.85056E-19
 -1      1098 9.53208E-05-3.00041E-05-2.79929E-05-7.08062E-06-2.15145E-19-5.06037E-19
 -1      1099 9.78473E-05-3.26594E-05-2.79140E-05-8.93309E-06-1.78851E-19-5.11522E-19
 -1      1100 9.66886E-05-2.91304E-05-2.89536E-05-5.21050E-07 1.55021E-19-1.54992E-19
 -1      1101 9.69516E-05-2.82793E-05-2.94311E-05 9.66371E-08-1.14758E-19-8.06348E-20
 -1      1102 9.54237E-05-2.86495E-05-2.86175E-05-1.87296E-07 3.44630E-19 6.19450E-19
 -1      1103 9.57979E-05-2.90022E-05-2.86267E-05-1.94577E-07-1.69804E-19 6.65517E-19
 -1      1104 9.67378E-05-2.73477E-05-2.97384E-05 7.09213E-09-3.08192E-20-4.69701E-19
 -1      1105 9.52336E-05-2.84491E-05-2.86219E-05-2.07808E-07-1.18851E-19-1.46348E-20
 -1      1106 9.45737E-05-2.77567E-05-2.86359E-05-4.57746E-07 6.88033E-20 8.66517E-19
 -1      1107 9.64014E-05-2.93439E-05-2.87389E-05-2.59232E-07-2.00632E-19 6.01621E-19
 -1      1108 9.65836E-05-2.70651E-05-2.97926E-05 5.74253E-08 3.38217E-19-1.19678E-18
 -1      1109 8.96783E-05-2.72945E-05-2.67852E-05-1.24534E-05-1.80176E-19 1.46654E-18
 -1      1110 9.60934E-05-2.55800E-05-3.02194E-05-1.47069E-07-1.56246E-19-5.51692E-19
 -1      1111 9.66038E-05-2.93551E-05-2.88212E-05-2.76696E-07-2.46992E-19 4.94422E-19
 -1      1112 9.59923E-05-2.91495E-05-2.86468E-05-2.13179E-07 8.89642E-20 5.79449E-19
 -1      1113 9.69477E-05-2.85685E-05-2.93052E-05-1.91648E-07-3.10989E-19-7.62057E-19
 -1      1114 9.69064E-05-2.90199E-05-2.90940E-05-2.58089E-07-6.42667E-19-5.84340E-19
 -1      1115 9.64820E-05-2.65657E-05-2.99645E-05-6.50436E-08-7.69283E-20-2.91407E-19
 -1      1116 9.61945E-05-2.92684E-05-2.86826E-05-2.36325E-07-1.35223E-19 6.51040E-19
 -1      1117 9.69508E-05-2.90477E-05-2.91015E-05-7.76303E-08-7.40932E-19-1.23057E-19
 -1      1118 9.61917E-05-2.57943E-05-3.01692E-05 8.27316E-08 1.72249E-19-4.31694E-19
 -1      1119 9.68197E-05-2.92832E-05-2.89431E-05-8.14762E-08-3.94248E-19-2.50736E-19
 -1      1120 9.67736E-05-2.92597E-05-2.89349E-05-2.80442E-07-1.25515E-19 1.59474E-19
 -1      1121 9.68924E-05-2.78609E-05-2.95861E-05-3.02636E-08-6.35942E-20 2.77476E-19
 -1      1122 9.69987E-05-2.87185E-05-2.92629E-05-3.86474E-08-2.15826E-19 1.42068E-19
 -1      1123 9.67037E-05-2.72037E-05-2.97854E-05 5.32415E-10 2.97748E-20 7.36841E-20
 -1      1124 1.16703E-04 2.57150E-10-4.17899E-05-4.15677E-05-1.53313E-19 3.06795E-18
 -1      1125 8.86251E-05 7.14865E-11-3.72473E-05-2.41227E-05-7.79270E-20-4.78653E-19
 -1      1126 8.40795E-05 4.13850E-11-3.57691E-05-1.78739E-05-5.72277E-20-1.76688E-18
 -1      1127 8.23359E-05 3.20320E-11-3.50736E-05-1.38385E-05-2.14141E-20-2.27929E-18
 -1      1128 8.15337E-05 2.73415E-11-3.47385E-05-1.05339E-05-1.67818E-20-2.39768E-18
 -1      1129 8.11287E-05 2.46069E-11-3.45729E-05-7.64095E-06-1.61466E-21-2.37655E-18
 -1      1130 8.09189E-05 2.29490E-11-3.44893E-05-4.98037E-06 6.61744E-22-2.26471E-18
 -1      1131 8.08165E-05 2.20530E-11-3.44499E-05-2.43327E-06 1.34979E-20-2.10592E-18
 -1      1132 8.07873E-05 2.17816E-11-3.44388E-05 5.07284E-08 1.65130E-20-2.00318E-18
 -1      1133 8.08206E-05 2.20958E-11-3.44512E-05 2.53717E-06 2.68370E-20-1.83708E-18
 -1      1134 8.09273E-05 2.30461E-11-3.44921E-05 5.09235E-06 2.43191E-20-1.63123E-18
 -1      1135 8.11435E-05 2.47624E-11-3.45769E-05 7.76870E-06 3.98238E-20-1.29079E-18
 -1      1136 8.15532E-05 2.76362E-11-3.47445E-05 1.06887E-05 4.68250E-20-7.55659E-19
 -1      1137 8.23599E-05 3.25122E-11-3.50824E-05 1.40385E-05 5.53483E-20-2.87065E-20
 -1      1138 8.40753E-05 4.19143E-11-3.57864E-05 1.81269E-05 6.93508E-20 1.18316E-18
 -1      1139 8.83476E-05 6.67501E-11-3.73220E-05 2.40069E-05 5.19866E-20 3.29170E-18
 -1      1140 1.06620E-04 1.63935E-10-4.06350E-05 3.61892E-05 5.33631E-20 7.02307E-18
 -1      1141 1.31352E-04-2.57149E-05-4.04284E-05-2.70442E-05-6.42792E-19 5.31598E-18
 -1      1142 9.82462E-05-2.90542E-05-3.18615E-05-9.22089E-07-2.16073E-19 3.79884E-18
 -1      1143 9.03386E-05-2.70623E-05-2.80032E-05 3.89032E-07-6.86891E-20 1.82815E-18
 -1      1144 8.83071E-05-2.65884E-05-2.66777E-05 2.56157E-07-9.89043E-20 6.09970E-19
 -1      1145 8.78974E-05-2.64488E-05-2.63932E-05 1.68960E-07-3.99048E-20-2.28964E-19
 -1      1146 8.82329E-05-2.65172E-05-2.64681E-05 1.20011E-07 4.03664E-20-3.13137E-19
 -1      1147 8.88920E-05-2.66961E-05-2.66612E-05 8.96745E-08-7.86756E-20-5.44404E-19
 -1      1148 8.96812E-05-2.69187E-05-2.68970E-05 6.84558E-08-2.66085E-20-7.44846E-19
 -1      1149 9.05176E-05-2.71620E-05-2.71462E-05 5.20592E-08 1.12957E-20-8.81510E-19
 -1      1150 9.13144E-05-2.73965E-05-2.73843E-05 3.96558E-08-6.55327E-20-1.62035E-18
 -1      1151 9.20362E-05-2.76105E-05-2.76007E-05 2.99483E-08-2.37155E-20-2.08697E-18
 -1      1152 9.26671E-05-2.77983E-05-2.77904E-05 2.22738E-08-4.08642E-20-2.42727E-18
 -1      1153 9.32031E-05-2.79585E-05-2.79521E-05 1.61622E-08-3.09446E-20-2.27342E-18
 -1      1154 9.36385E-05-2.80886E-05-2.80838E-05 1.09072E-08 7.17993E-22-2.27067E-18
 -1      1155 9.39950E-05-2.81960E-05-2.81920E-05 7.85924E-09-1.05709E-19-2.75626E-18
 -1      1156 9.42915E-05-2.82854E-05-2.82823E-05 4.87135E-09 6.05923E-20-3.47234E-18
 -1      1157 9.45308E-05-2.83578E-05-2.83554E-05 2.57845E-09-6.00197E-20-4.19063E-18
 -1      1158 9.47277E-05-2.84176E-05-2.84158E-05 8.20777E-10 5.25737E-20-3.70784E-18
 -1      1159 9.48980E-05-2.84695E-05-2.84683E-05-4.92393E-10 4.23926E-20-2.95419E-18
 -1      1160 9.50551E-05-2.85176E-05-2.85169E-05-1.40050E-09 1.12631E-19-1.60860E-18
 -1      1161 9.52222E-05-2.85691E-05-2.85689E-05-2.07886E-09-1.41802E-19-2.23772E-18
 -1      1162 9.54272E-05-2.86323E-05-2.86328E-05-2.33939E-09-2.00053E-19-3.12639E-18
 -1      1163 9.56966E-05-2.87153E-05-2.87168E-05-2.11012E-09-2.62009E-21-2.97034E-18
 -1      1164 9.60716E-05-2.88307E-05-2.88338E-05-1.10235E-09-1.84552E-19-1.82387E-18
 -1      1165 9.66093E-05-2.89959E-05-2.90018E-05 1.26502E-09-3.85290E-19-2.43077E-18
 -1      1166 9.73915E-05-2.92351E-05-2.92467E-05 6.35695E-09 1.55134E-19-3.04725E-18
 -1      1167 9.85030E-05-2.95768E-05-2.95948E-05 1.68722E-08-2.49810E-19-4.44698E-18
 -1      1168 1.00129E-04-3.00726E-05-3.01060E-05 3.09231E-08 6.79876E-20-4.14687E-18
 -1      1169 1.02577E-04-3.08179E-05-3.08768E-05 6.14351E-08 5.82881E-20-3.94533E-18
 -1      1170 1.06192E-04-3.19137E-05-3.20156E-05 1.16806E-07 2.54322E-19-3.57490E-18
 -1      1171 1.11501E-04-3.35155E-05-3.36824E-05 2.15031E-07 1.80286E-19-2.80707E-18
 -1      1172 1.19172E-04-3.58136E-05-3.60651E-05 3.81626E-07 3.73231E-19-1.51015E-18
 -1      1173 1.29580E-04-3.89460E-05-3.92071E-05 6.24934E-07-3.17134E-19-1.70317E-18
 -1      1174 1.43078E-04-4.29811E-05-4.30892E-05 9.11865E-07-1.11205E-19-7.76094E-20
 -1      1175 1.58642E-04-4.76520E-05-4.71244E-05 1.04069E-06-2.71084E-20-7.49624E-20
 -1      1176 1.70547E-04-5.11705E-05-4.95635E-05 4.01598E-07 3.10596E-19 2.13982E-19
 -1      1177 1.68015E-04-5.01871E-05-4.81283E-05-1.83078E-06-5.00014E-20 1.70021E-18
 -1      1178 1.42133E-04-4.19990E-05-4.21487E-05-4.90398E-06-3.54047E-19 3.13572E-18
 -1      1179 1.04837E-04-3.03819E-05-3.49957E-05-5.07524E-06 4.45751E-19 4.46344E-18
 -1      1180 8.07002E-05-2.34996E-05-3.05996E-05-1.64732E-06 1.33249E-19 7.68746E-18
 -1      1181 8.39157E-05-2.47082E-05-3.10324E-05 3.23347E-06-9.98493E-19 3.53403E-18
 -1      1182 1.16472E-04-3.42276E-05-3.68291E-05 5.69318E-06-1.15858E-19-1.52805E-18
 -1      1183 1.52498E-04-4.52080E-05-4.41262E-05 3.63074E-06-1.63279E-19-2.83078E-18
 -1      1184 1.67309E-04-5.00875E-05-4.80474E-05 6.13051E-07-1.37166E-19-2.47662E-18
 -1      1185 1.61348E-04-4.83730E-05-4.73068E-05-8.80240E-07-2.31200E-19-4.35926E-18
 -1      1186 1.46188E-04-4.39112E-05-4.36613E-05-1.09318E-06 6.50864E-19-2.11017E-18
 -1      1187 1.29448E-04-3.89000E-05-3.90732E-05-8.91353E-07 1.52377E-19 3.47114E-18
 -1      1188 1.15135E-04-3.46195E-05-3.48959E-05-6.38741E-07-3.34750E-19 2.73899E-18
 -1      1189 1.04256E-04-3.13628E-05-3.16684E-05-4.23803E-07 2.52065E-19 1.37780E-18
 -1      1190 9.73245E-05-2.93519E-05-2.95695E-05-1.25946E-07-1.93957E-20 2.45756E-18
 -1      1191 9.49449E-05-2.84663E-05-2.84333E-05 1.38593E-07 5.95669E-19 2.86974E-18
 -1      1192 1.31056E-04-3.77387E-05-3.86605E-05 1.21738E-05-1.26314E-19 9.90563E-18
 -1      1193 9.65630E-05-2.81919E-05-3.13314E-05 8.01398E-07 9.02619E-21 8.93853E-18
 -1      1194 9.03795E-05-2.69332E-05-2.78744E-05 1.19237E-07 6.90200E-21 7.72791E-18
 -1      1195 8.83410E-05-2.65013E-05-2.66802E-05 8.90490E-09 1.11405E-20 6.73799E-18
 -1      1196 8.79401E-05-2.64111E-05-2.64159E-05-2.52591E-08-1.52698E-21 6.33882E-18
 -1      1197 8.82827E-05-2.65083E-05-2.64913E-05-3.42645E-08 1.85288E-22 6.04059E-18
 -1      1198 8.89621E-05-2.67037E-05-2.66893E-05-3.54947E-08 1.37812E-20 5.74262E-18
 -1      1199 8.97738E-05-2.69417E-05-2.69295E-05-3.37852E-08-5.07626E-20 5.98157E-18
 -1      1200 9.06056E-05-2.71878E-05-2.71765E-05-3.07462E-08-8.24575E-21 5.50820E-18
 -1      1201 9.13947E-05-2.74224E-05-2.74116E-05-2.70708E-08 6.83170E-20 4.74153E-18
 -1      1202 9.21075E-05-2.76348E-05-2.76247E-05-2.31842E-08 1.31002E-19 4.07323E-18
 -1      1203 9.27293E-05-2.78204E-05-2.78113E-05-1.93505E-08 5.87650E-21 3.83506E-18
 -1      1204 9.32573E-05-2.79781E-05-2.79701E-05-1.57286E-08 3.44859E-20 3.51717E-18
 -1      1205 9.36963E-05-2.81095E-05-2.81026E-05-1.24064E-08 5.96925E-21 2.99208E-18
 -1      1206 9.40559E-05-2.82172E-05-2.82115E-05-9.42156E-09 6.70673E-21 2.39499E-18
 -1      1207 9.43485E-05-2.83050E-05-2.83004E-05-6.77974E-09 7.98156E-20 1.98525E-18
 -1      1208 9.45882E-05-2.83770E-05-2.83734E-05-4.47023E-09-1.35152E-19 2.26517E-18
 -1      1209 9.47899E-05-2.84376E-05-2.84352E-05-2.48108E-09 1.20618E-21 2.61727E-18
 -1      1210 9.49689E-05-2.84916E-05-2.84902E-05-8.13978E-10 1.73790E-19 1.68557E-18
 -1      1211 9.51412E-05-2.85436E-05-2.85432E-05 5.00423E-10-4.78340E-21 2.20439E-18
 -1      1212 9.53224E-05-2.85982E-05-2.85990E-05 1.38670E-09-1.28597E-20 3.25650E-18
 -1      1213 9.55280E-05-2.86600E-05-2.86620E-05 1.70951E-09 3.82303E-20 3.66648E-18
 -1      1214 9.57719E-05-2.87332E-05-2.87364E-05 1.26231E-09 1.70510E-19 6.94817E-19
 -1      1215 9.60647E-05-2.88206E-05-2.88251E-05-2.33326E-10 2.36940E-19-1.40174E-18
 -1      1216 9.64106E-05-2.89235E-05-2.89288E-05-3.10587E-09-2.31068E-19 6.36608E-19
 -1      1217 9.68030E-05-2.90396E-05-2.90451E-05-7.67080E-09 1.31474E-19 2.77098E-18
 -1      1218 9.72179E-05-2.91614E-05-2.91658E-05-1.41016E-08-9.76705E-20 4.54542E-18
 -1      1219 9.76066E-05-2.92744E-05-2.92755E-05-2.22102E-08 4.78600E-20 4.22823E-18
 -1      1220 9.78870E-05-2.93540E-05-2.93487E-05-3.11281E-08 1.18018E-19 2.92394E-18
 -1      1221 9.79385E-05-2.93646E-05-2.93489E-05-3.89350E-08-2.19364E-19 2.40936E-18
 -1      1222 9.76025E-05-2.92597E-05-2.92293E-05-4.23795E-08 3.13127E-19 2.17775E-18
 -1      1223 9.66970E-05-2.89862E-05-2.89385E-05-3.69904E-08 4.68937E-20 2.17852E-18
 -1      1224 9.50513E-05-2.84947E-05-2.84306E-05-1.80039E-08-2.31210E-19 3.43420E-18
 -1      1225 9.25641E-05-2.77559E-05-2.76831E-05 1.75529E-08 7.94590E-21 1.97486E-18
 -1      1226 8.92783E-05-2.67823E-05-2.67162E-05 6.78742E-08-1.50466E-19 3.25499E-19
 -1      1227 8.54475E-05-2.56472E-05-2.56093E-05 1.23849E-07 1.09527E-19-7.39301E-19
 -1      1228 8.15549E-05-2.44908E-05-2.45021E-05 1.69418E-07-3.71627E-19-8.25487E-19
 -1      1229 7.82415E-05-2.35012E-05-2.35718E-05 1.86622E-07-7.31393E-21 7.23154E-20
 -1      1230 7.61418E-05-2.28671E-05-2.29881E-05 1.64082E-07 2.90163E-19-3.13456E-18
 -1      1231 7.56743E-05-2.27166E-05-2.28601E-05 1.04204E-07-5.68041E-20-4.01215E-18
 -1      1232 7.68869E-05-2.30694E-05-2.31983E-05 2.38475E-08-1.03073E-19-4.27585E-18
 -1      1233 7.94374E-05-2.38274E-05-2.39112E-05-5.30096E-08 7.22815E-20-4.49007E-18
 -1      1234 8.27272E-05-2.48125E-05-2.48390E-05-1.06276E-07-3.50848E-19-2.52119E-18
 -1      1235 8.61138E-05-2.58309E-05-2.58079E-05-1.27349E-07-5.18584E-20-1.77610E-18
 -1      1236 8.91020E-05-2.67312E-05-2.66794E-05-1.19987E-07-1.68261E-19-2.05911E-18
 -1      1237 9.14401E-05-2.74357E-05-2.73779E-05-9.60252E-08 5.88520E-19-4.78833E-18
 -1      1238 9.31108E-05-2.79372E-05-2.78896E-05-7.01136E-08 2.92598E-19-5.51620E-18
 -1      1239 9.42425E-05-2.82725E-05-2.82387E-05-5.37418E-08-2.55555E-19-5.56255E-18
 -1      1240 9.49598E-05-2.84805E-05-2.84545E-05-4.45457E-08 1.52366E-19-3.17374E-18
 -1      1241 9.52436E-05-2.85765E-05-2.85660E-05 5.28576E-09-3.88030E-19-2.60546E-18
 -1      1242 9.52277E-05-2.85661E-05-2.85657E-05-1.81068E-09-1.82739E-18-6.48643E-19
 -1      1243 9.53318E-05-2.88860E-05-2.84519E-05-4.11647E-08 5.52262E-18 1.00448E-18
 -1      1244 9.55055E-05-2.95123E-05-2.82996E-05-7.22698E-08 1.49221E-17-9.24554E-19
 -1      1245 9.56311E-05-2.99825E-05-2.82086E-05-6.19405E-08 1.28380E-17-4.65636E-19
 -1      1246 9.55575E-05-2.97814E-05-2.83150E-05-1.91088E-08 1.15495E-17-7.01611E-19
 -1      1247 9.51562E-05-2.84749E-05-2.87367E-05 5.20928E-08 8.39107E-18-5.67282E-19
 -1      1248 9.43518E-05-2.57804E-05-2.95463E-05 1.37538E-07 4.51852E-18-8.72987E-19
 -1      1249 9.31390E-05-2.16779E-05-3.07354E-05 2.24136E-07 8.18234E-19 5.62839E-19
 -1      1250 9.16588E-05-1.66309E-05-3.21592E-05 2.78609E-07 3.22137E-19-1.12939E-19
 -1      1251 9.01859E-05-1.15722E-05-3.35505E-05 2.66193E-07-1.14686E-18 6.02121E-19
 -1      1252 8.90916E-05-7.78576E-06-3.45591E-05 1.63281E-07 1.23230E-18-1.10580E-18
 -1      1253 8.87467E-05-6.54373E-06-3.48554E-05-2.44863E-08 1.31796E-18-2.32173E-19
 -1      1254 8.93427E-05-8.56176E-06-3.42706E-05-2.38491E-07-3.40777E-18-7.43020E-19
 -1      1255 9.08413E-05-1.36814E-05-3.28806E-05-4.21070E-07-7.99493E-19 5.95276E-19
 -1      1256 9.28147E-05-2.05031E-05-3.10814E-05-4.60637E-07-1.48665E-18-1.96209E-19
 -1      1257 9.45226E-05-2.64467E-05-2.94632E-05-1.57204E-07-6.65741E-18-7.48332E-19
 -1      1258 9.53789E-05-2.88384E-05-2.84089E-05 3.58601E-08-3.80524E-18 1.20945E-18
 -1      1259 3.81912E-05-1.19033E-04 2.09358E-05-1.33706E-05-5.31513E-19 8.82582E-19
 -1      1260 2.00591E-05-7.24841E-05 1.14859E-05-2.58552E-05 4.57398E-19 3.08744E-19
 -1      1261 7.47601E-06-1.25984E-05-4.45118E-06-3.12871E-06 2.46995E-18 1.43572E-18
 -1      1262 2.75902E-05 2.66566E-05-2.44740E-05 4.90064E-05 5.80895E-18 5.45828E-18
 -1      1263 9.39289E-05 2.29019E-05-4.53999E-05 1.01876E-04 5.56247E-18 7.66057E-18
 -1      1264 1.92109E-04-1.94960E-05-6.41422E-05 1.20272E-04 3.42244E-18 6.32734E-18
 -1      1265 2.84036E-04-7.20491E-05-7.73280E-05 8.69233E-05 9.71123E-19 3.90313E-18
 -1      1266 3.26178E-04-9.81267E-05-8.28091E-05 1.19355E-05 2.97891E-19 3.16473E-18
 -1      1267 3.02415E-04-8.33792E-05-7.98776E-05-6.88305E-05 7.85729E-19-2.95784E-18
 -1      1268 2.21458E-04-3.51958E-05-6.89531E-05-1.17766E-04 2.91676E-18-7.64193E-18
 -1      1269 1.16762E-04 1.52297E-05-5.06993E-05-1.09906E-04 7.50641E-18-1.04778E-17
 -1      1270 3.82809E-05 3.07167E-05-2.92550E-05-6.22880E-05 9.54776E-18-8.90740E-18
 -1      1271 8.52567E-06-6.03524E-07-8.99782E-06-7.79763E-06 7.60974E-18-4.13691E-18
 -1      1272 1.68854E-05-6.11349E-05 8.82636E-06 2.15407E-05 6.49928E-18-2.17984E-18
 -1      1273 3.65422E-05-1.13729E-04 1.98662E-05 1.37975E-05 4.45624E-18-1.59533E-18
 -1      1274 3.99558E-05-1.25480E-04 2.23986E-05-1.61791E-05-7.76729E-19 4.30134E-20
 -1      1275 2.41460E-05-9.47085E-05 1.67111E-05-3.70499E-05-3.71509E-18-2.43310E-18
 -1      1276 7.25267E-06-4.06917E-05 3.28496E-06-2.70456E-05-9.23435E-18-5.43372E-18
 -1      1277 1.77050E-05 6.09233E-06-1.65283E-05 1.94300E-05-8.42798E-18-7.63346E-18
 -1      1278 8.04856E-05 1.49317E-05-4.01373E-05 8.04964E-05-8.50421E-18-1.11046E-17
 -1      1279 1.94709E-04-2.31310E-05-6.38085E-05 1.16359E-04-6.04273E-18-1.38185E-17
 -1      1280 3.19099E-04-8.45674E-05-8.21178E-05 9.10760E-05-3.38665E-18-1.50213E-17
 -1      1281 3.77384E-04-1.16482E-04-8.94661E-05 4.94325E-06-7.98699E-19-1.04344E-17
 -1      1282 3.31613E-04-8.97322E-05-8.39035E-05-8.45643E-05-6.02029E-19-8.59738E-19
 -1      1283 2.15175E-04-3.05410E-05-6.76032E-05-1.21530E-04-2.35729E-18 5.15165E-18
 -1      1284 9.81737E-05 1.36435E-05-4.55478E-05-9.41561E-05-3.94040E-18 6.65429E-18
 -1      1285 2.49276E-05 1.19846E-05-2.09249E-05-3.17314E-05-1.42640E-18 1.73303E-18
 -1      1286 7.06771E-06-3.31145E-05 8.84177E-07 2.17718E-05-3.76083E-19 3.50672E-19
 -1      1287 2.35412E-05-9.13297E-05 1.57325E-05 3.65617E-05-1.45520E-18 8.46609E-19
 -1      1288 3.98506E-05-1.26318E-04 2.26114E-05 1.67244E-05-4.88547E-18 1.26533E-18
 -1      1289 1.04687E-04-2.18760E-05-3.80290E-05-1.76550E-05-2.49451E-19 2.13219E-18
 -1      1290 9.03128E-05-6.65430E-06-3.60210E-05-2.04939E-05-5.55071E-19-1.09214E-18
 -1      1291 9.25313E-05-6.54860E-06-3.71974E-05-2.57970E-05-7.87741E-19-4.23305E-19
 -1      1292 8.59015E-05-4.08918E-06-3.51311E-05-1.64364E-05-4.41648E-19-1.98857E-18
 -1      1293 8.71583E-05-4.07943E-06-3.56018E-05-1.88501E-05-5.52583E-19-1.62421E-18
 -1      1294 9.21420E-05-1.04611E-05-3.50941E-05-1.90586E-05-8.86605E-19-9.05425E-19
 -1      1295 8.41009E-05-3.19228E-06-3.46870E-05-1.28219E-05-2.52244E-19-2.34348E-18
 -1      1296 8.47082E-05-3.16031E-06-3.49116E-05-1.46375E-05-3.31190E-19-2.18900E-18
 -1      1297 8.78686E-05-7.39138E-06-3.45744E-05-1.54238E-05-6.47120E-19-1.62366E-18
 -1      1298 8.31857E-05-2.72814E-06-3.44695E-05-9.68699E-06-1.18353E-19-2.42217E-18
 -1      1299 8.35023E-05-2.71147E-06-3.45792E-05-1.12347E-05-1.78711E-19-2.41991E-18
 -1      1300 8.58702E-05-5.98693E-06-3.43045E-05-1.19592E-05-3.74164E-19-1.95866E-18
 -1      1301 8.26913E-05-2.45708E-06-3.43629E-05-6.91620E-06 2.80249E-21-2.36774E-18
 -1      1302 8.28615E-05-2.44858E-06-3.44175E-05-8.28709E-06-2.69396E-20-2.38473E-18
 -1      1303 8.48197E-05-5.21712E-06-3.41721E-05-8.94515E-06-1.20054E-19-1.99733E-18
 -1      1304 8.24149E-05-2.29144E-06-3.43097E-05-4.29622E-06 1.02668E-19-2.23414E-18
 -1      1305 8.25065E-05-2.28749E-06-3.43371E-05-5.59743E-06 7.91777E-20-2.31293E-18
 -1      1306 8.42322E-05-4.76121E-06-3.41085E-05-6.21808E-06 4.47323E-20-1.97483E-18
 -1      1307 8.22818E-05-2.20190E-06-3.42871E-05-1.79148E-06 2.60701E-19-2.09188E-18
 -1      1308 8.23210E-05-2.20033E-06-3.42983E-05-3.04242E-06 1.95737E-19-2.14940E-18
 -1      1309 8.39087E-05-4.49717E-06-3.40792E-05-3.64608E-06 2.38190E-19-1.80434E-18
 -1      1310 8.22555E-05-2.17428E-06-3.42844E-05 6.67999E-07 3.51266E-19-1.97273E-18
 -1      1311 8.22542E-05-2.17433E-06-3.42841E-05-5.67723E-07 3.13027E-19-2.04581E-18
 -1      1312 8.37667E-05-4.37726E-06-3.40682E-05-1.17214E-06 4.75478E-19-1.71126E-18
 -1      1313 8.23293E-05-2.20450E-06-3.42997E-05 3.14621E-06 4.51037E-19-1.83167E-18
 -1      1314 8.22873E-05-2.20613E-06-3.42879E-05 1.89275E-06 4.07470E-19-1.92938E-18
 -1      1315 8.37714E-05-4.38133E-06-3.40685E-05 1.27183E-06 6.26476E-19-1.60916E-18
 -1      1316 8.25229E-05-2.29754E-06-3.43395E-05 5.71012E-06 5.11383E-19-1.59180E-18
 -1      1317 8.24281E-05-2.30092E-06-3.43115E-05 4.40314E-06 4.80656E-19-1.75328E-18
 -1      1318 8.39236E-05-4.51026E-06-3.40802E-05 3.74988E-06 7.64583E-19-1.46853E-18
 -1      1319 8.28833E-05-2.46324E-06-3.44201E-05 8.39147E-06 5.81415E-19-1.16934E-18
 -1      1320 8.27101E-05-2.47196E-06-3.43650E-05 7.01190E-06 5.64342E-19-1.41484E-18
 -1      1321 8.42567E-05-4.78345E-06-3.41095E-05 6.30807E-06 8.75248E-19-1.16276E-18
 -1      1322 8.35428E-05-2.74055E-06-3.45838E-05 1.13910E-05 7.82010E-19-6.74953E-19
 -1      1323 8.32206E-05-2.75763E-06-3.44730E-05 9.82635E-06 7.06320E-19-9.57306E-19
 -1      1324 8.48602E-05-5.25658E-06-3.41730E-05 9.05078E-06 1.06739E-18-7.55553E-19
 -1      1325 8.47690E-05-3.20591E-06-3.49186E-05 1.48396E-05 8.38536E-19 8.99708E-20
 -1      1326 8.41539E-05-3.24074E-06-3.46918E-05 1.29987E-05 7.90110E-19-3.85863E-19
 -1      1327 8.59454E-05-6.06243E-06-3.43059E-05 1.21174E-05 1.26371E-18-2.58027E-19
 -1      1328 8.72529E-05-4.08897E-06-3.56202E-05 1.90897E-05 8.25751E-19 1.42910E-18
 -1      1329 8.59736E-05-4.15427E-06-3.51369E-05 1.66929E-05 7.80938E-19 6.48880E-19
 -1      1330 8.79903E-05-7.51922E-06-3.45749E-05 1.56486E-05 1.26845E-18 6.26593E-19
 -1      1331 9.34705E-05-6.79418E-06-3.71186E-05 2.50920E-05 5.83923E-19 3.64711E-18
 -1      1332 9.01342E-05-6.43727E-06-3.60402E-05 2.11439E-05 6.11293E-19 2.32648E-18
 -1      1333 9.23576E-05-1.06958E-05-3.50788E-05 1.96749E-05 1.12147E-18 2.04045E-18
 -1      1334 1.23631E-04-2.49248E-05-3.90170E-05 2.83647E-05 1.59348E-19 7.19809E-18
 -1      1335 1.00087E-04-1.44252E-05-3.73563E-05 2.40475E-05 2.24252E-19 4.81041E-18
 -1      1336 1.01690E-04-1.93463E-05-3.54049E-05 2.13966E-05 8.78281E-19 3.97682E-18
 -1      1337 1.02611E-04-2.78072E-05-3.47603E-05 7.32690E-06 3.71556E-19 7.18072E-18
 -1      1338 1.05670E-04-3.01066E-05-3.38063E-05-8.47435E-06-6.57933E-19 2.36259E-18
 -1      1339 9.85647E-05-2.78131E-05-3.09539E-05-5.24604E-06-6.04834E-19 1.58062E-18
 -1      1340 9.58130E-05-2.78968E-05-2.93914E-05-2.60511E-06-4.69336E-19 1.29732E-18
 -1      1341 9.34677E-05-2.75981E-05-2.82959E-05-2.14202E-06-4.65180E-19 6.14628E-19
 -1      1342 9.97197E-05-2.79229E-05-3.11337E-05-8.26275E-06-1.05360E-18 4.12823E-19
 -1      1343 9.17123E-05-2.72241E-05-2.76332E-05-8.85222E-07-3.19583E-19 4.47816E-19
 -1      1344 9.09506E-05-2.71233E-05-2.73097E-05-7.71194E-07-2.51159E-19 4.43104E-20
 -1      1345 9.48910E-05-2.77861E-05-2.88898E-05-3.27922E-06-7.50312E-19-3.58004E-20
 -1      1346 9.01676E-05-2.69331E-05-2.70541E-05-1.96033E-07-1.94586E-19-1.34519E-19
 -1      1347 9.00753E-05-2.69559E-05-2.70115E-05-1.36077E-07-1.26999E-19-3.48779E-19
 -1      1348 9.26051E-05-2.75137E-05-2.79289E-05-1.12174E-06-3.95200E-19-2.36402E-19
 -1      1349 8.97992E-05-2.68857E-05-2.69317E-05 1.44521E-07 4.61683E-20-3.83018E-19
 -1      1350 9.00042E-05-2.69716E-05-2.69905E-05 1.73705E-07 3.99346E-20-3.86326E-19
 -1      1351 9.16009E-05-2.73621E-05-2.75437E-05-1.01956E-07-1.47850E-19-4.61752E-19
 -1      1352 8.99947E-05-2.69719E-05-2.69930E-05 3.06408E-07 3.41956E-21-3.79405E-19
 -1      1353 9.03158E-05-2.70836E-05-2.70859E-05 3.17791E-07-1.17379E-19-4.67522E-19
 -1      1354 9.13255E-05-2.73486E-05-2.74271E-05 3.96951E-07-7.07405E-21-5.40473E-19
 -1      1355 9.04514E-05-2.71253E-05-2.71307E-05 3.78034E-07-1.71904E-19-4.14689E-19
 -1      1356 9.08381E-05-2.72532E-05-2.72425E-05 3.80662E-07-6.61170E-20-6.12603E-19
 -1      1357 9.14334E-05-2.74123E-05-2.74426E-05 6.33454E-07-1.82271E-19-3.12013E-19
 -1      1358 9.10429E-05-2.73126E-05-2.73080E-05 3.94584E-07-5.77786E-21-7.02448E-19
 -1      1359 9.14329E-05-2.74384E-05-2.74209E-05 3.90789E-07-1.13108E-19-8.52982E-19
 -1      1360 9.17550E-05-2.75297E-05-2.75274E-05 7.26900E-07-1.68599E-19-4.91224E-19
 -1      1361 9.16644E-05-2.75052E-05-2.74940E-05 3.77990E-07-1.14785E-19-7.63216E-19
 -1      1362 9.20304E-05-2.76211E-05-2.76004E-05 3.70802E-07-1.35047E-19-1.05854E-18
 -1      1363 9.21736E-05-2.76665E-05-2.76461E-05 7.31511E-07-2.15791E-19-6.05289E-19
 -1      1364 9.22618E-05-2.76877E-05-2.76731E-05 3.43540E-07 4.68875E-20-9.94334E-19
 -1      1365 9.25897E-05-2.77902E-05-2.77688E-05 3.34762E-07-1.14924E-20-9.95471E-19
 -1      1366 9.26199E-05-2.78060E-05-2.77762E-05 6.85755E-07-1.88498E-19-1.71848E-19
 -1      1367 9.28057E-05-2.78522E-05-2.78364E-05 3.00842E-07-1.15232E-19-1.08598E-18
 -1      1368 9.30899E-05-2.79402E-05-2.79196E-05 2.91672E-07-2.12509E-19-1.31786E-18
 -1      1369 9.30528E-05-2.79380E-05-2.79045E-05 6.13939E-07-1.93952E-19-1.31597E-19
 -1      1370 9.32829E-05-2.79955E-05-2.79800E-05 2.56157E-07-2.14205E-19-1.30196E-18
 -1      1371 9.35222E-05-2.80690E-05-2.80504E-05 2.47302E-07-4.48115E-20-1.26060E-18
 -1      1372 9.34494E-05-2.80567E-05-2.80233E-05 5.31640E-07-2.22614E-19-4.16343E-19
 -1      1373 9.36813E-05-2.81146E-05-2.81000E-05 2.14958E-07-4.63203E-20-1.59017E-18
 -1      1374 9.38711E-05-2.81722E-05-2.81559E-05 2.07435E-07-2.79750E-19-1.66817E-18
 -1      1375 9.37915E-05-2.81576E-05-2.81265E-05 4.50548E-07-1.86743E-19-7.30584E-19
 -1      1376 9.40148E-05-2.82132E-05-2.82007E-05 1.76911E-07-2.52105E-19-1.63826E-18
 -1      1377 9.41781E-05-2.82626E-05-2.82490E-05 1.70021E-07-1.25210E-19-2.00141E-18
 -1      1378 9.40865E-05-2.82439E-05-2.82163E-05 3.75875E-07-3.05934E-19-8.19836E-19
 -1      1379 9.42986E-05-2.82969E-05-2.82865E-05 1.44282E-07-3.26492E-20-1.96186E-18
 -1      1380 9.44309E-05-2.83365E-05-2.83258E-05 1.38733E-07-4.14779E-20-2.09018E-18
 -1      1381 9.43435E-05-2.83180E-05-2.82949E-05 3.08681E-07-1.85121E-19-8.11557E-19
 -1      1382 9.45327E-05-2.83654E-05-2.83575E-05 1.18658E-07-2.32688E-19-2.42044E-18
 -1      1383 9.46409E-05-2.83974E-05-2.83897E-05 1.14539E-07-1.18166E-19-2.46850E-18
 -1      1384 9.45604E-05-2.83798E-05-2.83618E-05 2.53939E-07-2.02260E-19-1.20126E-18
 -1      1385 9.47290E-05-2.84224E-05-2.84171E-05 1.00792E-07 1.86630E-19-2.48053E-18
 -1      1386 9.48205E-05-2.84492E-05-2.84445E-05 9.82085E-08 3.54353E-19-2.32185E-18
 -1      1387 9.47458E-05-2.84318E-05-2.84194E-05 2.13538E-07-3.31780E-20-1.23072E-18
 -1      1388 9.49008E-05-2.84719E-05-2.84694E-05 9.14952E-08 4.40037E-19-2.29341E-18
 -1      1389 9.49839E-05-2.84958E-05-2.84944E-05 9.06174E-08 3.94602E-19-1.86850E-18
 -1      1390 9.49105E-05-2.84774E-05-2.84709E-05 1.89169E-07 4.79421E-19-1.36209E-18
 -1      1391 9.50594E-05-2.85171E-05-2.85179E-05 9.17441E-08 3.02661E-19-1.44303E-18
 -1      1392 9.51390E-05-2.85398E-05-2.85418E-05 9.25829E-08-2.87190E-19-1.47660E-18
 -1      1393 9.50630E-05-2.85188E-05-2.85190E-05 1.82712E-07 5.70390E-19-1.45482E-18
 -1      1394 9.52254E-05-2.85640E-05-2.85687E-05 1.02887E-07-4.95981E-19-1.34108E-18
 -1      1395 9.53202E-05-2.85908E-05-2.85973E-05 1.06108E-07-3.72636E-19-1.96083E-18
 -1      1396 9.52214E-05-2.85615E-05-2.85693E-05 1.96364E-07-3.97775E-19-1.01676E-18
 -1      1397 9.54237E-05-2.86198E-05-2.86295E-05 1.28197E-07-2.02943E-19-1.54783E-18
 -1      1398 9.55432E-05-2.86536E-05-2.86656E-05 1.34303E-07-6.22391E-20-1.78053E-18
 -1      1399 9.54071E-05-2.86109E-05-2.86286E-05 2.35423E-07-5.00224E-19-7.11659E-19
 -1      1400 9.56766E-05-2.86908E-05-2.87073E-05 1.71733E-07 2.18355E-20-1.48921E-18
 -1      1401 9.58386E-05-2.87367E-05-2.87560E-05 1.81687E-07 6.10513E-20-1.53383E-18
 -1      1402 9.56383E-05-2.86720E-05-2.87025E-05 3.06934E-07 1.55296E-19-4.82300E-20
 -1      1403 9.60186E-05-2.87865E-05-2.88125E-05 2.39945E-07-6.43166E-20-1.43768E-18
 -1      1404 9.62473E-05-2.88516E-05-2.88811E-05 2.55225E-07-1.72194E-19-1.36966E-18
 -1      1405 9.59432E-05-2.87522E-05-2.88002E-05 4.21660E-07 2.62481E-19-4.18435E-19
 -1      1406 9.64966E-05-2.89202E-05-2.89597E-05 3.42639E-07-2.94423E-19-1.43298E-18
 -1      1407 9.68264E-05-2.90143E-05-2.90586E-05 3.65471E-07-3.92094E-19-1.97084E-18
 -1      1408 9.63596E-05-2.88611E-05-2.89338E-05 5.95975E-07-2.24548E-19-1.05214E-18
 -1      1409 9.71763E-05-2.91105E-05-2.91695E-05 4.94574E-07-2.80772E-19-1.66799E-18
 -1      1410 9.76562E-05-2.92468E-05-2.93136E-05 5.28789E-07-2.83531E-19-2.09066E-18
 -1      1411 9.69385E-05-2.90112E-05-2.91201E-05 8.54750E-07-3.21249E-19-8.43977E-19
 -1      1412 9.81223E-05-2.93735E-05-2.94622E-05 7.09164E-07-4.28705E-19-2.55732E-18
 -1      1413 9.87840E-05-2.95633E-05-2.96600E-05 7.54406E-07-4.94171E-19-2.82586E-18
 -1      1414 9.77258E-05-2.92144E-05-2.93738E-05 1.22360E-06-9.39781E-19-1.35147E-18
 -1      1415 9.94692E-05-2.97478E-05-2.98801E-05 1.02584E-06 1.81679E-19-3.14899E-18
 -1      1416 1.00484E-04-3.00398E-05-3.01838E-05 1.09907E-06 1.82905E-19-3.49859E-18
 -1      1417 9.88260E-05-2.94946E-05-2.97301E-05 1.75640E-06-6.66377E-21-1.53761E-18
 -1      1418 1.01452E-04-3.02970E-05-3.04972E-05 1.49477E-06 3.05031E-20-2.94737E-18
 -1      1419 1.02943E-04-3.07290E-05-3.09437E-05 1.60241E-06 1.99351E-20-3.00908E-18
 -1      1420 1.00407E-04-2.98957E-05-3.02431E-05 2.54802E-06 2.30707E-19-1.88002E-18
 -1      1421 1.04302E-04-3.10869E-05-3.13871E-05 2.17055E-06 5.42644E-19-2.44511E-18
 -1      1422 1.06486E-04-3.17245E-05-3.20407E-05 2.32796E-06 8.04638E-19-2.05462E-18
 -1      1423 1.02622E-04-3.04546E-05-3.09634E-05 3.68891E-06 6.90610E-19-1.09504E-18
 -1      1424 1.08372E-04-3.22191E-05-3.26603E-05 3.12124E-06 4.35990E-19-1.74105E-18
 -1      1425 1.11531E-04-3.31539E-05-3.36028E-05 3.34503E-06 4.42760E-19-1.40009E-18
 -1      1426 1.05703E-04-3.12362E-05-3.19639E-05 5.29896E-06 8.95102E-19-5.32986E-19
 -1      1427 1.14099E-04-3.38387E-05-3.44463E-05 4.39156E-06 7.82963E-19-9.30333E-19
 -1      1428 1.18535E-04-3.51714E-05-3.57598E-05 4.69260E-06 2.63288E-19-4.05623E-19
 -1      1429 1.09926E-04-3.23338E-05-3.33223E-05 7.47802E-06 9.38572E-19 2.21724E-19
 -1      1430 1.21720E-04-3.60501E-05-3.67936E-05 5.86748E-06-3.11708E-19-2.33622E-19
 -1      1431 1.27337E-04-3.78145E-05-3.84148E-05 6.18779E-06 2.32577E-19-1.70783E-19
 -1      1432 1.15423E-04-3.38644E-05-3.50377E-05 1.01071E-05 1.30959E-19 1.59957E-19
 -1      1433 1.31490E-04-3.90485E-05-3.97000E-05 7.23645E-06 4.20889E-19-6.35275E-22
 -1      1434 1.38577E-04-4.14414E-05-4.16484E-05 7.51264E-06-1.88091E-19 5.53960E-19
 -1      1435 1.22470E-04-3.60745E-05-3.71132E-05 1.27949E-05 4.57626E-19 4.27262E-19
 -1      1436 1.43282E-04-4.30712E-05-4.29404E-05 7.48873E-06-3.70312E-20 3.64648E-19
 -1      1437 1.50071E-04-4.56728E-05-4.46153E-05 7.32593E-06 3.16579E-19 1.08542E-18
 -1      1438 1.31243E-04-3.94480E-05-3.93703E-05 1.42300E-05-1.70280E-19 5.41625E-19
 -1      1439 1.54617E-04-4.77217E-05-4.55377E-05 4.56683E-06 3.37437E-19 1.79603E-18
 -1      1440 1.57440E-04-4.92977E-05-4.59800E-05 3.30812E-06 6.10737E-19 1.87274E-18
 -1      1441 1.40908E-04-4.42926E-05-4.12855E-05 1.14135E-05 1.02745E-18 1.98375E-18
 -1      1442 1.60320E-04-5.11169E-05-4.62142E-05-3.55556E-06-2.69198E-19 1.53106E-18
 -1      1443 1.54134E-04-4.93508E-05-4.45866E-05-6.22110E-06-3.55674E-19 1.44716E-18
 -1      1444 1.49465E-04-4.97158E-05-4.24401E-05 5.45405E-07 4.92206E-19 1.33629E-18
 -1      1445 1.53245E-04-4.88715E-05-4.43628E-05-1.43423E-05 3.65720E-19 1.65595E-18
 -1      1446 1.37961E-04-4.27580E-05-4.13467E-05-1.62903E-05 4.00011E-19 2.25268E-18
 -1      1447 1.52890E-04-5.16391E-05-4.32066E-05-1.74727E-05 1.61902E-19 1.45698E-18
 -1      1448 1.34299E-04-3.95896E-05-4.13329E-05-1.82707E-05 1.37008E-18 2.26115E-18
 -1      1449 1.20158E-04-3.31654E-05-3.88966E-05-1.69848E-05 1.31947E-18 3.46818E-18
 -1      1450 1.48577E-04-4.59438E-05-4.44515E-05-2.97654E-05 1.22979E-18 2.50269E-18
 -1      1451 1.16399E-04-2.97579E-05-3.90109E-05-1.02655E-05 5.13090E-19 3.04402E-18
 -1      1452 1.10571E-04-2.69114E-05-3.81465E-05-6.81822E-06-2.83756E-19 3.03862E-18
 -1      1453 1.40625E-04-3.60031E-05-4.60420E-05-2.45958E-05 1.23667E-18 1.51836E-18
 -1      1454 1.09960E-04-2.67908E-05-3.80347E-05 6.66320E-06-2.26073E-18 3.26113E-18
 -1      1455 1.18121E-04-3.07416E-05-3.92851E-05 1.05836E-05-2.57964E-18 3.74812E-19
 -1      1456 1.35760E-04-2.99055E-05-4.68048E-05-6.91288E-07-1.70508E-18-6.16018E-20
 -1      1457 1.22724E-04-3.49605E-05-3.90346E-05 1.75123E-05-1.67967E-18-3.76083E-19
 -1      1458 1.39837E-04-4.28838E-05-4.19173E-05 1.73057E-05-8.35122E-19-1.59581E-18
 -1      1459 1.40596E-04-3.67479E-05-4.55392E-05 2.45128E-05-3.01353E-18-5.96602E-19
 -1      1460 1.43254E-04-4.53635E-05-4.19773E-05 1.22076E-05-6.27460E-19-1.44038E-18
 -1      1461 1.55169E-04-5.00222E-05-4.45398E-05 9.33681E-06-4.48173E-19-1.98396E-18
 -1      1462 1.48894E-04-4.79471E-05-4.34114E-05 2.56237E-05-1.65870E-18-7.67822E-19
 -1      1463 1.53872E-04-4.89328E-05-4.45322E-05 9.82244E-07-5.09596E-19-2.57858E-18
 -1      1464 1.55073E-04-4.88881E-05-4.50754E-05-1.14167E-06-9.84676E-20-2.57658E-18
 -1      1465 1.49747E-04-5.07573E-05-4.20878E-05 8.28601E-06-7.46845E-19-1.89558E-18
 -1      1466 1.51088E-04-4.67840E-05-4.44380E-05-6.05748E-06-4.07582E-19-2.85477E-18
 -1      1467 1.45818E-04-4.45580E-05-4.32522E-05-6.76383E-06-2.66670E-19-2.72771E-18
 -1      1468 1.43042E-04-4.65371E-05-4.10861E-05-7.23125E-06 1.37855E-19-3.08723E-18
 -1      1469 1.40646E-04-4.25010E-05-4.19998E-05-8.34975E-06 1.85534E-18-2.45894E-18
 -1      1470 1.32814E-04-3.97108E-05-3.99333E-05-8.32144E-06 1.57091E-18-4.14623E-19
 -1      1471 1.33178E-04-4.11152E-05-3.93941E-05-1.43934E-05 1.32165E-18-7.12222E-19
 -1      1472 1.27761E-04-3.80995E-05-3.84555E-05-7.87920E-06 1.35426E-18 2.90003E-19
 -1      1473 1.20293E-04-3.56447E-05-3.63487E-05-7.57671E-06 7.44681E-19 1.13502E-18
 -1      1474 1.22813E-04-3.65905E-05-3.70060E-05-1.53682E-05 2.17408E-18 2.44369E-19
 -1      1475 1.15932E-04-3.43902E-05-3.49838E-05-6.39861E-06-5.02860E-19 1.43990E-18
 -1      1476 1.09869E-04-3.24660E-05-3.32324E-05-6.05887E-06-4.80109E-19 6.12987E-19
 -1      1477 1.13623E-04-3.33571E-05-3.44905E-05-1.33088E-05 2.50086E-19-5.70450E-19
 -1      1478 1.06436E-04-3.14943E-05-3.21516E-05-4.67418E-06 1.07798E-19 1.24429E-18
 -1      1479 1.02087E-04-3.01084E-05-3.08987E-05-4.32141E-06 3.06719E-19 1.99513E-18
 -1      1480 1.06121E-04-3.09889E-05-3.22974E-05-1.02574E-05-2.57419E-19 2.26900E-18
 -1      1481 9.95860E-05-2.92961E-05-3.01618E-05-2.74846E-06 8.33990E-19 1.58472E-18
 -1      1482 9.71513E-05-2.85635E-05-2.94338E-05-2.30501E-06 7.91618E-19 2.47477E-18
 -1      1483 1.00434E-04-2.91270E-05-3.06526E-05-6.84049E-06 7.77775E-19 2.47678E-18
 -1      1484 9.54325E-05-2.82633E-05-2.88351E-05-2.17623E-07-2.44387E-18 2.94944E-18
 -1      1485 9.65852E-05-2.83643E-05-2.97746E-05 2.99340E-06 3.81906E-19 6.27355E-18
 -1      1486 1.02545E-04-2.94013E-05-3.21585E-05 4.46350E-06 3.44213E-19 6.82920E-18
 -1      1487 1.02335E-04-2.67187E-05-3.27083E-05 1.27835E-05 6.39722E-19 4.84418E-18
 -1      1488 9.20372E-05-2.74300E-05-2.77638E-05 1.15343E-06 4.13114E-19 5.39907E-18
 -1      1489 9.39884E-05-2.75888E-05-2.86779E-05 1.47527E-06 2.84828E-19 5.85840E-18
 -1      1490 9.64975E-05-2.80316E-05-2.95359E-05 4.86992E-06 5.94141E-19 4.23197E-18
 -1      1491 9.02094E-05-2.70090E-05-2.70653E-05 3.30153E-07 1.40005E-19 4.85713E-18
 -1      1492 9.08242E-05-2.70254E-05-2.73376E-05 4.92134E-07 1.91965E-19 5.10920E-18
 -1      1493 9.30487E-05-2.75738E-05-2.81009E-05 1.85221E-06 4.92894E-19 3.62694E-18
 -1      1494 8.96962E-05-2.68914E-05-2.68916E-05-5.66208E-08 7.70502E-20 4.53454E-18
 -1      1495 8.97319E-05-2.68282E-05-2.69187E-05 3.19090E-08 8.76034E-20 4.71174E-18
 -1      1496 9.14999E-05-2.73089E-05-2.75184E-05 5.15391E-07 2.54388E-19 3.28904E-18
 -1      1497 8.98307E-05-2.69441E-05-2.69347E-05-2.43805E-07 1.51000E-19 4.22693E-18
 -1      1498 8.96007E-05-2.68361E-05-2.68689E-05-1.93433E-07 7.74150E-20 4.37125E-18
 -1      1499 9.09724E-05-2.72312E-05-2.73235E-05-1.34952E-07 2.23107E-19 2.97872E-18
 -1      1500 9.02856E-05-2.70872E-05-2.70735E-05-3.27000E-07-3.17654E-20 4.19917E-18
 -1      1501 8.99373E-05-2.69595E-05-2.69717E-05-2.99222E-07 2.27417E-20 4.12224E-18
 -1      1502 9.09919E-05-2.72748E-05-2.73133E-05-4.53358E-07 5.92410E-20 2.79180E-18
 -1      1503 9.08822E-05-2.72701E-05-2.72535E-05-3.51623E-07 2.33223E-19 3.96069E-18
 -1      1504 9.04932E-05-2.71393E-05-2.71396E-05-3.37842E-07 4.68842E-20 4.00690E-18
 -1      1505 9.12980E-05-2.73872E-05-2.73953E-05-5.93831E-07 9.27365E-20 2.66458E-18
 -1      1506 9.15178E-05-2.74630E-05-2.74448E-05-3.42499E-07 1.84152E-19 3.52369E-18
 -1      1507 9.11317E-05-2.73389E-05-2.73315E-05-3.37501E-07 1.89726E-19 3.71904E-18
 -1      1508 9.17405E-05-2.75316E-05-2.75217E-05-6.32439E-07 3.21490E-19 2.28172E-18
 -1      1509 9.21336E-05-2.76486E-05-2.76304E-05-3.14779E-07 2.78419E-19 2.99483E-18
 -1      1510 9.17744E-05-2.75365E-05-2.75247E-05-3.15189E-07 1.69052E-19 3.31825E-18
 -1      1511 9.22299E-05-2.76845E-05-2.76647E-05-6.12592E-07 3.87664E-19 1.90023E-18
 -1      1512 9.26973E-05-2.78178E-05-2.78005E-05-2.78036E-07 2.52225E-19 2.90973E-18
 -1      1513 9.23773E-05-2.77200E-05-2.77060E-05-2.81604E-07 2.36815E-19 3.08483E-18
 -1      1514 9.27138E-05-2.78323E-05-2.78078E-05-5.60825E-07 3.21085E-19 1.81646E-18
 -1      1515 9.31938E-05-2.79662E-05-2.79506E-05-2.38427E-07 1.84060E-19 2.70763E-18
 -1      1516 9.29176E-05-2.78832E-05-2.78688E-05-2.43629E-07 1.18842E-19 2.75166E-18
 -1      1517 9.31629E-05-2.79674E-05-2.79417E-05-4.93986E-07 1.57776E-19 2.00985E-18
 -1      1518 9.36190E-05-2.80929E-05-2.80793E-05-1.99903E-07 3.08140E-19 2.24177E-18
 -1      1519 9.33863E-05-2.80239E-05-2.80103E-05-2.05703E-07 2.34572E-19 2.40939E-18
 -1      1520 9.35628E-05-2.80863E-05-2.80617E-05-4.22936E-07 3.68511E-19 1.56165E-18
 -1      1521 9.39758E-05-2.81988E-05-2.81876E-05-1.64951E-07 2.61153E-19 1.89517E-18
 -1      1522 9.37834E-05-2.81425E-05-2.81303E-05-1.70643E-07 1.61317E-19 2.01016E-18
 -1      1523 9.39087E-05-2.81882E-05-2.81660E-05-3.54649E-07 5.11256E-19 1.25142E-18
 -1      1524 9.42717E-05-2.82864E-05-2.82774E-05-1.35089E-07-7.41063E-20 1.42216E-18
 -1      1525 9.41142E-05-2.82407E-05-2.82304E-05-1.40190E-07 1.71035E-19 1.80850E-18
 -1      1526 9.42023E-05-2.82739E-05-2.82550E-05-2.93523E-07 2.89945E-19 9.48198E-19
 -1      1527 9.45168E-05-2.83587E-05-2.83520E-05-1.11215E-07-2.68444E-19 1.71822E-18
 -1      1528 9.43879E-05-2.83216E-05-2.83134E-05-1.15391E-07 2.21050E-20 1.63672E-18
 -1      1529 9.44496E-05-2.83455E-05-2.83303E-05-2.42264E-07-1.09323E-19 8.32622E-19
 -1      1530 9.47230E-05-2.84193E-05-2.84149E-05-9.38546E-08 1.55548E-20 1.98102E-18
 -1      1531 9.46157E-05-2.83884E-05-2.83826E-05-9.68591E-08-8.80696E-20 1.74841E-18
 -1      1532 9.46588E-05-2.84055E-05-2.83943E-05-2.02504E-07-4.02663E-20 1.54240E-18
 -1      1533 9.49031E-05-2.84721E-05-2.84699E-05-8.33202E-08 3.10050E-19 1.47912E-18
 -1      1534 9.48101E-05-2.84451E-05-2.84418E-05-8.49584E-08 1.52315E-19 1.78027E-18
 -1      1535 9.48402E-05-2.84571E-05-2.84500E-05-1.75226E-07 1.00499E-19 9.58440E-19
 -1      1536 9.50707E-05-2.85211E-05-2.85210E-05-7.97946E-08-2.45964E-19 1.42092E-18
 -1      1537 9.49843E-05-2.84957E-05-2.84949E-05-7.98999E-08 1.12819E-19 1.37330E-18
 -1      1538 9.50048E-05-2.85036E-05-2.85008E-05-1.61018E-07 2.77520E-19 1.42490E-18
 -1      1539 9.52396E-05-2.85705E-05-2.85726E-05-8.33288E-08-3.85484E-19 2.12193E-18
 -1      1540 9.51520E-05-2.85442E-05-2.85460E-05-8.17615E-08-3.31407E-19 1.62536E-18
 -1      1541 9.51642E-05-2.85486E-05-2.85502E-05-1.60171E-07-3.96822E-19 1.48455E-18
 -1      1542 9.54233E-05-2.86244E-05-2.86285E-05-9.37445E-08-1.65801E-19 2.70210E-18
 -1      1543 9.53270E-05-2.85949E-05-2.85994E-05-9.04151E-08-2.54545E-19 2.13895E-18
 -1      1544 9.53303E-05-2.85957E-05-2.86015E-05-1.72607E-07-3.92028E-19 1.52435E-18
 -1      1545 9.56346E-05-2.86868E-05-2.86926E-05-1.10420E-07 6.17488E-19 1.84642E-18
 -1      1546 9.55225E-05-2.86518E-05-2.86588E-05-1.05346E-07 4.15957E-19 2.57912E-18
 -1      1547 9.55144E-05-2.86484E-05-2.86581E-05-1.97602E-07 1.81956E-19 1.29020E-18
 -1      1548 9.58840E-05-2.87610E-05-2.87679E-05-1.31940E-07 5.22117E-19-2.97640E-20
 -1      1549 9.57502E-05-2.87187E-05-2.87278E-05-1.25340E-07 7.84220E-19 1.37162E-18
 -1      1550 9.57264E-05-2.87099E-05-2.87230E-05-2.33270E-07 1.24411E-18 1.03765E-18
 -1      1551 9.61776E-05-2.88491E-05-2.88561E-05-1.55578E-07 1.73311E-19-4.19235E-19
 -1      1552 9.60187E-05-2.87985E-05-2.88087E-05-1.48024E-07 5.98012E-20-2.46935E-19
 -1      1553 9.59735E-05-2.87830E-05-2.87979E-05-2.75775E-07 8.04835E-19 1.02370E-19
 -1      1554 9.65139E-05-2.89512E-05-2.89564E-05-1.76644E-07-6.58262E-19 8.59126E-19
 -1      1555 9.63307E-05-2.88927E-05-2.89022E-05-1.69263E-07-5.84069E-19-4.16386E-20
 -1      1556 9.62576E-05-2.88688E-05-2.88829E-05-3.18255E-07-8.14065E-19-4.80979E-20
 -1      1557 9.68790E-05-2.90635E-05-2.90644E-05-1.87738E-07-7.85060E-19 2.53726E-18
 -1      1558 9.66794E-05-2.89999E-05-2.90059E-05-1.82455E-07-6.20324E-19 1.59638E-18
 -1      1559 9.65723E-05-2.89664E-05-2.89756E-05-3.49526E-07-1.15542E-18 5.30352E-19
 -1      1560 9.72407E-05-2.91771E-05-2.91697E-05-1.78100E-07-2.91204E-19 3.83500E-18
 -1      1561 9.70432E-05-2.91146E-05-2.91128E-05-1.77885E-07-5.17012E-19 2.95386E-18
 -1      1562 9.68985E-05-2.90715E-05-2.90694E-05-3.52794E-07-1.13041E-18 2.21650E-18
 -1      1563 9.75420E-05-2.92755E-05-2.92550E-05-1.33425E-07 5.93845E-19 2.55827E-18
 -1      1564 9.73793E-05-2.92252E-05-2.92095E-05-1.42437E-07 6.52179E-19 3.58966E-18
 -1      1565 9.71993E-05-2.91743E-05-2.91523E-05-3.04854E-07 5.21695E-19 2.27848E-18
 -1      1566 9.76954E-05-2.93329E-05-2.92937E-05-3.67359E-08-1.32291E-20 2.37500E-18
 -1      1567 9.76182E-05-2.93117E-05-2.92748E-05-6.01892E-08-7.75788E-20 2.42317E-18
 -1      1568 9.74155E-05-2.92584E-05-2.92057E-05-1.76644E-07 1.94376E-19 2.09867E-18
 -1      1569 9.75814E-05-2.93127E-05-2.92500E-05 1.28831E-07-2.33472E-19 2.39321E-18
 -1      1570 9.76589E-05-2.93438E-05-2.92781E-05 8.53385E-08-1.37258E-19 2.32541E-18
 -1      1571 9.74620E-05-2.92983E-05-2.92040E-05 6.35167E-08-1.51922E-19 2.46994E-18
 -1      1572 9.70550E-05-2.91695E-05-2.90818E-05 3.74473E-07 1.71701E-19 2.24876E-18
 -1      1573 9.73710E-05-2.92809E-05-2.91810E-05 3.06472E-07 2.33672E-19 2.53408E-18
 -1      1574 9.72301E-05-2.92597E-05-2.91153E-05 4.42444E-07 3.45662E-20 2.24563E-18
 -1      1575 9.59661E-05-2.88546E-05-2.87468E-05 6.97084E-07-7.34976E-19 3.12720E-18
 -1      1576 9.66071E-05-2.90749E-05-2.89411E-05 6.03747E-07-5.51974E-19 2.27672E-18
 -1      1577 9.65972E-05-2.91007E-05-2.89059E-05 9.69217E-07-5.74153E-19 2.87102E-18
 -1      1578 9.41991E-05-2.83274E-05-2.82143E-05 1.06884E-06 8.83272E-19 2.71245E-18
 -1      1579 9.52304E-05-2.86774E-05-2.85207E-05 9.56193E-07 2.75274E-19 3.17166E-18
 -1      1580 9.54503E-05-2.87780E-05-2.85473E-05 1.61764E-06 8.72444E-20 3.16807E-18
 -1      1581 9.17278E-05-2.75736E-05-2.74816E-05 1.42919E-06 7.43948E-19 1.25435E-18
 -1      1582 9.31609E-05-2.80553E-05-2.79006E-05 1.31284E-06 7.39076E-19 2.37057E-18
 -1      1583 9.37232E-05-2.82588E-05-2.80273E-05 2.30871E-06 9.87200E-19 1.32602E-18
 -1      1584 8.86765E-05-2.66264E-05-2.65893E-05 1.68670E-06-4.13235E-20 8.35995E-19
 -1      1585 9.04340E-05-2.72102E-05-2.70961E-05 1.59187E-06 8.77639E-20 1.45846E-18
 -1      1586 9.14444E-05-2.75387E-05-2.73625E-05 2.90359E-06 2.59536E-19 2.79035E-18
 -1      1587 8.53573E-05-2.55814E-05-2.56300E-05 1.73849E-06-4.97351E-20 5.23903E-19
 -1      1588 8.72524E-05-2.62000E-05-2.61698E-05 1.69493E-06 2.28971E-19 8.19385E-19
 -1      1589 8.87810E-05-2.66614E-05-2.66066E-05 3.22119E-06 2.36166E-19 2.23416E-18
 -1      1590 8.22503E-05-2.45934E-05-2.47396E-05 1.50846E-06-4.24277E-19-3.71040E-19
 -1      1591 8.40014E-05-2.51481E-05-2.52333E-05 1.53985E-06-1.06438E-19-5.19602E-19
 -1      1592 8.60525E-05-2.57314E-05-2.58507E-05 3.08986E-06 3.03501E-19 9.25986E-19
 -1      1593 7.99048E-05-2.38447E-05-2.40694E-05 9.91136E-07 8.37874E-19-6.67065E-19
 -1      1594 8.11964E-05-2.42285E-05-2.44310E-05 1.10265E-06 1.18105E-19-4.50119E-19
 -1      1595 8.36893E-05-2.49046E-05-2.52088E-05 2.42405E-06 1.23171E-19-6.49942E-19
 -1      1596 7.87778E-05-2.34894E-05-2.37433E-05 2.74646E-07 5.91351E-19-2.29828E-18
 -1      1597 7.93549E-05-2.36217E-05-2.39044E-05 4.46212E-07 8.61783E-19-1.05671E-18
 -1      1598 8.21263E-05-2.43495E-05-2.47899E-05 1.28993E-06 1.11610E-18-7.58985E-19
 -1      1599 7.90738E-05-2.35960E-05-2.38166E-05-4.78649E-07 3.22720E-19-2.94903E-18
 -1      1600 7.88326E-05-2.34536E-05-2.37502E-05-2.87641E-07-5.21786E-21-2.95320E-18
 -1      1601 8.16649E-05-2.41893E-05-2.46664E-05-8.60729E-08 7.90957E-19-1.17262E-18
 -1      1602 8.06675E-05-2.41201E-05-2.42570E-05-1.09177E-06-3.27018E-19-3.08963E-18
 -1      1603 7.96948E-05-2.37468E-05-2.39866E-05-9.26931E-07 1.91463E-19-2.65074E-18
 -1      1604 8.23623E-05-2.44507E-05-2.48506E-05-1.38687E-06-2.33477E-19-1.28647E-18
 -1      1605 8.31533E-05-2.49226E-05-2.49569E-05-1.44295E-06-3.73728E-19-2.82785E-18
 -1      1606 8.16924E-05-2.44116E-05-2.45479E-05-1.33678E-06-5.32421E-19-3.01695E-18
 -1      1607 8.40102E-05-2.50514E-05-2.52908E-05-2.32573E-06-3.47297E-19-7.99619E-19
 -1      1608 8.59970E-05-2.58244E-05-2.57714E-05-1.50556E-06-1.07103E-18-1.23168E-18
 -1      1609 8.43572E-05-2.52831E-05-2.53075E-05-1.46720E-06-1.22987E-18-1.74004E-18
 -1      1610 8.62160E-05-2.58347E-05-2.58900E-05-2.75259E-06-1.67894E-18-4.95441E-19
 -1      1611 8.87112E-05-2.66675E-05-2.65637E-05-1.34054E-06 6.76414E-19-6.16481E-19
 -1      1612 8.71679E-05-2.61829E-05-2.61213E-05-1.35739E-06 2.51295E-19-5.06764E-20
 -1      1613 8.85434E-05-2.66317E-05-2.65372E-05-2.68898E-06-5.54746E-19 3.47343E-19
 -1      1614 9.09768E-05-2.73540E-05-2.72398E-05-1.05510E-06 2.68673E-19-1.83029E-18
 -1      1615 8.97037E-05-2.69734E-05-2.68687E-05-1.10267E-06 6.67849E-19-1.61587E-18
 -1      1616 9.06416E-05-2.73154E-05-2.71386E-05-2.28584E-06 1.22416E-18 1.22671E-19
 -1      1617 9.26775E-05-2.78546E-05-2.77596E-05-7.55185E-07 4.36912E-19-2.88454E-18
 -1      1618 9.17305E-05-2.75849E-05-2.74784E-05-8.08350E-07 5.46469E-19-2.14548E-18
 -1      1619 9.23153E-05-2.78260E-05-2.76359E-05-1.74126E-06 9.95148E-19-7.72605E-19
 -1      1620 9.38591E-05-2.81941E-05-2.81273E-05-5.10576E-07-3.31694E-19-1.91018E-18
 -1      1621 9.32033E-05-2.80139E-05-2.79302E-05-5.52648E-07-2.72989E-19-2.29492E-18
 -1      1622 9.35247E-05-2.81661E-05-2.80094E-05-1.22350E-06-2.92061E-20 1.01556E-18
 -1      1623 9.46374E-05-2.84212E-05-2.83672E-05-3.29645E-07-6.94325E-19-9.89665E-19
 -1      1624 9.42061E-05-2.83028E-05-2.82394E-05-3.61685E-07-3.75730E-19-1.67132E-18
 -1      1625 9.43394E-05-2.83813E-05-2.82660E-05-8.16375E-07-7.78685E-19 2.93469E-18
 -1      1626 9.50909E-05-2.85671E-05-2.85029E-05-1.68697E-07 1.64043E-19-3.65820E-19
 -1      1627 9.48549E-05-2.85015E-05-2.84320E-05-1.99341E-07-2.71524E-19-1.31213E-18
 -1      1628 9.48704E-05-2.85355E-05-2.84225E-05-4.90570E-07 1.11701E-19 2.74760E-18
 -1      1629 9.52056E-05-2.86162E-05-2.85282E-05-4.55878E-08-1.77786E-20-5.06017E-19
 -1      1630 9.53484E-05-2.90274E-05-2.84143E-05-2.86264E-07 6.43142E-18 4.13287E-18
 -1      1631 9.52545E-05-2.87892E-05-2.84795E-05-2.44519E-07 1.58894E-18 3.88866E-18
 -1      1632 9.55447E-05-2.94628E-05-2.83165E-05-2.83351E-07 8.50712E-18-6.15845E-19
 -1      1633 9.54300E-05-2.91986E-05-2.83794E-05-2.98323E-07 7.90900E-18 4.51000E-19
 -1      1634 9.53561E-05-2.90561E-05-2.84160E-05-5.43076E-07 2.86214E-18 4.62304E-18
 -1      1635 9.56510E-05-2.95939E-05-2.83104E-05-3.27751E-08 6.75287E-18-1.31908E-18
 -1      1636 9.56003E-05-2.95386E-05-2.83121E-05-9.99882E-08 8.58495E-18-1.53826E-18
 -1      1637 9.55732E-05-2.93427E-05-2.83969E-05-3.36710E-07 4.02964E-18-1.12334E-18
 -1      1638 9.55438E-05-2.90476E-05-2.85030E-05 4.59970E-07 6.98291E-18-1.25770E-18
 -1      1639 9.56332E-05-2.94284E-05-2.83795E-05 3.44487E-07 7.37008E-18 1.34321E-19
 -1      1640 9.56737E-05-2.92979E-05-2.84753E-05 3.36875E-07 3.22322E-18-7.35701E-19
 -1      1641 9.51217E-05-2.75440E-05-2.89708E-05 1.12422E-06 4.68636E-18-1.67487E-18
 -1      1642 9.54091E-05-2.85142E-05-2.86808E-05 9.80741E-07 6.51994E-18-2.32113E-18
 -1      1643 9.55693E-05-2.86481E-05-2.87215E-05 1.41940E-06 3.40218E-18-2.76640E-18
 -1      1644 9.43093E-05-2.48867E-05-2.97645E-05 1.85925E-06 2.72038E-18-1.24561E-18
 -1      1645 9.48328E-05-2.65447E-05-2.92826E-05 1.70860E-06 4.07133E-18-1.36238E-18
 -1      1646 9.51617E-05-2.71695E-05-2.91865E-05 2.75346E-06 2.71291E-18-2.40685E-18
 -1      1647 9.31310E-05-2.12145E-05-3.08328E-05 2.45946E-06 1.20083E-18-4.30945E-20
 -1      1648 9.38605E-05-2.34369E-05-3.01988E-05 2.35093E-06 1.24749E-18-3.44637E-19
 -1      1649 9.43840E-05-2.47579E-05-2.98819E-05 4.06547E-06 2.24386E-18-2.60957E-18
 -1      1650 9.17292E-05-1.70116E-05-3.20273E-05 2.68039E-06 1.09585E-19-7.19624E-19
 -1      1651 9.25598E-05-1.94654E-05-3.13383E-05 2.66692E-06 8.58468E-19 3.51087E-19
 -1      1652 9.32603E-05-2.15696E-05-3.07464E-05 4.93225E-06 1.11794E-18-3.05886E-19
 -1      1653 9.03803E-05-1.31172E-05-3.31066E-05 2.30316E-06-4.92523E-19 2.67126E-19
 -1      1654 9.11306E-05-1.52670E-05-3.25130E-05 2.42683E-06-7.44224E-19-4.95812E-19
 -1      1655 9.19317E-05-1.80482E-05-3.16501E-05 4.90325E-06 4.69878E-19-1.75594E-18
 -1      1656 8.94502E-05-1.05666E-05-3.37876E-05 1.24609E-06 9.16000E-19-2.00548E-19
 -1      1657 8.99005E-05-1.17922E-05-3.34583E-05 1.51222E-06 2.28289E-19 8.06574E-19
 -1      1658 9.06739E-05-1.49157E-05-3.24092E-05 3.65976E-06-2.77503E-19 1.69182E-18
 -1      1659 8.92793E-05-1.02461E-05-3.38418E-05-3.04811E-07-8.91026E-19-8.16368E-19
 -1      1660 8.92446E-05-1.00736E-05-3.38999E-05 4.16215E-08 1.05245E-18-1.50052E-18
 -1      1661 8.98523E-05-1.30245E-05-3.28298E-05 1.24808E-06-2.52810E-19-5.02522E-19
 -1      1662 9.00304E-05-1.25177E-05-3.31922E-05-1.98956E-06-1.05392E-18-1.51265E-18
 -1      1663 8.94463E-05-1.08018E-05-3.36680E-05-1.64901E-06-7.39645E-19 6.15760E-19
 -1      1664 8.97780E-05-1.30231E-05-3.27851E-05-1.84856E-06-2.22412E-20-7.92955E-19
 -1      1665 9.15883E-05-1.69599E-05-3.19754E-05-3.22953E-06-1.52016E-18-2.53124E-19
 -1      1666 9.05660E-05-1.40747E-05-3.27576E-05-3.02244E-06-5.42736E-19-1.36051E-18
 -1      1667 9.05914E-05-1.51307E-05-3.22548E-05-4.76148E-06 1.01220E-19-1.48304E-18
 -1      1668 9.35510E-05-2.22875E-05-3.05646E-05-3.39817E-06-2.56137E-18-8.93539E-19
 -1      1669 9.24035E-05-1.91465E-05-3.14052E-05-3.49127E-06-1.99508E-18 2.65811E-19
 -1      1670 9.22104E-05-1.89406E-05-3.13784E-05-6.39909E-06-1.54638E-18-1.21656E-18
 -1      1671 2.30500E-05-7.49474E-05 1.60042E-05-4.07132E-06-3.42201E-19 9.79594E-19
 -1      1672 2.69184E-05-8.71849E-05 1.87321E-05 4.86138E-06-1.32794E-18 9.06325E-19
 -1      1673 2.08055E-05-4.41241E-05 5.49493E-06 2.90408E-06 6.87791E-19 5.96523E-19
 -1      1674 2.62505E-05-6.86315E-05 1.17430E-05-2.06253E-08-1.88041E-19 4.82121E-19
 -1      1675 3.27256E-05-1.26456E-05-1.06417E-05 2.78386E-05 2.62496E-18 4.39356E-18
 -1      1676 2.88736E-05-3.59469E-05-1.77126E-06 1.04399E-05 1.36203E-18 3.02137E-18
 -1      1677 7.01555E-05 1.31406E-06-2.99451E-05 6.09466E-05 4.55111E-18 4.39017E-18
 -1      1678 4.80600E-05-7.69549E-06-1.98097E-05 3.69663E-05 3.59650E-18 3.83537E-18
 -1      1679 1.31971E-04-9.43838E-06-4.92883E-05 8.35849E-05 3.85739E-18 5.27871E-18
 -1      1680 9.26178E-05 2.43692E-07-3.95383E-05 6.75942E-05 4.66122E-18 5.33800E-18
 -1      1681 2.02907E-04-3.71600E-05-6.57142E-05 7.69550E-05 2.40430E-18 2.37593E-18
 -1      1682 1.58023E-04-1.64470E-05-5.77437E-05 8.09768E-05 3.83113E-18 3.56347E-18
 -1      1683 2.55654E-04-6.18691E-05-7.64684E-05 4.26379E-05 6.38557E-19 1.65256E-18
 -1      1684 2.24099E-04-4.42888E-05-7.19235E-05 6.82121E-05 8.85149E-19 1.73218E-18
 -1      1685 2.67112E-04-6.68571E-05-7.93586E-05-1.04650E-05 8.17175E-19 1.81159E-19
 -1      1686 2.62751E-04-6.43641E-05-7.87228E-05 2.52384E-05 9.94628E-19 1.59920E-18
 -1      1687 2.39737E-04-5.17807E-05-7.48681E-05-5.94791E-05 2.31960E-18-2.80029E-18
 -1      1688 2.64200E-04-6.59680E-05-7.82770E-05-2.89087E-05 1.37791E-18-1.21126E-19
 -1      1689 1.77176E-04-2.22547E-05-6.28278E-05-8.28690E-05 4.00689E-18-6.21892E-18
 -1      1690 2.21348E-04-4.45243E-05-6.98589E-05-7.20647E-05 2.59065E-18-4.76456E-18
 -1      1691 1.09612E-04-5.66751E-06-4.38428E-05-6.81342E-05 6.65514E-18-6.66784E-18
 -1      1692 1.53534E-04-1.94102E-05-5.39925E-05-7.98176E-05 5.11777E-18-5.05594E-18
 -1      1693 5.42929E-05-1.90381E-06-2.43665E-05-4.48302E-05 5.85554E-18-6.35783E-18
 -1      1694 8.03807E-05 1.91032E-06-3.43195E-05-6.76134E-05 6.56451E-18-8.46864E-18
 -1      1695 3.04389E-05-2.68472E-05-5.66151E-06-1.62529E-05 4.48504E-18-3.08447E-18
 -1      1696 3.74411E-05-5.48293E-06-1.50774E-05-3.57273E-05 5.54129E-18-4.21822E-18
 -1      1697 2.66888E-05-6.13274E-05 9.28089E-06-5.54405E-06 2.58091E-18-1.18217E-18
 -1      1698 2.27994E-05-3.55716E-05 1.97368E-06-1.14170E-05 3.74643E-18-2.59954E-18
 -1      1699 2.62394E-05-8.45128E-05 1.79761E-05-5.51681E-06 3.77353E-19-1.57527E-18
 -1      1700 2.16454E-05-6.98430E-05 1.48343E-05 2.72594E-06 2.39372E-18-1.25530E-18
 -1      1701 2.32996E-05-8.21960E-05 1.82996E-05-1.40416E-05-2.05850E-18-1.02872E-18
 -1      1702 2.57587E-05-8.65189E-05 1.90511E-05-3.35892E-06-4.72539E-19-1.37643E-18
 -1      1703 1.98514E-05-5.85716E-05 1.06273E-05-1.11728E-05-5.13980E-18-4.74508E-18
 -1      1704 2.54378E-05-7.76374E-05 1.53322E-05-9.74878E-06-2.58642E-18-2.22251E-18
 -1      1705 2.71835E-05-2.97108E-05-3.44890E-06 7.29591E-06-6.81777E-18-5.04874E-18
 -1      1706 2.67084E-05-5.29644E-05 4.62968E-06-5.59902E-06-6.05967E-18-3.86903E-18
 -1      1707 6.47557E-05-1.44040E-05-2.34003E-05 4.09920E-05-6.35952E-18-7.07357E-18
 -1      1708 4.53366E-05-2.74064E-05-1.26478E-05 1.69626E-05-6.12659E-18-5.85130E-18
 -1      1709 1.32146E-04-2.17235E-05-4.55191E-05 6.80875E-05-5.44388E-18-8.76849E-18
 -1      1710 9.01800E-05-1.59902E-05-3.39911E-05 4.69176E-05-6.71612E-18-6.89824E-18
 -1      1711 2.18581E-04-4.91847E-05-6.63859E-05 6.71462E-05-4.00604E-18-9.30720E-18
 -1      1712 1.62457E-04-2.79678E-05-5.58144E-05 6.49137E-05-4.09795E-18-9.32922E-18
 -1      1713 2.88981E-04-7.55703E-05-8.12996E-05 3.70732E-05-1.54795E-18-1.04168E-17
 -1      1714 2.45003E-04-5.40622E-05-7.48335E-05 6.31712E-05-3.27558E-18-1.01847E-17
 -1      1715 3.02197E-04-7.90851E-05-8.49360E-05-1.80513E-05-1.48400E-18-7.09030E-18
 -1      1716 2.99873E-04-7.79032E-05-8.45137E-05 2.32831E-05-1.98799E-18-9.82304E-18
 -1      1717 2.53462E-04-5.70301E-05-7.66107E-05-6.06055E-05-1.40078E-18-2.21669E-18
 -1      1718 2.91676E-04-7.62088E-05-8.21850E-05-3.22140E-05-1.50984E-18-6.30785E-18
 -1      1719 1.75620E-04-2.81085E-05-6.01268E-05-7.45771E-05-1.65595E-18 1.84992E-18
 -1      1720 2.30860E-04-5.12812E-05-6.97182E-05-7.22979E-05-1.22333E-18-3.11708E-19
 -1      1721 1.00801E-04-1.27758E-05-3.90110E-05-5.63310E-05-2.18958E-18 2.99172E-18
 -1      1722 1.46024E-04-2.18268E-05-5.02786E-05-7.58282E-05-2.63088E-18 3.53382E-18
 -1      1723 5.20888E-05-2.49296E-05-1.61100E-05-2.30085E-05-1.39252E-18 1.76352E-18
 -1      1724 7.68796E-05-1.38430E-05-2.79857E-05-4.94026E-05-1.66865E-18 3.10099E-18
 -1      1725 2.79185E-05-4.96728E-05 2.77335E-06 2.58764E-06-5.09067E-19-4.09964E-19
 -1      1726 2.99488E-05-2.56877E-05-5.97983E-06-1.28550E-05-1.78724E-19 9.77900E-19
 -1      1727 2.61424E-05-7.82755E-05 1.50660E-05 9.31703E-06-2.27047E-18-2.65757E-20
 -1      1728 1.98999E-05-5.65175E-05 9.66159E-06 9.98222E-06-1.17145E-18-9.59477E-19
 -1      1729 2.60361E-05-8.69516E-05 1.91678E-05 2.21803E-06-2.15337E-18 7.60212E-19
 -1      1730 2.33059E-05-8.10757E-05 1.79747E-05 1.23255E-05-2.23701E-18 6.52215E-20
 -1      1731 9.60998E-05-2.76683E-05-2.93984E-05-2.41739E-06-1.29084E-18 1.55860E-18
 -1      1732 3.92376E-05-4.47583E-05-8.45382E-07 3.01608E-05 1.15959E-18 2.60134E-18
 -1      1733 9.51945E-05-2.86652E-05-2.84999E-05-1.81785E-07-1.72241E-19 1.49977E-18
 -1      1734 9.51462E-05-2.87361E-05-2.84585E-05-4.23560E-07 1.28994E-18 5.47320E-18
 -1      1735 1.28484E-05-5.84824E-05 1.45585E-05 5.94504E-06-1.04820E-18 1.85797E-18
 -1      1736 2.03248E-05-5.45313E-05 1.01135E-05 1.75505E-05-1.43996E-19 5.78312E-19
 -1      1737 9.50867E-05-2.65609E-05-2.93840E-05-2.19691E-06-2.87701E-18 1.24455E-18
 -1      1738 9.43814E-05-2.44503E-05-3.00254E-05-2.68615E-06-1.51950E-18-1.56636E-18
 -1      1739 9.41045E-05-2.33061E-05-3.03855E-05-5.83847E-06-7.64189E-19-8.69903E-19
 -1      1740 7.02335E-05-3.48756E-05-1.65042E-05 4.28362E-05 2.33273E-18 4.98775E-18
 -1      1741 1.10895E-04-2.87647E-05-3.43434E-05 5.17412E-05 3.19924E-18 3.75490E-18
 -1      1742 1.56721E-04-2.94677E-05-5.16244E-05 5.02075E-05 3.34154E-18 1.81604E-18
 -1      1743 1.95939E-04-3.26493E-05-6.54768E-05 3.74279E-05 1.99519E-18 7.81811E-19
 -1      1744 2.20289E-04-3.57960E-05-7.35865E-05 1.69280E-05 8.17810E-19-8.91502E-20
 -1      1745 2.23118E-04-3.58622E-05-7.46813E-05-1.00619E-05 2.39880E-18-4.93608E-19
 -1      1746 2.06426E-04-3.41914E-05-6.89095E-05-3.44389E-05 3.26912E-18-1.71185E-18
 -1      1747 1.67635E-04-3.20263E-05-5.55335E-05-4.35341E-05 4.29573E-18-2.96800E-18
 -1      1748 1.23781E-04-3.04777E-05-3.85677E-05-5.03669E-05 4.69087E-18-4.68663E-18
 -1      1749 7.65051E-05-3.06176E-05-2.04920E-05-4.61399E-05 3.09421E-18-5.13006E-18
 -1      1750 4.44329E-05-4.06917E-05-4.26266E-06-3.54127E-05 1.25361E-18-2.64433E-18
 -1      1751 2.17630E-05-4.91973E-05 7.96984E-06-2.34048E-05-6.62380E-19-1.22312E-18
 -1      1752 1.26271E-05-5.79933E-05 1.43332E-05-8.42059E-06-9.09290E-19-2.51653E-18
 -1      1753 1.59087E-05-5.66618E-05 1.24702E-05 3.41429E-06-2.89071E-18-3.34578E-18
 -1      1754 3.24669E-05-5.20371E-05 3.95001E-06 1.56613E-05-3.80995E-18-4.35566E-18
 -1      1755 6.55444E-05-4.78134E-05-1.06199E-05 2.85908E-05-4.95175E-18-4.30377E-18
 -1      1756 1.14387E-04-4.78105E-05-2.93498E-05 3.58373E-05-3.57956E-18-5.02714E-18
 -1      1757 1.69081E-04-4.97917E-05-4.91028E-05 3.09902E-05-3.19416E-18-6.14268E-18
 -1      1758 2.15738E-04-4.83989E-05-6.65244E-05 1.97148E-05-1.88359E-18-6.29515E-18
 -1      1759 2.47740E-04-4.74948E-05-7.76174E-05 7.94155E-06-1.87279E-18-6.91094E-18
 -1      1760 2.45336E-04-4.42531E-05-7.80523E-05-5.83456E-06-2.77446E-18-7.70461E-18
 -1      1761 2.22395E-04-4.67784E-05-6.90557E-05-2.36972E-05-1.87766E-18-5.86486E-18
 -1      1762 1.76573E-04-4.58798E-05-5.31953E-05-3.76705E-05-1.02576E-18-1.09098E-18
 -1      1763 1.23545E-04-4.69312E-05-3.33192E-05-3.85045E-05-6.51368E-19 2.43437E-18
 -1      1764 7.32985E-05-4.77122E-05-1.35132E-05-3.26675E-05-1.47384E-19 2.44242E-18
 -1      1765 3.53960E-05-5.21772E-05 2.82231E-06-1.81587E-05-8.05528E-19-1.16022E-18
 -1      1766 1.72197E-05-5.73186E-05 1.21976E-05-5.35499E-06-1.10030E-18-1.13502E-19
 -1      1767 1.06329E-04-2.31487E-05-3.57432E-05-1.72078E-05-8.02378E-19 1.61847E-18
 -1      1768 8.91355E-05-1.05669E-05-3.37956E-05-1.33445E-05-6.42742E-19-1.37526E-18
 -1      1769 9.04640E-05-1.16310E-05-3.39358E-05-1.51230E-05-8.28239E-19-1.16930E-18
 -1      1770 9.25080E-05-1.38890E-05-3.38532E-05-1.60101E-05-9.02122E-19-8.77870E-19
 -1      1771 9.41961E-05-1.57973E-05-3.40914E-05-1.77332E-05-1.05722E-18-5.33260E-19
 -1      1772 9.34633E-05-1.63930E-05-3.30433E-05-1.37529E-05-9.27117E-19-9.53097E-19
 -1      1773 8.62103E-05-7.67411E-06-3.37298E-05-7.86522E-06-1.00949E-19-1.60098E-18
 -1      1774 8.66129E-05-7.97280E-06-3.37636E-05-9.25483E-06-2.12996E-19-1.62094E-18
 -1      1775 8.55924E-05-7.03634E-06-3.37264E-05-5.32196E-06 1.21414E-19-1.52016E-18
 -1      1776 8.58272E-05-7.21523E-06-3.37417E-05-6.62672E-06-1.55427E-20-1.57602E-18
 -1      1777 8.75924E-05-9.86831E-06-3.33433E-05-6.93042E-06-1.18647E-19-1.50611E-18
 -1      1778 8.52569E-05-6.67722E-06-3.37294E-05-2.89041E-06 3.93310E-19-1.35085E-18
 -1      1779 8.53780E-05-6.77204E-06-3.37354E-05-4.13016E-06 2.69600E-19-1.42974E-18
 -1      1780 8.69563E-05-9.15543E-06-3.33759E-05-4.53901E-06 2.62383E-19-1.35756E-18
 -1      1781 8.51256E-05-6.52877E-06-3.37327E-05-5.19135E-07 6.29002E-19-1.29462E-18
 -1      1782 8.51614E-05-6.55738E-06-3.37342E-05-1.72873E-06 5.27073E-19-1.35737E-18
 -1      1783 8.66236E-05-8.77591E-06-3.33957E-05-2.21881E-06 5.01916E-19-1.22513E-18
 -1      1784 8.51708E-05-6.56608E-06-3.37343E-05 1.84334E-06 7.93895E-19-1.21598E-18
 -1      1785 8.51291E-05-6.53318E-06-3.37326E-05 6.32786E-07 7.53993E-19-1.28197E-18
 -1      1786 8.65250E-05-8.66200E-06-3.34022E-05 6.38017E-08 7.67719E-19-1.22715E-18
 -1      1787 8.54022E-05-6.79632E-06-3.37354E-05 4.24904E-06 9.00534E-19-1.09299E-18
 -1      1788 8.52741E-05-6.69561E-06-3.37292E-05 3.00630E-06 8.75664E-19-1.18929E-18
 -1      1789 8.66406E-05-8.79492E-06-3.33949E-05 2.34752E-06 8.88366E-19-1.12528E-18
 -1      1790 8.58598E-05-7.24968E-06-3.37410E-05 6.71012E-06 1.09544E-18-7.43933E-19
 -1      1791 8.56214E-05-7.06745E-06-3.37260E-05 5.42294E-06 9.70579E-19-9.42284E-19
 -1      1792 8.69892E-05-9.19203E-06-3.33742E-05 4.65058E-06 9.97088E-19-9.88229E-19
 -1      1793 8.66738E-05-8.03949E-06-3.37621E-05 9.37186E-06 1.36725E-18-3.43353E-19
 -1      1794 8.62528E-05-7.72317E-06-3.37281E-05 7.95112E-06 1.19209E-18-5.47289E-19
 -1      1795 8.76424E-05-9.92521E-06-3.33401E-05 7.02570E-06 1.26156E-18-5.71959E-19
 -1      1796 8.80854E-05-9.38638E-06-3.38177E-05 1.22508E-05 1.45285E-18 1.53022E-19
 -1      1797 8.73467E-05-8.82881E-06-3.37457E-05 1.06576E-05 1.40204E-18-1.64139E-19
 -1      1798 8.87643E-05-1.11608E-05-3.32900E-05 9.50021E-06 1.43890E-18-1.27359E-19
 -1      1799 9.06442E-05-1.18457E-05-3.39275E-05 1.53244E-05 1.44164E-18 1.02263E-18
 -1      1800 8.92737E-05-1.07478E-05-3.37880E-05 1.35006E-05 1.41642E-18 4.83762E-19
 -1      1801 9.06566E-05-1.32262E-05-3.32079E-05 1.19567E-05 1.49122E-18 3.76533E-19
 -1      1802 9.58924E-05-1.70853E-05-3.39942E-05 1.76711E-05 1.16823E-18 2.35068E-18
 -1      1803 9.28467E-05-1.43273E-05-3.38268E-05 1.61723E-05 1.27812E-18 1.55589E-18
 -1      1804 9.38824E-05-1.68590E-05-3.30136E-05 1.38536E-05 1.38350E-18 1.25647E-18
 -1      1805 1.01924E-04-2.50990E-05-3.33612E-05 1.44131E-05 8.25328E-19 3.90863E-18
 -1      1806 9.80729E-05-1.95806E-05-3.36274E-05 1.69683E-05 9.78793E-19 2.90516E-18
 -1      1807 9.74155E-05-2.18811E-05-3.24200E-05 1.32780E-05 1.13378E-18 2.27444E-18
 -1      1808 9.87862E-05-2.61484E-05-3.13443E-05 9.42912E-06 8.16963E-19 3.65800E-18
 -1      1809 1.00230E-04-1.94477E-05-3.42959E-05-1.91052E-05-1.05858E-18 1.60725E-19
 -1      1810 9.53384E-05-2.73027E-05-2.91869E-05 4.07362E-06 7.61059E-19 3.22360E-18
 -1      1811 9.77273E-05-2.73924E-05-3.01957E-05 6.39821E-06 7.08331E-19 3.44126E-18
 -1      1812 9.75865E-05-2.56032E-05-3.08252E-05 8.71908E-06 8.82132E-19 2.61161E-18
 -1      1813 9.70828E-05-2.69100E-05-2.99648E-05-5.94263E-06-9.17443E-19-1.85555E-19
 -1      1814 9.52509E-05-2.70030E-05-2.92251E-05-4.05171E-06-7.36416E-19-4.04842E-19
 -1      1815 9.44284E-05-2.72265E-05-2.87029E-05-2.53630E-06-5.89958E-19-4.72472E-19
 -1      1816 9.36269E-05-2.73092E-05-2.83848E-05-1.65147E-06-3.90919E-19-5.87302E-19
 -1      1817 9.55740E-05-2.64882E-05-2.96300E-05-4.64163E-06-7.86894E-19-5.62319E-19
 -1      1818 9.30883E-05-2.73651E-05-2.81073E-05-8.00063E-07-1.90827E-19-5.62969E-19
 -1      1819 9.27710E-05-2.74259E-05-2.79790E-05-3.48159E-07 4.06576E-20-6.00755E-19
 -1      1820 9.43469E-05-2.71987E-05-2.87985E-05-1.92504E-06-3.82455E-19-6.71899E-19
 -1      1821 9.24931E-05-2.74519E-05-2.78432E-05 1.02874E-07 1.14670E-19-6.52880E-19
 -1      1822 9.24502E-05-2.75235E-05-2.78099E-05 3.26908E-07 5.36212E-20-6.31097E-19
 -1      1823 9.36392E-05-2.75176E-05-2.83556E-05-4.37015E-07-1.95479E-20-6.59498E-19
 -1      1824 9.23336E-05-2.75577E-05-2.77455E-05 5.84430E-07-1.70474E-19-5.77018E-19
 -1      1825 9.24381E-05-2.76408E-05-2.77610E-05 6.96885E-07-1.18315E-19-5.53606E-19
 -1      1826 9.32990E-05-2.76972E-05-2.81275E-05 3.81790E-07-2.94030E-20-6.56639E-19
 -1      1827 9.24343E-05-2.76785E-05-2.77454E-05 8.17506E-07-1.22062E-19-4.93824E-19
 -1      1828 9.26172E-05-2.77653E-05-2.77882E-05 8.56207E-07-7.49765E-20-4.93127E-19
 -1      1829 9.32153E-05-2.78442E-05-2.80248E-05 8.22508E-07-1.39880E-19-5.27371E-19
 -1      1830 9.26804E-05-2.78065E-05-2.78009E-05 8.94985E-07 2.42436E-21-4.93123E-19
 -1      1831 9.28950E-05-2.78896E-05-2.78563E-05 8.90007E-07-1.12856E-20-3.48456E-19
 -1      1832 9.32972E-05-2.79694E-05-2.80031E-05 1.01516E-06 7.22774E-20-4.07448E-19
 -1      1833 9.29932E-05-2.79311E-05-2.78842E-05 8.80261E-07-2.13519E-19-1.44539E-19
 -1      1834 9.32115E-05-2.80069E-05-2.79432E-05 8.50741E-07-1.38017E-19-7.98593E-20
 -1      1835 9.34722E-05-2.80798E-05-2.80284E-05 1.05799E-06 3.07690E-20-2.41524E-19
 -1      1836 9.33239E-05-2.80461E-05-2.79781E-05 8.13783E-07-1.95003E-19-1.75170E-19
 -1      1837 9.35301E-05-2.81127E-05-2.80353E-05 7.71973E-07-1.39746E-19-1.06556E-19
 -1      1838 9.36906E-05-2.81761E-05-2.80792E-05 1.01303E-06-2.38823E-19-3.79398E-19
 -1      1839 9.36436E-05-2.81479E-05-2.80722E-05 7.21814E-07-3.06267E-19-3.04881E-20
 -1      1840 9.38288E-05-2.82044E-05-2.81246E-05 6.75603E-07-3.00783E-19-2.80593E-19
 -1      1841 9.39206E-05-2.82584E-05-2.81415E-05 9.20568E-07-2.72121E-19-2.28620E-19
 -1      1842 9.39304E-05-2.82339E-05-2.81585E-05 6.24356E-07-3.17729E-19-5.63826E-19
 -1      1843 9.40852E-05-2.82788E-05-2.82029E-05 5.81064E-07-3.50573E-19-6.09564E-19
 -1      1844 9.41379E-05-2.83257E-05-2.82050E-05 8.09935E-07-5.71748E-19-6.36727E-19
 -1      1845 9.41836E-05-2.83052E-05-2.82363E-05 5.28545E-07-2.87213E-19-6.82633E-19
 -1      1846 9.43230E-05-2.83443E-05-2.82768E-05 4.87233E-07-1.61188E-19-3.52614E-19
 -1      1847 9.43382E-05-2.83809E-05-2.82670E-05 6.96074E-07-4.00060E-19-4.38984E-19
 -1      1848 9.44100E-05-2.83662E-05-2.83069E-05 4.40422E-07-2.33315E-19-4.70423E-19
 -1      1849 9.45279E-05-2.83978E-05-2.83417E-05 4.05334E-07-9.88135E-20-6.32720E-19
 -1      1850 9.45222E-05-2.84263E-05-2.83263E-05 5.86586E-07-2.77170E-19-3.99667E-19
 -1      1851 9.46047E-05-2.84159E-05-2.83687E-05 3.66878E-07-2.89016E-19-6.37246E-19
 -1      1852 9.47048E-05-2.84414E-05-2.83986E-05 3.39471E-07-2.20372E-19-7.05356E-19
 -1      1853 9.46844E-05-2.84622E-05-2.83805E-05 4.92338E-07-3.16299E-19-3.91948E-19
 -1      1854 9.47736E-05-2.84566E-05-2.84232E-05 3.11278E-07-2.66405E-19-8.96086E-19
 -1      1855 9.48607E-05-2.84776E-05-2.84496E-05 2.92697E-07-2.38768E-19-1.08855E-18
 -1      1856 9.48279E-05-2.84903E-05-2.84301E-05 4.18612E-07-2.97302E-19-1.29271E-19
 -1      1857 9.49246E-05-2.84907E-05-2.84728E-05 2.76398E-07 3.66848E-19-8.80828E-19
 -1      1858 9.50043E-05-2.85087E-05-2.84974E-05 2.67863E-07 8.39089E-19-6.20091E-19
 -1      1859 9.49580E-05-2.85125E-05-2.84766E-05 3.69529E-07 1.57676E-19-4.23632E-19
 -1      1860 9.50640E-05-2.85202E-05-2.85194E-05 2.65284E-07 7.46117E-19-8.75961E-19
 -1      1861 9.51396E-05-2.85363E-05-2.85429E-05 2.67582E-07 3.04479E-19-1.12284E-18
 -1      1862 9.50785E-05-2.85298E-05-2.85211E-05 3.49101E-07 6.84538E-19 1.40676E-19
 -1      1863 9.52060E-05-2.85482E-05-2.85678E-05 2.80350E-07 1.34646E-19-1.01949E-18
 -1      1864 9.52926E-05-2.85658E-05-2.85949E-05 2.96236E-07-2.65985E-19-5.57334E-19
 -1      1865 9.52011E-05-2.85452E-05-2.85675E-05 3.60737E-07 4.23978E-19-4.40546E-19
 -1      1866 9.53684E-05-2.85787E-05-2.86237E-05 3.28647E-07-3.25346E-19 6.12070E-20
 -1      1867 9.54721E-05-2.85991E-05-2.86563E-05 3.61448E-07-1.04327E-19 5.03693E-19
 -1      1868 9.53387E-05-2.85595E-05-2.86209E-05 4.11983E-07 2.25020E-19 2.83493E-19
 -1      1869 9.55641E-05-2.86139E-05-2.86919E-05 4.18665E-07-1.29286E-19 4.95806E-19
 -1      1870 9.56973E-05-2.86397E-05-2.87337E-05 4.73426E-07 4.49151E-19 4.78896E-19
 -1      1871 9.55007E-05-2.85738E-05-2.86848E-05 5.12854E-07-7.68455E-20 3.06593E-19
 -1      1872 9.58138E-05-2.86575E-05-2.87796E-05 5.63207E-07 2.21091E-19 2.57946E-19
 -1      1873 9.59930E-05-2.86918E-05-2.88356E-05 6.47544E-07 1.24894E-19 2.38355E-19
 -1      1874 9.57018E-05-2.85887E-05-2.87654E-05 6.77688E-07-1.81231E-20 4.67713E-19
 -1      1875 9.61442E-05-2.87133E-05-2.88965E-05 7.81349E-07-3.55256E-19-3.79599E-19
 -1      1876 9.63912E-05-2.87602E-05-2.89735E-05 9.06672E-07-3.27772E-19-3.33376E-19
 -1      1877 9.59597E-05-2.86038E-05-2.88703E-05 9.27618E-07-3.82484E-19 5.38899E-19
 -1      1878 9.65893E-05-2.87858E-05-2.90553E-05 1.10105E-06-2.43744E-19-8.42681E-19
 -1      1879 9.69330E-05-2.88501E-05-2.91627E-05 1.28482E-06-6.15826E-19-9.14771E-19
 -1      1880 9.62959E-05-2.86172E-05-2.90097E-05 1.29347E-06-6.65438E-19-8.40945E-20
 -1      1881 9.71777E-05-2.88774E-05-2.92672E-05 1.54936E-06-9.68231E-19-8.68361E-19
 -1      1882 9.76341E-05-2.89627E-05-2.94084E-05 1.79787E-06-1.23778E-18-6.81175E-19
 -1      1883 9.67227E-05-2.86235E-05-2.91904E-05 1.80398E-06-8.30065E-19-5.25815E-19
 -1      1884 9.79668E-05-2.89933E-05-2.95552E-05 2.18986E-06-6.94230E-19-3.95056E-19
 -1      1885 9.86344E-05-2.91150E-05-2.97623E-05 2.56641E-06 2.43724E-19-5.86758E-19
 -1      1886 9.72762E-05-2.86182E-05-2.94314E-05 2.52592E-06-6.68336E-19 3.87525E-19
 -1      1887 9.90615E-05-2.91443E-05-2.99591E-05 3.12192E-06 9.26250E-19-9.20402E-19
 -1      1888 9.99968E-05-2.93154E-05-3.02484E-05 3.66253E-06 8.28263E-19-2.11288E-19
 -1      1889 9.80057E-05-2.85869E-05-2.97583E-05 3.56881E-06 5.26188E-19 1.02601E-19
 -1      1890 1.00535E-04-2.93387E-05-3.05081E-05 4.44143E-06 7.50938E-19-2.45870E-19
 -1      1891 1.01838E-04-2.95818E-05-3.09089E-05 5.20554E-06 1.28101E-18 1.10111E-19
 -1      1892 9.89328E-05-2.85147E-05-3.01870E-05 5.03034E-06 9.81049E-19 5.53690E-20
 -1      1893 1.02503E-04-2.95985E-05-3.12431E-05 6.27683E-06 1.10326E-18-2.69793E-19
 -1      1894 1.04298E-04-2.99551E-05-3.17884E-05 7.32584E-06 7.32723E-19-1.43487E-20
 -1      1895 1.00091E-04-2.83934E-05-3.07349E-05 7.04579E-06 1.13495E-18-2.16296E-19
 -1      1896 1.05108E-04-2.99860E-05-3.22005E-05 8.74695E-06 6.70268E-19-4.17580E-19
 -1      1897 1.07523E-04-3.05287E-05-3.29170E-05 1.01077E-05 8.03623E-19-5.78993E-20
 -1      1898 1.01518E-04-2.82521E-05-3.14063E-05 9.74632E-06 2.63940E-19-9.55667E-19
 -1      1899 1.08461E-04-3.06449E-05-3.33659E-05 1.17920E-05 6.28280E-19-4.69063E-19
 -1      1900 1.11491E-04-3.14949E-05-3.42100E-05 1.32638E-05 1.35591E-19-1.92594E-19
 -1      1901 1.03239E-04-2.82307E-05-3.21498E-05 1.30847E-05 2.61813E-19-7.52719E-19
 -1      1902 1.12835E-04-3.19318E-05-3.46882E-05 1.51940E-05 2.17449E-20-1.89332E-19
 -1      1903 1.16835E-04-3.34725E-05-3.56779E-05 1.65414E-05-2.35740E-19-2.40928E-19
 -1      1904 1.05487E-04-2.87612E-05-3.28980E-05 1.69594E-05-4.13071E-19-1.48380E-18
 -1      1905 1.18995E-04-3.47771E-05-3.60624E-05 1.80507E-05-1.40846E-19-3.54272E-19
 -1      1906 1.23777E-04-3.74850E-05-3.69830E-05 1.81550E-05 5.68094E-19 5.38660E-20
 -1      1907 1.08969E-04-3.09176E-05-3.34850E-05 2.07395E-05-8.39092E-21-6.68590E-19
 -1      1908 1.27774E-04-4.05785E-05-3.72102E-05 1.79101E-05 7.88455E-19 6.22741E-19
 -1      1909 1.32908E-04-4.48276E-05-3.78233E-05 1.50078E-05 1.34509E-18 4.25025E-19
 -1      1910 1.15087E-04-3.65452E-05-3.37187E-05 2.24599E-05 9.09078E-19-9.57677E-20
 -1      1911 1.40362E-04-5.04567E-05-3.81936E-05 1.05698E-05 5.97211E-19 4.45050E-19
 -1      1912 1.44495E-04-5.47182E-05-3.86101E-05 2.98933E-06 1.87088E-19 7.59249E-19
 -1      1913 1.26583E-04-4.78520E-05-3.38730E-05 1.88308E-05 7.13308E-19-6.64471E-19
 -1      1914 1.54314E-04-5.98669E-05-4.03104E-05-6.26270E-06 1.28114E-20 1.17288E-18
 -1      1915 1.54775E-04-5.89449E-05-4.13268E-05-1.54874E-05 1.99212E-19 9.02752E-19
 -1      1916 1.43807E-04-6.09244E-05-3.57442E-05 5.80009E-06 6.47504E-19 1.45372E-19
 -1      1917 1.58477E-04-4.00193E-05-5.13923E-05-2.70430E-05 7.52801E-19 9.74617E-19
 -1      1918 1.53643E-04-3.18428E-05-5.27132E-05-1.97440E-05 3.16367E-19-1.90159E-19
 -1      1919 1.51198E-04-2.60580E-05-5.43018E-05-8.54110E-06-3.57024E-19-3.95545E-19
 -1      1920 1.52299E-04-2.67359E-05-5.45741E-05 6.50521E-06-1.10877E-18-9.07913E-20
 -1      1921 1.52721E-04-3.17054E-05-5.23622E-05 1.92830E-05-3.01840E-18-1.06409E-18
 -1      1922 1.58889E-04-4.34776E-05-5.01911E-05 2.66345E-05-3.29242E-18-8.55821E-19
 -1      1923 1.55341E-04-5.13596E-05-4.50047E-05 2.43397E-05-1.97359E-18-1.25276E-18
 -1      1924 1.58869E-04-5.91955E-05-4.29664E-05 1.79305E-05-1.07285E-18-1.31650E-18
 -1      1925 1.49342E-04-5.74179E-05-3.95295E-05 6.82163E-06-1.45213E-18-1.37059E-18
 -1      1926 1.46828E-04-5.55489E-05-3.88696E-05-2.52255E-06-8.61591E-19-2.00752E-18
 -1      1927 1.55331E-04-6.38086E-05-3.95925E-05 6.87580E-06-1.53387E-18-2.14882E-18
 -1      1928 1.37979E-04-4.99638E-05-3.78572E-05-9.98661E-06 6.20875E-19-1.99849E-18
 -1      1929 1.33195E-04-4.55352E-05-3.73264E-05-1.53465E-05 8.99258E-19-1.10370E-18
 -1      1930 1.36294E-04-5.53275E-05-3.49160E-05-1.22228E-05-4.19175E-19 9.98665E-19
 -1      1931 1.27096E-04-4.10677E-05-3.69356E-05-1.81520E-05 1.38913E-18 2.03275E-19
 -1      1932 1.21637E-04-3.73219E-05-3.60393E-05-1.97687E-05 2.15359E-18 7.26145E-19
 -1      1933 1.21296E-04-4.27156E-05-3.37799E-05-2.18744E-05 2.43453E-18 1.74881E-18
 -1      1934 1.18088E-04-3.50282E-05-3.55931E-05-1.93902E-05 1.97133E-18 2.04333E-19
 -1      1935 1.13097E-04-3.26148E-05-3.44778E-05-1.87367E-05 1.52950E-18 2.02944E-19
 -1      1936 1.11597E-04-3.39256E-05-3.33393E-05-2.36969E-05 1.94090E-18 5.22094E-19
 -1      1937 1.10867E-04-3.15823E-05-3.39201E-05-1.71020E-05 1.12546E-18 4.60508E-19
 -1      1938 1.06660E-04-3.00482E-05-3.28397E-05-1.55536E-05 3.65058E-19 1.24518E-18
 -1      1939 1.05773E-04-2.96136E-05-3.26701E-05-2.13254E-05 1.47951E-18 4.07423E-19
 -1      1940 1.05056E-04-2.95010E-05-3.22956E-05-1.35960E-05 3.59989E-20 1.58119E-18
 -1      1941 1.01708E-04-2.83938E-05-3.14171E-05-1.17605E-05 7.95615E-19 1.63781E-18
 -1      1942 1.01852E-04-2.76841E-05-3.18280E-05-1.74466E-05 5.33416E-19 1.13000E-18
 -1      1943 1.00408E-04-2.79529E-05-3.09858E-05-9.71552E-06 9.12612E-19 2.00225E-18
 -1      1944 9.79088E-05-2.69843E-05-3.03771E-05-7.77295E-06 9.23378E-19 1.01933E-18
 -1      1945 9.88067E-05-2.64617E-05-3.10467E-05-1.30547E-05 9.84907E-19 9.01642E-19
 -1      1946 9.32290E-05-2.73806E-05-2.81947E-05 1.59698E-06 5.16452E-19 2.72960E-18
 -1      1947 9.43861E-05-2.74544E-05-2.86315E-05 2.66770E-06 6.18122E-19 2.98770E-18
 -1      1948 9.52321E-05-2.70021E-05-2.92199E-05 4.06222E-06 7.80369E-19 2.33317E-18
 -1      1949 5.56811E-05-4.06812E-05-7.00771E-06 4.35678E-05 1.43530E-18 5.62393E-18
 -1      1950 4.18536E-05-4.42991E-05-5.04183E-07 3.58396E-05 4.17164E-19 1.93399E-18
 -1      1951 9.21729E-05-2.73575E-05-2.77546E-05 3.40716E-07 3.75461E-19 2.50012E-18
 -1      1952 9.26510E-05-2.73767E-05-2.79265E-05 8.91323E-07 3.90323E-19 2.58593E-18
 -1      1953 9.36377E-05-2.73531E-05-2.84039E-05 1.60578E-06 5.00596E-19 1.99488E-18
 -1      1954 9.17970E-05-2.73908E-05-2.75873E-05-3.06867E-07 3.38795E-19 2.20082E-18
 -1      1955 9.19101E-05-2.73630E-05-2.76338E-05-1.41924E-08 2.95409E-19 2.39666E-18
 -1      1956 9.28114E-05-2.74893E-05-2.80039E-05 2.73966E-07 4.23885E-19 1.81462E-18
 -1      1957 9.18209E-05-2.74810E-05-2.75643E-05-6.32914E-07 8.25328E-20 1.88835E-18
 -1      1958 9.17326E-05-2.74188E-05-2.75478E-05-4.80088E-07 1.56072E-19 2.07449E-18
 -1      1959 9.24913E-05-2.75792E-05-2.78299E-05-4.23256E-07 2.39042E-19 1.33949E-18
 -1      1960 9.20661E-05-2.76034E-05-2.76199E-05-7.70456E-07 3.50778E-19 1.67644E-18
 -1      1961 9.18747E-05-2.75244E-05-2.75712E-05-6.99320E-07 1.80919E-19 1.85656E-18
 -1      1962 9.24956E-05-2.76847E-05-2.77844E-05-7.68630E-07 2.43985E-19 1.14232E-18
 -1      1963 9.24197E-05-2.77379E-05-2.77157E-05-7.97250E-07 4.39944E-19 1.57372E-18
 -1      1964 9.21840E-05-2.76543E-05-2.76522E-05-7.75177E-07 3.95318E-19 1.80580E-18
 -1      1965 9.26808E-05-2.78004E-05-2.78119E-05-9.09069E-07 3.49464E-19 1.19540E-18
 -1      1966 9.28120E-05-2.78711E-05-2.78280E-05-7.60220E-07 3.83686E-19 1.41295E-18
 -1      1967 9.25669E-05-2.77904E-05-2.77604E-05-7.67267E-07 4.13396E-19 1.51996E-18
 -1      1968 9.29579E-05-2.79173E-05-2.78787E-05-9.28663E-07 5.51229E-19 1.22327E-18
 -1      1969 9.32012E-05-2.79951E-05-2.79427E-05-6.88960E-07-6.90985E-21 1.63333E-18
 -1      1970 9.29667E-05-2.79213E-05-2.78770E-05-7.12341E-07 2.48336E-19 1.36292E-18
 -1      1971 9.32702E-05-2.80285E-05-2.79635E-05-8.78877E-07 2.62458E-19 1.19430E-18
 -1      1972 9.35634E-05-2.81056E-05-2.80513E-05-6.02637E-07 2.57938E-19 1.35446E-18
 -1      1973 9.33504E-05-2.80407E-05-2.79909E-05-6.33943E-07 2.38277E-19 1.60314E-18
 -1      1974 9.35828E-05-2.81293E-05-2.80533E-05-7.92597E-07 2.08660E-19 1.08980E-18
 -1      1975 9.38869E-05-2.82011E-05-2.81496E-05-5.13732E-07 6.81394E-19 8.68092E-19
 -1      1976 9.37000E-05-2.81456E-05-2.80962E-05-5.47387E-07 4.23531E-19 1.04903E-18
 -1      1977 9.38758E-05-2.82174E-05-2.81404E-05-6.91254E-07 6.16136E-19 5.77619E-19
 -1      1978 9.41680E-05-2.82816E-05-2.82359E-05-4.30283E-07 7.39293E-19 6.06701E-19
 -1      1979 9.40079E-05-2.82352E-05-2.81898E-05-4.62610E-07 6.71470E-19 8.66940E-19
 -1      1980 9.41393E-05-2.82924E-05-2.82207E-05-5.88835E-07 7.71709E-19 3.57747E-19
 -1      1981 9.44085E-05-2.83487E-05-2.83105E-05-3.57366E-07 6.70198E-20 6.23127E-19
 -1      1982 9.42732E-05-2.83103E-05-2.82712E-05-3.85964E-07 2.03735E-19 7.79686E-19
 -1      1983 9.43702E-05-2.83550E-05-2.82926E-05-4.94362E-07 1.89323E-19 6.48620E-19
 -1      1984 9.46136E-05-2.84043E-05-2.83747E-05-2.98126E-07-5.12773E-19 1.02687E-18
 -1      1985 9.44995E-05-2.83726E-05-2.83413E-05-3.21428E-07-2.82684E-19 6.37950E-19
 -1      1986 9.45700E-05-2.84067E-05-2.83559E-05-4.13561E-07-2.12993E-19 3.47093E-19
 -1      1987 9.47908E-05-2.84510E-05-2.84307E-05-2.54488E-07 2.63520E-19 1.05426E-18
 -1      1988 9.46932E-05-2.84244E-05-2.84018E-05-2.71459E-07-7.51078E-20 1.16987E-18
 -1      1989 9.47433E-05-2.84495E-05-2.84118E-05-3.50014E-07-1.98705E-19 5.98772E-19
 -1      1990 9.49489E-05-2.84918E-05-2.84810E-05-2.27627E-07 4.94537E-20 1.04617E-18
 -1      1991 9.48625E-05-2.84686E-05-2.84552E-05-2.37556E-07 1.14340E-19 9.07255E-19
 -1      1992 9.48965E-05-2.84857E-05-2.84620E-05-3.05942E-07 3.86421E-19 9.53129E-19
 -1      1993 9.50978E-05-2.85296E-05-2.85285E-05-2.18220E-07 2.66790E-19 1.51399E-18
 -1      1994 9.50169E-05-2.85080E-05-2.85041E-05-2.20616E-07 1.54615E-19 1.50198E-18
 -1      1995 9.50375E-05-2.85179E-05-2.85087E-05-2.82691E-07-3.81252E-20 1.34727E-18
 -1      1996 9.52477E-05-2.85677E-05-2.85763E-05-2.26475E-07-5.94335E-19 7.73706E-19
 -1      1997 9.51664E-05-2.85458E-05-2.85517E-05-2.21054E-07-9.51029E-20 1.25042E-18
 -1      1998 9.51749E-05-2.85489E-05-2.85544E-05-2.80940E-07 1.10018E-19 1.08728E-18
 -1      1999 9.54090E-05-2.86096E-05-2.86273E-05-2.51914E-07-8.38374E-20 7.55456E-19
 -1      2000 9.53214E-05-2.85855E-05-2.86008E-05-2.38706E-07-3.41539E-19 8.55329E-19
 -1      2001 9.53175E-05-2.85818E-05-2.86016E-05-3.00619E-07-2.45095E-19 5.18239E-19
 -1      2002 9.55912E-05-2.86588E-05-2.86843E-05-2.92873E-07 8.69556E-19 3.70736E-19
 -1      2003 9.54920E-05-2.86305E-05-2.86544E-05-2.72460E-07 2.04598E-19 5.88701E-19
 -1      2004 9.54743E-05-2.86199E-05-2.86526E-05-3.40502E-07 2.66213E-19 3.71446E-19
 -1      2005 9.58023E-05-2.87184E-05-2.87492E-05-3.45660E-07 1.54747E-18 5.65256E-19
 -1      2006 9.56873E-05-2.86844E-05-2.87148E-05-3.19583E-07 1.24801E-18 7.67796E-19
 -1      2007 9.56534E-05-2.86667E-05-2.87096E-05-3.97429E-07 1.15837E-18 3.71311E-19
 -1      2008 9.60471E-05-2.87917E-05-2.88230E-05-4.03354E-07 1.70414E-19 3.90704E-19
 -1      2009 9.59138E-05-2.87505E-05-2.87836E-05-3.74697E-07 1.13573E-18 8.23011E-19
 -1      2010 9.58612E-05-2.87259E-05-2.87734E-05-4.65100E-07 1.05311E-18 8.05698E-19
 -1      2011 9.63246E-05-2.88804E-05-2.89045E-05-4.54265E-07-1.73958E-18 4.83005E-19
 -1      2012 9.61744E-05-2.88315E-05-2.88607E-05-4.28420E-07-1.07218E-18 2.63054E-19
 -1      2013 9.61006E-05-2.88010E-05-2.88439E-05-5.32456E-07-6.65953E-19 1.04404E-18
 -1      2014 9.66255E-05-2.89846E-05-2.89898E-05-4.80238E-07-1.72881E-18 1.49338E-18
 -1      2015 9.64647E-05-2.89289E-05-2.89439E-05-4.65758E-07-1.58472E-18 9.46526E-19
 -1      2016 9.63694E-05-2.88952E-05-2.89186E-05-5.81752E-07-1.73039E-18 1.74903E-18
 -1      2017 9.69275E-05-2.91011E-05-2.90708E-05-4.55216E-07-2.57112E-19 1.61365E-18
 -1      2018 9.67702E-05-2.90417E-05-2.90274E-05-4.64571E-07-1.07680E-18 1.54541E-18
 -1      2019 9.66567E-05-2.90096E-05-2.89924E-05-5.86663E-07-1.29729E-18 1.55254E-18
 -1      2020 9.71914E-05-2.92212E-05-2.91347E-05-3.44927E-07 9.04016E-19 2.47686E-18
 -1      2021 9.70619E-05-2.91646E-05-2.91011E-05-3.94741E-07 2.52559E-19 1.88591E-18
 -1      2022 9.69400E-05-2.91422E-05-2.90562E-05-5.11168E-07 2.72497E-19 1.45049E-18
 -1      2023 9.73571E-05-2.93284E-05-2.91624E-05-1.09053E-07-5.36509E-21 1.85816E-18
 -1      2024 9.72917E-05-2.92857E-05-2.91495E-05-2.19149E-07 5.95931E-19 2.19068E-18
 -1      2025 9.71806E-05-2.92852E-05-2.90968E-05-3.10467E-07 7.69529E-19 2.40059E-18
 -1      2026 9.73418E-05-2.93959E-05-2.91298E-05 2.92201E-07-3.43368E-19 2.23179E-18
 -1      2027 9.73893E-05-2.93837E-05-2.91516E-05 1.01900E-07-5.95039E-19 2.24877E-18
 -1      2028 9.73210E-05-2.94211E-05-2.90967E-05 6.41438E-08-5.64651E-19 2.04670E-18
 -1      2029 9.70436E-05-2.93843E-05-2.90094E-05 8.85213E-07-3.16976E-21 2.97560E-18
 -1      2030 9.72622E-05-2.94250E-05-2.90818E-05 6.00904E-07 7.93729E-20 2.79202E-18
 -1      2031 9.72827E-05-2.95191E-05-2.90356E-05 6.54146E-07-1.97357E-19 2.92083E-18
 -1      2032 9.63531E-05-2.92428E-05-2.87753E-05 1.66303E-06-3.49727E-19 2.66031E-18
 -1      2033 9.68022E-05-2.93630E-05-2.89133E-05 1.28674E-06-4.82839E-19 2.64591E-18
 -1      2034 9.69706E-05-2.95318E-05-2.88931E-05 1.47470E-06-2.04183E-19 3.01347E-18
 -1      2035 9.51776E-05-2.89159E-05-2.84107E-05 2.56123E-06 1.18518E-18 1.36193E-18
 -1      2036 9.59028E-05-2.91412E-05-2.86239E-05 2.12265E-06 3.67946E-19 2.25175E-18
 -1      2037 9.62853E-05-2.93969E-05-2.86538E-05 2.48834E-06 6.52091E-19 1.85831E-18
 -1      2038 9.34783E-05-2.83596E-05-2.79175E-05 3.43878E-06 8.17867E-20 2.71797E-18
 -1      2039 9.44900E-05-2.87052E-05-2.82044E-05 3.00459E-06 7.71402E-19 2.14918E-18
 -1      2040 9.51477E-05-2.90470E-05-2.83139E-05 3.57793E-06 5.09676E-19 2.11609E-18
 -1      2041 9.13158E-05-2.75679E-05-2.73248E-05 4.08068E-06-3.83315E-19 2.92353E-18
 -1      2042 9.25660E-05-2.80255E-05-2.76678E-05 3.75315E-06 1.74254E-19 2.95515E-18
 -1      2043 9.35388E-05-2.84341E-05-2.78871E-05 4.53345E-06 1.59174E-19 2.81831E-18
 -1      2044 8.88879E-05-2.66030E-05-2.66924E-05 4.24092E-06 1.95160E-19 2.62048E-18
 -1      2045 9.02549E-05-2.71284E-05-2.70556E-05 4.13677E-06 1.74757E-19 2.68957E-18
 -1      2046 9.15456E-05-2.75663E-05-2.74087E-05 5.07467E-06 3.60395E-19 2.73564E-18
 -1      2047 8.65328E-05-2.56115E-05-2.61044E-05 3.73066E-06 1.05682E-18 9.12274E-19
 -1      2048 8.78270E-05-2.61222E-05-2.64378E-05 3.93852E-06 7.54139E-19 1.74621E-18
 -1      2049 8.93935E-05-2.65420E-05-2.69333E-05 4.92629E-06 1.22881E-18 2.64953E-18
 -1      2050 8.46701E-05-2.48014E-05-2.56527E-05 2.52348E-06 7.96112E-20 3.17404E-19
 -1      2051 8.56702E-05-2.51934E-05-2.59024E-05 3.05468E-06 2.24490E-19 5.82805E-19
 -1      2052 8.74336E-05-2.55560E-05-2.65258E-05 3.93700E-06 7.30503E-19 1.27307E-18
 -1      2053 8.36795E-05-2.43752E-05-2.54125E-05 8.15867E-07 1.65221E-18 2.74021E-19
 -1      2054 8.41947E-05-2.45570E-05-2.55354E-05 1.57855E-06 6.45697E-19 4.20031E-19
 -1      2055 8.60585E-05-2.48501E-05-2.62471E-05 2.18989E-06 2.12182E-19 1.09040E-18
 -1      2056 8.37612E-05-2.44431E-05-2.54203E-05-1.01119E-06-7.64348E-20-1.99380E-19
 -1      2057 8.36968E-05-2.43737E-05-2.53974E-05-1.91422E-07 9.37824E-19-1.80280E-19
 -1      2058 8.55679E-05-2.46198E-05-2.61386E-05 2.71180E-08 7.55196E-19 6.19107E-19
 -1      2059 8.48518E-05-2.49686E-05-2.56625E-05-2.52985E-06-9.72586E-19 4.88622E-19
 -1      2060 8.42456E-05-2.46769E-05-2.55052E-05-1.84483E-06-5.15009E-19-2.25417E-19
 -1      2061 8.60456E-05-2.49221E-05-2.62107E-05-2.05125E-06-4.58483E-19 1.04753E-18
 -1      2062 8.66481E-05-2.57841E-05-2.60806E-05-3.43436E-06-2.48235E-19 9.20219E-19
 -1      2063 8.56561E-05-2.53556E-05-2.58263E-05-3.01781E-06-2.36865E-19 1.64884E-18
 -1      2064 8.73203E-05-2.56445E-05-2.64407E-05-3.57928E-06-6.24467E-19 1.30404E-18
 -1      2065 8.87310E-05-2.66694E-05-2.65908E-05-3.64309E-06-2.46393E-18 5.16631E-19
 -1      2066 8.75688E-05-2.62088E-05-2.62903E-05-3.52859E-06-1.38719E-18 4.14590E-19
 -1      2067 8.90427E-05-2.65597E-05-2.67800E-05-4.30278E-06-1.18672E-18 1.74287E-18
 -1      2068 9.07136E-05-2.74395E-05-2.71080E-05-3.28750E-06 9.62598E-19 3.84861E-19
 -1      2069 8.95847E-05-2.70328E-05-2.68106E-05-3.41623E-06-1.61293E-18-2.39336E-19
 -1      2070 9.08258E-05-2.74286E-05-2.71678E-05-4.24184E-06-9.75433E-19 4.17819E-19
 -1      2071 9.23435E-05-2.79962E-05-2.75672E-05-2.61740E-06 1.38731E-18 1.33625E-18
 -1      2072 9.13874E-05-2.76891E-05-2.73086E-05-2.88075E-06 1.82155E-18 1.90529E-18
 -1      2073 9.23719E-05-2.80878E-05-2.75470E-05-3.62695E-06 9.86856E-19 2.16297E-18
 -1      2074 9.35298E-05-2.83304E-05-2.79334E-05-1.88654E-06 9.50986E-19 1.78926E-18
 -1      2075 9.28043E-05-2.81283E-05-2.77308E-05-2.17557E-06 8.65742E-19 2.26441E-18
 -1      2076 9.35316E-05-2.84833E-05-2.78759E-05-2.76864E-06 8.66224E-19 4.06707E-18
 -1      2077 9.43080E-05-2.84972E-05-2.81979E-05-1.27309E-06-9.60223E-19 3.27514E-18
 -1      2078 9.38040E-05-2.83747E-05-2.80533E-05-1.51176E-06-4.71112E-19 2.43324E-18
 -1      2079 9.42937E-05-2.86516E-05-2.81319E-05-1.93499E-06-4.31947E-19 3.82942E-18
 -1      2080 9.47869E-05-2.85914E-05-2.83667E-05-8.21341E-07-1.26535E-18 6.12665E-18
 -1      2081 9.44647E-05-2.85099E-05-2.82752E-05-9.97324E-07-9.96045E-19 4.99227E-18
 -1      2082 9.47508E-05-2.87015E-05-2.83082E-05-1.28041E-06-1.61949E-18 6.27601E-18
 -1      2083 9.50689E-05-2.86907E-05-2.84471E-05-5.28488E-07 5.29106E-19 6.19697E-18
 -1      2084 9.48624E-05-2.86210E-05-2.83945E-05-6.97474E-07-2.86330E-19 5.95107E-18
 -1      2085 9.50164E-05-2.87529E-05-2.83997E-05-8.83752E-07-8.22816E-19 8.33505E-18
 -1      2086 9.51729E-05-2.88143E-05-2.84314E-05-6.26118E-07 1.47037E-18 7.16606E-18
 -1      2087 9.61633E-05-2.93202E-05-2.86117E-05 7.53316E-07 2.45675E-18-3.20453E-19
 -1      2088 9.60653E-05-2.94819E-05-2.85310E-05 2.30270E-07 2.55730E-18-1.37795E-18
 -1      2089 9.58619E-05-2.93821E-05-2.84659E-05-2.73677E-07 2.09907E-18-1.98276E-18
 -1      2090 9.56846E-05-2.93047E-05-2.84481E-05-5.21799E-07 1.44317E-18 6.19356E-19
 -1      2091 9.62675E-05-2.96144E-05-2.85787E-05-2.10908E-09 8.16895E-19-1.04174E-18
 -1      2092 9.54990E-05-2.91489E-05-2.84202E-05-6.78628E-07 1.41557E-18 2.62672E-18
 -1      2093 9.53163E-05-2.89693E-05-2.84340E-05-6.76262E-07 7.92502E-19 4.97288E-18
 -1      2094 9.52716E-05-2.89447E-05-2.84286E-05-8.07833E-07-3.43628E-19 4.96276E-18
 -1      2095 9.57541E-05-2.93133E-05-2.84751E-05-6.95273E-07-9.51828E-19 1.88106E-18
 -1      2096 9.61965E-05-2.86881E-05-2.88943E-05 2.26129E-06 6.52870E-19-4.66098E-18
 -1      2097 9.62603E-05-2.92045E-05-2.87257E-05 1.54767E-06 1.54540E-18-2.91483E-18
 -1      2098 9.67227E-05-2.96488E-05-2.87652E-05 1.44979E-06 6.25105E-20-2.56128E-18
 -1      2099 9.58297E-05-2.72877E-05-2.93438E-05 4.06842E-06 1.30864E-18-2.84671E-18
 -1      2100 9.61259E-05-2.82571E-05-2.90684E-05 3.26349E-06 1.37193E-18-2.36223E-18
 -1      2101 9.68447E-05-2.91373E-05-2.90428E-05 3.45246E-06-1.99783E-20-3.10840E-18
 -1      2102 9.49417E-05-2.50552E-05-2.99390E-05 5.74304E-06 1.98532E-18-2.33730E-18
 -1      2103 9.55144E-05-2.64620E-05-2.95720E-05 5.06326E-06 1.78871E-18-3.04101E-18
 -1      2104 9.64353E-05-2.78773E-05-2.94117E-05 5.69470E-06 8.99673E-19-1.95742E-18
 -1      2105 9.35164E-05-2.21261E-05-3.06132E-05 6.72278E-06 5.45218E-19-7.63005E-19
 -1      2106 9.43400E-05-2.38266E-05-3.01988E-05 6.42965E-06 1.51539E-18-1.10823E-18
 -1      2107 9.53330E-05-2.57676E-05-2.98408E-05 7.60385E-06 1.54822E-18-2.35259E-18
 -1      2108 9.17233E-05-1.89099E-05-3.12561E-05 6.41911E-06-9.45408E-19-2.80379E-18
 -1      2109 9.26677E-05-2.06115E-05-3.08675E-05 6.75795E-06-4.13293E-19-1.69261E-18
 -1      2110 9.35231E-05-2.29096E-05-3.02768E-05 8.45819E-06-8.31409E-19-1.90807E-18
 -1      2111 8.99711E-05-1.60906E-05-3.17371E-05 4.46178E-06-6.69096E-19 3.35990E-18
 -1      2112 9.07944E-05-1.73910E-05-3.14610E-05 5.54380E-06-1.23456E-18 2.74161E-19
 -1      2113 9.12680E-05-1.97170E-05-3.06535E-05 7.56569E-06-1.91954E-18-1.46119E-18
 -1      2114 8.88451E-05-1.44915E-05-3.19435E-05 1.05590E-06-1.24945E-18-1.45744E-18
 -1      2115 8.92527E-05-1.49906E-05-3.18529E-05 2.70242E-06-1.32399E-18 1.41044E-18
 -1      2116 8.91616E-05-1.69412E-05-3.09108E-05 4.63787E-06-2.48470E-18 1.97621E-18
 -1      2117 8.88309E-05-1.46752E-05-3.18325E-05-3.15588E-06 4.47968E-19 7.80528E-19
 -1      2118 8.86108E-05-1.41589E-05-3.19584E-05-1.29552E-06-3.42076E-19-6.71558E-19
 -1      2119 8.79480E-05-1.54090E-05-3.10238E-05 3.48113E-08-1.16390E-18-5.62073E-19
 -1      2120 9.01773E-05-1.68563E-05-3.14293E-05-6.76983E-06 2.16476E-19-1.85165E-18
 -1      2121 8.93114E-05-1.53808E-05-3.17472E-05-5.37259E-06 4.63353E-19-8.61082E-19
 -1      2122 8.83145E-05-1.58085E-05-3.09981E-05-5.17005E-06-6.09091E-19 8.55338E-20
 -1      2123 9.27338E-05-2.06321E-05-3.08605E-05-8.63885E-06-2.40544E-19-1.33548E-18
 -1      2124 9.12725E-05-1.84077E-05-3.12888E-05-8.22400E-06-2.26068E-19-1.42344E-18
 -1      2125 9.00399E-05-1.80716E-05-3.08429E-05-9.17765E-06 7.02352E-19-2.52694E-18
 -1      2126 9.54777E-05-4.37221E-05-2.20805E-05 4.80767E-05 1.44334E-18 3.07049E-18
 -1      2127 7.69237E-05-4.64955E-05-1.40863E-05 4.33490E-05 9.75782E-19 4.25359E-18
 -1      2128 9.67229E-05-2.67978E-05-2.99670E-05-4.92537E-06 6.08864E-19 1.70838E-18
 -1      2129 9.99106E-05-2.24524E-05-3.29189E-05-1.46671E-05-1.04339E-18-8.48621E-20
 -1      2130 1.26942E-05-4.00527E-05 1.00964E-05 1.17127E-05-4.74338E-20 3.06414E-18
 -1      2131 1.15493E-05-3.96769E-05 1.04674E-05 2.79437E-06-3.66051E-19 1.17229E-18
 -1      2132 8.72678E-05-8.73218E-06-3.37489E-05-1.05300E-05-3.97086E-19-1.60444E-18
 -1      2133 8.79830E-05-9.26738E-06-3.38211E-05-1.21105E-05-5.51041E-19-1.47490E-18
 -1      2134 9.04803E-05-1.30387E-05-3.32182E-05-1.18182E-05-6.82586E-19-1.30841E-18
 -1      2135 8.86751E-05-1.10612E-05-3.32962E-05-9.39355E-06-3.43588E-19-1.50422E-18
 -1      2136 1.29039E-04-4.16585E-05-3.69539E-05 4.46749E-05 2.65248E-18 2.23490E-18
 -1      2137 1.08694E-04-4.41616E-05-2.83928E-05 4.22690E-05 1.78978E-18 2.84010E-18
 -1      2138 1.14987E-04-5.55568E-05-2.53020E-05 4.20056E-05 9.75782E-19 2.83502E-18
 -1      2139 1.63773E-04-3.73414E-05-5.33119E-05 3.21492E-05 3.00840E-18 7.83505E-19
 -1      2140 1.44455E-04-3.76640E-05-4.56820E-05 3.54745E-05 2.60590E-18 1.39040E-18
 -1      2141 1.83521E-04-3.03552E-05-6.43705E-05 1.58375E-05 1.89206E-18 7.75035E-20
 -1      2142 1.69552E-04-3.09406E-05-5.89784E-05 2.03792E-05 2.97796E-18 7.38613E-19
 -1      2143 1.91926E-04-2.50212E-05-7.03712E-05 3.43105E-06 1.19516E-18 3.82647E-19
 -1      2144 1.87948E-04-2.61808E-05-6.83245E-05 1.25737E-05 1.08928E-18 6.94567E-20
 -1      2145 1.88934E-04-2.46475E-05-6.93615E-05-8.81192E-06 2.42675E-18-6.18758E-19
 -1      2146 1.89895E-04-2.33002E-05-7.03559E-05-3.20104E-07 1.69322E-18-9.50397E-19
 -1      2147 1.78041E-04-2.82542E-05-6.34713E-05-2.12973E-05 3.07748E-18-5.37866E-19
 -1      2148 1.89953E-04-2.85351E-05-6.78083E-05-1.38729E-05 2.79309E-18 1.43572E-19
 -1      2149 1.68685E-04-1.61050E-05-6.41259E-05-1.29008E-06 2.59065E-18-1.01940E-18
 -1      2150 1.53400E-04-3.66508E-05-4.98347E-05-2.66415E-05 3.24080E-18-4.70950E-19
 -1      2151 1.72306E-04-3.39683E-05-5.77007E-05-2.73994E-05 3.06854E-18-9.72817E-19
 -1      2152 1.17131E-04-4.18354E-05-3.26379E-05-4.16630E-05 2.68467E-18-3.19331E-18
 -1      2153 1.38812E-04-4.33611E-05-4.09592E-05-3.75311E-05 2.93963E-18-2.38863E-19
 -1      2154 8.06844E-05-4.28121E-05-1.72555E-05-4.40713E-05 1.23032E-18-4.30272E-18
 -1      2155 9.99735E-05-4.00562E-05-2.55391E-05-4.89854E-05 1.72329E-18-5.60948E-18
 -1      2156 4.91886E-05-4.18262E-05-4.06773E-06-4.12645E-05-1.18076E-18-2.18672E-18
 -1      2157 6.42249E-05-3.97513E-05-1.08270E-05-4.67605E-05 3.82859E-19-2.57117E-18
 -1      2158 1.98188E-05-3.86008E-05 6.54865E-06-2.43002E-05-1.87766E-18-1.42598E-18
 -1      2159 2.85497E-05-3.40593E-05 1.75432E-06-3.50187E-05-1.50687E-18-1.84441E-18
 -1      2160 1.09584E-05-3.77171E-05 9.96807E-06-6.89472E-06-1.91167E-18-2.55804E-18
 -1      2161 1.29540E-05-3.65171E-05 8.90755E-06-1.55501E-05-1.57866E-18-2.43437E-18
 -1      2162 1.84527E-05-2.62566E-05 2.77812E-06-2.47135E-05-1.96596E-18-1.96850E-18
 -1      2163 2.07009E-05-3.78171E-05 6.21207E-06 1.48958E-05-2.43183E-18-3.56686E-18
 -1      2164 1.43656E-05-3.88600E-05 8.90477E-06 5.29995E-06-1.67713E-18-2.74735E-18
 -1      2165 4.89788E-05-4.51114E-05-2.80403E-06 2.98198E-05-2.94344E-18-3.01448E-18
 -1      2166 3.48649E-05-4.50191E-05 2.62508E-06 2.27162E-05-2.72109E-18-3.60116E-18
 -1      2167 9.03923E-05-5.20861E-05-1.70920E-05 3.64370E-05-2.88838E-18-2.66286E-18
 -1      2168 6.81931E-05-5.19080E-05-8.87646E-06 3.03882E-05-3.30512E-18-2.78536E-18
 -1      2169 1.39614E-04-5.86121E-05-3.48058E-05 2.93461E-05-1.89735E-18-4.33173E-18
 -1      2170 1.13788E-04-5.78164E-05-2.54446E-05 2.84764E-05-2.14892E-18-3.85654E-18
 -1      2171 1.79981E-04-5.82716E-05-5.14913E-05 1.01959E-05-1.33016E-18-3.53213E-18
 -1      2172 1.57166E-04-5.87070E-05-4.27225E-05 1.46553E-05-1.88973E-18-3.49825E-18
 -1      2173 2.06495E-04-4.62982E-05-6.63926E-05 4.10118E-08-9.89123E-19-4.42109E-18
 -1      2174 1.87371E-04-4.75891E-05-5.91600E-05 1.69166E-06-8.00446E-19-4.47572E-18
 -1      2175 2.11561E-04-3.69997E-05-7.26453E-05-4.38539E-06-1.78682E-18-4.67541E-18
 -1      2176 2.06127E-04-3.77922E-05-7.00562E-05-1.38099E-06-1.11724E-18-4.23898E-18
 -1      2177 1.99266E-04-3.22434E-05-6.96762E-05-1.03080E-06-2.08794E-18-4.36095E-18
 -1      2178 2.05295E-04-3.43159E-05-7.11552E-05-1.00092E-06-2.26581E-18-4.42299E-18
 -1      2179 1.92427E-04-4.62655E-05-6.15140E-05-5.83365E-06-2.13601E-18-4.74338E-18
 -1      2180 2.06642E-04-4.37438E-05-6.76567E-05-4.99459E-07-3.16536E-18-6.28541E-18
 -1      2181 1.62460E-04-5.40602E-05-4.68159E-05-1.97238E-05-1.85161E-18-2.01594E-18
 -1      2182 1.86478E-04-5.34270E-05-5.54810E-05-1.70826E-05-1.46770E-18-3.50333E-18
 -1      2183 1.24130E-04-5.82866E-05-2.92650E-05-2.82653E-05-5.26854E-19 8.76679E-19
 -1      2184 1.49147E-04-5.76169E-05-3.88902E-05-2.95269E-05-3.32884E-19-6.85250E-19
 -1      2185 7.48044E-05-5.31207E-05-1.10452E-05-3.32283E-05 5.23466E-19 2.53242E-18
 -1      2186 9.92468E-05-5.39610E-05-1.99747E-05-3.87521E-05-3.96411E-19 3.34811E-18
 -1      2187 3.73588E-05-4.71659E-05 2.20702E-06-2.45356E-05-6.74238E-19-2.25967E-18
 -1      2188 5.22484E-05-4.56243E-05-3.99921E-06-3.29487E-05-4.32410E-19-8.99073E-19
 -1      2189 1.58446E-05-4.16107E-05 9.28004E-06-9.09034E-06-3.73753E-19 2.02017E-19
 -1      2190 2.30332E-05-4.21124E-05 6.59003E-06-1.75099E-05-1.10792E-18-6.93296E-19
 -1      2191 2.68418E-05-3.92483E-05 4.20913E-06 3.00924E-05 1.12190E-18-1.84653E-19
 -1      2192 1.93351E-05-4.19306E-05 7.98174E-06 2.16153E-05 3.45378E-19 1.44334E-18
 -1      2193 9.64884E-05-2.57209E-05-3.03083E-05-7.70758E-06 5.81793E-19 1.60159E-18
 -1      2194 1.50507E-05-3.01803E-05 5.56256E-06-5.76903E-06-3.78412E-19 4.41728E-19
 -1      2195 4.10935E-05-3.83250E-05-1.79829E-06 4.07891E-05 1.38363E-18 1.66611E-18
 -1      2196 9.72454E-05-2.42741E-05-3.13588E-05-1.01250E-05-1.03515E-18-3.13296E-19
 -1      2197 9.63744E-05-2.30285E-05-3.14977E-05-1.05119E-05-1.05220E-18-5.31818E-19
 -1      2198 1.61891E-04-5.61769E-05-4.56227E-05-2.49539E-05 9.30254E-19 8.06905E-19
 -1      2199 1.57521E-04-4.81552E-05-4.73815E-05-2.71909E-05 1.49480E-18 1.47236E-18
 -1      2200 1.72297E-04-3.03409E-05-6.08075E-05 1.22671E-05-2.75370E-18-1.53673E-18
 -1      2201 1.69465E-04-5.17062E-05-5.03981E-05 2.13366E-05-2.87674E-18-8.29669E-19
 -1      2202 7.92511E-05-4.94277E-05-1.29738E-05 4.89209E-05 1.16933E-18 4.81386E-18
 -1      2203 1.69422E-04-1.30769E-05-6.58194E-05 3.43140E-07 2.34035E-18-1.59311E-18
 -1      2204 1.43522E-04-5.01403E-05-3.94632E-05 2.89602E-05 1.80100E-18 7.47083E-19
 -1      2205 9.49272E-05-2.34246E-05-3.06722E-05-8.68842E-06-2.36018E-19 9.43637E-19
 -1      2206 1.75070E-05-3.01387E-05 4.56680E-06 2.09476E-05 1.31248E-18 2.76683E-18
 -1      2207 3.64211E-05-3.85778E-05 7.65343E-08-2.88884E-05-1.02787E-18-2.22029E-18
 -1      2208 7.64617E-05-5.21822E-05-1.08273E-05-3.91828E-05-3.18484E-19 1.60174E-18
 -1      2209 1.25986E-04-6.54453E-05-2.59535E-05-2.97824E-05 2.49875E-19 5.64547E-19
 -1      2210 1.63786E-04-6.56182E-05-4.20757E-05-8.62791E-06-1.16044E-18-2.00662E-18
 -1      2211 1.82483E-04-5.16193E-05-5.48552E-05 6.11619E-06-2.52966E-18-3.57024E-18
 -1      2212 1.77154E-04-2.50010E-05-6.38507E-05-6.00371E-06-1.37346E-18-1.70296E-18
 -1      2213 1.86230E-04-3.59589E-05-6.27419E-05-1.44607E-05-4.97208E-19-2.34586E-18
 -1      2214 1.80001E-04-5.61047E-05-5.24647E-05-1.03516E-05-4.02023E-19-2.89685E-18
 -1      2215 1.57931E-04-6.77958E-05-3.82553E-05 1.00354E-05-6.54545E-19-2.62453E-18
 -1      2216 1.17008E-04-6.38889E-05-2.29401E-05 3.07554E-05-1.08886E-18-2.39795E-18
 -1      2217 7.10005E-05-5.05941E-05-9.37342E-06 3.63558E-05-1.60513E-18-2.28657E-18
 -1      2218 1.40620E-05-2.56765E-05 4.31143E-06 9.03069E-07-1.68427E-18-3.04593E-18
 -1      2219 4.64233E-05-3.68350E-05-4.38214E-06-4.38001E-05-1.99984E-18-2.65926E-18
 -1      2220 8.62002E-05-4.89587E-05-1.61402E-05-4.85604E-05-9.66465E-19-3.82573E-18
 -1      2221 1.20834E-04-5.25376E-05-2.88503E-05-4.03689E-05 3.10861E-19-2.04707E-18
 -1      2222 1.65288E-04-2.94906E-05-5.74871E-05-6.66190E-06 2.43226E-18 9.05055E-19
 -1      2223 1.62839E-04-6.38257E-05-4.25631E-05-1.43306E-05 5.34663E-19 1.06726E-19
 -1      2224 9.46304E-05-2.28580E-05-3.07299E-05-1.09958E-05 9.97510E-19-4.40250E-19
 -1      2225 1.67232E-04-2.02339E-05-6.19081E-05 5.69473E-07 1.65087E-18-1.33619E-19
 -1      2226 1.62133E-04-3.59136E-05-5.32490E-05 1.12511E-05 2.66201E-18 7.58518E-19
 -1      2227 1.48988E-04-4.42647E-05-4.44240E-05-2.53439E-05 3.21555E-18 9.68159E-19
 -1      2228 1.52809E-04-4.48972E-05-4.67653E-05-9.59014E-06 2.23045E-18 1.44800E-18
 -1      2229 1.43697E-04-5.19604E-05-3.88633E-05-2.22522E-05 1.72392E-18 1.59073E-18
 -1      2230 3.36816E-05-3.51958E-05-4.73661E-08 2.52194E-05-1.10538E-18-3.11666E-18
 -1      2231 8.81326E-05-1.11824E-05-3.30181E-05-3.66218E-06 3.77761E-19-1.19141E-18
 -1      2232 8.83670E-05-1.14530E-05-3.30005E-05-4.80335E-06 1.81170E-19-1.33393E-18
 -1      2233 8.87194E-05-1.19362E-05-3.29524E-05-5.82090E-06 2.60504E-20-1.39453E-18
 -1      2234 8.91255E-05-1.24070E-05-3.29248E-05-6.99236E-06-1.25015E-19-1.37630E-18
 -1      2235 8.98868E-05-1.38221E-05-3.25988E-05-4.90425E-06 1.42542E-19-1.21769E-18
 -1      2236 8.77859E-05-1.07229E-05-3.30610E-05 6.14105E-07 8.85818E-19-1.15932E-18
 -1      2237 8.77817E-05-1.07182E-05-3.30613E-05-4.96850E-07 7.13164E-19-1.15513E-18
 -1      2238 8.79668E-05-1.09477E-05-3.30426E-05 2.75596E-06 9.87975E-19-1.03133E-18
 -1      2239 8.78520E-05-1.08147E-05-3.30519E-05 1.63665E-06 8.71188E-19-1.10508E-18
 -1      2240 8.91034E-05-1.27689E-05-3.27179E-05 1.04825E-06 9.01272E-19-1.09533E-18
 -1      2241 8.84014E-05-1.14949E-05-3.29975E-05 4.88501E-06 1.12521E-18-8.76831E-19
 -1      2242 8.81617E-05-1.12181E-05-3.30155E-05 3.76189E-06 1.02027E-18-1.00860E-18
 -1      2243 8.93691E-05-1.31246E-05-3.26780E-05 3.01907E-06 1.02384E-18-9.28428E-19
 -1      2244 8.91818E-05-1.24781E-05-3.29189E-05 7.07190E-06 1.34417E-18-4.24304E-19
 -1      2245 8.87631E-05-1.19912E-05-3.29479E-05 5.90028E-06 1.19412E-18-6.76051E-19
 -1      2246 8.99267E-05-1.38726E-05-3.25937E-05 4.97264E-06 1.13712E-18-6.71899E-19
 -1      2247 9.04522E-05-1.40874E-05-3.27926E-05 9.21976E-06 1.41158E-18-1.60142E-21
 -1      2248 8.97719E-05-1.32772E-05-3.28376E-05 8.04182E-06 1.31245E-18-2.47499E-19
 -1      2249 9.08635E-05-1.51332E-05-3.24492E-05 6.86716E-06 1.22309E-18-3.33843E-19
 -1      2250 9.24580E-05-1.66861E-05-3.25729E-05 1.10750E-05 1.43914E-18 5.21640E-19
 -1      2251 9.13734E-05-1.53176E-05-3.26561E-05 1.00316E-05 1.41393E-18 1.98722E-19
 -1      2252 9.22901E-05-1.70928E-05-3.22095E-05 8.51447E-06 1.23915E-18 1.27234E-19
 -1      2253 9.55102E-05-2.08476E-05-3.20985E-05 1.16946E-05 1.19465E-18 1.25631E-18
 -1      2254 9.38014E-05-1.84750E-05-3.23219E-05 1.14541E-05 1.35786E-18 7.87820E-19
 -1      2255 9.42812E-05-2.00299E-05-3.17873E-05 9.45288E-06 1.27307E-18 6.36879E-19
 -1      2256 9.75139E-05-2.46064E-05-3.13126E-05 9.84869E-06 9.36633E-19 2.08178E-18
 -1      2257 9.62778E-05-2.22157E-05-3.17312E-05 1.10947E-05 1.10456E-18 1.56487E-18
 -1      2258 9.58451E-05-2.32222E-05-3.11139E-05 8.79542E-06 1.09802E-18 1.08430E-18
 -1      2259 9.63033E-05-2.56800E-05-3.02783E-05 6.85097E-06 9.84888E-19 1.93116E-18
 -1      2260 9.59362E-05-2.49913E-05-3.03637E-05-6.38432E-06-8.87770E-19-6.08247E-19
 -1      2261 9.52924E-05-2.57731E-05-2.98068E-05-4.42920E-06-6.86712E-19-6.73818E-19
 -1      2262 9.42059E-05-2.29307E-05-3.05246E-05-1.30935E-05 7.63183E-19-9.83753E-20
 -1      2263 9.11367E-05-2.00760E-05-3.04553E-05-1.27383E-05 1.08016E-18-1.03708E-18
 -1      2264 9.53928E-05-2.34542E-05-3.07433E-05-1.53864E-05 9.33970E-19-5.80788E-20
 -1      2265 1.58722E-04-2.94157E-05-5.58975E-05-1.46950E-05-1.67713E-19-8.43433E-19
 -1      2266 1.72567E-04-4.79106E-05-5.33085E-05-2.38369E-05 3.52577E-19-1.00882E-18
 -1      2267 1.26845E-04-5.90605E-05-2.91970E-05 3.66537E-05 9.74935E-19 1.59052E-18
 -1      2268 1.13727E-04-5.80368E-05-2.36496E-05 4.07103E-05 6.76144E-19 2.36396E-18
 -1      2269 9.51668E-05-2.64885E-05-2.93809E-05-3.05669E-06-4.61221E-19-6.05293E-19
 -1      2270 9.47078E-05-2.68681E-05-2.90693E-05-1.96946E-06-2.24424E-19-6.32830E-19
 -1      2271 9.53416E-05-2.52612E-05-3.00356E-05-4.42151E-06-5.96971E-19-6.89710E-19
 -1      2272 9.45037E-05-2.71956E-05-2.88109E-05-1.13292E-06-3.96302E-20-6.54210E-19
 -1      2273 9.42612E-05-2.74087E-05-2.86451E-05-5.37249E-07 7.07157E-21-6.45976E-19
 -1      2274 9.50623E-05-2.66206E-05-2.93392E-05-2.05924E-06-1.67330E-19-6.91354E-19
 -1      2275 9.40925E-05-2.76020E-05-2.84750E-05 3.25286E-09-6.21694E-20-5.38915E-19
 -1      2276 9.39921E-05-2.77496E-05-2.83850E-05 3.52934E-07-5.34578E-20-5.09967E-19
 -1      2277 9.47568E-05-2.73592E-05-2.88921E-05-5.66624E-07-1.03788E-19-6.16662E-19
 -1      2278 9.38924E-05-2.78637E-05-2.82861E-05 6.54118E-07-1.04806E-19-4.55120E-19
 -1      2279 9.38977E-05-2.79742E-05-2.82493E-05 8.31894E-07-2.67572E-21-3.76649E-19
 -1      2280 9.45448E-05-2.78133E-05-2.86064E-05 3.54217E-07-1.53453E-19-5.27554E-19
 -1      2281 9.38558E-05-2.80486E-05-2.81970E-05 9.79914E-07-4.97105E-20-4.73241E-19
 -1      2282 9.39238E-05-2.81348E-05-2.81924E-05 1.05175E-06 1.31240E-19-4.18234E-19
 -1      2283 9.44421E-05-2.80977E-05-2.84393E-05 8.59538E-07-1.61982E-19-7.33626E-19
 -1      2284 9.39224E-05-2.81859E-05-2.81702E-05 1.10262E-06 2.06672E-19-5.61783E-19
 -1      2285 9.40231E-05-2.82543E-05-2.81844E-05 1.11016E-06 1.62034E-20-4.15201E-19
 -1      2286 9.44255E-05-2.82842E-05-2.83510E-05 1.09586E-06 1.93740E-20-7.43503E-19
 -1      2287 9.40472E-05-2.82902E-05-2.81812E-05 1.10159E-06-2.19186E-19-3.26300E-19
 -1      2288 9.41606E-05-2.83444E-05-2.82053E-05 1.07184E-06-2.86583E-19-4.06475E-19
 -1      2289 9.44662E-05-2.84087E-05-2.83140E-05 1.16214E-06-7.15937E-20-7.69290E-19
 -1      2290 9.41990E-05-2.83695E-05-2.82135E-05 1.02937E-06-2.33380E-19-4.36985E-19
 -1      2291 9.43122E-05-2.84116E-05-2.82420E-05 9.80019E-07-2.41390E-19-5.28598E-19
 -1      2292 9.45404E-05-2.84913E-05-2.83095E-05 1.12574E-06-3.17450E-19-6.32474E-19
 -1      2293 9.43542E-05-2.84279E-05-2.82557E-05 9.24300E-07-4.08388E-19-3.26805E-19
 -1      2294 9.44565E-05-2.84590E-05-2.82837E-05 8.70266E-07-5.10590E-19-3.23812E-19
 -1      2295 9.46283E-05-2.85437E-05-2.83240E-05 1.03533E-06-2.45110E-19-5.05706E-19
 -1      2296 9.45030E-05-2.84705E-05-2.83014E-05 8.06306E-07-4.48850E-19-3.55242E-19
 -1      2297 9.46002E-05-2.84952E-05-2.83299E-05 7.49731E-07-3.84210E-19-2.67586E-19
 -1      2298 9.47206E-05-2.85752E-05-2.83497E-05 9.19537E-07-4.51485E-19-9.45368E-20
 -1      2299 9.46450E-05-2.85017E-05-2.83490E-05 6.88130E-07-3.13257E-19-2.19086E-19
 -1      2300 9.47312E-05-2.85197E-05-2.83756E-05 6.36922E-07-1.52911E-19-1.61328E-19
 -1      2301 9.48135E-05-2.85924E-05-2.83818E-05 7.95759E-07-2.87147E-19-1.28128E-19
 -1      2302 9.47734E-05-2.85227E-05-2.83949E-05 5.83057E-07-2.12884E-19-1.97708E-19
 -1      2303 9.48494E-05-2.85353E-05-2.84195E-05 5.40851E-07-1.77013E-19 2.07612E-20
 -1      2304 9.49008E-05-2.85981E-05-2.84166E-05 6.80894E-07-1.52124E-19-2.50179E-20
 -1      2305 9.48889E-05-2.85355E-05-2.84388E-05 4.98366E-07-5.65433E-19-1.83215E-20
 -1      2306 9.49568E-05-2.85439E-05-2.84618E-05 4.67831E-07-6.88901E-19-1.84991E-19
 -1      2307 9.49819E-05-2.85951E-05-2.84526E-05 5.84877E-07-4.09950E-19-2.54290E-19
 -1      2308 9.49945E-05-2.85417E-05-2.84811E-05 4.39522E-07-1.73095E-19-2.40129E-19
 -1      2309 9.50572E-05-2.85469E-05-2.85033E-05 4.23001E-07 3.96199E-19-1.50839E-19
 -1      2310 9.50577E-05-2.85853E-05-2.84893E-05 5.14925E-07-4.22340E-19-3.21200E-20
 -1      2311 9.50923E-05-2.85426E-05-2.85223E-05 4.11659E-07 7.27624E-19-8.35497E-20
 -1      2312 9.51512E-05-2.85454E-05-2.85438E-05 4.11034E-07 7.05708E-19-6.20700E-20
 -1      2313 9.51285E-05-2.85701E-05-2.85264E-05 4.77323E-07 5.21953E-19 3.15437E-19
 -1      2314 9.51894E-05-2.85386E-05-2.85655E-05 4.17762E-07 6.08124E-19-4.08047E-19
 -1      2315 9.52547E-05-2.85395E-05-2.85900E-05 4.36333E-07 1.50929E-19-4.11713E-19
 -1      2316 9.51993E-05-2.85493E-05-2.85661E-05 4.76021E-07 4.28188E-19-4.35843E-19
 -1      2317 9.52957E-05-2.85297E-05-2.86146E-05 4.66165E-07 3.86454E-19-3.24650E-19
 -1      2318 9.53701E-05-2.85288E-05-2.86431E-05 5.08658E-07 4.36493E-19-2.37781E-19
 -1      2319 9.52753E-05-2.85207E-05-2.86115E-05 5.18985E-07 4.33833E-19-7.43096E-19
 -1      2320 9.54158E-05-2.85147E-05-2.86724E-05 5.66608E-07-6.73015E-21-8.72820E-20
 -1      2321 9.55060E-05-2.85119E-05-2.87074E-05 6.39446E-07-3.56226E-19-2.43682E-19
 -1      2322 9.53585E-05-2.84820E-05-2.86644E-05 6.16472E-07 1.56355E-19-1.09663E-18
 -1      2323 9.55580E-05-2.84908E-05-2.87435E-05 7.32777E-07-4.24769E-19 2.69151E-19
 -1      2324 9.56722E-05-2.84853E-05-2.87883E-05 8.45300E-07 1.12169E-19 2.48173E-19
 -1      2325 9.54523E-05-2.84282E-05-2.87286E-05 7.81870E-07-2.06544E-19-1.01188E-19
 -1      2326 9.57309E-05-2.84533E-05-2.88338E-05 9.84345E-07-1.64764E-19-1.26464E-19
 -1      2327 9.58787E-05-2.84432E-05-2.88924E-05 1.15008E-06-6.18706E-19-3.31696E-19
 -1      2328 9.55585E-05-2.83514E-05-2.88082E-05 1.03409E-06-3.98770E-19-8.90367E-20
 -1      2329 9.59423E-05-2.83940E-05-2.89503E-05 1.34954E-06-9.21000E-19-2.59399E-19
 -1      2330 9.61343E-05-2.83760E-05-2.90279E-05 1.58808E-06-1.03216E-18-5.19982E-19
 -1      2331 9.56762E-05-2.82381E-05-2.89085E-05 1.39984E-06-9.19122E-19-1.24704E-18
 -1      2332 9.61939E-05-2.83025E-05-2.90978E-05 1.85286E-06-6.46144E-19-5.78050E-19
 -1      2333 9.64328E-05-2.82746E-05-2.91949E-05 2.17056E-06-4.83764E-19-2.08491E-19
 -1      2334 9.57960E-05-2.80739E-05-2.90314E-05 1.89987E-06-7.50379E-19-1.02232E-18
 -1      2335 9.64854E-05-2.81570E-05-2.92867E-05 2.55274E-06-6.07386E-19-2.48020E-20
 -1      2336 9.68071E-05-2.81055E-05-2.94213E-05 3.02125E-06-3.89463E-19 2.87306E-19
 -1      2337 9.59053E-05-2.78297E-05-2.91848E-05 2.59016E-06-2.43248E-19-8.78230E-19
 -1      2338 9.68257E-05-2.79243E-05-2.95346E-05 3.54700E-06 1.11405E-19 7.49165E-19
 -1      2339 9.72360E-05-2.78417E-05-2.97105E-05 4.20093E-06 5.45873E-19 3.94624E-19
 -1      2340 9.59758E-05-2.74542E-05-2.93771E-05 3.55843E-06-1.29376E-19 1.06551E-19
 -1      2341 9.71844E-05-2.75688E-05-2.98446E-05 4.91667E-06 5.31621E-19-1.70616E-19
 -1      2342 9.76980E-05-2.74443E-05-3.00694E-05 5.81725E-06 6.72877E-19-3.51171E-19
 -1      2343 9.59485E-05-2.68972E-05-2.96041E-05 4.87385E-06 3.16432E-19 5.10106E-19
 -1      2344 9.75205E-05-2.70501E-05-3.02170E-05 6.77878E-06 1.05521E-18-7.66662E-19
 -1      2345 9.81510E-05-2.68833E-05-3.04937E-05 7.99152E-06 9.93391E-19-1.18037E-18
 -1      2346 9.57348E-05-2.60962E-05-2.98537E-05 6.63687E-06 7.01052E-19-6.91130E-19
 -1      2347 9.77770E-05-2.63552E-05-3.06329E-05 9.25964E-06 1.21695E-19-1.26753E-18
 -1      2348 9.85314E-05-2.61820E-05-3.09502E-05 1.08328E-05-2.73353E-19-1.60887E-18
 -1      2349 9.52106E-05-2.50067E-05-3.00908E-05 8.95616E-06 3.75203E-19-8.74803E-19
 -1      2350 9.79352E-05-2.56015E-05-3.10324E-05 1.23755E-05-2.35035E-19-1.88311E-18
 -1      2351 9.88495E-05-2.55680E-05-3.13451E-05 1.41750E-05-1.65191E-19-1.90446E-18
 -1      2352 9.42790E-05-2.37130E-05-3.02357E-05 1.18386E-05-7.87529E-19-2.67040E-18
 -1      2353 9.80356E-05-2.50846E-05-3.12964E-05 1.61682E-05-6.51678E-19-1.67426E-18
 -1      2354 9.93543E-05-2.55564E-05-3.15570E-05 1.82197E-05-9.48452E-19-2.23605E-18
 -1      2355 9.28749E-05-2.24853E-05-3.01611E-05 1.54093E-05-5.60158E-19-2.98038E-18
 -1      2356 9.86713E-05-2.57883E-05-3.12297E-05 2.05612E-05-1.60600E-19-1.12399E-18
 -1      2357 1.00928E-04-2.76273E-05-3.13045E-05 2.22495E-05 1.02079E-18-4.92849E-19
 -1      2358 9.12414E-05-2.21528E-05-2.96156E-05 1.97595E-05 3.95849E-19-1.68333E-18
 -1      2359 1.01503E-04-2.99698E-05-3.05456E-05 2.47060E-05 7.67412E-19-1.25956E-19
 -1      2360 1.05885E-04-3.44629E-05-3.03898E-05 2.47979E-05 4.30213E-19-1.08725E-19
 -1      2361 9.06330E-05-2.47908E-05-2.82723E-05 2.48136E-05 6.92013E-19-1.12587E-18
 -1      2362 1.09497E-04-4.03258E-05-2.93140E-05 2.66604E-05 1.15726E-19-6.32072E-19
 -1      2363 1.17424E-04-4.88982E-05-2.92075E-05 2.38988E-05 3.32249E-19-1.22563E-18
 -1      2364 9.39761E-05-3.32378E-05-2.58069E-05 2.95739E-05 6.21510E-20-5.67565E-19
 -1      2365 1.32208E-04-5.90333E-05-3.08052E-05 1.88537E-05 4.59092E-19-1.01608E-18
 -1      2366 1.42985E-04-6.61794E-05-3.27555E-05 1.12394E-05 4.37175E-19-7.54918E-19
 -1      2367 9.48429E-05-2.68853E-05-2.91085E-05 3.19760E-06 7.06756E-19 1.74707E-18
 -1      2368 9.58048E-05-2.65548E-05-2.96485E-05 4.84890E-06 9.13512E-19 1.95909E-18
 -1      2369 9.58437E-05-2.55082E-05-3.01018E-05 5.97877E-06 9.19494E-19 1.45155E-18
 -1      2370 1.63227E-05-1.97705E-05 1.67083E-06 2.33582E-07-6.59071E-19 1.97020E-18
 -1      2371 2.15148E-05-2.24574E-05 5.74974E-07-1.50929E-05-1.18638E-18-1.49163E-18
 -1      2372 1.31972E-04-5.96951E-05-3.08983E-05-1.87076E-05-8.67150E-20 2.16536E-18
 -1      2373 1.22177E-04-5.12858E-05-2.99290E-05-2.43869E-05 1.24609E-18 3.16024E-18
 -1      2374 1.14299E-04-4.30629E-05-3.03301E-05-2.55673E-05 1.89608E-18 2.26964E-18
 -1      2375 1.07585E-04-3.62766E-05-3.03102E-05-2.74755E-05 2.59666E-18 1.86024E-18
 -1      2376 1.05492E-04-4.49953E-05-2.59584E-05-3.20632E-05 1.26187E-18 2.56508E-18
 -1      2377 1.04733E-04-3.20292E-05-3.10405E-05-2.59220E-05 1.39852E-18 1.29488E-18
 -1      2378 1.00916E-04-2.85463E-05-3.09494E-05-2.52762E-05 4.32953E-19 6.41641E-19
 -1      2379 9.57846E-05-3.10145E-05-2.77560E-05-2.97373E-05 1.05633E-18 2.62271E-18
 -1      2380 1.00499E-04-2.71244E-05-3.13618E-05-2.29588E-05 1.25001E-18-2.08815E-19
 -1      2381 9.82300E-05-2.56754E-05-3.10770E-05-2.12253E-05 1.73626E-18 2.99011E-19
 -1      2382 9.30013E-05-2.46572E-05-2.92767E-05-2.54243E-05 3.61425E-19 1.32736E-18
 -1      2383 9.71288E-05-2.46475E-05-3.09693E-05-1.93542E-05 1.40751E-18-3.20281E-19
 -1      2384 9.56572E-05-2.40183E-05-3.06852E-05-1.71952E-05 7.76271E-19-8.49885E-19
 -1      2385 9.01164E-05-2.04836E-05-2.99502E-05-1.68567E-05 1.28850E-18-1.75410E-18
 -1      2386 9.13007E-05-2.19850E-05-2.97774E-05-2.10322E-05 1.51979E-18-1.22508E-18
 -1      2387 9.36231E-05-2.74683E-05-2.83413E-05 3.65574E-07 5.25025E-19 1.09330E-18
 -1      2388 9.38860E-05-2.73294E-05-2.84904E-05 9.14846E-07 5.57685E-19 1.27634E-18
 -1      2389 9.40347E-05-2.72236E-05-2.86115E-05 1.45329E-06 4.84433E-19 1.43875E-18
 -1      2390 9.45733E-05-2.70460E-05-2.88983E-05 2.41121E-06 5.11380E-19 1.61502E-18
 -1      2391 9.49986E-05-2.66782E-05-2.92872E-05 3.09997E-06 6.21861E-19 1.30610E-18
 -1      2392 9.46003E-05-2.71209E-05-2.89391E-05 1.58060E-06 6.11902E-19 8.91601E-19
 -1      2393 9.32965E-05-2.78577E-05-2.80405E-05-8.21546E-07 2.76839E-19 6.42979E-19
 -1      2394 9.32505E-05-2.77662E-05-2.80518E-05-6.81798E-07 2.21330E-19 5.87230E-19
 -1      2395 9.33917E-05-2.79938E-05-2.80246E-05-9.98390E-07 3.13634E-19 8.19143E-19
 -1      2396 9.32779E-05-2.79128E-05-2.80072E-05-9.46958E-07 2.57064E-19 7.72560E-19
 -1      2397 9.39302E-05-2.80186E-05-2.82560E-05-8.97080E-07 1.91083E-19 5.10925E-19
 -1      2398 9.35677E-05-2.81091E-05-2.80517E-05-1.03467E-06 5.84221E-19 8.42209E-19
 -1      2399 9.34221E-05-2.80380E-05-2.80192E-05-1.03601E-06 5.77271E-19 8.53436E-19
 -1      2400 9.39599E-05-2.81679E-05-2.82019E-05-1.09476E-06 3.72688E-19 2.07014E-19
 -1      2401 9.37804E-05-2.82064E-05-2.81019E-05-9.88277E-07 9.31663E-20 9.81120E-19
 -1      2402 9.36258E-05-2.81453E-05-2.80628E-05-1.01969E-06 4.05940E-19 9.00426E-19
 -1      2403 9.40592E-05-2.82786E-05-2.81950E-05-1.13759E-06 4.28739E-19 6.41801E-19
 -1      2404 9.40014E-05-2.82872E-05-2.81625E-05-8.97364E-07 5.57162E-19 5.76529E-19
 -1      2405 9.38515E-05-2.82360E-05-2.81220E-05-9.43971E-07 2.27488E-19 8.41325E-19
 -1      2406 9.41946E-05-2.83618E-05-2.82160E-05-1.08878E-06 3.18958E-19 7.31687E-19
 -1      2407 9.42137E-05-2.83530E-05-2.82257E-05-7.87296E-07 8.69851E-19 1.87762E-19
 -1      2408 9.40759E-05-2.83110E-05-2.81868E-05-8.39269E-07 8.53280E-19 3.99566E-19
 -1      2409 9.43433E-05-2.84238E-05-2.82522E-05-9.90563E-07 8.19260E-19 3.07556E-19
 -1      2410 9.44083E-05-2.84054E-05-2.82867E-05-6.74852E-07 5.67310E-19 1.35893E-19
 -1      2411 9.42859E-05-2.83716E-05-2.82510E-05-7.25736E-07 6.37260E-19 1.11306E-19
 -1      2412 9.44910E-05-2.84691E-05-2.82955E-05-8.71269E-07 8.03940E-19-4.89647E-20
 -1      2413 9.45819E-05-2.84464E-05-2.83436E-05-5.70996E-07-1.18149E-19 3.36496E-19
 -1      2414 9.44752E-05-2.84197E-05-2.83116E-05-6.16604E-07 3.66945E-19 3.50069E-19
 -1      2415 9.46298E-05-2.85011E-05-2.83409E-05-7.49740E-07 3.08391E-19-1.46662E-19
 -1      2416 9.47349E-05-2.84781E-05-2.83955E-05-4.82796E-07-4.81789E-19 4.61499E-19
 -1      2417 9.46425E-05-2.84571E-05-2.83671E-05-5.20444E-07-4.04624E-19 3.30381E-19
 -1      2418 9.47561E-05-2.85226E-05-2.83856E-05-6.38372E-07-3.13426E-19-7.05876E-20
 -1      2419 9.48705E-05-2.85026E-05-2.84430E-05-4.14760E-07-5.72021E-21 3.22302E-19
 -1      2420 9.47897E-05-2.84860E-05-2.84175E-05-4.42741E-07-2.95312E-19 4.75514E-19
 -1      2421 9.48698E-05-2.85361E-05-2.84285E-05-5.45228E-07-3.84533E-19 4.39291E-19
 -1      2422 9.49936E-05-2.85221E-05-2.84872E-05-3.69745E-07 1.14588E-19 8.42059E-19
 -1      2423 9.49208E-05-2.85085E-05-2.84638E-05-3.86974E-07 1.94470E-19 5.98478E-19
 -1      2424 9.49727E-05-2.85438E-05-2.84694E-05-4.75504E-07-1.51857E-19 4.21065E-19
 -1      2425 9.51102E-05-2.85390E-05-2.85296E-05-3.49497E-07-1.66004E-19 1.17596E-18
 -1      2426 9.50414E-05-2.85269E-05-2.85072E-05-3.55323E-07-8.71522E-20 1.35091E-18
 -1      2427 9.50683E-05-2.85477E-05-2.85089E-05-4.32518E-07-1.40364E-19 1.31647E-18
 -1      2428 9.52272E-05-2.85558E-05-2.85723E-05-3.54867E-07 7.66214E-20 1.45458E-18
 -1      2429 9.51579E-05-2.85436E-05-2.85497E-05-3.49027E-07 1.37113E-19 1.48262E-18
 -1      2430 9.51613E-05-2.85500E-05-2.85479E-05-4.18275E-07-1.31362E-19 1.34023E-18
 -1      2431 9.53518E-05-2.85755E-05-2.86169E-05-3.85656E-07-1.22577E-19 9.50900E-19
 -1      2432 9.52777E-05-2.85615E-05-2.85931E-05-3.68405E-07-1.96746E-19 9.88194E-19
 -1      2433 9.52569E-05-2.85532E-05-2.85877E-05-4.33631E-07 9.81666E-20 1.35690E-18
 -1      2434 9.54914E-05-2.86018E-05-2.86653E-05-4.40076E-07 6.52467E-19 2.60381E-19
 -1      2435 9.54082E-05-2.85838E-05-2.86392E-05-4.12499E-07 5.23071E-19 5.83670E-19
 -1      2436 9.53614E-05-2.85604E-05-2.86296E-05-4.78038E-07 4.63224E-19 7.87368E-19
 -1      2437 9.56530E-05-2.86389E-05-2.87186E-05-5.13749E-07 1.27707E-18 1.71011E-20
 -1      2438 9.55571E-05-2.86146E-05-2.86894E-05-4.78295E-07 8.00781E-19-2.38461E-19
 -1      2439 9.54812E-05-2.85759E-05-2.86746E-05-5.48821E-07 8.94127E-19 2.67739E-19
 -1      2440 9.58423E-05-2.86922E-05-2.87772E-05-5.98222E-07 3.06841E-19 1.19220E-18
 -1      2441 9.57312E-05-2.86589E-05-2.87448E-05-5.59470E-07 9.92634E-19 7.63669E-19
 -1      2442 9.56234E-05-2.86055E-05-2.87230E-05-6.39928E-07 6.14020E-19 4.43803E-19
 -1      2443 9.60628E-05-2.87680E-05-2.88399E-05-6.79007E-07-1.14285E-18 1.73413E-18
 -1      2444 9.59361E-05-2.87228E-05-2.88050E-05-6.44635E-07-1.20688E-19 1.74974E-18
 -1      2445 9.57947E-05-2.86569E-05-2.87746E-05-7.40124E-07-2.03961E-19 1.82544E-18
 -1      2446 9.63141E-05-2.88730E-05-2.89040E-05-7.33318E-07-1.51345E-18 1.31707E-18
 -1      2447 9.61748E-05-2.88133E-05-2.88683E-05-7.15172E-07-1.47114E-18 1.65561E-18
 -1      2448 9.60016E-05-2.87400E-05-2.88278E-05-8.30691E-07-1.29541E-18 1.77002E-18
 -1      2449 9.65896E-05-2.90136E-05-2.89640E-05-7.27972E-07-1.06856E-18 8.35384E-19
 -1      2450 9.64455E-05-2.89375E-05-2.89310E-05-7.42952E-07-1.37193E-18 1.07925E-18
 -1      2451 9.62487E-05-2.88664E-05-2.88795E-05-8.82864E-07-1.12376E-18 3.50258E-19
 -1      2452 9.68735E-05-2.91934E-05-2.90118E-05-6.18348E-07 5.02212E-19 1.01498E-18
 -1      2453 9.67391E-05-2.91016E-05-2.89865E-05-6.88606E-07-3.50427E-19 5.95980E-19
 -1      2454 9.65371E-05-2.90481E-05-2.89250E-05-8.55629E-07-6.59665E-19 3.43045E-20
 -1      2455 9.71367E-05-2.94094E-05-2.90362E-05-3.50012E-07 7.01365E-19 1.49534E-18
 -1      2456 9.70357E-05-2.93069E-05-2.90257E-05-5.01589E-07 8.75826E-19 1.45649E-18
 -1      2457 9.68612E-05-2.92942E-05-2.89579E-05-6.95004E-07 5.86755E-19-7.39911E-20
 -1      2458 9.73335E-05-2.96457E-05-2.90241E-05 1.34721E-07-8.26711E-19 1.91149E-18
 -1      2459 9.72993E-05-2.95452E-05-2.90370E-05-1.24045E-07-1.27372E-19 1.92664E-18
 -1      2460 9.72041E-05-2.96048E-05-2.89707E-05-3.36776E-07-2.21097E-20 1.24291E-18
 -1      2461 9.73977E-05-2.98662E-05-2.89617E-05 8.82527E-07-4.27500E-19 2.01806E-18
 -1      2462 9.74737E-05-2.97914E-05-2.90072E-05 4.98864E-07-6.32153E-19 1.84090E-18
 -1      2463 9.75307E-05-2.99613E-05-2.89562E-05 2.84568E-07-6.75586E-19 9.45386E-19
 -1      2464 9.72425E-05-3.00068E-05-2.88380E-05 1.90515E-06 8.48356E-20 1.82926E-18
 -1      2465 9.74788E-05-2.99947E-05-2.89239E-05 1.39947E-06-6.02030E-20 2.27213E-18
 -1      2466 9.77801E-05-3.03146E-05-2.89091E-05 1.21746E-06-3.66659E-19 8.21734E-19
 -1      2467 9.67688E-05-2.99741E-05-2.86487E-05 3.14698E-06 9.70779E-19 1.56319E-18
 -1      2468 9.72129E-05-3.00732E-05-2.87787E-05 2.55811E-06 3.92866E-19 1.73528E-18
 -1      2469 9.78599E-05-3.05740E-05-2.88286E-05 2.46333E-06 5.08764E-19 8.17218E-19
 -1      2470 9.58857E-05-2.96587E-05-2.83999E-05 4.45209E-06-6.14082E-19 2.73828E-18
 -1      2471 9.65668E-05-2.99189E-05-2.85712E-05 3.86788E-06 6.56546E-19 2.40542E-18
 -1      2472 9.76493E-05-3.06068E-05-2.87203E-05 3.93716E-06 5.61768E-19 1.95139E-18
 -1      2473 9.45515E-05-2.89728E-05-2.81107E-05 5.54994E-06 5.14012E-19 2.59607E-18
 -1      2474 9.54576E-05-2.94228E-05-2.83115E-05 5.10760E-06-1.65228E-19 2.72640E-18
 -1      2475 9.70228E-05-3.02614E-05-2.85968E-05 5.42949E-06-1.39047E-19 2.54068E-18
 -1      2476 9.28287E-05-2.79121E-05-2.78116E-05 6.08824E-06 6.97743E-19 2.90120E-18
 -1      2477 9.38845E-05-2.85291E-05-2.80216E-05 5.94957E-06 9.00138E-19 3.14591E-18
 -1      2478 9.59035E-05-2.94272E-05-2.84750E-05 6.59590E-06 7.53504E-19 2.88560E-18
 -1      2479 9.09314E-05-2.66175E-05-2.75385E-05 5.73518E-06 1.24659E-18 2.66412E-18
 -1      2480 9.19899E-05-2.73038E-05-2.77317E-05 6.03119E-06 8.38357E-19 3.03704E-18
 -1      2481 9.43414E-05-2.81236E-05-2.83704E-05 7.01103E-06 1.21771E-18 2.69647E-18
 -1      2482 8.92217E-05-2.53872E-05-2.73248E-05 4.33846E-06 2.24176E-19 2.68907E-18
 -1      2483 9.00871E-05-2.59796E-05-2.74749E-05 5.09743E-06 1.22421E-18 2.91092E-18
 -1      2484 9.25783E-05-2.65747E-05-2.82909E-05 6.31043E-06 8.09352E-19 2.38638E-18
 -1      2485 8.81121E-05-2.45867E-05-2.71941E-05 2.06273E-06 9.88894E-19 1.55168E-18
 -1      2486 8.85985E-05-2.49132E-05-2.72802E-05 3.16426E-06 3.88709E-19 2.29436E-18
 -1      2487 9.10315E-05-2.51933E-05-2.82341E-05 4.39228E-06 1.22564E-18 3.47923E-18
 -1      2488 8.78986E-05-2.44849E-05-2.71569E-05-6.03527E-07 5.06512E-19 1.16255E-18
 -1      2489 8.79013E-05-2.44439E-05-2.71686E-05 5.92325E-07 1.16110E-18 9.67451E-19
 -1      2490 9.01494E-05-2.44312E-05-2.81914E-05 1.55896E-06 1.22561E-18 1.98423E-18
 -1      2491 8.86156E-05-2.51085E-05-2.72110E-05-3.01024E-06-6.91579E-19 1.75448E-18
 -1      2492 8.81572E-05-2.47243E-05-2.71504E-05-2.00643E-06-4.70977E-19 1.37467E-18
 -1      2493 9.02006E-05-2.45600E-05-2.81563E-05-1.52848E-06 1.05828E-19 1.62870E-18
 -1      2494 9.00067E-05-2.62163E-05-2.73432E-05-4.61425E-06-9.98960E-19 2.31117E-18
 -1      2495 8.92274E-05-2.56283E-05-2.72241E-05-4.00878E-06-8.10761E-19 1.74504E-18
 -1      2496 9.11233E-05-2.55149E-05-2.81308E-05-4.09721E-06-6.02697E-19 2.07189E-18
 -1      2497 9.16519E-05-2.74319E-05-2.75323E-05-5.18889E-06-7.10937E-19 1.60654E-18
 -1      2498 9.07486E-05-2.68215E-05-2.73765E-05-5.03810E-06-2.44658E-19 2.20477E-18
 -1      2499 9.25537E-05-2.69258E-05-2.81251E-05-5.59639E-06-6.27463E-19 2.68427E-18
 -1      2500 9.31551E-05-2.84249E-05-2.77500E-05-4.85397E-06-1.88049E-19 1.02699E-18
 -1      2501 9.23077E-05-2.79367E-05-2.75828E-05-5.07289E-06-1.17998E-18 1.18744E-18
 -1      2502 9.40220E-05-2.83143E-05-2.81493E-05-5.89345E-06-6.57937E-19 1.11504E-18
 -1      2503 9.42722E-05-2.90252E-05-2.79675E-05-3.95150E-06 6.74136E-20 3.99635E-18
 -1      2504 9.35944E-05-2.87246E-05-2.78109E-05-4.37806E-06 5.69109E-20 2.34153E-18
 -1      2505 9.51613E-05-2.93167E-05-2.82045E-05-5.23644E-06-1.01196E-18 2.01216E-18
 -1      2506 9.49396E-05-2.92342E-05-2.81599E-05-2.86918E-06 1.16193E-18 3.79935E-18
 -1      2507 9.44684E-05-2.91107E-05-2.80291E-05-3.33942E-06 6.67658E-19 4.17651E-18
 -1      2508 9.58092E-05-2.97905E-05-2.82810E-05-4.06760E-06 1.68171E-19 3.29677E-18
 -1      2509 9.52328E-05-2.91699E-05-2.83089E-05-1.90022E-06-1.44888E-18 4.19533E-18
 -1      2510 9.49443E-05-2.91666E-05-2.82121E-05-2.30325E-06-2.11016E-19 4.43989E-18
 -1      2511 9.59969E-05-2.98004E-05-2.83608E-05-2.82815E-06-4.56637E-20 3.31617E-18
 -1      2512 9.52890E-05-2.90133E-05-2.84025E-05-1.20500E-06-2.96134E-18 5.61458E-18
 -1      2513 9.51199E-05-2.90305E-05-2.83421E-05-1.49151E-06-1.96914E-18 4.52036E-18
 -1      2514 9.58640E-05-2.95191E-05-2.84212E-05-1.80769E-06-2.02296E-18 4.24029E-18
 -1      2515 9.51875E-05-2.89121E-05-2.84100E-05-9.33869E-07-1.65325E-18 5.35821E-18
 -1      2516 9.79802E-05-2.98730E-05-2.91550E-05 4.37378E-06 1.12478E-18-1.73549E-18
 -1      2517 9.79769E-05-3.02957E-05-2.90010E-05 3.20613E-06 7.51226E-19-2.78727E-18
 -1      2518 9.75000E-05-2.87595E-05-2.94418E-05 6.99823E-06 1.69937E-18-1.41403E-18
 -1      2519 9.79094E-05-2.95971E-05-2.92601E-05 5.82742E-06 1.23344E-18-1.45574E-18
 -1      2520 9.90634E-05-3.09810E-05-2.92010E-05 5.61361E-06 1.62074E-18-1.47007E-18
 -1      2521 9.70035E-05-3.00170E-05-2.86740E-05 1.77107E-07 5.74249E-20-6.37049E-19
 -1      2522 9.65936E-05-2.98999E-05-2.85946E-05-4.41887E-07-2.55096E-19-3.56641E-19
 -1      2523 9.77123E-05-3.02130E-05-2.88913E-05 1.96590E-06-7.11670E-19-3.23363E-18
 -1      2524 9.74428E-05-3.03043E-05-2.87768E-05 1.03678E-06-4.28379E-19-1.73941E-18
 -1      2525 9.78465E-05-3.07115E-05-2.87899E-05 5.45245E-07-7.82319E-19-1.90464E-18
 -1      2526 9.87766E-05-3.11413E-05-2.90045E-05 2.76472E-06 2.70257E-19-2.25260E-18
 -1      2527 9.60046E-05-2.67019E-05-2.97112E-05 9.15925E-06 6.69751E-19-1.87142E-18
 -1      2528 9.69199E-05-2.79597E-05-2.95229E-05 8.32901E-06 1.31424E-18-2.04385E-18
 -1      2529 9.83011E-05-2.99064E-05-2.93452E-05 8.59390E-06 4.83256E-19-1.29100E-18
 -1      2530 9.34505E-05-2.37437E-05-2.99217E-05 9.98715E-06-1.88405E-18-3.49552E-18
 -1      2531 9.48297E-05-2.53004E-05-2.97542E-05 9.90247E-06-7.43752E-19-1.96705E-18
 -1      2532 9.61911E-05-2.76653E-05-2.94033E-05 1.08759E-05-7.09339E-19-3.07413E-18
 -1      2533 9.02372E-05-2.03073E-05-3.00486E-05 8.65005E-06-1.49418E-18 2.84292E-19
 -1      2534 9.18042E-05-2.18713E-05-2.99259E-05 9.63571E-06-1.65978E-18-2.77958E-18
 -1      2535 9.27721E-05-2.42977E-05-2.93682E-05 1.14125E-05-1.49760E-18-2.54599E-18
 -1      2536 8.73323E-05-1.72976E-05-3.01032E-05 4.89748E-06-2.23914E-18 3.69862E-19
 -1      2537 8.85750E-05-1.84286E-05-3.00357E-05 6.92927E-06-1.96698E-18 2.55728E-18
 -1      2538 8.87457E-05-2.04085E-05-2.92792E-05 9.31477E-06-1.14669E-18 1.36415E-18
 -1      2539 8.58173E-05-1.56462E-05-3.01377E-05-8.40719E-07-3.07984E-19 3.09706E-19
 -1      2540 8.62247E-05-1.59820E-05-3.01159E-05 1.92211E-06-8.98508E-19-1.43112E-18
 -1      2541 8.53908E-05-1.70815E-05-2.92274E-05 4.37016E-06-1.22514E-18 5.06678E-19
 -1      2542 8.66271E-05-1.61359E-05-3.01910E-05-7.03382E-06-5.34463E-19-1.08126E-18
 -1      2543 8.57981E-05-1.54690E-05-3.02209E-05-4.30459E-06-5.63453E-19 2.75676E-19
 -1      2544 8.41546E-05-1.55597E-05-2.93246E-05-2.52212E-06-3.38247E-20-1.23622E-19
 -1      2545 8.90640E-05-1.82902E-05-3.03972E-05-1.09646E-05 1.08051E-18-1.42027E-18
 -1      2546 1.48698E-04-7.93724E-06-6.09568E-05-5.64317E-08 3.08701E-18-2.00194E-18
 -1      2547 1.50894E-04-1.01657E-05-6.08779E-05-2.10268E-06 2.52035E-18-1.67734E-18
 -1      2548 1.52571E-04-1.47885E-05-5.95911E-05-3.94820E-06 1.50687E-18-1.33503E-18
 -1      2549 1.50373E-04-1.98443E-05-5.63692E-05-5.30461E-06 1.38151E-18-1.35102E-18
 -1      2550 1.38049E-04-9.30600E-06-5.54344E-05-5.93665E-06 2.41044E-18-1.15488E-18
 -1      2551 9.50466E-05-1.99581E-05-3.22326E-05-1.18240E-05-9.68040E-19-8.35519E-19
 -1      2552 9.54793E-05-2.32366E-05-3.09821E-05-8.13689E-06-9.88712E-19-6.87580E-19
 -1      2553 9.50256E-05-2.24388E-05-3.10944E-05-7.75374E-06-9.08714E-19-7.74780E-19
 -1      2554 9.32176E-05-1.76408E-05-3.24163E-05-1.13593E-05-7.90219E-19-1.03801E-18
 -1      2555 5.48535E-05-3.67936E-05-7.54980E-06 4.67895E-05 1.11406E-18 2.26454E-18
 -1      2556 3.92953E-05-3.04872E-05-3.47137E-06 3.85040E-05 1.91514E-18 5.53748E-19
 -1      2557 1.82039E-04-3.18638E-05-6.30058E-05 9.52376E-06-2.87610E-18-2.97541E-18
 -1      2558 4.16342E-05-2.90062E-05-4.99694E-06-4.09709E-05-1.75018E-18-2.23807E-18
 -1      2559 6.15956E-05-3.79111E-05-1.00816E-05-4.94402E-05-1.69322E-18-3.21851E-18
 -1      2560 9.33460E-05-2.76921E-05-2.81303E-05-4.13930E-07 2.99053E-19 6.55939E-19
 -1      2561 9.34229E-05-2.75872E-05-2.81917E-05-1.26547E-07 4.05031E-19 9.18611E-19
 -1      2562 9.42707E-05-2.74898E-05-2.86351E-05 3.97662E-07 6.08321E-19 6.38200E-19
 -1      2563 9.40156E-05-2.78081E-05-2.83861E-05-4.48475E-07 3.77331E-19 4.36482E-19
 -1      2564 9.20700E-05-5.15025E-05-1.74575E-05 4.88579E-05 3.54483E-19 3.70487E-18
 -1      2565 7.26986E-05-4.55951E-05-1.13876E-05 4.80744E-05 7.80753E-19 4.00647E-18
 -1      2566 6.99911E-05-4.01492E-05-1.22992E-05 4.70617E-05 1.03020E-18 2.45089E-18
 -1      2567 8.78384E-05-1.07979E-05-3.30531E-05-1.51949E-06 6.34158E-19-1.17325E-18
 -1      2568 8.79440E-05-1.09202E-05-3.30445E-05-2.63817E-06 5.27643E-19-1.14823E-18
 -1      2569 8.93432E-05-1.30927E-05-3.26809E-05-2.93080E-06 5.18696E-19-1.05220E-18
 -1      2570 8.90940E-05-1.27572E-05-3.27190E-05-9.41993E-07 7.01582E-19-1.09911E-18
 -1      2571 1.54571E-04-3.37923E-05-5.24265E-05-9.54222E-07 1.74701E-18-8.40892E-19
 -1      2572 1.53084E-04-4.28141E-05-4.73978E-05 6.45043E-06 2.03314E-18-8.27128E-19
 -1      2573 1.49639E-04-5.16468E-05-4.22842E-05 1.73417E-05 2.53263E-18-1.30231E-18
 -1      2574 1.37635E-04-5.67894E-05-3.47867E-05 2.52102E-05 1.69830E-18 7.88376E-19
 -1      2575 1.53369E-04-1.67675E-05-5.89646E-05 3.63225E-06 2.10361E-18-5.35960E-19
 -1      2576 1.50773E-04-1.15006E-05-6.03735E-05 3.61527E-06 1.99857E-18-8.68315E-19
 -1      2577 4.85292E-05-3.39911E-05-6.08558E-06 3.35464E-05-3.57871E-19-2.35962E-18
 -1      2578 3.23299E-05-2.50345E-05-2.82631E-06 2.30815E-05-2.43204E-19-2.78589E-18
 -1      2579 1.51857E-04-3.31806E-05-5.13607E-05 3.90735E-08 1.91334E-18 5.35748E-19
 -1      2580 1.55567E-04-2.49426E-05-5.63125E-05 2.14486E-06 2.28297E-18-5.49513E-19
 -1      2581 1.43785E-04-2.01811E-05-5.32093E-05 8.33739E-06 2.55931E-18-1.19008E-18
 -1      2582 1.16009E-04-5.62797E-05-2.56353E-05-3.91737E-05-9.14160E-19-1.97655E-18
 -1      2583 1.30006E-04-5.67721E-05-3.16915E-05-3.26176E-05-1.74701E-19 6.18334E-20
 -1      2584 8.48696E-05-4.81832E-05-1.54298E-05-4.81746E-05-2.61098E-18-3.67665E-18
 -1      2585 1.01931E-04-5.28943E-05-2.10020E-05-4.70004E-05-1.54329E-18-3.88899E-18
 -1      2586 1.14587E-04-5.70766E-05-2.43125E-05-3.96098E-05-2.07544E-18-1.28257E-18
 -1      2587 1.98485E-05-1.78306E-05-4.59300E-07-1.80520E-05-1.32757E-18-1.85246E-18
 -1      2588 2.59714E-05-1.96213E-05-2.40851E-06-2.99439E-05-1.52995E-18-1.45986E-18
 -1      2589 2.08232E-05-1.79449E-05-8.30427E-07 1.02285E-05-7.55765E-19-2.58642E-18
 -1      2590 1.68614E-05-1.64331E-05 1.32902E-07-5.38313E-06-1.31100E-18-1.78978E-18
 -1      2591 2.51918E-05-1.24274E-05-4.84163E-06-1.01160E-05-4.64359E-19-1.66993E-18
 -1      2592 8.80328E-05-5.24336E-05-1.53952E-05 3.83514E-05-5.09914E-19-1.03190E-18
 -1      2593 6.72896E-05-4.38533E-05-9.97764E-06 3.62172E-05-5.84029E-19-1.25657E-18
 -1      2594 1.33125E-04-6.66873E-05-2.87652E-05 2.36436E-05-9.78323E-20-2.56672E-18
 -1      2595 1.11033E-04-6.04539E-05-2.16516E-05 3.04885E-05-2.03711E-19-1.76000E-18
 -1      2596 1.17721E-04-6.30880E-05-2.33978E-05-3.02504E-05 6.39722E-19 6.23734E-19
 -1      2597 1.40933E-04-6.83590E-05-3.14099E-05-2.02652E-05 5.24525E-19-9.98017E-19
 -1      2598 6.98727E-05-4.51253E-05-1.05135E-05-3.86578E-05 7.68682E-19 3.09379E-19
 -1      2599 9.14114E-05-5.32537E-05-1.66128E-05-4.03822E-05 1.91006E-18 1.29607E-18
 -1      2600 3.49027E-05-2.96137E-05-2.13378E-06-2.73645E-05-8.98702E-19-4.72242E-18
 -1      2601 5.12135E-05-3.66276E-05-6.16075E-06-3.69217E-05 2.83756E-19-2.48350E-18
 -1      2602 6.75662E-05-3.85716E-05-1.20337E-05-3.83371E-05 1.97295E-18-9.88487E-19
 -1      2603 2.54193E-05-2.26572E-05-9.37409E-07 2.81072E-05 1.55261E-18 2.22516E-18
 -1      2604 1.87740E-05-2.00773E-05 8.69763E-07 1.47924E-05 3.71953E-19 4.37408E-18
 -1      2605 9.07960E-05-1.50542E-05-3.24589E-05-6.79590E-06-1.96526E-19-1.28601E-18
 -1      2606 8.97058E-05-1.31859E-05-3.28462E-05-7.96542E-06-2.47530E-19-1.42757E-18
 -1      2607 9.03602E-05-1.39634E-05-3.28010E-05-9.14132E-06-4.22666E-19-1.37561E-18
 -1      2608 3.51915E-05-2.19937E-05-5.13055E-06-2.24713E-05-7.47507E-20-3.71996E-18
 -1      2609 1.07062E-04-5.62540E-05-2.14733E-05 4.30409E-05 4.64174E-19 3.08312E-18
 -1      2610 1.36913E-04-6.07102E-05-3.25202E-05 2.43568E-05 1.50528E-18 3.79365E-19
 -1      2611 1.49278E-04-6.87088E-05-3.46181E-05 7.84815E-06-3.93870E-20-1.11173E-18
 -1      2612 1.11194E-04-5.15719E-05-2.55854E-05 2.87726E-05 5.92605E-19-1.16044E-18
 -1      2613 2.41615E-05-1.49782E-05-3.33800E-06 6.99164E-06 2.64698E-21 3.76358E-18
 -1      2614 9.56019E-05-2.92351E-05-2.84472E-05-1.10257E-06-2.29175E-18 4.28058E-18
 -1      2615 6.51618E-05-3.66731E-05-1.18814E-05 3.51430E-05 2.43945E-19-1.23286E-18
 -1      2616 9.59261E-05-2.94199E-05-2.84881E-05-9.32779E-07-1.71527E-18 2.55043E-18
 -1      2617 8.68181E-05-1.73860E-05-2.97015E-05-1.07673E-05 2.03703E-19-3.30024E-19
 -1      2618 1.38822E-04-7.86885E-06-5.64323E-05 3.05446E-06 2.34416E-18-7.61906E-19
 -1      2619 1.45719E-04-2.70639E-05-5.10994E-05-7.52624E-06 1.98608E-18-9.17760E-19
 -1      2620 9.11229E-05-1.49779E-05-3.26866E-05-9.82953E-06-5.95155E-19-1.20351E-18
 -1      2621 9.21564E-05-1.62595E-05-3.26059E-05-1.08646E-05-7.47258E-19-1.14997E-18
 -1      2622 9.36196E-05-1.91257E-05-3.19156E-05-9.27515E-06-8.40657E-19-9.80864E-19
 -1      2623 9.20278E-05-1.67819E-05-3.22460E-05-8.31083E-06-4.71529E-19-1.13063E-18
 -1      2624 4.14595E-05-2.24678E-05-7.50651E-06-3.57459E-05-1.35790E-18-2.18492E-18
 -1      2625 1.10696E-04-5.77080E-05-2.23172E-05-3.27762E-05 2.20800E-18 3.01835E-19
 -1      2626 3.40068E-05-1.82136E-05-6.19443E-06 1.75809E-05 1.15408E-19-2.04410E-18
 -1      2627 7.92198E-05-4.31994E-05-1.49830E-05-4.76118E-05-2.82168E-18-3.07452E-18
 -1      2628 1.51001E-04-4.07998E-05-4.75047E-05-1.23851E-06 1.93769E-18 2.85450E-19
 -1      2629 1.44119E-04-3.54910E-05-4.69914E-05 7.36185E-06 1.76268E-18-1.05339E-18
 -1      2630 1.46241E-04-4.60691E-05-4.29343E-05-2.23364E-06 2.01012E-18 3.46225E-19
 -1      2631 1.62109E-04-6.79183E-05-4.09353E-05-3.01941E-06-2.65121E-19-9.38089E-19
 -1      2632 1.69621E-04-6.05155E-05-4.67239E-05-1.31936E-05 3.45245E-19-9.94840E-19
 -1      2633 1.33850E-04-5.93398E-05-3.16298E-05-2.42424E-05-2.34681E-19 2.68192E-19
 -1      2634 1.38533E-04-5.67518E-05-3.49203E-05-2.32860E-05 1.31248E-18 1.15789E-18
 -1      2635 1.42425E-04-5.54137E-05-3.80730E-05-1.26103E-05 1.78913E-18 1.22301E-18
 -1      2636 1.58977E-04-6.58049E-05-3.99873E-05-9.08520E-07-1.39771E-18-2.20059E-18
 -1      2637 1.49626E-04-6.79798E-05-3.50896E-05-9.81116E-06-6.38239E-19-7.62859E-19
 -1      2638 1.48719E-04-4.98606E-05-4.23554E-05 5.15032E-06 1.86885E-18-1.46791E-18
 -1      2639 3.97075E-05-2.34804E-05-6.36064E-06 3.35943E-05 1.63679E-18 1.58819E-18
 -1      2640 1.71879E-04-6.35701E-05-4.65252E-05 8.19918E-06-2.42537E-18-2.93920E-18
 -1      2641 1.73053E-04-5.36991E-05-5.14281E-05 1.52982E-05-2.84180E-18-2.15824E-18
 -1      2642 1.41953E-04-6.42262E-05-3.25821E-05-1.33105E-05-5.34690E-19 6.48563E-19
 -1      2643 1.77050E-04-5.32883E-05-5.34207E-05-1.74486E-05 3.11708E-19-1.70169E-18
 -1      2644 9.64952E-05-2.98890E-05-2.85604E-05-9.38671E-07-1.48487E-18 2.60721E-18
 -1      2645 1.06587E-04-5.56634E-05-2.16183E-05 3.27317E-05 3.32037E-19-1.33461E-18
 -1      2646 1.22850E-04-6.06543E-05-2.69877E-05-2.81357E-05 1.39591E-18 2.62093E-18
 -1      2647 9.05555E-05-1.51721E-05-3.23295E-05 3.19315E-06 1.08440E-18-7.69151E-19
 -1      2648 9.03651E-05-1.49004E-05-3.23622E-05 2.25957E-06 9.79816E-19-8.65830E-19
 -1      2649 9.02307E-05-1.46976E-05-3.23912E-05 1.42123E-06 9.76153E-19-1.07233E-18
 -1      2650 9.01657E-05-1.46054E-05-3.24022E-05 4.64419E-07 9.04975E-19-1.13055E-18
 -1      2651 9.14163E-05-1.65925E-05-3.20545E-05 1.63995E-06 1.03655E-18-9.70766E-19
 -1      2652 9.21412E-05-1.75527E-05-3.20052E-05 6.46930E-06 1.18267E-18-3.04101E-19
 -1      2653 9.16134E-05-1.67548E-05-3.21049E-05 5.63126E-06 1.19282E-18-4.27386E-19
 -1      2654 9.35038E-05-1.97258E-05-3.16726E-05 7.61317E-06 1.17237E-18 2.04848E-19
 -1      2655 9.27655E-05-1.85165E-05-3.18393E-05 7.01034E-06 1.15360E-18-1.07457E-19
 -1      2656 9.34323E-05-1.98526E-05-3.15075E-05 5.73925E-06 1.10671E-18-1.85867E-19
 -1      2657 9.51701E-05-2.26892E-05-3.10966E-05 7.76874E-06 1.04705E-18 5.15233E-19
 -1      2658 9.42541E-05-2.09730E-05-3.14038E-05 7.79718E-06 1.11524E-18 4.48329E-19
 -1      2659 9.45793E-05-2.20385E-05-3.10566E-05 6.27166E-06 9.98950E-19 2.75394E-19
 -1      2660 9.59179E-05-2.48745E-05-3.04493E-05 6.61111E-06 9.56102E-19 1.10039E-18
 -1      2661 9.54689E-05-2.35468E-05-3.08021E-05 7.34944E-06 9.69006E-19 7.31332E-19
 -1      2662 9.53135E-05-2.41791E-05-3.04745E-05 5.78193E-06 8.57277E-19 5.40503E-19
 -1      2663 9.54176E-05-2.57223E-05-2.98479E-05 4.65577E-06 8.83687E-19 1.17217E-18
 -1      2664 9.44895E-05-2.13757E-05-3.13653E-05-7.79285E-06-8.22426E-19-8.53040E-19
 -1      2665 9.49253E-05-2.31041E-05-3.07782E-05-6.13918E-06-7.95471E-19-7.90928E-19
 -1      2666 9.37144E-05-2.00132E-05-3.15799E-05-7.63432E-06-6.87467E-19-8.91376E-19
 -1      2667 9.44770E-05-2.83125E-05-2.83555E-05-1.10202E-06 2.62978E-19 2.74149E-19
 -1      2668 9.44463E-05-2.82229E-05-2.83752E-05-1.03275E-06 1.95268E-19 1.41844E-19
 -1      2669 9.53255E-05-2.45264E-05-3.03388E-05-4.71471E-06-5.27920E-19-7.57938E-19
 -1      2670 9.52019E-05-2.54012E-05-2.99207E-05-3.27826E-06-3.32592E-19-6.82551E-19
 -1      2671 9.49257E-05-2.34365E-05-3.06258E-05-4.91307E-06-5.00902E-19-6.99115E-19
 -1      2672 1.78409E-04-3.40112E-05-6.18520E-05-1.63896E-05-6.00546E-19-1.90900E-18
 -1      2673 9.53486E-05-2.62017E-05-2.96263E-05-2.35407E-06-2.14054E-19-6.78808E-19
 -1      2674 9.51611E-05-2.66625E-05-2.93610E-05-1.43071E-06-4.04148E-20-7.54356E-19
 -1      2675 9.53325E-05-2.55181E-05-2.99161E-05-2.63792E-06-1.98459E-19-6.07271E-19
 -1      2676 9.51877E-05-2.71703E-05-2.91429E-05-7.87769E-07 2.84368E-20-7.61097E-19
 -1      2677 9.50341E-05-2.74591E-05-2.89628E-05-1.77796E-07-1.07935E-19-7.56179E-19
 -1      2678 9.54077E-05-2.67940E-05-2.94074E-05-1.04113E-06-4.51030E-20-6.87163E-19
 -1      2679 9.50201E-05-2.77676E-05-2.88165E-05 2.07867E-07-1.72053E-19-6.84981E-19
 -1      2680 9.49276E-05-2.79481E-05-2.87057E-05 5.66652E-07-2.72314E-19-7.17443E-19
 -1      2681 9.53623E-05-2.76049E-05-2.90436E-05 2.43541E-08-5.40938E-20-7.36656E-19
 -1      2682 9.49056E-05-2.81373E-05-2.86105E-05 7.75661E-07-2.13734E-19-6.87495E-19
 -1      2683 9.48667E-05-2.82554E-05-2.85466E-05 9.66339E-07-1.86726E-19-7.93212E-19
 -1      2684 9.52924E-05-2.81081E-05-2.87989E-05 6.58958E-07-2.02372E-19-7.67447E-19
 -1      2685 9.48487E-05-2.83702E-05-2.84876E-05 1.05760E-06-1.05423E-19-6.14272E-19
 -1      2686 9.48481E-05-2.84490E-05-2.84549E-05 1.13876E-06-9.20187E-20-7.29388E-19
 -1      2687 9.52332E-05-2.84191E-05-2.86400E-05 9.93544E-07-1.61653E-19-4.42101E-19
 -1      2688 9.48370E-05-2.85160E-05-2.84211E-05 1.15475E-06-7.68989E-20-9.36922E-19
 -1      2689 9.48607E-05-2.85683E-05-2.84089E-05 1.16698E-06-2.46640E-19-8.08193E-19
 -1      2690 9.51935E-05-2.86065E-05-2.85420E-05 1.12825E-06-1.93095E-19-5.80975E-19
 -1      2691 9.48556E-05-2.86038E-05-2.83923E-05 1.13782E-06-2.85757E-19-8.03914E-19
 -1      2692 9.48927E-05-2.86375E-05-2.83929E-05 1.10893E-06-2.06818E-19-5.64061E-19
 -1      2693 9.51717E-05-2.87122E-05-2.84866E-05 1.13621E-06-2.81968E-19-8.45898E-19
 -1      2694 9.48918E-05-2.86513E-05-2.83879E-05 1.05865E-06-1.70320E-19-5.43717E-19
 -1      2695 9.49332E-05-2.86713E-05-2.83959E-05 1.01125E-06-2.49038E-19-2.21338E-19
 -1      2696 9.51638E-05-2.87634E-05-2.84607E-05 1.07252E-06-1.07240E-19-5.09721E-19
 -1      2697 9.49358E-05-2.86726E-05-2.83980E-05 9.48993E-07-3.41853E-19-1.68803E-19
 -1      2698 9.49806E-05-2.86839E-05-2.84109E-05 8.90796E-07-3.03162E-19-1.56234E-19
 -1      2699 9.51649E-05-2.87785E-05-2.84541E-05 9.71448E-07-2.21786E-19-3.54450E-19
 -1      2700 9.49851E-05-2.86756E-05-2.84181E-05 8.28072E-07-3.28242E-19 1.47856E-19
 -1      2701 9.50286E-05-2.86798E-05-2.84333E-05 7.70263E-07-2.89350E-19-5.87315E-20
 -1      2702 9.51722E-05-2.87703E-05-2.84603E-05 8.55114E-07-3.59855E-19 2.82365E-19
 -1      2703 9.50344E-05-2.86653E-05-2.84437E-05 7.14307E-07-2.68691E-19-1.11030E-19
 -1      2704 9.50756E-05-2.86642E-05-2.84602E-05 6.63168E-07-2.45761E-19-3.97348E-19
 -1      2705 9.51835E-05-2.87455E-05-2.84753E-05 7.43322E-07-2.54353E-19 1.35505E-19
 -1      2706 9.50822E-05-2.86452E-05-2.84729E-05 6.18760E-07-2.23714E-19-3.15346E-19
 -1      2707 9.51210E-05-2.86399E-05-2.84901E-05 5.78755E-07-2.51728E-19-1.74313E-19
 -1      2708 9.51970E-05-2.87091E-05-2.84965E-05 6.48404E-07-3.16147E-19-7.61725E-20
 -1      2709 9.51282E-05-2.86173E-05-2.85045E-05 5.49443E-07-1.78325E-19-2.38274E-20
 -1      2710 9.51651E-05-2.86084E-05-2.85225E-05 5.24066E-07 3.17626E-20 3.93414E-19
 -1      2711 9.52119E-05-2.86637E-05-2.85222E-05 5.79339E-07 5.95874E-20 3.10321E-19
 -1      2712 9.51721E-05-2.85831E-05-2.85379E-05 5.13488E-07 1.92750E-19 3.72206E-19
 -1      2713 9.52072E-05-2.85718E-05-2.85560E-05 5.05340E-07 4.68777E-19 6.80441E-20
 -1      2714 9.52270E-05-2.86111E-05-2.85510E-05 5.43679E-07 9.36677E-20 2.20734E-19
 -1      2715 9.52147E-05-2.85405E-05-2.85743E-05 5.14544E-07 2.42028E-19-3.02190E-19
 -1      2716 9.52528E-05-2.85245E-05-2.85953E-05 5.26998E-07 2.05792E-19-2.61194E-19
 -1      2717 9.52417E-05-2.85490E-05-2.85840E-05 5.46003E-07-1.26370E-19-2.34112E-19
 -1      2718 9.52590E-05-2.84860E-05-2.86165E-05 5.61347E-07 4.19141E-19-2.55350E-19
 -1      2719 9.53004E-05-2.84648E-05-2.86406E-05 5.99130E-07 4.46817E-19-3.39291E-19
 -1      2720 9.52549E-05-2.84718E-05-2.86229E-05 5.94634E-07 4.31905E-19-3.55882E-19
 -1      2721 9.53036E-05-2.84156E-05-2.86655E-05 6.63598E-07 1.66435E-19-7.10974E-19
 -1      2722 9.53500E-05-2.83870E-05-2.86943E-05 7.32569E-07-1.15396E-19-4.51491E-19
 -1      2723 9.52631E-05-2.83743E-05-2.86684E-05 6.99398E-07 2.29357E-20-2.79452E-19
 -1      2724 9.53466E-05-2.83214E-05-2.87241E-05 8.33870E-07-4.19687E-19-2.54826E-19
 -1      2725 9.53997E-05-2.82816E-05-2.87593E-05 9.42101E-07-6.63145E-19-4.07831E-19
 -1      2726 9.52605E-05-2.82466E-05-2.87223E-05 8.72188E-07-3.02317E-19-3.55427E-19
 -1      2727 9.53830E-05-2.81915E-05-2.87952E-05 1.08925E-06-7.07285E-19-7.26058E-19
 -1      2728 9.54431E-05-2.81345E-05-2.88391E-05 1.24799E-06-8.33950E-19-1.30498E-18
 -1      2729 9.52366E-05-2.80737E-05-2.87864E-05 1.12870E-06-8.84100E-19-8.89886E-19
 -1      2730 9.54022E-05-2.80078E-05-2.88820E-05 1.45266E-06-7.42785E-19-1.23949E-18
 -1      2731 9.54665E-05-2.79239E-05-2.89370E-05 1.67740E-06-9.01015E-19-1.09703E-18
 -1      2732 9.51733E-05-2.78333E-05-2.88626E-05 1.48946E-06-6.96439E-19-9.56606E-19
 -1      2733 9.53871E-05-2.77521E-05-2.89848E-05 1.94146E-06-9.92003E-19-1.17089E-18
 -1      2734 9.54508E-05-2.76378E-05-2.90496E-05 2.23283E-06-7.36425E-19-1.22123E-18
 -1      2735 9.50449E-05-2.75025E-05-2.89490E-05 1.96611E-06-1.02803E-18-1.19542E-18
 -1      2736 9.52991E-05-2.73818E-05-2.91062E-05 2.59837E-06-9.34685E-20-1.23593E-18
 -1      2737 9.53534E-05-2.72030E-05-2.91893E-05 3.01760E-06 1.66276E-19-9.30799E-19
 -1      2738 9.48040E-05-2.70346E-05-2.90460E-05 2.59865E-06-3.76302E-19-1.32431E-18
 -1      2739 9.50833E-05-2.68345E-05-2.92488E-05 3.49731E-06 3.67209E-19-3.03438E-19
 -1      2740 9.51040E-05-2.65722E-05-2.93472E-05 4.06369E-06 4.59392E-19 3.76553E-19
 -1      2741 9.43667E-05-2.63525E-05-2.91498E-05 3.44363E-06 4.07890E-19-4.00932E-19
 -1      2742 9.46468E-05-2.60491E-05-2.93998E-05 4.68296E-06 1.31017E-19 3.78731E-19
 -1      2743 9.45968E-05-2.56722E-05-2.95091E-05 5.43829E-06 6.44403E-19 3.35042E-19
 -1      2744 9.36213E-05-2.53863E-05-2.92417E-05 4.53021E-06 3.23172E-19-1.50488E-19
 -1      2745 9.38530E-05-2.49475E-05-2.95345E-05 6.22315E-06 2.68409E-19 8.71968E-20
 -1      2746 9.36769E-05-2.44285E-05-2.96413E-05 7.21360E-06 5.49021E-19-4.89307E-19
 -1      2747 9.23993E-05-2.40462E-05-2.92871E-05 5.90029E-06 6.38013E-20-7.71396E-20
 -1      2748 9.25160E-05-2.34681E-05-2.95999E-05 8.18825E-06 3.15969E-19-9.16982E-19
 -1      2749 9.21354E-05-2.28045E-05-2.96716E-05 9.45531E-06-8.72014E-19-1.39817E-18
 -1      2750 9.04720E-05-2.22572E-05-2.92194E-05 7.59280E-06-1.70374E-19-5.65651E-19
 -1      2751 9.04949E-05-2.16835E-05-2.95041E-05 1.05957E-05-1.11829E-18-1.25073E-18
 -1      2752 8.99333E-05-2.10139E-05-2.94924E-05 1.20798E-05-9.21628E-19-2.08649E-18
 -1      2753 8.76519E-05-2.00741E-05-2.89294E-05 9.58969E-06-1.03212E-18-8.51351E-19
 -1      2754 8.75528E-05-1.97620E-05-2.90660E-05 1.35507E-05-3.48901E-19-1.60569E-18
 -1      2755 8.67722E-05-1.92971E-05-2.88599E-05 1.54513E-05 2.61156E-19-1.20896E-18
 -1      2756 8.36220E-05-1.76549E-05-2.82167E-05 1.20361E-05 1.40728E-20 6.71988E-19
 -1      2757 8.36911E-05-1.83854E-05-2.79706E-05 1.73699E-05 6.03718E-19-1.46725E-18
 -1      2758 8.30803E-05-1.89032E-05-2.74082E-05 1.97074E-05 1.22863E-18-1.09295E-18
 -1      2759 7.80963E-05-1.55535E-05-2.66964E-05 1.52641E-05 6.84049E-19 5.90210E-19
 -1      2760 7.96498E-05-1.92398E-05-2.57444E-05 2.22416E-05 1.12486E-18-1.53826E-18
 -1      2761 7.90518E-05-2.19328E-05-2.43634E-05 2.56915E-05 4.48292E-19-1.37865E-18
 -1      2762 7.14953E-05-1.54748E-05-2.37973E-05 1.98120E-05 7.79535E-19-1.06387E-18
 -1      2763 8.08278E-05-2.75183E-05-2.26170E-05 2.82820E-05 4.55201E-19-5.98217E-19
 -1      2764 1.79388E-04-4.04996E-05-5.87724E-05-2.08048E-05 2.58345E-19-2.03246E-18
 -1      2765 1.39146E-04-5.94776E-05-3.45516E-05 1.57412E-05 1.23286E-18-2.32315E-18
 -1      2766 1.31197E-04-6.08247E-05-2.98872E-05 2.45941E-05-2.40822E-19-8.26598E-19
 -1      2767 8.14858E-05-4.24971E-05-1.66605E-05 4.60407E-05 1.69089E-19 2.68647E-18
 -1      2768 6.64279E-05-3.35459E-05-1.34785E-05 4.28513E-05 1.16255E-19 2.11568E-18
 -1      2769 8.50096E-05-2.75782E-05-2.42611E-05-2.98494E-05 1.07592E-18 5.86041E-19
 -1      2770 8.24419E-05-2.28619E-05-2.54367E-05-2.77220E-05 4.11208E-19 6.05126E-19
 -1      2771 8.51368E-05-2.13372E-05-2.71744E-05-2.45123E-05-2.39720E-19 1.42498E-18
 -1      2772 8.48348E-05-1.98255E-05-2.78644E-05-2.24174E-05 4.74424E-19 1.35140E-18
 -1      2773 7.42825E-05-1.77844E-05-2.40185E-05-2.44463E-05 5.38223E-19-1.59622E-18
 -1      2774 9.45220E-05-2.84337E-05-2.83227E-05-1.15099E-06 2.28683E-19 5.55262E-19
 -1      2775 9.44646E-05-2.83700E-05-2.83232E-05-1.14718E-06 3.54966E-19 3.28477E-19
 -1      2776 9.48979E-05-2.84463E-05-2.84837E-05-1.11941E-06 2.72241E-19 2.02706E-19
 -1      2777 9.44805E-05-2.81296E-05-2.84359E-05-8.97033E-07 2.09833E-19 1.74164E-19
 -1      2778 9.44966E-05-2.80022E-05-2.84865E-05-7.21359E-07 3.29875E-19 2.83053E-19
 -1      2779 9.49320E-05-2.82405E-05-2.85883E-05-9.10756E-07 3.15185E-19-8.07605E-20
 -1      2780 9.45950E-05-2.85127E-05-2.83201E-05-1.10605E-06 3.58711E-19 2.53395E-19
 -1      2781 9.45250E-05-2.84678E-05-2.83092E-05-1.14023E-06 3.40811E-19 5.44812E-19
 -1      2782 9.48973E-05-2.85719E-05-2.84282E-05-1.17059E-06 3.19665E-19 1.13230E-19
 -1      2783 9.46808E-05-2.85619E-05-2.83357E-05-1.00994E-06 9.91936E-19 1.30827E-19
 -1      2784 9.46076E-05-2.85311E-05-2.83187E-05-1.06352E-06 6.93990E-19 1.51376E-19
 -1      2785 9.49188E-05-2.86441E-05-2.84054E-05-1.12650E-06 6.62978E-19-2.24379E-20
 -1      2786 9.47694E-05-2.85897E-05-2.83618E-05-8.91814E-07 8.01203E-19 1.94826E-19
 -1      2787 9.46985E-05-2.85696E-05-2.83420E-05-9.52297E-07 1.02742E-18 3.66892E-19
 -1      2788 9.49529E-05-2.86798E-05-2.84039E-05-1.03056E-06 8.81736E-19 4.26996E-19
 -1      2789 9.48550E-05-2.86021E-05-2.83932E-05-7.71344E-07 1.69394E-19 3.19353E-19
 -1      2790 9.47894E-05-2.85901E-05-2.83725E-05-8.30390E-07 5.31895E-19 1.71449E-19
 -1      2791 9.49928E-05-2.86908E-05-2.84159E-05-9.12670E-07 7.11082E-19 4.39298E-19
 -1      2792 9.49350E-05-2.86035E-05-2.84269E-05-6.61611E-07-6.33450E-19 1.70581E-19
 -1      2793 9.48755E-05-2.85975E-05-2.84064E-05-7.13725E-07-2.64412E-19 2.23816E-19
 -1      2794 9.50344E-05-2.86848E-05-2.84359E-05-7.93090E-07 1.22033E-19 9.12357E-19
 -1      2795 9.50088E-05-2.85971E-05-2.84612E-05-5.71235E-07-6.64038E-19 5.34633E-19
 -1      2796 9.49551E-05-2.85955E-05-2.84414E-05-6.12833E-07-9.04864E-19 1.98909E-19
 -1      2797 9.50753E-05-2.86675E-05-2.84607E-05-6.85419E-07-6.30419E-19-7.54944E-20
 -1      2798 9.50776E-05-2.85855E-05-2.84956E-05-5.05867E-07 8.67678E-20 7.45001E-19
 -1      2799 9.50283E-05-2.85869E-05-2.84764E-05-5.34622E-07-5.16831E-20 8.84645E-19
 -1      2800 9.51148E-05-2.86426E-05-2.84882E-05-5.98703E-07-4.81130E-19 9.10456E-19
 -1      2801 9.51437E-05-2.85707E-05-2.85301E-05-4.69181E-07-4.15711E-19 9.35203E-19
 -1      2802 9.50970E-05-2.85739E-05-2.85112E-05-4.83615E-07-2.12620E-19 7.91695E-19
 -1      2803 9.51531E-05-2.86128E-05-2.85174E-05-5.38945E-07-1.06341E-19 6.54052E-19
 -1      2804 9.52106E-05-2.85550E-05-2.85653E-05-4.63439E-07-1.45532E-19 8.29302E-19
 -1      2805 9.51638E-05-2.85586E-05-2.85463E-05-4.62715E-07-1.60335E-19 9.70622E-19
 -1      2806 9.51917E-05-2.85803E-05-2.85480E-05-5.10102E-07-3.04045E-19 4.41683E-19
 -1      2807 9.52823E-05-2.85409E-05-2.86019E-05-4.89627E-07 5.23498E-19 6.93275E-19
 -1      2808 9.52327E-05-2.85433E-05-2.85822E-05-4.73555E-07 2.62285E-19 1.01532E-18
 -1      2809 9.52329E-05-2.85473E-05-2.85798E-05-5.14628E-07 1.19659E-19 8.16587E-20
 -1      2810 9.53641E-05-2.85321E-05-2.86406E-05-5.47135E-07 7.33781E-19 3.96647E-19
 -1      2811 9.53085E-05-2.85313E-05-2.86196E-05-5.16407E-07 3.37536E-19 4.29612E-19
 -1      2812 9.52801E-05-2.85170E-05-2.86132E-05-5.53561E-07 6.34853E-19 5.04635E-19
 -1      2813 9.54620E-05-2.85339E-05-2.86817E-05-6.32949E-07 5.99786E-19 6.30953E-19
 -1      2814 9.53970E-05-2.85268E-05-2.86592E-05-5.89622E-07 9.84416E-19 5.42778E-19
 -1      2815 9.53381E-05-2.84939E-05-2.86482E-05-6.26128E-07 5.88708E-19 1.53454E-19
 -1      2816 9.55833E-05-2.85541E-05-2.87252E-05-7.40264E-07 1.81068E-19 8.19193E-19
 -1      2817 9.55055E-05-2.85367E-05-2.87011E-05-6.88528E-07 3.73053E-19 6.98882E-19
 -1      2818 9.54135E-05-2.84849E-05-2.86846E-05-7.28811E-07 6.54657E-19 6.95510E-19
 -1      2819 9.57364E-05-2.86036E-05-2.87701E-05-8.56534E-07-4.79881E-19 1.30550E-18
 -1      2820 9.56424E-05-2.85702E-05-2.87450E-05-8.03747E-07 9.78301E-20 1.09285E-18
 -1      2821 9.55152E-05-2.85007E-05-2.87218E-05-8.53818E-07-3.57919E-20 8.52816E-19
 -1      2822 9.59312E-05-2.86968E-05-2.88144E-05-9.60965E-07-9.60283E-19 1.01019E-18
 -1      2823 9.58181E-05-2.86405E-05-2.87895E-05-9.18915E-07-7.81412E-19 1.64240E-18
 -1      2824 9.56555E-05-2.85564E-05-2.87584E-05-9.86913E-07-4.26559E-19 8.69212E-19
 -1      2825 9.61780E-05-2.88516E-05-2.88553E-05-1.02176E-06-6.58322E-19-2.22854E-19
 -1      2826 9.60441E-05-2.87643E-05-2.88323E-05-1.00794E-06-5.47365E-19 2.17830E-19
 -1      2827 9.58500E-05-2.86723E-05-2.87926E-05-1.10467E-06-2.83882E-19 4.96532E-19
 -1      2828 9.64864E-05-2.90875E-05-2.88886E-05-9.93673E-07-4.35001E-19-6.57898E-19
 -1      2829 9.63324E-05-2.89611E-05-2.88701E-05-1.03218E-06-8.65264E-19-6.07163E-19
 -1      2830 9.61180E-05-2.88734E-05-2.88219E-05-1.17140E-06-6.25470E-19-3.57581E-19
 -1      2831 9.68621E-05-2.94208E-05-2.89099E-05-8.17150E-07 1.82531E-19 2.53607E-19
 -1      2832 9.66929E-05-2.92503E-05-2.88991E-05-9.38491E-07 1.02668E-19-1.52613E-19
 -1      2833 9.64806E-05-2.91867E-05-2.88439E-05-1.13638E-06-5.42482E-19-7.35693E-19
 -1      2834 9.73004E-05-2.98562E-05-2.89151E-05-4.21022E-07-3.92882E-19 1.06216E-18
 -1      2835 9.71284E-05-2.96442E-05-2.89150E-05-6.59609E-07-1.93815E-19 8.70839E-19
 -1      2836 9.69571E-05-2.96341E-05-2.88569E-05-9.32711E-07-4.60467E-19-3.59086E-20
 -1      2837 9.77774E-05-3.03732E-05-2.89023E-05 2.68079E-07-2.39181E-19 3.00980E-21
 -1      2838 9.76260E-05-3.01370E-05-2.89155E-05-1.19769E-07-8.89540E-20 8.28919E-19
 -1      2839 9.75552E-05-3.02207E-05-2.88621E-05-4.80136E-07-2.03471E-19 5.60375E-19
 -1      2840 9.82368E-05-3.09075E-05-2.88742E-05 1.30570E-06-5.89366E-22 2.63565E-19
 -1      2841 9.81443E-05-3.06875E-05-2.89009E-05 7.50781E-07-4.55815E-19-2.81345E-19
 -1      2842 9.82576E-05-3.09149E-05-2.88647E-05 3.04471E-07 3.53695E-20 2.07408E-19
 -1      2843 9.85780E-05-3.13342E-05-2.88394E-05 2.69587E-06 4.36607E-19 9.71466E-19
 -1      2844 9.85990E-05-3.12005E-05-2.88772E-05 1.98817E-06 1.06744E-19 5.65647E-19
 -1      2845 9.90007E-05-3.16243E-05-2.88765E-05 1.48372E-06 1.10227E-19-2.89026E-19
 -1      2846 9.86530E-05-3.14644E-05-2.88134E-05 4.34440E-06-2.99239E-19 1.57245E-18
 -1      2847 9.88529E-05-3.15139E-05-2.88561E-05 3.55214E-06 1.83661E-19 1.40630E-18
 -1      2848 9.96554E-05-3.21748E-05-2.89160E-05 3.05908E-06-3.27155E-19 1.12526E-18
 -1      2849 9.82902E-05-3.10766E-05-2.88152E-05 6.00986E-06-1.24221E-19 2.11751E-18
 -1      2850 9.87259E-05-3.14098E-05-2.88543E-05 5.27308E-06-2.41210E-20 2.30136E-18
 -1      2851 1.00020E-04-3.23117E-05-2.90064E-05 4.91241E-06-6.70504E-19 1.79562E-18
 -1      2852 9.73611E-05-3.00050E-05-2.88610E-05 7.28459E-06 1.15331E-18 2.03588E-18
 -1      2853 9.80463E-05-3.06758E-05-2.88881E-05 6.81121E-06 6.38781E-19 2.44021E-18
 -1      2854 9.98565E-05-3.17541E-05-2.91679E-05 6.74393E-06 6.98430E-20 2.38266E-18
 -1      2855 9.58884E-05-2.82776E-05-2.89520E-05 7.65696E-06 1.44709E-18 1.89883E-18
 -1      2856 9.67526E-05-2.92268E-05-2.89639E-05 7.67616E-06 1.77217E-18 2.37681E-18
 -1      2857 9.89895E-05-3.03272E-05-2.94057E-05 8.05288E-06 1.14750E-18 1.86053E-18
 -1      2858 9.41425E-05-2.62347E-05-2.90666E-05 6.69163E-06 6.78677E-19 1.47470E-18
 -1      2859 9.50135E-05-2.72483E-05-2.90678E-05 7.35859E-06 1.01924E-18 1.94297E-18
 -1      2860 9.74620E-05-2.81428E-05-2.96945E-05 8.23130E-06 1.33295E-18 2.03226E-18
 -1      2861 9.26360E-05-2.45045E-05-2.91635E-05 4.30536E-06 1.33271E-18 1.34539E-18
 -1      2862 9.32788E-05-2.52627E-05-2.91647E-05 5.58262E-06 1.22045E-18 1.85647E-18
 -1      2863 9.56577E-05-2.57258E-05-2.99742E-05 6.81527E-06 7.18439E-19 6.28340E-19
 -1      2864 9.19097E-05-2.37338E-05-2.91988E-05 9.40396E-07 1.09469E-18 1.33226E-18
 -1      2865 9.21283E-05-2.39564E-05-2.92108E-05 2.56015E-06 1.01829E-18 1.42517E-18
 -1      2866 9.42298E-05-2.38944E-05-3.01661E-05 3.83285E-06 9.98456E-19 8.03665E-19
 -1      2867 9.22482E-05-2.42458E-05-2.91477E-05-2.53070E-06-5.05315E-19 1.52713E-18
 -1      2868 9.19842E-05-2.38457E-05-2.91741E-05-9.87269E-07 3.49080E-19 1.95060E-18
 -1      2869 9.37790E-05-2.33713E-05-3.02033E-05-4.93815E-08 2.24537E-19 1.66325E-18
 -1      2870 9.34875E-05-2.58179E-05-2.90227E-05-5.16760E-06-9.07535E-19 2.41941E-18
 -1      2871 9.28566E-05-2.49675E-05-2.90561E-05-4.08945E-06-6.28018E-19 1.73944E-18
 -1      2872 9.44945E-05-2.43786E-05-3.00649E-05-3.72959E-06-3.71273E-19 1.78118E-18
 -1      2873 9.50885E-05-2.77991E-05-2.88657E-05-6.41662E-06 1.09034E-19 1.68713E-18
 -1      2874 9.43220E-05-2.68261E-05-2.88929E-05-5.98462E-06-5.44169E-20 2.23256E-18
 -1      2875 9.60039E-05-2.64764E-05-2.97939E-05-6.18933E-06-6.41759E-19 3.03469E-18
 -1      2876 9.64795E-05-2.95114E-05-2.87220E-05-6.28397E-06-1.17489E-18 7.72221E-19
 -1      2877 9.58010E-05-2.87178E-05-2.87326E-05-6.44450E-06-1.61505E-19 6.43228E-19
 -1      2878 9.76111E-05-2.88130E-05-2.94671E-05-7.00054E-06 5.08417E-19 1.11973E-18
 -1      2879 9.72972E-05-3.05344E-05-2.86220E-05-5.19676E-06-9.40447E-19-1.88969E-19
 -1      2880 9.68430E-05-3.00819E-05-2.86135E-05-5.73669E-06-2.08100E-18-5.50392E-19
 -1      2881 9.87207E-05-3.06235E-05-2.91624E-05-6.37210E-06-9.56711E-19-5.80594E-19
 -1      2882 9.74697E-05-3.08025E-05-2.85709E-05-3.72211E-06 4.62481E-20 2.61485E-20
 -1      2883 9.72726E-05-3.06947E-05-2.85489E-05-4.39307E-06-2.52780E-19 7.24555E-19
 -1      2884 9.90642E-05-3.15211E-05-2.89291E-05-4.90011E-06-1.58417E-18-2.52604E-18
 -1      2885 9.71202E-05-3.04959E-05-2.85532E-05-2.33626E-06-9.08948E-19 2.03567E-18
 -1      2886 9.71463E-05-3.06313E-05-2.85287E-05-2.92934E-06 6.17085E-20 1.61811E-18
 -1      2887 9.87141E-05-3.15417E-05-2.87765E-05-3.22111E-06-6.66396E-19-8.72794E-19
 -1      2888 9.67807E-05-3.01281E-05-2.85675E-05-1.34177E-06-2.43372E-18 3.11347E-18
 -1      2889 9.69363E-05-3.03574E-05-2.85577E-05-1.78398E-06-1.74659E-18 2.70084E-18
 -1      2890 9.82213E-05-3.11524E-05-2.87203E-05-1.81440E-06-1.53121E-18 1.68992E-18
 -1      2891 9.76656E-05-3.06279E-05-2.86996E-05-7.74999E-07-1.97209E-18 4.45361E-19
 -1      2892 9.66965E-05-2.88584E-05-2.91010E-05 1.25160E-05-1.05258E-18-3.46739E-18
 -1      2893 9.83892E-05-3.02946E-05-2.91351E-05 1.16193E-05-9.20736E-19-2.94574E-18
 -1      2894 9.23019E-05-4.32834E-05-2.02698E-05 3.41138E-05 1.24726E-19-9.66623E-19
 -1      2895 1.00602E-04-3.22776E-05-2.92554E-05 6.50829E-06 8.75022E-19-1.65545E-18
 -1      2896 1.00626E-04-3.25416E-05-2.91779E-05 4.94840E-06 9.87320E-19-1.70908E-18
 -1      2897 9.19988E-05-2.49700E-05-2.87972E-05 1.30273E-05-7.23392E-19-1.34492E-18
 -1      2898 9.44561E-05-2.68843E-05-2.88827E-05 1.32868E-05-9.79686E-19-2.62387E-18
 -1      2899 9.63293E-05-2.97567E-05-2.85840E-05 1.44144E-05-5.26290E-19-3.10965E-18
 -1      2900 9.95826E-05-3.12885E-05-2.92603E-05 9.91865E-06-1.17090E-18-2.48810E-18
 -1      2901 1.00362E-04-3.21103E-05-2.92326E-05 8.44196E-06 8.51076E-20-2.11983E-18
 -1      2902 1.01956E-04-3.38654E-05-2.92087E-05 7.79210E-06-6.73842E-19-2.72356E-18
 -1      2903 1.00313E-04-3.27350E-05-2.90097E-05 1.16507E-05-1.56476E-18-2.50809E-18
 -1      2904 8.65823E-05-2.04029E-05-2.84609E-05 1.03618E-05-7.57526E-19 1.63797E-18
 -1      2905 8.91259E-05-2.23119E-05-2.85500E-05 1.21280E-05-3.26976E-19 1.03457E-18
 -1      2906 9.03106E-05-2.50229E-05-2.80155E-05 1.45297E-05 2.89569E-19-4.07701E-19
 -1      2907 8.22168E-05-1.64666E-05-2.82645E-05 4.22898E-06-1.07311E-19 8.67742E-19
 -1      2908 8.39434E-05-1.78026E-05-2.82883E-05 7.43842E-06-5.25643E-19 1.67861E-18
 -1      2909 8.38257E-05-1.96120E-05-2.74992E-05 1.07330E-05-3.02526E-19 1.49212E-18
 -1      2910 8.11849E-05-1.49302E-05-2.84092E-05-3.99932E-06-3.18380E-19-1.48663E-19
 -1      2911 8.10629E-05-1.50529E-05-2.83028E-05-2.35670E-07-2.65387E-19-7.65018E-20
 -1      2912 7.93591E-05-1.54545E-05-2.73081E-05 3.02421E-06-3.61791E-19 4.23972E-19
 -1      2913 1.31200E-04-9.13840E-06-5.29011E-05 6.95323E-06 2.09641E-18-1.33799E-18
 -1      2914 1.28716E-04-5.90585E-06-5.33339E-05 1.20641E-06 2.13728E-18-1.36651E-18
 -1      2915 1.27825E-04-7.76768E-06-5.22058E-05-4.27297E-06 2.27873E-18-1.77652E-18
 -1      2916 1.29646E-04-1.13871E-05-5.11872E-05-8.99773E-06 2.46275E-18-1.71365E-18
 -1      2917 3.43665E-05-1.42922E-05-7.94912E-06-1.61527E-05 4.92073E-19-4.15597E-18
 -1      2918 4.69707E-05-2.17160E-05-1.03605E-05-2.91484E-05 1.17843E-18-5.86782E-18
 -1      2919 1.17614E-04-5.89477E-05-2.54019E-05 3.67159E-05-2.65121E-19 2.20863E-18
 -1      2920 9.96539E-05-5.15020E-05-2.01409E-05 4.27347E-05-1.68348E-19 2.22439E-18
 -1      2921 8.59769E-05-1.77855E-05-2.91950E-05-1.38486E-05 3.65726E-19-1.46093E-18
 -1      2922 8.23752E-05-1.54900E-05-2.87573E-05-9.43578E-06 2.41017E-19-9.93732E-19
 -1      2923 1.43769E-04-4.66820E-05-4.22987E-05-2.05788E-06 1.11078E-18-2.03923E-18
 -1      2924 1.42969E-04-5.45510E-05-3.79607E-05 5.95034E-06 2.09148E-18-2.82178E-18
 -1      2925 1.38198E-04-5.63755E-05-3.50428E-05 7.61524E-06 4.90187E-19-4.01637E-18
 -1      2926 9.11736E-05-1.60873E-05-3.22079E-05 4.91467E-06 1.18635E-18-5.74824E-19
 -1      2927 9.08307E-05-1.55884E-05-3.22684E-05 3.99290E-06 1.11958E-18-7.34503E-19
 -1      2928 9.18086E-05-1.71994E-05-3.19600E-05 3.19623E-06 1.07759E-18-7.11842E-19
 -1      2929 9.24780E-05-1.82595E-05-3.17881E-05 4.61358E-06 1.07342E-18-4.99116E-19
 -1      2930 1.34506E-04-2.11412E-05-4.93739E-05-1.12903E-05 2.16862E-18-2.39938E-18
 -1      2931 1.40366E-04-3.35819E-05-4.59926E-05-1.00354E-05 1.15959E-18-1.37473E-18
 -1      2932 7.20588E-05-3.64486E-05-1.45997E-05-4.51560E-05-2.40907E-18-2.29620E-18
 -1      2933 9.18955E-05-4.73575E-05-1.91343E-05-4.56862E-05-3.32704E-18-1.71111E-18
 -1      2934 9.07973E-05-1.55424E-05-3.22736E-05-3.93183E-06 2.52295E-19-1.13444E-18
 -1      2935 9.11318E-05-1.60256E-05-3.22149E-05-4.85595E-06 4.29898E-20-1.16649E-18
 -1      2936 1.36910E-04-2.41987E-05-4.88715E-05 1.10881E-05 2.79669E-18-9.66147E-19
 -1      2937 1.33931E-04-1.60338E-05-5.12252E-05 1.00793E-05 2.43882E-18-9.68953E-19
 -1      2938 1.00712E-04-5.05410E-05-2.07923E-05-3.57568E-05 2.74502E-18 1.59840E-18
 -1      2939 1.09329E-04-5.44970E-05-2.31022E-05-3.90426E-05-2.69706E-18-1.46363E-18
 -1      2940 1.20888E-04-5.81502E-05-2.70284E-05-3.31697E-05-1.83277E-18-4.56365E-19
 -1      2941 3.04336E-05-8.70108E-06-8.72659E-06-1.57904E-06-5.78894E-19-1.13947E-18
 -1      2942 3.17612E-05-9.61391E-06-8.99286E-06-1.55097E-05-4.13458E-19-2.26264E-18
 -1      2943 5.17706E-05-2.53377E-05-1.09847E-05 3.87266E-05 1.14582E-18-5.33631E-19
 -1      2944 3.93757E-05-1.73199E-05-8.74427E-06 2.74767E-05 6.65133E-19 1.46261E-18
 -1      2945 6.55268E-05-2.86221E-05-1.52638E-05 3.79877E-05 2.57392E-19 7.00708E-19
 -1      2946 4.56304E-05-1.85954E-05-1.10402E-05 2.48286E-05 6.40992E-19-2.04855E-18
 -1      2947 3.40840E-05-1.14011E-05-9.14489E-06 1.13963E-05-4.68515E-20-1.15281E-18
 -1      2948 5.95728E-05-2.87627E-05-1.25023E-05-3.42606E-05 1.26451E-18-2.18280E-18
 -1      2949 7.51853E-05-3.74515E-05-1.61641E-05-3.84915E-05 1.71228E-18-3.30131E-19
 -1      2950 5.78374E-05-2.20513E-05-1.46893E-05-2.90972E-05 9.16913E-20-2.73761E-18
 -1      2951 2.96692E-05-1.16754E-05-7.27700E-06 1.29741E-05 1.16372E-18 5.06886E-18
 -1      2952 2.85889E-05-1.13582E-05-6.75666E-06-2.78167E-06 1.19495E-18 1.80651E-18
 -1      2953 3.86671E-05-1.57183E-05-9.22780E-06-2.87043E-05-9.42854E-19-1.96745E-18
 -1      2954 5.24258E-05-2.49857E-05-1.15585E-05-4.08055E-05-9.59159E-19-2.24951E-18
 -1      2955 9.12839E-05-1.63899E-05-3.20854E-05 2.75344E-08 8.81864E-19-9.77384E-19
 -1      2956 9.01618E-05-1.46006E-05-3.24028E-05-3.83920E-07 8.63254E-19-1.03177E-18
 -1      2957 9.02187E-05-1.46814E-05-3.23929E-05-1.34129E-06 7.69822E-19-9.78670E-19
 -1      2958 9.03445E-05-1.48729E-05-3.23652E-05-2.17767E-06 6.43873E-19-8.10960E-19
 -1      2959 9.05297E-05-1.51373E-05-3.23331E-05-3.12856E-06 4.20671E-19-9.02530E-19
 -1      2960 9.17794E-05-1.71586E-05-3.19653E-05-3.14177E-06 3.28457E-19-8.56412E-19
 -1      2961 9.14031E-05-1.65741E-05-3.20568E-05-1.58325E-06 6.80076E-19-8.09050E-19
 -1      2962 9.50098E-05-2.79111E-05-2.87650E-05-4.56160E-07 3.44308E-19-5.56093E-21
 -1      2963 9.45571E-05-2.78510E-05-2.85893E-05-4.46209E-07 3.71883E-19 2.97735E-19
 -1      2964 9.46449E-05-2.76630E-05-2.86881E-05-1.02637E-07 3.78397E-19 3.60937E-19
 -1      2965 5.80593E-05-2.54504E-05-1.33057E-05 3.07026E-05 4.14199E-19-1.30210E-18
 -1      2966 5.76200E-05-1.96779E-05-1.56385E-05 2.51390E-05 5.88847E-19-1.46791E-18
 -1      2967 8.40883E-05-3.22342E-05-2.18352E-05-3.36321E-05 9.36607E-19 7.52377E-19
 -1      2968 6.96475E-05-2.37434E-05-1.94853E-05-3.14665E-05 3.01226E-19-1.61127E-18
 -1      2969 9.55473E-05-4.63383E-05-2.06423E-05 4.03712E-05-4.71691E-19 1.87573E-18
 -1      2970 4.29329E-05-1.21838E-05-1.24941E-05-2.07031E-05-5.87311E-19-1.82821E-18
 -1      2971 8.61416E-05-1.82259E-05-2.89760E-05-1.60173E-05 4.37805E-19-8.88992E-19
 -1      2972 8.56367E-05-1.91900E-05-2.83615E-05-2.01649E-05 7.87641E-21 7.49816E-19
 -1      2973 8.47620E-05-1.82264E-05-2.84925E-05-1.78796E-05 3.83183E-20-4.00686E-19
 -1      2974 7.98019E-05-1.55219E-05-2.76329E-05-1.47253E-05-8.90187E-19-1.85702E-19
 -1      2975 7.76147E-05-1.59107E-05-2.64389E-05-1.91168E-05-6.82206E-19 6.44572E-19
 -1      2976 9.49781E-05-2.66927E-05-2.92616E-05 1.83001E-06 6.95978E-19 4.01972E-19
 -1      2977 9.50680E-05-2.63891E-05-2.94044E-05 2.48727E-06 6.28800E-19 5.99541E-19
 -1      2978 9.85211E-05-3.12695E-05-2.88265E-05 1.08375E-07-1.41512E-18-2.45170E-19
 -1      2979 9.88832E-05-3.16281E-05-2.88473E-05-3.80568E-07-2.47681E-18 7.37049E-19
 -1      2980 9.91764E-05-3.15789E-05-2.89374E-05 1.03906E-06-7.78937E-19-1.25754E-18
 -1      2981 7.47967E-05-3.55545E-05-1.65545E-05 3.51587E-05 4.12082E-19-5.64442E-19
 -1      2982 8.25818E-05-3.32464E-05-2.09756E-05 3.24821E-05 1.89206E-19-7.22837E-19
 -1      2983 1.22178E-04-7.99450E-06-4.93730E-05-1.40310E-06 1.61190E-18-7.80885E-19
 -1      2984 7.94122E-05-1.45760E-05-2.77112E-05-7.36402E-06-5.42167E-19-2.92725E-19
 -1      2985 1.26348E-04-1.34191E-05-4.88026E-05 9.38291E-06 2.16787E-18-1.27166E-18
 -1      2986 1.26628E-04-1.85662E-05-4.66922E-05-1.07865E-05 1.70741E-18-1.57802E-18
 -1      2987 3.98106E-05-1.15390E-05-1.13627E-05-1.00599E-05 1.46036E-18-1.55579E-18
 -1      2988 9.15622E-05-1.66783E-05-3.21141E-05-5.59191E-06-1.55588E-19-1.14199E-18
 -1      2989 9.20768E-05-1.74359E-05-3.20141E-05-6.41079E-06-2.96857E-19-1.11614E-18
 -1      2990 9.24386E-05-1.82041E-05-3.17972E-05-4.56981E-06-8.79705E-20-9.68200E-19
 -1      2991 9.47246E-05-2.74111E-05-2.88513E-05 3.85314E-07 5.51535E-19 4.34385E-19
 -1      2992 9.49135E-05-2.71277E-05-2.90226E-05 9.90461E-07 6.60026E-19 3.97932E-19
 -1      2993 9.51276E-05-2.73773E-05-2.90454E-05 3.67202E-07 5.80667E-19 1.59894E-19
 -1      2994 1.28019E-04-5.89195E-05-2.94498E-05-2.55021E-05-1.30030E-18-6.10817E-19
 -1      2995 1.32360E-04-5.85096E-05-3.21993E-05-1.71387E-05-2.93523E-19-8.35386E-20
 -1      2996 1.22432E-04-5.68218E-05-2.79955E-05-2.64948E-05-1.09246E-18-1.36192E-18
 -1      2997 1.42701E-04-5.15808E-05-3.92128E-05-4.46561E-06 1.57266E-18 4.91067E-19
 -1      2998 1.00241E-04-3.21952E-05-2.91298E-05 3.49205E-06-6.10811E-21-1.38274E-18
 -1      2999 9.98219E-05-3.20945E-05-2.90275E-05 2.16656E-06-3.17325E-19-1.47557E-18
 -1      3000 1.00563E-04-3.27726E-05-2.90694E-05 1.67969E-06-1.39371E-18-4.81884E-19
 -1      3001 1.01734E-04-3.36294E-05-2.92028E-05 4.29969E-06 2.05355E-19-6.89327E-19
 -1      3002 1.37111E-04-4.02702E-05-4.16701E-05-7.84472E-06 2.17740E-19-3.16939E-18
 -1      3003 1.79726E-04-4.16671E-05-5.87150E-05 1.85700E-05-3.30555E-18-2.53263E-18
 -1      3004 9.09356E-05-4.14926E-05-2.06189E-05-3.48298E-05 1.12888E-18 1.16382E-18
 -1      3005 6.76300E-05-2.99948E-05-1.55368E-05-4.00338E-05-1.00077E-18-1.23392E-18
 -1      3006 1.24282E-04-5.86538E-05-2.79497E-05 2.72312E-05-8.24110E-19-1.14373E-18
 -1      3007 1.37923E-04-3.06594E-05-4.64884E-05 1.05015E-05 1.93208E-18-5.28337E-19
 -1      3008 1.29804E-04-2.55520E-05-4.49818E-05 1.30936E-05 1.81487E-18-9.22737E-19
 -1      3009 1.36900E-04-3.60714E-05-4.33446E-05 9.62251E-06 1.38024E-18-1.22502E-19
 -1      3010 1.01888E-04-4.95091E-05-2.21176E-05-3.91291E-05-2.61532E-18-1.56755E-18
 -1      3011 9.52348E-05-2.65376E-05-2.94576E-05 1.75558E-06 6.86772E-19 2.15583E-19
 -1      3012 4.18661E-05-1.36680E-05-1.14064E-05 1.89962E-05 7.76941E-19 2.68520E-18
 -1      3013 4.11259E-05-9.44331E-06-1.29241E-05 5.59851E-06 3.99429E-20-9.40207E-19
 -1      3014 9.50736E-05-2.38620E-05-3.05364E-05 5.06120E-06 8.89907E-19 2.68151E-19
 -1      3015 9.46612E-05-2.27232E-05-3.08213E-05 5.09708E-06 1.00974E-18 1.39196E-19
 -1      3016 9.42658E-05-2.18554E-05-3.10644E-05 4.98564E-06 9.86480E-19-4.53634E-20
 -1      3017 9.38090E-05-2.09117E-05-3.12455E-05 4.61675E-06 9.33216E-19-2.59892E-19
 -1      3018 9.49502E-05-2.35311E-05-3.05809E-05 3.96828E-06 8.73787E-19 5.61507E-20
 -1      3019 9.52076E-05-2.60586E-05-2.96126E-05 3.72451E-06 6.88012E-19 9.46159E-19
 -1      3020 9.44070E-05-2.19463E-05-3.10552E-05-5.49390E-06-5.26405E-19-7.00902E-19
 -1      3021 9.48002E-05-2.33619E-05-3.06326E-05-4.15178E-06-3.88665E-19-6.66934E-19
 -1      3022 6.20234E-05-2.33176E-05-1.61616E-05-3.47875E-05-3.43048E-20-2.79203E-19
 -1      3023 7.83398E-05-3.47359E-05-1.87326E-05-4.00935E-05-1.20416E-18-5.05096E-19
 -1      3024 5.93405E-05-1.69544E-05-1.76604E-05-2.51638E-05-2.63136E-19-3.70460E-18
 -1      3025 6.43249E-05-1.42181E-05-2.12891E-05-1.93914E-05 1.00035E-18-1.44721E-18
 -1      3026 6.77868E-05-1.32054E-05-2.34076E-05-1.67982E-05 1.75366E-18-8.39171E-19
 -1      3027 9.52553E-05-2.45364E-05-3.02948E-05-3.21013E-06-2.79392E-19-6.22450E-19
 -1      3028 9.53657E-05-2.53951E-05-2.99992E-05-2.25766E-06-1.79155E-19-6.70866E-19
 -1      3029 9.47749E-05-2.31391E-05-3.06971E-05-3.71412E-06-3.23470E-19-6.55032E-19
 -1      3030 9.55847E-05-2.61918E-05-2.97267E-05-1.50706E-06-8.13183E-20-5.00138E-19
 -1      3031 9.55927E-05-2.67689E-05-2.95043E-05-8.23812E-07-7.02731E-20-5.89046E-19
 -1      3032 9.54679E-05-2.52758E-05-3.00802E-05-2.00058E-06-1.70144E-19-4.78891E-19
 -1      3033 9.56734E-05-2.72722E-05-2.93036E-05-3.17366E-07-7.49154E-20-6.14356E-19
 -1      3034 9.56454E-05-2.76402E-05-2.91499E-05 1.13266E-07-1.24062E-19-4.96505E-19
 -1      3035 9.57921E-05-2.67269E-05-2.96012E-05-7.12981E-07-1.10707E-19-3.65965E-19
 -1      3036 9.56538E-05-2.79550E-05-2.90055E-05 4.26854E-07-8.33118E-20-5.17718E-19
 -1      3037 9.56224E-05-2.81891E-05-2.89023E-05 6.75606E-07-8.62845E-20-4.98172E-19
 -1      3038 9.59027E-05-2.76652E-05-2.92480E-05 1.39963E-07-1.54218E-19-3.86605E-19
 -1      3039 9.55964E-05-2.83811E-05-2.88008E-05 8.47721E-07-1.50513E-19-4.63158E-19
 -1      3040 9.55723E-05-2.85275E-05-2.87341E-05 9.71534E-07-1.93810E-19-3.65149E-19
 -1      3041 9.59029E-05-2.82595E-05-2.89937E-05 6.55934E-07-8.55632E-20-4.36985E-19
 -1      3042 9.55320E-05-2.86384E-05-2.86650E-05 1.04567E-06-2.81992E-19-5.18806E-19
 -1      3043 9.55169E-05-2.87260E-05-2.86242E-05 1.08733E-06-3.48300E-19-6.67214E-19
 -1      3044 9.58508E-05-2.86229E-05-2.88153E-05 9.28304E-07-3.44898E-19-5.26872E-19
 -1      3045 9.54726E-05-2.87834E-05-2.85790E-05 1.09762E-06-1.92636E-19-4.39299E-19
 -1      3046 9.54650E-05-2.88308E-05-2.85564E-05 1.08806E-06-1.97672E-19-4.35411E-19
 -1      3047 9.57768E-05-2.88309E-05-2.86940E-05 1.03430E-06-3.79582E-19-3.08240E-19
 -1      3048 9.54236E-05-2.88518E-05-2.85297E-05 1.06175E-06-1.04699E-19-4.41208E-19
 -1      3049 9.54219E-05-2.88723E-05-2.85199E-05 1.02596E-06-9.57288E-21-2.89339E-19
 -1      3050 9.56995E-05-2.89336E-05-2.86164E-05 1.03533E-06-1.10116E-19 3.79311E-20
 -1      3051 9.53827E-05-2.88724E-05-2.85042E-05 9.78560E-07-9.16791E-20-4.52594E-19
 -1      3052 9.53845E-05-2.88755E-05-2.85023E-05 9.27551E-07-2.43934E-19-2.56228E-19
 -1      3053 9.56241E-05-2.89677E-05-2.85690E-05 9.75253E-07-1.26445E-19-4.71940E-19
 -1      3054 9.53494E-05-2.88600E-05-2.84957E-05 8.72107E-07-2.84595E-19-3.22250E-19
 -1      3055 9.53537E-05-2.88507E-05-2.84997E-05 8.18279E-07-4.41885E-19-1.76906E-19
 -1      3056 9.55533E-05-2.89575E-05-2.85426E-05 8.83281E-07-2.93402E-19-7.58856E-19
 -1      3057 9.53232E-05-2.88254E-05-2.84996E-05 7.64200E-07-3.70370E-19-2.94961E-19
 -1      3058 9.53290E-05-2.88075E-05-2.85076E-05 7.15210E-07-2.41766E-19-3.06446E-19
 -1      3059 9.54902E-05-2.89167E-05-2.85327E-05 7.82603E-07-4.58511E-19-8.94601E-19
 -1      3060 9.53025E-05-2.87757E-05-2.85123E-05 6.68839E-07-3.26792E-19-2.13457E-19
 -1      3061 9.53092E-05-2.87516E-05-2.85231E-05 6.30148E-07-2.48551E-19-3.70779E-19
 -1      3062 9.54347E-05-2.88557E-05-2.85348E-05 6.89261E-07-3.72284E-19-7.12998E-19
 -1      3063 9.52857E-05-2.87148E-05-2.85313E-05 5.96001E-07-4.01197E-21-4.94075E-20
 -1      3064 9.52927E-05-2.86854E-05-2.85444E-05 5.71836E-07 1.75632E-19 8.98322E-20
 -1      3065 9.53854E-05-2.87803E-05-2.85458E-05 6.14612E-07 1.07054E-19-3.80287E-19
 -1      3066 9.52714E-05-2.86457E-05-2.85549E-05 5.54069E-07 3.41143E-20-9.05664E-20
 -1      3067 9.52785E-05-2.86129E-05-2.85694E-05 5.47534E-07-4.07179E-19-3.78656E-19
 -1      3068 9.53409E-05-2.86948E-05-2.85630E-05 5.67748E-07-4.16951E-20-3.42101E-19
 -1      3069 9.52557E-05-2.85652E-05-2.85829E-05 5.46818E-07-2.76414E-19-3.31484E-19
 -1      3070 9.52625E-05-2.85237E-05-2.86005E-05 5.61120E-07 2.01515E-20-3.99269E-19
 -1      3071 9.52966E-05-2.85971E-05-2.85858E-05 5.53311E-07-2.43844E-19-7.80939E-19
 -1      3072 9.52356E-05-2.84673E-05-2.86166E-05 5.82060E-07 3.96711E-19-6.07531E-19
 -1      3073 9.52407E-05-2.84163E-05-2.86370E-05 6.22032E-07 5.13391E-19-6.47485E-19
 -1      3074 9.52464E-05-2.84797E-05-2.86144E-05 5.77949E-07 1.91350E-20-6.96135E-19
 -1      3075 9.52055E-05-2.83466E-05-2.86558E-05 6.68001E-07 3.14968E-19-7.67851E-19
 -1      3076 9.52067E-05-2.82818E-05-2.86797E-05 7.38801E-07-1.17182E-19-7.67039E-19
 -1      3077 9.51841E-05-2.83378E-05-2.86482E-05 6.49203E-07 4.95816E-19-9.00413E-19
 -1      3078 9.51564E-05-2.81925E-05-2.87014E-05 8.13793E-07-2.97171E-19-3.39604E-19
 -1      3079 9.51496E-05-2.81073E-05-2.87296E-05 9.22104E-07-3.22941E-19-4.49693E-19
 -1      3080 9.50987E-05-2.81602E-05-2.86872E-05 7.74475E-07 4.99030E-21-8.05536E-19
 -1      3081 9.50740E-05-2.79890E-05-2.87542E-05 1.03081E-06-7.67560E-19-2.72791E-19
 -1      3082 9.50521E-05-2.78737E-05-2.87875E-05 1.18526E-06-9.01436E-19-5.32172E-19
 -1      3083 9.49737E-05-2.79302E-05-2.87314E-05 9.62170E-07-4.87997E-19-4.14003E-19
 -1      3084 9.49356E-05-2.77128E-05-2.88146E-05 1.33290E-06-8.89200E-19-4.61593E-19
 -1      3085 9.48858E-05-2.75537E-05-2.88533E-05 1.54451E-06-9.51328E-19-5.82522E-19
 -1      3086 9.47844E-05-2.76244E-05-2.87801E-05 1.22152E-06-9.03526E-19-4.49819E-20
 -1      3087 9.47148E-05-2.73437E-05-2.88800E-05 1.72614E-06-1.01342E-18-1.08052E-18
 -1      3088 9.46259E-05-2.71348E-05-2.89214E-05 1.99135E-06-1.46288E-18-9.81620E-19
 -1      3089 9.45020E-05-2.72209E-05-2.88296E-05 1.55157E-06-1.12783E-18-4.76200E-19
 -1      3090 9.43526E-05-2.68307E-05-2.89474E-05 2.23054E-06-7.97454E-19-3.99561E-19
 -1      3091 9.41825E-05-2.65224E-05-2.89936E-05 2.59273E-06 7.83490E-20-2.62935E-19
 -1      3092 9.40694E-05-2.66732E-05-2.88762E-05 1.96724E-06-5.17093E-19-2.65976E-20
 -1      3093 9.37593E-05-2.60984E-05-2.90110E-05 2.88318E-06 5.07610E-19-2.27879E-19
 -1      3094 9.34635E-05-2.56659E-05-2.90538E-05 3.34612E-06 5.59202E-19 8.56999E-20
 -1      3095 9.33899E-05-2.59017E-05-2.89107E-05 2.48262E-06 3.57639E-19 2.34739E-20
 -1      3096 9.28178E-05-2.50788E-05-2.90500E-05 3.68587E-06 8.51682E-20-1.63751E-19
 -1      3097 9.23241E-05-2.44797E-05-2.90765E-05 4.26349E-06-4.23794E-20 5.80543E-20
 -1      3098 9.23517E-05-2.48439E-05-2.89116E-05 3.08087E-06 1.04074E-19 3.42645E-19
 -1      3099 9.13518E-05-2.36802E-05-2.90289E-05 4.64276E-06-2.15245E-20-4.72390E-19
 -1      3100 9.05570E-05-2.28710E-05-2.90139E-05 5.34407E-06-3.22811E-19-8.22901E-19
 -1      3101 9.07834E-05-2.34107E-05-2.88425E-05 3.73640E-06-4.16408E-19-3.47912E-19
 -1      3102 8.91168E-05-2.18115E-05-2.88822E-05 5.74401E-06-2.72676E-19-6.40883E-19
 -1      3103 8.78802E-05-2.07653E-05-2.87778E-05 6.57086E-06-4.80881E-19-6.95317E-19
 -1      3104 8.84490E-05-2.15133E-05-2.86390E-05 4.39769E-06-4.70897E-19-6.89037E-19
 -1      3105 8.59018E-05-1.95023E-05-2.85102E-05 6.94992E-06-4.29844E-19-6.89286E-19
 -1      3106 8.41870E-05-1.83092E-05-2.82596E-05 7.85209E-06-1.26656E-19 2.01899E-19
 -1      3107 8.51371E-05-1.91489E-05-2.82070E-05 4.97027E-06-5.15888E-19-4.52203E-19
 -1      3108 8.12638E-05-1.67590E-05-2.77182E-05 8.26348E-06 2.65288E-19 3.17011E-19
 -1      3109 7.87240E-05-1.54379E-05-2.71532E-05 9.37084E-06 6.36906E-19 7.32037E-19
 -1      3110 8.04027E-05-1.62996E-05-2.73651E-05 5.42320E-06 3.04926E-19-3.44074E-19
 -1      3111 7.46195E-05-1.38391E-05-2.61355E-05 9.86166E-06 2.24553E-19 6.70671E-19
 -1      3112 7.12716E-05-1.28412E-05-2.50297E-05 1.12898E-05 2.81688E-19 6.05880E-19
 -1      3113 7.36062E-05-1.30652E-05-2.57600E-05 5.77194E-06 3.55656E-19-2.29228E-20
 -1      3114 6.54786E-05-1.15270E-05-2.31455E-05 1.23871E-05 2.30472E-19 3.52048E-20
 -1      3115 6.20265E-05-1.21903E-05-2.11371E-05 1.45091E-05 3.20509E-19-5.38845E-19
 -1      3116 6.38799E-05-9.85968E-06-2.27982E-05 6.18274E-06 4.72783E-20-1.28074E-19
 -1      3117 1.03634E-04-4.89643E-05-2.36744E-05 3.58636E-05-6.83450E-19 5.64203E-19
 -1      3118 8.93797E-05-3.97625E-05-2.07771E-05 3.76202E-05-2.95138E-19 8.26439E-19
 -1      3119 9.52737E-05-2.85668E-05-2.85891E-05-1.08815E-06 8.50894E-20-3.35496E-20
 -1      3120 9.52847E-05-2.84632E-05-2.86322E-05-1.01645E-06 2.09852E-19-1.19883E-19
 -1      3121 9.53318E-05-2.54891E-05-2.99364E-05 3.92014E-06 7.96251E-19 4.54157E-19
 -1      3122 9.52237E-05-2.87691E-05-2.84797E-05-1.08897E-06 5.73724E-19 8.78463E-21
 -1      3123 9.52111E-05-2.87350E-05-2.84882E-05-1.12068E-06 5.65827E-19 4.06904E-20
 -1      3124 9.53181E-05-2.83354E-05-2.87086E-05-8.96706E-07 2.02876E-19 5.81286E-20
 -1      3125 9.53491E-05-2.81708E-05-2.87819E-05-7.21980E-07 2.90601E-19-1.09656E-19
 -1      3126 9.56427E-05-2.84261E-05-2.88113E-05-8.73683E-07 2.56995E-19-3.13781E-20
 -1      3127 9.52136E-05-2.87936E-05-2.84646E-05-9.96478E-07 7.34038E-19 4.32471E-19
 -1      3128 9.51962E-05-2.87789E-05-2.84641E-05-1.04775E-06 7.35554E-19 3.78734E-19
 -1      3129 9.54669E-05-2.88764E-05-2.85407E-05-1.05414E-06 4.27445E-19 1.81089E-19
 -1      3130 9.52100E-05-2.87889E-05-2.84650E-05-8.84103E-07 4.82706E-19 4.27694E-19
 -1      3131 9.51904E-05-2.87875E-05-2.84587E-05-9.42071E-07 5.94974E-19 2.11365E-19
 -1      3132 9.54191E-05-2.88891E-05-2.85143E-05-9.65890E-07 7.16973E-19 1.31777E-19
 -1      3133 9.52106E-05-2.87650E-05-2.84754E-05-7.71339E-07-1.63029E-19 6.95768E-19
 -1      3134 9.51906E-05-2.87727E-05-2.84655E-05-8.27277E-07 3.78046E-19 7.70678E-19
 -1      3135 9.53785E-05-2.88692E-05-2.85050E-05-8.59464E-07 2.02860E-19 4.21475E-20
 -1      3136 9.52141E-05-2.87287E-05-2.84924E-05-6.71393E-07-5.30626E-19 2.80346E-19
 -1      3137 9.51945E-05-2.87425E-05-2.84804E-05-7.19433E-07-3.74425E-19 5.72818E-19
 -1      3138 9.53443E-05-2.88282E-05-2.85077E-05-7.53804E-07-2.85395E-20 2.54694E-19
 -1      3139 9.52197E-05-2.86845E-05-2.85138E-05-5.93164E-07-2.05587E-19 2.06856E-19
 -1      3140 9.52007E-05-2.87022E-05-2.85005E-05-6.29382E-07-5.29138E-19 1.69368E-19
 -1      3141 9.53157E-05-2.87738E-05-2.85185E-05-6.61866E-07-5.31368E-19-1.61549E-19
 -1      3142 9.52275E-05-2.86352E-05-2.85382E-05-5.42668E-07-1.70492E-19 2.33689E-19
 -1      3143 9.52086E-05-2.86555E-05-2.85239E-05-5.64439E-07 1.53614E-19 2.40514E-19
 -1      3144 9.52916E-05-2.87110E-05-2.85349E-05-5.92493E-07-3.68164E-20-2.03785E-19
 -1      3145 9.52379E-05-2.85834E-05-2.85648E-05-5.23983E-07-1.87941E-19 7.80273E-20
 -1      3146 9.52183E-05-2.86049E-05-2.85498E-05-5.29580E-07-2.39371E-19 3.98126E-19
 -1      3147 9.52713E-05-2.86430E-05-2.85553E-05-5.51787E-07 8.24414E-21 3.77351E-19
 -1      3148 9.52524E-05-2.85313E-05-2.85932E-05-5.39761E-07-5.57086E-20 9.48466E-20
 -1      3149 9.52307E-05-2.85527E-05-2.85775E-05-5.28179E-07-3.05933E-19 3.33925E-20
 -1      3150 9.52548E-05-2.85723E-05-2.85785E-05-5.44026E-07-3.30721E-19 2.17068E-20
 -1      3151 9.52738E-05-2.84824E-05-2.86233E-05-5.91291E-07 2.32183E-19 7.26802E-19
 -1      3152 9.52480E-05-2.85016E-05-2.86068E-05-5.62297E-07 1.23448E-19 4.86988E-19
 -1      3153 9.52429E-05-2.85017E-05-2.86037E-05-5.72152E-07-3.95806E-19-2.12235E-20
 -1      3154 9.53066E-05-2.84421E-05-2.86545E-05-6.78088E-07 5.38677E-19 8.26839E-19
 -1      3155 9.52739E-05-2.84559E-05-2.86373E-05-6.32526E-07 4.89418E-19 9.31304E-19
 -1      3156 9.52380E-05-2.84354E-05-2.86301E-05-6.37822E-07 1.10758E-19 6.99501E-19
 -1      3157 9.53578E-05-2.84192E-05-2.86862E-05-7.96946E-07 1.11541E-19 1.31696E-18
 -1      3158 9.53144E-05-2.84229E-05-2.86686E-05-7.37317E-07 6.97154E-19 1.29412E-18
 -1      3159 9.52450E-05-2.83804E-05-2.86569E-05-7.40985E-07 2.35519E-19 1.66114E-18
 -1      3160 9.54383E-05-2.84272E-05-2.87174E-05-9.40382E-07-1.85751E-19 1.25319E-18
 -1      3161 9.53788E-05-2.84134E-05-2.86998E-05-8.71734E-07-5.74274E-20 1.08685E-18
 -1      3162 9.52726E-05-2.83480E-05-2.86830E-05-8.78911E-07 3.03610E-20 1.77513E-18
 -1      3163 9.55636E-05-2.84856E-05-2.87464E-05-1.09441E-06-7.02288E-19 1.05770E-18
 -1      3164 9.54811E-05-2.84443E-05-2.87297E-05-1.02554E-06-3.93298E-19 1.31107E-18
 -1      3165 9.53347E-05-2.83557E-05-2.87069E-05-1.04459E-06-2.24814E-19 1.00987E-18
 -1      3166 9.57555E-05-2.86209E-05-2.87712E-05-1.23568E-06 2.81713E-19 4.70056E-19
 -1      3167 9.56409E-05-2.85388E-05-2.87566E-05-1.18059E-06-5.03304E-20 9.75300E-19
 -1      3168 9.54525E-05-2.84288E-05-2.87269E-05-1.22435E-06-1.35907E-19 7.54496E-19
 -1      3169 9.60418E-05-2.88660E-05-2.87900E-05-1.32805E-06-5.82640E-19-1.18287E-19
 -1      3170 9.58847E-05-2.87274E-05-2.87785E-05-1.30748E-06 1.77173E-19 4.55433E-19
 -1      3171 9.56559E-05-2.86012E-05-2.87415E-05-1.39470E-06 3.72635E-19 6.74211E-19
 -1      3172 9.64556E-05-2.92571E-05-2.88015E-05-1.31926E-06-5.64792E-19 4.32257E-20
 -1      3173 9.62452E-05-2.90460E-05-2.87941E-05-1.36193E-06-8.67772E-19-3.71198E-19
 -1      3174 9.59846E-05-2.89149E-05-2.87497E-05-1.51826E-06-4.77864E-19 5.38799E-19
 -1      3175 9.70301E-05-2.98251E-05-2.88069E-05-1.13872E-06-2.61370E-19-4.50822E-19
 -1      3176 9.67584E-05-2.95300E-05-2.88036E-05-1.28142E-06-3.96567E-19-1.30949E-19
 -1      3177 9.64863E-05-2.94145E-05-2.87527E-05-1.53932E-06-6.08000E-19 3.37174E-19
 -1      3178 9.77873E-05-3.05797E-05-2.88117E-05-6.98790E-07-2.73395E-19 2.91266E-19
 -1      3179 9.74554E-05-3.02029E-05-2.88103E-05-9.83985E-07 5.97952E-20 3.69497E-20
 -1      3180 9.72105E-05-3.01372E-05-2.87556E-05-1.37999E-06-8.19254E-20-2.89309E-19
 -1      3181 9.87195E-05-3.14844E-05-2.88279E-05 9.63323E-08 2.60891E-20-3.57500E-19
 -1      3182 9.83462E-05-3.10554E-05-2.88233E-05-3.72423E-07-1.40100E-19 1.14153E-19
 -1      3183 9.81933E-05-3.10906E-05-2.87700E-05-9.39541E-07-1.16105E-21 5.42376E-19
 -1      3184 9.97607E-05-3.24235E-05-2.88762E-05 1.32698E-06-3.95431E-19 7.36495E-19
 -1      3185 9.93939E-05-3.20141E-05-2.88594E-05 6.49881E-07-4.03027E-19 2.40756E-19
 -1      3186 9.94313E-05-3.22201E-05-2.88164E-05-1.02527E-07-5.21586E-19 3.92428E-19
 -1      3187 1.00758E-04-3.31712E-05-2.89858E-05 3.01395E-06-9.63206E-19 1.54964E-18
 -1      3188 1.00483E-04-3.29082E-05-2.89442E-05 2.14407E-06-2.39422E-19 1.55608E-18
 -1      3189 1.00843E-04-3.33674E-05-2.89263E-05 1.23447E-06-9.79790E-19 1.12978E-18
 -1      3190 1.01457E-04-3.33866E-05-2.91902E-05 5.04574E-06-4.82690E-19 1.69220E-18
 -1      3191 1.01391E-04-3.34453E-05-2.91102E-05 4.07356E-06-8.60670E-19 1.65884E-18
 -1      3192 1.02225E-04-3.42304E-05-2.91400E-05 3.10822E-06-5.61418E-19 1.01238E-18
 -1      3193 1.01539E-04-3.26831E-05-2.95151E-05 7.09183E-06-2.19487E-19 1.50308E-18
 -1      3194 1.01798E-04-3.32381E-05-2.93874E-05 6.21388E-06-4.62699E-19 1.62393E-18
 -1      3195 1.03234E-04-3.43717E-05-2.94986E-05 5.38950E-06-6.87439E-19 8.39736E-19
 -1      3196 1.00752E-04-3.08122E-05-2.99599E-05 8.55753E-06 1.53102E-18 1.26806E-18
 -1      3197 1.01382E-04-3.19320E-05-2.97885E-05 8.07404E-06 5.95134E-19 1.03495E-18
 -1      3198 1.03447E-04-3.33197E-05-3.00258E-05 7.66621E-06 2.78676E-19 3.28549E-19
 -1      3199 9.91246E-05-2.79348E-05-3.04739E-05 8.69492E-06 9.30269E-19 1.59688E-18
 -1      3200 1.00024E-04-2.94572E-05-3.02847E-05 8.92557E-06 1.20106E-18 1.70974E-18
 -1      3201 1.02563E-04-3.08524E-05-3.07005E-05 9.19169E-06 7.69704E-19 5.68212E-19
 -1      3202 9.71497E-05-2.48316E-05-3.09481E-05 6.91130E-06 5.22480E-19 1.64701E-18
 -1      3203 9.80260E-05-2.62892E-05-3.07878E-05 8.03315E-06 9.52317E-19 2.06069E-18
 -1      3204 1.00681E-04-2.73057E-05-3.14257E-05 9.03848E-06 7.35693E-19 2.27087E-18
 -1      3205 9.56732E-05-2.26854E-05-3.12529E-05 3.31771E-06 6.52713E-19 1.54299E-18
 -1      3206 9.61858E-05-2.35154E-05-3.11705E-05 5.16625E-06 4.39789E-19 2.12092E-18
 -1      3207 9.85539E-05-2.38048E-05-3.20369E-05 6.64624E-06 1.21264E-19 2.83041E-18
 -1      3208 9.54530E-05-2.24769E-05-3.12821E-05-1.14335E-06-1.53359E-21 2.37450E-18
 -1      3209 9.53854E-05-2.23057E-05-3.13116E-05 9.16534E-07 4.29275E-19 1.50258E-18
 -1      3210 9.72574E-05-2.18076E-05-3.23619E-05 2.30487E-06 2.95104E-19 2.70588E-18
 -1      3211 9.66411E-05-2.43488E-05-3.10165E-05-5.04093E-06-5.66559E-19 1.27871E-18
 -1      3212 9.60232E-05-2.32429E-05-3.11499E-05-3.40882E-06 1.41932E-20 1.37117E-18
 -1      3213 9.75317E-05-2.22406E-05-3.22811E-05-2.60175E-06 2.07748E-19 6.00133E-19
 -1      3214 9.85638E-05-2.73836E-05-3.05537E-05-7.19936E-06-4.28611E-19 1.13547E-18
 -1      3215 9.77107E-05-2.58660E-05-3.07461E-05-6.40802E-06-6.94106E-19 1.39838E-18
 -1      3216 9.92416E-05-2.49620E-05-3.18250E-05-6.34405E-06-4.58940E-19 1.09587E-19
 -1      3217 1.00276E-04-3.03190E-05-3.00209E-05-7.38674E-06 3.04380E-19 8.08740E-19
 -1      3218 9.95405E-05-2.89566E-05-3.02224E-05-7.44546E-06-1.84570E-19 9.05555E-19
 -1      3219 1.01357E-04-2.86324E-05-3.11476E-05-7.89182E-06-1.96744E-19-9.66809E-19
 -1      3220 1.01122E-04-3.22339E-05-2.95411E-05-6.08991E-06-4.95193E-19-3.79914E-20
 -1      3221 1.00740E-04-3.14106E-05-2.97082E-05-6.73173E-06 9.24884E-19 1.45945E-18
 -1      3222 1.02833E-04-3.17658E-05-3.04230E-05-7.30577E-06 2.09479E-19 1.56347E-19
 -1      3223 1.00952E-04-3.28624E-05-2.91802E-05-4.13763E-06-1.54826E-18-9.88436E-19
 -1      3224 1.00969E-04-3.26427E-05-2.92971E-05-5.01411E-06-1.96799E-18-7.62439E-19
 -1      3225 1.03133E-04-3.35353E-05-2.98027E-05-5.39848E-06-5.63029E-19 2.57311E-19
 -1      3226 9.99775E-05-3.24382E-05-2.89432E-05-2.25767E-06-1.13267E-18-4.86345E-19
 -1      3227 1.00313E-04-3.26656E-05-2.90140E-05-3.05841E-06-1.49473E-18-1.04656E-18
 -1      3228 1.02317E-04-3.38064E-05-2.93498E-05-3.13253E-06-1.41249E-18-7.62325E-19
 -1      3229 9.93812E-05-3.19973E-05-2.88853E-05-9.30024E-07-2.59983E-18 4.02021E-19
 -1      3230 9.95894E-05-3.22148E-05-2.88976E-05-1.55474E-06-1.48504E-18-5.23891E-19
 -1      3231 1.01306E-04-3.33441E-05-2.91203E-05-1.31312E-06-2.09090E-18 2.85315E-19
 -1      3232 1.00419E-04-3.26492E-05-2.90190E-05-1.26574E-08-2.40868E-18 3.25384E-19
 -1      3233 7.99924E-05-1.87736E-05-2.63522E-05 1.17895E-05-2.83089E-19 2.44453E-18
 -1      3234 8.38420E-05-2.13761E-05-2.66202E-05 1.47001E-05-2.55195E-19 1.52080E-18
 -1      3235 7.47066E-05-1.39961E-05-2.60790E-05 2.25885E-06-1.00049E-19-5.19708E-19
 -1      3236 7.64578E-05-1.54203E-05-2.60686E-05 6.99592E-06 6.00937E-19 1.54325E-19
 -1      3237 7.58461E-05-1.71541E-05-2.50682E-05 1.16913E-05-6.09037E-19 1.71488E-18
 -1      3238 9.64761E-05-3.10127E-05-2.80917E-05 1.64284E-05 7.23210E-20-2.51915E-18
 -1      3239 9.94987E-05-3.30297E-05-2.84073E-05 1.54199E-05-8.86351E-19-2.62027E-18
 -1      3240 1.17238E-04-8.47387E-06-4.70207E-05 2.79248E-06 2.00599E-18-1.62216E-18
 -1      3241 1.16286E-04-9.41714E-06-4.61517E-05-3.21463E-06 1.23900E-18-1.29149E-18
 -1      3242 7.63427E-05-1.38211E-05-2.68159E-05-9.53692E-06-6.38205E-19-1.23344E-19
 -1      3243 7.47124E-05-1.31709E-05-2.63765E-05-3.87812E-06-1.47143E-18 2.71168E-19
 -1      3244 7.16632E-05-1.28675E-05-2.50673E-05 1.53202E-07-1.39541E-19-7.74691E-19
 -1      3245 7.49530E-05-1.35849E-05-2.61874E-05-1.14997E-05-7.85754E-19-4.48497E-20
 -1      3246 4.48629E-05-8.90859E-06-1.52067E-05-1.30986E-05-2.67080E-19-2.16565E-18
 -1      3247 5.15220E-05-1.48548E-05-1.54234E-05-2.65254E-05-3.83653E-19-1.25774E-18
 -1      3248 1.21966E-04-1.69163E-05-4.53978E-05 1.14482E-05 1.94235E-18-4.64756E-19
 -1      3249 1.18869E-04-1.09129E-05-4.67463E-05 7.32430E-06 2.25597E-18-8.09049E-19
 -1      3250 1.14055E-04-1.21762E-05-4.39361E-05 5.06504E-06 1.59337E-18-6.78377E-19
 -1      3251 1.35313E-04-5.28629E-05-3.58106E-05 1.89832E-06 9.64268E-19-4.05996E-18
 -1      3252 1.33509E-04-5.60415E-05-3.29549E-05 9.04944E-06 5.31354E-19-4.18905E-18
 -1      3253 1.29725E-04-3.45849E-05-4.12010E-05-1.14524E-05-4.19811E-19-3.65709E-18
 -1      3254 1.34781E-04-4.54003E-05-3.82871E-05-5.83842E-06-1.26843E-19-3.30173E-18
 -1      3255 7.38984E-05-3.07027E-05-1.85746E-05 3.68450E-05 5.22831E-19 2.13209E-18
 -1      3256 6.24233E-05-2.24757E-05-1.65296E-05 3.16956E-05 9.53203E-19 2.00641E-20
 -1      3257 1.19426E-04-1.47159E-05-4.52954E-05-9.52484E-06 1.20210E-18-2.30809E-18
 -1      3258 1.24292E-04-2.30472E-05-4.36284E-05-1.24701E-05 6.38292E-19-2.78219E-18
 -1      3259 9.52428E-05-2.87007E-05-2.85176E-05-1.13315E-06 4.21505E-19-2.44682E-19
 -1      3260 9.52393E-05-2.86383E-05-2.85400E-05-1.12658E-06 1.01650E-19-2.19438E-19
 -1      3261 9.55822E-05-2.86760E-05-2.86774E-05-1.05473E-06 1.38137E-19-2.44083E-19
 -1      3262 9.55219E-05-2.88139E-05-2.85918E-05-1.09678E-06 3.50827E-19-1.46343E-19
 -1      3263 9.23677E-05-1.83383E-05-3.17420E-05 1.80912E-06 1.01927E-18-8.95062E-19
 -1      3264 9.22477E-05-1.81364E-05-3.17739E-05 1.05582E-06 9.53770E-19-1.08430E-18
 -1      3265 1.37695E-04-5.39924E-05-3.57358E-05-6.02494E-06 2.99797E-19 9.21148E-19
 -1      3266 1.38871E-04-4.69925E-05-3.99752E-05 2.99490E-06 9.58471E-19 2.03288E-20
 -1      3267 8.84955E-05-2.53420E-05-2.71670E-05 1.66038E-05 4.61936E-19 9.78316E-19
 -1      3268 9.25969E-05-2.80727E-05-2.75277E-05 1.72795E-05 2.51487E-19-8.50414E-19
 -1      3269 9.53605E-05-3.17706E-05-2.73091E-05 1.88576E-05 1.68000E-19-1.00272E-18
 -1      3270 8.52014E-05-2.45936E-05-2.60213E-05 1.83395E-05-1.86943E-20 7.82493E-19
 -1      3271 9.47448E-05-4.36731E-05-2.14077E-05-3.82390E-05-2.32193E-18-1.46272E-18
 -1      3272 1.08468E-04-5.10513E-05-2.46963E-05-3.35255E-05-2.12510E-18-1.49893E-18
 -1      3273 4.12157E-05-8.79376E-06-1.34710E-05-3.28710E-06 2.08196E-18 8.91608E-19
 -1      3274 4.69213E-05-1.19854E-05-1.46394E-05-1.69181E-05 1.24855E-18-3.61387E-18
 -1      3275 5.01355E-05-1.52074E-05-1.48306E-05 2.37735E-05-1.20451E-18 2.99003E-19
 -1      3276 4.27283E-05-9.62332E-06-1.36504E-05 9.47481E-06-6.88810E-20 3.63737E-18
 -1      3277 6.11199E-05-1.79296E-05-1.81255E-05 2.37980E-05-1.45848E-20 1.45303E-18
 -1      3278 5.12001E-05-9.60160E-06-1.74376E-05 1.24953E-05-1.42249E-19-5.65659E-19
 -1      3279 4.73372E-05-7.08405E-06-1.68508E-05-1.89988E-07-1.26112E-19-1.38072E-18
 -1      3280 1.27015E-04-5.79035E-05-3.00210E-05 1.96705E-05-8.75435E-19-3.56942E-18
 -1      3281 1.17027E-04-5.45935E-05-2.63543E-05 2.88974E-05-1.48458E-18-1.29055E-18
 -1      3282 9.43562E-05-2.19835E-05-3.09889E-05 3.63363E-06 8.08496E-19-3.18118E-19
 -1      3283 9.34290E-05-2.02139E-05-3.14045E-05 4.23670E-06 9.30857E-19-4.98520E-19
 -1      3284 9.30671E-05-1.95477E-05-3.15177E-05 3.64788E-06 9.36583E-19-5.85971E-19
 -1      3285 6.32154E-05-1.95140E-05-1.82914E-05-2.76098E-05-6.00798E-19-9.25648E-19
 -1      3286 9.27981E-05-1.83968E-05-3.19202E-05-7.62272E-06-5.15372E-19-9.85642E-19
 -1      3287 9.37320E-05-2.04505E-05-3.14129E-05-6.36903E-06-5.39087E-19-8.18890E-19
 -1      3288 9.36242E-05-2.03692E-05-3.13868E-05-5.54235E-06-4.37140E-19-8.28358E-19
 -1      3289 8.83196E-05-3.75452E-05-2.14643E-05-3.51266E-05-1.42598E-18-7.07696E-19
 -1      3290 5.93426E-05-1.41563E-05-1.91318E-05-1.97819E-05 4.32781E-19-2.39446E-18
 -1      3291 6.75909E-05-2.02835E-05-1.96983E-05 2.69466E-05 5.87788E-19-1.26123E-18
 -1      3292 5.44723E-05-9.59313E-06-1.88066E-05-1.07107E-05 2.00107E-18-1.64171E-18
 -1      3293 8.52617E-05-3.41873E-05-2.15918E-05 3.31615E-05 2.79891E-19 1.06414E-18
 -1      3294 1.10625E-04-4.94580E-05-2.60004E-05 2.82468E-05-1.24085E-18-1.56906E-18
 -1      3295 1.27348E-04-5.47615E-05-3.10557E-05 1.27267E-05-2.89526E-19-3.80463E-18
 -1      3296 9.27814E-05-1.90497E-05-3.16186E-05 3.12191E-06 1.06792E-18-6.19116E-19
 -1      3297 9.25427E-05-1.86340E-05-3.16860E-05 2.42055E-06 1.04168E-18-7.34713E-19
 -1      3298 9.33552E-05-2.00094E-05-3.14152E-05 1.80055E-06 9.07001E-19-8.30625E-19
 -1      3299 9.37670E-05-2.07880E-05-3.12545E-05 2.84506E-06 9.66473E-19-6.34456E-19
 -1      3300 7.09899E-05-1.34535E-05-2.45348E-05-1.50917E-05 1.54558E-18-2.83518E-19
 -1      3301 7.21253E-05-1.31496E-05-2.52787E-05-1.26269E-05 4.83236E-19 1.23574E-19
 -1      3302 6.87026E-05-1.15789E-05-2.44903E-05-7.25038E-06 3.51254E-19-4.75119E-19
 -1      3303 6.30162E-05-1.06716E-05-2.22379E-05-9.84039E-06 2.28546E-18-1.42174E-18
 -1      3304 9.52750E-05-2.52362E-05-3.00170E-05 3.30450E-06 8.78769E-19 1.70720E-19
 -1      3305 9.52888E-05-2.46316E-05-3.02651E-05 4.67094E-06 8.35211E-19 3.72829E-19
 -1      3306 9.56901E-05-2.80089E-05-2.90114E-05-4.80880E-07 4.99183E-19 3.07545E-19
 -1      3307 9.53713E-05-2.79557E-05-2.88961E-05-4.80565E-07 3.85635E-19 1.29965E-19
 -1      3308 9.54247E-05-2.76985E-05-2.90129E-05-1.49272E-07 5.46634E-19 2.79738E-19
 -1      3309 1.07929E-04-4.85051E-05-2.54312E-05-2.92087E-05-2.06231E-18-2.48894E-18
 -1      3310 1.15700E-04-5.35590E-05-2.63711E-05-2.84273E-05-2.33066E-18-2.47590E-18
 -1      3311 1.20493E-04-5.48082E-05-2.84340E-05-2.22632E-05-1.16946E-18-1.92280E-18
 -1      3312 5.64081E-05-1.39203E-05-1.78699E-05 2.05902E-05 6.47292E-19-1.50031E-18
 -1      3313 1.02232E-04-3.61225E-05-2.84089E-05 1.53236E-05-7.74213E-19-2.45369E-18
 -1      3314 1.01753E-04-3.44775E-05-2.88267E-05 1.31484E-05-1.60602E-18-3.26643E-18
 -1      3315 1.03254E-04-3.54920E-05-2.90165E-05 1.12635E-05-1.06934E-18-3.23016E-18
 -1      3316 5.43445E-05-9.25336E-06-1.90723E-05-5.64223E-06-1.09267E-19-1.41349E-18
 -1      3317 1.03890E-04-3.56074E-05-2.92326E-05 8.66238E-06-8.85888E-19-3.11499E-18
 -1      3318 1.04090E-04-3.57637E-05-2.92866E-05 6.63263E-06 6.05434E-20-1.99917E-18
 -1      3319 1.05449E-04-3.75950E-05-2.91141E-05 1.01019E-05-3.19409E-19-3.63198E-18
 -1      3320 1.10310E-04-1.19740E-05-4.22883E-05-2.88793E-06 8.10293E-19-1.03787E-18
 -1      3321 1.15023E-04-1.29218E-05-4.40819E-05-6.58242E-06 5.81541E-19-1.53636E-18
 -1      3322 1.13378E-04-1.69400E-05-4.14955E-05-8.43783E-06 5.05996E-19-2.19313E-18
 -1      3323 1.23412E-04-2.15205E-05-4.41050E-05 1.25946E-05 1.73573E-18 1.14138E-19
 -1      3324 1.16919E-04-1.82546E-05-4.24630E-05 1.15421E-05 1.33863E-18 1.45817E-18
 -1      3325 1.24267E-04-2.59862E-05-4.22051E-05 1.31585E-05 8.51903E-19 1.03118E-18
 -1      3326 9.30309E-05-1.94891E-05-3.15262E-05-3.61599E-06-2.67990E-20-7.30053E-19
 -1      3327 9.33828E-05-2.01065E-05-3.14162E-05-4.20884E-06-2.05566E-19-8.15731E-19
 -1      3328 9.21579E-05-1.74336E-05-3.20458E-05-7.03788E-06-3.22492E-19-1.10710E-18
 -1      3329 9.54160E-05-2.73487E-05-2.91784E-05 2.66838E-07 5.45794E-19 2.90113E-19
 -1      3330 9.54863E-05-2.69366E-05-2.93534E-05 8.23122E-07 5.57939E-19 3.76912E-19
 -1      3331 9.56877E-05-2.73301E-05-2.93018E-05 2.19988E-07 5.72620E-19 5.92505E-19
 -1      3332 1.31010E-04-4.71333E-05-3.59902E-05-3.55135E-06-2.37593E-19-3.85532E-18
 -1      3333 1.05501E-04-3.69651E-05-2.93841E-05 5.50307E-06-1.02855E-19-2.28785E-18
 -1      3334 1.03624E-04-3.51370E-05-2.93218E-05 4.74541E-06 2.79396E-19-1.03104E-18
 -1      3335 1.03105E-04-3.48058E-05-2.92829E-05 3.29509E-06-7.76749E-19-5.82251E-19
 -1      3336 9.25224E-05-1.86013E-05-3.16908E-05-2.37353E-06 5.02448E-19-5.31938E-19
 -1      3337 9.27543E-05-1.90069E-05-3.16250E-05-3.07990E-06 2.21084E-19-6.68871E-19
 -1      3338 9.37450E-05-2.07550E-05-3.12607E-05-2.79867E-06 3.01934E-20-4.91884E-19
 -1      3339 1.18169E-04-2.49617E-05-4.00717E-05-1.20449E-05 6.36598E-20-2.79175E-18
 -1      3340 1.24849E-04-2.99748E-05-4.09377E-05-1.25640E-05-1.23402E-19-2.83674E-18
 -1      3341 1.23782E-04-3.50389E-05-3.79728E-05-1.08191E-05-8.24587E-19-2.75858E-18
 -1      3342 1.34071E-04-4.16760E-05-3.98501E-05 7.56665E-06 6.06396E-19 6.18916E-19
 -1      3343 9.53636E-05-2.56129E-05-2.98606E-05 2.57927E-06 7.56777E-19 2.68037E-19
 -1      3344 9.52674E-05-2.49536E-05-3.01574E-05 3.17117E-06 8.66628E-19 2.09633E-19
 -1      3345 9.50795E-05-2.41231E-05-3.04094E-05 3.20372E-06 7.63839E-19 8.90634E-20
 -1      3346 9.53512E-05-2.63082E-05-2.96015E-05 1.65229E-06 6.27120E-19 2.50850E-19
 -1      3347 1.33115E-04-5.48706E-05-3.34761E-05-8.98537E-06-8.45048E-20 9.06961E-19
 -1      3348 9.21879E-05-1.80348E-05-3.17923E-05 4.08112E-07 9.17660E-19-1.01528E-18
 -1      3349 9.21848E-05-1.80328E-05-3.17929E-05-3.60238E-07 8.43466E-19-8.90303E-19
 -1      3350 9.31382E-05-1.96175E-05-3.14914E-05 6.24841E-07 8.69330E-19-1.03658E-18
 -1      3351 4.91354E-05-9.59967E-06-1.64549E-05 2.63863E-06 4.26322E-19 7.71753E-19
 -1      3352 9.55368E-05-2.62251E-05-2.97220E-05 1.49303E-06 5.89068E-19 2.30885E-19
 -1      3353 9.22400E-05-1.81222E-05-3.17759E-05-1.00704E-06 7.65557E-19-7.69678E-19
 -1      3354 9.23530E-05-1.83176E-05-3.17453E-05-1.76038E-06 6.47191E-19-6.48390E-19
 -1      3355 9.33418E-05-1.99863E-05-3.14181E-05-1.75318E-06 5.69415E-19-5.21341E-19
 -1      3356 9.53035E-05-2.44112E-05-3.03785E-05-2.35127E-06-1.21933E-19-5.21410E-19
 -1      3357 9.55474E-05-2.53371E-05-3.01016E-05-1.56675E-06-1.23229E-20-3.91646E-19
 -1      3358 9.58450E-05-2.61615E-05-2.98558E-05-1.03257E-06 8.66110E-21-2.80209E-19
 -1      3359 9.59470E-05-2.67901E-05-2.96476E-05-4.93560E-07-3.75260E-20-3.47889E-19
 -1      3360 9.56800E-05-2.53554E-05-3.01356E-05-1.30826E-06 7.12399E-21-2.55750E-19
 -1      3361 9.60902E-05-2.73341E-05-2.94584E-05-1.25094E-07-9.07563E-20-2.13621E-19
 -1      3362 9.61108E-05-2.77458E-05-2.93054E-05 2.20687E-07-1.09515E-19-2.26989E-19
 -1      3363 9.61184E-05-2.68283E-05-2.96956E-05-3.84836E-07 5.24719E-21-2.02592E-19
 -1      3364 9.61567E-05-2.80932E-05-2.91631E-05 4.51113E-07-4.85982E-20-1.08335E-19
 -1      3365 9.61387E-05-2.83556E-05-2.90534E-05 6.52435E-07-1.76229E-20-1.54067E-19
 -1      3366 9.63058E-05-2.78053E-05-2.93584E-05 2.35694E-07 3.10767E-21-1.50102E-19
 -1      3367 9.61266E-05-2.85678E-05-2.89487E-05 7.77325E-07-2.34212E-19-9.90413E-20
 -1      3368 9.60915E-05-2.87269E-05-2.88721E-05 8.76416E-07-3.92611E-19-1.28902E-19
 -1      3369 9.63415E-05-2.84330E-05-2.91055E-05 6.10909E-07-1.30233E-19 1.08085E-19
 -1      3370 9.60474E-05-2.88464E-05-2.87971E-05 9.27333E-07-4.63030E-19 2.80251E-20
 -1      3371 9.60062E-05-2.89342E-05-2.87453E-05 9.57827E-07-2.95974E-19 4.73656E-20
 -1      3372 9.62879E-05-2.88125E-05-2.89202E-05 8.04839E-07-2.49967E-19 1.11648E-19
 -1      3373 9.59494E-05-2.89884E-05-2.86954E-05 9.60756E-07-2.52623E-19-1.40243E-20
 -1      3374 9.59105E-05-2.90279E-05-2.86634E-05 9.50523E-07-3.01350E-19-8.14649E-20
 -1      3375 9.61901E-05-2.90176E-05-2.87905E-05 8.74059E-07-3.54772E-19 1.11779E-19
 -1      3376 9.58456E-05-2.90446E-05-2.86278E-05 9.25717E-07-5.12761E-19-1.51246E-19
 -1      3377 9.58071E-05-2.90536E-05-2.86076E-05 8.91185E-07-5.97921E-19-4.32571E-19
 -1      3378 9.60709E-05-2.91077E-05-2.87006E-05 8.65087E-07-6.66894E-19-1.07035E-19
 -1      3379 9.57422E-05-2.90418E-05-2.85854E-05 8.51110E-07-4.87823E-19-8.35485E-19
 -1      3380 9.57076E-05-2.90291E-05-2.85752E-05 8.06036E-07-5.33197E-19-1.07611E-18
 -1      3381 9.59433E-05-2.91225E-05-2.86393E-05 8.10622E-07-8.09094E-19-4.88565E-19
 -1      3382 9.56461E-05-2.89992E-05-2.85630E-05 7.61497E-07-4.12713E-19-9.36232E-19
 -1      3383 9.56157E-05-2.89722E-05-2.85601E-05 7.15536E-07-3.10743E-19-8.27069E-19
 -1      3384 9.58189E-05-2.90844E-05-2.86020E-05 7.34661E-07-3.15386E-19-7.15976E-19
 -1      3385 9.55587E-05-2.89306E-05-2.85553E-05 6.73916E-07-2.16297E-19-5.93788E-19
 -1      3386 9.55320E-05-2.88937E-05-2.85578E-05 6.33920E-07-4.69112E-20-2.20626E-19
 -1      3387 9.57020E-05-2.90119E-05-2.85827E-05 6.55339E-07-1.54598E-19-3.01500E-19
 -1      3388 9.54791E-05-2.88440E-05-2.85586E-05 6.00411E-07 3.04613E-20-4.14442E-19
 -1      3389 9.54549E-05-2.87996E-05-2.85651E-05 5.71345E-07 1.51469E-19-4.55992E-19
 -1      3390 9.55935E-05-2.89162E-05-2.85769E-05 5.85483E-07-9.67021E-20-6.43447E-19
 -1      3391 9.54068E-05-2.87459E-05-2.85699E-05 5.50666E-07-2.38360E-19-4.73070E-19
 -1      3392 9.53852E-05-2.86974E-05-2.85791E-05 5.36360E-07-3.90780E-19-9.35330E-19
 -1      3393 9.54938E-05-2.88059E-05-2.85811E-05 5.35142E-07-1.53011E-19-9.85792E-19
 -1      3394 9.53348E-05-2.86337E-05-2.85874E-05 5.28603E-07-5.73729E-20-8.52171E-19
 -1      3395 9.53110E-05-2.85748E-05-2.85998E-05 5.31156E-07-1.21682E-19-6.24872E-19
 -1      3396 9.53964E-05-2.86803E-05-2.85929E-05 5.08868E-07-1.91166E-19-1.15858E-18
 -1      3397 9.52564E-05-2.85013E-05-2.86108E-05 5.40442E-07 6.29669E-20-1.65883E-19
 -1      3398 9.52285E-05-2.84315E-05-2.86258E-05 5.63801E-07 2.66993E-19-3.64401E-19
 -1      3399 9.52924E-05-2.85328E-05-2.86112E-05 5.11784E-07 4.07242E-19-2.68155E-19
 -1      3400 9.51643E-05-2.83442E-05-2.86392E-05 5.92228E-07 2.07148E-19-2.29716E-19
 -1      3401 9.51278E-05-2.82591E-05-2.86567E-05 6.39619E-07 3.58533E-19-4.58033E-19
 -1      3402 9.51752E-05-2.83601E-05-2.86345E-05 5.49297E-07 9.74077E-20 9.78940E-20
 -1      3403 9.50465E-05-2.81516E-05-2.86718E-05 6.89083E-07 2.49552E-19-7.08805E-19
 -1      3404 9.49946E-05-2.80444E-05-2.86917E-05 7.63966E-07 2.41686E-20-4.42835E-19
 -1      3405 9.50319E-05-2.81518E-05-2.86616E-05 6.24921E-07 3.04193E-19-2.45745E-19
 -1      3406 9.48853E-05-2.79079E-05-2.87080E-05 8.35928E-07-3.07160E-19-5.31706E-19
 -1      3407 9.48077E-05-2.77690E-05-2.87300E-05 9.41962E-07-3.61882E-19-1.67736E-19
 -1      3408 9.48446E-05-2.78929E-05-2.86913E-05 7.41071E-07-1.84987E-19-6.07481E-19
 -1      3409 9.46551E-05-2.75908E-05-2.87461E-05 1.03688E-06-5.39099E-19-2.04946E-19
 -1      3410 9.45356E-05-2.74068E-05-2.87694E-05 1.17745E-06-6.38186E-19-2.44142E-19
 -1      3411 9.45879E-05-2.75629E-05-2.87214E-05 8.98067E-07-5.58668E-19-7.84125E-19
 -1      3412 9.43299E-05-2.71839E-05-2.87826E-05 1.28779E-06-9.76256E-19-3.89321E-19
 -1      3413 9.41580E-05-2.69508E-05-2.88043E-05 1.45522E-06-1.33036E-18-4.68961E-19
 -1      3414 9.42371E-05-2.71455E-05-2.87476E-05 1.08660E-06-8.93030E-19-9.91023E-19
 -1      3415 9.38511E-05-2.66398E-05-2.88124E-05 1.58723E-06-5.02048E-19-4.77956E-20
 -1      3416 9.35734E-05-2.63095E-05-2.88306E-05 1.79963E-06 2.89679E-19 2.93599E-19
 -1      3417 9.37381E-05-2.66002E-05-2.87648E-05 1.30200E-06-5.19219E-19 4.66909E-19
 -1      3418 9.31285E-05-2.58917E-05-2.88259E-05 1.93696E-06 1.91317E-19 9.79220E-20
 -1      3419 9.27018E-05-2.54430E-05-2.88320E-05 2.18033E-06 3.33665E-19 4.48336E-19
 -1      3420 9.30047E-05-2.58621E-05-2.87622E-05 1.52723E-06 2.49322E-20 7.09331E-19
 -1      3421 9.20607E-05-2.48847E-05-2.88031E-05 2.30172E-06 6.55543E-20-1.61470E-20
 -1      3422 9.14115E-05-2.42802E-05-2.87833E-05 2.56143E-06-2.29590E-19-2.32132E-19
 -1      3423 9.19486E-05-2.48878E-05-2.87206E-05 1.71582E-06 1.95061E-19 2.60303E-19
 -1      3424 9.04935E-05-2.35434E-05-2.87105E-05 2.63035E-06-6.32852E-19 4.24869E-20
 -1      3425 8.95183E-05-2.27416E-05-2.86407E-05 2.87719E-06-6.89253E-19-4.14568E-19
 -1      3426 9.04349E-05-2.36136E-05-2.86087E-05 1.79617E-06-4.41715E-19-2.69251E-19
 -1      3427 8.82156E-05-2.17888E-05-2.84916E-05 2.83630E-06-3.72548E-19-5.61995E-19
 -1      3428 8.67708E-05-2.07525E-05-2.83288E-05 3.02081E-06-3.35878E-19-5.39368E-19
 -1      3429 8.82835E-05-2.19784E-05-2.83745E-05 1.65319E-06-7.51465E-19-3.90925E-19
 -1      3430 8.50431E-05-1.96311E-05-2.80664E-05 2.80178E-06-8.85154E-19-4.27089E-19
 -1      3431 8.30673E-05-1.84102E-05-2.77656E-05 2.86444E-06-8.62099E-19-8.25985E-19
 -1      3432 8.53497E-05-1.99949E-05-2.79487E-05 1.13345E-06-5.22903E-19-1.19640E-18
 -1      3433 8.05658E-05-1.70097E-05-2.72823E-05 2.34660E-06-1.12861E-19-8.22907E-19
 -1      3434 7.76036E-05-1.55149E-05-2.66907E-05 2.23198E-06 5.69732E-19-7.03543E-19
 -1      3435 8.12879E-05-1.76263E-05-2.71964E-05 2.24395E-08-3.97988E-19-6.41965E-19
 -1      3436 7.40828E-05-1.39242E-05-2.58428E-05 1.29119E-06 4.28739E-19-9.79805E-19
 -1      3437 6.97637E-05-1.23135E-05-2.47446E-05 1.03703E-06-1.17685E-19-1.04178E-18
 -1      3438 7.55462E-05-1.48838E-05-2.58649E-05-2.05427E-06 2.26057E-19-1.84688E-18
 -1      3439 6.54091E-05-1.10767E-05-2.33190E-05-1.45314E-06-2.59000E-19-8.85044E-19
 -1      3440 5.92159E-05-9.60091E-06-2.13268E-05-2.06617E-06-2.24993E-20-1.08558E-18
 -1      3441 5.89525E-05-1.13219E-05-2.00833E-05-1.40111E-05-3.08710E-19-7.62700E-19
 -1      3442 6.80653E-05-1.24126E-05-2.36272E-05-6.36797E-06-3.05924E-20-1.06870E-18
 -1      3443 9.59187E-05-2.85243E-05-2.88855E-05-8.44590E-07 2.77941E-19 7.33096E-20
 -1      3444 9.59497E-05-2.83353E-05-2.89710E-05-6.95280E-07 4.11322E-19 1.69108E-19
 -1      3445 1.26095E-04-4.30256E-05-3.59924E-05-6.82269E-06-5.52213E-19-2.91305E-18
 -1      3446 1.28087E-04-4.82714E-05-3.39906E-05-1.27609E-06-3.38496E-19-3.86735E-18
 -1      3447 9.56095E-05-2.89769E-05-2.85556E-05-8.95828E-07 6.59558E-19 2.13602E-19
 -1      3448 9.56328E-05-2.89773E-05-2.85660E-05-9.41480E-07 7.68481E-19 3.50187E-19
 -1      3449 5.25564E-05-8.98714E-06-1.83582E-05-3.94595E-06 1.90281E-18-1.13471E-18
 -1      3450 5.85489E-05-1.00341E-05-2.05634E-05-5.23492E-06 1.48726E-18-1.08981E-18
 -1      3451 6.16876E-05-1.02400E-05-2.18852E-05-3.87567E-06 8.41057E-19-2.19191E-18
 -1      3452 5.33755E-05-1.01695E-05-1.84594E-05 7.98550E-06-5.12303E-19 7.36389E-19
 -1      3453 9.55362E-05-2.89415E-05-2.85392E-05-7.97509E-07 1.58453E-19 3.44654E-19
 -1      3454 9.55558E-05-2.89576E-05-2.85421E-05-8.48115E-07 3.45999E-19 3.05774E-19
 -1      3455 9.57527E-05-2.90476E-05-2.85895E-05-8.30402E-07 5.37811E-19 3.27091E-19
 -1      3456 9.54704E-05-2.88836E-05-2.85358E-05-7.01975E-07-4.09905E-19 3.22180E-19
 -1      3457 9.54868E-05-2.89098E-05-2.85334E-05-7.49486E-07-1.08099E-20 3.67011E-19
 -1      3458 9.56515E-05-2.89976E-05-2.85672E-05-7.41476E-07 1.36524E-19 1.05201E-18
 -1      3459 9.54117E-05-2.88113E-05-2.85416E-05-6.21087E-07-2.03794E-19-1.81704E-19
 -1      3460 9.54255E-05-2.88441E-05-2.85355E-05-6.59981E-07-4.60697E-19 1.26829E-19
 -1      3461 9.55585E-05-2.89234E-05-2.85589E-05-6.56574E-07-3.49073E-19 4.58940E-19
 -1      3462 9.53593E-05-2.87301E-05-2.85539E-05-5.63076E-07-4.08934E-19 3.28135E-19
 -1      3463 9.53708E-05-2.87671E-05-2.85453E-05-5.89541E-07-3.09288E-19-8.21665E-20
 -1      3464 9.54736E-05-2.88339E-05-2.85606E-05-5.86808E-07-3.44038E-19 2.15910E-19
 -1      3465 9.53119E-05-2.86432E-05-2.85709E-05-5.33783E-07-2.26336E-19 5.68686E-19
 -1      3466 9.53215E-05-2.86828E-05-2.85605E-05-5.45144E-07-2.70148E-19 4.08134E-19
 -1      3467 9.53957E-05-2.87346E-05-2.85696E-05-5.40053E-07-4.69516E-19 3.04146E-19
 -1      3468 9.52689E-05-2.85532E-05-2.85910E-05-5.37528E-07-2.50925E-19 3.59650E-19
 -1      3469 9.52765E-05-2.85940E-05-2.85793E-05-5.31875E-07-7.12956E-20 4.05232E-19
 -1      3470 9.53230E-05-2.86289E-05-2.85835E-05-5.22131E-07-1.18783E-20 3.13079E-19
 -1      3471 9.52306E-05-2.84629E-05-2.86131E-05-5.77566E-07-2.82208E-19-5.12634E-19
 -1      3472 9.52353E-05-2.85033E-05-2.86007E-05-5.53600E-07-3.17525E-19-8.85981E-20
 -1      3473 9.52542E-05-2.85197E-05-2.86007E-05-5.37644E-07 1.62228E-20-1.89607E-19
 -1      3474 9.51989E-05-2.83772E-05-2.86362E-05-6.56163E-07-2.75075E-19 6.73269E-19
 -1      3475 9.51991E-05-2.84144E-05-2.86233E-05-6.13253E-07-2.77440E-19-1.01852E-19
 -1      3476 9.51891E-05-2.84103E-05-2.86197E-05-5.90446E-07-4.88877E-19-5.39935E-19
 -1      3477 9.51791E-05-2.83042E-05-2.86588E-05-7.74231E-07-1.17794E-19 1.46769E-18
 -1      3478 9.51715E-05-2.83334E-05-2.86461E-05-7.12710E-07-3.46013E-20 1.20612E-18
 -1      3479 9.51298E-05-2.83065E-05-2.86388E-05-6.83774E-07-5.50886E-19 4.14341E-19
 -1      3480 9.51811E-05-2.82572E-05-2.86796E-05-9.30454E-07 3.30275E-19 9.96855E-19
 -1      3481 9.51600E-05-2.82709E-05-2.86678E-05-8.52192E-07 2.27300E-19 1.06183E-18
 -1      3482 9.50824E-05-2.82182E-05-2.86566E-05-8.19976E-07 2.95024E-19 6.73609E-19
 -1      3483 9.52215E-05-2.82572E-05-2.86968E-05-1.11977E-06-4.98636E-20 6.45804E-19
 -1      3484 9.51782E-05-2.82442E-05-2.86866E-05-1.02908E-06 2.69814E-19 9.65628E-19
 -1      3485 9.50586E-05-2.81620E-05-2.86710E-05-9.99723E-07 3.99527E-19 2.92145E-19
 -1      3486 9.53261E-05-2.83345E-05-2.87084E-05-1.33103E-06 2.39177E-19-6.08616E-20
 -1      3487 9.52479E-05-2.82787E-05-2.87008E-05-1.23599E-06-1.84747E-19 5.97025E-19
 -1      3488 9.50790E-05-2.81635E-05-2.86801E-05-1.22054E-06-8.20679E-21 1.62905E-19
 -1      3489 9.55326E-05-2.85304E-05-2.87130E-05-1.54367E-06-3.69156E-19 5.91904E-19
 -1      3490 9.54017E-05-2.84106E-05-2.87087E-05-1.45783E-06 1.40109E-19 1.19693E-19
 -1      3491 9.51761E-05-2.82596E-05-2.86820E-05-1.47436E-06-1.81038E-19 1.70960E-19
 -1      3492 9.58915E-05-2.88962E-05-2.87105E-05-1.72309E-06-7.37840E-19 6.88277E-19
 -1      3493 9.56853E-05-2.86872E-05-2.87095E-05-1.66767E-06-5.83604E-19 1.18680E-18
 -1      3494 9.53971E-05-2.85004E-05-2.86758E-05-1.74366E-06-6.93419E-19 7.70419E-19
 -1      3495 9.64650E-05-2.94881E-05-2.87037E-05-1.81491E-06-5.08897E-19 7.39401E-19
 -1      3496 9.61581E-05-2.91639E-05-2.87045E-05-1.82116E-06-7.31957E-19 1.10307E-18
 -1      3497 9.58065E-05-2.89478E-05-2.86626E-05-1.99567E-06-9.55221E-19 5.54062E-19
 -1      3498 9.73198E-05-3.03548E-05-2.87008E-05-1.73870E-06-1.35385E-19 1.01431E-18
 -1      3499 9.68888E-05-2.98965E-05-2.86992E-05-1.84979E-06-3.04875E-19 8.39304E-19
 -1      3500 9.64847E-05-2.96693E-05-2.86480E-05-2.17432E-06-3.44746E-19 1.07471E-18
 -1      3501 9.85099E-05-3.15123E-05-2.87187E-05-1.38358E-06 1.89450E-19 1.02402E-18
 -1      3502 9.79440E-05-3.09224E-05-2.87062E-05-1.65438E-06 2.10054E-19 7.78764E-19
 -1      3503 9.75197E-05-3.07222E-05-2.86448E-05-2.19022E-06-1.01620E-19 8.64620E-19
 -1      3504 1.00044E-04-3.29028E-05-2.87861E-05-6.11031E-07-7.18287E-19 5.76784E-19
 -1      3505 9.93621E-05-3.22279E-05-2.87487E-05-1.10251E-06 1.07386E-19 9.87011E-19
 -1      3506 9.89863E-05-3.21226E-05-2.86773E-05-1.91108E-06-2.86535E-19 1.15270E-18
 -1      3507 1.01836E-04-3.43396E-05-2.89454E-05 7.18566E-07-1.26757E-18 7.62893E-19
 -1      3508 1.01108E-04-3.36962E-05-2.88634E-05-4.20789E-08-1.46207E-18 5.85269E-19
 -1      3509 1.00903E-04-3.37906E-05-2.87850E-05-1.16079E-06-1.09306E-18 1.46528E-18
 -1      3510 1.03651E-04-3.54525E-05-2.92516E-05 2.69369E-06-4.34468E-19 1.03624E-18
 -1      3511 1.03018E-04-3.50543E-05-2.91005E-05 1.65920E-06-6.92623E-19 1.58759E-18
 -1      3512 1.03168E-04-3.54867E-05-2.90247E-05 2.52143E-07-1.08409E-18 1.70133E-18
 -1      3513 1.05056E-04-3.56660E-05-2.97608E-05 5.21239E-06-4.74740E-19 6.55310E-19
 -1      3514 1.04724E-04-3.58088E-05-2.95193E-05 4.01214E-06 7.16287E-21 9.46503E-19
 -1      3515 1.05470E-04-3.67216E-05-2.94685E-05 2.46478E-06 9.99435E-20 1.70537E-18
 -1      3516 1.05516E-04-3.43484E-05-3.05051E-05 7.83123E-06-1.70271E-20 5.69930E-19
 -1      3517 1.05693E-04-3.53198E-05-3.01655E-05 6.73828E-06-8.00630E-19-5.31074E-20
 -1      3518 1.07249E-04-3.67837E-05-3.01835E-05 5.35734E-06-6.26445E-19 9.67456E-19
 -1      3519 1.04590E-04-3.11587E-05-3.14538E-05 9.61523E-06 3.01197E-19 7.32961E-19
 -1      3520 1.05353E-04-3.30110E-05-3.10432E-05 9.09813E-06 5.56016E-19 3.82434E-19
 -1      3521 1.07778E-04-3.48736E-05-3.12008E-05 8.36063E-06-3.84720E-19 6.86118E-19
 -1      3522 1.02421E-04-2.65356E-05-3.24656E-05 9.45387E-06-1.50987E-19 1.70967E-18
 -1      3523 1.03572E-04-2.89142E-05-3.20600E-05 9.98826E-06-1.45385E-19 9.63018E-19
 -1      3524 1.06644E-04-3.08387E-05-3.24500E-05 1.02501E-05-2.21370E-20 1.16254E-18
 -1      3525 9.99961E-05-2.22277E-05-3.32805E-05 6.48182E-06-3.12583E-19 2.43180E-18
 -1      3526 1.00938E-04-2.41776E-05-3.29871E-05 8.13681E-06-2.31528E-20 2.05697E-18
 -1      3527 1.03910E-04-2.51057E-05-3.37222E-05 9.64069E-06-5.19291E-19 9.25441E-19
 -1      3528 9.86372E-05-2.01929E-05-3.36592E-05 1.36206E-06 7.14896E-19 1.15131E-18
 -1      3529 9.90035E-05-2.07783E-05-3.35764E-05 3.74204E-06 4.73908E-19 2.28560E-18
 -1      3530 1.01547E-04-2.06259E-05-3.46115E-05 5.70268E-06 3.73386E-19 1.99515E-18
 -1      3531 9.95495E-05-2.16985E-05-3.34201E-05-4.17399E-06 7.06748E-19 5.84138E-20
 -1      3532 9.89963E-05-2.05296E-05-3.35933E-05-1.94828E-06 8.88647E-19 7.71048E-19
 -1      3533 1.00627E-04-1.92191E-05-3.48447E-05-5.07310E-07 5.17646E-19 3.06609E-19
 -1      3534 1.01981E-04-2.58934E-05-3.26819E-05-7.77504E-06-4.01394E-19-2.21385E-19
 -1      3535 1.00845E-04-2.36328E-05-3.30300E-05-6.48954E-06-6.58171E-20 1.72254E-19
 -1      3536 1.02312E-04-2.19877E-05-3.43771E-05-5.99602E-06 4.94775E-19 4.67254E-19
 -1      3537 1.04367E-04-3.05272E-05-3.17090E-05-8.47669E-06-9.01498E-19-2.62373E-19
 -1      3538 1.03367E-04-2.82971E-05-3.21277E-05-8.30660E-06-5.62006E-19-3.59264E-19
 -1      3539 1.05257E-04-2.76963E-05-3.32533E-05-8.63049E-06-5.14341E-20 1.15321E-18
 -1      3540 1.05644E-04-3.40003E-05-3.07370E-05-6.82397E-06 1.89021E-19 2.49557E-19
 -1      3541 1.05184E-04-3.25358E-05-3.11225E-05-7.64123E-06-6.83884E-20-3.77431E-19
 -1      3542 1.07459E-04-3.26371E-05-3.20355E-05-8.35576E-06-3.59933E-19 7.58664E-19
 -1      3543 1.05296E-04-3.53776E-05-2.99670E-05-4.19927E-06-1.03193E-18-8.53886E-20
 -1      3544 1.05435E-04-3.48578E-05-3.02633E-05-5.36863E-06-4.18495E-19 3.64579E-19
 -1      3545 1.07960E-04-3.57726E-05-3.09079E-05-5.73716E-06-6.51398E-19-1.01931E-19
 -1      3546 1.03703E-04-3.49751E-05-2.94379E-05-1.60851E-06-1.78036E-18 4.05091E-19
 -1      3547 1.04344E-04-3.52530E-05-2.96357E-05-2.68592E-06-1.56937E-18 7.28414E-19
 -1      3548 1.06763E-04-3.66317E-05-3.00456E-05-2.62111E-06-1.59221E-18 1.43296E-18
 -1      3549 6.94328E-05-1.52689E-05-2.33270E-05 1.24645E-05 4.92976E-19 2.56648E-18
 -1      3550 7.46588E-05-1.87359E-05-2.37231E-05 1.74654E-05-9.25747E-19 2.45906E-18
 -1      3551 9.20378E-05-3.70175E-05-2.38198E-05 3.08838E-05 1.84931E-19-1.26176E-18
 -1      3552 8.04108E-05-2.80789E-05-2.20192E-05 2.90660E-05 5.80661E-19 2.42952E-18
 -1      3553 9.28863E-05-1.88758E-05-3.17084E-05-5.78039E-06-3.18250E-19-9.54397E-19
 -1      3554 1.11173E-04-1.47551E-05-4.15212E-05 7.61047E-06 1.00535E-18 6.26017E-19
 -1      3555 1.09517E-04-1.24507E-05-4.18053E-05 2.81195E-06 8.71068E-19-1.02075E-18
 -1      3556 8.19756E-05-3.12674E-05-2.14586E-05-3.21482E-05-5.66983E-19-4.76191E-19
 -1      3557 9.50882E-05-4.01645E-05-2.36119E-05-3.12890E-05-1.12577E-18-1.30178E-18
 -1      3558 1.02211E-04-3.39770E-05-2.92186E-05 2.01366E-06-1.15550E-18-2.99849E-19
 -1      3559 1.01399E-04-3.34429E-05-2.91293E-05 8.80641E-07-2.07263E-18-8.58272E-20
 -1      3560 1.01959E-04-3.38604E-05-2.91831E-05 2.52770E-07-2.35078E-18 5.15606E-19
 -1      3561 1.04099E-04-3.55472E-05-2.93604E-05 2.37408E-06-9.45787E-19-1.97058E-19
 -1      3562 6.22713E-05-1.59008E-05-1.98324E-05-2.15473E-05-5.65487E-19-1.03481E-18
 -1      3563 7.17536E-05-2.40039E-05-2.04383E-05-2.94591E-05-5.18596E-19-9.13234E-19
 -1      3564 8.04614E-05-2.73645E-05-2.25523E-05-2.66461E-05-9.27766E-20-7.81428E-19
 -1      3565 6.71222E-05-1.55730E-05-2.19004E-05-1.63007E-05-4.43139E-19-7.77497E-19
 -1      3566 6.89276E-05-2.09671E-05-2.07252E-05 2.51806E-05 9.10891E-19 3.16610E-18
 -1      3567 6.03772E-05-1.40705E-05-1.94302E-05 1.69253E-05-3.42929E-19 2.19972E-18
 -1      3568 9.56893E-05-2.89768E-05-2.85902E-05-9.79760E-07 5.01468E-19-2.68902E-20
 -1      3569 9.57166E-05-2.89533E-05-2.86113E-05-1.00882E-06 3.65714E-19 2.50134E-20
 -1      3570 9.58606E-05-2.90597E-05-2.86309E-05-9.07458E-07 4.80554E-19 1.41129E-19
 -1      3571 1.14387E-04-5.05542E-05-2.77037E-05 2.31257E-05-7.37223E-19-1.84922E-18
 -1      3572 1.04663E-04-4.42969E-05-2.55127E-05 2.79758E-05 1.30681E-19-1.70319E-18
 -1      3573 1.28274E-04-5.48700E-05-3.12198E-05-1.22088E-05-2.47641E-19 6.28922E-19
 -1      3574 1.30595E-04-5.15238E-05-3.41719E-05-2.70162E-06-1.71736E-19 9.67867E-19
 -1      3575 1.30440E-04-4.41544E-05-3.69989E-05 6.15452E-06 4.64068E-19 1.01917E-18
 -1      3576 1.28083E-04-3.58879E-05-3.99442E-05 1.13957E-05 5.34690E-19 9.47089E-19
 -1      3577 9.54207E-05-2.49646E-05-3.01668E-05 2.33381E-06 6.42832E-19-4.42602E-20
 -1      3578 9.49726E-05-2.37079E-05-3.05667E-05 2.99822E-06 7.62291E-19-1.26276E-19
 -1      3579 9.55892E-05-2.58582E-05-2.98918E-05 1.42382E-06 4.90079E-19 1.63521E-20
 -1      3580 1.26529E-04-5.23899E-05-3.21212E-05 6.54377E-06-6.11445E-19-4.32773E-18
 -1      3581 1.22315E-04-5.23067E-05-2.96981E-05 1.47539E-05-8.95684E-19-3.85538E-18
 -1      3582 9.35713E-05-2.04205E-05-3.13656E-05-4.96620E-06-3.44800E-19-8.59613E-19
 -1      3583 9.41314E-05-2.15235E-05-3.11058E-05-4.01182E-06-3.00756E-19-7.48546E-19
 -1      3584 9.46468E-05-2.28768E-05-3.07680E-05-3.07712E-06-2.01222E-19-6.42844E-19
 -1      3585 9.47239E-05-2.29361E-05-3.07651E-05-2.57833E-06-1.08539E-19-5.10117E-19
 -1      3586 9.61793E-05-2.81501E-05-2.91579E-05-4.94426E-07 5.24089E-19 6.83532E-20
 -1      3587 9.59480E-05-2.80825E-05-2.90891E-05-5.09575E-07 5.09596E-19 1.72096E-19
 -1      3588 9.59661E-05-2.77832E-05-2.92145E-05-2.28096E-07 5.97553E-19 2.56995E-19
 -1      3589 1.21992E-04-3.80849E-05-3.60287E-05-8.90913E-06-4.92877E-19-1.71340E-18
 -1      3590 1.23868E-04-4.82681E-05-3.24190E-05 1.95607E-06-3.04267E-19-3.02876E-18
 -1      3591 9.86647E-05-3.87740E-05-2.55856E-05 2.60112E-05 6.39775E-20-1.47283E-18
 -1      3592 1.01532E-04-4.34313E-05-2.46464E-05-2.91653E-05-1.69282E-18-2.12214E-18
 -1      3593 1.06846E-04-4.64346E-05-2.60839E-05-2.56169E-05-1.79644E-18-2.57187E-18
 -1      3594 9.49956E-05-3.78992E-05-2.44278E-05-2.76318E-05-1.09932E-18-1.51264E-18
 -1      3595 1.03956E-04-3.83232E-05-2.81306E-05 1.71853E-05 3.08889E-19-2.06985E-18
 -1      3596 1.06645E-04-3.96916E-05-2.86422E-05 1.45531E-05 3.27036E-19-2.64724E-18
 -1      3597 6.46864E-05-1.15476E-05-2.26208E-05 4.19695E-06 1.29152E-18 1.74846E-19
 -1      3598 6.23985E-05-1.28657E-05-2.09485E-05 1.05791E-05 5.96735E-19 1.64232E-18
 -1      3599 1.02394E-04-3.42109E-05-2.92404E-05-4.55104E-07-1.60413E-18 4.39539E-19
 -1      3600 1.07833E-04-3.97327E-05-2.91501E-05 1.09991E-05-9.44963E-20-3.62287E-18
 -1      3601 1.08397E-04-3.98224E-05-2.94016E-05 8.30733E-06-1.45839E-19-4.18605E-18
 -1      3602 1.09614E-04-4.20689E-05-2.89718E-05 1.27890E-05 5.11780E-19-3.27809E-18
 -1      3603 1.07962E-04-1.44239E-05-4.01870E-05-1.59639E-07 7.48565E-19-1.01776E-18
 -1      3604 7.79530E-05-2.41570E-05-2.29390E-05 2.36661E-05 3.47310E-19 2.10297E-18
 -1      3605 1.22442E-04-3.09535E-05-3.93688E-05 1.22508E-05 5.36066E-19 2.26798E-18
 -1      3606 9.58863E-05-2.86724E-05-2.88014E-05-9.35066E-07 2.41965E-19 1.31423E-19
 -1      3607 9.61507E-05-2.86086E-05-2.89491E-05-7.93436E-07 3.03139E-19 1.48283E-19
 -1      3608 9.58532E-05-2.87846E-05-2.87444E-05-9.95760E-07 1.76642E-19 2.68771E-20
 -1      3609 1.11970E-04-1.71726E-05-4.09043E-05 9.21902E-06 1.27542E-18 6.04702E-19
 -1      3610 1.07779E-04-1.68464E-05-3.89996E-05 7.47843E-06 6.71710E-19-1.51947E-18
 -1      3611 1.13149E-04-2.00506E-05-3.99167E-05 1.13006E-05 8.47192E-19 6.67488E-19
 -1      3612 1.28899E-04-4.76276E-05-3.49067E-05 3.01406E-06-1.57184E-19 1.99238E-19
 -1      3613 1.24126E-04-4.20829E-05-3.52135E-05 7.47656E-06 2.28368E-19 7.47110E-19
 -1      3614 1.24722E-04-4.83354E-05-3.27922E-05-8.24249E-07-5.70285E-19 4.46481E-19
 -1      3615 1.07933E-04-3.88425E-05-2.95588E-05 5.74346E-06-6.67151E-19-2.74906E-18
 -1      3616 1.07263E-04-3.82469E-05-2.96094E-05 3.85879E-06-3.48253E-19-2.13171E-18
 -1      3617 1.10334E-04-4.10729E-05-2.96689E-05 6.49332E-06-4.90961E-19-3.69048E-18
 -1      3618 9.43527E-05-2.20538E-05-3.09892E-05-1.90275E-06 2.34856E-19-5.22177E-20
 -1      3619 9.45650E-05-2.25288E-05-3.08869E-05-2.31581E-06-2.75732E-20-3.09002E-19
 -1      3620 9.52353E-05-2.40140E-05-3.05159E-05-1.67387E-06-1.37163E-20-2.18131E-19
 -1      3621 1.21965E-04-5.27383E-05-2.95885E-05-1.54203E-05-8.18446E-19-1.52731E-20
 -1      3622 9.47363E-05-2.30214E-05-3.07349E-05 2.77822E-06 7.23563E-19-3.60112E-19
 -1      3623 1.14099E-04-2.16953E-05-3.98509E-05-1.07490E-05 6.44804E-20-1.73690E-18
 -1      3624 1.14491E-04-2.63096E-05-3.77155E-05-1.11269E-05-1.54597E-19-2.04082E-18
 -1      3625 1.09627E-04-1.86895E-05-3.89998E-05-8.37601E-06 1.98060E-19-2.00339E-18
 -1      3626 9.40879E-05-2.15124E-05-3.11186E-05 1.76264E-06 8.14413E-19-7.19302E-19
 -1      3627 9.39481E-05-2.12187E-05-3.11775E-05 1.24605E-06 7.57626E-19-8.85903E-19
 -1      3628 1.16457E-04-4.89423E-05-2.89271E-05 1.64895E-05-6.25309E-19-3.68124E-18
 -1      3629 8.28424E-05-2.54799E-05-2.46925E-05 2.16961E-05-6.46759E-19 9.83048E-19
 -1      3630 8.95585E-05-2.97652E-05-2.54697E-05 2.32880E-05-5.60342E-19-1.28732E-19
 -1      3631 9.31349E-05-1.96104E-05-3.14922E-05-5.85740E-07 8.10560E-19-7.96496E-19
 -1      3632 9.57727E-05-2.89220E-05-2.86500E-05-1.02467E-06 3.98464E-19 1.09500E-19
 -1      3633 9.58037E-05-2.88628E-05-2.86862E-05-1.02049E-06 1.99759E-19-5.06889E-20
 -1      3634 9.60727E-05-2.88771E-05-2.88006E-05-9.26545E-07 3.26282E-19 2.07165E-19
 -1      3635 9.59704E-05-2.90129E-05-2.86983E-05-9.50055E-07 3.29217E-19-2.64003E-19
 -1      3636 9.38673E-05-2.10500E-05-3.12185E-05 8.08072E-07 7.86928E-19-1.08323E-18
 -1      3637 9.38155E-05-2.09575E-05-3.12369E-05 2.40023E-07 8.15045E-19-1.01473E-18
 -1      3638 9.46046E-05-2.23844E-05-3.09350E-05 8.32074E-07 6.99196E-19-9.27436E-19
 -1      3639 9.58284E-05-2.65024E-05-2.96964E-05 8.00675E-07 3.82232E-19-7.20117E-20
 -1      3640 9.56430E-05-2.54479E-05-3.01056E-05 1.49989E-06 4.85390E-19-3.37936E-19
 -1      3641 9.59357E-05-2.74561E-05-2.93526E-05 6.30783E-09 6.05147E-19 1.90383E-19
 -1      3642 9.59247E-05-2.70232E-05-2.95272E-05 4.55566E-07 4.75579E-19 9.53942E-20
 -1      3643 9.60047E-05-2.66222E-05-2.97338E-05 5.62980E-07 3.48498E-19-4.02256E-19
 -1      3644 9.61460E-05-2.74954E-05-2.94226E-05-3.07592E-08 5.13161E-19-1.80689E-19
 -1      3645 1.04397E-04-3.56414E-05-2.94844E-05 9.05546E-08-1.75256E-18 7.59297E-19
 -1      3646 1.05579E-04-3.65570E-05-2.95711E-05 1.26331E-06-1.39762E-18 7.79350E-19
 -1      3647 9.61109E-05-2.63435E-05-2.98981E-05-5.89606E-07-6.00619E-20-1.11713E-19
 -1      3648 9.62636E-05-2.69725E-05-2.97026E-05-2.01449E-07 4.34673E-21 2.50949E-20
 -1      3649 9.64209E-05-2.75167E-05-2.95253E-05 4.10924E-08 6.95036E-20-5.28558E-20
 -1      3650 9.64699E-05-2.79354E-05-2.93770E-05 2.91341E-07 7.82683E-20-6.97358E-20
 -1      3651 9.64112E-05-2.70778E-05-2.97128E-05-1.22255E-07-2.06887E-20 1.69636E-19
 -1      3652 9.65214E-05-2.82837E-05-2.92402E-05 4.39710E-07-4.62712E-20-7.58632E-20
 -1      3653 9.65115E-05-2.85488E-05-2.91297E-05 5.84621E-07-1.82442E-19-9.12432E-21
 -1      3654 9.66142E-05-2.80259E-05-2.93947E-05 2.79123E-07 1.14338E-20-1.63161E-20
 -1      3655 9.64961E-05-2.87595E-05-2.90265E-05 6.60985E-07-1.77395E-19-1.12586E-19
 -1      3656 9.64532E-05-2.89147E-05-2.89462E-05 7.30158E-07-2.60989E-19-1.45867E-19
 -1      3657 9.66491E-05-2.86330E-05-2.91507E-05 5.17159E-07-2.74723E-19-1.85068E-19
 -1      3658 9.64018E-05-2.90240E-05-2.88736E-05 7.55410E-07-3.48042E-19-4.97124E-20
 -1      3659 9.63463E-05-2.91020E-05-2.88190E-05 7.74689E-07-4.92455E-19-2.45874E-19
 -1      3660 9.65823E-05-2.89864E-05-2.89714E-05 6.33197E-07-3.08240E-19-2.90521E-19
 -1      3661 9.62721E-05-2.91528E-05-2.87637E-05 7.70287E-07-6.87773E-19-2.36838E-19
 -1      3662 9.62074E-05-2.91827E-05-2.87242E-05 7.59079E-07-7.19659E-19-2.46299E-19
 -1      3663 9.64580E-05-2.91693E-05-2.88398E-05 6.67893E-07-5.89083E-19-4.50458E-19
 -1      3664 9.61243E-05-2.91876E-05-2.86861E-05 7.35189E-07-9.37020E-19-2.17211E-19
 -1      3665 9.60596E-05-2.91822E-05-2.86607E-05 7.06759E-07-9.77935E-19-3.19268E-19
 -1      3666 9.63020E-05-2.92381E-05-2.87436E-05 6.51941E-07-8.72094E-19 2.31964E-20
 -1      3667 9.59754E-05-2.91573E-05-2.86358E-05 6.74221E-07-5.05677E-19-4.10201E-19
 -1      3668 9.59139E-05-2.91287E-05-2.86210E-05 6.39117E-07-1.97774E-19-2.91136E-19
 -1      3669 9.61363E-05-2.92247E-05-2.86781E-05 6.06749E-07-6.96232E-19 9.85644E-20
 -1      3670 9.58325E-05-2.90845E-05-2.86062E-05 6.05341E-07-2.25270E-19-1.50432E-19
 -1      3671 9.57754E-05-2.90404E-05-2.85994E-05 5.71172E-07-2.55895E-19-1.13609E-19
 -1      3672 9.59724E-05-2.91574E-05-2.86365E-05 5.49919E-07-1.69121E-19-4.46749E-20
 -1      3673 9.56982E-05-2.89834E-05-2.85923E-05 5.41390E-07-4.15475E-19-4.03816E-19
 -1      3674 9.56450E-05-2.89284E-05-2.85915E-05 5.13549E-07-4.12388E-20-7.01073E-19
 -1      3675 9.58155E-05-2.90543E-05-2.86132E-05 4.94075E-07-4.43002E-19-4.36906E-20
 -1      3676 9.55747E-05-2.88653E-05-2.85903E-05 4.92400E-07 1.72696E-20-8.32858E-19
 -1      3677 9.55266E-05-2.88051E-05-2.85937E-05 4.75181E-07-2.91926E-19-6.24184E-19
 -1      3678 9.56698E-05-2.89299E-05-2.86037E-05 4.49032E-07-1.56412E-19-2.99341E-19
 -1      3679 9.54540E-05-2.87303E-05-2.85967E-05 4.62525E-07-1.94094E-19-6.42399E-19
 -1      3680 9.54030E-05-2.86580E-05-2.86039E-05 4.57243E-07 1.76471E-19-4.66179E-19
 -1      3681 9.55284E-05-2.87863E-05-2.86043E-05 4.18946E-07-1.77336E-19-1.57931E-19
 -1      3682 9.53277E-05-2.85732E-05-2.86102E-05 4.56286E-07 5.74859E-19-3.72668E-19
 -1      3683 9.52726E-05-2.84900E-05-2.86202E-05 4.66202E-07 5.15903E-19-3.51651E-19
 -1      3684 9.53821E-05-2.86193E-05-2.86127E-05 4.07679E-07 3.91862E-19 2.67273E-20
 -1      3685 9.51891E-05-2.83920E-05-2.86288E-05 4.77938E-07 2.58752E-19-4.06691E-19
 -1      3686 9.51245E-05-2.82938E-05-2.86410E-05 5.04782E-07 1.60594E-19-1.62552E-19
 -1      3687 9.52253E-05-2.84283E-05-2.86268E-05 4.18695E-07 4.93696E-19-4.93536E-19
 -1      3688 9.50256E-05-2.81774E-05-2.86511E-05 5.29390E-07 2.38214E-20-7.12153E-19
 -1      3689 9.49437E-05-2.80584E-05-2.86648E-05 5.74292E-07-5.10236E-20-7.29498E-19
 -1      3690 9.50456E-05-2.82054E-05-2.86446E-05 4.52722E-07-1.48152E-19-5.69703E-19
 -1      3691 9.48197E-05-2.79164E-05-2.86753E-05 6.10744E-07-1.23927E-19-8.37395E-19
 -1      3692 9.47097E-05-2.77683E-05-2.86895E-05 6.73862E-07-4.58702E-19-8.55542E-19
 -1      3693 9.48263E-05-2.79386E-05-2.86640E-05 5.08140E-07-3.48607E-19-9.33784E-19
 -1      3694 9.45475E-05-2.75908E-05-2.86988E-05 7.19139E-07-6.20175E-19-3.71796E-19
 -1      3695 9.43939E-05-2.74023E-05-2.87121E-05 7.98701E-07-5.68929E-19-8.90372E-19
 -1      3696 9.45453E-05-2.76124E-05-2.86822E-05 5.79613E-07-4.86815E-19-1.05161E-18
 -1      3697 9.41881E-05-2.71894E-05-2.87176E-05 8.44101E-07-8.76624E-19-7.33047E-19
 -1      3698 9.39831E-05-2.69601E-05-2.87272E-05 9.30931E-07-8.82113E-19-7.67792E-19
 -1      3699 9.41840E-05-2.72175E-05-2.86948E-05 6.53826E-07-5.89390E-19-3.86870E-19
 -1      3700 9.36922E-05-2.66752E-05-2.87261E-05 9.70536E-07-2.18351E-19 3.21318E-21
 -1      3701 9.33840E-05-2.63631E-05-2.87288E-05 1.06395E-06 2.87796E-19 3.03467E-19
 -1      3702 9.36989E-05-2.67230E-05-2.86967E-05 7.14209E-07 1.63348E-20 1.00107E-19
 -1      3703 9.29851E-05-2.59971E-05-2.87146E-05 1.07563E-06-1.77003E-19 8.03803E-19
 -1      3704 9.25405E-05-2.55901E-05-2.87026E-05 1.15280E-06 4.56427E-20 5.64384E-19
 -1      3705 9.30238E-05-2.60843E-05-2.86777E-05 7.26556E-07 3.90196E-19 8.79953E-19
 -1      3706 9.19954E-05-2.51226E-05-2.86661E-05 1.10491E-06-1.19459E-19 5.25143E-19
 -1      3707 9.13561E-05-2.45955E-05-2.86274E-05 1.13389E-06-1.77684E-19 1.41165E-19
 -1      3708 9.21023E-05-2.52810E-05-2.86226E-05 6.31962E-07-2.81458E-19 8.87867E-19
 -1      3709 9.06159E-05-2.40067E-05-2.85537E-05 9.76774E-07-9.68961E-20-4.22871E-19
 -1      3710 8.97024E-05-2.33341E-05-2.84685E-05 9.05691E-07-4.63884E-19 5.56872E-20
 -1      3711 9.08496E-05-2.42833E-05-2.85073E-05 3.40224E-07-6.73651E-19 9.03695E-22
 -1      3712 8.87080E-05-2.26103E-05-2.83343E-05 5.65072E-07-1.02798E-18 9.93781E-20
 -1      3713 8.74155E-05-2.17720E-05-2.81699E-05 3.12229E-07-9.80058E-19-3.13149E-19
 -1      3714 8.91619E-05-2.30739E-05-2.82945E-05-2.85608E-07-6.96138E-19 1.74766E-19
 -1      3715 8.61712E-05-2.09655E-05-2.79526E-05-2.84180E-07-3.47749E-19-6.14940E-19
 -1      3716 8.44650E-05-2.00117E-05-2.76783E-05-7.88908E-07-3.94523E-19-5.65679E-19
 -1      3717 8.69859E-05-2.17045E-05-2.79394E-05-1.40719E-06-6.81557E-19 5.56610E-21
 -1      3718 8.27758E-05-1.90721E-05-2.73058E-05-1.83623E-06-6.79192E-19-1.44260E-19
 -1      3719 8.03060E-05-1.79398E-05-2.68085E-05-2.80885E-06-4.83331E-19-4.51248E-19
 -1      3720 8.41551E-05-2.02030E-05-2.73554E-05-3.29854E-06-5.15814E-19 4.25998E-21
 -1      3721 7.81440E-05-1.69922E-05-2.62022E-05-4.47769E-06-4.70810E-19-6.00788E-19
 -1      3722 7.47284E-05-1.58177E-05-2.53466E-05-6.11869E-06 2.13935E-19-1.11807E-18
 -1      3723 8.04404E-05-1.86945E-05-2.63921E-05-6.42001E-06-5.07180E-19 2.63906E-19
 -1      3724 7.27202E-05-1.54596E-05-2.44741E-05-8.91996E-06 5.66012E-19-1.40394E-18
 -1      3725 6.87020E-05-1.49268E-05-2.31423E-05-1.22797E-05 2.37202E-19-3.09908E-19
 -1      3726 7.27457E-05-1.90020E-05-2.29666E-05-1.88891E-05-8.16196E-20-3.53517E-19
 -1      3727 7.63370E-05-1.79390E-05-2.49552E-05-1.14194E-05 3.56351E-19-5.27645E-19
 -1      3728 9.44674E-05-2.23561E-05-3.09281E-05 2.55131E-06 7.88188E-19-6.99282E-19
 -1      3729 9.42441E-05-2.18460E-05-3.10331E-05 2.13492E-06 8.21010E-19-7.54433E-19
 -1      3730 9.48116E-05-2.28806E-05-3.08074E-05 1.55730E-06 6.50530E-19-6.92450E-19
 -1      3731 6.45926E-05-1.08505E-05-2.30003E-05-2.54264E-06 4.48813E-19-1.81419E-18
 -1      3732 1.16868E-04-3.37244E-05-3.59332E-05-1.05966E-05 3.30359E-20-1.77605E-18
 -1      3733 1.19547E-04-3.93393E-05-3.41926E-05-7.57687E-06-3.56204E-19-1.57834E-18
 -1      3734 9.97216E-05-3.58790E-05-2.72351E-05 2.04386E-05-1.39946E-19-1.09567E-18
 -1      3735 1.04067E-04-4.01760E-05-2.74812E-05 2.02765E-05 5.52254E-19-2.32840E-18
 -1      3736 9.55280E-05-2.88467E-05-2.85763E-05-5.27402E-07-2.75378E-19 6.45165E-19
 -1      3737 9.55693E-05-2.88974E-05-2.85741E-05-5.54684E-07-3.75627E-19 6.95357E-19
 -1      3738 9.54267E-05-2.87303E-05-2.85828E-05-4.92654E-07-1.10177E-19 2.19870E-19
 -1      3739 9.54648E-05-2.87857E-05-2.85775E-05-5.07588E-07-2.23515E-20 4.74439E-19
 -1      3740 9.55525E-05-2.88458E-05-2.85893E-05-4.74959E-07 5.82034E-20 6.70133E-19
 -1      3741 9.53304E-05-2.86067E-05-2.85945E-05-4.86085E-07 7.63171E-20-1.09489E-19
 -1      3742 9.53662E-05-2.86654E-05-2.85870E-05-4.86024E-07-1.70256E-20 1.55920E-20
 -1      3743 9.54299E-05-2.87123E-05-2.85937E-05-4.51620E-07 1.05947E-19 5.31196E-19
 -1      3744 9.52371E-05-2.84786E-05-2.86094E-05-5.12420E-07-4.82131E-21-1.93373E-19
 -1      3745 9.52711E-05-2.85390E-05-2.86006E-05-4.95165E-07 2.45229E-19-1.43467E-19
 -1      3746 9.53109E-05-2.85706E-05-2.86033E-05-4.55881E-07 7.54695E-20-1.91265E-20
 -1      3747 9.51461E-05-2.83493E-05-2.86257E-05-5.76105E-07-9.82508E-19 1.68508E-19
 -1      3748 9.51779E-05-2.84094E-05-2.86164E-05-5.39730E-07-6.92327E-19 1.17464E-19
 -1      3749 9.51931E-05-2.84232E-05-2.86157E-05-4.92985E-07-5.17323E-19 4.51592E-19
 -1      3750 9.50593E-05-2.82250E-05-2.86415E-05-6.81534E-07-3.73909E-19 5.67709E-19
 -1      3751 9.50870E-05-2.82811E-05-2.86326E-05-6.24364E-07-6.74443E-19 5.53593E-19
 -1      3752 9.50750E-05-2.82740E-05-2.86290E-05-5.68455E-07-9.06548E-19 8.75771E-19
 -1      3753 9.49830E-05-2.81166E-05-2.86549E-05-8.32954E-07 7.05644E-19 4.46188E-19
 -1      3754 9.50023E-05-2.81623E-05-2.86473E-05-7.53747E-07 2.66194E-19 4.45474E-19
 -1      3755 9.49587E-05-2.81300E-05-2.86408E-05-6.88481E-07 1.19563E-19 3.27186E-19
 -1      3756 9.49305E-05-2.80428E-05-2.86636E-05-1.03386E-06-1.17748E-19 5.33148E-19
 -1      3757 9.49334E-05-2.80676E-05-2.86583E-05-9.32282E-07 6.33269E-19 7.34393E-19
 -1      3758 9.48509E-05-2.80040E-05-2.86489E-05-8.60042E-07 3.38914E-19 7.44076E-19
 -1      3759 9.49252E-05-2.80322E-05-2.86652E-05-1.28580E-06-1.80172E-19 5.41824E-19
 -1      3760 9.48985E-05-2.80202E-05-2.86633E-05-1.16322E-06-4.14600E-19 4.67136E-19
 -1      3761 9.47667E-05-2.79176E-05-2.86506E-05-1.09051E-06-1.90548E-19 9.43611E-19
 -1      3762 9.50046E-05-2.81272E-05-2.86578E-05-1.58602E-06-2.77393E-19 8.55522E-19
 -1      3763 9.49283E-05-2.80557E-05-2.86601E-05-1.44692E-06 4.42452E-20 8.07091E-19
 -1      3764 9.47330E-05-2.79042E-05-2.86432E-05-1.38666E-06-4.46190E-19 9.25663E-19
 -1      3765 9.52241E-05-2.83855E-05-2.86403E-05-1.92346E-06-8.82675E-19 2.44550E-19
 -1      3766 9.50700E-05-2.82242E-05-2.86470E-05-1.77767E-06-3.67491E-19 5.31851E-19
 -1      3767 9.47937E-05-2.80131E-05-2.86246E-05-1.75223E-06-1.14124E-19 6.54703E-19
 -1      3768 9.56606E-05-2.88803E-05-2.86147E-05-2.27213E-06-9.14065E-19-5.92449E-20
 -1      3769 9.53914E-05-2.85922E-05-2.86244E-05-2.13816E-06-1.09935E-18 1.84403E-19
 -1      3770 9.50143E-05-2.83120E-05-2.85943E-05-2.18324E-06-8.26215E-19 7.43863E-21
 -1      3771 9.64116E-05-2.96937E-05-2.85881E-05-2.58098E-06 3.82499E-21 1.27388E-19
 -1      3772 9.59834E-05-2.92396E-05-2.85965E-05-2.49079E-06-4.66368E-19 1.53840E-20
 -1      3773 9.54873E-05-2.88870E-05-2.85553E-05-2.65958E-06-3.82674E-19-1.07197E-19
 -1      3774 9.75877E-05-3.09007E-05-2.85765E-05-2.75978E-06-1.06509E-19 1.40034E-19
 -1      3775 9.69567E-05-3.02497E-05-2.85746E-05-2.76463E-06 9.70996E-20 4.22790E-19
 -1      3776 9.63331E-05-2.98362E-05-2.85173E-05-3.13124E-06 1.65331E-20-2.07996E-19
 -1      3777 9.92894E-05-3.25352E-05-2.86100E-05-2.66355E-06-7.52149E-19 1.29921E-18
 -1      3778 9.84274E-05-3.16845E-05-2.85818E-05-2.83875E-06-7.55485E-19 9.99458E-19
 -1      3779 9.76923E-05-3.12506E-05-2.85013E-05-3.49774E-06-7.89856E-19 9.82200E-19
 -1      3780 1.01559E-04-3.45221E-05-2.87388E-05-2.07773E-06-1.85359E-18 1.83515E-18
 -1      3781 1.00483E-04-3.35385E-05-2.86589E-05-2.52306E-06-8.32839E-19 1.64366E-18
 -1      3782 9.97029E-05-3.31755E-05-2.85467E-05-3.58255E-06-1.12279E-18 1.66306E-18
 -1      3783 1.04305E-04-3.66092E-05-2.90340E-05-7.52224E-07-6.35917E-19 1.58148E-18
 -1      3784 1.03109E-04-3.56535E-05-2.88684E-05-1.57003E-06-1.69618E-18 1.50904E-18
 -1      3785 1.02437E-04-3.55233E-05-2.87181E-05-3.10919E-06-1.61307E-18 9.82305E-19
 -1      3786 1.07171E-04-3.81969E-05-2.95938E-05 1.56623E-06-3.19259E-19 1.28108E-18
 -1      3787 1.06093E-04-3.76290E-05-2.92984E-05 3.25023E-07-2.94688E-19 1.50482E-18
 -1      3788 1.05811E-04-3.79662E-05-2.91102E-05-1.72094E-06-8.24108E-19 7.57089E-19
 -1      3789 1.09463E-04-3.83528E-05-3.05109E-05 4.78990E-06-8.21060E-19 1.58829E-18
 -1      3790 1.08835E-04-3.86389E-05-3.00548E-05 3.26530E-06-3.52631E-20 2.18600E-18
 -1      3791 1.09335E-04-3.97306E-05-2.98554E-05 9.74008E-07-4.74780E-19 1.93226E-18
 -1      3792 1.10341E-04-3.60450E-05-3.18380E-05 8.37137E-06-7.17976E-20 1.52360E-18
 -1      3793 1.10522E-04-3.77081E-05-3.12098E-05 6.93458E-06-5.71691E-19 1.51221E-18
 -1      3794 1.12173E-04-3.96451E-05-3.10892E-05 4.89606E-06-5.16080E-19 2.50420E-18
 -1      3795 1.08930E-04-3.08850E-05-3.34628E-05 1.05343E-05 2.71587E-19 1.22415E-18
 -1      3796 1.09991E-04-3.37035E-05-3.27575E-05 1.01209E-05 1.02558E-19 1.30907E-18
 -1      3797 1.13063E-04-3.64595E-05-3.27788E-05 8.98822E-06 4.97069E-20 2.02589E-18
 -1      3798 1.04048E-04-1.85418E-05-3.66837E-05 5.67945E-06 4.94508E-19 1.68659E-19
 -1      3799 1.05129E-04-2.08216E-05-3.63166E-05 8.63507E-06 4.98531E-19 4.37939E-19
 -1      3800 1.04772E-04-1.76909E-05-3.74689E-05-4.40159E-06 6.32793E-19-1.80008E-19
 -1      3801 1.04091E-04-1.64151E-05-3.76414E-05-1.01455E-06 3.73489E-19-4.03962E-19
 -1      3802 1.06767E-04-2.37842E-05-3.56013E-05-9.02295E-06-3.68906E-20-2.38878E-19
 -1      3803 1.05188E-04-2.08879E-05-3.61427E-05-6.60712E-06 5.22778E-22-1.13039E-19
 -1      3804 1.08419E-04-2.72177E-05-3.48869E-05-9.73107E-06 8.59672E-20-1.57150E-19
 -1      3805 1.11513E-04-3.53819E-05-3.26702E-05-8.15529E-06 5.58512E-20 3.40339E-19
 -1      3806 1.10556E-04-3.25052E-05-3.33859E-05-9.32965E-06-4.76985E-20 5.81093E-19
 -1      3807 1.10513E-04-3.83425E-05-3.09253E-05-4.00502E-06-1.46738E-18 3.14561E-19
 -1      3808 1.10685E-04-3.73577E-05-3.14425E-05-5.49193E-06-5.47716E-19 6.97121E-19
 -1      3809 1.12503E-04-4.48748E-05-2.90048E-05 1.37792E-05-5.29859E-20-3.01468E-18
 -1      3810 1.13827E-04-4.48172E-05-2.96456E-05 9.81789E-06-1.74429E-19-2.85856E-18
 -1      3811 1.20970E-04-4.52007E-05-3.27509E-05-2.06913E-06-9.35907E-19-2.46650E-18
 -1      3812 1.20508E-04-4.71784E-05-3.12483E-05 3.94239E-06-5.85710E-19-3.27711E-18
 -1      3813 9.56365E-05-2.89527E-05-2.85774E-05-5.84838E-07-2.92045E-19 8.75341E-19
 -1      3814 9.56817E-05-2.89963E-05-2.85796E-05-6.21039E-07-2.76753E-20 1.25449E-18
 -1      3815 9.56817E-05-2.89680E-05-2.85926E-05-5.20369E-07-1.07269E-19 1.27249E-18
 -1      3816 9.40969E-05-2.14970E-05-3.11203E-05-1.04155E-06 6.79016E-19-3.89694E-19
 -1      3817 9.42211E-05-2.17757E-05-3.10642E-05-1.55222E-06 4.25564E-19-2.51032E-19
 -1      3818 9.50346E-05-2.33367E-05-3.07133E-05-1.16834E-06 2.78972E-19-1.53891E-20
 -1      3819 9.60108E-05-2.91352E-05-2.86601E-05-8.08434E-07 3.98836E-19 3.23751E-19
 -1      3820 9.60671E-05-2.91245E-05-2.86884E-05-8.34294E-07 2.85128E-19 8.93970E-21
 -1      3821 9.39069E-05-2.11175E-05-3.12033E-05-1.48497E-07 7.91666E-19-8.65357E-19
 -1      3822 9.39455E-05-2.12145E-05-3.11852E-05-7.07117E-07 7.49571E-19-6.52602E-19
 -1      3823 9.48229E-05-2.28087E-05-3.08485E-05-5.71093E-07 5.54322E-19-4.28560E-19
 -1      3824 9.46192E-05-2.23826E-05-3.09430E-05 8.27600E-08 6.71124E-19-9.28996E-19
 -1      3825 1.07767E-04-3.82254E-05-2.98015E-05 1.33054E-06-9.18819E-19-8.40134E-20
 -1      3826 1.20223E-04-3.38888E-05-3.69900E-05 1.16737E-05 5.77491E-19 1.61290E-18
 -1      3827 1.16268E-04-2.61986E-05-3.89050E-05 1.26710E-05 7.27403E-19 1.55350E-18
 -1      3828 9.57536E-05-2.90430E-05-2.85889E-05-6.57929E-07 1.30023E-20 1.37292E-18
 -1      3829 9.58031E-05-2.90757E-05-2.85973E-05-6.98320E-07 3.19827E-19 1.30647E-18
 -1      3830 9.58194E-05-2.90735E-05-2.86067E-05-5.81268E-07 6.61842E-20 1.69407E-18
 -1      3831 9.48369E-05-3.28554E-05-2.65388E-05 2.13883E-05 1.70333E-20-2.24973E-19
 -1      3832 9.51774E-05-2.38800E-05-3.05296E-05 2.06755E-06 6.85830E-19-5.30124E-19
 -1      3833 9.55838E-05-2.48549E-05-3.03158E-05-1.35909E-06 2.69358E-20-1.42391E-19
 -1      3834 9.58853E-05-2.57347E-05-3.00692E-05-8.32249E-07-9.43927E-21-7.75178E-20
 -1      3835 9.60267E-05-2.58608E-05-3.00667E-05-6.31973E-07-6.93829E-21 3.82296E-19
 -1      3836 9.54676E-05-2.44398E-05-3.04365E-05-1.18444E-06 1.47288E-19 1.96904E-19
 -1      3837 9.54976E-05-2.47880E-05-3.03053E-05 1.41196E-06 4.73969E-19-6.19687E-19
 -1      3838 1.16507E-04-5.01256E-05-2.81670E-05-1.84772E-05-1.59741E-18-5.52239E-19
 -1      3839 1.21463E-04-5.07904E-05-3.04780E-05-9.64359E-06-4.23732E-19 1.27389E-18
 -1      3840 9.58792E-05-2.91086E-05-2.86148E-05-7.37014E-07 2.97680E-19 8.73199E-19
 -1      3841 9.59328E-05-2.91242E-05-2.86316E-05-7.74904E-07 3.34648E-19 6.77799E-19
 -1      3842 9.59657E-05-2.91533E-05-2.86355E-05-6.48976E-07 5.41858E-20 1.36900E-18
 -1      3843 9.53150E-05-2.41125E-05-3.05319E-05 1.36894E-06 5.78831E-19-8.25628E-19
 -1      3844 9.52031E-05-2.37709E-05-3.06183E-05 1.07271E-06 5.75252E-19-8.06500E-19
 -1      3845 1.17600E-04-4.76451E-05-2.99855E-05-7.68291E-06-1.03479E-18 6.85527E-19
 -1      3846 1.22608E-04-4.92661E-05-3.13578E-05-4.30885E-06-5.11302E-19 8.74795E-19
 -1      3847 1.20439E-04-4.56700E-05-3.20856E-05 1.01623E-06-7.92929E-19 2.29030E-19
 -1      3848 1.12944E-04-2.95904E-05-3.57767E-05-1.03070E-05 1.33217E-19-1.42984E-18
 -1      3849 1.03749E-04-4.15895E-05-2.67606E-05 2.35411E-05 2.53087E-19-2.46831E-18
 -1      3850 1.09225E-04-4.38472E-05-2.78061E-05 1.97288E-05 4.50264E-19-3.40442E-18
 -1      3851 9.15568E-05-3.38186E-05-2.46009E-05-2.47285E-05-7.36644E-19 2.01852E-19
 -1      3852 9.64563E-05-3.74811E-05-2.54654E-05-2.37750E-05-1.36270E-18-1.28850E-18
 -1      3853 1.09774E-04-4.58767E-05-2.72941E-05-1.96608E-05-1.63021E-18-1.22049E-18
 -1      3854 9.62693E-05-2.91705E-05-2.87586E-05-7.52003E-07 2.70535E-19 2.62695E-19
 -1      3855 9.61422E-05-2.91016E-05-2.87314E-05-8.52926E-07 3.63121E-19-2.22996E-19
 -1      3856 9.61977E-05-2.90509E-05-2.87750E-05-8.53432E-07 3.93211E-19-1.29042E-19
 -1      3857 1.09791E-04-2.88183E-05-3.47998E-05 1.14544E-05 1.12430E-19 1.11315E-18
 -1      3858 1.13611E-04-3.17829E-05-3.51326E-05 1.15579E-05 6.68547E-19 1.25519E-18
 -1      3859 1.08140E-04-2.52119E-05-3.55479E-05 1.04632E-05 1.04291E-19 6.36472E-19
 -1      3860 1.14338E-04-3.82144E-05-3.27020E-05-6.56085E-06-6.01964E-19 3.60366E-19
 -1      3861 1.08161E-04-3.82100E-05-2.99914E-05-3.76897E-07-1.44848E-18 6.19228E-19
 -1      3862 1.09158E-04-3.84358E-05-3.03474E-05-1.82306E-06-1.74363E-18-1.44765E-19
 -1      3863 1.17166E-04-4.04892E-05-3.28665E-05-5.05063E-06-8.37514E-19-2.15064E-18
 -1      3864 1.18001E-04-4.59793E-05-3.07875E-05 4.98960E-06-5.75979E-19-3.33299E-18
 -1      3865 1.19489E-04-4.89931E-05-3.02425E-05 9.88189E-06-2.34099E-19-3.05963E-18
 -1      3866 9.51361E-05-2.35651E-05-3.06826E-05 8.34602E-07 7.44524E-19-8.47073E-19
 -1      3867 9.50730E-05-2.33989E-05-3.07237E-05 4.81270E-07 6.89682E-19-9.06700E-19
 -1      3868 9.56370E-05-2.46331E-05-3.04208E-05 6.87254E-07 6.19539E-19-9.92023E-19
 -1      3869 1.11863E-04-2.40357E-05-3.76340E-05 1.14687E-05 3.89807E-19-5.29303E-19
 -1      3870 9.39861E-05-3.45523E-05-2.53412E-05 2.55582E-05-5.18407E-19-7.76597E-19
 -1      3871 7.70874E-05-2.28238E-05-2.31743E-05-2.18429E-05-6.09467E-21-7.45455E-20
 -1      3872 8.53451E-05-2.96181E-05-2.39364E-05-2.46089E-05-1.43162E-19 5.39454E-20
 -1      3873 8.80207E-05-2.95623E-05-2.49903E-05-2.11059E-05-3.82793E-19 7.45018E-19
 -1      3874 7.86796E-05-2.17206E-05-2.42741E-05-1.74376E-05 9.49570E-20-7.09357E-20
 -1      3875 9.61180E-05-2.91929E-05-2.86840E-05-7.11493E-07 1.80364E-19 5.88563E-19
 -1      3876 1.15606E-04-4.49015E-05-3.02382E-05 6.11586E-06-9.13505E-20-3.55163E-18
 -1      3877 1.12585E-04-4.25098E-05-2.99785E-05 5.73807E-06-3.49358E-19-3.41406E-18
 -1      3878 1.11483E-04-4.13814E-05-3.01150E-05 3.41432E-06-6.45660E-19-2.96451E-18
 -1      3879 1.15701E-04-4.37459E-05-3.09985E-05 1.44955E-06-4.83805E-19-2.05896E-18
 -1      3880 1.15031E-04-4.67752E-05-2.93450E-05 1.34549E-05 2.24388E-19-3.03340E-18
 -1      3881 1.21776E-04-3.93920E-05-3.54583E-05 9.31702E-06 9.60932E-19 1.77210E-18
 -1      3882 1.16796E-04-3.44061E-05-3.52895E-05 1.09555E-05 1.00882E-18 1.67932E-18
 -1      3883 1.15319E-04-3.61796E-05-3.38841E-05 9.90353E-06 9.22981E-19 1.42337E-18
 -1      3884 1.20430E-04-4.18111E-05-3.36993E-05 6.48654E-06 3.60843E-19 2.43226E-19
 -1      3885 1.12059E-04-4.01621E-05-3.08212E-05-1.60084E-06-1.35590E-18 7.16087E-19
 -1      3886 9.63478E-05-2.87155E-05-2.89873E-05-7.44726E-07 3.94109E-19-9.92796E-20
 -1      3887 9.63783E-05-2.85182E-05-2.90780E-05-6.33320E-07 2.03638E-19-3.98502E-20
 -1      3888 9.58316E-05-2.54851E-05-3.01381E-05 9.23149E-07 3.56814E-19-6.73705E-19
 -1      3889 9.65330E-05-2.83355E-05-2.92277E-05-4.69995E-07 2.48975E-19-4.74795E-19
 -1      3890 9.63674E-05-2.82552E-05-2.91948E-05-5.04398E-07 3.41879E-19-8.27590E-20
 -1      3891 9.63656E-05-2.79455E-05-2.93212E-05-2.89509E-07 5.24005E-19-1.48209E-19
 -1      3892 9.61860E-05-2.66855E-05-2.97864E-05 3.46869E-07 2.43212E-19-6.17903E-19
 -1      3893 9.60641E-05-2.61699E-05-2.99576E-05 6.80231E-07 1.98156E-19-7.82251E-19
 -1      3894 9.59325E-05-2.55240E-05-3.01724E-05 6.73090E-07 3.89979E-19-1.20114E-18
 -1      3895 9.60349E-05-2.91871E-05-2.86479E-05-5.42116E-07-2.51563E-20 1.06102E-18
 -1      3896 9.61109E-05-2.92182E-05-2.86676E-05-5.70708E-07-4.74721E-20 9.67613E-19
 -1      3897 9.66867E-05-2.77925E-05-2.95235E-05 1.32615E-07-5.05032E-20-2.73961E-20
 -1      3898 9.67396E-05-2.81884E-05-2.93827E-05 2.93269E-07-2.11833E-19-2.63434E-19
 -1      3899 9.67770E-05-2.85114E-05-2.92541E-05 3.69609E-07-2.23071E-19-2.25943E-19
 -1      3900 9.67625E-05-2.87568E-05-2.91471E-05 4.60243E-07-3.48471E-19-2.70760E-19
 -1      3901 9.68350E-05-2.82974E-05-2.93725E-05 2.44775E-07-3.34093E-19-2.62419E-19
 -1      3902 9.67354E-05-2.89388E-05-2.90535E-05 4.93824E-07-3.57925E-19-2.82087E-19
 -1      3903 9.66854E-05-2.90733E-05-2.89772E-05 5.34859E-07-3.03469E-19-3.24981E-19
 -1      3904 9.68421E-05-2.88314E-05-2.91482E-05 3.64824E-07-4.09705E-19-1.59200E-19
 -1      3905 9.66185E-05-2.91742E-05-2.89030E-05 5.43308E-07-3.13876E-19-3.55213E-19
 -1      3906 9.65448E-05-2.92401E-05-2.88446E-05 5.53205E-07-5.10971E-19-1.75551E-19
 -1      3907 9.67485E-05-2.91370E-05-2.89777E-05 4.19406E-07-3.12648E-19-4.38091E-20
 -1      3908 9.64567E-05-2.92748E-05-2.87910E-05 5.43112E-07-7.95902E-19-2.85794E-19
 -1      3909 9.63740E-05-2.92882E-05-2.87503E-05 5.32533E-07-8.08757E-19-1.43067E-19
 -1      3910 9.65939E-05-2.92860E-05-2.88480E-05 4.30240E-07-5.45203E-19-2.66568E-19
 -1      3911 9.62774E-05-2.92786E-05-2.87129E-05 5.12997E-07-7.25519E-19-1.78908E-20
 -1      3912 9.61934E-05-2.92572E-05-2.86858E-05 4.91994E-07-4.67556E-19 1.33499E-19
 -1      3913 9.64103E-05-2.93187E-05-2.87554E-05 4.13193E-07-5.45458E-19-3.00387E-19
 -1      3914 9.60958E-05-2.92186E-05-2.86611E-05 4.68944E-07-2.24241E-19 7.32157E-20
 -1      3915 9.60144E-05-2.91742E-05-2.86446E-05 4.44797E-07-1.90285E-19-7.29625E-20
 -1      3916 9.62175E-05-2.92738E-05-2.86920E-05 3.81683E-07-3.24675E-19 5.67734E-20
 -1      3917 9.59197E-05-2.91166E-05-2.86297E-05 4.22659E-07-3.49805E-19-1.68197E-19
 -1      3918 9.58423E-05-2.90568E-05-2.86212E-05 4.00508E-07-3.91224E-19-2.04320E-19
 -1      3919 9.60269E-05-2.91776E-05-2.86512E-05 3.46068E-07-2.68843E-19-3.52927E-19
 -1      3920 9.57557E-05-2.89897E-05-2.86140E-05 3.83056E-07-3.90213E-19-3.71845E-21
 -1      3921 9.56855E-05-2.89226E-05-2.86116E-05 3.67048E-07-6.58027E-20 2.38413E-20
 -1      3922 9.58474E-05-2.90509E-05-2.86283E-05 3.14207E-07-4.11248E-19 2.05949E-19
 -1      3923 9.55968E-05-2.88421E-05-2.86095E-05 3.54064E-07-1.55733E-19 7.97258E-20
 -1      3924 9.55239E-05-2.87616E-05-2.86115E-05 3.45065E-07-2.02358E-19 1.73223E-19
 -1      3925 9.56738E-05-2.89002E-05-2.86181E-05 2.89098E-07-1.82181E-19 4.44117E-19
 -1      3926 9.54344E-05-2.86709E-05-2.86135E-05 3.38668E-07-1.15021E-20 2.04606E-19
 -1      3927 9.53587E-05-2.85798E-05-2.86189E-05 3.39113E-07 4.72568E-19-8.04750E-20
 -1      3928 9.54975E-05-2.87246E-05-2.86173E-05 2.73413E-07-6.94440E-20 4.03486E-19
 -1      3929 9.52639E-05-2.84772E-05-2.86238E-05 3.39479E-07 5.27107E-19-3.18595E-19
 -1      3930 9.51801E-05-2.83726E-05-2.86315E-05 3.50010E-07 2.12333E-19-2.60489E-19
 -1      3931 9.53154E-05-2.85267E-05-2.86236E-05 2.68752E-07 3.02603E-19 1.64392E-20
 -1      3932 9.50736E-05-2.82545E-05-2.86380E-05 3.56254E-07 2.94130E-20-2.21704E-19
 -1      3933 9.49745E-05-2.81320E-05-2.86470E-05 3.76424E-07-3.24525E-20-1.18493E-19
 -1      3934 9.51168E-05-2.83016E-05-2.86342E-05 2.74045E-07 3.11352E-19-4.54835E-19
 -1      3935 9.48484E-05-2.79932E-05-2.86537E-05 3.86158E-07-3.52144E-19 5.21453E-20
 -1      3936 9.47241E-05-2.78466E-05-2.86628E-05 4.13919E-07-5.55878E-19-5.91660E-19
 -1      3937 9.48875E-05-2.80414E-05-2.86467E-05 2.85465E-07-1.70578E-19-1.28402E-19
 -1      3938 9.45684E-05-2.76802E-05-2.86682E-05 4.22453E-07-7.92028E-19-5.89923E-19
 -1      3939 9.44059E-05-2.75013E-05-2.86755E-05 4.53039E-07-6.56720E-19-4.62405E-19
 -1      3940 9.46100E-05-2.77356E-05-2.86578E-05 2.95016E-07-7.56636E-19-2.26789E-19
 -1      3941 9.42190E-05-2.73104E-05-2.86772E-05 4.52230E-07-4.15555E-19-4.94913E-19
 -1      3942 9.40142E-05-2.71019E-05-2.86804E-05 4.76663E-07-1.79487E-19 3.24034E-20
 -1      3943 9.42727E-05-2.73817E-05-2.86636E-05 2.88914E-07-5.43790E-19-1.06698E-19
 -1      3944 9.37636E-05-2.68582E-05-2.86758E-05 4.54032E-07 1.50597E-19 2.04447E-19
 -1      3945 9.34725E-05-2.65874E-05-2.86712E-05 4.59989E-07 7.57365E-19 7.14505E-19
 -1      3946 9.38435E-05-2.69588E-05-2.86593E-05 2.45799E-07 5.17447E-19-8.21178E-20
 -1      3947 9.31479E-05-2.62904E-05-2.86552E-05 3.93239E-07 7.47177E-19 7.41214E-19
 -1      3948 9.27505E-05-2.59545E-05-2.86367E-05 3.55226E-07 8.07922E-19 1.40426E-18
 -1      3949 9.32782E-05-2.64414E-05-2.86366E-05 1.26050E-07 7.60151E-19 8.29833E-19
 -1      3950 9.23327E-05-2.55968E-05-2.86022E-05 2.11353E-07-1.18487E-19 9.28223E-19
 -1      3951 9.17906E-05-2.51850E-05-2.85603E-05 9.10793E-08-8.56023E-19 9.36664E-19
 -1      3952 9.25496E-05-2.58297E-05-2.85839E-05-1.27819E-07 3.64250E-20 6.16046E-19
 -1      3953 9.12592E-05-2.47643E-05-2.84972E-05-1.79421E-07-9.65304E-19 6.70019E-19
 -1      3954 9.05251E-05-2.42698E-05-2.84175E-05-4.40568E-07-7.87920E-19 4.74005E-19
 -1      3955 9.16188E-05-2.51239E-05-2.84842E-05-6.02857E-07-1.02220E-18 8.66770E-19
 -1      3956 8.98629E-05-2.37953E-05-2.83106E-05-9.08335E-07-8.21122E-19 7.19399E-19
 -1      3957 8.88817E-05-2.32225E-05-2.81708E-05-1.39817E-06-8.13916E-19 6.33346E-19
 -1      3958 9.04484E-05-2.43441E-05-2.83132E-05-1.42573E-06-6.44146E-19 9.36973E-19
 -1      3959 8.81264E-05-2.27526E-05-2.80084E-05-2.12083E-06-7.75637E-19 6.46975E-20
 -1      3960 8.69021E-05-2.21588E-05-2.77910E-05-2.90163E-06-6.65128E-19 4.60008E-19
 -1      3961 8.90582E-05-2.35737E-05-2.80451E-05-2.72905E-06-1.27151E-18 6.79353E-19
 -1      3962 8.59908E-05-2.17092E-05-2.75298E-05-4.06921E-06-5.69827E-19-1.21337E-19
 -1      3963 8.43390E-05-2.11021E-05-2.71620E-05-5.39827E-06-2.33845E-19 4.04988E-19
 -1      3964 8.74273E-05-2.28975E-05-2.76312E-05-4.75554E-06-7.92990E-19 6.47101E-19
 -1      3965 8.33881E-05-2.08440E-05-2.67676E-05-7.15007E-06-2.17272E-19 1.13881E-19
 -1      3966 8.13460E-05-2.03964E-05-2.61848E-05-9.24014E-06 1.78947E-19 5.59412E-19
 -1      3967 8.55953E-05-2.25436E-05-2.69948E-05-7.86710E-06-1.98747E-20 7.34265E-19
 -1      3968 9.54280E-05-2.86864E-05-2.86023E-05-3.90727E-07 4.17230E-20 1.00045E-18
 -1      3969 9.54887E-05-2.87592E-05-2.85990E-05-3.94513E-07 1.80248E-19 1.03216E-18
 -1      3970 1.01268E-04-3.86845E-05-2.67062E-05-1.85868E-05-1.61737E-18-5.72320E-19
 -1      3971 1.05190E-04-4.23581E-05-2.67221E-05-2.02993E-05-1.85584E-18-1.59198E-18
 -1      3972 1.12091E-04-4.61204E-05-2.84551E-05-1.40016E-05-1.86360E-18-9.32464E-20
 -1      3973 9.53344E-05-2.39612E-05-3.05864E-05-7.25113E-07 3.79425E-19-4.74650E-20
 -1      3974 9.54171E-05-2.42304E-05-3.05160E-05-9.90787E-07 1.86438E-19 7.46567E-20
 -1      3975 9.57579E-05-2.50057E-05-3.03198E-05-7.12388E-07 1.50233E-19 1.77060E-19
 -1      3976 9.55692E-05-2.88353E-05-2.85990E-05-4.03268E-07 1.67943E-19 6.65052E-19
 -1      3977 9.56326E-05-2.89025E-05-2.85989E-05-4.18620E-07 6.27258E-20 9.68774E-19
 -1      3978 9.55613E-05-2.88128E-05-2.86072E-05-3.37759E-07 5.40063E-20 1.52268E-18
 -1      3979 9.51485E-05-2.83623E-05-2.86214E-05-4.49852E-07-8.50230E-19 1.07345E-18
 -1      3980 9.52080E-05-2.84424E-05-2.86151E-05-4.22390E-07-4.90726E-19 8.64714E-19
 -1      3981 9.50050E-05-2.81926E-05-2.86324E-05-5.33539E-07-5.57691E-19 4.72305E-19
 -1      3982 9.50644E-05-2.82735E-05-2.86262E-05-4.86033E-07-8.86421E-19 4.80150E-19
 -1      3983 9.50800E-05-2.82869E-05-2.86253E-05-4.10328E-07-4.74428E-19 5.94820E-19
 -1      3984 9.48595E-05-2.80259E-05-2.86411E-05-6.63423E-07 1.96193E-19 1.79211E-19
 -1      3985 9.49168E-05-2.81032E-05-2.86363E-05-5.92311E-07 1.57446E-19 4.92089E-19
 -1      3986 9.49085E-05-2.80957E-05-2.86335E-05-5.03171E-07-1.70335E-19 2.08967E-21
 -1      3987 9.47190E-05-2.78755E-05-2.86448E-05-8.49440E-07-1.80241E-20 9.46017E-19
 -1      3988 9.47689E-05-2.79414E-05-2.86426E-05-7.50580E-07-1.47230E-19 2.40355E-19
 -1      3989 9.47298E-05-2.79058E-05-2.86383E-05-6.46125E-07-5.53113E-21 5.48411E-19
 -1      3990 9.45993E-05-2.77640E-05-2.86403E-05-1.10327E-06-9.30148E-20 6.32214E-19
 -1      3991 9.46313E-05-2.78053E-05-2.86422E-05-9.72188E-07 2.23474E-19 8.19755E-19
 -1      3992 9.45506E-05-2.77316E-05-2.86363E-05-8.53150E-07 1.37904E-19 5.87732E-19
 -1      3993 9.45291E-05-2.77274E-05-2.86246E-05-1.43803E-06-5.01863E-19 7.21925E-19
 -1      3994 9.45259E-05-2.77238E-05-2.86319E-05-1.27047E-06-4.98102E-19 4.09810E-19
 -1      3995 9.43869E-05-2.75980E-05-2.86241E-05-1.14193E-06-1.77188E-19 8.70658E-19
 -1      3996 9.45565E-05-2.78196E-05-2.85951E-05-1.86594E-06-2.79385E-19 9.39817E-19
 -1      3997 9.44905E-05-2.77415E-05-2.86086E-05-1.65936E-06-2.57473E-19 1.34566E-18
 -1      3998 9.42694E-05-2.75449E-05-2.85979E-05-1.53376E-06-5.68665E-19 9.98683E-19
 -1      3999 9.47545E-05-2.81158E-05-2.85508E-05-2.39372E-06-5.76641E-19 3.49518E-19
 -1      4000 9.45858E-05-2.79227E-05-2.85705E-05-2.15011E-06-4.21775E-19 8.87469E-19
 -1      4001 9.42505E-05-2.76327E-05-2.85546E-05-2.05141E-06 7.11204E-20 1.41722E-18
 -1      4002 9.52283E-05-2.87148E-05-2.84949E-05-3.01340E-06-4.12126E-19 2.61428E-19
 -1      4003 9.49024E-05-2.83553E-05-2.85182E-05-2.74444E-06-4.79302E-19 2.88997E-19
 -1      4004 9.44122E-05-2.79472E-05-2.84930E-05-2.71404E-06-4.27574E-19-1.56755E-19
 -1      4005 9.61181E-05-2.97340E-05-2.84378E-05-3.68626E-06-4.89247E-19 1.23929E-18
 -1      4006 9.55672E-05-2.91497E-05-2.84578E-05-3.42147E-06-4.41989E-19 7.31622E-19
 -1      4007 9.48755E-05-2.86032E-05-2.84165E-05-3.52593E-06-4.33670E-19 4.34763E-19
 -1      4008 9.75955E-05-3.12928E-05-2.84034E-05-4.31532E-06-1.00227E-18 1.46786E-18
 -1      4009 9.67458E-05-3.04308E-05-2.84060E-05-4.11506E-06-7.76845E-19 1.35052E-18
 -1      4010 9.58100E-05-2.97431E-05-2.83374E-05-4.45525E-06-9.18719E-19 1.19351E-18
 -1      4011 9.98409E-05-3.34729E-05-2.84375E-05-4.71523E-06-1.36294E-18 1.59160E-18
 -1      4012 9.86268E-05-3.23049E-05-2.83971E-05-4.68130E-06-9.62609E-19 1.37070E-18
 -1      4013 9.74298E-05-3.15155E-05-2.82848E-05-5.39424E-06-9.87669E-19 8.78521E-19
 -1      4014 1.02970E-04-3.61871E-05-2.86191E-05-4.59218E-06-1.24643E-18-2.62333E-19
 -1      4015 1.01384E-04-3.47924E-05-2.84950E-05-4.85343E-06-1.41118E-18 1.67594E-19
 -1      4016 9.99462E-05-3.40355E-05-2.83167E-05-6.09659E-06-5.25701E-19 2.13719E-20
 -1      4017 1.06941E-04-3.92041E-05-2.90598E-05-3.34651E-06-9.31506E-19-1.09888E-19
 -1      4018 1.05148E-04-3.78204E-05-2.87932E-05-4.21478E-06-1.19508E-18-2.37772E-19
 -1      4019 1.03719E-04-3.72878E-05-2.85517E-05-6.09816E-06-1.34779E-18-1.03305E-18
 -1      4020 1.11392E-04-4.15394E-05-2.99519E-05-5.97470E-07-1.07151E-18 7.92356E-19
 -1      4021 1.09612E-04-4.06903E-05-2.94556E-05-2.23488E-06-1.33632E-18 6.55975E-19
 -1      4022 1.08417E-04-4.07081E-05-2.91087E-05-4.92337E-06-1.61984E-18-7.93883E-19
 -1      4023 1.15901E-04-4.26721E-05-3.14168E-05 2.60931E-06-6.04761E-19 7.55787E-19
 -1      4024 1.14606E-04-4.30780E-05-3.06199E-05 3.86769E-07-6.05971E-19 7.39796E-19
 -1      4025 1.15340E-04-3.89356E-05-3.28309E-05 7.76739E-06 5.30301E-19 1.44555E-18
 -1      4026 1.03342E-04-1.71335E-05-3.71389E-05 4.10361E-06 3.74872E-19-1.42967E-19
 -1      4027 1.10184E-04-4.00398E-05-3.00363E-05 2.21716E-06-1.18430E-18-1.86783E-18
 -1      4028 9.63096E-05-2.88664E-05-2.89010E-05-8.00367E-07 4.54186E-19-1.70446E-20
 -1      4029 9.65066E-05-2.87976E-05-2.90197E-05-6.66642E-07 3.52296E-19-2.90719E-19
 -1      4030 9.62612E-05-2.89764E-05-2.88370E-05-8.43687E-07 4.43309E-19-1.64900E-19
 -1      4031 9.57161E-05-2.89721E-05-2.86033E-05-4.36741E-07 8.08403E-20 9.66479E-19
 -1      4032 9.57834E-05-2.90317E-05-2.86079E-05-4.60667E-07-1.05529E-19 1.15211E-18
 -1      4033 9.57236E-05-2.89641E-05-2.86122E-05-3.60185E-07 7.22766E-20 7.85405E-19
 -1      4034 1.16013E-04-4.22221E-05-3.15240E-05-2.10191E-06-9.80017E-19-5.15793E-19
 -1      4035 9.63827E-05-2.66842E-05-2.98705E-05-2.46962E-07-7.21418E-20 1.82279E-19
 -1      4036 9.65463E-05-2.72839E-05-2.96883E-05 4.03358E-10 6.23351E-20 8.81148E-20
 -1      4037 9.66637E-05-2.74333E-05-2.96684E-05 3.10505E-08-8.41414E-20-1.31866E-19
 -1      4038 1.12220E-04-4.12759E-05-3.03508E-05 1.53454E-06-8.76823E-19-1.67765E-18
 -1      4039 9.58711E-05-2.90922E-05-2.86183E-05-4.85420E-07-6.93098E-20 1.01998E-18
 -1      4040 9.59431E-05-2.91406E-05-2.86293E-05-5.14190E-07 1.14091E-19 9.74314E-19
 -1      4041 9.60709E-05-2.92061E-05-2.86580E-05-4.41265E-07-7.06547E-20 7.64452E-19
 -1      4042 9.58931E-05-2.90979E-05-2.86279E-05-3.96747E-07-1.29023E-19 6.47890E-19
 -1      4043 9.62045E-05-2.92427E-05-2.86970E-05-5.97265E-07-5.37556E-20 8.69340E-19
 -1      4044 9.62823E-05-2.92471E-05-2.87283E-05-6.18703E-07 1.12281E-19 6.65149E-19
 -1      4045 9.62548E-05-2.92752E-05-2.87074E-05-4.85870E-07-7.01904E-20 7.86043E-19
 -1      4046 9.52889E-05-2.85281E-05-2.86106E-05-4.04406E-07-3.53944E-20 1.01779E-18
 -1      4047 9.53485E-05-2.86051E-05-2.86052E-05-3.93936E-07 2.60825E-19 9.58682E-19
 -1      4048 9.52438E-05-2.84722E-05-2.86164E-05-3.56907E-07-2.08286E-19 1.44927E-18
 -1      4049 9.63392E-05-2.75785E-05-2.94702E-05-1.24331E-07 5.11324E-19-3.91992E-19
 -1      4050 9.63038E-05-2.72101E-05-2.96109E-05 1.41836E-07 3.57503E-19-4.95099E-19
 -1      4051 9.63401E-05-2.67666E-05-2.98165E-05 2.46638E-07 2.57990E-19-1.15156E-18
 -1      4052 9.65043E-05-2.76931E-05-2.94949E-05-1.49202E-07 4.46922E-19-7.27901E-19
 -1      4053 1.13803E-04-4.15500E-05-3.09625E-05-6.23286E-07-4.78505E-19-2.80628E-19
 -1      4054 9.54028E-05-2.86481E-05-2.86095E-05-3.34839E-07 1.58507E-19 1.23111E-18
 -1      4055 8.06731E-05-2.05290E-05-2.57007E-05-1.14083E-05-7.83741E-20 6.49815E-19
 -1      4056 7.88271E-05-2.07724E-05-2.49212E-05-1.45589E-05-1.92956E-19-2.39472E-19
 -1      4057 8.28719E-05-2.43676E-05-2.50994E-05-1.72248E-05-6.79243E-20 7.45171E-19
 -1      4058 8.39710E-05-2.29207E-05-2.61533E-05-1.20418E-05 6.89989E-20 1.29716E-18
 -1      4059 1.10096E-04-4.29833E-05-2.87735E-05-9.30623E-06-1.83279E-18-3.70603E-19
 -1      4060 1.14306E-04-4.54279E-05-2.93986E-05-7.72873E-06-1.60754E-18 3.86267E-19
 -1      4061 9.52425E-05-2.37459E-05-3.06500E-05-5.28999E-07 4.49338E-19-3.98244E-19
 -1      4062 9.56411E-05-2.45672E-05-3.04554E-05-3.73698E-07 2.30236E-19-3.31859E-19
 -1      4063 9.51288E-05-2.34748E-05-3.07095E-05-2.50654E-07 4.79627E-19-5.53502E-19
 -1      4064 9.63723E-05-2.92374E-05-2.87716E-05-6.37268E-07 2.61803E-19 2.82379E-19
 -1      4065 9.64471E-05-2.92013E-05-2.88180E-05-6.41766E-07 2.36636E-19 1.37177E-19
 -1      4066 9.64370E-05-2.92833E-05-2.87821E-05-5.19609E-07-1.00880E-19 4.05181E-19
 -1      4067 1.14203E-04-4.41743E-05-3.01159E-05-3.27728E-06-1.07605E-18 5.77101E-19
 -1      4068 9.64060E-05-2.90537E-05-2.88672E-05-7.47438E-07 5.43261E-19 1.40806E-19
 -1      4069 9.59415E-05-2.53946E-05-3.02390E-05 5.50783E-07 4.38889E-19-1.08121E-18
 -1      4070 9.58956E-05-2.52052E-05-3.02992E-05 3.86496E-07 6.35516E-19-8.02262E-19
 -1      4071 9.61940E-05-2.60393E-05-3.00593E-05 3.44070E-07 3.88037E-19-1.19530E-18
 -1      4072 9.55878E-05-2.44006E-05-3.04971E-05 3.52737E-07 6.42011E-19-8.17360E-19
 -1      4073 9.50556E-05-2.33438E-05-3.07391E-05 3.03032E-07 5.77802E-19-9.46971E-19
 -1      4074 9.51301E-05-2.34904E-05-3.07109E-05-1.85370E-08 5.29551E-19-8.30988E-19
 -1      4075 9.58997E-05-2.51689E-05-3.03165E-05 2.57675E-07 5.48314E-19-9.01957E-19
 -1      4076 9.59956E-05-2.56039E-05-3.01714E-05-5.89184E-07-1.56219E-20 1.56993E-19
 -1      4077 9.62163E-05-2.62151E-05-3.00019E-05-3.52625E-07-1.11685E-19 1.36406E-19
 -1      4078 9.63528E-05-2.64194E-05-2.99683E-05-2.22851E-07-1.22358E-19-7.49972E-20
 -1      4079 9.59625E-05-2.53853E-05-3.02444E-05-4.46784E-07 5.45091E-20-4.26847E-20
 -1      4080 9.66367E-05-2.89049E-05-2.90293E-05-5.92068E-07 3.03046E-19-4.90203E-19
 -1      4081 9.66745E-05-2.87206E-05-2.91201E-05-5.19279E-07 5.67731E-20-5.91544E-19
 -1      4082 9.66758E-05-2.84746E-05-2.92324E-05-4.50914E-07 9.55440E-20-8.01791E-19
 -1      4083 9.66597E-05-2.81531E-05-2.93532E-05-3.13794E-07 2.78838E-19-7.88556E-19
 -1      4084 9.67802E-05-2.85644E-05-2.92363E-05-3.82611E-07-3.81354E-20-8.37229E-19
 -1      4085 8.66147E-05-2.73346E-05-2.53708E-05-1.82938E-05-2.52307E-20 1.31645E-18
 -1      4086 9.16834E-05-3.17003E-05-2.58827E-05-1.90296E-05-3.09342E-19 7.41538E-19
 -1      4087 8.70145E-05-2.62354E-05-2.59269E-05-1.55543E-05 7.82972E-20 6.46220E-19
 -1      4088 9.81818E-05-3.58844E-05-2.65874E-05-1.77811E-05-9.41504E-19 1.46014E-19
 -1      4089 1.04599E-04-4.04294E-05-2.76446E-05-1.45453E-05-1.80398E-18-7.96883E-19
 -1      4090 9.66169E-05-3.37374E-05-2.68340E-05-1.54894E-05-2.40957E-19 2.90509E-19
 -1      4091 1.17869E-04-4.16568E-05-3.26472E-05 5.88799E-06-4.54175E-19 7.21042E-19
 -1      4092 9.69254E-05-2.87410E-05-2.92210E-05 2.30485E-07-3.78523E-19-7.68289E-20
 -1      4093 9.69004E-05-2.89432E-05-2.91251E-05 2.77839E-07-3.84701E-19 6.87118E-20
 -1      4094 9.68534E-05-2.91043E-05-2.90344E-05 2.83533E-07-3.53404E-19 1.23850E-19
 -1      4095 9.67870E-05-2.92171E-05-2.89583E-05 3.05215E-07-3.39825E-19 1.84472E-20
 -1      4096 9.69195E-05-2.90216E-05-2.91000E-05 1.60867E-07-2.89696E-19 1.28443E-19
 -1      4097 9.67041E-05-2.92899E-05-2.88909E-05 3.02024E-07-5.97893E-19-1.11158E-19
 -1      4098 9.66179E-05-2.93329E-05-2.88356E-05 3.06996E-07-7.46512E-19-2.96620E-19
 -1      4099 9.67859E-05-2.92609E-05-2.89413E-05 1.73730E-07-6.12606E-19-2.16885E-19
 -1      4100 9.65190E-05-2.93466E-05-2.87870E-05 2.93920E-07-4.56023E-19-1.25383E-19
 -1      4101 9.64224E-05-2.93405E-05-2.87481E-05 2.89314E-07-2.68517E-19-1.33200E-19
 -1      4102 9.66099E-05-2.93564E-05-2.88261E-05 1.73254E-07-4.78033E-19-2.02633E-19
 -1      4103 9.63177E-05-2.93150E-05-2.87144E-05 2.74938E-07-3.42156E-19-1.53295E-19
 -1      4104 9.62199E-05-2.92770E-05-2.86885E-05 2.65007E-07-3.11596E-19-8.94440E-20
 -1      4105 9.64051E-05-2.93473E-05-2.87430E-05 1.65393E-07-3.43114E-19-1.51961E-20
 -1      4106 9.61157E-05-2.92255E-05-2.86664E-05 2.51036E-07-3.12788E-19-1.41472E-19
 -1      4107 9.60208E-05-2.91666E-05-2.86506E-05 2.39681E-07-3.04091E-19-3.57405E-19
 -1      4108 9.61970E-05-2.92701E-05-2.86866E-05 1.52594E-07-1.74118E-19-1.91342E-21
 -1      4109 9.59246E-05-2.91013E-05-2.86380E-05 2.27911E-07 7.78064E-21 1.52762E-20
 -1      4110 9.58380E-05-2.90323E-05-2.86299E-05 2.18410E-07 8.74560E-21 5.25171E-19
 -1      4111 9.59981E-05-2.91518E-05-2.86515E-05 1.39146E-07 1.01031E-19-1.80527E-19
 -1      4112 9.57399E-05-2.89517E-05-2.86233E-05 2.08554E-07-2.67427E-19 6.36296E-19
 -1      4113 9.56509E-05-2.88679E-05-2.86205E-05 2.01466E-07 6.89015E-21 5.69861E-19
 -1      4114 9.58054E-05-2.90034E-05-2.86317E-05 1.26824E-07 6.96295E-20 4.21285E-19
 -1      4115 9.55540E-05-2.87767E-05-2.86189E-05 1.94150E-07-3.89085E-21 5.13465E-19
 -1      4116 9.54643E-05-2.86826E-05-2.86202E-05 1.90974E-07-2.92283E-20 5.91600E-19
 -1      4117 9.56123E-05-2.88285E-05-2.86230E-05 1.16521E-07-1.80332E-19 4.51016E-19
 -1      4118 9.53650E-05-2.85807E-05-2.86221E-05 1.85636E-07 7.92229E-20 6.35636E-19
 -1      4119 9.52697E-05-2.84750E-05-2.86263E-05 1.86279E-07 3.52599E-19 1.20640E-19
 -1      4120 9.54180E-05-2.86324E-05-2.86228E-05 1.07758E-07 5.57705E-20 4.50012E-19
 -1      4121 9.51631E-05-2.83605E-05-2.86302E-05 1.81371E-07 4.17865E-19-1.32057E-19
 -1      4122 9.50560E-05-2.82403E-05-2.86359E-05 1.84513E-07 2.01814E-19-2.73728E-19
 -1      4123 9.52142E-05-2.84137E-05-2.86281E-05 9.81877E-08 2.33198E-19 7.19166E-19
 -1      4124 9.49361E-05-2.81100E-05-2.86405E-05 1.77063E-07 8.52664E-20-2.68035E-19
 -1      4125 9.48091E-05-2.79713E-05-2.86463E-05 1.79618E-07-2.76148E-19-2.77823E-19
 -1      4126 9.49897E-05-2.81681E-05-2.86360E-05 8.29336E-08-5.26783E-20 1.69398E-19
 -1      4127 9.46691E-05-2.78213E-05-2.86498E-05 1.64550E-07-5.74964E-19-1.92715E-19
 -1      4128 9.45120E-05-2.76589E-05-2.86539E-05 1.60449E-07-7.46927E-19-1.48090E-19
 -1      4129 9.47317E-05-2.78898E-05-2.86434E-05 5.33755E-08-3.37247E-19-5.38790E-19
 -1      4130 9.43530E-05-2.74943E-05-2.86545E-05 1.31390E-07-1.10780E-18 2.51113E-19
 -1      4131 9.41646E-05-2.73135E-05-2.86548E-05 1.13185E-07-5.11457E-19 2.82305E-19
 -1      4132 9.44337E-05-2.75809E-05-2.86465E-05-2.59228E-09-6.80261E-19-3.88921E-19
 -1      4133 9.39633E-05-2.71138E-05-2.86500E-05 5.50640E-08 1.07508E-19-2.50222E-19
 -1      4134 9.37092E-05-2.68909E-05-2.86433E-05 5.10356E-09 4.12762E-19-2.53576E-19
 -1      4135 9.40748E-05-2.72307E-05-2.86412E-05-1.07020E-07-6.33771E-19 1.01325E-19
 -1      4136 9.34654E-05-2.66621E-05-2.86292E-05-1.01191E-07 6.42331E-19-2.98095E-19
 -1      4137 9.31363E-05-2.64022E-05-2.86107E-05-2.06288E-07 6.45139E-19-5.70627E-19
 -1      4138 9.36286E-05-2.68281E-05-2.86210E-05-2.97613E-07 3.37001E-19-1.49218E-18
 -1      4139 9.28456E-05-2.61469E-05-2.85824E-05-3.89744E-07 2.84297E-19-6.05797E-19
 -1      4140 9.24213E-05-2.58510E-05-2.85453E-05-5.86245E-07-3.55882E-19-9.22697E-19
 -1      4141 9.30903E-05-2.63888E-05-2.85774E-05-6.23272E-07 4.63029E-19-1.32643E-18
 -1      4142 9.20848E-05-2.55797E-05-2.84961E-05-8.88570E-07-6.88897E-19-1.41210E-19
 -1      4143 9.15445E-05-2.52569E-05-2.84306E-05-1.22949E-06-4.69415E-19 5.35075E-19
 -1      4144 9.24540E-05-2.59345E-05-2.84990E-05-1.15700E-06 3.15145E-19-1.23154E-18
 -1      4145 9.11751E-05-2.49950E-05-2.83515E-05-1.70810E-06-3.56945E-19 7.49183E-19
 -1      4146 9.05029E-05-2.46676E-05-2.82437E-05-2.27029E-06-7.11356E-19 6.58628E-19
 -1      4147 9.17297E-05-2.55122E-05-2.83711E-05-1.99965E-06-2.78919E-19-1.63708E-19
 -1      4148 9.01528E-05-2.44720E-05-2.81299E-05-2.95873E-06-1.49077E-18 9.52063E-19
 -1      4149 8.93802E-05-2.42021E-05-2.79717E-05-3.78346E-06-1.72127E-18 1.11578E-18
 -1      4150 9.09769E-05-2.52135E-05-2.81810E-05-3.24465E-06-1.05904E-18 4.52720E-19
 -1      4151 8.90749E-05-2.41322E-05-2.78001E-05-4.83702E-06-1.21896E-18 1.48252E-18
 -1      4152 8.81468E-05-2.39809E-05-2.75495E-05-6.14488E-06-6.86584E-19 1.49206E-18
 -1      4153 9.02653E-05-2.51667E-05-2.79049E-05-5.07178E-06-9.86199E-19 1.52020E-18
 -1      4154 8.80364E-05-2.41924E-05-2.73105E-05-7.65070E-06-6.30292E-19 1.75234E-18
 -1      4155 8.71083E-05-2.43288E-05-2.69468E-05-9.56176E-06-1.19240E-19 1.13659E-18
 -1      4156 8.97701E-05-2.56282E-05-2.75128E-05-7.72420E-06-3.22437E-19 2.03854E-18
 -1      4157 9.55466E-05-2.87819E-05-2.86123E-05-2.59166E-07-2.46726E-20 1.27454E-18
 -1      4158 9.56268E-05-2.88637E-05-2.86130E-05-2.63248E-07 9.51679E-20 1.17314E-18
 -1      4159 9.48177E-05-2.79976E-05-2.86357E-05-4.45362E-07-3.06962E-19 7.37686E-19
 -1      4160 9.49048E-05-2.81013E-05-2.86323E-05-3.90127E-07-1.37171E-19 4.99430E-19
 -1      4161 9.50145E-05-2.82104E-05-2.86292E-05-3.49061E-07-2.34895E-19 1.77595E-19
 -1      4162 9.50980E-05-2.83105E-05-2.86247E-05-3.14652E-07-2.06577E-19 5.67126E-19
 -1      4163 9.49280E-05-2.81164E-05-2.86317E-05-2.89623E-07-3.41058E-19 3.73356E-19
 -1      4164 9.43897E-05-2.75757E-05-2.86313E-05-8.11099E-07 9.70510E-21 1.28534E-18
 -1      4165 9.44747E-05-2.76695E-05-2.86347E-05-6.93719E-07-2.97755E-19 1.12739E-18
 -1      4166 9.41792E-05-2.74047E-05-2.86125E-05-1.12191E-06-5.44594E-19 1.88762E-18
 -1      4167 9.42482E-05-2.74746E-05-2.86222E-05-9.58780E-07-8.17969E-20 2.19421E-18
 -1      4168 9.41832E-05-2.73899E-05-2.86210E-05-7.86828E-07-6.89299E-19 2.27559E-18
 -1      4169 9.40066E-05-2.73093E-05-2.85768E-05-1.55545E-06-4.14408E-19 1.69160E-18
 -1      4170 9.40384E-05-2.73316E-05-2.85947E-05-1.33398E-06-5.53781E-19 2.00631E-18
 -1      4171 9.39079E-05-2.71791E-05-2.85931E-05-1.13641E-06-3.61588E-19 2.76726E-18
 -1      4172 9.39258E-05-2.73523E-05-2.85200E-05-2.14641E-06 7.80803E-20 1.04936E-18
 -1      4173 9.38861E-05-2.72914E-05-2.85476E-05-1.85313E-06 1.33119E-20 1.13628E-18
 -1      4174 9.36549E-05-2.70420E-05-2.85443E-05-1.63876E-06 7.58600E-20 1.85935E-18
 -1      4175 9.40234E-05-2.76260E-05-2.84396E-05-2.92968E-06 2.29381E-19 2.86572E-19
 -1      4176 9.38600E-05-2.74306E-05-2.84770E-05-2.55354E-06 9.27303E-20 8.09182E-19
 -1      4177 9.34778E-05-2.70470E-05-2.84688E-05-2.34423E-06 4.48299E-19 8.47528E-19
 -1      4178 9.44315E-05-2.82580E-05-2.83375E-05-3.92775E-06-6.85249E-19 8.60245E-19
 -1      4179 9.40699E-05-2.78598E-05-2.83820E-05-3.46818E-06-2.29596E-20 8.03252E-19
 -1      4180 9.34683E-05-2.72982E-05-2.83626E-05-3.30818E-06 5.75132E-20 5.90097E-19
 -1      4181 9.53417E-05-2.94155E-05-2.82253E-05-5.13433E-06-5.09038E-19 5.16529E-19
 -1      4182 9.46788E-05-2.87257E-05-2.82681E-05-4.61195E-06-5.37667E-19 1.30176E-18
 -1      4183 9.37679E-05-2.79370E-05-2.82259E-05-4.57714E-06-4.99539E-19 7.38150E-19
 -1      4184 9.70093E-05-3.12918E-05-2.81328E-05-6.45731E-06-9.17582E-19-3.40228E-19
 -1      4185 9.59277E-05-3.02191E-05-2.81545E-05-5.94062E-06-6.17417E-19 1.99341E-19
 -1      4186 9.46044E-05-2.91800E-05-2.80700E-05-6.16733E-06-3.41576E-19 3.24218E-19
 -1      4187 9.98708E-05-3.40933E-05-2.81426E-05-7.59658E-06 2.61867E-19-1.02807E-18
 -1      4188 9.81354E-05-3.25212E-05-2.80886E-05-7.29390E-06-7.30258E-20-2.03522E-19
 -1      4189 9.63236E-05-3.12904E-05-2.79296E-05-8.00748E-06-2.21761E-19-7.22769E-19
 -1      4190 1.04366E-04-3.85819E-05-2.81770E-05-9.88257E-06-1.72983E-18-8.20121E-19
 -1      4191 1.01935E-04-3.65345E-05-2.80066E-05-9.79595E-06-1.43741E-18-5.81601E-19
 -1      4192 1.07393E-04-4.09496E-05-2.83826E-05-9.95014E-06-1.80944E-18-7.46653E-19
 -1      4193 9.65244E-05-2.91398E-05-2.88794E-05-6.44007E-07 3.29267E-19 7.05755E-20
 -1      4194 9.65872E-05-2.90430E-05-2.89453E-05-6.18490E-07 2.91456E-19-1.59223E-19
 -1      4195 9.67304E-05-2.89800E-05-2.90371E-05-4.90676E-07 3.02179E-20-3.93125E-19
 -1      4196 9.66036E-05-2.92000E-05-2.88890E-05-5.27859E-07 1.92267E-19-2.26546E-20
 -1      4197 9.68771E-05-2.81111E-05-2.94704E-05 1.24666E-07-1.30030E-19-1.62679E-19
 -1      4198 9.69172E-05-2.84629E-05-2.93392E-05 2.08854E-07-2.44278E-19-6.79445E-20
 -1      4199 9.69581E-05-2.85691E-05-2.93094E-05 1.21734E-07-2.24797E-19 4.12429E-20
 -1      4200 9.53743E-05-2.86042E-05-2.86147E-05-2.64056E-07 2.92080E-19 1.07046E-18
 -1      4201 9.54536E-05-2.86928E-05-2.86123E-05-2.58426E-07 2.14586E-19 9.59005E-19
 -1      4202 9.55133E-05-2.87419E-05-2.86173E-05-1.85094E-07 3.78093E-19 5.88963E-19
 -1      4203 9.57209E-05-2.89452E-05-2.86169E-05-2.71753E-07-8.02424E-20 9.11048E-19
 -1      4204 9.58041E-05-2.90189E-05-2.86221E-05-2.82889E-07-1.24652E-19 6.92318E-19
 -1      4205 9.56979E-05-2.89183E-05-2.86217E-05-1.88999E-07-1.54541E-19 6.24058E-19
 -1      4206 9.66275E-05-2.71170E-05-2.97904E-05-5.09233E-08-2.30857E-20-3.19933E-19
 -1      4207 9.67730E-05-2.76602E-05-2.96221E-05 7.94022E-08-1.64878E-19-3.38550E-19
 -1      4208 9.68452E-05-2.78169E-05-2.95814E-05 5.43198E-08-1.38986E-20-3.02488E-19
 -1      4209 9.51987E-05-2.84134E-05-2.86212E-05-2.91740E-07-1.63511E-19 7.89886E-19
 -1      4210 9.52792E-05-2.85082E-05-2.86172E-05-2.73499E-07 7.53995E-20 1.00588E-18
 -1      4211 9.53279E-05-2.85492E-05-2.86195E-05-1.96371E-07-1.09593E-20 3.03215E-19
 -1      4212 9.46076E-05-2.77814E-05-2.86376E-05-5.93443E-07 6.91787E-20 7.62964E-19
 -1      4213 9.46966E-05-2.78844E-05-2.86368E-05-5.11088E-07-6.22623E-20 7.98698E-19
 -1      4214 9.47014E-05-2.78783E-05-2.86356E-05-3.91014E-07-2.62217E-19 8.83403E-19
 -1      4215 9.62850E-05-2.92969E-05-2.87078E-05-3.65809E-07-1.17979E-19 6.49455E-19
 -1      4216 9.63781E-05-2.93183E-05-2.87388E-05-3.78372E-07-1.59695E-19 5.29395E-19
 -1      4217 9.65264E-05-2.71644E-05-2.97197E-05 4.39970E-08 2.82990E-19-1.19722E-18
 -1      4218 9.63906E-05-2.66579E-05-2.98907E-05 2.36651E-07 3.23849E-19-1.18779E-18
 -1      4219 9.63963E-05-2.65106E-05-2.99550E-05 1.70974E-07 4.05262E-19-1.06773E-18
 -1      4220 8.72324E-05-2.48574E-05-2.66741E-05-1.11103E-05 9.19126E-20 7.84940E-19
 -1      4221 8.65442E-05-2.53899E-05-2.62478E-05-1.34010E-05 1.51518E-19 1.20727E-18
 -1      4222 9.00996E-05-2.84315E-05-2.65068E-05-1.44813E-05 1.03745E-20 6.21553E-19
 -1      4223 8.95962E-05-2.66059E-05-2.70323E-05-1.08847E-05-3.63301E-19 2.08737E-18
 -1      4224 9.55674E-05-2.43419E-05-3.05154E-05 8.78221E-09 3.47757E-19-7.17186E-19
 -1      4225 9.58361E-05-2.49857E-05-3.03648E-05-1.77371E-07 1.91625E-20-5.35365E-19
 -1      4226 9.59050E-05-2.52021E-05-3.03067E-05-3.48714E-07 2.77277E-20-3.91152E-19
 -1      4227 9.61401E-05-2.57620E-05-3.01614E-05-2.31954E-07-1.28682E-19-3.47690E-19
 -1      4228 9.64895E-05-2.93491E-05-2.87783E-05-2.67603E-07-2.26791E-19 4.79626E-19
 -1      4229 9.64798E-05-2.93250E-05-2.87795E-05-3.96405E-07-3.73093E-19 4.82586E-19
 -1      4230 9.65693E-05-2.93073E-05-2.88250E-05-3.99827E-07-2.44764E-19 2.68634E-19
 -1      4231 9.44519E-05-2.76313E-05-2.86335E-05-5.48907E-07-1.05799E-19 9.61241E-19
 -1      4232 9.51350E-05-2.83407E-05-2.86252E-05-2.28548E-07-5.92516E-20-2.06346E-19
 -1      4233 9.93467E-05-3.49488E-05-2.76978E-05-1.13278E-05-6.86538E-19-3.17753E-19
 -1      4234 9.58868E-05-2.90761E-05-2.86358E-05-2.03563E-07-6.93581E-21 5.56233E-19
 -1      4235 9.59013E-05-2.90910E-05-2.86317E-05-2.97051E-07 6.28712E-20 6.44489E-19
 -1      4236 9.59888E-05-2.91537E-05-2.86431E-05-3.12496E-07 1.22977E-19 6.97605E-19
 -1      4237 9.68688E-05-2.87036E-05-2.92157E-05-3.27771E-07-2.56927E-19-7.72596E-19
 -1      4238 9.68762E-05-2.84341E-05-2.93330E-05-2.43636E-07-8.50761E-20-1.00692E-18
 -1      4239 9.68003E-05-2.90783E-05-2.90246E-05-3.92873E-07-2.11010E-19-3.80123E-19
 -1      4240 9.68507E-05-2.89192E-05-2.91115E-05-3.51592E-07-4.57929E-19-5.98199E-19
 -1      4241 9.69214E-05-2.87954E-05-2.91972E-05-2.31716E-07-5.39187E-19-5.85318E-19
 -1      4242 9.66371E-05-2.78297E-05-2.94928E-05-1.64338E-07 2.54406E-19-1.12627E-18
 -1      4243 9.47262E-05-3.13130E-05-2.71476E-05-1.25183E-05-2.92468E-19 5.08266E-19
 -1      4244 9.63358E-05-2.62638E-05-3.00330E-05-1.88330E-07-7.61396E-20-3.25587E-19
 -1      4245 9.64952E-05-2.67194E-05-2.99046E-05-8.57271E-08 1.40096E-20-2.27496E-19
 -1      4246 9.66033E-05-2.69479E-05-2.98504E-05-3.55718E-08-5.33997E-20-3.46353E-19
 -1      4247 9.62876E-05-2.60719E-05-3.00903E-05-1.04543E-07-1.23180E-19-4.10407E-19
 -1      4248 9.60899E-05-2.92122E-05-2.86604E-05-3.30377E-07-4.72669E-20 6.73979E-19
 -1      4249 9.61814E-05-2.92588E-05-2.86803E-05-3.46545E-07-5.94597E-20 6.35029E-19
 -1      4250 9.62854E-05-2.93066E-05-2.87090E-05-2.47694E-07-1.75900E-19 7.60873E-19
 -1      4251 9.60828E-05-2.92093E-05-2.86634E-05-2.24451E-07-4.29946E-20 4.89685E-19
 -1      4252 9.69639E-05-2.89495E-05-2.91492E-05 3.21032E-08-4.09939E-19-9.07864E-21
 -1      4253 9.69195E-05-2.91164E-05-2.90576E-05 4.98206E-08-5.10683E-19-1.52718E-19
 -1      4254 9.58868E-05-2.51027E-05-3.03390E-05 1.31992E-07 3.40115E-19-7.27203E-19
 -1      4255 9.58789E-05-2.50949E-05-3.03408E-05-4.06241E-08 1.71982E-19-5.13244E-19
 -1      4256 9.62028E-05-2.58402E-05-3.01465E-05 1.77820E-07 3.89385E-19-6.44896E-19
 -1      4257 9.68526E-05-2.92356E-05-2.89781E-05 3.89645E-08-4.28827E-19-3.77995E-19
 -1      4258 9.67761E-05-2.93133E-05-2.89111E-05 4.63278E-08-4.90806E-19-2.22527E-19
 -1      4259 9.68806E-05-2.91705E-05-2.90200E-05-8.25209E-08-6.38507E-19-2.45092E-19
 -1      4260 9.66765E-05-2.93479E-05-2.88531E-05-5.37316E-08-3.02239E-19 1.64169E-19
 -1      4261 9.65814E-05-2.93667E-05-2.88042E-05-4.89690E-08-3.43463E-19 4.87197E-19
 -1      4262 9.64795E-05-2.93612E-05-2.87624E-05-4.85329E-08-3.54784E-19 4.76787E-19
 -1      4263 9.63743E-05-2.93369E-05-2.87278E-05-4.74068E-08-2.31462E-19 5.40590E-19
 -1      4264 9.62694E-05-2.92984E-05-2.86993E-05-4.22484E-08-2.37411E-19 4.86580E-19
 -1      4265 9.61639E-05-2.92469E-05-2.86764E-05-4.31574E-08-6.27695E-20 6.13913E-19
 -1      4266 9.60611E-05-2.91864E-05-2.86584E-05-3.68840E-08-1.75867E-20 3.84489E-19
 -1      4267 9.59634E-05-2.91205E-05-2.86451E-05-3.86216E-08 4.77238E-20 3.11692E-19
 -1      4268 9.58643E-05-2.90459E-05-2.86347E-05-3.35217E-08 6.82308E-20 2.98601E-19
 -1      4269 9.57646E-05-2.89641E-05-2.86275E-05-3.56217E-08-1.98404E-19 3.41389E-19
 -1      4270 9.56684E-05-2.88787E-05-2.86230E-05-3.36505E-08-2.14174E-19 2.02517E-19
 -1      4271 9.55699E-05-2.87867E-05-2.86208E-05-3.61945E-08 9.84859E-20 5.89674E-20
 -1      4272 9.54746E-05-2.86922E-05-2.86203E-05-3.92424E-08 2.82485E-19 3.47062E-19
 -1      4273 9.53738E-05-2.85904E-05-2.86216E-05-4.30521E-08 1.84930E-19 4.64015E-19
 -1      4274 9.52760E-05-2.84871E-05-2.86237E-05-5.34932E-08-1.59691E-20 2.24156E-19
 -1      4275 9.51681E-05-2.83743E-05-2.86269E-05-6.04819E-08 3.17064E-20 1.21622E-19
 -1      4276 9.50643E-05-2.82614E-05-2.86301E-05-8.15829E-08-8.13668E-20 2.84437E-19
 -1      4277 9.49434E-05-2.81358E-05-2.86338E-05-9.52223E-08-3.68879E-19-1.91236E-20
 -1      4278 9.48298E-05-2.80127E-05-2.86366E-05-1.31727E-07-5.33673E-19 5.51671E-20
 -1      4279 9.46893E-05-2.78721E-05-2.86391E-05-1.57869E-07-5.08848E-19-2.48579E-19
 -1      4280 9.45630E-05-2.77394E-05-2.86398E-05-2.16804E-07-2.09614E-19-1.31137E-19
 -1      4281 9.44046E-05-2.75906E-05-2.86392E-05-2.61147E-07-4.14918E-19 3.13829E-19
 -1      4282 9.42650E-05-2.74506E-05-2.86359E-05-3.52029E-07-6.96209E-19 6.80426E-19
 -1      4283 9.40661E-05-2.72788E-05-2.86296E-05-4.33615E-07-5.27305E-19 4.51297E-19
 -1      4284 9.39157E-05-2.71381E-05-2.86197E-05-5.71016E-07-6.61845E-19 3.78423E-19
 -1      4285 9.36781E-05-2.69548E-05-2.86041E-05-7.08511E-07-3.64453E-19 2.91772E-20
 -1      4286 9.35259E-05-2.68263E-05-2.85849E-05-9.11317E-07 2.78331E-19 1.02197E-19
 -1      4287 9.32473E-05-2.66422E-05-2.85555E-05-1.13484E-06 6.47755E-19 1.04867E-19
 -1      4288 9.31121E-05-2.65487E-05-2.85237E-05-1.42788E-06 5.05789E-19-6.36631E-19
 -1      4289 9.27970E-05-2.63847E-05-2.84747E-05-1.77920E-06 5.36885E-19-2.86450E-19
 -1      4290 9.27132E-05-2.63639E-05-2.84269E-05-2.19265E-06 3.95075E-19-2.53147E-19
 -1      4291 9.23789E-05-2.62570E-05-2.83510E-05-2.72686E-06-9.01069E-20-1.43366E-19
 -1      4292 9.24024E-05-2.63678E-05-2.82847E-05-3.29619E-06-4.44196E-19-6.92945E-20
 -1      4293 9.21017E-05-2.63787E-05-2.81797E-05-4.03766E-06-9.12678E-19 3.68329E-19
 -1      4294 9.23235E-05-2.67003E-05-2.80963E-05-4.78435E-06-9.42098E-19 6.16359E-20
 -1      4295 9.21069E-05-2.69244E-05-2.79438E-05-5.88497E-06-1.08285E-19 9.70414E-19
 -1      4296 9.26719E-05-2.75819E-05-2.78498E-05-6.82067E-06 2.22342E-19 3.64482E-19
 -1      4297 9.26888E-05-2.81674E-05-2.76495E-05-8.31789E-06 1.24284E-22 7.55326E-19
 -1      4298 9.38066E-05-2.93782E-05-2.75647E-05-9.47068E-06-5.66347E-19 9.16392E-19
 -1      4299 9.66581E-05-2.92659E-05-2.88824E-05-4.09061E-07 8.74277E-20 1.35909E-19
 -1      4300 9.67363E-05-2.91912E-05-2.89462E-05-3.95655E-07 6.65835E-20-5.44866E-20
 -1      4301 9.68340E-05-2.91432E-05-2.90126E-05-2.72599E-07-3.00796E-19-2.35913E-19
 -1      4302 9.66774E-05-2.93064E-05-2.88756E-05-2.82946E-07-1.67884E-19 2.65188E-19
 -1      4303 9.67019E-05-2.77167E-05-2.95665E-05-1.15736E-07 1.98011E-19-1.18409E-18
 -1      4304 9.68162E-05-2.76037E-05-2.96631E-05-7.92140E-09 2.55892E-20-7.81383E-20
 -1      4305 9.69201E-05-2.80654E-05-2.95086E-05 3.31241E-08-8.32837E-20 7.56030E-20
 -1      4306 9.69198E-05-2.82198E-05-2.94439E-05-9.82313E-08-2.05240E-19-2.54298E-19
 -1      4307 9.68567E-05-2.80700E-05-2.94772E-05-1.62219E-07-3.77804E-21-6.04755E-19
 -1      4308 9.41530E-05-3.01660E-05-2.73807E-05-1.08573E-05-6.99563E-19 1.04226E-18
 -1      4309 9.61394E-05-2.56707E-05-3.01965E-05-3.08969E-08-1.86509E-20-4.91826E-19
 -1      4310 9.69750E-05-2.86356E-05-2.92845E-05-1.13837E-07-2.91380E-19-3.29306E-19
 -1      4311 9.69450E-05-2.83025E-05-2.94181E-05-3.95087E-08-1.01098E-19 1.62413E-19
 -1      4312 9.69775E-05-2.85055E-05-2.93470E-05 2.84900E-08-1.58563E-19 1.05106E-20
 -1      4313 9.69548E-05-2.88757E-05-2.91788E-05-1.45793E-07-4.85483E-19-2.37640E-19
 -1      4314 9.67134E-05-2.72612E-05-2.97651E-05 1.80607E-08-1.32085E-20-6.52200E-20
 -1      4315 9.67881E-05-2.75259E-05-2.96856E-05-7.11975E-09-4.74393E-21 3.30543E-19
 -1      4316 9.65971E-05-2.68874E-05-2.98757E-05-2.62909E-08-5.75237E-20-5.76610E-20
 -1      4317 9.67418E-05-2.74638E-05-2.96925E-05 3.30113E-10 1.34943E-19-6.03684E-19
 -1      4318 9.69850E-05-2.87786E-05-2.92298E-05 6.01390E-08-2.11413E-19 2.73313E-19
 -1      4319 9.69662E-05-2.88788E-05-2.91819E-05-6.10382E-08-4.97944E-19 1.09949E-19
 -1      4320 9.68650E-05-2.91619E-05-2.90164E-05-1.76375E-07-5.23090E-19-1.64095E-20
 -1      4321 9.67932E-05-2.92633E-05-2.89390E-05-1.76869E-07-3.56071E-19 3.93530E-20
 -1      4322 9.67078E-05-2.93228E-05-2.88809E-05-1.76819E-07-1.63221E-19 1.45588E-19
 -1      4323 9.63367E-05-2.61826E-05-3.00679E-05 1.24457E-09-2.69092E-22-3.27646E-19
 -1      4324 9.64572E-05-2.65240E-05-2.99726E-05 4.06033E-08 1.01886E-19-2.30804E-19
 -1      4325 9.69281E-05-2.90244E-05-2.90985E-05-1.62872E-07-7.04807E-19-3.03929E-19
 -1      4326 9.66356E-05-2.71010E-05-2.97935E-05 1.46159E-08 2.55548E-19-6.99927E-19
 -1      4327 9.64616E-05-2.65826E-05-2.99513E-05 1.05118E-07 2.61711E-19-6.01687E-19
 -3
    1PSTEP                         4           1           1          
  100CL  101 1.000000000        4327                     0    1           1
 -4  ERROR       1    1
 -5  STR(%)      1    1    0    0
 -1         1 2.50622E+01
 -1         2 2.38099E+01
 -1         3 2.94957E-02
 -1         4 2.90795E-01
 -1         5 1.40389E+01
 -1         6 1.33802E+01
 -1         7 1.33802E+01
 -1         8 3.65773E+00
 -1         9 1.82646E+00
 -1        10 1.29092E+00
 -1        11 1.04404E+00
 -1        12 9.00211E-01
 -1        13 8.08971E-01
 -1        14 7.53889E-01
 -1        15 7.55775E-01
 -1        16 8.13104E-01
 -1        17 9.00799E-01
 -1        18 1.05290E+00
 -1        19 1.30650E+00
 -1        20 1.83110E+00
 -1        21 3.50857E+00
 -1        22 8.64128E+00
 -1        23 1.33802E+01
 -1        24 4.25944E+00
 -1        25 3.40156E+00
 -1        26 2.15655E+00
 -1        27 1.39081E+00
 -1        28 1.02787E+00
 -1        29 7.83675E-01
 -1        30 6.11642E-01
 -1        31 4.67852E-01
 -1        32 3.56460E-01
 -1        33 2.75954E-01
 -1        34 2.11132E-01
 -1        35 1.59929E-01
 -1        36 1.16291E-01
 -1        37 9.18978E-02
 -1        38 6.98889E-02
 -1        39 5.51272E-02
 -1        40 4.55317E-02
 -1        41 4.28823E-02
 -1        42 5.35806E-02
 -1        43 6.73118E-02
 -1        44 8.82489E-02
 -1        45 1.25026E-01
 -1        46 1.79344E-01
 -1        47 2.58435E-01
 -1        48 3.52601E-01
 -1        49 5.23327E-01
 -1        50 7.42887E-01
 -1        51 1.03568E+00
 -1        52 1.40048E+00
 -1        53 1.91408E+00
 -1        54 2.67292E+00
 -1        55 3.55917E+00
 -1        56 4.69477E+00
 -1        57 5.09356E+00
 -1        58 5.09356E+00
 -1        59 4.85842E+00
 -1        60 1.11676E+01
 -1        61 1.46593E+01
 -1        62 1.46593E+01
 -1        63 1.42752E+01
 -1        64 8.74985E+00
 -1        65 4.45800E+00
 -1        66 5.01065E+00
 -1        67 5.01065E+00
 -1        68 4.23373E+00
 -1        69 3.03732E+00
 -1        70 2.52336E+00
 -1        71 2.10659E+00
 -1        72 1.47141E+00
 -1        73 1.40389E+01
 -1        74 3.39548E+00
 -1        75 2.41445E+00
 -1        76 1.66604E+00
 -1        77 1.14423E+00
 -1        78 9.06241E-01
 -1        79 7.31739E-01
 -1        80 5.88377E-01
 -1        81 4.68937E-01
 -1        82 3.69559E-01
 -1        83 2.95147E-01
 -1        84 2.33463E-01
 -1        85 1.82556E-01
 -1        86 1.41615E-01
 -1        87 1.09617E-01
 -1        88 8.54821E-02
 -1        89 6.81551E-02
 -1        90 5.66379E-02
 -1        91 4.99792E-02
 -1        92 5.19671E-02
 -1        93 5.62039E-02
 -1        94 6.69625E-02
 -1        95 7.86977E-02
 -1        96 8.89662E-02
 -1        97 9.40852E-02
 -1        98 9.91508E-02
 -1        99 1.27417E-01
 -1       100 1.65066E-01
 -1       101 2.18289E-01
 -1       102 3.27113E-01
 -1       103 4.30784E-01
 -1       104 5.39854E-01
 -1       105 7.42346E-01
 -1       106 9.12014E-01
 -1       107 1.00106E+00
 -1       108 1.45070E+00
 -1       109 1.85761E+00
 -1       110 2.08307E+00
 -1       111 2.16981E+00
 -1       112 2.31834E+00
 -1       113 2.31834E+00
 -1       114 2.16188E+00
 -1       115 1.78863E+00
 -1       116 1.36413E+00
 -1       117 9.79099E-01
 -1       118 6.50335E-01
 -1       119 4.02386E-01
 -1       120 2.50219E-01
 -1       121 1.47153E-01
 -1       122 6.77281E-02
 -1       123 4.01038E-02
 -1       124 9.71376E-02
 -1       125 1.60114E-01
 -1       126 2.03799E-01
 -1       127 2.18492E-01
 -1       128 2.18492E-01
 -1       129 1.76405E-01
 -1       130 1.56659E-01
 -1       131 3.57496E-01
 -1       132 4.73013E-01
 -1       133 4.73013E-01
 -1       134 4.32590E-01
 -1       135 2.22968E-01
 -1       136 4.85203E-01
 -1       137 9.54785E-01
 -1       138 2.37150E+01
 -1       139 4.82878E+01
 -1       140 4.82878E+01
 -1       141 2.16808E+01
 -1       142 1.18343E+01
 -1       143 1.19100E+01
 -1       144 1.19100E+01
 -1       145 1.18000E+01
 -1       146 1.18000E+01
 -1       147 1.17736E+01
 -1       148 1.74112E+01
 -1       149 4.51115E+01
 -1       150 4.51115E+01
 -1       151 2.38665E+01
 -1       152 2.36733E+01
 -1       153 2.50622E+01
 -1       154 3.82102E+01
 -1       155 3.82102E+01
 -1       156 1.50250E+01
 -1       157 1.30477E+01
 -1       158 1.30477E+01
 -1       159 1.35065E+01
 -1       160 1.35065E+01
 -1       161 1.36863E+01
 -1       162 3.15937E+01
 -1       163 3.22630E+01
 -1       164 2.61975E+01
 -1       165 2.45201E+01
 -1       166 6.19576E+00
 -1       167 2.30041E+00
 -1       168 1.50589E+00
 -1       169 1.15854E+00
 -1       170 9.72263E-01
 -1       171 8.64564E-01
 -1       172 7.96105E-01
 -1       173 7.55775E-01
 -1       174 7.99396E-01
 -1       175 8.67153E-01
 -1       176 9.81076E-01
 -1       177 1.17173E+00
 -1       178 1.52708E+00
 -1       179 2.25900E+00
 -1       180 3.93325E+00
 -1       181 1.40389E+01
 -1       182 4.25944E+00
 -1       183 3.40156E+00
 -1       184 2.15655E+00
 -1       185 1.46927E+00
 -1       186 1.04241E+00
 -1       187 7.83675E-01
 -1       188 6.11642E-01
 -1       189 4.79033E-01
 -1       190 3.77019E-01
 -1       191 2.95770E-01
 -1       192 2.38136E-01
 -1       193 1.89097E-01
 -1       194 1.45631E-01
 -1       195 1.17233E-01
 -1       196 9.12070E-02
 -1       197 7.12993E-02
 -1       198 5.65808E-02
 -1       199 4.61126E-02
 -1       200 4.51912E-02
 -1       201 5.63707E-02
 -1       202 7.45457E-02
 -1       203 1.02024E-01
 -1       204 1.42147E-01
 -1       205 1.99738E-01
 -1       206 2.68273E-01
 -1       207 4.14769E-01
 -1       208 6.36395E-01
 -1       209 9.60040E-01
 -1       210 1.41495E+00
 -1       211 2.01556E+00
 -1       212 2.70426E+00
 -1       213 3.39624E+00
 -1       214 3.90443E+00
 -1       215 4.69477E+00
 -1       216 5.09356E+00
 -1       217 4.81421E+00
 -1       218 5.24705E+00
 -1       219 1.11676E+01
 -1       220 1.46593E+01
 -1       221 1.42752E+01
 -1       222 8.74985E+00
 -1       223 4.54540E+00
 -1       224 4.45800E+00
 -1       225 5.01065E+00
 -1       226 4.23373E+00
 -1       227 3.30221E+00
 -1       228 2.63856E+00
 -1       229 2.10659E+00
 -1       230 1.47141E+00
 -1       231 3.39548E+00
 -1       232 2.41445E+00
 -1       233 1.66604E+00
 -1       234 1.14423E+00
 -1       235 9.06241E-01
 -1       236 7.31739E-01
 -1       237 5.88377E-01
 -1       238 4.68937E-01
 -1       239 3.69559E-01
 -1       240 2.95147E-01
 -1       241 2.33463E-01
 -1       242 1.84874E-01
 -1       243 1.45732E-01
 -1       244 1.14249E-01
 -1       245 8.96955E-02
 -1       246 7.12487E-02
 -1       247 5.80583E-02
 -1       248 4.99792E-02
 -1       249 4.89719E-02
 -1       250 5.19671E-02
 -1       251 5.93754E-02
 -1       252 6.82362E-02
 -1       253 7.86977E-02
 -1       254 8.89662E-02
 -1       255 9.40852E-02
 -1       256 1.00377E-01
 -1       257 1.27417E-01
 -1       258 1.65066E-01
 -1       259 2.18289E-01
 -1       260 3.27113E-01
 -1       261 4.30784E-01
 -1       262 5.52919E-01
 -1       263 7.42346E-01
 -1       264 9.12014E-01
 -1       265 1.19189E+00
 -1       266 1.51157E+00
 -1       267 1.85761E+00
 -1       268 2.08307E+00
 -1       269 2.16981E+00
 -1       270 2.31834E+00
 -1       271 2.16188E+00
 -1       272 1.78863E+00
 -1       273 1.36413E+00
 -1       274 1.00414E+00
 -1       275 6.98342E-01
 -1       276 4.48507E-01
 -1       277 2.62217E-01
 -1       278 1.47153E-01
 -1       279 8.21741E-02
 -1       280 1.51125E-01
 -1       281 2.70135E-01
 -1       282 3.59743E-01
 -1       283 4.01810E-01
 -1       284 4.07314E-01
 -1       285 4.07314E-01
 -1       286 3.17196E-01
 -1       287 5.64544E-01
 -1       288 8.63833E-01
 -1       289 9.37214E-01
 -1       290 9.37214E-01
 -1       291 7.47604E-01
 -1       292 1.13149E+00
 -1       293 2.77522E+01
 -1       294 3.00813E+01
 -1       295 4.82878E+01
 -1       296 2.34536E+01
 -1       297 1.13546E+01
 -1       298 1.18343E+01
 -1       299 1.19100E+01
 -1       300 1.17488E+01
 -1       301 1.18000E+01
 -1       302 1.17736E+01
 -1       303 1.09940E+01
 -1       304 1.82398E+01
 -1       305 4.51115E+01
 -1       306 2.59000E+01
 -1       307 2.86189E+01
 -1       308 2.86189E+01
 -1       309 2.77875E+01
 -1       310 3.51644E+01
 -1       311 3.82102E+01
 -1       312 1.50250E+01
 -1       313 1.23074E+01
 -1       314 1.30477E+01
 -1       315 1.27484E+01
 -1       316 1.35065E+01
 -1       317 1.23395E+01
 -1       318 1.36863E+01
 -1       319 3.22630E+01
 -1       320 3.22630E+01
 -1       321 2.45201E+01
 -1       322 2.77522E+01
 -1       323 1.13149E+00
 -1       324 1.07223E+00
 -1       325 2.54020E+00
 -1       326 7.89004E-01
 -1       327 6.95351E-01
 -1       328 6.32034E-01
 -1       329 5.87666E-01
 -1       330 5.90801E-01
 -1       331 6.34505E-01
 -1       332 7.01257E-01
 -1       333 7.96563E-01
 -1       334 9.30694E-01
 -1       335 1.14422E+00
 -1       336 1.33039E+00
 -1       337 2.19703E+00
 -1       338 1.91286E+00
 -1       339 1.73850E+00
 -1       340 1.28539E+00
 -1       341 9.21004E-01
 -1       342 6.72471E-01
 -1       343 5.49396E-01
 -1       344 4.50431E-01
 -1       345 3.63685E-01
 -1       346 2.95817E-01
 -1       347 2.39795E-01
 -1       348 1.91428E-01
 -1       349 1.53108E-01
 -1       350 1.26061E-01
 -1       351 1.00532E-01
 -1       352 7.95051E-02
 -1       353 6.24616E-02
 -1       354 4.87064E-02
 -1       355 3.85512E-02
 -1       356 4.51912E-02
 -1       357 5.63707E-02
 -1       358 7.45457E-02
 -1       359 1.10147E-01
 -1       360 1.69995E-01
 -1       361 2.54073E-01
 -1       362 3.78776E-01
 -1       363 5.62727E-01
 -1       364 8.28003E-01
 -1       365 1.20343E+00
 -1       366 1.71871E+00
 -1       367 2.36558E+00
 -1       368 3.16156E+00
 -1       369 4.02771E+00
 -1       370 4.79953E+00
 -1       371 5.57018E+00
 -1       372 8.33403E+00
 -1       373 7.15219E+00
 -1       374 8.46684E+00
 -1       375 1.27484E+01
 -1       376 8.26683E+00
 -1       377 5.96249E+00
 -1       378 7.99244E+00
 -1       379 6.04804E+00
 -1       380 4.30405E+00
 -1       381 3.80224E+00
 -1       382 3.05955E+00
 -1       383 2.63850E+00
 -1       384 1.93606E+00
 -1       385 1.12597E+00
 -1       386 3.00813E+01
 -1       387 8.08445E-01
 -1       388 6.97544E-01
 -1       389 5.43856E-01
 -1       390 4.37327E-01
 -1       391 3.70839E-01
 -1       392 3.06943E-01
 -1       393 2.51056E-01
 -1       394 2.05477E-01
 -1       395 1.65449E-01
 -1       396 1.32399E-01
 -1       397 1.05489E-01
 -1       398 8.39516E-02
 -1       399 6.73293E-02
 -1       400 5.50590E-02
 -1       401 4.65194E-02
 -1       402 4.23225E-02
 -1       403 4.42204E-02
 -1       404 5.08529E-02
 -1       405 6.00214E-02
 -1       406 7.53969E-02
 -1       407 8.85102E-02
 -1       408 1.02541E-01
 -1       409 1.08035E-01
 -1       410 1.08035E-01
 -1       411 9.72228E-02
 -1       412 1.11362E-01
 -1       413 2.26213E-01
 -1       414 4.12951E-01
 -1       415 6.38910E-01
 -1       416 8.84593E-01
 -1       417 1.14143E+00
 -1       418 1.38492E+00
 -1       419 1.53102E+00
 -1       420 1.55441E+00
 -1       421 1.55441E+00
 -1       422 1.54160E+00
 -1       423 1.54160E+00
 -1       424 1.51904E+00
 -1       425 1.35620E+00
 -1       426 1.12049E+00
 -1       427 8.90103E-01
 -1       428 6.58020E-01
 -1       429 4.45116E-01
 -1       430 2.67172E-01
 -1       431 1.39688E-01
 -1       432 4.55865E-01
 -1       433 3.38296E-01
 -1       434 1.98759E-01
 -1       435 5.34993E-01
 -1       436 5.65650E-01
 -1       437 6.03430E-01
 -1       438 6.03430E-01
 -1       439 6.46590E-01
 -1       440 1.11930E+00
 -1       441 1.39941E+00
 -1       442 1.61515E+00
 -1       443 1.61515E+00
 -1       444 1.35547E+00
 -1       445 1.73427E+01
 -1       446 3.44976E+01
 -1       447 9.13336E-01
 -1       448 9.79833E+00
 -1       449 6.84618E+00
 -1       450 9.84469E+00
 -1       451 1.02339E+01
 -1       452 1.06629E+01
 -1       453 9.72960E+00
 -1       454 7.83426E+00
 -1       455 8.11430E+00
 -1       456 1.55651E+01
 -1       457 2.59000E+01
 -1       458 2.73334E+01
 -1       459 4.03256E+01
 -1       460 4.03256E+01
 -1       461 2.66430E+01
 -1       462 2.31247E+01
 -1       463 1.35814E+01
 -1       464 7.35960E+00
 -1       465 9.08539E+00
 -1       466 1.17652E+01
 -1       467 9.65505E+00
 -1       468 7.54497E+00
 -1       469 1.19990E+01
 -1       470 2.10754E+01
 -1       471 2.60411E+01
 -1       472 3.44976E+01
 -1       473 2.78804E+01
 -1       474 4.75751E+00
 -1       475 4.20066E+00
 -1       476 4.86864E-01
 -1       477 5.11287E-01
 -1       478 4.31558E-01
 -1       479 4.57483E-01
 -1       480 4.87117E-01
 -1       481 5.11104E-01
 -1       482 5.11104E-01
 -1       483 5.05832E-01
 -1       484 6.43434E-01
 -1       485 1.31471E+00
 -1       486 8.16153E-01
 -1       487 2.58991E+00
 -1       488 9.93172E+00
 -1       489 7.05508E-01
 -1       490 5.97335E-01
 -1       491 4.86390E-01
 -1       492 3.86280E-01
 -1       493 3.27846E-01
 -1       494 2.77654E-01
 -1       495 2.29813E-01
 -1       496 1.89100E-01
 -1       497 1.53834E-01
 -1       498 1.26061E-01
 -1       499 1.03169E-01
 -1       500 8.45151E-02
 -1       501 6.87925E-02
 -1       502 5.51389E-02
 -1       503 4.35375E-02
 -1       504 3.65659E-02
 -1       505 4.35582E-02
 -1       506 5.47701E-02
 -1       507 8.11169E-02
 -1       508 1.23538E-01
 -1       509 1.82517E-01
 -1       510 2.62960E-01
 -1       511 4.01051E-01
 -1       512 6.20424E-01
 -1       513 9.47670E-01
 -1       514 1.43046E+00
 -1       515 2.08519E+00
 -1       516 3.08176E+00
 -1       517 4.44834E+00
 -1       518 6.13386E+00
 -1       519 7.69797E+00
 -1       520 9.20565E+00
 -1       521 1.11490E+01
 -1       522 9.44036E-01
 -1       523 3.44976E+01
 -1       524 1.11286E+01
 -1       525 9.23103E+00
 -1       526 6.17102E+00
 -1       527 4.16279E+00
 -1       528 3.40842E+00
 -1       529 6.97544E-01
 -1       530 7.39170E-01
 -1       531 4.37327E-01
 -1       532 3.70839E-01
 -1       533 3.06943E-01
 -1       534 2.51056E-01
 -1       535 2.06119E-01
 -1       536 1.66635E-01
 -1       537 1.32773E-01
 -1       538 1.06490E-01
 -1       539 8.47831E-02
 -1       540 6.62921E-02
 -1       541 5.06442E-02
 -1       542 3.73102E-02
 -1       543 3.50484E-02
 -1       544 3.83475E-02
 -1       545 4.34632E-02
 -1       546 5.25263E-02
 -1       547 6.69390E-02
 -1       548 8.05139E-02
 -1       549 9.45154E-02
 -1       550 1.02541E-01
 -1       551 1.08035E-01
 -1       552 1.09374E-01
 -1       553 1.34635E-01
 -1       554 1.81270E-01
 -1       555 3.11615E-01
 -1       556 4.77867E-01
 -1       557 7.20172E-01
 -1       558 9.80559E-01
 -1       559 1.20112E+00
 -1       560 1.38492E+00
 -1       561 1.53102E+00
 -1       562 1.55441E+00
 -1       563 1.47148E+00
 -1       564 1.54160E+00
 -1       565 1.50815E+00
 -1       566 1.35620E+00
 -1       567 1.19452E+00
 -1       568 9.70030E-01
 -1       569 7.14428E-01
 -1       570 5.67549E-01
 -1       571 5.37328E-01
 -1       572 6.82209E-01
 -1       573 8.21889E-01
 -1       574 6.02908E-01
 -1       575 6.50797E-01
 -1       576 9.09955E-01
 -1       577 1.06766E+00
 -1       578 1.24962E+00
 -1       579 1.93193E+00
 -1       580 2.15027E+00
 -1       581 2.58991E+00
 -1       582 8.91499E+00
 -1       583 7.72498E+00
 -1       584 8.64467E-01
 -1       585 2.09553E+01
 -1       586 2.00128E+01
 -1       587 5.43856E-01
 -1       588 1.29367E+01
 -1       589 4.57500E-01
 -1       590 4.67859E+00
 -1       591 5.29699E+00
 -1       592 7.84709E+00
 -1       593 2.66430E+01
 -1       594 6.25460E+00
 -1       595 7.00233E+00
 -1       596 1.23700E+01
 -1       597 2.73334E+01
 -1       598 4.03256E+01
 -1       599 1.64051E+01
 -1       600 1.14761E+01
 -1       601 1.54124E+01
 -1       602 2.60411E+01
 -1       603 3.08807E+01
 -1       604 5.11287E-01
 -1       605 4.57460E-01
 -1       606 3.60366E+00
 -1       607 4.64172E+00
 -1       608 3.58415E-01
 -1       609 3.42713E-01
 -1       610 3.61636E-01
 -1       611 3.38170E-01
 -1       612 4.31381E-01
 -1       613 7.19567E-01
 -1       614 3.51927E-01
 -1       615 2.72515E-01
 -1       616 3.87067E-01
 -1       617 3.07117E-01
 -1       618 3.18021E-01
 -1       619 2.99065E-01
 -1       620 2.66498E-01
 -1       621 2.29118E-01
 -1       622 1.98115E-01
 -1       623 1.73404E-01
 -1       624 1.47931E-01
 -1       625 1.25056E-01
 -1       626 1.03169E-01
 -1       627 8.45151E-02
 -1       628 6.87925E-02
 -1       629 5.51389E-02
 -1       630 4.35375E-02
 -1       631 3.52123E-02
 -1       632 3.08230E-02
 -1       633 5.32808E-02
 -1       634 8.21424E-02
 -1       635 1.20031E-01
 -1       636 1.71857E-01
 -1       637 2.55998E-01
 -1       638 4.01051E-01
 -1       639 6.20424E-01
 -1       640 9.47670E-01
 -1       641 1.43046E+00
 -1       642 2.08519E+00
 -1       643 3.08176E+00
 -1       644 4.44834E+00
 -1       645 6.67805E+00
 -1       646 8.63312E+00
 -1       647 5.92082E+00
 -1       648 1.02796E+01
 -1       649 9.62533E+00
 -1       650 6.28894E+00
 -1       651 2.32840E-01
 -1       652 3.26974E-01
 -1       653 1.95455E-01
 -1       654 1.60817E-01
 -1       655 1.32485E-01
 -1       656 1.07126E-01
 -1       657 8.50746E-02
 -1       658 6.62921E-02
 -1       659 5.06442E-02
 -1       660 3.73102E-02
 -1       661 2.60376E-02
 -1       662 2.79309E-02
 -1       663 3.11103E-02
 -1       664 4.32102E-02
 -1       665 5.81544E-02
 -1       666 7.34802E-02
 -1       667 8.91998E-02
 -1       668 1.02335E-01
 -1       669 1.16977E-01
 -1       670 1.24411E-01
 -1       671 1.70015E-01
 -1       672 2.33173E-01
 -1       673 3.11615E-01
 -1       674 4.68251E-01
 -1       675 6.46977E-01
 -1       676 8.28588E-01
 -1       677 1.03620E+00
 -1       678 1.18951E+00
 -1       679 1.26583E+00
 -1       680 1.32720E+00
 -1       681 1.23629E+00
 -1       682 1.28940E+00
 -1       683 1.35889E+00
 -1       684 1.27863E+00
 -1       685 1.20515E+00
 -1       686 1.03368E+00
 -1       687 9.09631E-01
 -1       688 7.62594E-01
 -1       689 6.79274E-01
 -1       690 1.40965E+00
 -1       691 8.74791E-01
 -1       692 1.85196E+00
 -1       693 1.21750E+00
 -1       694 2.17307E+00
 -1       695 3.11218E+00
 -1       696 3.41398E+00
 -1       697 5.71353E+00
 -1       698 5.73022E+00
 -1       699 1.82944E+01
 -1       700 8.01010E+00
 -1       701 3.41398E+00
 -1       702 2.90605E+00
 -1       703 3.61636E-01
 -1       704 4.30989E+00
 -1       705 1.11600E+01
 -1       706 3.58719E-01
 -1       707 4.42563E+00
 -1       708 7.62582E+00
 -1       709 1.55731E+01
 -1       710 1.56876E+01
 -1       711 1.73900E+01
 -1       712 1.13298E+01
 -1       713 1.65687E+01
 -1       714 1.57423E+01
 -1       715 3.42425E-01
 -1       716 3.57949E-01
 -1       717 3.95123E-01
 -1       718 1.17320E+01
 -1       719 4.61096E+00
 -1       720 4.87186E-01
 -1       721 7.05053E-01
 -1       722 3.58719E-01
 -1       723 4.61734E-01
 -1       724 3.93221E+00
 -1       725 7.97610E-01
 -1       726 3.15243E+00
 -1       727 2.47787E-01
 -1       728 2.44850E-01
 -1       729 1.99735E-01
 -1       730 9.34005E+00
 -1       731 7.40442E+00
 -1       732 1.95368E-01
 -1       733 2.44421E-01
 -1       734 2.53754E-01
 -1       735 2.40127E-01
 -1       736 2.15137E-01
 -1       737 1.85715E-01
 -1       738 1.64075E-01
 -1       739 1.41813E-01
 -1       740 1.19660E-01
 -1       741 9.80847E-02
 -1       742 7.84165E-02
 -1       743 6.08885E-02
 -1       744 4.53094E-02
 -1       745 3.14416E-02
 -1       746 1.91298E-02
 -1       747 2.13411E-02
 -1       748 3.97832E-02
 -1       749 6.62843E-02
 -1       750 1.03344E-01
 -1       751 1.52503E-01
 -1       752 2.28208E-01
 -1       753 3.34153E-01
 -1       754 4.85374E-01
 -1       755 7.02479E-01
 -1       756 1.01732E+00
 -1       757 1.42784E+00
 -1       758 2.17488E+00
 -1       759 3.32036E+00
 -1       760 5.46924E+00
 -1       761 1.02879E+01
 -1       762 7.22871E+00
 -1       763 2.16399E-01
 -1       764 1.61962E-01
 -1       765 2.53392E-01
 -1       766 1.35834E-01
 -1       767 1.11252E-01
 -1       768 8.90602E-02
 -1       769 6.94879E-02
 -1       770 5.23667E-02
 -1       771 3.72739E-02
 -1       772 2.48853E-02
 -1       773 1.61452E-02
 -1       774 1.81630E-02
 -1       775 3.19938E-02
 -1       776 4.77658E-02
 -1       777 6.53374E-02
 -1       778 8.38995E-02
 -1       779 1.02335E-01
 -1       780 1.24534E-01
 -1       781 1.50273E-01
 -1       782 1.78052E-01
 -1       783 2.47118E-01
 -1       784 3.54633E-01
 -1       785 4.71478E-01
 -1       786 6.46977E-01
 -1       787 8.28588E-01
 -1       788 1.03048E+00
 -1       789 1.12669E+00
 -1       790 1.24628E+00
 -1       791 1.43535E+00
 -1       792 1.56151E+00
 -1       793 1.50795E+00
 -1       794 1.52404E+00
 -1       795 1.45560E+00
 -1       796 1.25773E+00
 -1       797 1.21492E+00
 -1       798 1.08610E+00
 -1       799 9.09631E-01
 -1       800 7.62594E-01
 -1       801 3.99100E+00
 -1       802 5.61982E+00
 -1       803 2.24063E+00
 -1       804 3.95607E+00
 -1       805 5.61982E+00
 -1       806 1.02879E+01
 -1       807 3.93674E+00
 -1       808 3.50405E+00
 -1       809 2.72376E+00
 -1       810 8.53845E+00
 -1       811 3.32723E+00
 -1       812 1.87887E-01
 -1       813 2.88526E-01
 -1       814 3.39797E+00
 -1       815 3.20211E+00
 -1       816 7.20717E+00
 -1       817 1.13998E+01
 -1       818 1.13998E+01
 -1       819 5.25844E+00
 -1       820 2.79971E-01
 -1       821 2.98452E-01
 -1       822 2.88526E-01
 -1       823 5.95147E+00
 -1       824 2.85943E-01
 -1       825 3.99335E+00
 -1       826 1.91195E+00
 -1       827 1.24322E+00
 -1       828 3.60029E+00
 -1       829 2.59585E+00
 -1       830 2.79648E-01
 -1       831 3.07282E-01
 -1       832 1.05668E+00
 -1       833 2.89184E-01
 -1       834 2.94922E+00
 -1       835 3.07483E-01
 -1       836 2.81098E-01
 -1       837 2.89184E-01
 -1       838 1.55215E-01
 -1       839 1.62423E-01
 -1       840 1.82875E-01
 -1       841 1.82839E-01
 -1       842 1.70775E-01
 -1       843 1.52412E-01
 -1       844 1.33016E-01
 -1       845 1.17549E-01
 -1       846 1.00351E-01
 -1       847 8.32606E-02
 -1       848 6.71748E-02
 -1       849 5.24272E-02
 -1       850 3.92169E-02
 -1       851 2.82272E-02
 -1       852 2.95791E-02
 -1       853 3.42764E-02
 -1       854 5.57277E-02
 -1       855 8.49646E-02
 -1       856 1.19145E-01
 -1       857 1.73415E-01
 -1       858 2.42430E-01
 -1       859 3.34364E-01
 -1       860 4.55960E-01
 -1       861 6.39152E-01
 -1       862 9.15705E-01
 -1       863 1.43851E+00
 -1       864 2.19317E+00
 -1       865 3.38965E+00
 -1       866 5.97837E+00
 -1       867 1.96118E-01
 -1       868 2.22627E+00
 -1       869 1.14877E-01
 -1       870 7.59365E+00
 -1       871 9.57977E-02
 -1       872 7.78167E-02
 -1       873 6.13758E-02
 -1       874 4.65231E-02
 -1       875 3.30189E-02
 -1       876 2.20786E-02
 -1       877 2.11826E-02
 -1       878 2.69341E-02
 -1       879 4.05942E-02
 -1       880 5.57958E-02
 -1       881 7.45273E-02
 -1       882 9.92043E-02
 -1       883 1.26380E-01
 -1       884 1.58170E-01
 -1       885 2.04591E-01
 -1       886 2.63973E-01
 -1       887 3.54633E-01
 -1       888 4.92287E-01
 -1       889 6.77463E-01
 -1       890 8.54732E-01
 -1       891 1.03048E+00
 -1       892 1.30712E+00
 -1       893 1.37772E+00
 -1       894 2.13557E+00
 -1       895 3.01879E+00
 -1       896 3.06882E+00
 -1       897 2.68097E+00
 -1       898 1.85295E+00
 -1       899 1.76971E+00
 -1       900 1.77867E+00
 -1       901 1.30293E+00
 -1       902 1.08610E+00
 -1       903 7.59365E+00
 -1       904 5.88820E+00
 -1       905 3.06882E+00
 -1       906 5.29849E+00
 -1       907 8.75735E-01
 -1       908 6.74642E+00
 -1       909 1.34032E-01
 -1       910 4.98195E+00
 -1       911 3.75965E+00
 -1       912 2.28433E+00
 -1       913 2.08174E-01
 -1       914 3.36116E+00
 -1       915 2.09493E-01
 -1       916 3.99335E+00
 -1       917 2.93588E+00
 -1       918 1.76707E+00
 -1       919 1.75013E-01
 -1       920 3.01879E+00
 -1       921 2.63908E+00
 -1       922 1.08308E+00
 -1       923 2.29612E-01
 -1       924 2.68097E+00
 -1       925 2.16348E-01
 -1       926 1.51426E-01
 -1       927 2.39582E-01
 -1       928 1.39427E-01
 -1       929 2.10103E-01
 -1       930 1.09444E-01
 -1       931 1.32571E-01
 -1       932 1.38518E-01
 -1       933 1.33622E-01
 -1       934 1.22554E-01
 -1       935 1.08041E-01
 -1       936 9.39309E-02
 -1       937 8.07299E-02
 -1       938 6.73906E-02
 -1       939 5.46570E-02
 -1       940 4.30932E-02
 -1       941 3.49028E-02
 -1       942 3.49009E-02
 -1       943 3.75438E-02
 -1       944 4.45365E-02
 -1       945 6.32911E-02
 -1       946 8.37520E-02
 -1       947 1.17761E-01
 -1       948 1.67322E-01
 -1       949 2.42567E-01
 -1       950 3.49731E-01
 -1       951 4.99801E-01
 -1       952 6.66666E-01
 -1       953 9.63084E-01
 -1       954 1.62143E+00
 -1       955 2.46570E+00
 -1       956 3.51375E+00
 -1       957 2.05003E-01
 -1       958 1.77867E+00
 -1       959 3.33907E+00
 -1       960 5.15266E-02
 -1       961 3.92634E-02
 -1       962 3.08452E-02
 -1       963 3.01692E-02
 -1       964 3.12052E-02
 -1       965 4.05942E-02
 -1       966 5.57958E-02
 -1       967 7.21139E-02
 -1       968 9.42707E-02
 -1       969 1.20056E-01
 -1       970 1.63205E-01
 -1       971 2.17210E-01
 -1       972 2.81978E-01
 -1       973 3.81954E-01
 -1       974 5.04494E-01
 -1       975 6.77463E-01
 -1       976 9.29269E-01
 -1       977 1.26768E+00
 -1       978 1.42189E+00
 -1       979 1.95002E+00
 -1       980 2.11234E+00
 -1       981 1.77867E+00
 -1       982 2.93588E+00
 -1       983 1.48736E+00
 -1       984 6.48708E-02
 -1       985 2.56392E-01
 -1       986 1.08336E-01
 -1       987 2.56392E-01
 -1       988 3.01879E+00
 -1       989 7.91915E-02
 -1       990 9.79446E-02
 -1       991 3.99335E+00
 -1       992 9.39871E-02
 -1       993 1.41137E-01
 -1       994 2.63475E+00
 -1       995 3.42831E+00
 -1       996 1.23857E-01
 -1       997 1.30293E+00
 -1       998 1.57222E-01
 -1       999 3.95712E+00
 -1      1000 1.13272E+00
 -1      1001 1.99395E+00
 -1      1002 1.51773E-01
 -1      1003 1.55495E-01
 -1      1004 1.39427E-01
 -1      1005 7.37126E-02
 -1      1006 9.76715E-02
 -1      1007 1.04686E-01
 -1      1008 1.02826E-01
 -1      1009 9.54479E-02
 -1      1010 8.48760E-02
 -1      1011 7.29339E-02
 -1      1012 6.16092E-02
 -1      1013 5.16010E-02
 -1      1014 4.24222E-02
 -1      1015 3.89769E-02
 -1      1016 3.74415E-02
 -1      1017 3.81096E-02
 -1      1018 4.45365E-02
 -1      1019 5.72724E-02
 -1      1020 7.25218E-02
 -1      1021 1.03038E-01
 -1      1022 1.40922E-01
 -1      1023 1.92188E-01
 -1      1024 2.59265E-01
 -1      1025 3.49731E-01
 -1      1026 5.19375E-01
 -1      1027 8.01859E-01
 -1      1028 1.19252E+00
 -1      1029 1.62246E+00
 -1      1030 3.73901E-02
 -1      1031 3.42831E+00
 -1      1032 1.14245E-01
 -1      1033 4.12875E-02
 -1      1034 3.79919E-02
 -1      1035 4.29510E-02
 -1      1036 5.33199E-02
 -1      1037 7.21139E-02
 -1      1038 9.42707E-02
 -1      1039 1.22204E-01
 -1      1040 1.63214E-01
 -1      1041 2.12741E-01
 -1      1042 3.03124E-01
 -1      1043 4.23122E-01
 -1      1044 5.52482E-01
 -1      1045 7.18635E-01
 -1      1046 9.88168E-01
 -1      1047 1.32054E+00
 -1      1048 2.06327E+00
 -1      1049 1.39986E-01
 -1      1050 5.14600E-02
 -1      1051 7.76496E-02
 -1      1052 6.23955E-02
 -1      1053 8.56399E-02
 -1      1054 3.66770E-02
 -1      1055 1.60329E-01
 -1      1056 2.46570E+00
 -1      1057 1.28179E-01
 -1      1058 9.87204E-02
 -1      1059 9.19727E-02
 -1      1060 1.57222E-01
 -1      1061 7.54681E-02
 -1      1062 1.16675E-01
 -1      1063 1.17045E-01
 -1      1064 2.57443E+00
 -1      1065 2.57443E+00
 -1      1066 7.55249E-02
 -1      1067 7.44120E-02
 -1      1068 7.55613E-02
 -1      1069 6.52120E-02
 -1      1070 5.90208E-02
 -1      1071 5.29295E-02
 -1      1072 4.50899E-02
 -1      1073 4.24222E-02
 -1      1074 3.89769E-02
 -1      1075 3.85565E-02
 -1      1076 4.26890E-02
 -1      1077 5.20274E-02
 -1      1078 6.19522E-02
 -1      1079 8.28122E-02
 -1      1080 1.11549E-01
 -1      1081 1.76819E-01
 -1      1082 2.79745E-01
 -1      1083 4.33801E-01
 -1      1084 6.41729E-01
 -1      1085 9.39503E-01
 -1      1086 1.31658E+00
 -1      1087 1.79552E+00
 -1      1088 4.00054E-02
 -1      1089 5.50217E-02
 -1      1090 4.29510E-02
 -1      1091 1.11549E-01
 -1      1092 1.59829E-01
 -1      1093 2.26469E-01
 -1      1094 3.16347E-01
 -1      1095 4.38326E-01
 -1      1096 6.67673E-01
 -1      1097 9.88233E-01
 -1      1098 1.40676E+00
 -1      1099 1.94239E+00
 -1      1100 1.09846E-01
 -1      1101 7.21191E-02
 -1      1102 3.73901E-02
 -1      1103 4.42086E-02
 -1      1104 5.68168E-02
 -1      1105 3.85565E-02
 -1      1106 7.69709E-02
 -1      1107 6.60332E-02
 -1      1108 8.37369E-02
 -1      1109 1.94239E+00
 -1      1110 8.54119E-02
 -1      1111 7.76654E-02
 -1      1112 4.97776E-02
 -1      1113 8.71691E-02
 -1      1114 8.78770E-02
 -1      1115 5.58952E-02
 -1      1116 5.59348E-02
 -1      1117 8.27267E-02
 -1      1118 8.91550E-02
 -1      1119 7.76654E-02
 -1      1120 8.32946E-02
 -1      1121 8.37369E-02
 -1      1122 6.92502E-02
 -1      1123 6.72553E-02
 -1      1124 1.33802E+01
 -1      1125 8.51894E+00
 -1      1126 2.74209E+00
 -1      1127 1.55869E+00
 -1      1128 1.16748E+00
 -1      1129 9.72124E-01
 -1      1130 8.54591E-01
 -1      1131 7.81430E-01
 -1      1132 7.54832E-01
 -1      1133 7.84439E-01
 -1      1134 8.56952E-01
 -1      1135 9.76850E-01
 -1      1136 1.17970E+00
 -1      1137 1.56880E+00
 -1      1138 2.66983E+00
 -1      1139 6.07492E+00
 -1      1140 1.13401E+01
 -1      1141 1.33802E+01
 -1      1142 8.81980E+00
 -1      1143 3.83050E+00
 -1      1144 2.77905E+00
 -1      1145 1.77368E+00
 -1      1146 1.20934E+00
 -1      1147 9.05774E-01
 -1      1148 6.97659E-01
 -1      1149 5.39747E-01
 -1      1150 4.12156E-01
 -1      1151 3.16207E-01
 -1      1152 2.43543E-01
 -1      1153 1.85531E-01
 -1      1154 1.38110E-01
 -1      1155 1.04094E-01
 -1      1156 8.08934E-02
 -1      1157 6.25080E-02
 -1      1158 5.03294E-02
 -1      1159 4.42070E-02
 -1      1160 4.82315E-02
 -1      1161 6.04462E-02
 -1      1162 7.77803E-02
 -1      1163 1.06638E-01
 -1      1164 1.52185E-01
 -1      1165 2.18890E-01
 -1      1166 3.05518E-01
 -1      1167 4.37964E-01
 -1      1168 6.33107E-01
 -1      1169 8.89286E-01
 -1      1170 1.21808E+00
 -1      1171 1.65728E+00
 -1      1172 2.29350E+00
 -1      1173 3.11604E+00
 -1      1174 4.12697E+00
 -1      1175 4.89417E+00
 -1      1176 5.09356E+00
 -1      1177 4.97599E+00
 -1      1178 8.01299E+00
 -1      1179 1.29134E+01
 -1      1180 1.46593E+01
 -1      1181 1.44672E+01
 -1      1182 1.15125E+01
 -1      1183 6.60393E+00
 -1      1184 4.73432E+00
 -1      1185 5.01065E+00
 -1      1186 4.62219E+00
 -1      1187 3.63553E+00
 -1      1188 2.78034E+00
 -1      1189 2.31497E+00
 -1      1190 1.78900E+00
 -1      1191 8.81104E-01
 -1      1192 1.40389E+01
 -1      1193 8.71716E+00
 -1      1194 2.90496E+00
 -1      1195 2.04025E+00
 -1      1196 1.40514E+00
 -1      1197 1.02524E+00
 -1      1198 8.18990E-01
 -1      1199 6.60058E-01
 -1      1200 5.28657E-01
 -1      1201 4.19248E-01
 -1      1202 3.32353E-01
 -1      1203 2.64305E-01
 -1      1204 2.08010E-01
 -1      1205 1.62086E-01
 -1      1206 1.25616E-01
 -1      1207 9.75497E-02
 -1      1208 7.68186E-02
 -1      1209 6.23965E-02
 -1      1210 5.33085E-02
 -1      1211 5.09731E-02
 -1      1212 5.40855E-02
 -1      1213 6.15832E-02
 -1      1214 7.28301E-02
 -1      1215 8.38319E-02
 -1      1216 9.15257E-02
 -1      1217 9.66180E-02
 -1      1218 1.13284E-01
 -1      1219 1.46241E-01
 -1      1220 1.91677E-01
 -1      1221 2.72701E-01
 -1      1222 3.78948E-01
 -1      1223 4.85319E-01
 -1      1224 6.41100E-01
 -1      1225 8.27180E-01
 -1      1226 9.56536E-01
 -1      1227 1.22588E+00
 -1      1228 1.65415E+00
 -1      1229 1.97034E+00
 -1      1230 2.12644E+00
 -1      1231 2.24407E+00
 -1      1232 2.31834E+00
 -1      1233 2.24011E+00
 -1      1234 1.97525E+00
 -1      1235 1.57638E+00
 -1      1236 1.17162E+00
 -1      1237 8.14717E-01
 -1      1238 5.26361E-01
 -1      1239 3.26302E-01
 -1      1240 1.98686E-01
 -1      1241 8.83244E-02
 -1      1242 4.86119E-02
 -1      1243 5.39160E-02
 -1      1244 6.86207E-02
 -1      1245 1.28626E-01
 -1      1246 1.81956E-01
 -1      1247 2.11145E-01
 -1      1248 2.18492E-01
 -1      1249 1.97449E-01
 -1      1250 1.66532E-01
 -1      1251 2.57078E-01
 -1      1252 4.15255E-01
 -1      1253 4.73013E-01
 -1      1254 4.52801E-01
 -1      1255 3.27779E-01
 -1      1256 3.54085E-01
 -1      1257 7.19994E-01
 -1      1258 6.22790E-01
 -1      1259 2.37624E+01
 -1      1260 3.60014E+01
 -1      1261 4.82878E+01
 -1      1262 3.49843E+01
 -1      1263 1.67575E+01
 -1      1264 1.18721E+01
 -1      1265 1.19100E+01
 -1      1266 1.18550E+01
 -1      1267 1.18000E+01
 -1      1268 1.17868E+01
 -1      1269 1.45924E+01
 -1      1270 3.12614E+01
 -1      1271 4.51115E+01
 -1      1272 3.44890E+01
 -1      1273 2.37699E+01
 -1      1274 2.43678E+01
 -1      1275 2.50622E+01
 -1      1276 3.16362E+01
 -1      1277 3.82102E+01
 -1      1278 2.66176E+01
 -1      1279 1.40364E+01
 -1      1280 1.30477E+01
 -1      1281 1.32771E+01
 -1      1282 1.35065E+01
 -1      1283 1.35964E+01
 -1      1284 2.26400E+01
 -1      1285 3.19283E+01
 -1      1286 2.92302E+01
 -1      1287 2.53588E+01
 -1      1288 2.41650E+01
 -1      1289 1.33802E+01
 -1      1290 4.92674E+00
 -1      1291 9.78796E+00
 -1      1292 2.06343E+00
 -1      1293 2.97907E+00
 -1      1294 4.24809E+00
 -1      1295 1.39841E+00
 -1      1296 1.66618E+00
 -1      1297 1.90315E+00
 -1      1298 1.10129E+00
 -1      1299 1.22473E+00
 -1      1300 1.33222E+00
 -1      1301 9.36237E-01
 -1      1302 1.00815E+00
 -1      1303 1.06540E+00
 -1      1304 8.36767E-01
 -1      1305 8.82387E-01
 -1      1306 9.18413E-01
 -1      1307 7.74997E-01
 -1      1308 8.02538E-01
 -1      1309 8.30334E-01
 -1      1310 7.55775E-01
 -1      1311 7.54832E-01
 -1      1312 7.75940E-01
 -1      1313 8.06250E-01
 -1      1314 7.77585E-01
 -1      1315 7.77585E-01
 -1      1316 8.83976E-01
 -1      1317 8.40128E-01
 -1      1318 8.33274E-01
 -1      1319 1.01699E+00
 -1      1320 9.40938E-01
 -1      1321 9.24114E-01
 -1      1322 1.23912E+00
 -1      1323 1.11232E+00
 -1      1324 1.07640E+00
 -1      1325 1.67909E+00
 -1      1326 1.41679E+00
 -1      1327 1.34941E+00
 -1      1328 2.88378E+00
 -1      1329 2.04505E+00
 -1      1330 1.89304E+00
 -1      1331 6.28726E+00
 -1      1332 3.72091E+00
 -1      1333 3.09612E+00
 -1      1334 1.40389E+01
 -1      1335 1.13401E+01
 -1      1336 8.98605E+00
 -1      1337 1.40389E+01
 -1      1338 8.81980E+00
 -1      1339 4.25944E+00
 -1      1340 3.83050E+00
 -1      1341 3.40156E+00
 -1      1342 3.83050E+00
 -1      1343 2.77905E+00
 -1      1344 2.15655E+00
 -1      1345 2.77905E+00
 -1      1346 1.81291E+00
 -1      1347 1.43004E+00
 -1      1348 1.81291E+00
 -1      1349 1.21661E+00
 -1      1350 1.03514E+00
 -1      1351 1.25584E+00
 -1      1352 9.05774E-01
 -1      1353 7.83675E-01
 -1      1354 9.13041E-01
 -1      1355 6.97659E-01
 -1      1356 6.11642E-01
 -1      1357 6.97659E-01
 -1      1358 5.45338E-01
 -1      1359 4.73443E-01
 -1      1360 5.45338E-01
 -1      1361 4.22435E-01
 -1      1362 3.66740E-01
 -1      1363 4.28026E-01
 -1      1364 3.26115E-01
 -1      1365 2.85862E-01
 -1      1366 3.36395E-01
 -1      1367 2.57045E-01
 -1      1368 2.24634E-01
 -1      1369 2.66953E-01
 -1      1370 2.00115E-01
 -1      1371 1.74513E-01
 -1      1372 2.13617E-01
 -1      1373 1.52780E-01
 -1      1374 1.30961E-01
 -1      1375 1.67364E-01
 -1      1376 1.16762E-01
 -1      1377 1.04565E-01
 -1      1378 1.31432E-01
 -1      1379 9.15524E-02
 -1      1380 8.05479E-02
 -1      1381 1.04220E-01
 -1      1382 7.05941E-02
 -1      1383 6.32132E-02
 -1      1384 8.12531E-02
 -1      1385 5.58540E-02
 -1      1386 5.10562E-02
 -1      1387 6.39400E-02
 -1      1388 4.58222E-02
 -1      1389 4.44975E-02
 -1      1390 5.13467E-02
 -1      1391 4.40367E-02
 -1      1392 4.93859E-02
 -1      1393 4.56519E-02
 -1      1394 5.49757E-02
 -1      1395 6.18413E-02
 -1      1396 5.07809E-02
 -1      1397 7.09288E-02
 -1      1398 8.13973E-02
 -1      1399 6.54582E-02
 -1      1400 9.51364E-02
 -1      1401 1.13525E-01
 -1      1402 8.82849E-02
 -1      1403 1.33587E-01
 -1      1404 1.60746E-01
 -1      1405 1.22086E-01
 -1      1406 1.89541E-01
 -1      1407 2.29087E-01
 -1      1408 1.70943E-01
 -1      1409 2.63354E-01
 -1      1410 3.10437E-01
 -1      1411 2.34005E-01
 -1      1412 3.83685E-01
 -1      1413 4.69048E-01
 -1      1414 3.41521E-01
 -1      1415 5.79861E-01
 -1      1416 6.89641E-01
 -1      1417 5.25582E-01
 -1      1418 8.51464E-01
 -1      1419 9.97862E-01
 -1      1420 7.98217E-01
 -1      1421 1.22532E+00
 -1      1422 1.40771E+00
 -1      1423 1.18750E+00
 -1      1424 1.70802E+00
 -1      1425 1.96482E+00
 -1      1426 1.71525E+00
 -1      1427 2.30917E+00
 -1      1428 2.68859E+00
 -1      1429 2.35991E+00
 -1      1430 3.03458E+00
 -1      1431 3.47770E+00
 -1      1432 3.05025E+00
 -1      1433 3.73180E+00
 -1      1434 4.29960E+00
 -1      1435 3.65033E+00
 -1      1436 4.69477E+00
 -1      1437 4.89417E+00
 -1      1438 4.29960E+00
 -1      1439 5.09356E+00
 -1      1440 5.09356E+00
 -1      1441 4.89417E+00
 -1      1442 4.95389E+00
 -1      1443 4.83632E+00
 -1      1444 4.95389E+00
 -1      1445 5.05274E+00
 -1      1446 8.20730E+00
 -1      1447 5.03063E+00
 -1      1448 1.11676E+01
 -1      1449 1.29134E+01
 -1      1450 8.20730E+00
 -1      1451 1.46593E+01
 -1      1452 1.46593E+01
 -1      1453 1.29134E+01
 -1      1454 1.44672E+01
 -1      1455 1.42752E+01
 -1      1456 1.44672E+01
 -1      1457 1.15125E+01
 -1      1458 8.74985E+00
 -1      1459 1.15125E+01
 -1      1460 6.64763E+00
 -1      1461 4.50170E+00
 -1      1462 6.64763E+00
 -1      1463 4.45800E+00
 -1      1464 4.73432E+00
 -1      1465 4.50170E+00
 -1      1466 5.01065E+00
 -1      1467 5.01065E+00
 -1      1468 4.73432E+00
 -1      1469 4.62219E+00
 -1      1470 4.23373E+00
 -1      1471 4.62219E+00
 -1      1472 3.76797E+00
 -1      1473 3.16976E+00
 -1      1474 3.76797E+00
 -1      1475 2.83794E+00
 -1      1476 2.58096E+00
 -1      1477 2.97039E+00
 -1      1478 2.31497E+00
 -1      1479 2.10659E+00
 -1      1480 2.37257E+00
 -1      1481 1.78900E+00
 -1      1482 1.47141E+00
 -1      1483 1.78900E+00
 -1      1484 1.21310E+00
 -1      1485 3.39548E+00
 -1      1486 8.71716E+00
 -1      1487 8.71716E+00
 -1      1488 2.41445E+00
 -1      1489 2.90496E+00
 -1      1490 2.90496E+00
 -1      1491 1.66604E+00
 -1      1492 2.04025E+00
 -1      1493 2.04025E+00
 -1      1494 1.14423E+00
 -1      1495 1.40514E+00
 -1      1496 1.40514E+00
 -1      1497 9.06241E-01
 -1      1498 1.02524E+00
 -1      1499 1.02524E+00
 -1      1500 7.31739E-01
 -1      1501 8.18990E-01
 -1      1502 8.18990E-01
 -1      1503 5.88377E-01
 -1      1504 6.60058E-01
 -1      1505 6.60058E-01
 -1      1506 4.68937E-01
 -1      1507 5.28657E-01
 -1      1508 5.28657E-01
 -1      1509 3.69559E-01
 -1      1510 4.19248E-01
 -1      1511 4.19248E-01
 -1      1512 2.95147E-01
 -1      1513 3.32353E-01
 -1      1514 3.32353E-01
 -1      1515 2.33463E-01
 -1      1516 2.64305E-01
 -1      1517 2.64305E-01
 -1      1518 1.83715E-01
 -1      1519 2.09168E-01
 -1      1520 2.09168E-01
 -1      1521 1.43674E-01
 -1      1522 1.64144E-01
 -1      1523 1.65303E-01
 -1      1524 1.11933E-01
 -1      1525 1.27932E-01
 -1      1526 1.29990E-01
 -1      1527 8.75888E-02
 -1      1528 9.96564E-02
 -1      1529 1.01972E-01
 -1      1530 6.97019E-02
 -1      1531 7.83654E-02
 -1      1532 8.04721E-02
 -1      1533 5.73481E-02
 -1      1534 6.31067E-02
 -1      1535 6.46535E-02
 -1      1536 4.99792E-02
 -1      1537 5.33085E-02
 -1      1538 5.40187E-02
 -1      1539 5.04695E-02
 -1      1540 4.94755E-02
 -1      1541 4.94755E-02
 -1      1542 5.40855E-02
 -1      1543 5.19671E-02
 -1      1544 5.04695E-02
 -1      1545 6.31690E-02
 -1      1546 5.77896E-02
 -1      1547 5.56713E-02
 -1      1548 7.34670E-02
 -1      1549 6.75994E-02
 -1      1550 6.38058E-02
 -1      1551 8.38319E-02
 -1      1552 7.86977E-02
 -1      1553 7.34670E-02
 -1      1554 9.15257E-02
 -1      1555 8.89662E-02
 -1      1556 8.38319E-02
 -1      1557 9.66180E-02
 -1      1558 9.40852E-02
 -1      1559 9.15257E-02
 -1      1560 1.13897E-01
 -1      1561 9.97638E-02
 -1      1562 9.72309E-02
 -1      1563 1.46241E-01
 -1      1564 1.27417E-01
 -1      1565 1.13897E-01
 -1      1566 1.91677E-01
 -1      1567 1.65066E-01
 -1      1568 1.46241E-01
 -1      1569 2.72701E-01
 -1      1570 2.18289E-01
 -1      1571 1.91677E-01
 -1      1572 3.78948E-01
 -1      1573 3.27113E-01
 -1      1574 2.72701E-01
 -1      1575 4.85319E-01
 -1      1576 4.30784E-01
 -1      1577 3.78948E-01
 -1      1578 6.47632E-01
 -1      1579 5.46386E-01
 -1      1580 4.91852E-01
 -1      1581 8.27180E-01
 -1      1582 7.42346E-01
 -1      1583 6.47632E-01
 -1      1584 9.56536E-01
 -1      1585 9.12014E-01
 -1      1586 8.27180E-01
 -1      1587 1.32130E+00
 -1      1588 1.09647E+00
 -1      1589 1.05195E+00
 -1      1590 1.68459E+00
 -1      1591 1.48113E+00
 -1      1592 1.35173E+00
 -1      1593 1.97034E+00
 -1      1594 1.85761E+00
 -1      1595 1.68459E+00
 -1      1596 2.12644E+00
 -1      1597 2.08307E+00
 -1      1598 1.97034E+00
 -1      1599 2.24407E+00
 -1      1600 2.16981E+00
 -1      1601 2.12644E+00
 -1      1602 2.31834E+00
 -1      1603 2.31834E+00
 -1      1604 2.24407E+00
 -1      1605 2.16188E+00
 -1      1606 2.24011E+00
 -1      1607 2.24011E+00
 -1      1608 1.78863E+00
 -1      1609 1.97525E+00
 -1      1610 1.97525E+00
 -1      1611 1.36413E+00
 -1      1612 1.57638E+00
 -1      1613 1.57638E+00
 -1      1614 9.91621E-01
 -1      1615 1.18414E+00
 -1      1616 1.18414E+00
 -1      1617 6.74339E-01
 -1      1618 8.38721E-01
 -1      1619 8.51243E-01
 -1      1620 4.25446E-01
 -1      1621 5.49421E-01
 -1      1622 5.73425E-01
 -1      1623 2.56218E-01
 -1      1624 3.32301E-01
 -1      1625 3.55362E-01
 -1      1626 1.47153E-01
 -1      1627 1.98686E-01
 -1      1628 2.04685E-01
 -1      1629 1.07441E-01
 -1      1630 6.11390E-02
 -1      1631 7.49511E-02
 -1      1632 1.24132E-01
 -1      1633 9.56146E-02
 -1      1634 1.16650E-01
 -1      1635 2.15125E-01
 -1      1636 1.83636E-01
 -1      1637 2.10630E-01
 -1      1638 2.81771E-01
 -1      1639 2.59929E-01
 -1      1640 3.14939E-01
 -1      1641 3.10151E-01
 -1      1642 3.02804E-01
 -1      1643 3.80777E-01
 -1      1644 3.12903E-01
 -1      1645 3.12903E-01
 -1      1646 4.04562E-01
 -1      1647 2.91860E-01
 -1      1648 3.12903E-01
 -1      1649 4.07314E-01
 -1      1650 2.36928E-01
 -1      1651 2.46801E-01
 -1      1652 3.62255E-01
 -1      1653 4.61020E-01
 -1      1654 3.60602E-01
 -1      1655 4.40870E-01
 -1      1656 6.68423E-01
 -1      1657 6.10665E-01
 -1      1658 7.14188E-01
 -1      1659 7.05113E-01
 -1      1660 7.05113E-01
 -1      1661 9.00523E-01
 -1      1662 6.84902E-01
 -1      1663 7.05113E-01
 -1      1664 9.37214E-01
 -1      1665 4.85286E-01
 -1      1666 5.90097E-01
 -1      1667 8.42409E-01
 -1      1668 8.08344E-01
 -1      1669 6.77227E-01
 -1      1670 9.39545E-01
 -1      1671 2.57336E+01
 -1      1672 2.57811E+01
 -1      1673 3.91845E+01
 -1      1674 2.68981E+01
 -1      1675 4.82878E+01
 -1      1676 4.82878E+01
 -1      1677 2.25672E+01
 -1      1678 3.58707E+01
 -1      1679 1.15945E+01
 -1      1680 1.65177E+01
 -1      1681 1.18721E+01
 -1      1682 1.18343E+01
 -1      1683 1.19100E+01
 -1      1684 1.19100E+01
 -1      1685 1.17744E+01
 -1      1686 1.18294E+01
 -1      1687 1.18000E+01
 -1      1688 1.18000E+01
 -1      1689 1.17736E+01
 -1      1690 1.17868E+01
 -1      1691 1.42026E+01
 -1      1692 1.13838E+01
 -1      1693 3.16757E+01
 -1      1694 1.78255E+01
 -1      1695 4.51115E+01
 -1      1696 4.51115E+01
 -1      1697 2.48832E+01
 -1      1698 3.55058E+01
 -1      1699 2.61461E+01
 -1      1700 2.62427E+01
 -1      1701 2.68406E+01
 -1      1702 2.61461E+01
 -1      1703 2.64249E+01
 -1      1704 2.64249E+01
 -1      1705 3.66873E+01
 -1      1706 3.01133E+01
 -1      1707 3.82102E+01
 -1      1708 3.82102E+01
 -1      1709 1.50250E+01
 -1      1710 2.66176E+01
 -1      1711 1.26775E+01
 -1      1712 1.36662E+01
 -1      1713 1.30477E+01
 -1      1714 1.30477E+01
 -1      1715 1.31275E+01
 -1      1716 1.28981E+01
 -1      1717 1.35065E+01
 -1      1718 1.35065E+01
 -1      1719 1.30129E+01
 -1      1720 1.29230E+01
 -1      1721 2.26400E+01
 -1      1722 1.36863E+01
 -1      1723 3.22630E+01
 -1      1724 3.19283E+01
 -1      1725 2.92302E+01
 -1      1726 3.22630E+01
 -1      1727 2.45201E+01
 -1      1728 2.53588E+01
 -1      1729 2.57811E+01
 -1      1730 2.61362E+01
 -1      1731 1.21310E+00
 -1      1732 3.91845E+01
 -1      1733 1.07441E-01
 -1      1734 1.14664E-01
 -1      1735 2.77522E+01
 -1      1736 2.89167E+01
 -1      1737 1.04314E+00
 -1      1738 8.08344E-01
 -1      1739 1.13149E+00
 -1      1740 3.58707E+01
 -1      1741 1.74041E+01
 -1      1742 1.15945E+01
 -1      1743 1.18721E+01
 -1      1744 1.18294E+01
 -1      1745 1.17744E+01
 -1      1746 1.17868E+01
 -1      1747 1.13838E+01
 -1      1748 1.46169E+01
 -1      1749 3.16757E+01
 -1      1750 3.55058E+01
 -1      1751 2.72595E+01
 -1      1752 2.86189E+01
 -1      1753 2.82032E+01
 -1      1754 3.14760E+01
 -1      1755 3.66873E+01
 -1      1756 2.66176E+01
 -1      1757 1.36662E+01
 -1      1758 1.26775E+01
 -1      1759 1.28981E+01
 -1      1760 1.31275E+01
 -1      1761 1.29230E+01
 -1      1762 1.30129E+01
 -1      1763 2.29746E+01
 -1      1764 3.22630E+01
 -1      1765 2.83915E+01
 -1      1766 2.61362E+01
 -1      1767 9.78796E+00
 -1      1768 1.28906E+00
 -1      1769 1.68632E+00
 -1      1770 2.42030E+00
 -1      1771 4.36798E+00
 -1      1772 1.80622E+00
 -1      1773 8.80633E-01
 -1      1774 9.73773E-01
 -1      1775 7.79957E-01
 -1      1776 8.33807E-01
 -1      1777 7.42177E-01
 -1      1778 7.14069E-01
 -1      1779 7.48299E-01
 -1      1780 6.63692E-01
 -1      1781 6.71720E-01
 -1      1782 6.91885E-01
 -1      1783 6.09850E-01
 -1      1784 6.95098E-01
 -1      1785 6.73288E-01
 -1      1786 5.89233E-01
 -1      1787 7.50829E-01
 -1      1788 7.16951E-01
 -1      1789 6.12653E-01
 -1      1790 8.41166E-01
 -1      1791 7.84205E-01
 -1      1792 6.67881E-01
 -1      1793 9.84148E-01
 -1      1794 8.88820E-01
 -1      1795 7.48910E-01
 -1      1796 1.22889E+00
 -1      1797 1.05121E+00
 -1      1798 8.63629E-01
 -1      1799 1.70161E+00
 -1      1800 1.33565E+00
 -1      1801 1.03746E+00
 -1      1802 2.63182E+00
 -1      1803 1.79470E+00
 -1      1804 1.23731E+00
 -1      1805 8.11794E+00
 -1      1806 3.06514E+00
 -1      1807 1.76371E+00
 -1      1808 2.79625E+00
 -1      1809 5.22760E+00
 -1      1810 2.16365E+00
 -1      1811 2.65417E+00
 -1      1812 2.05494E+00
 -1      1813 2.57003E+00
 -1      1814 1.94753E+00
 -1      1815 1.72097E+00
 -1      1816 1.37733E+00
 -1      1817 1.51195E+00
 -1      1818 1.19514E+00
 -1      1819 9.81705E-01
 -1      1820 1.10320E+00
 -1      1821 8.57439E-01
 -1      1822 7.28073E-01
 -1      1823 7.96737E-01
 -1      1824 6.66536E-01
 -1      1825 5.80519E-01
 -1      1826 6.10933E-01
 -1      1827 5.31036E-01
 -1      1828 4.64732E-01
 -1      1829 4.99913E-01
 -1      1830 4.21359E-01
 -1      1831 3.70352E-01
 -1      1832 4.07058E-01
 -1      1833 3.36418E-01
 -1      1834 2.95794E-01
 -1      1835 3.29751E-01
 -1      1836 2.67783E-01
 -1      1837 2.38966E-01
 -1      1838 2.67806E-01
 -1      1839 2.14782E-01
 -1      1840 1.90262E-01
 -1      1841 2.15611E-01
 -1      1842 1.71103E-01
 -1      1843 1.49370E-01
 -1      1844 1.72268E-01
 -1      1845 1.35846E-01
 -1      1846 1.21647E-01
 -1      1847 1.39585E-01
 -1      1848 1.08883E-01
 -1      1849 9.58695E-02
 -1      1850 1.13297E-01
 -1      1851 8.53560E-02
 -1      1852 7.54022E-02
 -1      1853 9.00186E-02
 -1      1854 6.68804E-02
 -1      1855 5.95212E-02
 -1      1856 7.09833E-02
 -1      1857 5.26436E-02
 -1      1858 4.74095E-02
 -1      1859 5.55840E-02
 -1      1860 4.23319E-02
 -1      1861 4.18712E-02
 -1      1862 4.36288E-02
 -1      1863 4.51912E-02
 -1      1864 5.07809E-02
 -1      1865 4.18712E-02
 -1      1866 5.63707E-02
 -1      1867 6.54582E-02
 -1      1868 5.07809E-02
 -1      1869 7.45457E-02
 -1      1870 8.82849E-02
 -1      1871 6.54582E-02
 -1      1872 1.06085E-01
 -1      1873 1.26147E-01
 -1      1874 9.23461E-02
 -1      1875 1.56071E-01
 -1      1876 1.84867E-01
 -1      1877 1.40071E-01
 -1      1878 2.26906E-01
 -1      1879 2.61173E-01
 -1      1880 2.12034E-01
 -1      1881 3.23524E-01
 -1      1882 3.96773E-01
 -1      1883 3.16425E-01
 -1      1884 4.88748E-01
 -1      1885 5.99561E-01
 -1      1886 4.70752E-01
 -1      1887 7.32199E-01
 -1      1888 8.94022E-01
 -1      1889 6.95365E-01
 -1      1890 1.08173E+00
 -1      1891 1.30919E+00
 -1      1892 1.01572E+00
 -1      1893 1.56683E+00
 -1      1894 1.86714E+00
 -1      1895 1.46107E+00
 -1      1896 2.19057E+00
 -1      1897 2.53492E+00
 -1      1898 2.04215E+00
 -1      1899 2.93291E+00
 -1      1900 3.27890E+00
 -1      1901 2.76357E+00
 -1      1902 3.71197E+00
 -1      1903 3.96607E+00
 -1      1904 3.59463E+00
 -1      1905 4.35198E+00
 -1      1906 4.74715E+00
 -1      1907 4.41362E+00
 -1      1908 5.13248E+00
 -1      1909 5.33187E+00
 -1      1910 5.18485E+00
 -1      1911 6.71380E+00
 -1      1912 6.57412E+00
 -1      1913 6.95211E+00
 -1      1914 5.98320E+00
 -1      1915 6.19962E+00
 -1      1916 7.74311E+00
 -1      1917 9.81719E+00
 -1      1918 1.15631E+01
 -1      1919 1.37038E+01
 -1      1920 1.35118E+01
 -1      1921 1.12710E+01
 -1      1922 8.50834E+00
 -1      1923 7.35617E+00
 -1      1924 5.25395E+00
 -1      1925 6.26892E+00
 -1      1926 6.22522E+00
 -1      1927 6.97747E+00
 -1      1928 5.25302E+00
 -1      1929 5.52934E+00
 -1      1930 7.02024E+00
 -1      1931 4.65735E+00
 -1      1932 4.26889E+00
 -1      1933 5.17605E+00
 -1      1934 4.01799E+00
 -1      1935 3.55223E+00
 -1      1936 4.05315E+00
 -1      1937 3.18088E+00
 -1      1938 2.84906E+00
 -1      1939 3.43090E+00
 -1      1940 2.63853E+00
 -1      1941 2.37254E+00
 -1      1942 2.84902E+00
 -1      1943 2.02132E+00
 -1      1944 1.70374E+00
 -1      1945 2.28728E+00
 -1      1946 1.39601E+00
 -1      1947 1.77021E+00
 -1      1948 1.51941E+00
 -1      1949 3.91845E+01
 -1      1950 3.00813E+01
 -1      1951 9.76337E-01
 -1      1952 1.23724E+00
 -1      1953 9.67209E-01
 -1      1954 8.01893E-01
 -1      1955 9.20886E-01
 -1      1956 7.52994E-01
 -1      1957 6.37798E-01
 -1      1958 7.25049E-01
 -1      1959 6.20700E-01
 -1      1960 5.12852E-01
 -1      1961 5.84533E-01
 -1      1962 4.90591E-01
 -1      1963 4.19888E-01
 -1      1964 4.79608E-01
 -1      1965 4.04083E-01
 -1      1966 3.38251E-01
 -1      1967 3.87940E-01
 -1      1968 3.38891E-01
 -1      1969 2.73102E-01
 -1      1970 3.10307E-01
 -1      1971 2.79000E-01
 -1      1972 2.19470E-01
 -1      1973 2.50312E-01
 -1      1974 2.28267E-01
 -1      1975 1.75162E-01
 -1      1976 1.99456E-01
 -1      1977 1.85463E-01
 -1      1978 1.39066E-01
 -1      1979 1.58636E-01
 -1      1980 1.48924E-01
 -1      1981 1.09869E-01
 -1      1982 1.25611E-01
 -1      1983 1.18944E-01
 -1      1984 8.68235E-02
 -1      1985 9.91001E-02
 -1      1986 9.47205E-02
 -1      1987 6.92890E-02
 -1      1988 7.85124E-02
 -1      1989 7.56405E-02
 -1      1990 5.65586E-02
 -1      1991 6.31538E-02
 -1      1992 6.11942E-02
 -1      1993 4.82493E-02
 -1      1994 5.22888E-02
 -1      1995 5.07892E-02
 -1      1996 4.56472E-02
 -1      1997 4.61508E-02
 -1      1998 4.44209E-02
 -1      1999 4.80937E-02
 -1      2000 4.65961E-02
 -1      2001 4.32714E-02
 -1      2002 5.51141E-02
 -1      2003 5.14100E-02
 -1      2004 4.75366E-02
 -1      2005 6.41288E-02
 -1      2006 5.96984E-02
 -1      2007 5.54371E-02
 -1      2008 7.70473E-02
 -1      2009 7.18166E-02
 -1      2010 6.77092E-02
 -1      2011 8.87382E-02
 -1      2012 8.36039E-02
 -1      2013 8.19536E-02
 -1      2014 9.83132E-02
 -1      2015 9.57537E-02
 -1      2016 9.55257E-02
 -1      2017 1.04206E-01
 -1      2018 1.01060E-01
 -1      2019 1.05288E-01
 -1      2020 1.17726E-01
 -1      2021 1.04206E-01
 -1      2022 1.08035E-01
 -1      2023 1.31144E-01
 -1      2024 1.12320E-01
 -1      2025 1.02629E-01
 -1      2026 1.64825E-01
 -1      2027 1.38214E-01
 -1      2028 1.04292E-01
 -1      2029 2.76663E-01
 -1      2030 2.22251E-01
 -1      2031 1.68787E-01
 -1      2032 4.21867E-01
 -1      2033 3.70032E-01
 -1      2034 3.19582E-01
 -1      2035 5.95915E-01
 -1      2036 5.34847E-01
 -1      2037 5.25930E-01
 -1      2038 8.13469E-01
 -1      2039 7.18756E-01
 -1      2040 7.61751E-01
 -1      2041 1.02672E+00
 -1      2042 9.41887E-01
 -1      2043 1.01301E+00
 -1      2044 1.28841E+00
 -1      2045 1.14847E+00
 -1      2046 1.26317E+00
 -1      2047 1.52130E+00
 -1      2048 1.36146E+00
 -1      2049 1.45797E+00
 -1      2050 1.70601E+00
 -1      2051 1.53299E+00
 -1      2052 1.54272E+00
 -1      2053 1.81874E+00
 -1      2054 1.70601E+00
 -1      2055 1.55441E+00
 -1      2056 1.85571E+00
 -1      2057 1.81234E+00
 -1      2058 1.54801E+00
 -1      2059 1.92997E+00
 -1      2060 1.85571E+00
 -1      2061 1.54160E+00
 -1      2062 1.84046E+00
 -1      2063 1.91869E+00
 -1      2064 1.53032E+00
 -1      2065 1.57242E+00
 -1      2066 1.75904E+00
 -1      2067 1.43762E+00
 -1      2068 1.24231E+00
 -1      2069 1.45456E+00
 -1      2070 1.23835E+00
 -1      2071 9.47123E-01
 -1      2072 1.12712E+00
 -1      2073 1.00530E+00
 -1      2074 6.78181E-01
 -1      2075 8.31082E-01
 -1      2076 7.74062E-01
 -1      2077 4.46811E-01
 -1      2078 5.71729E-01
 -1      2079 5.51568E-01
 -1      2080 2.64695E-01
 -1      2081 3.57840E-01
 -1      2082 3.56144E-01
 -1      2083 1.43421E-01
 -1      2084 2.00952E-01
 -1      2085 2.03430E-01
 -1      2086 1.10931E-01
 -1      2087 4.07804E-01
 -1      2088 3.63000E-01
 -1      2089 3.04216E-01
 -1      2090 2.44711E-01
 -1      2091 3.97081E-01
 -1      2092 1.74942E-01
 -1      2093 1.40467E-01
 -1      2094 1.69223E-01
 -1      2095 2.68528E-01
 -1      2096 4.68402E-01
 -1      2097 4.47368E-01
 -1      2098 4.95429E-01
 -1      2099 4.86482E-01
 -1      2100 4.83730E-01
 -1      2101 5.50322E-01
 -1      2102 5.05372E-01
 -1      2103 5.05372E-01
 -1      2104 5.84540E-01
 -1      2105 4.60313E-01
 -1      2106 5.05372E-01
 -1      2107 6.03430E-01
 -1      2108 6.05567E-01
 -1      2109 4.81893E-01
 -1      2110 6.25010E-01
 -1      2111 9.91566E-01
 -1      2112 8.41921E-01
 -1      2113 8.82944E-01
 -1      2114 1.16831E+00
 -1      2115 1.13162E+00
 -1      2116 1.25935E+00
 -1      2117 1.27618E+00
 -1      2118 1.27618E+00
 -1      2119 1.50728E+00
 -1      2120 1.18138E+00
 -1      2121 1.27618E+00
 -1      2122 1.61515E+00
 -1      2123 1.24348E+00
 -1      2124 1.05154E+00
 -1      2125 1.48531E+00
 -1      2126 2.03982E+01
 -1      2127 3.28153E+01
 -1      2128 1.30145E+00
 -1      2129 3.39982E+00
 -1      2130 3.11249E+01
 -1      2131 3.11249E+01
 -1      2132 1.03594E+00
 -1      2133 1.20961E+00
 -1      2134 9.92785E-01
 -1      2135 8.51170E-01
 -1      2136 1.05765E+01
 -1      2137 1.66260E+01
 -1      2138 1.35705E+01
 -1      2139 9.34023E+00
 -1      2140 9.10041E+00
 -1      2141 1.08773E+01
 -1      2142 1.08395E+01
 -1      2143 1.09913E+01
 -1      2144 1.10719E+01
 -1      2145 1.12315E+01
 -1      2146 1.12058E+01
 -1      2147 1.07516E+01
 -1      2148 1.07648E+01
 -1      2149 1.01963E+01
 -1      2150 9.41410E+00
 -1      2151 9.80394E+00
 -1      2152 1.31770E+01
 -1      2153 9.55413E+00
 -1      2154 3.03383E+01
 -1      2155 1.69024E+01
 -1      2156 2.59000E+01
 -1      2157 3.55058E+01
 -1      2158 2.79762E+01
 -1      2159 2.66167E+01
 -1      2160 3.44723E+01
 -1      2161 3.44723E+01
 -1      2162 3.38295E+01
 -1      2163 3.40566E+01
 -1      2164 3.44723E+01
 -1      2165 3.09037E+01
 -1      2166 2.72153E+01
 -1      2167 3.06674E+01
 -1      2168 2.91445E+01
 -1      2169 1.43032E+01
 -1      2170 2.58958E+01
 -1      2171 9.83348E+00
 -1      2172 1.11923E+01
 -1      2173 1.10666E+01
 -1      2174 1.06964E+01
 -1      2175 1.22568E+01
 -1      2176 1.24065E+01
 -1      2177 1.31275E+01
 -1      2178 1.27484E+01
 -1      2179 1.09973E+01
 -1      2180 1.15808E+01
 -1      2181 1.06156E+01
 -1      2182 9.94225E+00
 -1      2183 2.21310E+01
 -1      2184 1.28426E+01
 -1      2185 2.66692E+01
 -1      2186 2.66692E+01
 -1      2187 2.52806E+01
 -1      2188 2.91521E+01
 -1      2189 3.11249E+01
 -1      2190 2.95088E+01
 -1      2191 2.89808E+01
 -1      2192 2.78163E+01
 -1      2193 1.53377E+00
 -1      2194 3.44976E+01
 -1      2195 2.89808E+01
 -1      2196 2.97088E+00
 -1      2197 2.13935E+00
 -1      2198 5.00228E+00
 -1      2199 7.96253E+00
 -1      2200 1.05076E+01
 -1      2201 7.11466E+00
 -1      2202 2.37120E+01
 -1      2203 1.04484E+01
 -1      2204 8.32225E+00
 -1      2205 1.53377E+00
 -1      2206 3.11890E+01
 -1      2207 3.02694E+01
 -1      2208 2.35583E+01
 -1      2209 1.65372E+01
 -1      2210 9.77198E+00
 -1      2211 8.60001E+00
 -1      2212 1.22568E+01
 -1      2213 1.04253E+01
 -1      2214 8.22250E+00
 -1      2215 1.04705E+01
 -1      2216 1.83530E+01
 -1      2217 2.48838E+01
 -1      2218 4.03256E+01
 -1      2219 2.66167E+01
 -1      2220 2.07325E+01
 -1      2221 1.18397E+01
 -1      2222 8.78193E+00
 -1      2223 5.95485E+00
 -1      2224 1.64577E+00
 -1      2225 1.00393E+01
 -1      2226 8.34543E+00
 -1      2227 7.59730E+00
 -1      2228 6.01746E+00
 -1      2229 6.15748E+00
 -1      2230 3.34843E+01
 -1      2231 5.59449E-01
 -1      2232 5.91108E-01
 -1      2233 6.03319E-01
 -1      2234 6.50145E-01
 -1      2235 4.99076E-01
 -1      2236 5.11180E-01
 -1      2237 5.09612E-01
 -1      2238 5.45994E-01
 -1      2239 5.24142E-01
 -1      2240 4.44521E-01
 -1      2241 5.94187E-01
 -1      2242 5.60811E-01
 -1      2243 4.72300E-01
 -1      2244 6.53834E-01
 -1      2245 6.06180E-01
 -1      2246 4.99110E-01
 -1      2247 7.20899E-01
 -1      2248 6.53834E-01
 -1      2249 5.11104E-01
 -1      2250 8.25026E-01
 -1      2251 7.18263E-01
 -1      2252 5.08468E-01
 -1      2253 9.86914E-01
 -1      2254 8.93827E-01
 -1      2255 5.74633E-01
 -1      2256 1.75587E+00
 -1      2257 1.32255E+00
 -1      2258 9.79071E-01
 -1      2259 1.61378E+00
 -1      2260 1.27733E+00
 -1      2261 1.05077E+00
 -1      2262 2.26299E+00
 -1      2263 1.97269E+00
 -1      2264 2.61420E+00
 -1      2265 1.32123E+01
 -1      2266 6.61217E+00
 -1      2267 9.86502E+00
 -1      2268 1.36372E+01
 -1      2269 9.95449E-01
 -1      2270 8.13256E-01
 -1      2271 7.60830E-01
 -1      2272 7.59170E-01
 -1      2273 6.34903E-01
 -1      2274 6.51422E-01
 -1      2275 5.79430E-01
 -1      2276 5.17893E-01
 -1      2277 5.41862E-01
 -1      2278 4.67838E-01
 -1      2279 4.18356E-01
 -1      2280 4.36335E-01
 -1      2281 3.89139E-01
 -1      2282 3.45766E-01
 -1      2283 3.57063E-01
 -1      2284 3.20670E-01
 -1      2285 2.86735E-01
 -1      2286 3.02750E-01
 -1      2287 2.62815E-01
 -1      2288 2.34804E-01
 -1      2289 2.53733E-01
 -1      2290 2.14448E-01
 -1      2291 1.90264E-01
 -1      2292 2.09457E-01
 -1      2293 1.72631E-01
 -1      2294 1.53471E-01
 -1      2295 1.71467E-01
 -1      2296 1.39585E-01
 -1      2297 1.26061E-01
 -1      2298 1.39948E-01
 -1      2299 1.14615E-01
 -1      2300 1.01851E-01
 -1      2301 1.14615E-01
 -1      2302 9.25236E-02
 -1      2303 8.20101E-02
 -1      2304 9.38422E-02
 -1      2305 7.41488E-02
 -1      2306 6.56270E-02
 -1      2307 7.66538E-02
 -1      2308 5.88002E-02
 -1      2309 5.19227E-02
 -1      2310 6.19657E-02
 -1      2311 4.61220E-02
 -1      2312 4.10443E-02
 -1      2313 4.93382E-02
 -1      2314 3.75585E-02
 -1      2315 4.08785E-02
 -1      2316 4.00517E-02
 -1      2317 4.43747E-02
 -1      2318 4.99645E-02
 -1      2319 4.00620E-02
 -1      2320 5.55704E-02
 -1      2321 6.46579E-02
 -1      2322 4.91641E-02
 -1      2323 7.78313E-02
 -1      2324 9.56317E-02
 -1      2325 6.79435E-02
 -1      2326 1.16842E-01
 -1      2327 1.46767E-01
 -1      2328 1.02328E-01
 -1      2329 1.76256E-01
 -1      2330 2.18295E-01
 -1      2331 1.53027E-01
 -1      2332 2.58516E-01
 -1      2333 3.20868E-01
 -1      2334 2.22738E-01
 -1      2335 3.89914E-01
 -1      2336 4.81889E-01
 -1      2337 3.32005E-01
 -1      2338 5.91576E-01
 -1      2339 7.24214E-01
 -1      2340 5.10738E-01
 -1      2341 8.87836E-01
 -1      2342 1.07555E+00
 -1      2343 7.84047E-01
 -1      2344 1.31695E+00
 -1      2345 1.57459E+00
 -1      2346 1.18907E+00
 -1      2347 1.90195E+00
 -1      2348 2.22538E+00
 -1      2349 1.75783E+00
 -1      2350 2.72367E+00
 -1      2351 3.12166E+00
 -1      2352 2.58347E+00
 -1      2353 3.80495E+00
 -1      2354 4.23802E+00
 -1      2355 3.76505E+00
 -1      2356 5.08079E+00
 -1      2357 5.46669E+00
 -1      2358 5.29110E+00
 -1      2359 6.24875E+00
 -1      2360 6.63408E+00
 -1      2361 6.91592E+00
 -1      2362 7.38792E+00
 -1      2363 8.76984E+00
 -1      2364 8.45181E+00
 -1      2365 9.74154E+00
 -1      2366 9.15062E+00
 -1      2367 1.03500E+00
 -1      2368 1.42845E+00
 -1      2369 1.12937E+00
 -1      2370 3.44976E+01
 -1      2371 3.44976E+01
 -1      2372 9.56053E+00
 -1      2373 8.58833E+00
 -1      2374 7.63954E+00
 -1      2375 6.76754E+00
 -1      2376 1.01798E+01
 -1      2377 5.23753E+00
 -1      2378 4.98663E+00
 -1      2379 7.70103E+00
 -1      2380 3.98252E+00
 -1      2381 3.61117E+00
 -1      2382 5.16691E+00
 -1      2383 3.23399E+00
 -1      2384 3.02346E+00
 -1      2385 2.99917E+00
 -1      2386 3.78561E+00
 -1      2387 6.97544E-01
 -1      2388 7.52994E-01
 -1      2389 7.73808E-01
 -1      2390 9.32572E-01
 -1      2391 8.41603E-01
 -1      2392 7.18357E-01
 -1      2393 4.37327E-01
 -1      2394 4.90591E-01
 -1      2395 3.70839E-01
 -1      2396 4.04083E-01
 -1      2397 4.04083E-01
 -1      2398 3.06943E-01
 -1      2399 3.38891E-01
 -1      2400 3.38891E-01
 -1      2401 2.51056E-01
 -1      2402 2.79000E-01
 -1      2403 2.79000E-01
 -1      2404 2.05798E-01
 -1      2405 2.28588E-01
 -1      2406 2.28588E-01
 -1      2407 1.66042E-01
 -1      2408 1.86056E-01
 -1      2409 1.86377E-01
 -1      2410 1.32586E-01
 -1      2411 1.49111E-01
 -1      2412 1.49704E-01
 -1      2413 1.05990E-01
 -1      2414 1.19445E-01
 -1      2415 1.19631E-01
 -1      2416 8.43673E-02
 -1      2417 9.51362E-02
 -1      2418 9.56366E-02
 -1      2419 6.68107E-02
 -1      2420 7.51219E-02
 -1      2421 7.55376E-02
 -1      2422 5.28516E-02
 -1      2423 5.89868E-02
 -1      2424 5.84682E-02
 -1      2425 4.19148E-02
 -1      2426 4.61846E-02
 -1      2427 4.39772E-02
 -1      2428 3.86854E-02
 -1      2429 4.07839E-02
 -1      2430 3.61793E-02
 -1      2431 4.12840E-02
 -1      2432 4.03350E-02
 -1      2433 3.66980E-02
 -1      2434 4.71580E-02
 -1      2435 4.38418E-02
 -1      2436 4.09054E-02
 -1      2437 5.62738E-02
 -1      2438 5.16896E-02
 -1      2439 4.79948E-02
 -1      2440 7.11680E-02
 -1      2441 6.34802E-02
 -1      2442 5.97327E-02
 -1      2443 8.45120E-02
 -1      2444 7.79554E-02
 -1      2445 7.37265E-02
 -1      2446 9.85283E-02
 -1      2447 9.15128E-02
 -1      2448 8.75146E-02
 -1      2449 1.05288E-01
 -1      2450 1.02541E-01
 -1      2451 9.85283E-02
 -1      2452 1.08035E-01
 -1      2453 1.08035E-01
 -1      2454 1.05288E-01
 -1      2455 1.03299E-01
 -1      2456 1.08705E-01
 -1      2457 1.08705E-01
 -1      2458 1.22998E-01
 -1      2459 1.15929E-01
 -1      2460 1.22005E-01
 -1      2461 2.03741E-01
 -1      2462 1.46316E-01
 -1      2463 1.57953E-01
 -1      2464 3.62283E-01
 -1      2465 2.68914E-01
 -1      2466 2.46442E-01
 -1      2467 5.58388E-01
 -1      2468 4.45409E-01
 -1      2469 3.94741E-01
 -1      2470 8.02383E-01
 -1      2471 6.79541E-01
 -1      2472 5.99020E-01
 -1      2473 1.06099E+00
 -1      2474 9.32576E-01
 -1      2475 8.50365E-01
 -1      2476 1.29302E+00
 -1      2477 1.17127E+00
 -1      2478 1.09084E+00
 -1      2479 1.45797E+00
 -1      2480 1.38492E+00
 -1      2481 1.29302E+00
 -1      2482 1.54272E+00
 -1      2483 1.53102E+00
 -1      2484 1.45797E+00
 -1      2485 1.55441E+00
 -1      2486 1.55441E+00
 -1      2487 1.54272E+00
 -1      2488 1.50654E+00
 -1      2489 1.51294E+00
 -1      2490 1.51294E+00
 -1      2491 1.54160E+00
 -1      2492 1.54160E+00
 -1      2493 1.50654E+00
 -1      2494 1.51359E+00
 -1      2495 1.52488E+00
 -1      2496 1.52488E+00
 -1      2497 1.35620E+00
 -1      2498 1.43762E+00
 -1      2499 1.43218E+00
 -1      2500 1.15751E+00
 -1      2501 1.27536E+00
 -1      2502 1.27536E+00
 -1      2503 9.30066E-01
 -1      2504 1.04526E+00
 -1      2505 1.08228E+00
 -1      2506 6.86224E-01
 -1      2507 8.02266E-01
 -1      2508 8.42229E-01
 -1      2509 5.06332E-01
 -1      2510 6.12785E-01
 -1      2511 6.40989E-01
 -1      2512 4.02250E-01
 -1      2513 4.91222E-01
 -1      2514 5.52438E-01
 -1      2515 2.32966E-01
 -1      2516 6.23930E-01
 -1      2517 6.08601E-01
 -1      2518 7.12659E-01
 -1      2519 6.93770E-01
 -1      2520 7.52049E-01
 -1      2521 5.29387E-01
 -1      2522 4.70602E-01
 -1      2523 5.92895E-01
 -1      2524 5.53331E-01
 -1      2525 6.26852E-01
 -1      2526 6.66503E-01
 -1      2527 7.56692E-01
 -1      2528 7.56692E-01
 -1      2529 8.65922E-01
 -1      2530 8.57124E-01
 -1      2531 8.35544E-01
 -1      2532 9.88807E-01
 -1      2533 1.18446E+00
 -1      2534 9.48103E-01
 -1      2535 1.15864E+00
 -1      2536 1.66567E+00
 -1      2537 1.52562E+00
 -1      2538 1.59077E+00
 -1      2539 1.88271E+00
 -1      2540 1.77484E+00
 -1      2541 2.04110E+00
 -1      2542 2.10253E+00
 -1      2543 2.10253E+00
 -1      2544 2.37009E+00
 -1      2545 2.10253E+00
 -1      2546 9.78894E+00
 -1      2547 9.57443E+00
 -1      2548 8.97943E+00
 -1      2549 8.78484E+00
 -1      2550 8.31998E+00
 -1      2551 1.70233E+00
 -1      2552 1.30149E+00
 -1      2553 8.40310E-01
 -1      2554 9.68351E-01
 -1      2555 2.55183E+01
 -1      2556 2.44179E+01
 -1      2557 1.12017E+01
 -1      2558 2.36731E+01
 -1      2559 2.29564E+01
 -1      2560 5.43856E-01
 -1      2561 6.20700E-01
 -1      2562 6.20700E-01
 -1      2563 4.90591E-01
 -1      2564 1.51397E+01
 -1      2565 2.15090E+01
 -1      2566 1.69460E+01
 -1      2567 5.22583E-01
 -1      2568 5.44767E-01
 -1      2569 4.72182E-01
 -1      2570 4.44529E-01
 -1      2571 7.26164E+00
 -1      2572 5.76238E+00
 -1      2573 6.07158E+00
 -1      2574 7.54766E+00
 -1      2575 8.78835E+00
 -1      2576 9.25500E+00
 -1      2577 2.66430E+01
 -1      2578 3.34843E+01
 -1      2579 7.04443E+00
 -1      2580 7.99210E+00
 -1      2581 7.05085E+00
 -1      2582 1.12837E+01
 -1      2583 7.55831E+00
 -1      2584 1.91350E+01
 -1      2585 1.39676E+01
 -1      2586 9.68616E+00
 -1      2587 3.38295E+01
 -1      2588 2.73334E+01
 -1      2589 4.03256E+01
 -1      2590 4.03256E+01
 -1      2591 3.38295E+01
 -1      2592 1.97649E+01
 -1      2593 2.15241E+01
 -1      2594 1.23652E+01
 -1      2595 1.71369E+01
 -1      2596 1.62758E+01
 -1      2597 1.17376E+01
 -1      2598 2.07268E+01
 -1      2599 1.82439E+01
 -1      2600 3.02694E+01
 -1      2601 2.60411E+01
 -1      2602 2.07268E+01
 -1      2603 2.93806E+01
 -1      2604 3.26891E+01
 -1      2605 5.11287E-01
 -1      2606 6.50145E-01
 -1      2607 7.12311E-01
 -1      2608 3.02694E+01
 -1      2609 1.14342E+01
 -1      2610 7.61435E+00
 -1      2611 1.03668E+01
 -1      2612 1.01773E+01
 -1      2613 3.26891E+01
 -1      2614 3.68044E-01
 -1      2615 2.15241E+01
 -1      2616 4.37812E-01
 -1      2617 2.58991E+00
 -1      2618 8.38104E+00
 -1      2619 6.20178E+00
 -1      2620 6.85398E-01
 -1      2621 7.64847E-01
 -1      2622 6.60964E-01
 -1      2623 4.84374E-01
 -1      2624 2.36731E+01
 -1      2625 1.34443E+01
 -1      2626 3.34843E+01
 -1      2627 1.61914E+01
 -1      2628 5.71896E+00
 -1      2629 4.92913E+00
 -1      2630 3.90216E+00
 -1      2631 7.25590E+00
 -1      2632 6.05856E+00
 -1      2633 5.82202E+00
 -1      2634 6.37801E+00
 -1      2635 4.42119E+00
 -1      2636 8.98074E+00
 -1      2637 9.99572E+00
 -1      2638 4.98779E+00
 -1      2639 2.59180E+01
 -1      2640 6.75373E+00
 -1      2641 7.80877E+00
 -1      2642 9.73429E+00
 -1      2643 6.92145E+00
 -1      2644 5.70118E-01
 -1      2645 1.37771E+01
 -1      2646 1.13024E+01
 -1      2647 4.22766E-01
 -1      2648 4.07949E-01
 -1      2649 4.00098E-01
 -1      2650 3.87136E-01
 -1      2651 3.50564E-01
 -1      2652 4.36370E-01
 -1      2653 4.36370E-01
 -1      2654 4.22001E-01
 -1      2655 4.24637E-01
 -1      2656 3.49903E-01
 -1      2657 5.37408E-01
 -1      2658 4.68607E-01
 -1      2659 3.84776E-01
 -1      2660 1.01714E+00
 -1      2661 6.81501E-01
 -1      2662 5.75474E-01
 -1      2663 8.31802E-01
 -1      2664 6.08197E-01
 -1      2665 5.84040E-01
 -1      2666 4.04694E-01
 -1      2667 2.89729E-01
 -1      2668 3.21677E-01
 -1      2669 6.01610E-01
 -1      2670 5.46287E-01
 -1      2671 3.69497E-01
 -1      2672 1.01160E+01
 -1      2673 5.06312E-01
 -1      2674 4.52226E-01
 -1      2675 3.47092E-01
 -1      2676 4.57678E-01
 -1      2677 4.02205E-01
 -1      2678 3.12569E-01
 -1      2679 3.92727E-01
 -1      2680 3.42673E-01
 -1      2681 3.08543E-01
 -1      2682 3.26389E-01
 -1      2683 2.97172E-01
 -1      2684 2.82782E-01
 -1      2685 2.78482E-01
 -1      2686 2.53386E-01
 -1      2687 2.47808E-01
 -1      2688 2.37884E-01
 -1      2689 2.13964E-01
 -1      2690 2.13617E-01
 -1      2691 2.01609E-01
 -1      2692 1.81252E-01
 -1      2693 1.85760E-01
 -1      2694 1.68516E-01
 -1      2695 1.50882E-01
 -1      2696 1.60668E-01
 -1      2697 1.39445E-01
 -1      2698 1.25559E-01
 -1      2699 1.36494E-01
 -1      2700 1.14615E-01
 -1      2701 1.03169E-01
 -1      2702 1.14113E-01
 -1      2703 9.38422E-02
 -1      2704 8.45151E-02
 -1      2705 9.38422E-02
 -1      2706 7.66538E-02
 -1      2707 6.87925E-02
 -1      2708 7.66538E-02
 -1      2709 6.19657E-02
 -1      2710 5.51389E-02
 -1      2711 6.19657E-02
 -1      2712 4.93382E-02
 -1      2713 4.35375E-02
 -1      2714 4.93382E-02
 -1      2715 3.93749E-02
 -1      2716 3.58891E-02
 -1      2717 3.93749E-02
 -1      2718 3.36944E-02
 -1      2719 3.71906E-02
 -1      2720 3.30177E-02
 -1      2721 4.84195E-02
 -1      2722 5.40254E-02
 -1      2723 4.20519E-02
 -1      2724 6.84562E-02
 -1      2725 8.16296E-02
 -1      2726 6.77116E-02
 -1      2727 1.00574E-01
 -1      2728 1.21784E-01
 -1      2729 1.01086E-01
 -1      2730 1.47698E-01
 -1      2731 1.77187E-01
 -1      2732 1.45944E-01
 -1      2733 2.19257E-01
 -1      2734 2.59479E-01
 -1      2735 2.13927E-01
 -1      2736 3.32005E-01
 -1      2737 4.01051E-01
 -1      2738 3.28524E-01
 -1      2739 5.10738E-01
 -1      2740 6.20424E-01
 -1      2741 5.10738E-01
 -1      2742 7.84047E-01
 -1      2743 9.47670E-01
 -1      2744 7.84047E-01
 -1      2745 1.18907E+00
 -1      2746 1.43046E+00
 -1      2747 1.18907E+00
 -1      2748 1.75783E+00
 -1      2749 2.08519E+00
 -1      2750 1.75783E+00
 -1      2751 2.58347E+00
 -1      2752 3.08176E+00
 -1      2753 2.58347E+00
 -1      2754 3.76505E+00
 -1      2755 4.44834E+00
 -1      2756 3.76505E+00
 -1      2757 5.56319E+00
 -1      2758 6.40595E+00
 -1      2759 5.56319E+00
 -1      2760 7.38349E+00
 -1      2761 8.16555E+00
 -1      2762 7.65559E+00
 -1      2763 8.91939E+00
 -1      2764 8.77611E+00
 -1      2765 5.60890E+00
 -1      2766 7.92627E+00
 -1      2767 1.16082E+01
 -1      2768 1.56175E+01
 -1      2769 9.42818E+00
 -1      2770 7.89817E+00
 -1      2771 6.22998E+00
 -1      2772 5.22587E+00
 -1      2773 7.95713E+00
 -1      2774 2.41948E-01
 -1      2775 2.69891E-01
 -1      2776 2.52677E-01
 -1      2777 3.48906E-01
 -1      2778 3.82151E-01
 -1      2779 2.99744E-01
 -1      2780 2.00787E-01
 -1      2781 2.23255E-01
 -1      2782 2.14147E-01
 -1      2783 1.63726E-01
 -1      2784 1.83468E-01
 -1      2785 1.78136E-01
 -1      2786 1.32629E-01
 -1      2787 1.49560E-01
 -1      2788 1.46651E-01
 -1      2789 1.06808E-01
 -1      2790 1.19949E-01
 -1      2791 1.19806E-01
 -1      2792 8.49288E-02
 -1      2793 9.57824E-02
 -1      2794 9.61003E-02
 -1      2795 6.62921E-02
 -1      2796 7.55376E-02
 -1      2797 7.56834E-02
 -1      2798 5.06442E-02
 -1      2799 5.84682E-02
 -1      2800 5.84682E-02
 -1      2801 3.73102E-02
 -1      2802 4.39772E-02
 -1      2803 4.39772E-02
 -1      2804 3.05430E-02
 -1      2805 3.16739E-02
 -1      2806 3.16739E-02
 -1      2807 3.31392E-02
 -1      2808 3.14896E-02
 -1      2809 2.69843E-02
 -1      2810 3.72868E-02
 -1      2811 3.47289E-02
 -1      2812 2.95206E-02
 -1      2813 4.78683E-02
 -1      2814 4.33367E-02
 -1      2815 3.71603E-02
 -1      2816 6.25467E-02
 -1      2817 5.53404E-02
 -1      2818 5.06823E-02
 -1      2819 7.69971E-02
 -1      2820 7.02096E-02
 -1      2821 6.58173E-02
 -1      2822 9.18576E-02
 -1      2823 8.48568E-02
 -1      2824 8.13400E-02
 -1      2825 1.02438E-01
 -1      2826 9.84253E-02
 -1      2827 9.57675E-02
 -1      2828 1.12506E-01
 -1      2829 1.09759E-01
 -1      2830 1.09656E-01
 -1      2831 1.16893E-01
 -1      2832 1.16223E-01
 -1      2833 1.20694E-01
 -1      2834 1.52325E-01
 -1      2835 1.39695E-01
 -1      2836 1.47213E-01
 -1      2837 2.07221E-01
 -1      2838 1.83904E-01
 -1      2839 2.01594E-01
 -1      2840 3.11615E-01
 -1      2841 2.46442E-01
 -1      2842 2.72394E-01
 -1      2843 4.73059E-01
 -1      2844 3.89933E-01
 -1      2845 3.89933E-01
 -1      2846 6.83574E-01
 -1      2847 5.62422E-01
 -1      2848 5.57614E-01
 -1      2849 9.04574E-01
 -1      2850 7.74380E-01
 -1      2851 7.37783E-01
 -1      2852 1.11866E+00
 -1      2853 1.00838E+00
 -1      2854 9.32393E-01
 -1      2855 1.28722E+00
 -1      2856 1.19531E+00
 -1      2857 1.11285E+00
 -1      2858 1.39842E+00
 -1      2859 1.32537E+00
 -1      2860 1.22767E+00
 -1      2861 1.44081E+00
 -1      2862 1.42911E+00
 -1      2863 1.29652E+00
 -1      2864 1.35388E+00
 -1      2865 1.39535E+00
 -1      2866 1.28175E+00
 -1      2867 1.41550E+00
 -1      2868 1.38044E+00
 -1      2869 1.26284E+00
 -1      2870 1.43352E+00
 -1      2871 1.45025E+00
 -1      2872 1.32414E+00
 -1      2873 1.31742E+00
 -1      2874 1.39339E+00
 -1      2875 1.31876E+00
 -1      2876 1.19984E+00
 -1      2877 1.28068E+00
 -1      2878 1.24189E+00
 -1      2879 1.00186E+00
 -1      2880 1.11410E+00
 -1      2881 1.11941E+00
 -1      2882 8.12030E-01
 -1      2883 9.39831E-01
 -1      2884 9.71657E-01
 -1      2885 6.65071E-01
 -1      2886 7.38511E-01
 -1      2887 8.36113E-01
 -1      2888 6.08301E-01
 -1      2889 6.23411E-01
 -1      2890 7.20934E-01
 -1      2891 6.41091E-01
 -1      2892 1.23865E+00
 -1      2893 1.15980E+00
 -1      2894 1.28054E+01
 -1      2895 8.48340E-01
 -1      2896 7.78500E-01
 -1      2897 1.55079E+00
 -1      2898 1.45981E+00
 -1      2899 1.63080E+00
 -1      2900 1.06373E+00
 -1      2901 1.01970E+00
 -1      2902 1.04615E+00
 -1      2903 1.31358E+00
 -1      2904 2.05250E+00
 -1      2905 1.71134E+00
 -1      2906 2.01252E+00
 -1      2907 2.63123E+00
 -1      2908 2.52206E+00
 -1      2909 2.64263E+00
 -1      2910 3.00195E+00
 -1      2911 2.78213E+00
 -1      2912 3.26308E+00
 -1      2913 6.78031E+00
 -1      2914 7.31426E+00
 -1      2915 7.32260E+00
 -1      2916 6.72760E+00
 -1      2917 2.63960E+01
 -1      2918 2.21678E+01
 -1      2919 8.97091E+00
 -1      2920 1.04734E+01
 -1      2921 3.00195E+00
 -1      2922 3.00195E+00
 -1      2923 3.79232E+00
 -1      2924 4.10152E+00
 -1      2925 4.41343E+00
 -1      2926 4.36370E-01
 -1      2927 4.24377E-01
 -1      2928 3.60025E-01
 -1      2929 3.61636E-01
 -1      2930 6.01744E+00
 -1      2931 4.49424E+00
 -1      2932 1.55864E+01
 -1      2933 1.17650E+01
 -1      2934 4.22792E-01
 -1      2935 4.35003E-01
 -1      2936 5.34012E+00
 -1      2937 6.13636E+00
 -1      2938 1.32705E+01
 -1      2939 9.99791E+00
 -1      2940 7.31407E+00
 -1      2941 2.79494E+01
 -1      2942 2.14532E+01
 -1      2943 1.83215E+01
 -1      2944 2.32842E+01
 -1      2945 1.29836E+01
 -1      2946 2.20165E+01
 -1      2947 2.88578E+01
 -1      2948 1.86855E+01
 -1      2949 1.33711E+01
 -1      2950 1.48121E+01
 -1      2951 2.37247E+01
 -1      2952 2.55332E+01
 -1      2953 2.15378E+01
 -1      2954 1.78776E+01
 -1      2955 3.42569E-01
 -1      2956 3.86992E-01
 -1      2957 3.99963E-01
 -1      2958 4.07725E-01
 -1      2959 4.22407E-01
 -1      2960 3.58334E-01
 -1      2961 3.50187E-01
 -1      2962 3.61048E-01
 -1      2963 4.16225E-01
 -1      2964 4.69489E-01
 -1      2965 1.91875E+01
 -1      2966 1.45610E+01
 -1      2967 1.02804E+01
 -1      2968 1.04776E+01
 -1      2969 9.14487E+00
 -1      2970 1.56577E+01
 -1      2971 3.41120E+00
 -1      2972 4.38688E+00
 -1      2973 4.00969E+00
 -1      2974 4.01247E+00
 -1      2975 5.44995E+00
 -1      2976 5.92365E-01
 -1      2977 6.13178E-01
 -1      2978 6.53980E-01
 -1      2979 6.92163E-01
 -1      2980 6.77925E-01
 -1      2981 1.40686E+01
 -1      2982 1.04688E+01
 -1      2983 5.72187E+00
 -1      2984 3.41398E+00
 -1      2985 5.06958E+00
 -1      2986 5.02005E+00
 -1      2987 1.74316E+01
 -1      2988 4.35003E-01
 -1      2989 4.35003E-01
 -1      2990 3.58719E-01
 -1      2991 5.02795E-01
 -1      2992 5.79639E-01
 -1      2993 4.28428E-01
 -1      2994 5.46727E+00
 -1      2995 4.28696E+00
 -1      2996 5.77902E+00
 -1      2997 4.12269E+00
 -1      2998 7.39910E-01
 -1      2999 7.24204E-01
 -1      3000 7.51332E-01
 -1      3001 8.36201E-01
 -1      3002 3.60797E+00
 -1      3003 8.96094E+00
 -1      3004 1.12292E+01
 -1      3005 1.34511E+01
 -1      3006 6.96546E+00
 -1      3007 4.70352E+00
 -1      3008 3.78903E+00
 -1      3009 3.37805E+00
 -1      3010 9.39291E+00
 -1      3011 4.74460E-01
 -1      3012 1.61282E+01
 -1      3013 1.64816E+01
 -1      3014 3.39584E-01
 -1      3015 2.92979E-01
 -1      3016 2.91510E-01
 -1      3017 3.03243E-01
 -1      3018 2.46318E-01
 -1      3019 7.29369E-01
 -1      3020 2.75831E-01
 -1      3021 2.93401E-01
 -1      3022 1.25412E+01
 -1      3023 1.02500E+01
 -1      3024 1.39599E+01
 -1      3025 8.51488E+00
 -1      3026 6.84668E+00
 -1      3027 2.91217E-01
 -1      3028 2.51242E-01
 -1      3029 1.97551E-01
 -1      3030 2.75769E-01
 -1      3031 2.81221E-01
 -1      3032 2.19894E-01
 -1      3033 2.85888E-01
 -1      3034 2.76410E-01
 -1      3035 2.49087E-01
 -1      3036 2.69596E-01
 -1      3037 2.53313E-01
 -1      3038 2.46941E-01
 -1      3039 2.40818E-01
 -1      3040 2.22128E-01
 -1      3041 2.27632E-01
 -1      3042 2.07417E-01
 -1      3043 1.91915E-01
 -1      3044 2.00426E-01
 -1      3045 1.81095E-01
 -1      3046 1.68740E-01
 -1      3047 1.74895E-01
 -1      3048 1.57609E-01
 -1      3049 1.44872E-01
 -1      3050 1.52944E-01
 -1      3051 1.33795E-01
 -1      3052 1.22358E-01
 -1      3053 1.30736E-01
 -1      3054 1.11570E-01
 -1      3055 1.00627E-01
 -1      3056 1.08872E-01
 -1      3057 9.07929E-02
 -1      3058 8.14658E-02
 -1      3059 8.82506E-02
 -1      3060 7.27018E-02
 -1      3061 6.48405E-02
 -1      3062 6.96525E-02
 -1      3063 5.70510E-02
 -1      3064 5.02242E-02
 -1      3065 5.30990E-02
 -1      3066 4.32902E-02
 -1      3067 3.74896E-02
 -1      3068 3.83755E-02
 -1      3069 3.13337E-02
 -1      3070 2.71710E-02
 -1      3071 2.52857E-02
 -1      3072 2.82767E-02
 -1      3073 2.60821E-02
 -1      3074 2.02354E-02
 -1      3075 3.53031E-02
 -1      3076 4.65320E-02
 -1      3077 3.05621E-02
 -1      3078 5.97826E-02
 -1      3079 7.42133E-02
 -1      3080 5.30337E-02
 -1      3081 9.27431E-02
 -1      3082 1.11687E-01
 -1      3083 8.48141E-02
 -1      3084 1.36267E-01
 -1      3085 1.62180E-01
 -1      3086 1.27924E-01
 -1      3087 2.00033E-01
 -1      3088 2.42103E-01
 -1      3089 1.90356E-01
 -1      3090 2.95075E-01
 -1      3091 3.67602E-01
 -1      3092 2.81181E-01
 -1      3093 4.43213E-01
 -1      3094 5.52899E-01
 -1      3095 4.09763E-01
 -1      3096 6.61452E-01
 -1      3097 8.25074E-01
 -1      3098 5.93926E-01
 -1      3099 9.82495E-01
 -1      3100 1.22389E+00
 -1      3101 8.59899E-01
 -1      3102 1.42915E+00
 -1      3103 1.75651E+00
 -1      3104 1.22258E+00
 -1      3105 2.13003E+00
 -1      3106 2.62832E+00
 -1      3107 1.80136E+00
 -1      3108 3.20106E+00
 -1      3109 3.88435E+00
 -1      3110 2.74762E+00
 -1      3111 4.95879E+00
 -1      3112 6.07365E+00
 -1      3113 4.39480E+00
 -1      3114 8.48298E+00
 -1      3115 9.46052E+00
 -1      3116 7.87858E+00
 -1      3117 7.61940E+00
 -1      3118 8.75417E+00
 -1      3119 2.24619E-01
 -1      3120 2.44457E-01
 -1      3121 6.03377E-01
 -1      3122 1.61389E-01
 -1      3123 1.78708E-01
 -1      3124 2.62954E-01
 -1      3125 2.90183E-01
 -1      3126 2.34896E-01
 -1      3127 1.34160E-01
 -1      3128 1.48326E-01
 -1      3129 1.48898E-01
 -1      3130 1.09189E-01
 -1      3131 1.21869E-01
 -1      3132 1.23543E-01
 -1      3133 8.70674E-02
 -1      3134 9.80931E-02
 -1      3135 1.00156E-01
 -1      3136 6.78900E-02
 -1      3137 7.72813E-02
 -1      3138 7.92741E-02
 -1      3139 5.15055E-02
 -1      3140 5.93294E-02
 -1      3141 6.09273E-02
 -1      3142 3.72921E-02
 -1      3143 4.39591E-02
 -1      3144 4.48203E-02
 -1      3145 2.54615E-02
 -1      3146 3.10978E-02
 -1      3147 3.10796E-02
 -1      3148 2.20380E-02
 -1      3149 2.10914E-02
 -1      3150 2.05152E-02
 -1      3151 2.46366E-02
 -1      3152 2.30469E-02
 -1      3153 1.71541E-02
 -1      3154 3.76020E-02
 -1      3155 3.15521E-02
 -1      3156 2.50784E-02
 -1      3157 5.29601E-02
 -1      3158 4.54880E-02
 -1      3159 3.98798E-02
 -1      3160 6.94088E-02
 -1      3161 6.17459E-02
 -1      3162 5.65516E-02
 -1      3163 8.65496E-02
 -1      3164 7.86899E-02
 -1      3165 7.46185E-02
 -1      3166 1.02335E-01
 -1      3167 9.57675E-02
 -1      3168 9.31174E-02
 -1      3169 1.20756E-01
 -1      3170 1.13435E-01
 -1      3171 1.13435E-01
 -1      3172 1.37342E-01
 -1      3173 1.33625E-01
 -1      3174 1.37403E-01
 -1      3175 1.74034E-01
 -1      3176 1.51231E-01
 -1      3177 1.64162E-01
 -1      3178 2.40145E-01
 -1      3179 2.08567E-01
 -1      3180 2.12585E-01
 -1      3181 3.33124E-01
 -1      3182 2.93903E-01
 -1      3183 3.00876E-01
 -1      3184 4.69864E-01
 -1      3185 3.91546E-01
 -1      3186 4.13056E-01
 -1      3187 6.46977E-01
 -1      3188 5.57614E-01
 -1      3189 5.59227E-01
 -1      3190 8.28588E-01
 -1      3191 7.37783E-01
 -1      3192 7.37783E-01
 -1      3193 1.03334E+00
 -1      3194 9.29534E-01
 -1      3195 9.29534E-01
 -1      3196 1.15810E+00
 -1      3197 1.08144E+00
 -1      3198 1.07858E+00
 -1      3199 1.25605E+00
 -1      3200 1.21790E+00
 -1      3201 1.18648E+00
 -1      3202 1.38128E+00
 -1      3203 1.35059E+00
 -1      3204 1.34082E+00
 -1      3205 1.39890E+00
 -1      3206 1.44436E+00
 -1      3207 1.49843E+00
 -1      3208 1.39867E+00
 -1      3209 1.37212E+00
 -1      3210 1.53473E+00
 -1      3211 1.44146E+00
 -1      3212 1.40672E+00
 -1      3213 1.51599E+00
 -1      3214 1.36712E+00
 -1      3215 1.40725E+00
 -1      3216 1.48982E+00
 -1      3217 1.23144E+00
 -1      3218 1.26818E+00
 -1      3219 1.35667E+00
 -1      3220 1.12430E+00
 -1      3221 1.21004E+00
 -1      3222 1.23633E+00
 -1      3223 9.97863E-01
 -1      3224 1.05989E+00
 -1      3225 1.15051E+00
 -1      3226 8.36113E-01
 -1      3227 9.09631E-01
 -1      3228 9.97863E-01
 -1      3229 7.20934E-01
 -1      3230 7.62594E-01
 -1      3231 8.36113E-01
 -1      3232 7.33823E-01
 -1      3233 3.55159E+00
 -1      3234 3.08204E+00
 -1      3235 4.51690E+00
 -1      3236 4.36600E+00
 -1      3237 4.80541E+00
 -1      3238 2.04630E+00
 -1      3239 1.82514E+00
 -1      3240 4.83480E+00
 -1      3241 4.84314E+00
 -1      3242 4.51690E+00
 -1      3243 4.51690E+00
 -1      3244 5.61982E+00
 -1      3245 5.11539E+00
 -1      3246 1.29305E+01
 -1      3247 1.30151E+01
 -1      3248 4.18119E+00
 -1      3249 4.82514E+00
 -1      3250 3.94641E+00
 -1      3251 3.20505E+00
 -1      3252 4.71244E+00
 -1      3253 3.51682E+00
 -1      3254 2.81490E+00
 -1      3255 9.40904E+00
 -1      3256 1.21130E+01
 -1      3257 4.52872E+00
 -1      3258 3.81856E+00
 -1      3259 1.91671E-01
 -1      3260 2.10363E-01
 -1      3261 2.02143E-01
 -1      3262 1.74924E-01
 -1      3263 3.23470E-01
 -1      3264 3.15619E-01
 -1      3265 4.01984E+00
 -1      3266 3.50081E+00
 -1      3267 2.68759E+00
 -1      3268 2.52704E+00
 -1      3269 2.72137E+00
 -1      3270 3.59656E+00
 -1      3271 9.18358E+00
 -1      3272 7.41650E+00
 -1      3273 1.39842E+01
 -1      3274 1.48471E+01
 -1      3275 1.35437E+01
 -1      3276 1.39842E+01
 -1      3277 9.96910E+00
 -1      3278 1.38390E+01
 -1      3279 1.29305E+01
 -1      3280 5.58963E+00
 -1      3281 6.63427E+00
 -1      3282 2.62410E-01
 -1      3283 3.20804E-01
 -1      3284 3.20804E-01
 -1      3285 9.81398E+00
 -1      3286 3.77956E-01
 -1      3287 3.25190E-01
 -1      3288 2.49094E-01
 -1      3289 8.27361E+00
 -1      3290 1.05125E+01
 -1      3291 1.01826E+01
 -1      3292 9.40209E+00
 -1      3293 7.88358E+00
 -1      3294 6.24357E+00
 -1      3295 4.38125E+00
 -1      3296 3.25081E-01
 -1      3297 3.23470E-01
 -1      3298 2.88526E-01
 -1      3299 2.84248E-01
 -1      3300 6.12020E+00
 -1      3301 5.28122E+00
 -1      3302 5.78565E+00
 -1      3303 6.67795E+00
 -1      3304 3.67487E-01
 -1      3305 4.83677E-01
 -1      3306 2.69668E-01
 -1      3307 3.06458E-01
 -1      3308 3.40533E-01
 -1      3309 5.60026E+00
 -1      3310 5.80959E+00
 -1      3311 3.96278E+00
 -1      3312 1.30116E+01
 -1      3313 2.07629E+00
 -1      3314 1.66080E+00
 -1      3315 1.56473E+00
 -1      3316 1.02879E+01
 -1      3317 1.23036E+00
 -1      3318 1.05901E+00
 -1      3319 1.57759E+00
 -1      3320 3.77818E+00
 -1      3321 4.66525E+00
 -1      3322 3.46376E+00
 -1      3323 3.51074E+00
 -1      3324 3.26630E+00
 -1      3325 2.87414E+00
 -1      3326 3.19183E-01
 -1      3327 3.19183E-01
 -1      3328 4.04870E-01
 -1      3329 3.51202E-01
 -1      3330 3.84508E-01
 -1      3331 2.96612E-01
 -1      3332 3.11391E+00
 -1      3333 1.14995E+00
 -1      3334 9.65736E-01
 -1      3335 9.27146E-01
 -1      3336 3.23567E-01
 -1      3337 3.23951E-01
 -1      3338 2.84416E-01
 -1      3339 3.13822E+00
 -1      3340 3.62955E+00
 -1      3341 2.83649E+00
 -1      3342 3.27520E+00
 -1      3343 3.97334E-01
 -1      3344 2.77635E-01
 -1      3345 2.76166E-01
 -1      3346 3.84608E-01
 -1      3347 3.66509E+00
 -1      3348 3.11906E-01
 -1      3349 3.11762E-01
 -1      3350 2.84812E-01
 -1      3351 1.13998E+01
 -1      3352 3.07382E-01
 -1      3353 3.15805E-01
 -1      3354 3.23567E-01
 -1      3355 2.89184E-01
 -1      3356 1.75291E-01
 -1      3357 1.99818E-01
 -1      3358 2.03422E-01
 -1      3359 2.08089E-01
 -1      3360 1.58819E-01
 -1      3361 2.18315E-01
 -1      3362 2.11501E-01
 -1      3363 1.72649E-01
 -1      3364 2.11483E-01
 -1      3365 1.98988E-01
 -1      3366 1.82857E-01
 -1      3367 1.92956E-01
 -1      3368 1.78245E-01
 -1      3369 1.76807E-01
 -1      3370 1.69063E-01
 -1      3371 1.58244E-01
 -1      3372 1.61594E-01
 -1      3373 1.48546E-01
 -1      3374 1.37415E-01
 -1      3375 1.42714E-01
 -1      3376 1.29681E-01
 -1      3377 1.18604E-01
 -1      3378 1.25283E-01
 -1      3379 1.10005E-01
 -1      3380 9.92179E-02
 -1      3381 1.08950E-01
 -1      3382 9.06727E-02
 -1      3383 8.08385E-02
 -1      3384 9.18058E-02
 -1      3385 7.27956E-02
 -1      3386 6.40317E-02
 -1      3387 7.52177E-02
 -1      3388 5.66578E-02
 -1      3389 4.88683E-02
 -1      3390 5.98010E-02
 -1      3391 4.22632E-02
 -1      3392 3.53293E-02
 -1      3393 4.58221E-02
 -1      3394 2.98344E-02
 -1      3395 2.36785E-02
 -1      3396 3.37221E-02
 -1      3397 2.43544E-02
 -1      3398 2.54601E-02
 -1      3399 2.89031E-02
 -1      3400 2.78088E-02
 -1      3401 3.70298E-02
 -1      3402 3.19278E-02
 -1      3403 4.77555E-02
 -1      3404 6.10060E-02
 -1      3405 4.50021E-02
 -1      3406 7.56244E-02
 -1      3407 9.41542E-02
 -1      3408 7.03461E-02
 -1      3409 1.11244E-01
 -1      3410 1.35824E-01
 -1      3411 1.02055E-01
 -1      3412 1.62959E-01
 -1      3413 2.00812E-01
 -1      3414 1.46280E-01
 -1      3415 2.35319E-01
 -1      3416 2.88291E-01
 -1      3417 2.07922E-01
 -1      3418 3.34259E-01
 -1      3419 4.09869E-01
 -1      3420 2.88397E-01
 -1      3421 4.70667E-01
 -1      3422 5.79220E-01
 -1      3423 3.95162E-01
 -1      3424 6.70815E-01
 -1      3425 8.28236E-01
 -1      3426 5.47556E-01
 -1      3427 9.66512E-01
 -1      3428 1.17177E+00
 -1      3429 7.77428E-01
 -1      3430 1.43317E+00
 -1      3431 1.80669E+00
 -1      3432 1.17711E+00
 -1      3433 2.18403E+00
 -1      3434 2.75677E+00
 -1      3435 1.81584E+00
 -1      3436 3.35500E+00
 -1      3437 4.42944E+00
 -1      3438 2.79141E+00
 -1      3439 5.72381E+00
 -1      3440 8.13315E+00
 -1      3441 8.13315E+00
 -1      3442 4.68401E+00
 -1      3443 2.06258E-01
 -1      3444 2.24755E-01
 -1      3445 2.47501E+00
 -1      3446 2.86516E+00
 -1      3447 1.13065E-01
 -1      3448 1.25356E-01
 -1      3449 9.49670E+00
 -1      3450 7.49904E+00
 -1      3451 6.77256E+00
 -1      3452 9.49670E+00
 -1      3453 9.24289E-02
 -1      3454 1.03525E-01
 -1      3455 1.05337E-01
 -1      3456 7.36523E-02
 -1      3457 8.34385E-02
 -1      3458 8.68072E-02
 -1      3459 5.68712E-02
 -1      3460 6.54318E-02
 -1      3461 6.95963E-02
 -1      3462 4.18985E-02
 -1      3463 4.94449E-02
 -1      3464 5.39494E-02
 -1      3465 2.89521E-02
 -1      3466 3.51464E-02
 -1      3467 3.97710E-02
 -1      3468 1.91119E-02
 -1      3469 2.34820E-02
 -1      3470 2.75488E-02
 -1      3471 1.96728E-02
 -1      3472 1.86639E-02
 -1      3473 2.16306E-02
 -1      3474 2.94639E-02
 -1      3475 2.25485E-02
 -1      3476 2.40583E-02
 -1      3477 4.41800E-02
 -1      3478 3.62940E-02
 -1      3479 3.37642E-02
 -1      3480 6.05666E-02
 -1      3481 5.17808E-02
 -1      3482 4.81950E-02
 -1      3483 7.92134E-02
 -1      3484 6.99324E-02
 -1      3485 6.51615E-02
 -1      3486 1.00770E-01
 -1      3487 9.15519E-02
 -1      3488 8.68658E-02
 -1      3489 1.25457E-01
 -1      3490 1.14358E-01
 -1      3491 1.12792E-01
 -1      3492 1.54221E-01
 -1      3493 1.41352E-01
 -1      3494 1.42275E-01
 -1      3495 1.91321E-01
 -1      3496 1.77432E-01
 -1      3497 1.81380E-01
 -1      3498 2.55545E-01
 -1      3499 2.21012E-01
 -1      3500 2.34282E-01
 -1      3501 3.54633E-01
 -1      3502 3.00876E-01
 -1      3503 3.09303E-01
 -1      3504 4.81882E-01
 -1      3505 4.23460E-01
 -1      3506 4.23460E-01
 -1      3507 6.62220E-01
 -1      3508 5.74470E-01
 -1      3509 5.84875E-01
 -1      3510 8.41660E-01
 -1      3511 7.50854E-01
 -1      3512 7.66097E-01
 -1      3513 1.03048E+00
 -1      3514 9.29534E-01
 -1      3515 9.42606E-01
 -1      3516 1.21691E+00
 -1      3517 1.16880E+00
 -1      3518 1.16880E+00
 -1      3519 1.31200E+00
 -1      3520 1.25220E+00
 -1      3521 1.34242E+00
 -1      3522 1.78546E+00
 -1      3523 1.69093E+00
 -1      3524 1.75664E+00
 -1      3525 2.29015E+00
 -1      3526 2.22707E+00
 -1      3527 2.57718E+00
 -1      3528 2.28838E+00
 -1      3529 2.31517E+00
 -1      3530 3.04381E+00
 -1      3531 2.10250E+00
 -1      3532 2.09446E+00
 -1      3533 2.87490E+00
 -1      3534 1.65428E+00
 -1      3535 1.68850E+00
 -1      3536 2.26696E+00
 -1      3537 1.51372E+00
 -1      3538 1.61266E+00
 -1      3539 1.81133E+00
 -1      3540 1.49680E+00
 -1      3541 1.51820E+00
 -1      3542 1.77419E+00
 -1      3543 1.19451E+00
 -1      3544 1.25893E+00
 -1      3545 1.54080E+00
 -1      3546 9.97863E-01
 -1      3547 1.08610E+00
 -1      3548 1.19451E+00
 -1      3549 6.60674E+00
 -1      3550 5.79233E+00
 -1      3551 6.55845E+00
 -1      3552 7.21333E+00
 -1      3553 3.28585E-01
 -1      3554 3.50278E+00
 -1      3555 3.51245E+00
 -1      3556 7.31927E+00
 -1      3557 6.25283E+00
 -1      3558 8.36672E-01
 -1      3559 7.90394E-01
 -1      3560 8.19164E-01
 -1      3561 9.66208E-01
 -1      3562 8.51717E+00
 -1      3563 8.04323E+00
 -1      3564 6.02246E+00
 -1      3565 6.36240E+00
 -1      3566 8.06605E+00
 -1      3567 9.49670E+00
 -1      3568 1.34933E-01
 -1      3569 1.47997E-01
 -1      3570 1.24454E-01
 -1      3571 5.12020E+00
 -1      3572 6.10533E+00
 -1      3573 3.84593E+00
 -1      3574 3.57881E+00
 -1      3575 2.84115E+00
 -1      3576 2.71838E+00
 -1      3577 2.57828E-01
 -1      3578 2.26512E-01
 -1      3579 2.57728E-01
 -1      3580 3.43261E+00
 -1      3581 4.30980E+00
 -1      3582 2.79227E-01
 -1      3583 2.39691E-01
 -1      3584 2.37508E-01
 -1      3585 2.17431E-01
 -1      3586 2.02805E-01
 -1      3587 2.31443E-01
 -1      3588 2.47718E-01
 -1      3589 2.58774E+00
 -1      3590 2.79372E+00
 -1      3591 5.43508E+00
 -1      3592 5.60026E+00
 -1      3593 3.99335E+00
 -1      3594 4.64592E+00
 -1      3595 2.58825E+00
 -1      3596 2.42392E+00
 -1      3597 6.60674E+00
 -1      3598 7.59365E+00
 -1      3599 8.92683E-01
 -1      3600 1.83951E+00
 -1      3601 1.50515E+00
 -1      3602 2.35148E+00
 -1      3603 3.33456E+00
 -1      3604 6.74093E+00
 -1      3605 2.44009E+00
 -1      3606 1.95706E-01
 -1      3607 1.85565E-01
 -1      3608 1.81450E-01
 -1      3609 3.47777E+00
 -1      3610 3.04381E+00
 -1      3611 2.80732E+00
 -1      3612 3.01852E+00
 -1      3613 2.46171E+00
 -1      3614 3.19936E+00
 -1      3615 1.16315E+00
 -1      3616 1.06988E+00
 -1      3617 1.42507E+00
 -1      3618 2.59398E-01
 -1      3619 2.54630E-01
 -1      3620 1.92413E-01
 -1      3621 3.87650E+00
 -1      3622 2.44073E-01
 -1      3623 3.00410E+00
 -1      3624 2.81509E+00
 -1      3625 3.14063E+00
 -1      3626 2.52437E-01
 -1      3627 2.52437E-01
 -1      3628 4.17156E+00
 -1      3629 4.93960E+00
 -1      3630 4.54516E+00
 -1      3631 2.85141E-01
 -1      3632 1.56694E-01
 -1      3633 1.69657E-01
 -1      3634 1.63219E-01
 -1      3635 1.42729E-01
 -1      3636 2.64054E-01
 -1      3637 2.60340E-01
 -1      3638 2.27965E-01
 -1      3639 2.23355E-01
 -1      3640 1.73801E-01
 -1      3641 2.48023E-01
 -1      3642 2.58692E-01
 -1      3643 1.74765E-01
 -1      3644 2.09798E-01
 -1      3645 9.80915E-01
 -1      3646 1.07139E+00
 -1      3647 1.35933E-01
 -1      3648 1.46159E-01
 -1      3649 1.57723E-01
 -1      3650 1.57705E-01
 -1      3651 1.21007E-01
 -1      3652 1.60679E-01
 -1      3653 1.54647E-01
 -1      3654 1.35544E-01
 -1      3655 1.52199E-01
 -1      3656 1.43017E-01
 -1      3657 1.36070E-01
 -1      3658 1.37483E-01
 -1      3659 1.27785E-01
 -1      3660 1.28088E-01
 -1      3661 1.20529E-01
 -1      3662 1.12795E-01
 -1      3663 1.15298E-01
 -1      3664 1.05740E-01
 -1      3665 9.71410E-02
 -1      3666 1.00986E-01
 -1      3667 9.05405E-02
 -1      3668 8.19952E-02
 -1      3669 8.73304E-02
 -1      3670 7.53256E-02
 -1      3671 6.72827E-02
 -1      3672 7.40602E-02
 -1      3673 6.09159E-02
 -1      3674 5.35421E-02
 -1      3675 6.10238E-02
 -1      3676 4.77602E-02
 -1      3677 4.11550E-02
 -1      3678 4.88751E-02
 -1      3679 3.70599E-02
 -1      3680 3.15650E-02
 -1      3681 3.89980E-02
 -1      3682 3.15641E-02
 -1      3683 3.22400E-02
 -1      3684 3.49019E-02
 -1      3685 3.35614E-02
 -1      3686 3.59101E-02
 -1      3687 3.62224E-02
 -1      3688 3.94065E-02
 -1      3689 5.01321E-02
 -1      3690 4.10402E-02
 -1      3691 5.95094E-02
 -1      3692 7.41278E-02
 -1      3693 5.39138E-02
 -1      3694 8.43583E-02
 -1      3695 1.01448E-01
 -1      3696 7.35216E-02
 -1      3697 1.18453E-01
 -1      3698 1.45588E-01
 -1      3699 1.00756E-01
 -1      3700 1.70368E-01
 -1      3701 2.04876E-01
 -1      3702 1.42541E-01
 -1      3703 2.42498E-01
 -1      3704 2.88466E-01
 -1      3705 2.04944E-01
 -1      3706 3.42048E-01
 -1      3707 4.02846E-01
 -1      3708 2.96149E-01
 -1      3709 4.77881E-01
 -1      3710 5.69476E-01
 -1      3711 4.24766E-01
 -1      3712 6.52909E-01
 -1      3713 7.91185E-01
 -1      3714 5.83234E-01
 -1      3715 9.39394E-01
 -1      3716 1.20080E+00
 -1      3717 8.14875E-01
 -1      3718 1.52997E+00
 -1      3719 1.90730E+00
 -1      3720 1.29226E+00
 -1      3721 2.32944E+00
 -1      3722 2.92767E+00
 -1      3723 2.04357E+00
 -1      3724 3.45170E+00
 -1      3725 4.74606E+00
 -1      3726 5.13008E+00
 -1      3727 2.98972E+00
 -1      3728 2.42487E-01
 -1      3729 2.46764E-01
 -1      3730 2.10675E-01
 -1      3731 6.60674E+00
 -1      3732 2.36394E+00
 -1      3733 2.00247E+00
 -1      3734 2.78985E+00
 -1      3735 3.13748E+00
 -1      3736 4.90249E-02
 -1      3737 5.64512E-02
 -1      3738 3.61411E-02
 -1      3739 4.28933E-02
 -1      3740 4.53950E-02
 -1      3741 2.64619E-02
 -1      3742 3.19320E-02
 -1      3743 3.50543E-02
 -1      3744 2.56759E-02
 -1      3745 2.61239E-02
 -1      3746 3.05072E-02
 -1      3747 2.90697E-02
 -1      3748 2.61939E-02
 -1      3749 3.06872E-02
 -1      3750 4.05942E-02
 -1      3751 3.37642E-02
 -1      3752 3.58997E-02
 -1      3753 5.57958E-02
 -1      3754 4.81950E-02
 -1      3755 4.81950E-02
 -1      3756 7.33206E-02
 -1      3757 6.39549E-02
 -1      3758 6.39549E-02
 -1      3759 9.67375E-02
 -1      3760 8.43990E-02
 -1      3761 8.31923E-02
 -1      3762 1.23218E-01
 -1      3763 1.09630E-01
 -1      3764 1.07164E-01
 -1      3765 1.60687E-01
 -1      3766 1.44792E-01
 -1      3767 1.41630E-01
 -1      3768 2.10900E-01
 -1      3769 1.87690E-01
 -1      3770 1.90207E-01
 -1      3771 2.72976E-01
 -1      3772 2.43284E-01
 -1      3773 2.49594E-01
 -1      3774 3.68294E-01
 -1      3775 3.22963E-01
 -1      3776 3.31966E-01
 -1      3777 4.98391E-01
 -1      3778 4.29564E-01
 -1      3779 4.43224E-01
 -1      3780 6.77463E-01
 -1      3781 5.84875E-01
 -1      3782 5.90979E-01
 -1      3783 8.92001E-01
 -1      3784 8.03366E-01
 -1      3785 8.03366E-01
 -1      3786 1.14908E+00
 -1      3787 1.06121E+00
 -1      3788 1.09848E+00
 -1      3789 1.36451E+00
 -1      3790 1.22619E+00
 -1      3791 1.34479E+00
 -1      3792 1.66387E+00
 -1      3793 1.62857E+00
 -1      3794 1.68596E+00
 -1      3795 2.12395E+00
 -1      3796 1.74503E+00
 -1      3797 2.03118E+00
 -1      3798 3.04381E+00
 -1      3799 3.01879E+00
 -1      3800 3.14063E+00
 -1      3801 3.33456E+00
 -1      3802 2.26696E+00
 -1      3803 2.68097E+00
 -1      3804 2.22534E+00
 -1      3805 1.77867E+00
 -1      3806 1.77419E+00
 -1      3807 1.54080E+00
 -1      3808 1.77867E+00
 -1      3809 2.93588E+00
 -1      3810 2.35148E+00
 -1      3811 1.85682E+00
 -1      3812 2.42426E+00
 -1      3813 6.31233E-02
 -1      3814 7.13438E-02
 -1      3815 5.81987E-02
 -1      3816 2.72788E-01
 -1      3817 2.72788E-01
 -1      3818 2.43002E-01
 -1      3819 1.11607E-01
 -1      3820 1.21184E-01
 -1      3821 2.68745E-01
 -1      3822 2.72788E-01
 -1      3823 2.56392E-01
 -1      3824 2.47987E-01
 -1      3825 1.08459E+00
 -1      3826 2.65156E+00
 -1      3827 2.80732E+00
 -1      3828 7.85041E-02
 -1      3829 8.74946E-02
 -1      3830 7.20312E-02
 -1      3831 3.27059E+00
 -1      3832 2.06588E-01
 -1      3833 1.26580E-01
 -1      3834 1.30184E-01
 -1      3835 1.03694E-01
 -1      3836 1.63778E-01
 -1      3837 1.72215E-01
 -1      3838 3.99335E+00
 -1      3839 3.87650E+00
 -1      3840 9.48924E-02
 -1      3841 1.04432E-01
 -1      3842 8.65893E-02
 -1      3843 1.73070E-01
 -1      3844 1.78742E-01
 -1      3845 3.31405E+00
 -1      3846 3.19720E+00
 -1      3847 2.63692E+00
 -1      3848 2.22982E+00
 -1      3849 4.16051E+00
 -1      3850 3.95892E+00
 -1      3851 4.36340E+00
 -1      3852 3.71083E+00
 -1      3853 3.99335E+00
 -1      3854 1.16097E-01
 -1      3855 1.28944E-01
 -1      3856 1.37642E-01
 -1      3857 2.57718E+00
 -1      3858 2.56556E+00
 -1      3859 3.01879E+00
 -1      3860 1.77867E+00
 -1      3861 1.19451E+00
 -1      3862 1.30293E+00
 -1      3863 1.63302E+00
 -1      3864 2.21162E+00
 -1      3865 3.14852E+00
 -1      3866 1.86785E-01
 -1      3867 1.98402E-01
 -1      3868 1.49179E-01
 -1      3869 3.01879E+00
 -1      3870 4.61364E+00
 -1      3871 5.35177E+00
 -1      3872 4.62781E+00
 -1      3873 3.69272E+00
 -1      3874 3.73543E+00
 -1      3875 1.01162E-01
 -1      3876 2.03430E+00
 -1      3877 1.44990E+00
 -1      3878 1.10790E+00
 -1      3879 1.31004E+00
 -1      3880 3.14852E+00
 -1      3881 2.13914E+00
 -1      3882 2.50637E+00
 -1      3883 2.05314E+00
 -1      3884 2.31651E+00
 -1      3885 1.54080E+00
 -1      3886 1.63393E-01
 -1      3887 1.73946E-01
 -1      3888 1.40282E-01
 -1      3889 1.53634E-01
 -1      3890 1.75807E-01
 -1      3891 1.82494E-01
 -1      3892 1.74765E-01
 -1      3893 1.39427E-01
 -1      3894 1.40282E-01
 -1      3895 7.64521E-02
 -1      3896 8.38499E-02
 -1      3897 1.15121E-01
 -1      3898 1.18095E-01
 -1      3899 1.21602E-01
 -1      3900 1.19154E-01
 -1      3901 1.01179E-01
 -1      3902 1.18224E-01
 -1      3903 1.12690E-01
 -1      3904 1.03756E-01
 -1      3905 1.09001E-01
 -1      3906 1.01745E-01
 -1      3907 9.91371E-02
 -1      3908 9.64587E-02
 -1      3909 8.94034E-02
 -1      3910 9.01620E-02
 -1      3911 8.34324E-02
 -1      3912 7.68319E-02
 -1      3913 7.89049E-02
 -1      3914 7.11695E-02
 -1      3915 6.44999E-02
 -1      3916 6.72715E-02
 -1      3917 5.94958E-02
 -1      3918 5.31290E-02
 -1      3919 5.66051E-02
 -1      3920 4.85396E-02
 -1      3921 4.27577E-02
 -1      3922 4.70116E-02
 -1      3923 4.10350E-02
 -1      3924 3.69399E-02
 -1      3925 4.06996E-02
 -1      3926 3.61722E-02
 -1      3927 3.61712E-02
 -1      3928 3.82092E-02
 -1      3929 3.65052E-02
 -1      3930 3.78267E-02
 -1      3931 3.77755E-02
 -1      3932 4.10402E-02
 -1      3933 4.45365E-02
 -1      3934 4.13230E-02
 -1      3935 5.09045E-02
 -1      3936 6.02818E-02
 -1      3937 5.09045E-02
 -1      3938 6.79065E-02
 -1      3939 7.81369E-02
 -1      3940 6.48971E-02
 -1      3941 9.33949E-02
 -1      3942 1.10399E-01
 -1      3943 8.77798E-02
 -1      3944 1.29341E-01
 -1      3945 1.54122E-01
 -1      3946 1.21980E-01
 -1      3947 1.79755E-01
 -1      3948 2.17377E-01
 -1      3949 1.66555E-01
 -1      3950 2.50916E-01
 -1      3951 3.04498E-01
 -1      3952 2.25726E-01
 -1      3953 3.49731E-01
 -1      3954 4.24766E-01
 -1      3955 3.04498E-01
 -1      3956 5.09588E-01
 -1      3957 5.93020E-01
 -1      3958 4.34553E-01
 -1      3959 7.34263E-01
 -1      3960 8.82472E-01
 -1      3961 6.60617E-01
 -1      3962 1.07780E+00
 -1      3963 1.40698E+00
 -1      3964 9.97191E-01
 -1      3965 1.62195E+00
 -1      3966 2.04408E+00
 -1      3967 1.40749E+00
 -1      3968 3.41177E-02
 -1      3969 3.83268E-02
 -1      3970 3.42831E+00
 -1      3971 3.71083E+00
 -1      3972 3.71083E+00
 -1      3973 1.85319E-01
 -1      3974 1.71929E-01
 -1      3975 1.06095E-01
 -1      3976 4.02755E-02
 -1      3977 4.64071E-02
 -1      3978 3.93388E-02
 -1      3979 3.45985E-02
 -1      3980 3.40805E-02
 -1      3981 4.17726E-02
 -1      3982 3.70781E-02
 -1      3983 4.04714E-02
 -1      3984 5.45578E-02
 -1      3985 4.69571E-02
 -1      3986 4.81355E-02
 -1      3987 7.21139E-02
 -1      3988 6.39549E-02
 -1      3989 6.27169E-02
 -1      3990 9.42707E-02
 -1      3991 8.31923E-02
 -1      3992 8.31923E-02
 -1      3993 1.21130E-01
 -1      3994 1.08238E-01
 -1      3995 1.08238E-01
 -1      3996 1.63209E-01
 -1      3997 1.41635E-01
 -1      3998 1.42709E-01
 -1      3999 2.14976E-01
 -1      4000 1.87973E-01
 -1      4001 1.87978E-01
 -1      4002 2.92551E-01
 -1      4003 2.60167E-01
 -1      4004 2.57933E-01
 -1      4005 4.02538E-01
 -1      4006 3.52550E-01
 -1      4007 3.63123E-01
 -1      4008 5.28488E-01
 -1      4009 4.67218E-01
 -1      4010 4.87802E-01
 -1      4011 6.98049E-01
 -1      4012 6.11565E-01
 -1      4013 6.35558E-01
 -1      4014 9.58718E-01
 -1      4015 8.32815E-01
 -1      4016 8.53401E-01
 -1      4017 1.29411E+00
 -1      4018 1.12491E+00
 -1      4019 1.15435E+00
 -1      4020 1.74258E+00
 -1      4021 1.66548E+00
 -1      4022 1.69191E+00
 -1      4023 2.29239E+00
 -1      4024 2.02832E+00
 -1      4025 1.97199E+00
 -1      4026 3.06882E+00
 -1      4027 1.19300E+00
 -1      4028 1.57499E-01
 -1      4029 1.45880E-01
 -1      4030 1.45706E-01
 -1      4031 5.14933E-02
 -1      4032 5.81654E-02
 -1      4033 4.63738E-02
 -1      4034 1.63302E+00
 -1      4035 9.35469E-02
 -1      4036 1.05110E-01
 -1      4037 8.76606E-02
 -1      4038 1.21783E+00
 -1      4039 6.36332E-02
 -1      4040 7.07935E-02
 -1      4041 6.80541E-02
 -1      4042 5.69278E-02
 -1      4043 8.98135E-02
 -1      4044 9.69879E-02
 -1      4045 7.96762E-02
 -1      4046 3.34231E-02
 -1      4047 3.37611E-02
 -1      4048 3.73344E-02
 -1      4049 1.84911E-01
 -1      4050 1.85216E-01
 -1      4051 1.49878E-01
 -1      4052 1.57912E-01
 -1      4053 1.45570E+00
 -1      4054 3.70336E-02
 -1      4055 2.46570E+00
 -1      4056 2.98972E+00
 -1      4057 3.21141E+00
 -1      4058 2.04408E+00
 -1      4059 2.74579E+00
 -1      4060 3.02831E+00
 -1      4061 1.92286E-01
 -1      4062 1.21212E-01
 -1      4063 1.92286E-01
 -1      4064 1.03528E-01
 -1      4065 1.11289E-01
 -1      4066 9.21802E-02
 -1      4067 2.34901E+00
 -1      4068 1.31922E-01
 -1      4069 1.16555E-01
 -1      4070 1.24597E-01
 -1      4071 1.15700E-01
 -1      4072 1.57222E-01
 -1      4073 1.98402E-01
 -1      4074 2.06807E-01
 -1      4075 1.24597E-01
 -1      4076 8.67064E-02
 -1      4077 9.24561E-02
 -1      4078 7.65589E-02
 -1      4079 9.48567E-02
 -1      4080 1.28331E-01
 -1      4081 1.34224E-01
 -1      4082 1.34409E-01
 -1      4083 1.36270E-01
 -1      4084 1.16860E-01
 -1      4085 3.26578E+00
 -1      4086 3.00137E+00
 -1      4087 2.52007E+00
 -1      4088 3.00137E+00
 -1      4089 3.00137E+00
 -1      4090 2.57443E+00
 -1      4091 2.29455E+00
 -1      4092 9.01054E-02
 -1      4093 8.91756E-02
 -1      4094 8.86192E-02
 -1      4095 8.49300E-02
 -1      4096 7.49684E-02
 -1      4097 8.55046E-02
 -1      4098 8.02186E-02
 -1      4099 7.49866E-02
 -1      4100 7.50440E-02
 -1      4101 6.90729E-02
 -1      4102 7.03866E-02
 -1      4103 6.59773E-02
 -1      4104 6.03150E-02
 -1      4105 6.21164E-02
 -1      4106 5.72694E-02
 -1      4107 5.22653E-02
 -1      4108 5.59751E-02
 -1      4109 4.83455E-02
 -1      4110 4.37561E-02
 -1      4111 4.90097E-02
 -1      4112 4.24222E-02
 -1      4113 4.06996E-02
 -1      4114 4.37561E-02
 -1      4115 3.89769E-02
 -1      4116 3.82092E-02
 -1      4117 4.06996E-02
 -1      4118 3.79990E-02
 -1      4119 3.83330E-02
 -1      4120 3.87667E-02
 -1      4121 4.03993E-02
 -1      4122 4.36128E-02
 -1      4123 4.06228E-02
 -1      4124 4.82820E-02
 -1      4125 5.46499E-02
 -1      4126 4.73582E-02
 -1      4127 5.96123E-02
 -1      4128 6.72370E-02
 -1      4129 5.69898E-02
 -1      4130 7.76670E-02
 -1      4131 9.29250E-02
 -1      4132 7.23822E-02
 -1      4133 1.07293E-01
 -1      4134 1.26235E-01
 -1      4135 9.71804E-02
 -1      4136 1.58871E-01
 -1      4137 1.84504E-01
 -1      4138 1.44184E-01
 -1      4139 2.35967E-01
 -1      4140 2.69505E-01
 -1      4141 2.28282E-01
 -1      4142 3.46533E-01
 -1      4143 3.91766E-01
 -1      4144 3.56773E-01
 -1      4145 4.95730E-01
 -1      4146 5.80552E-01
 -1      4147 5.37765E-01
 -1      4148 7.29439E-01
 -1      4149 8.70681E-01
 -1      4150 7.90616E-01
 -1      4151 1.05922E+00
 -1      4152 1.25455E+00
 -1      4153 1.12804E+00
 -1      4154 1.49402E+00
 -1      4155 1.70899E+00
 -1      4156 1.55605E+00
 -1      4157 3.86978E-02
 -1      4158 4.06465E-02
 -1      4159 5.41708E-02
 -1      4160 4.89864E-02
 -1      4161 4.29510E-02
 -1      4162 4.04714E-02
 -1      4163 4.89864E-02
 -1      4164 1.02910E-01
 -1      4165 9.18313E-02
 -1      4166 1.41016E-01
 -1      4167 1.27050E-01
 -1      4168 1.35689E-01
 -1      4169 1.94842E-01
 -1      4170 1.74337E-01
 -1      4171 1.93149E-01
 -1      4172 2.64544E-01
 -1      4173 2.39781E-01
 -1      4174 2.71408E-01
 -1      4175 3.70725E-01
 -1      4176 3.25534E-01
 -1      4177 3.77337E-01
 -1      4178 5.45397E-01
 -1      4179 4.85398E-01
 -1      4180 5.52999E-01
 -1      4181 7.70357E-01
 -1      4182 7.05678E-01
 -1      4183 8.27953E-01
 -1      4184 1.06270E+00
 -1      4185 9.79621E-01
 -1      4186 1.19750E+00
 -1      4187 1.46528E+00
 -1      4188 1.33051E+00
 -1      4189 1.67457E+00
 -1      4190 1.94749E+00
 -1      4191 1.78130E+00
 -1      4192 2.37443E+00
 -1      4193 1.16852E-01
 -1      4194 1.24916E-01
 -1      4195 1.13261E-01
 -1      4196 1.04283E-01
 -1      4197 8.48953E-02
 -1      4198 8.84025E-02
 -1      4199 7.38220E-02
 -1      4200 3.70336E-02
 -1      4201 3.73901E-02
 -1      4202 3.86978E-02
 -1      4203 4.27481E-02
 -1      4204 4.78343E-02
 -1      4205 4.21070E-02
 -1      4206 6.72332E-02
 -1      4207 7.72442E-02
 -1      4208 6.44680E-02
 -1      4209 3.82742E-02
 -1      4210 3.76168E-02
 -1      4211 3.79733E-02
 -1      4212 7.45424E-02
 -1      4213 6.51454E-02
 -1      4214 6.59963E-02
 -1      4215 6.98729E-02
 -1      4216 7.58365E-02
 -1      4217 1.22033E-01
 -1      4218 1.11582E-01
 -1      4219 8.78548E-02
 -1      4220 1.78243E+00
 -1      4221 2.20404E+00
 -1      4222 2.25841E+00
 -1      4223 1.86896E+00
 -1      4224 1.42700E-01
 -1      4225 1.06796E-01
 -1      4226 9.98286E-02
 -1      4227 8.04400E-02
 -1      4228 7.18493E-02
 -1      4229 8.16526E-02
 -1      4230 8.81929E-02
 -1      4231 9.42597E-02
 -1      4232 4.07538E-02
 -1      4233 2.25841E+00
 -1      4234 4.69931E-02
 -1      4235 5.06188E-02
 -1      4236 5.60866E-02
 -1      4237 1.01922E-01
 -1      4238 1.02107E-01
 -1      4239 9.88617E-02
 -1      4240 1.02276E-01
 -1      4241 8.75230E-02
 -1      4242 1.38687E-01
 -1      4243 2.25841E+00
 -1      4244 6.56817E-02
 -1      4245 6.67724E-02
 -1      4246 5.63560E-02
 -1      4247 7.06535E-02
 -1      4248 5.91651E-02
 -1      4249 6.48237E-02
 -1      4250 6.09840E-02
 -1      4251 5.28562E-02
 -1      4252 7.91258E-02
 -1      4253 7.85694E-02
 -1      4254 1.23188E-01
 -1      4255 1.08667E-01
 -1      4256 9.05639E-02
 -1      4257 7.60387E-02
 -1      4258 7.66133E-02
 -1      4259 8.01960E-02
 -1      4260 7.66133E-02
 -1      4261 7.14387E-02
 -1      4262 6.56226E-02
 -1      4263 6.25270E-02
 -1      4264 5.74778E-02
 -1      4265 5.44321E-02
 -1      4266 5.13536E-02
 -1      4267 4.74338E-02
 -1      4268 4.46493E-02
 -1      4269 4.33154E-02
 -1      4270 4.12138E-02
 -1      4271 3.94912E-02
 -1      4272 3.81835E-02
 -1      4273 3.79733E-02
 -1      4274 3.85565E-02
 -1      4275 4.06228E-02
 -1      4276 4.28200E-02
 -1      4277 4.74892E-02
 -1      4278 5.35246E-02
 -1      4279 5.84870E-02
 -1      4280 6.94615E-02
 -1      4281 7.98915E-02
 -1      4282 9.71804E-02
 -1      4283 1.11549E-01
 -1      4284 1.35689E-01
 -1      4285 1.68324E-01
 -1      4286 2.01644E-01
 -1      4287 2.53107E-01
 -1      4288 2.98046E-01
 -1      4289 3.75074E-01
 -1      4290 4.36063E-01
 -1      4291 5.40027E-01
 -1      4292 6.54701E-01
 -1      4293 8.03588E-01
 -1      4294 9.63868E-01
 -1      4295 1.15241E+00
 -1      4296 1.36167E+00
 -1      4297 1.60114E+00
 -1      4298 1.86896E+00
 -1      4299 9.10075E-02
 -1      4300 9.65706E-02
 -1      4301 8.55858E-02
 -1      4302 8.04800E-02
 -1      4303 1.00391E-01
 -1      4304 7.02768E-02
 -1      4305 7.79280E-02
 -1      4306 8.54530E-02
 -1      4307 1.00391E-01
 -1      4308 1.94239E+00
 -1      4309 8.72834E-02
 -1      4310 7.82097E-02
 -1      4311 7.64936E-02
 -1      4312 7.06847E-02
 -1      4313 7.85636E-02
 -1      4314 6.20360E-02
 -1      4315 7.54961E-02
 -1      4316 6.15752E-02
 -1      4317 8.37369E-02
 -1      4318 7.23876E-02
 -1      4319 7.59885E-02
 -1      4320 8.30107E-02
 -1      4321 8.04800E-02
 -1      4322 7.76654E-02
 -1      4323 7.25251E-02
 -1      4324 7.82051E-02
 -1      4325 8.53018E-02
 -1      4326 7.54961E-02
 -1      4327 7.96140E-02
 -3
 9999
