    1C
    1UUSER                                                              
    1UDATE              27.october.2022                                 
    1UTIME              00:33:08                                        
    1UHOST                                                              
    1UPGM               CalculiX                                        
    1UVERSION           Version 2.17                             
    1UCOMPILETIME       Thu Jul 23 21:43:50 CEST 2020                    
    1UDIR                                                               
    1UDBN                                                               
    1UMAT    1SOLIDMATERIAL                                             
    2C                          4308                                     1
 -1         1 1.10178E+02 3.14132E+01 0.00000E+00
 -1         2 1.23699E+02 2.88677E+01 0.00000E+00
 -1         3 1.50000E+02 0.00000E+00 0.00000E+00
 -1         4 1.50000E+02 5.00000E+01 0.00000E+00
 -1         5 0.00000E+00 0.00000E+00 0.00000E+00
 -1         6 0.00000E+00 5.00000E+01 0.00000E+00
 -1         7 0.00000E+00 4.70500E+01 0.00000E+00
 -1         8 0.00000E+00 4.41000E+01 0.00000E+00
 -1         9 0.00000E+00 4.11500E+01 0.00000E+00
 -1        10 0.00000E+00 3.82000E+01 0.00000E+00
 -1        11 0.00000E+00 3.52500E+01 0.00000E+00
 -1        12 0.00000E+00 3.23500E+01 0.00000E+00
 -1        13 0.00000E+00 2.94000E+01 0.00000E+00
 -1        14 0.00000E+00 2.64500E+01 0.00000E+00
 -1        15 0.00000E+00 2.35000E+01 0.00000E+00
 -1        16 0.00000E+00 2.05500E+01 0.00000E+00
 -1        17 0.00000E+00 1.76000E+01 0.00000E+00
 -1        18 0.00000E+00 1.47000E+01 0.00000E+00
 -1        19 0.00000E+00 1.17500E+01 0.00000E+00
 -1        20 0.00000E+00 8.80000E+00 0.00000E+00
 -1        21 0.00000E+00 5.85000E+00 0.00000E+00
 -1        22 0.00000E+00 2.90000E+00 0.00000E+00
 -1        23 3.15000E+00 5.00000E+01 0.00000E+00
 -1        24 6.15000E+00 5.00000E+01 0.00000E+00
 -1        25 9.15000E+00 5.00000E+01 0.00000E+00
 -1        26 1.21500E+01 5.00000E+01 0.00000E+00
 -1        27 1.51500E+01 5.00000E+01 0.00000E+00
 -1        28 1.81500E+01 5.00000E+01 0.00000E+00
 -1        29 2.11500E+01 5.00000E+01 0.00000E+00
 -1        30 2.41500E+01 5.00000E+01 0.00000E+00
 -1        31 2.71500E+01 5.00000E+01 0.00000E+00
 -1        32 3.01500E+01 5.00000E+01 0.00000E+00
 -1        33 3.31500E+01 5.00000E+01 0.00000E+00
 -1        34 3.61500E+01 5.00000E+01 0.00000E+00
 -1        35 3.91500E+01 5.00000E+01 0.00000E+00
 -1        36 4.21500E+01 5.00000E+01 0.00000E+00
 -1        37 4.51500E+01 5.00000E+01 0.00000E+00
 -1        38 4.81500E+01 5.00000E+01 0.00000E+00
 -1        39 5.11500E+01 5.00000E+01 0.00000E+00
 -1        40 5.41500E+01 5.00000E+01 0.00000E+00
 -1        41 5.71500E+01 5.00000E+01 0.00000E+00
 -1        42 6.01500E+01 5.00000E+01 0.00000E+00
 -1        43 6.31500E+01 5.00000E+01 0.00000E+00
 -1        44 6.61500E+01 5.00000E+01 0.00000E+00
 -1        45 6.91500E+01 5.00000E+01 0.00000E+00
 -1        46 7.21500E+01 5.00000E+01 0.00000E+00
 -1        47 7.51500E+01 5.00000E+01 0.00000E+00
 -1        48 7.81500E+01 5.00000E+01 0.00000E+00
 -1        49 8.11500E+01 5.00000E+01 0.00000E+00
 -1        50 8.41500E+01 5.00000E+01 0.00000E+00
 -1        51 8.71500E+01 5.00000E+01 0.00000E+00
 -1        52 9.01500E+01 5.00000E+01 0.00000E+00
 -1        53 9.31500E+01 5.00000E+01 0.00000E+00
 -1        54 9.61500E+01 5.00000E+01 0.00000E+00
 -1        55 9.91500E+01 5.00000E+01 0.00000E+00
 -1        56 1.02150E+02 5.00000E+01 0.00000E+00
 -1        57 1.05150E+02 5.00000E+01 0.00000E+00
 -1        58 1.08150E+02 5.00000E+01 0.00000E+00
 -1        59 1.11150E+02 5.00000E+01 0.00000E+00
 -1        60 1.14150E+02 5.00000E+01 0.00000E+00
 -1        61 1.17150E+02 5.00000E+01 0.00000E+00
 -1        62 1.20150E+02 5.00000E+01 0.00000E+00
 -1        63 1.23150E+02 5.00000E+01 0.00000E+00
 -1        64 1.26150E+02 5.00000E+01 0.00000E+00
 -1        65 1.29150E+02 5.00000E+01 0.00000E+00
 -1        66 1.32150E+02 5.00000E+01 0.00000E+00
 -1        67 1.35150E+02 5.00000E+01 0.00000E+00
 -1        68 1.38150E+02 5.00000E+01 0.00000E+00
 -1        69 1.41150E+02 5.00000E+01 0.00000E+00
 -1        70 1.44150E+02 5.00000E+01 0.00000E+00
 -1        71 1.47150E+02 5.00000E+01 0.00000E+00
 -1        72 3.15000E+00 0.00000E+00 0.00000E+00
 -1        73 6.15000E+00 0.00000E+00 0.00000E+00
 -1        74 9.15000E+00 0.00000E+00 0.00000E+00
 -1        75 1.21500E+01 0.00000E+00 0.00000E+00
 -1        76 1.51500E+01 0.00000E+00 0.00000E+00
 -1        77 1.81500E+01 0.00000E+00 0.00000E+00
 -1        78 2.11500E+01 0.00000E+00 0.00000E+00
 -1        79 2.41500E+01 0.00000E+00 0.00000E+00
 -1        80 2.71500E+01 0.00000E+00 0.00000E+00
 -1        81 3.01500E+01 0.00000E+00 0.00000E+00
 -1        82 3.31500E+01 0.00000E+00 0.00000E+00
 -1        83 3.61500E+01 0.00000E+00 0.00000E+00
 -1        84 3.91500E+01 0.00000E+00 0.00000E+00
 -1        85 4.21500E+01 0.00000E+00 0.00000E+00
 -1        86 4.51500E+01 0.00000E+00 0.00000E+00
 -1        87 4.81500E+01 0.00000E+00 0.00000E+00
 -1        88 5.11500E+01 0.00000E+00 0.00000E+00
 -1        89 5.41500E+01 0.00000E+00 0.00000E+00
 -1        90 5.71500E+01 0.00000E+00 0.00000E+00
 -1        91 6.01500E+01 0.00000E+00 0.00000E+00
 -1        92 6.31500E+01 0.00000E+00 0.00000E+00
 -1        93 6.61500E+01 0.00000E+00 0.00000E+00
 -1        94 6.91500E+01 0.00000E+00 0.00000E+00
 -1        95 7.21500E+01 0.00000E+00 0.00000E+00
 -1        96 7.51500E+01 0.00000E+00 0.00000E+00
 -1        97 7.81500E+01 0.00000E+00 0.00000E+00
 -1        98 8.11500E+01 0.00000E+00 0.00000E+00
 -1        99 8.41500E+01 0.00000E+00 0.00000E+00
 -1       100 8.71500E+01 0.00000E+00 0.00000E+00
 -1       101 9.01500E+01 0.00000E+00 0.00000E+00
 -1       102 9.31500E+01 0.00000E+00 0.00000E+00
 -1       103 9.61500E+01 0.00000E+00 0.00000E+00
 -1       104 9.91500E+01 0.00000E+00 0.00000E+00
 -1       105 1.02150E+02 0.00000E+00 0.00000E+00
 -1       106 1.05150E+02 0.00000E+00 0.00000E+00
 -1       107 1.08150E+02 0.00000E+00 0.00000E+00
 -1       108 1.11150E+02 0.00000E+00 0.00000E+00
 -1       109 1.14150E+02 0.00000E+00 0.00000E+00
 -1       110 1.17150E+02 0.00000E+00 0.00000E+00
 -1       111 1.20150E+02 0.00000E+00 0.00000E+00
 -1       112 1.23150E+02 0.00000E+00 0.00000E+00
 -1       113 1.26150E+02 0.00000E+00 0.00000E+00
 -1       114 1.29150E+02 0.00000E+00 0.00000E+00
 -1       115 1.32150E+02 0.00000E+00 0.00000E+00
 -1       116 1.35150E+02 0.00000E+00 0.00000E+00
 -1       117 1.38150E+02 0.00000E+00 0.00000E+00
 -1       118 1.41150E+02 0.00000E+00 0.00000E+00
 -1       119 1.44150E+02 0.00000E+00 0.00000E+00
 -1       120 1.47150E+02 0.00000E+00 0.00000E+00
 -1       121 1.50000E+02 2.95000E+00 0.00000E+00
 -1       122 1.50000E+02 5.90000E+00 0.00000E+00
 -1       123 1.50000E+02 8.85000E+00 0.00000E+00
 -1       124 1.50000E+02 1.18000E+01 0.00000E+00
 -1       125 1.50000E+02 1.47500E+01 0.00000E+00
 -1       126 1.50000E+02 1.76500E+01 0.00000E+00
 -1       127 1.50000E+02 2.06000E+01 0.00000E+00
 -1       128 1.50000E+02 2.35500E+01 0.00000E+00
 -1       129 1.50000E+02 2.65000E+01 0.00000E+00
 -1       130 1.50000E+02 2.94500E+01 0.00000E+00
 -1       131 1.50000E+02 3.24000E+01 0.00000E+00
 -1       132 1.50000E+02 3.53000E+01 0.00000E+00
 -1       133 1.50000E+02 3.82500E+01 0.00000E+00
 -1       134 1.50000E+02 4.12000E+01 0.00000E+00
 -1       135 1.50000E+02 4.41500E+01 0.00000E+00
 -1       136 1.50000E+02 4.71000E+01 0.00000E+00
 -1       137 1.23554E+02 2.74526E+01 0.00000E+00
 -1       138 1.23124E+02 2.60894E+01 0.00000E+00
 -1       139 1.22445E+02 2.48703E+01 0.00000E+00
 -1       140 1.21497E+02 2.37713E+01 0.00000E+00
 -1       141 1.20297E+02 2.28636E+01 0.00000E+00
 -1       142 1.18984E+02 2.22513E+01 0.00000E+00
 -1       143 1.17608E+02 2.19271E+01 0.00000E+00
 -1       144 1.16160E+02 2.18885E+01 0.00000E+00
 -1       145 1.14727E+02 2.21512E+01 0.00000E+00
 -1       146 1.13320E+02 2.27371E+01 0.00000E+00
 -1       147 1.12055E+02 2.36296E+01 0.00000E+00
 -1       148 1.11095E+02 2.46726E+01 0.00000E+00
 -1       149 1.10304E+02 2.60213E+01 0.00000E+00
 -1       150 1.09868E+02 2.73398E+01 0.00000E+00
 -1       151 1.09701E+02 2.86893E+01 0.00000E+00
 -1       152 1.09809E+02 3.01062E+01 0.00000E+00
 -1       153 1.10851E+02 3.27153E+01 0.00000E+00
 -1       154 1.11802E+02 3.38699E+01 0.00000E+00
 -1       155 1.12968E+02 3.47910E+01 0.00000E+00
 -1       156 1.14313E+02 3.54486E+01 0.00000E+00
 -1       157 1.15722E+02 3.57993E+01 0.00000E+00
 -1       158 1.17328E+02 3.58394E+01 0.00000E+00
 -1       159 1.18810E+02 3.55418E+01 0.00000E+00
 -1       160 1.20197E+02 3.49310E+01 0.00000E+00
 -1       161 1.21387E+02 3.40663E+01 0.00000E+00
 -1       162 1.22396E+02 3.29342E+01 0.00000E+00
 -1       163 1.23111E+02 3.16753E+01 0.00000E+00
 -1       164 1.23550E+02 3.03035E+01 0.00000E+00
 -1       165 2.59800E+00 4.55750E+01 0.00000E+00
 -1       166 2.59800E+00 4.26250E+01 0.00000E+00
 -1       167 2.59800E+00 3.96750E+01 0.00000E+00
 -1       168 2.59800E+00 3.67250E+01 0.00000E+00
 -1       169 2.59800E+00 3.38250E+01 0.00000E+00
 -1       170 2.59800E+00 3.08750E+01 0.00000E+00
 -1       171 2.59800E+00 2.79250E+01 0.00000E+00
 -1       172 2.59800E+00 2.49750E+01 0.00000E+00
 -1       173 2.59800E+00 2.20250E+01 0.00000E+00
 -1       174 2.59800E+00 1.90750E+01 0.00000E+00
 -1       175 2.59800E+00 1.61750E+01 0.00000E+00
 -1       176 2.59800E+00 1.32250E+01 0.00000E+00
 -1       177 2.59800E+00 1.02750E+01 0.00000E+00
 -1       178 2.59800E+00 7.32500E+00 0.00000E+00
 -1       179 2.59800E+00 4.37500E+00 0.00000E+00
 -1       180 2.87400E+00 2.18750E+00 0.00000E+00
 -1       181 4.65000E+00 4.74020E+01 0.00000E+00
 -1       182 7.65000E+00 4.74020E+01 0.00000E+00
 -1       183 1.06500E+01 4.74020E+01 0.00000E+00
 -1       184 1.36500E+01 4.74020E+01 0.00000E+00
 -1       185 1.66500E+01 4.74020E+01 0.00000E+00
 -1       186 1.96500E+01 4.74020E+01 0.00000E+00
 -1       187 2.26500E+01 4.74020E+01 0.00000E+00
 -1       188 2.56500E+01 4.74020E+01 0.00000E+00
 -1       189 2.86500E+01 4.74020E+01 0.00000E+00
 -1       190 3.16500E+01 4.74020E+01 0.00000E+00
 -1       191 3.46500E+01 4.74020E+01 0.00000E+00
 -1       192 3.76500E+01 4.74020E+01 0.00000E+00
 -1       193 4.06500E+01 4.74020E+01 0.00000E+00
 -1       194 4.36500E+01 4.74020E+01 0.00000E+00
 -1       195 4.66500E+01 4.74020E+01 0.00000E+00
 -1       196 4.96500E+01 4.74020E+01 0.00000E+00
 -1       197 5.26500E+01 4.74020E+01 0.00000E+00
 -1       198 5.56500E+01 4.74020E+01 0.00000E+00
 -1       199 5.86500E+01 4.74020E+01 0.00000E+00
 -1       200 6.16500E+01 4.74020E+01 0.00000E+00
 -1       201 6.46500E+01 4.74020E+01 0.00000E+00
 -1       202 6.76500E+01 4.74020E+01 0.00000E+00
 -1       203 7.06500E+01 4.74020E+01 0.00000E+00
 -1       204 7.36500E+01 4.74020E+01 0.00000E+00
 -1       205 7.66500E+01 4.74020E+01 0.00000E+00
 -1       206 7.96500E+01 4.74020E+01 0.00000E+00
 -1       207 8.26500E+01 4.74020E+01 0.00000E+00
 -1       208 8.56500E+01 4.74020E+01 0.00000E+00
 -1       209 8.86500E+01 4.74020E+01 0.00000E+00
 -1       210 9.16500E+01 4.74020E+01 0.00000E+00
 -1       211 9.46500E+01 4.74020E+01 0.00000E+00
 -1       212 9.76500E+01 4.74020E+01 0.00000E+00
 -1       213 1.00650E+02 4.74020E+01 0.00000E+00
 -1       214 1.03650E+02 4.74020E+01 0.00000E+00
 -1       215 1.06650E+02 4.74020E+01 0.00000E+00
 -1       216 1.09650E+02 4.74020E+01 0.00000E+00
 -1       217 1.12650E+02 4.74020E+01 0.00000E+00
 -1       218 1.15650E+02 4.74020E+01 0.00000E+00
 -1       219 1.18650E+02 4.74020E+01 0.00000E+00
 -1       220 1.21650E+02 4.74020E+01 0.00000E+00
 -1       221 1.24650E+02 4.74020E+01 0.00000E+00
 -1       222 1.27650E+02 4.74020E+01 0.00000E+00
 -1       223 1.30650E+02 4.74020E+01 0.00000E+00
 -1       224 1.33650E+02 4.74020E+01 0.00000E+00
 -1       225 1.36650E+02 4.74020E+01 0.00000E+00
 -1       226 1.39650E+02 4.74020E+01 0.00000E+00
 -1       227 1.42650E+02 4.74020E+01 0.00000E+00
 -1       228 1.45650E+02 4.74020E+01 0.00000E+00
 -1       229 5.87400E+00 2.18750E+00 0.00000E+00
 -1       230 8.87400E+00 2.18750E+00 0.00000E+00
 -1       231 1.18740E+01 2.18750E+00 0.00000E+00
 -1       232 1.48740E+01 2.18750E+00 0.00000E+00
 -1       233 1.78740E+01 2.18750E+00 0.00000E+00
 -1       234 2.08740E+01 2.18750E+00 0.00000E+00
 -1       235 2.38740E+01 2.18750E+00 0.00000E+00
 -1       236 2.68740E+01 2.18750E+00 0.00000E+00
 -1       237 2.98740E+01 2.18750E+00 0.00000E+00
 -1       238 3.28740E+01 2.18750E+00 0.00000E+00
 -1       239 3.58740E+01 2.18750E+00 0.00000E+00
 -1       240 3.88740E+01 2.18750E+00 0.00000E+00
 -1       241 4.18740E+01 2.18750E+00 0.00000E+00
 -1       242 4.48740E+01 2.18750E+00 0.00000E+00
 -1       243 4.78740E+01 2.18750E+00 0.00000E+00
 -1       244 5.08740E+01 2.18750E+00 0.00000E+00
 -1       245 5.38740E+01 2.18750E+00 0.00000E+00
 -1       246 5.68740E+01 2.18750E+00 0.00000E+00
 -1       247 5.98740E+01 2.18750E+00 0.00000E+00
 -1       248 6.28740E+01 2.18750E+00 0.00000E+00
 -1       249 6.58740E+01 2.18750E+00 0.00000E+00
 -1       250 6.88740E+01 2.18750E+00 0.00000E+00
 -1       251 7.18740E+01 2.18750E+00 0.00000E+00
 -1       252 7.48740E+01 2.18750E+00 0.00000E+00
 -1       253 7.78740E+01 2.18750E+00 0.00000E+00
 -1       254 8.08740E+01 2.18750E+00 0.00000E+00
 -1       255 8.38740E+01 2.18750E+00 0.00000E+00
 -1       256 8.68740E+01 2.18750E+00 0.00000E+00
 -1       257 8.98740E+01 2.18750E+00 0.00000E+00
 -1       258 9.28740E+01 2.18750E+00 0.00000E+00
 -1       259 9.58740E+01 2.18750E+00 0.00000E+00
 -1       260 9.88740E+01 2.18750E+00 0.00000E+00
 -1       261 1.01874E+02 2.18750E+00 0.00000E+00
 -1       262 1.04874E+02 2.18750E+00 0.00000E+00
 -1       263 1.07874E+02 2.18750E+00 0.00000E+00
 -1       264 1.10874E+02 2.18750E+00 0.00000E+00
 -1       265 1.13874E+02 2.18750E+00 0.00000E+00
 -1       266 1.16874E+02 2.18750E+00 0.00000E+00
 -1       267 1.19874E+02 2.18750E+00 0.00000E+00
 -1       268 1.22874E+02 2.18750E+00 0.00000E+00
 -1       269 1.25874E+02 2.18750E+00 0.00000E+00
 -1       270 1.28874E+02 2.18750E+00 0.00000E+00
 -1       271 1.31874E+02 2.18750E+00 0.00000E+00
 -1       272 1.34874E+02 2.18750E+00 0.00000E+00
 -1       273 1.37874E+02 2.18750E+00 0.00000E+00
 -1       274 1.40874E+02 2.18750E+00 0.00000E+00
 -1       275 1.43874E+02 2.18750E+00 0.00000E+00
 -1       276 1.46874E+02 2.18750E+00 0.00000E+00
 -1       277 1.47402E+02 4.42500E+00 0.00000E+00
 -1       278 1.47402E+02 7.37500E+00 0.00000E+00
 -1       279 1.47402E+02 1.03250E+01 0.00000E+00
 -1       280 1.47402E+02 1.32750E+01 0.00000E+00
 -1       281 1.47402E+02 1.61750E+01 0.00000E+00
 -1       282 1.47402E+02 1.91250E+01 0.00000E+00
 -1       283 1.47402E+02 2.20750E+01 0.00000E+00
 -1       284 1.47402E+02 2.50250E+01 0.00000E+00
 -1       285 1.47402E+02 2.79750E+01 0.00000E+00
 -1       286 1.47402E+02 3.09250E+01 0.00000E+00
 -1       287 1.47402E+02 3.38250E+01 0.00000E+00
 -1       288 1.47402E+02 3.67750E+01 0.00000E+00
 -1       289 1.47402E+02 3.97250E+01 0.00000E+00
 -1       290 1.47402E+02 4.26750E+01 0.00000E+00
 -1       291 1.46526E+02 4.50385E+01 0.00000E+00
 -1       292 1.24916E+02 2.80285E+01 0.00000E+00
 -1       293 1.24575E+02 2.63807E+01 0.00000E+00
 -1       294 1.23844E+02 2.48901E+01 0.00000E+00
 -1       295 1.22953E+02 2.34743E+01 0.00000E+00
 -1       296 1.21780E+02 2.21500E+01 0.00000E+00
 -1       297 1.20188E+02 2.13826E+01 0.00000E+00
 -1       298 1.18593E+02 2.08275E+01 0.00000E+00
 -1       299 1.16918E+02 2.06121E+01 0.00000E+00
 -1       300 1.15194E+02 2.06625E+01 0.00000E+00
 -1       301 1.13493E+02 2.11703E+01 0.00000E+00
 -1       302 1.11844E+02 2.19874E+01 0.00000E+00
 -1       303 1.10622E+02 2.32732E+01 0.00000E+00
 -1       304 1.09365E+02 2.45637E+01 0.00000E+00
 -1       305 1.08935E+02 2.62999E+01 0.00000E+00
 -1       306 1.08581E+02 2.78661E+01 0.00000E+00
 -1       307 1.08463E+02 2.94964E+01 0.00000E+00
 -1       308 1.08827E+02 3.10889E+01 0.00000E+00
 -1       309 1.09437E+02 3.26209E+01 0.00000E+00
 -1       310 1.10391E+02 3.40634E+01 0.00000E+00
 -1       311 1.11582E+02 3.53477E+01 0.00000E+00
 -1       312 1.13108E+02 3.62089E+01 0.00000E+00
 -1       313 1.14725E+02 3.68005E+01 0.00000E+00
 -1       314 1.16489E+02 3.72826E+01 0.00000E+00
 -1       315 1.18357E+02 3.71257E+01 0.00000E+00
 -1       316 1.20026E+02 3.64226E+01 0.00000E+00
 -1       317 1.21505E+02 3.54793E+01 0.00000E+00
 -1       318 1.22859E+02 3.43631E+01 0.00000E+00
 -1       319 1.23808E+02 3.29033E+01 0.00000E+00
 -1       320 1.24485E+02 3.13589E+01 0.00000E+00
 -1       321 1.24830E+02 2.97106E+01 0.00000E+00
 -1       322 5.19600E+00 4.11500E+01 0.00000E+00
 -1       323 5.19600E+00 4.41000E+01 0.00000E+00
 -1       324 5.19600E+00 3.52750E+01 0.00000E+00
 -1       325 5.19600E+00 3.23250E+01 0.00000E+00
 -1       326 5.19600E+00 2.93750E+01 0.00000E+00
 -1       327 5.19600E+00 2.64250E+01 0.00000E+00
 -1       328 5.19600E+00 2.34750E+01 0.00000E+00
 -1       329 5.19600E+00 2.05250E+01 0.00000E+00
 -1       330 5.19600E+00 1.76250E+01 0.00000E+00
 -1       331 5.19600E+00 1.46750E+01 0.00000E+00
 -1       332 5.19600E+00 1.17250E+01 0.00000E+00
 -1       333 5.19600E+00 8.77500E+00 0.00000E+00
 -1       334 5.19600E+00 5.82500E+00 0.00000E+00
 -1       335 5.53500E+00 4.00625E+00 0.00000E+00
 -1       336 8.53500E+00 4.00625E+00 0.00000E+00
 -1       337 9.15000E+00 4.48040E+01 0.00000E+00
 -1       338 1.21500E+01 4.48040E+01 0.00000E+00
 -1       339 1.51500E+01 4.48040E+01 0.00000E+00
 -1       340 1.81500E+01 4.48040E+01 0.00000E+00
 -1       341 2.11500E+01 4.48040E+01 0.00000E+00
 -1       342 2.41500E+01 4.48040E+01 0.00000E+00
 -1       343 2.71500E+01 4.48040E+01 0.00000E+00
 -1       344 3.01500E+01 4.48040E+01 0.00000E+00
 -1       345 3.31500E+01 4.48040E+01 0.00000E+00
 -1       346 3.61500E+01 4.48040E+01 0.00000E+00
 -1       347 3.91500E+01 4.48040E+01 0.00000E+00
 -1       348 4.21500E+01 4.48040E+01 0.00000E+00
 -1       349 4.51500E+01 4.48040E+01 0.00000E+00
 -1       350 4.81500E+01 4.48040E+01 0.00000E+00
 -1       351 5.11500E+01 4.48040E+01 0.00000E+00
 -1       352 5.41500E+01 4.48040E+01 0.00000E+00
 -1       353 5.71500E+01 4.48040E+01 0.00000E+00
 -1       354 6.01500E+01 4.48040E+01 0.00000E+00
 -1       355 6.31500E+01 4.48040E+01 0.00000E+00
 -1       356 6.61500E+01 4.48040E+01 0.00000E+00
 -1       357 6.91500E+01 4.48040E+01 0.00000E+00
 -1       358 7.21500E+01 4.48040E+01 0.00000E+00
 -1       359 7.51500E+01 4.48040E+01 0.00000E+00
 -1       360 7.81500E+01 4.48040E+01 0.00000E+00
 -1       361 8.11500E+01 4.48040E+01 0.00000E+00
 -1       362 8.41500E+01 4.48040E+01 0.00000E+00
 -1       363 8.71500E+01 4.48040E+01 0.00000E+00
 -1       364 9.01500E+01 4.48040E+01 0.00000E+00
 -1       365 9.31500E+01 4.48040E+01 0.00000E+00
 -1       366 9.61500E+01 4.48040E+01 0.00000E+00
 -1       367 9.91500E+01 4.48040E+01 0.00000E+00
 -1       368 1.02150E+02 4.48040E+01 0.00000E+00
 -1       369 1.05150E+02 4.48040E+01 0.00000E+00
 -1       370 1.08150E+02 4.48040E+01 0.00000E+00
 -1       371 1.11150E+02 4.48040E+01 0.00000E+00
 -1       372 1.14150E+02 4.48040E+01 0.00000E+00
 -1       373 1.17150E+02 4.48040E+01 0.00000E+00
 -1       374 1.20150E+02 4.48040E+01 0.00000E+00
 -1       375 1.23150E+02 4.48040E+01 0.00000E+00
 -1       376 1.26150E+02 4.48040E+01 0.00000E+00
 -1       377 1.29150E+02 4.48040E+01 0.00000E+00
 -1       378 1.32150E+02 4.48040E+01 0.00000E+00
 -1       379 1.35150E+02 4.48040E+01 0.00000E+00
 -1       380 1.38150E+02 4.48040E+01 0.00000E+00
 -1       381 1.41150E+02 4.48040E+01 0.00000E+00
 -1       382 1.43838E+02 4.49212E+01 0.00000E+00
 -1       383 1.15350E+01 4.00625E+00 0.00000E+00
 -1       384 1.45350E+01 4.00625E+00 0.00000E+00
 -1       385 1.75350E+01 4.00625E+00 0.00000E+00
 -1       386 2.05350E+01 4.00625E+00 0.00000E+00
 -1       387 2.35350E+01 4.00625E+00 0.00000E+00
 -1       388 2.65350E+01 4.00625E+00 0.00000E+00
 -1       389 2.95350E+01 4.00625E+00 0.00000E+00
 -1       390 3.25350E+01 4.00625E+00 0.00000E+00
 -1       391 3.55350E+01 4.00625E+00 0.00000E+00
 -1       392 3.85350E+01 4.00625E+00 0.00000E+00
 -1       393 4.15350E+01 4.00625E+00 0.00000E+00
 -1       394 4.45350E+01 4.00625E+00 0.00000E+00
 -1       395 4.75350E+01 4.00625E+00 0.00000E+00
 -1       396 5.05350E+01 4.00625E+00 0.00000E+00
 -1       397 5.35350E+01 4.00625E+00 0.00000E+00
 -1       398 5.65350E+01 4.00625E+00 0.00000E+00
 -1       399 5.95350E+01 4.00625E+00 0.00000E+00
 -1       400 6.25350E+01 4.00625E+00 0.00000E+00
 -1       401 6.55350E+01 4.00625E+00 0.00000E+00
 -1       402 6.85350E+01 4.00625E+00 0.00000E+00
 -1       403 7.15350E+01 4.00625E+00 0.00000E+00
 -1       404 7.45350E+01 4.00625E+00 0.00000E+00
 -1       405 7.75350E+01 4.00625E+00 0.00000E+00
 -1       406 8.05350E+01 4.00625E+00 0.00000E+00
 -1       407 8.35350E+01 4.00625E+00 0.00000E+00
 -1       408 8.65350E+01 4.00625E+00 0.00000E+00
 -1       409 8.95350E+01 4.00625E+00 0.00000E+00
 -1       410 9.25350E+01 4.00625E+00 0.00000E+00
 -1       411 9.55350E+01 4.00625E+00 0.00000E+00
 -1       412 9.85350E+01 4.00625E+00 0.00000E+00
 -1       413 1.01535E+02 4.00625E+00 0.00000E+00
 -1       414 1.04535E+02 4.00625E+00 0.00000E+00
 -1       415 1.07535E+02 4.00625E+00 0.00000E+00
 -1       416 1.10535E+02 4.00625E+00 0.00000E+00
 -1       417 1.13535E+02 4.00625E+00 0.00000E+00
 -1       418 1.16535E+02 4.00625E+00 0.00000E+00
 -1       419 1.19535E+02 4.00625E+00 0.00000E+00
 -1       420 1.22535E+02 4.00625E+00 0.00000E+00
 -1       421 1.25535E+02 4.00625E+00 0.00000E+00
 -1       422 1.28535E+02 4.00625E+00 0.00000E+00
 -1       423 1.31535E+02 4.00625E+00 0.00000E+00
 -1       424 1.34535E+02 4.00625E+00 0.00000E+00
 -1       425 1.37535E+02 4.00625E+00 0.00000E+00
 -1       426 1.40535E+02 4.00625E+00 0.00000E+00
 -1       427 1.43535E+02 4.00625E+00 0.00000E+00
 -1       428 1.45469E+02 4.21562E+00 0.00000E+00
 -1       429 1.44804E+02 1.18000E+01 0.00000E+00
 -1       430 1.44804E+02 8.85000E+00 0.00000E+00
 -1       431 1.45136E+02 6.53281E+00 0.00000E+00
 -1       432 1.44804E+02 1.47000E+01 0.00000E+00
 -1       433 1.44804E+02 1.76500E+01 0.00000E+00
 -1       434 1.44804E+02 2.06000E+01 0.00000E+00
 -1       435 1.44804E+02 2.35500E+01 0.00000E+00
 -1       436 1.44804E+02 2.65000E+01 0.00000E+00
 -1       437 1.44804E+02 2.94500E+01 0.00000E+00
 -1       438 1.44804E+02 3.23500E+01 0.00000E+00
 -1       439 1.44804E+02 3.53000E+01 0.00000E+00
 -1       440 1.44804E+02 3.82500E+01 0.00000E+00
 -1       441 1.44804E+02 4.12000E+01 0.00000E+00
 -1       442 1.25674E+02 2.49169E+01 0.00000E+00
 -1       443 1.26251E+02 2.89398E+01 0.00000E+00
 -1       444 1.26179E+02 2.69080E+01 0.00000E+00
 -1       445 1.24783E+02 2.35010E+01 0.00000E+00
 -1       446 1.23400E+02 2.18974E+01 0.00000E+00
 -1       447 5.19600E+00 3.82125E+01 0.00000E+00
 -1       448 1.19872E+02 1.97227E+01 0.00000E+00
 -1       449 1.17921E+02 1.94342E+01 0.00000E+00
 -1       450 1.16014E+02 1.91742E+01 0.00000E+00
 -1       451 1.13901E+02 1.94335E+01 0.00000E+00
 -1       452 1.11944E+02 2.01171E+01 0.00000E+00
 -1       453 1.10050E+02 2.15064E+01 0.00000E+00
 -1       454 1.08793E+02 2.27969E+01 0.00000E+00
 -1       455 1.07810E+02 2.50999E+01 0.00000E+00
 -1       456 1.07457E+02 2.66661E+01 0.00000E+00
 -1       457 1.07229E+02 2.85874E+01 0.00000E+00
 -1       458 1.07381E+02 3.05815E+01 0.00000E+00
 -1       459 1.07928E+02 3.23349E+01 0.00000E+00
 -1       460 1.08623E+02 3.41953E+01 0.00000E+00
 -1       461 1.09852E+02 3.57579E+01 0.00000E+00
 -1       462 1.11584E+02 3.71261E+01 0.00000E+00
 -1       463 1.13471E+02 3.77220E+01 0.00000E+00
 -1       464 1.15265E+02 3.82919E+01 0.00000E+00
 -1       465 1.17532E+02 3.84958E+01 0.00000E+00
 -1       466 1.19760E+02 3.81230E+01 0.00000E+00
 -1       467 1.21552E+02 3.71850E+01 0.00000E+00
 -1       468 1.23166E+02 3.61154E+01 0.00000E+00
 -1       469 1.24490E+02 3.43856E+01 0.00000E+00
 -1       470 1.25411E+02 3.26851E+01 0.00000E+00
 -1       471 1.26172E+02 3.08518E+01 0.00000E+00
 -1       472 1.21464E+02 2.04901E+01 0.00000E+00
 -1       473 1.23083E+02 2.02374E+01 0.00000E+00
 -1       474 1.16308E+02 3.95050E+01 0.00000E+00
 -1       475 1.07239E+02 2.33331E+01 0.00000E+00
 -1       476 1.00350E+01 6.60425E+00 0.00000E+00
 -1       477 7.79400E+00 3.08500E+01 0.00000E+00
 -1       478 7.79400E+00 3.38000E+01 0.00000E+00
 -1       479 7.79400E+00 2.49500E+01 0.00000E+00
 -1       480 7.79400E+00 2.20000E+01 0.00000E+00
 -1       481 7.79400E+00 1.91000E+01 0.00000E+00
 -1       482 7.79400E+00 1.61500E+01 0.00000E+00
 -1       483 7.79400E+00 1.32000E+01 0.00000E+00
 -1       484 7.79400E+00 1.02500E+01 0.00000E+00
 -1       485 1.30350E+01 6.60425E+00 0.00000E+00
 -1       486 1.06500E+01 4.22060E+01 0.00000E+00
 -1       487 7.92300E+00 4.16780E+01 0.00000E+00
 -1       488 1.25390E+02 2.15790E+01 0.00000E+00
 -1       489 1.36500E+01 4.22060E+01 0.00000E+00
 -1       490 1.66500E+01 4.22060E+01 0.00000E+00
 -1       491 1.96500E+01 4.22060E+01 0.00000E+00
 -1       492 2.26500E+01 4.22060E+01 0.00000E+00
 -1       493 2.56500E+01 4.22060E+01 0.00000E+00
 -1       494 2.86500E+01 4.22060E+01 0.00000E+00
 -1       495 3.16500E+01 4.22060E+01 0.00000E+00
 -1       496 3.46500E+01 4.22060E+01 0.00000E+00
 -1       497 3.76500E+01 4.22060E+01 0.00000E+00
 -1       498 4.06500E+01 4.22060E+01 0.00000E+00
 -1       499 4.36500E+01 4.22060E+01 0.00000E+00
 -1       500 4.66500E+01 4.22060E+01 0.00000E+00
 -1       501 4.96500E+01 4.22060E+01 0.00000E+00
 -1       502 5.26500E+01 4.22060E+01 0.00000E+00
 -1       503 5.56500E+01 4.22060E+01 0.00000E+00
 -1       504 5.86500E+01 4.22060E+01 0.00000E+00
 -1       505 6.16500E+01 4.22060E+01 0.00000E+00
 -1       506 6.46500E+01 4.22060E+01 0.00000E+00
 -1       507 6.76500E+01 4.22060E+01 0.00000E+00
 -1       508 7.06500E+01 4.22060E+01 0.00000E+00
 -1       509 7.36500E+01 4.22060E+01 0.00000E+00
 -1       510 7.66500E+01 4.22060E+01 0.00000E+00
 -1       511 7.96500E+01 4.22060E+01 0.00000E+00
 -1       512 8.26500E+01 4.22060E+01 0.00000E+00
 -1       513 8.56500E+01 4.22060E+01 0.00000E+00
 -1       514 8.86500E+01 4.22060E+01 0.00000E+00
 -1       515 9.16500E+01 4.22060E+01 0.00000E+00
 -1       516 9.46500E+01 4.22060E+01 0.00000E+00
 -1       517 9.76500E+01 4.22060E+01 0.00000E+00
 -1       518 1.00650E+02 4.22060E+01 0.00000E+00
 -1       519 1.03650E+02 4.22060E+01 0.00000E+00
 -1       520 1.06650E+02 4.22060E+01 0.00000E+00
 -1       521 1.09650E+02 4.22060E+01 0.00000E+00
 -1       522 1.12650E+02 4.22060E+01 0.00000E+00
 -1       523 1.15650E+02 4.22060E+01 0.00000E+00
 -1       524 1.18650E+02 4.22060E+01 0.00000E+00
 -1       525 1.21650E+02 4.22060E+01 0.00000E+00
 -1       526 1.24650E+02 4.22060E+01 0.00000E+00
 -1       527 1.27650E+02 4.22060E+01 0.00000E+00
 -1       528 1.30650E+02 4.22060E+01 0.00000E+00
 -1       529 1.33650E+02 4.22060E+01 0.00000E+00
 -1       530 1.36650E+02 4.22060E+01 0.00000E+00
 -1       531 1.39650E+02 4.22060E+01 0.00000E+00
 -1       532 1.90350E+01 6.60425E+00 0.00000E+00
 -1       533 2.20350E+01 6.60425E+00 0.00000E+00
 -1       534 2.50350E+01 6.60425E+00 0.00000E+00
 -1       535 2.80350E+01 6.60425E+00 0.00000E+00
 -1       536 3.10350E+01 6.60425E+00 0.00000E+00
 -1       537 3.40350E+01 6.60425E+00 0.00000E+00
 -1       538 3.70350E+01 6.60425E+00 0.00000E+00
 -1       539 4.00350E+01 6.60425E+00 0.00000E+00
 -1       540 4.30350E+01 6.60425E+00 0.00000E+00
 -1       541 4.60350E+01 6.60425E+00 0.00000E+00
 -1       542 4.90350E+01 6.60425E+00 0.00000E+00
 -1       543 5.20350E+01 6.60425E+00 0.00000E+00
 -1       544 5.50350E+01 6.60425E+00 0.00000E+00
 -1       545 5.80350E+01 6.60425E+00 0.00000E+00
 -1       546 6.10350E+01 6.60425E+00 0.00000E+00
 -1       547 6.40350E+01 6.60425E+00 0.00000E+00
 -1       548 6.70350E+01 6.60425E+00 0.00000E+00
 -1       549 7.00350E+01 6.60425E+00 0.00000E+00
 -1       550 7.30350E+01 6.60425E+00 0.00000E+00
 -1       551 7.60350E+01 6.60425E+00 0.00000E+00
 -1       552 7.90350E+01 6.60425E+00 0.00000E+00
 -1       553 8.20350E+01 6.60425E+00 0.00000E+00
 -1       554 8.50350E+01 6.60425E+00 0.00000E+00
 -1       555 8.80350E+01 6.60425E+00 0.00000E+00
 -1       556 9.10350E+01 6.60425E+00 0.00000E+00
 -1       557 9.40350E+01 6.60425E+00 0.00000E+00
 -1       558 9.70350E+01 6.60425E+00 0.00000E+00
 -1       559 1.00035E+02 6.60425E+00 0.00000E+00
 -1       560 1.03035E+02 6.60425E+00 0.00000E+00
 -1       561 1.06035E+02 6.60425E+00 0.00000E+00
 -1       562 1.09035E+02 6.60425E+00 0.00000E+00
 -1       563 1.12035E+02 6.60425E+00 0.00000E+00
 -1       564 1.15035E+02 6.60425E+00 0.00000E+00
 -1       565 1.18035E+02 6.60425E+00 0.00000E+00
 -1       566 1.21035E+02 6.60425E+00 0.00000E+00
 -1       567 1.24035E+02 6.60425E+00 0.00000E+00
 -1       568 1.27035E+02 6.60425E+00 0.00000E+00
 -1       569 1.30035E+02 6.60425E+00 0.00000E+00
 -1       570 1.33035E+02 6.60425E+00 0.00000E+00
 -1       571 1.36035E+02 6.60425E+00 0.00000E+00
 -1       572 1.39035E+02 6.60425E+00 0.00000E+00
 -1       573 1.42035E+02 6.60425E+00 0.00000E+00
 -1       574 1.42206E+02 1.61750E+01 0.00000E+00
 -1       575 1.42206E+02 1.91250E+01 0.00000E+00
 -1       576 1.42206E+02 1.03250E+01 0.00000E+00
 -1       577 1.42206E+02 1.32500E+01 0.00000E+00
 -1       578 1.42206E+02 2.20750E+01 0.00000E+00
 -1       579 1.42206E+02 2.50250E+01 0.00000E+00
 -1       580 1.42206E+02 2.79750E+01 0.00000E+00
 -1       581 1.42206E+02 3.08750E+01 0.00000E+00
 -1       582 1.42206E+02 3.38250E+01 0.00000E+00
 -1       583 1.42206E+02 3.67750E+01 0.00000E+00
 -1       584 1.42206E+02 3.97250E+01 0.00000E+00
 -1       585 1.27845E+02 2.78658E+01 0.00000E+00
 -1       586 1.27751E+02 2.54497E+01 0.00000E+00
 -1       587 1.27767E+02 2.97779E+01 0.00000E+00
 -1       588 1.60350E+01 6.60425E+00 0.00000E+00
 -1       589 1.26571E+02 2.35143E+01 0.00000E+00
 -1       590 1.21413E+02 1.85614E+01 0.00000E+00
 -1       591 1.09884E+02 1.92938E+01 0.00000E+00
 -1       592 7.79400E+00 2.79000E+01 0.00000E+00
 -1       593 1.17199E+02 1.76048E+01 0.00000E+00
 -1       594 1.05762E+02 2.97021E+01 0.00000E+00
 -1       595 1.19150E+02 1.78933E+01 0.00000E+00
 -1       596 1.14748E+02 1.76015E+01 0.00000E+00
 -1       597 1.12302E+02 1.79979E+01 0.00000E+00
 -1       598 1.08627E+02 2.05842E+01 0.00000E+00
 -1       599 1.05960E+02 2.55054E+01 0.00000E+00
 -1       600 1.05733E+02 2.74267E+01 0.00000E+00
 -1       601 1.06337E+02 3.18691E+01 0.00000E+00
 -1       602 1.06826E+02 3.38066E+01 0.00000E+00
 -1       603 1.08021E+02 3.59332E+01 0.00000E+00
 -1       604 1.09707E+02 3.77223E+01 0.00000E+00
 -1       605 1.12011E+02 3.90595E+01 0.00000E+00
 -1       606 1.13805E+02 3.96294E+01 0.00000E+00
 -1       607 1.18929E+02 4.00010E+01 0.00000E+00
 -1       608 1.21374E+02 3.90252E+01 0.00000E+00
 -1       609 1.23261E+02 3.80099E+01 0.00000E+00
 -1       610 1.25123E+02 3.62421E+01 0.00000E+00
 -1       611 1.26459E+02 3.43517E+01 0.00000E+00
 -1       612 1.27221E+02 3.23624E+01 0.00000E+00
 -1       613 7.61550E+00 6.21462E+00 0.00000E+00
 -1       614 7.79400E+00 3.67375E+01 0.00000E+00
 -1       615 1.25074E+02 1.99191E+01 0.00000E+00
 -1       616 1.07072E+02 2.11204E+01 0.00000E+00
 -1       617 1.41678E+02 4.22645E+01 0.00000E+00
 -1       618 1.03920E+01 2.05500E+01 0.00000E+00
 -1       619 1.03920E+01 2.35000E+01 0.00000E+00
 -1       620 1.03920E+01 1.46750E+01 0.00000E+00
 -1       621 1.03920E+01 1.17250E+01 0.00000E+00
 -1       622 1.15350E+01 9.20225E+00 0.00000E+00
 -1       623 1.29847E+02 2.65780E+01 0.00000E+00
 -1       624 1.45350E+01 9.20225E+00 0.00000E+00
 -1       625 9.78035E+00 3.93914E+01 0.00000E+00
 -1       626 1.27804E+01 3.93914E+01 0.00000E+00
 -1       627 1.57804E+01 3.93914E+01 0.00000E+00
 -1       628 1.87804E+01 3.93914E+01 0.00000E+00
 -1       629 2.17804E+01 3.93914E+01 0.00000E+00
 -1       630 2.47804E+01 3.93914E+01 0.00000E+00
 -1       631 2.77804E+01 3.93914E+01 0.00000E+00
 -1       632 3.07804E+01 3.93914E+01 0.00000E+00
 -1       633 3.37803E+01 3.93914E+01 0.00000E+00
 -1       634 3.67803E+01 3.93914E+01 0.00000E+00
 -1       635 3.97803E+01 3.93914E+01 0.00000E+00
 -1       636 4.27803E+01 3.93914E+01 0.00000E+00
 -1       637 4.57803E+01 3.93914E+01 0.00000E+00
 -1       638 4.87803E+01 3.93914E+01 0.00000E+00
 -1       639 5.17803E+01 3.93914E+01 0.00000E+00
 -1       640 5.47803E+01 3.93914E+01 0.00000E+00
 -1       641 5.77803E+01 3.93914E+01 0.00000E+00
 -1       642 6.07803E+01 3.93914E+01 0.00000E+00
 -1       643 6.37803E+01 3.93914E+01 0.00000E+00
 -1       644 6.67803E+01 3.93914E+01 0.00000E+00
 -1       645 6.97803E+01 3.93914E+01 0.00000E+00
 -1       646 7.27803E+01 3.93914E+01 0.00000E+00
 -1       647 7.57803E+01 3.93914E+01 0.00000E+00
 -1       648 7.87803E+01 3.93914E+01 0.00000E+00
 -1       649 8.17803E+01 3.93914E+01 0.00000E+00
 -1       650 8.47803E+01 3.93914E+01 0.00000E+00
 -1       651 8.77803E+01 3.93914E+01 0.00000E+00
 -1       652 9.07803E+01 3.93914E+01 0.00000E+00
 -1       653 9.37803E+01 3.93914E+01 0.00000E+00
 -1       654 9.67803E+01 3.93914E+01 0.00000E+00
 -1       655 9.97803E+01 3.93914E+01 0.00000E+00
 -1       656 1.02780E+02 3.93914E+01 0.00000E+00
 -1       657 1.05780E+02 3.93914E+01 0.00000E+00
 -1       658 1.11150E+02 4.01557E+01 0.00000E+00
 -1       659 1.23150E+02 3.99882E+01 0.00000E+00
 -1       660 1.26150E+02 3.99882E+01 0.00000E+00
 -1       661 1.29150E+02 3.99882E+01 0.00000E+00
 -1       662 1.32150E+02 3.99882E+01 0.00000E+00
 -1       663 1.35150E+02 3.99882E+01 0.00000E+00
 -1       664 1.38150E+02 3.99882E+01 0.00000E+00
 -1       665 2.35350E+01 9.20225E+00 0.00000E+00
 -1       666 1.05081E+02 3.32163E+01 0.00000E+00
 -1       667 2.05350E+01 9.20225E+00 0.00000E+00
 -1       668 2.95350E+01 9.20225E+00 0.00000E+00
 -1       669 3.25350E+01 9.20225E+00 0.00000E+00
 -1       670 3.55350E+01 9.20225E+00 0.00000E+00
 -1       671 3.85350E+01 9.20225E+00 0.00000E+00
 -1       672 4.15350E+01 9.20225E+00 0.00000E+00
 -1       673 4.45350E+01 9.20225E+00 0.00000E+00
 -1       674 4.75350E+01 9.20225E+00 0.00000E+00
 -1       675 5.05350E+01 9.20225E+00 0.00000E+00
 -1       676 5.35350E+01 9.20225E+00 0.00000E+00
 -1       677 5.65350E+01 9.20225E+00 0.00000E+00
 -1       678 5.95350E+01 9.20225E+00 0.00000E+00
 -1       679 6.25350E+01 9.20225E+00 0.00000E+00
 -1       680 6.55350E+01 9.20225E+00 0.00000E+00
 -1       681 6.85350E+01 9.20225E+00 0.00000E+00
 -1       682 7.15350E+01 9.20225E+00 0.00000E+00
 -1       683 7.45350E+01 9.20225E+00 0.00000E+00
 -1       684 7.75350E+01 9.20225E+00 0.00000E+00
 -1       685 8.05350E+01 9.20225E+00 0.00000E+00
 -1       686 8.35350E+01 9.20225E+00 0.00000E+00
 -1       687 8.65350E+01 9.20225E+00 0.00000E+00
 -1       688 8.95350E+01 9.20225E+00 0.00000E+00
 -1       689 9.25350E+01 9.20225E+00 0.00000E+00
 -1       690 9.55350E+01 9.20225E+00 0.00000E+00
 -1       691 9.85350E+01 9.20225E+00 0.00000E+00
 -1       692 1.01535E+02 9.20225E+00 0.00000E+00
 -1       693 1.04535E+02 9.20225E+00 0.00000E+00
 -1       694 1.07535E+02 9.20225E+00 0.00000E+00
 -1       695 1.10535E+02 9.20225E+00 0.00000E+00
 -1       696 1.13535E+02 9.20225E+00 0.00000E+00
 -1       697 1.16535E+02 9.20225E+00 0.00000E+00
 -1       698 1.19535E+02 9.20225E+00 0.00000E+00
 -1       699 1.22535E+02 9.20225E+00 0.00000E+00
 -1       700 1.25535E+02 9.20225E+00 0.00000E+00
 -1       701 1.28535E+02 9.20225E+00 0.00000E+00
 -1       702 1.31535E+02 9.20225E+00 0.00000E+00
 -1       703 1.34535E+02 9.20225E+00 0.00000E+00
 -1       704 1.37535E+02 9.20225E+00 0.00000E+00
 -1       705 1.39870E+02 9.76363E+00 0.00000E+00
 -1       706 1.20814E+02 1.64217E+01 0.00000E+00
 -1       707 1.39608E+02 2.35500E+01 0.00000E+00
 -1       708 1.13224E+02 1.59413E+01 0.00000E+00
 -1       709 1.39608E+02 1.76500E+01 0.00000E+00
 -1       710 1.39608E+02 2.65000E+01 0.00000E+00
 -1       711 1.39608E+02 2.06000E+01 0.00000E+00
 -1       712 1.39608E+02 2.94000E+01 0.00000E+00
 -1       713 1.39608E+02 3.23500E+01 0.00000E+00
 -1       714 1.39608E+02 3.53000E+01 0.00000E+00
 -1       715 1.28598E+02 3.40303E+01 0.00000E+00
 -1       716 1.75350E+01 9.20225E+00 0.00000E+00
 -1       717 1.29172E+02 3.14246E+01 0.00000E+00
 -1       718 1.25373E+02 3.83701E+01 0.00000E+00
 -1       719 1.18474E+02 1.57209E+01 0.00000E+00
 -1       720 1.29768E+02 2.84901E+01 0.00000E+00
 -1       721 1.27192E+02 3.62864E+01 0.00000E+00
 -1       722 2.65350E+01 9.20225E+00 0.00000E+00
 -1       723 1.03920E+01 1.76125E+01 0.00000E+00
 -1       724 1.04977E+02 2.34643E+01 0.00000E+00
 -1       725 1.04554E+02 3.11826E+01 0.00000E+00
 -1       726 1.03920E+01 3.23250E+01 0.00000E+00
 -1       727 1.40178E+02 3.96665E+01 0.00000E+00
 -1       728 1.07666E+02 1.83916E+01 0.00000E+00
 -1       729 1.04143E+02 2.62643E+01 0.00000E+00
 -1       730 1.15976E+02 1.57205E+01 0.00000E+00
 -1       731 1.04173E+02 2.85397E+01 0.00000E+00
 -1       732 1.05928E+02 3.57102E+01 0.00000E+00
 -1       733 1.07616E+02 3.80042E+01 0.00000E+00
 -1       734 1.10124E+02 1.68387E+01 0.00000E+00
 -1       735 1.23403E+02 1.82430E+01 0.00000E+00
 -1       736 1.03920E+01 3.52625E+01 0.00000E+00
 -1       737 1.03920E+01 2.64500E+01 0.00000E+00
 -1       738 1.28911E+02 2.34143E+01 0.00000E+00
 -1       739 1.08881E+02 4.00692E+01 0.00000E+00
 -1       740 1.39870E+02 1.26886E+01 0.00000E+00
 -1       741 1.22805E+02 1.61034E+01 0.00000E+00
 -1       742 1.38879E+02 3.76441E+01 0.00000E+00
 -1       743 1.27731E+02 2.14790E+01 0.00000E+00
 -1       744 1.39739E+02 1.51693E+01 0.00000E+00
 -1       745 1.03920E+01 2.93875E+01 0.00000E+00
 -1       746 1.27414E+02 1.98190E+01 0.00000E+00
 -1       747 1.20233E+02 1.41073E+01 0.00000E+00
 -1       748 1.29900E+01 1.32000E+01 0.00000E+00
 -1       749 1.02666E+02 3.01060E+01 0.00000E+00
 -1       750 1.05256E+02 3.79729E+01 0.00000E+00
 -1       751 1.42804E+01 3.67934E+01 0.00000E+00
 -1       752 1.72804E+01 3.67934E+01 0.00000E+00
 -1       753 2.02804E+01 3.67934E+01 0.00000E+00
 -1       754 2.32804E+01 3.67934E+01 0.00000E+00
 -1       755 2.62804E+01 3.67934E+01 0.00000E+00
 -1       756 2.92804E+01 3.67934E+01 0.00000E+00
 -1       757 3.22803E+01 3.67934E+01 0.00000E+00
 -1       758 3.52803E+01 3.67934E+01 0.00000E+00
 -1       759 3.82803E+01 3.67934E+01 0.00000E+00
 -1       760 4.12803E+01 3.67934E+01 0.00000E+00
 -1       761 4.42803E+01 3.67934E+01 0.00000E+00
 -1       762 4.72803E+01 3.67934E+01 0.00000E+00
 -1       763 5.02803E+01 3.67934E+01 0.00000E+00
 -1       764 5.32803E+01 3.67934E+01 0.00000E+00
 -1       765 5.62803E+01 3.67934E+01 0.00000E+00
 -1       766 5.92803E+01 3.67934E+01 0.00000E+00
 -1       767 6.22803E+01 3.67934E+01 0.00000E+00
 -1       768 6.52803E+01 3.67934E+01 0.00000E+00
 -1       769 6.82803E+01 3.67934E+01 0.00000E+00
 -1       770 7.12803E+01 3.67934E+01 0.00000E+00
 -1       771 7.42803E+01 3.67934E+01 0.00000E+00
 -1       772 7.72803E+01 3.67934E+01 0.00000E+00
 -1       773 8.02803E+01 3.67934E+01 0.00000E+00
 -1       774 8.32803E+01 3.67934E+01 0.00000E+00
 -1       775 8.62803E+01 3.67934E+01 0.00000E+00
 -1       776 8.92803E+01 3.67934E+01 0.00000E+00
 -1       777 9.22803E+01 3.67934E+01 0.00000E+00
 -1       778 9.52803E+01 3.67934E+01 0.00000E+00
 -1       779 9.82803E+01 3.67934E+01 0.00000E+00
 -1       780 1.01280E+02 3.67934E+01 0.00000E+00
 -1       781 1.30650E+02 3.74352E+01 0.00000E+00
 -1       782 1.33650E+02 3.74352E+01 0.00000E+00
 -1       783 1.36264E+02 3.75397E+01 0.00000E+00
 -1       784 2.20350E+01 1.18003E+01 0.00000E+00
 -1       785 3.40350E+01 1.18003E+01 0.00000E+00
 -1       786 3.10350E+01 1.18003E+01 0.00000E+00
 -1       787 4.00350E+01 1.18003E+01 0.00000E+00
 -1       788 4.30350E+01 1.18003E+01 0.00000E+00
 -1       789 4.60350E+01 1.18003E+01 0.00000E+00
 -1       790 4.90350E+01 1.18003E+01 0.00000E+00
 -1       791 5.20350E+01 1.18003E+01 0.00000E+00
 -1       792 5.50350E+01 1.18003E+01 0.00000E+00
 -1       793 5.80350E+01 1.18003E+01 0.00000E+00
 -1       794 6.10350E+01 1.18003E+01 0.00000E+00
 -1       795 6.40350E+01 1.18003E+01 0.00000E+00
 -1       796 6.70350E+01 1.18003E+01 0.00000E+00
 -1       797 7.00350E+01 1.18003E+01 0.00000E+00
 -1       798 7.30350E+01 1.18003E+01 0.00000E+00
 -1       799 7.60350E+01 1.18003E+01 0.00000E+00
 -1       800 7.90350E+01 1.18003E+01 0.00000E+00
 -1       801 8.20350E+01 1.18003E+01 0.00000E+00
 -1       802 8.50350E+01 1.18003E+01 0.00000E+00
 -1       803 8.80350E+01 1.18003E+01 0.00000E+00
 -1       804 9.10350E+01 1.18003E+01 0.00000E+00
 -1       805 9.40350E+01 1.18003E+01 0.00000E+00
 -1       806 9.70350E+01 1.18003E+01 0.00000E+00
 -1       807 1.00035E+02 1.18003E+01 0.00000E+00
 -1       808 1.03035E+02 1.18003E+01 0.00000E+00
 -1       809 1.06035E+02 1.18003E+01 0.00000E+00
 -1       810 1.09035E+02 1.18003E+01 0.00000E+00
 -1       811 1.12035E+02 1.18003E+01 0.00000E+00
 -1       812 1.15035E+02 1.18003E+01 0.00000E+00
 -1       813 1.18035E+02 1.18003E+01 0.00000E+00
 -1       814 1.27035E+02 1.18003E+01 0.00000E+00
 -1       815 1.30035E+02 1.18003E+01 0.00000E+00
 -1       816 1.33035E+02 1.18003E+01 0.00000E+00
 -1       817 1.36035E+02 1.18003E+01 0.00000E+00
 -1       818 1.37953E+02 1.22444E+01 0.00000E+00
 -1       819 1.37010E+02 2.79500E+01 0.00000E+00
 -1       820 1.37010E+02 2.50000E+01 0.00000E+00
 -1       821 1.14423E+02 1.36202E+01 0.00000E+00
 -1       822 1.03722E+02 3.50688E+01 0.00000E+00
 -1       823 1.27700E+02 3.85666E+01 0.00000E+00
 -1       824 1.30214E+02 2.12917E+01 0.00000E+00
 -1       825 1.29493E+02 3.61541E+01 0.00000E+00
 -1       826 1.32358E+02 2.76392E+01 0.00000E+00
 -1       827 1.37010E+02 3.09000E+01 0.00000E+00
 -1       828 1.37010E+02 3.38500E+01 0.00000E+00
 -1       829 3.70350E+01 1.18003E+01 0.00000E+00
 -1       830 1.31051E+02 3.32044E+01 0.00000E+00
 -1       831 1.03157E+02 3.26297E+01 0.00000E+00
 -1       832 1.07621E+02 1.55985E+01 0.00000E+00
 -1       833 1.17226E+02 1.35029E+01 0.00000E+00
 -1       834 1.37625E+01 1.12011E+01 0.00000E+00
 -1       835 1.04831E+02 1.92032E+01 0.00000E+00
 -1       836 1.31506E+02 2.43671E+01 0.00000E+00
 -1       837 1.11057E+02 1.42597E+01 0.00000E+00
 -1       838 1.02275E+02 2.74262E+01 0.00000E+00
 -1       839 1.29900E+01 2.20250E+01 0.00000E+00
 -1       840 1.31705E+02 3.04218E+01 0.00000E+00
 -1       841 1.02595E+02 2.42792E+01 0.00000E+00
 -1       842 1.25453E+02 1.78702E+01 0.00000E+00
 -1       843 1.29900E+01 2.49750E+01 0.00000E+00
 -1       844 1.29900E+01 1.61375E+01 0.00000E+00
 -1       845 1.29898E+02 1.96317E+01 0.00000E+00
 -1       846 1.04786E+02 1.64101E+01 0.00000E+00
 -1       847 1.29900E+01 3.37938E+01 0.00000E+00
 -1       848 1.29900E+01 1.90812E+01 0.00000E+00
 -1       849 1.90350E+01 1.18003E+01 0.00000E+00
 -1       850 2.80350E+01 1.18003E+01 0.00000E+00
 -1       851 1.23736E+02 1.27587E+01 0.00000E+00
 -1       852 1.37010E+02 1.91250E+01 0.00000E+00
 -1       853 1.29900E+01 3.08563E+01 0.00000E+00
 -1       854 1.37010E+02 2.20625E+01 0.00000E+00
 -1       855 1.63988E+01 1.15007E+01 0.00000E+00
 -1       856 2.50350E+01 1.18003E+01 0.00000E+00
 -1       857 1.36637E+02 3.56948E+01 0.00000E+00
 -1       858 1.37141E+02 1.66443E+01 0.00000E+00
 -1       859 1.24855E+02 1.57305E+01 0.00000E+00
 -1       860 1.02449E+02 2.00181E+01 0.00000E+00
 -1       861 1.00716E+02 3.43543E+01 0.00000E+00
 -1       862 1.87804E+01 3.41954E+01 0.00000E+00
 -1       863 2.17804E+01 3.41954E+01 0.00000E+00
 -1       864 2.47804E+01 3.41954E+01 0.00000E+00
 -1       865 2.77804E+01 3.41954E+01 0.00000E+00
 -1       866 3.07804E+01 3.41954E+01 0.00000E+00
 -1       867 3.37803E+01 3.41954E+01 0.00000E+00
 -1       868 3.67803E+01 3.41954E+01 0.00000E+00
 -1       869 3.97803E+01 3.41954E+01 0.00000E+00
 -1       870 4.27803E+01 3.41954E+01 0.00000E+00
 -1       871 4.57803E+01 3.41954E+01 0.00000E+00
 -1       872 4.87803E+01 3.41954E+01 0.00000E+00
 -1       873 5.17803E+01 3.41954E+01 0.00000E+00
 -1       874 5.47803E+01 3.41954E+01 0.00000E+00
 -1       875 5.77803E+01 3.41954E+01 0.00000E+00
 -1       876 6.07803E+01 3.41954E+01 0.00000E+00
 -1       877 6.37803E+01 3.41954E+01 0.00000E+00
 -1       878 6.67803E+01 3.41954E+01 0.00000E+00
 -1       879 6.97803E+01 3.41954E+01 0.00000E+00
 -1       880 7.27803E+01 3.41954E+01 0.00000E+00
 -1       881 7.57803E+01 3.41954E+01 0.00000E+00
 -1       882 7.87803E+01 3.41954E+01 0.00000E+00
 -1       883 8.17803E+01 3.41954E+01 0.00000E+00
 -1       884 8.47803E+01 3.41954E+01 0.00000E+00
 -1       885 8.77803E+01 3.41954E+01 0.00000E+00
 -1       886 9.07803E+01 3.41954E+01 0.00000E+00
 -1       887 9.37803E+01 3.41954E+01 0.00000E+00
 -1       888 9.67803E+01 3.41954E+01 0.00000E+00
 -1       889 1.00276E+02 2.90857E+01 0.00000E+00
 -1       890 4.45350E+01 1.43982E+01 0.00000E+00
 -1       891 4.15350E+01 1.43982E+01 0.00000E+00
 -1       892 5.05350E+01 1.43982E+01 0.00000E+00
 -1       893 5.35350E+01 1.43982E+01 0.00000E+00
 -1       894 5.65350E+01 1.43982E+01 0.00000E+00
 -1       895 5.95350E+01 1.43982E+01 0.00000E+00
 -1       896 6.25350E+01 1.43982E+01 0.00000E+00
 -1       897 6.55350E+01 1.43982E+01 0.00000E+00
 -1       898 6.85350E+01 1.43982E+01 0.00000E+00
 -1       899 7.15350E+01 1.43982E+01 0.00000E+00
 -1       900 7.45350E+01 1.43982E+01 0.00000E+00
 -1       901 7.75350E+01 1.43982E+01 0.00000E+00
 -1       902 8.05350E+01 1.43982E+01 0.00000E+00
 -1       903 8.35350E+01 1.43982E+01 0.00000E+00
 -1       904 8.65350E+01 1.43982E+01 0.00000E+00
 -1       905 8.95350E+01 1.43982E+01 0.00000E+00
 -1       906 9.25350E+01 1.43982E+01 0.00000E+00
 -1       907 9.55350E+01 1.43982E+01 0.00000E+00
 -1       908 9.85350E+01 1.43982E+01 0.00000E+00
 -1       909 1.01535E+02 1.43982E+01 0.00000E+00
 -1       910 1.34412E+02 3.23750E+01 0.00000E+00
 -1       911 1.34412E+02 2.64750E+01 0.00000E+00
 -1       912 1.29900E+01 2.79188E+01 0.00000E+00
 -1       913 1.33256E+02 2.18234E+01 0.00000E+00
 -1       914 1.34412E+02 2.94250E+01 0.00000E+00
 -1       915 1.00496E+02 3.17200E+01 0.00000E+00
 -1       916 1.34535E+02 1.43982E+01 0.00000E+00
 -1       917 3.25350E+01 1.43982E+01 0.00000E+00
 -1       918 1.31535E+02 1.43982E+01 0.00000E+00
 -1       919 1.56263E+01 1.34996E+01 0.00000E+00
 -1       920 4.75350E+01 1.43982E+01 0.00000E+00
 -1       921 1.58852E+01 3.39946E+01 0.00000E+00
 -1       922 1.37547E+02 1.44444E+01 0.00000E+00
 -1       923 1.27761E+02 1.75091E+01 0.00000E+00
 -1       924 1.00229E+02 2.56285E+01 0.00000E+00
 -1       925 1.32350E+02 3.53198E+01 0.00000E+00
 -1       926 1.02404E+02 1.72251E+01 0.00000E+00
 -1       927 1.28031E+02 1.49225E+01 0.00000E+00
 -1       928 2.05350E+01 1.43982E+01 0.00000E+00
 -1       929 1.34494E+02 3.55073E+01 0.00000E+00
 -1       930 2.95350E+01 1.43982E+01 0.00000E+00
 -1       931 3.85350E+01 1.43982E+01 0.00000E+00
 -1       932 1.33099E+02 3.29646E+01 0.00000E+00
 -1       933 1.32939E+02 2.01635E+01 0.00000E+00
 -1       934 1.58852E+01 3.10571E+01 0.00000E+00
 -1       935 1.55880E+01 2.35000E+01 0.00000E+00
 -1       936 3.55350E+01 1.43982E+01 0.00000E+00
 -1       937 1.34481E+02 1.77474E+01 0.00000E+00
 -1       938 9.99706E+01 2.22363E+01 0.00000E+00
 -1       939 1.55880E+01 2.05562E+01 0.00000E+00
 -1       940 2.35350E+01 1.43982E+01 0.00000E+00
 -1       941 2.65350E+01 1.43982E+01 0.00000E+00
 -1       942 2.32804E+01 3.15974E+01 0.00000E+00
 -1       943 2.62804E+01 3.15974E+01 0.00000E+00
 -1       944 2.92804E+01 3.15974E+01 0.00000E+00
 -1       945 3.22803E+01 3.15974E+01 0.00000E+00
 -1       946 3.52803E+01 3.15974E+01 0.00000E+00
 -1       947 3.82803E+01 3.15974E+01 0.00000E+00
 -1       948 4.12803E+01 3.15974E+01 0.00000E+00
 -1       949 4.42803E+01 3.15974E+01 0.00000E+00
 -1       950 4.72803E+01 3.15974E+01 0.00000E+00
 -1       951 5.02803E+01 3.15974E+01 0.00000E+00
 -1       952 5.32803E+01 3.15974E+01 0.00000E+00
 -1       953 5.62803E+01 3.15974E+01 0.00000E+00
 -1       954 5.92803E+01 3.15974E+01 0.00000E+00
 -1       955 6.22803E+01 3.15974E+01 0.00000E+00
 -1       956 6.52803E+01 3.15974E+01 0.00000E+00
 -1       957 6.82803E+01 3.15974E+01 0.00000E+00
 -1       958 7.12803E+01 3.15974E+01 0.00000E+00
 -1       959 7.42803E+01 3.15974E+01 0.00000E+00
 -1       960 7.72803E+01 3.15974E+01 0.00000E+00
 -1       961 8.02803E+01 3.15974E+01 0.00000E+00
 -1       962 8.32803E+01 3.15974E+01 0.00000E+00
 -1       963 8.62803E+01 3.15974E+01 0.00000E+00
 -1       964 8.92803E+01 3.15974E+01 0.00000E+00
 -1       965 9.22803E+01 3.15974E+01 0.00000E+00
 -1       966 9.52803E+01 3.15974E+01 0.00000E+00
 -1       967 5.80350E+01 1.69963E+01 0.00000E+00
 -1       968 4.30350E+01 1.69963E+01 0.00000E+00
 -1       969 1.30392E+02 1.69968E+01 0.00000E+00
 -1       970 1.55880E+01 1.76125E+01 0.00000E+00
 -1       971 9.80348E+01 2.73873E+01 0.00000E+00
 -1       972 1.87804E+01 3.12579E+01 0.00000E+00
 -1       973 5.50350E+01 1.69963E+01 0.00000E+00
 -1       974 5.20350E+01 1.69963E+01 0.00000E+00
 -1       975 6.10350E+01 1.69963E+01 0.00000E+00
 -1       976 6.40350E+01 1.69963E+01 0.00000E+00
 -1       977 6.70350E+01 1.69963E+01 0.00000E+00
 -1       978 7.00350E+01 1.69963E+01 0.00000E+00
 -1       979 7.30350E+01 1.69963E+01 0.00000E+00
 -1       980 7.60350E+01 1.69963E+01 0.00000E+00
 -1       981 7.90350E+01 1.69963E+01 0.00000E+00
 -1       982 8.20350E+01 1.69963E+01 0.00000E+00
 -1       983 8.50350E+01 1.69963E+01 0.00000E+00
 -1       984 8.80350E+01 1.69963E+01 0.00000E+00
 -1       985 9.10350E+01 1.69963E+01 0.00000E+00
 -1       986 9.40350E+01 1.69963E+01 0.00000E+00
 -1       987 9.70350E+01 1.69963E+01 0.00000E+00
 -1       988 1.33035E+02 1.69963E+01 0.00000E+00
 -1       989 1.58852E+01 2.81196E+01 0.00000E+00
 -1       990 1.80806E+01 1.39489E+01 0.00000E+00
 -1       991 9.94771E+01 1.91914E+01 0.00000E+00
 -1       992 9.77765E+01 2.39950E+01 0.00000E+00
 -1       993 2.10304E+01 3.14276E+01 0.00000E+00
 -1       994 1.57366E+01 2.58098E+01 0.00000E+00
 -1       995 4.60350E+01 1.69963E+01 0.00000E+00
 -1       996 1.82549E+01 2.44881E+01 0.00000E+00
 -1       997 4.00350E+01 1.69963E+01 0.00000E+00
 -1       998 9.77146E+01 3.01376E+01 0.00000E+00
 -1       999 1.00035E+02 1.69963E+01 0.00000E+00
 -1      1000 2.20350E+01 1.69963E+01 0.00000E+00
 -1      1001 3.40350E+01 1.69963E+01 0.00000E+00
 -1      1002 3.10350E+01 1.69963E+01 0.00000E+00
 -1      1003 9.72830E+01 2.09501E+01 0.00000E+00
 -1      1004 4.90350E+01 1.69963E+01 0.00000E+00
 -1      1005 1.82549E+01 2.15444E+01 0.00000E+00
 -1      1006 1.90351E+01 1.69963E+01 0.00000E+00
 -1      1007 1.87804E+01 2.83204E+01 0.00000E+00
 -1      1008 2.47804E+01 2.89994E+01 0.00000E+00
 -1      1009 2.77804E+01 2.89994E+01 0.00000E+00
 -1      1010 3.07804E+01 2.89994E+01 0.00000E+00
 -1      1011 3.37803E+01 2.89994E+01 0.00000E+00
 -1      1012 3.67803E+01 2.89994E+01 0.00000E+00
 -1      1013 3.97803E+01 2.89994E+01 0.00000E+00
 -1      1014 4.27803E+01 2.89994E+01 0.00000E+00
 -1      1015 4.57803E+01 2.89994E+01 0.00000E+00
 -1      1016 4.87803E+01 2.89994E+01 0.00000E+00
 -1      1017 5.17803E+01 2.89994E+01 0.00000E+00
 -1      1018 5.47803E+01 2.89994E+01 0.00000E+00
 -1      1019 5.77803E+01 2.89994E+01 0.00000E+00
 -1      1020 6.07803E+01 2.89994E+01 0.00000E+00
 -1      1021 6.37803E+01 2.89994E+01 0.00000E+00
 -1      1022 6.67803E+01 2.89994E+01 0.00000E+00
 -1      1023 6.97803E+01 2.89994E+01 0.00000E+00
 -1      1024 7.27803E+01 2.89994E+01 0.00000E+00
 -1      1025 7.57803E+01 2.89994E+01 0.00000E+00
 -1      1026 7.87803E+01 2.89994E+01 0.00000E+00
 -1      1027 8.17803E+01 2.89994E+01 0.00000E+00
 -1      1028 8.47803E+01 2.89994E+01 0.00000E+00
 -1      1029 8.77803E+01 2.89994E+01 0.00000E+00
 -1      1030 9.07803E+01 2.89994E+01 0.00000E+00
 -1      1031 9.37803E+01 2.89994E+01 0.00000E+00
 -1      1032 6.25350E+01 1.95942E+01 0.00000E+00
 -1      1033 1.85176E+01 2.64042E+01 0.00000E+00
 -1      1034 9.55053E+01 2.84866E+01 0.00000E+00
 -1      1035 5.65350E+01 1.95942E+01 0.00000E+00
 -1      1036 5.35350E+01 1.95942E+01 0.00000E+00
 -1      1037 6.55350E+01 1.95942E+01 0.00000E+00
 -1      1038 6.85350E+01 1.95942E+01 0.00000E+00
 -1      1039 7.15350E+01 1.95942E+01 0.00000E+00
 -1      1040 7.45350E+01 1.95942E+01 0.00000E+00
 -1      1041 7.75350E+01 1.95942E+01 0.00000E+00
 -1      1042 8.05350E+01 1.95942E+01 0.00000E+00
 -1      1043 8.35350E+01 1.95942E+01 0.00000E+00
 -1      1044 8.65350E+01 1.95942E+01 0.00000E+00
 -1      1045 8.95350E+01 1.95942E+01 0.00000E+00
 -1      1046 9.25350E+01 1.95942E+01 0.00000E+00
 -1      1047 5.05350E+01 1.95942E+01 0.00000E+00
 -1      1048 3.70350E+01 1.69963E+01 0.00000E+00
 -1      1049 2.50350E+01 1.69963E+01 0.00000E+00
 -1      1050 5.95350E+01 1.95942E+01 0.00000E+00
 -1      1051 2.05351E+01 1.95943E+01 0.00000E+00
 -1      1052 9.52470E+01 2.50944E+01 0.00000E+00
 -1      1053 2.80350E+01 1.69963E+01 0.00000E+00
 -1      1054 4.15350E+01 1.95942E+01 0.00000E+00
 -1      1055 2.25304E+01 2.88296E+01 0.00000E+00
 -1      1056 2.09602E+01 2.50933E+01 0.00000E+00
 -1      1057 1.81860E+01 1.90844E+01 0.00000E+00
 -1      1058 9.47535E+01 2.20494E+01 0.00000E+00
 -1      1059 9.55350E+01 1.95942E+01 0.00000E+00
 -1      1060 2.35351E+01 1.95943E+01 0.00000E+00
 -1      1061 4.45350E+01 1.95942E+01 0.00000E+00
 -1      1062 4.75350E+01 1.95942E+01 0.00000E+00
 -1      1063 3.55350E+01 1.95942E+01 0.00000E+00
 -1      1064 3.25350E+01 1.95942E+01 0.00000E+00
 -1      1065 9.30137E+01 2.70469E+01 0.00000E+00
 -1      1066 3.85350E+01 1.95942E+01 0.00000E+00
 -1      1067 2.01747E+01 2.22554E+01 0.00000E+00
 -1      1068 2.92804E+01 2.64014E+01 0.00000E+00
 -1      1069 3.22803E+01 2.64014E+01 0.00000E+00
 -1      1070 3.52803E+01 2.64014E+01 0.00000E+00
 -1      1071 3.82803E+01 2.64014E+01 0.00000E+00
 -1      1072 4.12803E+01 2.64014E+01 0.00000E+00
 -1      1073 4.42803E+01 2.64014E+01 0.00000E+00
 -1      1074 4.72803E+01 2.64014E+01 0.00000E+00
 -1      1075 5.02803E+01 2.64014E+01 0.00000E+00
 -1      1076 5.32803E+01 2.64014E+01 0.00000E+00
 -1      1077 5.62803E+01 2.64014E+01 0.00000E+00
 -1      1078 5.92803E+01 2.64014E+01 0.00000E+00
 -1      1079 6.22803E+01 2.64014E+01 0.00000E+00
 -1      1080 6.52803E+01 2.64014E+01 0.00000E+00
 -1      1081 6.82803E+01 2.64014E+01 0.00000E+00
 -1      1082 7.12803E+01 2.64014E+01 0.00000E+00
 -1      1083 7.42803E+01 2.64014E+01 0.00000E+00
 -1      1084 7.72803E+01 2.64014E+01 0.00000E+00
 -1      1085 8.02803E+01 2.64014E+01 0.00000E+00
 -1      1086 8.32803E+01 2.64014E+01 0.00000E+00
 -1      1087 8.62803E+01 2.64014E+01 0.00000E+00
 -1      1088 8.92803E+01 2.64014E+01 0.00000E+00
 -1      1089 6.70350E+01 2.21922E+01 0.00000E+00
 -1      1090 2.12229E+01 2.70094E+01 0.00000E+00
 -1      1091 5.80350E+01 2.21922E+01 0.00000E+00
 -1      1092 6.40350E+01 2.21922E+01 0.00000E+00
 -1      1093 7.00350E+01 2.21922E+01 0.00000E+00
 -1      1094 7.30350E+01 2.21922E+01 0.00000E+00
 -1      1095 7.60350E+01 2.21922E+01 0.00000E+00
 -1      1096 7.90350E+01 2.21922E+01 0.00000E+00
 -1      1097 8.20350E+01 2.21922E+01 0.00000E+00
 -1      1098 8.50350E+01 2.21922E+01 0.00000E+00
 -1      1099 8.80350E+01 2.21922E+01 0.00000E+00
 -1      1100 9.10350E+01 2.21922E+01 0.00000E+00
 -1      1101 5.20350E+01 2.21922E+01 0.00000E+00
 -1      1102 6.10350E+01 2.21922E+01 0.00000E+00
 -1      1103 2.30713E+01 2.29813E+01 0.00000E+00
 -1      1104 5.50350E+01 2.21922E+01 0.00000E+00
 -1      1105 2.62804E+01 2.64014E+01 0.00000E+00
 -1      1106 4.90350E+01 2.21922E+01 0.00000E+00
 -1      1107 2.40304E+01 2.62316E+01 0.00000E+00
 -1      1108 4.60350E+01 2.21922E+01 0.00000E+00
 -1      1109 3.70350E+01 2.21922E+01 0.00000E+00
 -1      1110 2.65351E+01 1.95943E+01 0.00000E+00
 -1      1111 3.40350E+01 2.21922E+01 0.00000E+00
 -1      1112 2.95350E+01 1.95943E+01 0.00000E+00
 -1      1113 9.20169E+01 2.42254E+01 0.00000E+00
 -1      1114 4.30350E+01 2.21922E+01 0.00000E+00
 -1      1115 4.00350E+01 2.21922E+01 0.00000E+00
 -1      1116 3.07804E+01 2.38034E+01 0.00000E+00
 -1      1117 2.53213E+01 2.31510E+01 0.00000E+00
 -1      1118 2.80508E+01 2.34772E+01 0.00000E+00
 -1      1119 0.00000E+00 4.85250E+01 0.00000E+00
 -1      1120 0.00000E+00 4.55750E+01 0.00000E+00
 -1      1121 0.00000E+00 4.26250E+01 0.00000E+00
 -1      1122 0.00000E+00 3.96750E+01 0.00000E+00
 -1      1123 0.00000E+00 3.67250E+01 0.00000E+00
 -1      1124 0.00000E+00 3.38000E+01 0.00000E+00
 -1      1125 0.00000E+00 3.08750E+01 0.00000E+00
 -1      1126 0.00000E+00 2.79250E+01 0.00000E+00
 -1      1127 0.00000E+00 2.49750E+01 0.00000E+00
 -1      1128 0.00000E+00 2.20250E+01 0.00000E+00
 -1      1129 0.00000E+00 1.90750E+01 0.00000E+00
 -1      1130 0.00000E+00 1.61500E+01 0.00000E+00
 -1      1131 0.00000E+00 1.32250E+01 0.00000E+00
 -1      1132 0.00000E+00 1.02750E+01 0.00000E+00
 -1      1133 0.00000E+00 7.32500E+00 0.00000E+00
 -1      1134 0.00000E+00 4.37500E+00 0.00000E+00
 -1      1135 0.00000E+00 1.45000E+00 0.00000E+00
 -1      1136 1.57500E+00 5.00000E+01 0.00000E+00
 -1      1137 4.65000E+00 5.00000E+01 0.00000E+00
 -1      1138 7.65000E+00 5.00000E+01 0.00000E+00
 -1      1139 1.06500E+01 5.00000E+01 0.00000E+00
 -1      1140 1.36500E+01 5.00000E+01 0.00000E+00
 -1      1141 1.66500E+01 5.00000E+01 0.00000E+00
 -1      1142 1.96500E+01 5.00000E+01 0.00000E+00
 -1      1143 2.26500E+01 5.00000E+01 0.00000E+00
 -1      1144 2.56500E+01 5.00000E+01 0.00000E+00
 -1      1145 2.86500E+01 5.00000E+01 0.00000E+00
 -1      1146 3.16500E+01 5.00000E+01 0.00000E+00
 -1      1147 3.46500E+01 5.00000E+01 0.00000E+00
 -1      1148 3.76500E+01 5.00000E+01 0.00000E+00
 -1      1149 4.06500E+01 5.00000E+01 0.00000E+00
 -1      1150 4.36500E+01 5.00000E+01 0.00000E+00
 -1      1151 4.66500E+01 5.00000E+01 0.00000E+00
 -1      1152 4.96500E+01 5.00000E+01 0.00000E+00
 -1      1153 5.26500E+01 5.00000E+01 0.00000E+00
 -1      1154 5.56500E+01 5.00000E+01 0.00000E+00
 -1      1155 5.86500E+01 5.00000E+01 0.00000E+00
 -1      1156 6.16500E+01 5.00000E+01 0.00000E+00
 -1      1157 6.46500E+01 5.00000E+01 0.00000E+00
 -1      1158 6.76500E+01 5.00000E+01 0.00000E+00
 -1      1159 7.06500E+01 5.00000E+01 0.00000E+00
 -1      1160 7.36500E+01 5.00000E+01 0.00000E+00
 -1      1161 7.66500E+01 5.00000E+01 0.00000E+00
 -1      1162 7.96500E+01 5.00000E+01 0.00000E+00
 -1      1163 8.26500E+01 5.00000E+01 0.00000E+00
 -1      1164 8.56500E+01 5.00000E+01 0.00000E+00
 -1      1165 8.86500E+01 5.00000E+01 0.00000E+00
 -1      1166 9.16500E+01 5.00000E+01 0.00000E+00
 -1      1167 9.46500E+01 5.00000E+01 0.00000E+00
 -1      1168 9.76500E+01 5.00000E+01 0.00000E+00
 -1      1169 1.00650E+02 5.00000E+01 0.00000E+00
 -1      1170 1.03650E+02 5.00000E+01 0.00000E+00
 -1      1171 1.06650E+02 5.00000E+01 0.00000E+00
 -1      1172 1.09650E+02 5.00000E+01 0.00000E+00
 -1      1173 1.12650E+02 5.00000E+01 0.00000E+00
 -1      1174 1.15650E+02 5.00000E+01 0.00000E+00
 -1      1175 1.18650E+02 5.00000E+01 0.00000E+00
 -1      1176 1.21650E+02 5.00000E+01 0.00000E+00
 -1      1177 1.24650E+02 5.00000E+01 0.00000E+00
 -1      1178 1.27650E+02 5.00000E+01 0.00000E+00
 -1      1179 1.30650E+02 5.00000E+01 0.00000E+00
 -1      1180 1.33650E+02 5.00000E+01 0.00000E+00
 -1      1181 1.36650E+02 5.00000E+01 0.00000E+00
 -1      1182 1.39650E+02 5.00000E+01 0.00000E+00
 -1      1183 1.42650E+02 5.00000E+01 0.00000E+00
 -1      1184 1.45650E+02 5.00000E+01 0.00000E+00
 -1      1185 1.48575E+02 5.00000E+01 0.00000E+00
 -1      1186 1.57500E+00 0.00000E+00 0.00000E+00
 -1      1187 4.65000E+00 0.00000E+00 0.00000E+00
 -1      1188 7.65000E+00 0.00000E+00 0.00000E+00
 -1      1189 1.06500E+01 0.00000E+00 0.00000E+00
 -1      1190 1.36500E+01 0.00000E+00 0.00000E+00
 -1      1191 1.66500E+01 0.00000E+00 0.00000E+00
 -1      1192 1.96500E+01 0.00000E+00 0.00000E+00
 -1      1193 2.26500E+01 0.00000E+00 0.00000E+00
 -1      1194 2.56500E+01 0.00000E+00 0.00000E+00
 -1      1195 2.86500E+01 0.00000E+00 0.00000E+00
 -1      1196 3.16500E+01 0.00000E+00 0.00000E+00
 -1      1197 3.46500E+01 0.00000E+00 0.00000E+00
 -1      1198 3.76500E+01 0.00000E+00 0.00000E+00
 -1      1199 4.06500E+01 0.00000E+00 0.00000E+00
 -1      1200 4.36500E+01 0.00000E+00 0.00000E+00
 -1      1201 4.66500E+01 0.00000E+00 0.00000E+00
 -1      1202 4.96500E+01 0.00000E+00 0.00000E+00
 -1      1203 5.26500E+01 0.00000E+00 0.00000E+00
 -1      1204 5.56500E+01 0.00000E+00 0.00000E+00
 -1      1205 5.86500E+01 0.00000E+00 0.00000E+00
 -1      1206 6.16500E+01 0.00000E+00 0.00000E+00
 -1      1207 6.46500E+01 0.00000E+00 0.00000E+00
 -1      1208 6.76500E+01 0.00000E+00 0.00000E+00
 -1      1209 7.06500E+01 0.00000E+00 0.00000E+00
 -1      1210 7.36500E+01 0.00000E+00 0.00000E+00
 -1      1211 7.66500E+01 0.00000E+00 0.00000E+00
 -1      1212 7.96500E+01 0.00000E+00 0.00000E+00
 -1      1213 8.26500E+01 0.00000E+00 0.00000E+00
 -1      1214 8.56500E+01 0.00000E+00 0.00000E+00
 -1      1215 8.86500E+01 0.00000E+00 0.00000E+00
 -1      1216 9.16500E+01 0.00000E+00 0.00000E+00
 -1      1217 9.46500E+01 0.00000E+00 0.00000E+00
 -1      1218 9.76500E+01 0.00000E+00 0.00000E+00
 -1      1219 1.00650E+02 0.00000E+00 0.00000E+00
 -1      1220 1.03650E+02 0.00000E+00 0.00000E+00
 -1      1221 1.06650E+02 0.00000E+00 0.00000E+00
 -1      1222 1.09650E+02 0.00000E+00 0.00000E+00
 -1      1223 1.12650E+02 0.00000E+00 0.00000E+00
 -1      1224 1.15650E+02 0.00000E+00 0.00000E+00
 -1      1225 1.18650E+02 0.00000E+00 0.00000E+00
 -1      1226 1.21650E+02 0.00000E+00 0.00000E+00
 -1      1227 1.24650E+02 0.00000E+00 0.00000E+00
 -1      1228 1.27650E+02 0.00000E+00 0.00000E+00
 -1      1229 1.30650E+02 0.00000E+00 0.00000E+00
 -1      1230 1.33650E+02 0.00000E+00 0.00000E+00
 -1      1231 1.36650E+02 0.00000E+00 0.00000E+00
 -1      1232 1.39650E+02 0.00000E+00 0.00000E+00
 -1      1233 1.42650E+02 0.00000E+00 0.00000E+00
 -1      1234 1.45650E+02 0.00000E+00 0.00000E+00
 -1      1235 1.48575E+02 0.00000E+00 0.00000E+00
 -1      1236 1.50000E+02 1.47500E+00 0.00000E+00
 -1      1237 1.50000E+02 4.42500E+00 0.00000E+00
 -1      1238 1.50000E+02 7.37500E+00 0.00000E+00
 -1      1239 1.50000E+02 1.03250E+01 0.00000E+00
 -1      1240 1.50000E+02 1.32750E+01 0.00000E+00
 -1      1241 1.50000E+02 1.62000E+01 0.00000E+00
 -1      1242 1.50000E+02 1.91250E+01 0.00000E+00
 -1      1243 1.50000E+02 2.20750E+01 0.00000E+00
 -1      1244 1.50000E+02 2.50250E+01 0.00000E+00
 -1      1245 1.50000E+02 2.79750E+01 0.00000E+00
 -1      1246 1.50000E+02 3.09250E+01 0.00000E+00
 -1      1247 1.50000E+02 3.38500E+01 0.00000E+00
 -1      1248 1.50000E+02 3.67750E+01 0.00000E+00
 -1      1249 1.50000E+02 3.97250E+01 0.00000E+00
 -1      1250 1.50000E+02 4.26750E+01 0.00000E+00
 -1      1251 1.50000E+02 4.56250E+01 0.00000E+00
 -1      1252 1.50000E+02 4.85500E+01 0.00000E+00
 -1      1253 1.23663E+02 2.81565E+01 0.00000E+00
 -1      1254 1.23374E+02 2.67600E+01 0.00000E+00
 -1      1255 1.22815E+02 2.54629E+01 0.00000E+00
 -1      1256 1.22000E+02 2.42961E+01 0.00000E+00
 -1      1257 1.20922E+02 2.32851E+01 0.00000E+00
 -1      1258 1.19657E+02 2.25233E+01 0.00000E+00
 -1      1259 1.18304E+02 2.20543E+01 0.00000E+00
 -1      1260 1.16885E+02 2.18702E+01 0.00000E+00
 -1      1261 1.15436E+02 2.19825E+01 0.00000E+00
 -1      1262 1.14008E+02 2.24058E+01 0.00000E+00
 -1      1263 1.12663E+02 2.31483E+01 0.00000E+00
 -1      1264 1.11549E+02 2.41267E+01 0.00000E+00
 -1      1265 1.10662E+02 2.53248E+01 0.00000E+00
 -1      1266 1.10053E+02 2.66697E+01 0.00000E+00
 -1      1267 1.09751E+02 2.80105E+01 0.00000E+00
 -1      1268 1.09719E+02 2.94005E+01 0.00000E+00
 -1      1269 1.09962E+02 3.07687E+01 0.00000E+00
 -1      1270 1.10480E+02 3.20819E+01 0.00000E+00
 -1      1271 1.11296E+02 3.33181E+01 0.00000E+00
 -1      1272 1.12361E+02 3.43615E+01 0.00000E+00
 -1      1273 1.13623E+02 3.51558E+01 0.00000E+00
 -1      1274 1.15009E+02 3.56606E+01 0.00000E+00
 -1      1275 1.16524E+02 3.58656E+01 0.00000E+00
 -1      1276 1.18077E+02 3.57307E+01 0.00000E+00
 -1      1277 1.19520E+02 3.52740E+01 0.00000E+00
 -1      1278 1.20814E+02 3.45300E+01 0.00000E+00
 -1      1279 1.21922E+02 3.35277E+01 0.00000E+00
 -1      1280 1.22786E+02 3.23233E+01 0.00000E+00
 -1      1281 1.23366E+02 3.10007E+01 0.00000E+00
 -1      1282 1.23661E+02 2.95895E+01 0.00000E+00
 -1      1283 1.57500E+00 4.85250E+01 0.00000E+00
 -1      1284 1.29900E+00 4.48375E+01 0.00000E+00
 -1      1285 1.29900E+00 4.63125E+01 0.00000E+00
 -1      1286 1.29900E+00 4.18875E+01 0.00000E+00
 -1      1287 1.29900E+00 4.33625E+01 0.00000E+00
 -1      1288 2.59800E+00 4.41000E+01 0.00000E+00
 -1      1289 1.29900E+00 3.89375E+01 0.00000E+00
 -1      1290 1.29900E+00 4.04125E+01 0.00000E+00
 -1      1291 2.59800E+00 4.11500E+01 0.00000E+00
 -1      1292 1.29900E+00 3.59875E+01 0.00000E+00
 -1      1293 1.29900E+00 3.74625E+01 0.00000E+00
 -1      1294 2.59800E+00 3.82000E+01 0.00000E+00
 -1      1295 1.29900E+00 3.30875E+01 0.00000E+00
 -1      1296 1.29900E+00 3.45375E+01 0.00000E+00
 -1      1297 2.59800E+00 3.52750E+01 0.00000E+00
 -1      1298 1.29900E+00 3.01375E+01 0.00000E+00
 -1      1299 1.29900E+00 3.16125E+01 0.00000E+00
 -1      1300 2.59800E+00 3.23500E+01 0.00000E+00
 -1      1301 1.29900E+00 2.71875E+01 0.00000E+00
 -1      1302 1.29900E+00 2.86625E+01 0.00000E+00
 -1      1303 2.59800E+00 2.94000E+01 0.00000E+00
 -1      1304 1.29900E+00 2.42375E+01 0.00000E+00
 -1      1305 1.29900E+00 2.57125E+01 0.00000E+00
 -1      1306 2.59800E+00 2.64500E+01 0.00000E+00
 -1      1307 1.29900E+00 2.12875E+01 0.00000E+00
 -1      1308 1.29900E+00 2.27625E+01 0.00000E+00
 -1      1309 2.59800E+00 2.35000E+01 0.00000E+00
 -1      1310 1.29900E+00 1.83375E+01 0.00000E+00
 -1      1311 1.29900E+00 1.98125E+01 0.00000E+00
 -1      1312 2.59800E+00 2.05500E+01 0.00000E+00
 -1      1313 1.29900E+00 1.54375E+01 0.00000E+00
 -1      1314 1.29900E+00 1.68875E+01 0.00000E+00
 -1      1315 2.59800E+00 1.76250E+01 0.00000E+00
 -1      1316 1.29900E+00 1.24875E+01 0.00000E+00
 -1      1317 1.29900E+00 1.39625E+01 0.00000E+00
 -1      1318 2.59800E+00 1.47000E+01 0.00000E+00
 -1      1319 1.29900E+00 9.53750E+00 0.00000E+00
 -1      1320 1.29900E+00 1.10125E+01 0.00000E+00
 -1      1321 2.59800E+00 1.17500E+01 0.00000E+00
 -1      1322 1.29900E+00 6.58750E+00 0.00000E+00
 -1      1323 1.29900E+00 8.06250E+00 0.00000E+00
 -1      1324 2.59800E+00 8.80000E+00 0.00000E+00
 -1      1325 1.29900E+00 3.63750E+00 0.00000E+00
 -1      1326 1.29900E+00 5.11250E+00 0.00000E+00
 -1      1327 2.59800E+00 5.85000E+00 0.00000E+00
 -1      1328 1.43700E+00 1.09375E+00 0.00000E+00
 -1      1329 1.43700E+00 2.54375E+00 0.00000E+00
 -1      1330 2.73600E+00 3.28125E+00 0.00000E+00
 -1      1331 3.01200E+00 1.09375E+00 0.00000E+00
 -1      1332 3.90000E+00 4.87010E+01 0.00000E+00
 -1      1333 5.40000E+00 4.87010E+01 0.00000E+00
 -1      1334 6.90000E+00 4.87010E+01 0.00000E+00
 -1      1335 8.40000E+00 4.87010E+01 0.00000E+00
 -1      1336 6.15000E+00 4.74020E+01 0.00000E+00
 -1      1337 9.90000E+00 4.87010E+01 0.00000E+00
 -1      1338 1.14000E+01 4.87010E+01 0.00000E+00
 -1      1339 9.15000E+00 4.74020E+01 0.00000E+00
 -1      1340 1.29000E+01 4.87010E+01 0.00000E+00
 -1      1341 1.44000E+01 4.87010E+01 0.00000E+00
 -1      1342 1.21500E+01 4.74020E+01 0.00000E+00
 -1      1343 1.59000E+01 4.87010E+01 0.00000E+00
 -1      1344 1.74000E+01 4.87010E+01 0.00000E+00
 -1      1345 1.51500E+01 4.74020E+01 0.00000E+00
 -1      1346 1.89000E+01 4.87010E+01 0.00000E+00
 -1      1347 2.04000E+01 4.87010E+01 0.00000E+00
 -1      1348 1.81500E+01 4.74020E+01 0.00000E+00
 -1      1349 2.19000E+01 4.87010E+01 0.00000E+00
 -1      1350 2.34000E+01 4.87010E+01 0.00000E+00
 -1      1351 2.11500E+01 4.74020E+01 0.00000E+00
 -1      1352 2.49000E+01 4.87010E+01 0.00000E+00
 -1      1353 2.64000E+01 4.87010E+01 0.00000E+00
 -1      1354 2.41500E+01 4.74020E+01 0.00000E+00
 -1      1355 2.79000E+01 4.87010E+01 0.00000E+00
 -1      1356 2.94000E+01 4.87010E+01 0.00000E+00
 -1      1357 2.71500E+01 4.74020E+01 0.00000E+00
 -1      1358 3.09000E+01 4.87010E+01 0.00000E+00
 -1      1359 3.24000E+01 4.87010E+01 0.00000E+00
 -1      1360 3.01500E+01 4.74020E+01 0.00000E+00
 -1      1361 3.39000E+01 4.87010E+01 0.00000E+00
 -1      1362 3.54000E+01 4.87010E+01 0.00000E+00
 -1      1363 3.31500E+01 4.74020E+01 0.00000E+00
 -1      1364 3.69000E+01 4.87010E+01 0.00000E+00
 -1      1365 3.84000E+01 4.87010E+01 0.00000E+00
 -1      1366 3.61500E+01 4.74020E+01 0.00000E+00
 -1      1367 3.99000E+01 4.87010E+01 0.00000E+00
 -1      1368 4.14000E+01 4.87010E+01 0.00000E+00
 -1      1369 3.91500E+01 4.74020E+01 0.00000E+00
 -1      1370 4.29000E+01 4.87010E+01 0.00000E+00
 -1      1371 4.44000E+01 4.87010E+01 0.00000E+00
 -1      1372 4.21500E+01 4.74020E+01 0.00000E+00
 -1      1373 4.59000E+01 4.87010E+01 0.00000E+00
 -1      1374 4.74000E+01 4.87010E+01 0.00000E+00
 -1      1375 4.51500E+01 4.74020E+01 0.00000E+00
 -1      1376 4.89000E+01 4.87010E+01 0.00000E+00
 -1      1377 5.04000E+01 4.87010E+01 0.00000E+00
 -1      1378 4.81500E+01 4.74020E+01 0.00000E+00
 -1      1379 5.19000E+01 4.87010E+01 0.00000E+00
 -1      1380 5.34000E+01 4.87010E+01 0.00000E+00
 -1      1381 5.11500E+01 4.74020E+01 0.00000E+00
 -1      1382 5.49000E+01 4.87010E+01 0.00000E+00
 -1      1383 5.64000E+01 4.87010E+01 0.00000E+00
 -1      1384 5.41500E+01 4.74020E+01 0.00000E+00
 -1      1385 5.79000E+01 4.87010E+01 0.00000E+00
 -1      1386 5.94000E+01 4.87010E+01 0.00000E+00
 -1      1387 5.71500E+01 4.74020E+01 0.00000E+00
 -1      1388 6.09000E+01 4.87010E+01 0.00000E+00
 -1      1389 6.24000E+01 4.87010E+01 0.00000E+00
 -1      1390 6.01500E+01 4.74020E+01 0.00000E+00
 -1      1391 6.39000E+01 4.87010E+01 0.00000E+00
 -1      1392 6.54000E+01 4.87010E+01 0.00000E+00
 -1      1393 6.31500E+01 4.74020E+01 0.00000E+00
 -1      1394 6.69000E+01 4.87010E+01 0.00000E+00
 -1      1395 6.84000E+01 4.87010E+01 0.00000E+00
 -1      1396 6.61500E+01 4.74020E+01 0.00000E+00
 -1      1397 6.99000E+01 4.87010E+01 0.00000E+00
 -1      1398 7.14000E+01 4.87010E+01 0.00000E+00
 -1      1399 6.91500E+01 4.74020E+01 0.00000E+00
 -1      1400 7.29000E+01 4.87010E+01 0.00000E+00
 -1      1401 7.44000E+01 4.87010E+01 0.00000E+00
 -1      1402 7.21500E+01 4.74020E+01 0.00000E+00
 -1      1403 7.59000E+01 4.87010E+01 0.00000E+00
 -1      1404 7.74000E+01 4.87010E+01 0.00000E+00
 -1      1405 7.51500E+01 4.74020E+01 0.00000E+00
 -1      1406 7.89000E+01 4.87010E+01 0.00000E+00
 -1      1407 8.04000E+01 4.87010E+01 0.00000E+00
 -1      1408 7.81500E+01 4.74020E+01 0.00000E+00
 -1      1409 8.19000E+01 4.87010E+01 0.00000E+00
 -1      1410 8.34000E+01 4.87010E+01 0.00000E+00
 -1      1411 8.11500E+01 4.74020E+01 0.00000E+00
 -1      1412 8.49000E+01 4.87010E+01 0.00000E+00
 -1      1413 8.64000E+01 4.87010E+01 0.00000E+00
 -1      1414 8.41500E+01 4.74020E+01 0.00000E+00
 -1      1415 8.79000E+01 4.87010E+01 0.00000E+00
 -1      1416 8.94000E+01 4.87010E+01 0.00000E+00
 -1      1417 8.71500E+01 4.74020E+01 0.00000E+00
 -1      1418 9.09000E+01 4.87010E+01 0.00000E+00
 -1      1419 9.24000E+01 4.87010E+01 0.00000E+00
 -1      1420 9.01500E+01 4.74020E+01 0.00000E+00
 -1      1421 9.39000E+01 4.87010E+01 0.00000E+00
 -1      1422 9.54000E+01 4.87010E+01 0.00000E+00
 -1      1423 9.31500E+01 4.74020E+01 0.00000E+00
 -1      1424 9.69000E+01 4.87010E+01 0.00000E+00
 -1      1425 9.84000E+01 4.87010E+01 0.00000E+00
 -1      1426 9.61500E+01 4.74020E+01 0.00000E+00
 -1      1427 9.99000E+01 4.87010E+01 0.00000E+00
 -1      1428 1.01400E+02 4.87010E+01 0.00000E+00
 -1      1429 9.91500E+01 4.74020E+01 0.00000E+00
 -1      1430 1.02900E+02 4.87010E+01 0.00000E+00
 -1      1431 1.04400E+02 4.87010E+01 0.00000E+00
 -1      1432 1.02150E+02 4.74020E+01 0.00000E+00
 -1      1433 1.05900E+02 4.87010E+01 0.00000E+00
 -1      1434 1.07400E+02 4.87010E+01 0.00000E+00
 -1      1435 1.05150E+02 4.74020E+01 0.00000E+00
 -1      1436 1.08900E+02 4.87010E+01 0.00000E+00
 -1      1437 1.10400E+02 4.87010E+01 0.00000E+00
 -1      1438 1.08150E+02 4.74020E+01 0.00000E+00
 -1      1439 1.11900E+02 4.87010E+01 0.00000E+00
 -1      1440 1.13400E+02 4.87010E+01 0.00000E+00
 -1      1441 1.11150E+02 4.74020E+01 0.00000E+00
 -1      1442 1.14900E+02 4.87010E+01 0.00000E+00
 -1      1443 1.16400E+02 4.87010E+01 0.00000E+00
 -1      1444 1.14150E+02 4.74020E+01 0.00000E+00
 -1      1445 1.17900E+02 4.87010E+01 0.00000E+00
 -1      1446 1.19400E+02 4.87010E+01 0.00000E+00
 -1      1447 1.17150E+02 4.74020E+01 0.00000E+00
 -1      1448 1.20900E+02 4.87010E+01 0.00000E+00
 -1      1449 1.22400E+02 4.87010E+01 0.00000E+00
 -1      1450 1.20150E+02 4.74020E+01 0.00000E+00
 -1      1451 1.23900E+02 4.87010E+01 0.00000E+00
 -1      1452 1.25400E+02 4.87010E+01 0.00000E+00
 -1      1453 1.23150E+02 4.74020E+01 0.00000E+00
 -1      1454 1.26900E+02 4.87010E+01 0.00000E+00
 -1      1455 1.28400E+02 4.87010E+01 0.00000E+00
 -1      1456 1.26150E+02 4.74020E+01 0.00000E+00
 -1      1457 1.29900E+02 4.87010E+01 0.00000E+00
 -1      1458 1.31400E+02 4.87010E+01 0.00000E+00
 -1      1459 1.29150E+02 4.74020E+01 0.00000E+00
 -1      1460 1.32900E+02 4.87010E+01 0.00000E+00
 -1      1461 1.34400E+02 4.87010E+01 0.00000E+00
 -1      1462 1.32150E+02 4.74020E+01 0.00000E+00
 -1      1463 1.35900E+02 4.87010E+01 0.00000E+00
 -1      1464 1.37400E+02 4.87010E+01 0.00000E+00
 -1      1465 1.35150E+02 4.74020E+01 0.00000E+00
 -1      1466 1.38900E+02 4.87010E+01 0.00000E+00
 -1      1467 1.40400E+02 4.87010E+01 0.00000E+00
 -1      1468 1.38150E+02 4.74020E+01 0.00000E+00
 -1      1469 1.41900E+02 4.87010E+01 0.00000E+00
 -1      1470 1.43400E+02 4.87010E+01 0.00000E+00
 -1      1471 1.41150E+02 4.74020E+01 0.00000E+00
 -1      1472 1.44900E+02 4.87010E+01 0.00000E+00
 -1      1473 1.46400E+02 4.87010E+01 0.00000E+00
 -1      1474 1.44150E+02 4.74020E+01 0.00000E+00
 -1      1475 1.48575E+02 4.85500E+01 0.00000E+00
 -1      1476 1.47825E+02 4.72510E+01 0.00000E+00
 -1      1477 6.01200E+00 1.09375E+00 0.00000E+00
 -1      1478 4.51200E+00 1.09375E+00 0.00000E+00
 -1      1479 4.37400E+00 2.18750E+00 0.00000E+00
 -1      1480 9.01200E+00 1.09375E+00 0.00000E+00
 -1      1481 7.51200E+00 1.09375E+00 0.00000E+00
 -1      1482 7.37400E+00 2.18750E+00 0.00000E+00
 -1      1483 1.20120E+01 1.09375E+00 0.00000E+00
 -1      1484 1.05120E+01 1.09375E+00 0.00000E+00
 -1      1485 1.03740E+01 2.18750E+00 0.00000E+00
 -1      1486 1.50120E+01 1.09375E+00 0.00000E+00
 -1      1487 1.35120E+01 1.09375E+00 0.00000E+00
 -1      1488 1.33740E+01 2.18750E+00 0.00000E+00
 -1      1489 1.80120E+01 1.09375E+00 0.00000E+00
 -1      1490 1.65120E+01 1.09375E+00 0.00000E+00
 -1      1491 1.63740E+01 2.18750E+00 0.00000E+00
 -1      1492 2.10120E+01 1.09375E+00 0.00000E+00
 -1      1493 1.95120E+01 1.09375E+00 0.00000E+00
 -1      1494 1.93740E+01 2.18750E+00 0.00000E+00
 -1      1495 2.40120E+01 1.09375E+00 0.00000E+00
 -1      1496 2.25120E+01 1.09375E+00 0.00000E+00
 -1      1497 2.23740E+01 2.18750E+00 0.00000E+00
 -1      1498 2.70120E+01 1.09375E+00 0.00000E+00
 -1      1499 2.55120E+01 1.09375E+00 0.00000E+00
 -1      1500 2.53740E+01 2.18750E+00 0.00000E+00
 -1      1501 3.00120E+01 1.09375E+00 0.00000E+00
 -1      1502 2.85120E+01 1.09375E+00 0.00000E+00
 -1      1503 2.83740E+01 2.18750E+00 0.00000E+00
 -1      1504 3.30120E+01 1.09375E+00 0.00000E+00
 -1      1505 3.15120E+01 1.09375E+00 0.00000E+00
 -1      1506 3.13740E+01 2.18750E+00 0.00000E+00
 -1      1507 3.60120E+01 1.09375E+00 0.00000E+00
 -1      1508 3.45120E+01 1.09375E+00 0.00000E+00
 -1      1509 3.43740E+01 2.18750E+00 0.00000E+00
 -1      1510 3.90120E+01 1.09375E+00 0.00000E+00
 -1      1511 3.75120E+01 1.09375E+00 0.00000E+00
 -1      1512 3.73740E+01 2.18750E+00 0.00000E+00
 -1      1513 4.20120E+01 1.09375E+00 0.00000E+00
 -1      1514 4.05120E+01 1.09375E+00 0.00000E+00
 -1      1515 4.03740E+01 2.18750E+00 0.00000E+00
 -1      1516 4.50120E+01 1.09375E+00 0.00000E+00
 -1      1517 4.35120E+01 1.09375E+00 0.00000E+00
 -1      1518 4.33740E+01 2.18750E+00 0.00000E+00
 -1      1519 4.80120E+01 1.09375E+00 0.00000E+00
 -1      1520 4.65120E+01 1.09375E+00 0.00000E+00
 -1      1521 4.63740E+01 2.18750E+00 0.00000E+00
 -1      1522 5.10120E+01 1.09375E+00 0.00000E+00
 -1      1523 4.95120E+01 1.09375E+00 0.00000E+00
 -1      1524 4.93740E+01 2.18750E+00 0.00000E+00
 -1      1525 5.40120E+01 1.09375E+00 0.00000E+00
 -1      1526 5.25120E+01 1.09375E+00 0.00000E+00
 -1      1527 5.23740E+01 2.18750E+00 0.00000E+00
 -1      1528 5.70120E+01 1.09375E+00 0.00000E+00
 -1      1529 5.55120E+01 1.09375E+00 0.00000E+00
 -1      1530 5.53740E+01 2.18750E+00 0.00000E+00
 -1      1531 6.00120E+01 1.09375E+00 0.00000E+00
 -1      1532 5.85120E+01 1.09375E+00 0.00000E+00
 -1      1533 5.83740E+01 2.18750E+00 0.00000E+00
 -1      1534 6.30120E+01 1.09375E+00 0.00000E+00
 -1      1535 6.15120E+01 1.09375E+00 0.00000E+00
 -1      1536 6.13740E+01 2.18750E+00 0.00000E+00
 -1      1537 6.60120E+01 1.09375E+00 0.00000E+00
 -1      1538 6.45120E+01 1.09375E+00 0.00000E+00
 -1      1539 6.43740E+01 2.18750E+00 0.00000E+00
 -1      1540 6.90120E+01 1.09375E+00 0.00000E+00
 -1      1541 6.75120E+01 1.09375E+00 0.00000E+00
 -1      1542 6.73740E+01 2.18750E+00 0.00000E+00
 -1      1543 7.20120E+01 1.09375E+00 0.00000E+00
 -1      1544 7.05120E+01 1.09375E+00 0.00000E+00
 -1      1545 7.03740E+01 2.18750E+00 0.00000E+00
 -1      1546 7.50120E+01 1.09375E+00 0.00000E+00
 -1      1547 7.35120E+01 1.09375E+00 0.00000E+00
 -1      1548 7.33740E+01 2.18750E+00 0.00000E+00
 -1      1549 7.80120E+01 1.09375E+00 0.00000E+00
 -1      1550 7.65120E+01 1.09375E+00 0.00000E+00
 -1      1551 7.63740E+01 2.18750E+00 0.00000E+00
 -1      1552 8.10120E+01 1.09375E+00 0.00000E+00
 -1      1553 7.95120E+01 1.09375E+00 0.00000E+00
 -1      1554 7.93740E+01 2.18750E+00 0.00000E+00
 -1      1555 8.40120E+01 1.09375E+00 0.00000E+00
 -1      1556 8.25120E+01 1.09375E+00 0.00000E+00
 -1      1557 8.23740E+01 2.18750E+00 0.00000E+00
 -1      1558 8.70120E+01 1.09375E+00 0.00000E+00
 -1      1559 8.55120E+01 1.09375E+00 0.00000E+00
 -1      1560 8.53740E+01 2.18750E+00 0.00000E+00
 -1      1561 9.00120E+01 1.09375E+00 0.00000E+00
 -1      1562 8.85120E+01 1.09375E+00 0.00000E+00
 -1      1563 8.83740E+01 2.18750E+00 0.00000E+00
 -1      1564 9.30120E+01 1.09375E+00 0.00000E+00
 -1      1565 9.15120E+01 1.09375E+00 0.00000E+00
 -1      1566 9.13740E+01 2.18750E+00 0.00000E+00
 -1      1567 9.60120E+01 1.09375E+00 0.00000E+00
 -1      1568 9.45120E+01 1.09375E+00 0.00000E+00
 -1      1569 9.43740E+01 2.18750E+00 0.00000E+00
 -1      1570 9.90120E+01 1.09375E+00 0.00000E+00
 -1      1571 9.75120E+01 1.09375E+00 0.00000E+00
 -1      1572 9.73740E+01 2.18750E+00 0.00000E+00
 -1      1573 1.02012E+02 1.09375E+00 0.00000E+00
 -1      1574 1.00512E+02 1.09375E+00 0.00000E+00
 -1      1575 1.00374E+02 2.18750E+00 0.00000E+00
 -1      1576 1.05012E+02 1.09375E+00 0.00000E+00
 -1      1577 1.03512E+02 1.09375E+00 0.00000E+00
 -1      1578 1.03374E+02 2.18750E+00 0.00000E+00
 -1      1579 1.08012E+02 1.09375E+00 0.00000E+00
 -1      1580 1.06512E+02 1.09375E+00 0.00000E+00
 -1      1581 1.06374E+02 2.18750E+00 0.00000E+00
 -1      1582 1.11012E+02 1.09375E+00 0.00000E+00
 -1      1583 1.09512E+02 1.09375E+00 0.00000E+00
 -1      1584 1.09374E+02 2.18750E+00 0.00000E+00
 -1      1585 1.14012E+02 1.09375E+00 0.00000E+00
 -1      1586 1.12512E+02 1.09375E+00 0.00000E+00
 -1      1587 1.12374E+02 2.18750E+00 0.00000E+00
 -1      1588 1.17012E+02 1.09375E+00 0.00000E+00
 -1      1589 1.15512E+02 1.09375E+00 0.00000E+00
 -1      1590 1.15374E+02 2.18750E+00 0.00000E+00
 -1      1591 1.20012E+02 1.09375E+00 0.00000E+00
 -1      1592 1.18512E+02 1.09375E+00 0.00000E+00
 -1      1593 1.18374E+02 2.18750E+00 0.00000E+00
 -1      1594 1.23012E+02 1.09375E+00 0.00000E+00
 -1      1595 1.21512E+02 1.09375E+00 0.00000E+00
 -1      1596 1.21374E+02 2.18750E+00 0.00000E+00
 -1      1597 1.26012E+02 1.09375E+00 0.00000E+00
 -1      1598 1.24512E+02 1.09375E+00 0.00000E+00
 -1      1599 1.24374E+02 2.18750E+00 0.00000E+00
 -1      1600 1.29012E+02 1.09375E+00 0.00000E+00
 -1      1601 1.27512E+02 1.09375E+00 0.00000E+00
 -1      1602 1.27374E+02 2.18750E+00 0.00000E+00
 -1      1603 1.32012E+02 1.09375E+00 0.00000E+00
 -1      1604 1.30512E+02 1.09375E+00 0.00000E+00
 -1      1605 1.30374E+02 2.18750E+00 0.00000E+00
 -1      1606 1.35012E+02 1.09375E+00 0.00000E+00
 -1      1607 1.33512E+02 1.09375E+00 0.00000E+00
 -1      1608 1.33374E+02 2.18750E+00 0.00000E+00
 -1      1609 1.38012E+02 1.09375E+00 0.00000E+00
 -1      1610 1.36512E+02 1.09375E+00 0.00000E+00
 -1      1611 1.36374E+02 2.18750E+00 0.00000E+00
 -1      1612 1.41012E+02 1.09375E+00 0.00000E+00
 -1      1613 1.39512E+02 1.09375E+00 0.00000E+00
 -1      1614 1.39374E+02 2.18750E+00 0.00000E+00
 -1      1615 1.44012E+02 1.09375E+00 0.00000E+00
 -1      1616 1.42512E+02 1.09375E+00 0.00000E+00
 -1      1617 1.42374E+02 2.18750E+00 0.00000E+00
 -1      1618 1.47012E+02 1.09375E+00 0.00000E+00
 -1      1619 1.45512E+02 1.09375E+00 0.00000E+00
 -1      1620 1.45374E+02 2.18750E+00 0.00000E+00
 -1      1621 1.48575E+02 1.47500E+00 0.00000E+00
 -1      1622 1.48701E+02 5.16250E+00 0.00000E+00
 -1      1623 1.48701E+02 3.68750E+00 0.00000E+00
 -1      1624 1.48701E+02 8.11250E+00 0.00000E+00
 -1      1625 1.48701E+02 6.63750E+00 0.00000E+00
 -1      1626 1.47402E+02 5.90000E+00 0.00000E+00
 -1      1627 1.48701E+02 1.10625E+01 0.00000E+00
 -1      1628 1.48701E+02 9.58750E+00 0.00000E+00
 -1      1629 1.47402E+02 8.85000E+00 0.00000E+00
 -1      1630 1.48701E+02 1.40125E+01 0.00000E+00
 -1      1631 1.48701E+02 1.25375E+01 0.00000E+00
 -1      1632 1.47402E+02 1.18000E+01 0.00000E+00
 -1      1633 1.48701E+02 1.69125E+01 0.00000E+00
 -1      1634 1.48701E+02 1.54625E+01 0.00000E+00
 -1      1635 1.47402E+02 1.47250E+01 0.00000E+00
 -1      1636 1.48701E+02 1.98625E+01 0.00000E+00
 -1      1637 1.48701E+02 1.83875E+01 0.00000E+00
 -1      1638 1.47402E+02 1.76500E+01 0.00000E+00
 -1      1639 1.48701E+02 2.28125E+01 0.00000E+00
 -1      1640 1.48701E+02 2.13375E+01 0.00000E+00
 -1      1641 1.47402E+02 2.06000E+01 0.00000E+00
 -1      1642 1.48701E+02 2.57625E+01 0.00000E+00
 -1      1643 1.48701E+02 2.42875E+01 0.00000E+00
 -1      1644 1.47402E+02 2.35500E+01 0.00000E+00
 -1      1645 1.48701E+02 2.87125E+01 0.00000E+00
 -1      1646 1.48701E+02 2.72375E+01 0.00000E+00
 -1      1647 1.47402E+02 2.65000E+01 0.00000E+00
 -1      1648 1.48701E+02 3.16625E+01 0.00000E+00
 -1      1649 1.48701E+02 3.01875E+01 0.00000E+00
 -1      1650 1.47402E+02 2.94500E+01 0.00000E+00
 -1      1651 1.48701E+02 3.45625E+01 0.00000E+00
 -1      1652 1.48701E+02 3.31125E+01 0.00000E+00
 -1      1653 1.47402E+02 3.23750E+01 0.00000E+00
 -1      1654 1.48701E+02 3.75125E+01 0.00000E+00
 -1      1655 1.48701E+02 3.60375E+01 0.00000E+00
 -1      1656 1.47402E+02 3.53000E+01 0.00000E+00
 -1      1657 1.48701E+02 4.04625E+01 0.00000E+00
 -1      1658 1.48701E+02 3.89875E+01 0.00000E+00
 -1      1659 1.47402E+02 3.82500E+01 0.00000E+00
 -1      1660 1.48701E+02 4.34125E+01 0.00000E+00
 -1      1661 1.48701E+02 4.19375E+01 0.00000E+00
 -1      1662 1.47402E+02 4.12000E+01 0.00000E+00
 -1      1663 1.48263E+02 4.60692E+01 0.00000E+00
 -1      1664 1.48263E+02 4.45942E+01 0.00000E+00
 -1      1665 1.46964E+02 4.38568E+01 0.00000E+00
 -1      1666 1.46088E+02 4.62202E+01 0.00000E+00
 -1      1667 1.24235E+02 2.77406E+01 0.00000E+00
 -1      1668 1.24307E+02 2.84481E+01 0.00000E+00
 -1      1669 1.23849E+02 2.62350E+01 0.00000E+00
 -1      1670 1.24065E+02 2.69167E+01 0.00000E+00
 -1      1671 1.23144E+02 2.48802E+01 0.00000E+00
 -1      1672 1.23484E+02 2.54897E+01 0.00000E+00
 -1      1673 1.22225E+02 2.36228E+01 0.00000E+00
 -1      1674 1.22699E+02 2.41723E+01 0.00000E+00
 -1      1675 1.21039E+02 2.25068E+01 0.00000E+00
 -1      1676 1.21639E+02 2.29606E+01 0.00000E+00
 -1      1677 1.19586E+02 2.18170E+01 0.00000E+00
 -1      1678 1.20243E+02 2.21231E+01 0.00000E+00
 -1      1679 1.18101E+02 2.13773E+01 0.00000E+00
 -1      1680 1.18789E+02 2.15394E+01 0.00000E+00
 -1      1681 1.16539E+02 2.12503E+01 0.00000E+00
 -1      1682 1.17263E+02 2.12696E+01 0.00000E+00
 -1      1683 1.14961E+02 2.14069E+01 0.00000E+00
 -1      1684 1.15677E+02 2.12755E+01 0.00000E+00
 -1      1685 1.13407E+02 2.19537E+01 0.00000E+00
 -1      1686 1.14110E+02 2.16607E+01 0.00000E+00
 -1      1687 1.11950E+02 2.28085E+01 0.00000E+00
 -1      1688 1.12582E+02 2.23622E+01 0.00000E+00
 -1      1689 1.10858E+02 2.39729E+01 0.00000E+00
 -1      1690 1.11338E+02 2.34514E+01 0.00000E+00
 -1      1691 1.09834E+02 2.52925E+01 0.00000E+00
 -1      1692 1.10230E+02 2.46181E+01 0.00000E+00
 -1      1693 1.09401E+02 2.68199E+01 0.00000E+00
 -1      1694 1.09619E+02 2.61606E+01 0.00000E+00
 -1      1695 1.09141E+02 2.82777E+01 0.00000E+00
 -1      1696 1.09224E+02 2.76030E+01 0.00000E+00
 -1      1697 1.09136E+02 2.98013E+01 0.00000E+00
 -1      1698 1.09082E+02 2.90928E+01 0.00000E+00
 -1      1699 1.09502E+02 3.12511E+01 0.00000E+00
 -1      1700 1.09318E+02 3.05976E+01 0.00000E+00
 -1      1701 1.10144E+02 3.26681E+01 0.00000E+00
 -1      1702 1.09808E+02 3.20171E+01 0.00000E+00
 -1      1703 1.11096E+02 3.39666E+01 0.00000E+00
 -1      1704 1.10621E+02 3.33893E+01 0.00000E+00
 -1      1705 1.12275E+02 3.50693E+01 0.00000E+00
 -1      1706 1.11692E+02 3.46088E+01 0.00000E+00
 -1      1707 1.13711E+02 3.58288E+01 0.00000E+00
 -1      1708 1.13038E+02 3.54999E+01 0.00000E+00
 -1      1709 1.15224E+02 3.62999E+01 0.00000E+00
 -1      1710 1.14519E+02 3.61246E+01 0.00000E+00
 -1      1711 1.16909E+02 3.65610E+01 0.00000E+00
 -1      1712 1.16106E+02 3.65410E+01 0.00000E+00
 -1      1713 1.18584E+02 3.63337E+01 0.00000E+00
 -1      1714 1.17843E+02 3.64825E+01 0.00000E+00
 -1      1715 1.20111E+02 3.56768E+01 0.00000E+00
 -1      1716 1.19418E+02 3.59822E+01 0.00000E+00
 -1      1717 1.21446E+02 3.47728E+01 0.00000E+00
 -1      1718 1.20851E+02 3.52052E+01 0.00000E+00
 -1      1719 1.22628E+02 3.36487E+01 0.00000E+00
 -1      1720 1.22123E+02 3.42147E+01 0.00000E+00
 -1      1721 1.23460E+02 3.22893E+01 0.00000E+00
 -1      1722 1.23102E+02 3.29187E+01 0.00000E+00
 -1      1723 1.24018E+02 3.08312E+01 0.00000E+00
 -1      1724 1.23798E+02 3.15171E+01 0.00000E+00
 -1      1725 1.24265E+02 2.92892E+01 0.00000E+00
 -1      1726 1.24190E+02 3.00071E+01 0.00000E+00
 -1      1727 1.22367E+02 2.28121E+01 0.00000E+00
 -1      1728 1.23398E+02 2.41822E+01 0.00000E+00
 -1      1729 1.48437E+02 2.56875E+00 0.00000E+00
 -1      1730 1.47138E+02 3.30625E+00 0.00000E+00
 -1      1731 1.24746E+02 2.72046E+01 0.00000E+00
 -1      1732 1.24209E+02 2.56354E+01 0.00000E+00
 -1      1733 1.24873E+02 2.88696E+01 0.00000E+00
 -1      1734 1.20984E+02 2.17663E+01 0.00000E+00
 -1      1735 1.19391E+02 2.11051E+01 0.00000E+00
 -1      1736 1.17756E+02 2.07198E+01 0.00000E+00
 -1      1737 1.16056E+02 2.06373E+01 0.00000E+00
 -1      1738 1.14344E+02 2.09164E+01 0.00000E+00
 -1      1739 1.12668E+02 2.15788E+01 0.00000E+00
 -1      1740 1.11233E+02 2.26303E+01 0.00000E+00
 -1      1741 1.09993E+02 2.39185E+01 0.00000E+00
 -1      1742 1.09150E+02 2.54318E+01 0.00000E+00
 -1      1743 1.08758E+02 2.70830E+01 0.00000E+00
 -1      1744 1.08522E+02 2.86812E+01 0.00000E+00
 -1      1745 1.08645E+02 3.02927E+01 0.00000E+00
 -1      1746 1.09132E+02 3.18549E+01 0.00000E+00
 -1      1747 1.09914E+02 3.33422E+01 0.00000E+00
 -1      1748 1.10986E+02 3.47055E+01 0.00000E+00
 -1      1749 1.12345E+02 3.57783E+01 0.00000E+00
 -1      1750 1.13916E+02 3.65047E+01 0.00000E+00
 -1      1751 1.15607E+02 3.70416E+01 0.00000E+00
 -1      1752 1.17423E+02 3.72041E+01 0.00000E+00
 -1      1753 1.19192E+02 3.67741E+01 0.00000E+00
 -1      1754 1.20765E+02 3.59510E+01 0.00000E+00
 -1      1755 1.22182E+02 3.49212E+01 0.00000E+00
 -1      1756 1.23333E+02 3.36332E+01 0.00000E+00
 -1      1757 1.24147E+02 3.21311E+01 0.00000E+00
 -1      1758 1.24658E+02 3.05347E+01 0.00000E+00
 -1      1759 2.87400E+00 4.77875E+01 0.00000E+00
 -1      1760 3.89700E+00 4.04125E+01 0.00000E+00
 -1      1761 3.89700E+00 4.18875E+01 0.00000E+00
 -1      1762 3.89700E+00 4.33625E+01 0.00000E+00
 -1      1763 3.89700E+00 4.48375E+01 0.00000E+00
 -1      1764 5.19600E+00 4.26250E+01 0.00000E+00
 -1      1765 3.89700E+00 3.45500E+01 0.00000E+00
 -1      1766 3.89700E+00 3.60000E+01 0.00000E+00
 -1      1767 3.89700E+00 3.16000E+01 0.00000E+00
 -1      1768 3.89700E+00 3.30750E+01 0.00000E+00
 -1      1769 5.19600E+00 3.38000E+01 0.00000E+00
 -1      1770 3.89700E+00 2.86500E+01 0.00000E+00
 -1      1771 3.89700E+00 3.01250E+01 0.00000E+00
 -1      1772 5.19600E+00 3.08500E+01 0.00000E+00
 -1      1773 3.89700E+00 2.57000E+01 0.00000E+00
 -1      1774 3.89700E+00 2.71750E+01 0.00000E+00
 -1      1775 5.19600E+00 2.79000E+01 0.00000E+00
 -1      1776 3.89700E+00 2.27500E+01 0.00000E+00
 -1      1777 3.89700E+00 2.42250E+01 0.00000E+00
 -1      1778 5.19600E+00 2.49500E+01 0.00000E+00
 -1      1779 3.89700E+00 1.98000E+01 0.00000E+00
 -1      1780 3.89700E+00 2.12750E+01 0.00000E+00
 -1      1781 5.19600E+00 2.20000E+01 0.00000E+00
 -1      1782 3.89700E+00 1.69000E+01 0.00000E+00
 -1      1783 3.89700E+00 1.83500E+01 0.00000E+00
 -1      1784 5.19600E+00 1.90750E+01 0.00000E+00
 -1      1785 3.89700E+00 1.39500E+01 0.00000E+00
 -1      1786 3.89700E+00 1.54250E+01 0.00000E+00
 -1      1787 5.19600E+00 1.61500E+01 0.00000E+00
 -1      1788 3.89700E+00 1.10000E+01 0.00000E+00
 -1      1789 3.89700E+00 1.24750E+01 0.00000E+00
 -1      1790 5.19600E+00 1.32000E+01 0.00000E+00
 -1      1791 3.89700E+00 8.05000E+00 0.00000E+00
 -1      1792 3.89700E+00 9.52500E+00 0.00000E+00
 -1      1793 5.19600E+00 1.02500E+01 0.00000E+00
 -1      1794 3.89700E+00 5.10000E+00 0.00000E+00
 -1      1795 3.89700E+00 6.57500E+00 0.00000E+00
 -1      1796 5.19600E+00 7.30000E+00 0.00000E+00
 -1      1797 4.20450E+00 3.09687E+00 0.00000E+00
 -1      1798 4.06650E+00 4.19063E+00 0.00000E+00
 -1      1799 5.36550E+00 4.91563E+00 0.00000E+00
 -1      1800 5.70450E+00 3.09687E+00 0.00000E+00
 -1      1801 3.62400E+00 4.64885E+01 0.00000E+00
 -1      1802 8.70450E+00 3.09687E+00 0.00000E+00
 -1      1803 7.20450E+00 3.09687E+00 0.00000E+00
 -1      1804 7.03500E+00 4.00625E+00 0.00000E+00
 -1      1805 4.92300E+00 4.57510E+01 0.00000E+00
 -1      1806 8.40000E+00 4.61030E+01 0.00000E+00
 -1      1807 9.90000E+00 4.61030E+01 0.00000E+00
 -1      1808 1.14000E+01 4.61030E+01 0.00000E+00
 -1      1809 1.29000E+01 4.61030E+01 0.00000E+00
 -1      1810 1.06500E+01 4.48040E+01 0.00000E+00
 -1      1811 1.44000E+01 4.61030E+01 0.00000E+00
 -1      1812 1.59000E+01 4.61030E+01 0.00000E+00
 -1      1813 1.36500E+01 4.48040E+01 0.00000E+00
 -1      1814 1.74000E+01 4.61030E+01 0.00000E+00
 -1      1815 1.89000E+01 4.61030E+01 0.00000E+00
 -1      1816 1.66500E+01 4.48040E+01 0.00000E+00
 -1      1817 2.04000E+01 4.61030E+01 0.00000E+00
 -1      1818 2.19000E+01 4.61030E+01 0.00000E+00
 -1      1819 1.96500E+01 4.48040E+01 0.00000E+00
 -1      1820 2.34000E+01 4.61030E+01 0.00000E+00
 -1      1821 2.49000E+01 4.61030E+01 0.00000E+00
 -1      1822 2.26500E+01 4.48040E+01 0.00000E+00
 -1      1823 2.64000E+01 4.61030E+01 0.00000E+00
 -1      1824 2.79000E+01 4.61030E+01 0.00000E+00
 -1      1825 2.56500E+01 4.48040E+01 0.00000E+00
 -1      1826 2.94000E+01 4.61030E+01 0.00000E+00
 -1      1827 3.09000E+01 4.61030E+01 0.00000E+00
 -1      1828 2.86500E+01 4.48040E+01 0.00000E+00
 -1      1829 3.24000E+01 4.61030E+01 0.00000E+00
 -1      1830 3.39000E+01 4.61030E+01 0.00000E+00
 -1      1831 3.16500E+01 4.48040E+01 0.00000E+00
 -1      1832 3.54000E+01 4.61030E+01 0.00000E+00
 -1      1833 3.69000E+01 4.61030E+01 0.00000E+00
 -1      1834 3.46500E+01 4.48040E+01 0.00000E+00
 -1      1835 3.84000E+01 4.61030E+01 0.00000E+00
 -1      1836 3.99000E+01 4.61030E+01 0.00000E+00
 -1      1837 3.76500E+01 4.48040E+01 0.00000E+00
 -1      1838 4.14000E+01 4.61030E+01 0.00000E+00
 -1      1839 4.29000E+01 4.61030E+01 0.00000E+00
 -1      1840 4.06500E+01 4.48040E+01 0.00000E+00
 -1      1841 4.44000E+01 4.61030E+01 0.00000E+00
 -1      1842 4.59000E+01 4.61030E+01 0.00000E+00
 -1      1843 4.36500E+01 4.48040E+01 0.00000E+00
 -1      1844 4.74000E+01 4.61030E+01 0.00000E+00
 -1      1845 4.89000E+01 4.61030E+01 0.00000E+00
 -1      1846 4.66500E+01 4.48040E+01 0.00000E+00
 -1      1847 5.04000E+01 4.61030E+01 0.00000E+00
 -1      1848 5.19000E+01 4.61030E+01 0.00000E+00
 -1      1849 4.96500E+01 4.48040E+01 0.00000E+00
 -1      1850 5.34000E+01 4.61030E+01 0.00000E+00
 -1      1851 5.49000E+01 4.61030E+01 0.00000E+00
 -1      1852 5.26500E+01 4.48040E+01 0.00000E+00
 -1      1853 5.64000E+01 4.61030E+01 0.00000E+00
 -1      1854 5.79000E+01 4.61030E+01 0.00000E+00
 -1      1855 5.56500E+01 4.48040E+01 0.00000E+00
 -1      1856 5.94000E+01 4.61030E+01 0.00000E+00
 -1      1857 6.09000E+01 4.61030E+01 0.00000E+00
 -1      1858 5.86500E+01 4.48040E+01 0.00000E+00
 -1      1859 6.24000E+01 4.61030E+01 0.00000E+00
 -1      1860 6.39000E+01 4.61030E+01 0.00000E+00
 -1      1861 6.16500E+01 4.48040E+01 0.00000E+00
 -1      1862 6.54000E+01 4.61030E+01 0.00000E+00
 -1      1863 6.69000E+01 4.61030E+01 0.00000E+00
 -1      1864 6.46500E+01 4.48040E+01 0.00000E+00
 -1      1865 6.84000E+01 4.61030E+01 0.00000E+00
 -1      1866 6.99000E+01 4.61030E+01 0.00000E+00
 -1      1867 6.76500E+01 4.48040E+01 0.00000E+00
 -1      1868 7.14000E+01 4.61030E+01 0.00000E+00
 -1      1869 7.29000E+01 4.61030E+01 0.00000E+00
 -1      1870 7.06500E+01 4.48040E+01 0.00000E+00
 -1      1871 7.44000E+01 4.61030E+01 0.00000E+00
 -1      1872 7.59000E+01 4.61030E+01 0.00000E+00
 -1      1873 7.36500E+01 4.48040E+01 0.00000E+00
 -1      1874 7.74000E+01 4.61030E+01 0.00000E+00
 -1      1875 7.89000E+01 4.61030E+01 0.00000E+00
 -1      1876 7.66500E+01 4.48040E+01 0.00000E+00
 -1      1877 8.04000E+01 4.61030E+01 0.00000E+00
 -1      1878 8.19000E+01 4.61030E+01 0.00000E+00
 -1      1879 7.96500E+01 4.48040E+01 0.00000E+00
 -1      1880 8.34000E+01 4.61030E+01 0.00000E+00
 -1      1881 8.49000E+01 4.61030E+01 0.00000E+00
 -1      1882 8.26500E+01 4.48040E+01 0.00000E+00
 -1      1883 8.64000E+01 4.61030E+01 0.00000E+00
 -1      1884 8.79000E+01 4.61030E+01 0.00000E+00
 -1      1885 8.56500E+01 4.48040E+01 0.00000E+00
 -1      1886 8.94000E+01 4.61030E+01 0.00000E+00
 -1      1887 9.09000E+01 4.61030E+01 0.00000E+00
 -1      1888 8.86500E+01 4.48040E+01 0.00000E+00
 -1      1889 9.24000E+01 4.61030E+01 0.00000E+00
 -1      1890 9.39000E+01 4.61030E+01 0.00000E+00
 -1      1891 9.16500E+01 4.48040E+01 0.00000E+00
 -1      1892 9.54000E+01 4.61030E+01 0.00000E+00
 -1      1893 9.69000E+01 4.61030E+01 0.00000E+00
 -1      1894 9.46500E+01 4.48040E+01 0.00000E+00
 -1      1895 9.84000E+01 4.61030E+01 0.00000E+00
 -1      1896 9.99000E+01 4.61030E+01 0.00000E+00
 -1      1897 9.76500E+01 4.48040E+01 0.00000E+00
 -1      1898 1.01400E+02 4.61030E+01 0.00000E+00
 -1      1899 1.02900E+02 4.61030E+01 0.00000E+00
 -1      1900 1.00650E+02 4.48040E+01 0.00000E+00
 -1      1901 1.04400E+02 4.61030E+01 0.00000E+00
 -1      1902 1.05900E+02 4.61030E+01 0.00000E+00
 -1      1903 1.03650E+02 4.48040E+01 0.00000E+00
 -1      1904 1.07400E+02 4.61030E+01 0.00000E+00
 -1      1905 1.08900E+02 4.61030E+01 0.00000E+00
 -1      1906 1.06650E+02 4.48040E+01 0.00000E+00
 -1      1907 1.10400E+02 4.61030E+01 0.00000E+00
 -1      1908 1.11900E+02 4.61030E+01 0.00000E+00
 -1      1909 1.09650E+02 4.48040E+01 0.00000E+00
 -1      1910 1.13400E+02 4.61030E+01 0.00000E+00
 -1      1911 1.14900E+02 4.61030E+01 0.00000E+00
 -1      1912 1.12650E+02 4.48040E+01 0.00000E+00
 -1      1913 1.16400E+02 4.61030E+01 0.00000E+00
 -1      1914 1.17900E+02 4.61030E+01 0.00000E+00
 -1      1915 1.15650E+02 4.48040E+01 0.00000E+00
 -1      1916 1.19400E+02 4.61030E+01 0.00000E+00
 -1      1917 1.20900E+02 4.61030E+01 0.00000E+00
 -1      1918 1.18650E+02 4.48040E+01 0.00000E+00
 -1      1919 1.22400E+02 4.61030E+01 0.00000E+00
 -1      1920 1.23900E+02 4.61030E+01 0.00000E+00
 -1      1921 1.21650E+02 4.48040E+01 0.00000E+00
 -1      1922 1.25400E+02 4.61030E+01 0.00000E+00
 -1      1923 1.26900E+02 4.61030E+01 0.00000E+00
 -1      1924 1.24650E+02 4.48040E+01 0.00000E+00
 -1      1925 1.28400E+02 4.61030E+01 0.00000E+00
 -1      1926 1.29900E+02 4.61030E+01 0.00000E+00
 -1      1927 1.27650E+02 4.48040E+01 0.00000E+00
 -1      1928 1.31400E+02 4.61030E+01 0.00000E+00
 -1      1929 1.32900E+02 4.61030E+01 0.00000E+00
 -1      1930 1.30650E+02 4.48040E+01 0.00000E+00
 -1      1931 1.34400E+02 4.61030E+01 0.00000E+00
 -1      1932 1.35900E+02 4.61030E+01 0.00000E+00
 -1      1933 1.33650E+02 4.48040E+01 0.00000E+00
 -1      1934 1.37400E+02 4.61030E+01 0.00000E+00
 -1      1935 1.38900E+02 4.61030E+01 0.00000E+00
 -1      1936 1.36650E+02 4.48040E+01 0.00000E+00
 -1      1937 1.40400E+02 4.61030E+01 0.00000E+00
 -1      1938 1.41900E+02 4.61030E+01 0.00000E+00
 -1      1939 1.39650E+02 4.48040E+01 0.00000E+00
 -1      1940 1.43244E+02 4.61616E+01 0.00000E+00
 -1      1941 1.44744E+02 4.61616E+01 0.00000E+00
 -1      1942 1.45182E+02 4.49799E+01 0.00000E+00
 -1      1943 1.42494E+02 4.48626E+01 0.00000E+00
 -1      1944 1.17045E+01 3.09687E+00 0.00000E+00
 -1      1945 1.02045E+01 3.09687E+00 0.00000E+00
 -1      1946 1.00350E+01 4.00625E+00 0.00000E+00
 -1      1947 1.47045E+01 3.09687E+00 0.00000E+00
 -1      1948 1.32045E+01 3.09687E+00 0.00000E+00
 -1      1949 1.30350E+01 4.00625E+00 0.00000E+00
 -1      1950 1.77045E+01 3.09687E+00 0.00000E+00
 -1      1951 1.62045E+01 3.09687E+00 0.00000E+00
 -1      1952 1.60350E+01 4.00625E+00 0.00000E+00
 -1      1953 2.07045E+01 3.09687E+00 0.00000E+00
 -1      1954 1.92045E+01 3.09687E+00 0.00000E+00
 -1      1955 1.90350E+01 4.00625E+00 0.00000E+00
 -1      1956 2.37045E+01 3.09687E+00 0.00000E+00
 -1      1957 2.22045E+01 3.09687E+00 0.00000E+00
 -1      1958 2.20350E+01 4.00625E+00 0.00000E+00
 -1      1959 2.67045E+01 3.09687E+00 0.00000E+00
 -1      1960 2.52045E+01 3.09687E+00 0.00000E+00
 -1      1961 2.50350E+01 4.00625E+00 0.00000E+00
 -1      1962 2.97045E+01 3.09687E+00 0.00000E+00
 -1      1963 2.82045E+01 3.09687E+00 0.00000E+00
 -1      1964 2.80350E+01 4.00625E+00 0.00000E+00
 -1      1965 3.27045E+01 3.09687E+00 0.00000E+00
 -1      1966 3.12045E+01 3.09687E+00 0.00000E+00
 -1      1967 3.10350E+01 4.00625E+00 0.00000E+00
 -1      1968 3.57045E+01 3.09687E+00 0.00000E+00
 -1      1969 3.42045E+01 3.09687E+00 0.00000E+00
 -1      1970 3.40350E+01 4.00625E+00 0.00000E+00
 -1      1971 3.87045E+01 3.09687E+00 0.00000E+00
 -1      1972 3.72045E+01 3.09687E+00 0.00000E+00
 -1      1973 3.70350E+01 4.00625E+00 0.00000E+00
 -1      1974 4.17045E+01 3.09687E+00 0.00000E+00
 -1      1975 4.02045E+01 3.09687E+00 0.00000E+00
 -1      1976 4.00350E+01 4.00625E+00 0.00000E+00
 -1      1977 4.47045E+01 3.09687E+00 0.00000E+00
 -1      1978 4.32045E+01 3.09687E+00 0.00000E+00
 -1      1979 4.30350E+01 4.00625E+00 0.00000E+00
 -1      1980 4.77045E+01 3.09687E+00 0.00000E+00
 -1      1981 4.62045E+01 3.09687E+00 0.00000E+00
 -1      1982 4.60350E+01 4.00625E+00 0.00000E+00
 -1      1983 5.07045E+01 3.09687E+00 0.00000E+00
 -1      1984 4.92045E+01 3.09687E+00 0.00000E+00
 -1      1985 4.90350E+01 4.00625E+00 0.00000E+00
 -1      1986 5.37045E+01 3.09687E+00 0.00000E+00
 -1      1987 5.22045E+01 3.09687E+00 0.00000E+00
 -1      1988 5.20350E+01 4.00625E+00 0.00000E+00
 -1      1989 5.67045E+01 3.09687E+00 0.00000E+00
 -1      1990 5.52045E+01 3.09687E+00 0.00000E+00
 -1      1991 5.50350E+01 4.00625E+00 0.00000E+00
 -1      1992 5.97045E+01 3.09687E+00 0.00000E+00
 -1      1993 5.82045E+01 3.09687E+00 0.00000E+00
 -1      1994 5.80350E+01 4.00625E+00 0.00000E+00
 -1      1995 6.27045E+01 3.09687E+00 0.00000E+00
 -1      1996 6.12045E+01 3.09687E+00 0.00000E+00
 -1      1997 6.10350E+01 4.00625E+00 0.00000E+00
 -1      1998 6.57045E+01 3.09687E+00 0.00000E+00
 -1      1999 6.42045E+01 3.09687E+00 0.00000E+00
 -1      2000 6.40350E+01 4.00625E+00 0.00000E+00
 -1      2001 6.87045E+01 3.09687E+00 0.00000E+00
 -1      2002 6.72045E+01 3.09687E+00 0.00000E+00
 -1      2003 6.70350E+01 4.00625E+00 0.00000E+00
 -1      2004 7.17045E+01 3.09687E+00 0.00000E+00
 -1      2005 7.02045E+01 3.09687E+00 0.00000E+00
 -1      2006 7.00350E+01 4.00625E+00 0.00000E+00
 -1      2007 7.47045E+01 3.09687E+00 0.00000E+00
 -1      2008 7.32045E+01 3.09687E+00 0.00000E+00
 -1      2009 7.30350E+01 4.00625E+00 0.00000E+00
 -1      2010 7.77045E+01 3.09687E+00 0.00000E+00
 -1      2011 7.62045E+01 3.09687E+00 0.00000E+00
 -1      2012 7.60350E+01 4.00625E+00 0.00000E+00
 -1      2013 8.07045E+01 3.09687E+00 0.00000E+00
 -1      2014 7.92045E+01 3.09687E+00 0.00000E+00
 -1      2015 7.90350E+01 4.00625E+00 0.00000E+00
 -1      2016 8.37045E+01 3.09687E+00 0.00000E+00
 -1      2017 8.22045E+01 3.09687E+00 0.00000E+00
 -1      2018 8.20350E+01 4.00625E+00 0.00000E+00
 -1      2019 8.67045E+01 3.09687E+00 0.00000E+00
 -1      2020 8.52045E+01 3.09687E+00 0.00000E+00
 -1      2021 8.50350E+01 4.00625E+00 0.00000E+00
 -1      2022 8.97045E+01 3.09687E+00 0.00000E+00
 -1      2023 8.82045E+01 3.09687E+00 0.00000E+00
 -1      2024 8.80350E+01 4.00625E+00 0.00000E+00
 -1      2025 9.27045E+01 3.09687E+00 0.00000E+00
 -1      2026 9.12045E+01 3.09687E+00 0.00000E+00
 -1      2027 9.10350E+01 4.00625E+00 0.00000E+00
 -1      2028 9.57045E+01 3.09687E+00 0.00000E+00
 -1      2029 9.42045E+01 3.09687E+00 0.00000E+00
 -1      2030 9.40350E+01 4.00625E+00 0.00000E+00
 -1      2031 9.87045E+01 3.09687E+00 0.00000E+00
 -1      2032 9.72045E+01 3.09687E+00 0.00000E+00
 -1      2033 9.70350E+01 4.00625E+00 0.00000E+00
 -1      2034 1.01704E+02 3.09687E+00 0.00000E+00
 -1      2035 1.00204E+02 3.09687E+00 0.00000E+00
 -1      2036 1.00035E+02 4.00625E+00 0.00000E+00
 -1      2037 1.04704E+02 3.09687E+00 0.00000E+00
 -1      2038 1.03204E+02 3.09687E+00 0.00000E+00
 -1      2039 1.03035E+02 4.00625E+00 0.00000E+00
 -1      2040 1.07704E+02 3.09687E+00 0.00000E+00
 -1      2041 1.06204E+02 3.09687E+00 0.00000E+00
 -1      2042 1.06035E+02 4.00625E+00 0.00000E+00
 -1      2043 1.10704E+02 3.09687E+00 0.00000E+00
 -1      2044 1.09204E+02 3.09687E+00 0.00000E+00
 -1      2045 1.09035E+02 4.00625E+00 0.00000E+00
 -1      2046 1.13704E+02 3.09687E+00 0.00000E+00
 -1      2047 1.12204E+02 3.09687E+00 0.00000E+00
 -1      2048 1.12035E+02 4.00625E+00 0.00000E+00
 -1      2049 1.16704E+02 3.09687E+00 0.00000E+00
 -1      2050 1.15204E+02 3.09687E+00 0.00000E+00
 -1      2051 1.15035E+02 4.00625E+00 0.00000E+00
 -1      2052 1.19704E+02 3.09687E+00 0.00000E+00
 -1      2053 1.18204E+02 3.09687E+00 0.00000E+00
 -1      2054 1.18035E+02 4.00625E+00 0.00000E+00
 -1      2055 1.22704E+02 3.09687E+00 0.00000E+00
 -1      2056 1.21204E+02 3.09687E+00 0.00000E+00
 -1      2057 1.21035E+02 4.00625E+00 0.00000E+00
 -1      2058 1.25704E+02 3.09687E+00 0.00000E+00
 -1      2059 1.24204E+02 3.09687E+00 0.00000E+00
 -1      2060 1.24035E+02 4.00625E+00 0.00000E+00
 -1      2061 1.28704E+02 3.09687E+00 0.00000E+00
 -1      2062 1.27204E+02 3.09687E+00 0.00000E+00
 -1      2063 1.27035E+02 4.00625E+00 0.00000E+00
 -1      2064 1.31704E+02 3.09687E+00 0.00000E+00
 -1      2065 1.30204E+02 3.09687E+00 0.00000E+00
 -1      2066 1.30035E+02 4.00625E+00 0.00000E+00
 -1      2067 1.34704E+02 3.09687E+00 0.00000E+00
 -1      2068 1.33204E+02 3.09687E+00 0.00000E+00
 -1      2069 1.33035E+02 4.00625E+00 0.00000E+00
 -1      2070 1.37704E+02 3.09687E+00 0.00000E+00
 -1      2071 1.36204E+02 3.09687E+00 0.00000E+00
 -1      2072 1.36035E+02 4.00625E+00 0.00000E+00
 -1      2073 1.40704E+02 3.09687E+00 0.00000E+00
 -1      2074 1.39204E+02 3.09687E+00 0.00000E+00
 -1      2075 1.39035E+02 4.00625E+00 0.00000E+00
 -1      2076 1.43704E+02 3.09687E+00 0.00000E+00
 -1      2077 1.42204E+02 3.09687E+00 0.00000E+00
 -1      2078 1.42035E+02 4.00625E+00 0.00000E+00
 -1      2079 1.46171E+02 3.20156E+00 0.00000E+00
 -1      2080 1.44671E+02 3.20156E+00 0.00000E+00
 -1      2081 1.44502E+02 4.11094E+00 0.00000E+00
 -1      2082 1.46435E+02 4.32031E+00 0.00000E+00
 -1      2083 1.46103E+02 1.25375E+01 0.00000E+00
 -1      2084 1.46103E+02 1.10625E+01 0.00000E+00
 -1      2085 1.46103E+02 9.58750E+00 0.00000E+00
 -1      2086 1.46103E+02 8.11250E+00 0.00000E+00
 -1      2087 1.44804E+02 1.03250E+01 0.00000E+00
 -1      2088 1.46269E+02 6.95391E+00 0.00000E+00
 -1      2089 1.46269E+02 5.47891E+00 0.00000E+00
 -1      2090 1.45302E+02 5.37422E+00 0.00000E+00
 -1      2091 1.44970E+02 7.69141E+00 0.00000E+00
 -1      2092 1.46103E+02 1.54375E+01 0.00000E+00
 -1      2093 1.46103E+02 1.39875E+01 0.00000E+00
 -1      2094 1.44804E+02 1.32500E+01 0.00000E+00
 -1      2095 1.46103E+02 1.83875E+01 0.00000E+00
 -1      2096 1.46103E+02 1.69125E+01 0.00000E+00
 -1      2097 1.44804E+02 1.61750E+01 0.00000E+00
 -1      2098 1.46103E+02 2.13375E+01 0.00000E+00
 -1      2099 1.46103E+02 1.98625E+01 0.00000E+00
 -1      2100 1.44804E+02 1.91250E+01 0.00000E+00
 -1      2101 1.46103E+02 2.42875E+01 0.00000E+00
 -1      2102 1.46103E+02 2.28125E+01 0.00000E+00
 -1      2103 1.44804E+02 2.20750E+01 0.00000E+00
 -1      2104 1.46103E+02 2.72375E+01 0.00000E+00
 -1      2105 1.46103E+02 2.57625E+01 0.00000E+00
 -1      2106 1.44804E+02 2.50250E+01 0.00000E+00
 -1      2107 1.46103E+02 3.01875E+01 0.00000E+00
 -1      2108 1.46103E+02 2.87125E+01 0.00000E+00
 -1      2109 1.44804E+02 2.79750E+01 0.00000E+00
 -1      2110 1.46103E+02 3.30875E+01 0.00000E+00
 -1      2111 1.46103E+02 3.16375E+01 0.00000E+00
 -1      2112 1.44804E+02 3.09000E+01 0.00000E+00
 -1      2113 1.46103E+02 3.60375E+01 0.00000E+00
 -1      2114 1.46103E+02 3.45625E+01 0.00000E+00
 -1      2115 1.44804E+02 3.38250E+01 0.00000E+00
 -1      2116 1.46103E+02 3.89875E+01 0.00000E+00
 -1      2117 1.46103E+02 3.75125E+01 0.00000E+00
 -1      2118 1.44804E+02 3.67750E+01 0.00000E+00
 -1      2119 1.46103E+02 4.19375E+01 0.00000E+00
 -1      2120 1.46103E+02 4.04625E+01 0.00000E+00
 -1      2121 1.44804E+02 3.97250E+01 0.00000E+00
 -1      2122 1.24759E+02 2.49035E+01 0.00000E+00
 -1      2123 1.25125E+02 2.56488E+01 0.00000E+00
 -1      2124 1.25584E+02 2.84841E+01 0.00000E+00
 -1      2125 1.25541E+02 2.93252E+01 0.00000E+00
 -1      2126 1.25377E+02 2.66444E+01 0.00000E+00
 -1      2127 1.25547E+02 2.74683E+01 0.00000E+00
 -1      2128 1.23868E+02 2.34877E+01 0.00000E+00
 -1      2129 1.24313E+02 2.41956E+01 0.00000E+00
 -1      2130 1.25228E+02 2.42090E+01 0.00000E+00
 -1      2131 1.22590E+02 2.20237E+01 0.00000E+00
 -1      2132 1.23176E+02 2.26858E+01 0.00000E+00
 -1      2133 3.89700E+00 3.74688E+01 0.00000E+00
 -1      2134 3.89700E+00 3.89437E+01 0.00000E+00
 -1      2135 5.19600E+00 3.96813E+01 0.00000E+00
 -1      2136 5.19600E+00 3.67438E+01 0.00000E+00
 -1      2137 1.19233E+02 2.02751E+01 0.00000E+00
 -1      2138 1.20030E+02 2.05527E+01 0.00000E+00
 -1      2139 1.17420E+02 2.00232E+01 0.00000E+00
 -1      2140 1.18257E+02 2.01309E+01 0.00000E+00
 -1      2141 1.15604E+02 1.99184E+01 0.00000E+00
 -1      2142 1.16466E+02 1.98931E+01 0.00000E+00
 -1      2143 1.13697E+02 2.03019E+01 0.00000E+00
 -1      2144 1.14548E+02 2.00480E+01 0.00000E+00
 -1      2145 1.11894E+02 2.10522E+01 0.00000E+00
 -1      2146 1.12719E+02 2.06437E+01 0.00000E+00
 -1      2147 1.10336E+02 2.23898E+01 0.00000E+00
 -1      2148 1.10947E+02 2.17469E+01 0.00000E+00
 -1      2149 1.09079E+02 2.36803E+01 0.00000E+00
 -1      2150 1.09707E+02 2.30350E+01 0.00000E+00
 -1      2151 1.09422E+02 2.21516E+01 0.00000E+00
 -1      2152 1.08372E+02 2.56999E+01 0.00000E+00
 -1      2153 1.08587E+02 2.48318E+01 0.00000E+00
 -1      2154 1.08019E+02 2.72661E+01 0.00000E+00
 -1      2155 1.08196E+02 2.64830E+01 0.00000E+00
 -1      2156 1.07633E+02 2.58830E+01 0.00000E+00
 -1      2157 1.07846E+02 2.90419E+01 0.00000E+00
 -1      2158 1.07905E+02 2.82267E+01 0.00000E+00
 -1      2159 1.08104E+02 3.08352E+01 0.00000E+00
 -1      2160 1.07922E+02 3.00389E+01 0.00000E+00
 -1      2161 1.08683E+02 3.24779E+01 0.00000E+00
 -1      2162 1.08377E+02 3.17119E+01 0.00000E+00
 -1      2163 1.09507E+02 3.41294E+01 0.00000E+00
 -1      2164 1.09030E+02 3.34081E+01 0.00000E+00
 -1      2165 1.10717E+02 3.55528E+01 0.00000E+00
 -1      2166 1.10121E+02 3.49107E+01 0.00000E+00
 -1      2167 1.12346E+02 3.66675E+01 0.00000E+00
 -1      2168 1.11583E+02 3.62369E+01 0.00000E+00
 -1      2169 1.14098E+02 3.72612E+01 0.00000E+00
 -1      2170 1.13290E+02 3.69654E+01 0.00000E+00
 -1      2171 1.15877E+02 3.77873E+01 0.00000E+00
 -1      2172 1.14995E+02 3.75462E+01 0.00000E+00
 -1      2173 1.17945E+02 3.78107E+01 0.00000E+00
 -1      2174 1.17010E+02 3.78892E+01 0.00000E+00
 -1      2175 1.19893E+02 3.72728E+01 0.00000E+00
 -1      2176 1.19059E+02 3.76243E+01 0.00000E+00
 -1      2177 1.21529E+02 3.63322E+01 0.00000E+00
 -1      2178 1.20789E+02 3.68038E+01 0.00000E+00
 -1      2179 1.23012E+02 3.52393E+01 0.00000E+00
 -1      2180 1.22335E+02 3.57974E+01 0.00000E+00
 -1      2181 1.24149E+02 3.36444E+01 0.00000E+00
 -1      2182 1.23675E+02 3.43743E+01 0.00000E+00
 -1      2183 1.24948E+02 3.20220E+01 0.00000E+00
 -1      2184 1.24609E+02 3.27942E+01 0.00000E+00
 -1      2185 1.25501E+02 3.02812E+01 0.00000E+00
 -1      2186 1.25329E+02 3.11054E+01 0.00000E+00
 -1      2187 1.20826E+02 2.09364E+01 0.00000E+00
 -1      2188 1.21622E+02 2.13201E+01 0.00000E+00
 -1      2189 1.20668E+02 2.01064E+01 0.00000E+00
 -1      2190 1.24091E+02 2.26992E+01 0.00000E+00
 -1      2191 6.42300E+00 4.57510E+01 0.00000E+00
 -1      2192 7.17300E+00 4.44520E+01 0.00000E+00
 -1      2193 1.25926E+02 2.59125E+01 0.00000E+00
 -1      2194 1.26215E+02 2.79239E+01 0.00000E+00
 -1      2195 1.45665E+02 4.31193E+01 0.00000E+00
 -1      2196 1.26212E+02 2.98958E+01 0.00000E+00
 -1      2197 1.22432E+02 2.11937E+01 0.00000E+00
 -1      2198 1.23242E+02 2.10674E+01 0.00000E+00
 -1      2199 1.22274E+02 2.03638E+01 0.00000E+00
 -1      2200 1.25792E+02 3.17685E+01 0.00000E+00
 -1      2201 1.24950E+02 3.35354E+01 0.00000E+00
 -1      2202 1.23828E+02 3.52505E+01 0.00000E+00
 -1      2203 1.22359E+02 3.66502E+01 0.00000E+00
 -1      2204 1.20656E+02 3.76540E+01 0.00000E+00
 -1      2205 1.18646E+02 3.83094E+01 0.00000E+00
 -1      2206 1.16398E+02 3.83938E+01 0.00000E+00
 -1      2207 1.15787E+02 3.88985E+01 0.00000E+00
 -1      2208 1.16920E+02 3.90004E+01 0.00000E+00
 -1      2209 1.14368E+02 3.80069E+01 0.00000E+00
 -1      2210 1.12528E+02 3.74240E+01 0.00000E+00
 -1      2211 1.10718E+02 3.64420E+01 0.00000E+00
 -1      2212 1.09237E+02 3.49766E+01 0.00000E+00
 -1      2213 1.08276E+02 3.32651E+01 0.00000E+00
 -1      2214 1.07655E+02 3.14582E+01 0.00000E+00
 -1      2215 1.07343E+02 2.76267E+01 0.00000E+00
 -1      2216 1.08302E+02 2.39484E+01 0.00000E+00
 -1      2217 1.08016E+02 2.30650E+01 0.00000E+00
 -1      2218 1.07524E+02 2.42165E+01 0.00000E+00
 -1      2219 1.10997E+02 2.08118E+01 0.00000E+00
 -1      2220 1.12923E+02 1.97753E+01 0.00000E+00
 -1      2221 1.14957E+02 1.93038E+01 0.00000E+00
 -1      2222 1.18897E+02 1.95785E+01 0.00000E+00
 -1      2223 1.16967E+02 1.93042E+01 0.00000E+00
 -1      2224 1.07305E+02 2.95845E+01 0.00000E+00
 -1      2225 1.07850E+01 5.30525E+00 0.00000E+00
 -1      2226 9.28500E+00 5.30525E+00 0.00000E+00
 -1      2227 6.49500E+00 3.01125E+01 0.00000E+00
 -1      2228 6.49500E+00 3.15875E+01 0.00000E+00
 -1      2229 6.49500E+00 3.30625E+01 0.00000E+00
 -1      2230 6.49500E+00 3.45375E+01 0.00000E+00
 -1      2231 7.79400E+00 3.23250E+01 0.00000E+00
 -1      2232 6.49500E+00 2.42125E+01 0.00000E+00
 -1      2233 6.49500E+00 2.56875E+01 0.00000E+00
 -1      2234 6.49500E+00 2.12625E+01 0.00000E+00
 -1      2235 6.49500E+00 2.27375E+01 0.00000E+00
 -1      2236 7.79400E+00 2.34750E+01 0.00000E+00
 -1      2237 6.49500E+00 1.83625E+01 0.00000E+00
 -1      2238 6.49500E+00 1.98125E+01 0.00000E+00
 -1      2239 7.79400E+00 2.05500E+01 0.00000E+00
 -1      2240 6.49500E+00 1.54125E+01 0.00000E+00
 -1      2241 6.49500E+00 1.68875E+01 0.00000E+00
 -1      2242 7.79400E+00 1.76250E+01 0.00000E+00
 -1      2243 6.49500E+00 1.24625E+01 0.00000E+00
 -1      2244 6.49500E+00 1.39375E+01 0.00000E+00
 -1      2245 7.79400E+00 1.46750E+01 0.00000E+00
 -1      2246 6.49500E+00 9.51250E+00 0.00000E+00
 -1      2247 6.49500E+00 1.09875E+01 0.00000E+00
 -1      2248 7.79400E+00 1.17250E+01 0.00000E+00
 -1      2249 1.37850E+01 5.30525E+00 0.00000E+00
 -1      2250 1.22850E+01 5.30525E+00 0.00000E+00
 -1      2251 1.15350E+01 6.60425E+00 0.00000E+00
 -1      2252 9.90000E+00 4.35050E+01 0.00000E+00
 -1      2253 1.14000E+01 4.35050E+01 0.00000E+00
 -1      2254 6.55950E+00 4.28890E+01 0.00000E+00
 -1      2255 8.53650E+00 4.32410E+01 0.00000E+00
 -1      2256 9.28650E+00 4.19420E+01 0.00000E+00
 -1      2257 6.55950E+00 4.14140E+01 0.00000E+00
 -1      2258 1.24395E+02 2.17382E+01 0.00000E+00
 -1      2259 1.25087E+02 2.25400E+01 0.00000E+00
 -1      2260 1.29000E+01 4.35050E+01 0.00000E+00
 -1      2261 1.44000E+01 4.35050E+01 0.00000E+00
 -1      2262 1.21500E+01 4.22060E+01 0.00000E+00
 -1      2263 1.59000E+01 4.35050E+01 0.00000E+00
 -1      2264 1.74000E+01 4.35050E+01 0.00000E+00
 -1      2265 1.51500E+01 4.22060E+01 0.00000E+00
 -1      2266 1.89000E+01 4.35050E+01 0.00000E+00
 -1      2267 2.04000E+01 4.35050E+01 0.00000E+00
 -1      2268 1.81500E+01 4.22060E+01 0.00000E+00
 -1      2269 2.19000E+01 4.35050E+01 0.00000E+00
 -1      2270 2.34000E+01 4.35050E+01 0.00000E+00
 -1      2271 2.11500E+01 4.22060E+01 0.00000E+00
 -1      2272 2.49000E+01 4.35050E+01 0.00000E+00
 -1      2273 2.64000E+01 4.35050E+01 0.00000E+00
 -1      2274 2.41500E+01 4.22060E+01 0.00000E+00
 -1      2275 2.79000E+01 4.35050E+01 0.00000E+00
 -1      2276 2.94000E+01 4.35050E+01 0.00000E+00
 -1      2277 2.71500E+01 4.22060E+01 0.00000E+00
 -1      2278 3.09000E+01 4.35050E+01 0.00000E+00
 -1      2279 3.24000E+01 4.35050E+01 0.00000E+00
 -1      2280 3.01500E+01 4.22060E+01 0.00000E+00
 -1      2281 3.39000E+01 4.35050E+01 0.00000E+00
 -1      2282 3.54000E+01 4.35050E+01 0.00000E+00
 -1      2283 3.31500E+01 4.22060E+01 0.00000E+00
 -1      2284 3.69000E+01 4.35050E+01 0.00000E+00
 -1      2285 3.84000E+01 4.35050E+01 0.00000E+00
 -1      2286 3.61500E+01 4.22060E+01 0.00000E+00
 -1      2287 3.99000E+01 4.35050E+01 0.00000E+00
 -1      2288 4.14000E+01 4.35050E+01 0.00000E+00
 -1      2289 3.91500E+01 4.22060E+01 0.00000E+00
 -1      2290 4.29000E+01 4.35050E+01 0.00000E+00
 -1      2291 4.44000E+01 4.35050E+01 0.00000E+00
 -1      2292 4.21500E+01 4.22060E+01 0.00000E+00
 -1      2293 4.59000E+01 4.35050E+01 0.00000E+00
 -1      2294 4.74000E+01 4.35050E+01 0.00000E+00
 -1      2295 4.51500E+01 4.22060E+01 0.00000E+00
 -1      2296 4.89000E+01 4.35050E+01 0.00000E+00
 -1      2297 5.04000E+01 4.35050E+01 0.00000E+00
 -1      2298 4.81500E+01 4.22060E+01 0.00000E+00
 -1      2299 5.19000E+01 4.35050E+01 0.00000E+00
 -1      2300 5.34000E+01 4.35050E+01 0.00000E+00
 -1      2301 5.11500E+01 4.22060E+01 0.00000E+00
 -1      2302 5.49000E+01 4.35050E+01 0.00000E+00
 -1      2303 5.64000E+01 4.35050E+01 0.00000E+00
 -1      2304 5.41500E+01 4.22060E+01 0.00000E+00
 -1      2305 5.79000E+01 4.35050E+01 0.00000E+00
 -1      2306 5.94000E+01 4.35050E+01 0.00000E+00
 -1      2307 5.71500E+01 4.22060E+01 0.00000E+00
 -1      2308 6.09000E+01 4.35050E+01 0.00000E+00
 -1      2309 6.24000E+01 4.35050E+01 0.00000E+00
 -1      2310 6.01500E+01 4.22060E+01 0.00000E+00
 -1      2311 6.39000E+01 4.35050E+01 0.00000E+00
 -1      2312 6.54000E+01 4.35050E+01 0.00000E+00
 -1      2313 6.31500E+01 4.22060E+01 0.00000E+00
 -1      2314 6.69000E+01 4.35050E+01 0.00000E+00
 -1      2315 6.84000E+01 4.35050E+01 0.00000E+00
 -1      2316 6.61500E+01 4.22060E+01 0.00000E+00
 -1      2317 6.99000E+01 4.35050E+01 0.00000E+00
 -1      2318 7.14000E+01 4.35050E+01 0.00000E+00
 -1      2319 6.91500E+01 4.22060E+01 0.00000E+00
 -1      2320 7.29000E+01 4.35050E+01 0.00000E+00
 -1      2321 7.44000E+01 4.35050E+01 0.00000E+00
 -1      2322 7.21500E+01 4.22060E+01 0.00000E+00
 -1      2323 7.59000E+01 4.35050E+01 0.00000E+00
 -1      2324 7.74000E+01 4.35050E+01 0.00000E+00
 -1      2325 7.51500E+01 4.22060E+01 0.00000E+00
 -1      2326 7.89000E+01 4.35050E+01 0.00000E+00
 -1      2327 8.04000E+01 4.35050E+01 0.00000E+00
 -1      2328 7.81500E+01 4.22060E+01 0.00000E+00
 -1      2329 8.19000E+01 4.35050E+01 0.00000E+00
 -1      2330 8.34000E+01 4.35050E+01 0.00000E+00
 -1      2331 8.11500E+01 4.22060E+01 0.00000E+00
 -1      2332 8.49000E+01 4.35050E+01 0.00000E+00
 -1      2333 8.64000E+01 4.35050E+01 0.00000E+00
 -1      2334 8.41500E+01 4.22060E+01 0.00000E+00
 -1      2335 8.79000E+01 4.35050E+01 0.00000E+00
 -1      2336 8.94000E+01 4.35050E+01 0.00000E+00
 -1      2337 8.71500E+01 4.22060E+01 0.00000E+00
 -1      2338 9.09000E+01 4.35050E+01 0.00000E+00
 -1      2339 9.24000E+01 4.35050E+01 0.00000E+00
 -1      2340 9.01500E+01 4.22060E+01 0.00000E+00
 -1      2341 9.39000E+01 4.35050E+01 0.00000E+00
 -1      2342 9.54000E+01 4.35050E+01 0.00000E+00
 -1      2343 9.31500E+01 4.22060E+01 0.00000E+00
 -1      2344 9.69000E+01 4.35050E+01 0.00000E+00
 -1      2345 9.84000E+01 4.35050E+01 0.00000E+00
 -1      2346 9.61500E+01 4.22060E+01 0.00000E+00
 -1      2347 9.99000E+01 4.35050E+01 0.00000E+00
 -1      2348 1.01400E+02 4.35050E+01 0.00000E+00
 -1      2349 9.91500E+01 4.22060E+01 0.00000E+00
 -1      2350 1.02900E+02 4.35050E+01 0.00000E+00
 -1      2351 1.04400E+02 4.35050E+01 0.00000E+00
 -1      2352 1.02150E+02 4.22060E+01 0.00000E+00
 -1      2353 1.05900E+02 4.35050E+01 0.00000E+00
 -1      2354 1.07400E+02 4.35050E+01 0.00000E+00
 -1      2355 1.05150E+02 4.22060E+01 0.00000E+00
 -1      2356 1.08900E+02 4.35050E+01 0.00000E+00
 -1      2357 1.10400E+02 4.35050E+01 0.00000E+00
 -1      2358 1.08150E+02 4.22060E+01 0.00000E+00
 -1      2359 1.11900E+02 4.35050E+01 0.00000E+00
 -1      2360 1.13400E+02 4.35050E+01 0.00000E+00
 -1      2361 1.11150E+02 4.22060E+01 0.00000E+00
 -1      2362 1.14900E+02 4.35050E+01 0.00000E+00
 -1      2363 1.16400E+02 4.35050E+01 0.00000E+00
 -1      2364 1.14150E+02 4.22060E+01 0.00000E+00
 -1      2365 1.17900E+02 4.35050E+01 0.00000E+00
 -1      2366 1.19400E+02 4.35050E+01 0.00000E+00
 -1      2367 1.17150E+02 4.22060E+01 0.00000E+00
 -1      2368 1.20900E+02 4.35050E+01 0.00000E+00
 -1      2369 1.22400E+02 4.35050E+01 0.00000E+00
 -1      2370 1.20150E+02 4.22060E+01 0.00000E+00
 -1      2371 1.23900E+02 4.35050E+01 0.00000E+00
 -1      2372 1.25400E+02 4.35050E+01 0.00000E+00
 -1      2373 1.23150E+02 4.22060E+01 0.00000E+00
 -1      2374 1.26900E+02 4.35050E+01 0.00000E+00
 -1      2375 1.28400E+02 4.35050E+01 0.00000E+00
 -1      2376 1.26150E+02 4.22060E+01 0.00000E+00
 -1      2377 1.29900E+02 4.35050E+01 0.00000E+00
 -1      2378 1.31400E+02 4.35050E+01 0.00000E+00
 -1      2379 1.29150E+02 4.22060E+01 0.00000E+00
 -1      2380 1.32900E+02 4.35050E+01 0.00000E+00
 -1      2381 1.34400E+02 4.35050E+01 0.00000E+00
 -1      2382 1.32150E+02 4.22060E+01 0.00000E+00
 -1      2383 1.35900E+02 4.35050E+01 0.00000E+00
 -1      2384 1.37400E+02 4.35050E+01 0.00000E+00
 -1      2385 1.35150E+02 4.22060E+01 0.00000E+00
 -1      2386 1.38900E+02 4.35050E+01 0.00000E+00
 -1      2387 1.40400E+02 4.35050E+01 0.00000E+00
 -1      2388 1.38150E+02 4.22060E+01 0.00000E+00
 -1      2389 1.97850E+01 5.30525E+00 0.00000E+00
 -1      2390 1.82850E+01 5.30525E+00 0.00000E+00
 -1      2391 2.27850E+01 5.30525E+00 0.00000E+00
 -1      2392 2.12850E+01 5.30525E+00 0.00000E+00
 -1      2393 2.05350E+01 6.60425E+00 0.00000E+00
 -1      2394 2.57850E+01 5.30525E+00 0.00000E+00
 -1      2395 2.42850E+01 5.30525E+00 0.00000E+00
 -1      2396 2.35350E+01 6.60425E+00 0.00000E+00
 -1      2397 2.87850E+01 5.30525E+00 0.00000E+00
 -1      2398 2.72850E+01 5.30525E+00 0.00000E+00
 -1      2399 2.65350E+01 6.60425E+00 0.00000E+00
 -1      2400 3.17850E+01 5.30525E+00 0.00000E+00
 -1      2401 3.02850E+01 5.30525E+00 0.00000E+00
 -1      2402 2.95350E+01 6.60425E+00 0.00000E+00
 -1      2403 3.47850E+01 5.30525E+00 0.00000E+00
 -1      2404 3.32850E+01 5.30525E+00 0.00000E+00
 -1      2405 3.25350E+01 6.60425E+00 0.00000E+00
 -1      2406 3.77850E+01 5.30525E+00 0.00000E+00
 -1      2407 3.62850E+01 5.30525E+00 0.00000E+00
 -1      2408 3.55350E+01 6.60425E+00 0.00000E+00
 -1      2409 4.07850E+01 5.30525E+00 0.00000E+00
 -1      2410 3.92850E+01 5.30525E+00 0.00000E+00
 -1      2411 3.85350E+01 6.60425E+00 0.00000E+00
 -1      2412 4.37850E+01 5.30525E+00 0.00000E+00
 -1      2413 4.22850E+01 5.30525E+00 0.00000E+00
 -1      2414 4.15350E+01 6.60425E+00 0.00000E+00
 -1      2415 4.67850E+01 5.30525E+00 0.00000E+00
 -1      2416 4.52850E+01 5.30525E+00 0.00000E+00
 -1      2417 4.45350E+01 6.60425E+00 0.00000E+00
 -1      2418 4.97850E+01 5.30525E+00 0.00000E+00
 -1      2419 4.82850E+01 5.30525E+00 0.00000E+00
 -1      2420 4.75350E+01 6.60425E+00 0.00000E+00
 -1      2421 5.27850E+01 5.30525E+00 0.00000E+00
 -1      2422 5.12850E+01 5.30525E+00 0.00000E+00
 -1      2423 5.05350E+01 6.60425E+00 0.00000E+00
 -1      2424 5.57850E+01 5.30525E+00 0.00000E+00
 -1      2425 5.42850E+01 5.30525E+00 0.00000E+00
 -1      2426 5.35350E+01 6.60425E+00 0.00000E+00
 -1      2427 5.87850E+01 5.30525E+00 0.00000E+00
 -1      2428 5.72850E+01 5.30525E+00 0.00000E+00
 -1      2429 5.65350E+01 6.60425E+00 0.00000E+00
 -1      2430 6.17850E+01 5.30525E+00 0.00000E+00
 -1      2431 6.02850E+01 5.30525E+00 0.00000E+00
 -1      2432 5.95350E+01 6.60425E+00 0.00000E+00
 -1      2433 6.47850E+01 5.30525E+00 0.00000E+00
 -1      2434 6.32850E+01 5.30525E+00 0.00000E+00
 -1      2435 6.25350E+01 6.60425E+00 0.00000E+00
 -1      2436 6.77850E+01 5.30525E+00 0.00000E+00
 -1      2437 6.62850E+01 5.30525E+00 0.00000E+00
 -1      2438 6.55350E+01 6.60425E+00 0.00000E+00
 -1      2439 7.07850E+01 5.30525E+00 0.00000E+00
 -1      2440 6.92850E+01 5.30525E+00 0.00000E+00
 -1      2441 6.85350E+01 6.60425E+00 0.00000E+00
 -1      2442 7.37850E+01 5.30525E+00 0.00000E+00
 -1      2443 7.22850E+01 5.30525E+00 0.00000E+00
 -1      2444 7.15350E+01 6.60425E+00 0.00000E+00
 -1      2445 7.67850E+01 5.30525E+00 0.00000E+00
 -1      2446 7.52850E+01 5.30525E+00 0.00000E+00
 -1      2447 7.45350E+01 6.60425E+00 0.00000E+00
 -1      2448 7.97850E+01 5.30525E+00 0.00000E+00
 -1      2449 7.82850E+01 5.30525E+00 0.00000E+00
 -1      2450 7.75350E+01 6.60425E+00 0.00000E+00
 -1      2451 8.27850E+01 5.30525E+00 0.00000E+00
 -1      2452 8.12850E+01 5.30525E+00 0.00000E+00
 -1      2453 8.05350E+01 6.60425E+00 0.00000E+00
 -1      2454 8.57850E+01 5.30525E+00 0.00000E+00
 -1      2455 8.42850E+01 5.30525E+00 0.00000E+00
 -1      2456 8.35350E+01 6.60425E+00 0.00000E+00
 -1      2457 8.87850E+01 5.30525E+00 0.00000E+00
 -1      2458 8.72850E+01 5.30525E+00 0.00000E+00
 -1      2459 8.65350E+01 6.60425E+00 0.00000E+00
 -1      2460 9.17850E+01 5.30525E+00 0.00000E+00
 -1      2461 9.02850E+01 5.30525E+00 0.00000E+00
 -1      2462 8.95350E+01 6.60425E+00 0.00000E+00
 -1      2463 9.47850E+01 5.30525E+00 0.00000E+00
 -1      2464 9.32850E+01 5.30525E+00 0.00000E+00
 -1      2465 9.25350E+01 6.60425E+00 0.00000E+00
 -1      2466 9.77850E+01 5.30525E+00 0.00000E+00
 -1      2467 9.62850E+01 5.30525E+00 0.00000E+00
 -1      2468 9.55350E+01 6.60425E+00 0.00000E+00
 -1      2469 1.00785E+02 5.30525E+00 0.00000E+00
 -1      2470 9.92850E+01 5.30525E+00 0.00000E+00
 -1      2471 9.85350E+01 6.60425E+00 0.00000E+00
 -1      2472 1.03785E+02 5.30525E+00 0.00000E+00
 -1      2473 1.02285E+02 5.30525E+00 0.00000E+00
 -1      2474 1.01535E+02 6.60425E+00 0.00000E+00
 -1      2475 1.06785E+02 5.30525E+00 0.00000E+00
 -1      2476 1.05285E+02 5.30525E+00 0.00000E+00
 -1      2477 1.04535E+02 6.60425E+00 0.00000E+00
 -1      2478 1.09785E+02 5.30525E+00 0.00000E+00
 -1      2479 1.08285E+02 5.30525E+00 0.00000E+00
 -1      2480 1.07535E+02 6.60425E+00 0.00000E+00
 -1      2481 1.12785E+02 5.30525E+00 0.00000E+00
 -1      2482 1.11285E+02 5.30525E+00 0.00000E+00
 -1      2483 1.10535E+02 6.60425E+00 0.00000E+00
 -1      2484 1.15785E+02 5.30525E+00 0.00000E+00
 -1      2485 1.14285E+02 5.30525E+00 0.00000E+00
 -1      2486 1.13535E+02 6.60425E+00 0.00000E+00
 -1      2487 1.18785E+02 5.30525E+00 0.00000E+00
 -1      2488 1.17285E+02 5.30525E+00 0.00000E+00
 -1      2489 1.16535E+02 6.60425E+00 0.00000E+00
 -1      2490 1.21785E+02 5.30525E+00 0.00000E+00
 -1      2491 1.20285E+02 5.30525E+00 0.00000E+00
 -1      2492 1.19535E+02 6.60425E+00 0.00000E+00
 -1      2493 1.24785E+02 5.30525E+00 0.00000E+00
 -1      2494 1.23285E+02 5.30525E+00 0.00000E+00
 -1      2495 1.22535E+02 6.60425E+00 0.00000E+00
 -1      2496 1.27785E+02 5.30525E+00 0.00000E+00
 -1      2497 1.26285E+02 5.30525E+00 0.00000E+00
 -1      2498 1.25535E+02 6.60425E+00 0.00000E+00
 -1      2499 1.30785E+02 5.30525E+00 0.00000E+00
 -1      2500 1.29285E+02 5.30525E+00 0.00000E+00
 -1      2501 1.28535E+02 6.60425E+00 0.00000E+00
 -1      2502 1.33785E+02 5.30525E+00 0.00000E+00
 -1      2503 1.32285E+02 5.30525E+00 0.00000E+00
 -1      2504 1.31535E+02 6.60425E+00 0.00000E+00
 -1      2505 1.36785E+02 5.30525E+00 0.00000E+00
 -1      2506 1.35285E+02 5.30525E+00 0.00000E+00
 -1      2507 1.34535E+02 6.60425E+00 0.00000E+00
 -1      2508 1.39785E+02 5.30525E+00 0.00000E+00
 -1      2509 1.38285E+02 5.30525E+00 0.00000E+00
 -1      2510 1.37535E+02 6.60425E+00 0.00000E+00
 -1      2511 1.42785E+02 5.30525E+00 0.00000E+00
 -1      2512 1.41285E+02 5.30525E+00 0.00000E+00
 -1      2513 1.40535E+02 6.60425E+00 0.00000E+00
 -1      2514 1.44336E+02 5.26953E+00 0.00000E+00
 -1      2515 1.43505E+02 1.69125E+01 0.00000E+00
 -1      2516 1.43505E+02 1.54375E+01 0.00000E+00
 -1      2517 1.43505E+02 1.98625E+01 0.00000E+00
 -1      2518 1.43505E+02 1.83875E+01 0.00000E+00
 -1      2519 1.42206E+02 1.76500E+01 0.00000E+00
 -1      2520 1.43505E+02 1.10625E+01 0.00000E+00
 -1      2521 1.43505E+02 9.58750E+00 0.00000E+00
 -1      2522 1.43505E+02 1.39750E+01 0.00000E+00
 -1      2523 1.43505E+02 1.25250E+01 0.00000E+00
 -1      2524 1.42206E+02 1.17875E+01 0.00000E+00
 -1      2525 1.42206E+02 1.47125E+01 0.00000E+00
 -1      2526 1.43505E+02 2.28125E+01 0.00000E+00
 -1      2527 1.43505E+02 2.13375E+01 0.00000E+00
 -1      2528 1.42206E+02 2.06000E+01 0.00000E+00
 -1      2529 1.43505E+02 2.57625E+01 0.00000E+00
 -1      2530 1.43505E+02 2.42875E+01 0.00000E+00
 -1      2531 1.42206E+02 2.35500E+01 0.00000E+00
 -1      2532 1.43505E+02 2.87125E+01 0.00000E+00
 -1      2533 1.43505E+02 2.72375E+01 0.00000E+00
 -1      2534 1.42206E+02 2.65000E+01 0.00000E+00
 -1      2535 1.43505E+02 3.16125E+01 0.00000E+00
 -1      2536 1.43505E+02 3.01625E+01 0.00000E+00
 -1      2537 1.42206E+02 2.94250E+01 0.00000E+00
 -1      2538 1.43505E+02 3.45625E+01 0.00000E+00
 -1      2539 1.43505E+02 3.30875E+01 0.00000E+00
 -1      2540 1.42206E+02 3.23500E+01 0.00000E+00
 -1      2541 1.43505E+02 3.75125E+01 0.00000E+00
 -1      2542 1.43505E+02 3.60375E+01 0.00000E+00
 -1      2543 1.42206E+02 3.53000E+01 0.00000E+00
 -1      2544 1.43505E+02 4.04625E+01 0.00000E+00
 -1      2545 1.43505E+02 3.89875E+01 0.00000E+00
 -1      2546 1.42206E+02 3.82500E+01 0.00000E+00
 -1      2547 1.27012E+02 2.73869E+01 0.00000E+00
 -1      2548 1.27048E+02 2.84028E+01 0.00000E+00
 -1      2549 1.26713E+02 2.51833E+01 0.00000E+00
 -1      2550 1.26965E+02 2.61788E+01 0.00000E+00
 -1      2551 1.27009E+02 2.93588E+01 0.00000E+00
 -1      2552 1.26970E+02 3.03149E+01 0.00000E+00
 -1      2553 1.27806E+02 2.88218E+01 0.00000E+00
 -1      2554 1.67850E+01 5.30525E+00 0.00000E+00
 -1      2555 1.52850E+01 5.30525E+00 0.00000E+00
 -1      2556 1.75350E+01 6.60425E+00 0.00000E+00
 -1      2557 1.44321E+02 4.30606E+01 0.00000E+00
 -1      2558 1.25677E+02 2.35077E+01 0.00000E+00
 -1      2559 1.26122E+02 2.42156E+01 0.00000E+00
 -1      2560 1.27161E+02 2.44820E+01 0.00000E+00
 -1      2561 1.25980E+02 2.25467E+01 0.00000E+00
 -1      2562 1.20642E+02 1.91420E+01 0.00000E+00
 -1      2563 1.21438E+02 1.95257E+01 0.00000E+00
 -1      2564 1.09967E+02 2.04001E+01 0.00000E+00
 -1      2565 1.10914E+02 1.97054E+01 0.00000E+00
 -1      2566 6.49500E+00 2.71625E+01 0.00000E+00
 -1      2567 6.49500E+00 2.86375E+01 0.00000E+00
 -1      2568 7.79400E+00 2.93750E+01 0.00000E+00
 -1      2569 7.79400E+00 2.64250E+01 0.00000E+00
 -1      2570 1.16606E+02 1.83895E+01 0.00000E+00
 -1      2571 1.17560E+02 1.85195E+01 0.00000E+00
 -1      2572 1.06572E+02 3.01418E+01 0.00000E+00
 -1      2573 1.06496E+02 2.91448E+01 0.00000E+00
 -1      2574 1.18536E+02 1.86638E+01 0.00000E+00
 -1      2575 1.19511E+02 1.88080E+01 0.00000E+00
 -1      2576 1.18174E+02 1.77491E+01 0.00000E+00
 -1      2577 1.14325E+02 1.85175E+01 0.00000E+00
 -1      2578 1.15381E+02 1.83879E+01 0.00000E+00
 -1      2579 1.12123E+02 1.90575E+01 0.00000E+00
 -1      2580 1.13102E+02 1.87157E+01 0.00000E+00
 -1      2581 1.08710E+02 2.16905E+01 0.00000E+00
 -1      2582 1.09338E+02 2.10453E+01 0.00000E+00
 -1      2583 1.09255E+02 1.99390E+01 0.00000E+00
 -1      2584 1.06709E+02 2.60857E+01 0.00000E+00
 -1      2585 1.06885E+02 2.53026E+01 0.00000E+00
 -1      2586 1.06481E+02 2.80070E+01 0.00000E+00
 -1      2587 1.06595E+02 2.70464E+01 0.00000E+00
 -1      2588 1.05847E+02 2.64660E+01 0.00000E+00
 -1      2589 1.07133E+02 3.21020E+01 0.00000E+00
 -1      2590 1.06859E+02 3.12253E+01 0.00000E+00
 -1      2591 1.07724E+02 3.40010E+01 0.00000E+00
 -1      2592 1.07377E+02 3.30708E+01 0.00000E+00
 -1      2593 1.08936E+02 3.58456E+01 0.00000E+00
 -1      2594 1.08322E+02 3.50643E+01 0.00000E+00
 -1      2595 1.10646E+02 3.74242E+01 0.00000E+00
 -1      2596 1.09779E+02 3.67401E+01 0.00000E+00
 -1      2597 1.12741E+02 3.83907E+01 0.00000E+00
 -1      2598 1.11798E+02 3.80928E+01 0.00000E+00
 -1      2599 1.14535E+02 3.89606E+01 0.00000E+00
 -1      2600 1.13638E+02 3.86757E+01 0.00000E+00
 -1      2601 1.12908E+02 3.93444E+01 0.00000E+00
 -1      2602 1.19344E+02 3.90620E+01 0.00000E+00
 -1      2603 1.18230E+02 3.92484E+01 0.00000E+00
 -1      2604 1.21463E+02 3.81051E+01 0.00000E+00
 -1      2605 1.20567E+02 3.85741E+01 0.00000E+00
 -1      2606 1.23213E+02 3.70626E+01 0.00000E+00
 -1      2607 1.22407E+02 3.75975E+01 0.00000E+00
 -1      2608 1.24807E+02 3.53139E+01 0.00000E+00
 -1      2609 1.24145E+02 3.61788E+01 0.00000E+00
 -1      2610 1.25935E+02 3.35184E+01 0.00000E+00
 -1      2611 1.25475E+02 3.43686E+01 0.00000E+00
 -1      2612 1.26697E+02 3.16071E+01 0.00000E+00
 -1      2613 1.26316E+02 3.25238E+01 0.00000E+00
 -1      2614 8.07525E+00 5.11044E+00 0.00000E+00
 -1      2615 6.57525E+00 5.11044E+00 0.00000E+00
 -1      2616 6.40575E+00 6.01981E+00 0.00000E+00
 -1      2617 8.82525E+00 6.40944E+00 0.00000E+00
 -1      2618 1.15974E+02 1.76032E+01 0.00000E+00
 -1      2619 7.79400E+00 3.52687E+01 0.00000E+00
 -1      2620 6.49500E+00 3.60062E+01 0.00000E+00
 -1      2621 6.49500E+00 3.74750E+01 0.00000E+00
 -1      2622 1.45350E+01 6.60425E+00 0.00000E+00
 -1      2623 6.40575E+00 7.49481E+00 0.00000E+00
 -1      2624 1.24237E+02 2.09082E+01 0.00000E+00
 -1      2625 1.25232E+02 2.07491E+01 0.00000E+00
 -1      2626 1.24079E+02 2.00783E+01 0.00000E+00
 -1      2627 1.43586E+02 6.56853E+00 0.00000E+00
 -1      2628 1.20281E+02 1.82273E+01 0.00000E+00
 -1      2629 1.43419E+02 7.72713E+00 0.00000E+00
 -1      2630 1.27494E+02 3.10701E+01 0.00000E+00
 -1      2631 7.70475E+00 8.23231E+00 0.00000E+00
 -1      2632 1.27798E+02 2.66577E+01 0.00000E+00
 -1      2633 1.26840E+02 3.33570E+01 0.00000E+00
 -1      2634 1.22248E+02 1.93994E+01 0.00000E+00
 -1      2635 1.06600E+02 2.44192E+01 0.00000E+00
 -1      2636 1.25791E+02 3.52969E+01 0.00000E+00
 -1      2637 1.11093E+02 1.86458E+01 0.00000E+00
 -1      2638 1.24192E+02 3.71260E+01 0.00000E+00
 -1      2639 1.22317E+02 3.85175E+01 0.00000E+00
 -1      2640 1.15057E+02 3.95672E+01 0.00000E+00
 -1      2641 1.17618E+02 3.97530E+01 0.00000E+00
 -1      2642 1.10859E+02 3.83909E+01 0.00000E+00
 -1      2643 1.08864E+02 3.68278E+01 0.00000E+00
 -1      2644 1.07423E+02 3.48699E+01 0.00000E+00
 -1      2645 1.05747E+02 2.85644E+01 0.00000E+00
 -1      2646 1.07933E+02 2.19586E+01 0.00000E+00
 -1      2647 1.07849E+02 2.08523E+01 0.00000E+00
 -1      2648 1.07155E+02 2.22267E+01 0.00000E+00
 -1      2649 6.55950E+00 3.99453E+01 0.00000E+00
 -1      2650 1.06050E+02 3.07856E+01 0.00000E+00
 -1      2651 1.42120E+02 8.46463E+00 0.00000E+00
 -1      2652 1.13525E+02 1.77997E+01 0.00000E+00
 -1      2653 1.42758E+02 4.35929E+01 0.00000E+00
 -1      2654 1.43241E+02 4.17323E+01 0.00000E+00
 -1      2655 1.41942E+02 4.09948E+01 0.00000E+00
 -1      2656 1.41414E+02 4.35342E+01 0.00000E+00
 -1      2657 1.06582E+02 3.28379E+01 0.00000E+00
 -1      2658 1.20151E+02 3.95131E+01 0.00000E+00
 -1      2659 1.40664E+02 4.22352E+01 0.00000E+00
 -1      2660 9.09300E+00 1.98250E+01 0.00000E+00
 -1      2661 9.09300E+00 2.12750E+01 0.00000E+00
 -1      2662 9.09300E+00 2.27500E+01 0.00000E+00
 -1      2663 9.09300E+00 2.42250E+01 0.00000E+00
 -1      2664 1.03920E+01 2.20250E+01 0.00000E+00
 -1      2665 9.09300E+00 1.39375E+01 0.00000E+00
 -1      2666 9.09300E+00 1.54125E+01 0.00000E+00
 -1      2667 9.09300E+00 1.09875E+01 0.00000E+00
 -1      2668 9.09300E+00 1.24625E+01 0.00000E+00
 -1      2669 1.03920E+01 1.32000E+01 0.00000E+00
 -1      2670 1.22850E+01 7.90325E+00 0.00000E+00
 -1      2671 1.07850E+01 7.90325E+00 0.00000E+00
 -1      2672 1.28799E+02 2.60138E+01 0.00000E+00
 -1      2673 1.28846E+02 2.72219E+01 0.00000E+00
 -1      2674 1.52850E+01 7.90325E+00 0.00000E+00
 -1      2675 1.37850E+01 7.90325E+00 0.00000E+00
 -1      2676 1.30350E+01 9.20225E+00 0.00000E+00
 -1      2677 8.85168E+00 4.05347E+01 0.00000E+00
 -1      2678 1.02152E+01 4.07987E+01 0.00000E+00
 -1      2679 1.17152E+01 4.07987E+01 0.00000E+00
 -1      2680 1.32152E+01 4.07987E+01 0.00000E+00
 -1      2681 1.12804E+01 3.93914E+01 0.00000E+00
 -1      2682 1.47152E+01 4.07987E+01 0.00000E+00
 -1      2683 1.62152E+01 4.07987E+01 0.00000E+00
 -1      2684 1.42804E+01 3.93914E+01 0.00000E+00
 -1      2685 1.77152E+01 4.07987E+01 0.00000E+00
 -1      2686 1.92152E+01 4.07987E+01 0.00000E+00
 -1      2687 1.72804E+01 3.93914E+01 0.00000E+00
 -1      2688 2.07152E+01 4.07987E+01 0.00000E+00
 -1      2689 2.22152E+01 4.07987E+01 0.00000E+00
 -1      2690 2.02804E+01 3.93914E+01 0.00000E+00
 -1      2691 2.37152E+01 4.07987E+01 0.00000E+00
 -1      2692 2.52152E+01 4.07987E+01 0.00000E+00
 -1      2693 2.32804E+01 3.93914E+01 0.00000E+00
 -1      2694 2.67152E+01 4.07987E+01 0.00000E+00
 -1      2695 2.82152E+01 4.07987E+01 0.00000E+00
 -1      2696 2.62804E+01 3.93914E+01 0.00000E+00
 -1      2697 2.97152E+01 4.07987E+01 0.00000E+00
 -1      2698 3.12152E+01 4.07987E+01 0.00000E+00
 -1      2699 2.92804E+01 3.93914E+01 0.00000E+00
 -1      2700 3.27152E+01 4.07987E+01 0.00000E+00
 -1      2701 3.42152E+01 4.07987E+01 0.00000E+00
 -1      2702 3.22803E+01 3.93914E+01 0.00000E+00
 -1      2703 3.57152E+01 4.07987E+01 0.00000E+00
 -1      2704 3.72152E+01 4.07987E+01 0.00000E+00
 -1      2705 3.52803E+01 3.93914E+01 0.00000E+00
 -1      2706 3.87152E+01 4.07987E+01 0.00000E+00
 -1      2707 4.02152E+01 4.07987E+01 0.00000E+00
 -1      2708 3.82803E+01 3.93914E+01 0.00000E+00
 -1      2709 4.17152E+01 4.07987E+01 0.00000E+00
 -1      2710 4.32152E+01 4.07987E+01 0.00000E+00
 -1      2711 4.12803E+01 3.93914E+01 0.00000E+00
 -1      2712 4.47152E+01 4.07987E+01 0.00000E+00
 -1      2713 4.62152E+01 4.07987E+01 0.00000E+00
 -1      2714 4.42803E+01 3.93914E+01 0.00000E+00
 -1      2715 4.77152E+01 4.07987E+01 0.00000E+00
 -1      2716 4.92152E+01 4.07987E+01 0.00000E+00
 -1      2717 4.72803E+01 3.93914E+01 0.00000E+00
 -1      2718 5.07152E+01 4.07987E+01 0.00000E+00
 -1      2719 5.22152E+01 4.07987E+01 0.00000E+00
 -1      2720 5.02803E+01 3.93914E+01 0.00000E+00
 -1      2721 5.37152E+01 4.07987E+01 0.00000E+00
 -1      2722 5.52152E+01 4.07987E+01 0.00000E+00
 -1      2723 5.32803E+01 3.93914E+01 0.00000E+00
 -1      2724 5.67152E+01 4.07987E+01 0.00000E+00
 -1      2725 5.82152E+01 4.07987E+01 0.00000E+00
 -1      2726 5.62803E+01 3.93914E+01 0.00000E+00
 -1      2727 5.97152E+01 4.07987E+01 0.00000E+00
 -1      2728 6.12152E+01 4.07987E+01 0.00000E+00
 -1      2729 5.92803E+01 3.93914E+01 0.00000E+00
 -1      2730 6.27152E+01 4.07987E+01 0.00000E+00
 -1      2731 6.42152E+01 4.07987E+01 0.00000E+00
 -1      2732 6.22803E+01 3.93914E+01 0.00000E+00
 -1      2733 6.57152E+01 4.07987E+01 0.00000E+00
 -1      2734 6.72152E+01 4.07987E+01 0.00000E+00
 -1      2735 6.52803E+01 3.93914E+01 0.00000E+00
 -1      2736 6.87152E+01 4.07987E+01 0.00000E+00
 -1      2737 7.02152E+01 4.07987E+01 0.00000E+00
 -1      2738 6.82803E+01 3.93914E+01 0.00000E+00
 -1      2739 7.17152E+01 4.07987E+01 0.00000E+00
 -1      2740 7.32152E+01 4.07987E+01 0.00000E+00
 -1      2741 7.12803E+01 3.93914E+01 0.00000E+00
 -1      2742 7.47152E+01 4.07987E+01 0.00000E+00
 -1      2743 7.62152E+01 4.07987E+01 0.00000E+00
 -1      2744 7.42803E+01 3.93914E+01 0.00000E+00
 -1      2745 7.77152E+01 4.07987E+01 0.00000E+00
 -1      2746 7.92152E+01 4.07987E+01 0.00000E+00
 -1      2747 7.72803E+01 3.93914E+01 0.00000E+00
 -1      2748 8.07152E+01 4.07987E+01 0.00000E+00
 -1      2749 8.22152E+01 4.07987E+01 0.00000E+00
 -1      2750 8.02803E+01 3.93914E+01 0.00000E+00
 -1      2751 8.37152E+01 4.07987E+01 0.00000E+00
 -1      2752 8.52152E+01 4.07987E+01 0.00000E+00
 -1      2753 8.32803E+01 3.93914E+01 0.00000E+00
 -1      2754 8.67152E+01 4.07987E+01 0.00000E+00
 -1      2755 8.82152E+01 4.07987E+01 0.00000E+00
 -1      2756 8.62803E+01 3.93914E+01 0.00000E+00
 -1      2757 8.97152E+01 4.07987E+01 0.00000E+00
 -1      2758 9.12152E+01 4.07987E+01 0.00000E+00
 -1      2759 8.92803E+01 3.93914E+01 0.00000E+00
 -1      2760 9.27152E+01 4.07987E+01 0.00000E+00
 -1      2761 9.42152E+01 4.07987E+01 0.00000E+00
 -1      2762 9.22803E+01 3.93914E+01 0.00000E+00
 -1      2763 9.57152E+01 4.07987E+01 0.00000E+00
 -1      2764 9.72152E+01 4.07987E+01 0.00000E+00
 -1      2765 9.52803E+01 3.93914E+01 0.00000E+00
 -1      2766 9.87152E+01 4.07987E+01 0.00000E+00
 -1      2767 1.00215E+02 4.07987E+01 0.00000E+00
 -1      2768 9.82803E+01 3.93914E+01 0.00000E+00
 -1      2769 1.01715E+02 4.07987E+01 0.00000E+00
 -1      2770 1.03215E+02 4.07987E+01 0.00000E+00
 -1      2771 1.01280E+02 3.93914E+01 0.00000E+00
 -1      2772 1.04715E+02 4.07987E+01 0.00000E+00
 -1      2773 1.06215E+02 4.07987E+01 0.00000E+00
 -1      2774 1.04280E+02 3.93914E+01 0.00000E+00
 -1      2775 1.10400E+02 4.11809E+01 0.00000E+00
 -1      2776 1.11900E+02 4.11809E+01 0.00000E+00
 -1      2777 1.18789E+02 4.11035E+01 0.00000E+00
 -1      2778 1.20289E+02 4.11035E+01 0.00000E+00
 -1      2779 1.22400E+02 4.10971E+01 0.00000E+00
 -1      2780 1.23900E+02 4.10971E+01 0.00000E+00
 -1      2781 1.25400E+02 4.10971E+01 0.00000E+00
 -1      2782 1.26900E+02 4.10971E+01 0.00000E+00
 -1      2783 1.24650E+02 3.99882E+01 0.00000E+00
 -1      2784 1.28400E+02 4.10971E+01 0.00000E+00
 -1      2785 1.29900E+02 4.10971E+01 0.00000E+00
 -1      2786 1.27650E+02 3.99882E+01 0.00000E+00
 -1      2787 1.31400E+02 4.10971E+01 0.00000E+00
 -1      2788 1.32900E+02 4.10971E+01 0.00000E+00
 -1      2789 1.30650E+02 3.99882E+01 0.00000E+00
 -1      2790 1.34400E+02 4.10971E+01 0.00000E+00
 -1      2791 1.35900E+02 4.10971E+01 0.00000E+00
 -1      2792 1.33650E+02 3.99882E+01 0.00000E+00
 -1      2793 1.37400E+02 4.10971E+01 0.00000E+00
 -1      2794 1.38900E+02 4.10971E+01 0.00000E+00
 -1      2795 1.36650E+02 3.99882E+01 0.00000E+00
 -1      2796 2.42850E+01 7.90325E+00 0.00000E+00
 -1      2797 2.27850E+01 7.90325E+00 0.00000E+00
 -1      2798 1.05953E+02 3.35115E+01 0.00000E+00
 -1      2799 1.05709E+02 3.25427E+01 0.00000E+00
 -1      2800 8.91450E+00 8.42712E+00 0.00000E+00
 -1      2801 2.12850E+01 7.90325E+00 0.00000E+00
 -1      2802 1.97850E+01 7.90325E+00 0.00000E+00
 -1      2803 2.20350E+01 9.20225E+00 0.00000E+00
 -1      2804 3.02850E+01 7.90325E+00 0.00000E+00
 -1      2805 2.87850E+01 7.90325E+00 0.00000E+00
 -1      2806 3.32850E+01 7.90325E+00 0.00000E+00
 -1      2807 3.17850E+01 7.90325E+00 0.00000E+00
 -1      2808 3.10350E+01 9.20225E+00 0.00000E+00
 -1      2809 3.62850E+01 7.90325E+00 0.00000E+00
 -1      2810 3.47850E+01 7.90325E+00 0.00000E+00
 -1      2811 3.40350E+01 9.20225E+00 0.00000E+00
 -1      2812 3.92850E+01 7.90325E+00 0.00000E+00
 -1      2813 3.77850E+01 7.90325E+00 0.00000E+00
 -1      2814 3.70350E+01 9.20225E+00 0.00000E+00
 -1      2815 4.22850E+01 7.90325E+00 0.00000E+00
 -1      2816 4.07850E+01 7.90325E+00 0.00000E+00
 -1      2817 4.00350E+01 9.20225E+00 0.00000E+00
 -1      2818 4.52850E+01 7.90325E+00 0.00000E+00
 -1      2819 4.37850E+01 7.90325E+00 0.00000E+00
 -1      2820 4.30350E+01 9.20225E+00 0.00000E+00
 -1      2821 4.82850E+01 7.90325E+00 0.00000E+00
 -1      2822 4.67850E+01 7.90325E+00 0.00000E+00
 -1      2823 4.60350E+01 9.20225E+00 0.00000E+00
 -1      2824 5.12850E+01 7.90325E+00 0.00000E+00
 -1      2825 4.97850E+01 7.90325E+00 0.00000E+00
 -1      2826 4.90350E+01 9.20225E+00 0.00000E+00
 -1      2827 5.42850E+01 7.90325E+00 0.00000E+00
 -1      2828 5.27850E+01 7.90325E+00 0.00000E+00
 -1      2829 5.20350E+01 9.20225E+00 0.00000E+00
 -1      2830 5.72850E+01 7.90325E+00 0.00000E+00
 -1      2831 5.57850E+01 7.90325E+00 0.00000E+00
 -1      2832 5.50350E+01 9.20225E+00 0.00000E+00
 -1      2833 6.02850E+01 7.90325E+00 0.00000E+00
 -1      2834 5.87850E+01 7.90325E+00 0.00000E+00
 -1      2835 5.80350E+01 9.20225E+00 0.00000E+00
 -1      2836 6.32850E+01 7.90325E+00 0.00000E+00
 -1      2837 6.17850E+01 7.90325E+00 0.00000E+00
 -1      2838 6.10350E+01 9.20225E+00 0.00000E+00
 -1      2839 6.62850E+01 7.90325E+00 0.00000E+00
 -1      2840 6.47850E+01 7.90325E+00 0.00000E+00
 -1      2841 6.40350E+01 9.20225E+00 0.00000E+00
 -1      2842 6.92850E+01 7.90325E+00 0.00000E+00
 -1      2843 6.77850E+01 7.90325E+00 0.00000E+00
 -1      2844 6.70350E+01 9.20225E+00 0.00000E+00
 -1      2845 7.22850E+01 7.90325E+00 0.00000E+00
 -1      2846 7.07850E+01 7.90325E+00 0.00000E+00
 -1      2847 7.00350E+01 9.20225E+00 0.00000E+00
 -1      2848 7.52850E+01 7.90325E+00 0.00000E+00
 -1      2849 7.37850E+01 7.90325E+00 0.00000E+00
 -1      2850 7.30350E+01 9.20225E+00 0.00000E+00
 -1      2851 7.82850E+01 7.90325E+00 0.00000E+00
 -1      2852 7.67850E+01 7.90325E+00 0.00000E+00
 -1      2853 7.60350E+01 9.20225E+00 0.00000E+00
 -1      2854 8.12850E+01 7.90325E+00 0.00000E+00
 -1      2855 7.97850E+01 7.90325E+00 0.00000E+00
 -1      2856 7.90350E+01 9.20225E+00 0.00000E+00
 -1      2857 8.42850E+01 7.90325E+00 0.00000E+00
 -1      2858 8.27850E+01 7.90325E+00 0.00000E+00
 -1      2859 8.20350E+01 9.20225E+00 0.00000E+00
 -1      2860 8.72850E+01 7.90325E+00 0.00000E+00
 -1      2861 8.57850E+01 7.90325E+00 0.00000E+00
 -1      2862 8.50350E+01 9.20225E+00 0.00000E+00
 -1      2863 9.02850E+01 7.90325E+00 0.00000E+00
 -1      2864 8.87850E+01 7.90325E+00 0.00000E+00
 -1      2865 8.80350E+01 9.20225E+00 0.00000E+00
 -1      2866 9.32850E+01 7.90325E+00 0.00000E+00
 -1      2867 9.17850E+01 7.90325E+00 0.00000E+00
 -1      2868 9.10350E+01 9.20225E+00 0.00000E+00
 -1      2869 9.62850E+01 7.90325E+00 0.00000E+00
 -1      2870 9.47850E+01 7.90325E+00 0.00000E+00
 -1      2871 9.40350E+01 9.20225E+00 0.00000E+00
 -1      2872 9.92850E+01 7.90325E+00 0.00000E+00
 -1      2873 9.77850E+01 7.90325E+00 0.00000E+00
 -1      2874 9.70350E+01 9.20225E+00 0.00000E+00
 -1      2875 1.02285E+02 7.90325E+00 0.00000E+00
 -1      2876 1.00785E+02 7.90325E+00 0.00000E+00
 -1      2877 1.00035E+02 9.20225E+00 0.00000E+00
 -1      2878 1.05285E+02 7.90325E+00 0.00000E+00
 -1      2879 1.03785E+02 7.90325E+00 0.00000E+00
 -1      2880 1.03035E+02 9.20225E+00 0.00000E+00
 -1      2881 1.08285E+02 7.90325E+00 0.00000E+00
 -1      2882 1.06785E+02 7.90325E+00 0.00000E+00
 -1      2883 1.06035E+02 9.20225E+00 0.00000E+00
 -1      2884 1.11285E+02 7.90325E+00 0.00000E+00
 -1      2885 1.09785E+02 7.90325E+00 0.00000E+00
 -1      2886 1.09035E+02 9.20225E+00 0.00000E+00
 -1      2887 1.14285E+02 7.90325E+00 0.00000E+00
 -1      2888 1.12785E+02 7.90325E+00 0.00000E+00
 -1      2889 1.12035E+02 9.20225E+00 0.00000E+00
 -1      2890 1.17285E+02 7.90325E+00 0.00000E+00
 -1      2891 1.15785E+02 7.90325E+00 0.00000E+00
 -1      2892 1.15035E+02 9.20225E+00 0.00000E+00
 -1      2893 1.20285E+02 7.90325E+00 0.00000E+00
 -1      2894 1.18785E+02 7.90325E+00 0.00000E+00
 -1      2895 1.18035E+02 9.20225E+00 0.00000E+00
 -1      2896 1.23285E+02 7.90325E+00 0.00000E+00
 -1      2897 1.21785E+02 7.90325E+00 0.00000E+00
 -1      2898 1.21035E+02 9.20225E+00 0.00000E+00
 -1      2899 1.26285E+02 7.90325E+00 0.00000E+00
 -1      2900 1.24785E+02 7.90325E+00 0.00000E+00
 -1      2901 1.24035E+02 9.20225E+00 0.00000E+00
 -1      2902 1.29285E+02 7.90325E+00 0.00000E+00
 -1      2903 1.27785E+02 7.90325E+00 0.00000E+00
 -1      2904 1.27035E+02 9.20225E+00 0.00000E+00
 -1      2905 1.32285E+02 7.90325E+00 0.00000E+00
 -1      2906 1.30785E+02 7.90325E+00 0.00000E+00
 -1      2907 1.30035E+02 9.20225E+00 0.00000E+00
 -1      2908 1.35285E+02 7.90325E+00 0.00000E+00
 -1      2909 1.33785E+02 7.90325E+00 0.00000E+00
 -1      2910 1.33035E+02 9.20225E+00 0.00000E+00
 -1      2911 1.38285E+02 7.90325E+00 0.00000E+00
 -1      2912 1.36785E+02 7.90325E+00 0.00000E+00
 -1      2913 1.36035E+02 9.20225E+00 0.00000E+00
 -1      2914 1.40953E+02 8.18394E+00 0.00000E+00
 -1      2915 1.39453E+02 8.18394E+00 0.00000E+00
 -1      2916 1.38703E+02 9.48294E+00 0.00000E+00
 -1      2917 1.41038E+02 1.00443E+01 0.00000E+00
 -1      2918 1.19982E+02 1.71575E+01 0.00000E+00
 -1      2919 1.21114E+02 1.74916E+01 0.00000E+00
 -1      2920 1.40907E+02 2.42875E+01 0.00000E+00
 -1      2921 1.40907E+02 2.28125E+01 0.00000E+00
 -1      2922 1.12763E+02 1.69696E+01 0.00000E+00
 -1      2923 1.13986E+02 1.67714E+01 0.00000E+00
 -1      2924 1.40907E+02 1.83875E+01 0.00000E+00
 -1      2925 1.40907E+02 1.69125E+01 0.00000E+00
 -1      2926 1.40907E+02 2.72375E+01 0.00000E+00
 -1      2927 1.40907E+02 2.57625E+01 0.00000E+00
 -1      2928 1.39608E+02 2.50250E+01 0.00000E+00
 -1      2929 1.40907E+02 2.13375E+01 0.00000E+00
 -1      2930 1.40907E+02 1.98625E+01 0.00000E+00
 -1      2931 1.39608E+02 1.91250E+01 0.00000E+00
 -1      2932 1.39608E+02 2.20750E+01 0.00000E+00
 -1      2933 1.40907E+02 3.01375E+01 0.00000E+00
 -1      2934 1.40907E+02 2.86875E+01 0.00000E+00
 -1      2935 1.39608E+02 2.79500E+01 0.00000E+00
 -1      2936 1.40907E+02 3.30875E+01 0.00000E+00
 -1      2937 1.40907E+02 3.16125E+01 0.00000E+00
 -1      2938 1.39608E+02 3.08750E+01 0.00000E+00
 -1      2939 1.40907E+02 3.60375E+01 0.00000E+00
 -1      2940 1.40907E+02 3.45625E+01 0.00000E+00
 -1      2941 1.39608E+02 3.38250E+01 0.00000E+00
 -1      2942 1.27909E+02 3.31964E+01 0.00000E+00
 -1      2943 1.27528E+02 3.41910E+01 0.00000E+00
 -1      2944 1.82850E+01 7.90325E+00 0.00000E+00
 -1      2945 1.67850E+01 7.90325E+00 0.00000E+00
 -1      2946 1.60350E+01 9.20225E+00 0.00000E+00
 -1      2947 1.90350E+01 9.20225E+00 0.00000E+00
 -1      2948 1.28469E+02 3.06012E+01 0.00000E+00
 -1      2949 1.28196E+02 3.18935E+01 0.00000E+00
 -1      2950 1.25248E+02 3.73061E+01 0.00000E+00
 -1      2951 1.24317E+02 3.81900E+01 0.00000E+00
 -1      2952 1.17837E+02 1.66629E+01 0.00000E+00
 -1      2953 1.18812E+02 1.68071E+01 0.00000E+00
 -1      2954 1.28807E+02 2.81779E+01 0.00000E+00
 -1      2955 1.28767E+02 2.91340E+01 0.00000E+00
 -1      2956 1.29808E+02 2.75340E+01 0.00000E+00
 -1      2957 1.26825E+02 3.53191E+01 0.00000E+00
 -1      2958 1.26158E+02 3.62643E+01 0.00000E+00
 -1      2959 2.72850E+01 7.90325E+00 0.00000E+00
 -1      2960 2.57850E+01 7.90325E+00 0.00000E+00
 -1      2961 2.50350E+01 9.20225E+00 0.00000E+00
 -1      2962 2.80350E+01 9.20225E+00 0.00000E+00
 -1      2963 9.09300E+00 1.68813E+01 0.00000E+00
 -1      2964 9.09300E+00 1.83563E+01 0.00000E+00
 -1      2965 1.03920E+01 1.90812E+01 0.00000E+00
 -1      2966 1.03920E+01 1.61437E+01 0.00000E+00
 -1      2967 1.17479E+02 4.08555E+01 0.00000E+00
 -1      2968 1.05469E+02 2.44849E+01 0.00000E+00
 -1      2969 1.06108E+02 2.33987E+01 0.00000E+00
 -1      2970 1.05446E+02 3.15259E+01 0.00000E+00
 -1      2971 1.05158E+02 3.04424E+01 0.00000E+00
 -1      2972 9.09300E+00 3.15875E+01 0.00000E+00
 -1      2973 9.09300E+00 3.30625E+01 0.00000E+00
 -1      2974 1.40928E+02 4.09655E+01 0.00000E+00
 -1      2975 1.41192E+02 3.96958E+01 0.00000E+00
 -1      2976 1.39914E+02 4.09362E+01 0.00000E+00
 -1      2977 1.08147E+02 1.94879E+01 0.00000E+00
 -1      2978 1.08775E+02 1.88427E+01 0.00000E+00
 -1      2979 7.48818E+00 3.88019E+01 0.00000E+00
 -1      2980 1.04938E+02 2.68455E+01 0.00000E+00
 -1      2981 1.05052E+02 2.58848E+01 0.00000E+00
 -1      2982 1.15362E+02 1.66610E+01 0.00000E+00
 -1      2983 1.16588E+02 1.66627E+01 0.00000E+00
 -1      2984 1.04967E+02 2.91209E+01 0.00000E+00
 -1      2985 1.04953E+02 2.79832E+01 0.00000E+00
 -1      2986 1.04158E+02 2.74020E+01 0.00000E+00
 -1      2987 1.06974E+02 3.58217E+01 0.00000E+00
 -1      2988 1.06377E+02 3.47584E+01 0.00000E+00
 -1      2989 1.08662E+02 3.78633E+01 0.00000E+00
 -1      2990 1.07818E+02 3.69687E+01 0.00000E+00
 -1      2991 1.23205E+02 3.89990E+01 0.00000E+00
 -1      2992 1.22262E+02 3.95067E+01 0.00000E+00
 -1      2993 1.10004E+02 1.80662E+01 0.00000E+00
 -1      2994 1.11213E+02 1.74183E+01 0.00000E+00
 -1      2995 1.22408E+02 1.84022E+01 0.00000E+00
 -1      2996 1.23243E+02 1.92402E+01 0.00000E+00
 -1      2997 1.24238E+02 1.90811E+01 0.00000E+00
 -1      2998 1.15979E+02 4.08555E+01 0.00000E+00
 -1      2999 9.09300E+00 3.45313E+01 0.00000E+00
 -1      3000 9.09300E+00 3.60000E+01 0.00000E+00
 -1      3001 1.03920E+01 3.37938E+01 0.00000E+00
 -1      3002 1.03920E+01 2.49750E+01 0.00000E+00
 -1      3003 9.09300E+00 2.57000E+01 0.00000E+00
 -1      3004 9.09300E+00 2.71750E+01 0.00000E+00
 -1      3005 1.26282E+02 3.73283E+01 0.00000E+00
 -1      3006 1.14728E+02 4.09177E+01 0.00000E+00
 -1      3007 1.04560E+02 2.48643E+01 0.00000E+00
 -1      3008 1.27741E+02 2.34643E+01 0.00000E+00
 -1      3009 1.28331E+02 2.44320E+01 0.00000E+00
 -1      3010 1.09265E+02 4.11376E+01 0.00000E+00
 -1      3011 1.10015E+02 4.01125E+01 0.00000E+00
 -1      3012 1.07765E+02 4.11376E+01 0.00000E+00
 -1      3013 1.21512E+02 4.06156E+01 0.00000E+00
 -1      3014 1.13228E+02 4.09177E+01 0.00000E+00
 -1      3015 1.39164E+02 3.98273E+01 0.00000E+00
 -1      3016 1.04817E+02 3.21995E+01 0.00000E+00
 -1      3017 9.66450E+00 9.72612E+00 0.00000E+00
 -1      3018 1.19644E+02 1.60713E+01 0.00000E+00
 -1      3019 1.41038E+02 1.15068E+01 0.00000E+00
 -1      3020 1.39870E+02 1.12261E+01 0.00000E+00
 -1      3021 1.41038E+02 1.29693E+01 0.00000E+00
 -1      3022 1.14600E+02 1.58309E+01 0.00000E+00
 -1      3023 1.27895E+02 3.51584E+01 0.00000E+00
 -1      3024 1.28885E+02 3.27275E+01 0.00000E+00
 -1      3025 1.41192E+02 3.82207E+01 0.00000E+00
 -1      3026 1.22109E+02 1.73324E+01 0.00000E+00
 -1      3027 1.23104E+02 1.71732E+01 0.00000E+00
 -1      3028 1.21810E+02 1.62625E+01 0.00000E+00
 -1      3029 1.29379E+02 2.49961E+01 0.00000E+00
 -1      3030 1.08895E+02 1.76151E+01 0.00000E+00
 -1      3031 1.24261E+02 3.91791E+01 0.00000E+00
 -1      3032 1.39529E+02 3.86553E+01 0.00000E+00
 -1      3033 1.40542E+02 3.72095E+01 0.00000E+00
 -1      3034 1.39243E+02 3.64720E+01 0.00000E+00
 -1      3035 1.38514E+02 3.88161E+01 0.00000E+00
 -1      3036 1.09294E+02 3.88958E+01 0.00000E+00
 -1      3037 1.08248E+02 3.90367E+01 0.00000E+00
 -1      3038 1.26560E+02 2.15290E+01 0.00000E+00
 -1      3039 1.27151E+02 2.24967E+01 0.00000E+00
 -1      3040 1.28321E+02 2.24466E+01 0.00000E+00
 -1      3041 1.04363E+02 2.98612E+01 0.00000E+00
 -1      3042 1.17225E+02 1.57207E+01 0.00000E+00
 -1      3043 1.11674E+02 1.63900E+01 0.00000E+00
 -1      3044 1.10446E+02 3.95644E+01 0.00000E+00
 -1      3045 1.05505E+02 3.44632E+01 0.00000E+00
 -1      3046 1.06025E+02 2.22924E+01 0.00000E+00
 -1      3047 1.29470E+02 2.99573E+01 0.00000E+00
 -1      3048 1.40973E+02 1.56722E+01 0.00000E+00
 -1      3049 1.40973E+02 1.42097E+01 0.00000E+00
 -1      3050 1.39805E+02 1.39290E+01 0.00000E+00
 -1      3051 1.39674E+02 1.64097E+01 0.00000E+00
 -1      3052 9.09300E+00 2.86437E+01 0.00000E+00
 -1      3053 9.09300E+00 3.01187E+01 0.00000E+00
 -1      3054 1.03920E+01 3.08563E+01 0.00000E+00
 -1      3055 1.03920E+01 2.79188E+01 0.00000E+00
 -1      3056 8.78718E+00 3.80644E+01 0.00000E+00
 -1      3057 1.07369E+02 1.97560E+01 0.00000E+00
 -1      3058 1.09635E+01 1.04636E+01 0.00000E+00
 -1      3059 1.07330E+02 3.97303E+01 0.00000E+00
 -1      3060 1.26402E+02 2.06990E+01 0.00000E+00
 -1      3061 1.27573E+02 2.06490E+01 0.00000E+00
 -1      3062 1.26244E+02 1.98690E+01 0.00000E+00
 -1      3063 1.12478E+02 3.98926E+01 0.00000E+00
 -1      3064 1.06772E+02 3.68572E+01 0.00000E+00
 -1      3065 1.19353E+02 1.49141E+01 0.00000E+00
 -1      3066 1.20523E+02 1.52645E+01 0.00000E+00
 -1      3067 1.16910E+01 1.24625E+01 0.00000E+00
 -1      3068 1.16910E+01 1.39375E+01 0.00000E+00
 -1      3069 1.03610E+02 3.06443E+01 0.00000E+00
 -1      3070 1.03419E+02 2.93229E+01 0.00000E+00
 -1      3071 1.06436E+02 3.79885E+01 0.00000E+00
 -1      3072 1.05592E+02 3.68415E+01 0.00000E+00
 -1      3073 1.35304E+01 3.80924E+01 0.00000E+00
 -1      3074 1.50304E+01 3.80924E+01 0.00000E+00
 -1      3075 1.65304E+01 3.80924E+01 0.00000E+00
 -1      3076 1.80304E+01 3.80924E+01 0.00000E+00
 -1      3077 1.57804E+01 3.67934E+01 0.00000E+00
 -1      3078 1.95304E+01 3.80924E+01 0.00000E+00
 -1      3079 2.10304E+01 3.80924E+01 0.00000E+00
 -1      3080 1.87804E+01 3.67934E+01 0.00000E+00
 -1      3081 2.25304E+01 3.80924E+01 0.00000E+00
 -1      3082 2.40304E+01 3.80924E+01 0.00000E+00
 -1      3083 2.17804E+01 3.67934E+01 0.00000E+00
 -1      3084 2.55304E+01 3.80924E+01 0.00000E+00
 -1      3085 2.70304E+01 3.80924E+01 0.00000E+00
 -1      3086 2.47804E+01 3.67934E+01 0.00000E+00
 -1      3087 2.85304E+01 3.80924E+01 0.00000E+00
 -1      3088 3.00304E+01 3.80924E+01 0.00000E+00
 -1      3089 2.77804E+01 3.67934E+01 0.00000E+00
 -1      3090 3.15304E+01 3.80924E+01 0.00000E+00
 -1      3091 3.30303E+01 3.80924E+01 0.00000E+00
 -1      3092 3.07804E+01 3.67934E+01 0.00000E+00
 -1      3093 3.45303E+01 3.80924E+01 0.00000E+00
 -1      3094 3.60303E+01 3.80924E+01 0.00000E+00
 -1      3095 3.37803E+01 3.67934E+01 0.00000E+00
 -1      3096 3.75303E+01 3.80924E+01 0.00000E+00
 -1      3097 3.90303E+01 3.80924E+01 0.00000E+00
 -1      3098 3.67803E+01 3.67934E+01 0.00000E+00
 -1      3099 4.05303E+01 3.80924E+01 0.00000E+00
 -1      3100 4.20303E+01 3.80924E+01 0.00000E+00
 -1      3101 3.97803E+01 3.67934E+01 0.00000E+00
 -1      3102 4.35303E+01 3.80924E+01 0.00000E+00
 -1      3103 4.50303E+01 3.80924E+01 0.00000E+00
 -1      3104 4.27803E+01 3.67934E+01 0.00000E+00
 -1      3105 4.65303E+01 3.80924E+01 0.00000E+00
 -1      3106 4.80303E+01 3.80924E+01 0.00000E+00
 -1      3107 4.57803E+01 3.67934E+01 0.00000E+00
 -1      3108 4.95303E+01 3.80924E+01 0.00000E+00
 -1      3109 5.10303E+01 3.80924E+01 0.00000E+00
 -1      3110 4.87803E+01 3.67934E+01 0.00000E+00
 -1      3111 5.25303E+01 3.80924E+01 0.00000E+00
 -1      3112 5.40303E+01 3.80924E+01 0.00000E+00
 -1      3113 5.17803E+01 3.67934E+01 0.00000E+00
 -1      3114 5.55303E+01 3.80924E+01 0.00000E+00
 -1      3115 5.70303E+01 3.80924E+01 0.00000E+00
 -1      3116 5.47803E+01 3.67934E+01 0.00000E+00
 -1      3117 5.85303E+01 3.80924E+01 0.00000E+00
 -1      3118 6.00303E+01 3.80924E+01 0.00000E+00
 -1      3119 5.77803E+01 3.67934E+01 0.00000E+00
 -1      3120 6.15303E+01 3.80924E+01 0.00000E+00
 -1      3121 6.30303E+01 3.80924E+01 0.00000E+00
 -1      3122 6.07803E+01 3.67934E+01 0.00000E+00
 -1      3123 6.45303E+01 3.80924E+01 0.00000E+00
 -1      3124 6.60303E+01 3.80924E+01 0.00000E+00
 -1      3125 6.37803E+01 3.67934E+01 0.00000E+00
 -1      3126 6.75303E+01 3.80924E+01 0.00000E+00
 -1      3127 6.90303E+01 3.80924E+01 0.00000E+00
 -1      3128 6.67803E+01 3.67934E+01 0.00000E+00
 -1      3129 7.05303E+01 3.80924E+01 0.00000E+00
 -1      3130 7.20303E+01 3.80924E+01 0.00000E+00
 -1      3131 6.97803E+01 3.67934E+01 0.00000E+00
 -1      3132 7.35303E+01 3.80924E+01 0.00000E+00
 -1      3133 7.50303E+01 3.80924E+01 0.00000E+00
 -1      3134 7.27803E+01 3.67934E+01 0.00000E+00
 -1      3135 7.65303E+01 3.80924E+01 0.00000E+00
 -1      3136 7.80303E+01 3.80924E+01 0.00000E+00
 -1      3137 7.57803E+01 3.67934E+01 0.00000E+00
 -1      3138 7.95303E+01 3.80924E+01 0.00000E+00
 -1      3139 8.10303E+01 3.80924E+01 0.00000E+00
 -1      3140 7.87803E+01 3.67934E+01 0.00000E+00
 -1      3141 8.25303E+01 3.80924E+01 0.00000E+00
 -1      3142 8.40303E+01 3.80924E+01 0.00000E+00
 -1      3143 8.17803E+01 3.67934E+01 0.00000E+00
 -1      3144 8.55303E+01 3.80924E+01 0.00000E+00
 -1      3145 8.70303E+01 3.80924E+01 0.00000E+00
 -1      3146 8.47803E+01 3.67934E+01 0.00000E+00
 -1      3147 8.85303E+01 3.80924E+01 0.00000E+00
 -1      3148 9.00303E+01 3.80924E+01 0.00000E+00
 -1      3149 8.77803E+01 3.67934E+01 0.00000E+00
 -1      3150 9.15303E+01 3.80924E+01 0.00000E+00
 -1      3151 9.30303E+01 3.80924E+01 0.00000E+00
 -1      3152 9.07803E+01 3.67934E+01 0.00000E+00
 -1      3153 9.45303E+01 3.80924E+01 0.00000E+00
 -1      3154 9.60303E+01 3.80924E+01 0.00000E+00
 -1      3155 9.37803E+01 3.67934E+01 0.00000E+00
 -1      3156 9.75303E+01 3.80924E+01 0.00000E+00
 -1      3157 9.90303E+01 3.80924E+01 0.00000E+00
 -1      3158 9.67803E+01 3.67934E+01 0.00000E+00
 -1      3159 1.00530E+02 3.80924E+01 0.00000E+00
 -1      3160 1.02030E+02 3.80924E+01 0.00000E+00
 -1      3161 9.97803E+01 3.67934E+01 0.00000E+00
 -1      3162 1.29900E+02 3.87117E+01 0.00000E+00
 -1      3163 1.31400E+02 3.87117E+01 0.00000E+00
 -1      3164 1.32900E+02 3.87117E+01 0.00000E+00
 -1      3165 1.34400E+02 3.87117E+01 0.00000E+00
 -1      3166 1.32150E+02 3.74352E+01 0.00000E+00
 -1      3167 1.35707E+02 3.87639E+01 0.00000E+00
 -1      3168 1.37207E+02 3.87639E+01 0.00000E+00
 -1      3169 1.37572E+02 3.75919E+01 0.00000E+00
 -1      3170 1.34957E+02 3.74874E+01 0.00000E+00
 -1      3171 2.27850E+01 1.05013E+01 0.00000E+00
 -1      3172 2.12850E+01 1.05013E+01 0.00000E+00
 -1      3173 3.47850E+01 1.05013E+01 0.00000E+00
 -1      3174 3.32850E+01 1.05013E+01 0.00000E+00
 -1      3175 3.17850E+01 1.05013E+01 0.00000E+00
 -1      3176 3.02850E+01 1.05013E+01 0.00000E+00
 -1      3177 3.25350E+01 1.18003E+01 0.00000E+00
 -1      3178 4.07850E+01 1.05013E+01 0.00000E+00
 -1      3179 3.92850E+01 1.05013E+01 0.00000E+00
 -1      3180 4.37850E+01 1.05013E+01 0.00000E+00
 -1      3181 4.22850E+01 1.05013E+01 0.00000E+00
 -1      3182 4.15350E+01 1.18003E+01 0.00000E+00
 -1      3183 4.67850E+01 1.05013E+01 0.00000E+00
 -1      3184 4.52850E+01 1.05013E+01 0.00000E+00
 -1      3185 4.45350E+01 1.18003E+01 0.00000E+00
 -1      3186 4.97850E+01 1.05013E+01 0.00000E+00
 -1      3187 4.82850E+01 1.05013E+01 0.00000E+00
 -1      3188 4.75350E+01 1.18003E+01 0.00000E+00
 -1      3189 5.27850E+01 1.05013E+01 0.00000E+00
 -1      3190 5.12850E+01 1.05013E+01 0.00000E+00
 -1      3191 5.05350E+01 1.18003E+01 0.00000E+00
 -1      3192 5.57850E+01 1.05013E+01 0.00000E+00
 -1      3193 5.42850E+01 1.05013E+01 0.00000E+00
 -1      3194 5.35350E+01 1.18003E+01 0.00000E+00
 -1      3195 5.87850E+01 1.05013E+01 0.00000E+00
 -1      3196 5.72850E+01 1.05013E+01 0.00000E+00
 -1      3197 5.65350E+01 1.18003E+01 0.00000E+00
 -1      3198 6.17850E+01 1.05013E+01 0.00000E+00
 -1      3199 6.02850E+01 1.05013E+01 0.00000E+00
 -1      3200 5.95350E+01 1.18003E+01 0.00000E+00
 -1      3201 6.47850E+01 1.05013E+01 0.00000E+00
 -1      3202 6.32850E+01 1.05013E+01 0.00000E+00
 -1      3203 6.25350E+01 1.18003E+01 0.00000E+00
 -1      3204 6.77850E+01 1.05013E+01 0.00000E+00
 -1      3205 6.62850E+01 1.05013E+01 0.00000E+00
 -1      3206 6.55350E+01 1.18003E+01 0.00000E+00
 -1      3207 7.07850E+01 1.05013E+01 0.00000E+00
 -1      3208 6.92850E+01 1.05013E+01 0.00000E+00
 -1      3209 6.85350E+01 1.18003E+01 0.00000E+00
 -1      3210 7.37850E+01 1.05013E+01 0.00000E+00
 -1      3211 7.22850E+01 1.05013E+01 0.00000E+00
 -1      3212 7.15350E+01 1.18003E+01 0.00000E+00
 -1      3213 7.67850E+01 1.05013E+01 0.00000E+00
 -1      3214 7.52850E+01 1.05013E+01 0.00000E+00
 -1      3215 7.45350E+01 1.18003E+01 0.00000E+00
 -1      3216 7.97850E+01 1.05013E+01 0.00000E+00
 -1      3217 7.82850E+01 1.05013E+01 0.00000E+00
 -1      3218 7.75350E+01 1.18003E+01 0.00000E+00
 -1      3219 8.27850E+01 1.05013E+01 0.00000E+00
 -1      3220 8.12850E+01 1.05013E+01 0.00000E+00
 -1      3221 8.05350E+01 1.18003E+01 0.00000E+00
 -1      3222 8.57850E+01 1.05013E+01 0.00000E+00
 -1      3223 8.42850E+01 1.05013E+01 0.00000E+00
 -1      3224 8.35350E+01 1.18003E+01 0.00000E+00
 -1      3225 8.87850E+01 1.05013E+01 0.00000E+00
 -1      3226 8.72850E+01 1.05013E+01 0.00000E+00
 -1      3227 8.65350E+01 1.18003E+01 0.00000E+00
 -1      3228 9.17850E+01 1.05013E+01 0.00000E+00
 -1      3229 9.02850E+01 1.05013E+01 0.00000E+00
 -1      3230 8.95350E+01 1.18003E+01 0.00000E+00
 -1      3231 9.47850E+01 1.05013E+01 0.00000E+00
 -1      3232 9.32850E+01 1.05013E+01 0.00000E+00
 -1      3233 9.25350E+01 1.18003E+01 0.00000E+00
 -1      3234 9.77850E+01 1.05013E+01 0.00000E+00
 -1      3235 9.62850E+01 1.05013E+01 0.00000E+00
 -1      3236 9.55350E+01 1.18003E+01 0.00000E+00
 -1      3237 1.00785E+02 1.05013E+01 0.00000E+00
 -1      3238 9.92850E+01 1.05013E+01 0.00000E+00
 -1      3239 9.85350E+01 1.18003E+01 0.00000E+00
 -1      3240 1.03785E+02 1.05013E+01 0.00000E+00
 -1      3241 1.02285E+02 1.05013E+01 0.00000E+00
 -1      3242 1.01535E+02 1.18003E+01 0.00000E+00
 -1      3243 1.06785E+02 1.05013E+01 0.00000E+00
 -1      3244 1.05285E+02 1.05013E+01 0.00000E+00
 -1      3245 1.04535E+02 1.18003E+01 0.00000E+00
 -1      3246 1.09785E+02 1.05013E+01 0.00000E+00
 -1      3247 1.08285E+02 1.05013E+01 0.00000E+00
 -1      3248 1.07535E+02 1.18003E+01 0.00000E+00
 -1      3249 1.12785E+02 1.05013E+01 0.00000E+00
 -1      3250 1.11285E+02 1.05013E+01 0.00000E+00
 -1      3251 1.10535E+02 1.18003E+01 0.00000E+00
 -1      3252 1.15785E+02 1.05013E+01 0.00000E+00
 -1      3253 1.14285E+02 1.05013E+01 0.00000E+00
 -1      3254 1.13535E+02 1.18003E+01 0.00000E+00
 -1      3255 1.18785E+02 1.05013E+01 0.00000E+00
 -1      3256 1.17285E+02 1.05013E+01 0.00000E+00
 -1      3257 1.16535E+02 1.18003E+01 0.00000E+00
 -1      3258 1.21384E+02 1.16548E+01 0.00000E+00
 -1      3259 1.19884E+02 1.16548E+01 0.00000E+00
 -1      3260 1.27785E+02 1.05013E+01 0.00000E+00
 -1      3261 1.26285E+02 1.05013E+01 0.00000E+00
 -1      3262 1.30785E+02 1.05013E+01 0.00000E+00
 -1      3263 1.29285E+02 1.05013E+01 0.00000E+00
 -1      3264 1.28535E+02 1.18003E+01 0.00000E+00
 -1      3265 1.33785E+02 1.05013E+01 0.00000E+00
 -1      3266 1.32285E+02 1.05013E+01 0.00000E+00
 -1      3267 1.31535E+02 1.18003E+01 0.00000E+00
 -1      3268 1.36785E+02 1.05013E+01 0.00000E+00
 -1      3269 1.35285E+02 1.05013E+01 0.00000E+00
 -1      3270 1.34535E+02 1.18003E+01 0.00000E+00
 -1      3271 1.38912E+02 1.10040E+01 0.00000E+00
 -1      3272 1.37744E+02 1.07233E+01 0.00000E+00
 -1      3273 1.36994E+02 1.20223E+01 0.00000E+00
 -1      3274 1.38912E+02 1.24665E+01 0.00000E+00
 -1      3275 1.38309E+02 2.86750E+01 0.00000E+00
 -1      3276 1.38309E+02 2.72250E+01 0.00000E+00
 -1      3277 1.38309E+02 2.57500E+01 0.00000E+00
 -1      3278 1.38309E+02 2.42750E+01 0.00000E+00
 -1      3279 1.37010E+02 2.64750E+01 0.00000E+00
 -1      3280 1.13823E+02 1.47807E+01 0.00000E+00
 -1      3281 1.15200E+02 1.46704E+01 0.00000E+00
 -1      3282 1.04825E+02 3.53895E+01 0.00000E+00
 -1      3283 1.04401E+02 3.41425E+01 0.00000E+00
 -1      3284 1.06698E+02 3.86978E+01 0.00000E+00
 -1      3285 1.27446E+02 3.74265E+01 0.00000E+00
 -1      3286 1.26537E+02 3.84683E+01 0.00000E+00
 -1      3287 1.28973E+02 2.13853E+01 0.00000E+00
 -1      3288 1.29563E+02 2.23530E+01 0.00000E+00
 -1      3289 1.29045E+02 3.50922E+01 0.00000E+00
 -1      3290 1.28342E+02 3.62203E+01 0.00000E+00
 -1      3291 1.31103E+02 2.71086E+01 0.00000E+00
 -1      3292 1.31063E+02 2.80646E+01 0.00000E+00
 -1      3293 1.38309E+02 3.16250E+01 0.00000E+00
 -1      3294 1.38309E+02 3.01500E+01 0.00000E+00
 -1      3295 1.37010E+02 2.94250E+01 0.00000E+00
 -1      3296 1.38309E+02 3.45750E+01 0.00000E+00
 -1      3297 1.38309E+02 3.31000E+01 0.00000E+00
 -1      3298 1.37010E+02 3.23750E+01 0.00000E+00
 -1      3299 3.77850E+01 1.05013E+01 0.00000E+00
 -1      3300 3.62850E+01 1.05013E+01 0.00000E+00
 -1      3301 3.55350E+01 1.18003E+01 0.00000E+00
 -1      3302 3.85350E+01 1.18003E+01 0.00000E+00
 -1      3303 1.25761E+02 3.91791E+01 0.00000E+00
 -1      3304 1.30111E+02 3.23145E+01 0.00000E+00
 -1      3305 1.29824E+02 3.36174E+01 0.00000E+00
 -1      3306 1.04119E+02 3.29230E+01 0.00000E+00
 -1      3307 1.03856E+02 3.19062E+01 0.00000E+00
 -1      3308 1.07644E+02 1.69950E+01 0.00000E+00
 -1      3309 1.08873E+02 1.62186E+01 0.00000E+00
 -1      3310 1.16601E+02 1.46117E+01 0.00000E+00
 -1      3311 1.17850E+02 1.46119E+01 0.00000E+00
 -1      3312 1.26488E+01 1.02017E+01 0.00000E+00
 -1      3313 1.20772E+01 1.14631E+01 0.00000E+00
 -1      3314 1.33763E+01 1.22006E+01 0.00000E+00
 -1      3315 1.41488E+01 1.02017E+01 0.00000E+00
 -1      3316 1.05951E+02 2.01618E+01 0.00000E+00
 -1      3317 1.06249E+02 1.87974E+01 0.00000E+00
 -1      3318 1.30209E+02 2.38907E+01 0.00000E+00
 -1      3319 1.30677E+02 2.54725E+01 0.00000E+00
 -1      3320 1.04904E+02 2.13338E+01 0.00000E+00
 -1      3321 1.10591E+02 1.55492E+01 0.00000E+00
 -1      3322 1.12141E+02 1.51005E+01 0.00000E+00
 -1      3323 1.03224E+02 2.79830E+01 0.00000E+00
 -1      3324 1.03209E+02 2.68453E+01 0.00000E+00
 -1      3325 1.00862E+01 3.73269E+01 0.00000E+00
 -1      3326 1.11581E+02 3.96076E+01 0.00000E+00
 -1      3327 1.16910E+01 2.12875E+01 0.00000E+00
 -1      3328 1.16910E+01 2.27625E+01 0.00000E+00
 -1      3329 1.30736E+02 2.94559E+01 0.00000E+00
 -1      3330 1.30438E+02 3.09232E+01 0.00000E+00
 -1      3331 1.31378E+02 3.18131E+01 0.00000E+00
 -1      3332 1.32032E+02 2.90305E+01 0.00000E+00
 -1      3333 1.03369E+02 2.52718E+01 0.00000E+00
 -1      3334 1.03786E+02 2.38718E+01 0.00000E+00
 -1      3335 1.24428E+02 1.80566E+01 0.00000E+00
 -1      3336 1.25263E+02 1.88946E+01 0.00000E+00
 -1      3337 1.26925E+02 3.92774E+01 0.00000E+00
 -1      3338 1.05518E+02 3.86821E+01 0.00000E+00
 -1      3339 1.16910E+01 2.42375E+01 0.00000E+00
 -1      3340 1.16910E+01 2.57125E+01 0.00000E+00
 -1      3341 1.29900E+01 2.35000E+01 0.00000E+00
 -1      3342 1.29900E+01 1.46687E+01 0.00000E+00
 -1      3343 1.16910E+01 1.54063E+01 0.00000E+00
 -1      3344 1.16910E+01 1.68750E+01 0.00000E+00
 -1      3345 1.02471E+02 2.87661E+01 0.00000E+00
 -1      3346 1.28656E+02 1.97254E+01 0.00000E+00
 -1      3347 1.28814E+02 2.05553E+01 0.00000E+00
 -1      3348 1.30056E+02 2.04617E+01 0.00000E+00
 -1      3349 1.04808E+02 1.78067E+01 0.00000E+00
 -1      3350 1.06226E+02 1.74009E+01 0.00000E+00
 -1      3351 1.06203E+02 1.60043E+01 0.00000E+00
 -1      3352 1.04489E+02 3.65208E+01 0.00000E+00
 -1      3353 1.02501E+02 3.59311E+01 0.00000E+00
 -1      3354 1.03251E+02 3.72301E+01 0.00000E+00
 -1      3355 1.16910E+01 3.30594E+01 0.00000E+00
 -1      3356 1.16910E+01 3.45281E+01 0.00000E+00
 -1      3357 1.04018E+02 3.86821E+01 0.00000E+00
 -1      3358 1.26434E+02 1.88446E+01 0.00000E+00
 -1      3359 1.16910E+01 1.83469E+01 0.00000E+00
 -1      3360 1.16910E+01 1.98156E+01 0.00000E+00
 -1      3361 1.29900E+01 2.05531E+01 0.00000E+00
 -1      3362 1.29900E+01 1.76094E+01 0.00000E+00
 -1      3363 1.28425E+02 3.92774E+01 0.00000E+00
 -1      3364 2.05350E+01 1.18003E+01 0.00000E+00
 -1      3365 1.97850E+01 1.05013E+01 0.00000E+00
 -1      3366 1.82850E+01 1.05013E+01 0.00000E+00
 -1      3367 1.03440E+02 3.38493E+01 0.00000E+00
 -1      3368 2.95350E+01 1.18003E+01 0.00000E+00
 -1      3369 2.87850E+01 1.05013E+01 0.00000E+00
 -1      3370 2.72850E+01 1.05013E+01 0.00000E+00
 -1      3371 1.23135E+02 1.09805E+01 0.00000E+00
 -1      3372 1.21984E+02 1.34330E+01 0.00000E+00
 -1      3373 1.25385E+02 1.22795E+01 0.00000E+00
 -1      3374 1.24635E+02 1.09805E+01 0.00000E+00
 -1      3375 1.38309E+02 1.98625E+01 0.00000E+00
 -1      3376 1.38309E+02 1.83875E+01 0.00000E+00
 -1      3377 1.16910E+01 3.01219E+01 0.00000E+00
 -1      3378 1.16910E+01 3.15906E+01 0.00000E+00
 -1      3379 1.29900E+01 3.23250E+01 0.00000E+00
 -1      3380 1.12740E+02 1.39399E+01 0.00000E+00
 -1      3381 1.38309E+02 2.28062E+01 0.00000E+00
 -1      3382 1.38309E+02 2.13312E+01 0.00000E+00
 -1      3383 1.37010E+02 2.05938E+01 0.00000E+00
 -1      3384 1.37010E+02 2.35313E+01 0.00000E+00
 -1      3385 1.21519E+02 1.51053E+01 0.00000E+00
 -1      3386 1.69669E+01 1.03515E+01 0.00000E+00
 -1      3387 1.54669E+01 1.03515E+01 0.00000E+00
 -1      3388 1.50806E+01 1.13509E+01 0.00000E+00
 -1      3389 1.77169E+01 1.16505E+01 0.00000E+00
 -1      3390 2.42850E+01 1.05013E+01 0.00000E+00
 -1      3391 2.35350E+01 1.18003E+01 0.00000E+00
 -1      3392 2.57850E+01 1.05013E+01 0.00000E+00
 -1      3393 1.02911E+02 3.13679E+01 0.00000E+00
 -1      3394 1.28597E+02 3.73603E+01 0.00000E+00
 -1      3395 1.30860E+02 2.28294E+01 0.00000E+00
 -1      3396 1.37758E+02 3.66695E+01 0.00000E+00
 -1      3397 1.38123E+02 3.54974E+01 0.00000E+00
 -1      3398 1.36824E+02 3.47724E+01 0.00000E+00
 -1      3399 1.36451E+02 3.66172E+01 0.00000E+00
 -1      3400 1.15824E+02 1.35615E+01 0.00000E+00
 -1      3401 1.31932E+02 2.60031E+01 0.00000E+00
 -1      3402 1.30272E+02 3.46792E+01 0.00000E+00
 -1      3403 1.02435E+02 2.58527E+01 0.00000E+00
 -1      3404 1.38375E+02 1.71472E+01 0.00000E+00
 -1      3405 1.38440E+02 1.59068E+01 0.00000E+00
 -1      3406 1.37076E+02 1.78847E+01 0.00000E+00
 -1      3407 1.09339E+02 1.49291E+01 0.00000E+00
 -1      3408 1.18729E+02 1.38051E+01 0.00000E+00
 -1      3409 1.23830E+02 1.59170E+01 0.00000E+00
 -1      3410 1.24129E+02 1.69868E+01 0.00000E+00
 -1      3411 1.25154E+02 1.68004E+01 0.00000E+00
 -1      3412 1.15862E+01 3.73269E+01 0.00000E+00
 -1      3413 1.03713E+02 2.17412E+01 0.00000E+00
 -1      3414 1.03640E+02 1.96107E+01 0.00000E+00
 -1      3415 1.02522E+02 2.21487E+01 0.00000E+00
 -1      3416 1.23362E+01 3.60279E+01 0.00000E+00
 -1      3417 1.29175E+02 3.80009E+01 0.00000E+00
 -1      3418 1.00998E+02 3.55738E+01 0.00000E+00
 -1      3419 1.02219E+02 3.47116E+01 0.00000E+00
 -1      3420 1.01936E+02 3.34920E+01 0.00000E+00
 -1      3421 1.14729E+02 1.27102E+01 0.00000E+00
 -1      3422 1.16130E+02 1.26516E+01 0.00000E+00
 -1      3423 1.36352E+01 3.52936E+01 0.00000E+00
 -1      3424 1.80304E+01 3.54944E+01 0.00000E+00
 -1      3425 1.95304E+01 3.54944E+01 0.00000E+00
 -1      3426 2.10304E+01 3.54944E+01 0.00000E+00
 -1      3427 2.25304E+01 3.54944E+01 0.00000E+00
 -1      3428 2.02804E+01 3.41954E+01 0.00000E+00
 -1      3429 2.40304E+01 3.54944E+01 0.00000E+00
 -1      3430 2.55304E+01 3.54944E+01 0.00000E+00
 -1      3431 2.32804E+01 3.41954E+01 0.00000E+00
 -1      3432 2.70304E+01 3.54944E+01 0.00000E+00
 -1      3433 2.85304E+01 3.54944E+01 0.00000E+00
 -1      3434 2.62804E+01 3.41954E+01 0.00000E+00
 -1      3435 3.00304E+01 3.54944E+01 0.00000E+00
 -1      3436 3.15304E+01 3.54944E+01 0.00000E+00
 -1      3437 2.92804E+01 3.41954E+01 0.00000E+00
 -1      3438 3.30303E+01 3.54944E+01 0.00000E+00
 -1      3439 3.45303E+01 3.54944E+01 0.00000E+00
 -1      3440 3.22803E+01 3.41954E+01 0.00000E+00
 -1      3441 3.60303E+01 3.54944E+01 0.00000E+00
 -1      3442 3.75303E+01 3.54944E+01 0.00000E+00
 -1      3443 3.52803E+01 3.41954E+01 0.00000E+00
 -1      3444 3.90303E+01 3.54944E+01 0.00000E+00
 -1      3445 4.05303E+01 3.54944E+01 0.00000E+00
 -1      3446 3.82803E+01 3.41954E+01 0.00000E+00
 -1      3447 4.20303E+01 3.54944E+01 0.00000E+00
 -1      3448 4.35303E+01 3.54944E+01 0.00000E+00
 -1      3449 4.12803E+01 3.41954E+01 0.00000E+00
 -1      3450 4.50303E+01 3.54944E+01 0.00000E+00
 -1      3451 4.65303E+01 3.54944E+01 0.00000E+00
 -1      3452 4.42803E+01 3.41954E+01 0.00000E+00
 -1      3453 4.80303E+01 3.54944E+01 0.00000E+00
 -1      3454 4.95303E+01 3.54944E+01 0.00000E+00
 -1      3455 4.72803E+01 3.41954E+01 0.00000E+00
 -1      3456 5.10303E+01 3.54944E+01 0.00000E+00
 -1      3457 5.25303E+01 3.54944E+01 0.00000E+00
 -1      3458 5.02803E+01 3.41954E+01 0.00000E+00
 -1      3459 5.40303E+01 3.54944E+01 0.00000E+00
 -1      3460 5.55303E+01 3.54944E+01 0.00000E+00
 -1      3461 5.32803E+01 3.41954E+01 0.00000E+00
 -1      3462 5.70303E+01 3.54944E+01 0.00000E+00
 -1      3463 5.85303E+01 3.54944E+01 0.00000E+00
 -1      3464 5.62803E+01 3.41954E+01 0.00000E+00
 -1      3465 6.00303E+01 3.54944E+01 0.00000E+00
 -1      3466 6.15303E+01 3.54944E+01 0.00000E+00
 -1      3467 5.92803E+01 3.41954E+01 0.00000E+00
 -1      3468 6.30303E+01 3.54944E+01 0.00000E+00
 -1      3469 6.45303E+01 3.54944E+01 0.00000E+00
 -1      3470 6.22803E+01 3.41954E+01 0.00000E+00
 -1      3471 6.60303E+01 3.54944E+01 0.00000E+00
 -1      3472 6.75303E+01 3.54944E+01 0.00000E+00
 -1      3473 6.52803E+01 3.41954E+01 0.00000E+00
 -1      3474 6.90303E+01 3.54944E+01 0.00000E+00
 -1      3475 7.05303E+01 3.54944E+01 0.00000E+00
 -1      3476 6.82803E+01 3.41954E+01 0.00000E+00
 -1      3477 7.20303E+01 3.54944E+01 0.00000E+00
 -1      3478 7.35303E+01 3.54944E+01 0.00000E+00
 -1      3479 7.12803E+01 3.41954E+01 0.00000E+00
 -1      3480 7.50303E+01 3.54944E+01 0.00000E+00
 -1      3481 7.65303E+01 3.54944E+01 0.00000E+00
 -1      3482 7.42803E+01 3.41954E+01 0.00000E+00
 -1      3483 7.80303E+01 3.54944E+01 0.00000E+00
 -1      3484 7.95303E+01 3.54944E+01 0.00000E+00
 -1      3485 7.72803E+01 3.41954E+01 0.00000E+00
 -1      3486 8.10303E+01 3.54944E+01 0.00000E+00
 -1      3487 8.25303E+01 3.54944E+01 0.00000E+00
 -1      3488 8.02803E+01 3.41954E+01 0.00000E+00
 -1      3489 8.40303E+01 3.54944E+01 0.00000E+00
 -1      3490 8.55303E+01 3.54944E+01 0.00000E+00
 -1      3491 8.32803E+01 3.41954E+01 0.00000E+00
 -1      3492 8.70303E+01 3.54944E+01 0.00000E+00
 -1      3493 8.85303E+01 3.54944E+01 0.00000E+00
 -1      3494 8.62803E+01 3.41954E+01 0.00000E+00
 -1      3495 9.00303E+01 3.54944E+01 0.00000E+00
 -1      3496 9.15303E+01 3.54944E+01 0.00000E+00
 -1      3497 8.92803E+01 3.41954E+01 0.00000E+00
 -1      3498 9.30303E+01 3.54944E+01 0.00000E+00
 -1      3499 9.45303E+01 3.54944E+01 0.00000E+00
 -1      3500 9.22803E+01 3.41954E+01 0.00000E+00
 -1      3501 9.60303E+01 3.54944E+01 0.00000E+00
 -1      3502 9.75303E+01 3.54944E+01 0.00000E+00
 -1      3503 9.52803E+01 3.41954E+01 0.00000E+00
 -1      3504 9.94980E+01 3.55738E+01 0.00000E+00
 -1      3505 1.25945E+02 1.37654E+01 0.00000E+00
 -1      3506 1.24295E+02 1.42446E+01 0.00000E+00
 -1      3507 1.01471E+02 2.95959E+01 0.00000E+00
 -1      3508 1.01276E+02 2.82560E+01 0.00000E+00
 -1      3509 4.52850E+01 1.30992E+01 0.00000E+00
 -1      3510 4.37850E+01 1.30992E+01 0.00000E+00
 -1      3511 4.22850E+01 1.30992E+01 0.00000E+00
 -1      3512 4.07850E+01 1.30992E+01 0.00000E+00
 -1      3513 4.30350E+01 1.43982E+01 0.00000E+00
 -1      3514 5.12850E+01 1.30992E+01 0.00000E+00
 -1      3515 4.97850E+01 1.30992E+01 0.00000E+00
 -1      3516 5.42850E+01 1.30992E+01 0.00000E+00
 -1      3517 5.27850E+01 1.30992E+01 0.00000E+00
 -1      3518 5.20350E+01 1.43982E+01 0.00000E+00
 -1      3519 5.72850E+01 1.30992E+01 0.00000E+00
 -1      3520 5.57850E+01 1.30992E+01 0.00000E+00
 -1      3521 5.50350E+01 1.43982E+01 0.00000E+00
 -1      3522 6.02850E+01 1.30992E+01 0.00000E+00
 -1      3523 5.87850E+01 1.30992E+01 0.00000E+00
 -1      3524 5.80350E+01 1.43982E+01 0.00000E+00
 -1      3525 6.32850E+01 1.30992E+01 0.00000E+00
 -1      3526 6.17850E+01 1.30992E+01 0.00000E+00
 -1      3527 6.10350E+01 1.43982E+01 0.00000E+00
 -1      3528 6.62850E+01 1.30992E+01 0.00000E+00
 -1      3529 6.47850E+01 1.30992E+01 0.00000E+00
 -1      3530 6.40350E+01 1.43982E+01 0.00000E+00
 -1      3531 6.92850E+01 1.30992E+01 0.00000E+00
 -1      3532 6.77850E+01 1.30992E+01 0.00000E+00
 -1      3533 6.70350E+01 1.43982E+01 0.00000E+00
 -1      3534 7.22850E+01 1.30992E+01 0.00000E+00
 -1      3535 7.07850E+01 1.30992E+01 0.00000E+00
 -1      3536 7.00350E+01 1.43982E+01 0.00000E+00
 -1      3537 7.52850E+01 1.30992E+01 0.00000E+00
 -1      3538 7.37850E+01 1.30992E+01 0.00000E+00
 -1      3539 7.30350E+01 1.43982E+01 0.00000E+00
 -1      3540 7.82850E+01 1.30992E+01 0.00000E+00
 -1      3541 7.67850E+01 1.30992E+01 0.00000E+00
 -1      3542 7.60350E+01 1.43982E+01 0.00000E+00
 -1      3543 8.12850E+01 1.30992E+01 0.00000E+00
 -1      3544 7.97850E+01 1.30992E+01 0.00000E+00
 -1      3545 7.90350E+01 1.43982E+01 0.00000E+00
 -1      3546 8.42850E+01 1.30992E+01 0.00000E+00
 -1      3547 8.27850E+01 1.30992E+01 0.00000E+00
 -1      3548 8.20350E+01 1.43982E+01 0.00000E+00
 -1      3549 8.72850E+01 1.30992E+01 0.00000E+00
 -1      3550 8.57850E+01 1.30992E+01 0.00000E+00
 -1      3551 8.50350E+01 1.43982E+01 0.00000E+00
 -1      3552 9.02850E+01 1.30992E+01 0.00000E+00
 -1      3553 8.87850E+01 1.30992E+01 0.00000E+00
 -1      3554 8.80350E+01 1.43982E+01 0.00000E+00
 -1      3555 9.32850E+01 1.30992E+01 0.00000E+00
 -1      3556 9.17850E+01 1.30992E+01 0.00000E+00
 -1      3557 9.10350E+01 1.43982E+01 0.00000E+00
 -1      3558 9.62850E+01 1.30992E+01 0.00000E+00
 -1      3559 9.47850E+01 1.30992E+01 0.00000E+00
 -1      3560 9.40350E+01 1.43982E+01 0.00000E+00
 -1      3561 9.92850E+01 1.30992E+01 0.00000E+00
 -1      3562 9.77850E+01 1.30992E+01 0.00000E+00
 -1      3563 9.70350E+01 1.43982E+01 0.00000E+00
 -1      3564 1.02285E+02 1.30992E+01 0.00000E+00
 -1      3565 1.00785E+02 1.30992E+01 0.00000E+00
 -1      3566 1.00035E+02 1.43982E+01 0.00000E+00
 -1      3567 1.05410E+02 1.41052E+01 0.00000E+00
 -1      3568 1.03910E+02 1.41052E+01 0.00000E+00
 -1      3569 1.11546E+02 1.30300E+01 0.00000E+00
 -1      3570 1.10046E+02 1.30300E+01 0.00000E+00
 -1      3571 1.13229E+02 1.27102E+01 0.00000E+00
 -1      3572 1.17630E+02 1.26516E+01 0.00000E+00
 -1      3573 1.35711E+02 3.31125E+01 0.00000E+00
 -1      3574 1.35711E+02 3.16375E+01 0.00000E+00
 -1      3575 1.35711E+02 2.72125E+01 0.00000E+00
 -1      3576 1.35711E+02 2.57375E+01 0.00000E+00
 -1      3577 1.16910E+01 2.71844E+01 0.00000E+00
 -1      3578 1.16910E+01 2.86531E+01 0.00000E+00
 -1      3579 1.29900E+01 2.93875E+01 0.00000E+00
 -1      3580 1.31735E+02 2.15575E+01 0.00000E+00
 -1      3581 1.32381E+02 2.30953E+01 0.00000E+00
 -1      3582 1.35711E+02 3.01625E+01 0.00000E+00
 -1      3583 1.35711E+02 2.86875E+01 0.00000E+00
 -1      3584 1.34412E+02 2.79500E+01 0.00000E+00
 -1      3585 1.34412E+02 3.09000E+01 0.00000E+00
 -1      3586 1.30071E+02 3.67946E+01 0.00000E+00
 -1      3587 1.01826E+02 3.21749E+01 0.00000E+00
 -1      3588 1.01581E+02 3.09130E+01 0.00000E+00
 -1      3589 1.00386E+02 3.04029E+01 0.00000E+00
 -1      3590 1.00606E+02 3.30372E+01 0.00000E+00
 -1      3591 1.35285E+02 1.30992E+01 0.00000E+00
 -1      3592 1.33785E+02 1.30992E+01 0.00000E+00
 -1      3593 3.32850E+01 1.30992E+01 0.00000E+00
 -1      3594 3.17850E+01 1.30992E+01 0.00000E+00
 -1      3595 1.32285E+02 1.30992E+01 0.00000E+00
 -1      3596 1.30785E+02 1.30992E+01 0.00000E+00
 -1      3597 1.33035E+02 1.43982E+01 0.00000E+00
 -1      3598 1.46944E+01 1.23503E+01 0.00000E+00
 -1      3599 1.43081E+01 1.33498E+01 0.00000E+00
 -1      3600 1.60125E+01 1.25001E+01 0.00000E+00
 -1      3601 4.82850E+01 1.30992E+01 0.00000E+00
 -1      3602 4.67850E+01 1.30992E+01 0.00000E+00
 -1      3603 4.60350E+01 1.43982E+01 0.00000E+00
 -1      3604 4.90350E+01 1.43982E+01 0.00000E+00
 -1      3605 1.50828E+01 3.53940E+01 0.00000E+00
 -1      3606 1.65828E+01 3.53940E+01 0.00000E+00
 -1      3607 1.73328E+01 3.40950E+01 0.00000E+00
 -1      3608 1.44376E+01 3.38942E+01 0.00000E+00
 -1      3609 1.38643E+02 1.48068E+01 0.00000E+00
 -1      3610 1.38709E+02 1.35665E+01 0.00000E+00
 -1      3611 1.37750E+02 1.33444E+01 0.00000E+00
 -1      3612 1.37344E+02 1.55443E+01 0.00000E+00
 -1      3613 1.26607E+02 1.76897E+01 0.00000E+00
 -1      3614 1.27588E+02 1.86641E+01 0.00000E+00
 -1      3615 1.01252E+02 2.65274E+01 0.00000E+00
 -1      3616 1.01412E+02 2.49539E+01 0.00000E+00
 -1      3617 1.08328E+02 1.36994E+01 0.00000E+00
 -1      3618 1.30922E+02 3.57369E+01 0.00000E+00
 -1      3619 1.31500E+02 3.63775E+01 0.00000E+00
 -1      3620 1.33000E+02 3.63775E+01 0.00000E+00
 -1      3621 1.31701E+02 3.42621E+01 0.00000E+00
 -1      3622 1.06828E+02 1.36994E+01 0.00000E+00
 -1      3623 1.43081E+01 1.48185E+01 0.00000E+00
 -1      3624 1.28829E+02 1.85704E+01 0.00000E+00
 -1      3625 1.03617E+02 1.82141E+01 0.00000E+00
 -1      3626 1.03595E+02 1.68176E+01 0.00000E+00
 -1      3627 1.02426E+02 1.86216E+01 0.00000E+00
 -1      3628 1.19134E+02 1.29538E+01 0.00000E+00
 -1      3629 1.27533E+02 1.33614E+01 0.00000E+00
 -1      3630 1.26443E+02 1.53265E+01 0.00000E+00
 -1      3631 9.87480E+01 3.42748E+01 0.00000E+00
 -1      3632 2.12850E+01 1.30992E+01 0.00000E+00
 -1      3633 1.97850E+01 1.30992E+01 0.00000E+00
 -1      3634 1.00252E+02 2.73571E+01 0.00000E+00
 -1      3635 1.34072E+02 3.64713E+01 0.00000E+00
 -1      3636 1.35379E+02 3.65235E+01 0.00000E+00
 -1      3637 1.35566E+02 3.56011E+01 0.00000E+00
 -1      3638 1.33422E+02 3.54136E+01 0.00000E+00
 -1      3639 3.02850E+01 1.30992E+01 0.00000E+00
 -1      3640 2.87850E+01 1.30992E+01 0.00000E+00
 -1      3641 3.10350E+01 1.43982E+01 0.00000E+00
 -1      3642 4.00350E+01 1.43982E+01 0.00000E+00
 -1      3643 3.92850E+01 1.30992E+01 0.00000E+00
 -1      3644 3.77850E+01 1.30992E+01 0.00000E+00
 -1      3645 1.32075E+02 3.30845E+01 0.00000E+00
 -1      3646 1.32725E+02 3.41422E+01 0.00000E+00
 -1      3647 1.33796E+02 3.42359E+01 0.00000E+00
 -1      3648 1.32402E+02 3.16932E+01 0.00000E+00
 -1      3649 1.33834E+02 2.41492E+01 0.00000E+00
 -1      3650 1.32959E+02 2.54210E+01 0.00000E+00
 -1      3651 1.29033E+02 1.33614E+01 0.00000E+00
 -1      3652 1.36791E+02 1.31223E+01 0.00000E+00
 -1      3653 1.35133E+02 2.34117E+01 0.00000E+00
 -1      3654 1.26308E+02 1.66198E+01 0.00000E+00
 -1      3655 1.31577E+02 2.07276E+01 0.00000E+00
 -1      3656 1.33097E+02 2.09934E+01 0.00000E+00
 -1      3657 1.31419E+02 1.98976E+01 0.00000E+00
 -1      3658 1.44376E+01 3.09567E+01 0.00000E+00
 -1      3659 1.44376E+01 3.24254E+01 0.00000E+00
 -1      3660 1.58852E+01 3.25258E+01 0.00000E+00
 -1      3661 1.23270E+02 1.44310E+01 0.00000E+00
 -1      3662 1.35133E+02 2.19430E+01 0.00000E+00
 -1      3663 2.65350E+01 1.18003E+01 0.00000E+00
 -1      3664 1.42890E+01 2.27625E+01 0.00000E+00
 -1      3665 1.42890E+01 2.42375E+01 0.00000E+00
 -1      3666 3.62850E+01 1.30992E+01 0.00000E+00
 -1      3667 3.47850E+01 1.30992E+01 0.00000E+00
 -1      3668 3.40350E+01 1.43982E+01 0.00000E+00
 -1      3669 3.70350E+01 1.43982E+01 0.00000E+00
 -1      3670 1.35746E+02 1.84362E+01 0.00000E+00
 -1      3671 1.35811E+02 1.71959E+01 0.00000E+00
 -1      3672 1.33385E+02 2.70571E+01 0.00000E+00
 -1      3673 1.34975E+02 1.96442E+01 0.00000E+00
 -1      3674 1.33710E+02 1.89554E+01 0.00000E+00
 -1      3675 1.29783E+02 1.46604E+01 0.00000E+00
 -1      3676 1.29900E+01 2.64469E+01 0.00000E+00
 -1      3677 1.01283E+02 2.32578E+01 0.00000E+00
 -1      3678 1.01210E+02 2.11272E+01 0.00000E+00
 -1      3679 1.35752E+02 3.46787E+01 0.00000E+00
 -1      3680 1.00100E+02 2.39324E+01 0.00000E+00
 -1      3681 1.33385E+02 2.85321E+01 0.00000E+00
 -1      3682 1.33058E+02 2.99234E+01 0.00000E+00
 -1      3683 1.42890E+01 1.98188E+01 0.00000E+00
 -1      3684 1.42890E+01 2.12906E+01 0.00000E+00
 -1      3685 1.55880E+01 2.20281E+01 0.00000E+00
 -1      3686 2.42850E+01 1.30992E+01 0.00000E+00
 -1      3687 2.27850E+01 1.30992E+01 0.00000E+00
 -1      3688 2.20350E+01 1.43982E+01 0.00000E+00
 -1      3689 1.36041E+02 1.44213E+01 0.00000E+00
 -1      3690 2.72850E+01 1.30992E+01 0.00000E+00
 -1      3691 2.57850E+01 1.30992E+01 0.00000E+00
 -1      3692 2.50350E+01 1.43982E+01 0.00000E+00
 -1      3693 9.86381E+01 3.29577E+01 0.00000E+00
 -1      3694 1.35838E+02 1.55213E+01 0.00000E+00
 -1      3695 2.25304E+01 3.28964E+01 0.00000E+00
 -1      3696 2.40304E+01 3.28964E+01 0.00000E+00
 -1      3697 2.55304E+01 3.28964E+01 0.00000E+00
 -1      3698 2.70304E+01 3.28964E+01 0.00000E+00
 -1      3699 2.47804E+01 3.15974E+01 0.00000E+00
 -1      3700 2.85304E+01 3.28964E+01 0.00000E+00
 -1      3701 3.00304E+01 3.28964E+01 0.00000E+00
 -1      3702 2.77804E+01 3.15974E+01 0.00000E+00
 -1      3703 3.15304E+01 3.28964E+01 0.00000E+00
 -1      3704 3.30303E+01 3.28964E+01 0.00000E+00
 -1      3705 3.07804E+01 3.15974E+01 0.00000E+00
 -1      3706 3.45303E+01 3.28964E+01 0.00000E+00
 -1      3707 3.60303E+01 3.28964E+01 0.00000E+00
 -1      3708 3.37803E+01 3.15974E+01 0.00000E+00
 -1      3709 3.75303E+01 3.28964E+01 0.00000E+00
 -1      3710 3.90303E+01 3.28964E+01 0.00000E+00
 -1      3711 3.67803E+01 3.15974E+01 0.00000E+00
 -1      3712 4.05303E+01 3.28964E+01 0.00000E+00
 -1      3713 4.20303E+01 3.28964E+01 0.00000E+00
 -1      3714 3.97803E+01 3.15974E+01 0.00000E+00
 -1      3715 4.35303E+01 3.28964E+01 0.00000E+00
 -1      3716 4.50303E+01 3.28964E+01 0.00000E+00
 -1      3717 4.27803E+01 3.15974E+01 0.00000E+00
 -1      3718 4.65303E+01 3.28964E+01 0.00000E+00
 -1      3719 4.80303E+01 3.28964E+01 0.00000E+00
 -1      3720 4.57803E+01 3.15974E+01 0.00000E+00
 -1      3721 4.95303E+01 3.28964E+01 0.00000E+00
 -1      3722 5.10303E+01 3.28964E+01 0.00000E+00
 -1      3723 4.87803E+01 3.15974E+01 0.00000E+00
 -1      3724 5.25303E+01 3.28964E+01 0.00000E+00
 -1      3725 5.40303E+01 3.28964E+01 0.00000E+00
 -1      3726 5.17803E+01 3.15974E+01 0.00000E+00
 -1      3727 5.55303E+01 3.28964E+01 0.00000E+00
 -1      3728 5.70303E+01 3.28964E+01 0.00000E+00
 -1      3729 5.47803E+01 3.15974E+01 0.00000E+00
 -1      3730 5.85303E+01 3.28964E+01 0.00000E+00
 -1      3731 6.00303E+01 3.28964E+01 0.00000E+00
 -1      3732 5.77803E+01 3.15974E+01 0.00000E+00
 -1      3733 6.15303E+01 3.28964E+01 0.00000E+00
 -1      3734 6.30303E+01 3.28964E+01 0.00000E+00
 -1      3735 6.07803E+01 3.15974E+01 0.00000E+00
 -1      3736 6.45303E+01 3.28964E+01 0.00000E+00
 -1      3737 6.60303E+01 3.28964E+01 0.00000E+00
 -1      3738 6.37803E+01 3.15974E+01 0.00000E+00
 -1      3739 6.75303E+01 3.28964E+01 0.00000E+00
 -1      3740 6.90303E+01 3.28964E+01 0.00000E+00
 -1      3741 6.67803E+01 3.15974E+01 0.00000E+00
 -1      3742 7.05303E+01 3.28964E+01 0.00000E+00
 -1      3743 7.20303E+01 3.28964E+01 0.00000E+00
 -1      3744 6.97803E+01 3.15974E+01 0.00000E+00
 -1      3745 7.35303E+01 3.28964E+01 0.00000E+00
 -1      3746 7.50303E+01 3.28964E+01 0.00000E+00
 -1      3747 7.27803E+01 3.15974E+01 0.00000E+00
 -1      3748 7.65303E+01 3.28964E+01 0.00000E+00
 -1      3749 7.80303E+01 3.28964E+01 0.00000E+00
 -1      3750 7.57803E+01 3.15974E+01 0.00000E+00
 -1      3751 7.95303E+01 3.28964E+01 0.00000E+00
 -1      3752 8.10303E+01 3.28964E+01 0.00000E+00
 -1      3753 7.87803E+01 3.15974E+01 0.00000E+00
 -1      3754 8.25303E+01 3.28964E+01 0.00000E+00
 -1      3755 8.40303E+01 3.28964E+01 0.00000E+00
 -1      3756 8.17803E+01 3.15974E+01 0.00000E+00
 -1      3757 8.55303E+01 3.28964E+01 0.00000E+00
 -1      3758 8.70303E+01 3.28964E+01 0.00000E+00
 -1      3759 8.47803E+01 3.15974E+01 0.00000E+00
 -1      3760 8.85303E+01 3.28964E+01 0.00000E+00
 -1      3761 9.00303E+01 3.28964E+01 0.00000E+00
 -1      3762 8.77803E+01 3.15974E+01 0.00000E+00
 -1      3763 9.15303E+01 3.28964E+01 0.00000E+00
 -1      3764 9.30303E+01 3.28964E+01 0.00000E+00
 -1      3765 9.07803E+01 3.15974E+01 0.00000E+00
 -1      3766 9.45303E+01 3.28964E+01 0.00000E+00
 -1      3767 9.60303E+01 3.28964E+01 0.00000E+00
 -1      3768 9.37803E+01 3.15974E+01 0.00000E+00
 -1      3769 5.87850E+01 1.56973E+01 0.00000E+00
 -1      3770 5.72850E+01 1.56973E+01 0.00000E+00
 -1      3771 4.37850E+01 1.56973E+01 0.00000E+00
 -1      3772 4.22850E+01 1.56973E+01 0.00000E+00
 -1      3773 1.29076E+02 1.72529E+01 0.00000E+00
 -1      3774 1.30145E+02 1.83142E+01 0.00000E+00
 -1      3775 1.42890E+01 1.68750E+01 0.00000E+00
 -1      3776 1.42890E+01 1.83469E+01 0.00000E+00
 -1      3777 1.55880E+01 1.90844E+01 0.00000E+00
 -1      3778 9.91553E+01 2.82365E+01 0.00000E+00
 -1      3779 9.91318E+01 2.65079E+01 0.00000E+00
 -1      3780 1.73328E+01 3.26262E+01 0.00000E+00
 -1      3781 1.87804E+01 3.27266E+01 0.00000E+00
 -1      3782 1.73328E+01 3.11575E+01 0.00000E+00
 -1      3783 5.57850E+01 1.56973E+01 0.00000E+00
 -1      3784 5.42850E+01 1.56973E+01 0.00000E+00
 -1      3785 5.65350E+01 1.69963E+01 0.00000E+00
 -1      3786 5.27850E+01 1.56973E+01 0.00000E+00
 -1      3787 5.12850E+01 1.56973E+01 0.00000E+00
 -1      3788 5.35350E+01 1.69963E+01 0.00000E+00
 -1      3789 6.17850E+01 1.56973E+01 0.00000E+00
 -1      3790 6.02850E+01 1.56973E+01 0.00000E+00
 -1      3791 5.95350E+01 1.69963E+01 0.00000E+00
 -1      3792 6.47850E+01 1.56973E+01 0.00000E+00
 -1      3793 6.32850E+01 1.56973E+01 0.00000E+00
 -1      3794 6.25350E+01 1.69963E+01 0.00000E+00
 -1      3795 6.77850E+01 1.56973E+01 0.00000E+00
 -1      3796 6.62850E+01 1.56973E+01 0.00000E+00
 -1      3797 6.55350E+01 1.69963E+01 0.00000E+00
 -1      3798 7.07850E+01 1.56973E+01 0.00000E+00
 -1      3799 6.92850E+01 1.56973E+01 0.00000E+00
 -1      3800 6.85350E+01 1.69963E+01 0.00000E+00
 -1      3801 7.37850E+01 1.56973E+01 0.00000E+00
 -1      3802 7.22850E+01 1.56973E+01 0.00000E+00
 -1      3803 7.15350E+01 1.69963E+01 0.00000E+00
 -1      3804 7.67850E+01 1.56973E+01 0.00000E+00
 -1      3805 7.52850E+01 1.56973E+01 0.00000E+00
 -1      3806 7.45350E+01 1.69963E+01 0.00000E+00
 -1      3807 7.97850E+01 1.56973E+01 0.00000E+00
 -1      3808 7.82850E+01 1.56973E+01 0.00000E+00
 -1      3809 7.75350E+01 1.69963E+01 0.00000E+00
 -1      3810 8.27850E+01 1.56973E+01 0.00000E+00
 -1      3811 8.12850E+01 1.56973E+01 0.00000E+00
 -1      3812 8.05350E+01 1.69963E+01 0.00000E+00
 -1      3813 8.57850E+01 1.56973E+01 0.00000E+00
 -1      3814 8.42850E+01 1.56973E+01 0.00000E+00
 -1      3815 8.35350E+01 1.69963E+01 0.00000E+00
 -1      3816 8.87850E+01 1.56973E+01 0.00000E+00
 -1      3817 8.72850E+01 1.56973E+01 0.00000E+00
 -1      3818 8.65350E+01 1.69963E+01 0.00000E+00
 -1      3819 9.17850E+01 1.56973E+01 0.00000E+00
 -1      3820 9.02850E+01 1.56973E+01 0.00000E+00
 -1      3821 8.95350E+01 1.69963E+01 0.00000E+00
 -1      3822 9.47850E+01 1.56973E+01 0.00000E+00
 -1      3823 9.32850E+01 1.56973E+01 0.00000E+00
 -1      3824 9.25350E+01 1.69963E+01 0.00000E+00
 -1      3825 9.77850E+01 1.56973E+01 0.00000E+00
 -1      3826 9.62850E+01 1.56973E+01 0.00000E+00
 -1      3827 9.55350E+01 1.69963E+01 0.00000E+00
 -1      3828 1.03160E+02 1.54042E+01 0.00000E+00
 -1      3829 1.56071E+01 1.55560E+01 0.00000E+00
 -1      3830 1.33785E+02 1.56973E+01 0.00000E+00
 -1      3831 1.32285E+02 1.56973E+01 0.00000E+00
 -1      3832 1.34453E+02 3.39412E+01 0.00000E+00
 -1      3833 1.31666E+02 1.85801E+01 0.00000E+00
 -1      3834 1.44376E+01 2.80192E+01 0.00000E+00
 -1      3835 1.44376E+01 2.94879E+01 0.00000E+00
 -1      3836 1.58852E+01 2.95883E+01 0.00000E+00
 -1      3837 1.85578E+01 1.28746E+01 0.00000E+00
 -1      3838 1.72397E+01 1.27248E+01 0.00000E+00
 -1      3839 1.68534E+01 1.37242E+01 0.00000E+00
 -1      3840 1.93078E+01 1.41736E+01 0.00000E+00
 -1      3841 1.34975E+02 2.11130E+01 0.00000E+00
 -1      3842 9.97239E+01 2.07138E+01 0.00000E+00
 -1      3843 1.00963E+02 1.96047E+01 0.00000E+00
 -1      3844 1.27896E+02 1.62158E+01 0.00000E+00
 -1      3845 9.90027E+01 2.48118E+01 0.00000E+00
 -1      3846 9.88736E+01 2.31157E+01 0.00000E+00
 -1      3847 9.79056E+01 2.56912E+01 0.00000E+00
 -1      3848 1.99054E+01 3.28115E+01 0.00000E+00
 -1      3849 2.14054E+01 3.28115E+01 0.00000E+00
 -1      3850 2.21554E+01 3.15125E+01 0.00000E+00
 -1      3851 1.99054E+01 3.13427E+01 0.00000E+00
 -1      3852 1.43633E+01 2.53924E+01 0.00000E+00
 -1      3853 1.43633E+01 2.68643E+01 0.00000E+00
 -1      3854 1.58109E+01 2.69647E+01 0.00000E+00
 -1      3855 1.56623E+01 2.46549E+01 0.00000E+00
 -1      3856 1.01969E+02 1.58117E+01 0.00000E+00
 -1      3857 1.29212E+02 1.59596E+01 0.00000E+00
 -1      3858 1.00940E+02 1.82082E+01 0.00000E+00
 -1      3859 4.52850E+01 1.56973E+01 0.00000E+00
 -1      3860 4.45350E+01 1.69963E+01 0.00000E+00
 -1      3861 4.67850E+01 1.56973E+01 0.00000E+00
 -1      3862 2.80350E+01 1.43982E+01 0.00000E+00
 -1      3863 1.69215E+01 2.39941E+01 0.00000E+00
 -1      3864 1.69958E+01 2.51489E+01 0.00000E+00
 -1      3865 4.15350E+01 1.69963E+01 0.00000E+00
 -1      3866 4.07850E+01 1.56973E+01 0.00000E+00
 -1      3867 3.92850E+01 1.56973E+01 0.00000E+00
 -1      3868 9.89952E+01 2.96117E+01 0.00000E+00
 -1      3869 9.78747E+01 2.87625E+01 0.00000E+00
 -1      3870 1.31714E+02 1.69965E+01 0.00000E+00
 -1      3871 1.30964E+02 1.56975E+01 0.00000E+00
 -1      3872 1.00785E+02 1.56973E+01 0.00000E+00
 -1      3873 9.92850E+01 1.56973E+01 0.00000E+00
 -1      3874 1.68343E+01 1.57807E+01 0.00000E+00
 -1      3875 9.64975E+01 3.08675E+01 0.00000E+00
 -1      3876 9.72475E+01 3.21665E+01 0.00000E+00
 -1      3877 1.33756E+02 3.26698E+01 0.00000E+00
 -1      3878 1.32987E+02 1.85799E+01 0.00000E+00
 -1      3879 1.33758E+02 1.73718E+01 0.00000E+00
 -1      3880 9.91052E+01 3.09288E+01 0.00000E+00
 -1      3881 2.27850E+01 1.56973E+01 0.00000E+00
 -1      3882 2.12850E+01 1.56973E+01 0.00000E+00
 -1      3883 3.47850E+01 1.56973E+01 0.00000E+00
 -1      3884 3.32850E+01 1.56973E+01 0.00000E+00
 -1      3885 3.17850E+01 1.56973E+01 0.00000E+00
 -1      3886 3.02850E+01 1.56973E+01 0.00000E+00
 -1      3887 3.25350E+01 1.69963E+01 0.00000E+00
 -1      3888 9.86268E+01 2.15932E+01 0.00000E+00
 -1      3889 9.83801E+01 2.00707E+01 0.00000E+00
 -1      3890 9.75298E+01 2.24726E+01 0.00000E+00
 -1      3891 1.34508E+02 1.60728E+01 0.00000E+00
 -1      3892 1.33058E+02 3.13984E+01 0.00000E+00
 -1      3893 4.97850E+01 1.56973E+01 0.00000E+00
 -1      3894 4.82850E+01 1.56973E+01 0.00000E+00
 -1      3895 4.75350E+01 1.69963E+01 0.00000E+00
 -1      3896 1.69215E+01 2.25222E+01 0.00000E+00
 -1      3897 1.82549E+01 2.30162E+01 0.00000E+00
 -1      3898 1.69215E+01 2.10503E+01 0.00000E+00
 -1      3899 9.85350E+01 1.69963E+01 0.00000E+00
 -1      3900 5.05350E+01 1.69963E+01 0.00000E+00
 -1      3901 2.05350E+01 1.69963E+01 0.00000E+00
 -1      3902 1.97850E+01 1.56973E+01 0.00000E+00
 -1      3903 1.85579E+01 1.54726E+01 0.00000E+00
 -1      3904 1.73328E+01 2.96887E+01 0.00000E+00
 -1      3905 1.87804E+01 2.97891E+01 0.00000E+00
 -1      3906 1.73328E+01 2.82200E+01 0.00000E+00
 -1      3907 2.40304E+01 3.02984E+01 0.00000E+00
 -1      3908 2.55304E+01 3.02984E+01 0.00000E+00
 -1      3909 2.70304E+01 3.02984E+01 0.00000E+00
 -1      3910 2.85304E+01 3.02984E+01 0.00000E+00
 -1      3911 2.62804E+01 2.89994E+01 0.00000E+00
 -1      3912 3.00304E+01 3.02984E+01 0.00000E+00
 -1      3913 3.15304E+01 3.02984E+01 0.00000E+00
 -1      3914 2.92804E+01 2.89994E+01 0.00000E+00
 -1      3915 3.30303E+01 3.02984E+01 0.00000E+00
 -1      3916 3.45303E+01 3.02984E+01 0.00000E+00
 -1      3917 3.22803E+01 2.89994E+01 0.00000E+00
 -1      3918 3.60303E+01 3.02984E+01 0.00000E+00
 -1      3919 3.75303E+01 3.02984E+01 0.00000E+00
 -1      3920 3.52803E+01 2.89994E+01 0.00000E+00
 -1      3921 3.90303E+01 3.02984E+01 0.00000E+00
 -1      3922 4.05303E+01 3.02984E+01 0.00000E+00
 -1      3923 3.82803E+01 2.89994E+01 0.00000E+00
 -1      3924 4.20303E+01 3.02984E+01 0.00000E+00
 -1      3925 4.35303E+01 3.02984E+01 0.00000E+00
 -1      3926 4.12803E+01 2.89994E+01 0.00000E+00
 -1      3927 4.50303E+01 3.02984E+01 0.00000E+00
 -1      3928 4.65303E+01 3.02984E+01 0.00000E+00
 -1      3929 4.42803E+01 2.89994E+01 0.00000E+00
 -1      3930 4.80303E+01 3.02984E+01 0.00000E+00
 -1      3931 4.95303E+01 3.02984E+01 0.00000E+00
 -1      3932 4.72803E+01 2.89994E+01 0.00000E+00
 -1      3933 5.10303E+01 3.02984E+01 0.00000E+00
 -1      3934 5.25303E+01 3.02984E+01 0.00000E+00
 -1      3935 5.02803E+01 2.89994E+01 0.00000E+00
 -1      3936 5.40303E+01 3.02984E+01 0.00000E+00
 -1      3937 5.55303E+01 3.02984E+01 0.00000E+00
 -1      3938 5.32803E+01 2.89994E+01 0.00000E+00
 -1      3939 5.70303E+01 3.02984E+01 0.00000E+00
 -1      3940 5.85303E+01 3.02984E+01 0.00000E+00
 -1      3941 5.62803E+01 2.89994E+01 0.00000E+00
 -1      3942 6.00303E+01 3.02984E+01 0.00000E+00
 -1      3943 6.15303E+01 3.02984E+01 0.00000E+00
 -1      3944 5.92803E+01 2.89994E+01 0.00000E+00
 -1      3945 6.30303E+01 3.02984E+01 0.00000E+00
 -1      3946 6.45303E+01 3.02984E+01 0.00000E+00
 -1      3947 6.22803E+01 2.89994E+01 0.00000E+00
 -1      3948 6.60303E+01 3.02984E+01 0.00000E+00
 -1      3949 6.75303E+01 3.02984E+01 0.00000E+00
 -1      3950 6.52803E+01 2.89994E+01 0.00000E+00
 -1      3951 6.90303E+01 3.02984E+01 0.00000E+00
 -1      3952 7.05303E+01 3.02984E+01 0.00000E+00
 -1      3953 6.82803E+01 2.89994E+01 0.00000E+00
 -1      3954 7.20303E+01 3.02984E+01 0.00000E+00
 -1      3955 7.35303E+01 3.02984E+01 0.00000E+00
 -1      3956 7.12803E+01 2.89994E+01 0.00000E+00
 -1      3957 7.50303E+01 3.02984E+01 0.00000E+00
 -1      3958 7.65303E+01 3.02984E+01 0.00000E+00
 -1      3959 7.42803E+01 2.89994E+01 0.00000E+00
 -1      3960 7.80303E+01 3.02984E+01 0.00000E+00
 -1      3961 7.95303E+01 3.02984E+01 0.00000E+00
 -1      3962 7.72803E+01 2.89994E+01 0.00000E+00
 -1      3963 8.10303E+01 3.02984E+01 0.00000E+00
 -1      3964 8.25303E+01 3.02984E+01 0.00000E+00
 -1      3965 8.02803E+01 2.89994E+01 0.00000E+00
 -1      3966 8.40303E+01 3.02984E+01 0.00000E+00
 -1      3967 8.55303E+01 3.02984E+01 0.00000E+00
 -1      3968 8.32803E+01 2.89994E+01 0.00000E+00
 -1      3969 8.70303E+01 3.02984E+01 0.00000E+00
 -1      3970 8.85303E+01 3.02984E+01 0.00000E+00
 -1      3971 8.62803E+01 2.89994E+01 0.00000E+00
 -1      3972 9.00303E+01 3.02984E+01 0.00000E+00
 -1      3973 9.15303E+01 3.02984E+01 0.00000E+00
 -1      3974 8.92803E+01 2.89994E+01 0.00000E+00
 -1      3975 9.30303E+01 3.02984E+01 0.00000E+00
 -1      3976 9.45303E+01 3.02984E+01 0.00000E+00
 -1      3977 9.22803E+01 2.89994E+01 0.00000E+00
 -1      3978 6.32850E+01 1.82952E+01 0.00000E+00
 -1      3979 6.17850E+01 1.82952E+01 0.00000E+00
 -1      3980 1.71271E+01 2.61070E+01 0.00000E+00
 -1      3981 1.72014E+01 2.72619E+01 0.00000E+00
 -1      3982 1.86490E+01 2.73623E+01 0.00000E+00
 -1      3983 1.83863E+01 2.54462E+01 0.00000E+00
 -1      3984 9.66099E+01 2.93121E+01 0.00000E+00
 -1      3985 9.67700E+01 2.79370E+01 0.00000E+00
 -1      3986 5.72850E+01 1.82952E+01 0.00000E+00
 -1      3987 5.57850E+01 1.82952E+01 0.00000E+00
 -1      3988 5.42850E+01 1.82952E+01 0.00000E+00
 -1      3989 5.27850E+01 1.82952E+01 0.00000E+00
 -1      3990 5.50350E+01 1.95942E+01 0.00000E+00
 -1      3991 6.62850E+01 1.82952E+01 0.00000E+00
 -1      3992 6.47850E+01 1.82952E+01 0.00000E+00
 -1      3993 6.40350E+01 1.95942E+01 0.00000E+00
 -1      3994 6.92850E+01 1.82952E+01 0.00000E+00
 -1      3995 6.77850E+01 1.82952E+01 0.00000E+00
 -1      3996 6.70350E+01 1.95942E+01 0.00000E+00
 -1      3997 7.22850E+01 1.82952E+01 0.00000E+00
 -1      3998 7.07850E+01 1.82952E+01 0.00000E+00
 -1      3999 7.00350E+01 1.95942E+01 0.00000E+00
 -1      4000 7.52850E+01 1.82952E+01 0.00000E+00
 -1      4001 7.37850E+01 1.82952E+01 0.00000E+00
 -1      4002 7.30350E+01 1.95942E+01 0.00000E+00
 -1      4003 7.82850E+01 1.82952E+01 0.00000E+00
 -1      4004 7.67850E+01 1.82952E+01 0.00000E+00
 -1      4005 7.60350E+01 1.95942E+01 0.00000E+00
 -1      4006 8.12850E+01 1.82952E+01 0.00000E+00
 -1      4007 7.97850E+01 1.82952E+01 0.00000E+00
 -1      4008 7.90350E+01 1.95942E+01 0.00000E+00
 -1      4009 8.42850E+01 1.82952E+01 0.00000E+00
 -1      4010 8.27850E+01 1.82952E+01 0.00000E+00
 -1      4011 8.20350E+01 1.95942E+01 0.00000E+00
 -1      4012 8.72850E+01 1.82952E+01 0.00000E+00
 -1      4013 8.57850E+01 1.82952E+01 0.00000E+00
 -1      4014 8.50350E+01 1.95942E+01 0.00000E+00
 -1      4015 9.02850E+01 1.82952E+01 0.00000E+00
 -1      4016 8.87850E+01 1.82952E+01 0.00000E+00
 -1      4017 8.80350E+01 1.95942E+01 0.00000E+00
 -1      4018 9.32850E+01 1.82952E+01 0.00000E+00
 -1      4019 9.17850E+01 1.82952E+01 0.00000E+00
 -1      4020 9.10350E+01 1.95942E+01 0.00000E+00
 -1      4021 1.01219E+02 1.71107E+01 0.00000E+00
 -1      4022 5.12850E+01 1.82952E+01 0.00000E+00
 -1      4023 4.97850E+01 1.82952E+01 0.00000E+00
 -1      4024 5.20350E+01 1.95942E+01 0.00000E+00
 -1      4025 1.73115E+01 1.73044E+01 0.00000E+00
 -1      4026 3.62850E+01 1.56973E+01 0.00000E+00
 -1      4027 3.55350E+01 1.69963E+01 0.00000E+00
 -1      4028 3.77850E+01 1.56973E+01 0.00000E+00
 -1      4029 2.42850E+01 1.56973E+01 0.00000E+00
 -1      4030 2.35350E+01 1.69963E+01 0.00000E+00
 -1      4031 2.57850E+01 1.56973E+01 0.00000E+00
 -1      4032 6.02850E+01 1.82952E+01 0.00000E+00
 -1      4033 5.87850E+01 1.82952E+01 0.00000E+00
 -1      4034 6.10350E+01 1.95942E+01 0.00000E+00
 -1      4035 2.12850E+01 1.82953E+01 0.00000E+00
 -1      4036 1.97851E+01 1.82953E+01 0.00000E+00
 -1      4037 9.97561E+01 1.80938E+01 0.00000E+00
 -1      4038 9.66409E+01 2.62408E+01 0.00000E+00
 -1      4039 9.65118E+01 2.45447E+01 0.00000E+00
 -1      4040 9.53762E+01 2.67905E+01 0.00000E+00
 -1      4041 2.87850E+01 1.56973E+01 0.00000E+00
 -1      4042 2.72850E+01 1.56973E+01 0.00000E+00
 -1      4043 2.65350E+01 1.69963E+01 0.00000E+00
 -1      4044 2.95350E+01 1.69963E+01 0.00000E+00
 -1      4045 9.82561E+01 1.80938E+01 0.00000E+00
 -1      4046 9.71590E+01 1.89732E+01 0.00000E+00
 -1      4047 4.22850E+01 1.82952E+01 0.00000E+00
 -1      4048 4.07850E+01 1.82952E+01 0.00000E+00
 -1      4049 2.29054E+01 3.02135E+01 0.00000E+00
 -1      4050 2.36554E+01 2.89145E+01 0.00000E+00
 -1      4051 2.17804E+01 3.01286E+01 0.00000E+00
 -1      4052 9.46428E+01 2.87430E+01 0.00000E+00
 -1      4053 9.53928E+01 3.00420E+01 0.00000E+00
 -1      4054 3.85350E+01 1.69963E+01 0.00000E+00
 -1      4055 1.96076E+01 2.47907E+01 0.00000E+00
 -1      4056 1.97389E+01 2.57488E+01 0.00000E+00
 -1      4057 1.68870E+01 1.83484E+01 0.00000E+00
 -1      4058 1.68870E+01 1.98203E+01 0.00000E+00
 -1      4059 5.80350E+01 1.95942E+01 0.00000E+00
 -1      4060 1.86105E+01 1.80403E+01 0.00000E+00
 -1      4061 9.50003E+01 2.35719E+01 0.00000E+00
 -1      4062 9.62650E+01 2.30222E+01 0.00000E+00
 -1      4063 9.60183E+01 2.14998E+01 0.00000E+00
 -1      4064 9.62850E+01 1.82952E+01 0.00000E+00
 -1      4065 9.47850E+01 1.82952E+01 0.00000E+00
 -1      4066 1.99054E+01 2.98740E+01 0.00000E+00
 -1      4067 2.42850E+01 1.82953E+01 0.00000E+00
 -1      4068 2.27850E+01 1.82953E+01 0.00000E+00
 -1      4069 2.20351E+01 1.95943E+01 0.00000E+00
 -1      4070 4.37850E+01 1.82952E+01 0.00000E+00
 -1      4071 4.30350E+01 1.95942E+01 0.00000E+00
 -1      4072 4.52850E+01 1.82952E+01 0.00000E+00
 -1      4073 9.40350E+01 1.95942E+01 0.00000E+00
 -1      4074 4.82850E+01 1.82952E+01 0.00000E+00
 -1      4075 4.67850E+01 1.82952E+01 0.00000E+00
 -1      4076 4.60350E+01 1.95942E+01 0.00000E+00
 -1      4077 1.82205E+01 2.03144E+01 0.00000E+00
 -1      4078 1.93605E+01 1.93393E+01 0.00000E+00
 -1      4079 3.62850E+01 1.82952E+01 0.00000E+00
 -1      4080 3.47850E+01 1.82952E+01 0.00000E+00
 -1      4081 3.32850E+01 1.82952E+01 0.00000E+00
 -1      4082 3.17850E+01 1.82952E+01 0.00000E+00
 -1      4083 3.40350E+01 1.95942E+01 0.00000E+00
 -1      4084 4.90350E+01 1.95942E+01 0.00000E+00
 -1      4085 9.33970E+01 2.80231E+01 0.00000E+00
 -1      4086 9.42595E+01 2.77668E+01 0.00000E+00
 -1      4087 9.41304E+01 2.60706E+01 0.00000E+00
 -1      4088 9.18970E+01 2.80231E+01 0.00000E+00
 -1      4089 3.92850E+01 1.82952E+01 0.00000E+00
 -1      4090 3.77850E+01 1.82952E+01 0.00000E+00
 -1      4091 3.70350E+01 1.95942E+01 0.00000E+00
 -1      4092 4.00350E+01 1.95942E+01 0.00000E+00
 -1      4093 1.92148E+01 2.33717E+01 0.00000E+00
 -1      4094 2.05675E+01 2.36743E+01 0.00000E+00
 -1      4095 1.93950E+01 2.05693E+01 0.00000E+00
 -1      4096 2.85304E+01 2.77004E+01 0.00000E+00
 -1      4097 3.00304E+01 2.77004E+01 0.00000E+00
 -1      4098 3.15304E+01 2.77004E+01 0.00000E+00
 -1      4099 3.30303E+01 2.77004E+01 0.00000E+00
 -1      4100 3.07804E+01 2.64014E+01 0.00000E+00
 -1      4101 3.45303E+01 2.77004E+01 0.00000E+00
 -1      4102 3.60303E+01 2.77004E+01 0.00000E+00
 -1      4103 3.37803E+01 2.64014E+01 0.00000E+00
 -1      4104 3.75303E+01 2.77004E+01 0.00000E+00
 -1      4105 3.90303E+01 2.77004E+01 0.00000E+00
 -1      4106 3.67803E+01 2.64014E+01 0.00000E+00
 -1      4107 4.05303E+01 2.77004E+01 0.00000E+00
 -1      4108 4.20303E+01 2.77004E+01 0.00000E+00
 -1      4109 3.97803E+01 2.64014E+01 0.00000E+00
 -1      4110 4.35303E+01 2.77004E+01 0.00000E+00
 -1      4111 4.50303E+01 2.77004E+01 0.00000E+00
 -1      4112 4.27803E+01 2.64014E+01 0.00000E+00
 -1      4113 4.65303E+01 2.77004E+01 0.00000E+00
 -1      4114 4.80303E+01 2.77004E+01 0.00000E+00
 -1      4115 4.57803E+01 2.64014E+01 0.00000E+00
 -1      4116 4.95303E+01 2.77004E+01 0.00000E+00
 -1      4117 5.10303E+01 2.77004E+01 0.00000E+00
 -1      4118 4.87803E+01 2.64014E+01 0.00000E+00
 -1      4119 5.25303E+01 2.77004E+01 0.00000E+00
 -1      4120 5.40303E+01 2.77004E+01 0.00000E+00
 -1      4121 5.17803E+01 2.64014E+01 0.00000E+00
 -1      4122 5.55303E+01 2.77004E+01 0.00000E+00
 -1      4123 5.70303E+01 2.77004E+01 0.00000E+00
 -1      4124 5.47803E+01 2.64014E+01 0.00000E+00
 -1      4125 5.85303E+01 2.77004E+01 0.00000E+00
 -1      4126 6.00303E+01 2.77004E+01 0.00000E+00
 -1      4127 5.77803E+01 2.64014E+01 0.00000E+00
 -1      4128 6.15303E+01 2.77004E+01 0.00000E+00
 -1      4129 6.30303E+01 2.77004E+01 0.00000E+00
 -1      4130 6.07803E+01 2.64014E+01 0.00000E+00
 -1      4131 6.45303E+01 2.77004E+01 0.00000E+00
 -1      4132 6.60303E+01 2.77004E+01 0.00000E+00
 -1      4133 6.37803E+01 2.64014E+01 0.00000E+00
 -1      4134 6.75303E+01 2.77004E+01 0.00000E+00
 -1      4135 6.90303E+01 2.77004E+01 0.00000E+00
 -1      4136 6.67803E+01 2.64014E+01 0.00000E+00
 -1      4137 7.05303E+01 2.77004E+01 0.00000E+00
 -1      4138 7.20303E+01 2.77004E+01 0.00000E+00
 -1      4139 6.97803E+01 2.64014E+01 0.00000E+00
 -1      4140 7.35303E+01 2.77004E+01 0.00000E+00
 -1      4141 7.50303E+01 2.77004E+01 0.00000E+00
 -1      4142 7.27803E+01 2.64014E+01 0.00000E+00
 -1      4143 7.65303E+01 2.77004E+01 0.00000E+00
 -1      4144 7.80303E+01 2.77004E+01 0.00000E+00
 -1      4145 7.57803E+01 2.64014E+01 0.00000E+00
 -1      4146 7.95303E+01 2.77004E+01 0.00000E+00
 -1      4147 8.10303E+01 2.77004E+01 0.00000E+00
 -1      4148 7.87803E+01 2.64014E+01 0.00000E+00
 -1      4149 8.25303E+01 2.77004E+01 0.00000E+00
 -1      4150 8.40303E+01 2.77004E+01 0.00000E+00
 -1      4151 8.17803E+01 2.64014E+01 0.00000E+00
 -1      4152 8.55303E+01 2.77004E+01 0.00000E+00
 -1      4153 8.70303E+01 2.77004E+01 0.00000E+00
 -1      4154 8.47803E+01 2.64014E+01 0.00000E+00
 -1      4155 8.85303E+01 2.77004E+01 0.00000E+00
 -1      4156 9.00303E+01 2.77004E+01 0.00000E+00
 -1      4157 8.77803E+01 2.64014E+01 0.00000E+00
 -1      4158 6.77850E+01 2.08932E+01 0.00000E+00
 -1      4159 6.62850E+01 2.08932E+01 0.00000E+00
 -1      4160 1.98703E+01 2.67068E+01 0.00000E+00
 -1      4161 2.00016E+01 2.76649E+01 0.00000E+00
 -1      4162 2.10916E+01 2.60513E+01 0.00000E+00
 -1      4163 5.87850E+01 2.08932E+01 0.00000E+00
 -1      4164 5.72850E+01 2.08932E+01 0.00000E+00
 -1      4165 6.47850E+01 2.08932E+01 0.00000E+00
 -1      4166 6.32850E+01 2.08932E+01 0.00000E+00
 -1      4167 6.55350E+01 2.21922E+01 0.00000E+00
 -1      4168 7.07850E+01 2.08932E+01 0.00000E+00
 -1      4169 6.92850E+01 2.08932E+01 0.00000E+00
 -1      4170 6.85350E+01 2.21922E+01 0.00000E+00
 -1      4171 7.37850E+01 2.08932E+01 0.00000E+00
 -1      4172 7.22850E+01 2.08932E+01 0.00000E+00
 -1      4173 7.15350E+01 2.21922E+01 0.00000E+00
 -1      4174 7.67850E+01 2.08932E+01 0.00000E+00
 -1      4175 7.52850E+01 2.08932E+01 0.00000E+00
 -1      4176 7.45350E+01 2.21922E+01 0.00000E+00
 -1      4177 7.97850E+01 2.08932E+01 0.00000E+00
 -1      4178 7.82850E+01 2.08932E+01 0.00000E+00
 -1      4179 7.75350E+01 2.21922E+01 0.00000E+00
 -1      4180 8.27850E+01 2.08932E+01 0.00000E+00
 -1      4181 8.12850E+01 2.08932E+01 0.00000E+00
 -1      4182 8.05350E+01 2.21922E+01 0.00000E+00
 -1      4183 8.57850E+01 2.08932E+01 0.00000E+00
 -1      4184 8.42850E+01 2.08932E+01 0.00000E+00
 -1      4185 8.35350E+01 2.21922E+01 0.00000E+00
 -1      4186 8.87850E+01 2.08932E+01 0.00000E+00
 -1      4187 8.72850E+01 2.08932E+01 0.00000E+00
 -1      4188 8.65350E+01 2.21922E+01 0.00000E+00
 -1      4189 9.17850E+01 2.08932E+01 0.00000E+00
 -1      4190 9.02850E+01 2.08932E+01 0.00000E+00
 -1      4191 8.95350E+01 2.21922E+01 0.00000E+00
 -1      4192 9.64090E+01 2.02722E+01 0.00000E+00
 -1      4193 5.27850E+01 2.08932E+01 0.00000E+00
 -1      4194 5.12850E+01 2.08932E+01 0.00000E+00
 -1      4195 1.92148E+01 2.18999E+01 0.00000E+00
 -1      4196 6.17850E+01 2.08932E+01 0.00000E+00
 -1      4197 6.02850E+01 2.08932E+01 0.00000E+00
 -1      4198 6.25350E+01 2.21922E+01 0.00000E+00
 -1      4199 2.16230E+01 2.26183E+01 0.00000E+00
 -1      4200 2.20158E+01 2.40373E+01 0.00000E+00
 -1      4201 5.57850E+01 2.08932E+01 0.00000E+00
 -1      4202 5.42850E+01 2.08932E+01 0.00000E+00
 -1      4203 5.65350E+01 2.21922E+01 0.00000E+00
 -1      4204 2.55304E+01 2.77004E+01 0.00000E+00
 -1      4205 2.70304E+01 2.77004E+01 0.00000E+00
 -1      4206 2.77804E+01 2.64014E+01 0.00000E+00
 -1      4207 4.97850E+01 2.08932E+01 0.00000E+00
 -1      4208 4.82850E+01 2.08932E+01 0.00000E+00
 -1      4209 5.05350E+01 2.21922E+01 0.00000E+00
 -1      4210 2.03549E+01 2.09248E+01 0.00000E+00
 -1      4211 9.51443E+01 2.08218E+01 0.00000E+00
 -1      4212 2.18032E+01 2.12878E+01 0.00000E+00
 -1      4213 2.32804E+01 2.75306E+01 0.00000E+00
 -1      4214 2.44054E+01 2.76155E+01 0.00000E+00
 -1      4215 2.51554E+01 2.63165E+01 0.00000E+00
 -1      4216 4.75350E+01 2.21922E+01 0.00000E+00
 -1      4217 4.67850E+01 2.08932E+01 0.00000E+00
 -1      4218 4.52850E+01 2.08932E+01 0.00000E+00
 -1      4219 3.77850E+01 2.08932E+01 0.00000E+00
 -1      4220 3.62850E+01 2.08932E+01 0.00000E+00
 -1      4221 5.95350E+01 2.21922E+01 0.00000E+00
 -1      4222 2.35508E+01 2.46065E+01 0.00000E+00
 -1      4223 2.24953E+01 2.56624E+01 0.00000E+00
 -1      4224 2.72850E+01 1.82953E+01 0.00000E+00
 -1      4225 2.57850E+01 1.82953E+01 0.00000E+00
 -1      4226 2.50351E+01 1.95943E+01 0.00000E+00
 -1      4227 9.36443E+01 2.08218E+01 0.00000E+00
 -1      4228 9.28943E+01 2.21208E+01 0.00000E+00
 -1      4229 5.35350E+01 2.21922E+01 0.00000E+00
 -1      4230 3.55350E+01 2.21922E+01 0.00000E+00
 -1      4231 3.47850E+01 2.08932E+01 0.00000E+00
 -1      4232 3.32850E+01 2.08932E+01 0.00000E+00
 -1      4233 2.06554E+01 2.85750E+01 0.00000E+00
 -1      4234 3.02850E+01 1.82953E+01 0.00000E+00
 -1      4235 2.87850E+01 1.82953E+01 0.00000E+00
 -1      4236 2.80350E+01 1.95943E+01 0.00000E+00
 -1      4237 3.10350E+01 1.95943E+01 0.00000E+00
 -1      4238 2.33032E+01 2.12878E+01 0.00000E+00
 -1      4239 9.11470E+01 2.67241E+01 0.00000E+00
 -1      4240 9.25153E+01 2.56361E+01 0.00000E+00
 -1      4241 9.36320E+01 2.46599E+01 0.00000E+00
 -1      4242 9.33852E+01 2.31374E+01 0.00000E+00
 -1      4243 9.06486E+01 2.53134E+01 0.00000E+00
 -1      4244 4.37850E+01 2.08932E+01 0.00000E+00
 -1      4245 4.22850E+01 2.08932E+01 0.00000E+00
 -1      4246 4.45350E+01 2.21922E+01 0.00000E+00
 -1      4247 4.07850E+01 2.08932E+01 0.00000E+00
 -1      4248 3.92850E+01 2.08932E+01 0.00000E+00
 -1      4249 4.15350E+01 2.21922E+01 0.00000E+00
 -1      4250 2.26266E+01 2.66205E+01 0.00000E+00
 -1      4251 3.00304E+01 2.51024E+01 0.00000E+00
 -1      4252 3.15304E+01 2.51024E+01 0.00000E+00
 -1      4253 3.85350E+01 2.21922E+01 0.00000E+00
 -1      4254 6.91577E+01 2.42968E+01 0.00000E+00
 -1      4255 6.76577E+01 2.42968E+01 0.00000E+00
 -1      4256 3.31577E+01 2.42968E+01 0.00000E+00
 -1      4257 3.46577E+01 2.42968E+01 0.00000E+00
 -1      4258 3.61577E+01 2.42968E+01 0.00000E+00
 -1      4259 3.76577E+01 2.42968E+01 0.00000E+00
 -1      4260 3.91577E+01 2.42968E+01 0.00000E+00
 -1      4261 4.06577E+01 2.42968E+01 0.00000E+00
 -1      4262 4.21577E+01 2.42968E+01 0.00000E+00
 -1      4263 4.36577E+01 2.42968E+01 0.00000E+00
 -1      4264 4.51577E+01 2.42968E+01 0.00000E+00
 -1      4265 4.66577E+01 2.42968E+01 0.00000E+00
 -1      4266 4.81577E+01 2.42968E+01 0.00000E+00
 -1      4267 4.96577E+01 2.42968E+01 0.00000E+00
 -1      4268 5.11577E+01 2.42968E+01 0.00000E+00
 -1      4269 5.26577E+01 2.42968E+01 0.00000E+00
 -1      4270 5.41577E+01 2.42968E+01 0.00000E+00
 -1      4271 5.56577E+01 2.42968E+01 0.00000E+00
 -1      4272 5.71577E+01 2.42968E+01 0.00000E+00
 -1      4273 5.86577E+01 2.42968E+01 0.00000E+00
 -1      4274 6.01577E+01 2.42968E+01 0.00000E+00
 -1      4275 6.16577E+01 2.42968E+01 0.00000E+00
 -1      4276 6.31577E+01 2.42968E+01 0.00000E+00
 -1      4277 6.46577E+01 2.42968E+01 0.00000E+00
 -1      4278 6.61577E+01 2.42968E+01 0.00000E+00
 -1      4279 7.06577E+01 2.42968E+01 0.00000E+00
 -1      4280 7.21577E+01 2.42968E+01 0.00000E+00
 -1      4281 7.36577E+01 2.42968E+01 0.00000E+00
 -1      4282 7.51577E+01 2.42968E+01 0.00000E+00
 -1      4283 7.66577E+01 2.42968E+01 0.00000E+00
 -1      4284 7.81577E+01 2.42968E+01 0.00000E+00
 -1      4285 7.96577E+01 2.42968E+01 0.00000E+00
 -1      4286 8.11577E+01 2.42968E+01 0.00000E+00
 -1      4287 8.26577E+01 2.42968E+01 0.00000E+00
 -1      4288 8.41577E+01 2.42968E+01 0.00000E+00
 -1      4289 8.56577E+01 2.42968E+01 0.00000E+00
 -1      4290 8.71577E+01 2.42968E+01 0.00000E+00
 -1      4291 8.86577E+01 2.42968E+01 0.00000E+00
 -1      4292 2.18766E+01 2.79195E+01 0.00000E+00
 -1      4293 2.41963E+01 2.30662E+01 0.00000E+00
 -1      4294 2.46758E+01 2.46913E+01 0.00000E+00
 -1      4295 2.58008E+01 2.47762E+01 0.00000E+00
 -1      4296 2.71656E+01 2.49393E+01 0.00000E+00
 -1      4297 2.86656E+01 2.49393E+01 0.00000E+00
 -1      4298 2.94156E+01 2.36403E+01 0.00000E+00
 -1      4299 2.66861E+01 2.33141E+01 0.00000E+00
 -1      4300 9.15260E+01 2.32088E+01 0.00000E+00
 -1      4301 2.44282E+01 2.13727E+01 0.00000E+00
 -1      4302 9.00260E+01 2.32088E+01 0.00000E+00
 -1      4303 2.59282E+01 2.13727E+01 0.00000E+00
 -1      4304 3.16577E+01 2.16988E+01 0.00000E+00
 -1      4305 3.01577E+01 2.16988E+01 0.00000E+00
 -1      4306 3.24077E+01 2.29978E+01 0.00000E+00
 -1      4307 2.72930E+01 2.15357E+01 0.00000E+00
 -1      4308 2.87929E+01 2.15357E+01 0.00000E+00
 -3
    3C                          2072                                     1
 -1       165    8    0    1
 -2         6         7        23      1119      1283      1136
 -1       166    8    0    1
 -2         7         8       165      1120      1284      1285
 -1       167    8    0    1
 -2         8         9       166      1121      1286      1287
 -1       168    8    0    1
 -2         8       166       165      1287      1288      1284
 -1       169    8    0    1
 -2         9        10       167      1122      1289      1290
 -1       170    8    0    1
 -2         9       167       166      1290      1291      1286
 -1       171    8    0    1
 -2        10        11       168      1123      1292      1293
 -1       172    8    0    1
 -2        10       168       167      1293      1294      1289
 -1       173    8    0    1
 -2        11        12       169      1124      1295      1296
 -1       174    8    0    1
 -2        11       169       168      1296      1297      1292
 -1       175    8    0    1
 -2        12        13       170      1125      1298      1299
 -1       176    8    0    1
 -2        12       170       169      1299      1300      1295
 -1       177    8    0    1
 -2        13        14       171      1126      1301      1302
 -1       178    8    0    1
 -2        13       171       170      1302      1303      1298
 -1       179    8    0    1
 -2        14        15       172      1127      1304      1305
 -1       180    8    0    1
 -2        14       172       171      1305      1306      1301
 -1       181    8    0    1
 -2        15        16       173      1128      1307      1308
 -1       182    8    0    1
 -2        15       173       172      1308      1309      1304
 -1       183    8    0    1
 -2        16        17       174      1129      1310      1311
 -1       184    8    0    1
 -2        16       174       173      1311      1312      1307
 -1       185    8    0    1
 -2        17        18       175      1130      1313      1314
 -1       186    8    0    1
 -2        17       175       174      1314      1315      1310
 -1       187    8    0    1
 -2        18        19       176      1131      1316      1317
 -1       188    8    0    1
 -2        18       176       175      1317      1318      1313
 -1       189    8    0    1
 -2        19        20       177      1132      1319      1320
 -1       190    8    0    1
 -2        19       177       176      1320      1321      1316
 -1       191    8    0    1
 -2        20        21       178      1133      1322      1323
 -1       192    8    0    1
 -2        20       178       177      1323      1324      1319
 -1       193    8    0    1
 -2        21        22       179      1134      1325      1326
 -1       194    8    0    1
 -2        21       179       178      1326      1327      1322
 -1       195    8    0    1
 -2        22         5       180      1135      1328      1329
 -1       196    8    0    1
 -2       179        22       180      1325      1329      1330
 -1       197    8    0    1
 -2         5        72       180      1186      1331      1328
 -1       198    8    0    1
 -2        24        23       181      1137      1332      1333
 -1       199    8    0    1
 -2        25        24       182      1138      1334      1335
 -1       200    8    0    1
 -2        24       181       182      1333      1336      1334
 -1       201    8    0    1
 -2        26        25       183      1139      1337      1338
 -1       202    8    0    1
 -2        25       182       183      1335      1339      1337
 -1       203    8    0    1
 -2        27        26       184      1140      1340      1341
 -1       204    8    0    1
 -2        26       183       184      1338      1342      1340
 -1       205    8    0    1
 -2        28        27       185      1141      1343      1344
 -1       206    8    0    1
 -2        27       184       185      1341      1345      1343
 -1       207    8    0    1
 -2        29        28       186      1142      1346      1347
 -1       208    8    0    1
 -2        28       185       186      1344      1348      1346
 -1       209    8    0    1
 -2        30        29       187      1143      1349      1350
 -1       210    8    0    1
 -2        29       186       187      1347      1351      1349
 -1       211    8    0    1
 -2        31        30       188      1144      1352      1353
 -1       212    8    0    1
 -2        30       187       188      1350      1354      1352
 -1       213    8    0    1
 -2        32        31       189      1145      1355      1356
 -1       214    8    0    1
 -2        31       188       189      1353      1357      1355
 -1       215    8    0    1
 -2        33        32       190      1146      1358      1359
 -1       216    8    0    1
 -2        32       189       190      1356      1360      1358
 -1       217    8    0    1
 -2        34        33       191      1147      1361      1362
 -1       218    8    0    1
 -2        33       190       191      1359      1363      1361
 -1       219    8    0    1
 -2        35        34       192      1148      1364      1365
 -1       220    8    0    1
 -2        34       191       192      1362      1366      1364
 -1       221    8    0    1
 -2        36        35       193      1149      1367      1368
 -1       222    8    0    1
 -2        35       192       193      1365      1369      1367
 -1       223    8    0    1
 -2        37        36       194      1150      1370      1371
 -1       224    8    0    1
 -2        36       193       194      1368      1372      1370
 -1       225    8    0    1
 -2        38        37       195      1151      1373      1374
 -1       226    8    0    1
 -2        37       194       195      1371      1375      1373
 -1       227    8    0    1
 -2        39        38       196      1152      1376      1377
 -1       228    8    0    1
 -2        38       195       196      1374      1378      1376
 -1       229    8    0    1
 -2        40        39       197      1153      1379      1380
 -1       230    8    0    1
 -2        39       196       197      1377      1381      1379
 -1       231    8    0    1
 -2        41        40       198      1154      1382      1383
 -1       232    8    0    1
 -2        40       197       198      1380      1384      1382
 -1       233    8    0    1
 -2        42        41       199      1155      1385      1386
 -1       234    8    0    1
 -2        41       198       199      1383      1387      1385
 -1       235    8    0    1
 -2        43        42       200      1156      1388      1389
 -1       236    8    0    1
 -2        42       199       200      1386      1390      1388
 -1       237    8    0    1
 -2        44        43       201      1157      1391      1392
 -1       238    8    0    1
 -2        43       200       201      1389      1393      1391
 -1       239    8    0    1
 -2        45        44       202      1158      1394      1395
 -1       240    8    0    1
 -2        44       201       202      1392      1396      1394
 -1       241    8    0    1
 -2        46        45       203      1159      1397      1398
 -1       242    8    0    1
 -2        45       202       203      1395      1399      1397
 -1       243    8    0    1
 -2        47        46       204      1160      1400      1401
 -1       244    8    0    1
 -2        46       203       204      1398      1402      1400
 -1       245    8    0    1
 -2        48        47       205      1161      1403      1404
 -1       246    8    0    1
 -2        47       204       205      1401      1405      1403
 -1       247    8    0    1
 -2        49        48       206      1162      1406      1407
 -1       248    8    0    1
 -2        48       205       206      1404      1408      1406
 -1       249    8    0    1
 -2        50        49       207      1163      1409      1410
 -1       250    8    0    1
 -2        49       206       207      1407      1411      1409
 -1       251    8    0    1
 -2        51        50       208      1164      1412      1413
 -1       252    8    0    1
 -2        50       207       208      1410      1414      1412
 -1       253    8    0    1
 -2        52        51       209      1165      1415      1416
 -1       254    8    0    1
 -2        51       208       209      1413      1417      1415
 -1       255    8    0    1
 -2        53        52       210      1166      1418      1419
 -1       256    8    0    1
 -2        52       209       210      1416      1420      1418
 -1       257    8    0    1
 -2        54        53       211      1167      1421      1422
 -1       258    8    0    1
 -2        53       210       211      1419      1423      1421
 -1       259    8    0    1
 -2        55        54       212      1168      1424      1425
 -1       260    8    0    1
 -2        54       211       212      1422      1426      1424
 -1       261    8    0    1
 -2        56        55       213      1169      1427      1428
 -1       262    8    0    1
 -2        55       212       213      1425      1429      1427
 -1       263    8    0    1
 -2        57        56       214      1170      1430      1431
 -1       264    8    0    1
 -2        56       213       214      1428      1432      1430
 -1       265    8    0    1
 -2        58        57       215      1171      1433      1434
 -1       266    8    0    1
 -2        57       214       215      1431      1435      1433
 -1       267    8    0    1
 -2        59        58       216      1172      1436      1437
 -1       268    8    0    1
 -2        58       215       216      1434      1438      1436
 -1       269    8    0    1
 -2        60        59       217      1173      1439      1440
 -1       270    8    0    1
 -2        59       216       217      1437      1441      1439
 -1       271    8    0    1
 -2        61        60       218      1174      1442      1443
 -1       272    8    0    1
 -2        60       217       218      1440      1444      1442
 -1       273    8    0    1
 -2        62        61       219      1175      1445      1446
 -1       274    8    0    1
 -2        61       218       219      1443      1447      1445
 -1       275    8    0    1
 -2        63        62       220      1176      1448      1449
 -1       276    8    0    1
 -2        62       219       220      1446      1450      1448
 -1       277    8    0    1
 -2        64        63       221      1177      1451      1452
 -1       278    8    0    1
 -2        63       220       221      1449      1453      1451
 -1       279    8    0    1
 -2        65        64       222      1178      1454      1455
 -1       280    8    0    1
 -2        64       221       222      1452      1456      1454
 -1       281    8    0    1
 -2        66        65       223      1179      1457      1458
 -1       282    8    0    1
 -2        65       222       223      1455      1459      1457
 -1       283    8    0    1
 -2        67        66       224      1180      1460      1461
 -1       284    8    0    1
 -2        66       223       224      1458      1462      1460
 -1       285    8    0    1
 -2        68        67       225      1181      1463      1464
 -1       286    8    0    1
 -2        67       224       225      1461      1465      1463
 -1       287    8    0    1
 -2        69        68       226      1182      1466      1467
 -1       288    8    0    1
 -2        68       225       226      1464      1468      1466
 -1       289    8    0    1
 -2        70        69       227      1183      1469      1470
 -1       290    8    0    1
 -2        69       226       227      1467      1471      1469
 -1       291    8    0    1
 -2        71        70       228      1184      1472      1473
 -1       292    8    0    1
 -2        70       227       228      1470      1474      1472
 -1       293    8    0    1
 -2         4        71       136      1185      1475      1252
 -1       294    8    0    1
 -2       136        71       228      1475      1473      1476
 -1       295    8    0    1
 -2        72        73       229      1187      1477      1478
 -1       296    8    0    1
 -2        72       229       180      1478      1479      1331
 -1       297    8    0    1
 -2        73        74       230      1188      1480      1481
 -1       298    8    0    1
 -2        73       230       229      1481      1482      1477
 -1       299    8    0    1
 -2        74        75       231      1189      1483      1484
 -1       300    8    0    1
 -2        74       231       230      1484      1485      1480
 -1       301    8    0    1
 -2        75        76       232      1190      1486      1487
 -1       302    8    0    1
 -2        75       232       231      1487      1488      1483
 -1       303    8    0    1
 -2        76        77       233      1191      1489      1490
 -1       304    8    0    1
 -2        76       233       232      1490      1491      1486
 -1       305    8    0    1
 -2        77        78       234      1192      1492      1493
 -1       306    8    0    1
 -2        77       234       233      1493      1494      1489
 -1       307    8    0    1
 -2        78        79       235      1193      1495      1496
 -1       308    8    0    1
 -2        78       235       234      1496      1497      1492
 -1       309    8    0    1
 -2        79        80       236      1194      1498      1499
 -1       310    8    0    1
 -2        79       236       235      1499      1500      1495
 -1       311    8    0    1
 -2        80        81       237      1195      1501      1502
 -1       312    8    0    1
 -2        80       237       236      1502      1503      1498
 -1       313    8    0    1
 -2        81        82       238      1196      1504      1505
 -1       314    8    0    1
 -2        81       238       237      1505      1506      1501
 -1       315    8    0    1
 -2        82        83       239      1197      1507      1508
 -1       316    8    0    1
 -2        82       239       238      1508      1509      1504
 -1       317    8    0    1
 -2        83        84       240      1198      1510      1511
 -1       318    8    0    1
 -2        83       240       239      1511      1512      1507
 -1       319    8    0    1
 -2        84        85       241      1199      1513      1514
 -1       320    8    0    1
 -2        84       241       240      1514      1515      1510
 -1       321    8    0    1
 -2        85        86       242      1200      1516      1517
 -1       322    8    0    1
 -2        85       242       241      1517      1518      1513
 -1       323    8    0    1
 -2        86        87       243      1201      1519      1520
 -1       324    8    0    1
 -2        86       243       242      1520      1521      1516
 -1       325    8    0    1
 -2        87        88       244      1202      1522      1523
 -1       326    8    0    1
 -2        87       244       243      1523      1524      1519
 -1       327    8    0    1
 -2        88        89       245      1203      1525      1526
 -1       328    8    0    1
 -2        88       245       244      1526      1527      1522
 -1       329    8    0    1
 -2        89        90       246      1204      1528      1529
 -1       330    8    0    1
 -2        89       246       245      1529      1530      1525
 -1       331    8    0    1
 -2        90        91       247      1205      1531      1532
 -1       332    8    0    1
 -2        90       247       246      1532      1533      1528
 -1       333    8    0    1
 -2        91        92       248      1206      1534      1535
 -1       334    8    0    1
 -2        91       248       247      1535      1536      1531
 -1       335    8    0    1
 -2        92        93       249      1207      1537      1538
 -1       336    8    0    1
 -2        92       249       248      1538      1539      1534
 -1       337    8    0    1
 -2        93        94       250      1208      1540      1541
 -1       338    8    0    1
 -2        93       250       249      1541      1542      1537
 -1       339    8    0    1
 -2        94        95       251      1209      1543      1544
 -1       340    8    0    1
 -2        94       251       250      1544      1545      1540
 -1       341    8    0    1
 -2        95        96       252      1210      1546      1547
 -1       342    8    0    1
 -2        95       252       251      1547      1548      1543
 -1       343    8    0    1
 -2        96        97       253      1211      1549      1550
 -1       344    8    0    1
 -2        96       253       252      1550      1551      1546
 -1       345    8    0    1
 -2        97        98       254      1212      1552      1553
 -1       346    8    0    1
 -2        97       254       253      1553      1554      1549
 -1       347    8    0    1
 -2        98        99       255      1213      1555      1556
 -1       348    8    0    1
 -2        98       255       254      1556      1557      1552
 -1       349    8    0    1
 -2        99       100       256      1214      1558      1559
 -1       350    8    0    1
 -2        99       256       255      1559      1560      1555
 -1       351    8    0    1
 -2       100       101       257      1215      1561      1562
 -1       352    8    0    1
 -2       100       257       256      1562      1563      1558
 -1       353    8    0    1
 -2       101       102       258      1216      1564      1565
 -1       354    8    0    1
 -2       101       258       257      1565      1566      1561
 -1       355    8    0    1
 -2       102       103       259      1217      1567      1568
 -1       356    8    0    1
 -2       102       259       258      1568      1569      1564
 -1       357    8    0    1
 -2       103       104       260      1218      1570      1571
 -1       358    8    0    1
 -2       103       260       259      1571      1572      1567
 -1       359    8    0    1
 -2       104       105       261      1219      1573      1574
 -1       360    8    0    1
 -2       104       261       260      1574      1575      1570
 -1       361    8    0    1
 -2       105       106       262      1220      1576      1577
 -1       362    8    0    1
 -2       105       262       261      1577      1578      1573
 -1       363    8    0    1
 -2       106       107       263      1221      1579      1580
 -1       364    8    0    1
 -2       106       263       262      1580      1581      1576
 -1       365    8    0    1
 -2       107       108       264      1222      1582      1583
 -1       366    8    0    1
 -2       107       264       263      1583      1584      1579
 -1       367    8    0    1
 -2       108       109       265      1223      1585      1586
 -1       368    8    0    1
 -2       108       265       264      1586      1587      1582
 -1       369    8    0    1
 -2       109       110       266      1224      1588      1589
 -1       370    8    0    1
 -2       109       266       265      1589      1590      1585
 -1       371    8    0    1
 -2       110       111       267      1225      1591      1592
 -1       372    8    0    1
 -2       110       267       266      1592      1593      1588
 -1       373    8    0    1
 -2       111       112       268      1226      1594      1595
 -1       374    8    0    1
 -2       111       268       267      1595      1596      1591
 -1       375    8    0    1
 -2       112       113       269      1227      1597      1598
 -1       376    8    0    1
 -2       112       269       268      1598      1599      1594
 -1       377    8    0    1
 -2       113       114       270      1228      1600      1601
 -1       378    8    0    1
 -2       113       270       269      1601      1602      1597
 -1       379    8    0    1
 -2       114       115       271      1229      1603      1604
 -1       380    8    0    1
 -2       114       271       270      1604      1605      1600
 -1       381    8    0    1
 -2       115       116       272      1230      1606      1607
 -1       382    8    0    1
 -2       115       272       271      1607      1608      1603
 -1       383    8    0    1
 -2       116       117       273      1231      1609      1610
 -1       384    8    0    1
 -2       116       273       272      1610      1611      1606
 -1       385    8    0    1
 -2       117       118       274      1232      1612      1613
 -1       386    8    0    1
 -2       117       274       273      1613      1614      1609
 -1       387    8    0    1
 -2       118       119       275      1233      1615      1616
 -1       388    8    0    1
 -2       118       275       274      1616      1617      1612
 -1       389    8    0    1
 -2       119       120       276      1234      1618      1619
 -1       390    8    0    1
 -2       119       276       275      1619      1620      1615
 -1       391    8    0    1
 -2       120         3       121      1235      1236      1621
 -1       392    8    0    1
 -2       121       122       277      1237      1622      1623
 -1       393    8    0    1
 -2       122       123       278      1238      1624      1625
 -1       394    8    0    1
 -2       122       278       277      1625      1626      1622
 -1       395    8    0    1
 -2       123       124       279      1239      1627      1628
 -1       396    8    0    1
 -2       123       279       278      1628      1629      1624
 -1       397    8    0    1
 -2       124       125       280      1240      1630      1631
 -1       398    8    0    1
 -2       124       280       279      1631      1632      1627
 -1       399    8    0    1
 -2       125       126       281      1241      1633      1634
 -1       400    8    0    1
 -2       125       281       280      1634      1635      1630
 -1       401    8    0    1
 -2       126       127       282      1242      1636      1637
 -1       402    8    0    1
 -2       126       282       281      1637      1638      1633
 -1       403    8    0    1
 -2       127       128       283      1243      1639      1640
 -1       404    8    0    1
 -2       127       283       282      1640      1641      1636
 -1       405    8    0    1
 -2       128       129       284      1244      1642      1643
 -1       406    8    0    1
 -2       128       284       283      1643      1644      1639
 -1       407    8    0    1
 -2       129       130       285      1245      1645      1646
 -1       408    8    0    1
 -2       129       285       284      1646      1647      1642
 -1       409    8    0    1
 -2       130       131       286      1246      1648      1649
 -1       410    8    0    1
 -2       130       286       285      1649      1650      1645
 -1       411    8    0    1
 -2       131       132       287      1247      1651      1652
 -1       412    8    0    1
 -2       131       287       286      1652      1653      1648
 -1       413    8    0    1
 -2       132       133       288      1248      1654      1655
 -1       414    8    0    1
 -2       132       288       287      1655      1656      1651
 -1       415    8    0    1
 -2       133       134       289      1249      1657      1658
 -1       416    8    0    1
 -2       133       289       288      1658      1659      1654
 -1       417    8    0    1
 -2       134       135       290      1250      1660      1661
 -1       418    8    0    1
 -2       134       290       289      1661      1662      1657
 -1       419    8    0    1
 -2       135       136       291      1251      1663      1664
 -1       420    8    0    1
 -2       290       135       291      1660      1664      1665
 -1       421    8    0    1
 -2       136       228       291      1476      1666      1663
 -1       422    8    0    1
 -2         2       137       292      1253      1667      1668
 -1       423    8    0    1
 -2       137       138       293      1254      1669      1670
 -1       424    8    0    1
 -2       138       139       294      1255      1671      1672
 -1       425    8    0    1
 -2       139       140       295      1256      1673      1674
 -1       426    8    0    1
 -2       140       141       296      1257      1675      1676
 -1       427    8    0    1
 -2       141       142       297      1258      1677      1678
 -1       428    8    0    1
 -2       142       143       298      1259      1679      1680
 -1       429    8    0    1
 -2       143       144       299      1260      1681      1682
 -1       430    8    0    1
 -2       144       145       300      1261      1683      1684
 -1       431    8    0    1
 -2       145       146       301      1262      1685      1686
 -1       432    8    0    1
 -2       146       147       302      1263      1687      1688
 -1       433    8    0    1
 -2       147       148       303      1264      1689      1690
 -1       434    8    0    1
 -2       148       149       304      1265      1691      1692
 -1       435    8    0    1
 -2       149       150       305      1266      1693      1694
 -1       436    8    0    1
 -2       150       151       306      1267      1695      1696
 -1       437    8    0    1
 -2       151       152       307      1268      1697      1698
 -1       438    8    0    1
 -2       152         1       308      1269      1699      1700
 -1       439    8    0    1
 -2         1       153       309      1270      1701      1702
 -1       440    8    0    1
 -2       153       154       310      1271      1703      1704
 -1       441    8    0    1
 -2       154       155       311      1272      1705      1706
 -1       442    8    0    1
 -2       155       156       312      1273      1707      1708
 -1       443    8    0    1
 -2       156       157       313      1274      1709      1710
 -1       444    8    0    1
 -2       157       158       314      1275      1711      1712
 -1       445    8    0    1
 -2       158       159       315      1276      1713      1714
 -1       446    8    0    1
 -2       159       160       316      1277      1715      1716
 -1       447    8    0    1
 -2       160       161       317      1278      1717      1718
 -1       448    8    0    1
 -2       161       162       318      1279      1719      1720
 -1       449    8    0    1
 -2       162       163       319      1280      1721      1722
 -1       450    8    0    1
 -2       163       164       320      1281      1723      1724
 -1       451    8    0    1
 -2       164         2       321      1282      1725      1726
 -1       452    8    0    1
 -2       295       140       296      1673      1676      1727
 -1       453    8    0    1
 -2       294       139       295      1671      1674      1728
 -1       454    8    0    1
 -2       120       121       276      1621      1729      1618
 -1       455    8    0    1
 -2       121       277       276      1623      1730      1729
 -1       456    8    0    1
 -2       292       137       293      1667      1670      1731
 -1       457    8    0    1
 -2       293       138       294      1669      1672      1732
 -1       458    8    0    1
 -2         2       292       321      1668      1733      1725
 -1       459    8    0    1
 -2       141       297       296      1678      1734      1675
 -1       460    8    0    1
 -2       142       298       297      1680      1735      1677
 -1       461    8    0    1
 -2       143       299       298      1682      1736      1679
 -1       462    8    0    1
 -2       144       300       299      1684      1737      1681
 -1       463    8    0    1
 -2       145       301       300      1686      1738      1683
 -1       464    8    0    1
 -2       146       302       301      1688      1739      1685
 -1       465    8    0    1
 -2       147       303       302      1690      1740      1687
 -1       466    8    0    1
 -2       148       304       303      1692      1741      1689
 -1       467    8    0    1
 -2       149       305       304      1694      1742      1691
 -1       468    8    0    1
 -2       150       306       305      1696      1743      1693
 -1       469    8    0    1
 -2       151       307       306      1698      1744      1695
 -1       470    8    0    1
 -2       152       308       307      1700      1745      1697
 -1       471    8    0    1
 -2         1       309       308      1702      1746      1699
 -1       472    8    0    1
 -2       153       310       309      1704      1747      1701
 -1       473    8    0    1
 -2       154       311       310      1706      1748      1703
 -1       474    8    0    1
 -2       155       312       311      1708      1749      1705
 -1       475    8    0    1
 -2       156       313       312      1710      1750      1707
 -1       476    8    0    1
 -2       157       314       313      1712      1751      1709
 -1       477    8    0    1
 -2       158       315       314      1714      1752      1711
 -1       478    8    0    1
 -2       159       316       315      1716      1753      1713
 -1       479    8    0    1
 -2       160       317       316      1718      1754      1715
 -1       480    8    0    1
 -2       161       318       317      1720      1755      1717
 -1       481    8    0    1
 -2       162       319       318      1722      1756      1719
 -1       482    8    0    1
 -2       163       320       319      1724      1757      1721
 -1       483    8    0    1
 -2       164       321       320      1726      1758      1723
 -1       484    8    0    1
 -2        23         7       165      1283      1285      1759
 -1       485    8    0    1
 -2       166       167       322      1291      1760      1761
 -1       486    8    0    1
 -2       165       166       323      1288      1762      1763
 -1       487    8    0    1
 -2       166       322       323      1761      1764      1762
 -1       488    8    0    1
 -2       168       169       324      1297      1765      1766
 -1       489    8    0    1
 -2       169       170       325      1300      1767      1768
 -1       490    8    0    1
 -2       169       325       324      1768      1769      1765
 -1       491    8    0    1
 -2       170       171       326      1303      1770      1771
 -1       492    8    0    1
 -2       170       326       325      1771      1772      1767
 -1       493    8    0    1
 -2       171       172       327      1306      1773      1774
 -1       494    8    0    1
 -2       171       327       326      1774      1775      1770
 -1       495    8    0    1
 -2       172       173       328      1309      1776      1777
 -1       496    8    0    1
 -2       172       328       327      1777      1778      1773
 -1       497    8    0    1
 -2       173       174       329      1312      1779      1780
 -1       498    8    0    1
 -2       173       329       328      1780      1781      1776
 -1       499    8    0    1
 -2       174       175       330      1315      1782      1783
 -1       500    8    0    1
 -2       174       330       329      1783      1784      1779
 -1       501    8    0    1
 -2       175       176       331      1318      1785      1786
 -1       502    8    0    1
 -2       175       331       330      1786      1787      1782
 -1       503    8    0    1
 -2       176       177       332      1321      1788      1789
 -1       504    8    0    1
 -2       176       332       331      1789      1790      1785
 -1       505    8    0    1
 -2       177       178       333      1324      1791      1792
 -1       506    8    0    1
 -2       177       333       332      1792      1793      1788
 -1       507    8    0    1
 -2       178       179       334      1327      1794      1795
 -1       508    8    0    1
 -2       178       334       333      1795      1796      1791
 -1       509    8    0    1
 -2       179       180       335      1330      1797      1798
 -1       510    8    0    1
 -2       334       179       335      1794      1798      1799
 -1       511    8    0    1
 -2       180       229       335      1479      1800      1797
 -1       512    8    0    1
 -2       181        23       165      1332      1759      1801
 -1       513    8    0    1
 -2       229       230       336      1482      1802      1803
 -1       514    8    0    1
 -2       229       336       335      1803      1804      1800
 -1       515    8    0    1
 -2       181       165       323      1801      1763      1805
 -1       516    8    0    1
 -2       183       182       337      1339      1806      1807
 -1       517    8    0    1
 -2       184       183       338      1342      1808      1809
 -1       518    8    0    1
 -2       183       337       338      1807      1810      1808
 -1       519    8    0    1
 -2       185       184       339      1345      1811      1812
 -1       520    8    0    1
 -2       184       338       339      1809      1813      1811
 -1       521    8    0    1
 -2       186       185       340      1348      1814      1815
 -1       522    8    0    1
 -2       185       339       340      1812      1816      1814
 -1       523    8    0    1
 -2       187       186       341      1351      1817      1818
 -1       524    8    0    1
 -2       186       340       341      1815      1819      1817
 -1       525    8    0    1
 -2       188       187       342      1354      1820      1821
 -1       526    8    0    1
 -2       187       341       342      1818      1822      1820
 -1       527    8    0    1
 -2       189       188       343      1357      1823      1824
 -1       528    8    0    1
 -2       188       342       343      1821      1825      1823
 -1       529    8    0    1
 -2       190       189       344      1360      1826      1827
 -1       530    8    0    1
 -2       189       343       344      1824      1828      1826
 -1       531    8    0    1
 -2       191       190       345      1363      1829      1830
 -1       532    8    0    1
 -2       190       344       345      1827      1831      1829
 -1       533    8    0    1
 -2       192       191       346      1366      1832      1833
 -1       534    8    0    1
 -2       191       345       346      1830      1834      1832
 -1       535    8    0    1
 -2       193       192       347      1369      1835      1836
 -1       536    8    0    1
 -2       192       346       347      1833      1837      1835
 -1       537    8    0    1
 -2       194       193       348      1372      1838      1839
 -1       538    8    0    1
 -2       193       347       348      1836      1840      1838
 -1       539    8    0    1
 -2       195       194       349      1375      1841      1842
 -1       540    8    0    1
 -2       194       348       349      1839      1843      1841
 -1       541    8    0    1
 -2       196       195       350      1378      1844      1845
 -1       542    8    0    1
 -2       195       349       350      1842      1846      1844
 -1       543    8    0    1
 -2       197       196       351      1381      1847      1848
 -1       544    8    0    1
 -2       196       350       351      1845      1849      1847
 -1       545    8    0    1
 -2       198       197       352      1384      1850      1851
 -1       546    8    0    1
 -2       197       351       352      1848      1852      1850
 -1       547    8    0    1
 -2       199       198       353      1387      1853      1854
 -1       548    8    0    1
 -2       198       352       353      1851      1855      1853
 -1       549    8    0    1
 -2       200       199       354      1390      1856      1857
 -1       550    8    0    1
 -2       199       353       354      1854      1858      1856
 -1       551    8    0    1
 -2       201       200       355      1393      1859      1860
 -1       552    8    0    1
 -2       200       354       355      1857      1861      1859
 -1       553    8    0    1
 -2       202       201       356      1396      1862      1863
 -1       554    8    0    1
 -2       201       355       356      1860      1864      1862
 -1       555    8    0    1
 -2       203       202       357      1399      1865      1866
 -1       556    8    0    1
 -2       202       356       357      1863      1867      1865
 -1       557    8    0    1
 -2       204       203       358      1402      1868      1869
 -1       558    8    0    1
 -2       203       357       358      1866      1870      1868
 -1       559    8    0    1
 -2       205       204       359      1405      1871      1872
 -1       560    8    0    1
 -2       204       358       359      1869      1873      1871
 -1       561    8    0    1
 -2       206       205       360      1408      1874      1875
 -1       562    8    0    1
 -2       205       359       360      1872      1876      1874
 -1       563    8    0    1
 -2       207       206       361      1411      1877      1878
 -1       564    8    0    1
 -2       206       360       361      1875      1879      1877
 -1       565    8    0    1
 -2       208       207       362      1414      1880      1881
 -1       566    8    0    1
 -2       207       361       362      1878      1882      1880
 -1       567    8    0    1
 -2       209       208       363      1417      1883      1884
 -1       568    8    0    1
 -2       208       362       363      1881      1885      1883
 -1       569    8    0    1
 -2       210       209       364      1420      1886      1887
 -1       570    8    0    1
 -2       209       363       364      1884      1888      1886
 -1       571    8    0    1
 -2       211       210       365      1423      1889      1890
 -1       572    8    0    1
 -2       210       364       365      1887      1891      1889
 -1       573    8    0    1
 -2       212       211       366      1426      1892      1893
 -1       574    8    0    1
 -2       211       365       366      1890      1894      1892
 -1       575    8    0    1
 -2       213       212       367      1429      1895      1896
 -1       576    8    0    1
 -2       212       366       367      1893      1897      1895
 -1       577    8    0    1
 -2       214       213       368      1432      1898      1899
 -1       578    8    0    1
 -2       213       367       368      1896      1900      1898
 -1       579    8    0    1
 -2       215       214       369      1435      1901      1902
 -1       580    8    0    1
 -2       214       368       369      1899      1903      1901
 -1       581    8    0    1
 -2       216       215       370      1438      1904      1905
 -1       582    8    0    1
 -2       215       369       370      1902      1906      1904
 -1       583    8    0    1
 -2       217       216       371      1441      1907      1908
 -1       584    8    0    1
 -2       216       370       371      1905      1909      1907
 -1       585    8    0    1
 -2       218       217       372      1444      1910      1911
 -1       586    8    0    1
 -2       217       371       372      1908      1912      1910
 -1       587    8    0    1
 -2       219       218       373      1447      1913      1914
 -1       588    8    0    1
 -2       218       372       373      1911      1915      1913
 -1       589    8    0    1
 -2       220       219       374      1450      1916      1917
 -1       590    8    0    1
 -2       219       373       374      1914      1918      1916
 -1       591    8    0    1
 -2       221       220       375      1453      1919      1920
 -1       592    8    0    1
 -2       220       374       375      1917      1921      1919
 -1       593    8    0    1
 -2       222       221       376      1456      1922      1923
 -1       594    8    0    1
 -2       221       375       376      1920      1924      1922
 -1       595    8    0    1
 -2       223       222       377      1459      1925      1926
 -1       596    8    0    1
 -2       222       376       377      1923      1927      1925
 -1       597    8    0    1
 -2       224       223       378      1462      1928      1929
 -1       598    8    0    1
 -2       223       377       378      1926      1930      1928
 -1       599    8    0    1
 -2       225       224       379      1465      1931      1932
 -1       600    8    0    1
 -2       224       378       379      1929      1933      1931
 -1       601    8    0    1
 -2       226       225       380      1468      1934      1935
 -1       602    8    0    1
 -2       225       379       380      1932      1936      1934
 -1       603    8    0    1
 -2       227       226       381      1471      1937      1938
 -1       604    8    0    1
 -2       226       380       381      1935      1939      1937
 -1       605    8    0    1
 -2       228       227       382      1474      1940      1941
 -1       606    8    0    1
 -2       291       228       382      1666      1941      1942
 -1       607    8    0    1
 -2       227       381       382      1938      1943      1940
 -1       608    8    0    1
 -2       230       231       383      1485      1944      1945
 -1       609    8    0    1
 -2       230       383       336      1945      1946      1802
 -1       610    8    0    1
 -2       231       232       384      1488      1947      1948
 -1       611    8    0    1
 -2       231       384       383      1948      1949      1944
 -1       612    8    0    1
 -2       232       233       385      1491      1950      1951
 -1       613    8    0    1
 -2       232       385       384      1951      1952      1947
 -1       614    8    0    1
 -2       233       234       386      1494      1953      1954
 -1       615    8    0    1
 -2       233       386       385      1954      1955      1950
 -1       616    8    0    1
 -2       234       235       387      1497      1956      1957
 -1       617    8    0    1
 -2       234       387       386      1957      1958      1953
 -1       618    8    0    1
 -2       235       236       388      1500      1959      1960
 -1       619    8    0    1
 -2       235       388       387      1960      1961      1956
 -1       620    8    0    1
 -2       236       237       389      1503      1962      1963
 -1       621    8    0    1
 -2       236       389       388      1963      1964      1959
 -1       622    8    0    1
 -2       237       238       390      1506      1965      1966
 -1       623    8    0    1
 -2       237       390       389      1966      1967      1962
 -1       624    8    0    1
 -2       238       239       391      1509      1968      1969
 -1       625    8    0    1
 -2       238       391       390      1969      1970      1965
 -1       626    8    0    1
 -2       239       240       392      1512      1971      1972
 -1       627    8    0    1
 -2       239       392       391      1972      1973      1968
 -1       628    8    0    1
 -2       240       241       393      1515      1974      1975
 -1       629    8    0    1
 -2       240       393       392      1975      1976      1971
 -1       630    8    0    1
 -2       241       242       394      1518      1977      1978
 -1       631    8    0    1
 -2       241       394       393      1978      1979      1974
 -1       632    8    0    1
 -2       242       243       395      1521      1980      1981
 -1       633    8    0    1
 -2       242       395       394      1981      1982      1977
 -1       634    8    0    1
 -2       243       244       396      1524      1983      1984
 -1       635    8    0    1
 -2       243       396       395      1984      1985      1980
 -1       636    8    0    1
 -2       244       245       397      1527      1986      1987
 -1       637    8    0    1
 -2       244       397       396      1987      1988      1983
 -1       638    8    0    1
 -2       245       246       398      1530      1989      1990
 -1       639    8    0    1
 -2       245       398       397      1990      1991      1986
 -1       640    8    0    1
 -2       246       247       399      1533      1992      1993
 -1       641    8    0    1
 -2       246       399       398      1993      1994      1989
 -1       642    8    0    1
 -2       247       248       400      1536      1995      1996
 -1       643    8    0    1
 -2       247       400       399      1996      1997      1992
 -1       644    8    0    1
 -2       248       249       401      1539      1998      1999
 -1       645    8    0    1
 -2       248       401       400      1999      2000      1995
 -1       646    8    0    1
 -2       249       250       402      1542      2001      2002
 -1       647    8    0    1
 -2       249       402       401      2002      2003      1998
 -1       648    8    0    1
 -2       250       251       403      1545      2004      2005
 -1       649    8    0    1
 -2       250       403       402      2005      2006      2001
 -1       650    8    0    1
 -2       251       252       404      1548      2007      2008
 -1       651    8    0    1
 -2       251       404       403      2008      2009      2004
 -1       652    8    0    1
 -2       252       253       405      1551      2010      2011
 -1       653    8    0    1
 -2       252       405       404      2011      2012      2007
 -1       654    8    0    1
 -2       253       254       406      1554      2013      2014
 -1       655    8    0    1
 -2       253       406       405      2014      2015      2010
 -1       656    8    0    1
 -2       254       255       407      1557      2016      2017
 -1       657    8    0    1
 -2       254       407       406      2017      2018      2013
 -1       658    8    0    1
 -2       255       256       408      1560      2019      2020
 -1       659    8    0    1
 -2       255       408       407      2020      2021      2016
 -1       660    8    0    1
 -2       256       257       409      1563      2022      2023
 -1       661    8    0    1
 -2       256       409       408      2023      2024      2019
 -1       662    8    0    1
 -2       257       258       410      1566      2025      2026
 -1       663    8    0    1
 -2       257       410       409      2026      2027      2022
 -1       664    8    0    1
 -2       258       259       411      1569      2028      2029
 -1       665    8    0    1
 -2       258       411       410      2029      2030      2025
 -1       666    8    0    1
 -2       259       260       412      1572      2031      2032
 -1       667    8    0    1
 -2       259       412       411      2032      2033      2028
 -1       668    8    0    1
 -2       260       261       413      1575      2034      2035
 -1       669    8    0    1
 -2       260       413       412      2035      2036      2031
 -1       670    8    0    1
 -2       261       262       414      1578      2037      2038
 -1       671    8    0    1
 -2       261       414       413      2038      2039      2034
 -1       672    8    0    1
 -2       262       263       415      1581      2040      2041
 -1       673    8    0    1
 -2       262       415       414      2041      2042      2037
 -1       674    8    0    1
 -2       263       264       416      1584      2043      2044
 -1       675    8    0    1
 -2       263       416       415      2044      2045      2040
 -1       676    8    0    1
 -2       264       265       417      1587      2046      2047
 -1       677    8    0    1
 -2       264       417       416      2047      2048      2043
 -1       678    8    0    1
 -2       265       266       418      1590      2049      2050
 -1       679    8    0    1
 -2       265       418       417      2050      2051      2046
 -1       680    8    0    1
 -2       266       267       419      1593      2052      2053
 -1       681    8    0    1
 -2       266       419       418      2053      2054      2049
 -1       682    8    0    1
 -2       267       268       420      1596      2055      2056
 -1       683    8    0    1
 -2       267       420       419      2056      2057      2052
 -1       684    8    0    1
 -2       268       269       421      1599      2058      2059
 -1       685    8    0    1
 -2       268       421       420      2059      2060      2055
 -1       686    8    0    1
 -2       269       270       422      1602      2061      2062
 -1       687    8    0    1
 -2       269       422       421      2062      2063      2058
 -1       688    8    0    1
 -2       270       271       423      1605      2064      2065
 -1       689    8    0    1
 -2       270       423       422      2065      2066      2061
 -1       690    8    0    1
 -2       271       272       424      1608      2067      2068
 -1       691    8    0    1
 -2       271       424       423      2068      2069      2064
 -1       692    8    0    1
 -2       272       273       425      1611      2070      2071
 -1       693    8    0    1
 -2       272       425       424      2071      2072      2067
 -1       694    8    0    1
 -2       273       274       426      1614      2073      2074
 -1       695    8    0    1
 -2       273       426       425      2074      2075      2070
 -1       696    8    0    1
 -2       274       275       427      1617      2076      2077
 -1       697    8    0    1
 -2       274       427       426      2077      2078      2073
 -1       698    8    0    1
 -2       275       276       428      1620      2079      2080
 -1       699    8    0    1
 -2       427       275       428      2076      2080      2081
 -1       700    8    0    1
 -2       276       277       428      1730      2082      2079
 -1       701    8    0    1
 -2       279       280       429      1632      2083      2084
 -1       702    8    0    1
 -2       278       279       430      1629      2085      2086
 -1       703    8    0    1
 -2       279       429       430      2084      2087      2085
 -1       704    8    0    1
 -2       277       278       431      1626      2088      2089
 -1       705    8    0    1
 -2       428       277       431      2082      2089      2090
 -1       706    8    0    1
 -2       278       430       431      2086      2091      2088
 -1       707    8    0    1
 -2       280       281       432      1635      2092      2093
 -1       708    8    0    1
 -2       280       432       429      2093      2094      2083
 -1       709    8    0    1
 -2       281       282       433      1638      2095      2096
 -1       710    8    0    1
 -2       281       433       432      2096      2097      2092
 -1       711    8    0    1
 -2       282       283       434      1641      2098      2099
 -1       712    8    0    1
 -2       282       434       433      2099      2100      2095
 -1       713    8    0    1
 -2       283       284       435      1644      2101      2102
 -1       714    8    0    1
 -2       283       435       434      2102      2103      2098
 -1       715    8    0    1
 -2       284       285       436      1647      2104      2105
 -1       716    8    0    1
 -2       284       436       435      2105      2106      2101
 -1       717    8    0    1
 -2       285       286       437      1650      2107      2108
 -1       718    8    0    1
 -2       285       437       436      2108      2109      2104
 -1       719    8    0    1
 -2       286       287       438      1653      2110      2111
 -1       720    8    0    1
 -2       286       438       437      2111      2112      2107
 -1       721    8    0    1
 -2       287       288       439      1656      2113      2114
 -1       722    8    0    1
 -2       287       439       438      2114      2115      2110
 -1       723    8    0    1
 -2       288       289       440      1659      2116      2117
 -1       724    8    0    1
 -2       288       440       439      2117      2118      2113
 -1       725    8    0    1
 -2       289       290       441      1662      2119      2120
 -1       726    8    0    1
 -2       289       441       440      2120      2121      2116
 -1       727    8    0    1
 -2       293       294       442      1732      2122      2123
 -1       728    8    0    1
 -2       321       292       443      1733      2124      2125
 -1       729    8    0    1
 -2       292       293       444      1731      2126      2127
 -1       730    8    0    1
 -2       294       295       445      1728      2128      2129
 -1       731    8    0    1
 -2       294       445       442      2129      2130      2122
 -1       732    8    0    1
 -2       295       296       446      1727      2131      2132
 -1       733    8    0    1
 -2       167       168       447      1294      2133      2134
 -1       734    8    0    1
 -2       322       167       447      1760      2134      2135
 -1       735    8    0    1
 -2       168       324       447      1766      2136      2133
 -1       736    8    0    1
 -2       297       298       448      1735      2137      2138
 -1       737    8    0    1
 -2       298       299       449      1736      2139      2140
 -1       738    8    0    1
 -2       299       300       450      1737      2141      2142
 -1       739    8    0    1
 -2       300       301       451      1738      2143      2144
 -1       740    8    0    1
 -2       301       302       452      1739      2145      2146
 -1       741    8    0    1
 -2       302       303       453      1740      2147      2148
 -1       742    8    0    1
 -2       303       304       454      1741      2149      2150
 -1       743    8    0    1
 -2       303       454       453      2150      2151      2147
 -1       744    8    0    1
 -2       304       305       455      1742      2152      2153
 -1       745    8    0    1
 -2       305       306       456      1743      2154      2155
 -1       746    8    0    1
 -2       305       456       455      2155      2156      2152
 -1       747    8    0    1
 -2       306       307       457      1744      2157      2158
 -1       748    8    0    1
 -2       307       308       458      1745      2159      2160
 -1       749    8    0    1
 -2       308       309       459      1746      2161      2162
 -1       750    8    0    1
 -2       309       310       460      1747      2163      2164
 -1       751    8    0    1
 -2       310       311       461      1748      2165      2166
 -1       752    8    0    1
 -2       311       312       462      1749      2167      2168
 -1       753    8    0    1
 -2       312       313       463      1750      2169      2170
 -1       754    8    0    1
 -2       313       314       464      1751      2171      2172
 -1       755    8    0    1
 -2       314       315       465      1752      2173      2174
 -1       756    8    0    1
 -2       315       316       466      1753      2175      2176
 -1       757    8    0    1
 -2       316       317       467      1754      2177      2178
 -1       758    8    0    1
 -2       317       318       468      1755      2179      2180
 -1       759    8    0    1
 -2       318       319       469      1756      2181      2182
 -1       760    8    0    1
 -2       319       320       470      1757      2183      2184
 -1       761    8    0    1
 -2       320       321       471      1758      2185      2186
 -1       762    8    0    1
 -2       296       297       472      1734      2187      2188
 -1       763    8    0    1
 -2       297       448       472      2138      2189      2187
 -1       764    8    0    1
 -2       445       295       446      2128      2132      2190
 -1       765    8    0    1
 -2       181       323       182      1805      2191      1336
 -1       766    8    0    1
 -2       337       182       323      1806      2191      2192
 -1       767    8    0    1
 -2       444       293       442      2126      2123      2193
 -1       768    8    0    1
 -2       443       292       444      2124      2127      2194
 -1       769    8    0    1
 -2       441       290       291      2119      1665      2195
 -1       770    8    0    1
 -2       321       443       471      2125      2196      2185
 -1       771    8    0    1
 -2       446       296       473      2131      2197      2198
 -1       772    8    0    1
 -2       296       472       473      2188      2199      2197
 -1       773    8    0    1
 -2       470       320       471      2183      2186      2200
 -1       774    8    0    1
 -2       469       319       470      2181      2184      2201
 -1       775    8    0    1
 -2       468       318       469      2179      2182      2202
 -1       776    8    0    1
 -2       467       317       468      2177      2180      2203
 -1       777    8    0    1
 -2       466       316       467      2175      2178      2204
 -1       778    8    0    1
 -2       465       315       466      2173      2176      2205
 -1       779    8    0    1
 -2       464       314       474      2171      2206      2207
 -1       780    8    0    1
 -2       314       465       474      2174      2208      2206
 -1       781    8    0    1
 -2       463       313       464      2169      2172      2209
 -1       782    8    0    1
 -2       462       312       463      2167      2170      2210
 -1       783    8    0    1
 -2       461       311       462      2165      2168      2211
 -1       784    8    0    1
 -2       460       310       461      2163      2166      2212
 -1       785    8    0    1
 -2       459       309       460      2161      2164      2213
 -1       786    8    0    1
 -2       458       308       459      2159      2162      2214
 -1       787    8    0    1
 -2       456       306       457      2154      2158      2215
 -1       788    8    0    1
 -2       454       304       475      2149      2216      2217
 -1       789    8    0    1
 -2       304       455       475      2153      2218      2216
 -1       790    8    0    1
 -2       452       302       453      2145      2148      2219
 -1       791    8    0    1
 -2       451       301       452      2143      2146      2220
 -1       792    8    0    1
 -2       450       300       451      2141      2144      2221
 -1       793    8    0    1
 -2       448       298       449      2137      2140      2222
 -1       794    8    0    1
 -2       449       299       450      2139      2142      2223
 -1       795    8    0    1
 -2       457       307       458      2157      2160      2224
 -1       796    8    0    1
 -2       336       383       476      1946      2225      2226
 -1       797    8    0    1
 -2       325       326       477      1772      2227      2228
 -1       798    8    0    1
 -2       324       325       478      1769      2229      2230
 -1       799    8    0    1
 -2       325       477       478      2228      2231      2229
 -1       800    8    0    1
 -2       327       328       479      1778      2232      2233
 -1       801    8    0    1
 -2       328       329       480      1781      2234      2235
 -1       802    8    0    1
 -2       328       480       479      2235      2236      2232
 -1       803    8    0    1
 -2       329       330       481      1784      2237      2238
 -1       804    8    0    1
 -2       329       481       480      2238      2239      2234
 -1       805    8    0    1
 -2       330       331       482      1787      2240      2241
 -1       806    8    0    1
 -2       330       482       481      2241      2242      2237
 -1       807    8    0    1
 -2       331       332       483      1790      2243      2244
 -1       808    8    0    1
 -2       331       483       482      2244      2245      2240
 -1       809    8    0    1
 -2       332       333       484      1793      2246      2247
 -1       810    8    0    1
 -2       332       484       483      2247      2248      2243
 -1       811    8    0    1
 -2       383       384       485      1949      2249      2250
 -1       812    8    0    1
 -2       383       485       476      2250      2251      2225
 -1       813    8    0    1
 -2       338       337       486      1810      2252      2253
 -1       814    8    0    1
 -2       337       323       487      2192      2254      2255
 -1       815    8    0    1
 -2       486       337       487      2252      2255      2256
 -1       816    8    0    1
 -2       323       322       487      1764      2257      2254
 -1       817    8    0    1
 -2       445       446       488      2190      2258      2259
 -1       818    8    0    1
 -2       339       338       489      1813      2260      2261
 -1       819    8    0    1
 -2       338       486       489      2253      2262      2260
 -1       820    8    0    1
 -2       340       339       490      1816      2263      2264
 -1       821    8    0    1
 -2       339       489       490      2261      2265      2263
 -1       822    8    0    1
 -2       341       340       491      1819      2266      2267
 -1       823    8    0    1
 -2       340       490       491      2264      2268      2266
 -1       824    8    0    1
 -2       342       341       492      1822      2269      2270
 -1       825    8    0    1
 -2       341       491       492      2267      2271      2269
 -1       826    8    0    1
 -2       343       342       493      1825      2272      2273
 -1       827    8    0    1
 -2       342       492       493      2270      2274      2272
 -1       828    8    0    1
 -2       344       343       494      1828      2275      2276
 -1       829    8    0    1
 -2       343       493       494      2273      2277      2275
 -1       830    8    0    1
 -2       345       344       495      1831      2278      2279
 -1       831    8    0    1
 -2       344       494       495      2276      2280      2278
 -1       832    8    0    1
 -2       346       345       496      1834      2281      2282
 -1       833    8    0    1
 -2       345       495       496      2279      2283      2281
 -1       834    8    0    1
 -2       347       346       497      1837      2284      2285
 -1       835    8    0    1
 -2       346       496       497      2282      2286      2284
 -1       836    8    0    1
 -2       348       347       498      1840      2287      2288
 -1       837    8    0    1
 -2       347       497       498      2285      2289      2287
 -1       838    8    0    1
 -2       349       348       499      1843      2290      2291
 -1       839    8    0    1
 -2       348       498       499      2288      2292      2290
 -1       840    8    0    1
 -2       350       349       500      1846      2293      2294
 -1       841    8    0    1
 -2       349       499       500      2291      2295      2293
 -1       842    8    0    1
 -2       351       350       501      1849      2296      2297
 -1       843    8    0    1
 -2       350       500       501      2294      2298      2296
 -1       844    8    0    1
 -2       352       351       502      1852      2299      2300
 -1       845    8    0    1
 -2       351       501       502      2297      2301      2299
 -1       846    8    0    1
 -2       353       352       503      1855      2302      2303
 -1       847    8    0    1
 -2       352       502       503      2300      2304      2302
 -1       848    8    0    1
 -2       354       353       504      1858      2305      2306
 -1       849    8    0    1
 -2       353       503       504      2303      2307      2305
 -1       850    8    0    1
 -2       355       354       505      1861      2308      2309
 -1       851    8    0    1
 -2       354       504       505      2306      2310      2308
 -1       852    8    0    1
 -2       356       355       506      1864      2311      2312
 -1       853    8    0    1
 -2       355       505       506      2309      2313      2311
 -1       854    8    0    1
 -2       357       356       507      1867      2314      2315
 -1       855    8    0    1
 -2       356       506       507      2312      2316      2314
 -1       856    8    0    1
 -2       358       357       508      1870      2317      2318
 -1       857    8    0    1
 -2       357       507       508      2315      2319      2317
 -1       858    8    0    1
 -2       359       358       509      1873      2320      2321
 -1       859    8    0    1
 -2       358       508       509      2318      2322      2320
 -1       860    8    0    1
 -2       360       359       510      1876      2323      2324
 -1       861    8    0    1
 -2       359       509       510      2321      2325      2323
 -1       862    8    0    1
 -2       361       360       511      1879      2326      2327
 -1       863    8    0    1
 -2       360       510       511      2324      2328      2326
 -1       864    8    0    1
 -2       362       361       512      1882      2329      2330
 -1       865    8    0    1
 -2       361       511       512      2327      2331      2329
 -1       866    8    0    1
 -2       363       362       513      1885      2332      2333
 -1       867    8    0    1
 -2       362       512       513      2330      2334      2332
 -1       868    8    0    1
 -2       364       363       514      1888      2335      2336
 -1       869    8    0    1
 -2       363       513       514      2333      2337      2335
 -1       870    8    0    1
 -2       365       364       515      1891      2338      2339
 -1       871    8    0    1
 -2       364       514       515      2336      2340      2338
 -1       872    8    0    1
 -2       366       365       516      1894      2341      2342
 -1       873    8    0    1
 -2       365       515       516      2339      2343      2341
 -1       874    8    0    1
 -2       367       366       517      1897      2344      2345
 -1       875    8    0    1
 -2       366       516       517      2342      2346      2344
 -1       876    8    0    1
 -2       368       367       518      1900      2347      2348
 -1       877    8    0    1
 -2       367       517       518      2345      2349      2347
 -1       878    8    0    1
 -2       369       368       519      1903      2350      2351
 -1       879    8    0    1
 -2       368       518       519      2348      2352      2350
 -1       880    8    0    1
 -2       370       369       520      1906      2353      2354
 -1       881    8    0    1
 -2       369       519       520      2351      2355      2353
 -1       882    8    0    1
 -2       371       370       521      1909      2356      2357
 -1       883    8    0    1
 -2       370       520       521      2354      2358      2356
 -1       884    8    0    1
 -2       372       371       522      1912      2359      2360
 -1       885    8    0    1
 -2       371       521       522      2357      2361      2359
 -1       886    8    0    1
 -2       373       372       523      1915      2362      2363
 -1       887    8    0    1
 -2       372       522       523      2360      2364      2362
 -1       888    8    0    1
 -2       374       373       524      1918      2365      2366
 -1       889    8    0    1
 -2       373       523       524      2363      2367      2365
 -1       890    8    0    1
 -2       375       374       525      1921      2368      2369
 -1       891    8    0    1
 -2       374       524       525      2366      2370      2368
 -1       892    8    0    1
 -2       376       375       526      1924      2371      2372
 -1       893    8    0    1
 -2       375       525       526      2369      2373      2371
 -1       894    8    0    1
 -2       377       376       527      1927      2374      2375
 -1       895    8    0    1
 -2       376       526       527      2372      2376      2374
 -1       896    8    0    1
 -2       378       377       528      1930      2377      2378
 -1       897    8    0    1
 -2       377       527       528      2375      2379      2377
 -1       898    8    0    1
 -2       379       378       529      1933      2380      2381
 -1       899    8    0    1
 -2       378       528       529      2378      2382      2380
 -1       900    8    0    1
 -2       380       379       530      1936      2383      2384
 -1       901    8    0    1
 -2       379       529       530      2381      2385      2383
 -1       902    8    0    1
 -2       381       380       531      1939      2386      2387
 -1       903    8    0    1
 -2       380       530       531      2384      2388      2386
 -1       904    8    0    1
 -2       385       386       532      1955      2389      2390
 -1       905    8    0    1
 -2       386       387       533      1958      2391      2392
 -1       906    8    0    1
 -2       386       533       532      2392      2393      2389
 -1       907    8    0    1
 -2       387       388       534      1961      2394      2395
 -1       908    8    0    1
 -2       387       534       533      2395      2396      2391
 -1       909    8    0    1
 -2       388       389       535      1964      2397      2398
 -1       910    8    0    1
 -2       388       535       534      2398      2399      2394
 -1       911    8    0    1
 -2       389       390       536      1967      2400      2401
 -1       912    8    0    1
 -2       389       536       535      2401      2402      2397
 -1       913    8    0    1
 -2       390       391       537      1970      2403      2404
 -1       914    8    0    1
 -2       390       537       536      2404      2405      2400
 -1       915    8    0    1
 -2       391       392       538      1973      2406      2407
 -1       916    8    0    1
 -2       391       538       537      2407      2408      2403
 -1       917    8    0    1
 -2       392       393       539      1976      2409      2410
 -1       918    8    0    1
 -2       392       539       538      2410      2411      2406
 -1       919    8    0    1
 -2       393       394       540      1979      2412      2413
 -1       920    8    0    1
 -2       393       540       539      2413      2414      2409
 -1       921    8    0    1
 -2       394       395       541      1982      2415      2416
 -1       922    8    0    1
 -2       394       541       540      2416      2417      2412
 -1       923    8    0    1
 -2       395       396       542      1985      2418      2419
 -1       924    8    0    1
 -2       395       542       541      2419      2420      2415
 -1       925    8    0    1
 -2       396       397       543      1988      2421      2422
 -1       926    8    0    1
 -2       396       543       542      2422      2423      2418
 -1       927    8    0    1
 -2       397       398       544      1991      2424      2425
 -1       928    8    0    1
 -2       397       544       543      2425      2426      2421
 -1       929    8    0    1
 -2       398       399       545      1994      2427      2428
 -1       930    8    0    1
 -2       398       545       544      2428      2429      2424
 -1       931    8    0    1
 -2       399       400       546      1997      2430      2431
 -1       932    8    0    1
 -2       399       546       545      2431      2432      2427
 -1       933    8    0    1
 -2       400       401       547      2000      2433      2434
 -1       934    8    0    1
 -2       400       547       546      2434      2435      2430
 -1       935    8    0    1
 -2       401       402       548      2003      2436      2437
 -1       936    8    0    1
 -2       401       548       547      2437      2438      2433
 -1       937    8    0    1
 -2       402       403       549      2006      2439      2440
 -1       938    8    0    1
 -2       402       549       548      2440      2441      2436
 -1       939    8    0    1
 -2       403       404       550      2009      2442      2443
 -1       940    8    0    1
 -2       403       550       549      2443      2444      2439
 -1       941    8    0    1
 -2       404       405       551      2012      2445      2446
 -1       942    8    0    1
 -2       404       551       550      2446      2447      2442
 -1       943    8    0    1
 -2       405       406       552      2015      2448      2449
 -1       944    8    0    1
 -2       405       552       551      2449      2450      2445
 -1       945    8    0    1
 -2       406       407       553      2018      2451      2452
 -1       946    8    0    1
 -2       406       553       552      2452      2453      2448
 -1       947    8    0    1
 -2       407       408       554      2021      2454      2455
 -1       948    8    0    1
 -2       407       554       553      2455      2456      2451
 -1       949    8    0    1
 -2       408       409       555      2024      2457      2458
 -1       950    8    0    1
 -2       408       555       554      2458      2459      2454
 -1       951    8    0    1
 -2       409       410       556      2027      2460      2461
 -1       952    8    0    1
 -2       409       556       555      2461      2462      2457
 -1       953    8    0    1
 -2       410       411       557      2030      2463      2464
 -1       954    8    0    1
 -2       410       557       556      2464      2465      2460
 -1       955    8    0    1
 -2       411       412       558      2033      2466      2467
 -1       956    8    0    1
 -2       411       558       557      2467      2468      2463
 -1       957    8    0    1
 -2       412       413       559      2036      2469      2470
 -1       958    8    0    1
 -2       412       559       558      2470      2471      2466
 -1       959    8    0    1
 -2       413       414       560      2039      2472      2473
 -1       960    8    0    1
 -2       413       560       559      2473      2474      2469
 -1       961    8    0    1
 -2       414       415       561      2042      2475      2476
 -1       962    8    0    1
 -2       414       561       560      2476      2477      2472
 -1       963    8    0    1
 -2       415       416       562      2045      2478      2479
 -1       964    8    0    1
 -2       415       562       561      2479      2480      2475
 -1       965    8    0    1
 -2       416       417       563      2048      2481      2482
 -1       966    8    0    1
 -2       416       563       562      2482      2483      2478
 -1       967    8    0    1
 -2       417       418       564      2051      2484      2485
 -1       968    8    0    1
 -2       417       564       563      2485      2486      2481
 -1       969    8    0    1
 -2       418       419       565      2054      2487      2488
 -1       970    8    0    1
 -2       418       565       564      2488      2489      2484
 -1       971    8    0    1
 -2       419       420       566      2057      2490      2491
 -1       972    8    0    1
 -2       419       566       565      2491      2492      2487
 -1       973    8    0    1
 -2       420       421       567      2060      2493      2494
 -1       974    8    0    1
 -2       420       567       566      2494      2495      2490
 -1       975    8    0    1
 -2       421       422       568      2063      2496      2497
 -1       976    8    0    1
 -2       421       568       567      2497      2498      2493
 -1       977    8    0    1
 -2       422       423       569      2066      2499      2500
 -1       978    8    0    1
 -2       422       569       568      2500      2501      2496
 -1       979    8    0    1
 -2       423       424       570      2069      2502      2503
 -1       980    8    0    1
 -2       423       570       569      2503      2504      2499
 -1       981    8    0    1
 -2       424       425       571      2072      2505      2506
 -1       982    8    0    1
 -2       424       571       570      2506      2507      2502
 -1       983    8    0    1
 -2       425       426       572      2075      2508      2509
 -1       984    8    0    1
 -2       425       572       571      2509      2510      2505
 -1       985    8    0    1
 -2       426       427       573      2078      2511      2512
 -1       986    8    0    1
 -2       426       573       572      2512      2513      2508
 -1       987    8    0    1
 -2       427       428       431      2081      2090      2514
 -1       988    8    0    1
 -2       432       433       574      2097      2515      2516
 -1       989    8    0    1
 -2       433       434       575      2100      2517      2518
 -1       990    8    0    1
 -2       433       575       574      2518      2519      2515
 -1       991    8    0    1
 -2       430       429       576      2087      2520      2521
 -1       992    8    0    1
 -2       429       432       577      2094      2522      2523
 -1       993    8    0    1
 -2       576       429       577      2520      2523      2524
 -1       994    8    0    1
 -2       432       574       577      2516      2525      2522
 -1       995    8    0    1
 -2       434       435       578      2103      2526      2527
 -1       996    8    0    1
 -2       434       578       575      2527      2528      2517
 -1       997    8    0    1
 -2       435       436       579      2106      2529      2530
 -1       998    8    0    1
 -2       435       579       578      2530      2531      2526
 -1       999    8    0    1
 -2       436       437       580      2109      2532      2533
 -1      1000    8    0    1
 -2       436       580       579      2533      2534      2529
 -1      1001    8    0    1
 -2       437       438       581      2112      2535      2536
 -1      1002    8    0    1
 -2       437       581       580      2536      2537      2532
 -1      1003    8    0    1
 -2       438       439       582      2115      2538      2539
 -1      1004    8    0    1
 -2       438       582       581      2539      2540      2535
 -1      1005    8    0    1
 -2       439       440       583      2118      2541      2542
 -1      1006    8    0    1
 -2       439       583       582      2542      2543      2538
 -1      1007    8    0    1
 -2       440       441       584      2121      2544      2545
 -1      1008    8    0    1
 -2       440       584       583      2545      2546      2541
 -1      1009    8    0    1
 -2       443       444       585      2194      2547      2548
 -1      1010    8    0    1
 -2       444       442       586      2193      2549      2550
 -1      1011    8    0    1
 -2       471       443       587      2196      2551      2552
 -1      1012    8    0    1
 -2       443       585       587      2548      2553      2551
 -1      1013    8    0    1
 -2       384       385       588      1952      2554      2555
 -1      1014    8    0    1
 -2       385       532       588      2390      2556      2554
 -1      1015    8    0    1
 -2       441       291       382      2195      1942      2557
 -1      1016    8    0    1
 -2       442       445       589      2130      2558      2559
 -1      1017    8    0    1
 -2       586       442       589      2549      2559      2560
 -1      1018    8    0    1
 -2       445       488       589      2259      2561      2558
 -1      1019    8    0    1
 -2       472       448       590      2189      2562      2563
 -1      1020    8    0    1
 -2       452       453       591      2219      2564      2565
 -1      1021    8    0    1
 -2       326       327       592      1775      2566      2567
 -1      1022    8    0    1
 -2       477       326       592      2227      2567      2568
 -1      1023    8    0    1
 -2       327       479       592      2233      2569      2566
 -1      1024    8    0    1
 -2       449       450       593      2223      2570      2571
 -1      1025    8    0    1
 -2       457       458       594      2224      2572      2573
 -1      1026    8    0    1
 -2       448       449       595      2222      2574      2575
 -1      1027    8    0    1
 -2       449       593       595      2571      2576      2574
 -1      1028    8    0    1
 -2       450       451       596      2221      2577      2578
 -1      1029    8    0    1
 -2       451       452       597      2220      2579      2580
 -1      1030    8    0    1
 -2       453       454       598      2151      2581      2582
 -1      1031    8    0    1
 -2       453       598       591      2582      2583      2564
 -1      1032    8    0    1
 -2       455       456       599      2156      2584      2585
 -1      1033    8    0    1
 -2       456       457       600      2215      2586      2587
 -1      1034    8    0    1
 -2       456       600       599      2587      2588      2584
 -1      1035    8    0    1
 -2       458       459       601      2214      2589      2590
 -1      1036    8    0    1
 -2       459       460       602      2213      2591      2592
 -1      1037    8    0    1
 -2       460       461       603      2212      2593      2594
 -1      1038    8    0    1
 -2       461       462       604      2211      2595      2596
 -1      1039    8    0    1
 -2       462       463       605      2210      2597      2598
 -1      1040    8    0    1
 -2       463       464       606      2209      2599      2600
 -1      1041    8    0    1
 -2       463       606       605      2600      2601      2597
 -1      1042    8    0    1
 -2       465       466       607      2205      2602      2603
 -1      1043    8    0    1
 -2       466       467       608      2204      2604      2605
 -1      1044    8    0    1
 -2       467       468       609      2203      2606      2607
 -1      1045    8    0    1
 -2       468       469       610      2202      2608      2609
 -1      1046    8    0    1
 -2       469       470       611      2201      2610      2611
 -1      1047    8    0    1
 -2       470       471       612      2200      2612      2613
 -1      1048    8    0    1
 -2       335       336       613      1804      2614      2615
 -1      1049    8    0    1
 -2       334       335       613      1799      2615      2616
 -1      1050    8    0    1
 -2       336       476       613      2226      2617      2614
 -1      1051    8    0    1
 -2       450       596       593      2578      2618      2570
 -1      1052    8    0    1
 -2       324       478       614      2230      2619      2620
 -1      1053    8    0    1
 -2       324       614       447      2620      2621      2136
 -1      1054    8    0    1
 -2       485       384       588      2249      2555      2622
 -1      1055    8    0    1
 -2       333       334       613      1796      2616      2623
 -1      1056    8    0    1
 -2       488       446       615      2258      2624      2625
 -1      1057    8    0    1
 -2       446       473       615      2198      2626      2624
 -1      1058    8    0    1
 -2       427       431       573      2514      2627      2511
 -1      1059    8    0    1
 -2       590       448       595      2562      2575      2628
 -1      1060    8    0    1
 -2       431       430       573      2091      2629      2627
 -1      1061    8    0    1
 -2       612       471       587      2612      2552      2630
 -1      1062    8    0    1
 -2       333       613       484      2623      2631      2246
 -1      1063    8    0    1
 -2       585       444       586      2547      2550      2632
 -1      1064    8    0    1
 -2       611       470       612      2610      2613      2633
 -1      1065    8    0    1
 -2       473       472       590      2199      2563      2634
 -1      1066    8    0    1
 -2       455       599       475      2585      2635      2218
 -1      1067    8    0    1
 -2       610       469       611      2608      2611      2636
 -1      1068    8    0    1
 -2       452       591       597      2565      2637      2579
 -1      1069    8    0    1
 -2       609       468       610      2606      2609      2638
 -1      1070    8    0    1
 -2       608       467       609      2604      2607      2639
 -1      1071    8    0    1
 -2       606       464       474      2599      2207      2640
 -1      1072    8    0    1
 -2       465       607       474      2603      2641      2208
 -1      1073    8    0    1
 -2       604       462       605      2595      2598      2642
 -1      1074    8    0    1
 -2       603       461       604      2593      2596      2643
 -1      1075    8    0    1
 -2       602       460       603      2591      2594      2644
 -1      1076    8    0    1
 -2       600       457       594      2586      2573      2645
 -1      1077    8    0    1
 -2       598       454       616      2581      2646      2647
 -1      1078    8    0    1
 -2       454       475       616      2217      2648      2646
 -1      1079    8    0    1
 -2       487       322       447      2257      2135      2649
 -1      1080    8    0    1
 -2       594       458       601      2572      2590      2650
 -1      1081    8    0    1
 -2       573       430       576      2629      2521      2651
 -1      1082    8    0    1
 -2       596       451       597      2577      2580      2652
 -1      1083    8    0    1
 -2       441       382       617      2557      2653      2654
 -1      1084    8    0    1
 -2       584       441       617      2544      2654      2655
 -1      1085    8    0    1
 -2       382       381       617      1943      2656      2653
 -1      1086    8    0    1
 -2       601       459       602      2589      2592      2657
 -1      1087    8    0    1
 -2       607       466       608      2602      2605      2658
 -1      1088    8    0    1
 -2       617       381       531      2656      2387      2659
 -1      1089    8    0    1
 -2       480       481       618      2239      2660      2661
 -1      1090    8    0    1
 -2       479       480       619      2236      2662      2663
 -1      1091    8    0    1
 -2       480       618       619      2661      2664      2662
 -1      1092    8    0    1
 -2       482       483       620      2245      2665      2666
 -1      1093    8    0    1
 -2       483       484       621      2248      2667      2668
 -1      1094    8    0    1
 -2       483       621       620      2668      2669      2665
 -1      1095    8    0    1
 -2       476       485       622      2251      2670      2671
 -1      1096    8    0    1
 -2       585       586       623      2632      2672      2673
 -1      1097    8    0    1
 -2       485       588       624      2622      2674      2675
 -1      1098    8    0    1
 -2       485       624       622      2675      2676      2670
 -1      1099    8    0    1
 -2       486       487       625      2256      2677      2678
 -1      1100    8    0    1
 -2       489       486       626      2262      2679      2680
 -1      1101    8    0    1
 -2       486       625       626      2678      2681      2679
 -1      1102    8    0    1
 -2       490       489       627      2265      2682      2683
 -1      1103    8    0    1
 -2       489       626       627      2680      2684      2682
 -1      1104    8    0    1
 -2       491       490       628      2268      2685      2686
 -1      1105    8    0    1
 -2       490       627       628      2683      2687      2685
 -1      1106    8    0    1
 -2       492       491       629      2271      2688      2689
 -1      1107    8    0    1
 -2       491       628       629      2686      2690      2688
 -1      1108    8    0    1
 -2       493       492       630      2274      2691      2692
 -1      1109    8    0    1
 -2       492       629       630      2689      2693      2691
 -1      1110    8    0    1
 -2       494       493       631      2277      2694      2695
 -1      1111    8    0    1
 -2       493       630       631      2692      2696      2694
 -1      1112    8    0    1
 -2       495       494       632      2280      2697      2698
 -1      1113    8    0    1
 -2       494       631       632      2695      2699      2697
 -1      1114    8    0    1
 -2       496       495       633      2283      2700      2701
 -1      1115    8    0    1
 -2       495       632       633      2698      2702      2700
 -1      1116    8    0    1
 -2       497       496       634      2286      2703      2704
 -1      1117    8    0    1
 -2       496       633       634      2701      2705      2703
 -1      1118    8    0    1
 -2       498       497       635      2289      2706      2707
 -1      1119    8    0    1
 -2       497       634       635      2704      2708      2706
 -1      1120    8    0    1
 -2       499       498       636      2292      2709      2710
 -1      1121    8    0    1
 -2       498       635       636      2707      2711      2709
 -1      1122    8    0    1
 -2       500       499       637      2295      2712      2713
 -1      1123    8    0    1
 -2       499       636       637      2710      2714      2712
 -1      1124    8    0    1
 -2       501       500       638      2298      2715      2716
 -1      1125    8    0    1
 -2       500       637       638      2713      2717      2715
 -1      1126    8    0    1
 -2       502       501       639      2301      2718      2719
 -1      1127    8    0    1
 -2       501       638       639      2716      2720      2718
 -1      1128    8    0    1
 -2       503       502       640      2304      2721      2722
 -1      1129    8    0    1
 -2       502       639       640      2719      2723      2721
 -1      1130    8    0    1
 -2       504       503       641      2307      2724      2725
 -1      1131    8    0    1
 -2       503       640       641      2722      2726      2724
 -1      1132    8    0    1
 -2       505       504       642      2310      2727      2728
 -1      1133    8    0    1
 -2       504       641       642      2725      2729      2727
 -1      1134    8    0    1
 -2       506       505       643      2313      2730      2731
 -1      1135    8    0    1
 -2       505       642       643      2728      2732      2730
 -1      1136    8    0    1
 -2       507       506       644      2316      2733      2734
 -1      1137    8    0    1
 -2       506       643       644      2731      2735      2733
 -1      1138    8    0    1
 -2       508       507       645      2319      2736      2737
 -1      1139    8    0    1
 -2       507       644       645      2734      2738      2736
 -1      1140    8    0    1
 -2       509       508       646      2322      2739      2740
 -1      1141    8    0    1
 -2       508       645       646      2737      2741      2739
 -1      1142    8    0    1
 -2       510       509       647      2325      2742      2743
 -1      1143    8    0    1
 -2       509       646       647      2740      2744      2742
 -1      1144    8    0    1
 -2       511       510       648      2328      2745      2746
 -1      1145    8    0    1
 -2       510       647       648      2743      2747      2745
 -1      1146    8    0    1
 -2       512       511       649      2331      2748      2749
 -1      1147    8    0    1
 -2       511       648       649      2746      2750      2748
 -1      1148    8    0    1
 -2       513       512       650      2334      2751      2752
 -1      1149    8    0    1
 -2       512       649       650      2749      2753      2751
 -1      1150    8    0    1
 -2       514       513       651      2337      2754      2755
 -1      1151    8    0    1
 -2       513       650       651      2752      2756      2754
 -1      1152    8    0    1
 -2       515       514       652      2340      2757      2758
 -1      1153    8    0    1
 -2       514       651       652      2755      2759      2757
 -1      1154    8    0    1
 -2       516       515       653      2343      2760      2761
 -1      1155    8    0    1
 -2       515       652       653      2758      2762      2760
 -1      1156    8    0    1
 -2       517       516       654      2346      2763      2764
 -1      1157    8    0    1
 -2       516       653       654      2761      2765      2763
 -1      1158    8    0    1
 -2       518       517       655      2349      2766      2767
 -1      1159    8    0    1
 -2       517       654       655      2764      2768      2766
 -1      1160    8    0    1
 -2       519       518       656      2352      2769      2770
 -1      1161    8    0    1
 -2       518       655       656      2767      2771      2769
 -1      1162    8    0    1
 -2       520       519       657      2355      2772      2773
 -1      1163    8    0    1
 -2       519       656       657      2770      2774      2772
 -1      1164    8    0    1
 -2       522       521       658      2361      2775      2776
 -1      1165    8    0    1
 -2       525       524       607      2370      2777      2778
 -1      1166    8    0    1
 -2       526       525       659      2373      2779      2780
 -1      1167    8    0    1
 -2       527       526       660      2376      2781      2782
 -1      1168    8    0    1
 -2       526       659       660      2780      2783      2781
 -1      1169    8    0    1
 -2       528       527       661      2379      2784      2785
 -1      1170    8    0    1
 -2       527       660       661      2782      2786      2784
 -1      1171    8    0    1
 -2       529       528       662      2382      2787      2788
 -1      1172    8    0    1
 -2       528       661       662      2785      2789      2787
 -1      1173    8    0    1
 -2       530       529       663      2385      2790      2791
 -1      1174    8    0    1
 -2       529       662       663      2788      2792      2790
 -1      1175    8    0    1
 -2       531       530       664      2388      2793      2794
 -1      1176    8    0    1
 -2       530       663       664      2791      2795      2793
 -1      1177    8    0    1
 -2       533       534       665      2396      2796      2797
 -1      1178    8    0    1
 -2       601       602       666      2657      2798      2799
 -1      1179    8    0    1
 -2       613       476       484      2617      2800      2631
 -1      1180    8    0    1
 -2       532       533       667      2393      2801      2802
 -1      1181    8    0    1
 -2       533       665       667      2797      2803      2801
 -1      1182    8    0    1
 -2       535       536       668      2402      2804      2805
 -1      1183    8    0    1
 -2       536       537       669      2405      2806      2807
 -1      1184    8    0    1
 -2       536       669       668      2807      2808      2804
 -1      1185    8    0    1
 -2       537       538       670      2408      2809      2810
 -1      1186    8    0    1
 -2       537       670       669      2810      2811      2806
 -1      1187    8    0    1
 -2       538       539       671      2411      2812      2813
 -1      1188    8    0    1
 -2       538       671       670      2813      2814      2809
 -1      1189    8    0    1
 -2       539       540       672      2414      2815      2816
 -1      1190    8    0    1
 -2       539       672       671      2816      2817      2812
 -1      1191    8    0    1
 -2       540       541       673      2417      2818      2819
 -1      1192    8    0    1
 -2       540       673       672      2819      2820      2815
 -1      1193    8    0    1
 -2       541       542       674      2420      2821      2822
 -1      1194    8    0    1
 -2       541       674       673      2822      2823      2818
 -1      1195    8    0    1
 -2       542       543       675      2423      2824      2825
 -1      1196    8    0    1
 -2       542       675       674      2825      2826      2821
 -1      1197    8    0    1
 -2       543       544       676      2426      2827      2828
 -1      1198    8    0    1
 -2       543       676       675      2828      2829      2824
 -1      1199    8    0    1
 -2       544       545       677      2429      2830      2831
 -1      1200    8    0    1
 -2       544       677       676      2831      2832      2827
 -1      1201    8    0    1
 -2       545       546       678      2432      2833      2834
 -1      1202    8    0    1
 -2       545       678       677      2834      2835      2830
 -1      1203    8    0    1
 -2       546       547       679      2435      2836      2837
 -1      1204    8    0    1
 -2       546       679       678      2837      2838      2833
 -1      1205    8    0    1
 -2       547       548       680      2438      2839      2840
 -1      1206    8    0    1
 -2       547       680       679      2840      2841      2836
 -1      1207    8    0    1
 -2       548       549       681      2441      2842      2843
 -1      1208    8    0    1
 -2       548       681       680      2843      2844      2839
 -1      1209    8    0    1
 -2       549       550       682      2444      2845      2846
 -1      1210    8    0    1
 -2       549       682       681      2846      2847      2842
 -1      1211    8    0    1
 -2       550       551       683      2447      2848      2849
 -1      1212    8    0    1
 -2       550       683       682      2849      2850      2845
 -1      1213    8    0    1
 -2       551       552       684      2450      2851      2852
 -1      1214    8    0    1
 -2       551       684       683      2852      2853      2848
 -1      1215    8    0    1
 -2       552       553       685      2453      2854      2855
 -1      1216    8    0    1
 -2       552       685       684      2855      2856      2851
 -1      1217    8    0    1
 -2       553       554       686      2456      2857      2858
 -1      1218    8    0    1
 -2       553       686       685      2858      2859      2854
 -1      1219    8    0    1
 -2       554       555       687      2459      2860      2861
 -1      1220    8    0    1
 -2       554       687       686      2861      2862      2857
 -1      1221    8    0    1
 -2       555       556       688      2462      2863      2864
 -1      1222    8    0    1
 -2       555       688       687      2864      2865      2860
 -1      1223    8    0    1
 -2       556       557       689      2465      2866      2867
 -1      1224    8    0    1
 -2       556       689       688      2867      2868      2863
 -1      1225    8    0    1
 -2       557       558       690      2468      2869      2870
 -1      1226    8    0    1
 -2       557       690       689      2870      2871      2866
 -1      1227    8    0    1
 -2       558       559       691      2471      2872      2873
 -1      1228    8    0    1
 -2       558       691       690      2873      2874      2869
 -1      1229    8    0    1
 -2       559       560       692      2474      2875      2876
 -1      1230    8    0    1
 -2       559       692       691      2876      2877      2872
 -1      1231    8    0    1
 -2       560       561       693      2477      2878      2879
 -1      1232    8    0    1
 -2       560       693       692      2879      2880      2875
 -1      1233    8    0    1
 -2       561       562       694      2480      2881      2882
 -1      1234    8    0    1
 -2       561       694       693      2882      2883      2878
 -1      1235    8    0    1
 -2       562       563       695      2483      2884      2885
 -1      1236    8    0    1
 -2       562       695       694      2885      2886      2881
 -1      1237    8    0    1
 -2       563       564       696      2486      2887      2888
 -1      1238    8    0    1
 -2       563       696       695      2888      2889      2884
 -1      1239    8    0    1
 -2       564       565       697      2489      2890      2891
 -1      1240    8    0    1
 -2       564       697       696      2891      2892      2887
 -1      1241    8    0    1
 -2       565       566       698      2492      2893      2894
 -1      1242    8    0    1
 -2       565       698       697      2894      2895      2890
 -1      1243    8    0    1
 -2       566       567       699      2495      2896      2897
 -1      1244    8    0    1
 -2       566       699       698      2897      2898      2893
 -1      1245    8    0    1
 -2       567       568       700      2498      2899      2900
 -1      1246    8    0    1
 -2       567       700       699      2900      2901      2896
 -1      1247    8    0    1
 -2       568       569       701      2501      2902      2903
 -1      1248    8    0    1
 -2       568       701       700      2903      2904      2899
 -1      1249    8    0    1
 -2       569       570       702      2504      2905      2906
 -1      1250    8    0    1
 -2       569       702       701      2906      2907      2902
 -1      1251    8    0    1
 -2       570       571       703      2507      2908      2909
 -1      1252    8    0    1
 -2       570       703       702      2909      2910      2905
 -1      1253    8    0    1
 -2       571       572       704      2510      2911      2912
 -1      1254    8    0    1
 -2       571       704       703      2912      2913      2908
 -1      1255    8    0    1
 -2       572       573       705      2513      2914      2915
 -1      1256    8    0    1
 -2       704       572       705      2911      2915      2916
 -1      1257    8    0    1
 -2       573       576       705      2651      2917      2914
 -1      1258    8    0    1
 -2       590       595       706      2628      2918      2919
 -1      1259    8    0    1
 -2       578       579       707      2531      2920      2921
 -1      1260    8    0    1
 -2       596       597       708      2652      2922      2923
 -1      1261    8    0    1
 -2       574       575       709      2519      2924      2925
 -1      1262    8    0    1
 -2       579       580       710      2534      2926      2927
 -1      1263    8    0    1
 -2       579       710       707      2927      2928      2920
 -1      1264    8    0    1
 -2       575       578       711      2528      2929      2930
 -1      1265    8    0    1
 -2       709       575       711      2924      2930      2931
 -1      1266    8    0    1
 -2       578       707       711      2921      2932      2929
 -1      1267    8    0    1
 -2       580       581       712      2537      2933      2934
 -1      1268    8    0    1
 -2       580       712       710      2934      2935      2926
 -1      1269    8    0    1
 -2       581       582       713      2540      2936      2937
 -1      1270    8    0    1
 -2       581       713       712      2937      2938      2933
 -1      1271    8    0    1
 -2       582       583       714      2543      2939      2940
 -1      1272    8    0    1
 -2       582       714       713      2940      2941      2936
 -1      1273    8    0    1
 -2       611       612       715      2633      2942      2943
 -1      1274    8    0    1
 -2       588       532       716      2556      2944      2945
 -1      1275    8    0    1
 -2       624       588       716      2674      2945      2946
 -1      1276    8    0    1
 -2       532       667       716      2802      2947      2944
 -1      1277    8    0    1
 -2       612       587       717      2630      2948      2949
 -1      1278    8    0    1
 -2       609       610       718      2638      2950      2951
 -1      1279    8    0    1
 -2       595       593       719      2576      2952      2953
 -1      1280    8    0    1
 -2       587       585       720      2553      2954      2955
 -1      1281    8    0    1
 -2       585       623       720      2673      2956      2954
 -1      1282    8    0    1
 -2       610       611       721      2636      2957      2958
 -1      1283    8    0    1
 -2       534       535       722      2399      2959      2960
 -1      1284    8    0    1
 -2       665       534       722      2796      2960      2961
 -1      1285    8    0    1
 -2       535       668       722      2805      2962      2959
 -1      1286    8    0    1
 -2       481       482       723      2242      2963      2964
 -1      1287    8    0    1
 -2       618       481       723      2660      2964      2965
 -1      1288    8    0    1
 -2       482       620       723      2666      2966      2963
 -1      1289    8    0    1
 -2       607       524       474      2777      2967      2641
 -1      1290    8    0    1
 -2       475       599       724      2635      2968      2969
 -1      1291    8    0    1
 -2       594       601       725      2650      2970      2971
 -1      1292    8    0    1
 -2       478       477       726      2231      2972      2973
 -1      1293    8    0    1
 -2       584       617       727      2655      2974      2975
 -1      1294    8    0    1
 -2       617       531       727      2659      2976      2974
 -1      1295    8    0    1
 -2       591       598       728      2583      2977      2978
 -1      1296    8    0    1
 -2       487       447       625      2649      2979      2677
 -1      1297    8    0    1
 -2       599       600       729      2588      2980      2981
 -1      1298    8    0    1
 -2       593       596       730      2618      2982      2983
 -1      1299    8    0    1
 -2       600       594       731      2645      2984      2985
 -1      1300    8    0    1
 -2       600       731       729      2985      2986      2980
 -1      1301    8    0    1
 -2       602       603       732      2644      2987      2988
 -1      1302    8    0    1
 -2       603       604       733      2643      2989      2990
 -1      1303    8    0    1
 -2       608       609       659      2639      2991      2992
 -1      1304    8    0    1
 -2       597       591       734      2637      2993      2994
 -1      1305    8    0    1
 -2       473       590       735      2634      2995      2996
 -1      1306    8    0    1
 -2       473       735       615      2996      2997      2626
 -1      1307    8    0    1
 -2       474       524       523      2967      2367      2998
 -1      1308    8    0    1
 -2       614       478       736      2619      2999      3000
 -1      1309    8    0    1
 -2       478       726       736      2973      3001      2999
 -1      1310    8    0    1
 -2       479       619       737      2663      3002      3003
 -1      1311    8    0    1
 -2       479       737       592      3003      3004      2569
 -1      1312    8    0    1
 -2       610       721       718      2958      3005      2950
 -1      1313    8    0    1
 -2       474       523       606      2998      3006      2640
 -1      1314    8    0    1
 -2       599       729       724      2981      3007      2968
 -1      1315    8    0    1
 -2       586       589       738      2560      3008      3009
 -1      1316    8    0    1
 -2       658       521       739      2775      3010      3011
 -1      1317    8    0    1
 -2       521       520       739      2358      3012      3010
 -1      1318    8    0    1
 -2       525       607       608      2778      2658      3013
 -1      1319    8    0    1
 -2       523       522       606      2364      3014      3006
 -1      1320    8    0    1
 -2       531       664       727      2794      3015      2976
 -1      1321    8    0    1
 -2       601       666       725      2799      3016      2970
 -1      1322    8    0    1
 -2       484       476       622      2800      2671      3017
 -1      1323    8    0    1
 -2       706       595       719      2918      2953      3018
 -1      1324    8    0    1
 -2       705       576       740      2917      3019      3020
 -1      1325    8    0    1
 -2       576       577       740      2524      3021      3019
 -1      1326    8    0    1
 -2       596       708       730      2923      3022      2982
 -1      1327    8    0    1
 -2       611       715       721      2943      3023      2957
 -1      1328    8    0    1
 -2       715       612       717      2942      2949      3024
 -1      1329    8    0    1
 -2       583       584       727      2546      2975      3025
 -1      1330    8    0    1
 -2       735       590       741      2995      3026      3027
 -1      1331    8    0    1
 -2       590       706       741      2919      3028      3026
 -1      1332    8    0    1
 -2       623       586       738      2672      3009      3029
 -1      1333    8    0    1
 -2       734       591       728      2993      2978      3030
 -1      1334    8    0    1
 -2       659       609       718      2991      2951      3031
 -1      1335    8    0    1
 -2       583       727       742      3025      3032      3033
 -1      1336    8    0    1
 -2       714       583       742      2939      3033      3034
 -1      1337    8    0    1
 -2       727       664       742      3015      3035      3032
 -1      1338    8    0    1
 -2       733       604       739      2989      3036      3037
 -1      1339    8    0    1
 -2       589       488       743      2561      3038      3039
 -1      1340    8    0    1
 -2       589       743       738      3039      3040      3008
 -1      1341    8    0    1
 -2       731       594       725      2984      2971      3041
 -1      1342    8    0    1
 -2       719       593       730      2952      2983      3042
 -1      1343    8    0    1
 -2       708       597       734      2922      2994      3043
 -1      1344    8    0    1
 -2       604       605       739      2642      3044      3036
 -1      1345    8    0    1
 -2       666       602       732      2798      2988      3045
 -1      1346    8    0    1
 -2       616       475       724      2648      2969      3046
 -1      1347    8    0    1
 -2       587       720       717      2955      3047      2948
 -1      1348    8    0    1
 -2       577       574       744      2525      3048      3049
 -1      1349    8    0    1
 -2       740       577       744      3021      3049      3050
 -1      1350    8    0    1
 -2       574       709       744      2925      3051      3048
 -1      1351    8    0    1
 -2       477       592       745      2568      3052      3053
 -1      1352    8    0    1
 -2       726       477       745      2972      3053      3054
 -1      1353    8    0    1
 -2       592       737       745      3004      3055      3052
 -1      1354    8    0    1
 -2       659       525       608      2779      3013      2992
 -1      1355    8    0    1
 -2       447       614       625      2621      3056      2979
 -1      1356    8    0    1
 -2       598       616       728      2647      3057      2977
 -1      1357    8    0    1
 -2       484       622       621      3017      3058      2667
 -1      1358    8    0    1
 -2       739       520       657      3012      2773      3059
 -1      1359    8    0    1
 -2       743       488       746      3038      3060      3061
 -1      1360    8    0    1
 -2       488       615       746      2625      3062      3060
 -1      1361    8    0    1
 -2       606       522       658      3014      2776      3063
 -1      1362    8    0    1
 -2       732       603       733      2987      2990      3064
 -1      1363    8    0    1
 -2       706       719       747      3018      3065      3066
 -1      1364    8    0    1
 -2       620       621       748      2669      3067      3068
 -1      1365    8    0    1
 -2       731       725       749      3041      3069      3070
 -1      1366    8    0    1
 -2       732       733       750      3064      3071      3072
 -1      1367    8    0    1
 -2       627       626       751      2684      3073      3074
 -1      1368    8    0    1
 -2       628       627       752      2687      3075      3076
 -1      1369    8    0    1
 -2       627       751       752      3074      3077      3075
 -1      1370    8    0    1
 -2       629       628       753      2690      3078      3079
 -1      1371    8    0    1
 -2       628       752       753      3076      3080      3078
 -1      1372    8    0    1
 -2       630       629       754      2693      3081      3082
 -1      1373    8    0    1
 -2       629       753       754      3079      3083      3081
 -1      1374    8    0    1
 -2       631       630       755      2696      3084      3085
 -1      1375    8    0    1
 -2       630       754       755      3082      3086      3084
 -1      1376    8    0    1
 -2       632       631       756      2699      3087      3088
 -1      1377    8    0    1
 -2       631       755       756      3085      3089      3087
 -1      1378    8    0    1
 -2       633       632       757      2702      3090      3091
 -1      1379    8    0    1
 -2       632       756       757      3088      3092      3090
 -1      1380    8    0    1
 -2       634       633       758      2705      3093      3094
 -1      1381    8    0    1
 -2       633       757       758      3091      3095      3093
 -1      1382    8    0    1
 -2       635       634       759      2708      3096      3097
 -1      1383    8    0    1
 -2       634       758       759      3094      3098      3096
 -1      1384    8    0    1
 -2       636       635       760      2711      3099      3100
 -1      1385    8    0    1
 -2       635       759       760      3097      3101      3099
 -1      1386    8    0    1
 -2       637       636       761      2714      3102      3103
 -1      1387    8    0    1
 -2       636       760       761      3100      3104      3102
 -1      1388    8    0    1
 -2       638       637       762      2717      3105      3106
 -1      1389    8    0    1
 -2       637       761       762      3103      3107      3105
 -1      1390    8    0    1
 -2       639       638       763      2720      3108      3109
 -1      1391    8    0    1
 -2       638       762       763      3106      3110      3108
 -1      1392    8    0    1
 -2       640       639       764      2723      3111      3112
 -1      1393    8    0    1
 -2       639       763       764      3109      3113      3111
 -1      1394    8    0    1
 -2       641       640       765      2726      3114      3115
 -1      1395    8    0    1
 -2       640       764       765      3112      3116      3114
 -1      1396    8    0    1
 -2       642       641       766      2729      3117      3118
 -1      1397    8    0    1
 -2       641       765       766      3115      3119      3117
 -1      1398    8    0    1
 -2       643       642       767      2732      3120      3121
 -1      1399    8    0    1
 -2       642       766       767      3118      3122      3120
 -1      1400    8    0    1
 -2       644       643       768      2735      3123      3124
 -1      1401    8    0    1
 -2       643       767       768      3121      3125      3123
 -1      1402    8    0    1
 -2       645       644       769      2738      3126      3127
 -1      1403    8    0    1
 -2       644       768       769      3124      3128      3126
 -1      1404    8    0    1
 -2       646       645       770      2741      3129      3130
 -1      1405    8    0    1
 -2       645       769       770      3127      3131      3129
 -1      1406    8    0    1
 -2       647       646       771      2744      3132      3133
 -1      1407    8    0    1
 -2       646       770       771      3130      3134      3132
 -1      1408    8    0    1
 -2       648       647       772      2747      3135      3136
 -1      1409    8    0    1
 -2       647       771       772      3133      3137      3135
 -1      1410    8    0    1
 -2       649       648       773      2750      3138      3139
 -1      1411    8    0    1
 -2       648       772       773      3136      3140      3138
 -1      1412    8    0    1
 -2       650       649       774      2753      3141      3142
 -1      1413    8    0    1
 -2       649       773       774      3139      3143      3141
 -1      1414    8    0    1
 -2       651       650       775      2756      3144      3145
 -1      1415    8    0    1
 -2       650       774       775      3142      3146      3144
 -1      1416    8    0    1
 -2       652       651       776      2759      3147      3148
 -1      1417    8    0    1
 -2       651       775       776      3145      3149      3147
 -1      1418    8    0    1
 -2       653       652       777      2762      3150      3151
 -1      1419    8    0    1
 -2       652       776       777      3148      3152      3150
 -1      1420    8    0    1
 -2       654       653       778      2765      3153      3154
 -1      1421    8    0    1
 -2       653       777       778      3151      3155      3153
 -1      1422    8    0    1
 -2       655       654       779      2768      3156      3157
 -1      1423    8    0    1
 -2       654       778       779      3154      3158      3156
 -1      1424    8    0    1
 -2       656       655       780      2771      3159      3160
 -1      1425    8    0    1
 -2       655       779       780      3157      3161      3159
 -1      1426    8    0    1
 -2       662       661       781      2789      3162      3163
 -1      1427    8    0    1
 -2       663       662       782      2792      3164      3165
 -1      1428    8    0    1
 -2       662       781       782      3163      3166      3164
 -1      1429    8    0    1
 -2       664       663       783      2795      3167      3168
 -1      1430    8    0    1
 -2       742       664       783      3035      3168      3169
 -1      1431    8    0    1
 -2       663       782       783      3165      3170      3167
 -1      1432    8    0    1
 -2       667       665       784      2803      3171      3172
 -1      1433    8    0    1
 -2       669       670       785      2811      3173      3174
 -1      1434    8    0    1
 -2       668       669       786      2808      3175      3176
 -1      1435    8    0    1
 -2       669       785       786      3174      3177      3175
 -1      1436    8    0    1
 -2       671       672       787      2817      3178      3179
 -1      1437    8    0    1
 -2       672       673       788      2820      3180      3181
 -1      1438    8    0    1
 -2       672       788       787      3181      3182      3178
 -1      1439    8    0    1
 -2       673       674       789      2823      3183      3184
 -1      1440    8    0    1
 -2       673       789       788      3184      3185      3180
 -1      1441    8    0    1
 -2       674       675       790      2826      3186      3187
 -1      1442    8    0    1
 -2       674       790       789      3187      3188      3183
 -1      1443    8    0    1
 -2       675       676       791      2829      3189      3190
 -1      1444    8    0    1
 -2       675       791       790      3190      3191      3186
 -1      1445    8    0    1
 -2       676       677       792      2832      3192      3193
 -1      1446    8    0    1
 -2       676       792       791      3193      3194      3189
 -1      1447    8    0    1
 -2       677       678       793      2835      3195      3196
 -1      1448    8    0    1
 -2       677       793       792      3196      3197      3192
 -1      1449    8    0    1
 -2       678       679       794      2838      3198      3199
 -1      1450    8    0    1
 -2       678       794       793      3199      3200      3195
 -1      1451    8    0    1
 -2       679       680       795      2841      3201      3202
 -1      1452    8    0    1
 -2       679       795       794      3202      3203      3198
 -1      1453    8    0    1
 -2       680       681       796      2844      3204      3205
 -1      1454    8    0    1
 -2       680       796       795      3205      3206      3201
 -1      1455    8    0    1
 -2       681       682       797      2847      3207      3208
 -1      1456    8    0    1
 -2       681       797       796      3208      3209      3204
 -1      1457    8    0    1
 -2       682       683       798      2850      3210      3211
 -1      1458    8    0    1
 -2       682       798       797      3211      3212      3207
 -1      1459    8    0    1
 -2       683       684       799      2853      3213      3214
 -1      1460    8    0    1
 -2       683       799       798      3214      3215      3210
 -1      1461    8    0    1
 -2       684       685       800      2856      3216      3217
 -1      1462    8    0    1
 -2       684       800       799      3217      3218      3213
 -1      1463    8    0    1
 -2       685       686       801      2859      3219      3220
 -1      1464    8    0    1
 -2       685       801       800      3220      3221      3216
 -1      1465    8    0    1
 -2       686       687       802      2862      3222      3223
 -1      1466    8    0    1
 -2       686       802       801      3223      3224      3219
 -1      1467    8    0    1
 -2       687       688       803      2865      3225      3226
 -1      1468    8    0    1
 -2       687       803       802      3226      3227      3222
 -1      1469    8    0    1
 -2       688       689       804      2868      3228      3229
 -1      1470    8    0    1
 -2       688       804       803      3229      3230      3225
 -1      1471    8    0    1
 -2       689       690       805      2871      3231      3232
 -1      1472    8    0    1
 -2       689       805       804      3232      3233      3228
 -1      1473    8    0    1
 -2       690       691       806      2874      3234      3235
 -1      1474    8    0    1
 -2       690       806       805      3235      3236      3231
 -1      1475    8    0    1
 -2       691       692       807      2877      3237      3238
 -1      1476    8    0    1
 -2       691       807       806      3238      3239      3234
 -1      1477    8    0    1
 -2       692       693       808      2880      3240      3241
 -1      1478    8    0    1
 -2       692       808       807      3241      3242      3237
 -1      1479    8    0    1
 -2       693       694       809      2883      3243      3244
 -1      1480    8    0    1
 -2       693       809       808      3244      3245      3240
 -1      1481    8    0    1
 -2       694       695       810      2886      3246      3247
 -1      1482    8    0    1
 -2       694       810       809      3247      3248      3243
 -1      1483    8    0    1
 -2       695       696       811      2889      3249      3250
 -1      1484    8    0    1
 -2       695       811       810      3250      3251      3246
 -1      1485    8    0    1
 -2       696       697       812      2892      3252      3253
 -1      1486    8    0    1
 -2       696       812       811      3253      3254      3249
 -1      1487    8    0    1
 -2       697       698       813      2895      3255      3256
 -1      1488    8    0    1
 -2       697       813       812      3256      3257      3252
 -1      1489    8    0    1
 -2       698       699       747      2898      3258      3259
 -1      1490    8    0    1
 -2       700       701       814      2904      3260      3261
 -1      1491    8    0    1
 -2       701       702       815      2907      3262      3263
 -1      1492    8    0    1
 -2       701       815       814      3263      3264      3260
 -1      1493    8    0    1
 -2       702       703       816      2910      3265      3266
 -1      1494    8    0    1
 -2       702       816       815      3266      3267      3262
 -1      1495    8    0    1
 -2       703       704       817      2913      3268      3269
 -1      1496    8    0    1
 -2       703       817       816      3269      3270      3265
 -1      1497    8    0    1
 -2       704       705       818      2916      3271      3272
 -1      1498    8    0    1
 -2       817       704       818      3268      3272      3273
 -1      1499    8    0    1
 -2       705       740       818      3020      3274      3271
 -1      1500    8    0    1
 -2       710       712       819      2935      3275      3276
 -1      1501    8    0    1
 -2       707       710       820      2928      3277      3278
 -1      1502    8    0    1
 -2       710       819       820      3276      3279      3277
 -1      1503    8    0    1
 -2       730       708       821      3022      3280      3281
 -1      1504    8    0    1
 -2       666       732       822      3045      3282      3283
 -1      1505    8    0    1
 -2       733       739       657      3037      3059      3284
 -1      1506    8    0    1
 -2       718       721       823      3005      3285      3286
 -1      1507    8    0    1
 -2       738       743       824      3040      3287      3288
 -1      1508    8    0    1
 -2       721       715       825      3023      3289      3290
 -1      1509    8    0    1
 -2       720       623       826      2956      3291      3292
 -1      1510    8    0    1
 -2       712       713       827      2938      3293      3294
 -1      1511    8    0    1
 -2       712       827       819      3294      3295      3275
 -1      1512    8    0    1
 -2       713       714       828      2941      3296      3297
 -1      1513    8    0    1
 -2       713       828       827      3297      3298      3293
 -1      1514    8    0    1
 -2       670       671       829      2814      3299      3300
 -1      1515    8    0    1
 -2       785       670       829      3173      3300      3301
 -1      1516    8    0    1
 -2       671       787       829      3179      3302      3299
 -1      1517    8    0    1
 -2       660       659       718      2783      3031      3303
 -1      1518    8    0    1
 -2       715       717       830      3024      3304      3305
 -1      1519    8    0    1
 -2       725       666       831      3016      3306      3307
 -1      1520    8    0    1
 -2       734       728       832      3030      3308      3309
 -1      1521    8    0    1
 -2       719       730       833      3042      3310      3311
 -1      1522    8    0    1
 -2       621       622       834      3058      3312      3313
 -1      1523    8    0    1
 -2       748       621       834      3067      3313      3314
 -1      1524    8    0    1
 -2       622       624       834      2676      3315      3312
 -1      1525    8    0    1
 -2       728       616       835      3057      3316      3317
 -1      1526    8    0    1
 -2       623       738       836      3029      3318      3319
 -1      1527    8    0    1
 -2       616       724       835      3046      3320      3316
 -1      1528    8    0    1
 -2       708       734       837      3043      3321      3322
 -1      1529    8    0    1
 -2       729       731       838      2986      3323      3324
 -1      1530    8    0    1
 -2       625       614       736      3056      3000      3325
 -1      1531    8    0    1
 -2       605       606       658      2601      3063      3326
 -1      1532    8    0    1
 -2       619       618       839      2664      3327      3328
 -1      1533    8    0    1
 -2       717       720       840      3047      3329      3330
 -1      1534    8    0    1
 -2       830       717       840      3304      3330      3331
 -1      1535    8    0    1
 -2       720       826       840      3292      3332      3329
 -1      1536    8    0    1
 -2       724       729       841      3007      3333      3334
 -1      1537    8    0    1
 -2       615       735       842      2997      3335      3336
 -1      1538    8    0    1
 -2       660       718       823      3303      3286      3337
 -1      1539    8    0    1
 -2       733       657       750      3284      3338      3071
 -1      1540    8    0    1
 -2       737       619       843      3002      3339      3340
 -1      1541    8    0    1
 -2       619       839       843      3328      3341      3339
 -1      1542    8    0    1
 -2       620       748       844      3068      3342      3343
 -1      1543    8    0    1
 -2       620       844       723      3343      3344      2966
 -1      1544    8    0    1
 -2       731       749       838      3070      3345      3323
 -1      1545    8    0    1
 -2       743       746       845      3061      3346      3347
 -1      1546    8    0    1
 -2       743       845       824      3347      3348      3287
 -1      1547    8    0    1
 -2       728       835       846      3317      3349      3350
 -1      1548    8    0    1
 -2       728       846       832      3350      3351      3308
 -1      1549    8    0    1
 -2       732       750       822      3072      3352      3282
 -1      1550    8    0    1
 -2       656       780       822      3160      3353      3354
 -1      1551    8    0    1
 -2       736       726       847      3001      3355      3356
 -1      1552    8    0    1
 -2       657       656       750      2774      3357      3338
 -1      1553    8    0    1
 -2       746       615       842      3062      3336      3358
 -1      1554    8    0    1
 -2       618       723       848      2965      3359      3360
 -1      1555    8    0    1
 -2       839       618       848      3327      3360      3361
 -1      1556    8    0    1
 -2       723       844       848      3344      3362      3359
 -1      1557    8    0    1
 -2       661       660       823      2786      3337      3363
 -1      1558    8    0    1
 -2       667       784       849      3172      3364      3365
 -1      1559    8    0    1
 -2       667       849       716      3365      3366      2947
 -1      1560    8    0    1
 -2       831       666       822      3306      3283      3367
 -1      1561    8    0    1
 -2       668       786       850      3176      3368      3369
 -1      1562    8    0    1
 -2       668       850       722      3369      3370      2962
 -1      1563    8    0    1
 -2       747       699       851      3258      3371      3372
 -1      1564    8    0    1
 -2       700       814       851      3261      3373      3374
 -1      1565    8    0    1
 -2       699       700       851      2901      3374      3371
 -1      1566    8    0    1
 -2       709       711       852      2931      3375      3376
 -1      1567    8    0    1
 -2       726       745       853      3054      3377      3378
 -1      1568    8    0    1
 -2       726       853       847      3378      3379      3355
 -1      1569    8    0    1
 -2       821       708       837      3280      3322      3380
 -1      1570    8    0    1
 -2       711       707       854      2932      3381      3382
 -1      1571    8    0    1
 -2       852       711       854      3375      3382      3383
 -1      1572    8    0    1
 -2       707       820       854      3278      3384      3381
 -1      1573    8    0    1
 -2       741       706       747      3028      3066      3385
 -1      1574    8    0    1
 -2       624       716       855      2946      3386      3387
 -1      1575    8    0    1
 -2       834       624       855      3315      3387      3388
 -1      1576    8    0    1
 -2       716       849       855      3366      3389      3386
 -1      1577    8    0    1
 -2       784       665       856      3171      3390      3391
 -1      1578    8    0    1
 -2       665       722       856      2961      3392      3390
 -1      1579    8    0    1
 -2       749       725       831      3069      3307      3393
 -1      1580    8    0    1
 -2       823       721       825      3285      3290      3394
 -1      1581    8    0    1
 -2       738       824       836      3288      3395      3318
 -1      1582    8    0    1
 -2       714       742       857      3034      3396      3397
 -1      1583    8    0    1
 -2       828       714       857      3296      3397      3398
 -1      1584    8    0    1
 -2       742       783       857      3169      3399      3396
 -1      1585    8    0    1
 -2       833       730       821      3310      3281      3400
 -1      1586    8    0    1
 -2       826       623       836      3291      3319      3401
 -1      1587    8    0    1
 -2       825       715       830      3289      3305      3402
 -1      1588    8    0    1
 -2       841       729       838      3333      3324      3403
 -1      1589    8    0    1
 -2       744       709       858      3051      3404      3405
 -1      1590    8    0    1
 -2       709       852       858      3376      3406      3404
 -1      1591    8    0    1
 -2       656       822       750      3354      3352      3357
 -1      1592    8    0    1
 -2       734       832       837      3309      3407      3321
 -1      1593    8    0    1
 -2       719       833       747      3311      3408      3065
 -1      1594    8    0    1
 -2       735       741       859      3027      3409      3410
 -1      1595    8    0    1
 -2       735       859       842      3410      3411      3335
 -1      1596    8    0    1
 -2       626       625       736      2681      3325      3412
 -1      1597    8    0    1
 -2       835       724       860      3320      3413      3414
 -1      1598    8    0    1
 -2       724       841       860      3334      3415      3413
 -1      1599    8    0    1
 -2       626       736       751      3412      3416      3073
 -1      1600    8    0    1
 -2       661       823       781      3363      3417      3162
 -1      1601    8    0    1
 -2       822       780       861      3353      3418      3419
 -1      1602    8    0    1
 -2       822       861       831      3419      3420      3367
 -1      1603    8    0    1
 -2       833       821       812      3400      3421      3422
 -1      1604    8    0    1
 -2       736       847       751      3356      3423      3416
 -1      1605    8    0    1
 -2       753       752       862      3080      3424      3425
 -1      1606    8    0    1
 -2       754       753       863      3083      3426      3427
 -1      1607    8    0    1
 -2       753       862       863      3425      3428      3426
 -1      1608    8    0    1
 -2       755       754       864      3086      3429      3430
 -1      1609    8    0    1
 -2       754       863       864      3427      3431      3429
 -1      1610    8    0    1
 -2       756       755       865      3089      3432      3433
 -1      1611    8    0    1
 -2       755       864       865      3430      3434      3432
 -1      1612    8    0    1
 -2       757       756       866      3092      3435      3436
 -1      1613    8    0    1
 -2       756       865       866      3433      3437      3435
 -1      1614    8    0    1
 -2       758       757       867      3095      3438      3439
 -1      1615    8    0    1
 -2       757       866       867      3436      3440      3438
 -1      1616    8    0    1
 -2       759       758       868      3098      3441      3442
 -1      1617    8    0    1
 -2       758       867       868      3439      3443      3441
 -1      1618    8    0    1
 -2       760       759       869      3101      3444      3445
 -1      1619    8    0    1
 -2       759       868       869      3442      3446      3444
 -1      1620    8    0    1
 -2       761       760       870      3104      3447      3448
 -1      1621    8    0    1
 -2       760       869       870      3445      3449      3447
 -1      1622    8    0    1
 -2       762       761       871      3107      3450      3451
 -1      1623    8    0    1
 -2       761       870       871      3448      3452      3450
 -1      1624    8    0    1
 -2       763       762       872      3110      3453      3454
 -1      1625    8    0    1
 -2       762       871       872      3451      3455      3453
 -1      1626    8    0    1
 -2       764       763       873      3113      3456      3457
 -1      1627    8    0    1
 -2       763       872       873      3454      3458      3456
 -1      1628    8    0    1
 -2       765       764       874      3116      3459      3460
 -1      1629    8    0    1
 -2       764       873       874      3457      3461      3459
 -1      1630    8    0    1
 -2       766       765       875      3119      3462      3463
 -1      1631    8    0    1
 -2       765       874       875      3460      3464      3462
 -1      1632    8    0    1
 -2       767       766       876      3122      3465      3466
 -1      1633    8    0    1
 -2       766       875       876      3463      3467      3465
 -1      1634    8    0    1
 -2       768       767       877      3125      3468      3469
 -1      1635    8    0    1
 -2       767       876       877      3466      3470      3468
 -1      1636    8    0    1
 -2       769       768       878      3128      3471      3472
 -1      1637    8    0    1
 -2       768       877       878      3469      3473      3471
 -1      1638    8    0    1
 -2       770       769       879      3131      3474      3475
 -1      1639    8    0    1
 -2       769       878       879      3472      3476      3474
 -1      1640    8    0    1
 -2       771       770       880      3134      3477      3478
 -1      1641    8    0    1
 -2       770       879       880      3475      3479      3477
 -1      1642    8    0    1
 -2       772       771       881      3137      3480      3481
 -1      1643    8    0    1
 -2       771       880       881      3478      3482      3480
 -1      1644    8    0    1
 -2       773       772       882      3140      3483      3484
 -1      1645    8    0    1
 -2       772       881       882      3481      3485      3483
 -1      1646    8    0    1
 -2       774       773       883      3143      3486      3487
 -1      1647    8    0    1
 -2       773       882       883      3484      3488      3486
 -1      1648    8    0    1
 -2       775       774       884      3146      3489      3490
 -1      1649    8    0    1
 -2       774       883       884      3487      3491      3489
 -1      1650    8    0    1
 -2       776       775       885      3149      3492      3493
 -1      1651    8    0    1
 -2       775       884       885      3490      3494      3492
 -1      1652    8    0    1
 -2       777       776       886      3152      3495      3496
 -1      1653    8    0    1
 -2       776       885       886      3493      3497      3495
 -1      1654    8    0    1
 -2       778       777       887      3155      3498      3499
 -1      1655    8    0    1
 -2       777       886       887      3496      3500      3498
 -1      1656    8    0    1
 -2       779       778       888      3158      3501      3502
 -1      1657    8    0    1
 -2       778       887       888      3499      3503      3501
 -1      1658    8    0    1
 -2       780       779       861      3161      3504      3418
 -1      1659    8    0    1
 -2       605       658       739      3326      3011      3044
 -1      1660    8    0    1
 -2       851       814       859      3373      3505      3506
 -1      1661    8    0    1
 -2       838       749       889      3345      3507      3508
 -1      1662    8    0    1
 -2       788       789       890      3185      3509      3510
 -1      1663    8    0    1
 -2       787       788       891      3182      3511      3512
 -1      1664    8    0    1
 -2       788       890       891      3510      3513      3511
 -1      1665    8    0    1
 -2       790       791       892      3191      3514      3515
 -1      1666    8    0    1
 -2       791       792       893      3194      3516      3517
 -1      1667    8    0    1
 -2       791       893       892      3517      3518      3514
 -1      1668    8    0    1
 -2       792       793       894      3197      3519      3520
 -1      1669    8    0    1
 -2       792       894       893      3520      3521      3516
 -1      1670    8    0    1
 -2       793       794       895      3200      3522      3523
 -1      1671    8    0    1
 -2       793       895       894      3523      3524      3519
 -1      1672    8    0    1
 -2       794       795       896      3203      3525      3526
 -1      1673    8    0    1
 -2       794       896       895      3526      3527      3522
 -1      1674    8    0    1
 -2       795       796       897      3206      3528      3529
 -1      1675    8    0    1
 -2       795       897       896      3529      3530      3525
 -1      1676    8    0    1
 -2       796       797       898      3209      3531      3532
 -1      1677    8    0    1
 -2       796       898       897      3532      3533      3528
 -1      1678    8    0    1
 -2       797       798       899      3212      3534      3535
 -1      1679    8    0    1
 -2       797       899       898      3535      3536      3531
 -1      1680    8    0    1
 -2       798       799       900      3215      3537      3538
 -1      1681    8    0    1
 -2       798       900       899      3538      3539      3534
 -1      1682    8    0    1
 -2       799       800       901      3218      3540      3541
 -1      1683    8    0    1
 -2       799       901       900      3541      3542      3537
 -1      1684    8    0    1
 -2       800       801       902      3221      3543      3544
 -1      1685    8    0    1
 -2       800       902       901      3544      3545      3540
 -1      1686    8    0    1
 -2       801       802       903      3224      3546      3547
 -1      1687    8    0    1
 -2       801       903       902      3547      3548      3543
 -1      1688    8    0    1
 -2       802       803       904      3227      3549      3550
 -1      1689    8    0    1
 -2       802       904       903      3550      3551      3546
 -1      1690    8    0    1
 -2       803       804       905      3230      3552      3553
 -1      1691    8    0    1
 -2       803       905       904      3553      3554      3549
 -1      1692    8    0    1
 -2       804       805       906      3233      3555      3556
 -1      1693    8    0    1
 -2       804       906       905      3556      3557      3552
 -1      1694    8    0    1
 -2       805       806       907      3236      3558      3559
 -1      1695    8    0    1
 -2       805       907       906      3559      3560      3555
 -1      1696    8    0    1
 -2       806       807       908      3239      3561      3562
 -1      1697    8    0    1
 -2       806       908       907      3562      3563      3558
 -1      1698    8    0    1
 -2       807       808       909      3242      3564      3565
 -1      1699    8    0    1
 -2       807       909       908      3565      3566      3561
 -1      1700    8    0    1
 -2       808       809       846      3245      3567      3568
 -1      1701    8    0    1
 -2       810       811       837      3251      3569      3570
 -1      1702    8    0    1
 -2       811       812       821      3254      3421      3571
 -1      1703    8    0    1
 -2       812       813       833      3257      3572      3422
 -1      1704    8    0    1
 -2       827       828       910      3298      3573      3574
 -1      1705    8    0    1
 -2       820       819       911      3279      3575      3576
 -1      1706    8    0    1
 -2       745       737       912      3055      3577      3578
 -1      1707    8    0    1
 -2       745       912       853      3578      3579      3377
 -1      1708    8    0    1
 -2       836       824       913      3395      3580      3581
 -1      1709    8    0    1
 -2       819       827       914      3295      3582      3583
 -1      1710    8    0    1
 -2       911       819       914      3575      3583      3584
 -1      1711    8    0    1
 -2       827       910       914      3574      3585      3582
 -1      1712    8    0    1
 -2       823       825       781      3394      3586      3417
 -1      1713    8    0    1
 -2       749       831       915      3393      3587      3588
 -1      1714    8    0    1
 -2       889       749       915      3507      3588      3589
 -1      1715    8    0    1
 -2       831       861       915      3420      3590      3587
 -1      1716    8    0    1
 -2       816       817       916      3270      3591      3592
 -1      1717    8    0    1
 -2       786       785       917      3177      3593      3594
 -1      1718    8    0    1
 -2       815       816       918      3267      3595      3596
 -1      1719    8    0    1
 -2       816       916       918      3592      3597      3595
 -1      1720    8    0    1
 -2       748       834       919      3314      3598      3599
 -1      1721    8    0    1
 -2       834       855       919      3388      3600      3598
 -1      1722    8    0    1
 -2       789       790       920      3188      3601      3602
 -1      1723    8    0    1
 -2       890       789       920      3509      3602      3603
 -1      1724    8    0    1
 -2       790       892       920      3515      3604      3601
 -1      1725    8    0    1
 -2       752       751       921      3077      3605      3606
 -1      1726    8    0    1
 -2       862       752       921      3424      3606      3607
 -1      1727    8    0    1
 -2       751       847       921      3423      3608      3605
 -1      1728    8    0    1
 -2       837       811       821      3569      3571      3380
 -1      1729    8    0    1
 -2       740       744       922      3050      3609      3610
 -1      1730    8    0    1
 -2       818       740       922      3274      3610      3611
 -1      1731    8    0    1
 -2       744       858       922      3405      3612      3609
 -1      1732    8    0    1
 -2       746       842       923      3358      3613      3614
 -1      1733    8    0    1
 -2       841       838       924      3403      3615      3616
 -1      1734    8    0    1
 -2       810       837       832      3570      3407      3617
 -1      1735    8    0    1
 -2       781       825       925      3586      3618      3619
 -1      1736    8    0    1
 -2       782       781       925      3166      3619      3620
 -1      1737    8    0    1
 -2       825       830       925      3402      3621      3618
 -1      1738    8    0    1
 -2       810       832       809      3617      3622      3248
 -1      1739    8    0    1
 -2       809       832       846      3622      3351      3567
 -1      1740    8    0    1
 -2       844       748       919      3342      3599      3623
 -1      1741    8    0    1
 -2       845       746       923      3346      3614      3624
 -1      1742    8    0    1
 -2       846       835       926      3349      3625      3626
 -1      1743    8    0    1
 -2       835       860       926      3414      3627      3625
 -1      1744    8    0    1
 -2       833       813       747      3572      3628      3408
 -1      1745    8    0    1
 -2       859       814       927      3505      3629      3630
 -1      1746    8    0    1
 -2       861       779       888      3504      3502      3631
 -1      1747    8    0    1
 -2       849       784       928      3364      3632      3633
 -1      1748    8    0    1
 -2       838       889       924      3508      3634      3615
 -1      1749    8    0    1
 -2       783       782       929      3170      3635      3636
 -1      1750    8    0    1
 -2       857       783       929      3399      3636      3637
 -1      1751    8    0    1
 -2       782       925       929      3620      3638      3635
 -1      1752    8    0    1
 -2       850       786       930      3368      3639      3640
 -1      1753    8    0    1
 -2       786       917       930      3594      3641      3639
 -1      1754    8    0    1
 -2       787       891       931      3512      3642      3643
 -1      1755    8    0    1
 -2       787       931       829      3643      3644      3302
 -1      1756    8    0    1
 -2       925       830       932      3621      3645      3646
 -1      1757    8    0    1
 -2       929       925       932      3638      3646      3647
 -1      1758    8    0    1
 -2       830       840       932      3331      3648      3645
 -1      1759    8    0    1
 -2       698       747       813      3259      3628      3255
 -1      1760    8    0    1
 -2       836       913       911      3581      3649      3650
 -1      1761    8    0    1
 -2       814       815       927      3264      3651      3629
 -1      1762    8    0    1
 -2       817       818       922      3273      3611      3652
 -1      1763    8    0    1
 -2       820       911       913      3576      3649      3653
 -1      1764    8    0    1
 -2       923       842       859      3613      3411      3654
 -1      1765    8    0    1
 -2       913       824       933      3580      3655      3656
 -1      1766    8    0    1
 -2       824       845       933      3348      3657      3655
 -1      1767    8    0    1
 -2       847       853       934      3379      3658      3659
 -1      1768    8    0    1
 -2       847       934       921      3659      3660      3608
 -1      1769    8    0    1
 -2       741       747       851      3385      3372      3661
 -1      1770    8    0    1
 -2       854       820       913      3384      3653      3662
 -1      1771    8    0    1
 -2       722       850       856      3370      3663      3392
 -1      1772    8    0    1
 -2       843       839       935      3341      3664      3665
 -1      1773    8    0    1
 -2       785       829       936      3301      3666      3667
 -1      1774    8    0    1
 -2       917       785       936      3593      3667      3668
 -1      1775    8    0    1
 -2       829       931       936      3644      3669      3666
 -1      1776    8    0    1
 -2       858       852       937      3406      3670      3671
 -1      1777    8    0    1
 -2       826       836       911      3401      3650      3672
 -1      1778    8    0    1
 -2       937       852       933      3670      3673      3674
 -1      1779    8    0    1
 -2       815       918       927      3596      3675      3651
 -1      1780    8    0    1
 -2       859       741       851      3409      3661      3506
 -1      1781    8    0    1
 -2       912       737       843      3577      3340      3676
 -1      1782    8    0    1
 -2       860       841       938      3415      3677      3678
 -1      1783    8    0    1
 -2       828       857       929      3398      3637      3679
 -1      1784    8    0    1
 -2       841       924       938      3616      3680      3677
 -1      1785    8    0    1
 -2       840       826       914      3332      3681      3682
 -1      1786    8    0    1
 -2       839       848       939      3361      3683      3684
 -1      1787    8    0    1
 -2       839       939       935      3684      3685      3664
 -1      1788    8    0    1
 -2       784       856       940      3391      3686      3687
 -1      1789    8    0    1
 -2       784       940       928      3687      3688      3632
 -1      1790    8    0    1
 -2       817       922       916      3652      3689      3591
 -1      1791    8    0    1
 -2       826       911       914      3672      3584      3681
 -1      1792    8    0    1
 -2       856       850       941      3663      3690      3691
 -1      1793    8    0    1
 -2       856       941       940      3691      3692      3686
 -1      1794    8    0    1
 -2       861       888       915      3631      3693      3590
 -1      1795    8    0    1
 -2       916       922       858      3689      3612      3694
 -1      1796    8    0    1
 -2       864       863       942      3431      3695      3696
 -1      1797    8    0    1
 -2       865       864       943      3434      3697      3698
 -1      1798    8    0    1
 -2       864       942       943      3696      3699      3697
 -1      1799    8    0    1
 -2       866       865       944      3437      3700      3701
 -1      1800    8    0    1
 -2       865       943       944      3698      3702      3700
 -1      1801    8    0    1
 -2       867       866       945      3440      3703      3704
 -1      1802    8    0    1
 -2       866       944       945      3701      3705      3703
 -1      1803    8    0    1
 -2       868       867       946      3443      3706      3707
 -1      1804    8    0    1
 -2       867       945       946      3704      3708      3706
 -1      1805    8    0    1
 -2       869       868       947      3446      3709      3710
 -1      1806    8    0    1
 -2       868       946       947      3707      3711      3709
 -1      1807    8    0    1
 -2       870       869       948      3449      3712      3713
 -1      1808    8    0    1
 -2       869       947       948      3710      3714      3712
 -1      1809    8    0    1
 -2       871       870       949      3452      3715      3716
 -1      1810    8    0    1
 -2       870       948       949      3713      3717      3715
 -1      1811    8    0    1
 -2       872       871       950      3455      3718      3719
 -1      1812    8    0    1
 -2       871       949       950      3716      3720      3718
 -1      1813    8    0    1
 -2       873       872       951      3458      3721      3722
 -1      1814    8    0    1
 -2       872       950       951      3719      3723      3721
 -1      1815    8    0    1
 -2       874       873       952      3461      3724      3725
 -1      1816    8    0    1
 -2       873       951       952      3722      3726      3724
 -1      1817    8    0    1
 -2       875       874       953      3464      3727      3728
 -1      1818    8    0    1
 -2       874       952       953      3725      3729      3727
 -1      1819    8    0    1
 -2       876       875       954      3467      3730      3731
 -1      1820    8    0    1
 -2       875       953       954      3728      3732      3730
 -1      1821    8    0    1
 -2       877       876       955      3470      3733      3734
 -1      1822    8    0    1
 -2       876       954       955      3731      3735      3733
 -1      1823    8    0    1
 -2       878       877       956      3473      3736      3737
 -1      1824    8    0    1
 -2       877       955       956      3734      3738      3736
 -1      1825    8    0    1
 -2       879       878       957      3476      3739      3740
 -1      1826    8    0    1
 -2       878       956       957      3737      3741      3739
 -1      1827    8    0    1
 -2       880       879       958      3479      3742      3743
 -1      1828    8    0    1
 -2       879       957       958      3740      3744      3742
 -1      1829    8    0    1
 -2       881       880       959      3482      3745      3746
 -1      1830    8    0    1
 -2       880       958       959      3743      3747      3745
 -1      1831    8    0    1
 -2       882       881       960      3485      3748      3749
 -1      1832    8    0    1
 -2       881       959       960      3746      3750      3748
 -1      1833    8    0    1
 -2       883       882       961      3488      3751      3752
 -1      1834    8    0    1
 -2       882       960       961      3749      3753      3751
 -1      1835    8    0    1
 -2       884       883       962      3491      3754      3755
 -1      1836    8    0    1
 -2       883       961       962      3752      3756      3754
 -1      1837    8    0    1
 -2       885       884       963      3494      3757      3758
 -1      1838    8    0    1
 -2       884       962       963      3755      3759      3757
 -1      1839    8    0    1
 -2       886       885       964      3497      3760      3761
 -1      1840    8    0    1
 -2       885       963       964      3758      3762      3760
 -1      1841    8    0    1
 -2       887       886       965      3500      3763      3764
 -1      1842    8    0    1
 -2       886       964       965      3761      3765      3763
 -1      1843    8    0    1
 -2       888       887       966      3503      3766      3767
 -1      1844    8    0    1
 -2       887       965       966      3764      3768      3766
 -1      1845    8    0    1
 -2       894       895       967      3524      3769      3770
 -1      1846    8    0    1
 -2       891       890       968      3513      3771      3772
 -1      1847    8    0    1
 -2       845       923       969      3624      3773      3774
 -1      1848    8    0    1
 -2       848       844       970      3362      3775      3776
 -1      1849    8    0    1
 -2       848       970       939      3776      3777      3683
 -1      1850    8    0    1
 -2       924       889       971      3634      3778      3779
 -1      1851    8    0    1
 -2       862       921       972      3607      3780      3781
 -1      1852    8    0    1
 -2       921       934       972      3660      3782      3780
 -1      1853    8    0    1
 -2       893       894       973      3521      3783      3784
 -1      1854    8    0    1
 -2       894       967       973      3770      3785      3783
 -1      1855    8    0    1
 -2       892       893       974      3518      3786      3787
 -1      1856    8    0    1
 -2       893       973       974      3784      3788      3786
 -1      1857    8    0    1
 -2       895       896       975      3527      3789      3790
 -1      1858    8    0    1
 -2       895       975       967      3790      3791      3769
 -1      1859    8    0    1
 -2       896       897       976      3530      3792      3793
 -1      1860    8    0    1
 -2       896       976       975      3793      3794      3789
 -1      1861    8    0    1
 -2       897       898       977      3533      3795      3796
 -1      1862    8    0    1
 -2       897       977       976      3796      3797      3792
 -1      1863    8    0    1
 -2       898       899       978      3536      3798      3799
 -1      1864    8    0    1
 -2       898       978       977      3799      3800      3795
 -1      1865    8    0    1
 -2       899       900       979      3539      3801      3802
 -1      1866    8    0    1
 -2       899       979       978      3802      3803      3798
 -1      1867    8    0    1
 -2       900       901       980      3542      3804      3805
 -1      1868    8    0    1
 -2       900       980       979      3805      3806      3801
 -1      1869    8    0    1
 -2       901       902       981      3545      3807      3808
 -1      1870    8    0    1
 -2       901       981       980      3808      3809      3804
 -1      1871    8    0    1
 -2       902       903       982      3548      3810      3811
 -1      1872    8    0    1
 -2       902       982       981      3811      3812      3807
 -1      1873    8    0    1
 -2       903       904       983      3551      3813      3814
 -1      1874    8    0    1
 -2       903       983       982      3814      3815      3810
 -1      1875    8    0    1
 -2       904       905       984      3554      3816      3817
 -1      1876    8    0    1
 -2       904       984       983      3817      3818      3813
 -1      1877    8    0    1
 -2       905       906       985      3557      3819      3820
 -1      1878    8    0    1
 -2       905       985       984      3820      3821      3816
 -1      1879    8    0    1
 -2       906       907       986      3560      3822      3823
 -1      1880    8    0    1
 -2       906       986       985      3823      3824      3819
 -1      1881    8    0    1
 -2       907       908       987      3563      3825      3826
 -1      1882    8    0    1
 -2       907       987       986      3826      3827      3822
 -1      1883    8    0    1
 -2       808       846       909      3568      3828      3564
 -1      1884    8    0    1
 -2       844       919       970      3623      3829      3775
 -1      1885    8    0    1
 -2       918       916       988      3597      3830      3831
 -1      1886    8    0    1
 -2       910       828       929      3573      3679      3832
 -1      1887    8    0    1
 -2       933       845       969      3657      3774      3833
 -1      1888    8    0    1
 -2       853       912       989      3579      3834      3835
 -1      1889    8    0    1
 -2       853       989       934      3835      3836      3658
 -1      1890    8    0    1
 -2       855       849       990      3389      3837      3838
 -1      1891    8    0    1
 -2       919       855       990      3600      3838      3839
 -1      1892    8    0    1
 -2       849       928       990      3633      3840      3837
 -1      1893    8    0    1
 -2       933       852       854      3673      3383      3841
 -1      1894    8    0    1
 -2       860       938       991      3678      3842      3843
 -1      1895    8    0    1
 -2       859       927       923      3630      3844      3654
 -1      1896    8    0    1
 -2       938       924       992      3680      3845      3846
 -1      1897    8    0    1
 -2       924       971       992      3779      3847      3845
 -1      1898    8    0    1
 -2       863       862       993      3428      3848      3849
 -1      1899    8    0    1
 -2       942       863       993      3695      3849      3850
 -1      1900    8    0    1
 -2       862       972       993      3781      3851      3848
 -1      1901    8    0    1
 -2       912       843       994      3676      3852      3853
 -1      1902    8    0    1
 -2       989       912       994      3834      3853      3854
 -1      1903    8    0    1
 -2       843       935       994      3665      3855      3852
 -1      1904    8    0    1
 -2       909       846       926      3828      3626      3856
 -1      1905    8    0    1
 -2       923       927       969      3844      3857      3773
 -1      1906    8    0    1
 -2       926       860       991      3627      3843      3858
 -1      1907    8    0    1
 -2       968       890       995      3771      3859      3860
 -1      1908    8    0    1
 -2       890       920       995      3603      3861      3859
 -1      1909    8    0    1
 -2       850       930       941      3640      3862      3690
 -1      1910    8    0    1
 -2       994       935       996      3855      3863      3864
 -1      1911    8    0    1
 -2       891       968       997      3772      3865      3866
 -1      1912    8    0    1
 -2       891       997       931      3866      3867      3642
 -1      1913    8    0    1
 -2       971       889       998      3778      3868      3869
 -1      1914    8    0    1
 -2       918       988       969      3831      3870      3871
 -1      1915    8    0    1
 -2       908       909       999      3566      3872      3873
 -1      1916    8    0    1
 -2       970       919       990      3829      3839      3874
 -1      1917    8    0    1
 -2       888       966       998      3767      3875      3876
 -1      1918    8    0    1
 -2       910       929       932      3832      3647      3877
 -1      1919    8    0    1
 -2       937       933       988      3674      3878      3879
 -1      1920    8    0    1
 -2       888       998       915      3876      3880      3693
 -1      1921    8    0    1
 -2       928       940      1000      3688      3881      3882
 -1      1922    8    0    1
 -2       917       936      1001      3668      3883      3884
 -1      1923    8    0    1
 -2       930       917      1002      3641      3885      3886
 -1      1924    8    0    1
 -2       917      1001      1002      3884      3887      3885
 -1      1925    8    0    1
 -2       991       938      1003      3842      3888      3889
 -1      1926    8    0    1
 -2       938       992      1003      3846      3890      3888
 -1      1927    8    0    1
 -2       916       858       937      3694      3671      3891
 -1      1928    8    0    1
 -2       927       918       969      3675      3871      3857
 -1      1929    8    0    1
 -2       914       910       840      3585      3892      3682
 -1      1930    8    0    1
 -2       920       892      1004      3604      3893      3894
 -1      1931    8    0    1
 -2       920      1004       995      3894      3895      3861
 -1      1932    8    0    1
 -2       889       915       998      3589      3880      3868
 -1      1933    8    0    1
 -2       933       969       988      3833      3870      3878
 -1      1934    8    0    1
 -2       996       935      1005      3863      3896      3897
 -1      1935    8    0    1
 -2       935       939      1005      3685      3898      3896
 -1      1936    8    0    1
 -2       908       999       987      3873      3899      3825
 -1      1937    8    0    1
 -2      1004       892       974      3893      3787      3900
 -1      1938    8    0    1
 -2       916       937       988      3891      3879      3830
 -1      1939    8    0    1
 -2       928      1000      1006      3882      3901      3902
 -1      1940    8    0    1
 -2       928      1006       990      3902      3903      3840
 -1      1941    8    0    1
 -2       972       934      1007      3782      3904      3905
 -1      1942    8    0    1
 -2       934       989      1007      3836      3906      3904
 -1      1943    8    0    1
 -2       943       942      1008      3699      3907      3908
 -1      1944    8    0    1
 -2       944       943      1009      3702      3909      3910
 -1      1945    8    0    1
 -2       943      1008      1009      3908      3911      3909
 -1      1946    8    0    1
 -2       945       944      1010      3705      3912      3913
 -1      1947    8    0    1
 -2       944      1009      1010      3910      3914      3912
 -1      1948    8    0    1
 -2       946       945      1011      3708      3915      3916
 -1      1949    8    0    1
 -2       945      1010      1011      3913      3917      3915
 -1      1950    8    0    1
 -2       947       946      1012      3711      3918      3919
 -1      1951    8    0    1
 -2       946      1011      1012      3916      3920      3918
 -1      1952    8    0    1
 -2       948       947      1013      3714      3921      3922
 -1      1953    8    0    1
 -2       947      1012      1013      3919      3923      3921
 -1      1954    8    0    1
 -2       949       948      1014      3717      3924      3925
 -1      1955    8    0    1
 -2       948      1013      1014      3922      3926      3924
 -1      1956    8    0    1
 -2       950       949      1015      3720      3927      3928
 -1      1957    8    0    1
 -2       949      1014      1015      3925      3929      3927
 -1      1958    8    0    1
 -2       951       950      1016      3723      3930      3931
 -1      1959    8    0    1
 -2       950      1015      1016      3928      3932      3930
 -1      1960    8    0    1
 -2       952       951      1017      3726      3933      3934
 -1      1961    8    0    1
 -2       951      1016      1017      3931      3935      3933
 -1      1962    8    0    1
 -2       953       952      1018      3729      3936      3937
 -1      1963    8    0    1
 -2       952      1017      1018      3934      3938      3936
 -1      1964    8    0    1
 -2       954       953      1019      3732      3939      3940
 -1      1965    8    0    1
 -2       953      1018      1019      3937      3941      3939
 -1      1966    8    0    1
 -2       955       954      1020      3735      3942      3943
 -1      1967    8    0    1
 -2       954      1019      1020      3940      3944      3942
 -1      1968    8    0    1
 -2       956       955      1021      3738      3945      3946
 -1      1969    8    0    1
 -2       955      1020      1021      3943      3947      3945
 -1      1970    8    0    1
 -2       957       956      1022      3741      3948      3949
 -1      1971    8    0    1
 -2       956      1021      1022      3946      3950      3948
 -1      1972    8    0    1
 -2       958       957      1023      3744      3951      3952
 -1      1973    8    0    1
 -2       957      1022      1023      3949      3953      3951
 -1      1974    8    0    1
 -2       959       958      1024      3747      3954      3955
 -1      1975    8    0    1
 -2       958      1023      1024      3952      3956      3954
 -1      1976    8    0    1
 -2       960       959      1025      3750      3957      3958
 -1      1977    8    0    1
 -2       959      1024      1025      3955      3959      3957
 -1      1978    8    0    1
 -2       961       960      1026      3753      3960      3961
 -1      1979    8    0    1
 -2       960      1025      1026      3958      3962      3960
 -1      1980    8    0    1
 -2       962       961      1027      3756      3963      3964
 -1      1981    8    0    1
 -2       961      1026      1027      3961      3965      3963
 -1      1982    8    0    1
 -2       963       962      1028      3759      3966      3967
 -1      1983    8    0    1
 -2       962      1027      1028      3964      3968      3966
 -1      1984    8    0    1
 -2       964       963      1029      3762      3969      3970
 -1      1985    8    0    1
 -2       963      1028      1029      3967      3971      3969
 -1      1986    8    0    1
 -2       965       964      1030      3765      3972      3973
 -1      1987    8    0    1
 -2       964      1029      1030      3970      3974      3972
 -1      1988    8    0    1
 -2       966       965      1031      3768      3975      3976
 -1      1989    8    0    1
 -2       965      1030      1031      3973      3977      3975
 -1      1990    8    0    1
 -2       975       976      1032      3794      3978      3979
 -1      1991    8    0    1
 -2       989       994      1033      3854      3980      3981
 -1      1992    8    0    1
 -2      1007       989      1033      3906      3981      3982
 -1      1993    8    0    1
 -2       994       996      1033      3864      3983      3980
 -1      1994    8    0    1
 -2       971       998      1034      3869      3984      3985
 -1      1995    8    0    1
 -2       973       967      1035      3785      3986      3987
 -1      1996    8    0    1
 -2       974       973      1036      3788      3988      3989
 -1      1997    8    0    1
 -2       973      1035      1036      3987      3990      3988
 -1      1998    8    0    1
 -2       976       977      1037      3797      3991      3992
 -1      1999    8    0    1
 -2       976      1037      1032      3992      3993      3978
 -1      2000    8    0    1
 -2       977       978      1038      3800      3994      3995
 -1      2001    8    0    1
 -2       977      1038      1037      3995      3996      3991
 -1      2002    8    0    1
 -2       978       979      1039      3803      3997      3998
 -1      2003    8    0    1
 -2       978      1039      1038      3998      3999      3994
 -1      2004    8    0    1
 -2       979       980      1040      3806      4000      4001
 -1      2005    8    0    1
 -2       979      1040      1039      4001      4002      3997
 -1      2006    8    0    1
 -2       980       981      1041      3809      4003      4004
 -1      2007    8    0    1
 -2       980      1041      1040      4004      4005      4000
 -1      2008    8    0    1
 -2       981       982      1042      3812      4006      4007
 -1      2009    8    0    1
 -2       981      1042      1041      4007      4008      4003
 -1      2010    8    0    1
 -2       982       983      1043      3815      4009      4010
 -1      2011    8    0    1
 -2       982      1043      1042      4010      4011      4006
 -1      2012    8    0    1
 -2       983       984      1044      3818      4012      4013
 -1      2013    8    0    1
 -2       983      1044      1043      4013      4014      4009
 -1      2014    8    0    1
 -2       984       985      1045      3821      4015      4016
 -1      2015    8    0    1
 -2       984      1045      1044      4016      4017      4012
 -1      2016    8    0    1
 -2       985       986      1046      3824      4018      4019
 -1      2017    8    0    1
 -2       985      1046      1045      4019      4020      4015
 -1      2018    8    0    1
 -2       999       909       926      3872      3856      4021
 -1      2019    8    0    1
 -2      1004       974      1047      3900      4022      4023
 -1      2020    8    0    1
 -2       974      1036      1047      3989      4024      4022
 -1      2021    8    0    1
 -2       970       990      1006      3874      3903      4025
 -1      2022    8    0    1
 -2      1001       936      1048      3883      4026      4027
 -1      2023    8    0    1
 -2       936       931      1048      3669      4028      4026
 -1      2024    8    0    1
 -2      1000       940      1049      3881      4029      4030
 -1      2025    8    0    1
 -2       940       941      1049      3692      4031      4029
 -1      2026    8    0    1
 -2       967       975      1050      3791      4032      4033
 -1      2027    8    0    1
 -2       975      1032      1050      3979      4034      4032
 -1      2028    8    0    1
 -2       933       854       913      3841      3662      3656
 -1      2029    8    0    1
 -2      1006      1000      1051      3901      4035      4036
 -1      2030    8    0    1
 -2       926       991       999      3858      4037      4021
 -1      2031    8    0    1
 -2       992       971      1052      3847      4038      4039
 -1      2032    8    0    1
 -2       971      1034      1052      3985      4040      4038
 -1      2033    8    0    1
 -2       840       910       932      3892      3877      3648
 -1      2034    8    0    1
 -2       941       930      1053      3862      4041      4042
 -1      2035    8    0    1
 -2      1049       941      1053      4031      4042      4043
 -1      2036    8    0    1
 -2       930      1002      1053      3886      4044      4041
 -1      2037    8    0    1
 -2       987       999       991      3899      4037      4045
 -1      2038    8    0    1
 -2       987       991      1003      4045      3889      4046
 -1      2039    8    0    1
 -2       997       968      1054      3865      4047      4048
 -1      2040    8    0    1
 -2      1008       942      1055      3907      4049      4050
 -1      2041    8    0    1
 -2       942       993      1055      3850      4051      4049
 -1      2042    8    0    1
 -2       966      1031      1034      3976      4052      4053
 -1      2043    8    0    1
 -2       931       997      1048      3867      4054      4028
 -1      2044    8    0    1
 -2      1033       996      1056      3983      4055      4056
 -1      2045    8    0    1
 -2       939       970      1057      3777      4057      4058
 -1      2046    8    0    1
 -2      1035       967      1050      3986      4033      4059
 -1      2047    8    0    1
 -2       970      1006      1057      4025      4060      4057
 -1      2048    8    0    1
 -2       992      1052      1058      4039      4061      4062
 -1      2049    8    0    1
 -2       992      1058      1003      4062      4063      3890
 -1      2050    8    0    1
 -2       986       987      1059      3827      4064      4065
 -1      2051    8    0    1
 -2       998       966      1034      3875      4053      3984
 -1      2052    8    0    1
 -2       972      1007       993      3905      4066      3851
 -1      2053    8    0    1
 -2      1000      1049      1060      4030      4067      4068
 -1      2054    8    0    1
 -2      1000      1060      1051      4068      4069      4035
 -1      2055    8    0    1
 -2      1054       968      1061      4047      4070      4071
 -1      2056    8    0    1
 -2       968       995      1061      3860      4072      4070
 -1      2057    8    0    1
 -2       986      1059      1046      4065      4073      4018
 -1      2058    8    0    1
 -2       995      1004      1062      3895      4074      4075
 -1      2059    8    0    1
 -2       995      1062      1061      4075      4076      4072
 -1      2060    8    0    1
 -2      1005       939      1057      3898      4058      4077
 -1      2061    8    0    1
 -2      1057      1006      1051      4060      4036      4078
 -1      2062    8    0    1
 -2      1001      1048      1063      4027      4079      4080
 -1      2063    8    0    1
 -2      1002      1001      1064      3887      4081      4082
 -1      2064    8    0    1
 -2      1001      1063      1064      4080      4083      4081
 -1      2065    8    0    1
 -2      1062      1004      1047      4074      4023      4084
 -1      2066    8    0    1
 -2      1034      1031      1065      4052      4085      4086
 -1      2067    8    0    1
 -2      1052      1034      1065      4040      4086      4087
 -1      2068    8    0    1
 -2      1031      1030      1065      3977      4088      4085
 -1      2069    8    0    1
 -2      1048       997      1066      4054      4089      4090
 -1      2070    8    0    1
 -2      1063      1048      1066      4079      4090      4091
 -1      2071    8    0    1
 -2       997      1054      1066      4048      4092      4089
 -1      2072    8    0    1
 -2      1056       996      1067      4055      4093      4094
 -1      2073    8    0    1
 -2      1057      1051      1005      4078      4095      4077
 -1      2074    8    0    1
 -2      1010      1009      1068      3914      4096      4097
 -1      2075    8    0    1
 -2      1011      1010      1069      3917      4098      4099
 -1      2076    8    0    1
 -2      1010      1068      1069      4097      4100      4098
 -1      2077    8    0    1
 -2      1012      1011      1070      3920      4101      4102
 -1      2078    8    0    1
 -2      1011      1069      1070      4099      4103      4101
 -1      2079    8    0    1
 -2      1013      1012      1071      3923      4104      4105
 -1      2080    8    0    1
 -2      1012      1070      1071      4102      4106      4104
 -1      2081    8    0    1
 -2      1014      1013      1072      3926      4107      4108
 -1      2082    8    0    1
 -2      1013      1071      1072      4105      4109      4107
 -1      2083    8    0    1
 -2      1015      1014      1073      3929      4110      4111
 -1      2084    8    0    1
 -2      1014      1072      1073      4108      4112      4110
 -1      2085    8    0    1
 -2      1016      1015      1074      3932      4113      4114
 -1      2086    8    0    1
 -2      1015      1073      1074      4111      4115      4113
 -1      2087    8    0    1
 -2      1017      1016      1075      3935      4116      4117
 -1      2088    8    0    1
 -2      1016      1074      1075      4114      4118      4116
 -1      2089    8    0    1
 -2      1018      1017      1076      3938      4119      4120
 -1      2090    8    0    1
 -2      1017      1075      1076      4117      4121      4119
 -1      2091    8    0    1
 -2      1019      1018      1077      3941      4122      4123
 -1      2092    8    0    1
 -2      1018      1076      1077      4120      4124      4122
 -1      2093    8    0    1
 -2      1020      1019      1078      3944      4125      4126
 -1      2094    8    0    1
 -2      1019      1077      1078      4123      4127      4125
 -1      2095    8    0    1
 -2      1021      1020      1079      3947      4128      4129
 -1      2096    8    0    1
 -2      1020      1078      1079      4126      4130      4128
 -1      2097    8    0    1
 -2      1022      1021      1080      3950      4131      4132
 -1      2098    8    0    1
 -2      1021      1079      1080      4129      4133      4131
 -1      2099    8    0    1
 -2      1023      1022      1081      3953      4134      4135
 -1      2100    8    0    1
 -2      1022      1080      1081      4132      4136      4134
 -1      2101    8    0    1
 -2      1024      1023      1082      3956      4137      4138
 -1      2102    8    0    1
 -2      1023      1081      1082      4135      4139      4137
 -1      2103    8    0    1
 -2      1025      1024      1083      3959      4140      4141
 -1      2104    8    0    1
 -2      1024      1082      1083      4138      4142      4140
 -1      2105    8    0    1
 -2      1026      1025      1084      3962      4143      4144
 -1      2106    8    0    1
 -2      1025      1083      1084      4141      4145      4143
 -1      2107    8    0    1
 -2      1027      1026      1085      3965      4146      4147
 -1      2108    8    0    1
 -2      1026      1084      1085      4144      4148      4146
 -1      2109    8    0    1
 -2      1028      1027      1086      3968      4149      4150
 -1      2110    8    0    1
 -2      1027      1085      1086      4147      4151      4149
 -1      2111    8    0    1
 -2      1029      1028      1087      3971      4152      4153
 -1      2112    8    0    1
 -2      1028      1086      1087      4150      4154      4152
 -1      2113    8    0    1
 -2      1030      1029      1088      3974      4155      4156
 -1      2114    8    0    1
 -2      1029      1087      1088      4153      4157      4155
 -1      2115    8    0    1
 -2      1037      1038      1089      3996      4158      4159
 -1      2116    8    0    1
 -2      1007      1033      1090      3982      4160      4161
 -1      2117    8    0    1
 -2      1033      1056      1090      4056      4162      4160
 -1      2118    8    0    1
 -2      1035      1050      1091      4059      4163      4164
 -1      2119    8    0    1
 -2      1032      1037      1092      3993      4165      4166
 -1      2120    8    0    1
 -2      1037      1089      1092      4159      4167      4165
 -1      2121    8    0    1
 -2      1038      1039      1093      3999      4168      4169
 -1      2122    8    0    1
 -2      1038      1093      1089      4169      4170      4158
 -1      2123    8    0    1
 -2      1039      1040      1094      4002      4171      4172
 -1      2124    8    0    1
 -2      1039      1094      1093      4172      4173      4168
 -1      2125    8    0    1
 -2      1040      1041      1095      4005      4174      4175
 -1      2126    8    0    1
 -2      1040      1095      1094      4175      4176      4171
 -1      2127    8    0    1
 -2      1041      1042      1096      4008      4177      4178
 -1      2128    8    0    1
 -2      1041      1096      1095      4178      4179      4174
 -1      2129    8    0    1
 -2      1042      1043      1097      4011      4180      4181
 -1      2130    8    0    1
 -2      1042      1097      1096      4181      4182      4177
 -1      2131    8    0    1
 -2      1043      1044      1098      4014      4183      4184
 -1      2132    8    0    1
 -2      1043      1098      1097      4184      4185      4180
 -1      2133    8    0    1
 -2      1044      1045      1099      4017      4186      4187
 -1      2134    8    0    1
 -2      1044      1099      1098      4187      4188      4183
 -1      2135    8    0    1
 -2      1045      1046      1100      4020      4189      4190
 -1      2136    8    0    1
 -2      1045      1100      1099      4190      4191      4186
 -1      2137    8    0    1
 -2      1059       987      1003      4064      4046      4192
 -1      2138    8    0    1
 -2      1047      1036      1101      4024      4193      4194
 -1      2139    8    0    1
 -2       996      1005      1067      3897      4195      4093
 -1      2140    8    0    1
 -2      1050      1032      1102      4034      4196      4197
 -1      2141    8    0    1
 -2      1032      1092      1102      4166      4198      4196
 -1      2142    8    0    1
 -2      1056      1067      1103      4094      4199      4200
 -1      2143    8    0    1
 -2      1036      1035      1104      3990      4201      4202
 -1      2144    8    0    1
 -2      1035      1091      1104      4164      4203      4201
 -1      2145    8    0    1
 -2      1009      1008      1105      3911      4204      4205
 -1      2146    8    0    1
 -2      1009      1105      1068      4205      4206      4096
 -1      2147    8    0    1
 -2      1062      1047      1106      4084      4207      4208
 -1      2148    8    0    1
 -2      1047      1101      1106      4194      4209      4207
 -1      2149    8    0    1
 -2      1005      1051      1067      4095      4210      4195
 -1      2150    8    0    1
 -2      1059      1003      1058      4192      4063      4211
 -1      2151    8    0    1
 -2      1067      1051      1103      4210      4212      4199
 -1      2152    8    0    1
 -2      1008      1055      1107      4050      4213      4214
 -1      2153    8    0    1
 -2      1008      1107      1105      4214      4215      4204
 -1      2154    8    0    1
 -2      1062      1106      1108      4208      4216      4217
 -1      2155    8    0    1
 -2      1062      1108      1061      4217      4218      4076
 -1      2156    8    0    1
 -2      1063      1066      1109      4091      4219      4220
 -1      2157    8    0    1
 -2      1091      1050      1102      4163      4197      4221
 -1      2158    8    0    1
 -2      1056      1103      1107      4200      4222      4223
 -1      2159    8    0    1
 -2      1049      1053      1110      4043      4224      4225
 -1      2160    8    0    1
 -2      1049      1110      1060      4225      4226      4067
 -1      2161    8    0    1
 -2      1100      1046      1058      4189      4227      4228
 -1      2162    8    0    1
 -2      1101      1036      1104      4193      4202      4229
 -1      2163    8    0    1
 -2      1063      1109      1111      4220      4230      4231
 -1      2164    8    0    1
 -2      1063      1111      1064      4231      4232      4083
 -1      2165    8    0    1
 -2      1059      1058      1046      4211      4227      4073
 -1      2166    8    0    1
 -2       993      1007      1055      4066      4233      4051
 -1      2167    8    0    1
 -2      1053      1002      1112      4044      4234      4235
 -1      2168    8    0    1
 -2      1110      1053      1112      4224      4235      4236
 -1      2169    8    0    1
 -2      1002      1064      1112      4082      4237      4234
 -1      2170    8    0    1
 -2      1103      1051      1060      4212      4069      4238
 -1      2171    8    0    1
 -2      1030      1088      1065      4156      4239      4088
 -1      2172    8    0    1
 -2      1052      1065      1113      4087      4240      4241
 -1      2173    8    0    1
 -2      1058      1052      1113      4061      4241      4242
 -1      2174    8    0    1
 -2      1065      1088      1113      4239      4243      4240
 -1      2175    8    0    1
 -2      1054      1061      1114      4071      4244      4245
 -1      2176    8    0    1
 -2      1061      1108      1114      4218      4246      4244
 -1      2177    8    0    1
 -2      1066      1054      1115      4092      4247      4248
 -1      2178    8    0    1
 -2      1054      1114      1115      4245      4249      4247
 -1      2179    8    0    1
 -2      1090      1056      1107      4162      4223      4250
 -1      2180    8    0    1
 -2      1069      1068      1116      4100      4251      4252
 -1      2181    8    0    1
 -2      1109      1066      1115      4219      4248      4253
 -1      2182    8    0    1
 -2      1089      1093      1081      4170      4254      4255
 -1      2183    8    0    1
 -2      1070      1069      1111      4103      4256      4257
 -1      2184    8    0    1
 -2      1071      1070      1109      4106      4258      4259
 -1      2185    8    0    1
 -2      1072      1071      1115      4109      4260      4261
 -1      2186    8    0    1
 -2      1073      1072      1114      4112      4262      4263
 -1      2187    8    0    1
 -2      1074      1073      1108      4115      4264      4265
 -1      2188    8    0    1
 -2      1075      1074      1106      4118      4266      4267
 -1      2189    8    0    1
 -2      1076      1075      1101      4121      4268      4269
 -1      2190    8    0    1
 -2      1077      1076      1104      4124      4270      4271
 -1      2191    8    0    1
 -2      1078      1077      1091      4127      4272      4273
 -1      2192    8    0    1
 -2      1079      1078      1102      4130      4274      4275
 -1      2193    8    0    1
 -2      1080      1079      1092      4133      4276      4277
 -1      2194    8    0    1
 -2      1081      1080      1089      4136      4278      4255
 -1      2195    8    0    1
 -2      1082      1081      1093      4139      4254      4279
 -1      2196    8    0    1
 -2      1083      1082      1094      4142      4280      4281
 -1      2197    8    0    1
 -2      1084      1083      1095      4145      4282      4283
 -1      2198    8    0    1
 -2      1085      1084      1096      4148      4284      4285
 -1      2199    8    0    1
 -2      1086      1085      1097      4151      4286      4287
 -1      2200    8    0    1
 -2      1087      1086      1098      4154      4288      4289
 -1      2201    8    0    1
 -2      1088      1087      1099      4157      4290      4291
 -1      2202    8    0    1
 -2      1093      1094      1082      4173      4280      4279
 -1      2203    8    0    1
 -2      1091      1102      1078      4221      4274      4273
 -1      2204    8    0    1
 -2      1007      1090      1055      4161      4292      4233
 -1      2205    8    0    1
 -2      1107      1103      1117      4222      4293      4294
 -1      2206    8    0    1
 -2      1107      1117      1105      4294      4295      4215
 -1      2207    8    0    1
 -2      1094      1095      1083      4176      4282      4281
 -1      2208    8    0    1
 -2      1106      1074      1108      4266      4265      4216
 -1      2209    8    0    1
 -2      1095      1096      1084      4179      4284      4283
 -1      2210    8    0    1
 -2      1096      1097      1085      4182      4286      4285
 -1      2211    8    0    1
 -2      1097      1098      1086      4185      4288      4287
 -1      2212    8    0    1
 -2      1098      1099      1087      4188      4290      4289
 -1      2213    8    0    1
 -2      1114      1072      1115      4262      4261      4249
 -1      2214    8    0    1
 -2      1101      1104      1076      4229      4270      4269
 -1      2215    8    0    1
 -2      1104      1091      1077      4203      4272      4271
 -1      2216    8    0    1
 -2      1101      1075      1106      4268      4267      4209
 -1      2217    8    0    1
 -2      1068      1105      1118      4206      4296      4297
 -1      2218    8    0    1
 -2      1116      1068      1118      4251      4297      4298
 -1      2219    8    0    1
 -2      1105      1117      1118      4295      4299      4296
 -1      2220    8    0    1
 -2      1102      1092      1079      4198      4276      4275
 -1      2221    8    0    1
 -2      1100      1058      1113      4228      4242      4300
 -1      2222    8    0    1
 -2      1109      1070      1111      4258      4257      4230
 -1      2223    8    0    1
 -2      1107      1055      1090      4213      4292      4250
 -1      2224    8    0    1
 -2      1103      1060      1117      4238      4301      4293
 -1      2225    8    0    1
 -2      1092      1089      1080      4167      4278      4277
 -1      2226    8    0    1
 -2      1071      1109      1115      4259      4253      4260
 -1      2227    8    0    1
 -2      1073      1114      1108      4263      4246      4264
 -1      2228    8    0    1
 -2      1088      1099      1113      4291      4302      4243
 -1      2229    8    0    1
 -2      1060      1110      1117      4226      4303      4301
 -1      2230    8    0    1
 -2      1112      1064      1116      4237      4304      4305
 -1      2231    8    0    1
 -2      1064      1111      1116      4232      4306      4304
 -1      2232    8    0    1
 -2      1111      1069      1116      4256      4252      4306
 -1      2233    8    0    1
 -2      1099      1100      1113      4191      4300      4302
 -1      2234    8    0    1
 -2      1117      1110      1118      4303      4307      4299
 -1      2235    8    0    1
 -2      1112      1116      1118      4305      4298      4308
 -1      2236    8    0    1
 -2      1110      1112      1118      4236      4308      4307
 -3
    1PSTEP                         1           1           1          
  100CL  101 1.000000000        4308                     0    1           1
 -4  DISP        4    1
 -5  D1          1    2    1    0
 -5  D2          1    2    2    0
 -5  D3          1    2    3    0
 -5  ALL         1    2    0    0    1ALL
 -1         1 9.51831E-03-5.57021E-04-1.07000E-13
 -1         2 1.38757E-02-3.99088E-04-1.33462E-13
 -1         3 1.44244E-02-2.03377E-04-1.89137E-13
 -1         4 1.52766E-02-9.81416E-04-1.91336E-13
 -1         5 0.00000E+00 0.00000E+00 0.00000E+00
 -1         6 0.00000E+00 0.00000E+00 0.00000E+00
 -1         7 0.00000E+00 0.00000E+00 0.00000E+00
 -1         8 0.00000E+00 0.00000E+00 0.00000E+00
 -1         9 0.00000E+00 0.00000E+00 0.00000E+00
 -1        10 0.00000E+00 0.00000E+00 0.00000E+00
 -1        11 0.00000E+00 0.00000E+00 0.00000E+00
 -1        12 0.00000E+00 0.00000E+00 0.00000E+00
 -1        13 0.00000E+00 0.00000E+00 0.00000E+00
 -1        14 0.00000E+00 0.00000E+00 0.00000E+00
 -1        15 0.00000E+00 0.00000E+00 0.00000E+00
 -1        16 0.00000E+00 0.00000E+00 0.00000E+00
 -1        17 0.00000E+00 0.00000E+00 0.00000E+00
 -1        18 0.00000E+00 0.00000E+00 0.00000E+00
 -1        19 0.00000E+00 0.00000E+00 0.00000E+00
 -1        20 0.00000E+00 0.00000E+00 0.00000E+00
 -1        21 0.00000E+00 0.00000E+00 0.00000E+00
 -1        22 0.00000E+00 0.00000E+00 0.00000E+00
 -1        23 4.11401E-04-2.60754E-04 7.07781E-17
 -1        24 7.03398E-04-4.01017E-04-4.05221E-17
 -1        25 9.73478E-04-4.98415E-04-3.32948E-16
 -1        26 1.23798E-03-5.67183E-04-8.06369E-16
 -1        27 1.50151E-03-6.16462E-04-1.46217E-15
 -1        28 1.76617E-03-6.51634E-04-2.29929E-15
 -1        29 2.03291E-03-6.76408E-04-3.31887E-15
 -1        30 2.30209E-03-6.93478E-04-4.51731E-15
 -1        31 2.57376E-03-7.04858E-04-5.89180E-15
 -1        32 2.84779E-03-7.12069E-04-7.44154E-15
 -1        33 3.12393E-03-7.16252E-04-9.16422E-15
 -1        34 3.40192E-03-7.18256E-04-1.10503E-14
 -1        35 3.68146E-03-7.18696E-04-1.31005E-14
 -1        36 3.96231E-03-7.18004E-04-1.53148E-14
 -1        37 4.24424E-03-7.16464E-04-1.76944E-14
 -1        38 4.52706E-03-7.14249E-04-2.02392E-14
 -1        39 4.81066E-03-7.11443E-04-2.29459E-14
 -1        40 5.09499E-03-7.08063E-04-2.58131E-14
 -1        41 5.38006E-03-7.04081E-04-2.88343E-14
 -1        42 5.66598E-03-6.99441E-04-3.20098E-14
 -1        43 5.95297E-03-6.94081E-04-3.53441E-14
 -1        44 6.24135E-03-6.87959E-04-3.88336E-14
 -1        45 6.53163E-03-6.81085E-04-4.24806E-14
 -1        46 6.82449E-03-6.73569E-04-4.62863E-14
 -1        47 7.12083E-03-6.65690E-04-5.02395E-14
 -1        48 7.42187E-03-6.57986E-04-5.43368E-14
 -1        49 7.72912E-03-6.51402E-04-5.85760E-14
 -1        50 8.04447E-03-6.47477E-04-6.29522E-14
 -1        51 8.37011E-03-6.48619E-04-6.74649E-14
 -1        52 8.70840E-03-6.58425E-04-7.21161E-14
 -1        53 9.06147E-03-6.82025E-04-7.68991E-14
 -1        54 9.43033E-03-7.26232E-04-8.18233E-14
 -1        55 9.81343E-03-7.99070E-04-8.68804E-14
 -1        56 1.02047E-02-9.07889E-04-9.20564E-14
 -1        57 1.05916E-02-1.05513E-03-9.73526E-14
 -1        58 1.09562E-02-1.23176E-03-1.02766E-13
 -1        59 1.12812E-02-1.41164E-03-1.08311E-13
 -1        60 1.15612E-02-1.55411E-03-1.13999E-13
 -1        61 1.18116E-02-1.62068E-03-1.19835E-13
 -1        62 1.20637E-02-1.59773E-03-1.25821E-13
 -1        63 1.23462E-02-1.50548E-03-1.31982E-13
 -1        64 1.26690E-02-1.38372E-03-1.38295E-13
 -1        65 1.30224E-02-1.26902E-03-1.44737E-13
 -1        66 1.33878E-02-1.18139E-03-1.51289E-13
 -1        67 1.37477E-02-1.12425E-03-1.57918E-13
 -1        68 1.40912E-02-1.09065E-03-1.64595E-13
 -1        69 1.44139E-02-1.06927E-03-1.71309E-13
 -1        70 1.47169E-02-1.04838E-03-1.78058E-13
 -1        71 1.50061E-02-1.01900E-03-1.84856E-13
 -1        72 4.13847E-04 2.61458E-04 8.00683E-17
 -1        73 7.03223E-04 4.03724E-04-1.77470E-17
 -1        74 9.74015E-04 5.00189E-04-2.89265E-16
 -1        75 1.23880E-03 5.68895E-04-7.37390E-16
 -1        76 1.50246E-03 6.18222E-04-1.36465E-15
 -1        77 1.76719E-03 6.53484E-04-2.17106E-15
 -1        78 2.03397E-03 6.78369E-04-3.15768E-15
 -1        79 2.30318E-03 6.95560E-04-4.32364E-15
 -1        80 2.57487E-03 7.07067E-04-5.66383E-15
 -1        81 2.84890E-03 7.14408E-04-7.17753E-15
 -1        82 3.12506E-03 7.18723E-04-8.86372E-15
 -1        83 3.40305E-03 7.20861E-04-1.07220E-14
 -1        84 3.68261E-03 7.21437E-04-1.27527E-14
 -1        85 3.96348E-03 7.20884E-04-1.49532E-14
 -1        86 4.24543E-03 7.19491E-04-1.73212E-14
 -1        87 4.52828E-03 7.17435E-04-1.98602E-14
 -1        88 4.81194E-03 7.14809E-04-2.25645E-14
 -1        89 5.09632E-03 7.11647E-04-2.54327E-14
 -1        90 5.38147E-03 7.07942E-04-2.84673E-14
 -1        91 5.66748E-03 7.03673E-04-3.16619E-14
 -1        92 5.95453E-03 6.98830E-04-3.50136E-14
 -1        93 6.24294E-03 6.93440E-04-3.85237E-14
 -1        94 6.53309E-03 6.87609E-04-4.21961E-14
 -1        95 6.82553E-03 6.81568E-04-4.60126E-14
 -1        96 7.12087E-03 6.75728E-04-4.99705E-14
 -1        97 7.41986E-03 6.70750E-04-5.40739E-14
 -1        98 7.72325E-03 6.67618E-04-5.83164E-14
 -1        99 8.03175E-03 6.67703E-04-6.26926E-14
 -1       100 8.34581E-03 6.72795E-04-6.71937E-14
 -1       101 8.66544E-03 6.85056E-04-7.18303E-14
 -1       102 8.98979E-03 7.06816E-04-7.66023E-14
 -1       103 9.31684E-03 7.40124E-04-8.15125E-14
 -1       104 9.64309E-03 7.85970E-04-8.65462E-14
 -1       105 9.96354E-03 8.43191E-04-9.17059E-14
 -1       106 1.02723E-02 9.07280E-04-9.70063E-14
 -1       107 1.05643E-02 9.69706E-04-1.02460E-13
 -1       108 1.08369E-02 1.01855E-03-1.08051E-13
 -1       109 1.10922E-02 1.04100E-03-1.13777E-13
 -1       110 1.13373E-02 1.02733E-03-1.19618E-13
 -1       111 1.15821E-02 9.74420E-04-1.25569E-13
 -1       112 1.18361E-02 8.86880E-04-1.31646E-13
 -1       113 1.21047E-02 7.74938E-04-1.37833E-13
 -1       114 1.23882E-02 6.50442E-04-1.44114E-13
 -1       115 1.26827E-02 5.23115E-04-1.50470E-13
 -1       116 1.29824E-02 3.98543E-04-1.56882E-13
 -1       117 1.32819E-02 2.78051E-04-1.63332E-13
 -1       118 1.35773E-02 1.59795E-04-1.69826E-13
 -1       119 1.38673E-02 4.04258E-05-1.76364E-13
 -1       120 1.41534E-02-8.28898E-05-1.82919E-13
 -1       121 1.45501E-02-2.88129E-04-1.89315E-13
 -1       122 1.46795E-02-3.72032E-04-1.89494E-13
 -1       123 1.48141E-02-4.51564E-04-1.89633E-13
 -1       124 1.49526E-02-5.22902E-04-1.89763E-13
 -1       125 1.50915E-02-5.82350E-04-1.89926E-13
 -1       126 1.52233E-02-6.26178E-04-1.90118E-13
 -1       127 1.53450E-02-6.54297E-04-1.90340E-13
 -1       128 1.54459E-02-6.66675E-04-1.90570E-13
 -1       129 1.55183E-02-6.67299E-04-1.90767E-13
 -1       130 1.55571E-02-6.63008E-04-1.90930E-13
 -1       131 1.55613E-02-6.62239E-04-1.91064E-13
 -1       132 1.55360E-02-6.72823E-04-1.91181E-13
 -1       133 1.54882E-02-7.01046E-04-1.91276E-13
 -1       134 1.54289E-02-7.49536E-04-1.91343E-13
 -1       135 1.53693E-02-8.17222E-04-1.91367E-13
 -1       136 1.53178E-02-8.97641E-04-1.91357E-13
 -1       137 1.38130E-02-2.19921E-04-1.33179E-13
 -1       138 1.36577E-02-4.47202E-05-1.32306E-13
 -1       139 1.34238E-02 1.15652E-04-1.30930E-13
 -1       140 1.31044E-02 2.63685E-04-1.29024E-13
 -1       141 1.27082E-02 3.91071E-04-1.26625E-13
 -1       142 1.22792E-02 4.81748E-04-1.24011E-13
 -1       143 1.18352E-02 5.36102E-04-1.21294E-13
 -1       144 1.13718E-02 5.54008E-04-1.18456E-13
 -1       145 1.09186E-02 5.33034E-04-1.15672E-13
 -1       146 1.04768E-02 4.71584E-04-1.12965E-13
 -1       147 1.00834E-02 3.71832E-04-1.10552E-13
 -1       148 9.78651E-03 2.52877E-04-1.08738E-13
 -1       149 9.54361E-03 9.85479E-05-1.07258E-13
 -1       150 9.41136E-03-5.58390E-05-1.06444E-13
 -1       151 9.36272E-03-2.16773E-04-1.06123E-13
 -1       152 9.39975E-03-3.89869E-04-1.06318E-13
 -1       153 9.73392E-03-7.32668E-04-1.08247E-13
 -1       154 1.00400E-02-8.99896E-04-1.10016E-13
 -1       155 1.04178E-02-1.04552E-03-1.12201E-13
 -1       156 1.08574E-02-1.16154E-03-1.14755E-13
 -1       157 1.13220E-02-1.23513E-03-1.17461E-13
 -1       158 1.18495E-02-1.26381E-03-1.20582E-13
 -1       159 1.23350E-02-1.23819E-03-1.23501E-13
 -1       160 1.27877E-02-1.16524E-03-1.26274E-13
 -1       161 1.31714E-02-1.05583E-03-1.28683E-13
 -1       162 1.34917E-02-9.11976E-04-1.30754E-13
 -1       163 1.37130E-02-7.52789E-04-1.32232E-13
 -1       164 1.38423E-02-5.80196E-04-1.33145E-13
 -1       165 2.40411E-04-1.25531E-04-2.19348E-17
 -1       166 2.25276E-04-9.46291E-05-5.06085E-17
 -1       167 2.19514E-04-7.27878E-05-6.68275E-17
 -1       168 2.16713E-04-5.51122E-05-7.58230E-17
 -1       169 2.15218E-04-3.99732E-05-8.07019E-17
 -1       170 2.14383E-04-2.59215E-05-8.31312E-17
 -1       171 2.13964E-04-1.26475E-05-8.40494E-17
 -1       172 2.13843E-04 2.72731E-07-8.41747E-17
 -1       173 2.13984E-04 1.32052E-05-8.32362E-17
 -1       174 2.14424E-04 2.65189E-05-8.12881E-17
 -1       175 2.15268E-04 4.04011E-05-7.77542E-17
 -1       176 2.16816E-04 5.59231E-05-7.17471E-17
 -1       177 2.19673E-04 7.38268E-05-6.18402E-17
 -1       178 2.25447E-04 9.60288E-05-4.48284E-17
 -1       179 2.39340E-04 1.27607E-04-1.52093E-17
 -1       180 2.97719E-04 1.85514E-04 1.69576E-17
 -1       181 4.68639E-04-2.63576E-04-6.45541E-17
 -1       182 7.66789E-04-3.82185E-04-3.07287E-16
 -1       183 1.05064E-03-4.65088E-04-7.21076E-16
 -1       184 1.32803E-03-5.23886E-04-1.31041E-15
 -1       185 1.60263E-03-5.65594E-04-2.07743E-15
 -1       186 1.87650E-03-5.94900E-04-3.02269E-15
 -1       187 2.15079E-03-6.15107E-04-4.14429E-15
 -1       188 2.42608E-03-6.28633E-04-5.44069E-15
 -1       189 2.70264E-03-6.37284E-04-6.91065E-15
 -1       190 2.98052E-03-6.42411E-04-8.55284E-15
 -1       191 3.25969E-03-6.45015E-04-1.03619E-14
 -1       192 3.54003E-03-6.45827E-04-1.23328E-14
 -1       193 3.82141E-03-6.45364E-04-1.44681E-14
 -1       194 4.10370E-03-6.43972E-04-1.67658E-14
 -1       195 4.38678E-03-6.41868E-04-1.92291E-14
 -1       196 4.67058E-03-6.39165E-04-2.18557E-14
 -1       197 4.95505E-03-6.35895E-04-2.46421E-14
 -1       198 5.24020E-03-6.32035E-04-2.75852E-14
 -1       199 5.52611E-03-6.27520E-04-3.06838E-14
 -1       200 5.81293E-03-6.22265E-04-3.39357E-14
 -1       201 6.10089E-03-6.16184E-04-3.73469E-14
 -1       202 6.39033E-03-6.09223E-04-4.09133E-14
 -1       203 6.68173E-03-6.01393E-04-4.46373E-14
 -1       204 6.97569E-03-5.92827E-04-4.85135E-14
 -1       205 7.27302E-03-5.83858E-04-5.25345E-14
 -1       206 7.57469E-03-5.75138E-04-5.66987E-14
 -1       207 7.88190E-03-5.67808E-04-6.10026E-14
 -1       208 8.19603E-03-5.63734E-04-6.54442E-14
 -1       209 8.51856E-03-5.65836E-04-7.00206E-14
 -1       210 8.85092E-03-5.78475E-04-7.47319E-14
 -1       211 9.19415E-03-6.07813E-04-7.95796E-14
 -1       212 9.54834E-03-6.61851E-04-8.45599E-14
 -1       213 9.91178E-03-7.49515E-04-8.96611E-14
 -1       214 1.02801E-02-8.77740E-04-9.48811E-14
 -1       215 1.06454E-02-1.04560E-03-1.00221E-13
 -1       216 1.09978E-02-1.23638E-03-1.05690E-13
 -1       217 1.13294E-02-1.41325E-03-1.11299E-13
 -1       218 1.16408E-02-1.52860E-03-1.17055E-13
 -1       219 1.19440E-02-1.54946E-03-1.22962E-13
 -1       220 1.22555E-02-1.48030E-03-1.29031E-13
 -1       221 1.25845E-02-1.35910E-03-1.35259E-13
 -1       222 1.29291E-02-1.23127E-03-1.41620E-13
 -1       223 1.32802E-02-1.12725E-03-1.48098E-13
 -1       224 1.36279E-02-1.05733E-03-1.54670E-13
 -1       225 1.39654E-02-1.01737E-03-1.61304E-13
 -1       226 1.42891E-02-9.96241E-04-1.67990E-13
 -1       227 1.45986E-02-9.81050E-04-1.74713E-13
 -1       228 1.48959E-02-9.60096E-04-1.81479E-13
 -1       229 6.04585E-04 3.31069E-04-1.07194E-16
 -1       230 8.93684E-04 4.32704E-04-3.94965E-16
 -1       231 1.17258E-03 5.04470E-04-8.53806E-16
 -1       232 1.44692E-03 5.55575E-04-1.48635E-15
 -1       233 1.71972E-03 5.91839E-04-2.29460E-15
 -1       234 1.99261E-03 6.17239E-04-3.28007E-15
 -1       235 2.26641E-03 6.34645E-04-4.44231E-15
 -1       236 2.54153E-03 6.46183E-04-5.77817E-15
 -1       237 2.81811E-03 6.53448E-04-7.28487E-15
 -1       238 3.09613E-03 6.57632E-04-8.96256E-15
 -1       239 3.37549E-03 6.59617E-04-1.08118E-14
 -1       240 3.65604E-03 6.60038E-04-1.28302E-14
 -1       241 3.93764E-03 6.59339E-04-1.50169E-14
 -1       242 4.22014E-03 6.57816E-04-1.73715E-14
 -1       243 4.50343E-03 6.55644E-04-1.98945E-14
 -1       244 4.78744E-03 6.52913E-04-2.25837E-14
 -1       245 5.07214E-03 6.49646E-04-2.54364E-14
 -1       246 5.35756E-03 6.45827E-04-2.84524E-14
 -1       247 5.64379E-03 6.41418E-04-3.16265E-14
 -1       248 5.93099E-03 6.36386E-04-3.49634E-14
 -1       249 6.21941E-03 6.30734E-04-3.84581E-14
 -1       250 6.50936E-03 6.24538E-04-4.21107E-14
 -1       251 6.80126E-03 6.17990E-04-4.59067E-14
 -1       252 7.09560E-03 6.11464E-04-4.98459E-14
 -1       253 7.39292E-03 6.05579E-04-5.39310E-14
 -1       254 7.69378E-03 6.01287E-04-5.81578E-14
 -1       255 7.99869E-03 5.99943E-04-6.25172E-14
 -1       256 8.30797E-03 6.03360E-04-6.70054E-14
 -1       257 8.62161E-03 6.13782E-04-7.16260E-14
 -1       258 8.93904E-03 6.33718E-04-7.63854E-14
 -1       259 9.25891E-03 6.65520E-04-8.12778E-14
 -1       260 9.57892E-03 7.10618E-04-8.62919E-14
 -1       261 9.89583E-03 7.68363E-04-9.14399E-14
 -1       262 1.02058E-02 8.34698E-04-9.67256E-14
 -1       263 1.05054E-02 9.01216E-04-1.02154E-13
 -1       264 1.07927E-02 9.55539E-04-1.07722E-13
 -1       265 1.10686E-02 9.83794E-04-1.13423E-13
 -1       266 1.13373E-02 9.74879E-04-1.19245E-13
 -1       267 1.16048E-02 9.24662E-04-1.25183E-13
 -1       268 1.18773E-02 8.37560E-04-1.31244E-13
 -1       269 1.21583E-02 7.24418E-04-1.37419E-13
 -1       270 1.24482E-02 5.98099E-04-1.43687E-13
 -1       271 1.27448E-02 4.69235E-04-1.50030E-13
 -1       272 1.30444E-02 3.43954E-04-1.56433E-13
 -1       273 1.33435E-02 2.23711E-04-1.62880E-13
 -1       274 1.36394E-02 1.06472E-04-1.69372E-13
 -1       275 1.39312E-02-1.15468E-05-1.75899E-13
 -1       276 1.42193E-02-1.33787E-04-1.82444E-13
 -1       277 1.43668E-02-2.18864E-04-1.83731E-13
 -1       278 1.45000E-02-2.99202E-04-1.83900E-13
 -1       279 1.46387E-02-3.74521E-04-1.84052E-13
 -1       280 1.47807E-02-4.42545E-04-1.84211E-13
 -1       281 1.49190E-02-5.00149E-04-1.84380E-13
 -1       282 1.50518E-02-5.47778E-04-1.84564E-13
 -1       283 1.51679E-02-5.84115E-04-1.84750E-13
 -1       284 1.52582E-02-6.10848E-04-1.84921E-13
 -1       285 1.53154E-02-6.31717E-04-1.85076E-13
 -1       286 1.53359E-02-6.51991E-04-1.85208E-13
 -1       287 1.53220E-02-6.76867E-04-1.85306E-13
 -1       288 1.52801E-02-7.11938E-04-1.85382E-13
 -1       289 1.52204E-02-7.59757E-04-1.85431E-13
 -1       290 1.51552E-02-8.20910E-04-1.85455E-13
 -1       291 1.50228E-02-8.87676E-04-1.83475E-13
 -1       292 1.38799E-02-3.64022E-04-1.36075E-13
 -1       293 1.37285E-02-2.55695E-04-1.35369E-13
 -1       294 1.34712E-02-1.13126E-04-1.33851E-13
 -1       295 1.31268E-02 4.86783E-05-1.32021E-13
 -1       296 1.27162E-02 2.35135E-04-1.29636E-13
 -1       297 1.23275E-02 4.26727E-04-1.26424E-13
 -1       298 1.19467E-02 5.62395E-04-1.23244E-13
 -1       299 1.15787E-02 6.28025E-04-1.19942E-13
 -1       300 1.12134E-02 6.14563E-04-1.16589E-13
 -1       301 1.08350E-02 5.17269E-04-1.13326E-13
 -1       302 1.04449E-02 3.59541E-04-1.10215E-13
 -1       303 1.00619E-02 1.97731E-04-1.07934E-13
 -1       304 9.73929E-03 2.87573E-05-1.05633E-13
 -1       305 9.48275E-03-7.83987E-05-1.04827E-13
 -1       306 9.35553E-03-1.76110E-04-1.04176E-13
 -1       307 9.34382E-03-2.66069E-04-1.03956E-13
 -1       308 9.45548E-03-3.70339E-04-1.04598E-13
 -1       309 9.67951E-03-5.02355E-04-1.05697E-13
 -1       310 1.00068E-02-6.76931E-04-1.07429E-13
 -1       311 1.04022E-02-8.76379E-04-1.09622E-13
 -1       312 1.08030E-02-1.08455E-03-1.12471E-13
 -1       313 1.12049E-02-1.24644E-03-1.15540E-13
 -1       314 1.16147E-02-1.34265E-03-1.18943E-13
 -1       315 1.20122E-02-1.32496E-03-1.22616E-13
 -1       316 1.24180E-02-1.20962E-03-1.25958E-13
 -1       317 1.28255E-02-1.04589E-03-1.28966E-13
 -1       318 1.32051E-02-8.60214E-04-1.31764E-13
 -1       319 1.35423E-02-7.00650E-04-1.33740E-13
 -1       320 1.37787E-02-5.68403E-04-1.35159E-13
 -1       321 1.38966E-02-4.60890E-04-1.35888E-13
 -1       322 4.55392E-04-1.64834E-04-2.33114E-16
 -1       323 4.74268E-04-2.13010E-04-1.84775E-16
 -1       324 4.40439E-04-9.40382E-05-2.80900E-16
 -1       325 4.37480E-04-6.49289E-05-2.91427E-16
 -1       326 4.35861E-04-3.79158E-05-2.96993E-16
 -1       327 4.35152E-04-1.20208E-05-2.98745E-16
 -1       328 4.35182E-04 1.35393E-05-2.97695E-16
 -1       329 4.35959E-04 3.94912E-05-2.93385E-16
 -1       330 4.37624E-04 6.61530E-05-2.85328E-16
 -1       331 4.40680E-04 9.54324E-05-2.72158E-16
 -1       332 4.46067E-04 1.28348E-04-2.51471E-16
 -1       333 4.55902E-04 1.67329E-04-2.19209E-16
 -1       334 4.75897E-04 2.17071E-04-1.68729E-16
 -1       335 5.32028E-04 2.70001E-04-1.47448E-16
 -1       336 8.24512E-04 3.73553E-04-4.43229E-16
 -1       337 8.63284E-04-3.57448E-04-6.10819E-16
 -1       338 1.14964E-03-4.26228E-04-1.13974E-15
 -1       339 1.43242E-03-4.75417E-04-1.84049E-15
 -1       340 1.71313E-03-5.10165E-04-2.71459E-15
 -1       341 1.99290E-03-5.34270E-04-3.76338E-15
 -1       342 2.27249E-03-5.50550E-04-4.98481E-15
 -1       343 2.55235E-03-5.61116E-04-6.37719E-15
 -1       344 2.83276E-03-5.67548E-04-7.94102E-15
 -1       345 3.11384E-03-5.71026E-04-9.67274E-15
 -1       346 3.39560E-03-5.72412E-04-1.15666E-14
 -1       347 3.67804E-03-5.72323E-04-1.36222E-14
 -1       348 3.96110E-03-5.71185E-04-1.58410E-14
 -1       349 4.24475E-03-5.69270E-04-1.82223E-14
 -1       350 4.52893E-03-5.66731E-04-2.07692E-14
 -1       351 4.81362E-03-5.63630E-04-2.34759E-14
 -1       352 5.09883E-03-5.59960E-04-2.63405E-14
 -1       353 5.38461E-03-5.55662E-04-2.93613E-14
 -1       354 5.67104E-03-5.50644E-04-3.25359E-14
 -1       355 5.95826E-03-5.44804E-04-3.58663E-14
 -1       356 6.24648E-03-5.38047E-04-3.93528E-14
 -1       357 6.53596E-03-5.30323E-04-4.29961E-14
 -1       358 6.82706E-03-5.21668E-04-4.67943E-14
 -1       359 7.12024E-03-5.12268E-04-5.07401E-14
 -1       360 7.41604E-03-5.02552E-04-5.48307E-14
 -1       361 7.71512E-03-4.93329E-04-5.90618E-14
 -1       362 8.01827E-03-4.85981E-04-6.34318E-14
 -1       363 8.32642E-03-4.82728E-04-6.79394E-14
 -1       364 8.64064E-03-4.86983E-04-7.25766E-14
 -1       365 8.96220E-03-5.03743E-04-7.73470E-14
 -1       366 9.29259E-03-5.39919E-04-8.22500E-14
 -1       367 9.63343E-03-6.04270E-04-8.72799E-14
 -1       368 9.98594E-03-7.06231E-04-9.24285E-14
 -1       369 1.03495E-02-8.52363E-04-9.76941E-14
 -1       370 1.07191E-02-1.03896E-03-1.03085E-13
 -1       371 1.10846E-02-1.24134E-03-1.08609E-13
 -1       372 1.14356E-02-1.40918E-03-1.14283E-13
 -1       373 1.17734E-02-1.48574E-03-1.20107E-13
 -1       374 1.21119E-02-1.44939E-03-1.26090E-13
 -1       375 1.24629E-02-1.33285E-03-1.32237E-13
 -1       376 1.28238E-02-1.19327E-03-1.38529E-13
 -1       377 1.31836E-02-1.07376E-03-1.44942E-13
 -1       378 1.35332E-02-9.91281E-04-1.51449E-13
 -1       379 1.38687E-02-9.44106E-04-1.58036E-13
 -1       380 1.41903E-02-9.21679E-04-1.64680E-13
 -1       381 1.44993E-02-9.10891E-04-1.71375E-13
 -1       382 1.47644E-02-9.03871E-04-1.77407E-13
 -1       383 1.10999E-03 4.47891E-04-9.04984E-16
 -1       384 1.39074E-03 5.00971E-04-1.53654E-15
 -1       385 1.66905E-03 5.38597E-04-2.34137E-15
 -1       386 1.94644E-03 5.64889E-04-3.32030E-15
 -1       387 2.22385E-03 5.82851E-04-4.47342E-15
 -1       388 2.50181E-03 5.94716E-04-5.79928E-15
 -1       389 2.78060E-03 6.02152E-04-7.29500E-15
 -1       390 3.06032E-03 6.06408E-04-8.95995E-15
 -1       391 3.34098E-03 6.08402E-04-1.07945E-14
 -1       392 3.62252E-03 6.08798E-04-1.27969E-14
 -1       393 3.90487E-03 6.08059E-04-1.49673E-14
 -1       394 4.18793E-03 6.06491E-04-1.73042E-14
 -1       395 4.47165E-03 6.04276E-04-1.98089E-14
 -1       396 4.75598E-03 6.01505E-04-2.24793E-14
 -1       397 5.04090E-03 5.98202E-04-2.53136E-14
 -1       398 5.32645E-03 5.94342E-04-2.83097E-14
 -1       399 5.61269E-03 5.89879E-04-3.14651E-14
 -1       400 5.89977E-03 5.84766E-04-3.47811E-14
 -1       401 6.18787E-03 5.78987E-04-3.82558E-14
 -1       402 6.47726E-03 5.72592E-04-4.18863E-14
 -1       403 6.76825E-03 5.65740E-04-4.56633E-14
 -1       404 7.06123E-03 5.58764E-04-4.95818E-14
 -1       405 7.35663E-03 5.52236E-04-5.36460E-14
 -1       406 7.65494E-03 5.47052E-04-5.78531E-14
 -1       407 7.95657E-03 5.44516E-04-6.21951E-14
 -1       408 8.26191E-03 5.46400E-04-6.66653E-14
 -1       409 8.57111E-03 5.54947E-04-7.12723E-14
 -1       410 8.88401E-03 5.72741E-04-7.60133E-14
 -1       411 9.19995E-03 6.02347E-04-8.08869E-14
 -1       412 9.51757E-03 6.45599E-04-8.58838E-14
 -1       413 9.83470E-03 7.02472E-04-9.10129E-14
 -1       414 1.01484E-02 7.69648E-04-9.62793E-14
 -1       415 1.04555E-02 8.39279E-04-1.01684E-13
 -1       416 1.07537E-02 8.98912E-04-1.07228E-13
 -1       417 1.10427E-02 9.33654E-04-1.12906E-13
 -1       418 1.13252E-02 9.30706E-04-1.18706E-13
 -1       419 1.16063E-02 8.84425E-04-1.24628E-13
 -1       420 1.18909E-02 7.98748E-04-1.30677E-13
 -1       421 1.21822E-02 6.85111E-04-1.36837E-13
 -1       422 1.24800E-02 5.57488E-04-1.43093E-13
 -1       423 1.27820E-02 4.27475E-04-1.49427E-13
 -1       424 1.30851E-02 3.01745E-04-1.55821E-13
 -1       425 1.33863E-02 1.81923E-04-1.62264E-13
 -1       426 1.36838E-02 6.58921E-05-1.68752E-13
 -1       427 1.39768E-02-5.04144E-05-1.75272E-13
 -1       428 1.41726E-02-1.33414E-04-1.79499E-13
 -1       429 1.44636E-02-3.11281E-04-1.78487E-13
 -1       430 1.43211E-02-2.34637E-04-1.78320E-13
 -1       431 1.42448E-02-1.84609E-04-1.78913E-13
 -1       432 1.46059E-02-3.81042E-04-1.78646E-13
 -1       433 1.47474E-02-4.44429E-04-1.78808E-13
 -1       434 1.48774E-02-4.98759E-04-1.78964E-13
 -1       435 1.49859E-02-5.43921E-04-1.79109E-13
 -1       436 1.50633E-02-5.81761E-04-1.79249E-13
 -1       437 1.51029E-02-6.16097E-04-1.79367E-13
 -1       438 1.51037E-02-6.51259E-04-1.79460E-13
 -1       439 1.50707E-02-6.93107E-04-1.79526E-13
 -1       440 1.50132E-02-7.44296E-04-1.79563E-13
 -1       441 1.49440E-02-8.06064E-04-1.79582E-13
 -1       442 1.35789E-02-2.65171E-04-1.37709E-13
 -1       443 1.39249E-02-4.25362E-04-1.38927E-13
 -1       444 1.38276E-02-3.62412E-04-1.38773E-13
 -1       445 1.32957E-02-1.38291E-04-1.35836E-13
 -1       446 1.28787E-02 7.06632E-05-1.32962E-13
 -1       447 4.45680E-04-1.26442E-04-2.62760E-16
 -1       448 1.20632E-02 5.06494E-04-1.25796E-13
 -1       449 1.17243E-02 6.30882E-04-1.21917E-13
 -1       450 1.14056E-02 6.64920E-04-1.18181E-13
 -1       451 1.10592E-02 5.93191E-04-1.14116E-13
 -1       452 1.07062E-02 4.41192E-04-1.10426E-13
 -1       453 1.02801E-02 2.26605E-04-1.06925E-13
 -1       454 9.95966E-03 7.10408E-05-1.04641E-13
 -1       455 9.57590E-03-8.65227E-05-1.02861E-13
 -1       456 9.40673E-03-1.54131E-04-1.02217E-13
 -1       457 9.31847E-03-2.14667E-04-1.01797E-13
 -1       458 9.38094E-03-2.76852E-04-1.02050E-13
 -1       459 9.57016E-03-3.64359E-04-1.03007E-13
 -1       460 9.88411E-03-4.98150E-04-1.04237E-13
 -1       461 1.02638E-02-6.95526E-04-1.06447E-13
 -1       462 1.07062E-02-9.55266E-04-1.09623E-13
 -1       463 1.10768E-02-1.17523E-03-1.13153E-13
 -1       464 1.14219E-02-1.32455E-03-1.16572E-13
 -1       465 1.18102E-02-1.37791E-03-1.20983E-13
 -1       466 1.21947E-02-1.28506E-03-1.25428E-13
 -1       467 1.25679E-02-1.11113E-03-1.29081E-13
 -1       468 1.29410E-02-9.13255E-04-1.32426E-13
 -1       469 1.33536E-02-7.12466E-04-1.35200E-13
 -1       470 1.36612E-02-5.76397E-04-1.37143E-13
 -1       471 1.38672E-02-4.83660E-04-1.38762E-13
 -1       472 1.23963E-02 3.35481E-04-1.29005E-13
 -1       473 1.26040E-02 1.92738E-04-1.32316E-13
 -1       474 1.16217E-02-1.38505E-03-1.18583E-13
 -1       475 9.74385E-03-2.47203E-05-1.01864E-13
 -1       476 9.31262E-04 3.46086E-04-7.66683E-16
 -1       477 6.65846E-04-7.51563E-05-6.33130E-16
 -1       478 6.69806E-04-1.15925E-04-6.18029E-16
 -1       479 6.63179E-04 1.10498E-06-6.41384E-16
 -1       480 6.63898E-04 3.87785E-05-6.36250E-16
 -1       481 6.66033E-04 7.68425E-05-6.24707E-16
 -1       482 6.70119E-04 1.17763E-04-6.05022E-16
 -1       483 6.77122E-04 1.62388E-04-5.74939E-16
 -1       484 6.89029E-04 2.12756E-04-5.30138E-16
 -1       485 1.21715E-03 4.06592E-04-1.34127E-15
 -1       486 9.76303E-04-3.28673E-04-9.53369E-16
 -1       487 7.12654E-04-2.51775E-04-5.30978E-16
 -1       488 1.30774E-02-7.05344E-05-1.37111E-13
 -1       489 1.26221E-03-3.83575E-04-1.59131E-15
 -1       490 1.54723E-03-4.23340E-04-2.39827E-15
 -1       491 1.83136E-03-4.51411E-04-3.37593E-15
 -1       492 2.11489E-03-4.70682E-04-4.52381E-15
 -1       493 2.39816E-03-4.83439E-04-5.84147E-15
 -1       494 2.68140E-03-4.91443E-04-7.32879E-15
 -1       495 2.96478E-03-4.96028E-04-8.98273E-15
 -1       496 3.24840E-03-4.98187E-04-1.08002E-14
 -1       497 3.53230E-03-4.98641E-04-1.27793E-14
 -1       498 3.81650E-03-4.97894E-04-1.49184E-14
 -1       499 4.10099E-03-4.96283E-04-1.72212E-14
 -1       500 4.38578E-03-4.94010E-04-1.96854E-14
 -1       501 4.67085E-03-4.91175E-04-2.23126E-14
 -1       502 4.95623E-03-4.87797E-04-2.50992E-14
 -1       503 5.24191E-03-4.83836E-04-2.80437E-14
 -1       504 5.52796E-03-4.79212E-04-3.11413E-14
 -1       505 5.81442E-03-4.73821E-04-3.43935E-14
 -1       506 6.10139E-03-4.67556E-04-3.78005E-14
 -1       507 6.38898E-03-4.60336E-04-4.13643E-14
 -1       508 6.67732E-03-4.52137E-04-4.50829E-14
 -1       509 6.96659E-03-4.43047E-04-4.89527E-14
 -1       510 7.25700E-03-4.33331E-04-5.29702E-14
 -1       511 7.54879E-03-4.23537E-04-5.71294E-14
 -1       512 7.84226E-03-4.14630E-04-6.14281E-14
 -1       513 8.13783E-03-4.08186E-04-6.58631E-14
 -1       514 8.43614E-03-4.06640E-04-7.04302E-14
 -1       515 8.73824E-03-4.13603E-04-7.51288E-14
 -1       516 9.04600E-03-4.34228E-04-7.99570E-14
 -1       517 9.36253E-03-4.75592E-04-8.49105E-14
 -1       518 9.69259E-03-5.46944E-04-8.99900E-14
 -1       519 1.00418E-02-6.59268E-04-9.51855E-14
 -1       520 1.04137E-02-8.21794E-04-1.00497E-13
 -1       521 1.08035E-02-1.03199E-03-1.05937E-13
 -1       522 1.11948E-02-1.25321E-03-1.11522E-13
 -1       523 1.15722E-02-1.40686E-03-1.17258E-13
 -1       524 1.19414E-02-1.42198E-03-1.23155E-13
 -1       525 1.23216E-02-1.31022E-03-1.29224E-13
 -1       526 1.27113E-02-1.15034E-03-1.35452E-13
 -1       527 1.30940E-02-1.01142E-03-1.41803E-13
 -1       528 1.34555E-02-9.17802E-04-1.48254E-13
 -1       529 1.37936E-02-8.66294E-04-1.54786E-13
 -1       530 1.41125E-02-8.44394E-04-1.61387E-13
 -1       531 1.44176E-02-8.38460E-04-1.68043E-13
 -1       532 1.78399E-03 4.81178E-04-2.99660E-15
 -1       533 2.06598E-03 5.02530E-04-4.08028E-15
 -1       534 2.34771E-03 5.16833E-04-5.33370E-15
 -1       535 2.62954E-03 5.25991E-04-6.75622E-15
 -1       536 2.91167E-03 5.31438E-04-8.34734E-15
 -1       537 3.19421E-03 5.34245E-04-1.01058E-14
 -1       538 3.47720E-03 5.35191E-04-1.20305E-14
 -1       539 3.76064E-03 5.34829E-04-1.41215E-14
 -1       540 4.04453E-03 5.33532E-04-1.63780E-14
 -1       541 4.32883E-03 5.31536E-04-1.88016E-14
 -1       542 4.61353E-03 5.28966E-04-2.13897E-14
 -1       543 4.89863E-03 5.25870E-04-2.41427E-14
 -1       544 5.18413E-03 5.22237E-04-2.70577E-14
 -1       545 5.47010E-03 5.18018E-04-3.01324E-14
 -1       546 5.75659E-03 5.13152E-04-3.33660E-14
 -1       547 6.04372E-03 5.07589E-04-3.67588E-14
 -1       548 6.33164E-03 5.01322E-04-4.03073E-14
 -1       549 6.62056E-03 4.94426E-04-4.40059E-14
 -1       550 6.91071E-03 4.87107E-04-4.78479E-14
 -1       551 7.20241E-03 4.79767E-04-5.18352E-14
 -1       552 7.49602E-03 4.73079E-04-5.59651E-14
 -1       553 7.79196E-03 4.68070E-04-6.02364E-14
 -1       554 8.09072E-03 4.66209E-04-6.46388E-14
 -1       555 8.39282E-03 4.69457E-04-6.91756E-14
 -1       556 8.69878E-03 4.80261E-04-7.38499E-14
 -1       557 9.00901E-03 5.01388E-04-7.86524E-14
 -1       558 9.32362E-03 5.35518E-04-8.35836E-14
 -1       559 9.64208E-03 5.84411E-04-8.86413E-14
 -1       560 9.96275E-03 6.47563E-04-9.38324E-14
 -1       561 1.02827E-02 7.20401E-04-9.91587E-14
 -1       562 1.05980E-02 7.92698E-04-1.04622E-13
 -1       563 1.09055E-02 8.48744E-04-1.10223E-13
 -1       564 1.12052E-02 8.70961E-04-1.15952E-13
 -1       565 1.15008E-02 8.46929E-04-1.21807E-13
 -1       566 1.17984E-02 7.75631E-04-1.27795E-13
 -1       567 1.21020E-02 6.67744E-04-1.33901E-13
 -1       568 1.24122E-02 5.39867E-04-1.40109E-13
 -1       569 1.27256E-02 4.07124E-04-1.46407E-13
 -1       570 1.30384E-02 2.78948E-04-1.52773E-13
 -1       571 1.33473E-02 1.58543E-04-1.59193E-13
 -1       572 1.36505E-02 4.44257E-05-1.65659E-13
 -1       573 1.39474E-02-6.75619E-05-1.72166E-13
 -1       574 1.44317E-02-3.39602E-04-1.73070E-13
 -1       575 1.45746E-02-4.10189E-04-1.73210E-13
 -1       576 1.41403E-02-1.80857E-04-1.72755E-13
 -1       577 1.42851E-02-2.62456E-04-1.72917E-13
 -1       578 1.47022E-02-4.71380E-04-1.73339E-13
 -1       579 1.48026E-02-5.22913E-04-1.73460E-13
 -1       580 1.48651E-02-5.67371E-04-1.73564E-13
 -1       581 1.48841E-02-6.09121E-04-1.73646E-13
 -1       582 1.48623E-02-6.55413E-04-1.73700E-13
 -1       583 1.48082E-02-7.09980E-04-1.73733E-13
 -1       584 1.47352E-02-7.74579E-04-1.73751E-13
 -1       585 1.39322E-02-4.18498E-04-1.42334E-13
 -1       586 1.37588E-02-3.57643E-04-1.42124E-13
 -1       587 1.39520E-02-4.52987E-04-1.42173E-13
 -1       588 1.50125E-03 4.50279E-04-2.08394E-15
 -1       589 1.34560E-02-2.42168E-04-1.39606E-13
 -1       590 1.22022E-02 4.17877E-04-1.28901E-13
 -1       591 1.04758E-02 3.36032E-04-1.06625E-13
 -1       592 6.63787E-04-3.65331E-05-6.40747E-16
 -1       593 1.15665E-02 6.74201E-04-1.20493E-13
 -1       594 9.30437E-03-2.24146E-04-9.92166E-14
 -1       595 1.18426E-02 5.96643E-04-1.24351E-13
 -1       596 1.12344E-02 6.61916E-04-1.15735E-13
 -1       597 1.08878E-02 5.43843E-04-1.11096E-13
 -1       598 1.01978E-02 1.88712E-04-1.04348E-13
 -1       599 9.43972E-03-1.35734E-04-9.95955E-14
 -1       600 9.31549E-03-1.83541E-04-9.91856E-14
 -1       601 9.45034E-03-2.84750E-04-1.00201E-13
 -1       602 9.68542E-03-3.73354E-04-1.01040E-13
 -1       603 1.00702E-02-5.52727E-04-1.03138E-13
 -1       604 1.05024E-02-7.99239E-04-1.06160E-13
 -1       605 1.09608E-02-1.08919E-03-1.10392E-13
 -1       606 1.12587E-02-1.26094E-03-1.13767E-13
 -1       607 1.19982E-02-1.37220E-03-1.23747E-13
 -1       608 1.23899E-02-1.20663E-03-1.28708E-13
 -1       609 1.27424E-02-1.01549E-03-1.32619E-13
 -1       610 1.31775E-02-7.83642E-04-1.36540E-13
 -1       611 1.35391E-02-6.18883E-04-1.39376E-13
 -1       612 1.37940E-02-5.19722E-04-1.41005E-13
 -1       613 7.03821E-04 2.90936E-04-4.11888E-16
 -1       614 6.76596E-04-1.60162E-04-5.92757E-16
 -1       615 1.28422E-02 5.22158E-05-1.36440E-13
 -1       616 9.95645E-03 8.93143E-05-1.01563E-13
 -1       617 1.46164E-02-8.38552E-04-1.72569E-13
 -1       618 8.99803E-04 7.41387E-05-1.09369E-15
 -1       619 8.97719E-04 2.51883E-05-1.10657E-15
 -1       620 9.11856E-04 1.78283E-04-1.03306E-15
 -1       621 9.24210E-04 2.36857E-04-9.78597E-16
 -1       622 1.04889E-03 3.13990E-04-1.13125E-15
 -1       623 1.39508E-02-4.16282E-04-1.46619E-13
 -1       624 1.33463E-03 3.61640E-04-1.81408E-15
 -1       625 8.72353E-04-2.47218E-04-8.71831E-16
 -1       626 1.15615E-03-2.99486E-04-1.48381E-15
 -1       627 1.44189E-03-3.38912E-04-2.26154E-15
 -1       628 1.72820E-03-3.67473E-04-3.20649E-15
 -1       629 2.01454E-03-3.87461E-04-4.31882E-15
 -1       630 2.30072E-03-4.00921E-04-5.59891E-15
 -1       631 2.58673E-03-4.09533E-04-7.04635E-15
 -1       632 2.87260E-03-4.14618E-04-8.65931E-15
 -1       633 3.15837E-03-4.17183E-04-1.04352E-14
 -1       634 3.44408E-03-4.17971E-04-1.23709E-14
 -1       635 3.72977E-03-4.17511E-04-1.44676E-14
 -1       636 4.01544E-03-4.16163E-04-1.67246E-14
 -1       637 4.30113E-03-4.14151E-04-1.91426E-14
 -1       638 4.58683E-03-4.11594E-04-2.17229E-14
 -1       639 4.87257E-03-4.08530E-04-2.44645E-14
 -1       640 5.15833E-03-4.04935E-04-2.73655E-14
 -1       641 5.44414E-03-4.00742E-04-3.04200E-14
 -1       642 5.72997E-03-3.95860E-04-3.36273E-14
 -1       643 6.01584E-03-3.90189E-04-3.69902E-14
 -1       644 6.30172E-03-3.83648E-04-4.05078E-14
 -1       645 6.58757E-03-3.76201E-04-4.41798E-14
 -1       646 6.87334E-03-3.67899E-04-4.80031E-14
 -1       647 7.15894E-03-3.58936E-04-5.19739E-14
 -1       648 7.44428E-03-3.49722E-04-5.60890E-14
 -1       649 7.72923E-03-3.40976E-04-6.03435E-14
 -1       650 8.01371E-03-3.33847E-04-6.47385E-14
 -1       651 8.29781E-03-3.30060E-04-6.92654E-14
 -1       652 8.58202E-03-3.32094E-04-7.39209E-14
 -1       653 8.86772E-03-3.43421E-04-7.87042E-14
 -1       654 9.15791E-03-3.68899E-04-8.36098E-14
 -1       655 9.45823E-03-4.15571E-04-8.86427E-14
 -1       656 9.77806E-03-4.94320E-04-9.37944E-14
 -1       657 1.01300E-02-6.22195E-04-9.90572E-14
 -1       658 1.09059E-02-1.05921E-03-1.08767E-13
 -1       659 1.25966E-02-1.12948E-03-1.32366E-13
 -1       660 1.30062E-02-9.58890E-04-1.38667E-13
 -1       661 1.33824E-02-8.50100E-04-1.45071E-13
 -1       662 1.37237E-02-7.95083E-04-1.51550E-13
 -1       663 1.40389E-02-7.74933E-04-1.58108E-13
 -1       664 1.43380E-02-7.73894E-04-1.64726E-13
 -1       665 2.19067E-03 4.37540E-04-4.86280E-15
 -1       666 9.50266E-03-2.96347E-04-9.79764E-14
 -1       667 1.90568E-03 4.20795E-04-3.67913E-15
 -1       668 2.76010E-03 4.55334E-04-7.73040E-15
 -1       669 3.04478E-03 4.59121E-04-9.41447E-15
 -1       670 3.32953E-03 4.60776E-04-1.12634E-14
 -1       671 3.61438E-03 4.60935E-04-1.32774E-14
 -1       672 3.89937E-03 4.60040E-04-1.54548E-14
 -1       673 4.18451E-03 4.58379E-04-1.77987E-14
 -1       674 4.46979E-03 4.56122E-04-2.03066E-14
 -1       675 4.75523E-03 4.53345E-04-2.29776E-14
 -1       676 5.04083E-03 4.50059E-04-2.58129E-14
 -1       677 5.32662E-03 4.46226E-04-2.88088E-14
 -1       678 5.61262E-03 4.41784E-04-3.19608E-14
 -1       679 5.89889E-03 4.36665E-04-3.52719E-14
 -1       680 6.18549E-03 4.30820E-04-3.87386E-14
 -1       681 6.47251E-03 4.24255E-04-4.23575E-14
 -1       682 6.76009E-03 4.17068E-04-4.61225E-14
 -1       683 7.04841E-03 4.09497E-04-5.00319E-14
 -1       684 7.33773E-03 4.01990E-04-5.40877E-14
 -1       685 7.62842E-03 3.95272E-04-5.82851E-14
 -1       686 7.92097E-03 3.90434E-04-6.26187E-14
 -1       687 8.21609E-03 3.89016E-04-6.70854E-14
 -1       688 8.51473E-03 3.93073E-04-7.16889E-14
 -1       689 8.81808E-03 4.05191E-04-7.64277E-14
 -1       690 9.12748E-03 4.28385E-04-8.12902E-14
 -1       691 9.44405E-03 4.65739E-04-8.62806E-14
 -1       692 9.76802E-03 5.19529E-04-9.14014E-14
 -1       693 1.00978E-02 5.89476E-04-9.66500E-14
 -1       694 1.04290E-02 6.70025E-04-1.02031E-13
 -1       695 1.07557E-02 7.47434E-04-1.07551E-13
 -1       696 1.10731E-02 7.99989E-04-1.13204E-13
 -1       697 1.13826E-02 8.05341E-04-1.18992E-13
 -1       698 1.16913E-02 7.52614E-04-1.24914E-13
 -1       699 1.20068E-02 6.50381E-04-1.30963E-13
 -1       700 1.23310E-02 5.19145E-04-1.37124E-13
 -1       701 1.26599E-02 3.80736E-04-1.43386E-13
 -1       702 1.29869E-02 2.48710E-04-1.49722E-13
 -1       703 1.33073E-02 1.27792E-04-1.56122E-13
 -1       704 1.36188E-02 1.65511E-05-1.62574E-13
 -1       705 1.38820E-02-8.35892E-05-1.67656E-13
 -1       706 1.20056E-02 5.29464E-04-1.27676E-13
 -1       707 1.45310E-02-4.58947E-04-1.67714E-13
 -1       708 1.10530E-02 6.42391E-04-1.12815E-13
 -1       709 1.42569E-02-3.14718E-04-1.67487E-13
 -1       710 1.46224E-02-5.13088E-04-1.67806E-13
 -1       711 1.44039E-02-3.92923E-04-1.67607E-13
 -1       712 1.46657E-02-5.59388E-04-1.67875E-13
 -1       713 1.46590E-02-6.07363E-04-1.67926E-13
 -1       714 1.46090E-02-6.63467E-04-1.67953E-13
 -1       715 1.37479E-02-5.70546E-04-1.43953E-13
 -1       716 1.62033E-03 3.96311E-04-2.66312E-15
 -1       717 1.39532E-02-4.92299E-04-1.45191E-13
 -1       718 1.30088E-02-9.02681E-04-1.37049E-13
 -1       719 1.16909E-02 6.59371E-04-1.22992E-13
 -1       720 1.40175E-02-4.48082E-04-1.46463E-13
 -1       721 1.34147E-02-7.02547E-04-1.40931E-13
 -1       722 2.47543E-03 4.48536E-04-6.21277E-15
 -1       723 9.04242E-04 1.24659E-04-1.06998E-15
 -1       724 9.54242E-03-6.92497E-05-9.78725E-14
 -1       725 9.32704E-03-2.34709E-04-9.70882E-14
 -1       726 9.03869E-04-1.22247E-04-1.08618E-15
 -1       727 1.45440E-02-7.69226E-04-1.69229E-13
 -1       728 1.02367E-02 2.70044E-04-1.02597E-13
 -1       729 9.30341E-03-1.52883E-04-9.64195E-14
 -1       730 1.13900E-02 7.01263E-04-1.18092E-13
 -1       731 9.24519E-03-1.90577E-04-9.64573E-14
 -1       732 9.82009E-03-4.28468E-04-9.94188E-14
 -1       733 1.02482E-02-6.51933E-04-1.02370E-13
 -1       734 1.06331E-02 4.68795E-04-1.07041E-13
 -1       735 1.24602E-02 2.71315E-04-1.32966E-13
 -1       736 9.11246E-04-1.75639E-04-1.05554E-15
 -1       737 8.97657E-04-2.31655E-05-1.10994E-15
 -1       738 1.36412E-02-3.09042E-04-1.44583E-13
 -1       739 1.05841E-02-8.65829E-04-1.04599E-13
 -1       740 1.40268E-02-1.73881E-04-1.67817E-13
 -1       741 1.22502E-02 4.10353E-04-1.31714E-13
 -1       742 1.44814E-02-7.12753E-04-1.66348E-13
 -1       743 1.33305E-02-1.81892E-04-1.42049E-13
 -1       744 1.41411E-02-2.45549E-04-1.67657E-13
 -1       745 8.99596E-04-7.18522E-05-1.10361E-15
 -1       746 1.31280E-02-7.54630E-05-1.41356E-13
 -1       747 1.18623E-02 6.17540E-04-1.26471E-13
 -1       748 1.16157E-03 2.43727E-04-1.56319E-15
 -1       749 9.20310E-03-1.97426E-04-9.38328E-14
 -1       750 9.95671E-03-5.19896E-04-9.81747E-14
 -1       751 1.28328E-03-2.57346E-04-1.92385E-15
 -1       752 1.56934E-03-2.86509E-04-2.79943E-15
 -1       753 1.85665E-03-3.07615E-04-3.84017E-15
 -1       754 2.14448E-03-3.22270E-04-5.04649E-15
 -1       755 2.43241E-03-3.31974E-04-6.41887E-15
 -1       756 2.72022E-03-3.37994E-04-7.95631E-15
 -1       757 3.00781E-03-3.41338E-04-9.65617E-15
 -1       758 3.29516E-03-3.42774E-04-1.15154E-14
 -1       759 3.58224E-03-3.42867E-04-1.35346E-14
 -1       760 3.86908E-03-3.42013E-04-1.57137E-14
 -1       761 4.15568E-03-3.40471E-04-1.80534E-14
 -1       762 4.44206E-03-3.38395E-04-2.05535E-14
 -1       763 4.72823E-03-3.35854E-04-2.32150E-14
 -1       764 5.01419E-03-3.32854E-04-2.60376E-14
 -1       765 5.29990E-03-3.29357E-04-2.90178E-14
 -1       766 5.58534E-03-3.25293E-04-3.21501E-14
 -1       767 5.87043E-03-3.20582E-04-3.54356E-14
 -1       768 6.15507E-03-3.15151E-04-3.88765E-14
 -1       769 6.43912E-03-3.08956E-04-4.24686E-14
 -1       770 6.72238E-03-3.02020E-04-4.62162E-14
 -1       771 7.00459E-03-2.94465E-04-5.01097E-14
 -1       772 7.28540E-03-2.86569E-04-5.41473E-14
 -1       773 7.56439E-03-2.78822E-04-5.83304E-14
 -1       774 7.84110E-03-2.71994E-04-6.26540E-14
 -1       775 8.11504E-03-2.67200E-04-6.71137E-14
 -1       776 8.38586E-03-2.65958E-04-7.17025E-14
 -1       777 8.65364E-03-2.70249E-04-7.64190E-14
 -1       778 8.91933E-03-2.82646E-04-8.12571E-14
 -1       779 9.18586E-03-3.06865E-04-8.62169E-14
 -1       780 9.45992E-03-3.48910E-04-9.13026E-14
 -1       781 1.36992E-02-7.00724E-04-1.48338E-13
 -1       782 1.39982E-02-6.88645E-04-1.54850E-13
 -1       783 1.42417E-02-6.97899E-04-1.60576E-13
 -1       784 2.03276E-03 3.57729E-04-4.38794E-15
 -1       785 3.18006E-03 3.85504E-04-1.04966E-14
 -1       786 2.89349E-03 3.83081E-04-8.72205E-15
 -1       787 3.75275E-03 3.85879E-04-1.45357E-14
 -1       788 4.03890E-03 3.84659E-04-1.68003E-14
 -1       789 4.32495E-03 3.82819E-04-1.92292E-14
 -1       790 4.61090E-03 3.80471E-04-2.18207E-14
 -1       791 4.89678E-03 3.77649E-04-2.45752E-14
 -1       792 5.18257E-03 3.74336E-04-2.74902E-14
 -1       793 5.46828E-03 3.70478E-04-3.05634E-14
 -1       794 5.75391E-03 3.66002E-04-3.37931E-14
 -1       795 6.03946E-03 3.60839E-04-3.71796E-14
 -1       796 6.32494E-03 3.54943E-04-4.07195E-14
 -1       797 6.61037E-03 3.48325E-04-4.44065E-14
 -1       798 6.89581E-03 3.41088E-04-4.82391E-14
 -1       799 7.18141E-03 3.33473E-04-5.22174E-14
 -1       800 7.46739E-03 3.25915E-04-5.63420E-14
 -1       801 7.75416E-03 3.19115E-04-6.06058E-14
 -1       802 8.04241E-03 3.14120E-04-6.50044E-14
 -1       803 8.33318E-03 3.12419E-04-6.95377E-14
 -1       804 8.62799E-03 3.16060E-04-7.42071E-14
 -1       805 8.92893E-03 3.27767E-04-7.90063E-14
 -1       806 9.23855E-03 3.51043E-04-8.39276E-14
 -1       807 9.55930E-03 3.90047E-04-8.89805E-14
 -1       808 9.89223E-03 4.48825E-04-9.41537E-14
 -1       809 1.02358E-02 5.28279E-04-9.94567E-14
 -1       810 1.05824E-02 6.21814E-04-1.04896E-13
 -1       811 1.09233E-02 7.09291E-04-1.10469E-13
 -1       812 1.12518E-02 7.56161E-04-1.16182E-13
 -1       813 1.15734E-02 7.33470E-04-1.22037E-13
 -1       814 1.25884E-02 3.49231E-04-1.40355E-13
 -1       815 1.29332E-02 2.09347E-04-1.46666E-13
 -1       816 1.32678E-02 8.68737E-05-1.53047E-13
 -1       817 1.35893E-02-2.06914E-05-1.59485E-13
 -1       818 1.38105E-02-9.93714E-05-1.63643E-13
 -1       819 1.44486E-02-5.08201E-04-1.62150E-13
 -1       820 1.43687E-02-4.55145E-04-1.62090E-13
 -1       821 1.11968E-02 7.17141E-04-1.15058E-13
 -1       822 9.55730E-03-3.33064E-04-9.55685E-14
 -1       823 1.32932E-02-8.16270E-04-1.41990E-13
 -1       824 1.35680E-02-2.47273E-04-1.47338E-13
 -1       825 1.36663E-02-6.53969E-04-1.45860E-13
 -1       826 1.41289E-02-4.58269E-04-1.52038E-13
 -1       827 1.44646E-02-5.55844E-04-1.62196E-13
 -1       828 1.44207E-02-6.10950E-04-1.62218E-13
 -1       829 3.46648E-03 3.86272E-04-1.24350E-14
 -1       830 1.39831E-02-5.46433E-04-1.49234E-13
 -1       831 9.33914E-03-2.48097E-04-9.46398E-14
 -1       832 1.03489E-02 4.13225E-04-1.02454E-13
 -1       833 1.15091E-02 7.19708E-04-1.20493E-13
 -1       834 1.24623E-03 3.00920E-04-1.69375E-15
 -1       835 9.84171E-03 1.35113E-04-9.75678E-14
 -1       836 1.39184E-02-3.81713E-04-1.50156E-13
 -1       837 1.08020E-02 6.07652E-04-1.08717E-13
 -1       838 9.17752E-03-1.58096E-04-9.31868E-14
 -1       839 1.13832E-03 5.90759E-05-1.68922E-15
 -1       840 1.41129E-02-4.93946E-04-1.50645E-13
 -1       841 9.31115E-03-9.49141E-05-9.37358E-14
 -1       842 1.27102E-02 1.46744E-04-1.37208E-13
 -1       843 1.13696E-03 1.19939E-06-1.70054E-15
 -1       844 1.14982E-03 1.79166E-04-1.62351E-15
 -1       845 1.33968E-02-1.60104E-04-1.46631E-13
 -1       846 9.97234E-03 2.79278E-04-9.74177E-14
 -1       847 1.14928E-03-1.76201E-04-1.65019E-15
 -1       848 1.14243E-03 1.17977E-04-1.66439E-15
 -1       849 1.74570E-03 3.39177E-04-3.27344E-15
 -1       850 2.60674E-03 3.78314E-04-7.11195E-15
 -1       851 1.22361E-02 4.81022E-04-1.33546E-13
 -1       852 1.40850E-02-3.03732E-04-1.61911E-13
 -1       853 1.14209E-03-1.15236E-04-1.68217E-15
 -1       854 1.42409E-02-3.88315E-04-1.62009E-13
 -1       855 1.49560E-03 3.24201E-04-2.41827E-15
 -1       856 2.31981E-03 3.70268E-04-5.66759E-15
 -1       857 1.43384E-02-6.50123E-04-1.61402E-13
 -1       858 1.39607E-02-2.25519E-04-1.62098E-13
 -1       859 1.24968E-02 2.94603E-04-1.35930E-13
 -1       860 9.53803E-03 6.39698E-05-9.34294E-14
 -1       861 9.26827E-03-2.64494E-04-9.04088E-14
 -1       862 1.70121E-03-2.30059E-04-3.36805E-15
 -1       863 1.98945E-03-2.44653E-04-4.50009E-15
 -1       864 2.27843E-03-2.54652E-04-5.79693E-15
 -1       865 2.56762E-03-2.61126E-04-7.25820E-15
 -1       866 2.85671E-03-2.64977E-04-8.88233E-15
 -1       867 3.14551E-03-2.66927E-04-1.06655E-14
 -1       868 3.43393E-03-2.67527E-04-1.26081E-14
 -1       869 3.72194E-03-2.67175E-04-1.47091E-14
 -1       870 4.00952E-03-2.66143E-04-1.69704E-14
 -1       871 4.29668E-03-2.64605E-04-1.93924E-14
 -1       872 4.58343E-03-2.62653E-04-2.19741E-14
 -1       873 4.86974E-03-2.60321E-04-2.47155E-14
 -1       874 5.15560E-03-2.57596E-04-2.76190E-14
 -1       875 5.44092E-03-2.54438E-04-3.06761E-14
 -1       876 5.72563E-03-2.50791E-04-3.38871E-14
 -1       877 6.00957E-03-2.46601E-04-3.72506E-14
 -1       878 6.29253E-03-2.41835E-04-4.07674E-14
 -1       879 6.57423E-03-2.36507E-04-4.44348E-14
 -1       880 6.85432E-03-2.30707E-04-4.82511E-14
 -1       881 7.13231E-03-2.24636E-04-5.22137E-14
 -1       882 7.40763E-03-2.18651E-04-5.63215E-14
 -1       883 7.67954E-03-2.13298E-04-6.05745E-14
 -1       884 7.94721E-03-2.09344E-04-6.49644E-14
 -1       885 8.20964E-03-2.07779E-04-6.94886E-14
 -1       886 8.46579E-03-2.09772E-04-7.41392E-14
 -1       887 8.71463E-03-2.16593E-04-7.89137E-14
 -1       888 8.95572E-03-2.29781E-04-8.38074E-14
 -1       889 9.06583E-03-1.63659E-04-8.97601E-14
 -1       890 4.17927E-03 3.08936E-04-1.81580E-14
 -1       891 3.89233E-03 3.10282E-04-1.58082E-14
 -1       892 4.75220E-03 3.04839E-04-2.33452E-14
 -1       893 5.03819E-03 3.02153E-04-2.61803E-14
 -1       894 5.32384E-03 2.99005E-04-2.91746E-14
 -1       895 5.60911E-03 2.95331E-04-3.23234E-14
 -1       896 5.89397E-03 2.91054E-04-3.56300E-14
 -1       897 6.17834E-03 2.86103E-04-3.90922E-14
 -1       898 6.46216E-03 2.80430E-04-4.27005E-14
 -1       899 6.74538E-03 2.74034E-04-4.64578E-14
 -1       900 7.02799E-03 2.66993E-04-5.03590E-14
 -1       901 7.31007E-03 2.59500E-04-5.44080E-14
 -1       902 7.59182E-03 2.51906E-04-5.85995E-14
 -1       903 7.87372E-03 2.44784E-04-6.29308E-14
 -1       904 8.15660E-03 2.39009E-04-6.73944E-14
 -1       905 8.44185E-03 2.35887E-04-7.19932E-14
 -1       906 8.73162E-03 2.37353E-04-7.67258E-14
 -1       907 9.02902E-03 2.46311E-04-8.15852E-14
 -1       908 9.33811E-03 2.67124E-04-8.65682E-14
 -1       909 9.66323E-03 3.05929E-04-9.16745E-14
 -1       910 1.42522E-02-5.55706E-04-1.56529E-13
 -1       911 1.42264E-02-4.57283E-04-1.56470E-13
 -1       912 1.13817E-03-5.65319E-05-1.69844E-15
 -1       913 1.38936E-02-3.25822E-04-1.53880E-13
 -1       914 1.42818E-02-5.04922E-04-1.56508E-13
 -1       915 9.13448E-03-2.04815E-04-9.00944E-14
 -1       916 1.35653E-02-6.96707E-05-1.56383E-13
 -1       917 3.02954E-03 3.09509E-04-9.73086E-15
 -1       918 1.32343E-02 3.38617E-05-1.49962E-13
 -1       919 1.41045E-03 2.66038E-04-2.26025E-15
 -1       920 4.46589E-03 3.07101E-04-2.06703E-14
 -1       921 1.42381E-03-2.05726E-04-2.43406E-15
 -1       922 1.38830E-02-1.61504E-04-1.62875E-13
 -1       923 1.29799E-02 3.81397E-05-1.42047E-13
 -1       924 9.10123E-03-1.08921E-04-8.96925E-14
 -1       925 1.39803E-02-6.15521E-04-1.52038E-13
 -1       926 9.66491E-03 1.91295E-04-9.32783E-14
 -1       927 1.28512E-02 1.59353E-04-1.42550E-13
 -1       928 1.87597E-03 2.78828E-04-3.91330E-15
 -1       929 1.41579E-02-6.30996E-04-1.56708E-13
 -1       930 2.74130E-03 3.06427E-04-8.03109E-15
 -1       931 3.60507E-03 3.11003E-04-1.36201E-14
 -1       932 1.41397E-02-5.55665E-04-1.53671E-13
 -1       933 1.37528E-02-2.60291E-04-1.53157E-13
 -1       934 1.41531E-03-1.36638E-04-2.47667E-15
 -1       935 1.38112E-03 3.41234E-05-2.40787E-15
 -1       936 3.31747E-03 3.10865E-04-1.15948E-14
 -1       937 1.37534E-02-2.00095E-04-1.56403E-13
 -1       938 9.20382E-03-2.08509E-05-8.92245E-14
 -1       939 1.38428E-03 1.00019E-04-2.38503E-15
 -1       940 2.16428E-03 2.92099E-04-5.12269E-15
 -1       941 2.45283E-03 3.00925E-04-6.49476E-15
 -1       942 2.12597E-03-1.78640E-04-5.18526E-15
 -1       943 2.41585E-03-1.84755E-04-6.56880E-15
 -1       944 2.70594E-03-1.88590E-04-8.11524E-15
 -1       945 2.99587E-03-1.90734E-04-9.82192E-15
 -1       946 3.28543E-03-1.91659E-04-1.16881E-14
 -1       947 3.57450E-03-1.91720E-04-1.37122E-14
 -1       948 3.86303E-03-1.91167E-04-1.58950E-14
 -1       949 4.15100E-03-1.90170E-04-1.82382E-14
 -1       950 4.43839E-03-1.88829E-04-2.07419E-14
 -1       951 4.72519E-03-1.87193E-04-2.34041E-14
 -1       952 5.01136E-03-1.85273E-04-2.62262E-14
 -1       953 5.29684E-03-1.83052E-04-2.92075E-14
 -1       954 5.58151E-03-1.80502E-04-3.23424E-14
 -1       955 5.86522E-03-1.77592E-04-3.56303E-14
 -1       956 6.14774E-03-1.74308E-04-3.90707E-14
 -1       957 6.42875E-03-1.70669E-04-4.26614E-14
 -1       958 6.70787E-03-1.66753E-04-4.64018E-14
 -1       959 6.98457E-03-1.62722E-04-5.02881E-14
 -1       960 7.25822E-03-1.58853E-04-5.43208E-14
 -1       961 7.52802E-03-1.55569E-04-5.84998E-14
 -1       962 7.79299E-03-1.53456E-04-6.28212E-14
 -1       963 8.05188E-03-1.53257E-04-6.72766E-14
 -1       964 8.30316E-03-1.55833E-04-7.18636E-14
 -1       965 8.54480E-03-1.62052E-04-7.65750E-14
 -1       966 8.77408E-03-1.72777E-04-8.14084E-14
 -1       967 5.46468E-03 2.24371E-04-3.08645E-14
 -1       968 4.03307E-03 2.34407E-04-1.70924E-14
 -1       969 1.32595E-02-4.57006E-05-1.47616E-13
 -1       970 1.39079E-03 1.67376E-04-2.34364E-15
 -1       971 8.93097E-03-1.21461E-04-8.59994E-14
 -1       972 1.69200E-03-1.55021E-04-3.42071E-15
 -1       973 5.17947E-03 2.27139E-04-2.77927E-14
 -1       974 4.89366E-03 2.29494E-04-2.48774E-14
 -1       975 5.74921E-03 2.21120E-04-3.40910E-14
 -1       976 6.03294E-03 2.17309E-04-3.74732E-14
 -1       977 6.31575E-03 2.12860E-04-4.10063E-14
 -1       978 6.59748E-03 2.07710E-04-4.46864E-14
 -1       979 6.87800E-03 2.01826E-04-4.85130E-14
 -1       980 7.15719E-03 1.95223E-04-5.24836E-14
 -1       981 7.43505E-03 1.87987E-04-5.66024E-14
 -1       982 7.71172E-03 1.80306E-04-6.08632E-14
 -1       983 7.98762E-03 1.72520E-04-6.52593E-14
 -1       984 8.26365E-03 1.65200E-04-6.97891E-14
 -1       985 8.54136E-03 1.59326E-04-7.44541E-14
 -1       986 8.82333E-03 1.56563E-04-7.92469E-14
 -1       987 9.11378E-03 1.60029E-04-8.41653E-14
 -1       988 1.35547E-02-1.31471E-04-1.53268E-13
 -1       989 1.41046E-03-6.94580E-05-2.49893E-15
 -1       990 1.64274E-03 2.75383E-04-3.03060E-15
 -1       991 9.28111E-03 8.50546E-05-8.83263E-14
 -1       992 8.97105E-03-5.46274E-05-8.55575E-14
 -1       993 1.90860E-03-1.67619E-04-4.25720E-15
 -1       994 1.39485E-03-1.72816E-05-2.45836E-15
 -1       995 4.32044E-03 2.33130E-04-1.95268E-14
 -1       996 1.63430E-03 1.33613E-05-3.26885E-15
 -1       997 3.74521E-03 2.35238E-04-1.48199E-14
 -1       998 8.92035E-03-1.61436E-04-8.54425E-14
 -1       999 9.41827E-03 1.75203E-04-8.92068E-14
 -1      1000 2.01026E-03 2.15253E-04-4.58178E-15
 -1      1001 3.16803E-03 2.34885E-04-1.07582E-14
 -1      1002 2.87878E-03 2.33119E-04-8.96956E-15
 -1      1003 9.01810E-03 2.87430E-05-8.46885E-14
 -1      1004 4.60730E-03 2.31485E-04-2.21213E-14
 -1      1005 1.63660E-03 8.52971E-05-3.24820E-15
 -1      1006 1.72179E-03 2.02516E-04-3.44239E-15
 -1      1007 1.68653E-03-8.13901E-05-3.44874E-15
 -1      1008 2.26579E-03-1.09758E-04-5.89265E-15
 -1      1009 2.55633E-03-1.12808E-04-7.35966E-15
 -1      1010 2.84698E-03-1.14631E-04-8.98756E-15
 -1      1011 3.13737E-03-1.15548E-04-1.07753E-14
 -1      1012 3.42729E-03-1.15818E-04-1.27220E-14
 -1      1013 3.71663E-03-1.15628E-04-1.48274E-14
 -1      1014 4.00533E-03-1.15110E-04-1.70909E-14
 -1      1015 4.29336E-03-1.14347E-04-1.95162E-14
 -1      1016 4.58069E-03-1.13389E-04-2.21001E-14
 -1      1017 4.86730E-03-1.12256E-04-2.48414E-14
 -1      1018 5.15311E-03-1.10951E-04-2.77441E-14
 -1      1019 5.43803E-03-1.09467E-04-3.08026E-14
 -1      1020 5.72190E-03-1.07798E-04-3.40132E-14
 -1      1021 6.00450E-03-1.05949E-04-3.73773E-14
 -1      1022 6.28552E-03-1.03952E-04-4.08945E-14
 -1      1023 6.56460E-03-1.01880E-04-4.45595E-14
 -1      1024 6.84124E-03-9.98734E-05-4.83724E-14
 -1      1025 7.11483E-03-9.81585E-05-5.23314E-14
 -1      1026 7.38464E-03-9.70758E-05-5.64338E-14
 -1      1027 7.64973E-03-9.70985E-05-6.06810E-14
 -1      1028 7.90895E-03-9.88388E-05-6.50690E-14
 -1      1029 8.16083E-03-1.03034E-04-6.95890E-14
 -1      1030 8.40337E-03-1.10487E-04-7.42409E-14
 -1      1031 8.63374E-03-1.22032E-04-7.90123E-14
 -1      1032 5.88877E-03 1.48143E-04-3.58635E-14
 -1      1033 1.65970E-03-3.35994E-05-3.36248E-15
 -1      1034 8.75679E-03-1.22339E-04-8.18162E-14
 -1      1035 5.32068E-03 1.52871E-04-2.94119E-14
 -1      1036 5.03529E-03 1.54690E-04-2.64184E-14
 -1      1037 6.17114E-03 1.45085E-04-3.93197E-14
 -1      1038 6.45213E-03 1.41449E-04-4.29254E-14
 -1      1039 6.73149E-03 1.37144E-04-4.66778E-14
 -1      1040 7.00896E-03 1.32077E-04-5.05740E-14
 -1      1041 7.28431E-03 1.26165E-04-5.46164E-14
 -1      1042 7.55736E-03 1.19337E-04-5.88046E-14
 -1      1043 7.82808E-03 1.11551E-04-6.31327E-14
 -1      1044 8.09670E-03 1.02825E-04-6.75948E-14
 -1      1045 8.36385E-03 9.33079E-05-7.21905E-14
 -1      1046 8.63088E-03 8.35802E-05-7.69206E-14
 -1      1047 4.74915E-03 1.56221E-04-2.35816E-14
 -1      1048 3.45686E-03 2.35476E-04-1.27084E-14
 -1      1049 2.29960E-03 2.24008E-04-5.88197E-15
 -1      1050 5.60522E-03 1.50712E-04-3.25612E-14
 -1      1051 1.85879E-03 1.41107E-04-4.04854E-15
 -1      1052 8.75841E-03-6.05941E-05-8.13930E-14
 -1      1053 2.58923E-03 2.29702E-04-7.34422E-15
 -1      1054 3.88673E-03 1.59247E-04-1.60337E-14
 -1      1055 2.04802E-03-1.01836E-04-4.90019E-15
 -1      1056 1.89384E-03-1.46765E-06-4.27022E-15
 -1      1057 1.63456E-03 1.45806E-04-3.19062E-15
 -1      1058 8.77369E-03 1.03987E-05-8.05513E-14
 -1      1059 8.90043E-03 7.47392E-05-8.17715E-14
 -1      1060 2.14810E-03 1.48590E-04-5.27687E-15
 -1      1061 4.17484E-03 1.58514E-04-1.83896E-14
 -1      1062 4.46232E-03 1.57495E-04-2.09057E-14
 -1      1063 3.30868E-03 1.59484E-04-1.18034E-14
 -1      1064 3.01885E-03 1.58654E-04-9.92842E-15
 -1      1065 8.57408E-03-8.42194E-05-7.77884E-14
 -1      1066 3.59800E-03 1.59615E-04-1.38379E-14
 -1      1067 1.81981E-03 7.13115E-05-3.94877E-15
 -1      1068 2.69950E-03-3.91394E-05-8.16545E-15
 -1      1069 2.99035E-03-3.95745E-05-9.87262E-15
 -1      1070 3.28084E-03-3.97356E-05-1.17405E-14
 -1      1071 3.57077E-03-3.96999E-05-1.37669E-14
 -1      1072 3.86005E-03-3.95250E-05-1.59519E-14
 -1      1073 4.14862E-03-3.92505E-05-1.82974E-14
 -1      1074 4.43645E-03-3.89015E-05-2.08026E-14
 -1      1075 4.72351E-03-3.84931E-05-2.34644E-14
 -1      1076 5.00976E-03-3.80346E-05-2.62876E-14
 -1      1077 5.29509E-03-3.75343E-05-2.92698E-14
 -1      1078 5.57938E-03-3.70046E-05-3.24039E-14
 -1      1079 5.86243E-03-3.64690E-05-3.56903E-14
 -1      1080 6.14398E-03-3.59708E-05-3.91299E-14
 -1      1081 6.42370E-03-3.55848E-05-4.27235E-14
 -1      1082 6.70116E-03-3.54321E-05-4.64629E-14
 -1      1083 6.97585E-03-3.56971E-05-5.03478E-14
 -1      1084 7.24714E-03-3.66481E-05-5.43773E-14
 -1      1085 7.51429E-03-3.86567E-05-5.85507E-14
 -1      1086 7.77641E-03-4.22144E-05-6.28661E-14
 -1      1087 8.03240E-03-4.79419E-05-6.73222E-14
 -1      1088 8.28074E-03-5.64752E-05-7.19065E-14
 -1      1089 6.30905E-03 7.46222E-05-4.11697E-14
 -1      1090 1.91989E-03-5.17020E-05-4.37420E-15
 -1      1091 5.46192E-03 7.95673E-05-3.10393E-14
 -1      1092 6.02812E-03 7.66306E-05-3.76386E-14
 -1      1093 6.58814E-03 7.21194E-05-4.48496E-14
 -1      1094 6.86503E-03 6.89886E-05-4.86740E-14
 -1      1095 7.13933E-03 6.50618E-05-5.26441E-14
 -1      1096 7.41061E-03 6.01296E-05-5.67570E-14
 -1      1097 7.67847E-03 5.39349E-05-6.10138E-14
 -1      1098 7.94255E-03 4.61734E-05-6.54100E-14
 -1      1099 8.20256E-03 3.65453E-05-6.99398E-14
 -1      1100 8.45848E-03 2.46686E-05-7.46009E-14
 -1      1101 4.89137E-03 8.15327E-05-2.50508E-14
 -1      1102 5.74566E-03 7.82510E-05-3.42622E-14
 -1      1103 2.09839E-03 5.56226E-05-5.12716E-15
 -1      1104 5.17711E-03 8.06450E-05-2.79676E-14
 -1      1105 2.40858E-03-3.83294E-05-6.61918E-15
 -1      1106 4.60480E-03 8.22628E-05-2.22946E-14
 -1      1107 2.19056E-03-3.27424E-05-5.56472E-15
 -1      1108 4.31746E-03 8.28505E-05-1.96969E-14
 -1      1109 3.45119E-03 8.35987E-05-1.28647E-14
 -1      1110 2.43824E-03 1.53638E-04-6.66535E-15
 -1      1111 3.16114E-03 8.33180E-05-1.09062E-14
 -1      1112 2.72862E-03 1.56833E-04-8.21543E-15
 -1      1113 8.51559E-03-2.45776E-05-7.61835E-14
 -1      1114 4.02940E-03 8.32917E-05-1.72598E-14
 -1      1115 3.74063E-03 8.35595E-05-1.49816E-14
 -1      1116 2.84494E-03 3.58448E-05-8.98405E-15
 -1      1117 2.31599E-03 5.25681E-05-6.14227E-15
 -1      1118 2.58038E-03 4.45740E-05-7.49629E-15
 -1      1119 0.00000E+00 0.00000E+00 0.00000E+00
 -1      1120 0.00000E+00 0.00000E+00 0.00000E+00
 -1      1121 0.00000E+00 0.00000E+00 0.00000E+00
 -1      1122 0.00000E+00 0.00000E+00 0.00000E+00
 -1      1123 0.00000E+00 0.00000E+00 0.00000E+00
 -1      1124 0.00000E+00 0.00000E+00 0.00000E+00
 -1      1125 0.00000E+00 0.00000E+00 0.00000E+00
 -1      1126 0.00000E+00 0.00000E+00 0.00000E+00
 -1      1127 0.00000E+00 0.00000E+00 0.00000E+00
 -1      1128 0.00000E+00 0.00000E+00 0.00000E+00
 -1      1129 0.00000E+00 0.00000E+00 0.00000E+00
 -1      1130 0.00000E+00 0.00000E+00 0.00000E+00
 -1      1131 0.00000E+00 0.00000E+00 0.00000E+00
 -1      1132 0.00000E+00 0.00000E+00 0.00000E+00
 -1      1133 0.00000E+00 0.00000E+00 0.00000E+00
 -1      1134 0.00000E+00 0.00000E+00 0.00000E+00
 -1      1135 0.00000E+00 0.00000E+00 0.00000E+00
 -1      1136 2.11673E-04-1.48338E-04 3.19569E-17
 -1      1137 5.51652E-04-3.37531E-04-8.94467E-18
 -1      1138 8.33479E-04-4.59035E-04-2.07774E-16
 -1      1139 1.10306E-03-5.40732E-04-5.92666E-16
 -1      1140 1.36847E-03-5.97997E-04-1.15885E-15
 -1      1141 1.63328E-03-6.38720E-04-1.90600E-15
 -1      1142 1.89934E-03-6.67550E-04-2.83428E-15
 -1      1143 2.16748E-03-6.87604E-04-3.94346E-15
 -1      1144 2.43800E-03-7.01165E-04-5.23025E-15
 -1      1145 2.71090E-03-7.09951E-04-6.69233E-15
 -1      1146 2.98600E-03-7.15260E-04-8.32772E-15
 -1      1147 3.26307E-03-7.18062E-04-1.01314E-14
 -1      1148 3.54183E-03-7.19071E-04-1.20996E-14
 -1      1149 3.82201E-03-7.18794E-04-1.42328E-14
 -1      1150 4.10339E-03-7.17576E-04-1.65297E-14
 -1      1151 4.38576E-03-7.15636E-04-1.89904E-14
 -1      1152 4.66898E-03-7.13090E-04-2.16160E-14
 -1      1153 4.95295E-03-7.09983E-04-2.44016E-14
 -1      1154 5.23766E-03-7.06300E-04-2.73462E-14
 -1      1155 5.52318E-03-7.01989E-04-3.04465E-14
 -1      1156 5.80968E-03-6.96983E-04-3.37024E-14
 -1      1157 6.09742E-03-6.91214E-04-3.71143E-14
 -1      1158 6.38682E-03-6.84650E-04-4.06805E-14
 -1      1159 6.67848E-03-6.77328E-04-4.44053E-14
 -1      1160 6.97319E-03-6.69406E-04-4.82835E-14
 -1      1161 7.27201E-03-6.61248E-04-5.23106E-14
 -1      1162 7.57630E-03-6.53533E-04-5.64797E-14
 -1      1163 7.88774E-03-6.47425E-04-6.07844E-14
 -1      1164 8.20834E-03-6.44806E-04-6.52303E-14
 -1      1165 8.54034E-03-6.48598E-04-6.98142E-14
 -1      1166 8.88591E-03-6.63155E-04-7.45284E-14
 -1      1167 9.24658E-03-6.94623E-04-7.93780E-14
 -1      1168 9.62212E-03-7.50966E-04-8.43662E-14
 -1      1169 1.00089E-02-8.40987E-04-8.94827E-14
 -1      1170 1.03980E-02-9.71231E-04-9.47208E-14
 -1      1171 1.07744E-02-1.13993E-03-1.00079E-13
 -1      1172 1.11201E-02-1.32937E-03-1.05560E-13
 -1      1173 1.14228E-02-1.50285E-03-1.11177E-13
 -1      1174 1.16868E-02-1.61519E-03-1.16939E-13
 -1      1175 1.19364E-02-1.63611E-03-1.22849E-13
 -1      1176 1.22028E-02-1.56960E-03-1.28918E-13
 -1      1177 1.25059E-02-1.45068E-03-1.35158E-13
 -1      1178 1.28450E-02-1.32286E-03-1.41538E-13
 -1      1179 1.32048E-02-1.21690E-03-1.48033E-13
 -1      1180 1.35674E-02-1.14414E-03-1.54619E-13
 -1      1181 1.39189E-02-1.10117E-03-1.61265E-13
 -1      1182 1.42518E-02-1.07720E-03-1.67958E-13
 -1      1183 1.45646E-02-1.05943E-03-1.74688E-13
 -1      1184 1.48603E-02-1.03624E-03-1.81459E-13
 -1      1185 1.51393E-02-1.00266E-03-1.88103E-13
 -1      1186 2.28433E-04 1.60716E-04 4.09422E-17
 -1      1187 5.53825E-04 3.42163E-04 1.08556E-17
 -1      1188 8.34409E-04 4.61205E-04-1.74679E-16
 -1      1189 1.10396E-03 5.42420E-04-5.36057E-16
 -1      1190 1.36938E-03 5.99678E-04-1.07518E-15
 -1      1191 1.63424E-03 6.40489E-04-1.79299E-15
 -1      1192 1.90034E-03 6.69424E-04-2.69050E-15
 -1      1193 2.16853E-03 6.89597E-04-3.76637E-15
 -1      1194 2.43908E-03 7.03284E-04-5.01892E-15
 -1      1195 2.71199E-03 7.12202E-04-6.44541E-15
 -1      1196 2.98711E-03 7.17645E-04-8.04604E-15
 -1      1197 3.26419E-03 7.20584E-04-9.81787E-15
 -1      1198 3.54296E-03 7.21730E-04-1.17616E-14
 -1      1199 3.82317E-03 7.21592E-04-1.38784E-14
 -1      1200 4.10457E-03 7.20518E-04-1.61626E-14
 -1      1201 4.38697E-03 7.18729E-04-1.86152E-14
 -1      1202 4.67022E-03 7.16352E-04-2.12358E-14
 -1      1203 4.95424E-03 7.13439E-04-2.40221E-14
 -1      1204 5.23903E-03 7.09994E-04-2.69731E-14
 -1      1205 5.52462E-03 7.05996E-04-3.00908E-14
 -1      1206 5.81118E-03 7.01416E-04-3.33639E-14
 -1      1207 6.09895E-03 6.96249E-04-3.67919E-14
 -1      1208 6.38828E-03 6.90547E-04-4.03804E-14
 -1      1209 6.67962E-03 6.84459E-04-4.41251E-14
 -1      1210 6.97357E-03 6.78284E-04-4.80137E-14
 -1      1211 7.27078E-03 6.72536E-04-5.20459E-14
 -1      1212 7.57201E-03 6.68019E-04-5.62158E-14
 -1      1213 7.87796E-03 6.65905E-04-6.05223E-14
 -1      1214 8.18920E-03 6.67795E-04-6.49624E-14
 -1      1215 8.50595E-03 6.75731E-04-6.95335E-14
 -1      1216 8.82777E-03 6.92093E-04-7.42361E-14
 -1      1217 9.15327E-03 7.19301E-04-7.90767E-14
 -1      1218 9.47971E-03 7.59187E-04-8.40493E-14
 -1      1219 9.80290E-03 8.12009E-04-8.91472E-14
 -1      1220 1.01175E-02 8.75163E-04-9.43749E-14
 -1      1221 1.04179E-02 9.42050E-04-9.97515E-14
 -1      1222 1.07003E-02 1.00187E-03-1.05273E-13
 -1      1223 1.09643E-02 1.04123E-03-1.10931E-13
 -1      1224 1.12146E-02 1.04771E-03-1.16715E-13
 -1      1225 1.14595E-02 1.01418E-03-1.22613E-13
 -1      1226 1.17090E-02 9.41542E-04-1.28627E-13
 -1      1227 1.19704E-02 8.38164E-04-1.34755E-13
 -1      1228 1.22465E-02 7.16301E-04-1.40986E-13
 -1      1229 1.25356E-02 5.87682E-04-1.47303E-13
 -1      1230 1.28327E-02 4.60359E-04-1.53684E-13
 -1      1231 1.31322E-02 3.37672E-04-1.60115E-13
 -1      1232 1.34295E-02 2.18929E-04-1.66583E-13
 -1      1233 1.37221E-02 1.00956E-04-1.73097E-13
 -1      1234 1.40100E-02-1.99266E-05-1.79642E-13
 -1      1235 1.42882E-02-1.42139E-04-1.86033E-13
 -1      1236 1.44863E-02-2.44881E-04-1.89221E-13
 -1      1237 1.46134E-02-3.29345E-04-1.89410E-13
 -1      1238 1.47457E-02-4.11008E-04-1.89570E-13
 -1      1239 1.48833E-02-4.86295E-04-1.89692E-13
 -1      1240 1.50237E-02-5.51583E-04-1.89836E-13
 -1      1241 1.51612E-02-6.03167E-04-1.90017E-13
 -1      1242 1.52907E-02-6.39350E-04-1.90224E-13
 -1      1243 1.54047E-02-6.59854E-04-1.90453E-13
 -1      1244 1.54935E-02-6.66680E-04-1.90672E-13
 -1      1245 1.55499E-02-6.65199E-04-1.90851E-13
 -1      1246 1.55708E-02-6.63010E-04-1.90993E-13
 -1      1247 1.55581E-02-6.68270E-04-1.91118E-13
 -1      1248 1.55185E-02-6.87803E-04-1.91222E-13
 -1      1249 1.54613E-02-7.26229E-04-1.91308E-13
 -1      1250 1.53985E-02-7.84308E-04-1.91353E-13
 -1      1251 1.53409E-02-8.58684E-04-1.91361E-13
 -1      1252 1.52947E-02-9.41633E-04-1.91352E-13
 -1      1253 1.38979E-02-3.22795E-04-1.33404E-13
 -1      1254 1.37730E-02-1.66258E-04-1.32830E-13
 -1      1255 1.35525E-02-6.69189E-06-1.31702E-13
 -1      1256 1.32495E-02 1.55320E-04-1.30067E-13
 -1      1257 1.28730E-02 3.14538E-04-1.27917E-13
 -1      1258 1.24564E-02 4.51041E-04-1.25397E-13
 -1      1259 1.20319E-02 5.45981E-04-1.22719E-13
 -1      1260 1.16004E-02 5.92092E-04-1.19932E-13
 -1      1261 1.11653E-02 5.83725E-04-1.17108E-13
 -1      1262 1.07323E-02 5.21744E-04-1.14344E-13
 -1      1263 1.03138E-02 4.13169E-04-1.11760E-13
 -1      1264 9.95362E-03 2.81052E-04-1.09628E-13
 -1      1265 9.65590E-03 1.35056E-04-1.07948E-13
 -1      1266 9.44399E-03-1.29283E-05-1.06805E-13
 -1      1267 9.33760E-03-1.51557E-04-1.06232E-13
 -1      1268 9.32834E-03-2.93906E-04-1.06159E-13
 -1      1269 9.41845E-03-4.42242E-04-1.06612E-13
 -1      1270 9.60738E-03-6.02388E-04-1.07585E-13
 -1      1271 9.89587E-03-7.78391E-04-1.09111E-13
 -1      1272 1.02595E-02-9.55024E-04-1.11106E-13
 -1      1273 1.06747E-02-1.11515E-03-1.13498E-13
 -1      1274 1.11163E-02-1.23614E-03-1.16149E-13
 -1      1275 1.15893E-02-1.30015E-03-1.19080E-13
 -1      1276 1.20713E-02-1.29352E-03-1.22122E-13
 -1      1277 1.25258E-02-1.22132E-03-1.24976E-13
 -1      1278 1.29457E-02-1.10089E-03-1.27562E-13
 -1      1279 1.33169E-02-9.50636E-04-1.29805E-13
 -1      1280 1.36150E-02-7.90052E-04-1.31576E-13
 -1      1281 1.38164E-02-6.32500E-04-1.32770E-13
 -1      1282 1.39135E-02-4.77119E-04-1.33386E-13
 -1      1283 1.66704E-04-1.10347E-04 5.08220E-18
 -1      1284 1.12542E-04-5.69794E-05-2.94903E-17
 -1      1285 1.17624E-04-6.75872E-05-2.01391E-17
 -1      1286 1.08422E-04-4.34960E-05-4.51164E-17
 -1      1287 1.10286E-04-4.96107E-05-4.02510E-17
 -1      1288 2.26333E-04-1.07635E-04-9.46237E-17
 -1      1289 1.06841E-04-3.36183E-05-5.39933E-17
 -1      1290 1.07686E-04-3.83400E-05-5.14589E-17
 -1      1291 2.19104E-04-8.24691E-05-1.23070E-16
 -1      1292 1.06062E-04-2.53571E-05-5.93601E-17
 -1      1293 1.06493E-04-2.93904E-05-5.79913E-17
 -1      1294 2.15868E-04-6.32897E-05-1.40065E-16
 -1      1295 1.05659E-04-1.80965E-05-6.24772E-17
 -1      1296 1.05889E-04-2.16645E-05-6.18402E-17
 -1      1297 2.14208E-04-4.71981E-05-1.50582E-16
 -1      1298 1.05439E-04-1.12431E-05-6.41577E-17
 -1      1299 1.05562E-04-1.46289E-05-6.38731E-17
 -1      1300 2.13292E-04-3.27627E-05-1.56667E-16
 -1      1301 1.05339E-04-4.69098E-06-6.48624E-17
 -1      1302 1.05392E-04-7.94534E-06-6.48217E-17
 -1      1303 2.12797E-04-1.91966E-05-1.59839E-16
 -1      1304 1.05328E-04 1.74347E-06-6.49573E-17
 -1      1305 1.05326E-04-1.47107E-06-6.50250E-17
 -1      1306 2.12583E-04-6.16268E-06-1.61072E-16
 -1      1307 1.05400E-04 8.22747E-06-6.43067E-17
 -1      1308 1.05344E-04 4.96662E-06-6.45100E-17
 -1      1309 2.12591E-04 6.71062E-06-1.60584E-16
 -1      1310 1.05578E-04 1.49366E-05-6.28024E-17
 -1      1311 1.05450E-04 1.15358E-05-6.33174E-17
 -1      1312 2.12823E-04 1.97704E-05-1.58334E-16
 -1      1313 1.05911E-04 2.19569E-05-5.99428E-17
 -1      1314 1.05676E-04 1.83650E-05-6.08508E-17
 -1      1315 2.13334E-04 3.32761E-05-1.53672E-16
 -1      1316 1.06535E-04 2.98246E-05-5.54163E-17
 -1      1317 1.06096E-04 2.57473E-05-5.69477E-17
 -1      1318 2.14275E-04 4.78064E-05-1.45893E-16
 -1      1319 1.07726E-04 3.89238E-05-4.83419E-17
 -1      1320 1.06874E-04 3.41301E-05-5.10659E-17
 -1      1321 2.15979E-04 6.42209E-05-1.34116E-16
 -1      1322 1.10266E-04 5.03504E-05-3.66325E-17
 -1      1323 1.08427E-04 4.41668E-05-4.16605E-17
 -1      1324 2.19206E-04 8.37193E-05-1.15752E-16
 -1      1325 1.16940E-04 6.76225E-05-1.72524E-17
 -1      1326 1.12189E-04 5.77784E-05-2.67256E-17
 -1      1327 2.26320E-04 1.09454E-04-8.72918E-17
 -1      1328 1.57584E-04 1.09863E-04 1.36338E-17
 -1      1329 1.35664E-04 8.60943E-05-5.63785E-18
 -1      1330 2.56044E-04 1.52101E-04-5.24212E-17
 -1      1331 3.35093E-04 2.20746E-04-1.40946E-18
 -1      1332 4.21549E-04-2.61751E-04-3.84079E-17
 -1      1333 5.74649E-04-3.36816E-04-1.02389E-16
 -1      1334 7.21840E-04-3.97424E-04-2.14076E-16
 -1      1335 8.65010E-04-4.46725E-04-3.70323E-16
 -1      1336 6.12082E-04-3.30912E-04-2.11054E-16
 -1      1337 1.00504E-03-4.87805E-04-5.69816E-16
 -1      1338 1.14288E-03-5.21802E-04-8.14182E-16
 -1      1339 9.05319E-04-4.31623E-04-5.39540E-16
 -1      1340 1.27937E-03-5.50583E-04-1.10301E-15
 -1      1341 1.41502E-03-5.74627E-04-1.43716E-15
 -1      1342 1.18775E-03-5.01060E-04-1.04184E-15
 -1      1343 1.55026E-03-5.94998E-04-1.81567E-15
 -1      1344 1.68535E-03-6.12031E-04-2.23904E-15
 -1      1345 1.46468E-03-5.49848E-04-1.72051E-15
 -1      1346 1.82053E-03-6.26353E-04-2.70759E-15
 -1      1347 1.95591E-03-6.38256E-04-3.22022E-15
 -1      1348 1.73935E-03-5.84164E-04-2.57658E-15
 -1      1349 2.09161E-03-6.48142E-04-3.77762E-15
 -1      1350 2.22768E-03-6.56262E-04-4.37992E-15
 -1      1351 2.01365E-03-6.07986E-04-3.61000E-15
 -1      1352 2.36418E-03-6.62888E-04-5.02560E-15
 -1      1353 2.50110E-03-6.68225E-04-5.71483E-15
 -1      1354 2.28855E-03-6.24127E-04-4.81913E-15
 -1      1355 2.63847E-03-6.72468E-04-6.44782E-15
 -1      1356 2.77627E-03-6.75779E-04-7.22407E-15
 -1      1357 2.56452E-03-6.34653E-04-6.20208E-15
 -1      1358 2.91451E-03-6.78296E-04-8.04265E-15
 -1      1359 3.05315E-03-6.80147E-04-8.90370E-15
 -1      1360 2.84176E-03-6.41108E-04-7.75709E-15
 -1      1361 3.19219E-03-6.81428E-04-9.80668E-15
 -1      1362 3.33159E-03-6.82236E-04-1.07508E-14
 -1      1363 3.12028E-03-6.44645E-04-9.48205E-15
 -1      1364 3.47134E-03-6.82638E-04-1.17357E-14
 -1      1365 3.61141E-03-6.82705E-04-1.27619E-14
 -1      1366 3.40002E-03-6.46108E-04-1.13720E-14
 -1      1367 3.75178E-03-6.82481E-04-1.38292E-14
 -1      1368 3.89242E-03-6.82016E-04-1.49374E-14
 -1      1369 3.68087E-03-6.46105E-04-1.34257E-14
 -1      1370 4.03331E-03-6.81336E-04-1.60864E-14
 -1      1371 4.17444E-03-6.80475E-04-1.72761E-14
 -1      1372 3.96269E-03-6.45054E-04-1.56430E-14
 -1      1373 4.31579E-03-6.79445E-04-1.85068E-14
 -1      1374 4.45734E-03-6.78268E-04-1.97785E-14
 -1      1375 4.24536E-03-6.43225E-04-1.80231E-14
 -1      1376 4.59909E-03-6.76942E-04-2.10908E-14
 -1      1377 4.74102E-03-6.75484E-04-2.24438E-14
 -1      1378 4.52879E-03-6.40773E-04-2.05666E-14
 -1      1379 4.88313E-03-6.73881E-04-2.38367E-14
 -1      1380 5.02542E-03-6.72142E-04-2.52686E-14
 -1      1381 4.81293E-03-6.37761E-04-2.32721E-14
 -1      1382 5.16790E-03-6.70250E-04-2.67409E-14
 -1      1383 5.31058E-03-6.68208E-04-2.82525E-14
 -1      1384 5.09775E-03-6.34188E-04-2.61371E-14
 -1      1385 5.45346E-03-6.65995E-04-2.98012E-14
 -1      1386 5.59657E-03-6.63614E-04-3.13903E-14
 -1      1387 5.38330E-03-6.29998E-04-2.91583E-14
 -1      1388 5.73994E-03-6.61039E-04-3.30180E-14
 -1      1389 5.88360E-03-6.58276E-04-3.46844E-14
 -1      1390 5.66970E-03-6.25108E-04-3.23343E-14
 -1      1391 6.02758E-03-6.55296E-04-3.63900E-14
 -1      1392 6.17194E-03-6.52116E-04-3.81331E-14
 -1      1393 5.95714E-03-6.19421E-04-3.56661E-14
 -1      1394 6.31674E-03-6.48706E-04-3.99174E-14
 -1      1395 6.46203E-03-6.45096E-04-4.17402E-14
 -1      1396 6.24591E-03-6.12853E-04-3.91550E-14
 -1      1397 6.60791E-03-6.41261E-04-4.36021E-14
 -1      1398 6.75444E-03-6.37253E-04-4.55011E-14
 -1      1399 6.53641E-03-6.05361E-04-4.27995E-14
 -1      1400 6.90176E-03-6.33058E-04-4.74388E-14
 -1      1401 7.04995E-03-6.28761E-04-4.94155E-14
 -1      1402 6.82921E-03-5.96988E-04-4.65980E-14
 -1      1403 7.19916E-03-6.24369E-04-5.14278E-14
 -1      1404 7.34954E-03-6.20015E-04-5.34758E-14
 -1      1405 7.12499E-03-5.87931E-04-5.05461E-14
 -1      1406 7.50125E-03-6.15745E-04-5.55585E-14
 -1      1407 7.65445E-03-6.11760E-04-5.76755E-14
 -1      1408 7.42465E-03-5.78631E-04-5.46392E-14
 -1      1409 7.80936E-03-6.08172E-04-5.98279E-14
 -1      1410 7.96617E-03-6.05274E-04-6.20147E-14
 -1      1411 7.72927E-03-5.69915E-04-5.88734E-14
 -1      1412 8.12511E-03-6.03289E-04-6.42364E-14
 -1      1413 8.28640E-03-6.02632E-04-6.64931E-14
 -1      1414 8.04011E-03-5.63203E-04-6.32453E-14
 -1      1415 8.45027E-03-6.03700E-04-6.87827E-14
 -1      1416 8.61691E-03-6.07063E-04-7.11060E-14
 -1      1417 8.35857E-03-5.60802E-04-6.77547E-14
 -1      1418 8.78653E-03-6.13372E-04-7.34646E-14
 -1      1419 8.95925E-03-6.23375E-04-7.58545E-14
 -1      1420 8.68603E-03-5.66290E-04-7.23998E-14
 -1      1421 9.13514E-03-6.38053E-04-7.82778E-14
 -1      1422 9.31416E-03-6.58319E-04-8.07338E-14
 -1      1423 9.02366E-03-5.84974E-04-7.71777E-14
 -1      1424 9.49614E-03-6.85490E-04-8.32251E-14
 -1      1425 9.68071E-03-7.20527E-04-8.57487E-14
 -1      1426 9.37194E-03-6.24219E-04-8.20880E-14
 -1      1427 9.86733E-03-7.64866E-04-8.83035E-14
 -1      1428 1.00551E-02-8.19195E-04-9.08877E-14
 -1      1429 9.73011E-03-6.93228E-04-8.71274E-14
 -1      1430 1.02431E-02-8.84438E-04-9.35025E-14
 -1      1431 1.04298E-02-9.60305E-04-9.61478E-14
 -1      1432 1.00953E-02-8.01316E-04-9.22903E-14
 -1      1433 1.06138E-02-1.04609E-03-9.88215E-14
 -1      1434 1.07933E-02-1.13959E-03-1.01527E-13
 -1      1435 1.04619E-02-9.53355E-04-9.75712E-14
 -1      1436 1.09670E-02-1.23730E-03-1.04267E-13
 -1      1437 1.11337E-02-1.33444E-03-1.07040E-13
 -1      1438 1.08213E-02-1.14187E-03-1.02977E-13
 -1      1439 1.12927E-02-1.42493E-03-1.09845E-13
 -1      1440 1.14444E-02-1.50257E-03-1.12690E-13
 -1      1441 1.11642E-02-1.33887E-03-1.08517E-13
 -1      1442 1.15899E-02-1.56130E-03-1.15568E-13
 -1      1443 1.17317E-02-1.59688E-03-1.18483E-13
 -1      1444 1.14857E-02-1.49698E-03-1.14198E-13
 -1      1445 1.18719E-02-1.60711E-03-1.21439E-13
 -1      1446 1.20140E-02-1.59259E-03-1.24435E-13
 -1      1447 1.17920E-02-1.56927E-03-1.20030E-13
 -1      1448 1.21599E-02-1.55663E-03-1.27469E-13
 -1      1449 1.23116E-02-1.50409E-03-1.30544E-13
 -1      1450 1.20985E-02-1.53903E-03-1.26018E-13
 -1      1451 1.24697E-02-1.44126E-03-1.33659E-13
 -1      1452 1.26341E-02-1.37404E-03-1.36813E-13
 -1      1453 1.24190E-02-1.43151E-03-1.32166E-13
 -1      1454 1.28039E-02-1.30785E-03-1.39998E-13
 -1      1455 1.29777E-02-1.24663E-03-1.43212E-13
 -1      1456 1.27567E-02-1.29509E-03-1.38463E-13
 -1      1457 1.31539E-02-1.19294E-03-1.46452E-13
 -1      1458 1.33309E-02-1.14820E-03-1.49717E-13
 -1      1459 1.31049E-02-1.17196E-03-1.44880E-13
 -1      1460 1.35072E-02-1.11234E-03-1.53004E-13
 -1      1461 1.36815E-02-1.08501E-03-1.56310E-13
 -1      1462 1.34540E-02-1.08295E-03-1.51400E-13
 -1      1463 1.38530E-02-1.06473E-03-1.59630E-13
 -1      1464 1.40209E-02-1.05029E-03-1.62959E-13
 -1      1465 1.37960E-02-1.02952E-03-1.57998E-13
 -1      1466 1.41849E-02-1.03974E-03-1.66304E-13
 -1      1467 1.43448E-02-1.03165E-03-1.69660E-13
 -1      1468 1.41261E-02-1.00224E-03-1.64655E-13
 -1      1469 1.45007E-02-1.02415E-03-1.73023E-13
 -1      1470 1.46529E-02-1.01584E-03-1.76394E-13
 -1      1471 1.44427E-02-9.87743E-04-1.71358E-13
 -1      1472 1.48018E-02-1.00534E-03-1.79778E-13
 -1      1473 1.49480E-02-9.91570E-04-1.83175E-13
 -1      1474 1.47462E-02-9.72758E-04-1.78100E-13
 -1      1475 1.51588E-02-9.61451E-04-1.88110E-13
 -1      1476 1.51063E-02-9.34624E-04-1.86415E-13
 -1      1477 6.43093E-04 3.72033E-04-1.09789E-16
 -1      1478 4.92964E-04 3.03704E-04-3.36103E-17
 -1      1479 4.44892E-04 2.65907E-04-7.13405E-17
 -1      1480 9.28682E-04 4.72010E-04-3.91763E-16
 -1      1481 7.87818E-04 4.26513E-04-2.29241E-16
 -1      1482 7.44756E-04 3.90741E-04-2.74791E-16
 -1      1483 1.20357E-03 5.41444E-04-8.46260E-16
 -1      1484 1.06691E-03 5.09758E-04-5.96921E-16
 -1      1485 1.03080E-03 4.76195E-04-6.49125E-16
 -1      1486 1.47411E-03 5.90654E-04-1.47721E-15
 -1      1487 1.33907E-03 5.68189E-04-1.13969E-15
 -1      1488 1.30872E-03 5.36033E-04-1.19563E-15
 -1      1489 1.74363E-03 6.25559E-04-2.28535E-15
 -1      1490 1.60883E-03 6.09654E-04-1.85859E-15
 -1      1491 1.58294E-03 5.78333E-04-1.91672E-15
 -1      1492 2.01382E-03 6.50025E-04-3.27136E-15
 -1      1493 1.87856E-03 6.38925E-04-2.75626E-15
 -1      1494 1.85609E-03 6.08069E-04-2.81391E-15
 -1      1495 2.28548E-03 6.66795E-04-4.43416E-15
 -1      1496 2.14943E-03 6.59241E-04-3.83081E-15
 -1      1497 2.12958E-03 6.28620E-04-3.88765E-15
 -1      1498 2.55892E-03 6.77905E-04-5.77129E-15
 -1      1499 2.42196E-03 6.72957E-04-5.08115E-15
 -1      1500 2.40411E-03 6.42432E-04-5.13614E-15
 -1      1501 2.83420E-03 6.84888E-04-7.28142E-15
 -1      1502 2.69633E-03 6.81836E-04-6.50456E-15
 -1      1503 2.68000E-03 6.51324E-04-6.55670E-15
 -1      1504 3.11123E-03 6.88892E-04-8.96389E-15
 -1      1505 2.97251E-03 6.87205E-04-8.10144E-15
 -1      1506 2.95730E-03 6.56658E-04-8.14924E-15
 -1      1507 3.38983E-03 6.90769E-04-1.08164E-14
 -1      1508 3.25035E-03 6.90055E-04-9.86854E-15
 -1      1509 3.23599E-03 6.59448E-04-9.91247E-15
 -1      1510 3.66981E-03 6.91132E-04-1.28413E-14
 -1      1511 3.52966E-03 6.91110E-04-1.18075E-14
 -1      1512 3.51593E-03 6.60433E-04-1.18458E-14
 -1      1513 3.95098E-03 6.90409E-04-1.50348E-14
 -1      1514 3.81026E-03 6.90886E-04-1.39168E-14
 -1      1515 3.79698E-03 6.60139E-04-1.39491E-14
 -1      1516 4.23315E-03 6.88885E-04-1.73963E-14
 -1      1517 4.09195E-03 6.89734E-04-1.61940E-14
 -1      1518 4.07902E-03 6.58921E-04-1.62191E-14
 -1      1519 4.51619E-03 6.86727E-04-1.99247E-14
 -1      1520 4.37457E-03 6.87877E-04-1.86401E-14
 -1      1521 4.36190E-03 6.57004E-04-1.86574E-14
 -1      1522 4.80001E-03 6.84021E-04-2.26214E-14
 -1      1523 4.65801E-03 6.85439E-04-2.12527E-14
 -1      1524 4.64555E-03 6.54510E-04-2.12631E-14
 -1      1525 5.08456E-03 6.80788E-04-2.54830E-14
 -1      1526 4.94220E-03 6.82469E-04-2.40315E-14
 -1      1527 4.92991E-03 6.51488E-04-2.40345E-14
 -1      1528 5.36989E-03 6.77009E-04-2.85064E-14
 -1      1529 5.22713E-03 6.78966E-04-2.69746E-14
 -1      1530 5.21498E-03 6.47932E-04-2.69690E-14
 -1      1531 5.65608E-03 6.72648E-04-3.16945E-14
 -1      1532 5.51287E-03 6.74899E-04-3.00799E-14
 -1      1533 5.50082E-03 6.43803E-04-3.00655E-14
 -1      1534 5.94332E-03 6.67674E-04-3.50351E-14
 -1      1535 5.79956E-03 6.70232E-04-3.33452E-14
 -1      1536 5.78757E-03 6.39058E-04-3.33205E-14
 -1      1537 6.23187E-03 6.62092E-04-3.85377E-14
 -1      1538 6.08741E-03 6.64948E-04-3.67663E-14
 -1      1539 6.07542E-03 6.33667E-04-3.67347E-14
 -1      1540 6.52210E-03 6.55980E-04-4.21936E-14
 -1      1541 6.37675E-03 6.59083E-04-4.03466E-14
 -1      1542 6.36466E-03 6.27656E-04-4.03063E-14
 -1      1543 6.81448E-03 6.49538E-04-4.60011E-14
 -1      1544 6.66799E-03 6.52769E-04-4.40797E-14
 -1      1545 6.65565E-03 6.21139E-04-4.40296E-14
 -1      1546 7.10954E-03 6.43142E-04-4.99528E-14
 -1      1547 6.96164E-03 6.46287E-04-4.79589E-14
 -1      1548 6.94883E-03 6.14380E-04-4.78981E-14
 -1      1549 7.40792E-03 6.37422E-04-5.40450E-14
 -1      1550 7.25828E-03 6.40131E-04-5.19805E-14
 -1      1551 7.24473E-03 6.07855E-04-5.19110E-14
 -1      1552 7.71022E-03 6.33341E-04-5.82752E-14
 -1      1553 7.55854E-03 6.35087E-04-5.61435E-14
 -1      1554 7.54387E-03 6.02330E-04-5.60650E-14
 -1      1555 8.01700E-03 6.32269E-04-6.26410E-14
 -1      1556 7.86302E-03 6.32316E-04-6.04420E-14
 -1      1557 7.84678E-03 5.98952E-04-6.03564E-14
 -1      1558 8.32858E-03 6.36044E-04-6.71395E-14
 -1      1559 8.17217E-03 6.33419E-04-6.48738E-14
 -1      1560 8.15385E-03 5.99321E-04-6.47809E-14
 -1      1561 8.64486E-03 6.46941E-04-7.17696E-14
 -1      1562 8.48615E-03 6.40465E-04-6.94377E-14
 -1      1563 8.46522E-03 6.05520E-04-6.93372E-14
 -1      1564 8.96506E-03 6.67508E-04-7.65333E-14
 -1      1565 8.80453E-03 6.55901E-04-7.41344E-14
 -1      1566 8.78057E-03 6.20047E-04-7.40269E-14
 -1      1567 9.28746E-03 7.00126E-04-8.14309E-14
 -1      1568 9.12612E-03 6.82262E-04-7.89650E-14
 -1      1569 9.09895E-03 6.45539E-04-7.88501E-14
 -1      1570 9.60922E-03 7.46219E-04-8.64585E-14
 -1      1571 9.44864E-03 7.21572E-04-8.39297E-14
 -1      1572 9.41856E-03 6.84182E-04-8.38049E-14
 -1      1573 9.92645E-03 8.05058E-04-9.16149E-14
 -1      1574 9.76869E-03 7.74332E-04-8.90192E-14
 -1      1575 9.73671E-03 7.36710E-04-8.88874E-14
 -1      1576 1.02347E-02 8.72390E-04-9.69064E-14
 -1      1577 1.00820E-02 8.38199E-04-9.42425E-14
 -1      1578 1.00499E-02 8.01039E-04-9.41030E-14
 -1      1579 1.05301E-02 9.39516E-04-1.02345E-13
 -1      1580 1.03842E-02 9.06744E-04-9.96083E-14
 -1      1581 1.03547E-02 8.70934E-04-9.94594E-14
 -1      1582 1.08108E-02 9.93758E-04-1.07924E-13
 -1      1583 1.06723E-02 9.69102E-04-1.05118E-13
 -1      1584 1.06482E-02 9.35527E-04-1.04957E-13
 -1      1585 1.10782E-02 1.02108E-03-1.13633E-13
 -1      1586 1.09459E-02 1.01149E-03-1.10763E-13
 -1      1587 1.09301E-02 9.80702E-04-1.10590E-13
 -1      1588 1.13374E-02 1.01048E-03-1.19465E-13
 -1      1589 1.12084E-02 1.02081E-03-1.16534E-13
 -1      1590 1.12026E-02 9.92771E-04-1.16350E-13
 -1      1591 1.15958E-02 9.58145E-04-1.25414E-13
 -1      1592 1.14662E-02 9.89290E-04-1.22424E-13
 -1      1593 1.14710E-02 9.63284E-04-1.22232E-13
 -1      1594 1.18603E-02 8.68899E-04-1.31480E-13
 -1      1595 1.17269E-02 9.17465E-04-1.28432E-13
 -1      1596 1.17412E-02 8.92421E-04-1.28232E-13
 -1      1597 1.21352E-02 7.53951E-04-1.37653E-13
 -1      1598 1.19963E-02 8.13805E-04-1.34555E-13
 -1      1599 1.20182E-02 7.88715E-04-1.34349E-13
 -1      1600 1.24210E-02 6.26355E-04-1.43922E-13
 -1      1601 1.22769E-02 6.91017E-04-1.40776E-13
 -1      1602 1.23038E-02 6.65266E-04-1.40566E-13
 -1      1603 1.27151E-02 4.96764E-04-1.50267E-13
 -1      1604 1.25673E-02 5.61376E-04-1.47087E-13
 -1      1605 1.25970E-02 5.34829E-04-1.46869E-13
 -1      1606 1.30134E-02 3.71173E-04-1.56672E-13
 -1      1607 1.28640E-02 4.33341E-04-1.53462E-13
 -1      1608 1.28949E-02 4.06230E-04-1.53240E-13
 -1      1609 1.33116E-02 2.50826E-04-1.63119E-13
 -1      1610 1.31628E-02 3.10447E-04-1.59891E-13
 -1      1611 1.31940E-02 2.83188E-04-1.59665E-13
 -1      1612 1.36069E-02 1.33467E-04-1.69609E-13
 -1      1613 1.34598E-02 1.91995E-04-1.66358E-13
 -1      1614 1.34913E-02 1.65017E-04-1.66132E-13
 -1      1615 1.38980E-02 1.51584E-05-1.76135E-13
 -1      1616 1.37530E-02 7.46533E-05-1.72868E-13
 -1      1617 1.37851E-02 4.82733E-05-1.72638E-13
 -1      1618 1.41855E-02-1.07522E-04-1.82683E-13
 -1      1619 1.40421E-02-4.55484E-05-1.79408E-13
 -1      1620 1.40749E-02-7.12314E-05-1.79173E-13
 -1      1621 1.43506E-02-1.84223E-04-1.86116E-13
 -1      1622 1.45224E-02-2.93389E-04-1.86612E-13
 -1      1623 1.44575E-02-2.52321E-04-1.86522E-13
 -1      1624 1.46568E-02-3.72359E-04-1.86766E-13
 -1      1625 1.45889E-02-3.33510E-04-1.86692E-13
 -1      1626 1.44321E-02-2.58290E-04-1.83813E-13
 -1      1627 1.47965E-02-4.44855E-04-1.86906E-13
 -1      1628 1.47261E-02-4.09589E-04-1.86836E-13
 -1      1629 1.45687E-02-3.35888E-04-1.83971E-13
 -1      1630 1.49385E-02-5.08114E-04-1.87067E-13
 -1      1631 1.48675E-02-4.77804E-04-1.86984E-13
 -1      1632 1.47103E-02-4.07343E-04-1.84126E-13
 -1      1633 1.50755E-02-5.58950E-04-1.87246E-13
 -1      1634 1.50077E-02-5.35054E-04-1.87154E-13
 -1      1635 1.48524E-02-4.70005E-04-1.84292E-13
 -1      1636 1.52048E-02-5.97736E-04-1.87443E-13
 -1      1637 1.51419E-02-5.80000E-04-1.87343E-13
 -1      1638 1.49905E-02-5.22715E-04-1.84466E-13
 -1      1639 1.53152E-02-6.23855E-04-1.87650E-13
 -1      1640 1.52629E-02-6.12274E-04-1.87546E-13
 -1      1641 1.51178E-02-5.64916E-04-1.84651E-13
 -1      1642 1.53977E-02-6.39950E-04-1.87838E-13
 -1      1643 1.53604E-02-6.32904E-04-1.87748E-13
 -1      1644 1.52235E-02-5.96814E-04-1.84832E-13
 -1      1645 1.54458E-02-6.50883E-04-1.87994E-13
 -1      1646 1.54263E-02-6.45696E-04-1.87921E-13
 -1      1647 1.52988E-02-6.21074E-04-1.84997E-13
 -1      1648 1.54571E-02-6.62951E-04-1.88125E-13
 -1      1649 1.54560E-02-6.56367E-04-1.88061E-13
 -1      1650 1.53378E-02-6.42139E-04-1.85136E-13
 -1      1651 1.54355E-02-6.82124E-04-1.88231E-13
 -1      1652 1.54500E-02-6.71286E-04-1.88182E-13
 -1      1653 1.53396E-02-6.65205E-04-1.85250E-13
 -1      1654 1.53880E-02-7.14087E-04-1.88317E-13
 -1      1655 1.54144E-02-6.96305E-04-1.88278E-13
 -1      1656 1.53092E-02-6.95499E-04-1.85340E-13
 -1      1657 1.53258E-02-7.61343E-04-1.88380E-13
 -1      1658 1.53580E-02-7.35736E-04-1.88354E-13
 -1      1659 1.52548E-02-7.37122E-04-1.85408E-13
 -1      1660 1.52611E-02-8.23801E-04-1.88410E-13
 -1      1661 1.52931E-02-7.90792E-04-1.88398E-13
 -1      1662 1.51887E-02-7.91569E-04-1.85450E-13
 -1      1663 1.51680E-02-8.96940E-04-1.87417E-13
 -1      1664 1.51955E-02-8.58659E-04-1.87419E-13
 -1      1665 1.50879E-02-8.55919E-04-1.84475E-13
 -1      1666 1.49566E-02-9.25065E-04-1.82488E-13
 -1      1667 1.38894E-02-3.30871E-04-1.34638E-13
 -1      1668 1.39289E-02-3.78600E-04-1.34780E-13
 -1      1669 1.37105E-02-2.11360E-04-1.33853E-13
 -1      1670 1.38081E-02-2.69176E-04-1.34292E-13
 -1      1671 1.34341E-02-6.02083E-05-1.32414E-13
 -1      1672 1.35726E-02-1.31063E-04-1.33103E-13
 -1      1673 1.30739E-02 1.12148E-04-1.30555E-13
 -1      1674 1.32468E-02 2.65583E-05-1.31513E-13
 -1      1675 1.26567E-02 3.02344E-04-1.28172E-13
 -1      1676 1.28467E-02 2.10318E-04-1.29376E-13
 -1      1677 1.22625E-02 4.79938E-04-1.25262E-13
 -1      1678 1.24457E-02 4.05409E-04-1.26573E-13
 -1      1679 1.18783E-02 5.97996E-04-1.22318E-13
 -1      1680 1.20516E-02 5.51532E-04-1.23677E-13
 -1      1681 1.15007E-02 6.43698E-04-1.19256E-13
 -1      1682 1.16740E-02 6.32531E-04-1.20673E-13
 -1      1683 1.11249E-02 6.09093E-04-1.16192E-13
 -1      1684 1.12969E-02 6.36202E-04-1.17580E-13
 -1      1685 1.07303E-02 4.96380E-04-1.13207E-13
 -1      1686 1.09132E-02 5.57017E-04-1.14553E-13
 -1      1687 1.03307E-02 3.31058E-04-1.10434E-13
 -1      1688 1.05149E-02 4.10668E-04-1.11636E-13
 -1      1689 9.95852E-03 1.72932E-04-1.08372E-13
 -1      1690 1.01170E-02 2.45758E-04-1.09278E-13
 -1      1691 9.64036E-03 6.53982E-06-1.06469E-13
 -1      1692 9.78549E-03 7.55867E-05-1.07205E-13
 -1      1693 9.41342E-03-9.98749E-05-1.05652E-13
 -1      1694 9.49853E-03-4.85177E-05-1.06057E-13
 -1      1695 9.31133E-03-1.99051E-04-1.05159E-13
 -1      1696 9.34455E-03-1.55388E-04-1.05320E-13
 -1      1697 9.32743E-03-2.95919E-04-1.05143E-13
 -1      1698 9.30406E-03-2.50833E-04-1.05047E-13
 -1      1699 9.46259E-03-4.08424E-04-1.05811E-13
 -1      1700 9.38677E-03-3.55412E-04-1.05471E-13
 -1      1701 9.71346E-03-5.54257E-04-1.06997E-13
 -1      1702 9.58239E-03-4.81467E-04-1.06373E-13
 -1      1703 1.00600E-02-7.39991E-04-1.08758E-13
 -1      1704 9.88991E-03-6.49612E-04-1.07878E-13
 -1      1705 1.04636E-02-9.43682E-04-1.10955E-13
 -1      1706 1.02764E-02-8.46251E-04-1.09865E-13
 -1      1707 1.08744E-02-1.14460E-03-1.13667E-13
 -1      1708 1.06812E-02-1.05627E-03-1.12390E-13
 -1      1709 1.12792E-02-1.29006E-03-1.16558E-13
 -1      1710 1.10953E-02-1.23104E-03-1.15209E-13
 -1      1711 1.17023E-02-1.36107E-03-1.19827E-13
 -1      1712 1.15095E-02-1.34357E-03-1.18261E-13
 -1      1713 1.21087E-02-1.31694E-03-1.23129E-13
 -1      1714 1.19268E-02-1.34987E-03-1.21664E-13
 -1      1715 1.25285E-02-1.18732E-03-1.26172E-13
 -1      1716 1.23381E-02-1.25512E-03-1.24788E-13
 -1      1717 1.29383E-02-1.01719E-03-1.28864E-13
 -1      1718 1.27543E-02-1.09940E-03-1.27660E-13
 -1      1719 1.33182E-02-8.30111E-04-1.31283E-13
 -1      1720 1.31443E-02-9.14917E-04-1.30246E-13
 -1      1721 1.36362E-02-6.74002E-04-1.33002E-13
 -1      1722 1.35027E-02-7.43943E-04-1.32263E-13
 -1      1723 1.38489E-02-5.43775E-04-1.34160E-13
 -1      1724 1.37643E-02-6.00450E-04-1.33703E-13
 -1      1725 1.39376E-02-4.34014E-04-1.34681E-13
 -1      1726 1.39132E-02-4.82852E-04-1.34522E-13
 -1      1727 1.28900E-02 1.12250E-04-1.30865E-13
 -1      1728 1.32934E-02-7.72288E-05-1.32964E-13
 -1      1729 1.43841E-02-2.09494E-04-1.85880E-13
 -1      1730 1.42920E-02-1.75544E-04-1.83088E-13
 -1      1731 1.38502E-02-3.37143E-04-1.35735E-13
 -1      1732 1.36227E-02-2.29360E-04-1.34629E-13
 -1      1733 1.39438E-02-4.11277E-04-1.35988E-13
 -1      1734 1.24819E-02 3.29713E-04-1.28070E-13
 -1      1735 1.21007E-02 5.19954E-04-1.24876E-13
 -1      1736 1.17466E-02 6.38484E-04-1.21639E-13
 -1      1737 1.14048E-02 6.66486E-04-1.18317E-13
 -1      1738 1.10575E-02 5.95853E-04-1.15010E-13
 -1      1739 1.06808E-02 4.41187E-04-1.11816E-13
 -1      1740 1.02880E-02 2.52362E-04-1.09111E-13
 -1      1741 9.90982E-03 6.89611E-05-1.06806E-13
 -1      1742 9.59152E-03-6.66090E-05-1.05247E-13
 -1      1743 9.37771E-03-1.55845E-04-1.04513E-13
 -1      1744 9.29789E-03-2.26286E-04-1.04073E-13
 -1      1745 9.35265E-03-2.94588E-04-1.04285E-13
 -1      1746 9.53875E-03-3.94137E-04-1.05165E-13
 -1      1747 9.84157E-03-5.42240E-04-1.06592E-13
 -1      1748 1.02308E-02-7.41938E-04-1.08564E-13
 -1      1749 1.06430E-02-9.73278E-04-1.11089E-13
 -1      1750 1.10427E-02-1.18927E-03-1.14055E-13
 -1      1751 1.14345E-02-1.34158E-03-1.17294E-13
 -1      1752 1.18026E-02-1.38423E-03-1.20834E-13
 -1      1753 1.21760E-02-1.29777E-03-1.24341E-13
 -1      1754 1.25775E-02-1.12882E-03-1.27503E-13
 -1      1755 1.29843E-02-9.24781E-04-1.30389E-13
 -1      1756 1.33681E-02-7.34816E-04-1.32766E-13
 -1      1757 1.36846E-02-5.89672E-04-1.34457E-13
 -1      1758 1.38848E-02-4.87267E-04-1.35528E-13
 -1      1759 2.85246E-04-1.76238E-04-4.19722E-17
 -1      1760 3.32170E-04-1.16785E-04-1.98450E-16
 -1      1761 3.36322E-04-1.33032E-04-1.82403E-16
 -1      1762 3.42214E-04-1.52019E-04-1.63186E-16
 -1      1763 3.51767E-04-1.74021E-04-1.36935E-16
 -1      1764 4.58332E-04-1.88103E-04-2.64735E-16
 -1      1765 3.24555E-04-6.53908E-05-2.33578E-16
 -1      1766 3.25701E-04-7.66810E-05-2.27574E-16
 -1      1767 3.23073E-04-4.38957E-05-2.41411E-16
 -1      1768 3.23723E-04-5.43859E-05-2.38091E-16
 -1      1769 4.36501E-04-7.93049E-05-3.49533E-16
 -1      1770 3.22293E-04-2.37751E-05-2.45463E-16
 -1      1771 3.22622E-04-3.36897E-05-2.43824E-16
 -1      1772 4.34516E-04-5.13252E-05-3.59196E-16
 -1      1773 3.22000E-04-4.33794E-06-2.46426E-16
 -1      1774 3.22097E-04-1.39916E-05-2.46155E-16
 -1      1775 4.33499E-04-2.49274E-05-3.63763E-16
 -1      1776 3.22122E-04 1.49826E-05-2.45057E-16
 -1      1777 3.22009E-04 5.31891E-06-2.46155E-16
 -1      1778 4.33204E-04 7.57253E-07-3.64427E-16
 -1      1779 3.22686E-04 3.47335E-05-2.40666E-16
 -1      1780 3.22336E-04 2.47867E-05-2.43173E-16
 -1      1781 4.33558E-04 2.64703E-05-3.61175E-16
 -1      1782 3.23811E-04 5.51719E-05-2.32805E-16
 -1      1783 3.23150E-04 4.48089E-05-2.37413E-16
 -1      1784 4.34630E-04 5.27279E-05-3.53870E-16
 -1      1785 3.25865E-04 7.78234E-05-2.20351E-16
 -1      1786 3.24668E-04 6.62424E-05-2.27493E-16
 -1      1787 4.36680E-04 8.06085E-05-3.41646E-16
 -1      1788 3.29549E-04 1.03661E-04-2.00998E-16
 -1      1789 3.27403E-04 9.03110E-05-2.11948E-16
 -1      1790 4.40323E-04 1.11578E-04-3.22374E-16
 -1      1791 3.36580E-04 1.35118E-04-1.70965E-16
 -1      1792 3.32399E-04 1.18620E-04-1.87974E-16
 -1      1793 4.46787E-04 1.47347E-04-2.92775E-16
 -1      1794 3.52304E-04 1.77611E-04-1.24643E-16
 -1      1795 3.42810E-04 1.54766E-04-1.50677E-16
 -1      1796 4.59317E-04 1.91467E-04-2.47957E-16
 -1      1797 4.07705E-04 2.33694E-04-9.22656E-17
 -1      1798 3.78093E-04 2.02669E-04-1.13787E-16
 -1      1799 4.95859E-04 2.44006E-04-2.07611E-16
 -1      1800 5.58554E-04 3.02516E-04-1.74800E-16
 -1      1801 3.40027E-04-1.90918E-04-9.00430E-17
 -1      1802 8.53579E-04 4.07137E-04-4.68484E-16
 -1      1803 7.07173E-04 3.59392E-04-3.00812E-16
 -1      1804 6.73407E-04 3.28824E-04-3.21778E-16
 -1      1805 4.58959E-04-2.36729E-04-1.75803E-16
 -1      1806 8.07239E-04-3.74132E-04-5.02501E-16
 -1      1807 9.52507E-04-4.15320E-04-7.17606E-16
 -1      1808 1.09535E-03-4.50013E-04-9.75159E-16
 -1      1809 1.23702E-03-4.78913E-04-1.27666E-15
 -1      1810 1.00394E-03-3.97938E-04-9.04008E-16
 -1      1811 1.37742E-03-5.03401E-04-1.62147E-15
 -1      1812 1.51711E-03-5.23775E-04-2.01018E-15
 -1      1813 1.28962E-03-4.55912E-04-1.51866E-15
 -1      1814 1.65627E-03-5.40953E-04-2.44267E-15
 -1      1815 1.79511E-03-5.55176E-04-2.91932E-15
 -1      1816 1.57202E-03-4.96861E-04-2.30584E-15
 -1      1817 1.93382E-03-5.67050E-04-3.43943E-15
 -1      1818 2.07247E-03-5.76779E-04-4.00344E-15
 -1      1819 1.85264E-03-5.25401E-04-3.26681E-15
 -1      1820 2.21122E-03-5.84779E-04-4.61115E-15
 -1      1821 2.35005E-03-5.91222E-04-5.26193E-15
 -1      1822 2.13253E-03-5.44868E-04-4.40145E-15
 -1      1823 2.48908E-03-5.96401E-04-5.95566E-15
 -1      1824 2.62828E-03-6.00457E-04-6.69250E-15
 -1      1825 2.41238E-03-5.57711E-04-5.70841E-15
 -1      1826 2.76774E-03-6.03599E-04-7.47200E-15
 -1      1827 2.90739E-03-6.05939E-04-8.29367E-15
 -1      1828 2.69259E-03-5.65752E-04-7.18604E-15
 -1      1829 3.04731E-03-6.07627E-04-9.15762E-15
 -1      1830 3.18745E-03-6.08748E-04-1.00624E-14
 -1      1831 2.97338E-03-5.70351E-04-8.83305E-15
 -1      1832 3.32783E-03-6.09407E-04-1.10077E-14
 -1      1833 3.46842E-03-6.09670E-04-1.19946E-14
 -1      1834 3.25482E-03-5.72512E-04-1.06444E-14
 -1      1835 3.60924E-03-6.09605E-04-1.30224E-14
 -1      1836 3.75025E-03-6.09261E-04-1.40910E-14
 -1      1837 3.53693E-03-5.72958E-04-1.26194E-14
 -1      1838 3.89147E-03-6.08681E-04-1.51995E-14
 -1      1839 4.03286E-03-6.07899E-04-1.63491E-14
 -1      1840 3.81968E-03-5.72199E-04-1.47569E-14
 -1      1841 4.17444E-03-6.06938E-04-1.75405E-14
 -1      1842 4.31617E-03-6.05821E-04-1.87718E-14
 -1      1843 4.10303E-03-5.70571E-04-1.70576E-14
 -1      1844 4.45808E-03-6.04554E-04-2.00432E-14
 -1      1845 4.60013E-03-6.03151E-04-2.13555E-14
 -1      1846 4.38694E-03-5.68277E-04-1.95212E-14
 -1      1847 4.74234E-03-6.01608E-04-2.27098E-14
 -1      1848 4.88470E-03-5.99931E-04-2.41022E-14
 -1      1849 4.67138E-03-5.65417E-04-2.21470E-14
 -1      1850 5.02722E-03-5.98106E-04-2.55334E-14
 -1      1851 5.16990E-03-5.96137E-04-2.70050E-14
 -1      1852 4.95635E-03-5.62009E-04-2.49324E-14
 -1      1853 5.31275E-03-5.94001E-04-2.85159E-14
 -1      1854 5.45579E-03-5.91699E-04-3.00649E-14
 -1      1855 5.24186E-03-5.58012E-04-2.78742E-14
 -1      1856 5.59902E-03-5.89205E-04-3.16525E-14
 -1      1857 5.74248E-03-5.86520E-04-3.32796E-14
 -1      1858 5.52799E-03-5.53342E-04-3.09725E-14
 -1      1859 5.88618E-03-5.83615E-04-3.49453E-14
 -1      1860 6.03017E-03-5.80494E-04-3.66495E-14
 -1      1861 5.81485E-03-5.47891E-04-3.42249E-14
 -1      1862 6.17447E-03-5.77128E-04-3.83938E-14
 -1      1863 6.31914E-03-5.73531E-04-4.01772E-14
 -1      1864 6.10262E-03-5.41548E-04-3.76351E-14
 -1      1865 6.46420E-03-5.69677E-04-4.19993E-14
 -1      1866 6.60975E-03-5.65592E-04-4.38590E-14
 -1      1867 6.39154E-03-5.34224E-04-4.12000E-14
 -1      1868 6.75579E-03-5.61263E-04-4.57577E-14
 -1      1869 6.90248E-03-5.56736E-04-4.76938E-14
 -1      1870 6.68191E-03-5.25888E-04-4.49192E-14
 -1      1871 7.04981E-03-5.52019E-04-4.96662E-14
 -1      1872 7.19796E-03-5.47188E-04-5.16770E-14
 -1      1873 6.97414E-03-5.16620E-04-4.87895E-14
 -1      1874 7.34692E-03-5.42292E-04-5.37233E-14
 -1      1875 7.49693E-03-5.37447E-04-5.58041E-14
 -1      1876 7.26873E-03-5.06687E-04-5.28078E-14
 -1      1877 7.64795E-03-5.32770E-04-5.79205E-14
 -1      1878 7.80029E-03-5.28437E-04-6.00710E-14
 -1      1879 7.56627E-03-4.96653E-04-5.69694E-14
 -1      1880 7.95388E-03-5.24669E-04-6.22556E-14
 -1      1881 8.10908E-03-5.21731E-04-6.44759E-14
 -1      1882 7.86747E-03-4.87546E-04-6.12688E-14
 -1      1883 8.26580E-03-5.20000E-04-6.67297E-14
 -1      1884 8.42442E-03-5.19864E-04-6.90167E-14
 -1      1885 8.17316E-03-4.81092E-04-6.57066E-14
 -1      1886 8.58488E-03-5.21926E-04-7.13367E-14
 -1      1887 8.74750E-03-5.26744E-04-7.36915E-14
 -1      1888 8.48428E-03-4.80038E-04-7.02779E-14
 -1      1889 8.91228E-03-5.35207E-04-7.60791E-14
 -1      1890 9.07938E-03-5.48101E-04-7.84982E-14
 -1      1891 8.80195E-03-4.88565E-04-7.49816E-14
 -1      1892 9.24899E-03-5.66611E-04-8.09519E-14
 -1      1893 9.42089E-03-5.91787E-04-8.34362E-14
 -1      1894 9.12753E-03-5.12727E-04-7.98187E-14
 -1      1895 9.59559E-03-6.24977E-04-8.59530E-14
 -1      1896 9.77221E-03-6.67413E-04-8.85013E-14
 -1      1897 9.46265E-03-5.60725E-04-8.47834E-14
 -1      1898 9.95172E-03-7.20180E-04-9.10783E-14
 -1      1899 1.01322E-02-7.84315E-04-9.36851E-14
 -1      1900 9.80905E-03-6.42497E-04-8.98724E-14
 -1      1901 1.03151E-02-8.59830E-04-9.63237E-14
 -1      1902 1.04974E-02-9.46476E-04-9.89911E-14
 -1      1903 1.01677E-02-7.67617E-04-9.50797E-14
 -1      1904 1.06802E-02-1.04207E-03-1.01691E-13
 -1      1905 1.08602E-02-1.14361E-03-1.04425E-13
 -1      1906 1.05363E-02-9.39632E-04-1.00411E-13
 -1      1907 1.10377E-02-1.24603E-03-1.07192E-13
 -1      1908 1.12107E-02-1.34250E-03-1.09994E-13
 -1      1909 1.09067E-02-1.14586E-03-1.05869E-13
 -1      1910 1.13781E-02-1.42644E-03-1.12833E-13
 -1      1911 1.15426E-02-1.48973E-03-1.15707E-13
 -1      1912 1.12658E-02-1.34654E-03-1.11469E-13
 -1      1913 1.17017E-02-1.52767E-03-1.18622E-13
 -1      1914 1.18624E-02-1.53745E-03-1.21576E-13
 -1      1915 1.16065E-02-1.47970E-03-1.17217E-13
 -1      1916 1.20219E-02-1.51962E-03-1.24571E-13
 -1      1917 1.21866E-02-1.47882E-03-1.27604E-13
 -1      1918 1.19388E-02-1.49824E-03-1.23122E-13
 -1      1919 1.23541E-02-1.42043E-03-1.30676E-13
 -1      1920 1.25258E-02-1.35241E-03-1.33786E-13
 -1      1921 1.22811E-02-1.40937E-03-1.29188E-13
 -1      1922 1.27010E-02-1.28112E-03-1.36931E-13
 -1      1923 1.28770E-02-1.21236E-03-1.40110E-13
 -1      1924 1.26388E-02-1.26683E-03-1.35406E-13
 -1      1925 1.30546E-02-1.15020E-03-1.43316E-13
 -1      1926 1.32302E-02-1.09676E-03-1.46546E-13
 -1      1927 1.30020E-02-1.12763E-03-1.41756E-13
 -1      1928 1.34051E-02-1.05331E-03-1.49803E-13
 -1      1929 1.35767E-02-1.01940E-03-1.53079E-13
 -1      1930 1.33584E-02-1.02299E-03-1.48211E-13
 -1      1931 1.37462E-02-9.94303E-04-1.56372E-13
 -1      1932 1.39120E-02-9.76592E-04-1.59682E-13
 -1      1933 1.37013E-02-9.58757E-04-1.54753E-13
 -1      1934 1.40750E-02-9.64580E-04-1.63009E-13
 -1      1935 1.42345E-02-9.56643E-04-1.66346E-13
 -1      1936 1.40297E-02-9.26704E-04-1.61365E-13
 -1      1937 1.43910E-02-9.50871E-04-1.69696E-13
 -1      1938 1.45446E-02-9.45722E-04-1.73054E-13
 -1      1939 1.43448E-02-9.13589E-04-1.68036E-13
 -1      1940 1.46784E-02-9.41980E-04-1.76073E-13
 -1      1941 1.48269E-02-9.33635E-04-1.79451E-13
 -1      1942 1.48931E-02-8.98610E-04-1.80446E-13
 -1      1943 1.46315E-02-9.07834E-04-1.74398E-13
 -1      1944 1.13863E-03 4.80109E-04-9.29446E-16
 -1      1945 9.96861E-04 4.46854E-04-6.77491E-16
 -1      1946 9.64477E-04 4.17399E-04-7.00584E-16
 -1      1947 1.41774E-03 5.31596E-04-1.56239E-15
 -1      1948 1.27859E-03 5.08145E-04-1.22413E-15
 -1      1949 1.24895E-03 4.80008E-04-1.24747E-15
 -1      1950 1.69411E-03 5.67893E-04-2.36933E-15
 -1      1951 1.55609E-03 5.51399E-04-1.94407E-15
 -1      1952 1.52922E-03 5.24227E-04-1.96602E-15
 -1      1953 1.96967E-03 5.93174E-04-3.35163E-15
 -1      1954 1.83190E-03 5.81740E-04-2.83845E-15
 -1      1955 1.80745E-03 5.55207E-04-2.85816E-15
 -1      1956 2.24549E-03 6.10391E-04-4.50833E-15
 -1      1957 2.10750E-03 6.02665E-04-3.90809E-15
 -1      1958 2.08506E-03 5.76539E-04-3.92384E-15
 -1      1959 2.52213E-03 6.21715E-04-5.83809E-15
 -1      1960 2.38369E-03 6.16697E-04-5.15179E-15
 -1      1961 2.36286E-03 5.90819E-04-5.16279E-15
 -1      1962 2.79983E-03 6.28767E-04-7.33873E-15
 -1      1963 2.66084E-03 6.25706E-04-6.56676E-15
 -1      1964 2.64130E-03 5.99971E-04-6.57242E-15
 -1      1965 3.07869E-03 6.32752E-04-9.01041E-15
 -1      1966 2.93912E-03 6.31091E-04-8.15305E-15
 -1      1967 2.92058E-03 6.05431E-04-8.15259E-15
 -1      1968 3.35866E-03 6.34561E-04-1.08512E-14
 -1      1969 3.21855E-03 6.33891E-04-9.90999E-15
 -1      1970 3.20079E-03 6.08260E-04-9.90233E-15
 -1      1971 3.63966E-03 6.34833E-04-1.28624E-14
 -1      1972 3.49904E-03 6.34863E-04-1.18355E-14
 -1      1973 3.48188E-03 6.09235E-04-1.18209E-14
 -1      1974 3.92159E-03 6.34015E-04-1.50403E-14
 -1      1975 3.78052E-03 6.34543E-04-1.39305E-14
 -1      1976 3.76382E-03 6.08903E-04-1.39077E-14
 -1      1977 4.20434E-03 6.32397E-04-1.73863E-14
 -1      1978 4.06287E-03 6.33295E-04-1.61925E-14
 -1      1979 4.04652E-03 6.07637E-04-1.61610E-14
 -1      1980 4.48782E-03 6.30154E-04-1.98993E-14
 -1      1981 4.34600E-03 6.31348E-04-1.86222E-14
 -1      1982 4.32991E-03 6.05669E-04-1.85825E-14
 -1      1983 4.77198E-03 6.27368E-04-2.25792E-14
 -1      1984 4.62982E-03 6.28827E-04-2.12185E-14
 -1      1985 4.61393E-03 6.03129E-04-2.11698E-14
 -1      1986 5.05680E-03 6.24056E-04-2.54228E-14
 -1      1987 4.91431E-03 6.25778E-04-2.39804E-14
 -1      1988 4.89856E-03 6.00063E-04-2.39229E-14
 -1      1989 5.34232E-03 6.20192E-04-2.84271E-14
 -1      1990 5.19947E-03 6.22194E-04-2.69044E-14
 -1      1991 5.18380E-03 5.96462E-04-2.68366E-14
 -1      1992 5.62861E-03 6.15725E-04-3.15946E-14
 -1      1993 5.48536E-03 6.18034E-04-2.99911E-14
 -1      1994 5.46972E-03 5.92282E-04-2.99132E-14
 -1      1995 5.91583E-03 6.10608E-04-3.49188E-14
 -1      1996 5.77209E-03 6.13246E-04-3.32370E-14
 -1      1997 5.75641E-03 5.87466E-04-3.31490E-14
 -1      1998 6.20420E-03 6.04826E-04-3.84031E-14
 -1      1999 6.05985E-03 6.07794E-04-3.66409E-14
 -1      2000 6.04403E-03 5.81970E-04-3.65440E-14
 -1      2001 6.49399E-03 5.98429E-04-4.20391E-14
 -1      2002 6.34889E-03 6.01691E-04-4.02023E-14
 -1      2003 6.33282E-03 5.75796E-04-4.00944E-14
 -1      2004 6.78559E-03 5.91582E-04-4.58253E-14
 -1      2005 6.63954E-03 5.95039E-04-4.39147E-14
 -1      2006 6.62306E-03 5.69033E-04-4.37966E-14
 -1      2007 7.07940E-03 5.84627E-04-4.97573E-14
 -1      2008 6.93218E-03 5.88082E-04-4.77724E-14
 -1      2009 6.91509E-03 5.61907E-04-4.76444E-14
 -1      2010 7.37592E-03 5.78151E-04-5.38297E-14
 -1      2011 7.22728E-03 5.81276E-04-5.17755E-14
 -1      2012 7.20933E-03 5.54850E-04-5.16367E-14
 -1      2013 7.67562E-03 5.73076E-04-5.80439E-14
 -1      2014 7.52533E-03 5.75365E-04-5.59198E-14
 -1      2015 7.50622E-03 5.48581E-04-5.57706E-14
 -1      2016 7.97894E-03 5.70742E-04-6.23924E-14
 -1      2017 7.82679E-03 5.71469E-04-6.02018E-14
 -1      2018 7.80619E-03 5.44189E-04-6.00443E-14
 -1      2019 8.28618E-03 5.72976E-04-6.68745E-14
 -1      2020 8.13205E-03 5.71168E-04-6.46170E-14
 -1      2021 8.10963E-03 5.43226E-04-6.44506E-14
 -1      2022 8.59736E-03 5.82089E-04-7.14895E-14
 -1      2023 8.44129E-03 5.76537E-04-6.91647E-14
 -1      2024 8.41679E-03 5.47746E-04-6.89895E-14
 -1      2025 8.91209E-03 6.00742E-04-7.62380E-14
 -1      2026 8.75434E-03 5.90092E-04-7.38468E-14
 -1      2027 8.72768E-03 5.60271E-04-7.36635E-14
 -1      2028 9.22934E-03 6.31550E-04-8.11174E-14
 -1      2029 9.07052E-03 6.14536E-04-7.86615E-14
 -1      2030 9.04189E-03 5.83562E-04-7.84691E-14
 -1      2031 9.54734E-03 6.76326E-04-8.61271E-14
 -1      2032 9.38845E-03 6.52202E-04-8.36067E-14
 -1      2033 9.35846E-03 6.20098E-04-8.34063E-14
 -1      2034 9.86352E-03 7.34885E-04-9.12671E-14
 -1      2035 9.70593E-03 7.04073E-04-8.86803E-14
 -1      2036 9.67572E-03 6.71124E-04-8.84700E-14
 -1      2037 1.01747E-02 8.03558E-04-9.65429E-14
 -1      2038 1.00201E-02 7.68397E-04-9.38881E-14
 -1      2039 9.99117E-03 7.35270E-04-9.36694E-14
 -1      2040 1.04779E-02 8.74014E-04-1.01958E-13
 -1      2041 1.03276E-02 8.39265E-04-9.92329E-14
 -1      2042 1.03018E-02 8.07011E-04-9.90032E-14
 -1      2043 1.07709E-02 9.33382E-04-1.07512E-13
 -1      2044 1.06257E-02 9.05939E-04-1.04718E-13
 -1      2045 1.06047E-02 8.75792E-04-1.04476E-13
 -1      2046 1.10543E-02 9.66676E-04-1.13198E-13
 -1      2047 1.09136E-02 9.54046E-04-1.10340E-13
 -1      2048 1.08984E-02 9.26976E-04-1.10085E-13
 -1      2049 1.13311E-02 9.61456E-04-1.19009E-13
 -1      2050 1.11931E-02 9.69252E-04-1.16088E-13
 -1      2051 1.11839E-02 9.45475E-04-1.15824E-13
 -1      2052 1.16066E-02 9.12640E-04-1.24943E-13
 -1      2053 1.14685E-02 9.42303E-04-1.21961E-13
 -1      2054 1.14654E-02 9.21140E-04-1.21687E-13
 -1      2055 1.18860E-02 8.24668E-04-1.30994E-13
 -1      2056 1.17454E-02 8.72895E-04-1.27952E-13
 -1      2057 1.17481E-02 8.53098E-04-1.27671E-13
 -1      2058 1.21723E-02 7.09211E-04-1.37157E-13
 -1      2059 1.20281E-02 7.69538E-04-1.34063E-13
 -1      2060 1.20361E-02 7.49937E-04-1.33774E-13
 -1      2061 1.24657E-02 5.80270E-04-1.43411E-13
 -1      2062 1.23182E-02 6.45708E-04-1.40272E-13
 -1      2063 1.23308E-02 6.25611E-04-1.39978E-13
 -1      2064 1.27643E-02 4.49393E-04-1.49746E-13
 -1      2065 1.26146E-02 5.14650E-04-1.46570E-13
 -1      2066 1.26310E-02 4.93920E-04-1.46271E-13
 -1      2067 1.30647E-02 3.23138E-04-1.56141E-13
 -1      2068 1.29145E-02 3.85573E-04-1.52937E-13
 -1      2069 1.29337E-02 3.64453E-04-1.52632E-13
 -1      2070 1.33642E-02 2.02962E-04-1.62587E-13
 -1      2071 1.32148E-02 2.62408E-04-1.59358E-13
 -1      2072 1.32359E-02 2.41302E-04-1.59050E-13
 -1      2073 1.36606E-02 8.65558E-05-1.69072E-13
 -1      2074 1.35130E-02 1.44534E-04-1.65824E-13
 -1      2075 1.35352E-02 1.23865E-04-1.65514E-13
 -1      2076 1.39530E-02-3.03078E-05-1.75590E-13
 -1      2077 1.38073E-02 2.84358E-05-1.72328E-13
 -1      2078 1.38303E-02 8.54711E-06-1.72016E-13
 -1      2079 1.41950E-02-1.32601E-04-1.80974E-13
 -1      2080 1.40509E-02-7.17628E-05-1.77702E-13
 -1      2081 1.40743E-02-9.08923E-05-1.77389E-13
 -1      2082 1.42692E-02-1.74837E-04-1.81616E-13
 -1      2083 1.46241E-02-3.74452E-04-1.81349E-13
 -1      2084 1.45519E-02-3.39322E-04-1.81266E-13
 -1      2085 1.44806E-02-3.02430E-04-1.81186E-13
 -1      2086 1.44104E-02-2.64316E-04-1.81105E-13
 -1      2087 1.43923E-02-2.72272E-04-1.78402E-13
 -1      2088 1.43723E-02-2.40125E-04-1.81403E-13
 -1      2089 1.43050E-02-2.00134E-04-1.81320E-13
 -1      2090 1.42076E-02-1.58238E-04-1.79208E-13
 -1      2091 1.42823E-02-2.08699E-04-1.78616E-13
 -1      2092 1.47660E-02-4.38099E-04-1.81512E-13
 -1      2093 1.46952E-02-4.07335E-04-1.81430E-13
 -1      2094 1.45362E-02-3.45520E-04-1.78566E-13
 -1      2095 1.49049E-02-4.93955E-04-1.81679E-13
 -1      2096 1.48366E-02-4.67251E-04-1.81595E-13
 -1      2097 1.46803E-02-4.12331E-04-1.78726E-13
 -1      2098 1.50297E-02-5.40090E-04-1.81849E-13
 -1      2099 1.49696E-02-5.18201E-04-1.81766E-13
 -1      2100 1.48187E-02-4.71467E-04-1.78885E-13
 -1      2101 1.51303E-02-5.77269E-04-1.82012E-13
 -1      2102 1.50835E-02-5.59576E-04-1.81932E-13
 -1      2103 1.49407E-02-5.21445E-04-1.79038E-13
 -1      2104 1.51979E-02-6.08148E-04-1.82157E-13
 -1      2105 1.51686E-02-5.93097E-04-1.82087E-13
 -1      2106 1.50358E-02-5.63038E-04-1.79183E-13
 -1      2107 1.52274E-02-6.37023E-04-1.82279E-13
 -1      2108 1.52176E-02-6.22337E-04-1.82223E-13
 -1      2109 1.50952E-02-5.99066E-04-1.79312E-13
 -1      2110 1.52195E-02-6.68309E-04-1.82377E-13
 -1      2111 1.52278E-02-6.51843E-04-1.82331E-13
 -1      2112 1.51147E-02-6.33702E-04-1.79418E-13
 -1      2113 1.51800E-02-7.07495E-04-1.82448E-13
 -1      2114 1.52032E-02-6.86633E-04-1.82415E-13
 -1      2115 1.50967E-02-6.72103E-04-1.79497E-13
 -1      2116 1.51192E-02-7.56988E-04-1.82496E-13
 -1      2117 1.51516E-02-7.30806E-04-1.82473E-13
 -1      2118 1.50483E-02-7.18625E-04-1.79550E-13
 -1      2119 1.50498E-02-8.17778E-04-1.82523E-13
 -1      2120 1.50848E-02-7.86023E-04-1.82513E-13
 -1      2121 1.49813E-02-7.75146E-04-1.79584E-13
 -1      2122 1.35255E-02-2.47110E-04-1.35800E-13
 -1      2123 1.36669E-02-3.02043E-04-1.36561E-13
 -1      2124 1.39438E-02-4.09340E-04-1.37512E-13
 -1      2125 1.39514E-02-4.28061E-04-1.37416E-13
 -1      2126 1.38052E-02-3.51396E-04-1.37085E-13
 -1      2127 1.38892E-02-3.80100E-04-1.37441E-13
 -1      2128 1.31903E-02-9.75369E-05-1.33955E-13
 -1      2129 1.33684E-02-1.77254E-04-1.34874E-13
 -1      2130 1.34433E-02-2.44588E-04-1.36797E-13
 -1      2131 1.27588E-02 1.24408E-04-1.31338E-13
 -1      2132 1.29603E-02 1.85301E-05-1.32534E-13
 -1      2133 3.27170E-04-8.89750E-05-2.20134E-16
 -1      2134 3.29253E-04-1.02145E-04-2.10213E-16
 -1      2135 4.46290E-04-1.45117E-04-3.06653E-16
 -1      2136 4.39997E-04-1.09949E-04-3.32918E-16
 -1      2137 1.19766E-02 5.61666E-04-1.24563E-13
 -1      2138 1.21372E-02 4.79217E-04-1.26156E-13
 -1      2139 1.16516E-02 6.70920E-04-1.20978E-13
 -1      2140 1.17987E-02 6.31304E-04-1.22627E-13
 -1      2141 1.13412E-02 6.77434E-04-1.17441E-13
 -1      2142 1.14844E-02 6.88695E-04-1.19115E-13
 -1      2143 1.10034E-02 5.72996E-04-1.13781E-13
 -1      2144 1.11587E-02 6.35116E-04-1.15407E-13
 -1      2145 1.06376E-02 3.89111E-04-1.10371E-13
 -1      2146 1.08133E-02 4.84961E-04-1.11923E-13
 -1      2147 1.02205E-02 1.73590E-04-1.07469E-13
 -1      2148 1.04039E-02 2.66989E-04-1.08604E-13
 -1      2149 9.86977E-03 3.79881E-06-1.05164E-13
 -1      2150 1.00416E-02 8.55177E-05-1.06313E-13
 -1      2151 1.01424E-02 1.16157E-04-1.05810E-13
 -1      2152 9.51874E-03-1.23858E-04-1.03862E-13
 -1      2153 9.65414E-03-7.97069E-05-1.04261E-13
 -1      2154 9.34810E-03-1.85309E-04-1.03211E-13
 -1      2155 9.42175E-03-1.58619E-04-1.03536E-13
 -1      2156 9.46725E-03-1.54080E-04-1.02554E-13
 -1      2157 9.29144E-03-2.31894E-04-1.02886E-13
 -1      2158 9.29925E-03-2.14005E-04-1.02998E-13
 -1      2159 9.38815E-03-2.86862E-04-1.03336E-13
 -1      2160 9.32520E-03-2.60056E-04-1.03015E-13
 -1      2161 9.61587E-03-3.79672E-04-1.04372E-13
 -1      2162 9.49160E-03-3.30742E-04-1.03823E-13
 -1      2163 9.96559E-03-5.31937E-04-1.05863E-13
 -1      2164 9.79103E-03-4.49578E-04-1.04999E-13
 -1      2165 1.03733E-02-7.49922E-04-1.08072E-13
 -1      2166 1.01763E-02-6.40569E-04-1.06981E-13
 -1      2167 1.08029E-02-1.01559E-03-1.11090E-13
 -1      2168 1.06152E-02-8.94349E-04-1.09669E-13
 -1      2169 1.11729E-02-1.23749E-03-1.14398E-13
 -1      2170 1.10002E-02-1.13946E-03-1.12864E-13
 -1      2171 1.15212E-02-1.37664E-03-1.17810E-13
 -1      2172 1.13564E-02-1.31957E-03-1.16111E-13
 -1      2173 1.18784E-02-1.38967E-03-1.21863E-13
 -1      2174 1.17198E-02-1.40493E-03-1.20020E-13
 -1      2175 1.22472E-02-1.26334E-03-1.25751E-13
 -1      2176 1.20795E-02-1.33641E-03-1.24078E-13
 -1      2177 1.26328E-02-1.06388E-03-1.29069E-13
 -1      2178 1.24492E-02-1.16491E-03-1.27565E-13
 -1      2179 1.30260E-02-8.46268E-04-1.32123E-13
 -1      2180 1.28371E-02-9.50972E-04-1.30726E-13
 -1      2181 1.34326E-02-6.55489E-04-1.34488E-13
 -1      2182 1.32554E-02-7.35335E-04-1.33497E-13
 -1      2183 1.37357E-02-5.30824E-04-1.36162E-13
 -1      2184 1.36047E-02-5.81621E-04-1.35453E-13
 -1      2185 1.39179E-02-4.55631E-04-1.37332E-13
 -1      2186 1.38503E-02-4.82089E-04-1.36967E-13
 -1      2187 1.23169E-02 3.82930E-04-1.27757E-13
 -1      2188 1.24996E-02 2.72337E-04-1.29366E-13
 -1      2189 1.21908E-02 4.32041E-04-1.27440E-13
 -1      2190 1.30717E-02-7.20425E-05-1.34431E-13
 -1      2191 6.07883E-04-2.98139E-04-2.96326E-16
 -1      2192 6.63600E-04-2.92426E-04-4.15737E-16
 -1      2193 1.37363E-02-3.48313E-04-1.38260E-13
 -1      2194 1.39265E-02-4.06249E-04-1.38864E-13
 -1      2195 1.49807E-02-8.48229E-04-1.81538E-13
 -1      2196 1.39441E-02-4.41698E-04-1.38854E-13
 -1      2197 1.25994E-02 1.88022E-04-1.31020E-13
 -1      2198 1.27002E-02 1.11000E-04-1.32685E-13
 -1      2199 1.24651E-02 2.53145E-04-1.30700E-13
 -1      2200 1.37985E-02-4.92811E-04-1.37962E-13
 -1      2201 1.35149E-02-5.99029E-04-1.36184E-13
 -1      2202 1.31272E-02-7.75790E-04-1.33832E-13
 -1      2203 1.27173E-02-9.98158E-04-1.30784E-13
 -1      2204 1.23404E-02-1.21312E-03-1.27296E-13
 -1      2205 1.19793E-02-1.37291E-03-1.23249E-13
 -1      2206 1.16227E-02-1.40609E-03-1.18819E-13
 -1      2207 1.15410E-02-1.39042E-03-1.17625E-13
 -1      2208 1.17058E-02-1.41925E-03-1.19834E-13
 -1      2209 1.12807E-02-1.28237E-03-1.14906E-13
 -1      2210 1.09290E-02-1.07280E-03-1.11425E-13
 -1      2211 1.05183E-02-8.04300E-04-1.08070E-13
 -1      2212 1.00873E-02-5.56145E-04-1.05375E-13
 -1      2213 9.71436E-03-3.87748E-04-1.03648E-13
 -1      2214 9.44011E-03-2.88146E-04-1.02545E-13
 -1      2215 9.31734E-03-2.01612E-04-1.02020E-13
 -1      2216 9.76185E-03-5.33917E-05-1.03769E-13
 -1      2217 9.85849E-03-1.71299E-05-1.03271E-13
 -1      2218 9.66236E-03-9.30053E-05-1.02383E-13
 -1      2219 1.05302E-02 3.23081E-04-1.08708E-13
 -1      2220 1.09182E-02 5.33258E-04-1.12314E-13
 -1      2221 1.12520E-02 6.66821E-04-1.16193E-13
 -1      2222 1.18695E-02 6.02223E-04-1.23894E-13
 -1      2223 1.15589E-02 6.90707E-04-1.20091E-13
 -1      2224 9.30007E-03-2.36647E-04-1.01936E-13
 -1      2225 1.01659E-03 3.99841E-04-8.87284E-16
 -1      2226 8.72126E-04 3.63453E-04-6.48543E-16
 -1      2227 5.47791E-04-5.53138E-05-5.14224E-16
 -1      2228 5.48826E-04-7.20349E-05-5.09372E-16
 -1      2229 5.50245E-04-8.93621E-05-5.02853E-16
 -1      2230 5.52103E-04-1.07352E-04-4.94315E-16
 -1      2231 6.65296E-04-9.55131E-05-6.88604E-16
 -1      2232 5.46411E-04 8.85855E-06-5.18384E-16
 -1      2233 5.46391E-04-6.98308E-06-5.19224E-16
 -1      2234 5.47165E-04 4.08773E-05-5.12529E-16
 -1      2235 5.46666E-04 2.47991E-05-5.16189E-16
 -1      2236 6.61351E-04 1.99356E-05-7.02929E-16
 -1      2237 5.48989E-04 7.35054E-05-5.01457E-16
 -1      2238 5.47927E-04 5.70101E-05-5.07908E-16
 -1      2239 6.62675E-04 5.78002E-05-6.94120E-16
 -1      2240 5.52379E-04 1.08982E-04-4.82877E-16
 -1      2241 5.50456E-04 9.09057E-05-4.93217E-16
 -1      2242 6.65534E-04 9.72763E-05-6.77491E-16
 -1      2243 5.58257E-04 1.48319E-04-4.54416E-16
 -1      2244 5.54939E-04 1.28094E-04-4.70273E-16
 -1      2245 6.70622E-04 1.40052E-04-6.51050E-16
 -1      2246 5.68584E-04 1.93918E-04-4.11794E-16
 -1      2247 5.62746E-04 1.70200E-04-4.35267E-16
 -1      2248 6.79269E-04 1.87599E-04-6.11327E-16
 -1      2249 1.30204E-03 4.56787E-04-1.49037E-15
 -1      2250 1.15972E-03 4.30844E-04-1.16754E-15
 -1      2251 1.07177E-03 3.81365E-04-1.08312E-15
 -1      2252 9.15181E-04-3.46393E-04-8.28398E-16
 -1      2253 1.05928E-03-3.79719E-04-1.09935E-15
 -1      2254 5.88477E-04-2.37998E-04-3.90015E-16
 -1      2255 7.81300E-04-3.04821E-04-6.27279E-16
 -1      2256 8.40724E-04-2.93629E-04-7.79446E-16
 -1      2257 5.78963E-04-2.10227E-04-4.20996E-16
 -1      2258 1.29549E-02-3.55296E-05-1.35071E-13
 -1      2259 1.31628E-02-1.40490E-04-1.36509E-13
 -1      2260 1.20253E-03-4.08114E-04-1.41217E-15
 -1      2261 1.34534E-03-4.31992E-04-1.76806E-15
 -1      2262 1.11696E-03-3.60551E-04-1.30327E-15
 -1      2263 1.48750E-03-4.52206E-04-2.16632E-15
 -1      2264 1.62928E-03-4.69042E-04-2.60794E-15
 -1      2265 1.40329E-03-4.07319E-04-2.02484E-15
 -1      2266 1.77070E-03-4.83167E-04-3.09278E-15
 -1      2267 1.91187E-03-4.94799E-04-3.62018E-15
 -1      2268 1.68841E-03-4.40545E-04-2.91671E-15
 -1      2269 2.05289E-03-5.04428E-04-4.19024E-15
 -1      2270 2.19381E-03-5.12232E-04-4.80390E-15
 -1      2271 1.97259E-03-4.63572E-04-3.97872E-15
 -1      2272 2.33470E-03-5.18568E-04-5.45993E-15
 -1      2273 2.47557E-03-5.23581E-04-6.15858E-15
 -1      2274 2.25622E-03-4.79035E-04-5.21081E-15
 -1      2275 2.61651E-03-5.27530E-04-6.89982E-15
 -1      2276 2.75750E-03-5.30531E-04-7.68295E-15
 -1      2277 2.53962E-03-4.88962E-04-6.61301E-15
 -1      2278 2.89859E-03-5.32771E-04-8.50740E-15
 -1      2279 3.03976E-03-5.34339E-04-9.37385E-15
 -1      2280 2.82303E-03-4.94894E-04-8.18250E-15
 -1      2281 3.18105E-03-5.35370E-04-1.02812E-14
 -1      2282 3.32244E-03-5.35932E-04-1.12284E-14
 -1      2283 3.10659E-03-4.97981E-04-9.91773E-15
 -1      2284 3.46396E-03-5.36116E-04-1.22173E-14
 -1      2285 3.60559E-03-5.35973E-04-1.32465E-14
 -1      2286 3.39039E-03-4.99070E-04-1.18156E-14
 -1      2287 3.74734E-03-5.35563E-04-1.43154E-14
 -1      2288 3.88919E-03-5.34921E-04-1.54252E-14
 -1      2289 3.67446E-03-4.98761E-04-1.38750E-14
 -1      2290 4.03116E-03-5.34084E-04-1.65753E-14
 -1      2291 4.17322E-03-5.33075E-04-1.77675E-14
 -1      2292 3.95882E-03-4.97465E-04-1.60952E-14
 -1      2293 4.31541E-03-5.31910E-04-1.90005E-14
 -1      2294 4.45768E-03-5.30605E-04-2.02721E-14
 -1      2295 4.24347E-03-4.95441E-04-1.84788E-14
 -1      2296 4.60007E-03-5.29162E-04-2.15853E-14
 -1      2297 4.74255E-03-5.27588E-04-2.29393E-14
 -1      2298 4.52842E-03-4.92833E-04-2.10251E-14
 -1      2299 4.88515E-03-5.25874E-04-2.43318E-14
 -1      2300 5.02785E-03-5.24022E-04-2.57633E-14
 -1      2301 4.81366E-03-4.89691E-04-2.37312E-14
 -1      2302 5.17066E-03-5.22015E-04-2.72343E-14
 -1      2303 5.31360E-03-5.19851E-04-2.87452E-14
 -1      2304 5.09920E-03-4.85998E-04-2.65962E-14
 -1      2305 5.45666E-03-5.17507E-04-3.02946E-14
 -1      2306 5.59987E-03-5.14980E-04-3.18817E-14
 -1      2307 5.38510E-03-4.81686E-04-2.96174E-14
 -1      2308 5.74322E-03-5.12243E-04-3.35086E-14
 -1      2309 5.88675E-03-5.09295E-04-3.51736E-14
 -1      2310 5.67138E-03-4.76652E-04-3.27930E-14
 -1      2311 6.03047E-03-5.06108E-04-3.68777E-14
 -1      2312 6.17440E-03-5.02684E-04-3.86210E-14
 -1      2313 5.95814E-03-4.70780E-04-3.61228E-14
 -1      2314 6.31856E-03-4.98999E-04-4.04040E-14
 -1      2315 6.46301E-03-4.95064E-04-4.22248E-14
 -1      2316 6.24546E-03-4.63963E-04-3.96090E-14
 -1      2317 6.60773E-03-4.90864E-04-4.40839E-14
 -1      2318 6.75280E-03-4.86421E-04-4.59806E-14
 -1      2319 6.53348E-03-4.56128E-04-4.32503E-14
 -1      2320 6.89822E-03-4.81740E-04-4.79146E-14
 -1      2321 7.04409E-03-4.76863E-04-4.98862E-14
 -1      2322 6.82235E-03-4.47285E-04-4.70427E-14
 -1      2323 7.19038E-03-4.71827E-04-5.18950E-14
 -1      2324 7.33724E-03-4.66704E-04-5.39406E-14
 -1      2325 7.11225E-03-4.37577E-04-5.09849E-14
 -1      2326 7.48460E-03-4.61583E-04-5.60197E-14
 -1      2327 7.63267E-03-4.56580E-04-5.81344E-14
 -1      2328 7.40339E-03-4.27370E-04-5.50718E-14
 -1      2329 7.78135E-03-4.51864E-04-6.02840E-14
 -1      2330 7.93089E-03-4.47616E-04-6.24678E-14
 -1      2331 7.69604E-03-4.17369E-04-5.92994E-14
 -1      2332 8.08120E-03-4.44125E-04-6.46846E-14
 -1      2333 8.23255E-03-4.41666E-04-6.69358E-14
 -1      2334 7.99051E-03-4.08786E-04-6.36656E-14
 -1      2335 8.38487E-03-4.40694E-04-6.92217E-14
 -1      2336 8.53848E-03-4.41629E-04-7.15392E-14
 -1      2337 8.28729E-03-4.03561E-04-6.81668E-14
 -1      2338 8.69337E-03-4.45130E-04-7.38894E-14
 -1      2339 8.84988E-03-4.51844E-04-7.62734E-14
 -1      2340 8.58718E-03-4.04664E-04-7.27994E-14
 -1      2341 9.00819E-03-4.62640E-04-7.86887E-14
 -1      2342 9.16860E-03-4.78514E-04-8.11363E-14
 -1      2343 8.89159E-03-4.16453E-04-7.75626E-14
 -1      2344 9.33164E-03-5.00477E-04-8.36173E-14
 -1      2345 9.49742E-03-5.30007E-04-8.61280E-14
 -1      2346 9.20310E-03-4.45104E-04-8.24534E-14
 -1      2347 9.66703E-03-5.68053E-04-8.86684E-14
 -1      2348 9.84005E-03-6.16588E-04-9.12398E-14
 -1      2349 9.52594E-03-4.99042E-04-8.74692E-14
 -1      2350 1.00182E-02-6.76029E-04-9.38404E-14
 -1      2351 1.01998E-02-7.48484E-04-9.64721E-14
 -1      2352 9.86617E-03-5.89076E-04-9.26057E-14
 -1      2353 1.03871E-02-8.33113E-04-9.91335E-14
 -1      2354 1.05761E-02-9.30180E-04-1.01826E-13
 -1      2355 1.02297E-02-7.27287E-04-9.78611E-14
 -1      2356 1.07684E-02-1.03653E-03-1.04553E-13
 -1      2357 1.09587E-02-1.14738E-03-1.07313E-13
 -1      2358 1.06165E-02-9.20499E-04-1.03240E-13
 -1      2359 1.11462E-02-1.25713E-03-1.10109E-13
 -1      2360 1.13292E-02-1.35278E-03-1.12942E-13
 -1      2361 1.10120E-02-1.15322E-03-1.08753E-13
 -1      2362 1.15047E-02-1.42783E-03-1.15812E-13
 -1      2363 1.16790E-02-1.47065E-03-1.18723E-13
 -1      2364 1.13938E-02-1.36306E-03-1.14413E-13
 -1      2365 1.18479E-02-1.47830E-03-1.21677E-13
 -1      2366 1.20231E-02-1.45348E-03-1.24671E-13
 -1      2367 1.17553E-02-1.45657E-03-1.20232E-13
 -1      2368 1.22006E-02-1.39931E-03-1.27702E-13
 -1      2369 1.23844E-02-1.32954E-03-1.30773E-13
 -1      2370 1.21194E-02-1.39401E-03-1.26215E-13
 -1      2371 1.25722E-02-1.25066E-03-1.33882E-13
 -1      2372 1.27605E-02-1.17297E-03-1.37027E-13
 -1      2373 1.25041E-02-1.23684E-03-1.32362E-13
 -1      2374 1.29493E-02-1.10143E-03-1.40198E-13
 -1      2375 1.31336E-02-1.03956E-03-1.43399E-13
 -1      2376 1.28964E-02-1.07378E-03-1.38646E-13
 -1      2377 1.33149E-02-9.89494E-04-1.46626E-13
 -1      2378 1.34902E-02-9.49986E-04-1.49872E-13
 -1      2379 1.32737E-02-9.52933E-04-1.45043E-13
 -1      2380 1.36615E-02-9.21208E-04-1.53142E-13
 -1      2381 1.38276E-02-9.00800E-04-1.56427E-13
 -1      2382 1.36258E-02-8.81217E-04-1.51533E-13
 -1      2383 1.39899E-02-8.87802E-04-1.59730E-13
 -1      2384 1.41482E-02-8.79936E-04-1.63048E-13
 -1      2385 1.39548E-02-8.47458E-04-1.58099E-13
 -1      2386 1.43035E-02-8.75746E-04-1.66377E-13
 -1      2387 1.44559E-02-8.73378E-04-1.69719E-13
 -1      2388 1.42666E-02-8.37085E-04-1.64725E-13
 -1      2389 1.86519E-03 5.25267E-04-3.20939E-15
 -1      2390 1.72497E-03 5.12531E-04-2.71513E-15
 -1      2391 2.14524E-03 5.44502E-04-4.32673E-15
 -1      2392 2.00526E-03 5.35864E-04-3.74666E-15
 -1      2393 1.92452E-03 4.94643E-04-3.56670E-15
 -1      2394 2.42527E-03 5.57214E-04-5.61466E-15
 -1      2395 2.28524E-03 5.51568E-04-4.94906E-15
 -1      2396 2.20660E-03 5.11853E-04-4.73445E-15
 -1      2397 2.70564E-03 5.65200E-04-7.07358E-15
 -1      2398 2.56541E-03 5.61717E-04-6.32331E-15
 -1      2399 2.48852E-03 5.23079E-04-6.07174E-15
 -1      2400 2.98657E-03 5.69798E-04-8.70107E-15
 -1      2401 2.84604E-03 5.67861E-04-7.86604E-15
 -1      2402 2.77058E-03 5.29981E-04-7.57833E-15
 -1      2403 3.26814E-03 5.71997E-04-1.04966E-14
 -1      2404 3.12728E-03 5.71152E-04-9.57784E-15
 -1      2405 3.05297E-03 5.33794E-04-9.25236E-15
 -1      2406 3.55036E-03 5.72511E-04-1.24599E-14
 -1      2407 3.40917E-03 5.72431E-04-1.14569E-14
 -1      2408 3.33576E-03 5.35431E-04-1.10934E-14
 -1      2409 3.83320E-03 5.71840E-04-1.45903E-14
 -1      2410 3.69171E-03 5.72300E-04-1.35044E-14
 -1      2411 3.61900E-03 5.35543E-04-1.31012E-14
 -1      2412 4.11663E-03 5.70317E-04-1.68877E-14
 -1      2413 3.97485E-03 5.71169E-04-1.57181E-14
 -1      2414 3.90267E-03 5.34584E-04-1.52755E-14
 -1      2415 4.40061E-03 5.68144E-04-1.93510E-14
 -1      2416 4.25856E-03 5.69302E-04-1.80984E-14
 -1      2417 4.18677E-03 5.32847E-04-1.76157E-14
 -1      2418 4.68510E-03 5.65423E-04-2.19803E-14
 -1      2419 4.54279E-03 5.66847E-04-2.06453E-14
 -1      2420 4.47128E-03 5.30503E-04-2.01219E-14
 -1      2421 4.97010E-03 5.62181E-04-2.47735E-14
 -1      2422 4.82753E-03 5.63865E-04-2.33565E-14
 -1      2423 4.75619E-03 5.27630E-04-2.27920E-14
 -1      2424 5.25563E-03 5.58393E-04-2.77278E-14
 -1      2425 5.11280E-03 5.60356E-04-2.62309E-14
 -1      2426 5.04150E-03 5.24238E-04-2.56259E-14
 -1      2427 5.54177E-03 5.54005E-04-3.08437E-14
 -1      2428 5.39862E-03 5.56275E-04-2.92650E-14
 -1      2429 5.32725E-03 5.20288E-04-2.86211E-14
 -1      2430 5.82859E-03 5.48954E-04-3.41179E-14
 -1      2431 5.68508E-03 5.51563E-04-3.24610E-14
 -1      2432 5.61350E-03 5.15718E-04-3.17748E-14
 -1      2433 6.11627E-03 5.43197E-04-3.75506E-14
 -1      2434 5.97231E-03 5.46162E-04-3.58145E-14
 -1      2435 5.90034E-03 5.10460E-04-3.50876E-14
 -1      2436 6.40499E-03 5.36743E-04-4.11361E-14
 -1      2437 6.26048E-03 5.40050E-04-3.93246E-14
 -1      2438 6.18790E-03 5.04474E-04-3.85568E-14
 -1      2439 6.69501E-03 5.29698E-04-4.48738E-14
 -1      2440 6.54981E-03 5.33280E-04-4.29868E-14
 -1      2441 6.47635E-03 4.97780E-04-4.21796E-14
 -1      2442 6.98664E-03 5.22319E-04-4.87551E-14
 -1      2443 6.84059E-03 5.26025E-04-4.67953E-14
 -1      2444 6.76591E-03 4.90500E-04-4.59497E-14
 -1      2445 7.28024E-03 5.15084E-04-5.27788E-14
 -1      2446 7.13316E-03 5.18644E-04-5.07493E-14
 -1      2447 7.05685E-03 4.82923E-04-4.98636E-14
 -1      2448 7.57621E-03 5.08777E-04-5.69476E-14
 -1      2449 7.42789E-03 5.11755E-04-5.48464E-14
 -1      2450 7.34951E-03 4.75568E-04-5.39235E-14
 -1      2451 7.87497E-03 5.04571E-04-6.12506E-14
 -1      2452 7.72521E-03 5.06327E-04-5.90820E-14
 -1      2453 7.64425E-03 4.69274E-04-5.81227E-14
 -1      2454 8.17693E-03 5.04122E-04-6.56891E-14
 -1      2455 8.02553E-03 5.03765E-04-6.34536E-14
 -1      2456 7.94154E-03 4.65288E-04-6.24589E-14
 -1      2457 8.48243E-03 5.09601E-04-7.02624E-14
 -1      2458 8.32923E-03 5.05980E-04-6.79587E-14
 -1      2459 8.24186E-03 4.65347E-04-6.69290E-14
 -1      2460 8.79166E-03 5.23639E-04-7.49674E-14
 -1      2461 8.63661E-03 5.15387E-04-7.25981E-14
 -1      2462 8.54574E-03 4.71716E-04-7.15344E-14
 -1      2463 9.10456E-03 5.49077E-04-7.98026E-14
 -1      2464 8.94774E-03 5.34772E-04-7.73681E-14
 -1      2465 8.85369E-03 4.87122E-04-7.62705E-14
 -1      2466 9.42057E-03 5.88385E-04-8.47694E-14
 -1      2467 9.26234E-03 5.66886E-04-8.22696E-14
 -1      2468 9.16603E-03 5.14492E-04-8.11364E-14
 -1      2469 9.73841E-03 6.42634E-04-8.98660E-14
 -1      2470 9.57951E-03 6.13661E-04-8.73016E-14
 -1      2471 9.48266E-03 5.56343E-04-8.61332E-14
 -1      2472 1.00558E-02 7.09990E-04-9.50929E-14
 -1      2473 9.89750E-03 6.74940E-04-9.24621E-14
 -1      2474 9.80261E-03 6.13681E-04-9.12598E-14
 -1      2475 1.03697E-02 7.84020E-04-1.00459E-13
 -1      2476 1.02135E-02 7.46780E-04-9.77598E-14
 -1      2477 1.01236E-02 6.84301E-04-9.65179E-14
 -1      2478 1.06768E-02 8.52785E-04-1.05960E-13
 -1      2479 1.05243E-02 8.19999E-04-1.03192E-13
 -1      2480 1.04419E-02 7.60810E-04-1.01912E-13
 -1      2481 1.09754E-02 9.00201E-04-1.11596E-13
 -1      2482 1.08271E-02 8.80238E-04-1.08761E-13
 -1      2483 1.07537E-02 8.29634E-04-1.07440E-13
 -1      2484 1.12666E-02 9.10498E-04-1.17362E-13
 -1      2485 1.11214E-02 9.10787E-04-1.14464E-13
 -1      2486 1.10567E-02 8.72787E-04-1.13106E-13
 -1      2487 1.15551E-02 8.74616E-04-1.23254E-13
 -1      2488 1.14106E-02 8.98502E-04-1.20291E-13
 -1      2489 1.13530E-02 8.73725E-04-1.18899E-13
 -1      2490 1.18464E-02 7.94374E-04-1.29267E-13
 -1      2491 1.16999E-02 8.39432E-04-1.26245E-13
 -1      2492 1.16481E-02 8.24834E-04-1.24821E-13
 -1      2493 1.21439E-02 6.81612E-04-1.35397E-13
 -1      2494 1.19942E-02 7.41113E-04-1.32318E-13
 -1      2495 1.19480E-02 7.31732E-04-1.30864E-13
 -1      2496 1.24476E-02 5.51969E-04-1.41624E-13
 -1      2497 1.22952E-02 6.17941E-04-1.38500E-13
 -1      2498 1.22552E-02 6.09582E-04-1.37020E-13
 -1      2499 1.27548E-02 4.19166E-04-1.47934E-13
 -1      2500 1.26011E-02 4.85320E-04-1.44769E-13
 -1      2501 1.25678E-02 4.75667E-04-1.43270E-13
 -1      2502 1.30621E-02 2.91378E-04-1.54311E-13
 -1      2503 1.29088E-02 3.54381E-04-1.51116E-13
 -1      2504 1.28817E-02 3.43013E-04-1.49599E-13
 -1      2505 1.33665E-02 1.70973E-04-1.60742E-13
 -1      2506 1.32149E-02 2.30290E-04-1.57520E-13
 -1      2507 1.31931E-02 2.17948E-04-1.55991E-13
 -1      2508 1.36665E-02 5.59993E-05-1.67218E-13
 -1      2509 1.35172E-02 1.13030E-04-1.63975E-13
 -1      2510 1.34994E-02 1.00968E-04-1.62435E-13
 -1      2511 1.39612E-02-5.79392E-05-1.73725E-13
 -1      2512 1.38145E-02-7.80946E-07-1.70466E-13
 -1      2513 1.37995E-02-1.11699E-05-1.68920E-13
 -1      2514 1.41099E-02-1.17029E-04-1.77095E-13
 -1      2515 1.45941E-02-3.91683E-04-1.75937E-13
 -1      2516 1.45214E-02-3.57194E-04-1.75860E-13
 -1      2517 1.47322E-02-4.54467E-04-1.76085E-13
 -1      2518 1.46648E-02-4.24198E-04-1.76012E-13
 -1      2519 1.45077E-02-3.75822E-04-1.73144E-13
 -1      2520 1.43034E-02-2.45345E-04-1.75621E-13
 -1      2521 1.42314E-02-2.05462E-04-1.75536E-13
 -1      2522 1.44484E-02-3.21141E-04-1.75780E-13
 -1      2523 1.43759E-02-2.84069E-04-1.75701E-13
 -1      2524 1.42132E-02-2.21522E-04-1.72838E-13
 -1      2525 1.43605E-02-3.01365E-04-1.72995E-13
 -1      2526 1.48516E-02-5.07996E-04-1.76223E-13
 -1      2527 1.47950E-02-4.82335E-04-1.76154E-13
 -1      2528 1.46459E-02-4.42143E-04-1.73280E-13
 -1      2529 1.49410E-02-5.53077E-04-1.76353E-13
 -1      2530 1.49007E-02-5.31315E-04-1.76291E-13
 -1      2531 1.47627E-02-4.98479E-04-1.73408E-13
 -1      2532 1.49917E-02-5.92937E-04-1.76464E-13
 -1      2533 1.49716E-02-5.73198E-04-1.76410E-13
 -1      2534 1.48461E-02-5.45905E-04-1.73522E-13
 -1      2535 1.50006E-02-6.31888E-04-1.76550E-13
 -1      2536 1.50012E-02-6.11933E-04-1.76509E-13
 -1      2537 1.48870E-02-5.88073E-04-1.73612E-13
 -1      2538 1.49715E-02-6.76401E-04-1.76613E-13
 -1      2539 1.49904E-02-6.53109E-04-1.76586E-13
 -1      2540 1.48843E-02-6.31183E-04-1.73683E-13
 -1      2541 1.49138E-02-7.29484E-04-1.76652E-13
 -1      2542 1.49455E-02-7.01649E-04-1.76636E-13
 -1      2543 1.48434E-02-6.81088E-04-1.73732E-13
 -1      2544 1.48407E-02-7.92536E-04-1.76673E-13
 -1      2545 1.48783E-02-7.59752E-04-1.76662E-13
 -1      2546 1.47762E-02-7.40634E-04-1.73757E-13
 -1      2547 1.39115E-02-4.11447E-04-1.40566E-13
 -1      2548 1.39606E-02-4.23818E-04-1.40643E-13
 -1      2549 1.36846E-02-3.50517E-04-1.39932E-13
 -1      2550 1.38110E-02-3.84724E-04-1.40468E-13
 -1      2551 1.39695E-02-4.36583E-04-1.40559E-13
 -1      2552 1.39427E-02-4.47197E-04-1.40474E-13
 -1      2553 1.39828E-02-4.35952E-04-1.42265E-13
 -1      2554 1.58445E-03 4.97108E-04-2.26409E-15
 -1      2555 1.44352E-03 4.78787E-04-1.85564E-15
 -1      2556 1.64180E-03 4.69251E-04-2.56898E-15
 -1      2557 1.48532E-02-8.53537E-04-1.78510E-13
 -1      2558 1.33716E-02-2.33103E-04-1.37745E-13
 -1      2559 1.35171E-02-2.89993E-04-1.38683E-13
 -1      2560 1.36286E-02-3.34192E-04-1.40886E-13
 -1      2561 1.32641E-02-1.90929E-04-1.38386E-13
 -1      2562 1.21022E-02 4.72594E-04-1.27388E-13
 -1      2563 1.22518E-02 3.79203E-04-1.28998E-13
 -1      2564 1.04240E-02 2.64690E-04-1.06817E-13
 -1      2565 1.06231E-02 3.78914E-04-1.08561E-13
 -1      2566 5.46605E-04-2.29070E-05-5.18913E-16
 -1      2567 5.47061E-04-3.89520E-05-5.17354E-16
 -1      2568 6.62527E-04-5.58296E-05-7.01004E-16
 -1      2569 6.61299E-04-1.77100E-05-7.05517E-16
 -1      2570 1.14964E-02 7.03801E-04-1.19383E-13
 -1      2571 1.16275E-02 6.85295E-04-1.21249E-13
 -1      2572 9.31137E-03-2.32007E-04-1.00648E-13
 -1      2573 9.27869E-03-2.21037E-04-1.00521E-13
 -1      2574 1.17706E-02 6.42185E-04-1.23176E-13
 -1      2575 1.19147E-02 5.74336E-04-1.25116E-13
 -1      2576 1.16919E-02 6.68537E-04-1.22456E-13
 -1      2577 1.11807E-02 6.53604E-04-1.14979E-13
 -1      2578 1.13267E-02 6.93799E-04-1.17007E-13
 -1      2579 1.08435E-02 4.99406E-04-1.10812E-13
 -1      2580 1.10004E-02 5.82355E-04-1.12655E-13
 -1      2581 1.01104E-02 1.00619E-04-1.04527E-13
 -1      2582 1.02694E-02 1.81126E-04-1.05668E-13
 -1      2583 1.03634E-02 2.47676E-04-1.05519E-13
 -1      2584 9.40812E-03-1.72434E-04-1.00924E-13
 -1      2585 9.49482E-03-1.49072E-04-1.01242E-13
 -1      2586 9.28698E-03-2.06084E-04-1.00504E-13
 -1      2587 9.33357E-03-1.94258E-04-1.00715E-13
 -1      2588 9.34723E-03-1.80862E-04-9.94084E-14
 -1      2589 9.49145E-03-2.87197E-04-1.01624E-13
 -1      2590 9.39138E-03-2.58295E-04-1.01146E-13
 -1      2591 9.78347E-03-3.90883E-04-1.02665E-13
 -1      2592 9.62423E-03-3.31514E-04-1.02052E-13
 -1      2593 1.01878E-02-5.86413E-04-1.04826E-13
 -1      2594 9.99729E-03-4.87690E-04-1.03725E-13
 -1      2595 1.06372E-02-8.59833E-04-1.07928E-13
 -1      2596 1.04240E-02-7.22795E-04-1.06348E-13
 -1      2597 1.10534E-02-1.14087E-03-1.11818E-13
 -1      2598 1.08825E-02-1.02255E-03-1.10053E-13
 -1      2599 1.13569E-02-1.32002E-03-1.15215E-13
 -1      2600 1.12103E-02-1.23771E-03-1.13509E-13
 -1      2601 1.11377E-02-1.19253E-03-1.12117E-13
 -1      2602 1.20592E-02-1.35522E-03-1.24643E-13
 -1      2603 1.18955E-02-1.40750E-03-1.22418E-13
 -1      2604 1.24308E-02-1.16247E-03-1.28944E-13
 -1      2605 1.22638E-02-1.25976E-03-1.27115E-13
 -1      2606 1.27974E-02-9.45411E-04-1.32557E-13
 -1      2607 1.26193E-02-1.05211E-03-1.30885E-13
 -1      2608 1.32382E-02-7.10841E-04-1.35890E-13
 -1      2609 1.30351E-02-8.14140E-04-1.34501E-13
 -1      2610 1.35978E-02-5.58480E-04-1.38277E-13
 -1      2611 1.34404E-02-6.19601E-04-1.37303E-13
 -1      2612 1.38524E-02-4.76020E-04-1.39895E-13
 -1      2613 1.37421E-02-5.07211E-04-1.39085E-13
 -1      2614 7.57886E-04 3.34245E-04-4.79339E-16
 -1      2615 6.11472E-04 2.84878E-04-3.15503E-16
 -1      2616 5.84749E-04 2.58109E-04-3.25965E-16
 -1      2617 8.13710E-04 3.22920E-04-6.25178E-16
 -1      2618 1.14059E-02 7.07193E-04-1.18147E-13
 -1      2619 6.70205E-04-1.38006E-04-6.66744E-16
 -1      2620 5.54555E-04-1.26266E-04-4.83473E-16
 -1      2621 5.57744E-04-1.46267E-04-4.69649E-16
 -1      2622 1.35778E-03 4.32771E-04-1.74138E-15
 -1      2623 5.72250E-04 2.27914E-04-3.62625E-16
 -1      2624 1.28193E-02 3.17849E-05-1.34741E-13
 -1      2625 1.29367E-02-3.07658E-05-1.36812E-13
 -1      2626 1.26985E-02 1.01795E-04-1.34411E-13
 -1      2627 1.40965E-02-1.24551E-04-1.75539E-13
 -1      2628 1.19951E-02 5.30237E-04-1.26658E-13
 -1      2629 1.41344E-02-1.50721E-04-1.75245E-13
 -1      2630 1.39187E-02-4.63540E-04-1.41601E-13
 -1      2631 6.89532E-04 2.51271E-04-5.29009E-16
 -1      2632 1.38837E-02-4.07311E-04-1.42246E-13
 -1      2633 1.36847E-02-5.34447E-04-1.40207E-13
 -1      2634 1.23632E-02 3.07296E-04-1.30647E-13
 -1      2635 9.57126E-03-1.17544E-04-1.00746E-13
 -1      2636 1.33552E-02-6.64782E-04-1.37976E-13
 -1      2637 1.07138E-02 4.45255E-04-1.08891E-13
 -1      2638 1.29356E-02-8.77252E-04-1.34602E-13
 -1      2639 1.25345E-02-1.11252E-03-1.30697E-13
 -1      2640 1.14514E-02-1.36324E-03-1.16207E-13
 -1      2641 1.18071E-02-1.42438E-03-1.21199E-13
 -1      2642 1.07635E-02-9.41168E-04-1.08307E-13
 -1      2643 1.03059E-02-6.48766E-04-1.04683E-13
 -1      2644 9.87503E-03-4.24566E-04-1.02121E-13
 -1      2645 9.26572E-03-2.07103E-04-9.92196E-14
 -1      2646 9.98478E-03 4.52629E-05-1.03130E-13
 -1      2647 1.00908E-02 1.14305E-04-1.02981E-13
 -1      2648 9.86508E-03 2.87498E-06-1.01740E-13
 -1      2649 5.71731E-04-1.85348E-04-4.45932E-16
 -1      2650 9.33666E-03-2.34584E-04-9.97300E-14
 -1      2651 1.40427E-02-1.24027E-04-1.72466E-13
 -1      2652 1.10835E-02 6.28884E-04-1.13451E-13
 -1      2653 1.46882E-02-8.72029E-04-1.74996E-13
 -1      2654 1.47825E-02-8.23132E-04-1.76083E-13
 -1      2655 1.46773E-02-8.04874E-04-1.73172E-13
 -1      2656 1.45566E-02-8.72890E-04-1.71985E-13
 -1      2657 9.54686E-03-2.96300E-04-1.00648E-13
 -1      2658 1.21648E-02-1.31885E-03-1.26265E-13
 -1      2659 1.45178E-02-8.37116E-04-1.70316E-13
 -1      2660 7.80215E-04 7.73548E-05-9.04414E-16
 -1      2661 7.78957E-04 5.54875E-05-9.12112E-16
 -1      2662 7.78112E-04 3.35697E-05-9.17858E-16
 -1      2663 7.77691E-04 1.18996E-05-9.21504E-16
 -1      2664 8.96529E-04 4.96945E-05-1.16213E-15
 -1      2665 7.91544E-04 1.73169E-04-8.45095E-16
 -1      2666 7.87541E-04 1.47750E-04-8.64976E-16
 -1      2667 8.03397E-04 2.28370E-04-7.92376E-16
 -1      2668 7.96780E-04 1.99978E-04-8.21324E-16
 -1      2669 9.14846E-04 2.07872E-04-1.06463E-15
 -1      2670 1.12980E-03 3.62005E-04-1.28866E-15
 -1      2671 9.86198E-04 3.32933E-04-9.94877E-16
 -1      2672 1.38783E-02-4.07797E-04-1.44383E-13
 -1      2673 1.39606E-02-4.27288E-04-1.44489E-13
 -1      2674 1.41603E-03 4.07905E-04-2.00132E-15
 -1      2675 1.27298E-03 3.86874E-04-1.62401E-15
 -1      2676 1.18965E-03 3.41552E-04-1.50410E-15
 -1      2677 7.88843E-04-2.52550E-04-7.46934E-16
 -1      2678 9.20028E-04-2.88340E-04-9.69724E-16
 -1      2679 1.06283E-03-3.17475E-04-1.26076E-15
 -1      2680 1.20610E-03-3.42661E-04-1.59372E-15
 -1      2681 1.01132E-03-2.76451E-04-1.21173E-15
 -1      2682 1.34930E-03-3.64256E-04-1.96849E-15
 -1      2683 1.49254E-03-3.82517E-04-2.38549E-15
 -1      2684 1.29701E-03-3.22277E-04-1.90513E-15
 -1      2685 1.63558E-03-3.97971E-04-2.84466E-15
 -1      2686 1.77853E-03-4.10833E-04-3.34632E-15
 -1      2687 1.58369E-03-3.55903E-04-2.76554E-15
 -1      2688 1.92132E-03-4.21568E-04-3.88975E-15
 -1      2689 2.06400E-03-4.30346E-04-4.47511E-15
 -1      2690 1.87047E-03-3.79729E-04-3.79322E-15
 -1      2691 2.20658E-03-4.37542E-04-5.10342E-15
 -1      2692 2.34909E-03-4.43291E-04-5.77373E-15
 -1      2693 2.15703E-03-3.96020E-04-4.98879E-15
 -1      2694 2.49154E-03-4.47884E-04-6.48560E-15
 -1      2695 2.63395E-03-4.51427E-04-7.24010E-15
 -1      2696 2.44335E-03-4.06673E-04-6.35169E-15
 -1      2697 2.77635E-03-4.54138E-04-8.03493E-15
 -1      2698 2.91873E-03-4.56099E-04-8.87104E-15
 -1      2699 2.72943E-03-4.13199E-04-7.88017E-15
 -1      2700 3.06112E-03-4.57472E-04-9.74912E-15
 -1      2701 3.20352E-03-4.58317E-04-1.06670E-14
 -1      2702 3.01536E-03-4.16763E-04-9.57317E-15
 -1      2703 3.34594E-03-4.58749E-04-1.16264E-14
 -1      2704 3.48838E-03-4.58813E-04-1.26253E-14
 -1      2705 3.30118E-03-4.18234E-04-1.14296E-14
 -1      2706 3.63085E-03-4.58590E-04-1.36640E-14
 -1      2707 3.77334E-03-4.58107E-04-1.47427E-14
 -1      2708 3.58693E-03-4.18241E-04-1.34459E-14
 -1      2709 3.91588E-03-4.57419E-04-1.58624E-14
 -1      2710 4.05844E-03-4.56542E-04-1.70221E-14
 -1      2711 3.87264E-03-4.17219E-04-1.56224E-14
 -1      2712 4.20105E-03-4.55510E-04-1.82225E-14
 -1      2713 4.34369E-03-4.54330E-04-1.94640E-14
 -1      2714 4.15835E-03-4.15455E-04-1.79605E-14
 -1      2715 4.48637E-03-4.53017E-04-2.07459E-14
 -1      2716 4.62909E-03-4.51574E-04-2.20676E-14
 -1      2717 4.44407E-03-4.13111E-04-2.04598E-14
 -1      2718 4.77185E-03-4.50002E-04-2.34291E-14
 -1      2719 4.91465E-03-4.48299E-04-2.48306E-14
 -1      2720 4.72981E-03-4.10260E-04-2.31205E-14
 -1      2721 5.05750E-03-4.46456E-04-2.62715E-14
 -1      2722 5.20040E-03-4.44467E-04-2.77517E-14
 -1      2723 5.01558E-03-4.06901E-04-2.59403E-14
 -1      2724 5.34334E-03-4.42317E-04-2.92701E-14
 -1      2725 5.48635E-03-4.39998E-04-3.08275E-14
 -1      2726 5.30139E-03-4.02983E-04-2.89176E-14
 -1      2727 5.62940E-03-4.37489E-04-3.24245E-14
 -1      2728 5.77253E-03-4.34785E-04-3.40591E-14
 -1      2729 5.58724E-03-3.98417E-04-3.20490E-14
 -1      2730 5.91571E-03-4.31861E-04-3.57323E-14
 -1      2731 6.05898E-03-4.28715E-04-3.74439E-14
 -1      2732 5.87312E-03-3.93098E-04-3.53356E-14
 -1      2733 6.20231E-03-4.25324E-04-3.91946E-14
 -1      2734 6.34574E-03-4.21692E-04-4.09850E-14
 -1      2735 6.15903E-03-3.86925E-04-3.87756E-14
 -1      2736 6.48924E-03-4.17805E-04-4.28130E-14
 -1      2737 6.63286E-03-4.13673E-04-4.46789E-14
 -1      2738 6.44493E-03-3.79822E-04-4.23695E-14
 -1      2739 6.77656E-03-4.09298E-04-4.65814E-14
 -1      2740 6.92039E-03-4.04705E-04-4.85216E-14
 -1      2741 6.73078E-03-3.71780E-04-4.61150E-14
 -1      2742 7.06430E-03-3.99922E-04-5.05015E-14
 -1      2743 7.20837E-03-3.94994E-04-5.25163E-14
 -1      2744 7.01649E-03-3.62895E-04-5.00115E-14
 -1      2745 7.35250E-03-3.89991E-04-5.45654E-14
 -1      2746 7.49684E-03-3.84987E-04-5.66504E-14
 -1      2747 7.30196E-03-3.53439E-04-5.40536E-14
 -1      2748 7.64123E-03-3.80113E-04-5.87728E-14
 -1      2749 7.78586E-03-3.75489E-04-6.09286E-14
 -1      2750 7.58706E-03-3.43937E-04-5.82382E-14
 -1      2751 7.93057E-03-3.71330E-04-6.31174E-14
 -1      2752 8.07559E-03-3.67823E-04-6.53392E-14
 -1      2753 7.87166E-03-3.35278E-04-6.25628E-14
 -1      2754 8.22076E-03-3.65290E-04-6.75953E-14
 -1      2755 8.36637E-03-3.64026E-04-6.98855E-14
 -1      2756 8.15571E-03-3.28845E-04-6.70207E-14
 -1      2757 8.51233E-03-3.64477E-04-7.22088E-14
 -1      2758 8.65903E-03-3.67115E-04-7.45632E-14
 -1      2759 8.43946E-03-3.26676E-04-7.16116E-14
 -1      2760 8.80653E-03-3.72494E-04-7.69486E-14
 -1      2761 8.95537E-03-3.81401E-04-7.93661E-14
 -1      2762 8.72379E-03-3.31661E-04-7.63316E-14
 -1      2763 9.10592E-03-3.94419E-04-8.18176E-14
 -1      2764 9.25888E-03-4.12946E-04-8.42986E-14
 -1      2765 9.01090E-03-3.47807E-04-8.11759E-14
 -1      2766 9.41529E-03-4.37444E-04-8.68104E-14
 -1      2767 9.57575E-03-4.70316E-04-8.93516E-14
 -1      2768 9.30540E-03-3.80873E-04-8.61470E-14
 -1      2769 9.74242E-03-5.11739E-04-9.19220E-14
 -1      2770 9.91510E-03-5.65566E-04-9.45231E-14
 -1      2771 9.61565E-03-4.39664E-04-9.12381E-14
 -1      2772 1.00968E-02-6.31306E-04-9.71532E-14
 -1      2773 1.02858E-02-7.14017E-04-9.98121E-14
 -1      2774 9.95410E-03-5.38801E-04-9.64433E-14
 -1      2775 1.08726E-02-1.04656E-03-1.07395E-13
 -1      2776 1.10764E-02-1.17230E-03-1.10184E-13
 -1      2777 1.19538E-02-1.42060E-03-1.23506E-13
 -1      2778 1.21493E-02-1.35908E-03-1.26522E-13
 -1      2779 1.24306E-02-1.23167E-03-1.30834E-13
 -1      2780 1.26352E-02-1.13882E-03-1.33947E-13
 -1      2781 1.28406E-02-1.05219E-03-1.37090E-13
 -1      2782 1.30383E-02-9.78809E-04-1.40261E-13
 -1      2783 1.27879E-02-1.03278E-03-1.35535E-13
 -1      2784 1.32303E-02-9.21452E-04-1.43461E-13
 -1      2785 1.34127E-02-8.77068E-04-1.46682E-13
 -1      2786 1.31907E-02-8.87457E-04-1.41882E-13
 -1      2787 1.35881E-02-8.46104E-04-1.49926E-13
 -1      2788 1.37557E-02-8.24669E-04-1.53188E-13
 -1      2789 1.35546E-02-8.08045E-04-1.48323E-13
 -1      2790 1.39176E-02-8.12169E-04-1.56466E-13
 -1      2791 1.40744E-02-8.05392E-04-1.59763E-13
 -1      2792 1.38843E-02-7.74824E-04-1.54841E-13
 -1      2793 1.42274E-02-8.03335E-04-1.63073E-13
 -1      2794 1.43774E-02-8.03862E-04-1.66397E-13
 -1      2795 1.41914E-02-7.68406E-04-1.61425E-13
 -1      2796 2.26911E-03 4.78562E-04-5.14697E-15
 -1      2797 2.12730E-03 4.71741E-04-4.51809E-15
 -1      2798 9.58199E-03-3.02710E-04-9.95342E-14
 -1      2799 9.46498E-03-2.65901E-04-9.91154E-14
 -1      2800 8.03077E-04 2.78276E-04-7.01899E-16
 -1      2801 1.98539E-03 4.63290E-04-3.93029E-15
 -1      2802 1.84335E-03 4.53047E-04-3.38446E-15
 -1      2803 2.04758E-03 4.31351E-04-4.29961E-15
 -1      2804 2.83614E-03 4.94299E-04-8.08666E-15
 -1      2805 2.69438E-03 4.91770E-04-7.28913E-15
 -1      2806 3.11981E-03 4.97410E-04-9.80704E-15
 -1      2807 2.97796E-03 4.96153E-04-8.92602E-15
 -1      2808 2.90234E-03 4.58247E-04-8.59919E-15
 -1      2809 3.40369E-03 4.98558E-04-1.16934E-14
 -1      2810 3.26173E-03 4.98192E-04-1.07296E-14
 -1      2811 3.18712E-03 4.60721E-04-1.03653E-14
 -1      2812 3.68784E-03 4.98333E-04-1.37458E-14
 -1      2813 3.54574E-03 4.98591E-04-1.26990E-14
 -1      2814 3.47197E-03 4.61439E-04-1.22968E-14
 -1      2815 3.97226E-03 4.97139E-04-1.59638E-14
 -1      2816 3.83002E-03 4.97840E-04-1.48341E-14
 -1      2817 3.75692E-03 4.60929E-04-1.43931E-14
 -1      2818 4.25697E-03 4.95234E-04-1.83464E-14
 -1      2819 4.11458E-03 4.96265E-04-1.71340E-14
 -1      2820 4.04201E-03 4.59548E-04-1.66536E-14
 -1      2821 4.54194E-03 4.92760E-04-2.08950E-14
 -1      2822 4.39942E-03 4.94063E-04-1.96001E-14
 -1      2823 4.32723E-03 4.57516E-04-1.90796E-14
 -1      2824 4.82720E-03 4.89772E-04-2.36062E-14
 -1      2825 4.68454E-03 4.91329E-04-2.22302E-14
 -1      2826 4.61261E-03 4.54949E-04-2.16695E-14
 -1      2827 5.11275E-03 4.86265E-04-2.64804E-14
 -1      2828 4.96994E-03 4.88085E-04-2.50229E-14
 -1      2829 4.89814E-03 4.51882E-04-2.44218E-14
 -1      2830 5.39864E-03 4.82189E-04-2.95139E-14
 -1      2831 5.25565E-03 4.84301E-04-2.79769E-14
 -1      2832 5.18385E-03 4.48295E-04-2.73355E-14
 -1      2833 5.68490E-03 4.77473E-04-3.27077E-14
 -1      2834 5.54171E-03 4.79914E-04-3.10913E-14
 -1      2835 5.46977E-03 4.44130E-04-3.04086E-14
 -1      2836 5.97161E-03 4.72051E-04-3.60578E-14
 -1      2837 5.82819E-03 4.74853E-04-3.43632E-14
 -1      2838 5.75593E-03 4.39311E-04-3.36406E-14
 -1      2839 6.25889E-03 4.65885E-04-3.95640E-14
 -1      2840 6.11516E-03 4.69060E-04-3.77919E-14
 -1      2841 6.04238E-03 4.33772E-04-3.70285E-14
 -1      2842 6.54687E-03 4.59005E-04-4.32213E-14
 -1      2843 6.40277E-03 4.62528E-04-4.13742E-14
 -1      2844 6.32921E-03 4.27478E-04-4.05712E-14
 -1      2845 6.83574E-03 4.51550E-04-4.70253E-14
 -1      2846 6.69117E-03 4.55335E-04-4.51057E-14
 -1      2847 6.61652E-03 4.20468E-04-4.42635E-14
 -1      2848 7.12573E-03 4.43831E-04-5.09733E-14
 -1      2849 6.98056E-03 4.47697E-04-4.89806E-14
 -1      2850 6.90447E-03 4.12895E-04-4.81005E-14
 -1      2851 7.41716E-03 4.36402E-04-5.50653E-14
 -1      2852 7.27123E-03 4.40037E-04-5.30005E-14
 -1      2853 7.19326E-03 4.05087E-04-5.20820E-14
 -1      2854 7.71042E-03 4.30140E-04-5.92974E-14
 -1      2855 7.56352E-03 4.33059E-04-5.71651E-14
 -1      2856 7.48321E-03 3.97614E-04-5.62076E-14
 -1      2857 8.00600E-03 4.26341E-04-6.36659E-14
 -1      2858 7.85788E-03 4.27838E-04-6.14642E-14
 -1      2859 7.77473E-03 3.91377E-04-6.04737E-14
 -1      2860 8.30456E-03 4.26797E-04-6.81701E-14
 -1      2861 8.15487E-03 4.25907E-04-6.59016E-14
 -1      2862 8.06842E-03 3.87691E-04-6.48750E-14
 -1      2863 8.60687E-03 4.33837E-04-7.28066E-14
 -1      2864 8.45521E-03 4.29325E-04-7.04714E-14
 -1      2865 8.36513E-03 3.88375E-04-6.94099E-14
 -1      2866 8.91382E-03 4.50277E-04-7.75737E-14
 -1      2867 8.75975E-03 4.40679E-04-7.51742E-14
 -1      2868 8.66596E-03 3.95803E-04-7.40788E-14
 -1      2869 9.22623E-03 4.79167E-04-8.24700E-14
 -1      2870 9.06938E-03 4.62952E-04-8.00063E-14
 -1      2871 8.97225E-03 4.12890E-04-7.88782E-14
 -1      2872 9.54447E-03 5.23187E-04-8.74987E-14
 -1      2873 9.38475E-03 4.99122E-04-8.49675E-14
 -1      2874 9.28537E-03 4.42892E-04-8.38052E-14
 -1      2875 9.86784E-03 5.83471E-04-9.26518E-14
 -1      2876 9.70577E-03 5.51295E-04-9.00596E-14
 -1      2877 9.60621E-03 4.88835E-04-8.88613E-14
 -1      2878 1.01938E-02 6.57698E-04-9.79411E-14
 -1      2879 1.00309E-02 6.19221E-04-9.52806E-14
 -1      2880 9.93419E-03 5.52290E-04-9.40455E-14
 -1      2881 1.05178E-02 7.37450E-04-1.03362E-13
 -1      2882 1.03565E-02 6.97764E-04-1.00635E-13
 -1      2883 1.02663E-02 6.30862E-04-9.93608E-14
 -1      2884 1.08347E-02 8.07066E-04-1.08921E-13
 -1      2885 1.06774E-02 7.74884E-04-1.06126E-13
 -1      2886 1.05965E-02 7.14891E-04-1.04813E-13
 -1      2887 1.11420E-02 8.45908E-04-1.14614E-13
 -1      2888 1.09893E-02 8.31807E-04-1.11751E-13
 -1      2889 1.09184E-02 7.85793E-04-1.10399E-13
 -1      2890 1.14428E-02 8.36119E-04-1.20436E-13
 -1      2891 1.12925E-02 8.47843E-04-1.17508E-13
 -1      2892 1.12297E-02 8.19092E-04-1.16120E-13
 -1      2893 1.17447E-02 7.72251E-04-1.26386E-13
 -1      2894 1.15929E-02 8.10567E-04-1.23395E-13
 -1      2895 1.15356E-02 7.95928E-04-1.21971E-13
 -1      2896 1.20535E-02 6.64793E-04-1.32461E-13
 -1      2897 1.18977E-02 7.22685E-04-1.29410E-13
 -1      2898 1.18451E-02 7.14741E-04-1.27954E-13
 -1      2899 1.23708E-02 5.33310E-04-1.38643E-13
 -1      2900 1.22114E-02 6.00681E-04-1.35539E-13
 -1      2901 1.21645E-02 5.92277E-04-1.34057E-13
 -1      2902 1.26922E-02 3.96217E-04-1.44914E-13
 -1      2903 1.25315E-02 4.64476E-04-1.41769E-13
 -1      2904 1.24924E-02 4.52633E-04-1.40266E-13
 -1      2905 1.30122E-02 2.65187E-04-1.51263E-13
 -1      2906 1.28528E-02 3.29545E-04-1.48081E-13
 -1      2907 1.28221E-02 3.14380E-04-1.46563E-13
 -1      2908 1.33269E-02 1.44122E-04-1.57673E-13
 -1      2909 1.31706E-02 2.03447E-04-1.54462E-13
 -1      2910 1.31471E-02 1.86788E-04-1.52931E-13
 -1      2911 1.36343E-02 3.14265E-05-1.64129E-13
 -1      2912 1.34817E-02 8.70086E-05-1.60894E-13
 -1      2913 1.34638E-02 7.09169E-05-1.59356E-13
 -1      2914 1.39143E-02-7.37702E-05-1.69917E-13
 -1      2915 1.37650E-02-1.97698E-05-1.66671E-13
 -1      2916 1.37510E-02-3.41296E-05-1.65122E-13
 -1      2917 1.40121E-02-1.32055E-04-1.70210E-13
 -1      2918 1.19083E-02 5.78977E-04-1.26049E-13
 -1      2919 1.20714E-02 4.87303E-04-1.28330E-13
 -1      2920 1.46751E-02-4.92388E-04-1.70589E-13
 -1      2921 1.46218E-02-4.64516E-04-1.70533E-13
 -1      2922 1.09990E-02 6.09869E-04-1.12001E-13
 -1      2923 1.11565E-02 6.70628E-04-1.14319E-13
 -1      2924 1.44214E-02-3.64252E-04-1.70349E-13
 -1      2925 1.43470E-02-3.25690E-04-1.70282E-13
 -1      2926 1.47519E-02-5.41057E-04-1.70687E-13
 -1      2927 1.47190E-02-5.17520E-04-1.70642E-13
 -1      2928 1.45891E-02-4.88418E-04-1.67769E-13
 -1      2929 1.45604E-02-4.33992E-04-1.70474E-13
 -1      2930 1.44931E-02-4.00478E-04-1.70412E-13
 -1      2931 1.43358E-02-3.56537E-04-1.67553E-13
 -1      2932 1.44766E-02-4.29071E-04-1.67668E-13
 -1      2933 1.47820E-02-5.84494E-04-1.70761E-13
 -1      2934 1.47729E-02-5.62691E-04-1.70727E-13
 -1      2935 1.46579E-02-5.36849E-04-1.67851E-13
 -1      2936 1.47661E-02-6.31321E-04-1.70815E-13
 -1      2937 1.47795E-02-6.06966E-04-1.70790E-13
 -1      2938 1.46758E-02-5.81848E-04-1.67911E-13
 -1      2939 1.47122E-02-6.86630E-04-1.70849E-13
 -1      2940 1.47430E-02-6.57553E-04-1.70835E-13
 -1      2941 1.46446E-02-6.32331E-04-1.67950E-13
 -1      2942 1.37780E-02-5.19692E-04-1.42493E-13
 -1      2943 1.36512E-02-5.61686E-04-1.41677E-13
 -1      2944 1.70115E-03 4.40592E-04-2.88125E-15
 -1      2945 1.55870E-03 4.25723E-04-2.42006E-15
 -1      2946 1.47608E-03 3.82253E-04-2.26913E-15
 -1      2947 1.76209E-03 4.11266E-04-3.20073E-15
 -1      2948 1.39774E-02-4.61313E-04-1.43691E-13
 -1      2949 1.38968E-02-4.81325E-04-1.43108E-13
 -1      2950 1.30655E-02-8.22656E-04-1.36818E-13
 -1      2951 1.28548E-02-9.41018E-04-1.34856E-13
 -1      2952 1.16261E-02 6.91186E-04-1.21782E-13
 -1      2953 1.17472E-02 6.50888E-04-1.23713E-13
 -1      2954 1.39981E-02-4.39161E-04-1.44409E-13
 -1      2955 1.40121E-02-4.45843E-04-1.44327E-13
 -1      2956 1.40129E-02-4.39275E-04-1.46554E-13
 -1      2957 1.34670E-02-6.32145E-04-1.40174E-13
 -1      2958 1.32874E-02-7.11503E-04-1.38750E-13
 -1      2959 2.55263E-03 4.88394E-04-6.53346E-15
 -1      2960 2.41089E-03 4.84070E-04-5.81912E-15
 -1      2961 2.33269E-03 4.44758E-04-5.56582E-15
 -1      2962 2.61756E-03 4.53268E-04-6.99897E-15
 -1      2963 7.84398E-04 1.23491E-04-8.80874E-16
 -1      2964 7.82015E-04 1.00050E-04-8.94020E-16
 -1      2965 8.99635E-04 9.94764E-05-1.14282E-15
 -1      2966 9.05360E-04 1.51626E-04-1.11150E-15
 -1      2967 1.17915E-02-1.44003E-03-1.20908E-13
 -1      2968 9.48460E-03-1.27690E-04-9.87567E-14
 -1      2969 9.64038E-03-8.04576E-05-9.98825E-14
 -1      2970 9.36662E-03-2.37172E-04-9.86657E-14
 -1      2971 9.29041E-03-2.19208E-04-9.81744E-14
 -1      2972 7.81749E-04-9.79925E-05-9.06691E-16
 -1      2973 7.84058E-04-1.21347E-04-8.96161E-16
 -1      2974 1.45801E-02-8.02919E-04-1.70909E-13
 -1      2975 1.46419E-02-7.71082E-04-1.71498E-13
 -1      2976 1.44822E-02-8.00655E-04-1.68650E-13
 -1      2977 1.02461E-02 2.14442E-04-1.03507E-13
 -1      2978 1.03770E-02 2.88380E-04-1.04640E-13
 -1      2979 6.52860E-04-1.88437E-04-5.80658E-16
 -1      2980 9.29110E-03-1.81650E-04-9.78213E-14
 -1      2981 9.35218E-03-1.66559E-04-9.80247E-14
 -1      2982 1.13277E-02 7.08058E-04-1.16957E-13
 -1      2983 1.14738E-02 7.14243E-04-1.19333E-13
 -1      2984 9.24796E-03-2.03627E-04-9.78554E-14
 -1      2985 9.25367E-03-1.96085E-04-9.78383E-14
 -1      2986 9.24262E-03-1.81331E-04-9.64629E-14
 -1      2987 9.94908E-03-4.56546E-04-1.01306E-13
 -1      2988 9.75855E-03-3.71179E-04-1.00263E-13
 -1      2989 1.03934E-02-7.02693E-04-1.04297E-13
 -1      2990 1.01830E-02-5.78611E-04-1.02794E-13
 -1      2991 1.26349E-02-1.06911E-03-1.32531E-13
 -1      2992 1.24692E-02-1.16954E-03-1.30576E-13
 -1      2993 1.05897E-02 4.02081E-04-1.06876E-13
 -1      2994 1.07814E-02 5.08733E-04-1.09105E-13
 -1      2995 1.23067E-02 3.44414E-04-1.30967E-13
 -1      2996 1.24940E-02 2.24304E-04-1.32685E-13
 -1      2997 1.26248E-02 1.52344E-04-1.34734E-13
 -1      2998 1.15993E-02-1.42246E-03-1.17970E-13
 -1      2999 7.87105E-04-1.45490E-04-8.82920E-16
 -1      3000 7.90963E-04-1.70648E-04-8.65979E-16
 -1      3001 9.04890E-04-1.49089E-04-1.13161E-15
 -1      3002 8.95507E-04 1.01073E-06-1.17064E-15
 -1      3003 7.77661E-04-9.72373E-06-9.22710E-16
 -1      3004 7.78024E-04-3.13775E-05-9.22249E-16
 -1      3005 1.32018E-02-7.77141E-04-1.39008E-13
 -1      3006 1.14431E-02-1.36749E-03-1.15550E-13
 -1      3007 9.39656E-03-1.36234E-04-9.71700E-14
 -1      3008 1.35531E-02-3.06325E-04-1.42111E-13
 -1      3009 1.37081E-02-3.56500E-04-1.43372E-13
 -1      3010 1.07142E-02-9.49082E-04-1.05311E-13
 -1      3011 1.07628E-02-9.58937E-04-1.06715E-13
 -1      3012 1.05118E-02-8.35121E-04-1.02584E-13
 -1      3013 1.23215E-02-1.26947E-03-1.29020E-13
 -1      3014 1.12454E-02-1.27084E-03-1.12691E-13
 -1      3015 1.44436E-02-7.68566E-04-1.66989E-13
 -1      3016 9.38923E-03-2.43816E-04-9.75604E-14
 -1      3017 8.64843E-04 2.66598E-04-8.56113E-16
 -1      3018 1.18318E-02 6.19575E-04-1.25362E-13
 -1      3019 1.40843E-02-1.75420E-04-1.70291E-13
 -1      3020 1.39541E-02-1.28852E-04-1.67746E-13
 -1      3021 1.41579E-02-2.18212E-04-1.70368E-13
 -1      3022 1.12327E-02 7.01559E-04-1.15479E-13
 -1      3023 1.35917E-02-6.05735E-04-1.42456E-13
 -1      3024 1.38779E-02-5.07562E-04-1.44586E-13
 -1      3025 1.46828E-02-7.35800E-04-1.71497E-13
 -1      3026 1.21987E-02 4.16777E-04-1.30349E-13
 -1      3027 1.23272E-02 3.45683E-04-1.32380E-13
 -1      3028 1.21112E-02 4.79162E-04-1.29726E-13
 -1      3029 1.38293E-02-3.86860E-04-1.45615E-13
 -1      3030 1.04566E-02 3.65322E-04-1.04843E-13
 -1      3031 1.27789E-02-1.00784E-03-1.34730E-13
 -1      3032 1.45149E-02-7.38872E-04-1.67800E-13
 -1      3033 1.46501E-02-7.09450E-04-1.70049E-13
 -1      3034 1.45521E-02-6.84264E-04-1.67164E-13
 -1      3035 1.44137E-02-7.38787E-04-1.65552E-13
 -1      3036 1.05760E-02-8.21551E-04-1.05425E-13
 -1      3037 1.04378E-02-7.46162E-04-1.03522E-13
 -1      3038 1.31972E-02-1.57338E-04-1.39604E-13
 -1      3039 1.33824E-02-2.39400E-04-1.40855E-13
 -1      3040 1.34934E-02-2.71109E-04-1.43336E-13
 -1      3041 9.24599E-03-2.04928E-04-9.67983E-14
 -1      3042 1.15381E-02 7.11781E-04-1.20570E-13
 -1      3043 1.08651E-02 5.71882E-04-1.09949E-13
 -1      3044 1.07915E-02-9.68564E-04-1.07521E-13
 -1      3045 9.64864E-03-3.31676E-04-9.87288E-14
 -1      3046 9.74125E-03-2.42256E-05-9.97372E-14
 -1      3047 1.40295E-02-4.61291E-04-1.45840E-13
 -1      3048 1.42899E-02-2.93394E-04-1.70365E-13
 -1      3049 1.42148E-02-2.52173E-04-1.70289E-13
 -1      3050 1.40849E-02-2.10330E-04-1.67744E-13
 -1      3051 1.42015E-02-2.81520E-04-1.67578E-13
 -1      3052 7.78801E-04-5.31683E-05-9.19390E-16
 -1      3053 7.80016E-04-7.53626E-05-9.14118E-16
 -1      3054 8.99352E-04-9.71242E-05-1.15641E-15
 -1      3055 8.96401E-04-4.75415E-05-1.16884E-15
 -1      3056 7.69982E-04-2.02445E-04-7.85206E-16
 -1      3057 1.01213E-02 1.63902E-04-1.02112E-13
 -1      3058 9.82937E-04 2.75838E-04-1.11011E-15
 -1      3059 1.03642E-02-7.24433E-04-1.01847E-13
 -1      3060 1.30821E-02-9.75480E-05-1.39264E-13
 -1      3061 1.32209E-02-1.47511E-04-1.41730E-13
 -1      3062 1.29740E-02-3.37854E-05-1.38923E-13
 -1      3063 1.11014E-02-1.17469E-03-1.11297E-13
 -1      3064 1.00392E-02-5.10772E-04-1.00925E-13
 -1      3065 1.17696E-02 6.54970E-04-1.24764E-13
 -1      3066 1.19158E-02 5.88423E-04-1.27111E-13
 -1      3067 1.04028E-03 2.43328E-04-1.30913E-15
 -1      3068 1.03367E-03 2.11600E-04-1.34170E-15
 -1      3069 9.24388E-03-2.05426E-04-9.54833E-14
 -1      3070 9.20161E-03-1.92362E-04-9.51679E-14
 -1      3071 1.01080E-02-5.61786E-04-1.00298E-13
 -1      3072 9.89926E-03-4.53490E-04-9.88320E-14
 -1      3073 1.21719E-03-2.80474E-04-1.75341E-15
 -1      3074 1.36021E-03-2.98822E-04-2.14588E-15
 -1      3075 1.50352E-03-3.14573E-04-2.57966E-15
 -1      3076 1.64711E-03-3.27911E-04-3.05516E-15
 -1      3077 1.42448E-03-2.74184E-04-2.39510E-15
 -1      3078 1.79077E-03-3.39169E-04-3.57239E-15
 -1      3079 1.93450E-03-3.48509E-04-4.13095E-15
 -1      3080 1.71168E-03-2.99066E-04-3.35207E-15
 -1      3081 2.07822E-03-3.56245E-04-4.73121E-15
 -1      3082 2.22192E-03-3.62519E-04-5.37348E-15
 -1      3083 1.99964E-03-3.16629E-04-4.47488E-15
 -1      3084 2.36558E-03-3.67593E-04-6.05722E-15
 -1      3085 2.50919E-03-3.71582E-04-6.78201E-15
 -1      3086 2.28780E-03-3.28493E-04-5.76335E-15
 -1      3087 2.65274E-03-3.74696E-04-7.54782E-15
 -1      3088 2.79623E-03-3.77023E-04-8.35471E-15
 -1      3089 2.57588E-03-3.36073E-04-7.21660E-15
 -1      3090 2.93967E-03-3.78724E-04-9.20278E-15
 -1      3091 3.08305E-03-3.79866E-04-1.00913E-14
 -1      3092 2.86374E-03-3.40515E-04-8.83362E-15
 -1      3093 3.22639E-03-3.80567E-04-1.10202E-14
 -1      3094 3.36967E-03-3.80875E-04-1.19898E-14
 -1      3095 3.15133E-03-3.42710E-04-1.06128E-14
 -1      3096 3.51292E-03-3.80876E-04-1.29987E-14
 -1      3097 3.65611E-03-3.80601E-04-1.40469E-14
 -1      3098 3.43862E-03-3.43321E-04-1.25521E-14
 -1      3099 3.79928E-03-3.80111E-04-1.51360E-14
 -1      3100 3.94240E-03-3.79423E-04-1.62653E-14
 -1      3101 3.72564E-03-3.42823E-04-1.46510E-14
 -1      3102 4.08550E-03-3.78577E-04-1.74353E-14
 -1      3103 4.22857E-03-3.77582E-04-1.86448E-14
 -1      3104 4.01241E-03-3.41537E-04-1.69111E-14
 -1      3105 4.37161E-03-3.76459E-04-1.98937E-14
 -1      3106 4.51462E-03-3.75211E-04-2.11843E-14
 -1      3107 4.29894E-03-3.39664E-04-1.93309E-14
 -1      3108 4.65761E-03-3.73846E-04-2.25159E-14
 -1      3109 4.80058E-03-3.72361E-04-2.38864E-14
 -1      3110 4.58524E-03-3.37310E-04-2.19116E-14
 -1      3111 4.94352E-03-3.70754E-04-2.52959E-14
 -1      3112 5.08644E-03-3.69018E-04-2.67453E-14
 -1      3113 4.87133E-03-3.34506E-04-2.46532E-14
 -1      3114 5.22933E-03-3.67145E-04-2.82340E-14
 -1      3115 5.37219E-03-3.65124E-04-2.97611E-14
 -1      3116 5.15719E-03-3.31229E-04-2.75521E-14
 -1      3117 5.51502E-03-3.62944E-04-3.13270E-14
 -1      3118 5.65782E-03-3.60592E-04-3.29322E-14
 -1      3119 5.44280E-03-3.27420E-04-3.06075E-14
 -1      3120 5.80056E-03-3.58057E-04-3.45754E-14
 -1      3121 5.94327E-03-3.55325E-04-3.62571E-14
 -1      3122 5.72809E-03-3.22995E-04-3.38162E-14
 -1      3123 6.08591E-03-3.52388E-04-3.79772E-14
 -1      3124 6.22849E-03-3.49233E-04-3.97355E-14
 -1      3125 6.01299E-03-3.17868E-04-3.71804E-14
 -1      3126 6.37096E-03-3.45863E-04-4.15330E-14
 -1      3127 6.51336E-03-3.42266E-04-4.33682E-14
 -1      3128 6.29736E-03-3.11970E-04-4.06980E-14
 -1      3129 6.65562E-03-3.38462E-04-4.52399E-14
 -1      3130 6.79776E-03-3.34443E-04-4.71486E-14
 -1      3131 6.58104E-03-3.05275E-04-4.43666E-14
 -1      3132 6.93970E-03-3.30256E-04-4.90969E-14
 -1      3133 7.08148E-03-3.25901E-04-5.10823E-14
 -1      3134 6.86378E-03-2.97838E-04-4.81853E-14
 -1      3135 7.22299E-03-3.21464E-04-5.31019E-14
 -1      3136 7.36428E-03-3.16957E-04-5.51565E-14
 -1      3137 7.14527E-03-2.89839E-04-5.21512E-14
 -1      3138 7.50520E-03-3.12517E-04-5.72487E-14
 -1      3139 7.64584E-03-3.08177E-04-5.93770E-14
 -1      3140 7.42511E-03-2.81635E-04-5.62618E-14
 -1      3141 7.78602E-03-3.04142E-04-6.15380E-14
 -1      3142 7.92586E-03-3.00473E-04-6.37328E-14
 -1      3143 7.70282E-03-2.73826E-04-6.05136E-14
 -1      3144 8.06515E-03-2.97454E-04-6.59625E-14
 -1      3145 8.20409E-03-2.95195E-04-6.82239E-14
 -1      3146 7.97790E-03-2.67321E-04-6.49039E-14
 -1      3147 8.34246E-03-2.94059E-04-7.05183E-14
 -1      3148 8.48058E-03-2.94240E-04-7.28465E-14
 -1      3149 8.24987E-03-2.63389E-04-6.94278E-14
 -1      3150 8.61829E-03-2.96160E-04-7.52045E-14
 -1      3151 8.75611E-03-3.00180E-04-7.75934E-14
 -1      3152 8.51852E-03-2.63703E-04-7.40785E-14
 -1      3153 8.89397E-03-3.06721E-04-8.00146E-14
 -1      3154 9.03286E-03-3.16481E-04-8.24677E-14
 -1      3155 8.78430E-03-2.70391E-04-7.88572E-14
 -1      3156 9.17287E-03-3.29784E-04-8.49512E-14
 -1      3157 9.31577E-03-3.48202E-04-8.74649E-14
 -1      3158 9.04908E-03-2.86092E-04-8.37577E-14
 -1      3159 9.46190E-03-3.72014E-04-9.00073E-14
 -1      3160 9.61419E-03-4.04360E-04-9.25784E-14
 -1      3161 9.31777E-03-3.15154E-04-8.87802E-14
 -1      3162 1.35402E-02-7.58856E-04-1.46726E-13
 -1      3163 1.37067E-02-7.38653E-04-1.49965E-13
 -1      3164 1.38651E-02-7.29329E-04-1.53222E-13
 -1      3165 1.40177E-02-7.25689E-04-1.56495E-13
 -1      3166 1.38538E-02-6.80885E-04-1.51606E-13
 -1      3167 1.41448E-02-7.28587E-04-1.59361E-13
 -1      3168 1.42904E-02-7.32335E-04-1.62664E-13
 -1      3169 1.43654E-02-7.01124E-04-1.63472E-13
 -1      3170 1.41242E-02-6.85808E-04-1.57726E-13
 -1      3171 2.11105E-03 3.98782E-04-4.67527E-15
 -1      3172 1.96783E-03 3.90876E-04-4.08060E-15
 -1      3173 3.25492E-03 4.23727E-04-1.09274E-14
 -1      3174 3.11206E-03 4.23010E-04-1.00010E-14
 -1      3175 2.96917E-03 4.21818E-04-9.11592E-15
 -1      3176 2.82626E-03 4.20090E-04-8.27214E-15
 -1      3177 3.03662E-03 3.85085E-04-9.63678E-15
 -1      3178 3.82626E-03 4.23341E-04-1.50430E-14
 -1      3179 3.68343E-03 4.23827E-04-1.39526E-14
 -1      3180 4.11191E-03 4.21824E-04-1.73462E-14
 -1      3181 3.96909E-03 4.22668E-04-1.61740E-14
 -1      3182 3.89585E-03 3.85621E-04-1.56955E-14
 -1      3183 4.39758E-03 4.19712E-04-1.98145E-14
 -1      3184 4.25474E-03 4.20836E-04-1.85598E-14
 -1      3185 4.18198E-03 3.84012E-04-1.80416E-14
 -1      3186 4.68327E-03 4.17095E-04-2.24463E-14
 -1      3187 4.54042E-03 4.18464E-04-2.11102E-14
 -1      3188 4.46801E-03 3.81862E-04-2.05522E-14
 -1      3189 4.96901E-03 4.13992E-04-2.52394E-14
 -1      3190 4.82613E-03 4.15606E-04-2.38225E-14
 -1      3191 4.75395E-03 3.79236E-04-2.32249E-14
 -1      3192 5.25479E-03 4.10370E-04-2.81924E-14
 -1      3193 5.11189E-03 4.12249E-04-2.66963E-14
 -1      3194 5.03980E-03 3.76139E-04-2.60585E-14
 -1      3195 5.54065E-03 4.06163E-04-3.13058E-14
 -1      3196 5.39771E-03 4.08344E-04-2.97293E-14
 -1      3197 5.32557E-03 3.72526E-04-2.90524E-14
 -1      3198 5.82658E-03 4.01294E-04-3.45757E-14
 -1      3199 5.68360E-03 4.03816E-04-3.29217E-14
 -1      3200 5.61126E-03 3.68327E-04-3.22041E-14
 -1      3201 6.11264E-03 3.95695E-04-3.80013E-14
 -1      3202 5.96959E-03 3.98589E-04-3.62687E-14
 -1      3203 5.89686E-03 3.63462E-04-3.55116E-14
 -1      3204 6.39886E-03 3.89338E-04-4.15784E-14
 -1      3205 6.25572E-03 3.92612E-04-3.97708E-14
 -1      3206 6.18239E-03 3.57866E-04-3.89735E-14
 -1      3207 6.68532E-03 3.82264E-04-4.53050E-14
 -1      3208 6.54204E-03 3.85885E-04-4.34236E-14
 -1      3209 6.46784E-03 3.51510E-04-4.25867E-14
 -1      3210 6.97213E-03 3.74635E-04-4.91760E-14
 -1      3211 6.82866E-03 3.78506E-04-4.72226E-14
 -1      3212 6.75326E-03 3.44438E-04-4.63464E-14
 -1      3213 7.25950E-03 3.66782E-04-5.31920E-14
 -1      3214 7.11572E-03 3.70710E-04-5.11662E-14
 -1      3215 7.03874E-03 3.36808E-04-5.02519E-14
 -1      3216 7.54772E-03 3.59279E-04-5.73517E-14
 -1      3217 7.40347E-03 3.62942E-04-5.52537E-14
 -1      3218 7.32446E-03 3.28945E-04-5.43028E-14
 -1      3219 7.83726E-03 3.53020E-04-6.16494E-14
 -1      3220 7.69228E-03 3.55924E-04-5.94843E-14
 -1      3221 7.61071E-03 3.21401E-04-5.84961E-14
 -1      3222 8.12886E-03 3.49310E-04-6.60840E-14
 -1      3223 7.98274E-03 3.50743E-04-6.38486E-14
 -1      3224 7.89806E-03 3.15040E-04-6.28274E-14
 -1      3225 8.42357E-03 3.49960E-04-7.06520E-14
 -1      3226 8.27575E-03 3.48943E-04-6.83518E-14
 -1      3227 8.18734E-03 3.11119E-04-6.72933E-14
 -1      3228 8.72286E-03 3.57368E-04-7.53515E-14
 -1      3229 8.57255E-03 3.52618E-04-7.29851E-14
 -1      3230 8.47989E-03 3.11410E-04-7.18938E-14
 -1      3231 9.02860E-03 3.74564E-04-8.01816E-14
 -1      3232 8.87484E-03 3.64481E-04-7.77506E-14
 -1      3233 8.77758E-03 3.18322E-04-7.66256E-14
 -1      3234 9.34280E-03 4.05107E-04-8.51404E-14
 -1      3235 9.18461E-03 3.87860E-04-8.26448E-14
 -1      3236 9.08286E-03 3.35043E-04-8.14866E-14
 -1      3237 9.66692E-03 4.52602E-04-9.02241E-14
 -1      3238 9.50372E-03 4.26462E-04-8.76666E-14
 -1      3239 9.39848E-03 3.65609E-04-8.64738E-14
 -1      3240 1.00005E-02 5.19379E-04-9.54372E-14
 -1      3241 9.83283E-03 4.83522E-04-9.28146E-14
 -1      3242 9.72649E-03 4.14583E-04-9.15872E-14
 -1      3243 1.03403E-02 6.03291E-04-1.00780E-13
 -1      3244 1.01704E-02 5.59707E-04-9.80922E-14
 -1      3245 1.00669E-02 4.85293E-04-9.68273E-14
 -1      3246 1.06781E-02 6.93330E-04-1.06259E-13
 -1      3247 1.05102E-02 6.48892E-04-1.03502E-13
 -1      3248 1.04153E-02 5.76568E-04-1.02198E-13
 -1      3249 1.10054E-02 7.66581E-04-1.11873E-13
 -1      3250 1.08432E-02 7.34298E-04-1.09050E-13
 -1      3251 1.07607E-02 6.74543E-04-1.07704E-13
 -1      3252 1.13204E-02 7.93476E-04-1.17625E-13
 -1      3253 1.11637E-02 7.87951E-04-1.14732E-13
 -1      3254 1.10932E-02 7.50166E-04-1.13346E-13
 -1      3255 1.16313E-02 7.53597E-04-1.23508E-13
 -1      3256 1.14747E-02 7.82078E-04-1.20550E-13
 -1      3257 1.14125E-02 7.66917E-04-1.19129E-13
 -1      3258 1.19302E-02 6.38098E-04-1.28753E-13
 -1      3259 1.17656E-02 6.96920E-04-1.25738E-13
 -1      3260 1.26208E-02 3.67036E-04-1.41892E-13
 -1      3261 1.24512E-02 4.39667E-04-1.38761E-13
 -1      3262 1.29578E-02 2.30100E-04-1.48213E-13
 -1      3263 1.27903E-02 2.96822E-04-1.45043E-13
 -1      3264 1.27577E-02 2.77744E-04-1.43522E-13
 -1      3265 1.32863E-02 1.07991E-04-1.54602E-13
 -1      3266 1.31236E-02 1.67253E-04-1.51400E-13
 -1      3267 1.30999E-02 1.45099E-04-1.49866E-13
 -1      3268 1.36035E-02-1.35953E-06-1.61040E-13
 -1      3269 1.34465E-02 5.21370E-05-1.57816E-13
 -1      3270 1.34295E-02 3.04437E-05-1.56273E-13
 -1      3271 1.38464E-02-9.03536E-05-1.65657E-13
 -1      3272 1.37135E-02-4.19381E-05-1.63119E-13
 -1      3273 1.37007E-02-6.15580E-05-1.61570E-13
 -1      3274 1.39199E-02-1.37483E-04-1.65734E-13
 -1      3275 1.45657E-02-5.33851E-04-1.65017E-13
 -1      3276 1.45429E-02-5.10955E-04-1.64987E-13
 -1      3277 1.45054E-02-4.86372E-04-1.64950E-13
 -1      3278 1.44555E-02-4.58300E-04-1.64909E-13
 -1      3279 1.44248E-02-4.84769E-04-1.62132E-13
 -1      3280 1.11408E-02 6.98639E-04-1.13977E-13
 -1      3281 1.12963E-02 7.27350E-04-1.16612E-13
 -1      3282 9.68174E-03-3.53796E-04-9.75164E-14
 -1      3283 9.52765E-03-2.93422E-04-9.68008E-14
 -1      3284 1.02024E-02-6.19663E-04-1.00746E-13
 -1      3285 1.33398E-02-7.41331E-04-1.41483E-13
 -1      3286 1.31420E-02-8.39235E-04-1.39535E-13
 -1      3287 1.34505E-02-2.35697E-04-1.44708E-13
 -1      3288 1.36037E-02-2.95350E-04-1.45976E-13
 -1      3289 1.37078E-02-5.92057E-04-1.44923E-13
 -1      3290 1.35424E-02-6.53442E-04-1.43410E-13
 -1      3291 1.40582E-02-4.44551E-04-1.49336E-13
 -1      3292 1.40878E-02-4.55377E-04-1.49258E-13
 -1      3293 1.45682E-02-5.80036E-04-1.65063E-13
 -1      3294 1.45741E-02-5.56168E-04-1.65043E-13
 -1      3295 1.44737E-02-5.31152E-04-1.62185E-13
 -1      3296 1.45192E-02-6.34912E-04-1.65092E-13
 -1      3297 1.45491E-02-6.05695E-04-1.65079E-13
 -1      3298 1.44571E-02-5.78985E-04-1.62220E-13
 -1      3299 3.54060E-03 4.24079E-04-1.29029E-14
 -1      3300 3.39777E-03 4.24069E-04-1.18945E-14
 -1      3301 3.32320E-03 3.86493E-04-1.14931E-14
 -1      3302 3.60960E-03 3.86536E-04-1.35127E-14
 -1      3303 1.29889E-02-9.19549E-04-1.37884E-13
 -1      3304 1.39793E-02-5.04916E-04-1.47223E-13
 -1      3305 1.38809E-02-5.36732E-04-1.46604E-13
 -1      3306 9.40600E-03-2.51349E-04-9.63324E-14
 -1      3307 9.31876E-03-2.26982E-04-9.58901E-14
 -1      3308 1.03168E-02 3.38741E-04-1.02564E-13
 -1      3309 1.05047E-02 4.36461E-04-1.04778E-13
 -1      3310 1.14536E-02 7.30373E-04-1.19330E-13
 -1      3311 1.15916E-02 7.09957E-04-1.21780E-13
 -1      3312 1.14500E-03 3.10629E-04-1.45261E-15
 -1      3313 1.08235E-03 2.71692E-04-1.36603E-15
 -1      3314 1.20144E-03 2.73104E-04-1.68382E-15
 -1      3315 1.28816E-03 3.32603E-04-1.80822E-15
 -1      3316 9.91541E-03 9.28099E-05-9.95921E-14
 -1      3317 1.00454E-02 1.83430E-04-1.00100E-13
 -1      3318 1.37948E-02-3.64834E-04-1.47378E-13
 -1      3319 1.39472E-02-4.11176E-04-1.48401E-13
 -1      3320 9.70523E-03 1.01358E-05-9.77564E-14
 -1      3321 1.07416E-02 5.47712E-04-1.07921E-13
 -1      3322 1.09394E-02 6.34215E-04-1.10801E-13
 -1      3323 9.19388E-03-1.77829E-04-9.48416E-14
 -1      3324 9.22021E-03-1.65859E-04-9.48236E-14
 -1      3325 8.87899E-04-2.11872E-04-1.02323E-15
 -1      3326 1.09600E-02-1.07809E-03-1.09624E-13
 -1      3327 1.01660E-03 6.82244E-05-1.43519E-15
 -1      3328 1.01544E-03 4.12352E-05-1.44340E-15
 -1      3329 1.40879E-02-4.68973E-04-1.48565E-13
 -1      3330 1.40521E-02-4.82157E-04-1.47927E-13
 -1      3331 1.40754E-02-5.07399E-04-1.49957E-13
 -1      3332 1.41502E-02-4.75237E-04-1.51358E-13
 -1      3333 9.29741E-03-1.38540E-04-9.51034E-14
 -1      3334 9.41477E-03-1.03335E-04-9.58214E-14
 -1      3335 1.25675E-02 1.99704E-04-1.35118E-13
 -1      3336 1.27509E-02 8.85280E-05-1.36862E-13
 -1      3337 1.31396E-02-8.73237E-04-1.40351E-13
 -1      3338 1.00506E-02-5.55649E-04-9.86482E-14
 -1      3339 1.01484E-03 1.44533E-05-1.44836E-15
 -1      3340 1.01481E-03-1.22320E-05-1.45009E-15
 -1      3341 1.13553E-03 3.01720E-05-1.75503E-15
 -1      3342 1.15311E-03 2.11874E-04-1.65167E-15
 -1      3343 1.02833E-03 1.81206E-04-1.36870E-15
 -1      3344 1.02416E-03 1.51877E-04-1.39113E-15
 -1      3345 9.16012E-03-1.77974E-04-9.35391E-14
 -1      3346 1.32601E-02-1.35340E-04-1.44008E-13
 -1      3347 1.33545E-02-1.87628E-04-1.44358E-13
 -1      3348 1.34822E-02-2.17377E-04-1.46998E-13
 -1      3349 9.92130E-03 1.98920E-04-9.75290E-14
 -1      3350 1.01174E-02 2.62500E-04-1.00032E-13
 -1      3351 1.01691E-02 3.38131E-04-9.99569E-14
 -1      3352 9.75101E-03-3.99259E-04-9.68992E-14
 -1      3353 9.51063E-03-3.25797E-04-9.34599E-14
 -1      3354 9.67973E-03-3.96820E-04-9.47192E-14
 -1      3355 1.02369E-03-1.49146E-04-1.41277E-15
 -1      3356 1.02773E-03-1.78388E-04-1.39409E-15
 -1      3357 9.87330E-03-4.91055E-04-9.60094E-14
 -1      3358 1.29053E-02 2.06188E-05-1.39307E-13
 -1      3359 1.02087E-03 1.23330E-04-1.40950E-15
 -1      3360 1.01841E-03 9.55515E-05-1.42418E-15
 -1      3361 1.13819E-03 8.86457E-05-1.73670E-15
 -1      3362 1.14378E-03 1.48805E-04-1.70319E-15
 -1      3363 1.33299E-02-8.21325E-04-1.43551E-13
 -1      3364 1.88826E-03 3.50494E-04-3.86098E-15
 -1      3365 1.82455E-03 3.81218E-04-3.52723E-15
 -1      3366 1.68120E-03 3.69632E-04-3.01541E-15
 -1      3367 9.43205E-03-2.69863E-04-9.51334E-14
 -1      3368 2.74984E-03 3.81728E-04-7.94535E-15
 -1      3369 2.68332E-03 4.17685E-04-7.46983E-15
 -1      3370 2.54033E-03 4.14523E-04-6.70898E-15
 -1      3371 1.21095E-02 5.76336E-04-1.32291E-13
 -1      3372 1.20418E-02 5.59006E-04-1.30022E-13
 -1      3373 1.24071E-02 4.16186E-04-1.36965E-13
 -1      3374 1.22786E-02 5.03674E-04-1.35368E-13
 -1      3375 1.42515E-02-3.52400E-04-1.64760E-13
 -1      3376 1.41735E-02-3.09675E-04-1.64704E-13
 -1      3377 1.01813E-03-9.30178E-05-1.43794E-15
 -1      3378 1.02051E-03-1.20740E-04-1.42718E-15
 -1      3379 1.14331E-03-1.45943E-04-1.72564E-15
 -1      3380 1.10128E-02 6.84172E-04-1.11902E-13
 -1      3381 1.43950E-02-4.27150E-04-1.64863E-13
 -1      3382 1.43261E-02-3.91671E-04-1.64813E-13
 -1      3383 1.41695E-02-3.51096E-04-1.61968E-13
 -1      3384 1.43171E-02-4.27031E-04-1.62059E-13
 -1      3385 1.20336E-02 5.34034E-04-1.29117E-13
 -1      3386 1.55629E-03 3.61552E-04-2.59349E-15
 -1      3387 1.41292E-03 3.45381E-04-2.16012E-15
 -1      3388 1.36911E-03 3.15158E-04-2.09259E-15
 -1      3389 1.61929E-03 3.33952E-04-2.88140E-15
 -1      3390 2.25421E-03 4.05249E-04-5.31155E-15
 -1      3391 2.17563E-03 3.65662E-04-5.05726E-15
 -1      3392 2.39730E-03 4.10413E-04-5.98947E-15
 -1      3393 9.24372E-03-2.10187E-04-9.42664E-14
 -1      3394 1.34807E-02-7.11775E-04-1.43944E-13
 -1      3395 1.37612E-02-3.35067E-04-1.48758E-13
 -1      3396 1.44126E-02-6.78396E-04-1.63885E-13
 -1      3397 1.44795E-02-6.53218E-04-1.64686E-13
 -1      3398 1.43881E-02-6.25445E-04-1.61825E-13
 -1      3399 1.42960E-02-6.68273E-04-1.61007E-13
 -1      3400 1.13561E-02 7.43893E-04-1.17796E-13
 -1      3401 1.40544E-02-4.31430E-04-1.51109E-13
 -1      3402 1.38452E-02-5.75779E-04-1.47566E-13
 -1      3403 9.21764E-03-1.40494E-04-9.34919E-14
 -1      3404 1.41131E-02-2.73071E-04-1.64794E-13
 -1      3405 1.40528E-02-2.35449E-04-1.64880E-13
 -1      3406 1.40255E-02-2.67834E-04-1.62012E-13
 -1      3407 1.05925E-02 5.16197E-04-1.05600E-13
 -1      3408 1.16776E-02 6.94807E-04-1.23500E-13
 -1      3409 1.23595E-02 3.53464E-04-1.33851E-13
 -1      3410 1.24553E-02 2.79461E-04-1.34486E-13
 -1      3411 1.25831E-02 2.18964E-04-1.36605E-13
 -1      3412 1.02886E-03-2.35645E-04-1.32334E-15
 -1      3413 9.55705E-03-2.02087E-05-9.56776E-14
 -1      3414 9.68845E-03 8.22787E-05-9.55196E-14
 -1      3415 9.42199E-03-3.59597E-05-9.36199E-14
 -1      3416 1.09380E-03-2.17673E-04-1.51516E-15
 -1      3417 1.35011E-02-7.34925E-04-1.45177E-13
 -1      3418 9.35477E-03-2.92282E-04-9.08893E-14
 -1      3419 9.40141E-03-2.79547E-04-9.30053E-14
 -1      3420 9.30032E-03-2.43154E-04-9.25498E-14
 -1      3421 1.12297E-02 7.50513E-04-1.15659E-13
 -1      3422 1.13790E-02 7.56547E-04-1.18367E-13
 -1      3423 1.21347E-03-2.16457E-04-1.84348E-15
 -1      3424 1.63345E-03-2.59763E-04-3.13351E-15
 -1      3425 1.77739E-03-2.69360E-04-3.65609E-15
 -1      3426 1.92154E-03-2.77411E-04-4.21988E-15
 -1      3427 2.06586E-03-2.84067E-04-4.82469E-15
 -1      3428 1.84407E-03-2.38771E-04-3.96697E-15
 -1      3429 2.21024E-03-2.89533E-04-5.47087E-15
 -1      3430 2.35466E-03-2.93926E-04-6.15846E-15
 -1      3431 2.13302E-03-2.50848E-04-5.18051E-15
 -1      3432 2.49906E-03-2.97430E-04-6.88668E-15
 -1      3433 2.64342E-03-3.00135E-04-7.65566E-15
 -1      3434 2.42238E-03-2.58865E-04-6.55818E-15
 -1      3435 2.78773E-03-3.02194E-04-8.46538E-15
 -1      3436 2.93196E-03-3.03674E-04-9.31583E-15
 -1      3437 2.71172E-03-2.63828E-04-8.09903E-15
 -1      3438 3.07611E-03-3.04693E-04-1.02064E-14
 -1      3439 3.22017E-03-3.05300E-04-1.11369E-14
 -1      3440 3.00082E-03-2.66559E-04-9.80159E-15
 -1      3441 3.36415E-03-3.05586E-04-1.21071E-14
 -1      3442 3.50803E-03-3.05581E-04-1.31173E-14
 -1      3443 3.28955E-03-2.67696E-04-1.16639E-14
 -1      3444 3.65182E-03-3.05351E-04-1.41675E-14
 -1      3445 3.79552E-03-3.04917E-04-1.52578E-14
 -1      3446 3.57785E-03-2.67711E-04-1.36856E-14
 -1      3447 3.93913E-03-3.04322E-04-1.63879E-14
 -1      3448 4.08266E-03-3.03576E-04-1.75586E-14
 -1      3449 3.86571E-03-2.66936E-04-1.58672E-14
 -1      3450 4.22610E-03-3.02708E-04-1.87690E-14
 -1      3451 4.36946E-03-3.01721E-04-2.00192E-14
 -1      3452 4.15314E-03-2.65589E-04-1.82081E-14
 -1      3453 4.51274E-03-3.00630E-04-2.13099E-14
 -1      3454 4.65594E-03-2.99433E-04-2.26411E-14
 -1      3455 4.44013E-03-2.63798E-04-2.07107E-14
 -1      3456 4.79905E-03-2.98134E-04-2.40121E-14
 -1      3457 4.94208E-03-2.96727E-04-2.54216E-14
 -1      3458 4.72669E-03-2.61622E-04-2.33720E-14
 -1      3459 5.08501E-03-2.95212E-04-2.68719E-14
 -1      3460 5.22786E-03-2.93576E-04-2.83613E-14
 -1      3461 5.01281E-03-2.59066E-04-2.61931E-14
 -1      3462 5.37059E-03-2.91817E-04-2.98882E-14
 -1      3463 5.51322E-03-2.89920E-04-3.14548E-14
 -1      3464 5.29843E-03-2.56099E-04-2.91715E-14
 -1      3465 5.65572E-03-2.87881E-04-3.30605E-14
 -1      3466 5.79808E-03-2.85685E-04-3.47042E-14
 -1      3467 5.58347E-03-2.52665E-04-3.23051E-14
 -1      3468 5.94028E-03-2.83329E-04-3.63862E-14
 -1      3469 6.08231E-03-2.80799E-04-3.81059E-14
 -1      3470 5.86782E-03-2.48704E-04-3.55929E-14
 -1      3471 6.22413E-03-2.78100E-04-3.98643E-14
 -1      3472 6.36573E-03-2.75216E-04-4.16611E-14
 -1      3473 6.15129E-03-2.44162E-04-3.90328E-14
 -1      3474 6.50704E-03-2.72168E-04-4.34951E-14
 -1      3475 6.64807E-03-2.68942E-04-4.53656E-14
 -1      3476 6.43363E-03-2.39022E-04-4.26246E-14
 -1      3477 6.78872E-03-2.65580E-04-4.72746E-14
 -1      3478 6.92900E-03-2.62070E-04-4.92205E-14
 -1      3479 6.71453E-03-2.33321E-04-4.63660E-14
 -1      3480 7.06879E-03-2.58486E-04-5.12032E-14
 -1      3481 7.20810E-03-2.54821E-04-5.32208E-14
 -1      3482 6.99354E-03-2.27192E-04-5.02554E-14
 -1      3483 7.34677E-03-2.51189E-04-5.52747E-14
 -1      3484 7.48481E-03-2.47591E-04-5.73659E-14
 -1      3485 7.27013E-03-2.20897E-04-5.42914E-14
 -1      3486 7.62206E-03-2.44195E-04-5.94915E-14
 -1      3487 7.75850E-03-2.41005E-04-6.16513E-14
 -1      3488 7.54362E-03-2.14870E-04-5.84701E-14
 -1      3489 7.89395E-03-2.38254E-04-6.38464E-14
 -1      3490 8.02844E-03-2.35950E-04-6.60755E-14
 -1      3491 7.81318E-03-2.09748E-04-6.27906E-14
 -1      3492 8.16171E-03-2.34396E-04-6.83365E-14
 -1      3493 8.29387E-03-2.33595E-04-7.06302E-14
 -1      3494 8.07785E-03-2.06388E-04-6.72467E-14
 -1      3495 8.42463E-03-2.33913E-04-7.29547E-14
 -1      3496 8.55421E-03-2.35357E-04-7.53108E-14
 -1      3497 8.33655E-03-2.05828E-04-7.18322E-14
 -1      3498 8.68227E-03-2.38324E-04-7.76988E-14
 -1      3499 8.80937E-03-2.42883E-04-8.01180E-14
 -1      3500 8.58816E-03-2.09195E-04-7.65431E-14
 -1      3501 8.93504E-03-2.49437E-04-8.25678E-14
 -1      3502 9.06034E-03-2.57949E-04-8.50476E-14
 -1      3503 8.83177E-03-2.17574E-04-8.13786E-14
 -1      3504 9.22788E-03-2.75531E-04-8.83425E-14
 -1      3505 1.25306E-02 3.22223E-04-1.38175E-13
 -1      3506 1.23473E-02 3.95664E-04-1.34774E-13
 -1      3507 9.12058E-03-1.77478E-04-9.18178E-14
 -1      3508 9.10415E-03-1.62678E-04-9.14965E-14
 -1      3509 4.25223E-03 3.46132E-04-1.87402E-14
 -1      3510 4.10900E-03 3.47026E-04-1.75251E-14
 -1      3511 3.96571E-03 3.47783E-04-1.63512E-14
 -1      3512 3.82237E-03 3.48393E-04-1.52181E-14
 -1      3513 4.03583E-03 3.09875E-04-1.70104E-14
 -1      3514 4.82462E-03 3.41402E-04-2.40058E-14
 -1      3515 4.68160E-03 3.42752E-04-2.26287E-14
 -1      3516 5.11051E-03 3.38358E-04-2.68795E-14
 -1      3517 4.96759E-03 3.39941E-04-2.54227E-14
 -1      3518 4.89531E-03 3.03632E-04-2.47887E-14
 -1      3519 5.39618E-03 3.34807E-04-2.99125E-14
 -1      3520 5.25337E-03 3.36651E-04-2.83765E-14
 -1      3521 5.18115E-03 3.00690E-04-2.77030E-14
 -1      3522 5.68161E-03 3.30674E-04-3.31031E-14
 -1      3523 5.53893E-03 3.32819E-04-3.14882E-14
 -1      3524 5.46663E-03 2.97253E-04-3.07747E-14
 -1      3525 5.96678E-03 3.25878E-04-3.64480E-14
 -1      3526 5.82423E-03 3.28365E-04-3.47557E-14
 -1      3527 5.75171E-03 2.93244E-04-3.40025E-14
 -1      3528 6.25164E-03 3.20354E-04-3.99465E-14
 -1      3529 6.10924E-03 3.23212E-04-3.81782E-14
 -1      3530 6.03633E-03 2.88584E-04-3.73857E-14
 -1      3531 6.53619E-03 3.14072E-04-4.35948E-14
 -1      3532 6.39395E-03 3.17310E-04-4.17522E-14
 -1      3533 6.32043E-03 2.83203E-04-4.09207E-14
 -1      3534 6.82042E-03 3.07072E-04-4.73892E-14
 -1      3535 6.67833E-03 3.10659E-04-4.54743E-14
 -1      3536 6.60393E-03 2.77068E-04-4.46039E-14
 -1      3537 7.10438E-03 2.99499E-04-5.13294E-14
 -1      3538 6.96241E-03 3.03347E-04-4.93409E-14
 -1      3539 6.88680E-03 2.70206E-04-4.84331E-14
 -1      3540 7.38823E-03 2.91654E-04-5.54145E-14
 -1      3541 7.24629E-03 2.95588E-04-5.33536E-14
 -1      3542 7.16906E-03 2.62741E-04-5.24076E-14
 -1      3543 7.67230E-03 2.84048E-04-5.96416E-14
 -1      3544 7.53019E-03 2.87781E-04-5.75106E-14
 -1      3545 7.45085E-03 2.54928E-04-5.65275E-14
 -1      3546 7.95718E-03 2.77478E-04-6.40057E-14
 -1      3547 7.81457E-03 2.80568E-04-6.18070E-14
 -1      3548 7.73249E-03 2.47213E-04-6.07884E-14
 -1      3549 8.24386E-03 2.73125E-04-6.85041E-14
 -1      3550 8.10020E-03 2.74922E-04-6.62371E-14
 -1      3551 8.01463E-03 2.40296E-04-6.51846E-14
 -1      3552 8.53392E-03 2.72681E-04-7.31358E-14
 -1      3553 8.38834E-03 2.72256E-04-7.08046E-14
 -1      3554 8.29839E-03 2.35236E-04-6.97154E-14
 -1      3555 8.82966E-03 2.78545E-04-7.79006E-14
 -1      3556 8.68091E-03 2.74584E-04-7.55021E-14
 -1      3557 8.58558E-03 2.33611E-04-7.43804E-14
 -1      3558 9.13418E-03 2.94096E-04-8.27912E-14
 -1      3559 8.98064E-03 2.84756E-04-8.03295E-14
 -1      3560 8.87895E-03 2.37795E-04-7.91758E-14
 -1      3561 9.45108E-03 3.23976E-04-8.78080E-14
 -1      3562 9.29095E-03 3.06760E-04-8.52843E-14
 -1      3563 9.18230E-03 2.51418E-04-8.40957E-14
 -1      3564 9.78364E-03 3.74012E-04-9.29495E-14
 -1      3565 9.61548E-03 3.45900E-04-9.03633E-14
 -1      3566 9.50030E-03 2.79991E-04-8.91419E-14
 -1      3567 1.01249E-02 4.06307E-04-9.84798E-14
 -1      3568 9.94714E-03 3.64449E-04-9.58290E-14
 -1      3569 1.08759E-02 6.69761E-04-1.09634E-13
 -1      3570 1.07010E-02 6.17878E-04-1.06844E-13
 -1      3571 1.10649E-02 7.25278E-04-1.12794E-13
 -1      3572 1.15398E-02 7.40654E-04-1.21301E-13
 -1      3573 1.43420E-02-5.78778E-04-1.59379E-13
 -1      3574 1.43701E-02-5.51411E-04-1.59369E-13
 -1      3575 1.43491E-02-4.84557E-04-1.59316E-13
 -1      3576 1.43044E-02-4.59204E-04-1.59289E-13
 -1      3577 1.01533E-03-3.89441E-05-1.44924E-15
 -1      3578 1.01642E-03-6.57940E-05-1.44526E-15
 -1      3579 1.13793E-03-8.60061E-05-1.75043E-15
 -1      3580 1.37394E-02-3.01351E-04-1.50612E-13
 -1      3581 1.39106E-02-3.63859E-04-1.52029E-13
 -1      3582 1.43823E-02-5.28507E-04-1.59356E-13
 -1      3583 1.43753E-02-5.06378E-04-1.59339E-13
 -1      3584 1.42764E-02-4.83325E-04-1.56503E-13
 -1      3585 1.42880E-02-5.25655E-04-1.56533E-13
 -1      3586 1.36818E-02-6.62825E-04-1.47119E-13
 -1      3587 9.22245E-03-2.14120E-04-9.23884E-14
 -1      3588 9.15708E-03-1.94229E-04-9.19886E-14
 -1      3589 9.07914E-03-1.79350E-04-8.99607E-14
 -1      3590 9.18561E-03-2.23144E-04-9.02866E-14
 -1      3591 1.35760E-02-4.53566E-05-1.57944E-13
 -1      3592 1.34142E-02 5.41897E-06-1.54729E-13
 -1      3593 3.10468E-03 3.48050E-04-1.01620E-14
 -1      3594 2.96094E-03 3.46976E-04-9.27275E-15
 -1      3595 1.32478E-02 5.98136E-05-1.51521E-13
 -1      3596 1.30777E-02 1.19505E-04-1.48327E-13
 -1      3597 1.34008E-02-2.30481E-05-1.53179E-13
 -1      3598 1.32611E-03 2.85708E-04-2.02216E-15
 -1      3599 1.28393E-03 2.57016E-04-1.94967E-15
 -1      3600 1.45113E-03 2.96037E-04-2.39320E-15
 -1      3601 4.53853E-03 3.43990E-04-2.12918E-14
 -1      3602 4.39541E-03 3.45119E-04-1.99951E-14
 -1      3603 4.32264E-03 3.08227E-04-1.94408E-14
 -1      3604 4.60913E-03 3.06137E-04-2.20337E-14
 -1      3605 1.35133E-03-2.33281E-04-2.22897E-15
 -1      3606 1.49444E-03-2.46344E-04-2.67085E-15
 -1      3607 1.56084E-03-2.19309E-04-2.93652E-15
 -1      3608 1.28434E-03-1.92345E-04-2.07932E-15
 -1      3609 1.40145E-02-2.05318E-04-1.65269E-13
 -1      3610 1.39559E-02-1.67069E-04-1.65352E-13
 -1      3611 1.38467E-02-1.31136E-04-1.63266E-13
 -1      3612 1.39226E-02-1.95125E-04-1.62492E-13
 -1      3613 1.28351E-02 8.06688E-05-1.39650E-13
 -1      3614 1.30390E-02-2.92970E-05-1.41729E-13
 -1      3615 9.12848E-03-1.39804E-04-9.14617E-14
 -1      3616 9.19162E-03-1.13502E-04-9.17339E-14
 -1      3617 1.04878E-02 5.26203E-04-1.03713E-13
 -1      3618 1.38339E-02-6.15312E-04-1.48961E-13
 -1      3619 1.38500E-02-6.40616E-04-1.50207E-13
 -1      3620 1.39912E-02-6.42882E-04-1.53462E-13
 -1      3621 1.39879E-02-5.68490E-04-1.50651E-13
 -1      3622 1.03060E-02 4.71472E-04-1.01000E-13
 -1      3623 1.27732E-03 2.22448E-04-1.98648E-15
 -1      3624 1.31849E-02-7.64843E-05-1.44350E-13
 -1      3625 9.76162E-03 1.52985E-04-9.54508E-14
 -1      3626 9.82134E-03 2.25034E-04-9.53735E-14
 -1      3627 9.60766E-03 1.17505E-04-9.33906E-14
 -1      3628 1.17069E-02 6.96021E-04-1.24282E-13
 -1      3629 1.27068E-02 2.56480E-04-1.41475E-13
 -1      3630 1.26671E-02 2.19946E-04-1.39256E-13
 -1      3631 9.10632E-03-2.36540E-04-8.71165E-14
 -1      3632 1.95319E-03 3.19065E-04-4.20126E-15
 -1      3633 1.80920E-03 3.10483E-04-3.64109E-15
 -1      3634 9.05801E-03-1.41554E-04-8.97599E-14
 -1      3635 1.40852E-02-6.50378E-04-1.55797E-13
 -1      3636 1.42024E-02-6.58869E-04-1.58656E-13
 -1      3637 1.42535E-02-6.34855E-04-1.59067E-13
 -1      3638 1.40749E-02-6.14084E-04-1.54385E-13
 -1      3639 2.81713E-03 3.45387E-04-8.42523E-15
 -1      3640 2.67325E-03 3.43222E-04-7.61880E-15
 -1      3641 2.88512E-03 3.08730E-04-8.91004E-15
 -1      3642 3.74868E-03 3.10988E-04-1.47412E-14
 -1      3643 3.67896E-03 3.48821E-04-1.41253E-14
 -1      3644 3.53550E-03 3.49050E-04-1.30730E-14
 -1      3645 1.40723E-02-5.40395E-04-1.51467E-13
 -1      3646 1.40744E-02-5.73311E-04-1.52875E-13
 -1      3647 1.41564E-02-5.85163E-04-1.55205E-13
 -1      3648 1.41429E-02-5.16962E-04-1.52175E-13
 -1      3649 1.40903E-02-4.06973E-04-1.55186E-13
 -1      3650 1.40929E-02-4.29121E-04-1.53317E-13
 -1      3651 1.28856E-02 1.83970E-04-1.44631E-13
 -1      3652 1.37360E-02-9.40181E-05-1.61187E-13
 -1      3653 1.41553E-02-4.03483E-04-1.57982E-13
 -1      3654 1.27250E-02 1.59288E-04-1.39004E-13
 -1      3655 1.36607E-02-2.64600E-04-1.50254E-13
 -1      3656 1.38282E-02-3.01965E-04-1.53527E-13
 -1      3657 1.35804E-02-2.24014E-04-1.49897E-13
 -1      3658 1.27646E-03-1.26776E-04-2.11757E-15
 -1      3659 1.27989E-03-1.59236E-04-2.10080E-15
 -1      3660 1.41748E-03-1.71541E-04-2.51341E-15
 -1      3661 1.22264E-02 4.50757E-04-1.32672E-13
 -1      3662 1.40741E-02-3.63285E-04-1.57944E-13
 -1      3663 2.46284E-03 3.75612E-04-6.41842E-15
 -1      3664 1.25753E-03 4.78634E-05-2.09105E-15
 -1      3665 1.25679E-03 1.67860E-05-2.09754E-15
 -1      3666 3.39196E-03 3.49026E-04-1.20625E-14
 -1      3667 3.24836E-03 3.48719E-04-1.10922E-14
 -1      3668 3.17333E-03 3.10775E-04-1.06916E-14
 -1      3669 3.46118E-03 3.11384E-04-1.26351E-14
 -1      3670 1.39248E-02-2.58395E-04-1.59158E-13
 -1      3671 1.38588E-02-2.15466E-04-1.59252E-13
 -1      3672 1.41892E-02-4.61088E-04-1.54263E-13
 -1      3673 1.39215E-02-2.86069E-04-1.57535E-13
 -1      3674 1.37519E-02-2.35347E-04-1.54788E-13
 -1      3675 1.30415E-02 8.89702E-05-1.46261E-13
 -1      3676 1.13545E-03-2.77063E-05-1.75971E-15
 -1      3677 9.25871E-03-6.89348E-05-9.15022E-14
 -1      3678 9.35936E-03 4.65245E-06-9.13484E-14
 -1      3679 1.43006E-02-6.13281E-04-1.59474E-13
 -1      3680 9.14015E-03-7.68716E-05-8.94930E-14
 -1      3681 1.42223E-02-4.82428E-04-1.54281E-13
 -1      3682 1.42100E-02-4.96510E-04-1.53588E-13
 -1      3683 1.26120E-03 1.10651E-04-2.06611E-15
 -1      3684 1.25899E-03 7.90897E-05-2.08057E-15
 -1      3685 1.38071E-03 6.71846E-05-2.45520E-15
 -1      3686 2.24128E-03 3.31962E-04-5.44484E-15
 -1      3687 2.09722E-03 3.26178E-04-4.80247E-15
 -1      3688 2.01915E-03 2.86951E-04-4.54849E-15
 -1      3689 1.37264E-02-1.18663E-04-1.59633E-13
 -1      3690 2.52931E-03 3.40336E-04-6.85296E-15
 -1      3691 2.38531E-03 3.36645E-04-6.12836E-15
 -1      3692 2.30788E-03 2.97732E-04-5.83863E-15
 -1      3693 9.04486E-03-2.09092E-04-8.69661E-14
 -1      3694 1.37660E-02-1.53765E-04-1.59244E-13
 -1      3695 2.05632E-03-2.12622E-04-4.89265E-15
 -1      3696 2.20112E-03-2.16976E-04-5.54209E-15
 -1      3697 2.34601E-03-2.20511E-04-6.23236E-15
 -1      3698 2.49094E-03-2.23311E-04-6.96310E-15
 -1      3699 2.27004E-03-1.82478E-04-5.90902E-15
 -1      3700 2.63588E-03-2.25506E-04-7.73456E-15
 -1      3701 2.78077E-03-2.27154E-04-8.54612E-15
 -1      3702 2.56028E-03-1.87310E-04-7.37236E-15
 -1      3703 2.92559E-03-2.28365E-04-9.39838E-15
 -1      3704 3.07031E-03-2.29180E-04-1.02904E-14
 -1      3705 2.85048E-03-1.90169E-04-8.99731E-15
 -1      3706 3.21494E-03-2.29685E-04-1.12220E-14
 -1      3707 3.35944E-03-2.29910E-04-1.21940E-14
 -1      3708 3.14038E-03-1.91593E-04-1.07825E-14
 -1      3709 3.50383E-03-2.29918E-04-1.32057E-14
 -1      3710 3.64809E-03-2.29727E-04-1.42568E-14
 -1      3711 3.42981E-03-1.91996E-04-1.27272E-14
 -1      3712 3.79222E-03-2.29384E-04-1.53482E-14
 -1      3713 3.93622E-03-2.28898E-04-1.64791E-14
 -1      3714 3.71869E-03-1.91679E-04-1.48308E-14
 -1      3715 4.08009E-03-2.28302E-04-1.76503E-14
 -1      3716 4.22384E-03-2.27596E-04-1.88614E-14
 -1      3717 4.00701E-03-1.90850E-04-1.70939E-14
 -1      3718 4.36745E-03-2.26803E-04-2.01127E-14
 -1      3719 4.51094E-03-2.25918E-04-2.14043E-14
 -1      3720 4.29474E-03-1.89641E-04-1.95171E-14
 -1      3721 4.65429E-03-2.24955E-04-2.27346E-14
 -1      3722 4.79752E-03-2.23905E-04-2.41053E-14
 -1      3723 4.58187E-03-1.88122E-04-2.20992E-14
 -1      3724 4.94060E-03-2.22775E-04-2.55168E-14
 -1      3725 5.08353E-03-2.21554E-04-2.69666E-14
 -1      3726 4.86840E-03-1.86320E-04-2.48412E-14
 -1      3727 5.22631E-03-2.20245E-04-2.84560E-14
 -1      3728 5.36892E-03-2.18834E-04-2.99839E-14
 -1      3729 5.15425E-03-1.84227E-04-2.77420E-14
 -1      3730 5.51135E-03-2.17324E-04-3.15511E-14
 -1      3731 5.65358E-03-2.15699E-04-3.31575E-14
 -1      3732 5.43936E-03-1.81818E-04-3.07992E-14
 -1      3733 5.79558E-03-2.13964E-04-3.48012E-14
 -1      3734 5.93735E-03-2.12103E-04-3.64825E-14
 -1      3735 5.72357E-03-1.79056E-04-3.40099E-14
 -1      3736 6.07882E-03-2.10126E-04-3.82023E-14
 -1      3737 6.21999E-03-2.08015E-04-3.99606E-14
 -1      3738 6.00670E-03-1.75916E-04-3.73736E-14
 -1      3739 6.36079E-03-2.05795E-04-4.17564E-14
 -1      3740 6.50121E-03-2.03446E-04-4.35893E-14
 -1      3741 6.28848E-03-1.72390E-04-4.08892E-14
 -1      3742 6.64116E-03-2.01011E-04-4.54595E-14
 -1      3743 6.78061E-03-1.98471E-04-4.73663E-14
 -1      3744 6.56854E-03-1.68521E-04-4.45549E-14
 -1      3745 6.91945E-03-1.95893E-04-4.93111E-14
 -1      3746 7.05766E-03-1.93260E-04-5.12922E-14
 -1      3747 6.84642E-03-1.64419E-04-4.83691E-14
 -1      3748 7.19511E-03-1.90674E-04-5.33084E-14
 -1      3749 7.33173E-03-1.88117E-04-5.53616E-14
 -1      3750 7.12153E-03-1.60294E-04-5.23290E-14
 -1      3751 7.46739E-03-1.85735E-04-5.74513E-14
 -1      3752 7.60201E-03-1.83507E-04-5.95756E-14
 -1      3753 7.39314E-03-1.56488E-04-5.64333E-14
 -1      3754 7.73541E-03-1.81634E-04-6.17358E-14
 -1      3755 7.86751E-03-1.80078E-04-6.39298E-14
 -1      3756 7.66032E-03-1.53496E-04-6.06820E-14
 -1      3757 7.99807E-03-1.79110E-04-6.61572E-14
 -1      3758 8.12702E-03-1.78654E-04-6.84177E-14
 -1      3759 7.92192E-03-1.51977E-04-6.50692E-14
 -1      3760 8.25405E-03-1.79056E-04-7.07098E-14
 -1      3761 8.37910E-03-1.80162E-04-7.30340E-14
 -1      3762 8.17651E-03-1.52727E-04-6.95885E-14
 -1      3763 8.50172E-03-1.82405E-04-7.53901E-14
 -1      3764 8.62194E-03-1.85489E-04-7.77755E-14
 -1      3765 8.42221E-03-1.56580E-04-7.42372E-14
 -1      3766 8.73908E-03-1.89965E-04-8.01935E-14
 -1      3767 8.85328E-03-1.95245E-04-8.26422E-14
 -1      3768 8.65651E-03-1.64207E-04-7.90097E-14
 -1      3769 5.53694E-03 2.59905E-04-3.16386E-14
 -1      3770 5.39440E-03 2.61602E-04-3.00633E-14
 -1      3771 4.10619E-03 2.71918E-04-1.76723E-14
 -1      3772 3.96252E-03 2.72552E-04-1.64968E-14
 -1      3773 1.31163E-02-1.43822E-05-1.44844E-13
 -1      3774 1.33208E-02-1.11346E-04-1.47139E-13
 -1      3775 1.26817E-03 1.75349E-04-2.02330E-15
 -1      3776 1.26424E-03 1.42694E-04-2.04710E-15
 -1      3777 1.38547E-03 1.33948E-04-2.42245E-15
 -1      3778 8.98805E-03-1.43479E-04-8.79046E-14
 -1      3779 9.00293E-03-1.19522E-04-8.78696E-14
 -1      3780 1.55583E-03-1.82758E-04-2.96334E-15
 -1      3781 1.69482E-03-1.92983E-04-3.45125E-15
 -1      3782 1.55187E-03-1.46710E-04-2.98475E-15
 -1      3783 5.25172E-03 2.63169E-04-2.85277E-14
 -1      3784 5.10892E-03 2.64619E-04-2.70310E-14
 -1      3785 5.32223E-03 2.25832E-04-2.93540E-14
 -1      3786 4.96600E-03 2.65957E-04-2.55742E-14
 -1      3787 4.82296E-03 2.67194E-04-2.41566E-14
 -1      3788 5.03669E-03 2.28414E-04-2.63612E-14
 -1      3789 5.82159E-03 2.56087E-04-3.49039E-14
 -1      3790 5.67934E-03 2.58072E-04-3.32520E-14
 -1      3791 5.60711E-03 2.22801E-04-3.25031E-14
 -1      3792 6.10558E-03 2.51634E-04-3.83242E-14
 -1      3793 5.96367E-03 2.53948E-04-3.65951E-14
 -1      3794 5.89126E-03 2.19240E-04-3.58070E-14
 -1      3795 6.38879E-03 2.46474E-04-4.18952E-14
 -1      3796 6.24728E-03 2.49149E-04-4.00912E-14
 -1      3797 6.17453E-03 2.15067E-04-3.92646E-14
 -1      3798 6.67114E-03 2.40564E-04-4.56131E-14
 -1      3799 6.53007E-03 2.43618E-04-4.37350E-14
 -1      3800 6.45678E-03 2.10206E-04-4.28702E-14
 -1      3801 6.95252E-03 2.33913E-04-4.94771E-14
 -1      3802 6.81195E-03 2.37333E-04-4.75275E-14
 -1      3803 6.73786E-03 2.04599E-04-4.66240E-14
 -1      3804 7.23293E-03 2.26608E-04-5.34872E-14
 -1      3805 7.09284E-03 2.30339E-04-5.14648E-14
 -1      3806 7.01764E-03 1.98228E-04-5.05239E-14
 -1      3807 7.51246E-03 2.18846E-04-5.76415E-14
 -1      3808 7.37278E-03 2.22771E-04-5.55459E-14
 -1      3809 7.29604E-03 1.91130E-04-5.45681E-14
 -1      3810 7.79143E-03 2.10980E-04-6.19357E-14
 -1      3811 7.65197E-03 2.14899E-04-5.97709E-14
 -1      3812 7.57312E-03 1.83425E-04-5.87563E-14
 -1      3813 8.07050E-03 2.03586E-04-6.63651E-14
 -1      3814 7.93087E-03 2.07173E-04-6.41343E-14
 -1      3815 7.84916E-03 1.75351E-04-6.30845E-14
 -1      3816 8.35087E-03 1.97568E-04-7.09291E-14
 -1      3817 8.21039E-03 2.00315E-04-6.86300E-14
 -1      3818 8.12479E-03 1.67322E-04-6.75471E-14
 -1      3819 8.63455E-03 1.94343E-04-7.56254E-14
 -1      3820 8.49210E-03 1.95444E-04-7.32606E-14
 -1      3821 8.40125E-03 1.60041E-04-7.21433E-14
 -1      3822 8.92467E-03 1.96224E-04-8.04500E-14
 -1      3823 8.77852E-03 1.94353E-04-7.80215E-14
 -1      3824 8.68066E-03 1.54721E-04-7.68710E-14
 -1      3825 9.22577E-03 2.07114E-04-8.54012E-14
 -1      3826 9.07351E-03 2.00066E-04-8.29101E-14
 -1      3827 8.96653E-03 1.53568E-04-8.17257E-14
 -1      3828 9.82195E-03 2.85852E-04-9.45672E-14
 -1      3829 1.39787E-03 2.16834E-04-2.36214E-15
 -1      3830 1.35573E-02-1.02594E-04-1.54838E-13
 -1      3831 1.33916E-02-5.50617E-05-1.51624E-13
 -1      3832 1.42191E-02-5.84286E-04-1.56634E-13
 -1      3833 1.35104E-02-1.69182E-04-1.50393E-13
 -1      3834 1.27207E-03-6.33355E-05-2.13760E-15
 -1      3835 1.27385E-03-9.48541E-05-2.12979E-15
 -1      3836 1.41089E-03-1.03238E-04-2.54645E-15
 -1      3837 1.69271E-03 3.08153E-04-3.20490E-15
 -1      3838 1.56725E-03 3.01617E-04-2.77099E-15
 -1      3839 1.52496E-03 2.72563E-04-2.68427E-15
 -1      3840 1.75805E-03 2.78715E-04-3.50979E-15
 -1      3841 1.40105E-02-3.35287E-04-1.57578E-13
 -1      3842 9.24129E-03 2.27236E-05-8.88113E-14
 -1      3843 9.40938E-03 6.45522E-05-9.08959E-14
 -1      3844 1.29022E-02 9.51319E-05-1.42324E-13
 -1      3845 9.03216E-03-8.74484E-05-8.76478E-14
 -1      3846 9.07631E-03-4.68497E-05-8.74164E-14
 -1      3847 8.93621E-03-9.42589E-05-8.58164E-14
 -1      3848 1.80316E-03-2.00423E-04-3.85648E-15
 -1      3849 1.94758E-03-2.06449E-04-4.43439E-15
 -1      3850 2.01620E-03-1.73813E-04-4.76310E-15
 -1      3851 1.79895E-03-1.62032E-04-3.88136E-15
 -1      3852 1.26368E-03-7.52106E-06-2.12021E-15
 -1      3853 1.26418E-03-3.86065E-05-2.11985E-15
 -1      3854 1.40084E-03-4.33984E-05-2.53665E-15
 -1      3855 1.38618E-03 8.51681E-06-2.49113E-15
 -1      3856 9.67139E-03 2.44460E-04-9.25156E-14
 -1      3857 1.30488E-02 4.85823E-05-1.45093E-13
 -1      3858 9.46828E-03 1.24589E-04-9.08231E-14
 -1      3859 4.24976E-03 2.71174E-04-1.88882E-14
 -1      3860 4.17679E-03 2.33956E-04-1.83367E-14
 -1      3861 4.39322E-03 2.70321E-04-2.01441E-14
 -1      3862 2.59660E-03 3.04649E-04-7.29276E-15
 -1      3863 1.50585E-03 2.44232E-05-2.87873E-15
 -1      3864 1.51271E-03-2.65034E-06-2.90604E-15
 -1      3865 3.88912E-03 2.35063E-04-1.59842E-14
 -1      3866 3.81874E-03 2.73052E-04-1.53614E-14
 -1      3867 3.67485E-03 2.73408E-04-1.42659E-14
 -1      3868 8.98486E-03-1.60155E-04-8.76233E-14
 -1      3869 8.91036E-03-1.41258E-04-8.57581E-14
 -1      3870 1.34077E-02-9.67957E-05-1.50448E-13
 -1      3871 1.32406E-02-9.10491E-06-1.48804E-13
 -1      3872 9.54375E-03 2.33573E-04-9.04745E-14
 -1      3873 9.38227E-03 2.17560E-04-8.79225E-14
 -1      3874 1.51408E-03 2.20749E-04-2.73558E-15
 -1      3875 8.84211E-03-1.63229E-04-8.34509E-14
 -1      3876 8.92279E-03-1.88109E-04-8.46663E-14
 -1      3877 1.42068E-02-5.48999E-04-1.55115E-13
 -1      3878 1.36520E-02-2.02996E-04-1.53224E-13
 -1      3879 1.36555E-02-1.71625E-04-1.54840E-13
 -1      3880 9.01506E-03-1.77867E-04-8.77901E-14
 -1      3881 2.08612E-03 2.54141E-04-4.90260E-15
 -1      3882 1.94162E-03 2.48206E-04-4.29573E-15
 -1      3883 3.24253E-03 2.73268E-04-1.12247E-14
 -1      3884 3.09822E-03 2.72696E-04-1.02915E-14
 -1      3885 2.95380E-03 2.71757E-04-9.39950E-15
 -1      3886 2.80929E-03 2.70409E-04-8.54811E-15
 -1      3887 3.02311E-03 2.34527E-04-9.89359E-15
 -1      3888 9.10994E-03-2.18446E-06-8.69795E-14
 -1      3889 9.14345E-03 4.79860E-05-8.65347E-14
 -1      3890 8.98877E-03-2.01775E-05-8.51612E-14
 -1      3891 1.36573E-02-1.38891E-04-1.56405E-13
 -1      3892 1.41921E-02-5.18681E-04-1.53595E-13
 -1      3893 4.67982E-03 2.68331E-04-2.27785E-14
 -1      3894 4.53657E-03 2.69375E-04-2.14410E-14
 -1      3895 4.46394E-03 2.32456E-04-2.08505E-14
 -1      3896 1.50682E-03 5.89899E-05-2.86942E-15
 -1      3897 1.63366E-03 4.94225E-05-3.31599E-15
 -1      3898 1.50860E-03 9.37481E-05-2.85563E-15
 -1      3899 9.26413E-03 1.60870E-04-8.67063E-14
 -1      3900 4.75059E-03 2.30609E-04-2.35258E-14
 -1      3901 1.86475E-03 2.10105E-04-4.04444E-15
 -1      3902 1.79732E-03 2.41038E-04-3.72930E-15
 -1      3903 1.68036E-03 2.40003E-04-3.28971E-15
 -1      3904 1.54882E-03-1.11102E-04-3.00046E-15
 -1      3905 1.68751E-03-1.18454E-04-3.49194E-15
 -1      3906 1.54666E-03-7.58250E-05-3.01087E-15
 -1      3907 2.19460E-03-1.44912E-04-5.58913E-15
 -1      3908 2.33978E-03-1.47377E-04-6.28111E-15
 -1      3909 2.48505E-03-1.49350E-04-7.01339E-15
 -1      3910 2.63035E-03-1.50879E-04-7.78578E-15
 -1      3911 2.41026E-03-1.11714E-04-6.65760E-15
 -1      3912 2.77563E-03-1.52048E-04-8.59877E-15
 -1      3913 2.92085E-03-1.52888E-04-9.45201E-15
 -1      3914 2.70109E-03-1.14070E-04-8.20351E-15
 -1      3915 3.06597E-03-1.53470E-04-1.03452E-14
 -1      3916 3.21099E-03-1.53814E-04-1.12781E-14
 -1      3917 2.99179E-03-1.15367E-04-9.91003E-15
 -1      3918 3.35588E-03-1.53978E-04-1.22504E-14
 -1      3919 3.50062E-03-1.53972E-04-1.32633E-14
 -1      3920 3.28209E-03-1.15899E-04-1.17766E-14
 -1      3921 3.64522E-03-1.53841E-04-1.43152E-14
 -1      3922 3.78966E-03-1.53587E-04-1.54072E-14
 -1      3923 3.57183E-03-1.15890E-04-1.38016E-14
 -1      3924 3.93394E-03-1.53245E-04-1.65390E-14
 -1      3925 4.07807E-03-1.52813E-04-1.77109E-14
 -1      3926 3.86093E-03-1.15498E-04-1.59858E-14
 -1      3927 4.22203E-03-1.52315E-04-1.89227E-14
 -1      3928 4.36583E-03-1.51745E-04-2.01744E-14
 -1      3929 4.14936E-03-1.14828E-04-1.83300E-14
 -1      3930 4.50947E-03-1.51120E-04-2.14657E-14
 -1      3931 4.65293E-03-1.50432E-04-2.27965E-14
 -1      3932 4.43709E-03-1.13945E-04-2.08341E-14
 -1      3933 4.79623E-03-1.49692E-04-2.41690E-14
 -1      3934 4.93934E-03-1.48890E-04-2.55799E-14
 -1      3935 4.72410E-03-1.12881E-04-2.34972E-14
 -1      3936 5.08226E-03-1.48034E-04-2.70299E-14
 -1      3937 5.22499E-03-1.47112E-04-2.85194E-14
 -1      3938 5.01035E-03-1.11646E-04-2.63193E-14
 -1      3939 5.36749E-03-1.46131E-04-3.00477E-14
 -1      3940 5.50976E-03-1.45077E-04-3.16147E-14
 -1      3941 5.29574E-03-1.10235E-04-2.92985E-14
 -1      3942 5.65177E-03-1.43961E-04-3.32200E-14
 -1      3943 5.79350E-03-1.42766E-04-3.48639E-14
 -1      3944 5.58016E-03-1.08639E-04-3.24320E-14
 -1      3945 5.93491E-03-1.41509E-04-3.65456E-14
 -1      3946 6.07598E-03-1.40172E-04-3.82656E-14
 -1      3947 5.86341E-03-1.06852E-04-3.57183E-14
 -1      3948 6.21665E-03-1.38779E-04-4.00238E-14
 -1      3949 6.35688E-03-1.37314E-04-4.18193E-14
 -1      3950 6.14523E-03-1.04890E-04-3.91589E-14
 -1      3951 6.49661E-03-1.35816E-04-4.36521E-14
 -1      3952 6.63580E-03-1.34266E-04-4.55215E-14
 -1      3953 6.42528E-03-1.02800E-04-4.27506E-14
 -1      3954 6.77436E-03-1.32724E-04-4.74283E-14
 -1      3955 6.91222E-03-1.31171E-04-4.93724E-14
 -1      3956 6.70311E-03-1.00684E-04-4.64896E-14
 -1      3957 7.04929E-03-1.29697E-04-5.13514E-14
 -1      3958 7.18549E-03-1.28279E-04-5.33664E-14
 -1      3959 6.97816E-03-9.87206E-05-5.03752E-14
 -1      3960 7.32069E-03-1.27044E-04-5.54195E-14
 -1      3961 7.45480E-03-1.25963E-04-5.75076E-14
 -1      3962 7.24976E-03-9.71893E-05-5.44069E-14
 -1      3963 7.58766E-03-1.25213E-04-5.96302E-14
 -1      3964 7.71915E-03-1.24748E-04-6.17897E-14
 -1      3965 7.51702E-03-9.64966E-05-5.85815E-14
 -1      3966 7.84906E-03-1.24805E-04-6.39817E-14
 -1      3967 7.97725E-03-1.25301E-04-6.62086E-14
 -1      3968 7.77890E-03-9.71906E-05-6.28962E-14
 -1      3969 8.10346E-03-1.26557E-04-6.84692E-14
 -1      3970 8.22747E-03-1.28411E-04-7.07609E-14
 -1      3971 8.03404E-03-9.99552E-05-6.73492E-14
 -1      3972 8.34895E-03-1.31281E-04-7.30852E-14
 -1      3973 8.46759E-03-1.34866E-04-7.54406E-14
 -1      3974 8.28066E-03-1.05593E-04-7.19344E-14
 -1      3975 8.58287E-03-1.39728E-04-7.78273E-14
 -1      3976 8.69437E-03-1.45189E-04-8.02447E-14
 -1      3977 8.51621E-03-1.14858E-04-7.66449E-14
 -1      3978 5.96076E-03 1.82743E-04-3.67112E-14
 -1      3979 5.81910E-03 1.84430E-04-3.50211E-14
 -1      3980 1.52542E-03-2.52757E-05-2.94942E-15
 -1      3981 1.53318E-03-5.27143E-05-2.97195E-15
 -1      3982 1.67160E-03-5.75656E-05-3.46175E-15
 -1      3983 1.64547E-03-1.00588E-05-3.37209E-15
 -1      3984 8.83031E-03-1.40626E-04-8.36566E-14
 -1      3985 8.83708E-03-1.21825E-04-8.39306E-14
 -1      3986 5.39269E-03 1.88712E-04-3.01820E-14
 -1      3987 5.25014E-03 1.89922E-04-2.86458E-14
 -1      3988 5.10740E-03 1.91032E-04-2.71500E-14
 -1      3989 4.96450E-03 1.92058E-04-2.56932E-14
 -1      3990 5.17813E-03 1.53844E-04-2.79409E-14
 -1      3991 6.24326E-03 1.78928E-04-4.02048E-14
 -1      3992 6.10215E-03 1.80918E-04-3.84387E-14
 -1      3993 6.03014E-03 1.46628E-04-3.76158E-14
 -1      3994 6.52448E-03 1.74448E-04-4.38469E-14
 -1      3995 6.38404E-03 1.76782E-04-4.20078E-14
 -1      3996 6.31182E-03 1.43250E-04-4.11462E-14
 -1      3997 6.80423E-03 1.69226E-04-4.76361E-14
 -1      3998 6.66455E-03 1.71940E-04-4.57231E-14
 -1      3999 6.59196E-03 1.39233E-04-4.48250E-14
 -1      4000 7.08231E-03 1.63210E-04-5.15709E-14
 -1      4001 6.94348E-03 1.66327E-04-4.95856E-14
 -1      4002 6.87031E-03 1.34479E-04-4.86499E-14
 -1      4003 7.35858E-03 1.56377E-04-5.56512E-14
 -1      4004 7.22066E-03 1.59903E-04-5.35937E-14
 -1      4005 7.14661E-03 1.28891E-04-5.26205E-14
 -1      4006 7.63303E-03 1.48756E-04-5.98723E-14
 -1      4007 7.49601E-03 1.52668E-04-5.77436E-14
 -1      4008 7.42064E-03 1.22379E-04-5.67345E-14
 -1      4009 7.90586E-03 1.40450E-04-6.42349E-14
 -1      4010 7.76960E-03 1.44683E-04-6.20367E-14
 -1      4011 7.69229E-03 1.14863E-04-6.09914E-14
 -1      4012 8.17763E-03 1.31689E-04-6.87309E-14
 -1      4013 8.04179E-03 1.36102E-04-6.64666E-14
 -1      4014 7.96163E-03 1.06296E-04-6.53875E-14
 -1      4015 8.44951E-03 1.22961E-04-7.33586E-14
 -1      4016 8.31340E-03 1.27264E-04-7.10269E-14
 -1      4017 8.22908E-03 9.66974E-05-6.99151E-14
 -1      4018 8.72356E-03 1.15203E-04-7.81170E-14
 -1      4019 8.58600E-03 1.18827E-04-7.57222E-14
 -1      4020 8.49560E-03 8.62743E-05-7.45754E-14
 -1      4021 9.54202E-03 1.75388E-04-9.12686E-14
 -1      4022 4.82143E-03 1.92998E-04-2.42758E-14
 -1      4023 4.67820E-03 1.93865E-04-2.28976E-14
 -1      4024 4.89234E-03 1.55533E-04-2.50271E-14
 -1      4025 1.55442E-03 1.86114E-04-2.92127E-15
 -1      4026 3.38675E-03 2.73554E-04-1.21983E-14
 -1      4027 3.31226E-03 2.35587E-04-1.17620E-14
 -1      4028 3.53085E-03 2.73581E-04-1.32115E-14
 -1      4029 2.23073E-03 2.59027E-04-5.55006E-15
 -1      4030 2.15399E-03 2.20659E-04-5.26330E-15
 -1      4031 2.37540E-03 2.62961E-04-6.23838E-15
 -1      4032 5.67719E-03 1.85976E-04-3.33695E-14
 -1      4033 5.53504E-03 1.87404E-04-3.17572E-14
 -1      4034 5.74717E-03 1.49462E-04-3.42372E-14
 -1      4035 1.93308E-03 1.78285E-04-4.36637E-15
 -1      4036 1.78867E-03 1.72874E-04-3.79503E-15
 -1      4037 9.35019E-03 1.22758E-04-8.88018E-14
 -1      4038 8.83987E-03-9.37170E-05-8.37203E-14
 -1      4039 8.85762E-03-6.12938E-05-8.34985E-14
 -1      4040 8.74556E-03-9.39185E-05-8.16449E-14
 -1      4041 2.66471E-03 2.68546E-04-7.73746E-15
 -1      4042 2.52007E-03 2.66108E-04-6.96748E-15
 -1      4043 2.44375E-03 2.27696E-04-6.64383E-15
 -1      4044 2.73355E-03 2.32081E-04-8.18723E-15
 -1      4045 9.19996E-03 1.18062E-04-8.62725E-14
 -1      4046 9.06580E-03 8.70345E-05-8.44695E-14
 -1      4047 3.95981E-03 1.97041E-04-1.66101E-14
 -1      4048 3.81570E-03 1.97416E-04-1.54728E-14
 -1      4049 2.08566E-03-1.40376E-04-5.09793E-15
 -1      4050 2.15591E-03-1.06166E-04-5.43815E-15
 -1      4051 1.97684E-03-1.35576E-04-4.62943E-15
 -1      4052 8.69038E-03-1.21159E-04-8.04435E-14
 -1      4053 8.75359E-03-1.45199E-04-8.16510E-14
 -1      4054 3.60094E-03 2.35670E-04-1.37925E-14
 -1      4055 1.76255E-03 6.22406E-06-3.80775E-15
 -1      4056 1.77524E-03-1.81163E-05-3.85824E-15
 -1      4057 1.51084E-03 1.58231E-04-2.80613E-15
 -1      4058 1.50746E-03 1.22874E-04-2.82958E-15
 -1      4059 5.46312E-03 1.51842E-04-3.10121E-14
 -1      4060 1.67659E-03 1.74416E-04-3.37068E-15
 -1      4061 8.75971E-03-2.96439E-05-8.10116E-14
 -1      4062 8.87172E-03-2.57601E-05-8.30753E-14
 -1      4063 8.89022E-03 1.43726E-05-8.26456E-14
 -1      4064 9.00332E-03 1.10508E-04-8.30038E-14
 -1      4065 8.86231E-03 1.12166E-04-8.05452E-14
 -1      4066 1.79570E-03-1.23980E-04-3.90031E-15
 -1      4067 2.22274E-03 1.86517E-04-5.62980E-15
 -1      4068 2.07781E-03 1.82803E-04-4.97794E-15
 -1      4069 2.00226E-03 1.45588E-04-4.69515E-15
 -1      4070 4.10378E-03 1.96573E-04-1.77868E-14
 -1      4071 4.03077E-03 1.59030E-04-1.72390E-14
 -1      4072 4.24760E-03 1.96010E-04-1.90044E-14
 -1      4073 8.76311E-03 7.56366E-05-7.93667E-14
 -1      4074 4.53481E-03 1.94654E-04-2.15589E-14
 -1      4075 4.39128E-03 1.95373E-04-2.02617E-14
 -1      4076 4.31862E-03 1.58122E-04-1.96746E-14
 -1      4077 1.63390E-03 1.15858E-04-3.27569E-15
 -1      4078 1.74524E-03 1.44329E-04-3.66085E-15
 -1      4079 3.38249E-03 1.97746E-04-1.23033E-14
 -1      4080 3.23782E-03 1.97519E-04-1.13272E-14
 -1      4081 3.09302E-03 1.97053E-04-1.03922E-14
 -1      4082 2.94811E-03 1.96327E-04-9.49729E-15
 -1      4083 3.16349E-03 1.59390E-04-1.08952E-14
 -1      4084 4.60582E-03 1.56952E-04-2.22708E-14
 -1      4085 8.59776E-03-1.03146E-04-7.84369E-14
 -1      4086 8.66120E-03-1.03386E-04-7.98280E-14
 -1      4087 8.65923E-03-7.37011E-05-7.96193E-14
 -1      4088 8.48402E-03-9.65740E-05-7.60422E-14
 -1      4089 3.67144E-03 1.97667E-04-1.43759E-14
 -1      4090 3.52704E-03 1.97791E-04-1.33197E-14
 -1      4091 3.45318E-03 1.59798E-04-1.28487E-14
 -1      4092 3.74229E-03 1.59623E-04-1.49634E-14
 -1      4093 1.72538E-03 4.17971E-05-3.65738E-15
 -1      4094 1.85523E-03 3.53112E-05-4.16434E-15
 -1      4095 1.74606E-03 1.13026E-04-3.69287E-15
 -1      4096 2.62698E-03-7.63205E-05-7.81103E-15
 -1      4097 2.77248E-03-7.69122E-05-8.62408E-15
 -1      4098 2.91793E-03-7.73483E-05-9.47773E-15
 -1      4099 3.06329E-03-7.76319E-05-1.03712E-14
 -1      4100 2.84443E-03-3.94661E-05-9.04868E-15
 -1      4101 3.20854E-03-7.78065E-05-1.13042E-14
 -1      4102 3.35365E-03-7.78715E-05-1.22773E-14
 -1      4103 3.13527E-03-3.97342E-05-1.08350E-14
 -1      4104 3.49861E-03-7.78613E-05-1.32900E-14
 -1      4105 3.64341E-03-7.77717E-05-1.43424E-14
 -1      4106 3.42561E-03-3.97783E-05-1.27810E-14
 -1      4107 3.78804E-03-7.76301E-05-1.54351E-14
 -1      4108 3.93250E-03-7.74305E-05-1.65674E-14
 -1      4109 3.71531E-03-3.96587E-05-1.48862E-14
 -1      4110 4.07678E-03-7.71941E-05-1.77399E-14
 -1      4111 4.22087E-03-7.69135E-05-1.89521E-14
 -1      4112 4.00431E-03-3.94229E-05-1.71513E-14
 -1      4113 4.36478E-03-7.66048E-05-2.02039E-14
 -1      4114 4.50851E-03-7.62595E-05-2.14953E-14
 -1      4115 4.29257E-03-3.91024E-05-1.95756E-14
 -1      4116 4.65204E-03-7.58904E-05-2.28272E-14
 -1      4117 4.79538E-03-7.54882E-05-2.41994E-14
 -1      4118 4.58006E-03-3.87165E-05-2.21594E-14
 -1      4119 4.93851E-03-7.50634E-05-2.56096E-14
 -1      4120 5.08142E-03-7.46062E-05-2.70601E-14
 -1      4121 4.86675E-03-3.82764E-05-2.49018E-14
 -1      4122 5.22411E-03-7.41268E-05-2.85498E-14
 -1      4123 5.36654E-03-7.36143E-05-3.00778E-14
 -1      4124 5.15257E-03-3.77898E-05-2.78030E-14
 -1      4125 5.50871E-03-7.30811E-05-3.16452E-14
 -1      4126 5.65059E-03-7.25152E-05-3.32504E-14
 -1      4127 5.43741E-03-3.72657E-05-3.08601E-14
 -1      4128 5.79215E-03-7.19333E-05-3.48948E-14
 -1      4129 5.93336E-03-7.13223E-05-3.65760E-14
 -1      4130 5.72110E-03-3.67205E-05-3.40714E-14
 -1      4131 6.07417E-03-7.07065E-05-3.82958E-14
 -1      4132 6.21456E-03-7.00715E-05-4.00543E-14
 -1      4133 6.00341E-03-3.61859E-05-3.74351E-14
 -1      4134 6.35446E-03-6.94534E-05-4.18494E-14
 -1      4135 6.49382E-03-6.88362E-05-4.36826E-14
 -1      4136 6.28404E-03-3.57191E-05-4.09502E-14
 -1      4137 6.63258E-03-6.82728E-05-4.55517E-14
 -1      4138 6.77067E-03-6.77449E-05-4.74581E-14
 -1      4139 6.56261E-03-3.54161E-05-4.46156E-14
 -1      4140 6.90801E-03-6.73292E-05-4.94007E-14
 -1      4141 7.04454E-03-6.70034E-05-5.13790E-14
 -1      4142 6.83863E-03-3.54287E-05-4.84274E-14
 -1      4143 7.18013E-03-6.68761E-05-5.33949E-14
 -1      4144 7.31470E-03-6.69178E-05-5.54470E-14
 -1      4145 7.11152E-03-3.59837E-05-5.23851E-14
 -1      4146 7.44813E-03-6.72792E-05-5.75346E-14
 -1      4147 7.58030E-03-6.79163E-05-5.96559E-14
 -1      4148 7.38058E-03-3.74048E-05-5.64879E-14
 -1      4149 7.71107E-03-6.90360E-05-6.18135E-14
 -1      4150 7.84027E-03-7.05642E-05-6.40052E-14
 -1      4151 7.64497E-03-4.01334E-05-6.07317E-14
 -1      4152 7.96773E-03-7.27845E-05-6.62304E-14
 -1      4153 8.09322E-03-7.55532E-05-6.84907E-14
 -1      4154 7.90367E-03-4.47454E-05-6.51154E-14
 -1      4155 8.21655E-03-7.92494E-05-7.07840E-14
 -1      4156 8.33740E-03-8.37221E-05-7.31074E-14
 -1      4157 8.15537E-03-5.19409E-05-6.96338E-14
 -1      4158 6.38030E-03 1.08060E-04-4.20890E-14
 -1      4159 6.24008E-03 1.09564E-04-4.02859E-14
 -1      4160 1.78830E-03-4.26258E-05-3.90676E-15
 -1      4161 1.80173E-03-6.73283E-05-3.95276E-15
 -1      4162 1.90554E-03-2.65881E-05-4.37703E-15
 -1      4163 5.53354E-03 1.15243E-04-3.18426E-14
 -1      4164 5.39133E-03 1.16097E-04-3.02678E-14
 -1      4165 6.09946E-03 1.10922E-04-3.85224E-14
 -1      4166 5.95846E-03 1.12163E-04-3.67955E-14
 -1      4167 6.16877E-03 7.56506E-05-3.94293E-14
 -1      4168 6.65934E-03 1.04592E-04-4.58045E-14
 -1      4169 6.52005E-03 1.06414E-04-4.39289E-14
 -1      4170 6.44877E-03 7.33860E-05-4.30337E-14
 -1      4171 6.93627E-03 1.00392E-04-4.96650E-14
 -1      4172 6.79808E-03 1.02598E-04-4.77159E-14
 -1      4173 6.72671E-03 7.05536E-05-4.67854E-14
 -1      4174 7.21076E-03 9.53171E-05-5.36720E-14
 -1      4175 7.07383E-03 9.79813E-05-5.16500E-14
 -1      4176 7.00222E-03 6.69980E-05-5.06824E-14
 -1      4177 7.48248E-03 8.91997E-05-5.78201E-14
 -1      4178 7.34696E-03 9.24075E-05-5.57293E-14
 -1      4179 7.27488E-03 6.25225E-05-5.47246E-14
 -1      4180 7.75120E-03 8.18508E-05-6.21125E-14
 -1      4181 7.61720E-03 8.56983E-05-5.99487E-14
 -1      4182 7.54425E-03 5.68800E-05-5.89089E-14
 -1      4183 8.01681E-03 7.30641E-05-6.65422E-14
 -1      4184 7.88435E-03 7.76539E-05-6.43101E-14
 -1      4185 7.80993E-03 4.97644E-05-6.32350E-14
 -1      4186 8.27945E-03 6.26270E-05-7.11012E-14
 -1      4187 8.14841E-03 6.80671E-05-6.88053E-14
 -1      4188 8.07157E-03 4.08073E-05-6.76969E-14
 -1      4189 8.53981E-03 5.05404E-05-7.57941E-14
 -1      4190 8.40978E-03 5.68187E-05-7.34317E-14
 -1      4191 8.32892E-03 2.95631E-05-7.22900E-14
 -1      4192 8.95814E-03 4.75329E-05-8.32625E-14
 -1      4193 4.96332E-03 1.18234E-04-2.57795E-14
 -1      4194 4.82023E-03 1.18831E-04-2.43622E-14
 -1      4195 1.72677E-03 7.88660E-05-3.64446E-15
 -1      4196 5.81713E-03 1.13285E-04-3.51057E-14
 -1      4197 5.67547E-03 1.14313E-04-3.34556E-14
 -1      4198 5.88708E-03 7.74702E-05-3.59760E-14
 -1      4199 1.95777E-03 6.40526E-05-4.57216E-15
 -1      4200 1.99473E-03 2.66450E-05-4.74390E-15
 -1      4201 5.24889E-03 1.16872E-04-2.87332E-14
 -1      4202 5.10621E-03 1.17585E-04-2.72371E-14
 -1      4203 5.31968E-03 8.01422E-05-2.95274E-14
 -1      4204 2.33602E-03-7.45115E-05-6.30557E-15
 -1      4205 2.48147E-03-7.55251E-05-7.03806E-15
 -1      4206 2.55334E-03-3.88679E-05-7.42248E-15
 -1      4207 4.67695E-03 1.19372E-04-2.29844E-14
 -1      4208 4.53348E-03 1.19869E-04-2.16453E-14
 -1      4209 4.74819E-03 8.19436E-05-2.36985E-14
 -1      4210 1.83774E-03 1.06322E-04-4.05459E-15
 -1      4211 8.83214E-03 3.72089E-05-8.12000E-14
 -1      4212 1.97679E-03 9.97166E-05-4.62897E-15
 -1      4213 2.11795E-03-6.78671E-05-5.28287E-15
 -1      4214 2.22693E-03-7.12334E-05-5.78300E-15
 -1      4215 2.29868E-03-3.56267E-05-6.13217E-15
 -1      4216 4.46119E-03 8.26113E-05-2.10225E-14
 -1      4217 4.38983E-03 1.20312E-04-2.03474E-14
 -1      4218 4.24600E-03 1.20710E-04-1.90892E-14
 -1      4219 3.52429E-03 1.21764E-04-1.33980E-14
 -1      4220 3.37946E-03 1.21726E-04-1.23801E-14
 -1      4221 5.60397E-03 7.89421E-05-3.26746E-14
 -1      4222 2.14299E-03 1.17759E-05-5.40005E-15
 -1      4223 2.04092E-03-1.68031E-05-4.94963E-15
 -1      4224 2.51291E-03 1.91942E-04-7.05463E-15
 -1      4225 2.36780E-03 1.89539E-04-6.32204E-15
 -1      4226 2.29229E-03 1.51739E-04-6.00269E-15
 -1      4227 8.70191E-03 4.40070E-05-7.87657E-14
 -1      4228 8.61357E-03 1.55425E-05-7.75874E-14
 -1      4229 5.03438E-03 8.11288E-05-2.65344E-14
 -1      4230 3.30593E-03 8.36029E-05-1.19139E-14
 -1      4231 3.23448E-03 1.21556E-04-1.14023E-14
 -1      4232 3.08936E-03 1.21252E-04-1.04649E-14
 -1      4233 1.86574E-03-9.20281E-05-4.19753E-15
 -1      4234 2.80310E-03 1.95264E-04-8.64228E-15
 -1      4235 2.65803E-03 1.93835E-04-7.82813E-15
 -1      4236 2.58280E-03 1.55744E-04-7.47133E-15
 -1      4237 2.87330E-03 1.58145E-04-9.10246E-15
 -1      4238 2.12173E-03 1.02154E-04-5.25850E-15
 -1      4239 8.42647E-03-7.00744E-05-7.48598E-14
 -1      4240 8.53897E-03-5.62469E-05-7.70246E-14
 -1      4241 8.63531E-03-4.39050E-05-7.88066E-14
 -1      4242 8.63742E-03-1.04063E-05-7.83922E-14
 -1      4243 8.39327E-03-4.11126E-05-7.40700E-14
 -1      4244 4.10200E-03 1.21050E-04-1.78707E-14
 -1      4245 3.95782E-03 1.21340E-04-1.66928E-14
 -1      4246 4.17344E-03 8.31388E-05-1.85053E-14
 -1      4247 3.81348E-03 1.21557E-04-1.55545E-14
 -1      4248 3.66897E-03 1.21708E-04-1.44560E-14
 -1      4249 3.88496E-03 8.35115E-05-1.61484E-14
 -1      4250 2.05402E-03-4.26428E-05-5.00507E-15
 -1      4251 2.77140E-03-1.78872E-06-8.62339E-15
 -1      4252 2.91693E-03-1.76994E-06-9.47639E-15
 -1      4253 3.59578E-03 8.36898E-05-1.39510E-14
 -1      4254 6.50512E-03 1.85692E-05-4.38318E-14
 -1      4255 6.36582E-03 1.91557E-05-4.19948E-14
 -1      4256 3.07481E-03 2.17882E-05-1.04407E-14
 -1      4257 3.22012E-03 2.18818E-05-1.13770E-14
 -1      4258 3.36529E-03 2.19334E-05-1.23532E-14
 -1      4259 3.51030E-03 2.19793E-05-1.33688E-14
 -1      4260 3.65515E-03 2.19921E-05-1.44247E-14
 -1      4261 3.79983E-03 2.20029E-05-1.55207E-14
 -1      4262 3.94432E-03 2.19875E-05-1.66561E-14
 -1      4263 4.08863E-03 2.19720E-05-1.78319E-14
 -1      4264 4.23275E-03 2.19347E-05-1.90474E-14
 -1      4265 4.37668E-03 2.18973E-05-2.03022E-14
 -1      4266 4.52042E-03 2.18400E-05-2.15971E-14
 -1      4267 4.66396E-03 2.17812E-05-2.29335E-14
 -1      4268 4.80729E-03 2.17019E-05-2.43079E-14
 -1      4269 4.95041E-03 2.16181E-05-2.57220E-14
 -1      4270 5.09330E-03 2.15103E-05-2.71766E-14
 -1      4271 5.23595E-03 2.13937E-05-2.86699E-14
 -1      4272 5.37835E-03 2.12462E-05-3.02009E-14
 -1      4273 5.52047E-03 2.10834E-05-3.17711E-14
 -1      4274 5.66230E-03 2.08785E-05-3.33798E-14
 -1      4275 5.80379E-03 2.06490E-05-3.50279E-14
 -1      4276 5.94493E-03 2.03605E-05-3.67133E-14
 -1      4277 6.08568E-03 2.00339E-05-3.84359E-14
 -1      4278 6.22599E-03 1.96237E-05-4.01963E-14
 -1      4279 6.64383E-03 1.78968E-05-4.57047E-14
 -1      4280 6.78191E-03 1.70572E-05-4.76130E-14
 -1      4281 6.91927E-03 1.60916E-05-4.95585E-14
 -1      4282 7.05587E-03 1.48924E-05-5.15404E-14
 -1      4283 7.19160E-03 1.35116E-05-5.35591E-14
 -1      4284 7.32643E-03 1.18078E-05-5.56124E-14
 -1      4285 7.46022E-03 9.84791E-06-5.77023E-14
 -1      4286 7.59295E-03 7.44750E-06-5.98267E-14
 -1      4287 7.72445E-03 4.69489E-06-6.19857E-14
 -1      4288 7.85472E-03 1.35086E-06-6.41816E-14
 -1      4289 7.98354E-03-2.46338E-06-6.64094E-14
 -1      4290 8.11095E-03-7.06697E-06-6.86703E-14
 -1      4291 8.23666E-03-1.22893E-05-7.09656E-14
 -1      4292 1.98268E-03-7.67114E-05-4.68833E-15
 -1      4293 2.20621E-03 5.43251E-05-5.67550E-15
 -1      4294 2.25194E-03 9.59991E-06-5.90597E-15
 -1      4295 2.36099E-03 7.35528E-06-6.43421E-15
 -1      4296 2.49338E-03 2.82889E-06-7.10616E-15
 -1      4297 2.63896E-03 2.88759E-06-7.88146E-15
 -1      4298 2.71207E-03 4.03629E-05-8.27431E-15
 -1      4299 2.44739E-03 4.87943E-05-6.85407E-15
 -1      4300 8.48394E-03-1.89159E-06-7.54282E-14
 -1      4301 2.23049E-03 1.01354E-04-5.75825E-15
 -1      4302 8.35936E-03 5.02415E-06-7.30728E-14
 -1      4303 2.37581E-03 1.03035E-04-6.45820E-15
 -1      4304 2.93092E-03 9.72707E-05-9.50918E-15
 -1      4305 2.78553E-03 9.66986E-05-8.65500E-15
 -1      4306 3.00261E-03 5.96231E-05-9.97269E-15
 -1      4307 2.50791E-03 9.96423E-05-7.13242E-15
 -1      4308 2.65337E-03 1.00673E-04-7.90988E-15
 -3
    1PSTEP                         2           1           1          
  100CL  101 1.000000000        4308                     0    1           1
 -4  STRESS      6    1
 -5  SXX         1    4    1    1
 -5  SYY         1    4    2    2
 -5  SZZ         1    4    3    3
 -5  SXY         1    4    1    2
 -5  SYZ         1    4    2    3
 -5  SZX         1    4    3    1
 -1         1-2.12511E+00-1.33835E+01-2.70814E+00-4.54541E+00-2.95314E-12-1.24818E-12
 -1         2-7.37754E-01-2.65620E+01-3.58715E+00-3.55463E-02 1.13558E-12 2.88533E-13
 -1         3 1.99837E+01-1.69731E-02 3.63100E-02-1.70197E-02-5.70083E-13-5.07859E-13
 -1         4 1.99501E+01-5.13141E-02 7.32716E-02 5.12818E-02 4.66152E-13-2.18468E-13
 -1         5 3.27682E+01 6.14276E+00 2.74251E+00 6.22434E+00-4.99253E-14 3.90706E-12
 -1         6 3.57524E+01 1.22634E+01 5.12553E+00-8.64675E+00-1.99285E-13 3.94874E-12
 -1         7 2.08187E+01 6.09968E+00-1.28674E-01-4.72566E+00-2.60347E-14 1.00589E-12
 -1         8 1.96718E+01 5.93495E+00 5.09672E-02-3.27493E+00-4.55955E-14 3.58667E-14
 -1         9 1.91369E+01 5.77186E+00 4.90930E-02-2.52676E+00-4.12708E-14-5.16368E-13
 -1        10 1.88953E+01 5.69212E+00 5.10640E-02-1.95161E+00-3.15442E-14-7.82668E-13
 -1        11 1.87739E+01 5.65126E+00 5.02702E-02-1.45634E+00-2.13610E-14-9.14190E-13
 -1        12 1.87103E+01 5.62964E+00 4.87570E-02-1.01538E+00-1.44043E-14-9.70900E-13
 -1        13 1.86768E+01 5.61825E+00 4.74396E-02-5.95528E-01-8.75472E-15-9.87061E-13
 -1        14 1.86628E+01 5.61343E+00 4.67244E-02-1.91270E-01-1.91232E-15-9.84679E-13
 -1        15 1.86633E+01 5.61359E+00 4.67657E-02 2.08259E-01 4.93139E-15-9.77039E-13
 -1        16 1.86784E+01 5.61874E+00 4.75827E-02 6.13348E-01 1.04464E-14-9.60723E-13
 -1        17 1.87131E+01 5.63042E+00 4.90931E-02 1.03520E+00 1.66765E-14-9.14576E-13
 -1        18 1.87778E+01 5.65242E+00 5.08373E-02 1.47934E+00 2.38945E-14-8.25341E-13
 -1        19 1.89009E+01 5.69376E+00 5.15398E-02 1.98050E+00 3.58177E-14-6.73749E-13
 -1        20 1.91423E+01 5.77445E+00 4.87827E-02 2.56408E+00 4.50213E-14-3.88684E-13
 -1        21 1.96672E+01 5.94954E+00 4.59140E-02 3.30901E+00 5.27980E-14 1.70491E-13
 -1        22 2.12015E+01 6.38144E+00 1.39688E-01 4.52317E+00 7.27196E-15 1.32477E-12
 -1        23 2.30295E+01-1.37920E+00-9.38338E-01-7.11203E-01-1.29213E-13 3.23623E-12
 -1        24 1.93667E+01-9.94913E-02-3.09844E-01 6.32223E-02-4.29917E-14 2.59352E-12
 -1        25 1.86781E+01-5.63191E-02-6.87792E-02 6.07218E-02-1.53295E-14 1.91563E-12
 -1        26 1.84753E+01-2.20824E-02-6.47664E-03 3.29566E-02-5.43391E-15 1.43623E-12
 -1        27 1.84862E+01-1.17953E-02 1.57491E-03 2.25952E-02-9.94127E-15 1.11515E-12
 -1        28 1.85998E+01-6.22916E-03 1.79432E-03 1.62940E-02-2.66917E-14 8.61055E-13
 -1        29 1.87590E+01-3.07317E-03 1.74457E-03 1.21351E-02-1.26900E-14 6.19217E-13
 -1        30 1.89323E+01-1.21999E-03 1.93037E-03 9.16662E-03-1.31458E-14 4.08606E-13
 -1        31 1.91021E+01-1.30089E-04 2.09158E-03 6.93040E-03 1.46291E-14 3.13191E-13
 -1        32 1.92586E+01 4.85794E-04 2.12001E-03 5.19261E-03-2.00672E-14 1.96406E-13
 -1        33 1.93970E+01 7.95092E-04 2.02080E-03 3.82207E-03 1.83888E-14 1.12665E-13
 -1        34 1.95159E+01 9.00741E-04 1.82904E-03 2.73593E-03 3.46372E-15 4.28710E-14
 -1        35 1.96158E+01 8.68200E-04 1.57666E-03 1.87609E-03-1.74194E-14-3.10624E-14
 -1        36 1.96986E+01 7.38968E-04 1.28494E-03 1.19905E-03 2.58619E-14-2.01131E-14
 -1        37 1.97674E+01 5.37909E-04 9.64414E-04 6.71617E-04-4.46788E-14-1.71912E-14
 -1        38 1.98256E+01 2.77552E-04 6.16181E-04 2.69257E-04-2.29391E-14-1.66324E-13
 -1        39 1.98777E+01-3.91659E-05 2.32988E-04-2.41264E-05-4.46491E-15-2.62080E-13
 -1        40 1.99285E+01-4.17061E-04-2.00116E-04-2.15554E-04 1.46864E-14-3.80118E-13
 -1        41 1.99836E+01-8.67362E-04-7.05633E-04-3.01551E-04 2.71901E-14-5.25640E-13
 -1        42 2.00497E+01-1.40656E-03-1.31394E-03-2.65775E-04-2.73916E-14-4.46482E-13
 -1        43 2.01349E+01-2.05504E-03-2.06398E-03-7.53120E-05-3.16856E-14-3.67893E-13
 -1        44 2.02489E+01-2.83487E-03-3.00397E-03 3.24968E-04 9.84618E-16-2.66797E-13
 -1        45 2.04037E+01-3.76535E-03-4.19094E-03 1.02072E-03-4.65448E-15-3.49384E-13
 -1        46 2.06141E+01-4.85428E-03-5.68662E-03 2.13975E-03 1.31156E-14-6.07688E-13
 -1        47 2.08980E+01-6.08073E-03-7.54346E-03 3.86668E-03-8.43086E-15-5.84736E-13
 -1        48 2.12766E+01-7.36290E-03-9.76779E-03 6.45713E-03 5.26905E-14-4.84755E-13
 -1        49 2.17740E+01-8.50159E-03-1.22336E-02 1.02396E-02 7.62163E-14-2.75628E-13
 -1        50 2.24144E+01-9.08915E-03-1.45003E-02 1.55727E-02-5.40105E-14-2.85746E-13
 -1        51 2.32160E+01-8.38367E-03-1.54703E-02 2.26826E-02-2.86673E-14-2.18390E-13
 -1        52 2.41789E+01-5.19190E-03-1.28579E-02 3.12310E-02 2.69615E-14 5.13756E-14
 -1        53 2.52613E+01 2.08633E-03-2.66259E-03 3.93761E-02-7.43409E-14 2.09974E-13
 -1        54 2.63427E+01 1.48803E-02 2.04216E-02 4.21651E-02-5.25001E-14-2.55180E-13
 -1        55 2.71792E+01 3.27299E-02 5.96043E-02 2.98190E-02-2.24569E-14-8.09796E-13
 -1        56 2.73828E+01 5.04403E-02 1.07576E-01-1.13023E-02 2.38724E-14-9.56762E-13
 -1        57 2.65000E+01 5.58306E-02 1.34881E-01-8.88791E-02 2.70240E-14-1.10998E-12
 -1        58 2.42861E+01 3.45685E-02 9.50365E-02-1.82609E-01 4.51956E-14-6.68521E-13
 -1        59 2.11381E+01-1.47669E-02-3.44884E-02-2.27860E-01-2.86090E-14-5.22020E-13
 -1        60 1.82916E+01-6.77134E-02-1.91988E-01-1.54703E-01-1.77388E-14-4.42764E-13
 -1        61 1.72266E+01-8.66080E-02-2.50799E-01 2.04429E-02 1.24128E-13-5.78365E-13
 -1        62 1.84925E+01-5.62531E-02-1.56788E-01 1.77946E-01-3.42825E-14-1.03521E-12
 -1        63 2.12059E+01-3.52492E-04 4.90637E-03 2.17979E-01-1.49808E-13-1.78446E-12
 -1        64 2.38426E+01 4.34763E-02 1.14883E-01 1.52441E-01-2.05617E-14-2.16888E-12
 -1        65 2.53503E+01 5.72013E-02 1.35173E-01 5.69502E-02-8.19102E-14-1.63063E-12
 -1        66 2.55203E+01 4.67026E-02 9.91136E-02-1.48378E-02 6.73155E-14-1.20008E-12
 -1        67 2.46867E+01 2.61876E-02 5.01090E-02-5.14171E-02 5.96610E-14-7.43836E-13
 -1        68 2.33277E+01 5.32670E-03 8.45292E-03-6.22789E-02-7.29744E-15-1.04573E-13
 -1        69 2.18644E+01-1.23347E-02-2.47698E-02-5.71972E-02 1.23977E-13-4.43742E-13
 -1        70 2.06455E+01-2.13195E-02-4.84948E-02-3.28355E-02-6.73953E-14 8.42382E-15
 -1        71 1.99891E+01 6.29686E-03-2.69569E-02 9.36019E-03-1.72451E-13-3.63149E-13
 -1        72 2.10421E+01-4.04888E-01-9.80403E-01-3.11593E-01 4.83363E-14 3.56648E-12
 -1        73 1.93312E+01-6.58816E-02-2.91131E-01-5.38269E-02 2.72547E-14 2.73361E-12
 -1        74 1.86875E+01-2.05034E-02-6.42676E-02-2.03415E-02 1.49210E-14 2.13768E-12
 -1        75 1.84844E+01-9.87541E-03-9.30410E-03-1.54407E-02 1.67655E-14 1.70354E-12
 -1        76 1.84952E+01-5.16145E-03 6.89320E-04-1.23708E-02 1.48545E-14 1.34328E-12
 -1        77 1.86081E+01-2.61038E-03 1.75637E-03-1.00960E-02 1.88409E-14 1.11820E-12
 -1        78 1.87662E+01-1.14138E-03 1.89413E-03-8.34912E-03-1.10704E-14 9.73327E-13
 -1        79 1.89385E+01-2.80371E-04 2.08770E-03-6.90592E-03-1.00661E-14 8.88024E-13
 -1        80 1.91074E+01 2.13170E-04 2.22541E-03-5.65941E-03 9.07026E-15 7.45050E-13
 -1        81 1.92631E+01 4.73396E-04 2.22872E-03-4.56686E-03 1.00119E-14 5.86111E-13
 -1        82 1.94009E+01 5.80788E-04 2.10602E-03-3.60868E-03 1.95403E-15 5.17059E-13
 -1        83 1.95192E+01 5.85772E-04 1.89195E-03-2.77197E-03 4.02565E-14 3.98667E-13
 -1        84 1.96188E+01 5.20472E-04 1.61792E-03-2.04481E-03 5.98800E-15 1.81465E-13
 -1        85 1.97015E+01 4.04981E-04 1.30486E-03-1.41483E-03 4.77484E-15 9.34271E-14
 -1        86 1.97703E+01 2.51055E-04 9.63371E-04-8.69634E-04-3.29324E-15 1.98509E-14
 -1        87 1.98290E+01 6.45897E-05 5.95362E-04-3.98040E-04-6.10324E-15-1.14908E-13
 -1        88 1.98817E+01-1.52403E-04 1.95968E-04 8.17752E-06-1.76476E-14-3.01400E-13
 -1        89 1.99332E+01-3.99942E-04-2.44483E-04 3.52187E-04 3.22873E-14-5.02764E-13
 -1        90 1.99888E+01-6.78010E-04-7.38128E-04 6.29575E-04 2.70665E-15-7.68426E-13
 -1        91 2.00547E+01-9.83972E-04-1.29643E-03 8.25326E-04-9.89564E-14-4.94858E-13
 -1        92 2.01377E+01-1.30912E-03-1.92558E-03 9.10220E-04 1.12216E-14-2.11082E-13
 -1        93 2.02453E+01-1.63396E-03-2.61942E-03 8.36773E-04-2.17290E-14-3.24195E-13
 -1        94 2.03855E+01-1.92185E-03-3.34845E-03 5.35220E-04 3.95029E-15-5.53012E-13
 -1        95 2.05667E+01-2.11094E-03-4.04322E-03-8.90044E-05 4.51660E-14-6.96189E-13
 -1        96 2.07961E+01-2.10512E-03-4.56994E-03-1.15308E-03 2.57498E-14-5.61227E-13
 -1        97 2.10786E+01-1.76649E-03-4.69796E-03-2.78349E-03 1.58624E-14-4.40181E-13
 -1        98 2.14136E+01-9.15772E-04-4.06334E-03-5.08001E-03-2.14754E-14-3.59968E-13
 -1        99 2.17916E+01 6.46960E-04-2.14541E-03-8.03922E-03 2.19762E-14-6.70515E-13
 -1       100 2.21882E+01 3.08028E-03 1.70119E-03-1.14158E-02-5.67157E-14-7.06660E-13
 -1       101 2.25585E+01 6.37326E-03 8.07621E-03-1.45116E-02 6.05942E-14-5.50050E-13
 -1       102 2.28314E+01 1.01410E-02 1.71112E-02-1.59357E-02 2.66877E-14-6.33410E-13
 -1       103 2.29105E+01 1.34004E-02 2.77334E-02-1.35047E-02-1.34866E-14-4.90686E-13
 -1       104 2.26864E+01 1.45112E-02 3.67999E-02-4.65526E-03 6.14588E-14-1.73730E-13
 -1       105 2.20698E+01 1.16209E-02 3.88735E-02 1.21398E-02 7.32248E-15 1.23981E-14
 -1       106 2.10449E+01 3.82258E-03 2.79400E-02 3.49862E-02-4.24363E-14-1.21288E-13
 -1       107 1.97284E+01-7.42647E-03 1.80199E-03 5.66159E-02-2.55277E-14-4.23505E-13
 -1       108 1.83902E+01-1.79767E-02-3.32218E-02 6.57616E-02-6.70828E-15-5.24684E-13
 -1       109 1.73900E+01-2.29370E-02-6.22086E-02 5.35674E-02 4.11064E-14-4.94478E-13
 -1       110 1.70285E+01-1.99118E-02-6.96885E-02 2.15177E-02-4.49799E-14-5.94091E-13
 -1       111 1.73890E+01-1.06479E-02-5.13014E-02-1.70203E-02 3.40943E-14-6.66030E-13
 -1       112 1.82892E+01 4.82152E-04-1.69799E-02-4.55890E-02-6.80562E-14-5.31717E-13
 -1       113 1.93802E+01 9.11592E-03 1.66386E-02-5.49302E-02 3.14303E-14-7.58116E-13
 -1       114 2.03156E+01 1.30452E-02 3.68889E-02-4.65001E-02-7.34339E-14-1.19378E-12
 -1       115 2.08810E+01 1.22963E-02 4.07142E-02-2.83158E-02 3.03499E-14-9.71780E-13
 -1       116 2.10290E+01 8.19812E-03 3.18836E-02-8.56038E-03 5.73505E-14-6.48375E-13
 -1       117 2.08430E+01 2.45451E-03 1.58648E-02 7.41846E-03 2.65302E-14-6.07745E-13
 -1       118 2.04812E+01-2.99833E-03-2.47660E-03 1.64833E-02 5.65347E-14-7.57367E-13
 -1       119 2.01318E+01-5.76213E-03-1.60124E-02 1.50535E-02-3.56938E-14-1.39774E-12
 -1       120 1.99743E+01 8.39013E-03-1.23165E-03-4.54391E-03 2.78113E-13-1.24950E-12
 -1       121 1.99977E+01-1.52272E-02-4.00689E-03-1.33560E-02-1.23436E-12 1.41779E-13
 -1       122 1.99856E+01 1.48623E-01-2.38196E-02 1.51313E-03 1.61594E-13 7.90963E-14
 -1       123 1.99847E+01 5.97164E-01-2.55014E-02 1.30754E-02 1.35107E-12 3.36779E-14
 -1       124 1.99860E+01 1.31347E+00-2.39899E-02 2.43856E-02 7.56901E-13-1.50832E-13
 -1       125 1.99909E+01 2.27707E+00-1.78522E-02 3.61497E-02-4.66766E-13-3.03826E-13
 -1       126 1.99995E+01 3.39958E+00-5.15851E-03 4.45419E-02-1.54647E-12-8.18459E-14
 -1       127 2.00111E+01 4.57607E+00 1.40108E-02 4.62406E-02-2.68867E-12-1.47063E-14
 -1       128 2.00231E+01 5.58347E+00 3.51936E-02 3.71035E-02-2.66253E-12 1.61772E-13
 -1       129 2.00319E+01 6.19904E+00 5.14058E-02 1.71588E-02-1.65619E-12 1.36620E-13
 -1       130 2.00344E+01 6.25541E+00 5.64645E-02-9.29855E-03-1.27687E-12-2.00102E-13
 -1       131 2.00288E+01 5.70339E+00 4.79364E-02-3.58091E-02-1.37438E-12 7.63634E-14
 -1       132 2.00180E+01 4.65488E+00 2.93420E-02-5.33823E-02-1.54281E-12 2.85557E-14
 -1       133 2.00033E+01 3.27584E+00 3.88151E-03-6.14066E-02-1.93821E-12-1.79995E-13
 -1       134 1.99848E+01 1.83945E+00-2.67493E-02-6.06780E-02-9.90234E-13 2.62704E-13
 -1       135 1.99782E+01 6.68478E-01-4.30753E-02-5.10039E-02-8.64604E-14 3.98387E-14
 -1       136 1.99762E+01 5.66621E-02-1.81814E-02 2.88919E-02 1.09556E-13 1.04769E-13
 -1       137-1.44187E+00-2.16899E+01-3.26338E+00-3.94538E+00 2.64189E-12 5.18877E-13
 -1       138-1.69654E+00-1.02096E+01-2.42647E+00-3.49350E+00 2.85488E-12 1.27612E-12
 -1       139 2.12132E+00 2.17546E+00-1.20488E+00 2.49651E+00 3.25739E-12 2.30921E-12
 -1       140 1.36946E+01 1.00696E+01 2.59254E-01 1.16210E+01 2.82463E-12 2.85449E-12
 -1       141 3.22727E+01 1.08629E+01 1.71395E+00 1.82191E+01 1.52933E-12 2.31343E-12
 -1       142 5.16879E+01 6.38552E+00 2.84282E+00 1.70303E+01 6.25514E-13 1.32400E-12
 -1       143 6.45626E+01 1.88202E+00 3.46711E+00 8.09104E+00 1.51788E-14 1.02252E-13
 -1       144 6.59438E+01 1.28591E+00 3.51151E+00-4.93312E+00 1.12285E-13-1.27376E-12
 -1       145 5.48791E+01 5.16537E+00 2.95042E+00-1.53065E+01 8.94215E-13-2.92766E-12
 -1       146 3.53143E+01 1.01387E+01 1.83858E+00-1.82634E+01 2.11647E-12-3.73646E-12
 -1       147 1.57931E+01 1.04702E+01 4.10897E-01-1.27421E+01 3.41149E-12-3.83155E-12
 -1       148 3.68598E+00 3.83476E+00-9.75166E-01-4.13260E+00 3.40322E-12-2.63156E-12
 -1       149-1.52239E+00-8.52415E+00-2.23000E+00 2.96147E+00 2.54624E-12-1.22169E-12
 -1       150-1.36876E+00-1.98065E+01-3.04161E+00 3.94008E+00 1.70913E-12-3.98674E-13
 -1       151-6.95422E-01-2.52726E+01-3.38943E+00 4.76385E-01 2.32037E-14-1.83287E-13
 -1       152-1.25304E+00-2.27059E+01-3.27014E+00-3.64426E+00-2.35226E-12-4.30234E-13
 -1       153 3.54238E-01-8.17254E-01-1.67049E+00 3.48429E-01-2.90734E-12-1.83109E-12
 -1       154 1.06115E+01 8.46756E+00-2.39776E-01 9.51159E+00-1.87023E-12-1.60316E-12
 -1       155 2.87436E+01 1.05653E+01 1.31563E+00 1.71176E+01-1.10900E-12-1.98941E-12
 -1       156 5.02237E+01 6.68591E+00 2.75762E+00 1.74054E+01-4.56829E-13-8.85514E-13
 -1       157 6.57393E+01 2.02568E+00 3.68472E+00 8.44945E+00 6.07732E-14 3.92769E-13
 -1       158 6.78482E+01 1.64469E+00 3.83519E+00-5.76023E+00-4.12895E-13 2.16481E-12
 -1       159 5.53973E+01 5.82844E+00 3.16459E+00-1.64167E+01-1.15655E-12 3.81306E-12
 -1       160 3.43440E+01 1.07105E+01 1.83130E+00-1.86823E+01-2.07334E-12 3.78614E-12
 -1       161 1.46918E+01 1.04079E+01 2.56925E-01-1.23163E+01-2.62373E-12 2.94098E-12
 -1       162 2.15732E+00 2.22292E+00-1.28946E+00-2.55913E+00-1.94228E-12 1.25977E-12
 -1       163-1.90848E+00-1.06039E+01-2.53705E+00 3.84560E+00-1.61876E-12 8.84792E-13
 -1       164-1.45867E+00-2.21340E+01-3.33417E+00 4.19189E+00-3.85192E-13-7.64631E-14
 -1       165 2.10133E+01 3.69403E+00-5.73732E-02-3.61068E+00-5.17066E-13 4.67064E-13
 -1       166 1.99909E+01 4.20734E+00-4.57993E-02-2.80949E+00-5.09252E-13-1.50054E-13
 -1       167 1.95068E+01 4.47792E+00-3.17265E-02-2.19541E+00-4.52041E-13-4.97088E-13
 -1       168 1.92682E+01 4.61445E+00-2.38272E-02-1.67505E+00-3.44192E-13-6.74136E-13
 -1       169 1.91372E+01 4.69709E+00-1.95895E-02-1.21932E+00-2.51549E-13-7.64118E-13
 -1       170 1.90636E+01 4.74782E+00-1.74522E-02-7.92370E-01-1.62121E-13-7.98650E-13
 -1       171 1.90266E+01 4.77563E+00-1.64294E-02-3.87030E-01-6.88547E-14-8.12633E-13
 -1       172 1.90158E+01 4.78417E+00-1.61358E-02 8.26836E-03 1.89679E-14-8.04532E-13
 -1       173 1.90283E+01 4.77437E+00-1.64684E-02 4.03892E-01 1.02812E-13-7.89864E-13
 -1       174 1.90673E+01 4.74484E+00-1.75219E-02 8.10256E-01 1.81023E-13-7.63908E-13
 -1       175 1.91418E+01 4.69242E+00-1.96895E-02 1.23183E+00 2.68808E-13-6.91740E-13
 -1       176 1.92771E+01 4.60527E+00-2.40087E-02 1.69858E+00 3.87896E-13-5.87173E-13
 -1       177 1.95238E+01 4.45950E+00-3.28528E-02 2.22697E+00 4.87117E-13-3.97014E-13
 -1       178 2.00132E+01 4.18381E+00-4.72149E-02 2.84718E+00 5.50901E-13-2.88970E-14
 -1       179 2.11348E+01 3.46367E+00-5.97827E-02 3.53704E+00 5.21996E-13 6.63025E-13
 -1       180 2.24192E+01 1.14339E+00-3.36472E-01 3.01505E+00 3.85684E-13 1.58774E-12
 -1       181 2.19713E+01 8.58326E-01 6.08468E-04-1.95911E+00-4.42264E-13 1.14915E-12
 -1       182 2.04469E+01 1.90055E-01-9.99079E-03-7.64370E-01-4.00640E-13 9.16552E-13
 -1       183 1.96710E+01 1.01618E-01 1.35588E-02-2.86039E-01-3.07704E-13 6.82459E-13
 -1       184 1.93309E+01 4.71885E-02 9.98873E-03-6.83435E-02-2.13288E-13 4.76680E-13
 -1       185 1.92009E+01 2.25324E-02 5.15529E-03 3.89274E-02-1.78564E-13 3.13988E-13
 -1       186 1.91870E+01 9.47437E-03 2.42966E-03 9.14632E-02-1.57413E-13 2.53383E-13
 -1       187 1.92352E+01 2.08526E-03 1.12750E-03 1.13757E-01-1.12099E-13 2.11822E-13
 -1       188 1.93139E+01-2.13059E-03 4.95107E-04 1.18630E-01-9.40658E-14 1.79366E-13
 -1       189 1.94043E+01-4.40365E-03 1.62960E-04 1.13529E-01-7.12757E-14 1.44804E-13
 -1       190 1.94956E+01-5.42738E-03-1.89267E-05 1.03101E-01-5.79586E-14 7.89347E-14
 -1       191 1.95815E+01-5.63062E-03-1.13228E-04 9.03639E-02-9.29869E-14-4.27728E-14
 -1       192 1.96590E+01-5.29005E-03-1.50718E-04 7.73156E-02-5.16877E-14-9.98750E-14
 -1       193 1.97274E+01-4.58358E-03-1.49076E-04 6.52988E-02 1.44652E-14-7.64551E-14
 -1       194 1.97872E+01-3.61891E-03-1.19115E-04 5.52424E-02-7.42257E-14-7.20427E-14
 -1       195 1.98402E+01-2.45057E-03-6.72048E-05 4.78344E-02-8.46993E-14-7.06445E-14
 -1       196 1.98889E+01-1.09074E-03 3.49382E-06 4.36542E-02-4.76596E-14-1.27014E-13
 -1       197 1.99367E+01 4.83667E-04 9.22604E-05 4.32782E-02-7.46810E-14-1.87437E-13
 -1       198 1.99875E+01 2.32642E-03 2.00255E-04 4.73678E-02-5.18348E-14-2.81039E-13
 -1       199 2.00461E+01 4.51912E-03 3.30019E-04 5.67458E-02-2.96215E-14-2.74392E-13
 -1       200 2.01182E+01 7.16913E-03 4.84885E-04 7.24634E-02-5.54962E-15-3.44263E-13
 -1       201 2.02105E+01 1.04066E-02 6.68047E-04 9.58576E-02 2.36594E-14-3.16371E-13
 -1       202 2.03314E+01 1.43770E-02 8.80890E-04 1.28592E-01-6.06947E-14-3.15866E-13
 -1       203 2.04904E+01 1.92225E-02 1.11991E-03 1.72657E-01-7.55728E-14-2.74655E-13
 -1       204 2.06990E+01 2.50368E-02 1.37120E-03 2.30284E-01 8.02071E-15-3.49036E-13
 -1       205 2.09699E+01 3.17683E-02 1.60112E-03 3.03674E-01 2.55147E-14-3.09562E-13
 -1       206 2.13170E+01 3.90200E-02 1.74250E-03 3.94354E-01 8.55756E-14-2.56129E-13
 -1       207 2.17536E+01 4.56685E-02 1.67818E-03 5.01826E-01 5.13477E-14-3.55610E-13
 -1       208 2.22894E+01 4.91940E-02 1.23268E-03 6.20974E-01 9.22342E-14-1.98805E-13
 -1       209 2.29253E+01 4.46500E-02 2.00114E-04 7.37544E-01 1.78550E-13 4.07556E-14
 -1       210 2.36437E+01 2.34706E-02-1.54289E-03 8.21177E-01-2.03164E-14 5.53904E-14
 -1       211 2.43961E+01-2.67386E-02-3.77515E-03 8.17115E-01-2.38830E-13 1.27078E-13
 -1       212 2.50870E+01-1.18176E-01-5.65620E-03 6.42544E-01-3.15012E-13 1.24108E-13
 -1       213 2.55638E+01-2.48697E-01-5.90241E-03 2.03718E-01-9.97561E-14-1.23131E-14
 -1       214 2.56279E+01-3.73650E-01-3.57651E-03-5.39438E-01 2.31967E-14 5.27703E-14
 -1       215 2.50974E+01-3.82838E-01-1.13221E-03-1.44829E+00 1.92376E-13 1.55952E-15
 -1       216 2.39569E+01-1.45569E-01-2.61546E-03-2.09822E+00 5.12737E-14-1.49542E-13
 -1       217 2.25462E+01 3.13587E-01-1.05312E-02-1.92099E+00-3.68290E-14-2.93840E-13
 -1       218 2.15545E+01 6.82199E-01-1.98272E-02-7.35117E-01-2.15546E-13-4.30837E-13
 -1       219 2.15563E+01 6.19501E-01-1.93557E-02 8.29604E-01-3.33691E-13-8.64394E-13
 -1       220 2.24547E+01 1.89292E-01-8.91084E-03 1.78666E+00-4.11553E-13-1.06873E-12
 -1       221 2.35836E+01-2.34024E-01-1.78030E-03 1.70944E+00-1.75040E-13-1.08168E-12
 -1       222 2.43148E+01-4.05054E-01-1.66563E-03 9.31484E-01 4.99921E-13-8.51182E-13
 -1       223 2.44075E+01-3.56068E-01-4.54642E-03 2.07829E-02 2.44394E-13-3.80096E-13
 -1       224 2.39388E+01-2.19072E-01-5.42173E-03-6.62970E-01 4.06775E-13-2.02888E-13
 -1       225 2.31177E+01-8.39935E-02-3.79910E-03-1.02128E+00 2.89722E-13-1.52580E-13
 -1       226 2.21634E+01 2.39602E-02-1.23107E-03-1.08838E+00-9.90393E-14-8.63892E-14
 -1       227 2.12612E+01 1.17112E-01 8.50505E-04-9.19470E-01 2.39873E-13-1.14138E-13
 -1       228 2.05266E+01 2.07339E-01 7.05030E-04-5.54655E-01-9.32082E-14 4.49241E-15
 -1       229 2.09630E+01 2.77026E-01-5.13354E-02 1.16508E+00 4.01672E-13 1.37704E-12
 -1       230 1.98680E+01 1.26834E-01 8.30961E-03 4.43389E-01 3.03548E-13 1.05898E-12
 -1       231 1.93614E+01 5.80486E-02 1.27339E-02 1.50383E-01 2.32279E-13 7.99362E-13
 -1       232 1.91514E+01 2.77016E-02 7.62693E-03 1.11575E-02 1.88757E-13 6.43277E-13
 -1       233 1.91012E+01 1.30485E-02 3.82158E-03-5.79152E-02 1.13522E-13 5.40853E-13
 -1       234 1.91365E+01 5.10386E-03 1.90577E-03-9.02838E-02 5.54668E-14 4.70536E-13
 -1       235 1.92151E+01 5.69896E-04 1.00517E-03-1.02006E-01 7.26382E-14 4.11492E-13
 -1       236 1.93122E+01-1.99847E-03 5.47318E-04-1.01823E-01 9.77647E-14 3.26914E-13
 -1       237 1.94134E+01-3.34185E-03 2.87426E-04-9.49755E-02 6.61584E-14 2.49369E-13
 -1       238 1.95103E+01-3.89090E-03 1.31527E-04-8.47901E-02 5.67129E-14 2.43089E-13
 -1       239 1.95985E+01-3.91581E-03 3.99021E-05-7.34426E-02 1.16943E-13 2.06046E-13
 -1       240 1.96765E+01-3.59152E-03-8.23897E-06-6.23789E-02 8.79819E-14 1.58041E-13
 -1       241 1.97443E+01-3.02997E-03-2.57759E-05-5.25744E-02 9.89847E-14 8.74803E-14
 -1       242 1.98033E+01-2.29837E-03-2.12995E-05-4.47092E-02 6.12466E-14-3.72836E-14
 -1       243 1.98559E+01-1.43095E-03-7.13046E-07-3.92931E-02 7.62092E-14-1.00084E-13
 -1       244 1.99049E+01-4.37699E-04 3.17808E-05-3.67563E-02 8.20412E-14-2.72792E-13
 -1       245 1.99540E+01 6.87931E-04 7.29132E-05-3.75134E-02 1.14807E-13-3.04330E-13
 -1       246 2.00073E+01 1.96127E-03 1.19651E-04-4.20016E-02 6.53650E-14-2.07213E-13
 -1       247 2.00696E+01 3.39714E-03 1.68478E-04-5.06914E-02-1.99502E-13-2.73598E-13
 -1       248 2.01460E+01 4.99751E-03 2.14602E-04-6.40630E-02-1.02822E-13-3.27329E-13
 -1       249 2.02424E+01 6.73395E-03 2.51092E-04-8.25349E-02 4.68350E-14-1.69349E-13
 -1       250 2.03646E+01 8.52225E-03 2.68056E-04-1.06328E-01 1.37625E-13-3.43089E-13
 -1       251 2.05183E+01 1.01861E-02 2.52171E-04-1.35233E-01 8.34312E-14-4.37488E-13
 -1       252 2.07085E+01 1.14075E-02 1.87310E-04-1.68259E-01-1.08778E-13-3.66795E-13
 -1       253 2.09376E+01 1.16641E-02 5.75500E-05-2.03110E-01-8.39197E-14-2.30818E-13
 -1       254 2.12041E+01 1.01652E-02-1.45529E-04-2.35497E-01-1.76698E-15-2.84738E-13
 -1       255 2.14996E+01 5.81676E-03-4.09370E-04-2.58332E-01 1.54126E-13-3.24255E-13
 -1       256 2.18061E+01-2.70641E-03-6.81282E-04-2.61012E-01 3.04675E-14-4.72514E-13
 -1       257 2.20920E+01-1.66423E-02-8.51847E-04-2.29334E-01-8.74482E-14-5.00637E-13
 -1       258 2.23102E+01-3.63691E-02-7.61972E-04-1.47049E-01-1.26045E-14-3.09061E-13
 -1       259 2.23996E+01-6.00224E-02-2.69403E-04-5.35960E-04-2.02421E-13-2.01452E-13
 -1       260 2.22933E+01-8.16987E-02 6.26166E-04 2.12037E-01 8.05779E-16-2.20854E-13
 -1       261 2.19380E+01-9.04843E-02 1.58479E-03 4.67692E-01-8.78386E-14-1.73758E-13
 -1       262 2.13245E+01-7.29262E-02 1.85207E-03 7.07837E-01-2.24562E-14 5.55589E-15
 -1       263 2.05202E+01-2.11112E-02 7.53049E-04 8.42848E-01 1.42175E-13-7.85396E-15
 -1       264 1.96827E+01 5.60064E-02-1.55392E-03 7.85164E-01 6.67882E-14-1.17750E-13
 -1       265 1.90278E+01 1.28246E-01-3.61650E-03 5.06014E-01-2.66644E-14-3.03731E-13
 -1       266 1.87438E+01 1.58173E-01-3.81727E-03 7.79696E-02 7.93042E-14-3.21800E-13
 -1       267 1.88960E+01 1.28256E-01-1.87640E-03-3.44460E-01 3.77125E-14-2.58008E-13
 -1       268 1.93874E+01 5.59495E-02 1.01068E-03-6.09513E-01-3.48870E-14-2.59438E-13
 -1       269 2.00131E+01-2.20912E-02 3.05413E-03-6.49005E-01 2.51253E-13-5.13325E-13
 -1       270 2.05603E+01-7.43232E-02 3.24203E-03-4.97182E-01-6.91641E-14-5.28380E-13
 -1       271 2.08906E+01-9.02806E-02 2.11601E-03-2.48732E-01-1.03324E-14-3.88599E-13
 -1       272 2.09652E+01-7.64437E-02 6.49776E-04-1.55829E-03-7.91556E-14-4.74455E-13
 -1       273 2.08276E+01-4.49455E-02-6.30222E-04 1.75752E-01-5.51215E-14-2.26423E-13
 -1       274 2.05686E+01-6.11709E-03-1.81020E-03 2.48113E-01 1.00963E-13 1.44108E-14
 -1       275 2.02940E+01 3.35639E-02-1.87444E-03 2.07392E-01 2.69040E-13-1.93755E-13
 -1       276 2.00892E+01 5.42089E-02 9.35206E-04 8.21851E-02 1.97164E-14-2.81720E-13
 -1       277 2.00784E+01 1.90301E-01 2.04248E-03 1.73229E-01 2.27375E-14 1.02068E-12
 -1       278 2.00824E+01 4.74809E-01 2.35197E-03 3.61867E-01 1.99422E-13 4.83253E-13
 -1       279 2.00803E+01 9.10032E-01 1.90153E-03 5.60823E-01 2.51414E-13-8.95716E-14
 -1       280 2.00689E+01 1.50468E+00 1.24896E-03 7.45275E-01-4.01014E-14-6.45607E-13
 -1       281 2.00374E+01 2.21806E+00-2.42029E-04 8.73750E-01-4.06502E-13-7.50790E-13
 -1       282 1.99822E+01 3.00550E+00-1.97087E-03 8.96264E-01-5.91085E-13-7.70696E-13
 -1       283 1.99125E+01 3.74053E+00-3.63976E-03 7.63807E-01-6.74135E-13-2.55293E-14
 -1       284 1.98481E+01 4.28403E+00-4.81757E-03 4.65234E-01-6.79538E-13 5.24855E-13
 -1       285 1.98119E+01 4.51019E+00-5.30670E-03 4.24874E-02-8.18991E-13 8.32563E-14
 -1       286 1.98190E+01 4.35045E+00-4.96087E-03-4.16033E-01-5.60477E-13 1.15369E-13
 -1       287 1.98664E+01 3.83416E+00-3.68791E-03-7.99608E-01-2.75140E-13 1.75519E-14
 -1       288 1.99411E+01 3.04037E+00-1.92225E-03-1.03740E+00-1.66199E-13-2.82923E-13
 -1       289 2.00253E+01 2.12657E+00 1.25210E-04-1.07890E+00-7.18566E-15 7.44912E-13
 -1       290 2.01237E+01 1.25130E+00 2.39341E-03-9.01414E-01-2.79685E-14 4.04210E-13
 -1       291 2.02969E+01 6.70934E-01 3.54719E-03-8.33057E-01-1.32813E-13 9.40025E-15
 -1       292-8.68033E-01-1.13319E+01-9.50091E-01 1.34078E+00 8.34513E-13 8.63726E-13
 -1       293 2.61979E+00-9.32561E+00-7.91440E-01 3.68244E+00 1.08349E-12 7.04090E-13
 -1       294 8.72857E+00-5.96209E+00-5.49804E-01 5.50927E+00 1.30407E-12 1.03134E-12
 -1       295 1.79066E+01-2.08736E+00-1.35232E-01 7.21316E+00 1.01838E-12 6.45012E-13
 -1       296 2.85626E+01 8.04705E-01 2.13544E-01 6.79316E+00 9.11785E-13 4.00457E-13
 -1       297 3.74184E+01 4.60790E+00 6.23652E-01 6.41864E+00 9.13566E-13 5.06289E-13
 -1       298 4.39351E+01 6.37997E+00 8.64641E-01 3.99297E+00 7.80917E-13 4.08479E-13
 -1       299 4.66545E+01 6.98837E+00 9.54907E-01 5.88539E-01 7.94087E-13-1.67751E-13
 -1       300 4.40742E+01 6.66514E+00 7.90713E-01-2.64942E+00 9.51905E-13-6.19921E-13
 -1       301 3.83338E+01 4.84208E+00 5.79002E-01-5.35494E+00 1.16388E-12-1.16993E-12
 -1       302 2.95295E+01 1.57968E+00 2.45190E-01-6.64674E+00 1.30768E-12-1.25105E-12
 -1       303 1.91796E+01-1.29527E+00-8.47025E-02-7.23221E+00 1.16407E-12-1.60588E-12
 -1       304 1.12135E+01-5.43076E+00-2.99733E-01-6.51816E+00 8.43131E-13-1.33634E-12
 -1       305 2.73375E+00-8.75745E+00-7.94034E-01-3.57155E+00 9.98396E-13-9.81298E-13
 -1       306-7.28312E-01-1.11869E+01-9.87117E-01-1.52628E+00 1.99146E-13-1.02816E-12
 -1       307-1.17707E+00-1.11204E+01-9.32621E-01 4.31215E-01-2.00992E-13-1.09948E-12
 -1       308 1.19942E+00-1.01325E+01-9.16593E-01 2.29033E+00-8.55899E-13-4.96131E-13
 -1       309 6.66163E+00-6.96594E+00-6.90334E-01 4.38668E+00-8.24646E-13-5.49401E-13
 -1       310 1.54670E+01-2.95963E+00-3.08406E-01 6.33577E+00-1.00092E-12-3.72424E-13
 -1       311 2.65613E+01 4.12074E-01 1.39206E-01 6.89699E+00-6.08513E-13-6.66384E-13
 -1       312 3.69531E+01 3.84446E+00 6.25115E-01 6.42204E+00-7.44231E-13-3.51941E-14
 -1       313 4.50974E+01 5.83428E+00 9.98226E-01 3.92849E+00-6.49661E-13 1.27731E-13
 -1       314 4.58931E+01 7.35733E+00 8.48826E-01-1.38131E-02-9.98590E-13 7.07087E-13
 -1       315 4.43200E+01 6.69315E+00 7.90130E-01-2.74210E+00-1.24253E-12 1.12232E-12
 -1       316 3.91922E+01 4.63719E+00 6.97290E-01-6.09397E+00-1.01094E-12 2.08539E-12
 -1       317 2.92511E+01 1.99758E+00 3.11527E-01-7.75091E+00-9.12687E-13 1.81649E-12
 -1       318 1.86901E+01-2.15493E+00-1.56413E-01-7.10872E+00-6.35381E-13 1.58132E-12
 -1       319 8.76822E+00-6.10681E+00-5.99611E-01-5.32504E+00-6.99718E-13 7.37965E-13
 -1       320 2.24515E+00-9.87899E+00-9.15579E-01-3.12138E+00-1.53599E-13 9.29735E-13
 -1       321-1.05112E+00-1.20229E+01-1.06787E+00-9.27601E-01 2.41779E-13 6.89115E-13
 -1       322 2.01458E+01 3.01489E+00-1.77877E-02-2.11064E+00-5.44161E-13-1.84967E-13
 -1       323 2.07546E+01 2.20991E+00-1.78478E-02-2.36382E+00-5.64826E-13 1.82949E-13
 -1       324 1.95828E+01 3.69195E+00-1.56158E-02-1.31891E+00-3.63862E-13-5.21118E-13
 -1       325 1.94608E+01 3.84810E+00-1.36973E-02-9.24167E-01-2.65971E-13-5.73629E-13
 -1       326 1.93919E+01 3.93913E+00-1.27081E-02-5.44081E-01-1.40773E-13-5.94590E-13
 -1       327 1.93614E+01 3.98048E+00-1.22954E-02-1.73306E-01-1.69317E-14-5.99349E-13
 -1       328 1.93627E+01 3.97889E+00-1.23148E-02 1.94478E-01 7.63643E-14-5.81881E-13
 -1       329 1.93960E+01 3.93401E+00-1.27608E-02 5.65573E-01 1.81538E-13-5.69848E-13
 -1       330 1.94667E+01 3.84076E+00-1.37701E-02 9.39608E-01 2.82444E-13-5.16783E-13
 -1       331 1.95934E+01 3.67853E+00-1.56572E-02 1.33371E+00 4.06717E-13-4.22341E-13
 -1       332 1.98088E+01 3.40988E+00-1.88343E-02 1.73906E+00 5.16085E-13-2.97940E-13
 -1       333 2.01791E+01 2.95516E+00-2.29402E-02 2.12762E+00 5.96773E-13-9.72816E-14
 -1       334 2.07487E+01 2.12942E+00-3.04694E-02 2.32254E+00 6.11272E-13 3.30560E-13
 -1       335 2.10951E+01 1.18772E+00-2.49236E-02 1.92224E+00 5.37575E-13 7.42904E-13
 -1       336 2.03912E+01 4.89246E-01 8.33403E-03 9.27694E-01 4.45093E-13 5.75119E-13
 -1       337 2.04581E+01 6.75074E-01 1.25630E-02-1.02615E+00-4.69470E-13 2.39990E-13
 -1       338 2.00358E+01 3.37237E-01 7.16256E-03-4.58514E-01-3.82626E-13 1.77923E-13
 -1       339 1.97816E+01 1.76677E-01 4.17362E-03-1.49417E-01-2.63051E-13 9.72923E-14
 -1       340 1.96460E+01 9.04684E-02 1.92940E-03 2.16108E-02-1.99186E-13 7.67444E-14
 -1       341 1.95903E+01 4.12920E-02 8.08434E-04 1.12657E-01-1.58507E-13 5.36534E-14
 -1       342 1.95848E+01 1.23446E-02 2.80554E-04 1.55784E-01-1.36234E-13 1.94794E-14
 -1       343 1.96086E+01-4.55296E-03 1.81770E-05 1.69932E-01-7.47700E-14 8.25349E-15
 -1       344 1.96480E+01-1.38339E-02-1.17622E-04 1.66930E-01-1.13692E-13-6.46514E-14
 -1       345 1.96942E+01-1.81328E-02-1.82983E-04 1.54470E-01-1.18046E-13-8.20085E-14
 -1       346 1.97416E+01-1.91122E-02-2.04125E-04 1.37683E-01-8.92768E-14-1.08149E-13
 -1       347 1.97874E+01-1.78478E-02-1.95747E-04 1.20047E-01-8.41719E-14-1.21530E-13
 -1       348 1.98304E+01-1.50243E-02-1.66873E-04 1.03965E-01 1.98748E-15-1.84510E-13
 -1       349 1.98705E+01-1.10465E-02-1.22877E-04 9.11640E-02-4.25356E-14-3.92140E-14
 -1       350 1.99086E+01-6.10673E-03-6.64512E-05 8.29850E-02-1.43144E-13-6.50702E-14
 -1       351 1.99466E+01-2.28739E-04 1.80465E-06 8.06013E-02-1.21188E-13-1.67312E-13
 -1       352 1.99865E+01 6.70235E-03 8.29823E-05 8.51958E-02-8.25666E-14-2.07195E-13
 -1       353 2.00314E+01 1.49193E-02 1.79573E-04 9.81015E-02 9.95659E-15-2.10539E-13
 -1       354 2.00848E+01 2.47565E-02 2.95202E-04 1.20918E-01-3.01889E-14-1.96142E-13
 -1       355 2.01507E+01 3.66322E-02 4.34274E-04 1.55605E-01 1.42896E-14-1.31615E-13
 -1       356 2.02340E+01 5.10193E-02 6.01327E-04 2.04534E-01 4.49699E-14-1.31241E-13
 -1       357 2.03401E+01 6.83838E-02 7.99719E-04 2.70500E-01-2.41195E-14-8.01584E-14
 -1       358 2.04752E+01 8.90549E-02 1.02896E-03 3.56612E-01-6.95431E-14-5.35412E-14
 -1       359 2.06461E+01 1.12954E-01 1.27958E-03 4.65985E-01-2.33797E-15-1.17939E-13
 -1       360 2.08599E+01 1.39066E-01 1.52382E-03 6.01048E-01 1.53534E-13-9.66812E-14
 -1       361 2.11236E+01 1.64441E-01 1.70030E-03 7.62150E-01 8.15583E-14-4.03805E-14
 -1       362 2.14439E+01 1.82475E-01 1.69232E-03 9.44987E-01 1.72099E-13 1.24688E-13
 -1       363 2.18263E+01 1.80200E-01 1.30593E-03 1.13617E+00 1.65784E-13 7.84447E-14
 -1       364 2.22758E+01 1.34809E-01 2.71541E-04 1.30623E+00 5.21252E-14-8.08663E-14
 -1       365 2.27969E+01 1.12587E-02-1.67526E-03 1.40014E+00-4.43963E-15 6.21384E-14
 -1       366 2.33934E+01-2.32801E-01-4.44960E-03 1.32777E+00-2.10811E-13 2.86108E-13
 -1       367 2.40613E+01-6.20971E-01-7.35587E-03 9.64029E-01-1.94787E-13 3.30411E-13
 -1       368 2.47600E+01-1.09183E+00-9.69246E-03 1.83464E-01-1.15667E-14 3.48514E-13
 -1       369 2.53588E+01-1.40027E+00-1.05705E-02-1.02825E+00 1.33448E-13 3.84281E-13
 -1       370 2.55862E+01-1.08977E+00-1.64809E-02-2.36402E+00-3.20680E-14 3.98281E-13
 -1       371 2.52107E+01 1.56877E-01-2.71521E-02-3.02577E+00-2.23912E-13 2.72965E-13
 -1       372 2.44533E+01 1.80963E+00-3.92187E-02-2.14775E+00-2.29190E-13 3.26440E-14
 -1       373 2.40639E+01 2.45776E+00-5.00028E-02 6.98495E-02-4.90108E-13-4.85284E-13
 -1       374 2.44308E+01 1.42891E+00-4.06346E-02 2.05613E+00-4.45748E-13-6.61316E-13
 -1       375 2.49784E+01-2.40214E-01-2.41740E-02 2.50577E+00-1.91604E-13-5.88109E-13
 -1       376 2.50245E+01-1.26356E+00-1.38186E-02 1.57503E+00 2.11074E-13-4.04190E-13
 -1       377 2.45051E+01-1.38343E+00-1.20200E-02 2.01511E-01 7.07501E-13-3.56971E-13
 -1       378 2.36949E+01-9.96140E-01-9.91171E-03-9.31397E-01 4.46396E-13-1.82561E-13
 -1       379 2.28311E+01-5.01577E-01-6.55922E-03-1.59788E+00 3.85539E-13-4.17822E-13
 -1       380 2.20260E+01-7.78296E-02-2.29952E-03-1.82491E+00-5.93960E-14-4.10455E-13
 -1       381 2.13210E+01 2.60601E-01 1.96596E-03-1.70497E+00 1.86621E-13-6.30916E-14
 -1       382 2.07900E+01 4.89319E-01 4.84596E-03-1.34918E+00 9.91978E-14-9.91145E-15
 -1       383 1.98894E+01 2.28422E-01 1.07949E-02 3.99122E-01 3.53320E-13 4.38036E-13
 -1       384 1.96006E+01 1.15275E-01 6.17100E-03 1.20529E-01 2.54765E-13 3.17522E-13
 -1       385 1.94656E+01 5.75555E-02 2.80103E-03-2.81853E-02 1.59971E-13 2.48530E-13
 -1       386 1.94255E+01 2.56675E-02 1.17284E-03-1.04926E-01 8.53715E-14 1.95266E-13
 -1       387 1.94409E+01 7.23639E-03 4.47546E-04-1.40027E-01 8.94291E-14 1.76869E-13
 -1       388 1.94866E+01-3.41263E-03 1.02121E-04-1.50467E-01 1.33107E-13 1.63297E-13
 -1       389 1.95467E+01-9.22536E-03-7.67287E-05-1.46519E-01 1.23830E-13 1.53410E-13
 -1       390 1.96113E+01-1.19064E-02-1.67955E-04-1.34728E-01 5.82677E-14 8.59475E-14
 -1       391 1.96747E+01-1.25161E-02-2.04886E-04-1.19401E-01 1.23715E-13 7.62923E-14
 -1       392 1.97337E+01-1.17383E-02-2.05465E-04-1.03422E-01 1.55593E-13 3.63749E-14
 -1       393 1.97873E+01-1.00128E-02-1.80888E-04-8.87589E-02 1.64373E-13-7.84615E-14
 -1       394 1.98359E+01-7.60968E-03-1.38272E-04-7.67886E-02 8.51114E-14-6.49246E-14
 -1       395 1.98805E+01-4.67585E-03-8.19184E-05-6.85332E-02 7.52312E-14-6.05974E-14
 -1       396 1.99233E+01-1.26953E-03-1.41643E-05-6.48259E-02 1.98587E-13-4.68555E-14
 -1       397 1.99668E+01 2.61078E-03 6.38722E-05-6.64263E-02 1.01816E-13-1.15299E-13
 -1       398 2.00142E+01 6.99726E-03 1.51553E-04-7.40903E-02 5.98865E-14-1.03135E-13
 -1       399 2.00689E+01 1.19193E-02 2.47871E-04-8.85918E-02-7.14172E-14-1.75157E-13
 -1       400 2.01351E+01 1.73602E-02 3.50381E-04-1.10686E-01-1.30268E-13-2.83315E-13
 -1       401 2.02172E+01 2.31975E-02 4.53800E-04-1.40998E-01-7.84793E-14-2.43296E-13
 -1       402 2.03195E+01 2.91185E-02 5.48177E-04-1.79809E-01 2.01706E-13-7.01814E-14
 -1       403 2.04466E+01 3.45040E-02 6.16678E-04-2.26699E-01 4.96761E-14-4.04569E-14
 -1       404 2.06021E+01 3.82732E-02 6.33263E-04-2.80011E-01-1.12074E-13-1.60695E-14
 -1       405 2.07882E+01 3.86975E-02 5.61157E-04-3.36083E-01-1.00227E-13 2.84350E-14
 -1       406 2.10047E+01 3.32213E-02 3.54041E-04-3.88252E-01 8.64559E-14-1.03667E-13
 -1       407 2.12469E+01 1.83950E-02-3.71429E-05-4.25717E-01 1.32355E-13 4.97792E-14
 -1       408 2.15043E+01-9.84884E-03-6.46759E-04-4.32562E-01 1.06793E-13 5.41882E-14
 -1       409 2.17581E+01-5.51604E-02-1.46384E-03-3.87679E-01-4.01926E-14 3.61797E-14
 -1       410 2.19795E+01-1.18399E-01-2.39159E-03-2.66943E-01-7.44999E-14 1.99158E-14
 -1       411 2.21290E+01-1.93490E-01-3.21270E-03-4.96607E-02-7.90368E-14-8.58460E-14
 -1       412 2.21587E+01-2.62200E-01-3.59538E-03 2.68697E-01-7.64009E-14-2.15276E-13
 -1       413 2.20212E+01-2.91074E-01-3.10363E-03 6.57876E-01-1.31050E-13 7.65447E-15
 -1       414 2.16876E+01-2.38370E-01-1.70453E-03 1.03538E+00-9.54664E-14 4.85738E-14
 -1       415 2.11765E+01-7.79973E-02 1.60704E-04 1.26871E+00 9.32471E-14 2.66187E-13
 -1       416 2.05817E+01 1.65663E-01 2.02131E-03 1.21930E+00 1.52697E-13 2.86122E-13
 -1       417 2.00674E+01 4.00613E-01 3.59805E-03 8.27375E-01 5.79983E-14 1.45380E-13
 -1       418 1.98050E+01 5.07144E-01 4.98489E-03 1.88199E-01 1.21433E-13-3.10118E-13
 -1       419 1.98735E+01 4.21220E-01 4.69368E-03-4.65182E-01-1.16910E-13-2.24817E-13
 -1       420 2.02036E+01 1.93458E-01 3.39561E-03-8.89269E-01 2.64892E-15-3.15512E-13
 -1       421 2.06263E+01-6.03131E-02 1.36557E-03-9.67529E-01 1.84233E-13-1.64987E-13
 -1       422 2.09696E+01-2.34950E-01-1.18978E-03-7.46047E-01-5.72218E-14 9.87329E-14
 -1       423 2.11351E+01-2.92633E-01-2.97175E-03-3.69264E-01-1.54270E-13-4.16182E-15
 -1       424 2.11070E+01-2.51817E-01-3.42180E-03 1.15677E-02-4.52719E-14 9.71340E-14
 -1       425 2.09266E+01-1.52284E-01-2.71952E-03 2.90509E-01-1.46467E-13 2.90323E-13
 -1       426 2.06591E+01-2.81694E-02-1.27282E-03 4.14895E-01-2.48494E-15 2.96947E-13
 -1       427 2.03749E+01 8.84630E-02 2.44114E-05 3.75788E-01 1.71248E-13 7.92635E-13
 -1       428 2.02164E+01 1.53429E-01 1.29240E-03 2.95150E-01 6.25768E-14 9.79199E-13
 -1       429 2.02911E+01 8.18608E-01 2.54471E-03 1.09095E+00-2.94288E-13-5.04539E-13
 -1       430 2.03041E+01 4.82961E-01 2.38963E-03 7.81164E-01-1.73362E-13 2.51964E-13
 -1       431 2.02609E+01 3.07563E-01 2.33827E-03 5.20060E-01-4.85994E-14 6.74268E-13
 -1       432 2.02122E+01 1.25936E+00 1.48642E-03 1.35615E+00-2.18113E-13-1.16901E-12
 -1       433 2.00425E+01 1.80690E+00-4.21949E-04 1.49964E+00-1.35946E-13-5.19582E-13
 -1       434 1.97953E+01 2.39595E+00-2.69537E-03 1.42296E+00 2.29040E-13-4.94622E-13
 -1       435 1.95276E+01 2.92355E+00-4.66667E-03 1.06748E+00-3.15297E-13 6.17371E-14
 -1       436 1.93261E+01 3.26664E+00-5.93213E-03 4.54986E-01-6.04959E-13 3.56019E-13
 -1       437 1.92686E+01 3.32767E+00-6.17526E-03-3.00777E-01-3.53445E-13 3.11120E-13
 -1       438 1.93788E+01 3.08651E+00-5.31537E-03-1.01311E+00-1.34908E-13 3.99918E-13
 -1       439 1.96242E+01 2.59230E+00-3.47689E-03-1.54108E+00 1.80474E-13 1.72082E-13
 -1       440 1.99345E+01 1.95966E+00-5.09308E-04-1.77150E+00 5.95751E-13 4.27830E-13
 -1       441 2.02502E+01 1.31069E+00 3.76847E-03-1.69335E+00 2.03161E-13 4.07538E-13
 -1       442 1.09058E+01-5.90431E+00 2.03011E-02 7.35595E+00 1.29993E-13 4.43048E-13
 -1       443 1.12501E+00-5.15382E+00-7.47995E-02-6.42319E-03 2.24108E-13 1.40207E-12
 -1       444 3.85689E+00-5.18414E+00-3.06757E-02 4.63395E+00 1.71724E-13 5.73153E-13
 -1       445 1.75684E+01-6.19948E+00-3.26492E-02 7.28485E+00 1.76026E-13 2.24785E-13
 -1       446 2.58022E+01-4.27148E+00-4.09113E-03 5.18857E+00 5.54293E-13-2.42584E-14
 -1       447 1.98031E+01 3.43104E+00-1.76775E-02-1.73850E+00-4.72952E-13-4.13394E-13
 -1       448 3.47518E+01 4.55933E+00 3.46902E-02 3.45257E-01 6.93320E-13 6.42542E-14
 -1       449 3.66724E+01 7.69101E+00 9.09209E-02 1.33022E-01 8.36803E-13 2.27450E-13
 -1       450 3.57418E+01 8.10626E+00 2.81751E-02 3.34413E-01 1.09934E-12 4.48426E-14
 -1       451 3.43935E+01 5.26502E+00-1.97675E-02 4.29093E-01 1.03563E-12-1.90473E-13
 -1       452 3.19796E+01 6.48755E-01-2.36424E-02-9.21218E-01 6.80657E-13-1.91749E-13
 -1       453 2.66903E+01-3.86951E+00-2.01998E-02-4.22123E+00 3.25108E-13-3.27918E-13
 -1       454 2.04966E+01-5.53084E+00 1.79906E-02-6.45815E+00 4.17444E-14-8.08791E-13
 -1       455 9.58076E+00-5.51730E+00-5.63462E-02-6.91734E+00 3.39812E-13-9.25537E-13
 -1       456 4.07687E+00-5.36753E+00-7.48552E-02-4.98229E+00 1.67033E-13-1.24650E-12
 -1       457 8.48365E-01-5.17282E+00-1.09031E-01-1.10191E+00 1.00881E-13-1.27831E-12
 -1       458 2.41470E+00-5.49068E+00-1.10410E-01 3.20428E+00 1.55209E-13-7.06865E-13
 -1       459 7.72975E+00-6.14470E+00-1.03918E-01 5.94780E+00 1.03709E-13-1.49089E-13
 -1       460 1.65973E+01-6.22834E+00-2.65418E-02 6.65947E+00 9.13991E-14 2.54702E-13
 -1       461 2.49619E+01-5.10700E+00-2.92620E-02 4.69209E+00-1.22902E-13 1.06762E-13
 -1       462 3.17957E+01-1.29317E+00 3.76966E-03 1.41082E+00-4.35573E-13 1.16573E-15
 -1       463 3.59805E+01 3.60299E+00 1.02114E-01-4.64437E-03-8.07771E-13-1.51046E-13
 -1       464 3.70928E+01 7.02287E+00 9.01758E-02-7.79380E-01-1.12321E-12 2.11525E-13
 -1       465 3.66938E+01 7.78132E+00 5.28377E-02-2.11028E-02-1.27040E-12 3.92301E-13
 -1       466 3.54944E+01 4.44014E+00 3.28764E-02 2.49227E-01-8.22384E-13 3.32248E-13
 -1       467 3.28717E+01-1.76851E-01 1.40830E-02-1.71300E+00-1.21049E-14 9.24982E-13
 -1       468 2.75359E+01-4.15013E+00 5.68027E-03-4.39284E+00 1.66353E-13 8.97227E-13
 -1       469 1.84818E+01-6.17841E+00-4.75974E-02-6.99807E+00 9.74221E-14 7.20556E-13
 -1       470 9.93614E+00-6.33240E+00-7.23700E-02-6.90441E+00 2.70672E-13 8.10053E-13
 -1       471 3.72852E+00-5.22651E+00-4.28692E-02-4.35226E+00 9.61314E-14 6.22002E-13
 -1       472 3.22035E+01 7.18661E-01 1.92319E-02 2.03218E+00 5.85910E-13-1.92346E-14
 -1       473 2.94003E+01-3.10813E+00-4.79329E-02 1.91553E+00 5.21239E-13 7.46347E-14
 -1       474 3.25466E+01 7.44225E+00-1.13837E-01-7.81564E-01-1.33292E-12-6.49134E-14
 -1       475 1.71057E+01-5.52953E+00 7.79837E-02-7.19492E+00-2.60750E-13-3.95729E-13
 -1       476 2.03728E+01 8.31845E-01 4.02904E-03 9.72497E-01 4.70405E-13 1.15927E-13
 -1       477 1.97335E+01 3.10365E+00-5.33306E-03-6.34090E-01-1.91648E-13-4.92577E-13
 -1       478 1.98300E+01 2.92994E+00-5.72790E-03-9.50037E-01-2.95255E-13-4.74316E-13
 -1       479 1.96660E+01 3.22624E+00-5.02323E-03 8.84421E-03 1.70840E-14-5.18650E-13
 -1       480 1.96844E+01 3.19325E+00-5.10437E-03 3.30611E-01 1.31174E-13-5.03935E-13
 -1       481 1.97381E+01 3.09647E+00-5.41593E-03 6.46167E-01 2.28295E-13-4.68319E-13
 -1       482 1.98363E+01 2.91871E+00-5.96715E-03 9.61822E-01 3.45639E-13-3.76860E-13
 -1       483 1.99917E+01 2.63361E+00-6.53136E-03 1.25721E+00 4.40136E-13-2.85548E-13
 -1       484 2.02333E+01 2.18770E+00-5.69904E-03 1.50199E+00 5.22183E-13-1.73204E-13
 -1       485 2.01109E+01 4.53479E-01 5.07121E-03 4.64787E-01 3.72860E-13 7.32570E-14
 -1       486 2.03432E+01 9.72470E-01 2.76115E-03-9.40044E-01-4.28843E-13-3.81411E-14
 -1       487 2.03971E+01 1.75562E+00-5.86297E-03-1.53765E+00-5.17388E-13-1.18283E-13
 -1       488 2.36454E+01-5.92451E+00 4.84371E-02 5.42012E+00 2.80678E-14-2.91277E-14
 -1       489 2.01709E+01 5.46059E-01 2.34529E-03-4.68531E-01-3.38203E-13-2.34107E-14
 -1       490 2.00236E+01 3.05206E-01 1.26430E-03-1.67983E-01-2.22921E-13-3.25253E-14
 -1       491 1.99232E+01 1.62683E-01 5.59779E-04 1.35458E-02-2.05101E-13-4.26420E-14
 -1       492 1.98645E+01 7.61140E-02 2.25724E-04 1.16309E-01-1.64205E-13-6.43682E-14
 -1       493 1.98372E+01 2.33387E-02 6.79158E-05 1.67901E-01-1.44556E-13-1.04549E-13
 -1       494 1.98312E+01-7.97437E-03-1.28563E-05 1.86985E-01-1.19097E-13-1.51018E-13
 -1       495 1.98388E+01-2.51834E-02-5.50060E-05 1.86264E-01-1.16950E-13-1.31454E-13
 -1       496 1.98542E+01-3.29332E-02-7.41444E-05 1.74458E-01-1.09053E-13-8.43586E-14
 -1       497 1.98739E+01-3.42532E-02-7.79933E-05 1.57594E-01-7.54766E-14-7.81863E-14
 -1       498 1.98955E+01-3.11259E-02-7.11922E-05 1.39884E-01-1.00811E-13-3.41341E-14
 -1       499 1.99179E+01-2.48049E-02-5.66124E-05 1.24325E-01 1.52015E-14-1.59440E-13
 -1       500 1.99408E+01-1.60064E-02-3.58198E-05 1.13151E-01-1.14922E-13-1.72008E-13
 -1       501 1.99646E+01-5.03319E-03-9.35266E-06 1.08165E-01-1.85955E-13-7.16462E-14
 -1       502 1.99900E+01 8.14055E-03 2.31019E-05 1.10996E-01-1.48540E-13-5.23497E-14
 -1       503 2.00184E+01 2.38086E-02 6.25863E-05 1.23306E-01-5.23774E-14-8.65401E-14
 -1       504 2.00512E+01 4.24858E-02 1.10791E-04 1.46942E-01 4.12132E-14-4.88381E-14
 -1       505 2.00903E+01 6.48644E-02 1.69977E-04 1.84056E-01 4.19000E-14-1.79935E-15
 -1       506 2.01378E+01 9.17574E-02 2.42843E-04 2.37178E-01 5.13898E-14-2.08318E-15
 -1       507 2.01958E+01 1.24003E-01 3.32215E-04 3.09236E-01-2.81124E-14-1.58584E-14
 -1       508 2.02666E+01 1.62277E-01 4.40331E-04 4.03478E-01-4.45666E-14 4.45103E-14
 -1       509 2.03524E+01 2.06734E-01 5.67290E-04 5.23256E-01-2.55976E-14 3.28238E-14
 -1       510 2.04550E+01 2.56308E-01 7.07907E-04 6.71546E-01 7.12685E-14 3.30717E-14
 -1       511 2.05765E+01 3.07438E-01 8.45695E-04 8.50054E-01 4.88893E-14-3.25714E-14
 -1       512 2.07197E+01 3.51841E-01 9.41972E-04 1.05764E+00 7.10122E-14-1.34911E-13
 -1       513 2.08901E+01 3.72903E-01 9.17327E-04 1.28770E+00 1.80718E-13-2.07492E-13
 -1       514 2.11001E+01 3.40516E-01 6.26700E-04 1.52397E+00 4.91534E-14-1.15324E-13
 -1       515 2.13766E+01 2.05363E-01-1.48656E-04 1.73417E+00 1.52864E-13 1.22633E-14
 -1       516 2.17721E+01-1.02895E-01-1.68566E-03 1.86040E+00-4.16307E-14 2.55670E-14
 -1       517 2.23748E+01-6.59145E-01-3.39774E-03 1.80568E+00-2.53298E-13 4.99177E-14
 -1       518 2.32985E+01-1.48167E+00-4.06422E-03 1.41891E+00-8.26025E-14 7.52668E-14
 -1       519 2.45927E+01-2.37256E+00-7.30939E-03 5.08953E-01 8.86436E-14 1.31892E-13
 -1       520 2.60698E+01-2.73739E+00-1.93480E-02-1.00148E+00 1.83571E-13 1.99571E-13
 -1       521 2.71856E+01-1.48645E+00-5.16081E-02-2.72042E+00-1.23171E-13 3.67802E-13
 -1       522 2.74078E+01 1.63594E+00-9.29387E-02-3.28857E+00-3.71772E-13 3.68384E-13
 -1       523 2.69389E+01 4.51816E+00-1.55747E-01-1.45880E+00-8.08957E-13 1.38320E-13
 -1       524 2.69042E+01 4.03389E+00-1.50558E-01 1.49656E+00-7.75671E-13-4.37858E-13
 -1       525 2.72258E+01 7.57493E-01-9.30330E-02 2.82923E+00-3.82239E-13-6.37606E-13
 -1       526 2.67790E+01-2.02017E+00-3.47063E-02 1.76185E+00 2.40393E-13-7.06592E-13
 -1       527 2.54058E+01-2.77263E+00-1.19042E-02-1.55558E-02 4.97052E-13-4.07309E-13
 -1       528 2.38495E+01-2.20608E+00-3.65330E-03-1.41310E+00 5.37102E-13-5.96241E-13
 -1       529 2.25697E+01-1.25930E+00-3.00995E-03-2.18027E+00 4.49301E-13-4.47050E-13
 -1       530 2.16666E+01-4.06744E-01-1.26408E-03-2.43693E+00 1.79661E-13-3.62312E-13
 -1       531 2.10582E+01 2.52836E-01 8.47224E-04-2.33276E+00 2.00370E-13-4.60564E-14
 -1       532 1.98084E+01 1.28779E-01 9.88823E-04-1.87705E-02 1.76430E-13 1.39063E-14
 -1       533 1.97503E+01 5.94419E-02 3.62690E-04-1.17219E-01 9.43810E-14 2.29810E-14
 -1       534 1.97313E+01 1.78507E-02 8.40128E-05-1.65406E-01 1.56246E-13-4.27756E-14
 -1       535 1.97373E+01-6.61738E-03-5.04847E-05-1.82324E-01 1.21297E-13-7.57978E-14
 -1       536 1.97579E+01-2.00256E-02-1.17746E-04-1.80429E-01 1.25614E-13-2.68237E-14
 -1       537 1.97861E+01-2.60986E-02-1.46327E-04-1.68082E-01 8.98918E-14-6.85266E-14
 -1       538 1.98175E+01-2.72317E-02-1.49844E-04-1.50976E-01 1.79412E-13-1.01410E-13
 -1       539 1.98494E+01-2.49900E-02-1.36430E-04-1.33029E-01 1.46750E-13-3.72844E-14
 -1       540 1.98806E+01-2.03793E-02-1.11260E-04-1.16985E-01 7.40046E-14 1.00413E-15
 -1       541 1.99109E+01-1.40092E-02-7.75243E-05-1.04825E-01 6.17829E-14-1.49760E-14
 -1       542 1.99410E+01-6.20400E-03-3.69853E-05-9.80732E-02 1.11851E-13 4.40854E-14
 -1       543 1.99719E+01 2.91064E-03 9.55423E-06-9.80026E-02 1.51067E-13 7.89761E-14
 -1       544 2.00053E+01 1.33297E-02 6.18238E-05-1.05780E-01 1.09083E-13 1.67668E-13
 -1       545 2.00431E+01 2.50867E-02 1.19619E-04-1.22536E-01-2.34458E-14 1.85310E-13
 -1       546 2.00878E+01 3.81563E-02 1.82236E-04-1.49364E-01-7.49738E-14 1.72349E-13
 -1       547 2.01419E+01 5.23262E-02 2.47742E-04-1.87227E-01-5.21012E-14 7.74487E-14
 -1       548 2.02083E+01 6.70250E-02 3.11995E-04-2.36756E-01-5.91974E-14-1.68932E-13
 -1       549 2.02901E+01 8.10853E-02 3.67366E-04-2.97891E-01 7.24923E-14 8.98547E-14
 -1       550 2.03903E+01 9.24324E-02 4.01189E-04-3.69332E-01 3.52790E-14 1.50739E-13
 -1       551 2.05118E+01 9.76988E-02 3.94160E-04-4.47748E-01-5.15321E-14-2.21321E-14
 -1       552 2.06573E+01 9.18159E-02 3.19316E-04-5.26722E-01 4.28752E-14-1.02414E-13
 -1       553 2.08288E+01 6.77343E-02 1.43106E-04-5.95444E-01 6.15752E-14-1.81424E-14
 -1       554 2.10273E+01 1.66242E-02-1.70445E-04-6.37349E-01 6.21288E-14-7.66940E-14
 -1       555 2.12521E+01-7.07634E-02-6.45087E-04-6.29151E-01-7.21794E-14 4.00540E-14
 -1       556 2.14989E+01-2.00477E-01-1.26645E-03-5.41281E-01-6.59669E-14 1.93817E-13
 -1       557 2.17568E+01-3.68175E-01-1.94818E-03-3.41606E-01-1.42427E-14 1.99633E-13
 -1       558 2.20024E+01-5.47993E-01-2.49596E-03-5.40743E-03-7.56150E-15 8.23221E-14
 -1       559 2.21934E+01-6.80999E-01-2.57719E-03 4.65308E-01-1.90648E-13 1.74618E-13
 -1       560 2.22673E+01-6.73721E-01-1.43957E-03 1.01306E+00-1.57782E-13 3.50101E-13
 -1       561 2.21588E+01-4.30686E-01 1.94118E-04 1.49840E+00-4.40605E-14 4.10547E-13
 -1       562 2.18492E+01 6.93577E-02 7.51111E-04 1.71073E+00 7.91353E-14 5.11018E-13
 -1       563 2.14270E+01 6.92113E-01 1.17146E-03 1.45820E+00 2.85288E-13 4.00944E-13
 -1       564 2.10898E+01 1.14533E+00 1.81384E-03 7.27804E-01 3.30067E-13 1.92359E-13
 -1       565 2.10182E+01 1.16726E+00 3.40178E-03-2.23680E-01 1.08383E-13 8.46877E-14
 -1       566 2.12230E+01 7.37530E-01 4.54488E-04-9.83634E-01 3.29901E-15-1.60126E-13
 -1       567 2.15405E+01 1.03864E-01 6.14227E-04-1.27786E+00 7.75526E-14-3.18026E-13
 -1       568 2.17558E+01-4.21354E-01-5.94335E-04-1.08494E+00-6.74773E-14-3.15713E-13
 -1       569 2.17705E+01-6.79149E-01-2.09774E-03-5.99953E-01-2.22159E-13-2.60626E-15
 -1       570 2.15938E+01-6.69165E-01-2.65969E-03-5.29432E-02-3.21925E-14 1.67994E-13
 -1       571 2.12935E+01-4.80445E-01-2.37321E-03 3.88571E-01-2.31797E-13-6.27109E-14
 -1       572 2.09420E+01-2.07885E-01-1.16472E-03 6.40196E-01-1.88476E-13 2.01346E-13
 -1       573 2.05867E+01 7.68488E-02 3.72778E-04 6.84745E-01-2.49401E-13 6.28706E-13
 -1       574 2.03080E+01 7.71006E-01 3.65670E-04 1.86876E+00-7.41586E-15-8.22142E-13
 -1       575 1.98701E+01 1.24407E+00-8.55486E-04 1.98087E+00 8.99479E-14-2.74437E-13
 -1       576 2.06232E+01 2.27063E-01 1.72608E-03 1.14921E+00-2.91165E-13-3.45888E-13
 -1       577 2.05507E+01 4.35352E-01 1.34755E-03 1.54595E+00-3.65205E-13-7.57631E-13
 -1       578 1.93055E+01 1.78819E+00-2.04266E-03 1.74519E+00 1.03859E-13-6.74715E-13
 -1       579 1.87804E+01 2.26610E+00-2.50203E-03 1.10845E+00-3.94787E-13 3.45963E-14
 -1       580 1.84836E+01 2.52730E+00-2.70743E-03 1.59500E-01-2.04958E-13 6.96471E-13
 -1       581 1.85449E+01 2.47646E+00-2.51908E-03-8.62024E-01 8.62018E-14 4.99718E-13
 -1       582 1.89481E+01 2.13426E+00-2.32159E-03-1.72060E+00 1.34813E-13 3.49683E-13
 -1       583 1.95420E+01 1.62389E+00-1.27493E-03-2.21380E+00 1.66951E-13 3.07380E-13
 -1       584 2.01818E+01 1.09037E+00-1.02326E-03-2.27103E+00 8.92920E-14 5.28845E-13
 -1       585 5.35068E+00-1.94964E+00 1.87273E-01 2.39656E+00-8.83946E-14 7.35925E-13
 -1       586 1.03686E+01-3.26947E+00 1.54565E-01 6.26178E+00-1.80231E-13 3.26683E-13
 -1       587 4.92114E+00-2.02686E+00 1.64471E-01-1.88657E+00 2.83150E-13 1.04332E-12
 -1       588 1.99234E+01 2.46129E-01 2.43482E-03 1.59482E-01 2.42539E-13 3.04939E-14
 -1       589 1.66875E+01-5.51286E+00 1.02819E-01 7.29939E+00-2.71907E-13 7.53321E-14
 -1       590 3.06071E+01 1.11538E+00-1.34477E-01-1.12890E+00 6.47760E-13-1.56195E-14
 -1       591 2.85771E+01-2.93587E+00-7.38988E-02-5.69548E-01 1.42783E-13-1.17267E-13
 -1       592 1.96816E+01 3.19764E+00-5.09742E-03-3.13022E-01-7.57077E-14-4.89973E-13
 -1       593 3.01876E+01 7.45480E+00-1.84915E-01-1.89775E-01 9.72472E-13-2.84028E-13
 -1       594 4.17274E+00-1.99134E+00 1.63236E-01 1.29024E+00 4.46291E-13-1.03392E-12
 -1       595 3.05921E+01 5.62627E+00-1.62383E-01-1.41276E+00 6.47274E-13-3.21430E-13
 -1       596 2.99997E+01 6.22740E+00-1.80459E-01 1.61388E+00 1.01998E-12-5.26384E-14
 -1       597 2.98436E+01 2.01557E+00-1.37460E-01 1.94557E+00 6.54893E-13 1.77136E-13
 -1       598 2.59766E+01-4.96269E+00 2.38851E-03-3.33292E+00-8.01373E-14 1.07137E-14
 -1       599 9.63634E+00-3.37202E+00 1.47634E-01-6.27321E+00-1.93172E-13-8.90149E-13
 -1       600 5.23417E+00-2.11410E+00 1.77304E-01-3.42678E+00 1.16591E-13-1.18118E-12
 -1       601 7.76295E+00-3.60767E+00 1.32997E-01 5.25350E+00 6.57044E-13-3.33344E-14
 -1       602 1.43971E+01-5.15086E+00 9.24272E-02 6.60471E+00 5.83561E-13 1.71217E-13
 -1       603 2.27037E+01-6.14150E+00 3.80604E-02 4.96142E+00 3.85247E-13 3.48997E-13
 -1       604 2.86897E+01-4.51611E+00-4.65944E-02 1.13587E+00 2.30468E-13 2.79388E-13
 -1       605 3.13382E+01 1.44432E-01-1.23236E-01-2.07613E+00-3.34444E-13 4.72428E-13
 -1       606 3.14770E+01 4.11457E+00-1.54191E-01-2.63914E+00-7.24601E-13 4.06654E-13
 -1       607 3.09360E+01 5.24451E+00-1.87192E-01 1.71807E+00-9.48311E-13-2.98775E-13
 -1       608 3.14740E+01 6.47328E-01-1.36354E-01 1.60308E+00-3.63966E-13 6.52672E-14
 -1       609 2.98290E+01-3.50787E+00-5.87664E-02-8.26216E-01 2.35085E-13 8.70172E-13
 -1       610 2.45120E+01-6.14242E+00 1.31066E-02-4.86410E+00 3.67248E-13 6.51024E-13
 -1       611 1.71872E+01-5.65723E+00 9.93650E-02-7.06676E+00 2.30704E-13 6.10890E-13
 -1       612 1.00771E+01-3.87868E+00 1.51096E-01-6.37349E+00 3.97363E-13 6.74627E-13
 -1       613 2.05847E+01 1.30517E+00-9.98606E-04 1.54832E+00 5.52764E-13 1.98089E-13
 -1       614 1.99731E+01 2.64885E+00-9.85663E-03-1.23948E+00-3.94006E-13-4.06774E-13
 -1       615 2.66801E+01-5.09664E+00-1.91561E-02 2.80314E+00-4.31460E-14 6.42542E-15
 -1       616 2.31373E+01-5.52629E+00 6.84349E-02-4.76276E+00-3.99847E-13-2.62856E-13
 -1       617 2.07526E+01 6.14333E-01 1.43191E-03-2.10631E+00 1.31521E-13 7.43438E-14
 -1       618 1.99612E+01 2.44873E+00-1.58257E-03 3.94460E-01 1.70279E-13-4.09367E-13
 -1       619 1.99294E+01 2.52367E+00-1.52249E-03 1.35921E-01 5.34733E-14-4.13385E-13
 -1       620 2.01211E+01 2.04546E+00-1.57333E-03 8.50561E-01 3.42951E-13-2.58358E-13
 -1       621 2.02387E+01 1.67565E+00-2.24819E-03 9.92789E-01 4.16852E-13-1.71863E-13
 -1       622 2.03190E+01 1.03639E+00 2.90915E-03 8.32087E-01 4.25083E-13-7.62583E-14
 -1       623 1.02967E+01-8.40092E-01 1.34244E-01 3.73269E+00-9.33784E-14 3.97814E-13
 -1       624 2.02051E+01 6.14492E-01 1.11567E-03 4.21315E-01 3.09415E-13-5.28486E-14
 -1       625 2.02803E+01 1.67797E+00-2.26000E-06-1.14106E+00-4.14889E-13-2.10105E-13
 -1       626 2.02878E+01 1.03370E+00-1.94739E-04-6.80815E-01-3.17922E-13-1.60727E-13
 -1       627 2.02327E+01 6.24489E-01 2.73216E-04-3.37460E-01-2.45777E-13-1.20990E-13
 -1       628 2.01656E+01 3.60809E-01 7.76347E-06-1.05294E-01-1.92304E-13-1.17107E-13
 -1       629 2.01050E+01 1.92242E-01-7.02575E-05 4.15026E-02-1.47553E-13-7.44321E-14
 -1       630 2.00582E+01 8.49402E-02-7.48103E-05 1.26548E-01-1.39449E-13-8.15431E-14
 -1       631 2.00253E+01 1.82127E-02-6.40099E-05 1.69128E-01-1.29931E-13-4.92822E-14
 -1       632 2.00039E+01-2.11193E-02-5.30799E-05 1.83931E-01-8.45780E-14-5.00858E-14
 -1       633 1.99915E+01-4.17186E-02-4.39415E-05 1.81733E-01-1.01289E-13-1.18546E-13
 -1       634 1.99855E+01-4.94018E-02-3.56692E-05 1.70316E-01-1.00724E-13-1.22008E-13
 -1       635 1.99842E+01-4.80828E-02-2.75732E-05 1.55264E-01-1.12048E-13-1.09254E-13
 -1       636 1.99863E+01-4.03303E-02-1.93346E-05 1.40605E-01-8.41504E-14-9.34379E-14
 -1       637 1.99910E+01-2.77192E-02-1.07363E-05 1.29318E-01-6.65708E-14-1.62901E-13
 -1       638 1.99976E+01-1.10657E-02-1.54364E-06 1.23730E-01-1.11317E-13-1.26385E-13
 -1       639 2.00060E+01 9.40756E-03 8.57321E-06 1.25819E-01-6.70841E-14-7.17628E-15
 -1       640 2.00160E+01 3.39493E-02 2.00354E-05 1.37452E-01-8.99368E-14-1.70119E-14
 -1       641 2.00275E+01 6.31833E-02 3.33455E-05 1.60564E-01 1.35136E-14-9.35190E-15
 -1       642 2.00404E+01 9.80218E-02 4.90655E-05 1.97281E-01 7.17945E-15-4.10434E-14
 -1       643 2.00545E+01 1.39568E-01 6.77719E-05 2.49991E-01 4.17625E-14-6.30546E-14
 -1       644 2.00692E+01 1.88978E-01 8.99704E-05 3.21364E-01 4.41976E-14 3.91684E-15
 -1       645 2.00834E+01 2.47220E-01 1.15937E-04 4.14294E-01-4.22870E-14 9.95567E-14
 -1       646 2.00955E+01 3.14652E-01 1.45427E-04 5.31758E-01-1.53061E-14 8.51533E-14
 -1       647 2.01030E+01 3.90253E-01 1.77178E-04 6.76564E-01-6.35079E-14 2.54187E-14
 -1       648 2.01031E+01 4.70265E-01 2.08036E-04 8.50970E-01-5.47182E-14-9.23340E-14
 -1       649 2.00936E+01 5.45881E-01 2.31250E-04 1.05618E+00-2.75393E-14-1.49274E-13
 -1       650 2.00752E+01 5.99514E-01 2.33021E-04 1.29175E+00 5.70717E-14-5.10150E-14
 -1       651 2.00567E+01 5.99165E-01 1.86676E-04 1.55484E+00 1.71914E-13-2.29049E-13
 -1       652 2.00647E+01 4.91020E-01 6.40957E-05 1.83905E+00 2.07470E-13-3.24246E-13
 -1       653 2.01597E+01 1.92179E-01-3.87646E-05 2.13122E+00 4.39809E-14-3.04910E-13
 -1       654 2.04610E+01-4.10025E-01 8.84470E-05 2.39881E+00-1.28205E-13-1.75659E-13
 -1       655 2.11706E+01-1.42578E+00 3.89580E-03 2.56409E+00-4.89839E-14 5.43272E-15
 -1       656 2.26323E+01-2.88690E+00 5.23634E-03 2.41942E+00 2.19473E-13-1.32758E-14
 -1       657 2.48873E+01-4.21023E+00 5.05774E-03 1.52363E+00 2.25328E-13 1.64993E-13
 -1       658 2.93610E+01-8.40999E-01-1.13779E-01-2.63085E+00-2.62804E-13 5.11348E-13
 -1       659 2.90628E+01-1.97984E+00-8.27144E-02 1.45333E+00-1.19524E-13-2.33719E-13
 -1       660 2.65898E+01-4.05230E+00-1.12848E-02-6.54804E-01 5.50130E-13 7.26277E-14
 -1       661 2.40941E+01-3.53003E+00 1.25684E-02-2.25692E+00 4.67958E-13 1.36690E-14
 -1       662 2.22462E+01-2.15315E+00 1.73889E-03-2.90685E+00 5.56419E-13 1.16002E-13
 -1       663 2.11560E+01-8.75298E-01 1.58668E-03-3.00050E+00 3.81621E-13 1.37825E-13
 -1       664 2.05895E+01 8.93078E-02-2.40991E-04-2.79473E+00 2.47025E-13 2.42681E-13
 -1       665 1.99726E+01 8.78543E-02 5.73323E-05-1.18337E-01 1.62286E-13-5.00652E-14
 -1       666 1.27110E+01-3.04153E+00 1.24134E-01 5.61463E+00 5.88734E-13-3.83304E-14
 -1       667 2.00262E+01 1.89104E-01 1.70803E-04-1.98774E-02 1.35438E-13-3.00530E-15
 -1       668 1.99254E+01-1.20647E-02-2.80097E-05-1.87364E-01 1.25198E-13-3.44256E-14
 -1       669 1.99213E+01-3.23075E-02-4.29188E-05-1.86917E-01 1.38811E-13-9.29472E-14
 -1       670 1.99246E+01-4.09594E-02-4.83338E-05-1.75700E-01 1.14143E-13-9.84759E-14
 -1       671 1.99327E+01-4.16447E-02-4.70382E-05-1.59720E-01 1.26241E-13-7.89673E-14
 -1       672 1.99436E+01-3.67670E-02-4.09352E-05-1.43230E-01 7.66669E-14 3.97025E-14
 -1       673 1.99563E+01-2.78692E-02-3.13423E-05-1.29289E-01 2.44243E-14 6.36381E-14
 -1       674 1.99705E+01-1.58713E-02-1.90422E-05-1.20176E-01 5.89858E-14 7.09399E-14
 -1       675 1.99861E+01-1.24801E-03-4.45123E-06-1.17699E-01 1.11833E-13 1.46242E-13
 -1       676 2.00035E+01 1.58230E-02 1.22944E-05-1.23409E-01 2.02555E-14 2.52564E-13
 -1       677 2.00234E+01 3.53185E-02 3.11870E-05-1.38740E-01 3.53898E-14 3.08947E-13
 -1       678 2.00466E+01 5.72132E-02 5.21779E-05-1.65061E-01 3.49478E-14 2.00365E-13
 -1       679 2.00744E+01 8.12892E-02 7.49654E-05-2.03653E-01 1.03730E-14 8.17677E-14
 -1       680 2.01082E+01 1.06888E-01 9.87113E-05-2.55571E-01 1.13731E-14 5.45627E-14
 -1       681 2.01498E+01 1.32578E-01 1.21658E-04-3.21386E-01-1.68245E-14 2.76319E-14
 -1       682 2.02013E+01 1.55719E-01 1.40623E-04-4.00765E-01 7.39235E-14 3.56411E-15
 -1       683 2.02658E+01 1.71907E-01 1.50376E-04-4.91845E-01-6.65196E-15 1.34595E-13
 -1       684 2.03472E+01 1.74335E-01 1.42945E-04-5.90372E-01 4.90396E-15 6.20916E-14
 -1       685 2.04514E+01 1.53190E-01 1.06942E-04-6.88566E-01 1.19484E-14 5.73912E-14
 -1       686 2.05864E+01 9.54137E-02 2.80617E-05-7.73708E-01 1.41047E-13-1.01170E-14
 -1       687 2.07634E+01-1.44758E-02-1.14451E-04-8.26555E-01-7.39922E-14 8.14778E-14
 -1       688 2.09963E+01-1.91247E-01-3.33588E-04-8.19858E-01-1.60413E-13 1.93118E-13
 -1       689 2.12994E+01-4.41471E-01-6.15315E-04-7.17833E-01-3.31873E-14 1.38081E-13
 -1       690 2.16795E+01-7.49285E-01-9.20694E-04-4.78649E-01-3.14291E-14 1.58522E-13
 -1       691 2.21207E+01-1.05470E+00-1.24535E-03-6.50640E-02-1.36923E-13 1.94642E-13
 -1       692 2.25651E+01-1.23429E+00-1.42981E-03 5.29410E-01-2.24875E-13 1.65872E-13
 -1       693 2.28975E+01-1.10093E+00 3.84562E-04 1.22995E+00-1.19357E-13 2.09683E-13
 -1       694 2.29761E+01-4.90726E-01-5.62025E-04 1.82744E+00-1.42714E-14 2.49759E-13
 -1       695 2.27306E+01 5.70577E-01-5.48881E-03 1.99274E+00 2.01235E-13 2.87441E-13
 -1       696 2.23356E+01 1.66835E+00-8.04213E-03 1.44393E+00 4.70324E-13 4.04160E-13
 -1       697 2.21105E+01 2.18216E+00-6.63933E-03 3.04379E-01 2.99026E-13 3.64964E-13
 -1       698 2.22138E+01 1.74383E+00-5.74367E-03-8.78249E-01 1.28870E-13 3.25762E-13
 -1       699 2.25836E+01 6.32999E-01 2.40702E-03-1.47893E+00 3.08178E-13 9.39472E-14
 -1       700 2.28254E+01-4.54231E-01 1.77603E-03-1.36281E+00 1.77607E-13-2.32229E-13
 -1       701 2.27265E+01-1.10573E+00-1.36311E-03-7.65807E-01-1.55869E-13-3.88440E-13
 -1       702 2.23535E+01-1.23919E+00-1.64879E-03-4.72363E-02-3.91256E-13-8.00969E-13
 -1       703 2.18451E+01-9.98211E-01-1.31894E-03 5.47055E-01-3.38370E-13-2.16755E-13
 -1       704 2.13244E+01-5.67348E-01-6.24025E-04 9.08765E-01-3.21746E-13 2.68546E-13
 -1       705 2.09631E+01-1.94860E-01 3.32390E-04 1.10671E+00-4.54668E-13-2.52678E-14
 -1       706 2.78181E+01 2.70048E+00-1.21188E-01-2.05956E+00 7.56450E-13-4.56302E-13
 -1       707 1.84051E+01 1.28772E+00-9.45127E-04 1.94560E+00-4.51745E-14-6.98893E-13
 -1       708 2.72105E+01 3.53639E+00-1.18379E-01 2.40995E+00 6.83828E-13 2.23321E-13
 -1       709 2.02721E+01 1.38856E-01-5.22352E-05 2.34972E+00 2.20895E-13-6.64483E-13
 -1       710 1.76265E+01 1.79943E+00-4.89936E-04 9.41616E-01 4.28359E-14 4.56298E-13
 -1       711 1.94114E+01 6.56376E-01 2.49939E-04 2.41776E+00 2.58067E-16-3.99057E-13
 -1       712 1.74027E+01 1.97220E+00 1.92461E-04-3.82602E-01-1.87741E-14 6.97171E-13
 -1       713 1.78489E+01 1.74111E+00-9.84900E-05-1.65058E+00 2.10536E-13 6.20408E-13
 -1       714 1.87823E+01 1.24227E+00-1.54516E-03-2.46950E+00 4.74512E-13 4.86248E-13
 -1       715 1.55687E+01-3.50045E+00 1.11094E-01-6.25259E+00 4.81212E-13 6.11702E-13
 -1       716 2.01047E+01 3.52733E-01 5.79233E-04 1.50314E-01 2.11169E-13-2.40108E-14
 -1       717 9.78491E+00-1.32046E+00 1.54349E-01-4.16192E+00 3.77011E-13 6.46240E-13
 -1       718 2.70714E+01-5.05763E+00-1.71167E-02-1.91016E+00 5.66946E-13 7.82922E-13
 -1       719 2.67868E+01 5.32975E+00-1.44832E-01-1.14459E+00 7.43412E-13-3.22093E-13
 -1       720 8.46283E+00-1.83563E-01 1.66539E-01 7.48146E-01 4.97978E-14 6.93966E-13
 -1       721 2.19307E+01-5.44516E+00 5.13256E-02-5.33550E+00 3.08465E-13 5.66182E-13
 -1       722 1.99408E+01 2.52129E-02 9.16535E-07-1.68522E-01 1.46241E-13-2.18768E-14
 -1       723 2.00248E+01 2.29421E+00-1.65621E-03 6.38541E-01 2.75780E-13-3.49590E-13
 -1       724 1.58755E+01-3.79275E+00 1.04772E-01-6.40466E+00-2.55875E-13-2.02831E-13
 -1       725 8.31608E+00-1.25609E+00 1.62993E-01 3.44268E+00 6.10012E-13-1.87038E-13
 -1       726 2.00190E+01 2.30504E+00-1.55467E-03-6.29975E-01-2.08095E-13-4.01278E-13
 -1       727 2.02812E+01 6.48799E-01 8.91597E-04-2.58516E+00 5.21851E-13 4.22260E-13
 -1       728 2.62221E+01-4.16852E+00-2.84103E-02-1.13623E+00-2.03752E-13 5.25188E-14
 -1       729 9.55634E+00-1.26813E+00 1.41493E-01-4.43244E+00-1.20605E-13-6.87055E-13
 -1       730 2.67229E+01 5.95965E+00-1.51175E-01 8.19894E-01 8.08749E-13-2.49436E-13
 -1       731 6.91765E+00-3.96007E-01 1.71124E-01-1.01493E+00 2.85639E-13-8.87408E-13
 -1       732 1.97539E+01-4.97873E+00 7.24571E-02 5.32513E+00 4.81750E-13 1.29742E-13
 -1       733 2.58713E+01-5.28846E+00 1.14067E-02 2.20640E+00 3.32255E-13 1.64648E-13
 -1       734 2.75788E+01-1.03240E+00-7.70767E-02 1.71359E+00 2.13139E-13 3.04413E-13
 -1       735 2.86956E+01-2.20936E+00-7.34799E-02-3.15048E-01 4.27046E-13-2.00083E-13
 -1       736 2.01207E+01 2.06075E+00-1.06577E-03-8.54528E-01-2.94885E-13-3.74860E-13
 -1       737 1.99285E+01 2.52533E+00-1.53151E-03-1.26591E-01-5.26133E-14-4.34626E-13
 -1       738 1.62908E+01-3.52623E+00 1.09976E-01 6.30912E+00-1.19512E-13 1.23034E-13
 -1       739 2.79045E+01-3.45225E+00-3.32963E-02-1.09764E+00 6.19114E-14 2.50681E-13
 -1       740 2.09325E+01-1.75973E-01 1.24762E-03 1.59606E+00-3.06976E-13-6.99325E-13
 -1       741 2.72778E+01-1.99213E-01-7.48075E-02-1.74328E+00 5.97392E-13-6.92420E-13
 -1       742 1.96167E+01 6.23086E-01 7.59858E-04-2.83954E+00 3.84599E-13 4.70732E-13
 -1       743 2.12170E+01-5.09073E+00 6.67795E-02 5.58116E+00-2.30749E-13 1.66047E-13
 -1       744 2.07249E+01-8.50730E-02 4.24758E-04 2.01591E+00 2.36215E-14-4.51180E-13
 -1       745 1.99580E+01 2.45447E+00-1.56935E-03-3.84725E-01-1.18953E-13-3.99968E-13
 -1       746 2.39838E+01-5.13294E+00 1.10370E-02 3.85781E+00-1.29115E-13-2.15582E-13
 -1       747 2.53205E+01 2.96230E+00-6.81253E-02-1.79813E+00 4.38542E-13-6.24154E-13
 -1       748 2.02650E+01 1.30776E+00 1.93416E-04 6.32645E-01 3.22182E-13-1.33491E-13
 -1       749 9.58198E+00 2.09632E-01 1.13036E-01 1.28708E+00 2.61222E-13-4.29944E-13
 -1       750 2.31703E+01-4.42415E+00 5.66929E-02 3.16248E+00 3.21323E-13-4.02053E-14
 -1       751 2.02930E+01 1.07966E+00 4.71402E-04-5.03998E-01-2.25922E-13-2.40100E-13
 -1       752 2.02913E+01 6.72659E-01-2.99762E-05-2.45606E-01-1.89105E-13-2.01608E-13
 -1       753 2.02632E+01 3.94486E-01 2.77404E-06-6.51146E-02-1.78907E-13-1.72501E-13
 -1       754 2.02240E+01 2.08523E-01-9.33967E-07 5.18391E-02-1.50943E-13-1.91742E-13
 -1       755 2.01837E+01 8.72369E-02-6.60816E-06 1.20391E-01-1.27719E-13-1.30938E-13
 -1       756 2.01471E+01 1.12453E-02-9.81153E-06 1.54711E-01-8.93407E-14-1.16500E-13
 -1       757 2.01160E+01-3.30069E-02-1.12975E-05 1.66265E-01-1.00599E-13-1.28440E-13
 -1       758 2.00905E+01-5.49887E-02-1.20818E-05 1.63927E-01-9.58002E-14-1.42134E-13
 -1       759 2.00702E+01-6.13080E-02-1.20849E-05 1.54329E-01-1.06601E-13-3.89990E-14
 -1       760 2.00543E+01-5.64844E-02-1.14684E-05 1.42353E-01-9.92751E-14-7.06026E-14
 -1       761 2.00422E+01-4.34720E-02-1.04348E-05 1.31608E-01-1.30881E-13 2.55757E-14
 -1       762 2.00328E+01-2.40274E-02-9.24834E-06 1.24834E-01 1.05092E-14 5.33316E-14
 -1       763 2.00253E+01 1.02336E-03-8.06012E-06 1.24227E-01-1.10867E-13 1.13170E-13
 -1       764 2.00187E+01 3.15821E-02-6.96417E-06 1.31703E-01-1.49668E-13 1.01697E-13
 -1       765 2.00118E+01 6.81185E-02-6.01037E-06 1.49083E-01-2.00080E-14 5.10547E-14
 -1       766 2.00032E+01 1.11532E-01-5.20824E-06 1.78225E-01 5.11084E-15 1.38933E-14
 -1       767 1.99913E+01 1.63019E-01-4.51875E-06 2.21100E-01 1.76616E-14-1.64987E-14
 -1       768 1.99735E+01 2.23904E-01-3.82477E-06 2.79809E-01 7.76811E-14 2.54608E-14
 -1       769 1.99469E+01 2.95415E-01-2.86404E-06 3.56546E-01 2.84969E-14 1.95658E-14
 -1       770 1.99074E+01 3.78306E-01-1.09908E-06 4.53517E-01-3.36138E-14 7.76803E-14
 -1       771 1.98498E+01 4.72245E-01 2.51018E-06 5.72836E-01-1.41509E-13-8.93714E-14
 -1       772 1.97677E+01 5.74779E-01 9.82403E-06 7.16460E-01-1.47897E-13-1.11071E-13
 -1       773 1.96541E+01 6.79643E-01 2.36160E-05 8.86328E-01-8.54866E-14-1.65410E-13
 -1       774 1.95020E+01 7.74064E-01 4.57417E-05 1.08496E+00-1.31330E-15-1.07424E-13
 -1       775 1.93078E+01 8.34618E-01 7.01739E-05 1.31697E+00-1.18424E-14-1.73958E-13
 -1       776 1.90765E+01 8.21037E-01 6.86324E-05 1.59208E+00 9.38860E-14-1.56712E-13
 -1       777 1.88326E+01 6.67739E-01 1.53578E-04 1.92904E+00 8.97873E-14-3.52272E-13
 -1       778 1.86348E+01 2.75931E-01 5.65065E-05 2.36216E+00 1.01937E-13-3.85954E-13
 -1       779 1.86498E+01-5.18122E-01-9.70463E-04 2.91428E+00 1.10370E-14-2.06289E-13
 -1       780 1.92039E+01-1.86092E+00 2.93062E-02 3.58449E+00 7.74537E-14-5.25773E-14
 -1       781 2.09524E+01-3.05601E+00 2.83767E-02-4.22957E+00 4.39851E-13 4.68351E-13
 -1       782 1.98621E+01-1.29804E+00 8.40047E-03-3.77416E+00 3.38876E-13 8.15582E-14
 -1       783 1.96202E+01-1.91542E-01 3.71566E-03-3.27929E+00 3.98343E-13-3.15527E-14
 -1       784 2.01708E+01 2.23844E-01 2.30601E-07-3.10763E-02 1.67197E-13-8.60865E-14
 -1       785 2.00428E+01-4.54580E-02-1.33268E-05-1.76006E-01 1.22603E-13-4.43247E-14
 -1       786 2.00628E+01-2.13118E-02-1.20437E-05-1.76419E-01 1.54750E-13-2.91538E-14
 -1       787 2.00197E+01-5.31115E-02-1.24178E-05-1.52751E-01 2.48245E-14-1.89214E-14
 -1       788 2.00142E+01-4.41349E-02-1.03454E-05-1.39483E-01 3.47550E-15 5.97894E-15
 -1       789 2.00116E+01-2.95461E-02-7.40400E-06-1.29441E-01 2.17828E-14 6.69385E-14
 -1       790 2.00111E+01-1.04620E-02-3.81033E-06-1.24913E-01 4.96252E-14 6.77999E-14
 -1       791 2.00123E+01 1.25663E-02 3.58889E-07-1.27778E-01-4.28898E-14 1.64311E-13
 -1       792 2.00148E+01 3.93416E-02 5.11138E-06-1.39700E-01-9.64893E-15 1.57280E-13
 -1       793 2.00183E+01 6.98064E-02 1.04906E-05-1.62244E-01 1.68747E-14 1.86098E-13
 -1       794 2.00227E+01 1.03800E-01 1.65306E-05-1.96924E-01 1.08079E-13 1.62723E-13
 -1       795 2.00281E+01 1.40756E-01 2.32045E-05-2.45160E-01 5.73236E-15 1.85798E-13
 -1       796 2.00350E+01 1.79322E-01 3.03550E-05-3.08146E-01-1.58005E-14 2.11099E-13
 -1       797 2.00445E+01 2.16847E-01 3.76011E-05-3.86609E-01-3.00798E-14 1.88447E-13
 -1       798 2.00584E+01 2.48736E-01 4.42115E-05-4.80426E-01-3.63272E-14 2.61163E-13
 -1       799 2.00807E+01 2.67660E-01 4.89191E-05-5.88090E-01 3.55413E-14 2.24503E-13
 -1       800 2.01176E+01 2.62683E-01 4.95447E-05-7.05959E-01 1.88380E-14 1.88088E-13
 -1       801 2.01796E+01 2.18505E-01 4.19582E-05-8.27220E-01 4.67730E-14 1.24549E-13
 -1       802 2.02832E+01 1.15312E-01 2.14352E-05-9.40399E-01 2.73353E-14 1.51065E-13
 -1       803 2.04521E+01-6.97730E-02-3.99340E-05-1.02720E+00-1.72245E-13 2.33524E-13
 -1       804 2.07186E+01-3.57768E-01-1.40886E-04-1.05930E+00-1.05813E-14 1.57964E-13
 -1       805 2.11194E+01-7.56146E-01-2.27380E-04-9.94086E-01-6.00365E-14-3.29024E-14
 -1       806 2.16848E+01-1.23555E+00-3.25875E-04-7.71311E-01-1.63011E-13-9.11339E-14
 -1       807 2.24110E+01-1.69088E+00-4.17242E-04-3.17498E-01-1.20186E-13 6.33042E-14
 -1       808 2.32185E+01-1.88915E+00-1.32587E-03 4.33557E-01-2.62015E-13 1.24518E-14
 -1       809 2.38875E+01-1.51247E+00-5.37084E-03 1.37393E+00-2.35854E-13 1.88989E-13
 -1       810 2.40925E+01-2.86547E-01-2.02309E-02 2.12744E+00 7.67825E-14 2.80646E-13
 -1       811 2.38452E+01 1.61327E+00-2.62864E-02 2.17474E+00 3.42957E-13 3.06774E-13
 -1       812 2.34628E+01 3.18328E+00-3.16445E-02 1.15052E+00 4.70052E-13 2.43398E-13
 -1       813 2.34054E+01 3.23915E+00-5.36476E-02-4.36083E-01 1.72149E-13-5.26393E-14
 -1       814 2.39352E+01-1.53173E+00-4.91116E-03-8.88457E-01 1.68043E-13-7.55689E-13
 -1       815 2.33188E+01-1.94647E+00-3.62543E-03 7.54130E-02-1.39507E-13-7.62079E-13
 -1       816 2.25085E+01-1.68503E+00-1.57081E-03 8.44665E-01-6.67068E-13-6.24094E-13
 -1       817 2.17421E+01-1.09359E+00-1.12213E-03 1.29131E+00-3.91576E-13-7.73366E-13
 -1       818 2.13035E+01-6.53584E-01-8.26107E-04 1.50849E+00-2.95842E-13-6.90548E-13
 -1       819 1.60457E+01 1.46359E+00 3.85918E-03 4.90359E-01 1.74310E-13 5.62942E-13
 -1       820 1.69482E+01 9.51888E-01 1.36495E-02 2.06816E+00 2.55515E-13-1.52575E-13
 -1       821 2.47441E+01 3.80648E+00-6.80675E-02 1.69170E+00 4.99038E-13 1.86324E-13
 -1       822 1.71991E+01-2.95440E+00 6.06941E-02 4.92945E+00 3.06404E-13 1.19916E-13
 -1       823 2.44672E+01-4.65678E+00 1.19691E-02-2.98622E+00 3.42436E-13 4.87260E-13
 -1       824 1.98297E+01-3.47396E+00 4.51805E-02 5.05970E+00-1.51451E-13 2.62850E-13
 -1       825 1.97630E+01-3.66551E+00 4.85239E-02-5.21185E+00 2.73203E-13 6.28301E-13
 -1       826 1.23134E+01 5.61884E-01 6.86371E-02 1.44663E+00-3.18490E-14 3.88516E-13
 -1       827 1.62546E+01 1.42172E+00 5.87715E-03-1.31330E+00 1.64949E-13 8.08413E-13
 -1       828 1.74983E+01 8.65899E-01 2.60133E-03-2.63885E+00 4.43222E-13 8.32813E-13
 -1       829 2.00289E+01-5.45575E-02-1.35057E-05-1.66268E-01 9.72466E-14-5.89728E-14
 -1       830 1.45034E+01-1.17974E+00 7.06775E-02-4.62037E+00 1.21008E-13 6.66587E-13
 -1       831 1.23712E+01-1.12885E+00 9.80067E-02 4.09348E+00 3.39119E-13-2.21954E-13
 -1       832 2.57593E+01-2.46130E+00-2.07757E-02 9.54944E-01-1.96949E-13 2.84169E-13
 -1       833 2.45008E+01 4.45432E+00-7.54777E-02-1.01360E-01 5.83162E-13-2.13117E-14
 -1       834 2.02777E+01 9.42733E-01 5.05793E-05 5.54157E-01 3.18915E-13-1.18537E-13
 -1       835 2.30294E+01-4.37995E+00 1.30475E-02-3.19659E+00-5.15164E-13 1.02160E-13
 -1       836 1.48922E+01-1.21302E+00 4.69985E-02 4.58215E+00-1.22652E-13 5.72806E-14
 -1       837 2.56708E+01 8.75588E-01-4.55744E-02 2.47855E+00 3.29882E-13 4.15142E-13
 -1       838 1.02344E+01 1.90172E-01 9.54692E-02-2.21724E+00 1.86830E-14-5.78516E-13
 -1       839 2.01402E+01 1.88794E+00-3.48462E-04 1.99244E-01 9.03859E-14-3.19085E-13
 -1       840 1.17631E+01 3.66850E-01 8.69526E-02-1.90174E+00 2.53199E-13 7.20663E-13
 -1       841 1.41843E+01-1.58505E+00 6.93768E-02-4.88928E+00-3.34895E-13-3.04711E-13
 -1       842 2.68236E+01-3.83203E+00-2.93450E-02 9.15121E-01-3.64335E-15-5.67810E-14
 -1       843 2.01279E+01 1.92577E+00-5.88870E-04 3.56937E-03-5.97308E-15-3.19769E-13
 -1       844 2.02227E+01 1.58089E+00 8.32926E-05 5.35722E-01 2.62022E-13-2.66060E-13
 -1       845 2.20283E+01-3.94652E+00 1.02015E-02 4.05349E+00-1.61887E-13 1.53816E-14
 -1       846 2.42086E+01-3.47718E+00 8.19736E-04-9.35488E-01-4.26971E-13 1.34110E-13
 -1       847 2.02161E+01 1.58902E+00-1.07605E-03-5.27018E-01-2.20699E-13-3.39000E-13
 -1       848 2.01725E+01 1.77475E+00-2.81626E-04 3.82078E-01 1.86827E-13-2.92181E-13
 -1       849 2.02202E+01 4.14425E-01 8.98816E-05 1.11907E-01 1.71459E-13-5.49230E-14
 -1       850 2.00902E+01 2.44695E-02-9.30445E-06-1.59877E-01 1.11305E-13-6.02176E-14
 -1       851 2.46601E+01-1.45254E-01-1.91003E-02-1.73503E+00 6.06615E-13-5.26481E-13
 -1       852 2.00347E+01-5.83884E-01 8.53723E-04 2.89376E+00-5.34117E-14-3.96790E-13
 -1       853 2.01695E+01 1.78125E+00-2.93140E-04-3.73625E-01-1.48497E-13-3.25029E-13
 -1       854 1.84955E+01 1.21086E-01 9.90096E-03 2.91104E+00-3.29370E-14-6.11390E-13
 -1       855 2.02494E+01 6.35997E-01-6.40005E-05 2.95747E-01 2.07432E-13-5.75782E-14
 -1       856 2.01262E+01 1.01489E-01-4.63311E-06-1.16018E-01 1.40803E-13-5.50084E-14
 -1       857 1.85083E+01 3.13806E-01 5.10784E-03-3.14034E+00 5.95756E-13 2.25816E-13
 -1       858 2.08958E+01-8.47697E-01 1.68568E-03 2.48109E+00-2.59510E-13-4.37540E-13
 -1       859 2.64731E+01-2.15670E+00-2.05123E-02-8.44077E-01 4.36254E-13-4.73791E-13
 -1       860 2.04893E+01-3.24192E+00 1.87778E-02-3.87467E+00-3.85884E-13 4.48633E-14
 -1       861 1.59780E+01-7.06223E-01 3.98998E-02 3.55055E+00 2.94400E-13-1.13147E-14
 -1       862 2.03396E+01 6.67799E-01 1.34775E-04-1.54102E-01-1.46125E-13-2.79542E-13
 -1       863 2.03335E+01 3.89685E-01 8.46271E-05-2.54746E-02-1.14412E-13-2.37595E-13
 -1       864 2.03062E+01 1.99407E-01-2.81805E-05 5.87469E-02-1.02657E-13-1.56523E-13
 -1       865 2.02695E+01 7.48037E-02-2.08224E-06 1.07938E-01-9.26211E-14-9.44060E-14
 -1       866 2.02302E+01-2.84338E-03-1.14321E-06 1.31883E-01-1.02010E-13-9.20494E-14
 -1       867 2.01922E+01-4.67263E-02-4.21847E-07 1.39119E-01-1.13043E-13-1.17599E-13
 -1       868 2.01574E+01-6.64860E-02-2.60155E-07 1.36378E-01-2.45223E-14-9.25341E-14
 -1       869 2.01266E+01-6.90015E-02-3.85463E-07 1.28804E-01-8.34778E-14-7.99924E-14
 -1       870 2.00996E+01-5.89970E-02-3.67935E-07 1.20254E-01-1.06357E-13-6.01472E-14
 -1       871 2.00758E+01-3.95142E-02-3.84080E-07 1.13631E-01-8.19823E-14-6.03338E-14
 -1       872 2.00542E+01-1.22778E-02-4.15474E-07 1.11184E-01 2.42898E-14-3.75909E-14
 -1       873 2.00334E+01 2.20153E-02-4.46149E-07 1.14754E-01-2.87901E-14 9.40641E-14
 -1       874 2.00116E+01 6.34626E-02-4.67393E-07 1.25958E-01-1.64683E-13 1.41483E-13
 -1       875 1.99866E+01 1.12758E-01-4.67482E-07 1.46313E-01-4.40239E-14 8.83240E-14
 -1       876 1.99558E+01 1.71009E-01-4.20954E-07 1.77300E-01 6.05065E-15-5.51618E-14
 -1       877 1.99156E+01 2.39542E-01-2.74864E-07 2.20381E-01 2.92073E-14-1.30877E-14
 -1       878 1.98620E+01 3.19670E-01 7.24915E-08 2.76949E-01 3.49412E-14-9.71416E-14
 -1       879 1.97896E+01 4.12366E-01 8.05748E-07 3.48251E-01-1.68754E-14-1.48036E-13
 -1       880 1.96916E+01 5.17793E-01 2.25166E-06 4.35296E-01-2.30896E-13-2.27051E-13
 -1       881 1.95597E+01 6.34585E-01 4.98348E-06 5.38846E-01-1.35440E-13-5.52414E-14
 -1       882 1.93836E+01 7.58774E-01 9.88802E-06 6.59635E-01-1.21785E-13 1.01036E-14
 -1       883 1.91513E+01 8.82184E-01 1.73220E-05 7.99134E-01-6.75963E-14-3.15026E-14
 -1       884 1.88487E+01 9.90138E-01 2.05548E-05 9.61348E-01-5.78202E-14-1.36618E-13
 -1       885 1.84609E+01 1.05825E+00-1.00353E-06 1.15664E+00 3.53310E-14-1.05625E-13
 -1       886 1.79731E+01 1.04737E+00-7.53134E-05 1.40877E+00 9.64380E-14-1.15663E-13
 -1       887 1.73744E+01 8.93665E-01-3.68904E-04 1.76954E+00 4.05698E-15-4.46357E-14
 -1       888 1.66901E+01 5.13648E-01 2.60401E-03 2.34063E+00 7.76726E-14-1.93389E-13
 -1       889 1.19027E+01 8.81318E-01 4.95081E-02-1.07510E-01 1.87027E-13-5.54404E-13
 -1       890 2.00616E+01-4.52523E-02-1.39132E-06-1.25286E-01-5.01944E-14 7.54767E-14
 -1       891 2.00800E+01-5.97339E-02-1.62575E-06-1.34599E-01-1.84068E-14 1.20598E-13
 -1       892 2.00320E+01 3.45917E-03-4.31399E-07-1.19952E-01-1.34156E-14 1.18554E-14
 -1       893 2.00188E+01 3.59928E-02 1.98289E-07-1.27786E-01-7.14730E-15-8.30861E-14
 -1       894 2.00053E+01 7.36263E-02 9.60800E-07-1.44854E-01 2.33531E-14-1.15216E-13
 -1       895 1.99902E+01 1.16260E-01 1.91016E-06-1.72766E-01-2.67957E-14-9.96316E-14
 -1       896 1.99724E+01 1.63537E-01 3.11853E-06-2.13142E-01-2.02536E-14 1.44080E-13
 -1       897 1.99512E+01 2.14440E-01 4.67939E-06-2.67603E-01 1.81256E-14 1.40074E-13
 -1       898 1.99261E+01 2.66773E-01 6.71579E-06-3.37687E-01 4.16019E-14 7.28278E-14
 -1       899 1.98976E+01 3.16496E-01 9.40063E-06-4.24717E-01-9.51590E-14 1.76088E-14
 -1       900 1.98677E+01 3.56903E-01 1.29942E-05-5.29588E-01 6.49222E-15 1.48581E-13
 -1       901 1.98411E+01 3.77635E-01 1.78480E-05-6.52473E-01 8.06408E-14 1.48467E-14
 -1       902 1.98266E+01 3.63612E-01 2.40050E-05-7.92380E-01 1.61526E-14 3.83519E-14
 -1       903 1.98394E+01 2.94060E-01 2.96698E-05-9.46385E-01-2.15243E-14 1.60383E-13
 -1       904 1.99040E+01 1.42224E-01 4.22140E-05-1.10808E+00-9.21751E-14 1.85127E-13
 -1       905 2.00577E+01-1.23148E-01-1.66575E-05-1.26461E+00 5.02206E-15-6.96411E-14
 -1       906 2.03539E+01-5.32509E-01 2.61252E-05-1.39054E+00 1.62065E-13-1.64429E-13
 -1       907 2.08599E+01-1.09960E+00 4.58244E-04-1.43572E+00-1.26332E-13-2.37846E-13
 -1       908 2.16495E+01-1.78991E+00 1.88021E-03-1.31098E+00-2.77103E-13-2.86021E-13
 -1       909 2.27354E+01-2.43619E+00 3.34118E-03-8.91593E-01-2.07736E-13-7.32118E-14
 -1       910 1.54705E+01 5.37813E-01 1.66140E-02-2.71717E+00 2.35675E-13 1.16638E-12
 -1       911 1.46937E+01 7.44170E-01 2.66680E-02 1.98334E+00 2.80415E-13 1.74125E-13
 -1       912 2.01383E+01 1.89074E+00-5.08180E-04-1.91074E-01-9.08407E-14-3.79315E-13
 -1       913 1.83216E+01-1.47812E+00 1.08947E-02 4.21634E+00 7.12833E-14-1.96505E-13
 -1       914 1.40889E+01 1.10283E+00 2.32592E-02-4.94319E-01 1.87073E-13 5.01130E-13
 -1       915 1.30705E+01 3.93127E-01 4.30913E-02 2.24955E+00 2.54751E-13-1.93076E-13
 -1       916 2.20697E+01-1.73962E+00 2.20341E-03 1.87665E+00-5.39928E-13-1.26319E-13
 -1       917 2.01593E+01-3.39744E-02-7.85732E-08-1.54380E-01 1.10300E-13-6.35969E-14
 -1       918 2.31603E+01-2.52346E+00 4.48571E-03 1.39096E+00-4.58445E-13-5.19665E-14
 -1       919 2.02974E+01 9.03186E-01-1.55432E-04 3.77788E-01 2.12753E-13-1.30403E-13
 -1       920 2.00459E+01-2.38003E-02-9.62285E-07-1.19711E-01 2.45069E-15 8.80249E-14
 -1       921 2.03108E+01 1.05875E+00 1.53373E-04-3.23714E-01-1.83918E-13-3.03572E-13
 -1       922 2.12296E+01-7.98521E-01 7.85782E-04 1.99036E+00-2.52082E-13-1.40374E-13
 -1       923 2.50385E+01-4.19450E+00-8.33650E-03 1.91390E+00-7.62741E-14 1.51333E-13
 -1       924 1.35303E+01 7.18728E-02 4.04626E-02-2.96870E+00-1.73743E-13-1.48669E-13
 -1       925 1.78169E+01-1.41408E+00 3.21844E-02-4.40510E+00-8.71742E-14 5.37812E-13
 -1       926 2.24294E+01-3.18413E+00 9.32263E-03-2.13893E+00-4.72726E-13 1.32370E-13
 -1       927 2.47493E+01-2.95118E+00 3.18363E-03 4.47803E-01-1.65332E-14-1.10518E-13
 -1       928 2.03010E+01 4.30456E-01-6.52307E-05 6.47364E-02 1.57904E-13-1.66874E-13
 -1       929 1.81325E+01-4.17434E-01 1.75440E-02-3.70381E+00 2.05522E-13 4.57895E-13
 -1       930 2.01944E+01 1.47600E-02-1.67764E-06-1.42462E-01 1.21150E-13-9.23130E-14
 -1       931 2.01021E+01-6.51689E-02-1.39316E-06-1.45039E-01 2.79096E-14 8.68814E-14
 -1       932 1.52428E+01-1.27086E-01 1.99235E-02-3.51606E+00 8.46814E-14 8.07668E-13
 -1       933 2.01031E+01-2.21571E+00 7.04457E-03 3.93683E+00-3.22910E-13-1.24613E-13
 -1       934 2.03033E+01 1.22462E+00 1.92650E-04-2.40495E-01-1.38650E-13-2.59624E-13
 -1       935 2.02781E+01 1.40450E+00 1.97688E-04 7.05511E-02 3.75161E-14-2.70577E-13
 -1       936 2.01284E+01-5.82420E-02-1.26536E-06-1.53175E-01 1.22920E-13 4.71191E-15
 -1       937 2.11741E+01-1.78598E+00-4.95855E-04 2.94021E+00-4.27365E-13-3.30264E-13
 -1       938 1.72580E+01-1.36215E+00 2.24911E-02-3.75289E+00-3.45382E-13 1.06255E-13
 -1       939 2.02864E+01 1.33705E+00-1.32640E-04 1.97944E-01 1.14945E-13-2.47921E-13
 -1       940 2.02702E+01 2.29902E-01 3.33631E-06-4.42583E-02 1.19116E-13-1.18796E-13
 -1       941 2.02324E+01 9.80436E-02-4.37314E-06-1.09212E-01 9.89687E-14-8.97510E-14
 -1       942 2.03835E+01 3.52144E-01 4.09991E-05 3.61807E-03-2.35693E-14-1.66357E-13
 -1       943 2.03601E+01 1.69432E-01-2.55138E-05 5.71707E-02-4.61796E-14-9.86273E-14
 -1       944 2.03233E+01 5.07069E-02-3.04712E-06 8.75959E-02-6.64087E-14-5.56296E-14
 -1       945 2.02809E+01-2.17645E-02-1.39988E-07 1.01552E-01-1.17758E-13 3.15962E-15
 -1       946 2.02375E+01-6.05013E-02 2.06103E-06 1.04802E-01-9.73685E-14-2.46320E-14
 -1       947 2.01960E+01-7.48513E-02 1.87942E-06 1.01964E-01-3.84035E-14-6.75538E-14
 -1       948 2.01576E+01-7.15321E-02 1.83783E-06 9.65829E-02-9.67214E-14-7.35094E-14
 -1       949 2.01222E+01-5.51177E-02 1.36481E-06 9.13418E-02-8.75706E-14-4.00802E-14
 -1       950 2.00892E+01-2.84690E-02 5.37842E-07 8.82851E-02 2.75786E-14 2.76392E-14
 -1       951 2.00573E+01 6.90056E-03-5.65659E-07 8.90144E-02 5.03108E-14 6.42442E-14
 -1       952 2.00243E+01 5.05188E-02-1.93276E-06 9.48403E-02-4.58514E-14 4.08401E-14
 -1       953 1.99879E+01 1.02694E-01-3.59289E-06 1.06885E-01-4.01044E-14 1.24149E-13
 -1       954 1.99448E+01 1.64276E-01-5.59788E-06 1.26133E-01-6.49744E-14 1.70647E-13
 -1       955 1.98913E+01 2.36428E-01-8.01267E-06 1.53423E-01 1.30371E-16 1.24273E-13
 -1       956 1.98227E+01 3.20365E-01-1.09155E-05 1.89390E-01-4.57942E-14 4.92323E-14
 -1       957 1.97331E+01 4.17050E-01-1.44133E-05 2.34357E-01-1.42516E-14-6.05754E-14
 -1       958 1.96155E+01 5.26802E-01-1.86742E-05 2.88198E-01-1.12228E-13-7.74076E-14
 -1       959 1.94611E+01 6.48781E-01-2.39303E-05 3.50234E-01-2.88750E-14 1.40287E-14
 -1       960 1.92588E+01 7.80309E-01-3.02255E-05 4.19255E-01-3.11219E-14 5.37295E-14
 -1       961 1.89949E+01 9.16015E-01-3.66493E-05 4.93891E-01-1.39098E-13 2.87476E-14
 -1       962 1.86515E+01 1.04676E+00-4.01466E-05 5.73659E-01-5.91488E-14 3.16832E-14
 -1       963 1.82048E+01 1.15845E+00-4.57510E-05 6.61028E-01-6.29491E-14 1.34492E-13
 -1       964 1.76209E+01 1.23103E+00-3.81712E-05 7.66072E-01 5.03364E-14 1.42952E-15
 -1       965 1.68475E+01 1.23538E+00-2.07091E-04 9.14236E-01 4.79484E-14-9.49377E-14
 -1       966 1.58048E+01 1.12006E+00 2.25033E-03 1.15205E+00 5.95691E-14-2.32452E-13
 -1       967 1.99771E+01 1.17290E-01-2.42049E-06-1.36688E-01-5.61178E-14-1.08317E-13
 -1       968 2.01160E+01-6.04241E-02 3.56213E-06-1.08379E-01 2.97398E-14 3.60359E-14
 -1       969 2.33734E+01-3.45575E+00 5.36279E-03 2.44990E+00-3.75775E-13-2.04039E-13
 -1       970 2.03043E+01 1.19940E+00-1.18880E-04 3.05328E-01 1.99497E-13-2.30191E-13
 -1       971 1.39160E+01 9.24846E-01 1.47288E-02-1.18978E+00 1.54839E-14-7.68743E-14
 -1       972 2.03695E+01 8.01382E-01 4.81251E-04-1.27025E-01-1.18599E-13-2.24907E-13
 -1       973 2.00072E+01 6.82874E-02-1.01216E-06-1.16780E-01 5.46501E-14-1.49181E-13
 -1       974 2.00344E+01 2.57236E-02 2.89998E-07-1.05555E-01 1.00365E-13-8.17597E-14
 -1       975 1.99421E+01 1.72602E-01-3.93138E-06-1.66883E-01-1.06593E-13-1.01127E-14
 -1       976 1.99001E+01 2.33667E-01-5.53316E-06-2.09115E-01 6.35098E-15-1.19075E-13
 -1       977 1.98492E+01 2.99011E-01-7.19505E-06-2.65326E-01 4.43564E-14-3.42509E-15
 -1       978 1.97882E+01 3.65622E-01-8.84777E-06-3.37687E-01-4.15785E-14 4.78759E-14
 -1       979 1.97167E+01 4.28192E-01-1.03484E-05-4.28648E-01-1.50907E-13-9.47691E-14
 -1       980 1.96364E+01 4.78179E-01-1.14704E-05-5.40997E-01 1.02750E-13-3.52444E-14
 -1       981 1.95519E+01 5.02705E-01-1.21838E-05-6.77960E-01 6.11069E-14 4.42715E-14
 -1       982 1.94729E+01 4.83323E-01-1.47224E-05-8.43270E-01 6.63422E-15-4.64401E-14
 -1       983 1.94168E+01 3.94664E-01-2.76751E-05-1.04101E+00 3.15635E-14-1.89873E-13
 -1       984 1.94137E+01 2.03403E-01 1.43320E-05-1.27412E+00 5.68013E-14-2.30765E-13
 -1       985 1.95101E+01-1.30557E-01-2.39286E-04-1.54105E+00 4.20158E-15-5.72077E-14
 -1       986 1.97802E+01-6.55051E-01-7.87977E-04-1.83197E+00 2.81187E-14 1.68128E-13
 -1       987 2.03564E+01-1.41464E+00 7.43232E-06-2.09617E+00 2.27537E-14 5.45442E-14
 -1       988 2.19972E+01-2.44160E+00-7.63242E-03 2.72501E+00-3.44467E-13-1.94011E-13
 -1       989 2.02933E+01 1.32461E+00-1.87183E-05-1.29688E-01-7.55855E-14-3.14069E-13
 -1       990 2.03053E+01 6.33556E-01-3.29894E-04 1.96255E-01 1.96381E-13-1.96071E-13
 -1       991 1.98241E+01-2.00950E+00 3.45529E-03-3.00314E+00-3.10337E-13 3.15879E-13
 -1       992 1.59341E+01 3.94423E-04 1.07842E-02-2.69318E+00-1.02072E-13 1.33398E-13
 -1       993 2.03887E+01 5.44187E-01-4.78464E-04-5.54755E-02-9.02044E-14-2.01896E-13
 -1       994 2.02832E+01 1.38393E+00 8.81941E-05-3.38262E-02-2.16643E-14-2.67626E-13
 -1       995 2.00872E+01-3.93674E-02 2.56126E-06-1.02994E-01-2.90130E-14 2.86028E-14
 -1       996 2.03724E+01 9.87375E-01 1.93462E-04 1.48207E-02 5.95766E-14-1.92071E-13
 -1       997 2.01478E+01-7.14598E-02 4.71820E-06-1.15570E-01 5.09597E-14 4.66742E-14
 -1       998 1.40828E+01 1.11507E+00 1.27122E-02 6.59584E-01 1.28496E-13-3.10803E-13
 -1       999 2.13157E+01-2.36260E+00-3.24133E-03-2.17868E+00-3.00018E-13-1.15532E-13
 -1      1000 2.03610E+01 4.07120E-01-7.31993E-05 2.30112E-02 1.05465E-13-1.67068E-13
 -1      1001 2.02218E+01-4.85272E-02 6.64583E-06-1.23992E-01 8.84326E-14-1.79655E-14
 -1      1002 2.02627E+01-2.37682E-03-1.30906E-05-1.17145E-01 8.25659E-14-2.57489E-14
 -1      1003 1.81740E+01-8.31493E-01-9.79785E-04-2.82639E+00-8.80582E-14 1.41526E-13
 -1      1004 2.00605E+01-1.03005E-02 1.48239E-06-1.01479E-01 5.51917E-14-5.83151E-14
 -1      1005 2.03712E+01 9.49283E-01 1.32479E-04 9.22377E-02 1.05113E-13-2.33705E-13
 -1      1006 2.03598E+01 6.95166E-01 7.09995E-04 1.38114E-01 1.26497E-13-1.68792E-13
 -1      1007 2.03848E+01 8.79155E-01 2.38844E-04-7.49364E-02-6.86641E-14-2.36855E-13
 -1      1008 2.04148E+01 2.90670E-01-2.23439E-06 1.67654E-02-1.25896E-15-1.38717E-13
 -1      1009 2.03890E+01 1.25439E-01-2.11725E-05 4.38689E-02-3.93791E-14-1.12908E-13
 -1      1010 2.03493E+01 1.99335E-02-3.20677E-06 5.86779E-02-6.96702E-14-1.30881E-13
 -1      1011 2.03034E+01-4.21094E-02-7.63744E-06 6.47560E-02-1.08633E-13-8.98188E-14
 -1      1012 2.02561E+01-7.20777E-02-3.28369E-06 6.53655E-02-7.03916E-14-5.19729E-14
 -1      1013 2.02101E+01-7.87602E-02-7.33084E-07 6.31233E-02-7.96885E-14-1.33964E-15
 -1      1014 2.01666E+01-6.83835E-02 3.48888E-07 6.00155E-02-5.32915E-14-6.73624E-15
 -1      1015 2.01255E+01-4.50712E-02-5.11470E-07 5.75519E-02-5.65697E-14 1.91479E-14
 -1      1016 2.00858E+01-1.12970E-02-2.81733E-06 5.68798E-02 1.80377E-14-4.19880E-14
 -1      1017 2.00456E+01 3.17551E-02-6.29139E-06 5.88788E-02-2.84569E-14-1.25375E-13
 -1      1018 2.00025E+01 8.38712E-02-1.08057E-05 6.42240E-02 3.50586E-14 5.48724E-14
 -1      1019 1.99532E+01 1.45519E-01-1.63219E-05 7.34080E-02-1.91934E-14 1.39153E-13
 -1      1020 1.98939E+01 2.17568E-01-2.28574E-05 8.67158E-02-1.05106E-13 9.29375E-14
 -1      1021 1.98200E+01 3.01007E-01-3.04759E-05 1.04148E-01-1.17717E-13-4.45169E-14
 -1      1022 1.97259E+01 3.96616E-01-3.93130E-05 1.25289E-01-7.03938E-14-5.71678E-14
 -1      1023 1.96049E+01 5.04595E-01-4.96508E-05 1.49127E-01-2.16035E-14-5.68374E-14
 -1      1024 1.94490E+01 6.24116E-01-6.20141E-05 1.73832E-01-7.27504E-14 7.47447E-14
 -1      1025 1.92483E+01 7.52814E-01-7.69703E-05 1.96555E-01-4.67340E-14 1.31167E-13
 -1      1026 1.89904E+01 8.86237E-01-9.32489E-05 2.13293E-01-1.45751E-13 5.44428E-14
 -1      1027 1.86589E+01 1.01735E+00-1.00576E-04 2.19000E-01-5.65078E-15 1.76697E-13
 -1      1028 1.82314E+01 1.13606E+00-1.03186E-04 2.08316E-01 1.17710E-14 7.59208E-14
 -1      1029 1.76779E+01 1.22778E+00 2.75734E-04 1.75272E-01-1.41692E-13 1.34460E-13
 -1      1030 1.69470E+01 1.28168E+00 1.46265E-03 1.17598E-01-1.44344E-13-1.24528E-13
 -1      1031 1.59473E+01 1.26286E+00 3.20905E-03 3.62518E-02-5.32744E-14-2.01920E-13
 -1      1032 1.98796E+01 2.35503E-01-1.99349E-05-1.41606E-01 6.19008E-15 4.21792E-14
 -1      1033 2.03795E+01 9.43716E-01 3.46643E-04-3.37961E-02-2.64540E-15-1.91470E-13
 -1      1034 1.51576E+01 1.22013E+00 4.90766E-03-2.79097E-01-5.86372E-15-2.48762E-13
 -1      1035 1.99811E+01 1.07424E-01-1.00120E-05-9.37772E-02-5.46754E-14 1.86047E-13
 -1      1036 2.00213E+01 5.49382E-02-5.67533E-06-8.17084E-02 6.22930E-14 1.33066E-13
 -1      1037 1.98124E+01 3.10301E-01-2.51293E-05-1.80852E-01 2.20581E-14 9.63190E-15
 -1      1038 1.97303E+01 3.90231E-01-3.00955E-05-2.33331E-01 1.47544E-14-9.12977E-14
 -1      1039 1.96306E+01 4.71708E-01-3.44302E-05-3.02073E-01 1.69682E-14-1.10616E-13
 -1      1040 1.95116E+01 5.48578E-01-3.77353E-05-3.91038E-01-9.51618E-14-2.07020E-13
 -1      1041 1.93734E+01 6.11177E-01-4.03369E-05-5.05511E-01-3.91039E-14-1.29850E-14
 -1      1042 1.92184E+01 6.45238E-01-4.67371E-05-6.52667E-01 6.39111E-14 4.11396E-14
 -1      1043 1.90537E+01 6.30621E-01-7.34005E-05-8.42331E-01 7.63289E-14-1.50652E-13
 -1      1044 1.88929E+01 5.39626E-01-2.49744E-04-1.08818E+00-1.21049E-13 1.90964E-14
 -1      1045 1.87656E+01 3.31621E-01-4.11445E-04-1.40705E+00-1.50535E-13 2.97588E-13
 -1      1046 1.87184E+01-3.66112E-02-1.34987E-03-1.81340E+00-9.19970E-14 2.14003E-13
 -1      1047 2.00582E+01 1.01582E-02-1.95632E-06-7.56423E-02 1.63234E-14 1.28946E-14
 -1      1048 2.01831E+01-6.91542E-02 5.74892E-06-1.21922E-01-6.95142E-16 6.54094E-14
 -1      1049 2.03382E+01 2.10253E-01-4.06915E-05-5.16175E-02 9.34522E-14-1.12968E-13
 -1      1050 1.99348E+01 1.67647E-01-1.48211E-05-1.13217E-01-8.55315E-14 7.97898E-14
 -1      1051 2.03973E+01 6.23015E-01-6.19513E-05 6.34758E-02 1.10893E-13-1.93499E-13
 -1      1052 1.60649E+01 7.03667E-01-1.96382E-04-1.65141E+00-6.21135E-14 1.26230E-13
 -1      1053 2.03031E+01 7.94272E-02-2.06642E-05-9.54962E-02 1.06323E-13-1.03481E-13
 -1      1054 2.01694E+01-7.25347E-02 3.79099E-06-8.05312E-02 1.95429E-14 4.57576E-14
 -1      1055 2.04214E+01 4.64371E-01 2.16132E-04-1.41845E-02-7.71024E-15-1.50011E-13
 -1      1056 2.04241E+01 6.49220E-01-4.48369E-05-4.64235E-04 3.15957E-14-1.13978E-13
 -1      1057 2.03627E+01 8.83758E-01-2.35541E-04 1.44052E-01 1.06400E-13-1.82786E-13
 -1      1058 1.75805E+01 6.30145E-02-1.23574E-03-2.14209E+00 2.62001E-14 6.12678E-14
 -1      1059 1.88599E+01-6.40380E-01 5.77548E-03-2.31575E+00 3.09475E-14 1.20523E-13
 -1      1060 2.04024E+01 3.57658E-01 1.45743E-04-4.64892E-03 5.98493E-14-1.55207E-13
 -1      1061 2.01306E+01-5.48492E-02 2.96265E-06-7.64211E-02 4.58746E-14 2.33724E-14
 -1      1062 2.00940E+01-2.67054E-02 9.87733E-07-7.43098E-02 3.06509E-14-8.30298E-14
 -1      1063 2.02552E+01-6.26092E-02 8.81257E-06-8.72417E-02 1.14385E-14 6.64364E-15
 -1      1064 2.03014E+01-2.35543E-02-3.40359E-05-8.47308E-02 7.01452E-14-1.97382E-14
 -1      1065 1.63300E+01 1.14295E+00 1.65934E-03-6.22775E-01-9.78558E-14 4.47158E-14
 -1      1066 2.02110E+01-7.67216E-02 3.81472E-06-8.48856E-02-1.49855E-14-4.04732E-14
 -1      1067 2.04076E+01 7.21138E-01 2.68974E-05 4.12708E-02 7.75015E-14-2.18790E-13
 -1      1068 2.03936E+01 7.54536E-02 5.14328E-06 1.82625E-02-6.49022E-14-1.03950E-13
 -1      1069 2.03504E+01-1.20447E-02 1.11761E-05 2.18239E-02-6.72404E-14-1.30249E-13
 -1      1070 2.03022E+01-5.97865E-02 2.02698E-05 2.31652E-02-1.46937E-14-5.86793E-14
 -1      1071 2.02526E+01-7.90276E-02 2.58732E-05 2.30679E-02-6.74779E-15-3.09073E-14
 -1      1072 2.02045E+01-7.71595E-02 2.05222E-05 2.22001E-02-3.73047E-14 1.38115E-14
 -1      1073 2.01586E+01-5.95630E-02 1.66181E-05 2.12537E-02-7.25622E-14 4.20440E-14
 -1      1074 2.01144E+01-2.97383E-02 1.36693E-05 2.06752E-02-4.87991E-14-2.00174E-15
 -1      1075 2.00704E+01 1.03407E-02 1.16331E-05 2.07607E-02-3.26781E-14-1.39711E-14
 -1      1076 2.00245E+01 5.98554E-02 1.03175E-05 2.16670E-02 5.74729E-14 1.91983E-14
 -1      1077 1.99737E+01 1.18808E-01 9.41267E-06 2.33952E-02 3.92170E-14-9.99570E-14
 -1      1078 1.99144E+01 1.87705E-01 8.48236E-06 2.57406E-02-3.18785E-14-1.52239E-13
 -1      1079 1.98424E+01 2.67232E-01 6.89915E-06 2.82031E-02-2.79650E-14-6.58675E-14
 -1      1080 1.97526E+01 3.57906E-01 3.72774E-06 2.98466E-02-7.31096E-14 5.28398E-14
 -1      1081 1.96393E+01 4.59677E-01-2.45850E-06 2.90999E-02-5.58037E-14 6.18029E-14
 -1      1082 1.94957E+01 5.71476E-01-1.38319E-05 2.34879E-02 3.94284E-14 2.11415E-14
 -1      1083 1.93139E+01 6.90700E-01-3.35146E-05 9.28725E-03-2.82215E-14 5.55467E-15
 -1      1084 1.90847E+01 8.12677E-01-6.50747E-05-1.89067E-02-4.74442E-14 1.26199E-13
 -1      1085 1.87962E+01 9.30159E-01-1.09010E-04-6.87380E-02 1.97121E-14 3.11205E-13
 -1      1086 1.84333E+01 1.03295E+00-1.50225E-04-1.50906E-01-1.13298E-13 3.40304E-13
 -1      1087 1.79741E+01 1.10936E+00 2.10087E-04-2.81601E-01-1.32260E-13 3.54896E-14
 -1      1088 1.74058E+01 1.13461E+00 7.59550E-04-4.68375E-01-2.13478E-13 1.36233E-15
 -1      1089 1.97172E+01 3.89423E-01 4.38806E-06-1.25633E-01 6.79495E-14-4.60913E-16
 -1      1090 2.04224E+01 6.11261E-01-2.22456E-04-1.90723E-02 6.42950E-15-1.29914E-13
 -1      1091 1.99454E+01 1.50793E-01 2.31115E-06-5.82787E-02 3.70724E-14 1.10842E-13
 -1      1092 1.98094E+01 3.01336E-01 3.13648E-06-9.49884E-02 3.76525E-14 3.30156E-14
 -1      1093 1.96030E+01 4.83898E-01 7.48150E-06-1.67984E-01-4.40543E-15 7.77615E-14
 -1      1094 1.94626E+01 5.80983E-01 1.43855E-05-2.25978E-01-3.34390E-14 8.21423E-14
 -1      1095 1.92917E+01 6.74303E-01 2.79850E-05-3.05132E-01-2.95148E-14-1.59882E-14
 -1      1096 1.90867E+01 7.54072E-01 5.01734E-05-4.13233E-01-1.45120E-14-2.21277E-13
 -1      1097 1.88449E+01 8.06160E-01 7.04892E-05-5.61315E-01 6.89540E-14-8.28657E-14
 -1      1098 1.85653E+01 8.10816E-01-3.93141E-05-7.65193E-01-1.18740E-13 8.50257E-14
 -1      1099 1.82590E+01 7.41974E-01-1.07226E-03-1.04466E+00-2.95387E-13 1.12269E-13
 -1      1100 1.79291E+01 5.51276E-01-1.93574E-03-1.43376E+00-6.20070E-14 2.44703E-14
 -1      1101 2.00432E+01 3.60668E-02 1.70998E-06-4.31176E-02 2.50378E-14 1.45693E-13
 -1      1102 1.98841E+01 2.21561E-01 2.62281E-06-7.32228E-02-3.82362E-14 1.68420E-14
 -1      1103 2.04339E+01 4.39366E-01-1.01071E-04 3.33590E-03 2.41559E-14-1.73775E-13
 -1      1104 1.99973E+01 8.90373E-02 2.00576E-06-4.86323E-02-4.74101E-14 1.16501E-13
 -1      1105 2.04257E+01 2.16139E-01-5.85953E-05 1.07784E-02-2.45806E-15-9.75322E-14
 -1      1106 2.00860E+01-8.18451E-03 1.54555E-06-4.07902E-02-1.40060E-14 1.49089E-13
 -1      1107 2.04370E+01 3.66122E-01-8.89751E-05 1.19836E-03 1.49213E-14-8.97643E-14
 -1      1108 2.01281E+01-4.32624E-02 1.70221E-06-4.08145E-02 1.93183E-14 6.86738E-14
 -1      1109 2.02646E+01-7.36981E-02 7.53607E-06-4.60686E-02 4.87327E-15-1.58964E-14
 -1      1110 2.03815E+01 1.72504E-01 2.95336E-05-4.78853E-02 6.03633E-14-1.27567E-13
 -1      1111 2.03136E+01-4.46659E-02 1.89144E-05-4.52405E-02 2.32166E-14-3.05826E-15
 -1      1112 2.03454E+01 5.11685E-02 2.44535E-05-7.29715E-02 2.64489E-14-8.89719E-14
 -1      1113 1.71942E+01 8.07314E-01 1.15200E-03-1.24831E+00-1.59506E-13 7.96523E-14
 -1      1114 2.01714E+01-6.78435E-02 2.35928E-06-4.23589E-02 3.88135E-14-9.96906E-14
 -1      1115 2.02168E+01-7.93757E-02 3.37208E-06-4.44904E-02-2.54290E-15-6.69298E-14
 -1      1116 2.03752E+01 2.65024E-02 1.81510E-05-1.72982E-02-2.89896E-14-9.58217E-14
 -1      1117 2.04306E+01 2.74242E-01 1.90352E-05-9.96952E-03 2.17360E-14-1.52574E-13
 -1      1118 2.04093E+01 1.25984E-01-3.07263E-05-1.71552E-02-4.28628E-14-1.23839E-13
 -1      1119 2.79633E+01 9.08665E+00 2.32536E+00-6.69848E+00-4.92939E-14 2.43694E-12
 -1      1120 2.05475E+01 6.22719E+00 2.09743E-01-3.90432E+00-3.38896E-14 6.18443E-13
 -1      1121 1.94342E+01 5.85287E+00 7.52892E-02-2.88828E+00-2.54519E-14-2.17684E-13
 -1      1122 1.90260E+01 5.72591E+00 6.03974E-02-2.23553E+00-1.84401E-14-6.30218E-13
 -1      1123 1.88397E+01 5.66918E+00 5.75522E-02-1.70193E+00-1.28699E-14-8.26097E-13
 -1      1124 1.87462E+01 5.64052E+00 5.55271E-02-1.23448E+00-8.16534E-15-9.23412E-13
 -1      1125 1.86972E+01 5.62530E+00 5.37650E-02-8.04620E-01-4.99904E-15-9.58329E-13
 -1      1126 1.86733E+01 5.61776E+00 5.25476E-02-3.93006E-01-1.28478E-15-9.63774E-13
 -1      1127 1.86665E+01 5.61559E+00 5.21583E-02 8.47474E-03 5.54027E-17-9.60667E-13
 -1      1128 1.86744E+01 5.61811E+00 5.26691E-02 4.10364E-01 4.50031E-15-9.48941E-13
 -1      1129 1.86994E+01 5.62605E+00 5.40531E-02 8.23340E-01 5.62181E-15-9.15998E-13
 -1      1130 1.87500E+01 5.64188E+00 5.62551E-02 1.25587E+00 9.81680E-15-8.49635E-13
 -1      1131 1.88451E+01 5.67107E+00 5.84582E-02 1.72773E+00 1.47937E-14-7.26031E-13
 -1      1132 1.90314E+01 5.72755E+00 6.03994E-02 2.26881E+00 1.90820E-14-5.09387E-13
 -1      1133 1.94310E+01 5.85006E+00 6.92041E-02 2.92892E+00 2.65760E-14-8.39398E-14
 -1      1134 2.04535E+01 6.18204E+00 1.53266E-01 3.87887E+00 3.05034E-14 7.54036E-13
 -1      1135 2.52175E+01 7.99443E+00 1.43045E+00 5.84661E+00 6.59472E-14 2.51374E-12
 -1      1136 2.88130E+01 3.61643E+00 1.27132E+00-4.21722E+00-2.32453E-13 3.62105E-12
 -1      1137 2.02276E+01-1.77760E-01-6.16354E-01-1.09907E-01-7.46625E-14 3.08026E-12
 -1      1138 1.88333E+01-9.63532E-02-2.36349E-01 6.25264E-02-3.40613E-14 2.25025E-12
 -1      1139 1.84990E+01-4.80513E-02-5.95835E-02 4.04989E-02-1.33669E-14 1.69360E-12
 -1      1140 1.84435E+01-2.46204E-02-1.52088E-02 2.67811E-02-1.64877E-14 1.27013E-12
 -1      1141 1.85248E+01-1.30445E-02-4.97588E-03 1.90589E-02-1.82200E-14 1.02204E-12
 -1      1142 1.86711E+01-6.59654E-03-1.45668E-03 1.41086E-02-1.49876E-14 7.52400E-13
 -1      1143 1.88429E+01-2.82805E-03 5.85864E-04 1.06686E-02-1.88433E-14 5.11074E-13
 -1      1144 1.90177E+01-6.00306E-04 1.90253E-03 8.11968E-03-3.57159E-15 3.78970E-13
 -1      1145 1.91826E+01 6.82822E-04 2.64036E-03 6.15225E-03-1.96950E-15 2.67848E-13
 -1      1146 1.93309E+01 1.36033E-03 2.93201E-03 4.60105E-03 1.19997E-15 1.31888E-13
 -1      1147 1.94599E+01 1.63858E-03 2.90715E-03 3.36778E-03-6.69419E-15 8.40677E-14
 -1      1148 1.95691E+01 1.64880E-03 2.66806E-03 2.38661E-03 1.61148E-15 2.19182E-15
 -1      1149 1.96600E+01 1.47528E-03 2.28518E-03 1.60944E-03-7.20508E-15-4.08961E-14
 -1      1150 1.97352E+01 1.17036E-03 1.80139E-03 9.99611E-04 5.99726E-16-2.72666E-15
 -1      1151 1.97980E+01 7.63034E-04 1.23711E-03 5.29475E-04-3.97693E-14-8.81761E-14
 -1      1152 1.98523E+01 2.64325E-04 5.94277E-04 1.79693E-04 4.91450E-15-2.22913E-13
 -1      1153 1.99027E+01-3.29126E-04-1.40948E-04-6.03574E-05 1.55544E-14-2.93351E-13
 -1      1154 1.99544E+01-1.03261E-03-9.96549E-04-1.91436E-04 3.05626E-15-4.88437E-13
 -1      1155 2.00136E+01-1.87152E-03-2.01385E-03-2.02451E-04-2.64627E-16-5.25635E-13
 -1      1156 2.00875E+01-2.87958E-03-3.24721E-03-6.73662E-05-3.76503E-14-3.92231E-13
 -1      1157 2.01849E+01-4.09651E-03-4.76359E-03 2.59455E-04 4.84714E-15-2.96668E-13
 -1      1158 2.03167E+01-5.56352E-03-6.64045E-03 8.50071E-04-1.82634E-15-2.97705E-13
 -1      1159 2.04962E+01-7.31414E-03-8.95865E-03 1.81249E-03-2.78122E-14-4.80180E-13
 -1      1160 2.07396E+01-9.35550E-03-1.17833E-02 3.30285E-03 3.54842E-14-6.32305E-13
 -1      1161 2.10667E+01-1.16313E-02-1.51176E-02 5.53795E-03 6.20359E-15-5.13907E-13
 -1      1162 2.15003E+01-1.39529E-02-1.88023E-02 8.79997E-03 5.78673E-14-4.00556E-13
 -1      1163 2.20653E+01-1.58776E-02-2.23112E-02 1.34109E-02-4.53869E-15-2.61041E-13
 -1      1164 2.27848E+01-1.65138E-02-2.43728E-02 1.96237E-02-1.33084E-14-3.08451E-13
 -1      1165 2.36711E+01-1.42544E-02-2.23697E-02 2.73236E-02-2.79351E-14-1.17482E-13
 -1      1166 2.47087E+01-6.53815E-03-1.16475E-02 3.53567E-02-3.64449E-15 2.11470E-13
 -1      1167 2.58235E+01 1.00164E-02 1.45102E-02 4.03072E-02-4.35766E-14 7.25323E-14
 -1      1168 2.68391E+01 3.82331E-02 6.21954E-02 3.49313E-02-1.54959E-14-6.36633E-13
 -1      1169 2.74351E+01 7.62569E-02 1.28534E-01 7.80110E-03 2.25792E-14-7.91645E-13
 -1      1170 2.71606E+01 1.10695E-01 1.87170E-01-5.15240E-02-1.93318E-14-1.12197E-12
 -1      1171 2.56035E+01 1.10639E-01 1.81197E-01-1.37192E-01 3.67094E-14-8.88289E-13
 -1      1172 2.27784E+01 4.19481E-02 5.49428E-02-2.07457E-01 2.01263E-14-5.45147E-13
 -1      1173 1.95316E+01-8.71249E-02-1.66942E-01-1.94136E-01 3.26041E-14-4.76813E-13
 -1      1174 1.73852E+01-1.90614E-01-3.37643E-01-6.83872E-02 1.81626E-14-5.93040E-13
 -1      1175 1.75172E+01-1.73525E-01-3.09665E-01 1.00805E-01 2.72872E-14-6.55878E-13
 -1      1176 1.97319E+01-5.24425E-02-1.08579E-01 2.00479E-01-4.97814E-14-1.39211E-12
 -1      1177 2.26419E+01 6.71480E-02 9.98251E-02 1.86869E-01-8.44819E-14-2.17412E-12
 -1      1178 2.48234E+01 1.17475E-01 1.95370E-01 1.05796E-01-1.01707E-14-1.86834E-12
 -1      1179 2.56463E+01 1.05391E-01 1.79923E-01 2.22901E-02-2.27127E-14-1.38837E-12
 -1      1180 2.52394E+01 6.64076E-02 1.13890E-01-3.18840E-02 6.14092E-16-9.61908E-13
 -1      1181 2.40620E+01 2.55410E-02 4.44636E-02-5.59081E-02 6.45252E-14-4.26686E-13
 -1      1182 2.25827E+01-8.38010E-03-1.26884E-02-5.92367E-02-2.66934E-14-3.22249E-13
 -1      1183 2.11836E+01-3.52657E-02-5.81423E-02-4.63105E-02 6.63315E-14-5.80508E-14
 -1      1184 2.02082E+01-5.88798E-02-7.79228E-02-1.07384E-02-3.39334E-14-3.91062E-13
 -1      1185 1.99451E+01 1.69090E-02 2.68563E-02 2.03034E-02 5.63187E-14-3.11647E-13
 -1      1186 2.77927E+01 5.25755E-01 3.77087E-01 1.96670E+00-4.69833E-14 3.96388E-12
 -1      1187 2.00852E+01-6.62407E-02-5.73625E-01 1.29475E-01 2.73774E-14 3.18365E-12
 -1      1188 1.89078E+01-4.06069E-02-1.93232E-01 1.94150E-02 1.50010E-14 2.45019E-12
 -1      1189 1.85278E+01-2.14210E-02-5.05620E-02 1.45841E-03 1.96167E-14 1.94875E-12
 -1      1190 1.84562E+01-1.24086E-02-1.34113E-02-4.07961E-03 1.24508E-14 1.54095E-12
 -1      1191 1.85312E+01-7.40199E-03-4.66316E-03-5.53602E-03 1.37749E-14 1.23393E-12
 -1      1192 1.86744E+01-4.32396E-03-1.92977E-03-5.72339E-03 2.44498E-15 1.06343E-12
 -1      1193 1.88446E+01-2.35187E-03-3.40313E-04-5.43921E-03-5.11944E-15 9.44328E-13
 -1      1194 1.90184E+01-1.08127E-03 7.79483E-04-4.93514E-03-5.17585E-15 8.43015E-13
 -1      1195 1.91828E+01-2.81314E-04 1.48695E-03-4.32430E-03 1.39450E-14 6.60701E-13
 -1      1196 1.93310E+01 1.92829E-04 1.84386E-03-3.67284E-03 1.33476E-14 5.68690E-13
 -1      1197 1.94600E+01 4.36581E-04 1.93444E-03-3.02171E-03 6.50933E-15 4.69573E-13
 -1      1198 1.95694E+01 5.13685E-04 1.83332E-03-2.39498E-03 3.46457E-14 2.99588E-13
 -1      1199 1.96607E+01 4.65946E-04 1.59441E-03-1.80475E-03-2.67971E-15 1.11163E-13
 -1      1200 1.97365E+01 3.19128E-04 1.25122E-03-1.25482E-03-3.67218E-15 5.97280E-14
 -1      1201 1.98001E+01 8.69212E-05 8.20133E-04-7.43681E-04 6.90755E-15-4.23969E-14
 -1      1202 1.98553E+01-2.26007E-04 3.03783E-04-2.67335E-04-6.37878E-15-1.84655E-13
 -1      1203 1.99069E+01-6.21224E-04-3.05632E-04 1.77973E-04-2.56565E-15-4.23682E-13
 -1      1204 1.99597E+01-1.10347E-03-1.02273E-03 5.92746E-04 2.69850E-14-6.16943E-13
 -1      1205 2.00195E+01-1.67673E-03-1.86434E-03 9.70763E-04-2.43028E-14-6.94023E-13
 -1      1206 2.00927E+01-2.33875E-03-2.84296E-03 1.29485E-03-1.70617E-14-2.85472E-13
 -1      1207 2.01866E+01-3.07307E-03-3.95681E-03 1.53163E-03-1.29544E-14-2.58948E-13
 -1      1208 2.03088E+01-3.83735E-03-5.17463E-03 1.62522E-03-1.98016E-14-4.47030E-13
 -1      1209 2.04678E+01-4.54701E-03-6.41255E-03 1.49018E-03 2.45273E-14-6.28590E-13
 -1      1210 2.06713E+01-5.05346E-03-7.50042E-03 1.00543E-03 1.09002E-14-6.65288E-13
 -1      1211 2.09259E+01-5.11849E-03-8.13609E-03 1.28112E-05 4.20611E-14-5.13062E-13
 -1      1212 2.12343E+01-4.39157E-03-7.83152E-03-1.67116E-03-1.57976E-14-3.53536E-13
 -1      1213 2.15922E+01-2.40743E-03-5.86857E-03-4.21534E-03 5.95048E-15-5.54204E-13
 -1      1214 2.19839E+01 1.36025E-03-1.31122E-03-7.68165E-03-1.33626E-14-6.59205E-13
 -1      1215 2.23761E+01 7.32994E-03 6.83081E-03-1.18527E-02-5.28630E-15-6.60975E-13
 -1      1216 2.27118E+01 1.54600E-02 1.91420E-02-1.59706E-02 7.80495E-15-5.67000E-13
 -1      1217 2.29071E+01 2.46985E-02 3.49184E-02-1.84544E-02 7.27686E-14-6.71946E-13
 -1      1218 2.28564E+01 3.24268E-02 5.09652E-02-1.68291E-02-2.46344E-14-3.39548E-13
 -1      1219 2.24536E+01 3.44558E-02 6.07843E-02-8.32397E-03-9.66978E-15-1.31544E-13
 -1      1220 2.16362E+01 2.64569E-02 5.56789E-02 8.42147E-03 1.38054E-14 5.82173E-14
 -1      1221 2.04454E+01 7.15425E-03 2.92989E-02 3.09201E-02-2.24833E-14-2.85189E-13
 -1      1222 1.90734E+01-1.85256E-02-1.56118E-02 5.14377E-02 5.41819E-15-5.25760E-13
 -1      1223 1.78481E+01-3.98392E-02-6.36128E-02 5.93890E-02 2.31681E-14-4.90614E-13
 -1      1224 1.71232E+01-4.64030E-02-9.24449E-02 4.78395E-02 4.92748E-15-6.08305E-13
 -1      1225 1.71106E+01-3.58226E-02-8.75141E-02 1.96186E-02 3.37655E-14-6.11455E-13
 -1      1226 1.77635E+01-1.50576E-02-5.25860E-02-1.33063E-02 3.86713E-15-6.85133E-13
 -1      1227 1.88012E+01 5.49663E-03-6.18644E-03-3.75722E-02-7.06654E-14-4.89130E-13
 -1      1228 1.98554E+01 1.84478E-02 3.13896E-02-4.60614E-02 1.12421E-14-9.96238E-13
 -1      1229 2.06319E+01 2.20325E-02 4.92378E-02-3.99233E-02 4.01588E-16-1.09012E-12
 -1      1230 2.09964E+01 1.80352E-02 4.75014E-02-2.51693E-02 2.64684E-14-8.73518E-13
 -1      1231 2.09697E+01 9.19090E-03 3.19346E-02-8.18031E-03 4.52780E-14-5.87448E-13
 -1      1232 2.06771E+01-1.98473E-03 8.98892E-03 6.29214E-03 4.79719E-14-6.24197E-13
 -1      1233 2.02962E+01-1.21044E-02-1.39674E-02 1.42348E-02 4.08733E-14-1.05371E-12
 -1      1234 2.00177E+01-1.35067E-02-2.10536E-02 9.38245E-03 7.58112E-14-1.34323E-12
 -1      1235 1.99760E+01 9.07612E-03 1.97495E-02-8.39767E-03 1.81411E-14-9.46358E-13
 -1      1236 2.00078E+01-2.54002E-02 1.70007E-02-8.61705E-03-1.03526E-12-1.19269E-14
 -1      1237 1.99790E+01 1.49689E-02-2.96525E-02-7.17423E-03-7.25516E-13 1.10336E-13
 -1      1238 1.99733E+01 3.22663E-01-3.99394E-02 7.75639E-03 8.79183E-13-4.77699E-15
 -1      1239 1.99726E+01 9.05735E-01-4.01672E-02 1.91035E-02 1.26835E-12-9.33485E-14
 -1      1240 1.99772E+01 1.75428E+00-3.38574E-02 3.03654E-02 1.76970E-13-1.56464E-13
 -1      1241 1.99882E+01 2.81835E+00-1.80598E-02 4.03005E-02-1.03997E-12-1.04615E-13
 -1      1242 2.00074E+01 4.00101E+00 8.44352E-03 4.53460E-02-2.14535E-12-5.40345E-14
 -1      1243 2.00309E+01 5.13514E+00 4.20291E-02 4.14530E-02-2.90195E-12-8.75281E-14
 -1      1244 2.00523E+01 5.98473E+00 7.29079E-02 2.69133E-02-2.10451E-12 1.57271E-13
 -1      1245 2.00641E+01 6.34179E+00 9.02728E-02 3.76058E-03-1.39374E-12 4.19231E-14
 -1      1246 2.00610E+01 6.08963E+00 8.70401E-02-2.23552E-02-1.30995E-12-1.26273E-13
 -1      1247 2.00459E+01 5.25962E+00 6.44752E-02-4.47005E-02-1.46986E-12 1.32728E-14
 -1      1248 2.00200E+01 4.00209E+00 2.81189E-02-5.73663E-02-1.75621E-12-1.43794E-13
 -1      1249 1.99914E+01 2.54186E+00-1.57102E-02-5.99199E-02-1.65638E-12 6.11983E-14
 -1      1250 1.99608E+01 1.15469E+00-6.48752E-02-5.58057E-02-5.69024E-13 1.86645E-13
 -1      1251 1.99374E+01 2.38450E-01-7.32632E-02 2.83262E-04 1.43587E-13-1.16722E-13
 -1      1252 2.00223E+01-4.99319E-02 2.91347E-02 1.38550E-02 3.48947E-13 9.68674E-14
 -1      1253-1.20077E+00-2.59198E+01-3.94418E+00-2.28413E+00 2.09560E-12 2.98081E-13
 -1      1254-1.92203E+00-1.71669E+01-3.27297E+00-4.37189E+00 2.80642E-12 9.29423E-13
 -1      1255-3.48327E-01-4.33136E+00-2.05144E+00-1.10950E+00 3.11795E-12 1.77869E-12
 -1      1256 7.46533E+00 6.70843E+00-4.13472E-01 6.98537E+00 3.21698E-12 2.86304E-12
 -1      1257 2.31266E+01 1.13568E+01 1.27734E+00 1.54187E+01 2.24709E-12 2.67031E-12
 -1      1258 4.31700E+01 9.32694E+00 2.80334E+00 1.85529E+01 1.08269E-12 1.85674E-12
 -1      1259 6.01866E+01 4.52641E+00 3.84352E+00 1.32273E+01 2.79665E-13 8.07354E-13
 -1      1260 6.78847E+01 1.71660E+00 4.25984E+00 1.66228E+00 3.51386E-14-4.95493E-13
 -1      1261 6.27024E+01 3.59906E+00 3.97590E+00-1.06872E+01 5.27411E-13-2.22267E-12
 -1      1262 4.65881E+01 8.31718E+00 2.99238E+00-1.77737E+01 1.47843E-12-3.41771E-12
 -1      1263 2.57889E+01 1.12600E+01 1.46506E+00-1.61012E+01 2.86937E-12-3.98881E-12
 -1      1264 9.23650E+00 7.73783E+00-2.55357E-01-8.39291E+00 3.63620E-12-3.45235E-12
 -1      1265 4.79554E-01-2.49501E+00-1.79223E+00-5.17692E-02 2.96940E-12-1.98241E-12
 -1      1266-1.71812E+00-1.52778E+01-3.00630E+00 4.13646E+00 2.06990E-12-8.44991E-13
 -1      1267-1.13472E+00-2.41716E+01-3.69508E+00 2.52387E+00 1.15258E-12-3.02380E-13
 -1      1268-1.07689E+00-2.56753E+01-3.81366E+00-1.75796E+00-1.26904E-12-3.33695E-13
 -1      1269-1.94105E+00-1.94002E+01-3.43306E+00-4.66576E+00-2.79310E-12-8.51819E-13
 -1      1270-1.37303E+00-7.65651E+00-2.46182E+00-2.77773E+00-3.16236E-12-1.68110E-12
 -1      1271 4.89434E+00 4.15224E+00-1.01402E+00 4.65923E+00-2.39475E-12-1.92690E-12
 -1      1272 1.95540E+01 1.02763E+01 7.20767E-01 1.36597E+01-1.36446E-12-1.70286E-12
 -1      1273 4.03383E+01 9.26860E+00 2.44833E+00 1.81290E+01-9.19265E-13-1.69242E-12
 -1      1274 6.01876E+01 4.68175E+00 3.93617E+00 1.37415E+01-1.55376E-13-2.38254E-13
 -1      1275 6.97357E+01 2.01709E+00 4.60879E+00 1.43578E+00-9.26551E-14 1.21031E-12
 -1      1276 6.42024E+01 4.22497E+00 4.36079E+00-1.17597E+01-7.56478E-13 3.08864E-12
 -1      1277 4.63277E+01 8.97509E+00 3.10600E+00-1.85715E+01-1.67999E-12 3.97704E-12
 -1      1278 2.46382E+01 1.13952E+01 1.31402E+00-1.60894E+01-2.51044E-12 3.48299E-12
 -1      1279 7.90724E+00 6.82025E+00-5.09352E-01-7.31430E+00-2.26419E-12 2.34079E-12
 -1      1280-4.23283E-01-4.49909E+00-2.13608E+00 1.27272E+00-1.80411E-12 9.49352E-13
 -1      1281-1.98026E+00-1.75499E+01-3.33343E+00 4.67255E+00-9.99645E-13 4.74398E-13
 -1      1282-1.11774E+00-2.61938E+01-3.96485E+00 2.35687E+00 2.66176E-13 1.71016E-13
 -1      1283 2.22667E+01 1.83818E+00-7.25901E-01-2.79080E+00-8.09353E-14 2.08594E-12
 -1      1284 2.03593E+01 4.69019E+00-4.86476E-02-3.30741E+00-2.69965E-13 2.27068E-13
 -1      1285 2.08667E+01 4.81068E+00-1.13389E-01-4.16160E+00-3.36009E-13 6.64836E-13
 -1      1286 1.95313E+01 4.99316E+00-1.96951E-02-2.65486E+00-2.83926E-13-4.01866E-13
 -1      1287 1.98296E+01 5.09008E+00 2.41129E-04-3.04594E+00-3.20230E-13-1.25677E-13
 -1      1288 2.05260E+01 3.95271E+00-2.59020E-02-3.07545E+00-4.81032E-13 2.08653E-13
 -1      1289 1.91840E+01 5.08437E+00-3.54727E-03-2.07122E+00-2.50114E-13-7.13932E-13
 -1      1290 1.93325E+01 5.13954E+00 1.05481E-02-2.36403E+00-2.78756E-13-5.75377E-13
 -1      1291 1.97531E+01 4.36580E+00-2.45201E-02-2.48974E+00-4.56267E-13-3.11209E-13
 -1      1292 1.90093E+01 5.13079E+00 3.28147E-03-1.56501E+00-1.89002E-13-8.72547E-13
 -1      1293 1.90869E+01 5.16034E+00 1.25444E-02-1.81509E+00-2.12629E-13-7.99076E-13
 -1      1294 1.93916E+01 4.55477E+00-2.00517E-02-1.93241E+00-3.79082E-13-5.73271E-13
 -1      1295 1.89157E+01 5.16071E+00 6.52254E-03-1.11736E+00-1.35441E-13-9.45955E-13
 -1      1296 1.89581E+01 5.17701E+00 1.26746E-02-1.33882E+00-1.54796E-13-9.11238E-13
 -1      1297 1.92059E+01 4.66146E+00-1.61265E-02-1.44487E+00-2.86811E-13-7.08784E-13
 -1      1298 1.88644E+01 5.18045E+00 8.19226E-03-6.94090E-01-8.39064E-14-9.72437E-13
 -1      1299 1.88873E+01 5.18926E+00 1.19618E-02-9.04351E-01-1.00911E-13-9.62092E-13
 -1      1300 1.91030E+01 4.72679E+00-1.40399E-02-1.00462E+00-1.97877E-13-7.78533E-13
 -1      1301 1.88406E+01 5.19235E+00 9.29379E-03-2.89285E-01-3.12664E-14-9.77761E-13
 -1      1302 1.88504E+01 5.19616E+00 1.10647E-02-4.91456E-01-4.88702E-14-9.75641E-13
 -1      1303 1.90475E+01 4.76562E+00-1.29357E-02-5.89023E-01-1.10688E-13-7.93841E-13
 -1      1304 1.88369E+01 5.19729E+00 1.02257E-02 1.08243E-01 1.77039E-14-9.69381E-13
 -1      1305 1.88366E+01 5.19716E+00 1.01544E-02-9.14843E-02 2.30360E-15-9.74588E-13
 -1      1306 1.90235E+01 4.78362E+00-1.24792E-02-1.89178E-01-2.15922E-14-8.02192E-13
 -1      1307 1.88522E+01 5.19581E+00 1.11625E-02 5.08795E-01 6.95151E-14-9.52365E-13
 -1      1308 1.88416E+01 5.19171E+00 9.23156E-03 3.06205E-01 5.16638E-14-9.62062E-13
 -1      1309 1.90243E+01 4.78299E+00-1.24951E-02 2.05842E-01 5.39893E-14-7.88411E-13
 -1      1310 1.88906E+01 5.18812E+00 1.20949E-02 9.23167E-01 1.13536E-13-9.15089E-13
 -1      1311 1.88669E+01 5.17911E+00 8.13956E-03 7.11943E-01 9.67542E-14-9.41018E-13
 -1      1312 1.90502E+01 4.76357E+00-1.29810E-02 6.06355E-01 1.37386E-13-7.68677E-13
 -1      1313 1.89624E+01 5.17511E+00 1.28993E-02 1.35647E+00 1.66183E-13-8.33186E-13
 -1      1314 1.89192E+01 5.15840E+00 6.45291E-03 1.13354E+00 1.47043E-13-8.81788E-13
 -1      1315 1.91075E+01 4.72315E+00-1.40031E-02 1.01977E+00 2.14372E-13-7.18384E-13
 -1      1316 1.90949E+01 5.15664E+00 1.28248E-02 1.84118E+00 2.39643E-13-7.00214E-13
 -1      1317 1.90155E+01 5.12632E+00 3.14594E-03 1.58836E+00 2.11493E-13-7.80818E-13
 -1      1318 1.92128E+01 4.65479E+00-1.61482E-02 1.46297E+00 3.10750E-13-6.29295E-13
 -1      1319 1.93434E+01 5.13339E+00 1.01659E-02 2.39829E+00 3.01800E-13-4.58945E-13
 -1      1320 1.91934E+01 5.07630E+00-4.37739E-03 2.10101E+00 2.70485E-13-6.07604E-13
 -1      1321 1.94052E+01 4.54237E+00-1.99868E-02 1.95870E+00 4.16825E-13-4.82565E-13
 -1      1322 1.98549E+01 5.09935E+00 6.04224E-03 3.08437E+00 3.46709E-13 5.07927E-15
 -1      1323 1.95430E+01 4.98437E+00-2.05466E-02 2.69702E+00 3.08198E-13-2.75432E-13
 -1      1324 1.97744E+01 4.34638E+00-2.45640E-02 2.52857E+00 4.94686E-13-1.99660E-13
 -1      1325 2.11027E+01 4.90695E+00 8.30347E-03 4.05433E+00 2.94181E-13 9.11743E-13
 -1      1326 2.03337E+01 4.73381E+00-4.79763E-02 3.41673E+00 2.87548E-13 3.57846E-13
 -1      1327 2.05640E+01 3.91592E+00-2.24166E-02 3.17888E+00 5.15463E-13 3.32651E-13
 -1      1328 2.72025E+01 3.20541E+00 9.29071E-01 4.58250E+00 1.44065E-13 2.63922E-12
 -1      1329 2.20196E+01 3.52217E+00-1.82006E-01 3.88531E+00 1.44440E-13 1.44096E-12
 -1      1330 2.21118E+01 2.56180E+00-3.25570E-02 3.45699E+00 4.78722E-13 1.15510E-12
 -1      1331 2.14264E+01 3.59598E-01-7.63534E-01 1.18405E+00 2.55247E-13 2.54086E-12
 -1      1332 2.20006E+01 1.31431E-01-4.00897E-01-1.28586E+00-2.65926E-13 2.16205E-12
 -1      1333 2.06778E+01 3.06719E-01-1.64852E-01-8.05877E-01-2.59473E-13 1.85177E-12
 -1      1334 2.00800E+01 1.53474E-01-7.35302E-02-4.02278E-01-2.12344E-13 1.70605E-12
 -1      1335 1.96100E+01 9.11648E-02-1.49349E-02-3.30125E-01-2.04697E-13 1.40071E-12
 -1      1336 2.09716E+01 3.69056E-01-1.04292E-01-1.27413E+00-4.54019E-13 1.05042E-12
 -1      1337 1.92525E+01 6.44846E-02 3.03154E-03-1.35551E-01-1.63461E-13 1.27748E-12
 -1      1338 1.90979E+01 4.12558E-02 1.32109E-02-1.17763E-01-1.55894E-13 1.04698E-12
 -1      1339 1.99206E+01 1.33881E-01-3.51458E-02-5.04330E-01-3.56801E-13 8.29694E-13
 -1      1340 1.89373E+01 3.15265E-02 1.32276E-02-2.82547E-02-1.14198E-13 9.39766E-13
 -1      1341 1.89176E+01 1.93869E-02 1.10412E-02-1.88731E-02-1.15737E-13 7.76382E-13
 -1      1342 1.94430E+01 5.54249E-02-8.53383E-03-1.70457E-01-2.69059E-13 5.90862E-13
 -1      1343 1.88613E+01 1.60002E-02 8.76594E-03 2.47622E-02-9.08984E-14 6.96380E-13
 -1      1344 1.89033E+01 9.06000E-03 6.42963E-03 2.93834E-02-1.05532E-13 5.72483E-13
 -1      1345 1.92336E+01 2.43901E-02-3.51540E-03-1.16393E-02-1.94911E-13 3.98805E-13
 -1      1346 1.89031E+01 7.83284E-03 4.67059E-03 5.05065E-02-8.71652E-14 5.37357E-13
 -1      1347 1.89730E+01 3.48265E-03 3.64203E-03 5.23834E-02-7.40163E-14 4.38071E-13
 -1      1348 1.91763E+01 1.01556E-02-2.21808E-03 6.69756E-02-1.78335E-13 2.84961E-13
 -1      1349 1.90022E+01 3.16469E-03 2.44618E-03 6.11344E-02-6.39914E-14 4.01299E-13
 -1      1350 1.90822E+01 3.15087E-04 2.21443E-03 6.13900E-02-6.42481E-14 3.05961E-13
 -1      1351 1.92019E+01 2.73142E-03-1.32067E-03 1.03702E-01-1.31182E-13 2.38176E-13
 -1      1352 1.91254E+01 4.26204E-04 1.33961E-03 6.30417E-02-4.99943E-14 2.92072E-13
 -1      1353 1.92057E+01-1.46897E-03 1.44601E-03 6.23508E-02-3.58013E-14 2.50879E-13
 -1      1354 1.92703E+01-1.34043E-03-5.57031E-04 1.16880E-01-1.09377E-13 2.04126E-13
 -1      1355 1.92539E+01-1.14596E-03 7.58915E-04 5.99599E-02-3.51616E-14 2.08002E-13
 -1      1356 1.93289E+01-2.39382E-03 9.81944E-04 5.87578E-02-5.27595E-14 1.70924E-13
 -1      1357 1.93579E+01-3.52595E-03-1.39034E-06 1.16505E-01-8.11562E-14 1.59852E-13
 -1      1358 1.93768E+01-1.97234E-03 4.27848E-04 5.42279E-02-5.68756E-14 1.26550E-13
 -1      1359 1.94438E+01-2.76362E-03 6.76881E-04 5.28034E-02-1.66010E-14 7.84364E-14
 -1      1360 1.94505E+01-4.55505E-03 3.44599E-04 1.08564E-01-8.39768E-14 1.15190E-13
 -1      1361 1.94884E+01-2.30749E-03 2.30564E-04 4.73680E-02-3.83725E-14 2.55852E-14
 -1      1362 1.95464E+01-2.76934E-03 4.70170E-04 4.59139E-02-4.47547E-14-1.99901E-14
 -1      1363 1.95400E+01-4.84434E-03 5.24137E-04 9.68584E-02-6.13502E-14-3.37805E-15
 -1      1364 1.95864E+01-2.31397E-03 1.14799E-04 4.03880E-02-1.86021E-14-1.85353E-14
 -1      1365 1.96354E+01-2.53444E-03 3.32065E-04 3.90327E-02-4.36748E-14-8.18670E-14
 -1      1366 1.96221E+01-4.65239E-03 5.83747E-04 8.38790E-02-6.68269E-14-6.17213E-14
 -1      1367 1.96705E+01-2.09694E-03 5.29154E-05 3.39629E-02 2.53072E-15-5.46423E-14
 -1      1368 1.97114E+01-2.13755E-03 2.45169E-04 3.27930E-02 2.10898E-14-4.48821E-14
 -1      1369 1.96951E+01-4.14409E-03 5.59547E-04 7.12845E-02-2.39759E-14-1.23130E-13
 -1      1370 1.97419E+01-1.72218E-03 2.81276E-05 2.85567E-02-4.18231E-15-4.86022E-14
 -1      1371 1.97762E+01-1.62505E-03 1.98221E-04 2.76330E-02-5.84161E-14-7.55079E-14
 -1      1372 1.97589E+01-3.42150E-03 4.76207E-04 6.02021E-02-2.64035E-14-4.23781E-14
 -1      1373 1.98030E+01-1.22637E-03 2.93645E-05 2.45096E-02-7.05169E-14-7.10813E-14
 -1      1374 1.98323E+01-1.01882E-03 1.83690E-04 2.38804E-02-6.65355E-14-1.25863E-13
 -1      1375 1.98148E+01-2.54070E-03 3.48958E-04 5.14340E-02-9.06776E-14-1.02105E-13
 -1      1376 1.98568E+01-6.23406E-04 4.89339E-05 2.21058E-02-4.03715E-14-1.34710E-13
 -1      1377 1.98832E+01-3.21274E-04 1.96569E-04 2.18167E-02-2.98676E-14-2.03043E-13
 -1      1378 1.98651E+01-1.52185E-03 1.85619E-04 4.56087E-02-7.66715E-14-7.07058E-14
 -1      1379 1.99072E+01 9.14971E-05 8.11448E-05 2.16272E-02-3.89045E-14-2.15004E-13
 -1      1380 1.99331E+01 4.81274E-04 2.33598E-04 2.17299E-02-1.81573E-14-2.79824E-13
 -1      1381 1.99126E+01-3.55602E-04-1.18692E-05 4.33000E-02-6.24825E-14-1.63262E-13
 -1      1382 1.99585E+01 9.39184E-04 1.21281E-04 2.33983E-02-4.46539E-14-3.50470E-13
 -1      1383 1.99867E+01 1.41629E-03 2.92607E-04 2.39583E-02-2.69058E-14-3.78797E-13
 -1      1384 1.99610E+01 9.92947E-04-2.46344E-04 4.51234E-02-7.06212E-14-2.66203E-13
 -1      1385 2.00160E+01 1.95492E-03 1.64636E-04 2.78260E-02 2.18034E-14-4.04849E-13
 -1      1386 2.00499E+01 2.52338E-03 3.71769E-04 2.89296E-02-2.62110E-14-3.84808E-13
 -1      1387 2.00146E+01 2.58191E-03-5.24614E-04 5.18182E-02-2.53882E-14-2.89210E-13
 -1      1388 2.00859E+01 3.18725E-03 2.05385E-04 3.54343E-02-1.05550E-14-3.81624E-13
 -1      1389 2.01294E+01 3.85272E-03 4.68543E-04 3.71949E-02-2.78942E-14-3.56577E-13
 -1      1390 2.00786E+01 4.49133E-03-8.56842E-04 6.43190E-02-3.62714E-14-3.17499E-13
 -1      1391 2.01757E+01 4.69676E-03 2.35053E-04 4.68958E-02 1.15786E-14-3.21936E-13
 -1      1392 2.02337E+01 5.46252E-03 5.77987E-04 4.94601E-02 2.53631E-14-2.56869E-13
 -1      1393 2.01593E+01 6.82195E-03-1.25596E-03 8.38184E-02 1.41732E-14-3.42151E-13
 -1      1394 2.02944E+01 6.55311E-03 2.40303E-04 6.30544E-02-2.00533E-14-2.98597E-13
 -1      1395 2.03728E+01 7.41340E-03 6.89991E-04 6.66074E-02-2.29402E-14-3.26603E-13
 -1      1396 2.02641E+01 9.69194E-03-1.73693E-03 1.11817E-01-2.18389E-14-3.08806E-13
 -1      1397 2.04529E+01 8.82772E-03 1.99713E-04 8.49319E-02-4.61007E-14-3.38862E-13
 -1      1398 2.05589E+01 9.75572E-03 7.84913E-04 8.96976E-02-3.55411E-14-4.23252E-13
 -1      1399 2.04019E+01 1.32272E-02-2.31536E-03 1.50143E-01-7.98704E-14-2.93111E-13
 -1      1400 2.06644E+01 1.15761E-02 7.94441E-05 1.13694E-01 2.11615E-14-4.97722E-13
 -1      1401 2.08068E+01 1.25019E-02 8.27265E-04 1.19927E-01-5.74584E-15-4.84218E-13
 -1      1402 2.05832E+01 1.75363E-02-3.00472E-03 2.00916E-01-1.07195E-14-3.12283E-13
 -1      1403 2.09441E+01 1.47989E-02-1.71446E-04 1.50527E-01-1.11976E-14-4.54276E-13
 -1      1404 2.11332E+01 1.55695E-02 7.58337E-04 1.58483E-01 3.26837E-14-3.90268E-13
 -1      1405 2.08201E+01 2.26515E-02-3.81044E-03 2.66373E-01 1.46628E-15-3.41586E-13
 -1      1406 2.13098E+01 1.83612E-02-6.22608E-04 1.96341E-01 7.51244E-14-3.85307E-13
 -1      1407 2.15567E+01 1.86705E-02 4.92410E-04 2.06199E-01 8.00597E-14-3.17240E-13
 -1      1408 2.11263E+01 2.84043E-02-4.71737E-03 3.48417E-01 5.98519E-14-2.70915E-13
 -1      1409 2.17796E+01 2.18362E-02-1.35083E-03 2.51116E-01 6.17826E-14-3.30585E-13
 -1      1410 2.20955E+01 2.11109E-02-6.97188E-05 2.62814E-01-2.17959E-14-3.18289E-13
 -1      1411 2.15157E+01 3.41753E-02-5.66367E-03 4.47647E-01 6.70653E-14-3.49488E-13
 -1      1412 2.23701E+01 2.42249E-02-2.39177E-03 3.12640E-01 1.64604E-14-2.85539E-13
 -1      1413 2.27624E+01 2.14596E-02-9.79685E-04 3.25538E-01 4.08089E-14-2.36311E-13
 -1      1414 2.20007E+01 3.84378E-02-6.48832E-03 5.61410E-01 5.96866E-14-3.19505E-13
 -1      1415 2.30896E+01 2.35098E-02-3.61213E-03 3.74240E-01 5.51356E-14-1.06855E-13
 -1      1416 2.35558E+01 1.70898E-02-2.08575E-03 3.86503E-01 7.99541E-14-6.77930E-15
 -1      1417 2.25882E+01 3.80106E-02-6.83285E-03 6.80281E-01 1.28072E-13-9.97596E-14
 -1      1418 2.39269E+01 1.60835E-02-4.45405E-03 4.21193E-01 5.58307E-14 5.57193E-14
 -1      1419 2.44434E+01 3.77915E-03-2.74613E-03 4.28802E-01-4.40126E-14 9.66692E-14
 -1      1420 2.32721E+01 2.70750E-02-5.98220E-03 7.82341E-01 1.10153E-13 5.54626E-14
 -1      1421 2.48331E+01-3.55312E-03-3.57474E-03 4.26199E-01-1.40937E-13 1.96360E-13
 -1      1422 2.53383E+01-2.39107E-02-1.54355E-03 4.21733E-01-1.51513E-13-7.77156E-16
 -1      1423 2.40223E+01-3.45044E-03-2.67919E-03 8.25441E-01-1.44727E-13 1.04279E-13
 -1      1424 2.56962E+01-4.15981E-02 1.22629E-03 3.46672E-01-1.73855E-13-7.67407E-14
 -1      1425 2.60719E+01-6.97658E-02 3.45626E-03 3.18850E-01-1.31447E-13-3.18558E-13
 -1      1426 2.47697E+01-6.41664E-02 4.85779E-03 7.40773E-01-3.09824E-13 6.60028E-14
 -1      1427 2.63159E+01-9.97351E-02 1.18287E-02 1.31827E-01-6.95503E-14-4.02458E-13
 -1      1428 2.63840E+01-1.28136E-01 1.30267E-02 6.85946E-02-1.39368E-14-4.97593E-13
 -1      1429 2.53898E+01-1.58915E-01 1.80384E-02 4.38456E-01-1.97838E-13 5.43411E-14
 -1      1430 2.64058E+01-1.63266E-01 2.64791E-02-2.46260E-01 1.20702E-14-5.27342E-13
 -1      1431 2.59719E+01-1.71473E-01 2.29052E-02-3.46344E-01 3.29650E-14-5.54126E-13
 -1      1432 2.56986E+01-2.66347E-01 3.52188E-02-1.53323E-01-5.84532E-14-2.10314E-14
 -1      1433 2.56716E+01-1.88108E-01 3.46559E-02-7.28074E-01 1.07057E-13-5.54674E-13
 -1      1434 2.46512E+01-1.46588E-01 2.15442E-02-8.35922E-01 9.07850E-14-4.53040E-13
 -1      1435 2.54839E+01-3.17259E-01 4.74853E-02-9.93522E-01 1.06290E-13 8.88022E-14
 -1      1436 2.40190E+01-1.10918E-01 2.05348E-02-1.10387E+00 9.46613E-14-3.99000E-13
 -1      1437 2.26127E+01-9.00825E-03-3.42395E-03-1.14964E+00-5.58581E-16-3.13055E-13
 -1      1438 2.46143E+01-2.11732E-01 3.64448E-02-1.80419E+00 1.45215E-13-1.31953E-13
 -1      1439 2.18353E+01 8.11742E-02-2.08607E-02-1.06852E+00-2.58821E-15-3.58977E-13
 -1      1440 2.05862E+01 1.97055E-01-4.64999E-02-9.84499E-01-2.50164E-14-3.62585E-13
 -1      1441 2.32364E+01 8.53072E-02-1.07590E-02-2.07011E+00 2.49705E-14-1.71238E-13
 -1      1442 2.00427E+01 2.74651E-01-6.44846E-02-4.85456E-01-1.55213E-13-4.10595E-13
 -1      1443 1.95731E+01 3.17489E-01-7.39487E-02-2.94209E-01-5.61044E-14-5.57447E-13
 -1      1444 2.19104E+01 4.24052E-01-7.48283E-02-1.37752E+00-1.76286E-13-4.30007E-13
 -1      1445 1.95796E+01 3.03362E-01-7.07463E-02 3.60344E-01-1.15033E-13-7.32445E-13
 -1      1446 2.01157E+01 2.35946E-01-5.67141E-02 5.33262E-01-2.38736E-13-1.01388E-12
 -1      1447 2.13679E+01 5.44223E-01-1.01823E-01 5.54145E-02-2.15196E-13-6.48306E-13
 -1      1448 2.06186E+01 1.45339E-01-3.55518E-02 9.38004E-01-2.09197E-13-1.08870E-12
 -1      1449 2.17947E+01 2.61926E-02-9.69124E-03 9.86557E-01-2.87602E-13-1.45926E-12
 -1      1450 2.18935E+01 3.47535E-01-6.14079E-02 1.36526E+00-3.76262E-13-9.34818E-13
 -1      1451 2.24283E+01-5.53704E-02 5.58286E-03 9.60980E-01-2.07427E-13-1.50346E-12
 -1      1452 2.35983E+01-1.43229E-01 2.64495E-02 8.91235E-01-5.49968E-14-1.68049E-12
 -1      1453 2.30351E+01-3.93322E-03 3.94897E-03 1.80338E+00-3.37825E-13-1.17102E-12
 -1      1454 2.40162E+01-1.65279E-01 2.45666E-02 5.68129E-01 1.99486E-13-1.43352E-12
 -1      1455 2.47091E+01-1.91217E-01 3.41902E-02 4.55627E-01 2.24593E-13-1.25373E-12
 -1      1456 2.40523E+01-2.60752E-01 4.27860E-02 1.34253E+00 1.63546E-13-9.39408E-13
 -1      1457 2.47796E+01-1.68818E-01 2.22968E-02 7.20381E-02 4.89192E-14-9.16375E-13
 -1      1458 2.48761E+01-1.51316E-01 2.34481E-02-2.23850E-02 1.90601E-13-7.78118E-13
 -1      1459 2.44825E+01-3.21748E-01 4.60610E-02 4.70610E-01 3.84720E-13-6.10897E-13
 -1      1460 2.46419E+01-1.16905E-01 1.24054E-02-3.12622E-01 2.16483E-13-7.29142E-13
 -1      1461 2.42719E+01-8.35914E-02 1.00706E-02-3.68017E-01 2.08021E-13-4.56683E-13
 -1      1462 2.42668E+01-2.47249E-01 3.12905E-02-3.37321E-01 3.45647E-13-3.67194E-13
 -1      1463 2.38470E+01-5.56144E-02 4.26041E-03-5.21180E-01 2.10086E-13-4.60972E-13
 -1      1464 2.32223E+01-2.24292E-02 9.23017E-04-5.40960E-01 1.85351E-13-2.24046E-13
 -1      1465 2.35781E+01-1.32676E-01 1.38459E-02-8.58263E-01 3.01337E-13-9.90943E-14
 -1      1466 2.27254E+01-3.47740E-03-8.35505E-04-5.70699E-01-7.91124E-14-1.47434E-13
 -1      1467 2.20443E+01 2.53289E-02-4.58848E-03-5.63406E-01-3.07883E-14-2.75738E-13
 -1      1468 2.26483E+01-2.91680E-02-2.33544E-04-1.06796E+00 1.06498E-13-2.16676E-13
 -1      1469 2.15743E+01 4.02488E-02-5.59790E-03-4.92978E-01 2.23827E-13-2.34812E-13
 -1      1470 2.10026E+01 6.55581E-02-7.96530E-03-4.62425E-01 1.29714E-13-9.22179E-15
 -1      1471 2.16863E+01 5.63200E-02-1.06398E-02-1.01450E+00 3.23886E-14-3.40821E-14
 -1      1472 2.06289E+01 8.58175E-02-9.30952E-03-3.03501E-01-1.09316E-13 1.65146E-14
 -1      1473 2.02988E+01 9.26845E-02-4.89124E-03-2.55041E-01-1.26108E-13-1.51806E-14
 -1      1474 2.08509E+01 1.39402E-01-1.69868E-02-7.45556E-01 1.17935E-13-1.13316E-13
 -1      1475 2.00214E+01 4.80474E-02-6.92757E-03-1.01649E-02-3.18014E-14 9.05786E-15
 -1      1476 2.01900E+01 1.82682E-01-1.19428E-02-2.56195E-01 5.08751E-15 6.85762E-14
 -1      1477 2.02587E+01 7.54771E-02-1.52099E-01 4.84020E-01 2.32089E-13 2.03563E-12
 -1      1478 2.15292E+01 2.16129E-01-2.29288E-01 7.21019E-01 2.01950E-13 2.39082E-12
 -1      1479 2.17278E+01 8.81792E-01-8.54634E-02 2.06515E+00 3.97439E-13 1.58154E-12
 -1      1480 1.93300E+01 3.23773E-02-2.13342E-02 1.86185E-01 1.66886E-13 1.57787E-12
 -1      1481 1.97509E+01 1.13613E-01-6.27041E-02 2.38192E-01 1.59296E-13 1.84623E-12
 -1      1482 2.03023E+01 1.87681E-01-5.51886E-02 7.86496E-01 3.46216E-13 1.24926E-12
 -1      1483 1.89478E+01 1.50994E-02 5.66686E-03 5.37043E-02 1.27111E-13 1.23913E-12
 -1      1484 1.90866E+01 5.16163E-02 9.75643E-04 8.00105E-02 1.23056E-13 1.43537E-12
 -1      1485 1.95568E+01 7.18303E-02-1.21529E-02 2.99334E-01 2.71696E-13 9.48566E-13
 -1      1486 1.88368E+01 7.11369E-03 6.97644E-03-8.76358E-03 1.08166E-13 9.80556E-13
 -1      1487 1.88517E+01 2.58471E-02 1.10872E-02 5.62676E-03 9.73765E-14 1.14161E-12
 -1      1488 1.92210E+01 3.10226E-02-2.46028E-03 8.38864E-02 1.99842E-13 7.37818E-13
 -1      1489 1.88622E+01 3.19991E-03 4.78377E-03-3.89789E-02 7.11276E-14 8.08079E-13
 -1      1490 1.88187E+01 1.37917E-02 8.51878E-03-3.08725E-02 5.99685E-14 9.19020E-13
 -1      1491 1.91039E+01 1.32465E-02-1.61477E-03-2.10334E-02 1.47952E-13 6.06574E-13
 -1      1492 1.89555E+01 1.04332E-03 3.29601E-03-5.23645E-02 2.77280E-14 7.10891E-13
 -1      1493 1.88855E+01 7.26024E-03 5.36665E-03-4.79079E-02 3.82037E-14 7.85516E-13
 -1      1494 1.91045E+01 4.51806E-03-1.62862E-03-7.24455E-02 8.59139E-14 5.14193E-13
 -1      1495 1.90789E+01-2.01294E-04 2.51422E-03-5.62741E-02 3.09803E-14 6.37420E-13
 -1      1496 1.89993E+01 3.42750E-03 3.43135E-03-5.40763E-02 2.42715E-14 6.86141E-13
 -1      1497 1.91666E+01-1.32276E-04-1.37166E-03-9.50058E-02 6.47862E-14 4.51653E-13
 -1      1498 1.92107E+01-9.00478E-04 2.04880E-03-5.47539E-02 4.80322E-14 5.25895E-13
 -1      1499 1.91311E+01 1.10261E-03 2.33072E-03-5.39735E-02 3.15407E-14 5.86940E-13
 -1      1500 1.92578E+01-2.64009E-03-9.95719E-04-1.01140E-01 8.52164E-14 3.65718E-13
 -1      1501 1.93383E+01-1.24879E-03 1.70273E-03-5.02584E-02 3.91910E-14 4.13261E-13
 -1      1502 1.92640E+01-2.89496E-04 1.65449E-03-5.03488E-02 4.37393E-14 4.81141E-13
 -1      1503 1.93592E+01-3.88844E-03-6.54575E-04-9.78817E-02 9.41948E-14 3.00666E-13
 -1      1504 1.94552E+01-1.36469E-03 1.40936E-03-4.43547E-02 4.95251E-14 3.93627E-13
 -1      1505 1.93889E+01-1.07008E-03 1.19708E-03-4.49479E-02 4.22579E-14 4.14947E-13
 -1      1506 1.94597E+01-4.35363E-03-3.94605E-04-8.95438E-02 5.78957E-14 2.38730E-13
 -1      1507 1.95583E+01-1.32513E-03 1.15031E-03-3.80691E-02 7.87353E-14 2.90128E-13
 -1      1508 1.95009E+01-1.43698E-03 8.69501E-04-3.89117E-02 4.05629E-14 3.44851E-13
 -1      1509 1.95533E+01-4.32088E-03-2.13446E-04-7.88983E-02 7.43676E-14 2.37870E-13
 -1      1510 1.96470E+01-1.18070E-03 9.20313E-04-3.20819E-02 4.32711E-14 1.68878E-13
 -1      1511 1.95985E+01-1.51834E-03 6.30361E-04-3.29963E-02 6.51470E-14 2.36542E-13
 -1      1512 1.96370E+01-3.97066E-03-9.75217E-05-6.77700E-02 1.12103E-13 1.76859E-13
 -1      1513 1.97223E+01-9.63560E-04 7.16364E-04-2.68504E-02 4.90947E-14 7.65209E-14
 -1      1514 1.96817E+01-1.39783E-03 4.56628E-04-2.77088E-02 4.06596E-14 1.26156E-13
 -1      1515 1.97102E+01-3.41837E-03-3.44750E-05-5.73787E-02 9.06091E-14 1.56984E-13
 -1      1516 1.97864E+01-6.92365E-04 5.35047E-04-2.26935E-02 2.41738E-14-7.41356E-15
 -1      1517 1.97524E+01-1.12817E-03 3.33288E-04-2.33992E-02 3.47597E-14 3.97342E-14
 -1      1518 1.97738E+01-2.73510E-03-1.57132E-05-4.85582E-02 7.84600E-14 1.90952E-14
 -1      1519 1.98422E+01-3.75627E-04 3.72004E-04-1.98521E-02 2.09945E-14-9.84186E-14
 -1      1520 1.98130E+01-7.39314E-04 2.49589E-04-2.03257E-02 3.83462E-14-3.41835E-14
 -1      1521 1.98295E+01-1.96009E-03-3.64006E-05-4.19066E-02 7.16065E-14-7.39053E-14
 -1      1522 1.98933E+01-1.44938E-05 2.21985E-04-1.85341E-02 2.95199E-14-2.90210E-13
 -1      1523 1.98669E+01-2.44193E-04 1.97391E-04-1.87027E-02 4.69218E-14-2.02679E-13
 -1      1524 1.98801E+01-1.10933E-03-9.50190E-05-3.78954E-02 9.12814E-14-1.90125E-13
 -1      1525 1.99440E+01 3.94678E-04 7.90877E-05-1.89458E-02 6.50087E-14-4.24814E-13
 -1      1526 1.99180E+01 3.56665E-04 1.70232E-04-1.87344E-02 3.72034E-14-3.18694E-13
 -1      1527 1.99288E+01-1.82378E-04-1.92876E-04-3.69473E-02 7.64098E-14-2.96115E-13
 -1      1528 1.99989E+01 8.57514E-04-6.28934E-05-2.13107E-02 1.81198E-14-4.94205E-13
 -1      1529 1.99707E+01 1.07059E-03 1.62645E-04-2.06365E-02 7.56343E-14-3.73355E-13
 -1      1530 1.99795E+01 8.31198E-04-3.33509E-04-3.94873E-02 1.31039E-13-2.42578E-13
 -1      1531 2.00634E+01 1.37813E-03-2.09941E-04-2.58741E-02-1.39165E-13-3.94357E-13
 -1      1532 2.00302E+01 1.90756E-03 1.69562E-04-2.46440E-02-8.00260E-14-4.73075E-13
 -1      1533 2.00366E+01 1.94492E-03-5.21838E-04-4.59686E-02-7.27723E-14-2.24268E-13
 -1      1534 2.01437E+01 1.95432E-03-3.66978E-04-3.28900E-02-2.04522E-14-2.47233E-13
 -1      1535 2.01020E+01 2.87322E-03 1.85707E-04-3.10022E-02-9.32530E-14-3.68572E-13
 -1      1536 2.01051E+01 3.16681E-03-7.62810E-04-5.68667E-02-1.52899E-13-3.34979E-13
 -1      1537 2.02462E+01 2.57075E-03-5.36440E-04-4.25833E-02 3.95000E-14-2.33971E-13
 -1      1538 2.01924E+01 3.95904E-03 2.04980E-04-3.99355E-02 2.09828E-14-2.16587E-13
 -1      1539 2.01905E+01 4.48765E-03-1.05921E-03-7.26337E-02-4.55504E-14-2.44688E-13
 -1      1540 2.03781E+01 3.18909E-03-7.15793E-04-5.50769E-02 4.28368E-14-4.55382E-13
 -1      1541 2.03083E+01 5.12778E-03 2.19938E-04-5.15835E-02 2.94213E-14-3.35395E-13
 -1      1542 2.02987E+01 5.86435E-03-1.40805E-03-9.35971E-02 1.04673E-13-2.20631E-13
 -1      1543 2.05462E+01 3.73416E-03-8.93221E-04-7.02680E-02 1.04409E-13-5.55675E-13
 -1      1544 2.04564E+01 6.29238E-03 2.21647E-04-6.58931E-02 7.08404E-14-4.81842E-13
 -1      1545 2.04355E+01 7.19596E-03-1.79489E-03-1.19780E-01 1.15265E-13-3.92582E-13
 -1      1546 2.07564E+01 4.07556E-03-1.04041E-03-8.76367E-02-4.93623E-14-4.60956E-13
 -1      1547 2.06433E+01 7.28634E-03 2.00571E-04-8.24479E-02-3.07004E-14-5.28832E-13
 -1      1548 2.06063E+01 8.29021E-03-2.18498E-03-1.50612E-01 7.51938E-15-4.05317E-13
 -1      1549 2.10122E+01 4.00568E-03-1.10124E-03-1.05965E-01-3.51524E-14-3.59459E-13
 -1      1550 2.08738E+01 7.82524E-03 1.49627E-04-1.00217E-01-2.26139E-14-4.06856E-13
 -1      1551 2.08151E+01 8.81944E-03-2.51041E-03-1.84499E-01-9.23114E-14-2.83886E-13
 -1      1552 2.13125E+01 3.21985E-03-9.76029E-04-1.22962E-01-1.48272E-14-2.83561E-13
 -1      1553 2.11492E+01 7.46372E-03 7.10710E-05-1.17215E-01-2.00600E-14-3.24046E-13
 -1      1554 2.10627E+01 8.26996E-03-2.65307E-03-2.18225E-01-6.20914E-14-2.21524E-13
 -1      1555 2.16477E+01 1.31282E-03-5.04873E-04-1.34815E-01 8.74822E-14-4.80382E-13
 -1      1556 2.14647E+01 5.56383E-03-1.12312E-05-1.30089E-01 9.01270E-14-3.51835E-13
 -1      1557 2.13448E+01 5.90031E-03-2.42647E-03-2.46205E-01 1.31732E-13-3.02647E-13
 -1      1558 2.19963E+01-2.17658E-03 5.37201E-04-1.35798E-01-2.35064E-14-5.78410E-13
 -1      1559 2.18059E+01 1.31345E-03-3.49344E-05-1.33729E-01-6.13154E-15-5.58321E-13
 -1      1560 2.16488E+01 7.50192E-04-1.56599E-03-2.59715E-01 5.23346E-14-3.93104E-13
 -1      1561 2.23197E+01-7.61827E-03 2.40186E-03-1.18216E-01 1.28341E-14-5.08159E-13
 -1      1562 2.21439E+01-6.12923E-03 1.13885E-04-1.21136E-01-7.45758E-14-5.89777E-13
 -1      1563 2.19505E+01-8.21543E-03 2.48449E-04-2.46460E-01-4.29515E-14-4.79839E-13
 -1      1564 2.25588E+01-1.49704E-02 5.23316E-03-7.32535E-02-1.26500E-14-4.48843E-13
 -1      1565 2.24318E+01-1.72498E-02 5.87111E-04-8.40220E-02 2.59480E-14-4.55939E-13
 -1      1566 2.22114E+01-2.16859E-02 3.29526E-03-1.91227E-01-2.32861E-14-4.50143E-13
 -1      1567 2.26356E+01-2.32554E-02 8.78823E-03 6.42521E-03-1.30188E-13-3.46838E-13
 -1      1568 2.26029E+01-3.14454E-02 1.49493E-03-1.48713E-02-8.66854E-14-4.75633E-13
 -1      1569 2.23770E+01-3.91473E-02 7.59093E-03-7.88698E-02-8.96262E-14-2.86042E-13
 -1      1570 2.24640E+01-2.99696E-02 1.20448E-02 1.21595E-01 3.01846E-14-1.64922E-13
 -1      1571 2.25761E+01-4.60046E-02 2.73302E-03 8.87806E-02-4.39726E-14-2.48884E-13
 -1      1572 2.23818E+01-5.75834E-02 1.25427E-02 9.89112E-02-1.24355E-13-1.46508E-13
 -1      1573 2.19760E+01-3.09667E-02 1.29471E-02 2.59283E-01-3.86188E-14-1.24796E-13
 -1      1574 2.22722E+01-5.53513E-02 3.73639E-03 2.17926E-01-8.13238E-15-1.50636E-13
 -1      1575 2.21619E+01-7.01897E-02 1.66399E-02 3.32518E-01-2.20492E-14-2.32052E-13
 -1      1576 2.11625E+01-2.17910E-02 8.87044E-03 3.86992E-01-2.98602E-14 8.19483E-15
 -1      1577 2.16470E+01-5.18460E-02 3.36544E-03 3.45987E-01 1.37199E-14 2.44665E-14
 -1      1578 2.16806E+01-6.67677E-02 1.74881E-02 5.82170E-01-7.66566E-14-1.08261E-13
 -1      1579 2.01167E+01-9.07395E-04-1.54992E-03 4.55659E-01 6.55071E-14-1.33608E-13
 -1      1580 2.07326E+01-2.94866E-02 4.02842E-04 4.29212E-01 4.50033E-14-2.37033E-14
 -1      1581 2.09620E+01-3.77391E-02 1.29009E-02 7.73997E-01 6.09326E-14 7.88779E-14
 -1      1582 1.90493E+01 2.65943E-02-1.60983E-02 4.18404E-01 2.58712E-14-3.23325E-13
 -1      1583 1.96710E+01 1.00832E-02-5.24947E-03 4.20628E-01 3.04687E-14-2.66231E-13
 -1      1584 2.01179E+01 1.76456E-02 2.86668E-03 8.18029E-01 1.17463E-13-5.65797E-14
 -1      1585 1.82400E+01 4.89232E-02-2.83002E-02 2.61611E-01 1.53471E-14-3.66554E-13
 -1      1586 1.87031E+01 5.37740E-02-1.15161E-02 2.97476E-01-3.65333E-15-3.67990E-13
 -1      1587 1.93414E+01 8.35669E-02-9.14875E-03 6.53272E-01 3.44984E-14-2.31723E-13
 -1      1588 1.79250E+01 5.40540E-02-3.08222E-02 2.71852E-02-3.05294E-14-3.89361E-13
 -1      1589 1.80937E+01 8.15677E-02-1.47297E-02 8.62427E-02 5.23227E-14-3.94950E-13
 -1      1590 1.88464E+01 1.30236E-01-1.75247E-02 2.99473E-01 5.77541E-14-3.66087E-13
 -1      1591 1.81752E+01 3.88933E-02-2.13206E-02-1.99741E-01 4.11927E-14-4.17853E-13
 -1      1592 1.80123E+01 7.93719E-02-1.22484E-02-1.39826E-01 1.66377E-14-4.74228E-13
 -1      1593 1.87700E+01 1.30848E-01-1.87187E-02-1.29472E-01 2.21836E-14-3.67993E-13
 -1      1594 1.88550E+01 1.20061E-02-4.53010E-03-3.37763E-01-4.04390E-14-4.01602E-13
 -1      1595 1.84432E+01 4.96916E-02-4.83600E-03-2.98332E-01-1.80090E-14-4.86163E-13
 -1      1596 1.90984E+01 8.35314E-02-1.32661E-02-4.77354E-01-1.72666E-14-2.06469E-13
 -1      1597 1.96954E+01-1.35311E-02 1.12946E-02-3.52574E-01 1.04770E-13-5.88175E-13
 -1      1598 1.91932E+01 8.71951E-03 3.80344E-03-3.43067E-01 6.43997E-14-4.49557E-13
 -1      1599 1.96746E+01 1.28499E-02-4.92211E-03-6.32086E-01 1.21498E-13-3.76038E-13
 -1      1600 2.04237E+01-2.83927E-02 1.99115E-02-2.65458E-01-9.83653E-14-8.86919E-13
 -1      1601 1.99901E+01-2.53224E-02 9.70352E-03-2.81416E-01 1.18430E-14-7.24799E-13
 -1      1602 2.02809E+01-4.85628E-02 2.23366E-03-5.76094E-01 1.27614E-13-5.41206E-13
 -1      1603 2.08663E+01-3.07650E-02 2.03246E-02-1.29169E-01 2.84208E-14-7.01252E-13
 -1      1604 2.06014E+01-4.24362E-02 1.11618E-02-1.58379E-01-1.12176E-14-8.30624E-13
 -1      1605 2.07348E+01-8.00069E-02 6.18398E-03-3.74924E-01-5.95227E-14-4.42097E-13
 -1      1606 2.09797E+01-2.38479E-02 1.50260E-02 3.47461E-03-7.76957E-14-5.85840E-13
 -1      1607 2.09075E+01-4.23410E-02 9.04324E-03-2.65006E-02-5.61200E-14-7.72910E-13
 -1      1608 2.09446E+01-7.99092E-02 6.85616E-03-1.25789E-01-1.28751E-14-4.19350E-13
 -1      1609 2.08249E+01-1.19000E-02 7.06297E-03 9.64179E-02-2.78479E-14-3.85606E-13
 -1      1610 2.09082E+01-2.98638E-02 5.14209E-03 7.46598E-02 2.33659E-14-4.14995E-13
 -1      1611 2.09124E+01-5.78711E-02 4.95973E-03 8.77801E-02-6.04759E-14-3.77439E-13
 -1      1612 2.05244E+01 1.75243E-03-1.22112E-03 1.31855E-01 5.49082E-14-3.76997E-13
 -1      1613 2.06900E+01-1.04470E-02 8.24696E-04 1.23534E-01 1.63435E-14-3.84165E-13
 -1      1614 2.07069E+01-2.49734E-02 1.21267E-03 2.14090E-01-4.29158E-14-1.35671E-13
 -1      1615 2.02217E+01 1.39523E-02-6.75856E-03 1.06223E-01 7.84963E-14-7.84614E-13
 -1      1616 2.03825E+01 1.11245E-02-2.83995E-03 1.13692E-01 1.72349E-13-4.73524E-13
 -1      1617 2.04290E+01 1.13337E-02-2.95347E-03 2.31803E-01 2.45029E-13-8.66017E-15
 -1      1618 2.00425E+01 2.17179E-02 4.39354E-04 3.58523E-02 4.74934E-14-8.10036E-13
 -1      1619 2.01195E+01 2.72065E-02-2.90103E-03 5.51857E-02 2.79694E-14-8.87751E-13
 -1      1620 2.01798E+01 4.23264E-02-4.15766E-03 1.48148E-01 2.08899E-13-1.99006E-13
 -1      1621 2.00009E+01 1.02405E-02 3.72124E-03-2.19565E-03-4.63429E-13-4.70486E-13
 -1      1622 2.00350E+01 1.90899E-01-3.26334E-03 9.53601E-02 5.54947E-14 5.28650E-13
 -1      1623 2.00348E+01 9.51974E-02 1.75804E-03 7.39713E-02-5.52739E-13 4.55182E-13
 -1      1624 2.00371E+01 5.58282E-01-2.19654E-03 1.95597E-01 6.38270E-13 2.22075E-13
 -1      1625 2.00380E+01 3.35779E-01-2.95349E-03 1.75493E-01 1.84768E-13 2.73170E-13
 -1      1626 2.00691E+01 3.02456E-01-8.81060E-03 2.65731E-01 1.31355E-13 7.52824E-13
 -1      1627 2.00356E+01 1.13018E+00-1.92590E-03 2.99133E-01 4.42724E-13-2.76550E-13
 -1      1628 2.00391E+01 7.81553E-01-3.61137E-03 2.78624E-01 7.74115E-13 2.10114E-14
 -1      1629 2.00669E+01 6.59203E-01-1.05001E-02 4.61673E-01 3.28030E-13 2.90975E-13
 -1      1630 2.00278E+01 1.89997E+00-2.09285E-03 3.94395E-01-2.29421E-13-4.95171E-13
 -1      1631 2.00356E+01 1.43676E+00-4.09690E-03 3.76174E-01 3.09468E-13-3.60427E-13
 -1      1632 2.00601E+01 1.17582E+00-1.08418E-02 6.54765E-01 7.78288E-14-5.15399E-13
 -1      1633 2.00097E+01 2.80254E+00-1.98676E-03 4.58226E-01-9.44390E-13-3.16565E-13
 -1      1634 2.00233E+01 2.26962E+00-4.06800E-03 4.47985E-01-3.95170E-13-5.30285E-13
 -1      1635 2.00420E+01 1.84075E+00-8.17955E-03 8.13624E-01-2.25843E-13-7.64798E-13
 -1      1636 1.99812E+01 3.76542E+00-7.80038E-04 4.63825E-01-1.50812E-12-4.29633E-13
 -1      1637 2.00001E+01 3.21254E+00-2.86491E-03 4.67343E-01-1.05079E-12-4.82222E-13
 -1      1638 2.00074E+01 2.61042E+00-2.29373E-03 8.92176E-01-6.06238E-13-6.27046E-13
 -1      1639 1.99486E+01 4.61806E+00 1.37975E-03 3.86452E-01-1.63438E-12 9.80860E-14
 -1      1640 1.99682E+01 4.14928E+00-4.12964E-04 4.08280E-01-1.69160E-12-2.96447E-14
 -1      1641 1.99574E+01 3.39895E+00 6.70798E-03 8.38970E-01-7.20630E-13-4.97723E-13
 -1      1642 1.99217E+01 5.18611E+00 3.63703E-03 2.22856E-01-1.13044E-12 3.36247E-13
 -1      1643 1.99359E+01 4.90265E+00 2.52483E-03 2.61811E-01-1.55655E-12 3.81490E-13
 -1      1644 1.99042E+01 4.06683E+00 1.67855E-02 6.22678E-01-6.50376E-13 2.75149E-13
 -1      1645 1.99104E+01 5.32773E+00 4.82802E-03-2.04557E-03-1.13984E-12-1.05090E-14
 -1      1646 1.99141E+01 5.30491E+00 4.78983E-03 4.66141E-02-1.23870E-12 1.54720E-13
 -1      1647 1.98645E+01 4.47265E+00 2.45100E-02 2.58360E-01-7.25644E-13 2.75975E-13
 -1      1648 1.99195E+01 4.98488E+00 4.24343E-03-2.40017E-01-9.14588E-13 5.24580E-14
 -1      1649 1.99116E+01 5.24446E+00 5.60623E-03-1.93158E-01-9.54657E-13-2.21472E-14
 -1      1650 1.98526E+01 4.51161E+00 2.67155E-02-1.87789E-01-7.69423E-13 2.21587E-13
 -1      1651 1.99465E+01 4.22447E+00 2.42946E-03-4.33813E-01-8.74058E-13-1.82250E-14
 -1      1652 1.99285E+01 4.71411E+00 4.58361E-03-4.00344E-01-7.73121E-13 9.78211E-15
 -1      1653 1.98746E+01 4.16019E+00 2.26855E-02-6.13994E-01-3.83049E-13-4.41071E-14
 -1      1654 1.99843E+01 3.16380E+00-4.93860E-04-5.48429E-01-1.02598E-12-2.29476E-13
 -1      1655 1.99605E+01 3.80855E+00 2.66061E-03-5.33283E-01-8.38652E-13-7.66210E-14
 -1      1656 1.99220E+01 3.47934E+00 1.33540E-02-9.28086E-01-2.49858E-13-1.18901E-13
 -1      1657 2.00245E+01 2.01647E+00-4.08973E-03-5.60594E-01-5.48665E-13 4.48866E-13
 -1      1658 1.99990E+01 2.68561E+00-3.57063E-04-5.65762E-01-9.68229E-13 2.10815E-13
 -1      1659 1.99861E+01 2.59148E+00 1.96189E-03-1.06877E+00-1.84627E-13 6.36034E-14
 -1      1660 2.00666E+01 1.01652E+00-1.88798E-03-4.61435E-01-1.84613E-13 2.70893E-13
 -1      1661 2.00378E+01 1.56405E+00-4.69930E-03-4.88741E-01-4.34854E-13 3.71512E-13
 -1      1662 2.00599E+01 1.66469E+00-8.38156E-03-1.00573E+00-3.32945E-14 5.64116E-13
 -1      1663 2.01418E+01 4.06775E-01 6.72878E-03-3.64747E-01-2.67685E-14-5.22893E-14
 -1      1664 2.01243E+01 7.24911E-01-3.52986E-03-4.49153E-01-3.19935E-14 9.27145E-14
 -1      1665 2.01814E+01 9.18133E-01-1.75713E-02-8.65621E-01-1.08139E-13 2.95370E-13
 -1      1666 2.04097E+01 4.13378E-01-5.76877E-03-6.95774E-01-5.70339E-14-2.03537E-13
 -1      1667-6.30246E-01-1.59040E+01-1.74821E+00-9.39464E-01 1.70275E-12 6.14286E-13
 -1      1668-6.36030E-01-1.80567E+01-1.95578E+00 3.80134E-01 1.01563E-12 5.83089E-13
 -1      1669 1.16653E+00-9.52329E+00-1.28384E+00 2.69273E-01 1.97109E-12 9.46465E-13
 -1      1670 5.29467E-01-1.45818E+01-1.79083E+00-1.29788E-01 1.83920E-12 6.25014E-13
 -1      1671 5.86426E+00-1.77468E+00-6.65132E-01 3.80838E+00 2.26641E-12 1.56042E-12
 -1      1672 3.25434E+00-7.46587E+00-1.41846E+00 1.22291E+00 2.02860E-12 1.11733E-12
 -1      1673 1.57304E+01 3.95369E+00 8.38552E-02 8.98474E+00 1.90836E-12 1.67544E-12
 -1      1674 9.84410E+00 6.92212E-02-7.66228E-01 5.26840E+00 2.04126E-12 1.58928E-12
 -1      1675 2.97275E+01 5.86987E+00 8.27170E-01 1.19830E+01 1.26243E-12 1.30695E-12
 -1      1676 2.11730E+01 4.92066E+00 2.72789E-02 9.55621E+00 1.78590E-12 1.52989E-12
 -1      1677 4.34635E+01 5.66715E+00 1.49092E+00 1.15651E+01 8.04329E-13 8.81961E-13
 -1      1678 3.45644E+01 6.95152E+00 8.03331E-01 1.22641E+01 1.13043E-12 1.39377E-12
 -1      1679 5.29970E+01 4.04206E+00 1.78054E+00 6.21292E+00 4.22329E-13 2.43638E-13
 -1      1680 4.72342E+01 5.55457E+00 1.40176E+00 1.00966E+01 6.91128E-13 8.18234E-13
 -1      1681 5.51907E+01 3.69136E+00 1.76028E+00-1.70227E+00 4.33764E-13-7.28057E-13
 -1      1682 5.46383E+01 3.93817E+00 1.75899E+00 3.88766E+00 3.96100E-13-1.08469E-13
 -1      1683 4.87758E+01 5.07975E+00 1.37984E+00-8.48612E+00 9.31089E-13-1.75349E-12
 -1      1684 5.37089E+01 3.83072E+00 1.73059E+00-4.04482E+00 5.91138E-13-1.03551E-12
 -1      1685 3.65340E+01 6.56602E+00 7.92649E-01-1.16646E+01 1.54882E-12-2.41762E-12
 -1      1686 4.53918E+01 5.09711E+00 1.45938E+00-1.02397E+01 1.06165E-12-2.05724E-12
 -1      1687 2.26770E+01 5.33282E+00 6.20578E-02-9.93690E+00 2.26086E-12-2.42406E-12
 -1      1688 3.16823E+01 5.89716E+00 8.90590E-01-1.19735E+01 1.78868E-12-2.43561E-12
 -1      1689 1.11825E+01 1.39996E+00-6.14891E-01-6.05461E+00 2.25753E-12-2.14551E-12
 -1      1690 1.73408E+01 4.74514E+00 2.16929E-01-9.56147E+00 2.31215E-12-2.59615E-12
 -1      1691 4.73662E+00-6.33873E+00-1.15099E+00-2.25081E+00 1.63991E-12-1.29285E-12
 -1      1692 7.97123E+00-9.53648E-01-4.49046E-01-5.08971E+00 2.03859E-12-1.90026E-12
 -1      1693 4.93861E-01-1.35223E+01-1.76276E+00 2.13982E-01 1.28342E-12-6.97963E-13
 -1      1694 1.14172E+00-8.41853E+00-1.24717E+00-3.58895E-01 1.75271E-12-1.03229E-12
 -1      1695-5.63389E-01-1.73934E+01-1.90076E+00-3.00854E-01 1.12244E-13-6.06570E-13
 -1      1696-5.52698E-01-1.49898E+01-1.69576E+00 9.08591E-01 9.66116E-13-6.45151E-13
 -1      1697-7.97197E-01-1.62680E+01-1.76970E+00-1.26037E+00-1.21675E-12-6.98525E-13
 -1      1698-7.20939E-01-1.73793E+01-1.84948E+00 1.80082E-01-1.92513E-13-6.10928E-13
 -1      1699 1.66766E-01-1.14280E+01-1.49791E+00-9.09478E-01-1.88038E-12-7.92394E-13
 -1      1700-4.74787E-02-1.55284E+01-1.85113E+00-7.33688E-01-1.56264E-12-5.06817E-13
 -1      1701 4.10557E+00-3.79420E+00-9.23908E-01 2.28215E+00-1.89182E-12-1.10700E-12
 -1      1702 2.08283E+00-9.52035E+00-1.58891E+00 1.24287E-01-1.79212E-12-9.82686E-13
 -1      1703 1.31570E+01 2.86757E+00-1.51243E-01 7.55459E+00-1.46083E-12-9.64118E-13
 -1      1704 7.65213E+00-1.67032E+00-1.04723E+00 3.71832E+00-1.79212E-12-1.12710E-12
 -1      1705 2.72518E+01 5.61265E+00 7.02341E-01 1.15541E+01-8.02247E-13-1.30052E-12
 -1      1706 1.85698E+01 3.99983E+00-2.45863E-01 8.56520E+00-1.19649E-12-1.07025E-12
 -1      1707 4.26375E+01 5.47085E+00 1.50453E+00 1.17581E+01-6.46927E-13-4.83169E-13
 -1      1708 3.26934E+01 6.45056E+00 6.46611E-01 1.18074E+01-9.19154E-13-9.85878E-13
 -1      1709 5.40092E+01 3.83178E+00 1.91458E+00 6.40141E+00-3.07990E-13 2.57350E-13
 -1      1710 4.71671E+01 5.47425E+00 1.46260E+00 1.03283E+01-4.94979E-13-2.76779E-13
 -1      1711 5.56373E+01 4.00310E+00 1.79790E+00-2.31974E+00-6.41209E-13 1.35433E-12
 -1      1712 5.48102E+01 4.19109E+00 1.77812E+00 3.65167E+00-3.88883E-13 6.05183E-13
 -1      1713 4.91051E+01 5.39656E+00 1.45785E+00-9.00084E+00-1.15576E-12 2.34279E-12
 -1      1714 5.44410E+01 3.96890E+00 1.78118E+00-4.50121E+00-9.19320E-13 1.65362E-12
 -1      1715 3.65361E+01 6.78613E+00 8.78830E-01-1.22882E+01-1.49769E-12 2.90568E-12
 -1      1716 4.59441E+01 5.26946E+00 1.57455E+00-1.11603E+01-1.12807E-12 2.93376E-12
 -1      1717 2.17975E+01 5.73604E+00 3.92013E-02-1.03226E+01-1.77458E-12 2.29128E-12
 -1      1718 3.11222E+01 6.56256E+00 9.79157E-01-1.28559E+01-1.54099E-12 2.75091E-12
 -1      1719 1.03339E+01 6.55595E-02-7.95638E-01-5.30370E+00-1.27232E-12 1.59417E-12
 -1      1720 1.67703E+01 4.14384E+00 1.41980E-01-9.26733E+00-1.55875E-12 2.24309E-12
 -1      1721 3.19105E+00-7.76762E+00-1.50171E+00-9.94177E-01-1.12466E-12 7.64722E-13
 -1      1722 5.95527E+00-1.88349E+00-7.30115E-01-3.75403E+00-1.29030E-12 8.49099E-13
 -1      1723 2.84006E-01-1.51402E+01-1.92121E+00 5.95114E-01-2.25375E-13 4.21996E-13
 -1      1724 8.40685E-01-1.00164E+01-1.42182E+00 2.31185E-01-8.10574E-13 9.14269E-13
 -1      1725-6.91981E-01-1.84783E+01-2.02273E+00-1.96168E-01 6.31467E-13 5.42844E-13
 -1      1726-7.59432E-01-1.65374E+01-1.87105E+00 1.27891E+00-5.56222E-14 1.60982E-13
 -1      1727 2.36585E+01-2.62919E-01 2.51724E-01 7.32561E+00 1.05238E-12 5.47451E-13
 -1      1728 1.31950E+01-4.10380E+00-3.94192E-01 6.40365E+00 1.22091E-12 1.02091E-12
 -1      1729 2.00334E+01 3.32889E-02-1.61828E-03 3.20084E-02-5.38314E-13-1.30370E-13
 -1      1730 2.00783E+01 1.13180E-01-3.39431E-03 1.24796E-01-5.21159E-14 4.61462E-13
 -1      1731 3.81821E-01-1.12115E+01-1.24345E+00 2.42877E+00 1.00453E-12 7.24643E-13
 -1      1732 5.26376E+00-8.30962E+00-9.56656E-01 4.45371E+00 1.22136E-12 9.21568E-13
 -1      1733-1.48185E+00-1.26851E+01-1.42061E+00 2.09931E-01 5.57041E-13 1.00353E-12
 -1      1734 3.33419E+01 3.09762E+00 6.34186E-01 6.66263E+00 9.11715E-13 5.35683E-13
 -1      1735 4.17549E+01 6.14144E+00 1.22433E+00 5.38788E+00 8.76882E-13 4.87166E-13
 -1      1736 4.66953E+01 7.34238E+00 1.48164E+00 2.38279E+00 7.45515E-13 1.81299E-13
 -1      1737 4.67419E+01 7.56450E+00 1.46316E+00-1.10355E+00 8.76021E-13-3.95378E-13
 -1      1738 4.24519E+01 6.45007E+00 1.22408E+00-4.17368E+00 1.07614E-12-9.33476E-13
 -1      1739 3.46726E+01 3.74033E+00 7.75132E-01-6.12597E+00 1.29552E-12-1.38245E-12
 -1      1740 2.47834E+01 4.45621E-01 2.72010E-01-7.18731E+00 1.28830E-12-1.45550E-12
 -1      1741 1.48666E+01-3.80367E+00-3.67679E-01-6.62115E+00 1.01286E-12-1.58645E-12
 -1      1742 6.58793E+00-7.16867E+00-6.74943E-01-5.13109E+00 9.92761E-13-1.19382E-12
 -1      1743 5.46448E-01-1.07605E+01-1.22409E+00-2.42030E+00 6.71352E-13-9.75331E-13
 -1      1744-1.41401E+00-1.20661E+01-1.33214E+00-5.46921E-01-5.76900E-14-1.09457E-12
 -1      1745-4.54071E-01-1.14889E+01-1.28343E+00 1.29107E+00-5.11591E-13-8.57703E-13
 -1      1746 3.50632E+00-9.18325E+00-1.08533E+00 3.21071E+00-9.38138E-13-5.78829E-13
 -1      1747 1.08228E+01-5.23754E+00-6.26743E-01 5.29733E+00-9.86100E-13-5.42677E-13
 -1      1748 2.12191E+01-1.12644E+00 1.27493E-02 6.75384E+00-9.30145E-13-4.86167E-13
 -1      1749 3.22166E+01 2.49800E+00 6.20593E-01 6.73506E+00-5.92526E-13-4.01013E-13
 -1      1750 4.20851E+01 5.41548E+00 1.26249E+00 5.39087E+00-7.27245E-13-2.06501E-14
 -1      1751 4.70192E+01 7.24574E+00 1.49654E+00 1.98999E+00-7.40519E-13 4.06453E-13
 -1      1752 4.66214E+01 7.73961E+00 1.42015E+00-1.42626E+00-1.19160E-12 8.62976E-13
 -1      1753 4.31380E+01 6.37370E+00 1.31759E+00-4.56611E+00-1.12882E-12 1.63392E-12
 -1      1754 3.50986E+01 3.83656E+00 8.86126E-01-7.18231E+00-9.87155E-13 2.08944E-12
 -1      1755 2.41440E+01 8.04553E-02 1.86594E-01-7.43100E+00-7.97140E-13 1.61804E-12
 -1      1756 1.36171E+01-4.24234E+00-4.36642E-01-6.26275E+00-6.87672E-13 1.25000E-12
 -1      1757 5.12465E+00-8.57035E+00-1.01090E+00-4.10839E+00-4.41647E-13 9.05734E-13
 -1      1758 8.44835E-02-1.18226E+01-1.36366E+00-1.94740E+00 3.49165E-14 6.27220E-13
 -1      1759 2.28595E+01 1.98500E+00-2.35736E-02-2.72268E+00-3.25628E-13 1.73131E-12
 -1      1760 1.98232E+01 3.71434E+00-3.55546E-02-2.15250E+00-4.88534E-13-2.85241E-13
 -1      1761 2.00583E+01 3.56211E+00-4.02537E-02-2.44550E+00-5.34886E-13-1.18797E-13
 -1      1762 2.03637E+01 3.18181E+00-4.57071E-02-2.58540E+00-5.19716E-13 9.51114E-14
 -1      1763 2.05836E+01 2.81005E+00-1.42528E-01-2.85379E+00-5.40758E-13 3.87509E-13
 -1      1764 2.04236E+01 2.69339E+00-4.43075E-03-2.22647E+00-5.51638E-13 1.01655E-14
 -1      1765 1.93545E+01 4.18939E+00-2.02107E-02-1.27113E+00-3.06932E-13-5.67503E-13
 -1      1766 1.94277E+01 4.14907E+00-1.75144E-02-1.49541E+00-3.61159E-13-5.23918E-13
 -1      1767 1.92585E+01 4.29451E+00-1.67998E-02-8.60029E-01-2.14427E-13-6.10923E-13
 -1      1768 1.93011E+01 4.27077E+00-1.43429E-02-1.07081E+00-2.63998E-13-5.94818E-13
 -1      1769 1.95269E+01 3.78266E+00-9.21944E-03-1.12059E+00-3.11753E-13-5.47862E-13
 -1      1770 1.92071E+01 4.35491E+00-1.48074E-02-4.66941E-01-1.05417E-13-6.28953E-13
 -1      1771 1.92290E+01 4.34211E+00-1.33168E-02-6.67297E-01-1.51592E-13-6.19121E-13
 -1      1772 1.94300E+01 3.90294E+00-9.19878E-03-7.33510E-01-1.93717E-13-5.86847E-13
 -1      1773 1.91877E+01 4.38053E+00-1.36729E-02-8.36512E-02 3.58153E-15-6.25590E-13
 -1      1774 1.91942E+01 4.37661E+00-1.32211E-02-2.79154E-01-4.82615E-14-6.29627E-13
 -1      1775 1.93798E+01 3.96749E+00-9.16004E-03-3.58407E-01-8.38514E-14-5.96748E-13
 -1      1776 1.91958E+01 4.37525E+00-1.31745E-02 2.98216E-01 9.05439E-14-6.08034E-13
 -1      1777 1.91882E+01 4.37971E+00-1.37555E-02 1.02557E-01 4.78927E-14-6.16222E-13
 -1      1778 1.93650E+01 3.98691E+00-9.14828E-03 1.05737E-02 3.11977E-14-5.93791E-13
 -1      1779 1.92330E+01 4.33808E+00-1.33337E-02 6.87050E-01 1.84353E-13-5.87478E-13
 -1      1780 1.92098E+01 4.35177E+00-1.49185E-02 4.86202E-01 1.41419E-13-6.04522E-13
 -1      1781 1.93824E+01 3.96422E+00-9.19006E-03 3.79730E-01 1.24416E-13-5.77377E-13
 -1      1782 1.93065E+01 4.26471E+00-1.44143E-02 1.08478E+00 2.81303E-13-5.28650E-13
 -1      1783 1.92631E+01 4.28917E+00-1.69743E-02 8.76778E-01 2.30556E-13-5.65468E-13
 -1      1784 1.94352E+01 3.89676E+00-9.19683E-03 7.51985E-01 2.27049E-13-5.40632E-13
 -1      1785 1.94380E+01 4.13753E+00-1.74078E-02 1.51483E+00 4.03954E-13-4.36609E-13
 -1      1786 1.93616E+01 4.18010E+00-2.05035E-02 1.28527E+00 3.36755E-13-4.85806E-13
 -1      1787 1.95347E+01 3.77290E+00-9.24159E-03 1.13580E+00 3.39243E-13-4.67694E-13
 -1      1788 1.96672E+01 3.92102E+00-2.51992E-02 1.97993E+00 5.09070E-13-2.85799E-13
 -1      1789 1.95344E+01 3.99778E+00-2.69026E-02 1.72259E+00 4.49085E-13-3.76817E-13
 -1      1790 1.97080E+01 3.56586E+00-8.70442E-03 1.53556E+00 4.53021E-13-3.60665E-13
 -1      1791 2.00758E+01 3.52275E+00-4.51884E-02 2.47235E+00 5.79993E-13-1.01308E-14
 -1      1792 1.98357E+01 3.68320E+00-3.97220E-02 2.18326E+00 5.37086E-13-1.82757E-13
 -1      1793 2.00044E+01 3.22280E+00-5.27027E-03 1.93491E+00 5.51108E-13-1.92337E-13
 -1      1794 2.09212E+01 2.68181E+00-5.76509E-02 2.85800E+00 5.66446E-13 5.36550E-13
 -1      1795 2.04137E+01 3.09693E+00-5.04286E-02 2.61624E+00 5.66692E-13 2.09020E-13
 -1      1796 2.05175E+01 2.60990E+00 3.18697E-03 2.24485E+00 5.94982E-13 1.20924E-13
 -1      1797 2.17315E+01 1.21299E+00-1.22095E-01 2.33002E+00 4.69152E-13 1.21242E-12
 -1      1798 2.12750E+01 2.26306E+00 1.18578E-04 2.74065E+00 5.20523E-13 7.70717E-13
 -1      1799 2.09377E+01 1.68502E+00-2.29620E-02 2.14043E+00 5.78364E-13 5.38534E-13
 -1      1800 2.09528E+01 7.78680E-01-6.24528E-02 1.52433E+00 4.76501E-13 1.06577E-12
 -1      1801 2.17974E+01 2.45831E+00 9.08594E-02-3.04840E+00-4.50707E-13 8.78589E-13
 -1      1802 2.01018E+01 2.97924E-01-8.91757E-03 6.57206E-01 3.76317E-13 8.25727E-13
 -1      1803 2.06540E+01 4.40400E-01-1.24674E-02 1.03423E+00 4.04149E-13 9.70088E-13
 -1      1804 2.07452E+01 8.45118E-01 2.25163E-03 1.41534E+00 4.87124E-13 6.67851E-13
 -1      1805 2.15076E+01 1.74278E+00 7.94542E-02-2.33736E+00-4.92901E-13 6.56940E-13
 -1      1806 2.05216E+01 5.00431E-01 3.25270E-02-9.21831E-01-4.16382E-13 5.76479E-13
 -1      1807 2.00895E+01 3.51785E-01 7.57549E-03-6.30071E-01-3.80572E-13 4.60301E-13
 -1      1808 1.98948E+01 2.57291E-01 2.73818E-02-3.91777E-01-3.38576E-13 4.25318E-13
 -1      1809 1.97037E+01 1.78081E-01 1.03884E-02-2.53924E-01-2.89817E-13 3.26485E-13
 -1      1810 2.01995E+01 4.83893E-01-5.67601E-03-7.23435E-01-4.30770E-13 2.18740E-13
 -1      1811 1.95816E+01 1.32695E-01 1.66465E-02-1.20399E-01-2.32693E-13 2.78732E-13
 -1      1812 1.95033E+01 9.29952E-02 6.97048E-03-4.96284E-02-2.11104E-13 2.05272E-13
 -1      1813 1.98731E+01 2.44294E-01-5.63241E-03-2.96297E-01-3.32905E-13 1.39429E-13
 -1      1814 1.94383E+01 6.82390E-02 8.67920E-03 2.37450E-02-1.91117E-13 2.10915E-13
 -1      1815 1.94235E+01 4.65411E-02 4.11641E-03 5.98390E-02-1.84136E-13 1.63815E-13
 -1      1816 1.96903E+01 1.25250E-01-4.52704E-03-5.96075E-02-2.30949E-13 9.57756E-14
 -1      1817 1.93972E+01 3.21667E-02 4.23031E-03 9.83825E-02-1.63059E-13 1.58394E-13
 -1      1818 1.94167E+01 1.97387E-02 2.43395E-03 1.15042E-01-1.26494E-13 1.30907E-13
 -1      1819 1.96033E+01 6.07419E-02-3.39609E-03 6.96773E-02-1.86067E-13 6.46992E-14
 -1      1820 1.94147E+01 1.10883E-02 1.85000E-03 1.32808E-01-1.24371E-13 1.20296E-13
 -1      1821 1.94513E+01 3.93045E-03 1.44921E-03 1.38113E-01-1.04113E-13 1.04879E-13
 -1      1822 1.95786E+01 2.37769E-02-2.30858E-03 1.35765E-01-1.58400E-13 3.60480E-14
 -1      1823 1.94636E+01-1.25615E-03 5.52036E-04 1.43374E-01-9.09543E-14 1.06695E-13
 -1      1824 1.95073E+01-5.19896E-03 8.39563E-04 1.42058E-01-5.51708E-14 9.45321E-14
 -1      1825 1.95917E+01 2.23402E-03-1.43424E-03 1.63792E-01-1.05334E-13 2.82030E-14
 -1      1826 1.95271E+01-8.15633E-03-1.64012E-04 1.39969E-01-8.67445E-14 5.38406E-14
 -1      1827 1.95720E+01-1.00505E-02 4.52773E-04 1.34999E-01-6.92595E-14 2.62164E-14
 -1      1828 1.96258E+01-9.96166E-03-8.07976E-04 1.68971E-01-1.00908E-13-4.11730E-14
 -1      1829 1.95949E+01-1.15235E-02-5.42185E-04 1.28905E-01-7.77747E-14-7.43909E-15
 -1      1830 1.96376E+01-1.20820E-02 2.15786E-04 1.22216E-01-9.94727E-14-4.56884E-14
 -1      1831 1.96701E+01-1.61946E-02-3.91965E-04 1.60977E-01-1.26913E-13-8.74018E-14
 -1      1832 1.96611E+01-1.25489E-02-7.11418E-04 1.14345E-01-9.41193E-14-3.96527E-14
 -1      1833 1.96999E+01-1.22254E-02 8.78517E-05 1.07224E-01-5.85251E-14-9.10473E-14
 -1      1834 1.97178E+01-1.85131E-02-1.35391E-04 1.46176E-01-9.66788E-14-8.44760E-14
 -1      1835 1.97225E+01-1.20006E-02-7.47410E-04 9.90815E-02-6.52568E-14-1.07032E-13
 -1      1836 1.97570E+01-1.10841E-02 4.36504E-05 9.24027E-02-3.49359E-14-1.21383E-13
 -1      1837 1.97649E+01-1.82175E-02 4.50635E-06 1.28842E-01-8.72747E-14-1.21490E-13
 -1      1838 1.97782E+01-1.03717E-02-6.97880E-04 8.50273E-02 5.91752E-15-1.36760E-13
 -1      1839 1.98085E+01-9.03746E-03 6.75114E-05 7.93974E-02-3.13304E-14-9.67796E-14
 -1      1840 1.98095E+01-1.61409E-02 5.91976E-05 1.11896E-01-4.86492E-14-1.76184E-13
 -1      1841 1.98282E+01-7.96110E-03-5.93670E-04 7.35344E-02-8.65988E-14-4.29122E-14
 -1      1842 1.98552E+01-6.30050E-03 1.51036E-04 6.94035E-02-6.48817E-14-1.58109E-14
 -1      1843 1.98509E+01-1.27963E-02 5.05376E-05 9.73913E-02-2.08067E-14-1.24619E-13
 -1      1844 1.98740E+01-4.92256E-03-4.54468E-04 6.56322E-02-9.76386E-14-3.80830E-14
 -1      1845 1.98990E+01-2.96168E-03 2.91787E-04 6.33752E-02-7.71806E-14-8.87599E-14
 -1      1846 1.98897E+01-8.46213E-03-7.00253E-06 8.68494E-02-8.66597E-14-3.94563E-14
 -1      1847 1.99176E+01-1.29576E-03-2.92267E-04 6.22054E-02-6.47632E-14-1.50556E-13
 -1      1848 1.99422E+01 9.92442E-04 4.92430E-04 6.21868E-02-7.79472E-14-1.48382E-13
 -1      1849 1.99273E+01-3.23508E-03-1.04491E-04 8.15192E-02-1.35530E-13-1.31315E-13
 -1      1850 1.99618E+01 2.97278E-03-1.13740E-04 6.41371E-02-9.61437E-14-2.08570E-13
 -1      1851 1.99881E+01 5.66042E-03 7.60124E-04 6.67633E-02-5.82539E-14-2.51647E-13
 -1      1852 1.99657E+01 2.93517E-03-2.37073E-04 8.25723E-02-1.10917E-13-1.94246E-13
 -1      1853 2.00100E+01 8.01528E-03 7.79497E-05 7.24237E-02-1.12587E-14-2.54639E-13
 -1      1854 2.00404E+01 1.12140E-02 1.10598E-03 7.81889E-02-1.75167E-14-2.45616E-13
 -1      1855 2.00074E+01 1.02223E-02-4.02742E-04 9.12610E-02-3.28965E-14-2.25708E-13
 -1      1856 2.00665E+01 1.40321E-02 2.81592E-04 8.82734E-02-5.63689E-14-2.31147E-13
 -1      1857 2.01038E+01 1.78884E-02 1.54432E-03 9.77972E-02-3.64690E-14-2.52210E-13
 -1      1858 2.00557E+01 1.89063E-02-6.01206E-04 1.09048E-01-1.76897E-14-2.47479E-13
 -1      1859 2.01360E+01 2.12812E-02 4.96422E-04 1.13185E-01 7.37127E-15-2.34126E-13
 -1      1860 2.01837E+01 2.59702E-02 2.09134E-03 1.27245E-01 3.29562E-14-2.76780E-13
 -1      1861 2.01144E+01 2.93581E-02-8.32742E-04 1.37707E-01-1.15926E-14-1.33618E-13
 -1      1862 2.02245E+01 3.00631E-02 7.20431E-04 1.49010E-01 9.49848E-15-2.38119E-13
 -1      1863 2.02867E+01 3.57747E-02 2.76224E-03 1.68557E-01-2.65266E-14-2.25519E-13
 -1      1864 2.01878E+01 4.20179E-02-1.09694E-03 1.79405E-01 4.88090E-14-1.45630E-13
 -1      1865 2.03387E+01 4.06888E-02 9.48280E-04 1.97970E-01-4.41491E-14-1.64822E-13
 -1      1866 2.04204E+01 4.75983E-02 3.56556E-03 2.24129E-01-4.01166E-14-1.26990E-13
 -1      1867 2.02811E+01 5.73527E-02-1.39134E-03 2.36725E-01-1.13733E-16-1.23916E-13
 -1      1868 2.04866E+01 5.34117E-02 1.16863E-03 2.62616E-01-8.11959E-14-1.61605E-13
 -1      1869 2.05934E+01 6.16147E-02 4.49196E-03 2.96620E-01-8.36223E-15-1.81859E-13
 -1      1870 2.04003E+01 7.57638E-02-1.71014E-03 3.12625E-01-6.22727E-14-5.42623E-14
 -1      1871 2.06772E+01 6.82838E-02 1.36094E-03 3.45629E-01-7.95045E-15-2.07723E-13
 -1      1872 2.08155E+01 7.76624E-02 5.49378E-03 3.88656E-01 7.34829E-15-1.68928E-13
 -1      1873 2.05518E+01 9.73927E-02-2.04361E-03 4.10238E-01-1.75955E-14-9.30139E-14
 -1      1874 2.09204E+01 8.48660E-02 1.49244E-03 4.49344E-01 9.53139E-14-1.99511E-13
 -1      1875 2.10970E+01 9.48294E-02 6.45003E-03 5.02137E-01 1.19225E-13-1.19711E-13
 -1      1876 2.07427E+01 1.21728E-01-2.37953E-03 5.32376E-01 6.67461E-14-1.42071E-13
 -1      1877 2.12266E+01 1.01677E-01 1.51811E-03 5.74742E-01 3.86210E-14-1.15033E-13
 -1      1878 2.14478E+01 1.10687E-01 7.11184E-03 6.36841E-01 5.49712E-14-1.86549E-13
 -1      1879 2.09802E+01 1.46853E-01-2.70943E-03 6.80509E-01 1.03176E-13-4.46324E-14
 -1      1880 2.16056E+01 1.15204E-01 1.39018E-03 7.19495E-01 1.07322E-13-7.15814E-14
 -1      1881 2.18755E+01 1.19981E-01 7.03028E-03 7.87806E-01 1.22923E-13-1.80715E-15
 -1      1882 2.12714E+01 1.68096E-01-3.04329E-03 8.52810E-01 1.53811E-13 1.34021E-14
 -1      1883 2.20649E+01 1.18299E-01 1.09053E-03 8.74459E-01 1.65780E-13-2.95066E-15
 -1      1884 2.23825E+01 1.12661E-01 5.48975E-03 9.40812E-01 2.04206E-13 8.88512E-14
 -1      1885 2.16227E+01 1.75818E-01-3.43484E-03 1.04069E+00 1.52003E-13 4.97373E-14
 -1      1886 2.26070E+01 9.79512E-02 7.02756E-04 1.01792E+00 1.39055E-13 2.18549E-14
 -1      1887 2.29616E+01 7.15675E-02 1.51655E-03 1.06543E+00 2.37309E-14-7.83228E-15
 -1      1888 2.20397E+01 1.52303E-01-4.00729E-03 1.22310E+00 8.84454E-14 1.12150E-15
 -1      1889 2.32251E+01 3.32606E-02 5.14260E-04 1.10733E+00-6.12858E-14 3.21848E-14
 -1      1890 2.35897E+01-2.83543E-02-5.85361E-03 1.10622E+00-1.22599E-13 6.05549E-14
 -1      1891 2.25272E+01 6.87625E-02-4.93114E-03 1.35834E+00 5.28088E-14-6.92200E-14
 -1      1892 2.38967E+01-1.03138E-01 1.08042E-03 1.07047E+00-2.45610E-13 1.49962E-13
 -1      1893 2.42210E+01-2.13856E-01-1.67948E-02 9.76466E-01-2.73136E-13 2.12508E-13
 -1      1894 2.30892E+01-1.13504E-01-6.17833E-03 1.37428E+00-1.46335E-13 1.83938E-13
 -1      1895 2.45714E+01-3.32407E-01 2.71165E-03 8.03900E-01-2.81802E-13 2.55186E-13
 -1      1896 2.47787E+01-4.89357E-01-2.92865E-02 5.67272E-01-1.15042E-13 2.25309E-13
 -1      1897 2.37260E+01-4.27608E-01-6.94200E-03 1.16310E+00-1.96631E-13 2.93075E-13
 -1      1898 2.51506E+01-6.32909E-01 3.70937E-03 1.99579E-01-7.21333E-14 2.64773E-13
 -1      1899 2.51494E+01-7.84888E-01-3.73076E-02-2.01987E-01 8.46892E-15 2.90013E-13
 -1      1900 2.44175E+01-8.53550E-01-5.08712E-03 5.96831E-01-1.18275E-13 3.32702E-13
 -1      1901 2.54670E+01-8.77083E-01-6.76639E-04-7.67438E-01 6.03857E-14 2.72311E-13
 -1      1902 2.51886E+01-8.96603E-01-3.13699E-02-1.26453E+00 1.54574E-13 2.99490E-13
 -1      1903 2.50820E+01-1.23670E+00 1.71607E-03-4.02054E-01 8.88126E-14 3.25524E-13
 -1      1904 2.52994E+01-7.96096E-01-1.83043E-02-1.87446E+00 1.35640E-13 2.08035E-13
 -1      1905 2.47663E+01-5.27487E-01-8.20223E-03-2.24442E+00-1.30074E-14 1.57197E-13
 -1      1906 2.55213E+01-1.22139E+00 1.15275E-02-1.70373E+00 5.78027E-14 3.89362E-13
 -1      1907 2.45411E+01-1.33333E-01-4.15681E-02-2.52784E+00-8.82055E-14 1.16504E-14
 -1      1908 2.39218E+01 4.01449E-01 1.54526E-02-2.45456E+00-1.47889E-13-1.06321E-14
 -1      1909 2.54584E+01-4.39356E-01 4.69171E-03-2.75685E+00-9.83762E-14 3.76605E-13
 -1      1910 2.34901E+01 9.21883E-01-4.65429E-02-2.03263E+00-1.41984E-13-1.71696E-13
 -1      1911 2.30686E+01 1.35735E+00 7.25397E-03-1.39309E+00-1.87905E-13-2.24464E-13
 -1      1912 2.48561E+01 9.96761E-01-2.69368E-02-2.68627E+00-2.64379E-13 1.41055E-13
 -1      1913 2.28522E+01 1.55959E+00-2.14034E-02-3.75003E-01-3.27266E-13-4.01350E-13
 -1      1914 2.28437E+01 1.48642E+00-3.15834E-02 4.83294E-01-3.75325E-13-5.88040E-13
 -1      1915 2.42322E+01 2.11967E+00-6.60347E-02-1.08355E+00-3.66270E-13-2.36315E-13
 -1      1916 2.30583E+01 1.16206E+00 1.11628E-02 1.39870E+00-3.66547E-13-6.79910E-13
 -1      1917 2.34241E+01 6.56032E-01-5.13758E-02 1.90852E+00-3.94278E-13-7.70169E-13
 -1      1918 2.42328E+01 1.92872E+00-6.26417E-02 1.12704E+00-4.40058E-13-6.02576E-13
 -1      1919 2.37483E+01 1.31717E-01 1.21745E-02 2.13597E+00-3.53630E-13-7.47714E-13
 -1      1920 2.42342E+01-3.59654E-01-3.79790E-02 2.07098E+00-1.60391E-13-7.35086E-13
 -1      1921 2.47417E+01 6.08105E-01-2.09354E-02 2.37846E+00-3.58741E-13-6.58708E-13
 -1      1922 2.42876E+01-6.83878E-01-1.35049E-02 1.66071E+00-2.91260E-14-6.72682E-13
 -1      1923 2.46305E+01-8.74473E-01-1.41351E-02 1.22527E+00 3.73016E-13-5.94227E-13
 -1      1924 2.50606E+01-7.21332E-01 9.83689E-03 2.08704E+00 3.17793E-14-5.63256E-13
 -1      1925 2.43679E+01-9.15366E-01-3.35661E-02 5.93056E-01 6.39794E-13-6.48908E-13
 -1      1926 2.44345E+01-8.49796E-01-9.35732E-04 9.75396E-02 5.28950E-13-4.21017E-13
 -1      1927 2.48062E+01-1.30627E+00 7.98240E-03 8.85962E-01 4.56123E-13-4.15633E-13
 -1      1928 2.40091E+01-7.32006E-01-3.50653E-02-4.33025E-01 2.97857E-13-2.52487E-13
 -1      1929 2.38098E+01-5.65663E-01 3.19849E-03-8.00950E-01 4.69479E-13-1.24164E-13
 -1      1930 2.41162E+01-1.18299E+00-1.95158E-03-3.87261E-01 5.69124E-13-2.12305E-13
 -1      1931 2.33563E+01-4.14368E-01-2.46571E-02-1.11642E+00 3.74726E-13-2.20757E-13
 -1      1932 2.29779E+01-2.50708E-01 4.24032E-03-1.30729E+00 2.86745E-13-1.38218E-13
 -1      1933 2.32628E+01-7.48589E-01-7.47581E-03-1.28794E+00 4.16292E-13-3.30986E-13
 -1      1934 2.25588E+01-1.20883E-01-1.18201E-02-1.41764E+00 9.52298E-14-2.83605E-13
 -1      1935 2.21062E+01 9.63297E-03 6.05638E-03-1.44978E+00-3.62950E-14-3.11306E-13
 -1      1936 2.24185E+01-2.93342E-01-8.21325E-03-1.73000E+00 1.65323E-13-3.87387E-13
 -1      1937 2.17390E+01 1.13674E-01-2.10086E-03-1.39964E+00 7.29887E-14-1.51236E-13
 -1      1938 2.13045E+01 2.18421E-01 8.29420E-03-1.30247E+00 2.00097E-13-1.75433E-14
 -1      1939 2.16561E+01 8.15489E-02-6.78992E-03-1.77940E+00 4.80999E-14-3.74202E-13
 -1      1940 2.10267E+01 2.90702E-01 2.48792E-03-1.13555E+00 2.16780E-13-9.29335E-14
 -1      1941 2.06749E+01 3.79342E-01 1.24442E-02-9.38521E-01 1.01204E-13 8.30802E-15
 -1      1942 2.05402E+01 5.57343E-01-3.92523E-03-1.09950E+00-6.29245E-14 7.93723E-14
 -1      1943 2.10297E+01 3.72739E-01-5.77522E-03-1.53284E+00 2.05560E-13-2.35432E-14
 -1      1944 1.96190E+01 1.42005E-01 7.88042E-03 2.59627E-01 3.01524E-13 6.20805E-13
 -1      1945 1.98911E+01 2.04069E-01 1.64332E-02 4.32603E-01 3.23816E-13 7.38284E-13
 -1      1946 2.01027E+01 3.50523E-01-1.52708E-03 6.55219E-01 4.04246E-13 5.13248E-13
 -1      1947 1.93764E+01 7.18803E-02 6.94300E-03 5.67054E-02 2.28601E-13 4.87112E-13
 -1      1948 1.94915E+01 1.01766E-01 1.41934E-02 1.45197E-01 2.36392E-13 5.63656E-13
 -1      1949 1.97098E+01 1.65140E-01-1.94443E-03 2.56528E-01 2.98562E-13 4.00381E-13
 -1      1950 1.92857E+01 3.61066E-02 4.42438E-03-4.86932E-02 1.34150E-13 4.12208E-13
 -1      1951 1.93160E+01 5.19219E-02 8.33300E-03-1.51816E-03 1.72881E-13 4.50603E-13
 -1      1952 1.95093E+01 8.06286E-02-2.82569E-03 4.46058E-02 2.17438E-13 2.79200E-13
 -1      1953 1.92836E+01 1.61749E-02 2.85759E-03-1.01128E-01 5.59214E-14 3.35055E-13
 -1      1954 1.92686E+01 2.50316E-02 4.34907E-03-7.65360E-02 9.25065E-14 3.81449E-13
 -1      1955 1.94300E+01 3.74239E-02-2.84364E-03-6.72230E-02 1.23952E-13 2.34638E-13
 -1      1956 1.93305E+01 4.56577E-03 1.98580E-03-1.23192E-01 8.50472E-14 2.94890E-13
 -1      1957 1.92924E+01 9.58685E-03 2.14718E-03-1.11783E-01 6.61610E-14 3.27675E-13
 -1      1958 1.94233E+01 1.36146E-02-2.31280E-03-1.22726E-01 8.49478E-14 1.83890E-13
 -1      1959 1.94016E+01-2.17571E-03 1.44666E-03-1.27441E-01 1.14212E-13 2.54397E-13
 -1      1960 1.93534E+01 5.47972E-04 9.52746E-04-1.23934E-01 9.39238E-14 2.93758E-13
 -1      1961 1.94576E+01 7.81966E-05-1.69390E-03-1.45284E-01 1.13412E-13 1.67739E-13
 -1      1962 1.94819E+01-5.86454E-03 1.07056E-03-1.21465E-01 8.65325E-14 1.99005E-13
 -1      1963 1.94312E+01-4.57820E-03 2.85570E-04-1.22628E-01 1.11402E-13 2.39098E-13
 -1      1964 1.95130E+01-7.43769E-03-1.17492E-03-1.48419E-01 1.29279E-13 1.69381E-13
 -1      1965 1.95624E+01-7.56261E-03 7.94282E-04-1.10103E-01 4.95889E-14 1.52647E-13
 -1      1966 1.95134E+01-7.19182E-03-8.90231E-05-1.13845E-01 6.03122E-14 1.65852E-13
 -1      1967 1.95769E+01-1.11947E-02-7.88124E-04-1.40492E-01 9.34689E-14 1.38998E-13
 -1      1968 1.96379E+01-7.93620E-03 5.92057E-04-9.65353E-02 1.24826E-13 1.41583E-13
 -1      1969 1.95931E+01-8.14770E-03-2.85313E-04-1.01460E-01 6.52982E-14 1.74357E-13
 -1      1970 1.96420E+01-1.25204E-02-5.15301E-04-1.26902E-01 7.96802E-14 1.01589E-13
 -1      1971 1.97061E+01-7.41670E-03 4.50088E-04-8.28878E-02 1.23251E-13 1.16855E-13
 -1      1972 1.96665E+01-7.99328E-03-3.65596E-04-8.80445E-02 1.37067E-13 1.58992E-13
 -1      1973 1.97038E+01-1.22442E-02-3.31345E-04-1.11233E-01 1.35298E-13 5.87570E-14
 -1      1974 1.97667E+01-6.28158E-03 3.59424E-04-7.06054E-02 1.35304E-13 2.27655E-14
 -1      1975 1.97321E+01-7.08304E-03-3.67766E-04-7.53326E-02 1.26334E-13 7.23347E-14
 -1      1976 1.97604E+01-1.08965E-02-2.15583E-04-9.59006E-02 1.76812E-13-3.68040E-14
 -1      1977 1.98204E+01-4.70019E-03 3.14127E-04-6.06999E-02 8.39920E-14-7.41738E-14
 -1      1978 1.97902E+01-5.63993E-03-3.16085E-04-6.45203E-02 9.42829E-14 8.01180E-15
 -1      1979 1.98116E+01-8.81012E-03-1.52892E-04-8.25719E-02 1.07742E-13-5.74629E-14
 -1      1980 1.98689E+01-2.76327E-03 3.10536E-04-5.39269E-02 7.21594E-14-8.32328E-14
 -1      1981 1.98420E+01-3.79253E-03-2.26088E-04-5.64715E-02 6.41200E-14-5.96563E-14
 -1      1982 1.98581E+01-6.17866E-03-1.32753E-04-7.24415E-02 8.44174E-14-7.72198E-14
 -1      1983 1.99148E+01-5.04822E-04 3.46691E-04-5.09127E-02 1.31392E-13-1.43589E-13
 -1      1984 1.98897E+01-1.60087E-03-1.07401E-04-5.18647E-02 1.34319E-13-8.69725E-14
 -1      1985 1.99016E+01-3.09563E-03-1.48196E-04-6.64331E-02 1.37302E-13-6.53035E-14
 -1      1986 1.99612E+01 2.07888E-03 4.21661E-04-5.22426E-02 8.25616E-14-2.28098E-13
 -1      1987 1.99360E+01 9.22883E-04 3.42586E-05-5.12982E-02 7.06501E-14-1.92315E-13
 -1      1988 1.99444E+01 4.15479E-04-1.94916E-04-6.53402E-02 1.64550E-13-7.69078E-14
 -1      1989 2.00117E+01 5.01008E-03 5.34623E-04-5.85134E-02 4.97747E-14-1.26713E-13
 -1      1990 1.99844E+01 3.79485E-03 1.95397E-04-5.53575E-02 1.08738E-13-1.87130E-13
 -1      1991 1.99894E+01 4.37354E-03-2.70512E-04-6.99187E-02 7.16878E-14-1.08493E-13
 -1      1992 2.00704E+01 8.30683E-03 6.83521E-04-7.03480E-02-1.78843E-13-2.50551E-13
 -1      1993 2.00387E+01 7.03789E-03 3.73119E-04-6.46469E-02-2.37545E-14-2.01859E-13
 -1      1994 2.00399E+01 8.81004E-03-3.73754E-04-8.09329E-02 2.44334E-14-1.48406E-13
 -1      1995 2.01421E+01 1.19534E-02 8.63058E-04-8.83634E-02-1.32288E-13-3.36126E-13
 -1      1996 2.01032E+01 1.06545E-02 5.63331E-04-7.97781E-02-1.78666E-13-3.12330E-13
 -1      1997 2.00997E+01 1.37325E-02-5.03783E-04-9.91494E-02-1.09384E-13-2.39675E-13
 -1      1998 2.02316E+01 1.58590E-02 1.06177E-03-1.13076E-01-1.25207E-14-2.17527E-13
 -1      1999 2.01828E+01 1.45903E-02 7.58616E-04-1.01305E-01-1.06039E-13-3.00915E-13
 -1      2000 2.01730E+01 1.90753E-02-6.59161E-04-1.25264E-01-1.35850E-13-2.80584E-13
 -1      2001 2.03443E+01 1.97997E-02 1.25798E-03-1.44722E-01 1.90394E-13-2.15126E-13
 -1      2002 2.02826E+01 1.86820E-02 9.45623E-04-1.29586E-01 1.28758E-13-1.30206E-13
 -1      2003 2.02644E+01 2.46308E-02-8.36665E-04-1.59742E-01 9.64736E-14-1.23067E-13
 -1      2004 2.04851E+01 2.33379E-02 1.41455E-03-1.82957E-01 1.38460E-14-2.57621E-13
 -1      2005 2.04077E+01 2.25856E-02 1.10199E-03-1.64539E-01 1.20498E-13-2.21095E-13
 -1      2006 2.03784E+01 2.99532E-02-1.02967E-03-2.02533E-01 1.32958E-13-1.01864E-13
 -1      2007 2.06582E+01 2.57160E-02 1.47313E-03-2.26404E-01-1.06168E-13-2.10142E-13
 -1      2008 2.05628E+01 2.56786E-02 1.19306E-03-2.05272E-01-3.98702E-14-2.48647E-13
 -1      2009 2.05190E+01 3.42280E-02-1.22590E-03-2.52634E-01-4.65869E-14-4.05272E-14
 -1      2010 2.08658E+01 2.57308E-02 1.34980E-03-2.71999E-01-8.35055E-14-8.07905E-14
 -1      2011 2.07514E+01 2.69382E-02 1.16923E-03-2.49525E-01-1.19957E-13-1.67273E-13
 -1      2012 2.06895E+01 3.61092E-02-1.40406E-03-3.07434E-01-1.08514E-13 3.81942E-14
 -1      2013 2.11068E+01 2.16165E-02 9.36591E-04-3.14136E-01 2.92580E-14-2.50632E-13
 -1      2014 2.09744E+01 2.48111E-02 9.65926E-04-2.92928E-01 8.09650E-15-1.65932E-13
 -1      2015 2.08910E+01 3.35435E-02-1.52882E-03-3.61844E-01 8.38836E-15-2.60798E-14
 -1      2016 2.13744E+01 1.10153E-02 1.16924E-04-3.43692E-01 1.52439E-13-1.22390E-13
 -1      2017 2.12287E+01 1.71313E-02 5.09095E-04-3.28097E-01 9.51260E-14-2.15927E-13
 -1      2018 2.11213E+01 2.36551E-02-1.54322E-03-4.07219E-01 9.87116E-14-9.64070E-14
 -1      2019 2.16541E+01-8.79755E-03-1.19259E-03-3.47192E-01 1.03057E-13-2.33812E-13
 -1      2020 2.15044E+01 1.20887E-03-2.68762E-04-3.43748E-01 1.06294E-13-1.49759E-13
 -1      2021 2.13733E+01 2.85160E-03-1.35868E-03-4.30289E-01 1.24125E-13 1.27850E-13
 -1      2022 2.19204E+01-4.01442E-02-2.96331E-03-3.06772E-01-9.73540E-14-2.65872E-13
 -1      2023 2.17827E+01-2.56688E-02-1.39836E-03-3.24286E-01-1.09058E-14-2.31020E-13
 -1      2024 2.16327E+01-3.25318E-02-8.44831E-04-4.12589E-01 8.94087E-15 2.58218E-14
 -1      2025 2.21357E+01-8.32380E-02-4.94306E-03-2.02146E-01-4.25896E-14-1.65722E-13
 -1      2026 2.20333E+01-6.49554E-02-2.82967E-03-2.50780E-01-8.29918E-14-2.64788E-13
 -1      2027 2.18758E+01-8.45691E-02 1.68497E-04-3.31413E-01-4.49311E-14 1.64610E-14
 -1      2028 2.22506E+01-1.33310E-01-6.56232E-03-1.63718E-02-1.49257E-13-1.44111E-13
 -1      2029 2.22126E+01-1.14416E-01-4.38336E-03-1.04820E-01-7.72724E-14-1.57757E-13
 -1      2030 2.20683E+01-1.50581E-01 1.84978E-03-1.63985E-01-8.91101E-14-7.67210E-14
 -1      2031 2.22095E+01-1.77182E-01-6.96489E-03 2.52958E-01-4.37489E-14-2.86228E-13
 -1      2032 2.22667E+01-1.64695E-01-5.72152E-03 1.23037E-01-1.21779E-13-1.80079E-13
 -1      2033 2.21658E+01-2.18634E-01 4.23913E-03 1.03087E-01-5.73543E-14-1.41535E-13
 -1      2034 2.19641E+01-1.91804E-01-5.36349E-03 5.77711E-01-8.76469E-14-9.49059E-14
 -1      2035 2.21396E+01-1.96390E-01-6.31428E-03 4.19705E-01-2.42879E-14-1.60846E-13
 -1      2036 2.21184E+01-2.63716E-01 7.03212E-03 4.58129E-01-1.06833E-13-1.31014E-13
 -1      2037 2.14966E+01-1.50083E-01-1.94673E-03 8.85378E-01-8.60566E-14-2.08783E-14
 -1      2038 2.17923E+01-1.82055E-01-5.65313E-03 7.34468E-01-1.16367E-13-4.87284E-14
 -1      2039 2.18849E+01-2.49787E-01 9.23768E-03 8.45823E-01-8.87797E-14 6.30685E-14
 -1      2040 2.08483E+01-3.77509E-02 1.63776E-03 1.06361E+00 1.27348E-13 8.44116E-14
 -1      2041 2.12319E+01-9.84745E-02-3.41824E-03 9.74073E-01 3.76318E-14 6.52117E-14
 -1      2042 2.14566E+01-1.45402E-01 8.96345E-03 1.15829E+00-5.43437E-14 9.77621E-14
 -1      2043 2.01397E+01 1.24178E-01 2.97213E-03 1.00035E+00 7.80127E-14 6.12600E-14
 -1      2044 2.05401E+01 5.10780E-02 4.79158E-04 1.02520E+00 1.31290E-13 3.73208E-14
 -1      2045 2.08884E+01 4.83994E-02 4.72702E-03 1.25694E+00 1.66249E-13 3.18886E-13
 -1      2046 1.95559E+01 2.71930E-01 9.99912E-04 6.55369E-01-3.13907E-14-1.17899E-13
 -1      2047 1.98764E+01 2.19117E-01 5.47449E-03 8.11593E-01 7.30102E-14-7.00750E-14
 -1      2048 2.03132E+01 2.75196E-01-2.34442E-03 1.03756E+00 1.31967E-13 1.60124E-13
 -1      2049 1.92768E+01 3.29502E-01-2.43780E-03 1.17057E-01 1.46770E-13-3.15750E-13
 -1      2050 1.94298E+01 3.27205E-01 1.00605E-02 3.60904E-01 5.86337E-15-2.90659E-13
 -1      2051 1.99085E+01 4.35922E-01-7.85536E-03 5.15171E-01 5.26905E-14-8.17868E-14
 -1      2052 1.93807E+01 2.62833E-01-4.38810E-03-4.19087E-01-9.49935E-15-2.58716E-13
 -1      2053 1.93288E+01 3.15008E-01 1.14660E-02-1.78506E-01 2.53790E-14-2.94257E-13
 -1      2054 1.98081E+01 4.46074E-01-8.00459E-03-1.42684E-01 6.41414E-15-2.49065E-13
 -1      2055 1.97897E+01 1.10596E-01-2.79933E-03-7.57773E-01-2.16736E-14-2.52189E-13
 -1      2056 1.95694E+01 1.90012E-01 8.73897E-03-6.06344E-01-1.22324E-14-1.96080E-13
 -1      2057 2.00172E+01 2.97640E-01-3.77713E-03-6.89458E-01-9.40688E-14-2.88766E-13
 -1      2058 2.03179E+01-5.10906E-02 1.03199E-03-8.10087E-01 2.09036E-13-3.80636E-13
 -1      2059 2.00198E+01 1.86901E-02 3.22248E-03-7.84625E-01 1.06180E-13-3.00105E-13
 -1      2060 2.04090E+01 6.85795E-02 1.96542E-03-9.41495E-01 1.34964E-13-3.22076E-13
 -1      2061 2.07689E+01-1.57769E-01 4.13632E-03-6.18415E-01-5.69761E-14-2.24792E-13
 -1      2062 2.04960E+01-1.21637E-01-2.65379E-03-6.98319E-01 1.11132E-13-2.21953E-13
 -1      2063 2.08043E+01-1.39266E-01 4.48450E-03-8.64599E-01 4.87631E-14 6.23269E-14
 -1      2064 2.10209E+01-1.88860E-01 5.29389E-03-3.03248E-01-1.27617E-13-2.45661E-13
 -1      2065 2.08455E+01-1.88731E-01-6.58875E-03-4.36270E-01-1.35479E-13-2.28528E-13
 -1      2066 2.10648E+01-2.54323E-01 3.90728E-03-5.59030E-01-8.73641E-14 2.06493E-14
 -1      2067 2.10457E+01-1.58124E-01 4.91100E-03 1.08850E-02-1.42286E-14-1.49788E-13
 -1      2068 2.09929E+01-1.83106E-01-7.68801E-03-1.22040E-01-2.11966E-14-1.15305E-13
 -1      2069 2.11338E+01-2.65038E-01 2.02965E-03-1.75495E-01-6.52802E-14-2.36231E-15
 -1      2070 2.08867E+01-9.10914E-02 4.00644E-03 2.37223E-01-1.24583E-13 1.55986E-14
 -1      2071 2.09397E+01-1.28055E-01-6.43821E-03 1.41807E-01-9.94343E-14-1.01455E-13
 -1      2072 2.10262E+01-1.98406E-01 2.04705E-04 1.56791E-01-1.13935E-13 2.03682E-13
 -1      2073 2.06228E+01-9.65825E-03 3.05072E-03 3.32224E-01 5.36872E-14 1.80992E-13
 -1      2074 2.07394E+01-4.85240E-02-3.93091E-03 2.94570E-01-7.03714E-14 7.63929E-14
 -1      2075 2.07969E+01-9.00566E-02-1.01950E-03 3.59608E-01-9.48039E-14 2.88963E-13
 -1      2076 2.03424E+01 6.81544E-02 2.87962E-03 2.88972E-01 2.13696E-13 2.56669E-13
 -1      2077 2.04717E+01 3.37744E-02-1.48303E-03 3.14569E-01 2.30926E-13 4.16946E-13
 -1      2078 2.05152E+01 2.68645E-02-2.14894E-03 4.02426E-01 1.41521E-13 5.50868E-13
 -1      2079 2.01541E+01 1.12522E-01 4.04142E-03 1.84999E-01 3.66724E-14 4.01453E-13
 -1      2080 2.02583E+01 9.00563E-02-2.98898E-04 2.51285E-01 1.60914E-13 3.93080E-13
 -1      2081 2.02929E+01 1.10919E-01-3.01667E-03 3.35203E-01 1.10562E-13 9.65841E-13
 -1      2082 2.01502E+01 1.75398E-01 2.45048E-03 2.34533E-01-1.09635E-15 1.00815E-12
 -1      2083 2.01795E+01 1.17160E+00 7.13836E-03 9.24530E-01-1.08101E-13-6.14560E-13
 -1      2084 2.01927E+01 8.76113E-01 4.18546E-03 8.18342E-01-6.84527E-14-3.22020E-13
 -1      2085 2.01969E+01 7.08874E-01 8.16158E-03 6.79242E-01 4.61848E-14 1.07898E-13
 -1      2086 2.01966E+01 4.89820E-01 3.73908E-03 5.66386E-01 2.15242E-14 3.99235E-13
 -1      2087 2.02874E+01 6.30143E-01-6.08943E-03 9.35945E-01-2.94775E-13-1.77241E-13
 -1      2088 2.01772E+01 4.04468E-01 6.93316E-03 4.43172E-01 7.72486E-14 5.75099E-13
 -1      2089 2.01711E+01 2.56796E-01 3.92842E-03 3.38784E-01 1.36974E-14 9.10876E-13
 -1      2090 2.02381E+01 2.29603E-01 1.65746E-03 4.02616E-01 3.26182E-14 8.44389E-13
 -1      2091 2.02805E+01 3.87035E-01-8.31713E-04 6.48279E-01-9.15520E-14 4.94731E-13
 -1      2092 2.01136E+01 1.74100E+00 1.92743E-03 1.11768E+00-3.08907E-13-1.01640E-12
 -1      2093 2.01537E+01 1.39325E+00 4.29959E-03 1.04373E+00-1.25090E-13-8.41739E-13
 -1      2094 2.02419E+01 1.01988E+00-6.22081E-03 1.22694E+00-2.21473E-13-8.71300E-13
 -1      2095 1.99891E+01 2.39682E+00-5.61551E-03 1.19458E+00-4.13034E-13-5.85378E-13
 -1      2096 2.00599E+01 2.02031E+00 3.17878E-03 1.18174E+00-2.95272E-13-6.67500E-13
 -1      2097 2.01212E+01 1.52227E+00-4.63657E-03 1.43619E+00-1.84369E-13-8.84821E-13
 -1      2098 1.98221E+01 3.04611E+00-1.33349E-02 1.08242E+00-2.37308E-13-3.68678E-13
 -1      2099 1.99118E+01 2.70067E+00 3.35495E-04 1.15934E+00-1.90349E-13-6.43054E-13
 -1      2100 1.99195E+01 2.10642E+00-5.62101E-04 1.47390E+00-4.03388E-15-5.04990E-13
 -1      2101 1.96559E+01 3.57202E+00-1.84533E-02 7.49014E-01-5.41711E-13 2.93428E-13
 -1      2102 1.97387E+01 3.32089E+00-4.50974E-03 9.22339E-01-4.12066E-13 3.73868E-14
 -1      2103 1.96725E+01 2.68586E+00 6.17097E-03 1.25918E+00 2.58040E-15-2.53154E-13
 -1      2104 1.95468E+01 3.85380E+00-1.91808E-02 2.28621E-01-6.07425E-13 1.52718E-13
 -1      2105 1.95933E+01 3.75232E+00-1.04907E-02 4.74073E-01-6.34017E-13 4.55384E-13
 -1      2106 1.94482E+01 3.14106E+00 1.31126E-02 7.71890E-01-5.62578E-13 2.65203E-13
 -1      2107 1.95381E+01 3.80963E+00-1.55253E-02-3.75999E-01-4.99415E-13 1.96377E-13
 -1      2108 1.95295E+01 3.88742E+00-1.55442E-02-1.10174E-01-5.40311E-13 2.06997E-13
 -1      2109 1.93244E+01 3.35431E+00 1.72362E-02 8.01588E-02-4.49817E-13 3.43288E-13
 -1      2110 1.96342E+01 3.44203E+00-8.93790E-03-9.17313E-01-2.16382E-13 3.19163E-13
 -1      2111 1.95729E+01 3.68490E+00-1.75861E-02-6.95677E-01-4.00172E-13 2.80543E-13
 -1      2112 1.93502E+01 3.26016E+00 1.63644E-02-6.62902E-01-3.26470E-13 3.12755E-13
 -1      2113 1.98071E+01 2.81177E+00-1.78876E-03-1.29214E+00 1.15471E-13-7.78175E-14
 -1      2114 1.97116E+01 3.18565E+00-1.50003E-02-1.15539E+00-5.88401E-14 1.74650E-13
 -1      2115 1.95183E+01 2.87696E+00 1.05699E-02-1.28989E+00 1.99953E-14 3.14615E-13
 -1      2116 2.00109E+01 2.05015E+00 4.65083E-03-1.42020E+00 3.71926E-13 6.63444E-13
 -1      2117 1.99043E+01 2.48382E+00-8.95361E-03-1.39682E+00 2.73817E-13 4.50941E-14
 -1      2118 1.97843E+01 2.29109E+00 3.41339E-03-1.67161E+00 4.51772E-13 2.14639E-13
 -1      2119 2.02185E+01 1.28357E+00 5.64523E-03-1.29644E+00 1.29367E-13 4.14594E-13
 -1      2120 2.01026E+01 1.71070E+00-4.21681E-03-1.38216E+00 1.43309E-13 8.15628E-13
 -1      2121 2.00855E+01 1.62845E+00-1.78245E-03-1.74134E+00 3.43423E-13 5.31032E-13
 -1      2122 1.01592E+01-5.92199E+00-1.31500E-01 6.61024E+00 6.75793E-13 6.85570E-13
 -1      2123 6.79123E+00-7.29915E+00-3.48073E-01 5.53823E+00 5.54223E-13 6.20920E-13
 -1      2124 2.23150E-01-7.92440E+00-3.99050E-01 8.67065E-01 5.16392E-13 1.14175E-12
 -1      2125 1.63590E-01-8.26950E+00-4.58492E-01-7.05738E-01 2.12635E-13 1.17173E-12
 -1      2126 3.43227E+00-7.03603E+00-2.83004E-01 4.37542E+00 5.97078E-13 6.33937E-13
 -1      2127 1.53077E+00-7.92643E+00-4.19910E-01 2.83240E+00 4.37983E-13 6.99663E-13
 -1      2128 1.77192E+01-4.21079E+00-3.51021E-02 7.24990E+00 6.51923E-13 3.95017E-13
 -1      2129 1.31937E+01-6.07563E+00-3.31836E-01 6.43982E+00 6.57030E-13 6.41764E-13
 -1      2130 1.42136E+01-6.24972E+00-5.77292E-02 7.30301E+00 1.27787E-13 3.48173E-13
 -1      2131 2.66661E+01-1.81849E+00-1.46881E-02 5.87664E+00 7.13984E-13 2.35756E-13
 -1      2132 2.18545E+01-3.33253E+00-1.69885E-01 6.08677E+00 7.32359E-13 2.48246E-13
 -1      2133 1.95240E+01 4.01750E+00-2.49900E-02-1.70021E+00-4.05125E-13-4.72273E-13
 -1      2134 1.96480E+01 3.94377E+00-2.46611E-02-1.95658E+00-4.77446E-13-3.89092E-13
 -1      2135 1.99640E+01 3.23732E+00-1.87439E-02-1.92610E+00-4.98739E-13-3.03880E-13
 -1      2136 1.96952E+01 3.58932E+00-6.70203E-03-1.52053E+00-4.09778E-13-4.67017E-13
 -1      2137 3.88745E+01 5.48149E+00 3.64304E-01 2.32647E+00 7.41851E-13 2.55518E-13
 -1      2138 3.59610E+01 4.16736E+00 1.43809E-01 3.11596E+00 7.71494E-13 2.78555E-13
 -1      2139 4.11949E+01 7.19654E+00 3.65306E-01 6.26734E-01 8.24785E-13 5.71071E-14
 -1      2140 3.99706E+01 6.76752E+00 2.96819E-01 1.77043E+00 7.85705E-13 2.92100E-13
 -1      2141 3.94713E+01 7.11342E+00 2.04361E-01-8.40898E-01 9.56346E-13-2.64233E-13
 -1      2142 4.07836E+01 7.42312E+00 3.62455E-01 1.35464E-01 9.71556E-13-1.57565E-14
 -1      2143 3.61134E+01 4.68141E+00 7.69555E-02-2.14522E+00 1.06837E-12-5.71876E-13
 -1      2144 3.87313E+01 5.95102E+00 2.79666E-01-1.29813E+00 1.00309E-12-2.91489E-13
 -1      2145 3.06532E+01 8.17230E-01-5.56258E-02-3.58000E+00 9.19778E-13-6.82787E-13
 -1      2146 3.47599E+01 2.72436E+00 2.23160E-01-3.17082E+00 9.92907E-13-5.68878E-13
 -1      2147 2.30066E+01-2.84556E+00-1.60706E-01-5.69263E+00 6.81122E-13-8.95284E-13
 -1      2148 2.78199E+01-1.14685E+00 1.02000E-01-5.43103E+00 7.71327E-13-7.09488E-13
 -1      2149 1.59089E+01-5.21098E+00-1.06840E-01-6.59913E+00 4.57134E-13-1.04133E-12
 -1      2150 2.00124E+01-3.45999E+00 7.48915E-02-6.92551E+00 6.08014E-13-1.14342E-12
 -1      2151 2.36441E+01-4.74120E+00 2.27239E-02-5.36190E+00 2.10332E-13-6.54421E-13
 -1      2152 6.19319E+00-7.18573E+00-4.78716E-01-5.19308E+00 6.31384E-13-1.02399E-12
 -1      2153 1.02916E+01-5.56501E+00-1.95991E-01-6.62104E+00 6.18894E-13-1.09249E-12
 -1      2154 1.63800E+00-7.98415E+00-4.85504E-01-3.13116E+00 2.09499E-13-1.14042E-12
 -1      2155 3.66926E+00-6.93765E+00-3.15325E-01-4.46339E+00 5.76206E-13-1.05230E-12
 -1      2156 6.82415E+00-5.69458E+00-1.34620E-01-5.98192E+00 2.65843E-13-1.07064E-12
 -1      2157-4.65536E-02-7.88727E+00-4.27271E-01-1.48058E-01-5.85088E-14-1.16374E-12
 -1      2158 2.09299E-01-7.95336E+00-4.50965E-01-1.54477E+00 1.49963E-13-1.16102E-12
 -1      2159 2.03958E+00-7.64711E+00-4.02346E-01 2.96588E+00-3.28126E-13-4.61020E-13
 -1      2160 6.54778E-01-8.01581E+00-4.54059E-01 1.66544E+00 3.55271E-15-9.20541E-13
 -1      2161 7.41924E+00-6.45259E+00-2.80638E-01 5.30730E+00-3.71814E-13-3.00315E-13
 -1      2162 4.40091E+00-7.88775E+00-4.94720E-01 4.04255E+00-3.66041E-13-3.04756E-13
 -1      2163 1.62252E+01-4.69309E+00-8.69718E-02 6.53102E+00-4.47864E-13-3.94407E-14
 -1      2164 1.16559E+01-6.50356E+00-3.89173E-01 5.59554E+00-3.39506E-13-1.57277E-13
 -1      2165 2.56164E+01-2.38836E+00 6.65958E-02 5.75355E+00-4.32654E-13-2.74891E-13
 -1      2166 2.03043E+01-4.23404E+00-2.63957E-01 5.51715E+00-5.19307E-13-1.19571E-13
 -1      2167 3.40887E+01 1.25127E+00 2.96020E-01 3.86706E+00-6.08957E-13 3.48610E-14
 -1      2168 2.91731E+01-7.46122E-01-7.94047E-02 3.99886E+00-4.74121E-13-2.62790E-13
 -1      2169 4.00460E+01 4.69286E+00 4.43949E-01 2.16246E+00-7.57366E-13-2.00950E-14
 -1      2170 3.62652E+01 3.38535E+00 1.70930E-01 2.97171E+00-7.79363E-13-5.91749E-14
 -1      2171 4.11060E+01 7.08483E+00 3.55766E-01-1.63779E-01-1.05332E-12 4.14835E-13
 -1      2172 4.11193E+01 6.26829E+00 4.93799E-01 1.12793E+00-8.61811E-13 1.32894E-13
 -1      2173 4.04001E+01 7.13016E+00 3.56124E-01-1.03202E+00-1.15841E-12 7.41185E-13
 -1      2174 4.09610E+01 7.45980E+00 3.58144E-01-3.04451E-01-1.20232E-12 5.65688E-13
 -1      2175 3.72216E+01 4.18401E+00 2.13993E-01-2.54204E+00-8.87734E-13 1.08558E-12
 -1      2176 3.93647E+01 5.44716E+00 2.69704E-01-1.48728E+00-1.02574E-12 7.91756E-13
 -1      2177 3.10371E+01 5.13656E-01-8.08108E-03-4.51851E+00-3.84498E-13 1.49936E-12
 -1      2178 3.55091E+01 2.18004E+00 2.52202E-01-3.91833E+00-5.00346E-13 1.53533E-12
 -1      2179 2.31635E+01-3.35125E+00-1.88891E-01-5.71057E+00-2.29261E-13 1.12688E-12
 -1      2180 2.82813E+01-1.18861E+00 1.63996E-01-5.97229E+00-3.55938E-13 1.30229E-12
 -1      2181 1.35969E+01-6.12107E+00-3.83681E-01-6.16232E+00-2.76668E-13 8.33472E-13
 -1      2182 1.85816E+01-4.14172E+00-4.59278E-02-7.06608E+00-2.97651E-13 1.15208E-12
 -1      2183 6.04835E+00-7.80944E+00-4.68147E-01-4.99248E+00 1.84297E-14 9.18182E-13
 -1      2184 9.58994E+00-6.14468E+00-2.11190E-01-6.25228E+00-2.61458E-13 7.73978E-13
 -1      2185 1.39191E+00-8.16641E+00-4.52256E-01-2.52761E+00 1.60205E-13 5.91860E-13
 -1      2186 3.24756E+00-7.31907E+00-3.27375E-01-4.01361E+00-9.18154E-14 7.53009E-13
 -1      2187 3.47323E+01 2.74697E+00 3.76129E-01 4.35922E+00 7.56076E-13 1.93179E-13
 -1      2188 3.05639E+01 6.84038E-01 9.24240E-02 4.44564E+00 6.95055E-13 1.64868E-13
 -1      2189 3.39910E+01 2.79839E+00 2.09018E-01 1.19538E+00 6.13787E-13 6.66689E-14
 -1      2190 2.19073E+01-5.22321E+00 6.56800E-02 6.32436E+00 4.26270E-13 8.06855E-14
 -1      2191 2.07353E+01 1.10848E+00-2.09038E-02-1.61595E+00-4.85344E-13 5.40772E-13
 -1      2192 2.06269E+01 1.33221E+00-1.78381E-02-1.67771E+00-5.21276E-13 2.37524E-13
 -1      2193 7.21947E+00-5.85374E+00-1.16707E-01 6.06989E+00 2.47025E-13 6.63136E-13
 -1      2194 2.17788E+00-5.52992E+00-1.99262E-01 2.34967E+00 1.65409E-13 8.67306E-13
 -1      2195 2.03032E+01 1.00313E+00 6.95471E-03-1.26432E+00 2.33927E-15 1.69107E-13
 -1      2196 2.15734E+00-5.54692E+00-2.12499E-01-2.22619E+00 1.90875E-13 9.93594E-13
 -1      2197 2.92150E+01-1.40060E+00 1.03927E-01 4.10573E+00 6.53255E-13 8.64864E-14
 -1      2198 2.80503E+01-3.41157E+00 1.55106E-01 3.63718E+00 5.92526E-13 1.97897E-14
 -1      2199 3.04430E+01-1.56712E+00-1.98387E-01 1.90571E+00 5.75817E-13 1.44884E-14
 -1      2200 6.65855E+00-6.15057E+00-1.71968E-01-5.62154E+00 1.79357E-13 7.82874E-13
 -1      2201 1.41748E+01-6.42698E+00-9.80529E-02-7.00324E+00 1.81744E-13 7.53723E-13
 -1      2202 2.32620E+01-5.21067E+00 3.05063E-02-5.84040E+00 1.13465E-13 8.34222E-13
 -1      2203 3.05522E+01-2.03923E+00 1.48553E-01-3.02051E+00 9.84490E-14 1.00431E-12
 -1      2204 3.47913E+01 2.40536E+00 2.52403E-01-7.66327E-01-4.40106E-13 5.77094E-13
 -1      2205 3.67449E+01 6.48273E+00 2.79936E-01 1.06646E-01-1.07386E-12 4.50473E-13
 -1      2206 3.84769E+01 7.31826E+00 2.30729E-01-4.27765E-01-1.21625E-12 3.34066E-13
 -1      2207 3.47606E+01 7.25563E+00-1.82290E-02-8.51242E-01-1.24384E-12 1.22985E-13
 -1      2208 3.45160E+01 7.70807E+00-2.09746E-02-3.26561E-01-1.31306E-12 8.41298E-14
 -1      2209 3.72456E+01 5.70045E+00 3.69322E-01-3.59773E-01-9.35474E-13-7.77156E-16
 -1      2210 3.42496E+01 1.39669E+00 2.27069E-01 6.44665E-01-6.30204E-13-1.47382E-13
 -1      2211 2.87679E+01-3.18917E+00 9.33447E-02 3.10235E+00-3.08836E-13 4.24105E-14
 -1      2212 2.09436E+01-5.74204E+00 1.06743E-02 5.72155E+00-4.24660E-14 1.59428E-13
 -1      2213 1.21017E+01-6.32348E+00-1.12806E-01 6.42240E+00 6.41709E-14 2.79776E-14
 -1      2214 4.87203E+00-6.11796E+00-2.20743E-01 4.56922E+00 1.16407E-13-3.60156E-13
 -1      2215 2.20125E+00-5.62775E+00-2.28874E-01-3.06048E+00 1.14492E-13-1.31445E-12
 -1      2216 1.46050E+01-5.53791E+00-5.19903E-02-6.91918E+00 3.23130E-13-8.60260E-13
 -1      2217 1.84605E+01-5.77431E+00-1.05072E-01-6.71030E+00-1.21875E-13-6.28862E-13
 -1      2218 1.37031E+01-5.31242E+00 1.45062E-01-7.17520E+00 7.91589E-14-6.78388E-13
 -1      2219 2.97961E+01-1.56453E+00 1.09281E-01-2.67945E+00 4.59188E-13-2.79998E-13
 -1      2220 3.36807E+01 3.23003E+00 1.86046E-01-2.14431E-01 9.27952E-13-3.12306E-13
 -1      2221 3.57084E+01 7.04153E+00 2.51738E-01 3.83644E-01 1.05826E-12-6.76681E-14
 -1      2222 3.63212E+01 6.48760E+00 3.14213E-01 2.49400E-01 7.86426E-13 1.64535E-13
 -1      2223 3.68747E+01 8.31258E+00 3.39656E-01 2.34863E-01 9.88154E-13 1.54855E-13
 -1      2224 1.37546E+00-5.67129E+00-2.35505E-01 1.05700E+00 9.74359E-14-1.08247E-12
 -1      2225 2.01474E+01 5.06364E-01 3.73298E-03 6.78388E-01 4.10994E-13 2.72461E-13
 -1      2226 2.04154E+01 6.99917E-01 2.07916E-02 9.69961E-01 4.54014E-13 3.45821E-13
 -1      2227 1.95605E+01 3.51572E+00-1.11095E-02-5.91721E-01-1.63646E-13-5.45187E-13
 -1      2228 1.95959E+01 3.46968E+00-1.05113E-02-7.76233E-01-2.32329E-13-5.39396E-13
 -1      2229 1.96427E+01 3.38118E+00-1.27983E-02-9.40544E-01-2.75915E-13-5.31786E-13
 -1      2230 1.97035E+01 3.30059E+00-1.27859E-02-1.13049E+00-3.37172E-13-5.02743E-13
 -1      2231 1.97874E+01 3.03298E+00 3.24700E-04-7.92236E-01-2.38419E-13-4.86187E-13
 -1      2232 1.95133E+01 3.59828E+00-9.62141E-03 9.95152E-02 5.21487E-14-5.54837E-13
 -1      2233 1.95126E+01 3.59909E+00-9.62812E-03-8.00730E-02-1.41315E-15-5.62779E-13
 -1      2234 1.95393E+01 3.55890E+00-9.72315E-03 4.45780E-01 1.61050E-13-5.48528E-13
 -1      2235 1.95219E+01 3.58145E+00-1.01407E-02 2.64848E-01 9.81984E-14-5.48308E-13
 -1      2236 1.96795E+01 3.22095E+00-8.98729E-04 1.69719E-01 7.51011E-14-5.10906E-13
 -1      2237 1.96011E+01 3.46240E+00-1.06153E-02 7.89949E-01 2.59837E-13-4.98353E-13
 -1      2238 1.95648E+01 3.50939E+00-1.12102E-02 6.08423E-01 2.00221E-13-5.26484E-13
 -1      2239 1.97162E+01 3.15746E+00-5.03836E-04 4.88380E-01 1.77061E-13-4.89450E-13
 -1      2240 1.97116E+01 3.28872E+00-1.29540E-02 1.14342E+00 3.81739E-13-4.02768E-13
 -1      2241 1.96490E+01 3.37204E+00-1.28819E-02 9.54096E-01 3.06270E-13-4.56376E-13
 -1      2242 1.97931E+01 3.02385E+00 2.62368E-04 8.04246E-01 2.81431E-13-4.24589E-13
 -1      2243 1.98907E+01 3.00318E+00-1.81760E-02 1.49061E+00 4.86925E-13-3.00107E-13
 -1      2244 1.97913E+01 3.14443E+00-1.51835E-02 1.30014E+00 4.16588E-13-3.60824E-13
 -1      2245 1.99221E+01 2.79874E+00 1.92974E-03 1.11061E+00 3.90224E-13-3.24781E-13
 -1      2246 2.01689E+01 2.54377E+00-2.83991E-02 1.79499E+00 5.71340E-13-1.38740E-13
 -1      2247 2.00178E+01 2.78309E+00-1.70903E-02 1.62052E+00 5.11167E-13-2.33246E-13
 -1      2248 2.01167E+01 2.44823E+00 5.85339E-03 1.37653E+00 4.78321E-13-2.25865E-13
 -1      2249 1.98701E+01 2.68141E-01 4.72237E-03 2.85941E-01 3.11713E-13 1.86186E-13
 -1      2250 2.00310E+01 3.67903E-01 2.01686E-02 4.43057E-01 3.59328E-13 2.59264E-13
 -1      2251 2.02102E+01 6.34517E-01-2.22166E-03 7.05395E-01 4.30991E-13 1.04070E-13
 -1      2252 2.04012E+01 8.54990E-01 1.33170E-02-9.99821E-01-4.47236E-13 9.78412E-14
 -1      2253 2.01891E+01 6.26731E-01-4.64566E-03-6.92676E-01-4.13331E-13 6.78059E-14
 -1      2254 2.05471E+01 1.95507E+00-1.36920E-02-1.89618E+00-5.28600E-13 2.06259E-14
 -1      2255 2.04091E+01 1.20912E+00-8.70175E-03-1.28993E+00-5.00750E-13 5.64145E-14
 -1      2256 2.03821E+01 1.38574E+00 9.58066E-03-1.23857E+00-4.68636E-13-6.46102E-14
 -1      2257 2.02949E+01 2.39748E+00 7.52097E-04-1.83639E+00-5.31577E-13-1.37352E-13
 -1      2258 2.44355E+01-5.26638E+00-6.06650E-02 5.30528E+00 3.26572E-13-1.35419E-13
 -1      2259 2.07682E+01-5.96742E+00 2.05574E-02 6.27128E+00 1.51545E-13 3.60822E-16
 -1      2260 2.01231E+01 4.69130E-01 1.58405E-02-4.75052E-01-3.65637E-13 8.06475E-14
 -1      2261 1.99833E+01 3.44326E-01 2.28467E-04-3.04484E-01-3.05758E-13 3.91894E-14
 -1      2262 2.02454E+01 7.51438E-01 2.00766E-04-6.94758E-01-3.94914E-13-2.77257E-14
 -1      2263 1.99185E+01 2.58891E-01 1.05539E-02-1.66431E-01-2.39065E-13 4.72252E-14
 -1      2264 1.98408E+01 1.87671E-01 8.51301E-04-6.99855E-02-2.00806E-13 1.52454E-14
 -1      2265 2.00816E+01 4.19521E-01-2.23578E-03-3.12672E-01-2.81354E-13-1.85120E-14
 -1      2266 1.97954E+01 1.38038E-01 6.20704E-03 1.24487E-02-1.95344E-13 2.30438E-14
 -1      2267 1.97610E+01 9.58956E-02 8.31099E-04 6.52774E-02-1.74049E-13 4.58742E-15
 -1      2268 1.99599E+01 2.29334E-01-2.74028E-03-7.38317E-02-2.16848E-13-3.67397E-14
 -1      2269 1.97343E+01 6.59205E-02 3.45918E-03 1.11124E-01-1.60530E-13-6.03326E-15
 -1      2270 1.97274E+01 4.05704E-02 7.22707E-04 1.37445E-01-1.52201E-13-3.78410E-14
 -1      2271 1.98836E+01 1.16080E-01-2.45063E-03 6.69942E-02-1.85791E-13-4.38523E-14
 -1      2272 1.97151E+01 2.22766E-02 1.77698E-03 1.59684E-01-1.51347E-13-3.74591E-14
 -1      2273 1.97246E+01 7.23877E-03 6.01028E-04 1.69763E-01-1.08510E-13-6.28275E-14
 -1      2274 1.98435E+01 4.73920E-02-1.92020E-03 1.43341E-01-1.61183E-13-6.94529E-14
 -1      2275 1.97222E+01-3.66970E-03 7.42358E-04 1.77113E-01-9.74297E-14-9.17172E-14
 -1      2276 1.97406E+01-1.20892E-02 4.87804E-04 1.77434E-01-1.13600E-13-1.16436E-13
 -1      2277 1.98291E+01 6.06722E-03-1.41207E-03 1.78142E-01-1.32374E-13-1.51981E-13
 -1      2278 1.97444E+01-1.81371E-02 1.12398E-04 1.75800E-01-1.30354E-13-8.86685E-14
 -1      2279 1.97670E+01-2.21952E-02 3.97668E-04 1.70610E-01-1.31140E-13-9.63863E-14
 -1      2280 1.98316E+01-1.76806E-02-1.00543E-03 1.86970E-01-1.18428E-13-1.37442E-13
 -1      2281 1.97745E+01-2.49690E-02-2.55223E-04 1.64028E-01-1.18965E-13-5.96957E-14
 -1      2282 1.97981E+01-2.61096E-02 3.38506E-04 1.56183E-01-1.15641E-13-9.73923E-14
 -1      2283 1.98442E+01-2.98085E-02-7.07953E-04 1.80469E-01-1.11763E-13-1.00727E-13
 -1      2284 1.98076E+01-2.66445E-02-4.49752E-04 1.47431E-01-8.16070E-14-9.99636E-14
 -1      2285 1.98308E+01-2.58080E-02 3.13730E-04 1.38879E-01-6.61176E-14-8.11182E-14
 -1      2286 1.98625E+01-3.41182E-02-5.05954E-04 1.65972E-01-1.01648E-13-1.03028E-13
 -1      2287 1.98411E+01-2.47838E-02-5.30545E-04 1.29889E-01-8.73514E-14-6.38181E-14
 -1      2288 1.98630E+01-2.25725E-02 3.25169E-04 1.21987E-01-5.71264E-14-1.00310E-13
 -1      2289 1.98837E+01-3.30893E-02-3.82701E-04 1.48572E-01-7.77130E-14-2.76308E-14
 -1      2290 1.98737E+01-2.04205E-02-5.38367E-04 1.14128E-01 1.19979E-14-1.46246E-13
 -1      2291 1.98944E+01-1.71940E-02 3.75081E-04 1.07860E-01 1.06139E-14-1.15136E-13
 -1      2292 1.99059E+01-2.83208E-02-3.23907E-04 1.31851E-01-4.58217E-14-7.24893E-14
 -1      2293 1.99052E+01-1.41617E-02-5.01537E-04 1.02146E-01-6.45906E-14-1.07802E-13
 -1      2294 1.99251E+01-1.00970E-02 4.67152E-04 9.82750E-02-1.42459E-13-1.16266E-13
 -1      2295 1.99286E+01-2.07847E-02-3.18739E-04 1.18413E-01-4.26551E-14-1.99591E-13
 -1      2296 1.99362E+01-6.28973E-03-4.39802E-04 9.55248E-02-1.66328E-13-7.39604E-14
 -1      2297 1.99561E+01-1.41992E-03 6.06889E-04 9.47182E-02-1.52014E-13-1.09918E-13
 -1      2298 1.99518E+01-1.09825E-02-3.59510E-04 1.10264E-01-1.56717E-13-1.30028E-13
 -1      2299 1.99680E+01 3.17026E-03-3.67027E-04 9.56730E-02-1.59377E-13-1.04027E-13
 -1      2300 1.99891E+01 8.92862E-03 8.01727E-04 9.85946E-02-1.07277E-13-9.48454E-14
 -1      2301 1.99761E+01 9.51775E-04-4.40967E-04 1.09112E-01-1.64954E-13-6.70910E-14
 -1      2302 2.00023E+01 1.44026E-02-2.93203E-04 1.04016E-01-5.32056E-14-1.07646E-13
 -1      2303 2.00261E+01 2.12301E-02 1.06094E-03 1.11401E-01-1.04618E-15-1.46604E-13
 -1      2304 2.00026E+01 1.51798E-02-5.59406E-04 1.16594E-01-1.14912E-13-6.36880E-14
 -1      2305 2.00414E+01 2.77655E-02-2.26014E-04 1.22144E-01 2.45678E-14-1.11936E-13
 -1      2306 2.00696E+01 3.59241E-02 1.39526E-03 1.34862E-01 9.91629E-15-1.30643E-13
 -1      2307 2.00327E+01 3.21066E-02-7.11648E-04 1.34460E-01-4.09917E-15-1.01703E-13
 -1      2308 2.00878E+01 4.37601E-02-1.72104E-04 1.51934E-01 4.51965E-14-9.10770E-14
 -1      2309 2.01226E+01 5.35761E-02 1.81608E-03 1.71032E-01 3.93224E-14-5.45061E-14
 -1      2310 2.00680E+01 5.23365E-02-8.93845E-04 1.64705E-01 2.99390E-14-2.86692E-14
 -1      2311 2.01446E+01 6.29937E-02-1.38007E-04 1.95627E-01 7.07794E-16-3.03955E-14
 -1      2312 2.01885E+01 7.48314E-02 2.33367E-03 2.22357E-01 5.71873E-14-9.13979E-14
 -1      2313 2.01106E+01 7.66250E-02-1.10012E-03 2.09670E-01 4.34901E-14 1.60709E-14
 -1      2314 2.02154E+01 8.61190E-02-1.30580E-04 2.55875E-01 1.68432E-14-7.77428E-14
 -1      2315 2.02711E+01 1.00329E-01 2.95388E-03 2.91689E-01-2.11160E-14-8.17961E-14
 -1      2316 2.01625E+01 1.05804E-01-1.32114E-03 2.72087E-01 2.47018E-14-5.01343E-14
 -1      2317 2.03039E+01 1.13716E-01-1.56443E-04 3.35699E-01-4.00270E-14-6.28524E-14
 -1      2318 2.03747E+01 1.30535E-01 3.67196E-03 3.82185E-01-3.69603E-14-1.83448E-14
 -1      2319 2.02261E+01 1.40646E-01-1.54317E-03 3.55051E-01-4.39329E-14 1.10552E-14
 -1      2320 2.04144E+01 1.46056E-01-2.19395E-04 4.38336E-01-6.76815E-14-4.13934E-14
 -1      2321 2.05036E+01 1.65400E-01 4.46187E-03 4.97045E-01-3.36114E-15-5.50087E-14
 -1      2322 2.03035E+01 1.81586E-01-1.74864E-03 4.61884E-01-4.04142E-14 3.09398E-14
 -1      2323 2.05511E+01 1.82645E-01-3.13849E-04 5.66845E-01 5.11409E-14-6.66222E-14
 -1      2324 2.06621E+01 2.03721E-01 5.25881E-03 6.38921E-01 1.23187E-13-3.28864E-14
 -1      2325 2.03969E+01 2.28203E-01-1.92107E-03 5.95788E-01 2.85732E-14 2.23342E-14
 -1      2326 2.07187E+01 2.21352E-01-4.10876E-04 7.23308E-01 1.13422E-13-4.46106E-14
 -1      2327 2.08549E+01 2.41957E-01 5.93231E-03 8.08774E-01 8.82356E-14 1.40367E-14
 -1      2328 2.05084E+01 2.78217E-01-2.05933E-03 7.59174E-01 8.00312E-14-1.06981E-14
 -1      2329 2.09221E+01 2.56876E-01-4.31737E-04 9.07346E-01 1.40231E-13-8.60606E-14
 -1      2330 2.10863E+01 2.72191E-01 6.24869E-03 1.00382E+00 1.83465E-13 4.35711E-15
 -1      2331 2.06402E+01 3.25732E-01-2.21017E-03 9.52438E-01 3.65457E-14-8.19692E-14
 -1      2332 2.11679E+01 2.78164E-01-2.03254E-04 1.11350E+00 1.71950E-13-4.86693E-14
 -1      2333 2.13619E+01 2.78904E-01 5.82560E-03 1.21403E+00 1.79775E-13-6.82491E-14
 -1      2334 2.07964E+01 3.58272E-01-2.53098E-03 1.17188E+00 1.13756E-13-2.01274E-13
 -1      2335 2.14655E+01 2.64597E-01 6.06600E-04 1.32685E+00 8.16479E-14-1.99925E-14
 -1      2336 2.16902E+01 2.34612E-01 4.09309E-03 1.41664E+00-1.78080E-15-3.17526E-14
 -1      2337 2.09850E+01 3.52323E-01-3.38891E-03 1.40634E+00 1.55806E-13-1.94591E-13
 -1      2338 2.18320E+01 1.81451E-01 2.55734E-03 1.51627E+00 7.67002E-14-5.38350E-15
 -1      2339 2.20871E+01 9.58635E-02 2.83448E-04 1.56835E+00 1.18658E-13 6.12171E-14
 -1      2340 2.12243E+01 2.67788E-01-5.46614E-03 1.63186E+00 4.77158E-14-7.28058E-15
 -1      2341 2.22973E+01-2.24247E-02 6.40604E-03 1.62479E+00-6.86300E-16 1.22599E-13
 -1      2342 2.25812E+01-1.94744E-01-6.34996E-03 1.59567E+00-1.13334E-13 1.90305E-13
 -1      2343 2.15515E+01 4.42252E-02-9.72746E-03 1.80381E+00 8.99458E-14 8.88357E-15
 -1      2344 2.29078E+01-4.05149E-01 1.29722E-02 1.55818E+00-2.35020E-13 1.92311E-13
 -1      2345 2.32140E+01-6.86172E-01-1.60147E-02 1.38805E+00-2.39489E-13 2.07828E-13
 -1      2346 2.20342E+01-3.91886E-01-1.66738E-02 1.84520E+00-1.47665E-13 9.42571E-14
 -1      2347 2.37146E+01-9.91440E-01 2.12113E-02 1.17859E+00-1.79812E-13 1.91866E-13
 -1      2348 2.40214E+01-1.34914E+00-2.72224E-02 8.05687E-01-6.20927E-14 1.44289E-13
 -1      2349 2.27744E+01-1.08647E+00-2.41772E-02 1.63234E+00-2.07386E-13 3.74180E-14
 -1      2350 2.47121E+01-1.66891E+00 2.25862E-02 3.32328E-01 2.97293E-14 1.49818E-13
 -1      2351 2.49690E+01-1.93838E+00-3.39775E-02-2.57388E-01 1.27695E-13 1.60151E-13
 -1      2352 2.38711E+01-1.94233E+00-2.59742E-02 9.88876E-01-7.48056E-15 1.04769E-13
 -1      2353 2.57292E+01-2.04638E+00 4.12585E-04-1.01860E+00 1.43398E-13 2.82017E-13
 -1      2354 2.58467E+01-1.88127E+00-2.82781E-02-1.69687E+00 1.15576E-15 3.09141E-13
 -1      2355 2.52886E+01-2.54744E+00-1.54830E-02-2.30686E-01 1.59530E-13 1.49480E-13
 -1      2356 2.63410E+01-1.39277E+00-5.89496E-02-2.51371E+00-6.12704E-14 4.09861E-13
 -1      2357 2.62223E+01-4.94032E-01-1.85913E-02-2.88937E+00-1.91461E-13 4.22323E-13
 -1      2358 2.66740E+01-2.14478E+00-1.12634E-02-1.88083E+00 5.63855E-14 3.06836E-13
 -1      2359 2.62060E+01 6.71466E-01-1.17216E-01-3.10116E+00-2.95472E-13 2.96502E-13
 -1      2360 2.59299E+01 1.96398E+00-2.25329E-02-2.71570E+00-3.14054E-13 2.64493E-13
 -1      2361 2.74048E+01 7.83442E-02-3.73332E-02-3.10020E+00-2.68632E-13 3.17107E-13
 -1      2362 2.56324E+01 2.98699E+00-1.29340E-01-1.76601E+00-5.39652E-13 3.88305E-14
 -1      2363 2.55055E+01 3.53066E+00-7.77140E-02-6.92111E-01-6.71491E-13-2.51341E-13
 -1      2364 2.72993E+01 3.20271E+00-8.40422E-02-2.51787E+00-5.85823E-13 3.21826E-13
 -1      2365 2.54689E+01 3.32610E+00-8.74253E-02 8.02252E-01-5.88057E-13-5.20578E-13
 -1      2366 2.56584E+01 2.51640E+00-1.26028E-01 1.75762E+00-5.77594E-13-5.96669E-13
 -1      2367 2.70790E+01 4.48818E+00-8.62095E-02-1.07081E-02-8.15889E-13-8.75341E-14
 -1      2368 2.58481E+01 1.32538E+00-2.70973E-02 2.40470E+00-4.51944E-13-7.25251E-13
 -1      2369 2.60369E+01 5.25376E-02-1.08345E-01 2.57815E+00-2.06252E-13-6.43482E-13
 -1      2370 2.72817E+01 2.41071E+00-5.76375E-02 2.21145E+00-5.91374E-13-5.54154E-13
 -1      2371 2.58838E+01-9.87764E-01-1.78097E-02 2.14682E+00 3.67258E-14-7.02513E-13
 -1      2372 2.58642E+01-1.70065E+00-3.74435E-02 1.64510E+00 3.09187E-13-5.47201E-13
 -1      2373 2.70852E+01-6.65064E-01-4.68739E-02 2.36457E+00-5.80994E-14-6.99177E-13
 -1      2374 2.52155E+01-2.01667E+00-3.12213E-02 7.89749E-01 3.61744E-13-3.45883E-13
 -1      2375 2.49744E+01-2.04094E+00 7.25733E-03 1.07003E-01 5.72684E-13-3.70837E-13
 -1      2376 2.60896E+01-2.41646E+00-1.49729E-02 8.65949E-01 4.35828E-13-4.70287E-13
 -1      2377 2.41782E+01-1.85287E+00-3.13493E-02-6.04902E-01 6.15858E-13-4.18403E-13
 -1      2378 2.38135E+01-1.53496E+00 2.19191E-02-1.14868E+00 5.80155E-13-4.25141E-13
 -1      2379 2.45692E+01-2.51581E+00-2.13529E-02-7.46639E-01 4.64620E-13-4.81397E-13
 -1      2380 2.31362E+01-1.18909E+00-2.23188E-02-1.55833E+00 3.94832E-13-4.11255E-13
 -1      2381 2.27394E+01-8.20910E-01 1.91984E-02-1.87021E+00 4.01433E-13-4.88771E-13
 -1      2382 2.31427E+01-1.75893E+00-2.51642E-02-1.82467E+00 4.94399E-13-5.18108E-13
 -1      2383 2.22526E+01-5.01013E-01-1.20795E-02-2.01952E+00 3.24812E-13-3.90171E-13
 -1      2384 2.18754E+01-1.96285E-01 1.44117E-02-2.11810E+00 7.07298E-14-2.92308E-13
 -1      2385 2.20685E+01-8.49026E-01-1.92876E-02-2.32722E+00 3.11403E-13-3.72335E-13
 -1      2386 2.15394E+01 5.55346E-02-4.62299E-03-2.08212E+00 6.54637E-14-1.22175E-13
 -1      2387 2.12080E+01 2.85618E-01 9.94296E-03-2.00905E+00 1.79049E-13-3.24354E-14
 -1      2388 2.13278E+01-8.65244E-02-1.17753E-02-2.39952E+00 1.69148E-13-1.66894E-13
 -1      2389 1.96222E+01 7.24725E-02 2.06161E-03-6.53416E-02 1.34558E-13 9.56415E-14
 -1      2390 1.96497E+01 1.04188E-01 6.90529E-03-1.92344E-02 1.68985E-13 1.30250E-13
 -1      2391 1.95984E+01 3.06793E-02 1.33779E-03-1.30982E-01 7.94540E-14 8.86718E-14
 -1      2392 1.95955E+01 4.95620E-02 3.68155E-03-1.08491E-01 9.78671E-14 9.54292E-14
 -1      2393 1.97671E+01 8.97412E-02-3.18068E-03-7.06040E-02 1.37873E-13 8.09671E-15
 -1      2394 1.96102E+01 5.75848E-03 8.78349E-04-1.59480E-01 1.60609E-13 3.65285E-14
 -1      2395 1.95903E+01 1.69401E-02 1.81891E-03-1.51209E-01 1.20958E-13 7.75001E-14
 -1      2396 1.97328E+01 3.58614E-02-2.29088E-03-1.42946E-01 1.17358E-13 1.49702E-14
 -1      2397 1.96423E+01-8.64846E-03 5.68261E-04-1.65394E-01 1.29398E-13 2.19271E-14
 -1      2398 1.96140E+01-2.33162E-03 7.23400E-04-1.65583E-01 1.30868E-13 4.21678E-14
 -1      2399 1.97294E+01 3.93574E-03-1.52528E-03-1.74879E-01 1.50949E-13-6.86846E-14
 -1      2400 1.96844E+01-1.62227E-02 3.60293E-04-1.58166E-01 9.88263E-14 1.68628E-14
 -1      2401 1.96530E+01-1.30857E-02 7.48968E-05-1.63105E-01 1.41649E-13 5.30749E-14
 -1      2402 1.97448E+01-1.42523E-02-9.55400E-04-1.81975E-01 1.25978E-13-5.94808E-14
 -1      2403 1.97299E+01-1.92494E-02 2.31850E-04-1.44081E-01 1.08497E-13-3.64944E-15
 -1      2404 1.96986E+01-1.82308E-02-2.94484E-04-1.51311E-01 7.35377E-14 8.74400E-15
 -1      2405 1.97705E+01-2.35037E-02-5.61620E-04-1.74571E-01 1.08199E-13-2.52580E-14
 -1      2406 1.97750E+01-1.92055E-02 1.68289E-04-1.27397E-01 1.64950E-13-7.14853E-14
 -1      2407 1.97455E+01-1.96167E-02-4.82440E-04-1.35252E-01 1.68597E-13-2.97096E-14
 -1      2408 1.98012E+01-2.68086E-02-3.05799E-04-1.59648E-01 1.43645E-13-8.14456E-14
 -1      2409 1.98179E+01-1.70537E-02 1.59191E-04-1.11032E-01 1.70572E-13-8.34020E-14
 -1      2410 1.97908E+01-1.84488E-02-5.51155E-04-1.18368E-01 1.68892E-13-5.61347E-14
 -1      2411 1.98332E+01-2.60956E-02-1.53708E-04-1.41984E-01 1.58949E-13-1.06809E-13
 -1      2412 1.98579E+01-1.34041E-02 1.97739E-04-9.70293E-02 6.66609E-14-3.34349E-14
 -1      2413 1.98333E+01-1.55061E-02-5.42059E-04-1.03038E-01 1.23294E-13-4.54365E-14
 -1      2414 1.98650E+01-2.26129E-02-7.89051E-05-1.24891E-01 1.19919E-13 1.10207E-14
 -1      2415 1.98957E+01-8.61525E-03 2.80186E-04-8.68815E-02 7.84914E-14-4.02887E-14
 -1      2416 1.98728E+01-1.12682E-02-4.83127E-04-9.09596E-02 8.00607E-14-1.19960E-14
 -1      2417 1.98958E+01-1.71420E-02-6.20303E-05-1.10716E-01 6.04995E-14-7.25541E-15
 -1      2418 1.99324E+01-2.86423E-03 4.05091E-04-8.17601E-02 1.59345E-13 1.02759E-14
 -1      2419 1.99104E+01-5.99915E-03-3.93082E-04-8.34160E-02 1.01942E-13-5.03625E-15
 -1      2420 1.99258E+01-1.01317E-02-8.93227E-05-1.01201E-01 8.72955E-14-2.07585E-14
 -1      2421 1.99700E+01 3.79558E-03 5.72268E-04-8.26786E-02 1.40299E-13 8.82717E-15
 -1      2422 1.99475E+01 1.89933E-04-2.84172E-04-8.14692E-02 1.90662E-13 2.13678E-14
 -1      2423 1.99560E+01-1.79497E-03-1.51164E-04-9.77381E-02 1.35050E-13 4.91027E-14
 -1      2424 2.00108E+01 1.13804E-02 7.81405E-04-9.05961E-02 6.13797E-14-2.71162E-15
 -1      2425 1.99863E+01 7.28565E-03-1.64148E-04-8.60878E-02 1.19537E-13 4.16532E-14
 -1      2426 1.99878E+01 7.81090E-03-2.40832E-04-1.01543E-01 1.31487E-13 1.46874E-13
 -1      2427 2.00575E+01 1.99167E-02 1.03018E-03-1.06462E-01-1.59340E-14 1.29068E-14
 -1      2428 2.00292E+01 1.53169E-02-3.77566E-05-9.82192E-02 3.81565E-14 3.41948E-14
 -1      2429 2.00229E+01 1.87059E-02-3.53413E-04-1.13762E-01 3.48263E-14 1.71003E-13
 -1      2430 2.01134E+01 2.93675E-02 1.31162E-03-1.31196E-01-9.27367E-14-5.09028E-14
 -1      2431 2.00793E+01 2.42898E-02 9.20982E-05-1.18800E-01-5.79097E-14 2.66978E-14
 -1      2432 2.00636E+01 3.08992E-02-4.84858E-04-1.35509E-01-5.06309E-14 1.68771E-13
 -1      2433 2.01819E+01 3.95351E-02 1.61055E-03-1.65581E-01-9.95346E-14-1.18035E-13
 -1      2434 2.01399E+01 3.41042E-02 2.23450E-04-1.48692E-01-7.42396E-14-9.52139E-14
 -1      2435 2.01125E+01 4.42784E-02-6.31192E-04-1.67819E-01-5.97944E-14 1.23818E-13
 -1      2436 2.02666E+01 4.99259E-02 1.89862E-03-2.10049E-01 6.80452E-14-8.23723E-14
 -1      2437 2.02145E+01 4.44401E-02 3.54604E-04-1.88527E-01-5.18636E-14-1.69540E-13
 -1      2438 2.01721E+01 5.84607E-02-7.87941E-04-2.11501E-01-6.81211E-14-5.41516E-14
 -1      2439 2.03713E+01 5.95682E-02 2.12824E-03-2.64327E-01 8.80971E-14 6.84243E-14
 -1      2440 2.03070E+01 5.46018E-02 4.83779E-04-2.38417E-01 1.31996E-13 1.71911E-14
 -1      2441 2.02457E+01 7.25906E-02-9.49935E-04-2.66859E-01 2.20423E-14-8.43074E-14
 -1      2442 2.04991E+01 6.67708E-02 2.22533E-03-3.26877E-01-4.89390E-14 1.93570E-14
 -1      2443 2.04209E+01 6.33075E-02 6.09143E-04-2.97506E-01 4.74554E-14 1.02557E-13
 -1      2444 2.03362E+01 8.50673E-02-1.11164E-03-3.33240E-01 5.91502E-14 1.85529E-13
 -1      2445 2.06526E+01 6.88346E-02 2.08279E-03-3.94123E-01-9.27397E-14-4.62743E-15
 -1      2446 2.05596E+01 6.84240E-02 7.29345E-04-3.63300E-01-9.20751E-14 5.09036E-14
 -1      2447 2.04467E+01 9.31964E-02-1.26810E-03-4.08370E-01-2.58393E-14 6.24648E-14
 -1      2448 2.08326E+01 6.17653E-02 1.55784E-03-4.59409E-01 5.99799E-14-4.84189E-14
 -1      2449 2.07254E+01 6.66672E-02 8.44359E-04-4.30755E-01-3.06927E-14-4.68694E-14
 -1      2450 2.05801E+01 9.27934E-02-1.41604E-03-4.87428E-01 2.26891E-15-8.58054E-14
 -1      2451 2.10379E+01 4.01309E-02 4.80368E-04-5.11791E-01 6.87094E-14 1.59588E-14
 -1      2452 2.09191E+01 5.33586E-02 9.55765E-04-4.91125E-01 8.68320E-14-3.84963E-14
 -1      2453 2.07388E+01 7.78380E-02-1.55349E-03-5.61860E-01 6.15527E-14-4.71444E-14
 -1      2454 2.12634E+01-2.62084E-03-1.31575E-03-5.34878E-01 1.01808E-13 7.04298E-15
 -1      2455 2.11387E+01 2.24479E-02 1.06295E-03-5.30709E-01 1.23616E-13 1.79284E-14
 -1      2456 2.09244E+01 4.04324E-02-1.67412E-03-6.18040E-01 7.52886E-14-6.98961E-14
 -1      2457 2.14995E+01-7.28055E-02-3.91920E-03-5.06352E-01-5.35627E-14 5.93396E-14
 -1      2458 2.13787E+01-3.27659E-02 1.15120E-03-5.29889E-01-3.41263E-15 5.04995E-14
 -1      2459 2.11371E+01-2.84165E-02-1.74860E-03-6.36072E-01-1.41251E-14-3.17635E-14
 -1      2460 2.17298E+01-1.73236E-01-7.20590E-03-3.99353E-01-7.88876E-14 1.62664E-13
 -1      2461 2.16273E+01-1.17487E-01 1.16062E-03-4.63347E-01-2.29124E-14 1.36575E-13
 -1      2462 2.13746E+01-1.36292E-01-1.68002E-03-5.89470E-01-6.89233E-14 1.19523E-13
 -1      2463 2.19297E+01-2.97202E-01-1.06341E-02-1.87685E-01-3.81813E-15 6.65933E-14
 -1      2464 2.18645E+01-2.30907E-01 9.29251E-04-3.03073E-01-2.31124E-14 1.92140E-13
 -1      2465 2.16296E+01-2.83921E-01-1.23681E-03-4.47131E-01-6.11099E-14 2.38774E-13
 -1      2466 2.20647E+01-4.20082E-01-1.30391E-02 1.42643E-01-3.15776E-14-1.96944E-14
 -1      2467 2.20587E+01-3.58817E-01 1.38824E-04-2.66660E-02-8.31626E-15 1.53347E-14
 -1      2468 2.18855E+01-4.55952E-01-4.69033E-06-1.80014E-01-8.09639E-15 1.00005E-13
 -1      2469 2.20921E+01-4.92452E-01-1.25252E-02 5.74327E-01-1.91832E-13 8.43462E-14
 -1      2470 2.21651E+01-4.65101E-01-1.63010E-03 3.66610E-01-1.05792E-13 9.67179E-15
 -1      2471 2.21097E+01-6.09658E-01 2.50467E-03 2.24325E-01-6.29984E-14 1.18743E-13
 -1      2472 2.19683E+01-4.45124E-01-7.26179E-03 1.03558E+00-6.65574E-14 1.71525E-13
 -1      2473 2.21294E+01-4.88498E-01-4.38598E-03 8.32486E-01-1.16946E-13 1.48800E-13
 -1      2474 2.22495E+01-6.69016E-01 6.52176E-03 7.37782E-01-1.77797E-13 2.45141E-13
 -1      2475 2.16712E+01-2.20959E-01 2.32035E-03 1.38865E+00-3.35402E-14 3.48081E-13
 -1      2476 2.19065E+01-3.59262E-01-7.81212E-03 1.26042E+00-8.96566E-14 2.12176E-13
 -1      2477 2.22376E+01-5.39779E-01 1.08921E-02 1.26291E+00-1.18036E-13 3.77823E-13
 -1      2478 2.12353E+01 1.66736E-01 1.22784E-02 1.45961E+00 1.32300E-13 4.71565E-13
 -1      2479 2.15003E+01-4.62259E-02-1.01052E-02 1.48114E+00 7.36181E-14 4.64235E-13
 -1      2480 2.20255E+01-1.68252E-01 1.07418E-02 1.62290E+00-8.44583E-15 4.31854E-13
 -1      2481 2.07779E+01 5.88998E-01 1.66654E-02 1.12731E+00 1.26727E-13 3.34267E-13
 -1      2482 2.10041E+01 3.83525E-01-7.34616E-03 1.33293E+00 2.11788E-13 4.06882E-13
 -1      2483 2.16437E+01 3.84418E-01 3.03205E-03 1.61029E+00 2.16879E-13 4.31765E-13
 -1      2484 2.04756E+01 8.37286E-01 1.22628E-02 4.40716E-01 2.23395E-13-3.50547E-14
 -1      2485 2.05956E+01 7.47119E-01 1.98277E-03 7.78967E-01 2.01074E-13 2.52973E-13
 -1      2486 2.12416E+01 9.08976E-01-7.95655E-03 1.11280E+00 2.90932E-13 2.53632E-13
 -1      2487 2.04578E+01 7.64700E-01 1.32720E-03-3.53276E-01-3.69921E-14-1.01753E-13
 -1      2488 2.04416E+01 8.46117E-01 1.38280E-02-9.09257E-03 1.45913E-13-6.76873E-14
 -1      2489 2.10255E+01 1.13835E+00-1.32081E-02 2.53508E-01 2.14615E-13 2.33256E-13
 -1      2490 2.07057E+01 4.14009E-01-8.93405E-03-9.33394E-01-2.73306E-14-2.74652E-13
 -1      2491 2.05780E+01 6.16652E-01 1.78923E-02-7.15558E-01-1.17678E-13-2.14032E-13
 -1      2492 2.11035E+01 9.40322E-01-8.12643E-03-6.22981E-01 3.34403E-14-9.53164E-14
 -1      2493 2.10624E+01-2.44816E-02-1.09729E-02-1.11174E+00 7.65058E-14-2.29381E-13
 -1      2494 2.08862E+01 1.94685E-01 1.38911E-02-1.07905E+00 6.77427E-14-3.32419E-13
 -1      2495 2.13847E+01 4.23998E-01 1.54756E-03-1.15834E+00 3.39498E-14-2.51399E-13
 -1      2496 2.13396E+01-3.53848E-01-8.21884E-03-9.05052E-01-5.54873E-14-9.03251E-14
 -1      2497 2.11866E+01-2.09671E-01 3.45030E-03-1.02688E+00 9.99892E-14-1.78441E-13
 -1      2498 2.16678E+01-1.46489E-01 9.73375E-03-1.20028E+00-7.51439E-15-3.08270E-13
 -1      2499 2.14345E+01-4.88302E-01-3.73484E-03-4.78371E-01-1.52552E-13 5.31960E-14
 -1      2500 2.13526E+01-4.46498E-01-6.50822E-03-6.76946E-01-7.53603E-14 6.17362E-14
 -1      2501 2.17867E+01-5.38133E-01 9.95291E-03-8.50051E-01-1.27282E-13-2.05446E-13
 -1      2502 2.13402E+01-4.46538E-01 4.32552E-04-1.90583E-02-8.51120E-14 1.53562E-13
 -1      2503 2.13429E+01-4.87427E-01-1.18751E-02-2.16025E-01-1.15990E-13 1.43318E-13
 -1      2504 2.16995E+01-6.65998E-01 5.92306E-03-3.24272E-01-1.72462E-13 4.57914E-14
 -1      2505 2.11080E+01-2.94494E-01 3.47330E-03 3.37647E-01-1.76966E-13 6.43379E-14
 -1      2506 2.11817E+01-3.82479E-01-1.25126E-02 1.95557E-01-1.75493E-13 3.21698E-14
 -1      2507 2.14526E+01-5.71083E-01 1.74949E-03 1.75422E-01-1.11788E-13 7.26534E-14
 -1      2508 2.08050E+01-9.43535E-02 6.04614E-03 5.25078E-01-4.72205E-14 2.00309E-13
 -1      2509 2.09216E+01-2.00774E-01-1.03098E-02 4.62560E-01-6.69484E-14 2.85511E-13
 -1      2510 2.11196E+01-3.44320E-01-8.19828E-04 5.23763E-01-2.16199E-13 1.30374E-14
 -1      2511 2.04845E+01 1.01673E-01 5.59475E-03 5.24585E-01-5.67623E-14 6.49337E-13
 -1      2512 2.06163E+01 5.94708E-03-6.46016E-03 5.46112E-01-1.07383E-13 4.89056E-13
 -1      2513 2.07642E+01-6.01781E-02 6.66546E-04 6.71152E-01-2.26393E-13 5.04808E-13
 -1      2514 2.03198E+01 1.86703E-01-4.65102E-04 4.48426E-01 2.55840E-14 7.02375E-13
 -1      2515 2.01490E+01 1.28409E+00-4.53206E-03 1.68370E+00-7.87572E-14-5.89464E-13
 -1      2516 2.02816E+01 1.02765E+00 7.53670E-03 1.60614E+00-1.71470E-13-9.32605E-13
 -1      2517 1.97926E+01 1.80397E+00-1.34851E-02 1.69518E+00 1.67910E-13-3.09189E-13
 -1      2518 1.99906E+01 1.53832E+00 9.28035E-03 1.73276E+00-1.58311E-14-3.58916E-13
 -1      2519 2.00826E+01 9.96351E-01-5.83132E-03 1.93783E+00 7.67158E-14-5.30652E-13
 -1      2520 2.04597E+01 5.29022E-01 7.44474E-03 1.12538E+00-3.09800E-13-4.46858E-13
 -1      2521 2.04644E+01 3.56910E-01 1.63377E-03 9.60909E-01-2.21434E-13-4.92755E-14
 -1      2522 2.03714E+01 8.49614E-01 2.98684E-03 1.45438E+00-3.10347E-13-9.93717E-13
 -1      2523 2.04294E+01 6.36220E-01 4.87183E-03 1.31410E+00-3.36811E-13-6.01071E-13
 -1      2524 2.05810E+01 3.13564E-01-5.57949E-03 1.34825E+00-3.20351E-13-6.44428E-13
 -1      2525 2.04267E+01 5.86194E-01-5.41125E-03 1.71321E+00-2.50176E-13-8.31798E-13
 -1      2526 1.93714E+01 2.32999E+00-2.00237E-02 1.39315E+00-7.35682E-14-3.15911E-13
 -1      2527 1.95888E+01 2.09998E+00 7.68684E-03 1.57992E+00 1.80154E-13-5.46173E-13
 -1      2528 1.95869E+01 1.51825E+00-1.53108E-03 1.88208E+00 1.01372E-13-4.97640E-13
 -1      2529 1.90174E+01 2.73703E+00-2.07673E-02 7.65564E-01-5.46313E-13 2.89780E-13
 -1      2530 1.91826E+01 2.59220E+00 1.71086E-03 1.09066E+00-4.30387E-13 4.74963E-14
 -1      2531 1.90531E+01 2.04958E+00 7.26405E-03 1.44518E+00-1.83240E-13-3.90080E-13
 -1      2532 1.88637E+01 2.90375E+00-1.48926E-02-8.49708E-02-2.43737E-13 4.43037E-13
 -1      2533 1.89115E+01 2.88135E+00-7.28216E-03 3.17977E-01-4.49253E-13 4.41014E-13
 -1      2534 1.86512E+01 2.43609E+00 1.50508E-02 6.45221E-01-2.98672E-13 4.53237E-13
 -1      2535 1.89771E+01 2.77042E+00-4.98298E-03-9.44942E-01 2.24518E-14 3.87180E-13
 -1      2536 1.88863E+01 2.87606E+00-1.59557E-02-5.66169E-01-1.39037E-13 4.08028E-13
 -1      2537 1.85376E+01 2.54488E+00 1.75239E-02-3.53602E-01-7.58562E-14 5.55714E-13
 -1      2538 1.93213E+01 2.36609E+00 3.97638E-03-1.62963E+00 9.57327E-14 3.95636E-13
 -1      2539 1.91226E+01 2.58280E+00-1.96940E-02-1.35160E+00 4.11573E-14 3.06645E-13
 -1      2540 1.87617E+01 2.33810E+00 1.22368E-02-1.30612E+00 1.39276E-13 3.72466E-13
 -1      2541 1.97849E+01 1.80155E+00 8.61748E-03-1.98193E+00 3.83181E-13 3.12474E-13
 -1      2542 1.95412E+01 2.08775E+00-1.67163E-02-1.86411E+00 2.32978E-13 3.42334E-13
 -1      2543 1.92515E+01 1.89246E+00 2.83227E-03-1.98424E+00 1.85578E-13 5.01878E-13
 -1      2544 2.02534E+01 1.21602E+00 1.15979E-02-1.96820E+00 1.17150E-13 4.49759E-13
 -1      2545 2.00201E+01 1.52155E+00-7.78664E-03-2.01660E+00 2.48798E-13 4.69863E-13
 -1      2546 1.98588E+01 1.35896E+00-6.24961E-04-2.25799E+00 1.10767E-13 3.68077E-13
 -1      2547 4.48189E+00-3.52243E+00 6.27926E-02 3.56541E+00 1.01474E-13 6.01796E-13
 -1      2548 3.30447E+00-3.45765E+00 7.84690E-02 1.11378E+00 1.57825E-14 1.05205E-12
 -1      2549 1.04785E+01-4.60585E+00 5.63773E-02 6.85007E+00-8.43769E-15 3.80640E-13
 -1      2550 7.31661E+00-4.06751E+00 1.08491E-01 5.40453E+00 1.49880E-15 5.10508E-13
 -1      2551 3.15957E+00-3.48117E+00 7.47104E-02-8.49311E-01 3.33376E-13 1.31234E-12
 -1      2552 4.20716E+00-3.59733E+00 4.03901E-02-3.16283E+00 1.92790E-13 7.64222E-13
 -1      2553 5.14933E+00-2.09370E+00 1.61467E-01 2.33424E-01 4.49606E-14 9.73666E-13
 -1      2554 1.97034E+01 1.43217E-01 3.25419E-03 6.06588E-02 1.99290E-13 1.26282E-13
 -1      2555 1.97821E+01 1.98055E-01 1.23775E-02 1.46824E-01 2.45338E-13 1.64128E-13
 -1      2556 1.98482E+01 1.80799E-01-3.87135E-03 6.62111E-02 2.16727E-13 2.60005E-14
 -1      2557 2.05122E+01 8.71368E-01 8.54821E-05-1.53439E+00 5.02679E-14 1.18685E-13
 -1      2558 1.69682E+01-5.89046E+00-4.16932E-03 7.37030E+00-6.88893E-14 1.27138E-13
 -1      2559 1.38586E+01-5.59334E+00 7.96874E-02 7.18390E+00-1.04028E-13 1.64521E-13
 -1      2560 1.35441E+01-4.50872E+00 1.42316E-01 6.79810E+00-1.84047E-13 2.02671E-13
 -1      2561 2.03336E+01-5.79629E+00 1.04459E-01 6.44837E+00-1.06387E-13 8.80442E-14
 -1      2562 3.23522E+01 2.69123E+00-1.40129E-01-2.95870E-01 6.67633E-13-3.99680E-15
 -1      2563 3.15235E+01 8.72229E-01-6.11939E-02 2.40428E-01 6.41778E-13 1.71529E-14
 -1      2564 2.77531E+01-3.32740E+00-4.20865E-02-2.31166E+00 2.48426E-13-2.19491E-13
 -1      2565 2.99752E+01-1.35915E+00-1.39484E-01-8.33458E-01 3.95496E-13-2.01950E-13
 -1      2566 1.95199E+01 3.58446E+00-1.00937E-02-2.45412E-01-4.60343E-14-5.60265E-13
 -1      2567 1.95359E+01 3.56375E+00-9.67159E-03-4.26247E-01-1.16615E-13-5.49147E-13
 -1      2568 1.97123E+01 3.16319E+00-5.56749E-04-4.73580E-01-1.28065E-13-4.83881E-13
 -1      2569 1.96781E+01 3.22305E+00-9.12864E-04-1.52082E-01-3.49300E-14-5.11486E-13
 -1      2570 3.26874E+01 7.73041E+00-1.62405E-01 1.86121E-01 1.02385E-12-1.05159E-14
 -1      2571 3.32088E+01 7.47894E+00-1.14086E-01-2.03291E-01 8.87845E-13 1.80411E-14
 -1      2572 3.30008E+00-3.65489E+00 4.23123E-02 2.32281E+00 3.00357E-13-9.18821E-13
 -1      2573 2.51206E+00-3.46097E+00 3.89640E-02 3.87721E-02 2.85612E-13-1.06753E-12
 -1      2574 3.33142E+01 6.54638E+00-1.19247E-01-5.24852E-01 7.20202E-13 2.75890E-14
 -1      2575 3.25372E+01 5.09203E+00-1.22214E-01-6.70282E-01 6.85507E-13-8.91509E-14
 -1      2576 3.06826E+01 6.70928E+00-5.37396E-02-8.07331E-01 7.93560E-13-3.62224E-13
 -1      2577 3.20707E+01 5.76022E+00-1.39553E-01 1.15170E+00 9.63007E-13-7.33580E-14
 -1      2578 3.26258E+01 7.06224E+00-1.43786E-01 8.39460E-01 1.05754E-12 3.23352E-15
 -1      2579 3.09026E+01 1.41730E+00-8.11007E-02 6.87651E-01 6.55170E-13-6.98608E-14
 -1      2580 3.18196E+01 3.45700E+00-1.61237E-01 1.07903E+00 8.37053E-13-6.66966E-14
 -1      2581 2.33401E+01-5.20284E+00-7.99295E-03-4.91169E+00-2.12885E-14-4.23300E-13
 -1      2582 2.62433E+01-4.41241E+00-1.40860E-02-3.88159E+00 1.83659E-13-1.82743E-13
 -1      2583 2.74656E+01-3.96724E+00 1.47122E-02-1.98469E+00 5.74193E-14-2.73115E-14
 -1      2584 7.03028E+00-4.23205E+00 7.15544E-02-5.57002E+00-3.36953E-14-1.16146E-12
 -1      2585 9.56731E+00-4.43236E+00 5.38432E-02-6.71132E+00 1.04028E-13-9.01834E-13
 -1      2586 3.09736E+00-3.48794E+00 6.61750E-02-2.20832E+00 1.05929E-13-1.19554E-12
 -1      2587 4.62087E+00-3.69007E+00 5.72564E-02-4.27408E+00 1.23651E-13-1.26166E-12
 -1      2588 7.45229E+00-2.81968E+00 1.53607E-01-4.91185E+00-8.39051E-14-1.11380E-12
 -1      2589 7.70114E+00-4.88981E+00 1.57483E-03 5.66655E+00 3.41283E-13-4.65183E-14
 -1      2590 5.12717E+00-4.42951E+00 2.80737E-02 4.16527E+00 4.50778E-13-3.38563E-13
 -1      2591 1.52257E+01-5.77344E+00-3.71705E-02 6.68391E+00 3.48166E-13 2.71588E-13
 -1      2592 1.12491E+01-5.52836E+00 3.35918E-02 6.21268E+00 3.74534E-13 2.27596E-15
 -1      2593 2.35296E+01-5.75668E+00-8.43730E-02 4.92109E+00 1.23179E-13 2.59182E-13
 -1      2594 1.98270E+01-6.06736E+00 4.73319E-02 5.67996E+00 2.58155E-13 2.84148E-13
 -1      2595 2.99403E+01-3.06946E+00-1.10720E-01 1.40860E+00-9.04554E-14 1.46272E-13
 -1      2596 2.70003E+01-4.65715E+00 3.43933E-03 2.77673E+00 7.57450E-14 2.46608E-13
 -1      2597 3.33876E+01 1.76809E+00-7.60823E-02-9.58439E-01-5.73847E-13 1.24234E-13
 -1      2598 3.15695E+01-4.32329E-01-7.87820E-02-5.23398E-01-3.61947E-13 1.86406E-13
 -1      2599 3.40486E+01 5.43546E+00-1.16981E-01-1.46431E+00-9.33587E-13 3.76449E-13
 -1      2600 3.36370E+01 3.73883E+00-9.70382E-02-1.49956E+00-7.69912E-13 2.05447E-13
 -1      2601 3.16755E+01 2.35617E+00-1.30888E-02-2.30917E+00-5.83422E-13 4.34680E-13
 -1      2602 3.32124E+01 4.90718E+00-8.54667E-02 1.17604E+00-8.67195E-13 4.67126E-14
 -1      2603 3.37669E+01 6.40397E+00-1.00520E-01 5.87612E-01-1.20332E-12 7.33302E-14
 -1      2604 3.22250E+01 2.81606E-01-5.94430E-02 5.40461E-02-1.84505E-13 4.53915E-13
 -1      2605 3.31285E+01 2.39972E+00-1.56588E-01 7.68533E-01-5.64188E-13 2.60875E-13
 -1      2606 2.88023E+01-3.72290E+00-1.80895E-03-2.43498E+00 2.31676E-13 9.02611E-13
 -1      2607 3.10390E+01-2.01886E+00-1.09299E-01-1.37249E+00 8.53206E-14 8.00915E-13
 -1      2608 2.17178E+01-6.05802E+00 2.29839E-02-5.83253E+00 2.94292E-13 6.61471E-13
 -1      2609 2.56701E+01-5.31961E+00-9.34716E-02-4.71907E+00 2.39919E-13 8.24701E-13
 -1      2610 1.37286E+01-5.86250E+00 4.06174E-02-6.93187E+00 2.96541E-13 7.31137E-13
 -1      2611 1.76433E+01-6.02190E+00-2.30013E-02-7.11568E+00 1.39222E-13 6.36664E-13
 -1      2612 7.00257E+00-4.43276E+00 8.82183E-02-5.30483E+00 2.84162E-13 5.87197E-13
 -1      2613 9.95741E+00-5.14289E+00 1.60398E-02-6.71677E+00 3.33400E-13 7.79765E-13
 -1      2614 2.04899E+01 8.74887E-01-7.31691E-03 1.22715E+00 5.02862E-13 3.84188E-13
 -1      2615 2.08405E+01 1.25691E+00-6.05189E-03 1.72783E+00 5.35398E-13 4.60135E-13
 -1      2616 2.06464E+01 1.71560E+00-1.57903E-02 1.92201E+00 5.82888E-13 2.65749E-13
 -1      2617 2.04486E+01 1.05792E+00-9.39213E-03 1.24199E+00 5.20429E-13 1.68398E-13
 -1      2618 3.03921E+01 7.05598E+00-8.23585E-02 7.32755E-01 1.01635E-12-1.31534E-13
 -1      2619 1.99135E+01 2.81024E+00 1.14645E-03-1.09785E+00-3.44775E-13-4.33289E-13
 -1      2620 1.97804E+01 3.15605E+00-1.62000E-02-1.28753E+00-3.73003E-13-4.70353E-13
 -1      2621 1.98833E+01 3.01265E+00-1.85356E-02-1.47747E+00-4.29820E-13-4.19047E-13
 -1      2622 1.99940E+01 3.40051E-01-3.57041E-03 3.05286E-01 3.13152E-13 5.37487E-14
 -1      2623 2.04221E+01 2.11572E+00-1.27797E-02 1.87504E+00 5.66942E-13 4.97102E-14
 -1      2624 2.65113E+01-4.71937E+00 5.06828E-02 3.92878E+00 2.85272E-13-1.27676E-15
 -1      2625 2.53549E+01-5.39301E+00 8.59041E-02 4.17254E+00-1.62925E-14 1.29827E-14
 -1      2626 2.75735E+01-4.34364E+00-1.98301E-01 2.33553E+00 2.29733E-13 1.19141E-13
 -1      2627 2.04207E+01 1.89658E-01-4.16633E-04 6.11148E-01-1.22560E-13 5.33888E-13
 -1      2628 3.08737E+01 3.49098E+00-7.23852E-02-1.32208E+00 6.09734E-13-2.06835E-13
 -1      2629 2.04508E+01 2.74179E-01 4.23121E-03 7.40648E-01-1.36653E-13 4.27526E-13
 -1      2630 7.28676E+00-2.99729E+00 1.56020E-01-4.23257E+00 3.39909E-13 6.17950E-13
 -1      2631 2.04362E+01 1.80796E+00 1.25469E-02 1.56282E+00 5.34068E-13 1.13087E-14
 -1      2632 7.76255E+00-2.66091E+00 1.59669E-01 4.46509E+00-4.58383E-14 5.56138E-13
 -1      2633 1.37192E+01-4.84947E+00 1.33311E-01-6.77957E+00 3.42865E-13 8.01054E-13
 -1      2634 3.03519E+01-8.59026E-01-1.23598E-02 4.72847E-01 6.31460E-13 1.02418E-13
 -1      2635 1.33183E+01-4.64075E+00 1.03212E-01-6.75064E+00-2.06224E-13-6.43943E-13
 -1      2636 2.10064E+01-5.96202E+00 1.02596E-01-6.04190E+00 3.02647E-13 6.13700E-13
 -1      2637 2.95502E+01-4.99008E-01-4.10610E-02 7.25088E-01 4.16049E-13-1.14353E-14
 -1      2638 2.74514E+01-4.90631E+00 2.62425E-02-2.88318E+00 3.18884E-13 8.58202E-13
 -1      2639 3.09147E+01-1.36291E+00-1.26157E-02 4.12628E-01-9.92539E-14 4.73149E-13
 -1      2640 3.23849E+01 5.96854E+00-3.26933E-02-1.85304E+00-9.73222E-13 1.77969E-13
 -1      2641 3.20399E+01 6.55942E+00-6.59347E-02 4.64720E-01-1.25189E-12-2.08410E-13
 -1      2642 3.03027E+01-2.19937E+00-3.43762E-02-5.41763E-01-2.29851E-15 3.98348E-13
 -1      2643 2.59599E+01-5.34722E+00 5.79988E-02 3.07139E+00 2.92544E-13 3.10654E-13
 -1      2644 1.86725E+01-5.71781E+00 1.01452E-01 5.91211E+00 4.98546E-13 2.23831E-13
 -1      2645 4.58670E+00-2.12551E+00 1.56186E-01-1.09912E+00 2.72733E-13-1.06787E-12
 -1      2646 2.20380E+01-5.60454E+00 6.11178E-02-5.51064E+00-2.28512E-13-5.48811E-13
 -1      2647 2.43818E+01-5.31885E+00-2.62463E-02-4.03468E+00-2.37255E-13-7.78821E-14
 -1      2648 2.01050E+01-5.33727E+00 9.85350E-02-5.95379E+00-3.78864E-13-3.59662E-13
 -1      2649 2.01188E+01 2.61284E+00-9.97751E-03-1.67668E+00-4.95752E-13-2.64231E-13
 -1      2650 5.84839E+00-2.87737E+00 1.36397E-01 3.29829E+00 5.82631E-13-5.73930E-13
 -1      2651 2.06017E+01 1.33324E-01-4.74665E-03 9.12111E-01-2.72410E-13 2.14502E-13
 -1      2652 3.01536E+01 4.24564E+00-7.72588E-02 1.86027E+00 8.24507E-13 9.61731E-14
 -1      2653 2.07963E+01 5.77256E-01 1.15827E-02-1.72124E+00 1.07570E-13-1.17100E-13
 -1      2654 2.04640E+01 9.54151E-01-3.65658E-03-1.90954E+00 1.19423E-13 1.41544E-13
 -1      2655 2.04730E+01 8.38825E-01-5.69641E-04-2.19536E+00 7.59806E-14 4.02002E-13
 -1      2656 2.10522E+01 4.20786E-01 1.76993E-03-1.90085E+00 1.98961E-13 2.75437E-14
 -1      2657 1.11123E+01-4.41277E+00 1.21703E-01 6.00754E+00 5.58470E-13 1.07414E-14
 -1      2658 3.15285E+01 3.12473E+00-6.42124E-02 1.73405E+00-6.04766E-13-1.12854E-13
 -1      2659 2.08891E+01 4.25186E-01-6.94554E-03-2.21867E+00 1.95776E-13-3.18571E-14
 -1      2660 1.98459E+01 2.76452E+00-6.29700E-03 5.16596E-01 2.02426E-13-4.38741E-13
 -1      2661 1.98211E+01 2.81425E+00-5.70403E-03 3.65636E-01 1.46118E-13-4.51814E-13
 -1      2662 1.98042E+01 2.85180E+00-5.61146E-03 2.30034E-01 9.61630E-14-4.62662E-13
 -1      2663 1.97957E+01 2.86865E+00-5.44049E-03 7.53277E-02 3.24847E-14-4.62469E-13
 -1      2664 1.99507E+01 2.50046E+00 3.63708E-03 2.65454E-01 1.12706E-13-4.19816E-13
 -1      2665 2.00442E+01 2.32349E+00-1.07280E-02 1.04651E+00 3.95652E-13-2.78027E-13
 -1      2666 1.99799E+01 2.47249E+00-6.34183E-03 9.10770E-01 3.47295E-13-3.18423E-13
 -1      2667 2.02167E+01 1.90837E+00-1.19431E-02 1.22802E+00 4.65945E-13-1.88111E-13
 -1      2668 2.01246E+01 2.14603E+00-4.81566E-03 1.13474E+00 4.23312E-13-2.27496E-13
 -1      2669 2.01900E+01 1.88616E+00 6.47126E-03 9.27227E-01 3.78214E-13-2.08607E-13
 -1      2670 2.02122E+01 7.26607E-01-3.49230E-03 6.43521E-01 3.99393E-13 4.40712E-15
 -1      2671 2.03543E+01 9.51492E-01 9.17600E-03 9.07172E-01 4.39128E-13 2.22298E-14
 -1      2672 1.00605E+01-2.11227E+00 6.24804E-02 4.99568E+00-1.84422E-13 3.05395E-13
 -1      2673 8.00626E+00-1.31549E+00 1.93415E-01 3.02458E+00-8.23577E-14 5.59830E-13
 -1      2674 2.00691E+01 4.15386E-01-1.61835E-03 2.88654E-01 2.74875E-13-1.61210E-15
 -1      2675 2.01706E+01 5.53809E-01 1.04795E-02 4.51505E-01 3.29532E-13 1.63955E-14
 -1      2676 2.02536E+01 8.21670E-01 8.45294E-04 6.18189E-01 3.75202E-13-6.77196E-14
 -1      2677 2.03195E+01 1.70924E+00-9.94321E-03-1.33256E+00-4.54223E-13-1.71684E-13
 -1      2678 2.02859E+01 1.32787E+00-7.11237E-03-1.03405E+00-4.21932E-13-1.28137E-13
 -1      2679 2.03156E+01 1.01297E+00 4.38255E-03-8.11541E-01-3.62686E-13-1.03493E-13
 -1      2680 2.02203E+01 7.82688E-01-5.00944E-03-5.72187E-01-3.26333E-13-9.13472E-14
 -1      2681 2.02787E+01 1.36007E+00 1.49985E-03-8.97889E-01-3.73799E-13-1.80792E-13
 -1      2682 2.02087E+01 5.98572E-01 5.72795E-03-4.08365E-01-2.79211E-13-7.28476E-14
 -1      2683 2.01273E+01 4.56999E-01-2.93871E-03-2.50785E-01-2.41657E-13-8.18625E-14
 -1      2684 2.02564E+01 8.33080E-01 2.38389E-03-5.04437E-01-2.85133E-13-1.31386E-13
 -1      2685 2.01030E+01 3.44121E-01 4.65872E-03-1.41813E-01-2.02356E-13-8.59022E-14
 -1      2686 2.00460E+01 2.56273E-01-1.53163E-03-4.40136E-02-1.98060E-13-9.96082E-14
 -1      2687 2.01925E+01 4.91439E-01-7.03869E-04-2.17896E-01-2.27870E-13-1.07208E-13
 -1      2688 2.00219E+01 1.85729E-01 3.34839E-03 2.35047E-02-1.78528E-13-6.57378E-14
 -1      2689 1.99873E+01 1.30617E-01-6.20510E-04 8.05217E-02-1.56447E-13-5.94917E-14
 -1      2690 2.01278E+01 2.74702E-01-1.61018E-03-2.93669E-02-1.69329E-13-9.94841E-14
 -1      2691 1.99678E+01 8.62989E-02 2.25112E-03 1.18574E-01-1.48778E-13-7.71243E-14
 -1      2692 1.99504E+01 5.19903E-02-6.71734E-05 1.48559E-01-1.36371E-13-7.49889E-14
 -1      2693 2.00749E+01 1.36782E-01-1.70105E-03 8.57613E-02-1.47907E-13-7.48333E-14
 -1      2694 1.99363E+01 2.45904E-02 1.41370E-03 1.66602E-01-1.25181E-13-7.39612E-14
 -1      2695 1.99307E+01 3.96367E-03 2.47288E-04 1.79133E-01-1.30377E-13-8.14074E-14
 -1      2696 2.00362E+01 4.99866E-02-1.50353E-03 1.48952E-01-1.36003E-13-6.24086E-14
 -1      2697 1.99214E+01-1.21816E-02 8.09399E-04 1.84249E-01-1.05584E-13-7.36182E-14
 -1      2698 1.99235E+01-2.36202E-02 4.16236E-04 1.85959E-01-9.76679E-14-1.05493E-13
 -1      2699 2.00103E+01-2.76881E-03-1.23536E-03 1.77190E-01-1.13973E-13-3.70608E-14
 -1      2700 1.99179E+01-3.21291E-02 3.91566E-04 1.83290E-01-1.02197E-13-1.22241E-13
 -1      2701 1.99247E+01-3.73209E-02 5.03271E-04 1.78788E-01-9.89851E-14-1.11402E-13
 -1      2702 1.99944E+01-3.24804E-02-9.83025E-04 1.83167E-01-9.64429E-14-7.79684E-14
 -1      2703 1.99219E+01-4.05829E-02 1.15599E-04 1.72021E-01-9.11387E-14-1.01330E-13
 -1      2704 1.99313E+01-4.14899E-02 5.49562E-04 1.64523E-01-1.07043E-13-1.09089E-13
 -1      2705 1.99860E+01-4.64140E-02-7.74936E-04 1.76128E-01-9.86881E-14-1.14969E-13
 -1      2706 1.99306E+01-4.10993E-02-5.65935E-05 1.56287E-01-7.48033E-14-1.02187E-13
 -1      2707 1.99413E+01-3.90218E-02 5.82050E-04 1.48058E-01-9.11018E-14-7.57740E-14
 -1      2708 1.99829E+01-4.94417E-02-6.16448E-04 1.62728E-01-1.10448E-13-1.34566E-13
 -1      2709 1.99420E+01-3.60215E-02-1.55787E-04 1.40241E-01-8.82828E-14-7.85312E-14
 -1      2710 1.99535E+01-3.17869E-02 6.19428E-04 1.32904E-01-5.45565E-14-1.13238E-13
 -1      2711 1.99838E+01-4.48033E-02-5.04808E-04 1.47750E-01-8.67486E-14-6.34909E-14
 -1      2712 1.99553E+01-2.68172E-02-2.05944E-04 1.26898E-01-3.86443E-14-1.67865E-13
 -1      2713 1.99673E+01-2.08991E-02 6.75738E-04 1.21666E-01-9.62099E-14-1.83740E-13
 -1      2714 1.99874E+01-3.45668E-02-4.34886E-04 1.34682E-01-8.26891E-14-1.14794E-13
 -1      2715 1.99700E+01-1.42940E-02-2.25413E-04 1.18557E-01-9.55874E-14-1.64224E-13
 -1      2716 1.99826E+01-6.89277E-03 7.62378E-04 1.16406E-01-1.55119E-13-1.06431E-13
 -1      2717 1.99932E+01-1.99236E-02-4.01286E-04 1.26161E-01-8.48985E-14-1.87050E-13
 -1      2718 1.99861E+01 1.25309E-03-2.28305E-04 1.17123E-01-1.41937E-13-4.19760E-14
 -1      2719 1.99997E+01 1.01534E-02 8.89230E-04 1.18930E-01-1.08664E-13-4.78740E-14
 -1      2720 2.00007E+01-1.38914E-03-3.98877E-04 1.24330E-01-8.71653E-14-4.92167E-14
 -1      2721 2.00039E+01 1.99359E-02-2.25809E-04 1.24358E-01-1.23826E-13-4.62272E-14
 -1      2722 2.00191E+01 3.05262E-02 1.06522E-03 1.31000E-01-7.77551E-14-3.18146E-14
 -1      2723 2.00098E+01 2.10533E-02-4.22619E-04 1.31102E-01-8.46041E-14-3.62971E-14
 -1      2724 2.00240E+01 4.21935E-02-2.27372E-04 1.42069E-01-1.80413E-14-4.68517E-14
 -1      2725 2.00417E+01 5.48059E-02 1.29842E-03 1.54508E-01 2.62785E-14-3.99845E-14
 -1      2726 2.00204E+01 4.78443E-02-4.67026E-04 1.48373E-01-3.97566E-14 5.01807E-15
 -1      2727 2.00471E+01 6.87247E-02-2.41698E-04 1.72254E-01 2.47832E-14-5.67426E-14
 -1      2728 2.00682E+01 8.38007E-02 1.59570E-03 1.91593E-01 3.97951E-15-1.27053E-14
 -1      2729 2.00325E+01 7.97578E-02-5.25366E-04 1.78168E-01 3.40137E-15-2.53897E-14
 -1      2730 2.00741E+01 1.00418E-01-2.77477E-04 2.17193E-01 2.66300E-14-8.88079E-15
 -1      2731 2.00996E+01 1.18467E-01 1.96179E-03 2.44711E-01 5.55967E-14-1.87069E-14
 -1      2732 2.00458E+01 1.17811E-01-5.88710E-04 2.22742E-01 3.26946E-14-6.22346E-14
 -1      2733 2.01056E+01 1.38254E-01-3.43635E-04 2.79497E-01 5.84998E-14-4.33193E-15
 -1      2734 2.01367E+01 1.59788E-01 2.39760E-03 3.16653E-01-1.25025E-15-4.40083E-15
 -1      2735 2.00600E+01 1.63146E-01-6.45016E-04 2.84626E-01 4.51118E-14-6.18966E-14
 -1      2736 2.01422E+01 1.83147E-01-4.48569E-04 3.62088E-01-2.66449E-14 3.95245E-14
 -1      2737 2.01800E+01 2.08555E-01 2.89762E-03 4.10480E-01-2.98761E-14 6.82358E-14
 -1      2738 2.00744E+01 2.16849E-01-6.78679E-04 3.66606E-01-4.62311E-16 5.55731E-14
 -1      2739 2.01841E+01 2.35645E-01-5.97380E-04 4.68088E-01-5.17589E-14 1.18847E-13
 -1      2740 2.02297E+01 2.64960E-01 3.44638E-03 5.29336E-01-7.48617E-15 8.34170E-14
 -1      2741 2.00876E+01 2.79612E-01-6.71571E-04 4.71628E-01-3.05302E-14 1.21070E-13
 -1      2742 2.02313E+01 2.95382E-01-7.85240E-04 6.00573E-01-3.21588E-14 8.73307E-14
 -1      2743 2.02855E+01 3.27852E-01 4.01439E-03 6.76085E-01-1.49080E-14 7.02773E-14
 -1      2744 2.00976E+01 3.51147E-01-6.07585E-04 6.02602E-01-3.69938E-14 1.76982E-14
 -1      2745 2.02833E+01 3.60081E-01-9.83764E-04 7.62129E-01 1.36442E-14 3.43215E-15
 -1      2746 2.03472E+01 3.93399E-01 4.55476E-03 8.52674E-01-4.99023E-15-7.37893E-14
 -1      2747 2.01018E+01 4.29111E-01-4.84595E-04 7.62088E-01-4.92376E-14 3.65875E-15
 -1      2748 2.03402E+01 4.23806E-01-1.11568E-03 9.54117E-01-6.06611E-16-8.74458E-14
 -1      2749 2.04148E+01 4.52791E-01 5.00248E-03 1.05911E+00-2.01514E-14-1.01786E-13
 -1      2750 2.00976E+01 5.07263E-01-3.40717E-04 9.51852E-01-5.16010E-14-1.54322E-13
 -1      2751 2.04039E+01 4.74049E-01-1.01175E-03 1.17551E+00 2.75475E-14-5.89716E-14
 -1      2752 2.04919E+01 4.88551E-01 5.27564E-03 1.29189E+00 1.21417E-13-1.40685E-13
 -1      2753 2.00839E+01 5.72398E-01-3.06411E-04 1.17231E+00-8.32448E-15-5.54456E-14
 -1      2754 2.04823E+01 4.87211E-01-3.44724E-04 1.42113E+00 1.56275E-13-2.10570E-13
 -1      2755 2.05896E+01 4.69104E-01 5.27241E-03 1.54160E+00 1.37235E-13-2.37419E-13
 -1      2756 2.00645E+01 5.99579E-01-6.98074E-04 1.42186E+00 1.35625E-13-1.61851E-13
 -1      2757 2.05959E+01 4.22452E-01 1.46540E-03 1.67876E+00 1.38192E-13-2.41630E-13
 -1      2758 2.07356E+01 3.42180E-01 4.85706E-03 1.78929E+00 1.76733E-13-1.28930E-13
 -1      2759 2.00554E+01 5.45445E-01-2.15186E-03 1.69594E+00 1.85208E-13-2.72175E-13
 -1      2760 2.07904E+01 2.15409E-01 5.38519E-03 1.92408E+00 1.13374E-13-1.80221E-13
 -1      2761 2.09876E+01 3.00069E-02 3.63312E-03 2.00036E+00-2.12569E-14-2.03852E-13
 -1      2762 2.00964E+01 3.40644E-01-5.73016E-03 1.98484E+00 1.27097E-13-3.37963E-13
 -1      2763 2.11539E+01-2.22989E-01 1.27747E-02 2.11000E+00-1.03836E-13-1.04667E-13
 -1      2764 2.14496E+01-5.62191E-01 1.31101E-03 2.11107E+00-1.53893E-13-9.91566E-14
 -1      2765 2.02722E+01-1.15339E-01-1.31056E-02 2.26676E+00-4.88246E-14-2.08931E-13
 -1      2766 2.18330E+01-9.84051E-01 2.59773E-02 2.14575E+00-1.80641E-13-5.62076E-14
 -1      2767 2.22778E+01-1.50063E+00-2.00884E-03 2.00563E+00-4.75748E-14 3.42937E-14
 -1      2768 2.07378E+01-9.37553E-01-2.45399E-02 2.48806E+00-1.13412E-13-1.10143E-13
 -1      2769 2.30206E+01-2.08648E+00 4.03349E-02 1.85528E+00 9.60204E-14 9.94439E-14
 -1      2770 2.36479E+01-2.67255E+00-7.28553E-03 1.47198E+00 1.22969E-13 1.63291E-13
 -1      2771 2.17484E+01-2.16377E+00-2.74462E-02 2.52113E+00 1.26601E-13-8.39953E-15
 -1      2772 2.48046E+01-3.22765E+00 2.37220E-02 9.56149E-01 1.73109E-13 2.17422E-13
 -1      2773 2.55476E+01-3.48978E+00-1.94220E-02 2.48049E-01 2.58623E-13 1.76149E-13
 -1      2774 2.36112E+01-3.53092E+00-7.82999E-03 1.96940E+00 1.52827E-13 1.40592E-13
 -1      2775 2.82332E+01-1.33509E+00-1.24449E-01-2.61841E+00-1.83062E-13 3.43371E-13
 -1      2776 2.84232E+01 6.10738E-01-7.19829E-02-2.95673E+00-3.15373E-13 3.64597E-13
 -1      2777 2.86815E+01 4.61176E+00-2.09278E-01 1.67696E+00-8.66002E-13-4.23869E-13
 -1      2778 2.87011E+01 2.79717E+00-2.15180E-01 2.27256E+00-6.13065E-13-4.66516E-13
 -1      2779 2.83053E+01-4.22125E-01-4.08412E-02 2.14393E+00-3.01120E-13-4.23175E-13
 -1      2780 2.79292E+01-2.08816E+00-5.68017E-02 1.60074E+00 4.47212E-14-5.23137E-13
 -1      2781 2.67299E+01-3.04011E+00-3.72286E-02 5.35850E-01 3.69448E-13-3.43350E-13
 -1      2782 2.60574E+01-3.36800E+00 1.46425E-02-3.08396E-01 5.80456E-13-3.05769E-13
 -1      2783 2.77728E+01-3.17380E+00-6.45267E-02 4.03711E-01 2.40641E-13-6.06667E-14
 -1      2784 2.47652E+01-3.21869E+00-2.57335E-02-1.15241E+00 5.06843E-13-2.74766E-13
 -1      2785 2.40554E+01-2.76890E+00 4.83439E-02-1.77500E+00 5.51706E-13-2.72688E-13
 -1      2786 2.52206E+01-3.84487E+00-2.47139E-02-1.49839E+00 5.09204E-13 2.53586E-14
 -1      2787 2.30603E+01-2.24080E+00-1.34843E-02-2.18968E+00 4.73072E-13-3.39731E-13
 -1      2788 2.24693E+01-1.62523E+00 3.56131E-02-2.50752E+00 5.74247E-13-2.12854E-13
 -1      2789 2.30371E+01-2.90234E+00-4.15510E-02-2.61740E+00 4.88738E-13 1.11775E-13
 -1      2790 2.18740E+01-1.10703E+00-4.50702E-03-2.60690E+00 4.37484E-13-2.61690E-13
 -1      2791 2.14479E+01-5.90211E-01 2.10768E-02-2.69772E+00 2.41000E-13-1.97789E-13
 -1      2792 2.16026E+01-1.54763E+00-3.19649E-02-2.96856E+00 5.23451E-13 8.49043E-14
 -1      2793 2.11318E+01-1.81370E-01-5.93889E-04-2.62406E+00 2.22306E-13-1.90718E-13
 -1      2794 2.08491E+01 2.00619E-01 1.25090E-02-2.55225E+00 2.51376E-13-1.41122E-14
 -1      2795 2.08129E+01-4.05994E-01-1.91426E-02-2.90579E+00 2.75854E-13 2.48646E-13
 -1      2796 1.98540E+01 4.93830E-02 5.68042E-05-1.42873E-01 1.51405E-13-3.30679E-14
 -1      2797 1.98680E+01 8.11426E-02 3.16191E-03-1.14519E-01 1.34157E-13 1.30499E-14
 -1      2798 1.32652E+01-4.18954E+00 9.29180E-03 6.14354E+00 5.79814E-13 5.78426E-14
 -1      2799 1.04106E+01-3.24227E+00 1.68288E-01 5.36106E+00 6.58834E-13-7.21090E-14
 -1      2800 2.03376E+01 1.50014E+00-1.90397E-03 1.26761E+00 4.98287E-13-2.70396E-14
 -1      2801 1.98909E+01 1.18645E-01-2.54911E-04-7.00099E-02 1.15190E-13-1.43054E-15
 -1      2802 1.99267E+01 1.70210E-01 5.19677E-03-1.45356E-02 1.51389E-13 1.56195E-14
 -1      2803 1.99911E+01 1.35360E-01-2.34583E-03-7.16021E-02 1.47285E-13-3.95734E-14
 -1      2804 1.98427E+01-1.71645E-02 2.74558E-04-1.84303E-01 1.17434E-13-3.89769E-14
 -1      2805 1.98341E+01-6.41040E-03 8.79898E-04-1.83505E-01 1.26524E-13-3.90750E-14
 -1      2806 1.98544E+01-2.96806E-02 3.02351E-04-1.77748E-01 1.10992E-13-6.89245E-14
 -1      2807 1.98412E+01-2.45307E-02 2.93911E-04-1.82882E-01 1.20411E-13-3.30373E-14
 -1      2808 1.99205E+01-2.31741E-02-8.74169E-04-1.87751E-01 1.22630E-13-6.69792E-14
 -1      2809 1.98716E+01-3.41240E-02 3.19202E-04-1.63495E-01 1.50402E-13-8.26634E-14
 -1      2810 1.98562E+01-3.27808E-02-7.13524E-05-1.71467E-01 1.23233E-13-8.27421E-14
 -1      2811 1.99211E+01-3.72602E-02-5.83091E-04-1.81620E-01 1.37285E-13-9.78221E-14
 -1      2812 1.98914E+01-3.30193E-02 3.40447E-04-1.46493E-01 1.13995E-13-3.81368E-14
 -1      2813 1.98754E+01-3.42935E-02-2.85793E-04-1.55160E-01 1.43717E-13-5.74599E-14
 -1      2814 1.99275E+01-4.16892E-02-3.82821E-04-1.67810E-01 1.28685E-13-8.53035E-14
 -1      2815 1.99125E+01-2.80230E-02 3.75439E-04-1.30228E-01 8.94449E-14 4.65209E-14
 -1      2816 1.98965E+01-3.11415E-02-3.99348E-04-1.38083E-01 1.20843E-13 3.38112E-14
 -1      2817 1.99374E+01-3.94474E-02-2.54715E-04-1.51424E-01 8.82032E-14-6.03000E-14
 -1      2818 1.99341E+01-2.01763E-02 4.30673E-04-1.17211E-01 3.12843E-14 2.15212E-14
 -1      2819 1.99183E+01-2.46639E-02-4.47942E-04-1.23162E-01 4.76174E-14 4.26108E-14
 -1      2820 1.99494E+01-3.24853E-02-1.82340E-04-1.36099E-01 6.12175E-14 8.09658E-14
 -1      2821 1.99563E+01-1.00767E-02 5.11140E-04-1.09338E-01 8.28625E-14 5.22206E-14
 -1      2822 1.99405E+01-1.56727E-02-4.57329E-04-1.12550E-01 6.46698E-14 4.32422E-14
 -1      2823 1.99630E+01-2.20173E-02-1.52611E-04-1.24488E-01 4.87248E-14 6.15128E-14
 -1      2824 1.99797E+01 1.99299E-03 6.20638E-04-1.08146E-01 1.39297E-13 9.89639E-14
 -1      2825 1.99634E+01-4.60104E-03-4.45683E-04-1.07923E-01 1.25569E-13 1.09285E-13
 -1      2826 1.99778E+01-8.72781E-03-1.55453E-04-1.18623E-01 8.51176E-14 9.59020E-14
 -1      2827 2.00053E+01 1.59505E-02 7.61513E-04-1.14989E-01 6.52870E-14 2.26401E-13
 -1      2828 1.99876E+01 8.37710E-03-4.25401E-04-1.10705E-01 7.84507E-14 1.59024E-13
 -1      2829 1.99942E+01 7.06652E-03-1.83281E-04-1.20178E-01 5.18729E-14 1.89668E-13
 -1      2830 2.00344E+01 3.18018E-02 9.33851E-04-1.31145E-01-7.91130E-15 2.70608E-13
 -1      2831 2.00143E+01 2.32356E-02-4.04217E-04-1.22202E-01 5.99960E-14 2.56603E-13
 -1      2832 2.00127E+01 2.52725E-02-2.30458E-04-1.30639E-01 3.34979E-14 2.93292E-13
 -1      2833 2.00686E+01 4.95118E-02 1.13415E-03-1.57841E-01-3.54704E-14 1.76154E-13
 -1      2834 2.00450E+01 3.99774E-02-3.85712E-04-1.43668E-01-2.66802E-15 1.73554E-13
 -1      2835 2.00340E+01 4.58714E-02-2.92921E-04-1.51408E-01 4.75827E-14 2.33823E-13
 -1      2836 2.01098E+01 6.88420E-02 1.35337E-03-1.96191E-01-3.79095E-14 9.42644E-14
 -1      2837 2.00813E+01 5.84918E-02-3.69192E-04-1.76292E-01-4.62952E-14 1.35680E-13
 -1      2838 2.00593E+01 6.87465E-02-3.68116E-04-1.83813E-01 2.66158E-14 1.70885E-13
 -1      2839 2.01602E+01 8.91361E-02 1.57434E-03-2.47025E-01-3.17557E-14-2.20675E-14
 -1      2840 2.01254E+01 7.83694E-02-3.48845E-04-2.21086E-01 5.89410E-15 9.13409E-14
 -1      2841 2.00898E+01 9.34631E-02-4.55396E-04-2.29031E-01-2.20586E-15 2.04348E-16
 -1      2842 2.02221E+01 1.09031E-01 1.76845E-03-3.10585E-01-4.64797E-15 4.11547E-14
 -1      2843 2.01796E+01 9.86547E-02-3.12031E-04-2.78646E-01-3.64120E-14-5.64867E-14
 -1      2844 2.01272E+01 1.18979E-01-5.57175E-04-2.87890E-01 9.33936E-15 7.82424E-14
 -1      2845 2.02981E+01 1.26076E-01 1.89169E-03-3.86034E-01 6.37370E-14 7.88439E-14
 -1      2846 2.02465E+01 1.17515E-01-2.36598E-04-3.48772E-01 5.82342E-14 3.28392E-14
 -1      2847 2.01734E+01 1.43258E-01-6.81120E-04-3.60529E-01 2.28154E-14 1.37199E-14
 -1      2848 2.03910E+01 1.36261E-01 1.88053E-03-4.70756E-01-1.94159E-15 3.22742E-14
 -1      2849 2.03291E+01 1.31814E-01-8.72729E-05-4.29871E-01 2.79634E-14 1.00304E-13
 -1      2850 2.02310E+01 1.62771E-01-8.43644E-04-4.45882E-01 2.03756E-14 7.48806E-14
 -1      2851 2.05043E+01 1.33486E-01 1.64813E-03-5.59397E-01 2.54920E-14-3.32844E-14
 -1      2852 2.04310E+01 1.36603E-01 1.88261E-04-5.18130E-01 1.93364E-14 1.33163E-14
 -1      2853 2.03035E+01 1.71894E-01-1.07454E-03-5.40935E-01 1.78329E-14 1.21410E-13
 -1      2854 2.06417E+01 1.09135E-01 1.08272E-03-6.42648E-01 1.34070E-14 4.36031E-14
 -1      2855 2.05565E+01 1.24615E-01 6.61483E-04-6.06416E-01 3.12714E-14-5.04870E-14
 -1      2856 2.03957E+01 1.62281E-01-1.42127E-03-6.39724E-01-9.42482E-15 2.27741E-14
 -1      2857 2.08077E+01 5.20805E-02 5.00735E-05-7.05870E-01 1.00760E-13-8.50935E-14
 -1      2858 2.07107E+01 8.59903E-02 1.41882E-03-6.82918E-01 1.36998E-13-5.77499E-14
 -1      2859 2.05142E+01 1.22436E-01-1.94818E-03-7.32069E-01 9.72170E-14 3.17124E-14
 -1      2860 2.10075E+01-5.01560E-02-1.59253E-03-7.27813E-01-5.54206E-14 1.53708E-14
 -1      2861 2.08999E+01 8.72126E-03 2.53767E-03-7.29680E-01-3.29174E-14 2.27497E-15
 -1      2862 2.06687E+01 3.80093E-02-2.72201E-03-8.02061E-01 1.24106E-14 7.34122E-15
 -1      2863 2.12459E+01-2.07876E-01-3.94887E-03-6.80082E-01-8.45686E-14 1.29971E-13
 -1      2864 2.11305E+01-1.19223E-01 4.03474E-03-7.21418E-01-7.36020E-14 9.19948E-14
 -1      2865 2.08715E+01-1.06204E-01-3.76405E-03-8.26517E-01-1.12472E-13 1.34684E-13
 -1      2866 2.15242E+01-4.21561E-01-6.97073E-03-5.28691E-01-6.13602E-14 1.07900E-13
 -1      2867 2.14073E+01-3.04625E-01 5.75139E-03-6.25568E-01-5.15110E-14 1.40739E-13
 -1      2868 2.11369E+01-3.20858E-01-4.92582E-03-7.73929E-01-9.91964E-14 1.95040E-13
 -1      2869 2.18343E+01-6.68592E-01-1.02011E-02-2.40234E-01-1.78275E-14 9.26837E-14
 -1      2870 2.17273E+01-5.38794E-01 7.14479E-03-4.05586E-01-1.18972E-14 1.48232E-13
 -1      2871 2.14766E+01-6.01013E-01-5.70503E-03-6.05325E-01-8.58504E-15 1.39931E-13
 -1      2872 2.21475E+01-8.86074E-01-1.24088E-02 2.02990E-01-1.69118E-13 1.56655E-13
 -1      2873 2.20692E+01-7.81803E-01 7.06412E-03-3.14573E-02-4.65563E-14 1.27000E-13
 -1      2874 2.18883E+01-9.07880E-01-5.09799E-03-2.80450E-01-8.68295E-14 1.16553E-13
 -1      2875 2.24051E+01-9.59724E-01-1.08792E-02 7.75142E-01-2.26152E-13 3.05669E-13
 -1      2876 2.23802E+01-9.46495E-01 3.88767E-03 4.97287E-01-2.43035E-13 2.36887E-13
 -1      2877 2.23375E+01-1.14766E+00-1.85552E-03 2.23692E-01-1.74849E-13 1.98880E-13
 -1      2878 2.25214E+01-7.45342E-01-2.68606E-03 1.36901E+00-7.57337E-14 3.84791E-13
 -1      2879 2.25717E+01-8.97966E-01-2.67975E-03 1.11441E+00-1.89386E-13 3.27035E-13
 -1      2880 2.27397E+01-1.16746E+00 4.52767E-03 8.76859E-01-1.87095E-13 1.50059E-13
 -1      2881 2.24172E+01-1.55823E-01 9.20279E-03 1.76989E+00 1.84114E-14 4.18478E-13
 -1      2882 2.25409E+01-5.03187E-01-1.39899E-02 1.64687E+00-2.68527E-14 3.98448E-13
 -1      2883 2.29624E+01-7.81278E-01 1.35851E-02 1.53911E+00-6.91777E-14 2.54508E-13
 -1      2884 2.20988E+01 7.02966E-01 1.77309E-02 1.71663E+00 2.69839E-13 3.25533E-13
 -1      2885 2.22586E+01 2.47215E-01-2.44472E-02 1.83115E+00 1.53515E-13 4.05431E-13
 -1      2886 2.28882E+01 5.92515E-02 1.26937E-02 1.94196E+00 1.00335E-13 2.27488E-13
 -1      2887 2.17334E+01 1.45540E+00 1.43684E-02 1.07255E+00 3.95323E-13 2.55112E-13
 -1      2888 2.18603E+01 1.11483E+00-2.10795E-02 1.44033E+00 4.37286E-13 3.78634E-13
 -1      2889 2.25513E+01 1.12501E+00-3.52567E-03 1.75520E+00 3.57112E-13 3.22509E-13
 -1      2890 2.15687E+01 1.66357E+00-5.32345E-04 3.52404E-02 2.26302E-13 2.28485E-13
 -1      2891 2.16015E+01 1.64539E+00-3.43623E-03 5.22598E-01 3.27132E-13 2.91205E-13
 -1      2892 2.22166E+01 1.91992E+00-1.70423E-02 8.93481E-01 3.37226E-13 4.08204E-13
 -1      2893 2.17040E+01 1.16831E+00-2.71733E-02-9.11686E-01 1.22256E-13 3.94606E-14
 -1      2894 2.16573E+01 1.49708E+00 1.61800E-02-5.31249E-01 1.58079E-13 1.32727E-13
 -1      2895 2.21840E+01 1.96720E+00-9.73369E-03-3.02590E-01 2.36275E-13 3.29660E-13
 -1      2896 2.20326E+01 3.05151E-01-2.80653E-02-1.36035E+00 1.81928E-13-1.64530E-13
 -1      2897 2.19391E+01 7.78208E-01 2.26185E-02-1.22290E+00 1.84235E-13-1.83425E-15
 -1      2898 2.24250E+01 1.17105E+00 2.48810E-03-1.22232E+00 1.97830E-13 2.37522E-13
 -1      2899 2.22616E+01-4.80776E-01-1.66739E-02-1.20677E+00 1.63511E-14-2.64226E-13
 -1      2900 2.21905E+01-1.12713E-01 1.24053E-02-1.31852E+00 1.80223E-13-2.28541E-13
 -1      2901 2.27349E+01 1.15592E-01 9.35291E-03-1.46475E+00 2.31374E-13-4.87648E-14
 -1      2902 2.22362E+01-9.03981E-01-5.25084E-03-6.75131E-01-2.67042E-13-2.64144E-13
 -1      2903 2.22350E+01-7.40296E-01-2.36194E-03-9.29407E-01-1.45488E-13-3.71584E-13
 -1      2904 2.28017E+01-7.64409E-01 1.24570E-02-1.07834E+00 2.32167E-14-3.16514E-13
 -1      2905 2.19757E+01-9.40271E-01 3.86993E-03-5.08623E-02-1.74187E-13-3.54451E-13
 -1      2906 2.20509E+01-9.65693E-01-1.10336E-02-3.28249E-01-2.85570E-13-4.13753E-13
 -1      2907 2.25505E+01-1.16813E+00 5.86366E-03-4.03902E-01-2.67413E-13-6.13586E-13
 -1      2908 2.15791E+01-7.13105E-01 8.50517E-03 4.62624E-01-2.15077E-13 1.74001E-14
 -1      2909 2.17087E+01-8.55624E-01-1.32790E-02 2.43527E-01-7.44984E-14-3.36994E-14
 -1      2910 2.20944E+01-1.12221E+00-1.44397E-03 2.59608E-01-3.91012E-13-6.64033E-13
 -1      2911 2.11422E+01-3.64019E-01 8.04026E-03 7.68818E-01-3.64967E-13 1.90839E-13
 -1      2912 2.12991E+01-5.50811E-01-1.17493E-02 6.49442E-01-2.91408E-13 1.34453E-13
 -1      2913 2.15727E+01-7.90078E-01-4.44003E-03 7.41049E-01-3.19778E-13 1.51379E-13
 -1      2914 2.07810E+01-3.78683E-02 5.66024E-03 8.85832E-01-3.91571E-13 3.85450E-13
 -1      2915 2.09446E+01-2.25662E-01-9.01545E-03 8.69374E-01-3.50909E-13 1.24542E-13
 -1      2916 2.11410E+01-3.80109E-01 8.96442E-04 1.01608E+00-3.62754E-13 1.55793E-13
 -1      2917 2.07898E+01 2.87342E-02 4.47907E-03 1.13268E+00-4.05606E-13-1.13527E-13
 -1      2918 2.90914E+01 4.03675E+00-1.78302E-01-1.68031E+00 6.86451E-13-4.18110E-13
 -1      2919 2.91591E+01 2.02057E+00-1.19681E-01-1.62877E+00 6.63969E-13-3.48388E-13
 -1      2920 1.85375E+01 1.74572E+00-2.42554E-02 1.51233E+00-1.61166E-13-4.02916E-13
 -1      2921 1.89119E+01 1.55608E+00 1.63657E-02 1.83890E+00 3.59695E-14-7.01195E-13
 -1      2922 2.85688E+01 3.01105E+00-6.00336E-02 2.25629E+00 6.61415E-13 1.29341E-13
 -1      2923 2.84514E+01 4.68594E+00-2.13197E-01 1.91787E+00 8.49071E-13 2.07265E-14
 -1      2924 2.00302E+01 6.81253E-01-1.03930E-02 2.16600E+00 1.46998E-13-4.57481E-13
 -1      2925 2.03228E+01 4.73242E-01 1.19603E-02 2.09908E+00 1.93132E-13-7.32426E-13
 -1      2926 1.80249E+01 2.13486E+00-1.83674E-02 5.32823E-01-5.49281E-14 6.90657E-13
 -1      2927 1.82416E+01 2.03297E+00 6.76526E-03 1.02616E+00-1.19949E-13 2.93942E-13
 -1      2928 1.80251E+01 1.56118E+00 9.04346E-03 1.46903E+00-2.09170E-15-9.81204E-14
 -1      2929 1.92982E+01 1.20003E+00-2.05025E-02 2.07336E+00 4.55369E-14-5.70712E-13
 -1      2930 1.96938E+01 9.73016E-01 1.78079E-02 2.18580E+00 6.23286E-14-3.22725E-13
 -1      2931 1.98319E+01 3.77271E-01-9.17443E-03 2.40462E+00 1.35590E-13-4.69505E-13
 -1      2932 1.89022E+01 9.70888E-01-1.63293E-03 2.21174E+00-6.49905E-14-7.35463E-13
 -1      2933 1.79845E+01 2.21322E+00-3.79587E-03-6.31346E-01 2.52423E-14 5.36504E-13
 -1      2934 1.79399E+01 2.23188E+00-8.25203E-03-9.96313E-02-5.54325E-14 7.59491E-13
 -1      2935 1.75398E+01 1.92331E+00 2.12185E-02 2.85777E-01 6.05289E-14 6.15862E-13
 -1      2936 1.84438E+01 1.94578E+00 9.71557E-03-1.68217E+00 2.01931E-13 4.09350E-13
 -1      2937 1.81547E+01 2.08038E+00-1.99487E-02-1.23985E+00 1.62484E-13 4.76881E-13
 -1      2938 1.76447E+01 1.89135E+00 1.88541E-02-1.03160E+00 4.17920E-14 5.75058E-13
 -1      2939 1.92107E+01 1.45416E+00 1.28882E-02-2.32549E+00 2.95060E-13 4.01099E-13
 -1      2940 1.88057E+01 1.66487E+00-2.10071E-02-2.08895E+00 3.48540E-13 4.70050E-13
 -1      2941 1.83115E+01 1.50590E+00 5.18425E-03-2.09093E+00 3.60920E-13 7.71471E-13
 -1      2942 1.30643E+01-3.59492E+00 1.77372E-01-6.22869E+00 4.14918E-13 7.52065E-13
 -1      2943 1.60872E+01-4.67428E+00 6.19035E-03-6.69583E+00 3.86552E-13 5.39443E-13
 -1      2944 1.99603E+01 2.30950E-01-8.20730E-04 6.36038E-02 1.89836E-13-7.02260E-15
 -1      2945 2.00261E+01 3.14809E-01 7.83983E-03 1.61286E-01 2.21452E-13 4.25083E-15
 -1      2946 2.01457E+01 4.77756E-01-1.82085E-03 2.81336E-01 2.61775E-13-3.86146E-14
 -1      2947 2.00557E+01 2.65774E-01-2.70917E-03 6.15944E-02 1.79456E-13 4.30211E-16
 -1      2948 7.37683E+00-1.62813E+00 1.67320E-01-3.01699E+00 3.33088E-13 7.21395E-13
 -1      2949 9.71523E+00-2.67343E+00 7.97341E-02-5.29603E+00 4.03330E-13 5.34656E-13
 -1      2950 2.60447E+01-5.37900E+00 9.10343E-02-3.22908E+00 4.22731E-13 7.12319E-13
 -1      2951 2.81590E+01-4.49862E+00-1.51173E-01-1.47611E+00 3.98633E-13 9.14144E-13
 -1      2952 2.83431E+01 6.31281E+00-1.95480E-01-6.08584E-01 8.39717E-13-4.35513E-13
 -1      2953 2.86173E+01 5.49226E+00-1.52877E-01-1.34001E+00 7.02438E-13-3.50886E-13
 -1      2954 6.94328E+00-1.07340E+00 1.51487E-01 1.60469E+00-1.00149E-13 6.63469E-13
 -1      2955 6.65630E+00-1.05618E+00 1.48360E-01-5.42093E-01 8.75064E-14 9.05220E-13
 -1      2956 9.55024E+00-5.60401E-01 1.78157E-01 2.25559E+00 3.79662E-14 6.22974E-13
 -1      2957 1.97559E+01-5.41230E+00 1.37530E-01-6.09013E+00 2.69743E-13 4.80574E-13
 -1      2958 2.28688E+01-5.95623E+00-8.92783E-02-5.19895E+00 3.29708E-13 5.82610E-13
 -1      2959 1.98405E+01 7.23727E-03 2.08483E-04-1.76075E-01 1.40201E-13-3.68433E-14
 -1      2960 1.98404E+01 2.63357E-02 1.78609E-03-1.64830E-01 1.62684E-13-2.90676E-14
 -1      2961 1.99506E+01 5.43275E-02-1.78093E-03-1.45067E-01 1.64887E-13-4.51217E-14
 -1      2962 1.99289E+01 5.07026E-03-1.27309E-03-1.78978E-01 1.35314E-13-1.60103E-14
 -1      2963 1.99240E+01 2.59554E+00-7.90995E-03 7.95014E-01 3.16851E-13-3.62342E-13
 -1      2964 1.98804E+01 2.68762E+00-6.12986E-03 6.45962E-01 2.49829E-13-4.01287E-13
 -1      2965 1.99993E+01 2.38791E+00 4.34843E-03 5.17240E-01 2.20180E-13-3.84218E-13
 -1      2966 2.00806E+01 2.19030E+00 5.68205E-03 7.46252E-01 3.11440E-13-2.99697E-13
 -1      2967 2.94215E+01 5.76935E+00-1.87262E-01 3.62369E-01-1.12221E-12-1.89154E-13
 -1      2968 1.28256E+01-3.42536E+00 1.81351E-01-6.29402E+00-2.52368E-13-5.12798E-13
 -1      2969 1.61558E+01-4.68420E+00 3.41558E-02-6.82493E+00-2.80359E-13-2.78291E-13
 -1      2970 7.96135E+00-2.45883E+00 1.12643E-01 4.36378E+00 6.45414E-13-1.32117E-13
 -1      2971 6.22775E+00-1.61112E+00 1.45975E-01 2.37101E+00 5.53987E-13-6.65329E-13
 -1      2972 1.98755E+01 2.69662E+00-5.97257E-03-6.35677E-01-1.94866E-13-4.52655E-13
 -1      2973 1.99183E+01 2.60697E+00-7.56669E-03-7.84745E-01-2.55331E-13-4.42879E-13
 -1      2974 2.05398E+01 6.51306E-01 6.36822E-03-2.33797E+00 2.81220E-13 3.46525E-13
 -1      2975 2.02279E+01 8.68742E-01-8.91323E-04-2.43011E+00 3.27616E-13 4.59993E-13
 -1      2976 2.06839E+01 4.42332E-01 2.65657E-03-2.45957E+00 3.14414E-13 1.36522E-13
 -1      2977 2.62599E+01-4.48199E+00 4.42082E-02-2.12597E+00-1.44575E-13-3.01426E-14
 -1      2978 2.70995E+01-3.71278E+00-1.41309E-01-9.58583E-01-3.70034E-14-7.88050E-14
 -1      2979 2.00852E+01 2.52649E+00-2.17295E-03-1.45831E+00-4.41128E-13-3.00388E-13
 -1      2980 7.58057E+00-1.63138E+00 1.92891E-01-3.86591E+00 2.09832E-14-9.70252E-13
 -1      2981 9.39754E+00-2.39620E+00 6.26053E-02-5.36451E+00-1.75540E-13-7.04214E-13
 -1      2982 2.83023E+01 6.18274E+00-1.56556E-01 1.26401E+00 9.12492E-13-1.76158E-13
 -1      2983 2.83682E+01 6.65988E+00-1.90391E-01 2.54324E-01 9.22568E-13-3.50624E-13
 -1      2984 5.56893E+00-1.16893E+00 1.66644E-01 1.44704E-01 3.52253E-13-9.76219E-13
 -1      2985 5.97416E+00-1.29915E+00 1.24591E-01-2.22092E+00 2.13142E-13-8.95617E-13
 -1      2986 8.28538E+00-8.10665E-01 1.90751E-01-2.78309E+00 1.02349E-13-7.92422E-13
 -1      2987 2.08430E+01-5.73348E+00-7.72317E-02 5.22337E+00 4.62880E-13 2.48628E-13
 -1      2988 1.73510E+01-4.91600E+00 1.68437E-01 5.87884E+00 5.78260E-13 1.71141E-13
 -1      2989 2.69544E+01-4.99709E+00-1.07719E-01 1.74834E+00 2.56808E-13 2.19547E-13
 -1      2990 2.45621E+01-5.56940E+00 1.04431E-01 3.42748E+00 3.47861E-13 3.21895E-13
 -1      2991 2.95260E+01-2.52086E+00-1.19389E-02 4.81056E-01 3.01842E-15 3.21881E-13
 -1      2992 3.00147E+01-7.39242E-01-1.69662E-01 1.47203E+00-2.92308E-13-1.19349E-13
 -1      2993 2.82070E+01-1.77713E+00-3.75479E-03 6.67864E-01 1.53030E-13 2.68396E-14
 -1      2994 2.84777E+01 2.24669E-01-2.13041E-01 1.72438E+00 4.58786E-13 1.47479E-13
 -1      2995 2.94697E+01-6.59482E-01-1.62834E-01-7.07924E-01 6.06390E-13-1.14353E-13
 -1      2996 2.91658E+01-2.51131E+00-9.27643E-03 7.22285E-01 4.68762E-13-7.32747E-15
 -1      2997 2.79501E+01-3.65233E+00 6.36107E-03 1.28077E+00 2.04302E-13-5.05013E-14
 -1      2998 2.94760E+01 5.78172E+00-2.16222E-01-1.02805E+00-9.92151E-13 1.09903E-13
 -1      2999 1.99724E+01 2.48927E+00-5.51997E-03-9.02205E-01-2.90673E-13-4.20040E-13
 -1      3000 2.00333E+01 2.35946E+00-6.92050E-03-1.03619E+00-3.50309E-13-3.85881E-13
 -1      3001 2.00735E+01 2.20494E+00 5.99004E-03-7.40129E-01-2.49056E-13-3.82523E-13
 -1      3002 1.99341E+01 2.53795E+00 3.38892E-03 4.63333E-03 3.25354E-15-4.16528E-13
 -1      3003 1.97951E+01 2.86951E+00-5.48045E-03-6.19204E-02-1.22624E-14-4.79281E-13
 -1      3004 1.98026E+01 2.85484E+00-5.54771E-03-2.16708E-01-6.71621E-14-4.62028E-13
 -1      3005 2.47038E+01-5.29026E+00 6.24493E-02-3.63751E+00 4.29184E-13 7.03361E-13
 -1      3006 2.90676E+01 4.57972E+00-1.66845E-01-2.07792E+00-7.47180E-13 2.53582E-13
 -1      3007 1.26108E+01-2.46813E+00 1.64852E-01-5.52422E+00-2.78957E-13-4.36345E-13
 -1      3008 1.63305E+01-4.59648E+00 3.71338E-02 6.83480E+00-1.29258E-13 1.70572E-13
 -1      3009 1.35083E+01-3.32511E+00 1.71257E-01 6.26161E+00-1.70322E-13 2.53894E-13
 -1      3010 2.75177E+01-2.32679E+00-4.18704E-02-1.87529E+00-1.06533E-13 2.47018E-13
 -1      3011 2.86921E+01-2.12695E+00-1.54021E-02-1.81925E+00-1.01811E-13 3.69232E-13
 -1      3012 2.69573E+01-3.15462E+00-3.47697E-02-9.96360E-01 1.16683E-13 2.00701E-13
 -1      3013 2.92580E+01 7.46813E-01-1.18861E-01 2.37387E+00-3.96891E-13-3.66776E-13
 -1      3014 2.92334E+01 2.60764E+00-2.00580E-01-2.92633E+00-5.38763E-13 3.50844E-13
 -1      3015 2.03991E+01 3.54309E-01-1.40196E-02-2.69322E+00 3.70628E-13 2.89604E-13
 -1      3016 1.05819E+01-2.14226E+00 1.80930E-01 4.55822E+00 5.94663E-13-9.74221E-14
 -1      3017 2.02902E+01 1.58745E+00-1.21261E-03 1.16648E+00 4.75355E-13-1.09152E-13
 -1      3018 2.74651E+01 4.01174E+00-1.11399E-01-1.62397E+00 7.25184E-13-2.57586E-13
 -1      3019 2.07871E+01 3.97537E-02 5.15080E-03 1.36571E+00-2.81124E-13-5.59983E-13
 -1      3020 2.09442E+01-2.03302E-01-6.26509E-03 1.35001E+00-3.90721E-13-4.49076E-13
 -1      3021 2.07318E+01 1.38465E-01 2.48728E-03 1.57270E+00-2.95647E-13-7.10919E-13
 -1      3022 2.70505E+01 4.83442E+00-1.15492E-01 1.66446E+00 7.39936E-13 6.72934E-14
 -1      3023 1.88621E+01-4.49853E+00 1.30577E-01-5.85996E+00 4.00346E-13 5.05498E-13
 -1      3024 1.27368E+01-2.41296E+00 1.68765E-01-5.33578E+00 4.18485E-13 6.97081E-13
 -1      3025 1.98830E+01 1.12000E+00-1.08251E-03-2.41410E+00 3.39094E-13 2.93361E-13
 -1      3026 2.88598E+01 3.44670E-01-9.76731E-02-1.41799E+00 6.42944E-13-3.15456E-13
 -1      3027 2.79641E+01-1.11566E+00-6.58582E-02-9.84267E-01 5.28355E-13-4.54976E-13
 -1      3028 2.75601E+01 1.24415E+00-8.93805E-02-1.91864E+00 7.12458E-13-5.94441E-13
 -1      3029 1.31837E+01-2.15891E+00 1.54708E-01 5.19891E+00-1.97162E-13 2.62984E-13
 -1      3030 2.70930E+01-2.66560E+00-2.12440E-02 2.99693E-01-2.48447E-14 1.88842E-13
 -1      3031 2.82123E+01-3.60849E+00-5.05867E-02-1.97695E-01 2.45776E-13 3.09822E-13
 -1      3032 1.99661E+01 6.48173E-01 8.62045E-03-2.70369E+00 4.68976E-13 5.11031E-13
 -1      3033 1.95278E+01 1.11632E+00-1.13213E-02-2.52886E+00 1.97956E-13 4.05181E-13
 -1      3034 1.92076E+01 9.26284E-01 3.73412E-03-2.67001E+00 3.47127E-13 3.70892E-13
 -1      3035 2.01320E+01 3.50996E-01 9.28756E-03-2.82097E+00 3.16599E-13 4.13809E-13
 -1      3036 2.83827E+01-3.87953E+00-4.58542E-03-1.62075E-01 1.68928E-13 3.13055E-13
 -1      3037 2.70322E+01-4.34108E+00-6.28159E-03 5.57739E-01 1.75450E-13 2.49314E-13
 -1      3038 2.21866E+01-5.62582E+00-9.29076E-03 5.52472E+00-1.18378E-13 1.14823E-13
 -1      3039 1.91257E+01-5.22733E+00 1.09174E-01 6.37510E+00-2.12635E-13 8.04148E-14
 -1      3040 1.89189E+01-4.36952E+00 1.23348E-01 5.93922E+00-1.06193E-13 1.52132E-13
 -1      3041 7.48783E+00-7.61030E-01 1.96277E-01 1.23237E+00 4.96127E-13-6.91003E-13
 -1      3042 2.68755E+01 5.71758E+00-1.16639E-01-1.93907E-01 7.98028E-13-4.28393E-13
 -1      3043 2.75527E+01 1.24982E+00-7.57012E-02 2.16640E+00 4.62554E-13 2.01367E-13
 -1      3044 2.93763E+01-1.92505E+00-1.33347E-01-1.59062E+00-4.98906E-14 3.97696E-13
 -1      3045 1.63132E+01-4.02002E+00 1.32953E-01 5.60200E+00 5.08510E-13 4.89747E-14
 -1      3046 1.93366E+01-4.86267E+00 4.19102E-02-5.65683E+00-3.26558E-13-3.43045E-13
 -1      3047 8.92944E+00-6.52981E-01 1.94186E-01-1.70274E+00 1.73847E-13 6.83398E-13
 -1      3048 2.04972E+01 3.45254E-01-1.60671E-03 1.94251E+00 1.12502E-14-7.57217E-13
 -1      3049 2.06572E+01 1.89681E-01 7.30795E-03 1.77353E+00-1.62768E-13-5.65495E-13
 -1      3050 2.08279E+01-1.45715E-01-4.54687E-03 1.80953E+00-1.54435E-13-5.29990E-13
 -1      3051 2.04910E+01 1.01115E-02-7.96246E-03 2.18962E+00 1.27850E-13-6.10842E-13
 -1      3052 1.98181E+01 2.81941E+00-5.67104E-03-3.52040E-01-9.25240E-14-4.33118E-13
 -1      3053 1.98421E+01 2.77113E+00-6.17116E-03-5.05689E-01-1.57849E-13-4.47100E-13
 -1      3054 1.99948E+01 2.39557E+00 4.23878E-03-5.08206E-01-1.60251E-13-4.02757E-13
 -1      3055 1.99487E+01 2.50387E+00 3.56374E-03-2.55982E-01-9.14447E-14-4.11458E-13
 -1      3056 2.01446E+01 2.17256E+00 4.44318E-04-1.20765E+00-4.03759E-13-3.10685E-13
 -1      3057 2.47416E+01-4.81012E+00-6.11943E-04-2.99508E+00-1.96190E-13-4.03878E-14
 -1      3058 2.02792E+01 1.36613E+00 2.02172E-03 9.20266E-01 4.26783E-13-1.24587E-13
 -1      3059 2.64390E+01-3.95963E+00-1.91283E-02 2.43189E-01 2.05114E-13 2.17139E-13
 -1      3060 2.39348E+01-5.48125E+00 6.97430E-02 4.55817E+00-8.00054E-14-1.01721E-13
 -1      3061 2.26737E+01-5.06057E+00 6.74121E-02 4.77814E+00-1.58845E-13-2.20813E-14
 -1      3062 2.50148E+01-5.25944E+00-1.08624E-01 3.36840E+00-1.40693E-13-9.46639E-14
 -1      3063 3.04220E+01 1.57202E+00-1.21852E-01-2.71133E+00-4.89248E-13 4.44839E-13
 -1      3064 2.30464E+01-5.21090E+00 8.97642E-02 3.78702E+00 4.09825E-13 1.70586E-13
 -1      3065 2.59893E+01 4.08722E+00-1.35870E-01-1.42825E+00 6.39960E-13-3.63036E-13
 -1      3066 2.66437E+01 2.87472E+00-7.81271E-02-1.96523E+00 6.34034E-13-4.74565E-13
 -1      3067 2.02403E+01 1.48118E+00-6.08493E-03 8.03926E-01 3.69017E-13-1.57332E-13
 -1      3068 2.02020E+01 1.66909E+00-2.43390E-04 7.47906E-01 3.22240E-13-1.92406E-13
 -1      3069 8.88263E+00-5.36548E-01 1.12722E-01 2.35285E+00 4.56801E-13-2.88908E-13
 -1      3070 8.14985E+00-1.23621E-01 1.00905E-01 1.63579E-01 2.70004E-13-7.31359E-13
 -1      3071 2.42822E+01-4.95472E+00-3.13963E-02 2.72634E+00 3.49963E-13 8.36354E-14
 -1      3072 2.17127E+01-4.62200E+00 1.32638E-01 4.13576E+00 3.95843E-13 9.11667E-14
 -1      3073 2.02893E+01 1.06255E+00 8.78706E-04-5.94578E-01-2.65748E-13-2.01623E-13
 -1      3074 2.02557E+01 8.41478E-01-5.08917E-03-4.18513E-01-2.36556E-13-1.83941E-13
 -1      3075 2.02666E+01 6.58805E-01 3.78180E-03-2.94387E-01-2.12262E-13-1.51767E-13
 -1      3076 2.02271E+01 5.07105E-01-3.23019E-03-1.75431E-01-2.03757E-13-1.46952E-13
 -1      3077 2.02898E+01 8.76791E-01 1.14079E-03-3.69177E-01-2.11409E-13-2.10089E-13
 -1      3078 2.02198E+01 3.86814E-01 3.55018E-03-8.81160E-02-1.79083E-13-1.32420E-13
 -1      3079 2.01839E+01 2.86303E-01-1.99403E-03-1.14762E-02-1.54569E-13-1.27311E-13
 -1      3080 2.02739E+01 5.31868E-01-3.24400E-04-1.52348E-01-1.91333E-13-1.78275E-13
 -1      3081 2.01691E+01 2.07530E-01 2.74529E-03 4.41864E-02-1.45623E-13-1.38660E-13
 -1      3082 2.01414E+01 1.41924E-01-1.07880E-03 8.96869E-02-1.42176E-13-1.48155E-13
 -1      3083 2.02395E+01 2.99802E-01-8.17277E-04-4.27047E-03-1.72966E-13-1.84004E-13
 -1      3084 2.01245E+01 9.12519E-02 1.92728E-03 1.21471E-01-1.28370E-13-1.09219E-13
 -1      3085 2.01051E+01 4.96860E-02-4.49270E-04 1.45291E-01-1.23795E-13-9.32240E-14
 -1      3086 2.01998E+01 1.46323E-01-9.58060E-04 8.78324E-02-1.34167E-13-1.71618E-13
 -1      3087 2.00887E+01 1.82565E-02 1.25065E-03 1.60371E-01-1.07128E-13-8.54869E-14
 -1      3088 2.00762E+01-6.67821E-03-3.99998E-05 1.69826E-01-8.44133E-14-8.44007E-14
 -1      3089 2.01618E+01 4.79135E-02-9.25692E-04 1.38721E-01-1.11543E-13-1.18986E-13
 -1      3090 2.00617E+01-2.48033E-02 7.32125E-04 1.73930E-01-8.28512E-14-1.02832E-13
 -1      3091 2.00544E+01-3.81713E-02 2.16259E-04 1.74462E-01-9.56429E-14-1.39884E-13
 -1      3092 2.01286E+01-1.19835E-02-8.19544E-04 1.61230E-01-9.55176E-14-1.25500E-13
 -1      3093 2.00420E+01-4.70419E-02 3.53511E-04 1.71968E-01-9.89440E-14-1.50756E-13
 -1      3094 2.00387E+01-5.23418E-02 3.73156E-04 1.67543E-01-1.08076E-13-1.48574E-13
 -1      3095 2.01008E+01-4.48891E-02-6.92182E-04 1.65516E-01-9.65516E-14-1.25432E-13
 -1      3096 2.00284E+01-5.47392E-02 8.50016E-05 1.61699E-01-9.09468E-14-9.78858E-14
 -1      3097 2.00279E+01-5.43694E-02 4.69625E-04 1.55186E-01-1.15193E-13-9.49356E-14
 -1      3098 2.00784E+01-5.88576E-02-5.68662E-04 1.59311E-01-1.00217E-13-9.93585E-14
 -1      3099 2.00196E+01-5.21775E-02-1.03939E-04 1.48366E-01-1.30480E-13-1.04305E-13
 -1      3100 2.00210E+01-4.77335E-02 5.33503E-04 1.41849E-01-8.64898E-14-9.75236E-14
 -1      3101 2.00607E+01-5.94553E-02-4.58297E-04 1.48351E-01-1.12663E-13-5.04344E-14
 -1      3102 2.00143E+01-4.21747E-02-2.40412E-04 1.35800E-01-1.03006E-13-4.07599E-14
 -1      3103 2.00172E+01-3.46481E-02 5.84938E-04 1.30828E-01-9.60224E-14-3.84056E-14
 -1      3104 2.00471E+01-5.04159E-02-3.62722E-04 1.36862E-01-9.99782E-14-4.31484E-14
 -1      3105 2.00117E+01-2.64432E-02-3.47238E-04 1.26870E-01-1.35626E-14-3.28540E-14
 -1      3106 2.00159E+01-1.63607E-02 6.38610E-04 1.24655E-01-6.47412E-14 3.10513E-15
 -1      3107 2.00366E+01-3.40894E-02-2.79854E-04 1.28001E-01-6.48990E-14 4.80270E-14
 -1      3108 2.00112E+01-5.84142E-03-4.43367E-04 1.23847E-01-1.06821E-13 4.53423E-14
 -1      3109 2.00163E+01 6.63372E-03 7.05238E-04 1.25415E-01-5.71457E-14 9.05707E-14
 -1      3110 2.00283E+01-1.17600E-02-2.05380E-04 1.24226E-01-4.97230E-14 8.04414E-14
 -1      3111 2.00119E+01 1.94404E-02-5.44776E-04 1.28685E-01-1.09692E-13 1.37717E-14
 -1      3112 2.00180E+01 3.44312E-02 7.92378E-04 1.34998E-01-1.04487E-13 9.39269E-15
 -1      3113 2.00215E+01 1.61185E-02-1.33244E-04 1.27583E-01-1.41497E-13 9.00197E-14
 -1      3114 2.00132E+01 4.97379E-02-6.65432E-04 1.43237E-01-5.83977E-14-7.83072E-16
 -1      3115 2.00204E+01 6.75915E-02 9.04789E-04 1.55275E-01-9.77730E-16 2.88770E-14
 -1      3116 2.00149E+01 4.97414E-02-5.55877E-05 1.39933E-01-8.18212E-14 7.72076E-14
 -1      3117 2.00145E+01 8.57952E-02-8.18127E-04 1.69407E-01 3.29361E-14 6.79804E-15
 -1      3118 2.00226E+01 1.07026E-01 1.04446E-03 1.88231E-01 6.55989E-15 3.15338E-14
 -1      3119 2.00075E+01 8.98056E-02 3.76583E-05 1.63112E-01 7.43376E-15 5.14245E-15
 -1      3120 2.00147E+01 1.28653E-01-1.01508E-03 2.09251E-01-2.52818E-15-1.71579E-14
 -1      3121 2.00236E+01 1.53881E-01 1.21037E-03 2.36033E-01 1.67949E-14-2.66688E-14
 -1      3122 1.99975E+01 1.37374E-01 1.59381E-04 1.99033E-01 4.06310E-15 4.26275E-14
 -1      3123 2.00125E+01 1.79517E-01-1.26820E-03 2.65023E-01 6.30273E-14-2.86129E-14
 -1      3124 2.00220E+01 2.09383E-01 1.39827E-03 3.01047E-01 8.53329E-14 3.65165E-15
 -1      3125 1.99831E+01 1.93726E-01 3.25886E-04 2.49732E-01 4.20198E-14-2.96044E-14
 -1      3126 2.00060E+01 2.39576E-01-1.58882E-03 3.39168E-01 4.75051E-14 4.03763E-14
 -1      3127 2.00156E+01 2.74607E-01 1.60088E-03 3.85797E-01-2.25784E-14 5.90738E-14
 -1      3128 1.99616E+01 2.60164E-01 5.57154E-04 3.17359E-01 6.29796E-14 5.86116E-14
 -1      3129 1.99926E+01 3.09694E-01-1.98647E-03 4.34250E-01-2.48240E-14 1.03816E-13
 -1      3130 2.00015E+01 3.50077E-01 1.80970E-03 4.92845E-01 1.78578E-14 8.74305E-14
 -1      3131 1.99294E+01 3.37708E-01 8.76079E-04 4.04120E-01-5.98294E-15 8.52420E-16
 -1      3132 1.99690E+01 3.89891E-01-2.46638E-03 5.52831E-01-4.96635E-14-2.54194E-14
 -1      3133 1.99758E+01 4.35078E-01 2.02028E-03 6.24623E-01-6.59580E-14-4.42342E-14
 -1      3134 1.98822E+01 4.26603E-01 1.30544E-03 5.12180E-01-8.72711E-14 3.75839E-16
 -1      3135 1.99306E+01 4.78443E-01-3.02456E-03 6.97311E-01-8.82733E-14-8.61828E-14
 -1      3136 1.99341E+01 5.26480E-01 2.24453E-03 7.83224E-01-9.44345E-14-1.35168E-13
 -1      3137 1.98140E+01 5.25489E-01 1.86035E-03 6.43578E-01-1.32453E-13-8.55071E-14
 -1      3138 1.98726E+01 5.70350E-01-3.63953E-03 8.69797E-01-7.34403E-14-2.16914E-13
 -1      3139 1.98717E+01 6.16773E-01 2.53528E-03 9.70243E-01-2.63212E-14-2.06419E-13
 -1      3140 1.97182E+01 6.30024E-01 2.53234E-03 8.00252E-01-1.63529E-13-1.55180E-13
 -1      3141 1.97906E+01 6.54829E-01-4.25826E-03 1.07213E+00 1.16137E-14-1.14876E-13
 -1      3142 1.97858E+01 6.90902E-01 3.02945E-03 1.18683E+00 2.99791E-14-5.02120E-14
 -1      3143 1.95877E+01 7.30666E-01 3.25836E-03 9.84395E-01 3.68050E-15-1.00379E-13
 -1      3144 1.96837E+01 7.11378E-01-4.76729E-03 1.30632E+00 1.24441E-14-1.27712E-13
 -1      3145 1.96798E+01 7.21434E-01 4.00514E-03 1.43418E+00 8.76667E-14-2.11802E-13
 -1      3146 1.94169E+01 8.09208E-01 3.86163E-03 1.19948E+00-3.46686E-14-1.30620E-13
 -1      3147 1.95597E+01 7.03966E-01-4.92017E-03 1.57555E+00 1.28897E-13-1.94961E-13
 -1      3148 1.95705E+01 6.61687E-01 5.92529E-03 1.71461E+00 1.47051E-13-2.64212E-13
 -1      3149 1.92051E+01 8.33518E-01 3.93546E-03 1.45249E+00 6.08790E-14-1.55239E-13
 -1      3150 1.94460E+01 5.73429E-01-4.09677E-03 1.88543E+00 1.49637E-13-3.58545E-13
 -1      3151 1.95032E+01 4.37799E-01 9.72709E-03 2.03201E+00 9.02265E-14-2.82219E-13
 -1      3152 1.89649E+01 7.49948E-01 2.69665E-03 1.75752E+00 7.66018E-14-2.55068E-13
 -1      3153 1.94083E+01 2.30266E-01-4.94267E-04 2.24467E+00 1.14632E-13-2.85369E-13
 -1      3154 1.95699E+01-6.18168E-02 1.44877E-02 2.39089E+00-2.72644E-15-2.12038E-13
 -1      3155 1.87346E+01 4.74517E-01-1.21748E-03 2.13912E+00 1.25529E-13-4.09562E-13
 -1      3156 1.95890E+01-4.46479E-01 1.17866E-02 2.64847E+00-7.83401E-14-1.56791E-13
 -1      3157 1.99423E+01-9.70192E-01 2.06750E-02 2.77250E+00-1.23822E-14-4.11186E-14
 -1      3158 1.86082E+01-1.32162E-01-1.31435E-02 2.63634E+00 4.38116E-14-2.47298E-13
 -1      3159 2.02301E+01-1.61490E+00 3.19318E-02 3.03143E+00 2.44146E-14-1.92797E-14
 -1      3160 2.09622E+01-2.38706E+00 2.53685E-02 3.04944E+00 1.81197E-13-5.68929E-14
 -1      3161 1.88011E+01-1.23867E+00-3.49966E-02 3.25717E+00 8.45504E-15-1.37670E-13
 -1      3162 2.25576E+01-3.39212E+00-4.86338E-04-3.30491E+00 3.44311E-13 3.09068E-13
 -1      3163 2.17253E+01-2.50955E+00 5.58830E-02-3.49111E+00 5.01292E-13 3.29262E-13
 -1      3164 2.11119E+01-1.75648E+00 1.79907E-02-3.37865E+00 4.59784E-13 2.80714E-13
 -1      3165 2.05832E+01-1.05017E+00 2.73948E-02-3.36442E+00 4.08894E-13 2.31276E-13
 -1      3166 2.02773E+01-2.20971E+00-2.66061E-02-4.01005E+00 3.97103E-13 2.72875E-13
 -1      3167 2.04246E+01-5.43251E-01 1.51121E-02-3.15743E+00 3.68839E-13 1.61567E-13
 -1      3168 2.01461E+01-2.89235E-02 1.30693E-02-3.02613E+00 2.82170E-13 2.30133E-13
 -1      3169 1.95801E+01 2.01905E-01-1.47046E-02-3.05294E+00 4.35180E-13 1.92385E-13
 -1      3170 1.96697E+01-7.65151E-01-2.06194E-02-3.52244E+00 3.72484E-13-4.54584E-15
 -1      3171 2.00727E+01 1.50446E-01-1.12141E-03-7.54899E-02 1.59927E-13-7.60482E-14
 -1      3172 2.01051E+01 2.15609E-01 3.66206E-03-2.20357E-02 1.53280E-13-3.81258E-14
 -1      3173 1.99845E+01-4.36347E-02 2.93350E-04-1.76208E-01 9.60778E-14-9.09272E-14
 -1      3174 1.99836E+01-3.73172E-02 4.22770E-04-1.80634E-01 1.46050E-13-8.05580E-14
 -1      3175 1.99929E+01-2.79292E-02 1.48067E-04-1.82101E-01 1.38865E-13-7.76875E-14
 -1      3176 1.99965E+01-1.39594E-02 9.00592E-04-1.80646E-01 1.29172E-13-3.83745E-14
 -1      3177 2.00502E+01-3.43346E-02-7.57410E-04-1.76747E-01 1.44364E-13-3.84829E-14
 -1      3178 1.99823E+01-4.45142E-02 4.44722E-04-1.48264E-01 2.55194E-14 1.41149E-14
 -1      3179 1.99767E+01-4.72342E-02-1.18718E-04-1.55922E-01 8.76564E-14-5.22050E-14
 -1      3180 1.99860E+01-3.53038E-02 4.95754E-04-1.34651E-01 2.55414E-14 5.70777E-14
 -1      3181 1.99791E+01-4.07275E-02-2.60255E-04-1.41188E-01 3.03896E-14 5.40635E-14
 -1      3182 2.00159E+01-4.90171E-02-3.32814E-04-1.46037E-01-7.85071E-15-7.53174E-15
 -1      3183 1.99917E+01-2.17853E-02 5.49425E-04-1.25082E-01 2.96411E-14 5.28127E-14
 -1      3184 1.99840E+01-2.92916E-02-3.54653E-04-1.29291E-01 3.57437E-14 6.26810E-14
 -1      3185 2.00121E+01-3.71427E-02-2.55308E-04-1.34274E-01 2.95421E-14 3.75949E-14
 -1      3186 1.99994E+01-4.72803E-03 6.14888E-04-1.21604E-01 7.28679E-14 9.64280E-14
 -1      3187 1.99907E+01-1.39873E-02-4.22671E-04-1.22530E-01 5.10879E-14 6.06868E-14
 -1      3188 2.00107E+01-2.02455E-02-2.00205E-04-1.26903E-01 2.91819E-14 4.66372E-14
 -1      3189 2.00087E+01 1.55208E-02 6.98392E-04-1.25928E-01-1.97290E-14 2.05682E-13
 -1      3190 1.99990E+01 4.64186E-03-4.79585E-04-1.22760E-01 1.68268E-14 1.77482E-13
 -1      3191 2.00112E+01 8.48488E-04-1.62113E-04-1.25999E-01 1.81738E-15 1.28608E-13
 -1      3192 2.00200E+01 3.88597E-02 8.03508E-04-1.39600E-01 3.94630E-14 2.22083E-13
 -1      3193 2.00089E+01 2.63887E-02-5.35837E-04-1.31595E-01 3.21392E-14 2.12988E-13
 -1      3194 2.00130E+01 2.57717E-02-1.36590E-04-1.33325E-01-2.57174E-14 1.51750E-13
 -1      3195 2.00335E+01 6.52462E-02 9.30971E-04-1.64085E-01 6.22327E-15 1.76245E-13
 -1      3196 2.00205E+01 5.12034E-02-5.97288E-04-1.50541E-01 2.50018E-14 2.27810E-13
 -1      3197 2.00161E+01 5.44021E-02-1.20488E-04-1.50493E-01 1.87839E-14 1.67354E-13
 -1      3198 2.00497E+01 9.44795E-02 1.07822E-03-2.00773E-01 5.99109E-14 1.60724E-13
 -1      3199 2.00343E+01 7.89952E-02-6.64844E-04-1.81041E-01 5.04177E-14 2.10623E-13
 -1      3200 2.00200E+01 8.66342E-02-1.12542E-04-1.79043E-01 3.48510E-14 1.25113E-13
 -1      3201 2.00695E+01 1.25924E-01 1.23871E-03-2.50898E-01-3.27607E-14 4.32710E-14
 -1      3202 2.00509E+01 1.09389E-01-7.33351E-04-2.24447E-01 1.57138E-14 1.26087E-13
 -1      3203 2.00250E+01 1.22106E-01-1.14474E-04-2.20445E-01 7.85847E-14 1.89413E-13
 -1      3204 2.00939E+01 1.58149E-01 1.40108E-03-3.15338E-01-1.80767E-14 1.04691E-13
 -1      3205 2.00713E+01 1.41411E-01-7.89562E-04-2.81877E-01-8.95056E-15 1.24606E-13
 -1      3206 2.00311E+01 1.59856E-01-1.32901E-04-2.76014E-01-1.76249E-14 1.34271E-13
 -1      3207 2.01245E+01 1.88452E-01 1.54820E-03-3.94286E-01 2.31484E-14 1.15947E-13
 -1      3208 2.00969E+01 1.73076E-01-8.08994E-04-3.53970E-01 1.96108E-16 9.38894E-14
 -1      3209 2.00392E+01 1.97872E-01-1.82422E-04-3.46724E-01 5.87573E-15 2.07044E-13
 -1      3210 2.01638E+01 2.12260E-01 1.65626E-03-4.86752E-01-5.88979E-14 2.11925E-13
 -1      3211 2.01298E+01 2.00850E-01-7.51504E-04-4.40474E-01 4.85549E-15 1.46335E-13
 -1      3212 2.00507E+01 2.32509E-01-2.90321E-04-4.32895E-01-3.72902E-14 2.29001E-13
 -1      3213 2.02158E+01 2.22403E-01 1.69303E-03-5.89869E-01 4.20136E-14 1.15246E-13
 -1      3214 2.01736E+01 2.18988E-01-5.55545E-04-5.39666E-01 4.55704E-14 1.62461E-13
 -1      3215 2.00684E+01 2.57765E-01-5.03130E-04-5.33740E-01 2.08503E-15 2.39026E-13
 -1      3216 2.02865E+01 2.08381E-01 1.61377E-03-6.97956E-01-1.23445E-15 1.16788E-13
 -1      3217 2.02335E+01 2.18785E-01-1.31647E-04-6.47537E-01-2.85918E-16 1.33885E-13
 -1      3218 2.00971E+01 2.64439E-01-8.94753E-04-6.46720E-01 1.71942E-14 2.45433E-13
 -1      3219 2.03853E+01 1.55852E-01 1.35221E-03-8.01299E-01 5.87795E-14 1.42389E-13
 -1      3220 2.03179E+01 1.87908E-01 6.42538E-04-7.56694E-01 4.69521E-14 9.48879E-14
 -1      3221 2.01451E+01 2.39299E-01-1.57411E-03-7.66659E-01 5.46034E-14 6.12047E-14
 -1      3222 2.05261E+01 4.69556E-02 7.97721E-04-8.84610E-01-3.58457E-14 1.17565E-13
 -1      3223 2.04393E+01 1.10208E-01 1.92168E-03-8.54913E-01 5.74016E-14 1.68901E-13
 -1      3224 2.02252E+01 1.64625E-01-2.68457E-03-8.84486E-01 3.28879E-14 1.86678E-13
 -1      3225 2.07276E+01-1.37399E-01-2.41132E-04-9.25185E-01-2.02332E-13 2.15529E-13
 -1      3226 2.06154E+01-3.31752E-02 3.85951E-03-9.23270E-01-1.08372E-13 1.63397E-13
 -1      3227 2.03572E+01 1.88746E-02-4.38443E-03-9.85427E-01-5.55232E-14 1.10431E-13
 -1      3228 2.10127E+01-4.11265E-01-2.04463E-03-8.90952E-01-2.32696E-14 1.52504E-13
 -1      3229 2.08693E+01-2.59871E-01 6.56456E-03-9.33868E-01-1.16207E-13 1.68379E-13
 -1      3230 2.05687E+01-2.20139E-01-6.77940E-03-1.04635E+00-1.08986E-13 2.14098E-13
 -1      3231 2.14025E+01-7.70369E-01-4.94460E-03-7.39463E-01-8.48867E-14 9.57990E-14
 -1      3232 2.12261E+01-5.77040E-01 9.92445E-03-8.47618E-01-5.17464E-14 7.41973E-14
 -1      3233 2.08944E+01-5.66723E-01-9.66198E-03-1.03202E+00-2.91267E-14 7.53901E-14
 -1      3234 2.19026E+01-1.16860E+00-9.16286E-03-4.21290E-01-1.39174E-13 7.19960E-14
 -1      3235 2.17025E+01-9.63454E-01 1.31350E-02-6.14176E-01-7.95988E-14 6.77513E-14
 -1      3236 2.13696E+01-1.00953E+00-1.22339E-02-8.91201E-01-9.30866E-14-4.94148E-14
 -1      3237 2.24818E+01-1.48555E+00-1.31086E-02 1.03261E-01-1.70158E-13 7.04326E-14
 -1      3238 2.22840E+01-1.34024E+00 1.40972E-02-1.80585E-01-1.71736E-13 1.65652E-13
 -1      3239 2.20115E+01-1.48032E+00-1.28829E-02-5.56862E-01-1.84725E-13-6.07637E-14
 -1      3240 2.30345E+01-1.50548E+00-1.32248E-02 8.09409E-01-1.54288E-13 3.11942E-14
 -1      3241 2.28881E+01-1.53729E+00 9.56349E-03 4.72434E-01-1.85565E-13 3.13972E-14
 -1      3242 2.27641E+01-1.81618E+00-1.61494E-02 4.34954E-02-1.59714E-13 9.90839E-14
 -1      3243 2.34110E+01-9.67977E-01-2.85953E-03 1.58746E+00-8.68297E-14 1.63195E-13
 -1      3244 2.33817E+01-1.32126E+00 1.36884E-03 1.27955E+00-1.41749E-13 1.55392E-13
 -1      3245 2.35536E+01-1.71498E+00-3.68797E-03 8.95406E-01-2.65094E-13 9.96581E-14
 -1      3246 2.34373E+01 2.22463E-01 9.55495E-03 2.05000E+00 1.42076E-13 2.80892E-13
 -1      3247 2.34984E+01-4.65322E-01-3.20636E-02 1.93808E+00 4.52902E-14 2.29742E-13
 -1      3248 2.40186E+01-8.50229E-01 1.47125E-02 1.77523E+00-7.23640E-14 2.30344E-13
 -1      3249 2.31021E+01 1.73793E+00 7.99165E-03 1.79117E+00 4.03334E-13 3.24912E-13
 -1      3250 2.32396E+01 9.86802E-01-4.74446E-02 2.05793E+00 2.50347E-13 3.04305E-13
 -1      3251 2.40490E+01 6.45317E-01 3.01092E-04 2.20315E+00 1.96185E-13 2.59799E-13
 -1      3252 2.27693E+01 2.71117E+00-1.14778E-02 7.13476E-01 3.75599E-13 2.63668E-13
 -1      3253 2.28724E+01 2.34703E+00-3.52693E-02 1.29150E+00 4.71959E-13 3.22729E-13
 -1      3254 2.36741E+01 2.36681E+00-3.88808E-02 1.69360E+00 4.13707E-13 2.94379E-13
 -1      3255 2.27739E+01 2.48797E+00-2.54213E-02-6.51508E-01 1.38049E-13 2.11040E-13
 -1      3256 2.27671E+01 2.73675E+00-1.24310E-02-8.38417E-02 2.14471E-13 2.19102E-13
 -1      3257 2.34321E+01 3.25758E+00-4.73730E-02 3.26766E-01 3.11126E-13 1.03566E-13
 -1      3258 2.38486E+01 1.57293E+00-4.66758E-02-1.59577E+00 3.56394E-13-2.65949E-13
 -1      3259 2.36739E+01 2.37343E+00-2.15023E-02-1.28373E+00 2.14804E-13-1.54065E-13
 -1      3260 2.33180E+01-1.32747E+00-9.04507E-03-8.09313E-01-3.44397E-15-5.62252E-13
 -1      3261 2.33767E+01-9.61415E-01-1.66948E-03-1.11052E+00 1.51093E-13-4.98985E-13
 -1      3262 2.28424E+01-1.56754E+00 7.20017E-03 1.21804E-02-2.79125E-13-7.25010E-13
 -1      3263 2.30130E+01-1.52742E+00-1.20428E-02-3.45323E-01-5.89956E-14-5.83619E-13
 -1      3264 2.36288E+01-1.72890E+00-4.15236E-04-4.11532E-01 3.33015E-14-8.27082E-13
 -1      3265 2.21975E+01-1.30454E+00 1.43923E-02 6.84425E-01-5.63681E-13-4.71772E-13
 -1      3266 2.24235E+01-1.48799E+00-1.45695E-02 3.99943E-01-5.53739E-13-6.41902E-13
 -1      3267 2.28840E+01-1.82915E+00-1.01080E-02 4.76310E-01-4.26185E-13-6.96914E-13
 -1      3268 2.15546E+01-7.99652E-01 1.22160E-02 1.08690E+00-3.83484E-13-2.86610E-13
 -1      3269 2.17896E+01-1.07206E+00-1.05714E-02 9.25343E-01-4.86475E-13-4.64713E-13
 -1      3270 2.20889E+01-1.40445E+00-1.23156E-02 1.08654E+00-5.48775E-13-6.76982E-13
 -1      3271 2.11479E+01-4.11697E-01 5.43376E-03 1.30122E+00-3.58533E-13-4.55230E-13
 -1      3272 2.13164E+01-6.32760E-01-8.12241E-03 1.20760E+00-2.56959E-13-2.68363E-13
 -1      3273 2.15061E+01-8.86843E-01-7.84779E-03 1.40808E+00-3.30668E-13-7.32844E-13
 -1      3274 2.11134E+01-4.06083E-01 2.99840E-03 1.55011E+00-3.48314E-13-6.39907E-13
 -1      3275 1.67123E+01 1.69722E+00-1.00485E-02 3.91459E-02 4.56787E-14 6.05131E-13
 -1      3276 1.68686E+01 1.63541E+00 8.01911E-03 7.23364E-01 7.75097E-14 4.97564E-13
 -1      3277 1.72524E+01 1.31598E+00-2.51730E-02 1.48220E+00 1.13647E-13 1.52201E-13
 -1      3278 1.77932E+01 1.15392E+00 3.95396E-02 1.96994E+00 1.03927E-13-2.73956E-13
 -1      3279 1.65487E+01 1.20932E+00 2.36032E-02 1.32257E+00 2.26488E-13 2.37838E-13
 -1      3280 2.59679E+01 3.86031E+00-4.21543E-02 2.07361E+00 6.22669E-13 2.66297E-13
 -1      3281 2.56613E+01 4.79221E+00-1.31906E-01 1.21502E+00 6.52298E-13 7.81562E-14
 -1      3282 1.80939E+01-4.08841E+00-5.26279E-02 5.19446E+00 3.47736E-13 8.61256E-14
 -1      3283 1.51568E+01-2.86668E+00 1.68715E-01 5.21036E+00 4.02983E-13 6.19366E-14
 -1      3284 2.53992E+01-4.71034E+00 3.72307E-02 1.83711E+00 2.88852E-13 9.92435E-14
 -1      3285 2.34263E+01-4.89380E+00 1.04553E-01-4.02998E+00 3.55750E-13 4.46315E-13
 -1      3286 2.55381E+01-4.94758E+00-7.25000E-02-2.50462E+00 4.62651E-13 5.79072E-13
 -1      3287 2.03457E+01-4.34332E+00-4.96355E-03 5.32183E+00-1.72879E-13 2.02678E-13
 -1      3288 1.82720E+01-3.45435E+00 1.20062E-01 5.59658E+00-1.16868E-13 6.44831E-14
 -1      3289 1.78758E+01-3.49401E+00 1.38271E-01-5.63743E+00 3.63029E-13 5.22804E-13
 -1      3290 2.05941E+01-4.70125E+00-5.74012E-02-5.32773E+00 2.45658E-13 5.13367E-13
 -1      3291 1.11892E+01-2.08866E-01 2.66186E-02 2.55874E+00 6.34909E-16 3.85275E-13
 -1      3292 1.05852E+01 1.93077E-01 1.34926E-01 1.05926E+00 3.22099E-14 5.99132E-13
 -1      3293 1.71061E+01 1.59027E+00 1.52825E-02-1.48145E+00 1.83509E-13 7.44421E-13
 -1      3294 1.67929E+01 1.66868E+00-1.61742E-02-8.28095E-01 1.93875E-14 7.63762E-13
 -1      3295 1.61773E+01 1.48864E+00 3.30953E-02-4.16979E-01 1.31308E-13 6.17353E-13
 -1      3296 1.82030E+01 1.07905E+00 1.80313E-02-2.53136E+00 5.00048E-13 6.76249E-13
 -1      3297 1.76042E+01 1.26880E+00-2.56547E-02-2.13746E+00 3.68300E-13 8.14068E-13
 -1      3298 1.68910E+01 1.16300E+00 1.91088E-02-2.02556E+00 3.31085E-13 9.05756E-13
 -1      3299 1.99815E+01-4.80342E-02 3.83347E-04-1.63297E-01 1.15569E-13-7.83663E-14
 -1      3300 1.99777E+01-4.70244E-02 9.73440E-05-1.70458E-01 8.79280E-14-8.34261E-14
 -1      3301 2.00339E+01-5.07156E-02-5.78985E-04-1.71399E-01 1.04745E-13-6.08384E-14
 -1      3302 2.00228E+01-5.43604E-02-4.38789E-04-1.59574E-01 7.22512E-14-4.40324E-14
 -1      3303 2.69107E+01-4.41322E+00 4.69342E-02-1.20589E+00 5.24901E-13 4.26117E-13
 -1      3304 1.23119E+01-1.20906E+00 1.29044E-01-4.34100E+00 2.60864E-13 7.41865E-13
 -1      3305 1.47586E+01-2.43015E+00-5.51587E-03-5.46167E+00 2.97672E-13 6.96609E-13
 -1      3306 1.23427E+01-2.16706E+00 3.17646E-02 4.86189E+00 4.34687E-13-2.04239E-13
 -1      3307 1.04393E+01-1.16989E+00 1.42971E-01 3.74085E+00 4.81157E-13-1.57846E-13
 -1      3308 2.59933E+01-3.16321E+00 5.38440E-03-4.10892E-02-2.13950E-13 2.40565E-13
 -1      3309 2.64717E+01-1.99392E+00-1.40872E-01 1.20607E+00 1.07588E-14 4.46310E-13
 -1      3310 2.55483E+01 5.17411E+00-1.17274E-01 3.74143E-01 6.96720E-13-1.29284E-13
 -1      3311 2.56453E+01 4.93659E+00-8.79131E-02-6.57242E-01 7.17842E-13-1.83364E-13
 -1      3312 2.02910E+01 9.88789E-01-4.25692E-04 6.90983E-01 3.73913E-13-1.21697E-13
 -1      3313 2.02672E+01 1.30644E+00 2.88199E-03 7.72037E-01 3.71280E-13-1.38069E-13
 -1      3314 2.02710E+01 1.12714E+00 1.01746E-04 5.94693E-01 3.25657E-13-1.20014E-13
 -1      3315 2.02316E+01 7.75585E-01-3.89297E-03 4.85702E-01 3.21514E-13-9.70339E-14
 -1      3316 2.31879E+01-4.89442E+00 8.34496E-02-4.00117E+00-4.64982E-13-1.12226E-13
 -1      3317 2.44948E+01-4.32978E+00-1.95517E-02-2.16792E+00-3.61766E-13 1.56742E-13
 -1      3318 1.53259E+01-2.48173E+00-1.74403E-02 5.45506E+00-1.60143E-13 1.05027E-13
 -1      3319 1.27233E+01-9.59458E-01 1.25692E-01 4.17088E+00-1.90740E-13 3.31971E-13
 -1      3320 1.98945E+01-4.22336E+00 6.83648E-02-4.89517E+00-3.58553E-13-1.59164E-13
 -1      3321 2.67223E+01 1.82470E-01 2.36671E-02 2.18026E+00 3.16379E-13 4.08187E-13
 -1      3322 2.62942E+01 1.97477E+00-1.61413E-01 2.38160E+00 5.35835E-13 4.68535E-13
 -1      3323 8.73546E+00-7.06564E-02 1.59661E-01-1.59551E+00 1.71110E-13-7.33066E-13
 -1      3324 9.67791E+00-6.24365E-01 2.55235E-02-3.30690E+00-8.25034E-15-5.95343E-13
 -1      3325 2.01986E+01 1.89098E+00 1.83561E-03-1.00756E+00-3.49219E-13-3.02731E-13
 -1      3326 3.02462E+01-4.48583E-01-1.46517E-01-2.37555E+00-3.68788E-13 5.24608E-13
 -1      3327 2.00462E+01 2.15997E+00-4.28155E-03 2.92880E-01 1.37720E-13-3.69320E-13
 -1      3328 2.00329E+01 2.19870E+00-3.38465E-03 1.70975E-01 6.69044E-14-3.68158E-13
 -1      3329 9.95496E+00 7.37524E-02 7.79240E-02-6.19148E-01 1.91906E-13 6.22169E-13
 -1      3330 1.06857E+01-4.48141E-01 9.39622E-02-2.98849E+00 2.64060E-13 7.45806E-13
 -1      3331 1.31520E+01-3.46483E-01 1.24974E-01-3.28267E+00 1.58627E-13 7.13769E-13
 -1      3332 1.19891E+01 5.28371E-01 1.03500E-01-1.61760E-01 1.04085E-13 5.87752E-13
 -1      3333 1.20813E+01-1.35202E+00 1.76324E-01-4.62488E+00-2.76123E-13-4.53221E-13
 -1      3334 1.46579E+01-2.77309E+00-3.12789E-02-5.64345E+00-2.94632E-13-1.64063E-13
 -1      3335 2.75814E+01-3.09426E+00-1.01706E-01 3.18477E-01 1.78199E-13-1.11661E-13
 -1      3336 2.69021E+01-4.29379E+00 4.60892E-02 1.79783E+00-7.73045E-14-8.05744E-14
 -1      3337 2.55214E+01-4.44449E+00-3.10890E-02-1.87109E+00 4.56770E-13 3.89066E-13
 -1      3338 2.38862E+01-4.29171E+00-1.29761E-03 2.41284E+00 2.03382E-13 3.64223E-14
 -1      3339 2.00263E+01 2.21785E+00-3.50485E-03 6.62556E-02 2.70041E-14-3.63554E-13
 -1      3340 2.00255E+01 2.21824E+00-3.71698E-03-5.83298E-02-3.28693E-14-3.85955E-13
 -1      3341 2.01395E+01 1.92180E+00 4.81038E-03 1.01605E-01 3.53968E-14-3.14054E-13
 -1      3342 2.02562E+01 1.46086E+00 7.23332E-03 5.88671E-01 2.89649E-13-1.96600E-13
 -1      3343 2.01586E+01 1.79985E+00-7.41991E-03 6.84987E-01 3.01279E-13-2.66904E-13
 -1      3344 2.01232E+01 1.93005E+00-2.85250E-03 5.90782E-01 2.63361E-13-3.09341E-13
 -1      3345 9.89640E+00 2.78585E-01 1.47854E-01-4.96502E-01 1.51209E-13-6.03517E-13
 -1      3346 2.27713E+01-4.61149E+00-6.94467E-02 3.98580E+00-7.52870E-14-1.36412E-13
 -1      3347 2.16970E+01-4.42386E+00 6.53626E-02 4.72481E+00-2.03091E-13 1.14067E-13
 -1      3348 2.09370E+01-3.69463E+00 2.70690E-02 4.57359E+00-1.22589E-13 1.93789E-13
 -1      3349 2.35529E+01-3.90481E+00-6.16626E-03-2.04697E+00-4.37391E-13 1.95477E-13
 -1      3350 2.51078E+01-3.89840E+00-2.82396E-02-1.13228E+00-3.64840E-13 1.55838E-13
 -1      3351 2.50447E+01-2.98033E+00 2.18816E-02 5.47849E-03-3.40982E-13 1.80909E-13
 -1      3352 2.03370E+01-3.77065E+00 8.84800E-02 4.14059E+00 3.40922E-13-7.48533E-16
 -1      3353 1.82829E+01-2.40715E+00 3.97102E-02 4.18463E+00 1.95906E-13 5.22169E-14
 -1      3354 2.02492E+01-3.01313E+00 4.35632E-02 3.72706E+00 2.82819E-13 1.06356E-14
 -1      3355 2.01207E+01 1.93954E+00-2.47185E-03-5.84506E-01-2.10561E-13-3.63257E-13
 -1      3356 2.01595E+01 1.80904E+00-6.26557E-03-6.83278E-01-2.57468E-13-3.64893E-13
 -1      3357 2.28665E+01-3.67398E+00 1.25227E-02 2.75445E+00 2.59119E-13-1.21148E-13
 -1      3358 2.56008E+01-4.58802E+00 1.63278E-02 2.41213E+00-1.45470E-13-9.82131E-14
 -1      3359 2.00917E+01 2.02411E+00-5.35510E-03 5.05238E-01 2.37402E-13-3.33777E-13
 -1      3360 2.00665E+01 2.10440E+00-3.05424E-03 3.91837E-01 1.78059E-13-3.46195E-13
 -1      3361 2.01625E+01 1.84683E+00 5.29527E-03 2.91603E-01 1.42053E-13-3.06204E-13
 -1      3362 2.02038E+01 1.69598E+00 6.29082E-03 4.60825E-01 2.27793E-13-2.87224E-13
 -1      3363 2.43886E+01-3.95958E+00 8.39843E-02-2.58570E+00 3.62984E-13 2.50176E-13
 -1      3364 2.01901E+01 3.15472E-01-1.48892E-03 3.73659E-02 1.79162E-13-6.05516E-14
 -1      3365 2.01241E+01 2.93386E-01-1.96008E-03 4.50728E-02 1.53601E-13-2.29523E-14
 -1      3366 2.01690E+01 3.94686E-01 4.34305E-03 1.35431E-01 1.83547E-13-3.27280E-14
 -1      3367 1.48254E+01-2.01398E+00 1.18175E-01 4.57946E+00 2.94501E-13-7.52731E-14
 -1      3368 2.00731E+01 3.21561E-04-9.70823E-04-1.69059E-01 1.32749E-13-3.72665E-14
 -1      3369 2.00088E+01 4.09911E-03-9.26144E-05-1.74157E-01 1.15543E-13-5.58913E-14
 -1      3370 2.00191E+01 2.91720E-02 1.58002E-03-1.62393E-01 1.21333E-13-5.29192E-14
 -1      3371 2.35934E+01 3.44526E-01 8.23750E-03-1.58459E+00 4.82590E-13-2.55709E-13
 -1      3372 2.50152E+01 1.31428E+00-4.21975E-02-1.85831E+00 5.00436E-13-5.64573E-13
 -1      3373 2.43146E+01-8.72905E-01-2.88508E-03-1.32493E+00 3.98534E-13-6.02482E-13
 -1      3374 2.37090E+01-3.75988E-01-2.42471E-02-1.51143E+00 3.83792E-13-4.41897E-13
 -1      3375 1.96632E+01 2.57340E-02-1.43295E-02 2.66027E+00-8.92450E-15-3.72755E-13
 -1      3376 2.02005E+01-1.97142E-01 1.75730E-02 2.60929E+00 9.66787E-14-5.73819E-13
 -1      3377 2.00641E+01 2.11076E+00-2.83535E-03-3.83657E-01-1.23435E-13-3.67676E-13
 -1      3378 2.00881E+01 2.03276E+00-5.14548E-03-4.98971E-01-1.80928E-13-3.58389E-13
 -1      3379 2.01976E+01 1.70028E+00 4.20989E-03-4.51684E-01-1.91350E-13-3.24587E-13
 -1      3380 2.52389E+01 2.37210E+00-6.19154E-02 2.14856E+00 4.43749E-13 3.68452E-13
 -1      3381 1.83597E+01 6.67033E-01-3.28866E-02 2.42108E+00-6.86296E-14-6.61365E-13
 -1      3382 1.90489E+01 4.20104E-01 3.08071E-02 2.64474E+00-2.85058E-14-5.59315E-13
 -1      3383 1.92505E+01-2.78676E-01-1.53962E-02 2.93990E+00-5.12420E-14-5.53254E-13
 -1      3384 1.76062E+01 5.01500E-01-2.67811E-02 2.53570E+00 1.04805E-13-3.17970E-13
 -1      3385 2.64148E+01 1.49076E+00-6.49913E-02-1.82732E+00 5.00697E-13-6.20878E-13
 -1      3386 2.01760E+01 4.86233E-01-2.74238E-03 2.22402E-01 2.15740E-13-4.77218E-14
 -1      3387 2.02312E+01 6.34682E-01 3.82688E-03 3.61550E-01 2.58311E-13-6.21140E-14
 -1      3388 2.02605E+01 7.94034E-01 1.23399E-03 4.22485E-01 2.61515E-13-8.22415E-14
 -1      3389 2.02300E+01 5.24574E-01-7.69601E-04 2.01196E-01 1.86312E-13-5.21623E-14
 -1      3390 2.00544E+01 1.01152E-01 2.51166E-03-1.14647E-01 1.50148E-13-5.79763E-14
 -1      3391 2.01432E+01 1.60656E-01-1.38603E-03-7.56700E-02 1.52952E-13-8.21401E-14
 -1      3392 2.00346E+01 5.98566E-02-4.89331E-04-1.42927E-01 1.32889E-13-4.02055E-14
 -1      3393 1.09739E+01-4.01932E-01 1.49126E-01 2.74116E+00 3.76980E-13-2.23072E-13
 -1      3394 2.22149E+01-4.26543E+00 2.88345E-02-4.14879E+00 2.71026E-13 5.24396E-13
 -1      3395 1.75184E+01-2.38518E+00 9.68767E-02 4.91767E+00-9.60412E-14 9.51114E-14
 -1      3396 1.90954E+01 4.82759E-01 7.66530E-03-2.97305E+00 4.96809E-13 2.33743E-13
 -1      3397 1.85958E+01 7.63336E-01-1.76169E-02-2.80174E+00 5.09927E-13 2.05000E-13
 -1      3398 1.79739E+01 5.84278E-01-7.85504E-04-2.90557E+00 4.68806E-13 4.98761E-13
 -1      3399 1.90990E+01 6.65729E-02 1.71478E-02-3.20688E+00 5.52961E-13 1.33965E-13
 -1      3400 2.46427E+01 4.15134E+00-7.42733E-02 7.87918E-01 4.79283E-13 9.35424E-14
 -1      3401 1.35373E+01-2.60825E-01 8.89014E-02 3.08666E+00-1.21878E-13 2.31294E-13
 -1      3402 1.71067E+01-2.40227E+00 8.97614E-02-5.03578E+00 2.35617E-13 7.54924E-13
 -1      3403 1.21787E+01-6.43309E-01 1.25207E-01-3.61402E+00-2.19949E-13-4.23162E-13
 -1      3404 2.05566E+01-3.46077E-01-1.70650E-03 2.41147E+00-4.66454E-14-5.55152E-13
 -1      3405 2.08266E+01-4.54331E-01 6.46125E-03 2.23897E+00-1.01040E-13-4.41933E-13
 -1      3406 2.04462E+01-7.42102E-01-1.45181E-02 2.69690E+00-1.58258E-13-4.28875E-13
 -1      3407 2.59080E+01-8.32742E-01 1.10244E-03 1.78732E+00 6.89275E-14 2.62172E-13
 -1      3408 2.49697E+01 3.80349E+00-6.59564E-02-9.97546E-01 5.70190E-13-3.33622E-13
 -1      3409 2.67822E+01-1.14483E+00-5.79854E-02-1.31915E+00 4.82808E-13-7.29215E-13
 -1      3410 2.75440E+01-2.19674E+00-4.71062E-02-5.80233E-01 3.56493E-13-3.95552E-13
 -1      3411 2.67648E+01-2.85194E+00 3.33625E-02-6.52241E-03 2.93375E-13-2.82628E-13
 -1      3412 2.02186E+01 1.53986E+00-2.67099E-03-7.87065E-01-3.09162E-13-2.77760E-13
 -1      3413 1.87194E+01-3.44019E+00 1.36757E-01-4.99073E+00-3.00798E-13-4.08564E-14
 -1      3414 2.15709E+01-3.85258E+00-4.34488E-02-3.54928E+00-4.59718E-13-6.77756E-15
 -1      3415 1.76161E+01-2.53886E+00 5.77671E-02-4.53743E+00-3.03611E-13-3.62852E-14
 -1      3416 2.02219E+01 1.55524E+00 1.36620E-03-6.82472E-01-2.65415E-13-2.97605E-13
 -1      3417 2.25235E+01-3.94110E+00-2.64291E-02-3.68123E+00 3.16084E-13 5.99493E-13
 -1      3418 1.75793E+01-1.29451E+00 4.22480E-02 3.63687E+00 1.68490E-13-8.05501E-14
 -1      3419 1.63272E+01-1.81128E+00 1.12560E-03 4.19162E+00 3.00347E-13 4.27852E-14
 -1      3420 1.43406E+01-8.68442E-01 1.04051E-01 3.78242E+00 3.28907E-13-7.23865E-14
 -1      3421 2.41311E+01 3.50524E+00-3.21955E-02 1.42403E+00 4.28393E-13 1.86285E-13
 -1      3422 2.39856E+01 3.87429E+00-3.81497E-02 5.41117E-01 4.70554E-13 1.68737E-13
 -1      3423 2.02590E+01 1.34033E+00 1.58030E-03-5.22598E-01-2.25147E-13-3.01188E-13
 -1      3424 2.03173E+01 6.75801E-01 1.61646E-03-2.02769E-01-1.54050E-13-2.50400E-13
 -1      3425 2.03005E+01 5.24034E-01-2.40829E-03-1.10036E-01-1.58928E-13-2.32616E-13
 -1      3426 2.03016E+01 3.98359E-01 2.19302E-03-4.73974E-02-1.54957E-13-2.06642E-13
 -1      3427 2.02782E+01 2.93443E-01-1.78842E-03 1.33403E-02-1.42280E-13-1.99586E-13
 -1      3428 2.03363E+01 5.26607E-01 4.45580E-04-8.76489E-02-1.34138E-13-2.59337E-13
 -1      3429 2.02685E+01 2.09449E-01 1.93428E-03 5.34204E-02-1.25270E-13-1.62668E-13
 -1      3430 2.02450E+01 1.39552E-01-1.12016E-03 8.98153E-02-1.20622E-13-1.44894E-13
 -1      3431 2.03179E+01 2.92669E-01-2.64714E-04 1.84349E-02-1.09091E-13-1.98567E-13
 -1      3432 2.02295E+01 8.51685E-02 1.47594E-03 1.12631E-01-1.18345E-13-1.23142E-13
 -1      3433 2.02088E+01 4.06065E-02-5.34504E-04 1.31692E-01-9.50926E-14-1.10848E-13
 -1      3434 2.02853E+01 1.36121E-01-4.50962E-04 8.46572E-02-1.02097E-13-1.24252E-13
 -1      3435 2.01910E+01 7.08028E-03 1.00989E-03 1.42080E-01-8.43581E-14-1.03971E-13
 -1      3436 2.01738E+01-1.92942E-02-1.25779E-04 1.49499E-01-9.29730E-14-1.02846E-13
 -1      3437 2.02473E+01 3.49937E-02-5.78343E-04 1.20785E-01-9.27963E-14-8.06300E-14
 -1      3438 2.01558E+01-3.80083E-02 6.30913E-04 1.51759E-01-1.06134E-13-1.08201E-13
 -1      3439 2.01422E+01-5.14525E-02 1.43761E-04 1.51960E-01-9.30507E-14-1.16441E-13
 -1      3440 2.02088E+01-2.57026E-02-6.08568E-04 1.36051E-01-1.13508E-13-1.16448E-13
 -1      3441 2.01252E+01-5.96705E-02 3.35395E-04 1.49461E-01-5.22907E-14-1.06206E-13
 -1      3442 2.01146E+01-6.39357E-02 3.14264E-04 1.45779E-01-6.07984E-14-6.75193E-14
 -1      3443 2.01727E+01-5.74170E-02-5.76873E-04 1.38048E-01-7.43237E-14-1.07952E-13
 -1      3444 2.00992E+01-6.46903E-02 1.08919E-04 1.41073E-01-1.15134E-13-4.82101E-14
 -1      3445 2.00913E+01-6.23848E-02 4.18576E-04 1.35978E-01-9.34873E-14-4.82852E-14
 -1      3446 2.01402E+01-6.84326E-02-5.11096E-04 1.32704E-01-5.03661E-14-1.07404E-13
 -1      3447 2.00775E+01-5.77369E-02-6.74582E-05 1.30973E-01-1.01749E-13-4.06120E-14
 -1      3448 2.00717E+01-5.05890E-02 4.82034E-04 1.26299E-01-1.21647E-13-3.37007E-14
 -1      3449 2.01116E+01-6.45608E-02-4.25621E-04 1.24502E-01-1.06060E-13-6.48285E-14
 -1      3450 2.00593E+01-4.18524E-02-2.12683E-04 1.22424E-01-1.03686E-13-1.09222E-14
 -1      3451 2.00551E+01-3.09071E-02 5.23055E-04 1.19565E-01-3.12420E-14-2.30432E-14
 -1      3452 2.00866E+01-4.96895E-02-3.27875E-04 1.16810E-01-9.12113E-14-7.47175E-14
 -1      3453 2.00435E+01-1.88152E-02-3.43880E-04 1.17931E-01 1.27937E-14-3.90277E-14
 -1      3454 2.00405E+01-4.58462E-03 5.54612E-04 1.18002E-01-4.59587E-14-1.36691E-14
 -1      3455 2.00642E+01-2.62010E-02-2.19998E-04 1.12190E-01-3.11554E-14-4.95493E-14
 -1      3456 2.00291E+01 1.05822E-02-4.76090E-04 1.19523E-01-1.05789E-13 7.73897E-14
 -1      3457 2.00267E+01 2.80017E-02 5.84971E-04 1.23484E-01-9.96829E-14 1.14864E-13
 -1      3458 2.00434E+01 4.69814E-03-9.99801E-05 1.12681E-01 4.39453E-15 4.15008E-14
 -1      3459 2.00147E+01 4.63147E-02-6.22651E-04 1.28975E-01-1.41827E-13 1.75952E-13
 -1      3460 2.00122E+01 6.71470E-02 6.18225E-04 1.37725E-01-8.94816E-14 1.32790E-13
 -1      3461 2.00224E+01 4.27160E-02 3.76108E-05 1.20004E-01-8.65507E-14 9.31637E-14
 -1      3462 1.99984E+01 8.89454E-02-7.95667E-04 1.47965E-01-5.00935E-14 9.70448E-14
 -1      3463 1.99953E+01 1.13651E-01 6.54529E-04 1.62404E-01-4.29872E-14 1.15732E-14
 -1      3464 1.99995E+01 8.82594E-02 2.01467E-04 1.35720E-01-1.14517E-13 1.52333E-13
 -1      3465 1.99784E+01 1.39464E-01-1.00646E-03 1.78178E-01 1.15960E-14-1.44632E-14
 -1      3466 1.99738E+01 1.68660E-01 6.90150E-04 1.99236E-01 4.04274E-14-4.09615E-14
 -1      3467 1.99721E+01 1.42244E-01 4.03720E-04 1.61329E-01-1.29501E-14-1.62204E-14
 -1      3468 1.99519E+01 1.99124E-01-1.26601E-03 2.21341E-01 3.03707E-14 7.51068E-15
 -1      3469 1.99446E+01 2.33487E-01 7.17583E-04 2.49985E-01 4.80791E-14 1.71767E-14
 -1      3470 1.99373E+01 2.05905E-01 6.60325E-04 1.98303E-01 5.16591E-15-3.09849E-14
 -1      3471 1.99157E+01 2.69237E-01-1.58542E-03 2.79218E-01 5.20747E-14-3.36018E-14
 -1      3472 1.99041E+01 3.09377E-01 7.26264E-04 3.16424E-01 4.86522E-14-5.11762E-14
 -1      3473 1.98914E+01 2.80588E-01 9.91501E-04 2.48072E-01 3.02884E-14-6.28510E-14
 -1      3474 1.98655E+01 3.50901E-01-1.97662E-03 3.53549E-01 1.88084E-14-7.51736E-14
 -1      3475 1.98476E+01 3.97172E-01 7.04875E-04 4.00252E-01-5.55540E-14-5.60305E-14
 -1      3476 1.98296E+01 3.67466E-01 1.42201E-03 3.11962E-01 2.93299E-14-9.47041E-14
 -1      3477 1.97958E+01 4.44563E-01-2.45378E-03 4.45967E-01-1.58827E-13-6.52475E-14
 -1      3478 1.97690E+01 4.96768E-01 6.47038E-04 5.03004E-01-2.15900E-13-2.01615E-13
 -1      3479 1.97460E+01 4.67144E-01 1.98094E-03 3.91103E-01-1.39030E-13-1.95341E-13
 -1      3480 1.96999E+01 5.49349E-01-3.03628E-03 5.57935E-01-1.66692E-13-9.77666E-14
 -1      3481 1.96610E+01 6.06271E-01 5.63335E-04 6.26014E-01-1.13716E-13-7.17296E-14
 -1      3482 1.96331E+01 5.79063E-01 2.70050E-03 4.86381E-01-1.78523E-13-1.75732E-13
 -1      3483 1.95694E+01 6.61977E-01-3.75479E-03 6.90831E-01-1.53401E-13-3.68082E-14
 -1      3484 1.95149E+01 7.20650E-01 5.03902E-04 7.70614E-01-1.56312E-13-3.57130E-14
 -1      3485 1.94819E+01 7.00606E-01 3.61312E-03 5.98528E-01-1.14744E-13-1.07974E-14
 -1      3486 1.93947E+01 7.75077E-01-4.66329E-03 8.46392E-01-4.73749E-14-4.12218E-14
 -1      3487 1.93213E+01 8.29669E-01 5.97210E-04 9.38826E-01 4.28357E-15-9.82678E-14
 -1      3488 1.92812E+01 8.25745E-01 4.74583E-03 7.28602E-01-1.03041E-13 1.63232E-15
 -1      3489 1.91653E+01 8.74612E-01-5.86182E-03 1.02790E+00-5.50700E-14-1.40889E-13
 -1      3490 1.90719E+01 9.14797E-01 1.11918E-03 1.13507E+00-4.25664E-14-1.40784E-13
 -1      3491 1.90181E+01 9.43091E-01 6.11026E-03 8.79235E-01-4.33232E-14-8.10351E-14
 -1      3492 1.88720E+01 9.36130E-01-7.51662E-03 1.24285E+00 2.79244E-14-1.25359E-13
 -1      3493 1.87621E+01 9.44640E-01 2.59257E-03 1.36963E+00 8.37466E-14-1.26674E-13
 -1      3494 1.86782E+01 1.03316E+00 7.69221E-03 1.05737E+00-3.08270E-14-1.14738E-13
 -1      3495 1.85105E+01 9.19133E-01-9.80008E-03 1.50789E+00 8.01233E-14-1.27999E-13
 -1      3496 1.83989E+01 8.68288E-01 6.13288E-03 1.66437E+00 6.65924E-14-1.98469E-13
 -1      3497 1.82465E+01 1.06418E+00 9.39476E-03 1.27969E+00 6.34228E-14-1.48275E-13
 -1      3498 1.80908E+01 7.58173E-01-1.23496E-02 1.85657E+00 3.21832E-14-2.07638E-13
 -1      3499 1.80078E+01 6.02450E-01 1.15842E-02 2.06105E+00 4.20421E-14-2.36724E-13
 -1      3500 1.77096E+01 9.85479E-01 1.11090E-02 1.58207E+00 4.75200E-14-6.13456E-14
 -1      3501 1.76575E+01 3.74532E-01-5.22619E-03 2.34064E+00 5.18188E-14-2.80520E-13
 -1      3502 1.76825E+01 2.09994E-02 2.25487E-02 2.62302E+00 8.46776E-14-2.33936E-13
 -1      3503 1.70851E+01 7.12526E-01 1.91621E-02 2.03609E+00 3.67701E-14-1.17782E-13
 -1      3504 1.73564E+01-5.96095E-01 1.83525E-02 3.18952E+00 1.20049E-13-1.66239E-13
 -1      3505 2.51427E+01-1.82661E+00-8.56334E-03-8.81852E-01 3.26735E-13-4.83153E-13
 -1      3506 2.55561E+01-1.03681E+00-1.91305E-02-1.27877E+00 5.29667E-13-4.50294E-13
 -1      3507 1.07971E+01 5.31726E-01 7.25112E-02 5.88287E-01 2.19670E-13-5.61648E-13
 -1      3508 1.09096E+01 4.77944E-01 6.92015E-03-1.12297E+00 1.01178E-13-6.13731E-13
 -1      3509 2.00374E+01-3.66066E-02 5.25547E-04-1.27692E-01-2.27044E-14 7.46070E-14
 -1      3510 2.00382E+01-4.49957E-02-2.02394E-04-1.32174E-01-3.21710E-14 1.90919E-14
 -1      3511 2.00479E+01-5.13916E-02 4.74882E-04-1.37392E-01-3.17587E-14 3.36402E-14
 -1      3512 2.00505E+01-5.63285E-02-5.40404E-05-1.43324E-01-1.24829E-14 1.52123E-14
 -1      3513 2.00696E+01-5.29413E-02-3.51096E-04-1.29835E-01-4.02251E-14 9.83083E-14
 -1      3514 2.00229E+01 9.18903E-03 6.16901E-04-1.24163E-01-5.08437E-14 9.35863E-14
 -1      3515 2.00214E+01-4.37605E-03-4.28025E-04-1.22423E-01-7.43575E-16 7.25401E-14
 -1      3516 2.00175E+01 3.90183E-02 6.75329E-04-1.34032E-01-2.54983E-14 6.16268E-14
 -1      3517 2.00153E+01 2.31685E-02-5.33167E-04-1.27850E-01-4.68461E-15 7.25627E-14
 -1      3518 2.00250E+01 1.95871E-02-8.88894E-05-1.23516E-01-1.05149E-14-2.23834E-14
 -1      3519 2.00125E+01 7.32444E-02 7.49321E-04-1.53830E-01 2.99008E-14 5.30380E-14
 -1      3520 2.00096E+01 5.51450E-02-6.45219E-04-1.42417E-01-9.51287E-15 3.02110E-14
 -1      3521 2.00119E+01 5.47649E-02-3.77219E-06-1.35899E-01-1.64288E-15-1.24451E-13
 -1      3522 2.00072E+01 1.11737E-01 8.41456E-04-1.85118E-01 6.38933E-14 3.67902E-14
 -1      3523 2.00036E+01 9.14676E-02-7.68035E-04-1.67714E-01 2.57837E-14 7.17214E-14
 -1      3524 1.99978E+01 9.49943E-02 8.17417E-05-1.58322E-01 5.83925E-15-8.75947E-14
 -1      3525 2.00011E+01 1.54029E-01 9.52801E-04-2.29413E-01 5.31679E-16 2.40419E-13
 -1      3526 1.99968E+01 1.31881E-01-9.00422E-04-2.05311E-01 6.89883E-14 2.07844E-13
 -1      3527 1.99817E+01 1.40048E-01 1.65563E-04-1.92399E-01-3.55501E-14 8.38691E-15
 -1      3528 1.99940E+01 1.98920E-01 1.08366E-03-2.88124E-01-4.30641E-14 1.77402E-13
 -1      3529 1.99887E+01 1.75611E-01-1.03461E-03-2.56722E-01-1.05111E-14 2.02390E-13
 -1      3530 1.99624E+01 1.89238E-01 2.40898E-04-2.39751E-01 8.03020E-15 1.51082E-13
 -1      3531 1.99862E+01 2.43963E-01 1.23472E-03-3.62388E-01 1.68209E-14 1.22121E-13
 -1      3532 1.99795E+01 2.20912E-01-1.15382E-03-3.23306E-01 5.29247E-14 1.68703E-13
 -1      3533 1.99395E+01 2.40944E-01 2.93096E-04-3.01964E-01 3.36666E-14 1.11407E-13
 -1      3534 1.99790E+01 2.84815E-01 1.40866E-03-4.52818E-01-7.53038E-14 1.70700E-13
 -1      3535 1.99700E+01 2.64490E-01-1.22871E-03-4.06065E-01-8.34990E-14 1.20543E-13
 -1      3536 1.99128E+01 2.92027E-01 2.95016E-04-3.80474E-01-2.15497E-14 2.36753E-14
 -1      3537 1.99755E+01 3.14423E-01 1.61182E-03-5.59136E-01-2.43299E-14 1.92631E-13
 -1      3538 1.99622E+01 3.00773E-01-1.21220E-03-5.05348E-01-6.76168E-15 1.80527E-13
 -1      3539 1.98835E+01 3.37074E-01 2.00377E-04-4.76402E-01-4.29470E-14 8.64784E-14
 -1      3540 1.99811E+01 3.22092E-01 1.85431E-03-6.79659E-01 4.32161E-14 1.10572E-13
 -1      3541 1.99605E+01 3.21031E-01-1.03191E-03-6.20427E-01 1.59334E-15 1.39867E-13
 -1      3542 1.98548E+01 3.67482E-01-6.55425E-05-5.90296E-01 4.23522E-15 1.16943E-13
 -1      3543 2.00057E+01 2.92556E-01 2.14272E-03-8.10566E-01 4.41349E-14 7.18708E-14
 -1      3544 1.99727E+01 3.12428E-01-5.78900E-04-7.48884E-01 6.94883E-14 9.07615E-14
 -1      3545 1.98330E+01 3.70416E-01-6.18454E-04-7.21765E-01 9.48994E-14-2.25137E-14
 -1      3546 2.00653E+01 2.05369E-01 2.45926E-03-9.44776E-01 6.12262E-15 1.53598E-13
 -1      3547 2.00120E+01 2.57202E-01 3.07576E-04-8.85695E-01 2.58195E-14 1.37780E-13
 -1      3548 1.98297E+01 3.27774E-01-1.63101E-03-8.68892E-01-2.11712E-14 7.63497E-14
 -1      3549 2.01842E+01 3.54040E-02 2.70380E-03-1.07008E+00-1.47860E-13 2.15720E-13
 -1      3550 2.00992E+01 1.32494E-01 1.86507E-03-1.02170E+00-2.95484E-14 1.81181E-13
 -1      3551 1.98641E+01 2.15503E-01-3.34261E-03-1.02710E+00-4.51171E-14 1.93047E-13
 -1      3552 2.03971E+01-2.44132E-01 2.57715E-03-1.16603E+00-2.03375E-15 6.33566E-14
 -1      3553 2.02654E+01-8.80951E-02 4.37276E-03-1.14100E+00-8.96627E-14 1.52142E-13
 -1      3554 1.99661E+01 4.32603E-03-6.05046E-03-1.18689E+00-5.89957E-14 5.06893E-14
 -1      3555 2.07486E+01-6.53302E-01 1.57748E-03-1.19856E+00 6.96114E-14-1.24919E-13
 -1      3556 2.05538E+01-4.29292E-01 8.27959E-03-1.21633E+00 6.63299E-14 2.42762E-14
 -1      3557 2.01800E+01-3.37234E-01-1.00942E-02-1.32954E+00 6.43535E-14-1.16955E-13
 -1      3558 2.12864E+01-1.18590E+00-1.20091E-03-1.11209E+00-1.70720E-13-1.83227E-13
 -1      3559 2.10169E+01-9.01254E-01 1.39671E-02-1.20122E+00-7.27907E-14-1.77822E-13
 -1      3560 2.05664E+01-8.31887E-01-1.51273E-02-1.41770E+00 6.20190E-14-2.19607E-13
 -1      3561 2.20464E+01-1.76854E+00-4.55906E-03-8.22878E-01-1.91672E-13-1.13867E-13
 -1      3562 2.17031E+01-1.47199E+00 2.08712E-02-1.02184E+00-2.67265E-13-1.47041E-13
 -1      3563 2.11962E+01-1.46848E+00-2.00072E-02-1.38430E+00-2.41939E-13-2.51740E-13
 -1      3564 2.30409E+01-2.19435E+00 3.74609E-03-2.17741E-01-2.62936E-13 3.64465E-14
 -1      3565 2.26300E+01-2.02152E+00 2.76455E-02-5.85138E-01-9.24369E-14-6.00973E-15
 -1      3566 2.21226E+01-2.14261E+00-2.09224E-02-1.11766E+00-2.06155E-13-1.60112E-13
 -1      3567 2.41616E+01-2.48679E+00-1.01401E-02 3.09736E-01-3.51829E-13 1.30042E-13
 -1      3568 2.37396E+01-2.60542E+00 7.32183E-03-1.57478E-01-3.66914E-13 3.75353E-14
 -1      3569 2.47572E+01 1.39363E+00 1.97874E-03 2.32352E+00 3.30493E-13 3.45441E-13
 -1      3570 2.47622E+01 1.28808E-01-9.07657E-02 2.24807E+00 1.62973E-13 2.77705E-13
 -1      3571 2.42436E+01 2.61113E+00-7.65157E-02 1.93594E+00 4.49880E-13 2.72603E-13
 -1      3572 2.39482E+01 3.77914E+00-8.53002E-02-2.63388E-01 3.75769E-13-1.09336E-13
 -1      3573 1.65828E+01 7.30595E-01 3.72972E-02-2.66366E+00 2.85269E-13 1.09705E-12
 -1      3574 1.57469E+01 9.53469E-01-2.51248E-02-1.98000E+00 1.49801E-13 9.63046E-13
 -1      3575 1.52857E+01 1.04707E+00-3.71125E-02 1.19844E+00 2.92096E-13 4.36489E-13
 -1      3576 1.59423E+01 9.11055E-01 6.16856E-02 2.04877E+00 2.76359E-13-4.95287E-14
 -1      3577 2.00324E+01 2.20152E+00-3.08905E-03-1.62724E-01-7.30321E-14-3.94422E-13
 -1      3578 2.00442E+01 2.16415E+00-4.28938E-03-2.85135E-01-1.06343E-13-3.81778E-13
 -1      3579 2.01584E+01 1.85049E+00 4.35857E-03-2.82501E-01-1.16376E-13-3.55276E-13
 -1      3580 1.89406E+01-2.55020E+00-2.91548E-02 4.61840E+00-8.46684E-14 6.14855E-14
 -1      3581 1.68971E+01-1.29385E+00 9.82245E-02 4.38628E+00 5.72979E-14-2.01252E-13
 -1      3582 1.52150E+01 1.24802E+00 1.44008E-02-9.15376E-01 1.96138E-13 6.71839E-13
 -1      3583 1.50769E+01 1.27218E+00 7.01802E-03 1.97853E-02 2.27433E-13 5.11143E-13
 -1      3584 1.44147E+01 9.80848E-01 5.62273E-02 7.42713E-01 2.29426E-13 2.89496E-13
 -1      3585 1.48087E+01 8.74022E-01 5.54732E-02-1.63573E+00 1.41656E-13 8.66703E-13
 -1      3586 2.04942E+01-3.24736E+00 1.03136E-01-4.65848E+00 3.87173E-13 5.58782E-13
 -1      3587 1.25677E+01-4.00454E-01 1.46552E-02 3.13799E+00 2.74312E-13-1.78330E-13
 -1      3588 1.13574E+01 3.11043E-01 7.10706E-02 1.78752E+00 2.46948E-13-2.24043E-13
 -1      3589 1.25291E+01 6.81373E-01 8.83519E-02 1.11037E+00 2.71500E-13-3.52010E-13
 -1      3590 1.46234E+01-1.71208E-01 7.36307E-02 2.95437E+00 3.11249E-13-1.63178E-13
 -1      3591 2.19322E+01-1.36853E+00 1.91573E-02 1.56177E+00-4.15572E-13-4.36480E-13
 -1      3592 2.22918E+01-1.74728E+00-9.91568E-03 1.36756E+00-5.81706E-13-4.20469E-13
 -1      3593 2.01018E+01-4.06024E-02 1.05617E-04-1.65630E-01 1.22790E-13-3.86040E-14
 -1      3594 2.01131E+01-2.53680E-02 7.77156E-04-1.64332E-01 1.40515E-13-3.91588E-14
 -1      3595 2.28770E+01-2.04715E+00 2.59687E-02 1.09327E+00-6.18158E-13-4.84980E-13
 -1      3596 2.32463E+01-2.27760E+00-1.40448E-02 7.45726E-01-3.46747E-13-4.54593E-13
 -1      3597 2.25345E+01-2.16048E+00-2.24566E-02 1.64667E+00-5.45461E-13-1.16319E-13
 -1      3598 2.02873E+01 9.27752E-01 9.23634E-04 4.64931E-01 2.55490E-13-1.07275E-13
 -1      3599 2.02758E+01 1.09984E+00-2.22646E-03 5.01169E-01 2.73935E-13-1.23216E-13
 -1      3600 2.02684E+01 7.66775E-01-2.54481E-03 3.33829E-01 2.04343E-13-8.48644E-14
 -1      3601 2.00293E+01-1.61356E-02 5.69390E-04-1.22623E-01 2.69522E-14 6.22893E-14
 -1      3602 2.00288E+01-2.72867E-02-3.21748E-04-1.24476E-01 1.49234E-14 8.51931E-14
 -1      3603 2.00528E+01-3.48628E-02-2.60981E-04-1.22295E-01-1.68108E-14 1.00304E-13
 -1      3604 2.00383E+01-1.04054E-02-1.74097E-04-1.19549E-01 4.07003E-15 4.74551E-14
 -1      3605 2.02992E+01 1.07232E+00-3.81169E-04-4.15933E-01-2.02917E-13-2.91253E-13
 -1      3606 2.02997E+01 8.59645E-01-2.83749E-03-2.86294E-01-1.88734E-13-2.75375E-13
 -1      3607 2.03273E+01 8.60302E-01 9.39302E-04-2.37773E-01-1.69913E-13-2.80628E-13
 -1      3608 2.02658E+01 1.32827E+00 2.22092E-03-4.27302E-01-1.94096E-13-3.15059E-13
 -1      3609 2.09637E+01-4.30371E-01 1.78095E-03 1.99425E+00-1.02649E-13-2.38722E-13
 -1      3610 2.10895E+01-4.76197E-01 4.13022E-03 1.78712E+00-2.89679E-13-4.50283E-13
 -1      3611 2.12901E+01-7.20442E-01 6.48784E-03 1.74557E+00-2.97167E-13-3.72915E-13
 -1      3612 2.10674E+01-8.24683E-01 8.34910E-04 2.22735E+00-2.57630E-13-2.87272E-13
 -1      3613 2.57599E+01-4.20301E+00-1.08853E-01 1.47779E+00-3.53797E-14 9.72278E-14
 -1      3614 2.46681E+01-4.47219E+00 8.10909E-02 2.81789E+00-1.01842E-13 3.92082E-14
 -1      3615 1.20402E+01 1.73076E-01 1.11144E-01-2.59765E+00-1.72819E-13-3.30944E-13
 -1      3616 1.35463E+01-8.22195E-01-4.37619E-02-3.87262E+00-2.71736E-13-2.96846E-13
 -1      3617 2.49818E+01-1.24337E+00-4.85084E-03 1.59834E+00-4.43569E-14 2.50715E-13
 -1      3618 1.85387E+01-2.55772E+00-1.72479E-02-4.83595E+00 1.82989E-13 6.66783E-13
 -1      3619 1.93584E+01-2.24808E+00 3.55547E-02-4.38437E+00 2.24163E-13 4.00275E-13
 -1      3620 1.88748E+01-1.32030E+00 2.93575E-02-4.06024E+00 1.10751E-13 1.56819E-13
 -1      3621 1.62688E+01-1.27295E+00 7.35348E-02-4.49722E+00 5.14979E-14 6.64486E-13
 -1      3622 2.47888E+01-2.00749E+00-2.77330E-02 1.15486E+00-2.50508E-13 1.98471E-13
 -1      3623 2.02689E+01 1.23604E+00 3.01555E-04 4.65651E-01 2.39475E-13-1.96358E-13
 -1      3624 2.36746E+01-4.08258E+00 4.82378E-02 3.02554E+00-6.61936E-14 4.32328E-14
 -1      3625 2.27731E+01-3.74602E+00 3.75310E-02-2.60404E+00-4.76978E-13 1.69211E-13
 -1      3626 2.33302E+01-3.31388E+00 2.33219E-02-1.54467E+00-4.32068E-13 1.21416E-13
 -1      3627 2.13692E+01-3.22804E+00-1.28822E-02-3.00030E+00-4.57925E-13 9.55729E-14
 -1      3628 2.43825E+01 3.21325E+00-4.63438E-02-1.10148E+00 2.99566E-13-4.10194E-13
 -1      3629 2.43478E+01-2.22845E+00-1.24770E-02-2.21914E-01 1.36239E-13-4.44212E-13
 -1      3630 2.55002E+01-2.66367E+00-4.48620E-02-1.55065E-01 2.21025E-13-2.21112E-13
 -1      3631 1.62574E+01-1.09396E-01-2.03131E-02 2.90819E+00 1.85344E-13-1.00572E-13
 -1      3632 2.02353E+01 3.20937E-01-1.99095E-03 1.67315E-02 1.67883E-13-1.19331E-13
 -1      3633 2.02651E+01 4.30277E-01 2.90689E-03 9.09318E-02 1.78013E-13-1.11344E-13
 -1      3634 1.26421E+01 5.56661E-01 7.56027E-02-1.57956E+00-6.83377E-14-2.75082E-13
 -1      3635 1.90432E+01-8.55494E-01 2.91449E-02-3.72294E+00 3.52880E-13 9.80986E-14
 -1      3636 1.89115E+01-3.04480E-01 1.17752E-02-3.46375E+00 4.31081E-13 1.42443E-13
 -1      3637 1.83196E+01-4.20674E-02 1.43660E-02-3.39192E+00 4.57379E-13 4.27143E-13
 -1      3638 1.79390E+01-9.54561E-01-6.26080E-03-4.02854E+00 1.61971E-14 4.38660E-13
 -1      3639 2.01293E+01-5.05364E-03-1.85858E-04-1.59886E-01 1.33588E-13-5.27614E-14
 -1      3640 2.01451E+01 2.31402E-02 1.26150E-03-1.49730E-01 1.05934E-13-6.27590E-14
 -1      3641 2.01741E+01-1.06271E-02-7.04498E-04-1.49133E-01 1.09571E-13-7.99977E-14
 -1      3642 2.00895E+01-6.30246E-02-4.44960E-04-1.39835E-01 1.71540E-14 1.04958E-13
 -1      3643 2.00617E+01-5.89282E-02 4.02846E-04-1.49274E-01 4.46081E-14 3.05734E-14
 -1      3644 2.00664E+01-5.92442E-02 1.42837E-04-1.55120E-01 7.17644E-14 2.61363E-14
 -1      3645 1.48045E+01-6.63583E-01 1.64895E-02-4.03289E+00 6.96387E-14 6.26874E-13
 -1      3646 1.66407E+01-7.30945E-01 7.39663E-02-3.94782E+00-4.73406E-14 6.99930E-13
 -1      3647 1.67723E+01-2.73873E-01 3.44209E-02-3.62658E+00 5.21666E-14 7.57323E-13
 -1      3648 1.35695E+01 1.18341E-01 6.94066E-02-2.78949E+00 1.51646E-13 8.92217E-13
 -1      3649 1.64250E+01-3.62938E-01 2.75107E-02 3.25627E+00 1.98392E-13-4.38052E-14
 -1      3650 1.44959E+01-3.04157E-01-5.50580E-02 3.27779E+00 8.60432E-14 3.00940E-14
 -1      3651 2.40467E+01-2.40830E+00 1.32595E-02 2.39900E-01-7.07481E-14-4.07551E-13
 -1      3652 2.15009E+01-9.74113E-01-2.88720E-03 1.65010E+00-2.51130E-13-4.01415E-13
 -1      3653 1.73930E+01-2.46219E-01-1.72716E-02 3.15069E+00 1.63172E-13-1.81882E-13
 -1      3654 2.58662E+01-3.30168E+00-2.38394E-02 5.29374E-01 1.85383E-13-1.36609E-13
 -1      3655 2.00426E+01-2.74772E+00 6.99746E-02 4.36329E+00-2.79627E-13 1.45473E-13
 -1      3656 1.91361E+01-1.87943E+00-3.00385E-02 4.04501E+00-1.94314E-13-2.14308E-13
 -1      3657 2.08976E+01-3.14970E+00-4.32745E-02 4.04185E+00-2.96716E-13 7.19737E-14
 -1      3658 2.02390E+01 1.49853E+00 2.19168E-04-3.09603E-01-1.37405E-13-2.97598E-13
 -1      3659 2.02532E+01 1.40170E+00-3.45254E-03-3.76942E-01-1.79601E-13-3.00528E-13
 -1      3660 2.03065E+01 1.15137E+00 2.04750E-03-2.82307E-01-1.62115E-13-2.76176E-13
 -1      3661 2.59618E+01-1.90245E-01-5.12763E-02-1.76854E+00 5.48981E-13-5.53536E-13
 -1      3662 1.85068E+01-5.73673E-01 6.99682E-02 3.48521E+00-8.33535E-16-3.58224E-13
 -1      3663 2.01039E+01 6.13509E-02-1.19935E-03-1.39369E-01 1.28886E-13-5.54914E-14
 -1      3664 2.02050E+01 1.63874E+00-3.19611E-03 1.30626E-01 6.93347E-14-2.87314E-13
 -1      3665 2.01996E+01 1.65698E+00-3.25363E-03 3.98972E-02 1.39159E-14-2.93837E-13
 -1      3666 2.00795E+01-5.66442E-02 2.88890E-04-1.60131E-01 9.62441E-14-1.76003E-14
 -1      3667 2.00870E+01-5.05219E-02 4.11713E-04-1.63822E-01 1.13589E-13-9.61340E-15
 -1      3668 2.01415E+01-4.69774E-02-6.33975E-04-1.54188E-01 1.35286E-13-4.52291E-14
 -1      3669 2.01133E+01-6.24198E-02-5.41510E-04-1.49289E-01 6.16328E-14 5.32130E-14
 -1      3670 2.06090E+01-1.16070E+00 1.60197E-02 2.90056E+00-2.51413E-13-3.20547E-13
 -1      3671 2.10432E+01-1.29777E+00 1.03453E-02 2.71205E+00-3.31351E-13-4.04953E-13
 -1      3672 1.36811E+01 6.75901E-01 9.79551E-02 1.67305E+00 1.07963E-13 2.47267E-13
 -1      3673 2.00451E+01-1.30437E+00 1.85714E-02 3.38710E+00-1.88083E-13-2.69276E-13
 -1      3674 2.06953E+01-2.02874E+00-9.42256E-03 3.42278E+00-3.48660E-13-2.17359E-13
 -1      3675 2.38577E+01-2.80637E+00-2.60474E-02 9.58896E-01-2.07893E-13-3.65480E-14
 -1      3676 2.01383E+01 1.92297E+00 4.54728E-03-9.36617E-02-5.24507E-14-3.54774E-13
 -1      3677 1.60155E+01-1.37590E+00 1.22146E-01-4.30398E+00-3.41546E-13-1.44560E-13
 -1      3678 1.86525E+01-2.38158E+00-3.43522E-02-3.84917E+00-2.97337E-13 1.66984E-13
 -1      3679 1.76977E+01 2.09996E-01-1.67954E-02-3.16787E+00 2.49661E-13 5.71873E-13
 -1      3680 1.54582E+01-6.79377E-01 3.87892E-02-3.47333E+00-2.80713E-13-1.14072E-13
 -1      3681 1.30604E+01 7.68463E-01-1.37799E-02 4.54353E-01 5.08094E-14 3.99670E-13
 -1      3682 1.29534E+01 7.34408E-01 4.74552E-02-1.15884E+00 2.13933E-13 5.53696E-13
 -1      3683 2.02236E+01 1.54702E+00-4.07221E-03 2.85715E-01 1.51753E-13-2.73566E-13
 -1      3684 2.02131E+01 1.60576E+00-2.04876E-03 2.01944E-01 9.82348E-14-2.88525E-13
 -1      3685 2.02878E+01 1.38538E+00 5.12350E-03 1.35394E-01 7.41248E-14-2.48596E-13
 -1      3686 2.01983E+01 1.61116E-01-1.28787E-03-8.04976E-02 1.31450E-13-1.03398E-13
 -1      3687 2.02250E+01 2.33812E-01 2.57637E-03-3.53854E-02 1.37938E-13-1.09170E-13
 -1      3688 2.02825E+01 3.28509E-01-4.92418E-04 7.73205E-03 1.41434E-13-1.31819E-13
 -1      3689 2.15969E+01-1.27247E+00-7.91336E-03 1.95476E+00-4.22806E-13-1.45601E-13
 -1      3690 2.01618E+01 5.82663E-02-6.33273E-04-1.34973E-01 1.03894E-13-6.60805E-14
 -1      3691 2.01830E+01 1.04869E-01 1.86886E-03-1.10745E-01 1.23650E-13-6.76441E-14
 -1      3692 2.02481E+01 1.62697E-01-6.69521E-04-7.83586E-02 1.14031E-13-1.03801E-13
 -1      3693 1.50468E+01 4.85422E-01 4.58517E-02 2.28975E+00 1.87637E-13-2.13585E-13
 -1      3694 2.14766E+01-1.31543E+00 1.24443E-03 2.20561E+00-3.92513E-13-2.00885E-13
 -1      3695 2.03599E+01 3.74025E-01 8.28354E-04-1.21335E-02-5.58611E-14-2.03640E-13
 -1      3696 2.03443E+01 2.71870E-01-1.29639E-03 3.12348E-02-5.94300E-14-1.78737E-13
 -1      3697 2.03354E+01 1.88134E-01 1.18114E-03 5.67588E-02-7.63025E-14-1.25909E-13
 -1      3698 2.03147E+01 1.19447E-01-8.96033E-04 8.27323E-02-7.61011E-14-9.71586E-14
 -1      3699 2.03709E+01 2.59217E-01 1.07424E-04 3.17676E-02-3.63267E-14-1.33151E-13
 -1      3700 2.02985E+01 6.56381E-02 9.73937E-04 9.66633E-02-8.00144E-14-7.16264E-14
 -1      3701 2.02771E+01 2.22654E-02-4.07752E-04 1.10075E-01-9.31290E-14-7.83305E-14
 -1      3702 2.03399E+01 1.09415E-01-1.71773E-04 7.32577E-02-6.66576E-14-8.07343E-14
 -1      3703 2.02573E+01-1.02742E-02 7.03698E-04 1.15769E-01-1.26857E-13-5.71252E-14
 -1      3704 2.02372E+01-3.51203E-02-5.93046E-05 1.20759E-01-1.16453E-13-6.06756E-14
 -1      3705 2.03000E+01 1.36885E-02-3.89125E-04 9.51391E-02-9.26628E-14-3.72241E-14
 -1      3706 2.02163E+01-5.22981E-02 4.65131E-04 1.21185E-01-9.80455E-14-8.19483E-14
 -1      3707 2.01983E+01-6.37821E-02 1.71238E-04 1.21046E-01-5.51541E-14-5.76971E-14
 -1      3708 2.02571E+01-4.19250E-02-4.85358E-04 1.03522E-01-9.72068E-14-1.20014E-14
 -1      3709 2.01778E+01-6.99251E-02 2.62406E-04 1.18561E-01-4.74930E-14-8.59391E-14
 -1      3710 2.01622E+01-7.17966E-02 3.12323E-04 1.15831E-01-4.88204E-14-7.89564E-14
 -1      3711 2.02148E+01-6.84228E-02-5.04196E-04 1.03557E-01-8.47874E-14-4.07232E-14
 -1      3712 2.01428E+01-6.99766E-02 9.17003E-05 1.12239E-01-8.38605E-14-8.19212E-14
 -1      3713 2.01294E+01-6.48435E-02 3.91558E-04 1.08831E-01-1.05194E-13-6.21044E-14
 -1      3714 2.01751E+01-7.38439E-02-4.64018E-04 9.93177E-02-4.14858E-14-7.81490E-14
 -1      3715 2.01114E+01-5.71316E-02-5.72272E-05 1.05488E-01-9.29962E-14-4.96871E-14
 -1      3716 2.00998E+01-4.66927E-02 4.29583E-04 1.02847E-01-7.68651E-14-5.06756E-14
 -1      3717 2.01385E+01-6.38539E-02-3.82621E-04 9.39090E-02-1.14880E-13-5.21256E-14
 -1      3718 2.00827E+01-3.43706E-02-1.95697E-04 1.00784E-01-2.84579E-14 2.16501E-15
 -1      3719 2.00724E+01-1.96075E-02 4.41480E-04 1.00031E-01 2.04282E-14 3.94500E-14
 -1      3720 2.01047E+01-4.21783E-02-2.70844E-04 8.96850E-02-1.49334E-14-2.46939E-14
 -1      3721 2.00557E+01-3.33853E-03-3.34573E-04 1.00060E-01 3.76280E-14 4.44031E-14
 -1      3722 2.00458E+01 1.53272E-02 4.36899E-04 1.02104E-01 2.18436E-14 7.71800E-14
 -1      3723 2.00727E+01-1.10061E-02-1.32838E-04 8.84612E-02 4.18031E-14 6.92906E-14
 -1      3724 2.00285E+01 3.53591E-02-4.84088E-04 1.04898E-01-2.51384E-14 4.20744E-14
 -1      3725 2.00183E+01 5.79351E-02 4.20531E-04 1.10525E-01-9.55497E-14 3.82296E-14
 -1      3726 2.00407E+01 2.86731E-02 3.22176E-05 9.16884E-02-1.35255E-14 5.06160E-14
 -1      3727 1.99990E+01 8.19090E-02-6.53705E-04 1.16677E-01-1.19763E-13 1.05919E-13
 -1      3728 1.99874E+01 1.08719E-01 3.92413E-04 1.26608E-01-3.98163E-14 1.05740E-13
 -1      3729 2.00065E+01 7.67850E-02 2.29386E-04 1.00580E-01-3.17755E-14 7.65393E-14
 -1      3730 1.99646E+01 1.37073E-01-8.52176E-04 1.36657E-01-5.52849E-14 8.84596E-14
 -1      3731 1.99501E+01 1.68652E-01 3.48029E-04 1.51575E-01-5.20308E-14 4.95044E-14
 -1      3732 1.99674E+01 1.33921E-01 4.67675E-04 1.16188E-01-6.90052E-14 1.28043E-13
 -1      3733 1.99220E+01 2.01978E-01-1.08775E-03 1.66010E-01-4.44952E-15 5.45742E-14
 -1      3734 1.99029E+01 2.38963E-01 2.78335E-04 1.86559E-01 4.09080E-14 5.50327E-14
 -1      3735 1.99200E+01 2.01104E-01 7.60045E-04 1.39425E-01-3.35409E-14 1.52481E-13
 -1      3736 1.98670E+01 2.77895E-01-1.36865E-03 2.05799E-01-1.56755E-16 1.83507E-14
 -1      3737 1.98413E+01 3.20890E-01 1.69987E-04 2.32555E-01-1.57334E-14-5.27322E-15
 -1      3738 1.98599E+01 2.79543E-01 1.12374E-03 1.71033E-01-2.48175E-15 1.02129E-13
 -1      3739 1.97947E+01 3.65958E-01-1.70418E-03 2.56902E-01-1.68221E-14-7.60077E-14
 -1      3740 1.97596E+01 4.15373E-01 6.36408E-06 2.90322E-01-2.15763E-14-8.75651E-14
 -1      3741 1.97821E+01 3.70355E-01 1.58099E-03 2.11496E-01-5.13678E-14 7.78328E-15
 -1      3742 1.96988E+01 4.66807E-01-2.10730E-03 3.19901E-01-7.37154E-14-1.23033E-13
 -1      3743 1.96508E+01 5.22627E-01-2.29675E-04 3.60271E-01-1.68741E-13-1.00937E-13
 -1      3744 1.96802E+01 4.74216E-01 2.16029E-03 2.60919E-01-4.84718E-14-9.56329E-14
 -1      3745 1.95715E+01 5.80078E-01-2.59994E-03 3.94993E-01-1.10777E-13-8.05854E-14
 -1      3746 1.95064E+01 6.41540E-01-5.49686E-04 4.42406E-01-7.58647E-14-3.16101E-14
 -1      3747 1.95464E+01 5.90909E-01 2.89884E-03 3.18904E-01-7.86514E-14-1.67731E-14
 -1      3748 1.94029E+01 7.03682E-01-3.22357E-03 4.82001E-01-1.25510E-13 1.84671E-14
 -1      3749 1.93156E+01 7.68832E-01-9.47858E-04 5.36455E-01-9.47115E-14 1.81146E-14
 -1      3750 1.93709E+01 7.18734E-01 3.84738E-03 3.84503E-01-3.28568E-14 2.84083E-14
 -1      3751 1.91809E+01 8.32793E-01-4.05866E-03 5.80675E-01-9.96948E-14 3.45358E-14
 -1      3752 1.90653E+01 8.97870E-01-1.38220E-03 6.42432E-01-1.16217E-13-3.87566E-15
 -1      3753 1.91416E+01 8.53750E-01 5.08016E-03 4.56401E-01-8.05517E-14 2.59378E-14
 -1      3754 1.88903E+01 9.58440E-01-5.26008E-03 6.91613E-01-1.04459E-13-5.29093E-14
 -1      3755 1.87397E+01 1.01705E+00-1.75649E-03 7.62066E-01-3.03232E-14-4.62645E-14
 -1      3756 1.88430E+01 9.88824E-01 6.71285E-03 5.33608E-01-1.11815E-13-4.63977E-14
 -1      3757 1.85118E+01 1.06563E+00-7.13324E-03 8.18244E-01-5.30810E-14-7.68397E-14
 -1      3758 1.83192E+01 1.10785E+00-1.84555E-03 9.01686E-01-3.24807E-14-7.83309E-15
 -1      3759 1.84549E+01 1.11248E+00 8.93086E-03 6.17019E-01-2.69399E-14 1.12191E-13
 -1      3760 1.80199E+01 1.13111E+00-1.02371E-02 9.71099E-01 1.73646E-15-6.36057E-14
 -1      3761 1.77791E+01 1.14175E+00-1.28812E-03 1.07822E+00 7.55588E-14-1.21439E-13
 -1      3762 1.79496E+01 1.20828E+00 1.21689E-02 7.12573E-01-6.20309E-14 1.19225E-13
 -1      3763 1.73802E+01 1.11928E+00-1.54579E-02 1.17494E+00 7.22520E-14-7.82120E-14
 -1      3764 1.70838E+01 1.07247E+00-1.00972E-03 1.33014E+00-6.60940E-15-9.81206E-14
 -1      3765 1.72863E+01 1.25181E+00 1.68574E-02 8.36880E-01 9.59303E-14-4.40754E-14
 -1      3766 1.65352E+01 9.85925E-01-2.25766E-02 1.47714E+00 3.31827E-14-1.45068E-13
 -1      3767 1.61363E+01 7.93273E-01-2.13532E-02 1.75323E+00 7.24815E-14-1.87287E-13
 -1      3768 1.64038E+01 1.20062E+00 2.29337E-02 1.02325E+00 4.31517E-14-2.27736E-13
 -1      3769 1.99840E+01 1.18156E-01 6.11236E-04-1.54839E-01-4.41531E-14-1.21220E-13
 -1      3770 1.99905E+01 9.40320E-02-7.40211E-04-1.41047E-01 6.38597E-15-1.21832E-13
 -1      3771 2.00896E+01-5.22371E-02 4.56740E-04-1.17207E-01-9.84548E-15 4.64632E-14
 -1      3772 2.00986E+01-6.00682E-02-3.76301E-05-1.21147E-01 2.04019E-14 1.12474E-13
 -1      3773 2.40034E+01-3.93317E+00-8.09676E-02 2.24895E+00-1.97359E-13-6.15905E-14
 -1      3774 2.28374E+01-3.61614E+00 6.00273E-02 3.21620E+00-2.81739E-13-1.80448E-13
 -1      3775 2.02525E+01 1.38082E+00-5.52163E-03 4.14277E-01 2.35532E-13-2.50591E-13
 -1      3776 2.02377E+01 1.48169E+00-1.44329E-03 3.45687E-01 1.76873E-13-2.52095E-13
 -1      3777 2.02992E+01 1.28433E+00 5.10020E-03 2.51614E-01 1.53352E-13-2.30220E-13
 -1      3778 1.29315E+01 9.14250E-01 3.56243E-02-6.69461E-01 5.64798E-14-3.02744E-13
 -1      3779 1.35546E+01 4.47790E-01-3.02085E-02-2.03703E+00-4.04106E-14-1.15918E-13
 -1      3780 2.03369E+01 9.24341E-01-2.07459E-03-2.20133E-01-1.46463E-13-2.65185E-13
 -1      3781 2.03517E+01 7.39007E-01-1.26602E-04-1.39755E-01-1.39910E-13-2.63223E-13
 -1      3782 2.03396E+01 1.00816E+00 6.63430E-04-1.85559E-01-1.23484E-13-2.34505E-13
 -1      3783 2.00067E+01 7.21930E-02 5.68248E-04-1.30990E-01 3.87444E-14-1.71874E-13
 -1      3784 2.00126E+01 5.09833E-02-5.84632E-04-1.22438E-01 3.05030E-14-1.37296E-13
 -1      3785 1.99926E+01 9.29559E-02 1.94003E-04-1.26339E-01-1.26385E-14-1.45133E-13
 -1      3786 2.00272E+01 3.19557E-02 5.38201E-04-1.16899E-01 3.67277E-14-1.02457E-13
 -1      3787 2.00330E+01 1.36958E-02-4.44123E-04-1.12791E-01 5.96260E-14-5.58023E-14
 -1      3788 2.00208E+01 4.70072E-02 4.85242E-05-1.10837E-01 8.52518E-14-7.63973E-14
 -1      3789 1.99576E+01 1.69608E-01 6.72796E-04-1.90060E-01-9.60584E-14-6.81105E-15
 -1      3790 1.99651E+01 1.42720E-01-9.13904E-04-1.70230E-01-9.51371E-14-7.41506E-14
 -1      3791 1.99605E+01 1.45293E-01 3.49252E-04-1.51321E-01-7.71396E-14-4.23171E-14
 -1      3792 1.99259E+01 2.25765E-01 7.59768E-04-2.38337E-01 2.91186E-14 2.25744E-14
 -1      3793 1.99350E+01 1.96591E-01-1.10471E-03-2.11671E-01-1.00048E-14-7.15151E-15
 -1      3794 1.99224E+01 2.03674E-01 5.09770E-04-1.87459E-01-6.80141E-14-7.75826E-14
 -1      3795 1.98879E+01 2.84793E-01 8.82376E-04-3.01419E-01 2.65960E-14 4.50281E-14
 -1      3796 1.98986E+01 2.54407E-01-1.30625E-03-2.67145E-01 7.08007E-14 4.81021E-14
 -1      3797 1.98764E+01 2.67079E-01 6.65291E-04-2.36596E-01 3.58586E-14-6.25304E-14
 -1      3798 1.98431E+01 3.43176E-01 1.05727E-03-3.81067E-01-5.45333E-14 6.94673E-15
 -1      3799 1.98553E+01 3.13580E-01-1.50483E-03-3.38495E-01-1.34101E-14 4.48545E-14
 -1      3800 1.98210E+01 3.33249E-01 7.96103E-04-3.00788E-01-3.67679E-15 5.55659E-14
 -1      3801 1.97926E+01 3.94919E-01 1.31159E-03-4.78983E-01-8.29038E-14 4.40385E-14
 -1      3802 1.98052E+01 3.69467E-01-1.67646E-03-4.27581E-01-1.07572E-13-5.78598E-14
 -1      3803 1.97551E+01 3.97996E-01 8.67886E-04-3.82342E-01-6.51738E-14-1.25869E-14
 -1      3804 1.97395E+01 4.30597E-01 1.68767E-03-5.96697E-01 1.09869E-13 5.34273E-14
 -1      3805 1.97501E+01 4.14490E-01-1.78197E-03-5.36202E-01 5.26199E-14 1.15599E-13
 -1      3806 1.96793E+01 4.54343E-01 8.24231E-04-4.83874E-01-5.71855E-14-8.29777E-14
 -1      3807 1.96909E+01 4.36261E-01 2.24631E-03-7.35408E-01 1.55703E-14 6.13553E-15
 -1      3808 1.96949E+01 4.37109E-01-1.75816E-03-6.65982E-01 1.10050E-13 2.82827E-14
 -1      3809 1.95965E+01 4.91497E-01 5.75304E-04-6.08385E-01 1.10955E-13 3.61226E-14
 -1      3810 1.96593E+01 3.92301E-01 3.06011E-03-8.95650E-01-1.90710E-14 2.57951E-15
 -1      3811 1.96491E+01 4.20705E-01-1.49996E-03-8.18170E-01-3.01605E-16-1.06166E-14
 -1      3812 1.95135E+01 4.93661E-01-2.08776E-05-7.59346E-01 1.81231E-14 1.74115E-15
 -1      3813 1.96662E+01 2.72499E-01 4.17626E-03-1.07646E+00-3.05921E-14-3.10615E-14
 -1      3814 1.96296E+01 3.42514E-01-8.24474E-04-9.93129E-01-7.61953E-15-2.94168E-15
 -1      3815 1.94432E+01 4.38729E-01-1.19283E-03-9.40670E-01 1.29261E-14-1.27124E-13
 -1      3816 1.97455E+01 4.42478E-02 5.56116E-03-1.27306E+00 4.02763E-14-1.56522E-13
 -1      3817 1.96642E+01 1.73088E-01 6.23338E-04-1.18878E+00-4.81538E-15-4.61560E-14
 -1      3818 1.94083E+01 2.96792E-01-3.31423E-03-1.15600E+00 3.61625E-14-2.42987E-13
 -1      3819 1.99479E+01-3.28754E-01 6.97888E-03-1.47254E+00 6.07573E-14-1.10497E-13
 -1      3820 1.97960E+01-1.22250E-01 3.24394E-03-1.39758E+00 1.18477E-14-8.82713E-14
 -1      3821 1.94457E+01 3.10821E-02-6.80155E-03-1.40613E+00 3.11916E-14-1.14028E-13
 -1      3822 2.03441E+01-8.81714E-01 7.07278E-03-1.64334E+00 7.23423E-15-1.19901E-14
 -1      3823 2.00915E+01-5.80646E-01 8.19431E-03-1.59971E+00 1.27055E-13-1.47710E-14
 -1      3824 1.96135E+01-4.03745E-01-1.29029E-02-1.68552E+00 1.39968E-14 5.64881E-14
 -1      3825 2.10219E+01-1.61272E+00 4.98923E-03-1.71002E+00-1.69849E-13-2.29328E-13
 -1      3826 2.06437E+01-1.22176E+00 1.83277E-02-1.73895E+00-7.56504E-14-6.73000E-14
 -1      3827 2.00169E+01-1.04420E+00-1.52730E-02-1.96902E+00 2.67037E-14 1.23181E-13
 -1      3828 2.33449E+01-2.94484E+00-1.56007E-02-9.31932E-01-3.14518E-13 6.77670E-14
 -1      3829 2.03091E+01 1.07036E+00 5.08361E-03 3.50439E-01 2.12262E-13-2.05014E-13
 -1      3830 2.21184E+01-2.04743E+00 2.68730E-02 2.26539E+00-4.32962E-13-2.27695E-13
 -1      3831 2.26323E+01-2.53608E+00-2.97912E-03 2.07210E+00-3.93415E-13-5.19678E-14
 -1      3832 1.68179E+01 6.38455E-02 3.17562E-02-3.28221E+00 1.63642E-13 9.18963E-13
 -1      3833 2.18147E+01-2.91137E+00 2.09875E-02 3.29810E+00-3.36458E-13-1.32906E-13
 -1      3834 2.02173E+01 1.60171E+00-9.17833E-04-1.62175E-01-8.05339E-14-3.52871E-13
 -1      3835 2.02261E+01 1.54576E+00-3.68126E-03-2.45589E-01-1.12248E-13-3.19187E-13
 -1      3836 2.03008E+01 1.28688E+00 3.49345E-03-1.84614E-01-1.08176E-13-2.86501E-13
 -1      3837 2.02589E+01 5.21742E-01-1.99177E-03 1.53558E-01 1.91377E-13-1.28588E-13
 -1      3838 2.02809E+01 6.42950E-01 2.85067E-03 2.47864E-01 1.96235E-13-1.10758E-13
 -1      3839 2.02970E+01 7.64322E-01-2.15053E-03 2.81953E-01 2.06686E-13-1.66857E-13
 -1      3840 2.02966E+01 5.33986E-01-9.07618E-04 1.26631E-01 1.80157E-13-1.87148E-13
 -1      3841 1.91667E+01-9.84545E-01 9.16472E-03 3.40781E+00-1.72426E-13-4.53597E-13
 -1      3842 1.84433E+01-1.72794E+00-3.03449E-02-3.38953E+00-2.76137E-13 3.02175E-13
 -1      3843 2.01228E+01-2.56432E+00 3.83552E-02-3.41522E+00-3.61144E-13 1.66038E-13
 -1      3844 2.49986E+01-3.43923E+00 5.25075E-02 1.10608E+00-7.51690E-14-1.17975E-13
 -1      3845 1.49100E+01 1.03971E-01 8.04279E-02-2.82677E+00-1.07368E-13-1.00371E-14
 -1      3846 1.64182E+01-7.32750E-01-3.79152E-02-3.21657E+00-2.83753E-13 8.37689E-14
 -1      3847 1.49304E+01 4.93177E-01 3.43420E-02-2.01136E+00-2.08791E-14 9.02837E-15
 -1      3848 2.03646E+01 6.07136E-01-1.34654E-04-1.02707E-01-1.32035E-13-2.49688E-13
 -1      3849 2.03592E+01 4.67000E-01-1.25965E-03-4.03674E-02-1.06608E-13-2.32854E-13
 -1      3850 2.03849E+01 4.52251E-01 1.03303E-03-2.59347E-02-5.20388E-14-1.77218E-13
 -1      3851 2.03795E+01 6.72129E-01 1.78974E-04-9.14121E-02-1.09819E-13-2.04138E-13
 -1      3852 2.02049E+01 1.64814E+00-1.99008E-03-1.78945E-02-1.75479E-15-2.79656E-13
 -1      3853 2.02066E+01 1.62923E+00-3.59244E-03-1.07964E-01-6.28281E-14-3.29377E-13
 -1      3854 2.02930E+01 1.36656E+00 4.56449E-03-8.17838E-02-5.85543E-14-3.04438E-13
 -1      3855 2.02870E+01 1.40760E+00 5.51541E-03 1.81205E-02 8.85010E-15-2.70222E-13
 -1      3856 2.25792E+01-2.76315E+00 1.33293E-02-1.46568E+00-3.33177E-13-4.37862E-14
 -1      3857 2.41313E+01-3.26455E+00 4.53676E-03 1.44190E+00-2.40224E-13-1.07496E-13
 -1      3858 2.11217E+01-2.62902E+00 1.18667E-02-2.62847E+00-4.02664E-13 2.36254E-13
 -1      3859 2.00747E+01-4.26451E-02-1.80739E-04-1.13935E-01-2.18307E-14 5.94986E-14
 -1      3860 2.01005E+01-5.03297E-02-3.19491E-04-1.05564E-01-1.21415E-15 1.11807E-14
 -1      3861 2.00673E+01-3.07858E-02 4.91374E-04-1.11682E-01-1.89260E-14 4.23896E-14
 -1      3862 2.02103E+01 5.52344E-02-7.37389E-04-1.26948E-01 1.11480E-13-9.36988E-14
 -1      3863 2.03229E+01 1.18890E+00-2.05854E-03 3.96867E-02 4.43631E-14-2.42097E-13
 -1      3864 2.03236E+01 1.17658E+00-3.32828E-03-8.02915E-03 9.78937E-15-2.36784E-13
 -1      3865 2.01304E+01-6.65066E-02-4.15294E-04-1.11948E-01 5.57533E-14 4.14930E-14
 -1      3866 2.01148E+01-6.52607E-02 3.97203E-04-1.25496E-01 2.52588E-14 8.65177E-14
 -1      3867 2.01258E+01-6.78711E-02 1.30929E-04-1.29806E-01 1.55139E-14 6.51660E-14
 -1      3868 1.30571E+01 9.76793E-01 2.83866E-02 2.67865E-01 2.07346E-13-4.11483E-13
 -1      3869 1.40557E+01 1.03705E+00 4.39042E-02-2.57165E-01 6.23434E-14-2.16881E-13
 -1      3870 2.25785E+01-2.98853E+00-3.31033E-02 2.62228E+00-3.93751E-13-1.74594E-13
 -1      3871 2.33487E+01-2.88430E+00 5.02533E-02 1.85860E+00-3.83138E-13-1.16383E-13
 -1      3872 2.20852E+01-2.42171E+00 7.18336E-03-1.53645E+00-2.96787E-13-1.65255E-13
 -1      3873 2.15501E+01-2.03366E+00 2.58783E-02-1.71930E+00-2.73720E-13-2.45543E-13
 -1      3874 2.03137E+01 9.10743E-01-4.46165E-04 2.60077E-01 2.03322E-13-2.27066E-13
 -1      3875 1.50288E+01 1.16002E+00 3.90164E-02 9.29668E-01 6.11121E-14-2.40321E-13
 -1      3876 1.53727E+01 8.22668E-01 1.76406E-02 1.59017E+00 9.27071E-14-2.33737E-13
 -1      3877 1.52935E+01 1.43140E-01-2.27309E-02-3.12882E+00 2.77049E-13 9.26526E-13
 -1      3878 2.11944E+01-2.35052E+00 2.21518E-02 3.33302E+00-2.86847E-13-1.44867E-13
 -1      3879 2.15521E+01-2.10723E+00-1.48202E-02 2.83014E+00-3.76398E-13-2.37558E-13
 -1      3880 1.34753E+01 7.28710E-01-1.12399E-02 1.43103E+00 2.12109E-13-2.07917E-13
 -1      3881 2.03147E+01 3.13807E-01-1.81989E-03-1.04554E-02 1.05991E-13-1.36815E-13
 -1      3882 2.03342E+01 4.24239E-01 1.94176E-03 4.48794E-02 1.18389E-13-1.58721E-13
 -1      3883 2.01759E+01-5.39199E-02 1.23068E-04-1.39015E-01 1.21914E-13-1.05825E-14
 -1      3884 2.01922E+01-3.95117E-02 6.00352E-04-1.38289E-01 9.60065E-14-4.84806E-14
 -1      3885 2.02116E+01-1.94148E-02-1.49826E-04-1.36152E-01 8.00597E-14-4.51650E-14
 -1      3886 2.02306E+01 8.84857E-03 9.20412E-04-1.28694E-01 1.08216E-13-5.81631E-14
 -1      3887 2.02399E+01-2.63176E-02-5.60967E-04-1.21055E-01 8.21355E-14-3.99210E-14
 -1      3888 1.78308E+01-1.03125E+00 5.66827E-02-3.23562E+00-2.46988E-13 1.50343E-13
 -1      3889 1.89278E+01-1.40857E+00-1.28820E-02-2.91684E+00-1.99572E-13 2.97686E-13
 -1      3890 1.70289E+01-4.46086E-01-1.09181E-02-2.78914E+00-1.20918E-13 1.06535E-13
 -1      3891 2.16641E+01-1.78723E+00-2.07693E-03 2.41214E+00-4.57251E-13-1.94371E-13
 -1      3892 1.37473E+01 4.23009E-01 4.69043E-02-2.32603E+00 2.61131E-13 9.09078E-13
 -1      3893 2.00469E+01-2.46433E-03 5.15104E-04-1.10996E-01 3.11212E-14-2.68760E-14
 -1      3894 2.00532E+01-1.76789E-02-3.12456E-04-1.10514E-01 1.73141E-14 3.76011E-14
 -1      3895 2.00731E+01-2.51305E-02-2.08722E-04-1.02036E-01 1.03555E-14 6.85743E-15
 -1      3896 2.03231E+01 1.17027E+00-2.03799E-03 8.47175E-02 6.97902E-14-2.43284E-13
 -1      3897 2.03750E+01 9.80216E-01 3.63228E-03 5.50790E-02 8.48444E-14-2.09290E-13
 -1      3898 2.03248E+01 1.13471E+00-3.01289E-03 1.41204E-01 1.13649E-13-2.27402E-13
 -1      3899 2.07539E+01-1.88097E+00-2.02338E-02-2.13406E+00-1.43392E-13-5.54097E-14
 -1      3900 2.00470E+01 7.55958E-03-8.58026E-05-1.03249E-01 7.13313E-14-9.13302E-14
 -1      3901 2.03599E+01 5.49263E-01 4.72130E-04 7.83049E-02 1.11784E-13-1.61204E-13
 -1      3902 2.03304E+01 5.56847E-01-1.88579E-03 1.02292E-01 1.32155E-13-1.89345E-13
 -1      3903 2.03370E+01 6.71027E-01 2.34777E-03 1.69687E-01 1.60440E-13-1.92304E-13
 -1      3904 2.03389E+01 1.04689E+00-2.95812E-03-1.52643E-01-1.02625E-13-2.42381E-13
 -1      3905 2.03788E+01 8.48752E-01 2.29672E-03-1.03205E-01-9.67174E-14-2.26054E-13
 -1      3906 2.03386E+01 1.09839E+00-4.83240E-04-1.03763E-01-6.71379E-14-2.70975E-13
 -1      3907 2.03998E+01 3.22903E-01 2.76444E-04 9.76145E-03-1.87481E-14-1.41748E-13
 -1      3908 2.03871E+01 2.27664E-01-8.65936E-04 3.68801E-02-1.55626E-14-1.25710E-13
 -1      3909 2.03759E+01 1.49680E-01 6.14045E-04 4.97416E-02-3.91431E-14-1.01533E-13
 -1      3910 2.03562E+01 8.65132E-02-5.77698E-04 6.59472E-02-4.97126E-14-7.98790E-14
 -1      3911 2.04013E+01 2.06893E-01 2.01006E-04 3.10583E-02-1.84867E-14-1.33579E-13
 -1      3912 2.03377E+01 3.71149E-02 5.65651E-04 7.23329E-02-5.37107E-14-7.53277E-14
 -1      3913 2.03155E+01-1.79491E-03-2.09330E-04 8.04920E-02-9.70102E-14-5.75101E-14
 -1      3914 2.03677E+01 7.21486E-02-9.53889E-05 5.17407E-02-4.87115E-14-1.29311E-13
 -1      3915 2.02934E+01-3.06219E-02 4.50707E-04 8.24251E-02-1.00270E-13-3.38779E-14
 -1      3916 2.02712E+01-5.16437E-02 5.15785E-05 8.52245E-02-9.59893E-14-5.45969E-14
 -1      3917 2.03245E+01-1.17895E-02-3.40902E-04 6.20187E-02-8.87769E-14-1.01443E-13
 -1      3918 2.02479E+01-6.54051E-02 3.24591E-04 8.44409E-02-1.02895E-13-3.56287E-14
 -1      3919 2.02269E+01-7.34184E-02 2.13712E-04 8.41234E-02-6.68489E-14-4.84289E-14
 -1      3920 2.02778E+01-5.78725E-02-4.76908E-04 6.52283E-02-9.66763E-14-7.95015E-14
 -1      3921 2.02040E+01-7.62937E-02 2.01434E-04 8.20158E-02-5.08096E-14-2.56278E-14
 -1      3922 2.01847E+01-7.48531E-02 3.01630E-04 8.02866E-02-8.35460E-14-4.46512E-14
 -1      3923 2.02312E+01-7.61466E-02-4.95831E-04 6.43084E-02-6.87701E-14-6.18081E-15
 -1      3924 2.01628E+01-6.97580E-02 8.07699E-05 7.78977E-02-1.01254E-13-3.95749E-14
 -1      3925 2.01452E+01-6.13002E-02 3.36463E-04 7.60571E-02-8.71267E-14-2.16610E-14
 -1      3926 2.01868E+01-7.41990E-02-4.43975E-04 6.15626E-02-7.11273E-14 2.79169E-16
 -1      3927 2.01243E+01-5.01628E-02-4.09076E-05 7.41776E-02-7.96299E-14-5.36123E-15
 -1      3928 2.01080E+01-3.62278E-02 3.33666E-04 7.32191E-02 7.63515E-17-4.97307E-15
 -1      3929 2.01448E+01-5.72133E-02-3.43464E-04 5.87228E-02-6.28144E-14 4.76304E-15
 -1      3930 2.00877E+01-2.01908E-02-1.67842E-04 7.24517E-02 3.41060E-14 1.18558E-15
 -1      3931 2.00720E+01-1.61230E-03 3.03489E-04 7.31502E-02 4.73110E-14 1.97504E-14
 -1      3932 2.01049E+01-2.84972E-02-2.04659E-04 5.71136E-02 7.85111E-15-2.16993E-14
 -1      3933 2.00513E+01 1.87951E-02-3.05358E-04 7.39637E-02-2.08985E-15-2.52354E-14
 -1      3934 2.00352E+01 4.17274E-02 2.51105E-04 7.69443E-02-4.74587E-14 4.78047E-15
 -1      3935 2.00654E+01 1.01184E-02-3.15044E-05 5.77449E-02-3.43494E-15-1.29954E-13
 -1      3936 2.00129E+01 6.64411E-02-4.58909E-04 7.97122E-02-1.58326E-14 6.16405E-14
 -1      3937 1.99951E+01 9.38392E-02 1.76827E-04 8.54949E-02 7.31551E-15 1.02541E-13
 -1      3938 2.00243E+01 5.79379E-02 1.77102E-04 6.13920E-02 1.51364E-14-3.30700E-14
 -1      3939 1.99696E+01 1.23128E-01-6.33649E-04 9.05119E-02-4.80050E-14 1.54382E-13
 -1      3940 1.99486E+01 1.55374E-01 7.62098E-05 9.95314E-02-5.16050E-14 1.75223E-13
 -1      3941 1.99788E+01 1.15096E-01 4.26582E-04 6.86390E-02-3.15931E-15 8.28444E-14
 -1      3942 1.99180E+01 1.89714E-01-8.34169E-04 1.07006E-01-6.00785E-14 1.74270E-13
 -1      3943 1.98917E+01 2.27331E-01-6.00518E-05 1.19603E-01-7.32690E-14 7.99625E-14
 -1      3944 1.99254E+01 1.82275E-01 7.26245E-04 7.98770E-02-4.67899E-14 1.38342E-13
 -1      3945 1.98538E+01 2.67274E-01-1.06449E-03 1.29627E-01-8.02064E-14 3.97608E-14
 -1      3946 1.98199E+01 3.10785E-01-2.46356E-04 1.46009E-01-8.39711E-14-4.84753E-14
 -1      3947 1.98598E+01 2.60420E-01 1.08921E-03 9.52534E-02-1.08884E-13 2.24273E-14
 -1      3948 1.97718E+01 3.56813E-01-1.32860E-03 1.58497E-01-8.05176E-14-6.02054E-14
 -1      3949 1.97273E+01 4.06573E-01-5.02403E-04 1.78681E-01-1.86412E-14-4.15890E-14
 -1      3950 1.97771E+01 3.50436E-01 1.53280E-03 1.14568E-01-1.22954E-13-8.32881E-14
 -1      3951 1.96657E+01 4.58916E-01-1.63220E-03 1.93290E-01-1.80312E-14-5.14828E-14
 -1      3952 1.96070E+01 5.14913E-01-8.53136E-04 2.17021E-01-8.27460E-14-6.99887E-14
 -1      3953 1.96712E+01 4.52841E-01 2.07985E-03 1.37116E-01-2.77632E-14-2.85784E-14
 -1      3954 1.95279E+01 5.73324E-01-1.98675E-03 2.33056E-01-9.91008E-14-2.82230E-14
 -1      3955 1.94505E+01 6.34930E-01-1.32811E-03 2.59738E-01-6.86173E-14 5.64983E-14
 -1      3956 1.95347E+01 5.67356E-01 2.76150E-03 1.61489E-01-3.24440E-14-3.70347E-14
 -1      3957 1.93491E+01 6.98407E-01-2.41777E-03 2.76067E-01-4.32425E-14 3.85145E-14
 -1      3958 1.92473E+01 7.64076E-01-1.95989E-03 3.04753E-01 6.19161E-15 1.07488E-13
 -1      3959 1.93590E+01 6.92435E-01 3.62344E-03 1.85356E-01-8.91199E-14 1.10810E-13
 -1      3960 1.91172E+01 8.30515E-01-2.98009E-03 3.19784E-01-5.06033E-14 6.32144E-14
 -1      3961 1.89840E+01 8.97446E-01-2.78019E-03 3.49312E-01-1.47754E-13 6.93203E-14
 -1      3962 1.91331E+01 8.24744E-01 4.73909E-03 2.05297E-01-7.99841E-14 9.78225E-14
 -1      3963 1.88172E+01 9.63256E-01-3.78288E-03 3.61117E-01-8.96419E-14 1.37310E-13
 -1      3964 1.86435E+01 1.02703E+00-3.80614E-03 3.90545E-01-3.14334E-14 1.39344E-13
 -1      3965 1.88431E+01 9.58654E-01 6.23759E-03 2.16781E-01-9.09060E-14 1.46261E-13
 -1      3966 1.84282E+01 1.08667E+00-5.02825E-03 3.97315E-01-5.56605E-14 1.52393E-13
 -1      3967 1.82019E+01 1.14070E+00-5.16136E-03 4.26893E-01-1.56898E-14 1.30942E-13
 -1      3968 1.84701E+01 1.08585E+00 8.34719E-03 2.14517E-01 4.86595E-15 1.52003E-13
 -1      3969 1.79216E+01 1.18622E+00-7.08984E-03 4.27085E-01-1.45834E-13 2.14636E-13
 -1      3970 1.76266E+01 1.22275E+00-6.36115E-03 4.59670E-01-7.06849E-14 1.09425E-13
 -1      3971 1.79884E+01 1.19435E+00 1.14389E-02 1.93481E-01-5.69637E-14 1.08762E-13
 -1      3972 1.72513E+01 1.24286E+00-1.10472E-02 4.55673E-01-4.87522E-15-8.66408E-15
 -1      3973 1.68637E+01 1.24917E+00-8.14005E-03 5.00618E-01-1.80950E-14-6.97111E-14
 -1      3974 1.73568E+01 1.27365E+00 1.67821E-02 1.46114E-01-1.41761E-13 1.61698E-15
 -1      3975 1.63505E+01 1.24238E+00-1.26626E-02 4.98153E-01-6.28268E-15-1.69057E-13
 -1      3976 1.58213E+01 1.18264E+00-9.69719E-03 5.76903E-01 1.76248E-14-2.36300E-13
 -1      3977 1.65094E+01 1.29404E+00 2.14245E-02 7.97273E-02-1.17230E-13-1.88253E-13
 -1      3978 1.98896E+01 2.35819E-01 4.21850E-04-1.75126E-01 2.46286E-15-8.87897E-14
 -1      3979 1.99094E+01 2.02246E-01-1.04100E-03-1.54862E-01-2.65120E-14-1.30951E-14
 -1      3980 2.03304E+01 1.15837E+00-1.21449E-03-3.63369E-02-1.25222E-14-2.37231E-13
 -1      3981 2.03325E+01 1.12593E+00-3.19371E-03-8.02231E-02-4.39534E-14-2.52963E-13
 -1      3982 2.03853E+01 9.21871E-01 3.91673E-03-5.39893E-02-4.24100E-14-2.21843E-13
 -1      3983 2.03807E+01 9.74849E-01 4.18605E-03-1.00363E-02 2.69100E-14-1.94079E-13
 -1      3984 1.45644E+01 1.12476E+00-2.19255E-02 1.73212E-01 5.57774E-14-3.53289E-13
 -1      3985 1.45415E+01 1.04416E+00-4.03048E-03-7.20928E-01-5.34989E-15-1.35716E-13
 -1      3986 1.99792E+01 1.13349E-01 3.84246E-04-1.15232E-01-4.90638E-14 2.65883E-14
 -1      3987 1.99935E+01 8.67163E-02-6.22796E-04-1.05541E-01 7.82998E-15 1.33057E-14
 -1      3988 2.00146E+01 6.25157E-02 3.88704E-04-9.93452E-02 4.97380E-14-1.43457E-14
 -1      3989 2.00275E+01 3.94738E-02-4.53292E-04-9.37406E-02 9.21751E-14 1.70302E-14
 -1      3990 2.00017E+01 8.13751E-02 2.21857E-04-8.74570E-02 5.61219E-15 1.97651E-13
 -1      3991 1.98304E+01 3.06068E-01 4.86545E-04-2.22727E-01 1.58497E-14-3.59983E-14
 -1      3992 1.98544E+01 2.69769E-01-1.29689E-03-1.95806E-01 3.20794E-14-1.09653E-13
 -1      3993 1.98485E+01 2.73912E-01 9.15262E-04-1.60715E-01 9.00143E-15 4.33007E-14
 -1      3994 1.97587E+01 3.79588E-01 6.07026E-04-2.85026E-01-3.02536E-14-3.29419E-14
 -1      3995 1.97874E+01 3.41935E-01-1.58524E-03-2.50370E-01 2.12201E-14-3.06891E-14
 -1      3996 1.97746E+01 3.51606E-01 1.17677E-03-2.06460E-01 3.12143E-14-1.63366E-14
 -1      3997 1.96731E+01 4.51969E-01 8.15925E-04-3.64783E-01-5.84104E-14-9.94378E-14
 -1      3998 1.97066E+01 4.15434E-01-1.90356E-03-3.21145E-01 2.05590E-15-2.40766E-14
 -1      3999 1.96845E+01 4.32656E-01 1.43278E-03-2.66917E-01 2.92660E-14-9.55907E-14
 -1      4000 1.95736E+01 5.15926E-01 1.16395E-03-4.65409E-01 2.52459E-15-1.74679E-13
 -1      4001 1.96110E+01 4.84526E-01-2.24546E-03-4.11316E-01-9.99619E-14-1.62229E-13
 -1      4002 1.95760E+01 5.12169E-01 1.65530E-03-3.45567E-01-4.66461E-14-1.48078E-13
 -1      4003 1.94627E+01 5.60279E-01 1.72778E-03-5.91218E-01 3.54292E-14 3.88064E-14
 -1      4004 1.95014E+01 5.40095E-01-2.59837E-03-5.24880E-01 3.57433E-14-4.25777E-14
 -1      4005 1.94480E+01 5.82199E-01 1.79828E-03-4.47008E-01-7.57620E-14-1.29026E-13
 -1      4006 1.93468E+01 5.68795E-01 2.61812E-03-7.47758E-01 2.44805E-14-5.80453E-15
 -1      4007 1.93816E+01 5.68569E-01-2.93792E-03-6.66973E-01 5.84049E-14 3.69984E-14
 -1      4008 1.93017E+01 6.30717E-01 1.78606E-03-5.77436E-01 3.48447E-14 7.06362E-14
 -1      4009 1.92385E+01 5.18892E-01 4.00326E-03-9.42134E-01 4.64228E-14-1.66400E-13
 -1      4010 1.92602E+01 5.50698E-01-3.21051E-03-8.44268E-01 2.16967E-14-8.91245E-14
 -1      4011 1.91415E+01 6.40405E-01 1.48731E-03-7.45310E-01 3.94235E-14-7.92479E-14
 -1      4012 1.91599E+01 3.79713E-01 5.92588E-03-1.18318E+00-3.67504E-14-1.05643E-13
 -1      4013 1.91535E+01 4.60203E-01-3.25935E-03-1.06547E+00-4.40622E-15-8.83908E-14
 -1      4014 1.89771E+01 5.87218E-01 6.23576E-04-9.62216E-01 9.52417E-15-1.36527E-13
 -1      4015 1.91497E+01 1.11091E-01 8.31818E-03-1.47829E+00-2.77560E-14 7.60508E-14
 -1      4016 1.90920E+01 2.61403E-01-2.49915E-03-1.33979E+00-2.28264E-14 6.38202E-14
 -1      4017 1.88280E+01 4.35096E-01-1.85649E-03-1.24421E+00-1.69830E-13 2.30064E-13
 -1      4018 1.92626E+01-3.34803E-01 9.26185E-03-1.83420E+00-8.93839E-14 2.13723E-13
 -1      4019 1.91231E+01-8.50767E-02-6.58065E-05-1.67357E+00-6.58980E-14 7.94369E-14
 -1      4020 1.87306E+01 1.43095E-01-5.82465E-03-1.60562E+00-1.08415E-13 2.31605E-13
 -1      4021 2.18196E+01-2.77483E+00-5.07095E-03-2.18007E+00-3.77577E-13 7.09675E-15
 -1      4022 2.00467E+01 1.87588E-02 3.98049E-04-9.07908E-02 5.46465E-14-3.86489E-14
 -1      4023 2.00593E+01-6.61689E-04-3.02754E-04-8.85265E-02 5.23402E-14-5.64804E-14
 -1      4024 2.00397E+01 3.25261E-02 3.40029E-05-7.84444E-02 3.70119E-14 6.67260E-14
 -1      4025 2.03316E+01 9.37320E-01-1.03367E-03 2.18913E-01 1.77546E-13-1.93161E-13
 -1      4026 2.01570E+01-6.27034E-02 3.38006E-04-1.36868E-01 6.44822E-14 5.72905E-14
 -1      4027 2.02003E+01-5.96167E-02-5.36816E-04-1.23210E-01 5.20298E-14 3.37274E-14
 -1      4028 2.01435E+01-6.71966E-02 2.94246E-04-1.33919E-01-9.15902E-15 7.76753E-14
 -1      4029 2.03071E+01 2.25020E-01 1.66857E-03-4.64219E-02 1.06866E-13-1.00461E-13
 -1      4030 2.03479E+01 3.08054E-01 4.26702E-07-1.57509E-02 1.03918E-13-1.39975E-13
 -1      4031 2.02851E+01 1.50716E-01-1.13635E-03-8.05487E-02 9.40220E-14-1.08002E-13
 -1      4032 1.99384E+01 1.71223E-01 3.92207E-04-1.39937E-01-9.40348E-14 4.82976E-14
 -1      4033 1.99550E+01 1.41017E-01-8.17199E-04-1.25383E-01-8.87781E-14 3.94795E-16
 -1      4034 1.99090E+01 2.02283E-01 6.64338E-04-1.26990E-01-4.10454E-14 6.70708E-14
 -1      4035 2.03777E+01 5.11518E-01-1.68724E-03 4.38495E-02 1.19848E-13-1.77106E-13
 -1      4036 2.03786E+01 6.63494E-01 1.18143E-03 1.01348E-01 1.17856E-13-1.64513E-13
 -1      4037 2.05780E+01-2.20789E+00-2.67936E-03-2.59412E+00-2.67826E-13 1.25190E-13
 -1      4038 1.50526E+01 8.36641E-01 2.08231E-02-1.44827E+00 2.89655E-15 4.35719E-14
 -1      4039 1.59214E+01 3.04165E-01-3.12576E-02-2.16172E+00-6.23351E-14 1.62149E-13
 -1      4040 1.56122E+01 9.81442E-01 1.66644E-02-9.93252E-01-5.50102E-14-1.68867E-14
 -1      4041 2.02490E+01 4.48949E-02-5.62690E-04-1.19294E-01 1.25067E-13-9.68029E-14
 -1      4042 2.02703E+01 9.25037E-02 1.29217E-03-1.01017E-01 9.92597E-14-1.01387E-13
 -1      4043 2.03185E+01 1.43995E-01-3.20661E-04-7.46921E-02 9.76707E-14-1.11351E-13
 -1      4044 2.02805E+01 3.75957E-02-5.10869E-04-1.07097E-01 1.00773E-13-4.64470E-14
 -1      4045 2.01692E+01-1.66432E+00 2.92358E-02-2.50309E+00-1.30951E-13 1.46727E-13
 -1      4046 1.93031E+01-1.18057E+00-1.00955E-02-2.48747E+00 2.92709E-14 1.51052E-13
 -1      4047 2.01435E+01-6.60421E-02 3.70244E-04-9.48568E-02 1.90751E-14 7.25089E-14
 -1      4048 2.01593E+01-7.16936E-02 1.08327E-04-9.76052E-02 3.70500E-14 5.09535E-14
 -1      4049 2.04012E+01 4.08457E-01-9.42868E-04-4.99218E-03-1.84858E-14-1.46283E-13
 -1      4050 2.04172E+01 3.79599E-01 5.67323E-04 9.32643E-04-1.04280E-14-1.26392E-13
 -1      4051 2.04053E+01 5.05768E-01 8.51007E-05-3.48877E-02-2.76722E-14-1.57051E-13
 -1      4052 1.55675E+01 1.24863E+00 8.92698E-03-1.15467E-01 9.96512E-15-2.16672E-13
 -1      4053 1.54698E+01 1.18244E+00 1.19084E-02 4.70863E-01 3.54092E-14-2.64077E-13
 -1      4054 2.01636E+01-7.09911E-02-4.89769E-04-1.18848E-01 1.33489E-14 4.92965E-14
 -1      4055 2.03973E+01 8.16211E-01-3.63834E-04 5.34785E-03 5.93899E-14-1.51084E-13
 -1      4056 2.03977E+01 7.90556E-01-2.56368E-03-1.52752E-02 1.98599E-14-1.47682E-13
 -1      4057 2.03297E+01 1.03448E+00-2.33814E-03 2.19308E-01 1.55993E-13-2.11230E-13
 -1      4058 2.03259E+01 1.10412E+00-1.28257E-03 1.74519E-01 1.12979E-13-2.21486E-13
 -1      4059 1.99590E+01 1.37972E-01 4.32144E-04-1.03149E-01-6.51526E-14 8.55213E-14
 -1      4060 2.03579E+01 7.91069E-01-3.35483E-04 1.40367E-01 1.17675E-13-1.69555E-13
 -1      4061 1.68359E+01 3.65088E-01-1.19659E-03-1.93609E+00-1.30798E-14 1.18234E-13
 -1      4062 1.68639E+01 5.17070E-02 2.81875E-02-2.38084E+00 1.14002E-14 1.42253E-13
 -1      4063 1.77956E+01-3.98990E-01-2.56391E-02-2.47585E+00-2.29573E-14 8.80758E-14
 -1      4064 1.95918E+01-1.04092E+00-1.59760E-03-2.23591E+00 5.98831E-14 1.71171E-13
 -1      4065 1.93250E+01-6.44473E-01 1.89462E-03-2.05916E+00 5.52249E-15 1.85803E-13
 -1      4066 2.03887E+01 7.09556E-01-5.47217E-04-7.05456E-02-7.38491E-14-2.11779E-13
 -1      4067 2.03694E+01 2.80264E-01-1.23249E-03-2.81609E-02 7.45008E-14-1.38398E-13
 -1      4068 2.03826E+01 3.85548E-01 9.47557E-04 1.06988E-02 8.96298E-14-1.67725E-13
 -1      4069 2.03995E+01 4.89198E-01 4.61372E-04 2.84233E-02 9.56014E-14-1.75395E-13
 -1      4070 2.01238E+01-5.76682E-02-2.97985E-05-9.20927E-02 1.60448E-14 2.33254E-14
 -1      4071 2.01486E+01-6.42323E-02-3.91313E-04-7.84197E-02 2.49771E-14 9.15591E-14
 -1      4072 2.01096E+01-4.65035E-02 3.99403E-04-9.00521E-02-4.22240E-15 1.93652E-14
 -1      4073 1.87538E+01-3.59234E-01-1.52442E-02-2.06606E+00-2.28656E-14 1.75393E-13
 -1      4074 2.00778E+01-1.77787E-02 4.04671E-04-8.81680E-02 5.59159E-14-9.05769E-14
 -1      4075 2.00908E+01-3.33584E-02-1.64171E-04-8.84805E-02 1.60307E-15-1.66836E-14
 -1      4076 2.01113E+01-4.11658E-02-2.74436E-04-7.52432E-02 4.33946E-14-3.76559E-14
 -1      4077 2.03726E+01 9.26109E-01 3.92093E-03 1.19256E-01 1.02524E-13-2.07359E-13
 -1      4078 2.03770E+01 7.54335E-01-4.58432E-04 1.01949E-01 1.06495E-13-1.71085E-13
 -1      4079 2.02199E+01-6.60570E-02 1.72067E-04-1.05028E-01 5.92115E-15 1.66986E-14
 -1      4080 2.02398E+01-5.43518E-02 4.50397E-04-1.04877E-01 3.94619E-14 1.79087E-15
 -1      4081 2.02617E+01-3.64917E-02-3.11465E-05-1.04584E-01 7.65113E-14-2.64469E-14
 -1      4082 2.02835E+01-1.09915E-02 7.47826E-04-9.96045E-02 8.64701E-14-3.05498E-14
 -1      4083 2.02754E+01-4.37936E-02-6.00615E-04-8.63606E-02 3.97384E-14-5.61636E-15
 -1      4084 2.00755E+01-8.48917E-03-1.31645E-04-7.47977E-02 2.82163E-14-4.79621E-14
 -1      4085 1.61585E+01 1.18770E+00 3.52495E-03-3.06020E-01-8.54796E-14-7.94313E-14
 -1      4086 1.57795E+01 1.19635E+00 1.46608E-02-4.68858E-01-7.35151E-14-9.49366E-14
 -1      4087 1.61331E+01 9.15706E-01-1.51789E-02-1.11365E+00-7.83896E-14 5.39373E-14
 -1      4088 1.66205E+01 1.20464E+00-7.17550E-03-2.28729E-01-1.52388E-13-5.67376E-14
 -1      4089 2.01802E+01-7.38983E-02 3.01019E-04-1.00667E-01 2.89784E-14 2.06818E-14
 -1      4090 2.01981E+01-7.22285E-02 2.57909E-04-1.02822E-01 4.60522E-15 3.02153E-15
 -1      4091 2.02311E+01-7.04442E-02-5.11680E-04-8.62061E-02 1.08915E-15-1.43152E-14
 -1      4092 2.01884E+01-7.52952E-02-4.74948E-04-8.27348E-02-2.22598E-15-4.73095E-14
 -1      4093 2.03889E+01 8.50568E-01-1.61471E-03 3.06824E-02 8.00470E-14-1.94462E-13
 -1      4094 2.04179E+01 6.91713E-01 1.80254E-03 2.09359E-02 5.11783E-14-1.68232E-13
 -1      4095 2.03834E+01 7.83962E-01-5.93552E-04 8.10898E-02 9.15487E-14-2.27403E-13
 -1      4096 2.03920E+01 1.01411E-01 1.99312E-04 3.04315E-02-5.51432E-14-1.08476E-13
 -1      4097 2.03718E+01 4.71269E-02-1.88065E-04 3.87998E-02-6.47964E-14-1.42039E-13
 -1      4098 2.03504E+01 5.00656E-03 2.81917E-04 3.98502E-02-6.41077E-14-1.27075E-13
 -1      4099 2.03275E+01-2.71888E-02 1.03215E-04 4.41925E-02-9.83640E-14-1.18974E-13
 -1      4100 2.03697E+01 3.09831E-02-2.76170E-04 2.01634E-02-5.38670E-14-1.09500E-13
 -1      4101 2.03032E+01-5.02183E-02 3.14415E-04 4.32103E-02-8.64068E-14-8.82485E-14
 -1      4102 2.02795E+01-6.57604E-02 2.61247E-04 4.50216E-02-4.44911E-14-5.83328E-14
 -1      4103 2.03237E+01-3.71523E-02-7.19484E-04 2.23368E-02-5.35744E-14-9.82654E-14
 -1      4104 2.02547E+01-7.49436E-02 2.87215E-04 4.35064E-02-3.65976E-14-3.04440E-14
 -1      4105 2.02317E+01-7.85110E-02 3.26139E-04 4.37576E-02-5.82178E-14-8.45880E-15
 -1      4106 2.02741E+01-7.08488E-02-9.40768E-04 2.30772E-02-5.38466E-15-2.30332E-14
 -1      4107 2.02076E+01-7.75393E-02 2.13991E-04 4.20614E-02-7.37897E-14 1.91948E-14
 -1      4108 2.01859E+01-7.23055E-02 3.32404E-04 4.16628E-02-4.41537E-14 1.99132E-14
 -1      4109 2.02255E+01-7.94106E-02-9.03017E-04 2.25822E-02-2.46169E-14 4.74585E-15
 -1      4110 2.01628E+01-6.37559E-02 1.23706E-04 4.01620E-02-3.34199E-14 1.46870E-14
 -1      4111 2.01424E+01-5.18549E-02 2.99106E-04 3.98254E-02-6.31109E-14 3.79494E-14
 -1      4112 2.01790E+01-6.94298E-02-7.50309E-04 2.16744E-02-4.75110E-14 2.81266E-14
 -1      4113 2.01200E+01-3.74049E-02 1.66349E-05 3.87799E-02-4.28028E-14 2.33091E-14
 -1      4114 2.01003E+01-2.01253E-02 2.35327E-04 3.90466E-02-5.37721E-15-1.32217E-14
 -1      4115 2.01347E+01-4.54104E-02-5.19650E-04 2.09133E-02-7.00923E-14 1.44987E-14
 -1      4116 2.00781E+01-7.11069E-04-1.06413E-04 3.86370E-02-5.00639E-14-2.36416E-15
 -1      4117 2.00581E+01 2.13134E-02 1.45104E-04 3.99137E-02-4.01964E-14-6.09195E-14
 -1      4118 2.00914E+01-1.00988E-02-2.25321E-04 2.06726E-02-3.24288E-14-1.52605E-14
 -1      4119 2.00348E+01 4.53228E-02-2.45920E-04 4.02558E-02 2.11706E-14-1.82359E-14
 -1      4120 2.00134E+01 7.19445E-02 2.75081E-05 4.28384E-02 5.80460E-14 4.70735E-14
 -1      4121 2.00475E+01 3.51097E-02 1.29253E-04 2.11818E-02 1.67584E-14 1.19563E-14
 -1      4122 1.99876E+01 1.00590E-01-4.02892E-04 4.39822E-02 3.30914E-14-8.18362E-15
 -1      4123 1.99631E+01 1.31993E-01-1.23276E-04 4.80599E-02 4.00656E-14 6.62812E-15
 -1      4124 2.00003E+01 8.98168E-02 5.48420E-04 2.25247E-02 4.40210E-14-3.86038E-14
 -1      4125 1.99331E+01 1.65579E-01-5.78002E-04 4.99715E-02 5.87273E-15 5.76997E-15
 -1      4126 1.99035E+01 2.02128E-01-3.18201E-04 5.56079E-02-8.25231E-14-3.41949E-15
 -1      4127 1.99466E+01 1.54293E-01 1.04263E-03 2.46067E-02 3.02639E-14-1.38319E-13
 -1      4128 1.98672E+01 2.41075E-01-7.70817E-04 5.81311E-02-7.18207E-14 1.06476E-14
 -1      4129 1.98302E+01 2.83156E-01-5.74007E-04 6.52194E-02-4.17086E-14 4.14701E-16
 -1      4130 1.98825E+01 2.29155E-01 1.62727E-03 2.70862E-02-6.33903E-14-1.33367E-13
 -1      4131 1.97851E+01 3.27838E-01-9.79261E-04 6.80129E-02-1.19927E-13 2.63618E-14
 -1      4132 1.97378E+01 3.75685E-01-9.14339E-04 7.62034E-02-9.47712E-14 1.77101E-14
 -1      4133 1.98035E+01 3.15034E-01 2.32215E-03 2.92596E-02-4.54894E-14 1.32548E-14
 -1      4134 1.96811E+01 4.26251E-01-1.19965E-03 7.86500E-02-5.32935E-14-1.44250E-14
 -1      4135 1.96199E+01 4.79736E-01-1.37151E-03 8.72498E-02-1.65690E-14-9.46237E-15
 -1      4136 1.97043E+01 4.12194E-01 3.15181E-03 2.98936E-02-5.82519E-14 6.21432E-14
 -1      4137 1.95485E+01 5.35896E-01-1.42787E-03 8.83344E-02 3.18740E-14-9.96770E-15
 -1      4138 1.94693E+01 5.94291E-01-1.98935E-03 9.61859E-02 7.06878E-15 2.96927E-14
 -1      4139 1.95787E+01 5.20118E-01 4.14767E-03 2.69915E-02-1.90384E-14 5.32189E-14
 -1      4140 1.93794E+01 6.55073E-01-1.66262E-03 9.43437E-02-5.17225E-14 5.70776E-14
 -1      4141 1.92767E+01 7.16783E-01-2.82815E-03 9.96970E-02-5.08938E-14 7.14665E-14
 -1      4142 1.94195E+01 6.37023E-01 5.35313E-03 1.74888E-02 1.33480E-14-1.10456E-14
 -1      4143 1.91640E+01 7.80265E-01-1.91155E-03 9.26324E-02-7.61336E-14 9.02452E-14
 -1      4144 1.90313E+01 8.42538E-01-3.97382E-03 9.30430E-02-1.17853E-13 5.74225E-14
 -1      4145 1.92184E+01 7.59350E-01 6.83442E-03-3.13246E-03-4.29627E-14 4.26148E-14
 -1      4146 1.88902E+01 9.05593E-01-2.20064E-03 7.75184E-02-5.51083E-14 1.54917E-13
 -1      4147 1.87188E+01 9.64262E-01-5.55599E-03 6.98231E-02 1.81965E-14 2.15782E-13
 -1      4148 1.89651E+01 8.81255E-01 8.70035E-03-4.13330E-02-2.51181E-14 2.09268E-13
 -1      4149 1.85421E+01 1.02238E+00-2.58627E-03 4.13900E-02-7.65849E-14 2.06744E-13
 -1      4150 1.83197E+01 1.07162E+00-7.80590E-03 2.18938E-02-3.01520E-14 1.86349E-13
 -1      4151 1.86469E+01 9.94182E-01 1.11301E-02-1.06191E-01-3.64500E-14 3.76464E-13
 -1      4152 1.80966E+01 1.11961E+00-3.06534E-03-2.53185E-02-1.01871E-14 1.97174E-14
 -1      4153 1.78080E+01 1.15256E+00-9.92322E-03-6.07655E-02-5.10649E-14 3.95218E-14
 -1      4154 1.82460E+01 1.08661E+00 1.43458E-02-2.10603E-01-1.29685E-13 1.97883E-13
 -1      4155 1.75212E+01 1.17382E+00-5.74950E-03-1.29554E-01-1.52815E-13 1.13123E-14
 -1      4156 1.71655E+01 1.19089E+00-6.52321E-03-1.90399E-01-1.92650E-13-7.27693E-14
 -1      4157 1.77272E+01 1.14650E+00 1.70820E-02-3.70717E-01-1.46788E-13-4.38211E-14
 -1      4158 1.97237E+01 3.90240E-01 1.42743E-04-1.78269E-01 5.75623E-14-5.42204E-14
 -1      4159 1.97631E+01 3.46673E-01-1.63119E-03-1.54288E-01 7.88040E-14 2.44169E-14
 -1      4160 2.04008E+01 7.74643E-01-5.03348E-04-2.89077E-02 9.07622E-15-1.59024E-13
 -1      4161 2.04015E+01 7.39836E-01-1.74457E-03-4.56699E-02-2.44076E-14-1.84566E-13
 -1      4162 2.04269E+01 6.36597E-01 2.58151E-03-1.01384E-02 1.19852E-14-1.15162E-13
 -1      4163 1.99402E+01 1.59622E-01 1.46601E-04-8.53895E-02-1.50478E-14 9.11595E-14
 -1      4164 1.99626E+01 1.27745E-01-6.79653E-04-7.63115E-02-2.79889E-14 1.58354E-13
 -1      4165 1.98109E+01 3.06169E-01 1.01922E-04-1.37048E-01 4.78650E-14 2.58198E-14
 -1      4166 1.98432E+01 2.65965E-01-1.24902E-03-1.19064E-01 5.39220E-14 6.09372E-14
 -1      4167 1.97697E+01 3.48163E-01 2.48085E-03-1.09738E-01 4.68472E-14 1.68730E-14
 -1      4168 1.96171E+01 4.78393E-01 2.64762E-04-2.33405E-01 1.04888E-14-2.49977E-14
 -1      4169 1.96646E+01 4.32961E-01-2.10139E-03-2.02000E-01 2.14241E-14-3.28858E-14
 -1      4170 1.96687E+01 4.40411E-01 3.26583E-03-1.46006E-01 4.54893E-14-1.46809E-15
 -1      4171 1.94878E+01 5.65731E-01 5.16934E-04-3.06389E-01-7.46045E-14-9.77689E-14
 -1      4172 1.95441E+01 5.21088E-01-2.68409E-03-2.65669E-01 7.11662E-15-4.11417E-14
 -1      4173 1.95440E+01 5.37344E-01 4.17651E-03-1.95851E-01-2.37450E-14 1.58874E-13
 -1      4174 1.93341E+01 6.44339E-01 9.72746E-04-4.02600E-01-8.37180E-14-6.33271E-14
 -1      4175 1.93986E+01 6.04706E-01-3.41383E-03-3.50001E-01-1.03659E-13-1.14603E-13
 -1      4176 1.93912E+01 6.33926E-01 5.23529E-03-2.63955E-01-3.18059E-14 9.23523E-16
 -1      4177 1.91554E+01 7.02337E-01 1.73946E-03-5.29494E-01 2.96556E-14-8.05243E-14
 -1      4178 1.92264E+01 6.73968E-01-4.34168E-03-4.61480E-01-6.70402E-14-1.26083E-13
 -1      4179 1.92067E+01 7.22133E-01 6.47378E-03-3.56910E-01-5.05184E-14-1.24846E-13
 -1      4180 1.89545E+01 7.22804E-01 2.96992E-03-6.97477E-01 8.06142E-14-8.39664E-14
 -1      4181 1.90275E+01 7.14512E-01-5.54634E-03-6.09127E-01 8.05906E-14-3.73148E-14
 -1      4182 1.89874E+01 7.90085E-01 7.92867E-03-4.84038E-01 5.54077E-14-1.76329E-13
 -1      4183 1.87379E+01 6.82181E-01 4.74078E-03-9.21260E-01-1.32403E-13 6.18041E-14
 -1      4184 1.88050E+01 7.06276E-01-7.14597E-03-8.05592E-01 3.09990E-14 1.77825E-14
 -1      4185 1.87314E+01 8.20968E-01 9.56847E-03-6.58545E-01-1.90440E-14-4.58461E-14
 -1      4186 1.85168E+01 5.47012E-01 5.95164E-03-1.22455E+00-2.67645E-13 2.40367E-13
 -1      4187 1.85666E+01 6.25736E-01-8.24741E-03-1.06890E+00-2.28947E-13 1.75627E-13
 -1      4188 1.84381E+01 7.90969E-01 1.07302E-02-8.98221E-01-2.43029E-13 1.60120E-13
 -1      4189 1.83345E+01 2.76807E-01 1.07223E-02-1.62404E+00-5.49479E-14 1.29760E-13
 -1      4190 1.83405E+01 4.28354E-01-7.33592E-03-1.42246E+00-1.27080E-13 1.92662E-13
 -1      4191 1.81023E+01 6.44701E-01-3.95074E-03-1.22835E+00-1.76983E-13 4.40312E-14
 -1      4192 1.85584E+01-7.17639E-01 1.80739E-02-2.55572E+00-1.53607E-14 7.55416E-14
 -1      4193 2.00324E+01 4.60280E-02 2.52929E-04-6.24201E-02 3.54642E-14 1.57413E-13
 -1      4194 2.00504E+01 2.25166E-02-2.85708E-04-5.92705E-02 2.98871E-14 9.95273E-14
 -1      4195 2.03869E+01 8.31337E-01-1.65439E-03 6.50778E-02 9.65816E-14-2.32404E-13
 -1      4196 1.98818E+01 2.28889E-01 1.10179E-04-1.06823E-01-2.42618E-14 6.22706E-14
 -1      4197 1.99085E+01 1.92748E-01-9.36647E-04-9.37320E-02-5.49915E-14 7.57739E-14
 -1      4198 1.98513E+01 2.63422E-01 1.80453E-03-8.36946E-02-5.51980E-15 4.19461E-14
 -1      4199 2.04211E+01 5.78622E-01 3.89814E-04 2.09468E-02 4.51337E-14-1.95420E-13
 -1      4200 2.04281E+01 5.39984E-01-1.49639E-03 3.00941E-03 2.05581E-14-1.44787E-13
 -1      4201 1.99893E+01 9.86933E-02 1.97409E-04-7.10431E-02-6.44950E-14 1.98384E-13
 -1      4202 2.00089E+01 7.10369E-02-4.66090E-04-6.52481E-02 2.16286E-14 1.56530E-13
 -1      4203 1.99731E+01 1.20629E-01 7.20631E-04-5.32456E-02-1.46690E-14 1.42417E-13
 -1      4204 2.04206E+01 2.53775E-01-7.12775E-05 1.35691E-02 5.33961E-15-1.27265E-13
 -1      4205 2.04074E+01 1.69728E-01-3.79857E-04 2.73825E-02-1.60557E-14-1.13612E-13
 -1      4206 2.04087E+01 1.44693E-01 6.07575E-05 1.46296E-02-3.07039E-14-1.01156E-13
 -1      4207 2.00723E+01 1.56215E-03 3.05236E-04-5.83719E-02-1.73632E-14 1.01582E-13
 -1      4208 2.00899E+01-1.77250E-02-1.29594E-04-5.72680E-02-5.25794E-15 6.21873E-14
 -1      4209 2.00641E+01 1.37340E-02-8.49229E-05-4.18699E-02 4.68728E-15 1.53771E-13
 -1      4210 2.04033E+01 6.76566E-01 1.02240E-03 5.27703E-02 8.22965E-14-2.19778E-13
 -1      4211 1.82172E+01-2.95587E-01 4.39845E-03-2.25230E+00 9.72746E-16 4.59632E-14
 -1      4212 2.04172E+01 5.31338E-01-1.10831E-04 2.94235E-02 7.32863E-14-1.99690E-13
 -1      4213 2.04292E+01 4.17006E-01 1.44347E-04-6.44101E-03 9.51027E-15-1.48251E-13
 -1      4214 2.04256E+01 3.30267E-01-1.46185E-04 9.55795E-03 1.19151E-14-1.19540E-13
 -1      4215 2.04300E+01 2.92947E-01 2.49889E-04 5.76927E-03 7.33686E-16-7.58224E-14
 -1      4216 2.01056E+01-2.63019E-02-4.03246E-04-4.07762E-02 8.67105E-15 1.36092E-13
 -1      4217 2.01113E+01-3.43875E-02 3.46246E-04-5.78522E-02 3.47306E-14 4.20290E-14
 -1      4218 2.01294E+01-4.90428E-02 9.95980E-06-5.81753E-02 7.05752E-14 3.81326E-14
 -1      4219 2.02380E+01-7.49605E-02 2.86138E-04-6.61199E-02-1.53632E-14-6.20743E-15
 -1      4220 2.02605E+01-6.72808E-02 3.89880E-04-6.58739E-02 1.46364E-14 4.56954E-15
 -1      4221 1.99178E+01 1.87468E-01 1.22223E-03-6.54554E-02 5.02200E-15 4.88333E-14
 -1      4222 2.04366E+01 4.07191E-01 9.23939E-04 2.90770E-03 1.14802E-14-1.18418E-13
 -1      4223 2.04310E+01 5.04315E-01-5.58812E-05-2.03881E-03 1.36136E-14-1.03280E-13
 -1      4224 2.03417E+01 1.23374E-01-7.87275E-04-7.22327E-02 7.70449E-14-1.28091E-13
 -1      4225 2.03612E+01 1.94252E-01 9.99774E-04-4.86554E-02 7.12272E-14-1.24115E-13
 -1      4226 2.03907E+01 2.63504E-01 1.18674E-04-2.71584E-02 6.08321E-14-1.37238E-13
 -1      4227 1.81660E+01 1.00954E-02-2.06986E-03-1.97057E+00 3.00454E-15 8.94245E-14
 -1      4228 1.77568E+01 3.27004E-01 3.04642E-03-1.77041E+00-4.20084E-14 1.04267E-14
 -1      4229 2.00208E+01 6.27717E-02 2.87978E-04-4.57324E-02-1.33007E-14 1.20071E-13
 -1      4230 2.02857E+01-6.05280E-02-9.11762E-04-4.60943E-02 1.40456E-14-5.41349E-16
 -1      4231 2.02846E+01-5.38911E-02 1.46552E-04-6.72189E-02 1.52492E-14 7.54972E-15
 -1      4232 2.03090E+01-3.34310E-02 5.18034E-04-6.46009E-02 3.72362E-14-1.30378E-14
 -1      4233 2.04052E+01 6.64205E-01 1.24600E-04-4.46261E-02-3.52543E-14-1.81666E-13
 -1      4234 2.03037E+01 2.27451E-02-3.54207E-04-9.57619E-02 6.35974E-14-6.19043E-14
 -1      4235 2.03255E+01 6.76549E-02 9.14103E-04-8.31504E-02 6.51441E-14-9.22689E-14
 -1      4236 2.03608E+01 1.10549E-01-3.97069E-04-6.12885E-02 4.13550E-14-9.69085E-14
 -1      4237 2.03208E+01 1.24574E-02-6.92876E-04-7.97417E-02 5.33639E-14-5.88134E-14
 -1      4238 2.04181E+01 4.00825E-01-2.70820E-04-1.28581E-03 4.49681E-14-1.73662E-13
 -1      4239 1.69333E+01 1.16130E+00 1.97419E-02-5.35843E-01-1.72973E-13 7.72754E-14
 -1      4240 1.67323E+01 9.61706E-01-8.39493E-03-9.72362E-01-1.12177E-13 1.22323E-13
 -1      4241 1.66987E+01 7.90186E-01 2.54048E-02-1.43593E+00-1.51530E-13 1.22725E-13
 -1      4242 1.73384E+01 4.40619E-01-5.79047E-03-1.68481E+00-1.03743E-13 8.99507E-14
 -1      4243 1.72572E+01 9.65861E-01-1.16850E-02-8.54943E-01-1.74628E-13 1.33861E-13
 -1      4244 2.01513E+01-6.07778E-02 3.66108E-04-5.98042E-02 4.71492E-14-2.28612E-14
 -1      4245 2.01706E+01-6.98917E-02 1.39411E-04-6.08545E-02 2.20356E-14-5.04688E-15
 -1      4246 2.01476E+01-5.64518E-02-6.66351E-04-4.16249E-02 3.66246E-14-3.65926E-14
 -1      4247 2.01934E+01-7.54898E-02 3.51853E-04-6.30410E-02 1.08387E-14-4.16342E-14
 -1      4248 2.02143E+01-7.74661E-02 2.63226E-04-6.39678E-02-1.44237E-14-2.09933E-14
 -1      4249 2.01913E+01-7.47726E-02-8.65483E-04-4.35410E-02 6.53131E-15-1.05116E-13
 -1      4250 2.04285E+01 4.85565E-01-7.93805E-04-7.42167E-03 5.91593E-15-1.22178E-13
 -1      4251 2.03845E+01 5.07366E-02-1.94475E-05-2.54769E-04-6.05041E-14-9.75224E-14
 -1      4252 2.03641E+01 7.16923E-03 4.32589E-04 2.48906E-03-6.39509E-14-1.23040E-13
 -1      4253 2.02374E+01-7.78831E-02-9.77458E-04-4.54902E-02-1.81746E-16 6.86742E-15
 -1      4254 1.96114E+01 4.72003E-01-2.05331E-03-6.85673E-02-4.69640E-14 8.28762E-14
 -1      4255 1.96696E+01 4.22624E-01-2.50250E-03-5.04690E-02-1.03379E-14 3.07375E-14
 -1      4256 2.03347E+01-2.77463E-02 2.83234E-04-1.22171E-02-1.54313E-14-8.25456E-14
 -1      4257 2.03114E+01-5.09162E-02 5.95648E-04-1.03869E-02 1.57654E-14-4.42761E-14
 -1      4258 2.02870E+01-6.63449E-02 5.22437E-04-1.18428E-02 8.56037E-15-6.35573E-14
 -1      4259 2.02622E+01-7.54774E-02 6.38208E-04-1.08807E-02 1.07579E-14-5.03201E-14
 -1      4260 2.02381E+01-7.87703E-02 5.94016E-04-1.11554E-02 7.85181E-15-6.85998E-14
 -1      4261 2.02138E+01-7.76070E-02 5.74264E-04-1.06553E-02-1.03342E-14-7.39902E-14
 -1      4262 2.01908E+01-7.20968E-02 5.32759E-04-1.04997E-02 1.60187E-14-7.20164E-14
 -1      4263 2.01675E+01-6.32340E-02 4.45158E-04-1.01923E-02-1.48672E-14-4.12746E-14
 -1      4264 2.01455E+01-5.10625E-02 4.05693E-04-1.01203E-02-6.68786E-14 1.86438E-14
 -1      4265 2.01229E+01-3.61967E-02 2.72585E-04-9.85627E-03-5.28058E-14 2.18304E-14
 -1      4266 2.01014E+01-1.86802E-02 2.31333E-04-1.02761E-02-3.05772E-14 3.74810E-14
 -1      4267 2.00790E+01 1.22695E-03 6.16552E-05-9.96961E-03 3.82327E-15 2.91430E-14
 -1      4268 2.00571E+01 2.34095E-02 1.79343E-05-1.12462E-02 9.02075E-15 5.73888E-14
 -1      4269 2.00336E+01 4.79482E-02-1.89851E-04-1.08772E-02 3.43583E-14 6.57262E-14
 -1      4270 2.00102E+01 7.45775E-02-2.31595E-04-1.33785E-02-1.25917E-14 2.67742E-14
 -1      4271 1.99841E+01 1.03720E-01-4.89625E-04-1.30084E-02-2.43654E-14-1.28681E-14
 -1      4272 1.99576E+01 1.34866E-01-5.17508E-04-1.71523E-02 2.22556E-14-5.20214E-16
 -1      4273 1.99272E+01 1.68801E-01-8.50246E-04-1.69549E-02 1.73674E-14-4.35049E-14
 -1      4274 1.98958E+01 2.04654E-01-8.41532E-04-2.32627E-02-3.69465E-14-5.90147E-14
 -1      4275 1.98589E+01 2.43612E-01-1.28924E-03-2.35734E-02-3.51585E-14-5.22255E-14
 -1      4276 1.98207E+01 2.84296E-01-1.20540E-03-3.27362E-02-2.48868E-14 6.62717E-15
 -1      4277 1.97747E+01 3.28364E-01-1.82979E-03-3.41256E-02-1.28355E-14 2.71671E-15
 -1      4278 1.97276E+01 3.73729E-01-1.60971E-03-4.70926E-02-2.11975E-15 3.92011E-14
 -1      4279 1.95378E+01 5.24815E-01-3.34875E-03-7.53159E-02-1.24488E-14 5.10443E-14
 -1      4280 1.94662E+01 5.76742E-01-2.53364E-03-1.00418E-01-1.74557E-14 1.05333E-13
 -1      4281 1.93732E+01 6.31639E-01-4.42673E-03-1.12582E-01-3.79526E-14 3.69333E-14
 -1      4282 1.92860E+01 6.83529E-01-3.04817E-03-1.47344E-01-3.43475E-15 2.05971E-14
 -1      4283 1.91687E+01 7.37429E-01-5.82123E-03-1.67856E-01 7.74852E-15 1.08421E-13
 -1      4284 1.90640E+01 7.85237E-01-3.59507E-03-2.16052E-01-1.04628E-14 2.54355E-14
 -1      4285 1.89165E+01 8.33458E-01-7.65632E-03-2.49057E-01-5.33544E-15 5.24241E-14
 -1      4286 1.87926E+01 8.71335E-01-4.16221E-03-3.16042E-01 1.30316E-14 1.37015E-13
 -1      4287 1.86074E+01 9.07254E-01-1.00925E-02-3.67395E-01-2.13904E-14 1.39106E-13
 -1      4288 1.84636E+01 9.27256E-01-4.62351E-03-4.60677E-01-1.24943E-13 1.47429E-13
 -1      4289 1.82305E+01 9.42356E-01-1.30039E-02-5.39461E-01-1.84810E-13 9.80371E-14
 -1      4290 1.80697E+01 9.30719E-01-5.02274E-03-6.69903E-01-2.65020E-13 6.55461E-14
 -1      4291 1.77952E+01 9.22373E-01-1.13679E-02-7.85890E-01-2.12791E-13 3.27712E-14
 -1      4292 2.04216E+01 5.38416E-01 1.39337E-04-1.67297E-02-7.13282E-15-1.61833E-13
 -1      4293 2.04304E+01 3.59076E-01 4.37811E-04-2.93837E-03 1.96079E-14-1.57670E-13
 -1      4294 2.04339E+01 3.20485E-01-4.45720E-04-3.84585E-03 1.47403E-14-1.00523E-13
 -1      4295 2.04289E+01 2.46917E-01 2.33370E-04 1.13150E-03 9.54383E-16-1.16903E-13
 -1      4296 2.04178E+01 1.70155E-01-2.91008E-04-2.84525E-03-2.88642E-14-1.10595E-13
 -1      4297 2.04018E+01 1.01619E-01 1.93006E-04 1.34764E-03-5.36368E-14-1.15415E-13
 -1      4298 2.03895E+01 7.57331E-02-3.90831E-04-1.79581E-02-2.50855E-14-1.01394E-13
 -1      4299 2.04180E+01 1.99489E-01-2.97450E-05-1.44380E-02-1.86951E-14-1.25028E-13
 -1      4300 1.75609E+01 6.63311E-01-5.46825E-03-1.34274E+00-1.08556E-13-5.38037E-14
 -1      4301 2.04183E+01 3.17128E-01 1.38512E-04-7.53638E-03 3.79670E-14-1.69392E-13
 -1      4302 1.77852E+01 7.80270E-01 1.05636E-02-1.13393E+00-1.86008E-13-4.55538E-15
 -1      4303 2.04073E+01 2.22644E-01-4.09276E-04-2.88164E-02 4.56565E-14-1.45697E-13
 -1      4304 2.03406E+01 1.20196E-03-8.40723E-05-5.12932E-02 2.65752E-14-6.03941E-14
 -1      4305 2.03637E+01 4.15044E-02 6.64565E-04-4.41885E-02 9.08201E-15-8.94624E-14
 -1      4306 2.03416E+01-1.08552E-02-6.43282E-04-3.07222E-02 6.80649E-16-6.35664E-14
 -1      4307 2.03984E+01 1.51579E-01 5.33475E-04-3.18403E-02 8.82573E-15-1.24041E-13
 -1      4308 2.03799E+01 8.81276E-02-1.02973E-04-4.48529E-02-3.92161E-15-1.11500E-13
 -3
    1PSTEP                         3           1           1          
  100CL  101 1.000000000        4308                     0    1           1
 -4  TOSTRAIN    6    1
 -5  EXX         1    4    1    1
 -5  EYY         1    4    2    2
 -5  EZZ         1    4    3    3
 -5  EXY         1    4    1    2
 -5  EYZ         1    4    2    3
 -5  EZX         1    4    3    1
 -1         1 1.28685E-05-5.68264E-05 9.25928E-06-2.81382E-05-1.82802E-17-7.72695E-18
 -1         2 3.95571E-05-1.20307E-04 2.19180E-05-2.20049E-07 7.02967E-18 1.78618E-18
 -1         3 9.51327E-05-2.86808E-05-2.83509E-05-1.05360E-07-3.52908E-18-3.14389E-18
 -1         4 9.49690E-05-2.88491E-05-2.80779E-05 3.17459E-07 2.88571E-18-1.35243E-18
 -1         5 1.43346E-04-2.14784E-05-4.25276E-05 3.85316E-05-3.08744E-19 2.41866E-17
 -1         6 1.45408E-04 2.57566E-10-4.41867E-05-5.35275E-05-1.23370E-18 2.44437E-17
 -1         7 9.06065E-05-5.11033E-07-3.90675E-05-2.92541E-05-1.61254E-19 6.22702E-18
 -1         8 8.51238E-05 8.63087E-08-3.63383E-05-2.02734E-05-2.82274E-19 2.22019E-19
 -1         9 8.28124E-05 7.65118E-08-3.53501E-05-1.56419E-05-2.55447E-19-3.19655E-18
 -1        10 8.17729E-05 3.91485E-08-3.48817E-05-1.20814E-05-1.95281E-19-4.84509E-18
 -1        11 8.12543E-05 1.91499E-08-3.46537E-05-9.01545E-06-1.32236E-19-5.65926E-18
 -1        12 8.09847E-05 9.16446E-09-3.45392E-05-6.28570E-06-8.91618E-20-6.01033E-18
 -1        13 8.08435E-05 4.59849E-09-3.44814E-05-3.68660E-06-5.41977E-20-6.11037E-18
 -1        14 8.07846E-05 2.71251E-09-3.44579E-05-1.18405E-06-1.18382E-20-6.09564E-18
 -1        15 8.07867E-05 2.69681E-09-3.44586E-05 1.28922E-06 3.05285E-20-6.04834E-18
 -1        16 8.08500E-05 4.49167E-09-3.44836E-05 3.79692E-06 6.46648E-20-5.94734E-18
 -1        17 8.09964E-05 8.38417E-09-3.45427E-05 6.40840E-06 1.03235E-19-5.66167E-18
 -1        18 8.12708E-05 1.81570E-08-3.46583E-05 9.15785E-06 1.47916E-19-5.10923E-18
 -1        19 8.17969E-05 3.81935E-08-3.48898E-05 1.22602E-05 2.21751E-19-4.17082E-18
 -1        20 8.28350E-05 8.15430E-08-3.53631E-05 1.58729E-05 2.78727E-19-2.40613E-18
 -1        21 8.50886E-05 1.69508E-07-3.63768E-05 2.04843E-05 3.26928E-19 1.05542E-18
 -1        22 9.16435E-05-9.95683E-08-3.87390E-05 2.80006E-05 4.46810E-20 8.20108E-18
 -1        23 1.12975E-04-3.81264E-05-3.53973E-05-4.40269E-06-8.00102E-19 2.00339E-17
 -1        24 9.28070E-05-2.76978E-05-2.90000E-05 3.91376E-07-2.66157E-19 1.60551E-17
 -1        25 8.91222E-05-2.68530E-05-2.69301E-05 3.75897E-07-9.48909E-20 1.18587E-17
 -1        26 8.80184E-05-2.64892E-05-2.63926E-05 2.04017E-07-3.36356E-20 8.89099E-18
 -1        27 8.80440E-05-2.64672E-05-2.63845E-05 1.39875E-07-6.15364E-20 6.90333E-18
 -1        28 8.85769E-05-2.66034E-05-2.65537E-05 1.00868E-07-1.65235E-19 5.33035E-18
 -1        29 8.93303E-05-2.68156E-05-2.67858E-05 7.51218E-08-7.85565E-20 3.83321E-18
 -1        30 9.01527E-05-2.70547E-05-2.70352E-05 5.67458E-08-8.13784E-20 2.52945E-18
 -1        31 9.09594E-05-2.72923E-05-2.72785E-05 4.29025E-08 9.05613E-20 1.93880E-18
 -1        32 9.17037E-05-2.75130E-05-2.75028E-05 3.21447E-08-1.24225E-19 1.21585E-18
 -1        33 9.23628E-05-2.77091E-05-2.77015E-05 2.36605E-08 1.13835E-19 6.97447E-19
 -1        34 9.29289E-05-2.78782E-05-2.78724E-05 1.69367E-08 2.14419E-20 2.65390E-19
 -1        35 9.34049E-05-2.80206E-05-2.80163E-05 1.16139E-08-1.07835E-19-1.92293E-19
 -1        36 9.38000E-05-2.81392E-05-2.81358E-05 7.42269E-09 1.60097E-19-1.24509E-19
 -1        37 9.41281E-05-2.82379E-05-2.82353E-05 4.15763E-09-2.76583E-19-1.06421E-19
 -1        38 9.44065E-05-2.83219E-05-2.83198E-05 1.66683E-09-1.42004E-19-1.02963E-18
 -1        39 9.46555E-05-2.83973E-05-2.83956E-05-1.49354E-10-2.76399E-20-1.62240E-18
 -1        40 9.48984E-05-2.84709E-05-2.84696E-05-1.33438E-09 9.09158E-20-2.35311E-18
 -1        41 9.51621E-05-2.85511E-05-2.85501E-05-1.86674E-09 1.68320E-19-3.25397E-18
 -1        42 9.54787E-05-2.86473E-05-2.86467E-05-1.64528E-09-1.69567E-19-2.76393E-18
 -1        43 9.58863E-05-2.87710E-05-2.87710E-05-4.66217E-10-1.96149E-19-2.27743E-18
 -1        44 9.64316E-05-2.89362E-05-2.89372E-05 2.01171E-09 6.09539E-21-1.65160E-18
 -1        45 9.71718E-05-2.91601E-05-2.91627E-05 6.31875E-09-2.88132E-20-2.16285E-18
 -1        46 9.81773E-05-2.94637E-05-2.94688E-05 1.32461E-08 8.11927E-20-3.76188E-18
 -1        47 9.95336E-05-2.98724E-05-2.98815E-05 2.39366E-08-5.21912E-20-3.61978E-18
 -1        48 1.01342E-04-3.04163E-05-3.04312E-05 3.99727E-08 3.26178E-19-3.00086E-18
 -1        49 1.03716E-04-3.11288E-05-3.11519E-05 6.33882E-08 4.71817E-19-1.70629E-18
 -1        50 1.06769E-04-3.20431E-05-3.20766E-05 9.64026E-08-3.34351E-19-1.76890E-18
 -1        51 1.10586E-04-3.31835E-05-3.32274E-05 1.40416E-07-1.77463E-19-1.35194E-18
 -1        52 1.15163E-04-3.45477E-05-3.45951E-05 1.93335E-07 1.66902E-19 3.18034E-19
 -1        53 1.20293E-04-3.60739E-05-3.61033E-05 2.43757E-07-4.60205E-19 1.29984E-18
 -1        54 1.25391E-04-3.75908E-05-3.75565E-05 2.61022E-07-3.25001E-19-1.57970E-18
 -1        55 1.29293E-04-3.87568E-05-3.85904E-05 1.84594E-07-1.39023E-19-5.01302E-18
 -1        56 1.30169E-04-3.90318E-05-3.86781E-05-6.99666E-08 1.47784E-19-5.92281E-18
 -1        57 1.25918E-04-3.77840E-05-3.72946E-05-5.50204E-07 1.67296E-19-6.87132E-18
 -1        58 1.15463E-04-3.46656E-05-3.42913E-05-1.13043E-06 2.79774E-19-4.13860E-18
 -1        59 1.00728E-04-3.02183E-05-3.03404E-05-1.41056E-06-1.77101E-19-3.23154E-18
 -1        60 8.74738E-05-2.61790E-05-2.69483E-05-9.57685E-07-1.09823E-19-2.74100E-18
 -1        61 8.25136E-05-2.46636E-05-2.56800E-05 1.26551E-07 7.68431E-19-3.58035E-18
 -1        62 8.83637E-05-2.64617E-05-2.70841E-05 1.10157E-06-2.12231E-19-6.40823E-18
 -1        63 1.00974E-04-3.03028E-05-3.02702E-05 1.34939E-06-9.27383E-19-1.10467E-17
 -1        64 1.13310E-04-3.40180E-05-3.35760E-05 9.43682E-07-1.27296E-19-1.34265E-17
 -1        65 1.20441E-04-3.61355E-05-3.56528E-05 3.52549E-07-5.07078E-19-1.00944E-17
 -1        66 1.21317E-04-3.63768E-05-3.60523E-05-9.18534E-08 4.16707E-19-7.42908E-18
 -1        67 1.17447E-04-3.52136E-05-3.50655E-05-3.18296E-07 3.69326E-19-4.60474E-18
 -1        68 1.11065E-04-3.33120E-05-3.32927E-05-3.85536E-07-4.51761E-20-6.47332E-19
 -1        69 1.04169E-04-3.12582E-05-3.13352E-05-3.54078E-07 7.67475E-19-2.74702E-18
 -1        70 9.84117E-05-2.95258E-05-2.96941E-05-2.03267E-07-4.17205E-19 5.21852E-20
 -1        71 9.52155E-05-2.84873E-05-2.86932E-05 5.79441E-08-1.06756E-18-2.24806E-18
 -1        72 1.02179E-04-3.05876E-05-3.41503E-05-1.92891E-06 2.99188E-19 2.20779E-17
 -1        73 9.25631E-05-2.75137E-05-2.89081E-05-3.33214E-07 1.68725E-19 1.69224E-17
 -1        74 8.91093E-05-2.67023E-05-2.69732E-05-1.25924E-07 9.23746E-20 1.32332E-17
 -1        75 8.80483E-05-2.64400E-05-2.64365E-05-9.55851E-08 1.03788E-19 1.05458E-17
 -1        76 8.80790E-05-2.64473E-05-2.64111E-05-7.65812E-08 9.19564E-20 8.31555E-18
 -1        77 8.86110E-05-2.65979E-05-2.65708E-05-6.24991E-08 1.16635E-19 6.92220E-18
 -1        78 8.93617E-05-2.68170E-05-2.67982E-05-5.16851E-08-6.85314E-20 6.02537E-18
 -1        79 9.01808E-05-2.70593E-05-2.70447E-05-4.27509E-08-6.23147E-20 5.49729E-18
 -1        80 9.09840E-05-2.72984E-05-2.72860E-05-3.50344E-08 5.61494E-20 4.61222E-18
 -1        81 9.17250E-05-2.75196E-05-2.75087E-05-2.82710E-08 6.19782E-20 3.62830E-18
 -1        82 9.23812E-05-2.77157E-05-2.77063E-05-2.23395E-08 1.20965E-20 3.20084E-18
 -1        83 9.29451E-05-2.78845E-05-2.78764E-05-1.71598E-08 2.49207E-19 2.46794E-18
 -1        84 9.34196E-05-2.80266E-05-2.80198E-05-1.26584E-08 3.70687E-20 1.12336E-18
 -1        85 9.38141E-05-2.81449E-05-2.81393E-05-8.75848E-09 2.95584E-20 5.78358E-19
 -1        86 9.41428E-05-2.82435E-05-2.82391E-05-5.38345E-09-2.03867E-20 1.22887E-19
 -1        87 9.44229E-05-2.83277E-05-2.83244E-05-2.46406E-09-3.77820E-20-7.11334E-19
 -1        88 9.46746E-05-2.84034E-05-2.84013E-05 5.06228E-11-1.09247E-19-1.86581E-18
 -1        89 9.49208E-05-2.84775E-05-2.84765E-05 2.18020E-09 1.99874E-19-3.11235E-18
 -1        90 9.51869E-05-2.85576E-05-2.85580E-05 3.89737E-09 1.67554E-20-4.75692E-18
 -1        91 9.55020E-05-2.86525E-05-2.86544E-05 5.10916E-09-6.12587E-19-3.06341E-18
 -1        92 9.58984E-05-2.87716E-05-2.87754E-05 5.63469E-09 6.94670E-20-1.30670E-18
 -1        93 9.64121E-05-2.89258E-05-2.89319E-05 5.18002E-09-1.34513E-19-2.00692E-18
 -1        94 9.70815E-05-2.91266E-05-2.91354E-05 3.31327E-09 2.44539E-20-3.42341E-18
 -1        95 9.79455E-05-2.93853E-05-2.93973E-05-5.50980E-10 2.79599E-19-4.30974E-18
 -1        96 9.90387E-05-2.97122E-05-2.97275E-05-7.13813E-09 1.59403E-19-3.47426E-18
 -1        97 1.00383E-04-3.01139E-05-3.01321E-05-1.72311E-08 9.81953E-20-2.72493E-18
 -1        98 1.01977E-04-3.05894E-05-3.06089E-05-3.14477E-08-1.32943E-19-2.22838E-18
 -1        99 1.03772E-04-3.11247E-05-3.11420E-05-4.97666E-08 1.36043E-19-4.15082E-18
 -1       100 1.05651E-04-3.16852E-05-3.16938E-05-7.06693E-08-3.51098E-19-4.37455E-18
 -1       101 1.07401E-04-3.22076E-05-3.21970E-05-8.98340E-08 3.75108E-19-3.40507E-18
 -1       102 1.08682E-04-3.25924E-05-3.25492E-05-9.86496E-08 1.65208E-19-3.92111E-18
 -1       103 1.09039E-04-3.27050E-05-3.26163E-05-8.36008E-08-8.34890E-20-3.03758E-18
 -1       104 1.07957E-04-3.23927E-05-3.22547E-05-2.88183E-08 3.80454E-19-1.07545E-18
 -1       105 1.05022E-04-3.15284E-05-3.13597E-05 7.51510E-08 4.53328E-20 7.67888E-20
 -1       106 1.00168E-04-3.00858E-05-2.99365E-05 2.16581E-07-2.62702E-19-7.50815E-19
 -1       107 9.39528E-05-2.82214E-05-2.81642E-05 3.50479E-07-1.58029E-19-2.62170E-18
 -1       108 8.76453E-05-2.63098E-05-2.64042E-05 4.07096E-07-4.15269E-20-3.24796E-18
 -1       109 8.29314E-05-2.48633E-05-2.51064E-05 3.31608E-07 2.54479E-19-3.06108E-18
 -1       110 8.12160E-05-2.43217E-05-2.46298E-05 1.33205E-07-2.78449E-19-3.67770E-18
 -1       111 8.28931E-05-2.48188E-05-2.50705E-05-1.05364E-07 2.11061E-19-4.12304E-18
 -1       112 8.71150E-05-2.61009E-05-2.62090E-05-2.82217E-07-4.21301E-19-3.29158E-18
 -1       113 9.22500E-05-2.76664E-05-2.76198E-05-3.40044E-07 1.94570E-19-4.69305E-18
 -1       114 9.66694E-05-2.90128E-05-2.88652E-05-2.87858E-07-4.54592E-19-7.39008E-18
 -1       115 9.93575E-05-2.98296E-05-2.96537E-05-1.75288E-07 1.87882E-19-6.01577E-18
 -1       116 1.00081E-04-3.00480E-05-2.99014E-05-5.29928E-08 3.55026E-19-4.01375E-18
 -1       117 9.92262E-05-2.97867E-05-2.97037E-05 4.59238E-08 1.64234E-19-3.76222E-18
 -1       118 9.75371E-05-2.92695E-05-2.92663E-05 1.02039E-07 3.49977E-19-4.68846E-18
 -1       119 9.58968E-05-2.87643E-05-2.88277E-05 9.31884E-08-2.20963E-19-8.65264E-18
 -1       120 9.51057E-05-2.84931E-05-2.85526E-05-2.81289E-08 1.72165E-18-7.73498E-18
 -1       121 9.52547E-05-2.86350E-05-2.85655E-05-8.26798E-08-7.64127E-18 8.77677E-19
 -1       122 9.49911E-05-2.78091E-05-2.88766E-05 9.36700E-09 1.00034E-18 4.89645E-19
 -1       123 9.43487E-05-2.56695E-05-2.95241E-05 8.09427E-08 8.36378E-18 2.08480E-19
 -1       124 9.33295E-05-2.22626E-05-3.05421E-05 1.50958E-07 4.68561E-18-9.33720E-19
 -1       125 9.19674E-05-1.76897E-05-3.18964E-05 2.23784E-07-2.88952E-18-1.88083E-18
 -1       126 9.03865E-05-1.23748E-05-3.34518E-05 2.75736E-07-9.57336E-18-5.06666E-19
 -1       127 8.87335E-05-6.81643E-06-3.50578E-05 2.86251E-07-1.66441E-17-9.10412E-20
 -1       128 8.73215E-05-2.06677E-06-3.64132E-05 2.29688E-07-1.64823E-17 1.00145E-18
 -1       129 8.64607E-05 8.28820E-07-3.72280E-05 1.06221E-07-1.02526E-17 8.45741E-19
 -1       130 8.63848E-05 1.08646E-06-3.72880E-05-5.75624E-08-7.90447E-18-1.23872E-18
 -1       131 8.71591E-05-1.52204E-06-3.65320E-05-2.21675E-07-8.50806E-18 4.72724E-19
 -1       132 8.86323E-05-6.47302E-06-3.51073E-05-3.30462E-07-9.55071E-18 1.76770E-19
 -1       133 9.05684E-05-1.29824E-05-3.32374E-05-3.80136E-07-1.19984E-17-1.11426E-18
 -1       134 9.25759E-05-1.97521E-05-3.13048E-05-3.75626E-07-6.13000E-18 1.62626E-18
 -1       135 9.42410E-05-2.52956E-05-2.97004E-05-3.15738E-07-5.35265E-19 2.46619E-19
 -1       136 9.50698E-05-2.82416E-05-2.87049E-05 1.78855E-07 6.78207E-19 6.48567E-19
 -1       137 2.87814E-05-9.65633E-05 1.75054E-05-2.44238E-05 1.63549E-17 3.21200E-18
 -1       138 9.97283E-06-4.27273E-05 5.45419E-06-2.16264E-05 1.76729E-17 7.89964E-18
 -1       139 8.71499E-06 9.05013E-06-1.18758E-05 1.54546E-05 2.01653E-17 1.42937E-17
 -1       140 5.04567E-05 2.80165E-05-3.27143E-05 7.19395E-05 1.74849E-17 1.76712E-17
 -1       141 1.35712E-04 3.17588E-06-5.34606E-05 1.12785E-04 9.46771E-18 1.43225E-17
 -1       142 2.32950E-04-4.74938E-05-6.94248E-05 1.05426E-04 3.87232E-18 8.19928E-18
 -1       143 2.99799E-04-8.82233E-05-7.84108E-05 5.00874E-05 9.39412E-20 6.32310E-19
 -1       144 3.07165E-04-9.30985E-05-7.93209E-05-3.05384E-05 6.95123E-19-7.88503E-18
 -1       145 2.49735E-04-5.80166E-05-7.17282E-05-9.47545E-05 5.53536E-18-1.81252E-17
 -1       146 1.51053E-04-4.79588E-06-5.61778E-05-1.13059E-04 1.31025E-17-2.31312E-17
 -1       147 5.96609E-05 2.67096E-05-3.55624E-05-7.88795E-05 2.11186E-17-2.37186E-17
 -1       148 1.34671E-05 1.43882E-05-1.53876E-05-2.55828E-05 2.10678E-17-1.62893E-17
 -1       149 8.11358E-06-3.52306E-05 3.73314E-06 1.83329E-05 1.57650E-17-7.56273E-18
 -1       150 2.61222E-05-8.80159E-05 1.57664E-05 2.43910E-05 1.05799E-17-2.46783E-18
 -1       151 3.76343E-05-1.14510E-04 2.09570E-05 2.94905E-06 1.43784E-19-1.13455E-18
 -1       152 3.11418E-05-1.01662E-04 1.86550E-05-2.25597E-05-1.45613E-17-2.66328E-18
 -1       153 5.24077E-06-2.01132E-06-7.29327E-06 2.15694E-06-1.79969E-17-1.13356E-17
 -1       154 3.87768E-05 2.55050E-05-2.83975E-05 5.88813E-05-1.15768E-17-9.92341E-18
 -1       155 1.19901E-04 7.36910E-06-4.98906E-05 1.05966E-04-6.86520E-18-1.23146E-17
 -1       156 2.25670E-04-4.38499E-05-6.81679E-05 1.07748E-04-2.82771E-18-5.48327E-18
 -1       157 3.04886E-04-8.95311E-05-7.92608E-05 5.23061E-05 3.76276E-19 2.43035E-18
 -1       158 3.15258E-04-9.45730E-05-8.10128E-05-3.56586E-05-2.55619E-18 1.34006E-17
 -1       159 2.50949E-04-5.59053E-05-7.23958E-05-1.01627E-04-7.15965E-18 2.36064E-17
 -1       160 1.45626E-04-6.76651E-07-5.56431E-05-1.15653E-04-1.28353E-17 2.34387E-17
 -1       161 5.47256E-05 2.82061E-05-3.46333E-05-7.62436E-05-1.62423E-17 1.82044E-17
 -1       162 8.93943E-06 9.34554E-06-1.23978E-05-1.58423E-05-1.20249E-17 7.79863E-18
 -1       163 9.68483E-06-4.41441E-05 5.79369E-06 2.38061E-05-1.00212E-17 5.47734E-18
 -1       164 2.94370E-05-9.85530E-05 1.78268E-05 2.59498E-05-2.38461E-18-4.73333E-19
 -1       165 9.48679E-05-1.23464E-05-3.55693E-05-2.23519E-05-3.20087E-18 2.89137E-18
 -1       166 8.92496E-05-8.45803E-06-3.47870E-05-1.73921E-05-3.15251E-18-9.28957E-19
 -1       167 8.65376E-05-6.49801E-06-3.44149E-05-1.35906E-05-2.79834E-18-3.07722E-18
 -1       168 8.51951E-05-5.51832E-06-3.42315E-05-1.03694E-05-2.13071E-18-4.17323E-18
 -1       169 8.44473E-05-4.94377E-06-3.41422E-05-7.54817E-06-1.55721E-18-4.73024E-18
 -1       170 8.40215E-05-4.60015E-06-3.40995E-05-4.90515E-06-1.00361E-18-4.94401E-18
 -1       171 8.38039E-05-4.41625E-06-3.40814E-05-2.39590E-06-4.26243E-19-5.03058E-18
 -1       172 8.37397E-05-4.36054E-06-3.40767E-05 5.11851E-08 1.17421E-19-4.98045E-18
 -1       173 8.38138E-05-4.42462E-06-3.40822E-05 2.50029E-06 6.36454E-19-4.88960E-18
 -1       174 8.40436E-05-4.61957E-06-3.41008E-05 5.01587E-06 1.12062E-18-4.72895E-18
 -1       175 8.44759E-05-4.97240E-06-3.41426E-05 7.62560E-06 1.66405E-18-4.28221E-18
 -1       176 8.52512E-05-5.57459E-06-3.42321E-05 1.05150E-05 2.40126E-18-3.63487E-18
 -1       177 8.66467E-05-6.60849E-06-3.44183E-05 1.37860E-05 3.01548E-18-2.45768E-18
 -1       178 8.93913E-05-8.59987E-06-3.47919E-05 1.76254E-05 3.41034E-18-1.78909E-19
 -1       179 9.57792E-05-1.36135E-05-3.54254E-05 2.18959E-05 3.23142E-18 4.10435E-18
 -1       180 1.05605E-04-2.61020E-05-3.52630E-05 1.86646E-05 2.38755E-18 9.82892E-18
 -1       181 1.03398E-04-2.73011E-05-3.26108E-05-1.21278E-05-2.73780E-18 7.11373E-18
 -1       182 9.71089E-05-2.82905E-05-2.95289E-05-4.73181E-06-2.48022E-18 5.67391E-18
 -1       183 9.35069E-05-2.76369E-05-2.81820E-05-1.77072E-06-1.90483E-18 4.22476E-18
 -1       184 9.19703E-05-2.74051E-05-2.76354E-05-4.23079E-07-1.32035E-18 2.95089E-18
 -1       185 9.13932E-05-2.73299E-05-2.74375E-05 2.40979E-07-1.10539E-18 1.94374E-18
 -1       186 9.13499E-05-2.73684E-05-2.74120E-05 5.66201E-07-9.74462E-19 1.56856E-18
 -1       187 9.15916E-05-2.74705E-05-2.74765E-05 7.04211E-07-6.93947E-19 1.31128E-18
 -1       188 9.19731E-05-2.76021E-05-2.75858E-05 7.34375E-07-5.82312E-19 1.11036E-18
 -1       189 9.24077E-05-2.77417E-05-2.77134E-05 7.02796E-07-4.41230E-19 8.96403E-19
 -1       190 9.28440E-05-2.78767E-05-2.78432E-05 6.38244E-07-3.58792E-19 4.88643E-19
 -1       191 9.32535E-05-2.80002E-05-2.79661E-05 5.59396E-07-5.75633E-19-2.64784E-19
 -1       192 9.36223E-05-2.81093E-05-2.80775E-05 4.78620E-07-3.19971E-19-6.18274E-19
 -1       193 9.39467E-05-2.82036E-05-2.81761E-05 4.04231E-07 8.95467E-20-4.73294E-19
 -1       194 9.42301E-05-2.82845E-05-2.82628E-05 3.41977E-07-4.59492E-19-4.45979E-19
 -1       195 9.44807E-05-2.83547E-05-2.83399E-05 2.96118E-07-5.24329E-19-4.37323E-19
 -1       196 9.47108E-05-2.84180E-05-2.84112E-05 2.70240E-07-2.95036E-19-7.86275E-19
 -1       197 9.49359E-05-2.84788E-05-2.84813E-05 2.67913E-07-4.62311E-19-1.16032E-18
 -1       198 9.51750E-05-2.85428E-05-2.85559E-05 2.93229E-07-3.20882E-19-1.73977E-18
 -1       199 9.54506E-05-2.86162E-05-2.86421E-05 3.51284E-07-1.83372E-19-1.69862E-18
 -1       200 9.57898E-05-2.87068E-05-2.87481E-05 4.48583E-07-3.43545E-20-2.13115E-18
 -1       201 9.62249E-05-2.88236E-05-2.88839E-05 5.93404E-07 1.46463E-19-1.95849E-18
 -1       202 9.67945E-05-2.89777E-05-2.90612E-05 7.96046E-07-3.75730E-19-1.95536E-18
 -1       203 9.75445E-05-2.91821E-05-2.92942E-05 1.06883E-06-4.67833E-19-1.70025E-18
 -1       204 9.85288E-05-2.94527E-05-2.95992E-05 1.42557E-06 4.96532E-20-2.16070E-18
 -1       205 9.98088E-05-2.98080E-05-2.99947E-05 1.87989E-06 1.57949E-19-1.91634E-18
 -1       206 1.01451E-04-3.02695E-05-3.05002E-05 2.44124E-06 5.29755E-19-1.58556E-18
 -1       207 1.03521E-04-3.08614E-05-3.11338E-05 3.10654E-06 3.17867E-19-2.20140E-18
 -1       208 1.06068E-04-3.16096E-05-3.19065E-05 3.84413E-06 5.70975E-19-1.23070E-18
 -1       209 1.09104E-04-3.25381E-05-3.28133E-05 4.56575E-06 1.10531E-18 2.52295E-19
 -1       210 1.12558E-04-3.36628E-05-3.38176E-05 5.08348E-06-1.25769E-19 3.42888E-19
 -1       211 1.16215E-04-3.49734E-05-3.48313E-05 5.05833E-06-1.47847E-18 7.86672E-19
 -1       212 1.19639E-04-3.63932E-05-3.56967E-05 3.97765E-06-1.95008E-18 7.68299E-19
 -1       213 1.22096E-04-3.76956E-05-3.61926E-05 1.26111E-06-6.17533E-19-7.62230E-20
 -1       214 1.22576E-04-3.83854E-05-3.60945E-05-3.33938E-06 1.43612E-19 3.26669E-19
 -1       215 1.20060E-04-3.76749E-05-3.53120E-05-8.96558E-06 1.19090E-18 9.65485E-21
 -1       216 1.14292E-04-3.49137E-05-3.40287E-05-1.29890E-05 3.17409E-19-9.25688E-19
 -1       217 1.06930E-04-3.07006E-05-3.27071E-05-1.18918E-05-2.28011E-19-1.81896E-18
 -1       218 1.01694E-04-2.75153E-05-3.18611E-05-4.55073E-06-1.33432E-18-2.66709E-18
 -1       219 1.01792E-04-2.78171E-05-3.17719E-05 5.13564E-06-2.06568E-18-5.35098E-18
 -1       220 1.06669E-04-3.11640E-05-3.23909E-05 1.10603E-05-2.54773E-18-6.61604E-18
 -1       221 1.12640E-04-3.48027E-05-3.33650E-05 1.05822E-05-1.08358E-18-6.69611E-18
 -1       222 1.16366E-04-3.66618E-05-3.41647E-05 5.76633E-06 3.09474E-18-5.26922E-18
 -1       223 1.16741E-04-3.65569E-05-3.43808E-05 1.28656E-07 1.51291E-18-2.35298E-18
 -1       224 1.14315E-04-3.52338E-05-3.39112E-05-4.10410E-06 2.51814E-18-1.25596E-18
 -1       225 1.10210E-04-3.34198E-05-3.29234E-05-6.32218E-06 1.79353E-18-9.44548E-19
 -1       226 1.05508E-04-3.15462E-05-3.17021E-05-6.73759E-06-6.13101E-19-5.34786E-19
 -1       227 1.01075E-04-2.98166E-05-3.05363E-05-5.69196E-06 1.48493E-18-7.06573E-19
 -1       228 9.74485E-05-2.83374E-05-2.96166E-05-3.43358E-06-5.76998E-19 2.78102E-20
 -1       229 9.95015E-05-2.85547E-05-3.05874E-05 7.21238E-06 2.48653E-18 8.52450E-18
 -1       230 9.44166E-05-2.77908E-05-2.85245E-05 2.74479E-06 1.87910E-18 6.55558E-18
 -1       231 9.20960E-05-2.74009E-05-2.76814E-05 9.30942E-07 1.43792E-18 4.94844E-18
 -1       232 9.11466E-05-2.72381E-05-2.73624E-05 6.90700E-08 1.16849E-18 3.98219E-18
 -1       233 9.09340E-05-2.72308E-05-2.72879E-05-3.58522E-07 7.02756E-19 3.34813E-18
 -1       234 9.11163E-05-2.73163E-05-2.73361E-05-5.58899E-07 3.43365E-19 2.91284E-18
 -1       235 9.14983E-05-2.74489E-05-2.74462E-05-6.31466E-07 4.49665E-19 2.54733E-18
 -1       236 9.19652E-05-2.75992E-05-2.75835E-05-6.30332E-07 6.05210E-19 2.02375E-18
 -1       237 9.24492E-05-2.77498E-05-2.77273E-05-5.87944E-07 4.09552E-19 1.54371E-18
 -1       238 9.29114E-05-2.78905E-05-2.78656E-05-5.24891E-07 3.51080E-19 1.50484E-18
 -1       239 9.33318E-05-2.80166E-05-2.79921E-05-4.54644E-07 7.23935E-19 1.27552E-18
 -1       240 9.37027E-05-2.81263E-05-2.81042E-05-3.86155E-07 5.44650E-19 9.78351E-19
 -1       241 9.40248E-05-2.82205E-05-2.82019E-05-3.25461E-07 6.12762E-19 5.41544E-19
 -1       242 9.43048E-05-2.83014E-05-2.82873E-05-2.76771E-07 3.79146E-19-2.30803E-19
 -1       243 9.45537E-05-2.83723E-05-2.83635E-05-2.43243E-07 4.71771E-19-6.19570E-19
 -1       244 9.47857E-05-2.84377E-05-2.84348E-05-2.27539E-07 5.07874E-19-1.68871E-18
 -1       245 9.50178E-05-2.85025E-05-2.85063E-05-2.32226E-07 7.10710E-19-1.88395E-18
 -1       246 9.52699E-05-2.85727E-05-2.85841E-05-2.60010E-07 4.04641E-19-1.28275E-18
 -1       247 9.55642E-05-2.86549E-05-2.86749E-05-3.13804E-07-1.23501E-18-1.69370E-18
 -1       248 9.59259E-05-2.87565E-05-2.87861E-05-3.96580E-07-6.36517E-19-2.02632E-18
 -1       249 9.63822E-05-2.88860E-05-2.89261E-05-5.10930E-07 2.89931E-19-1.04835E-18
 -1       250 9.69615E-05-2.90520E-05-2.91031E-05-6.58218E-07 8.51964E-19-2.12388E-18
 -1       251 9.76915E-05-2.92638E-05-2.93253E-05-8.37158E-07 5.16479E-19-2.70826E-18
 -1       252 9.85953E-05-2.95295E-05-2.95990E-05-1.04160E-06-6.73390E-19-2.27063E-18
 -1       253 9.96860E-05-2.98554E-05-2.99272E-05-1.25735E-06-5.19503E-19-1.42887E-18
 -1       254 1.00957E-04-3.02429E-05-3.03067E-05-1.45784E-06-1.09382E-20-1.76266E-18
 -1       255 1.02371E-04-3.06855E-05-3.07240E-05-1.59920E-06 9.54114E-19-2.00729E-18
 -1       256 1.03843E-04-3.11635E-05-3.11510E-05-1.61579E-06 1.88609E-19-2.92509E-18
 -1       257 1.05225E-04-3.16380E-05-3.15402E-05-1.41969E-06-5.41344E-19-3.09918E-18
 -1       258 1.06292E-04-3.20438E-05-3.18234E-05-9.10306E-07-7.80238E-20-1.91324E-18
 -1       259 1.06751E-04-3.22849E-05-3.19150E-05-3.31785E-09-1.25308E-18-1.24708E-18
 -1       260 1.06274E-04-3.22375E-05-3.17279E-05 1.31261E-06 4.98294E-21-1.36719E-18
 -1       261 1.04594E-04-3.17732E-05-3.12033E-05 2.89523E-06-5.43765E-19-1.07564E-18
 -1       262 1.01647E-04-3.08135E-05-3.03506E-05 4.38185E-06-1.39018E-19 3.43842E-20
 -1       263 9.77442E-05-2.94161E-05-2.92808E-05 5.21763E-06 8.80132E-19-4.86382E-20
 -1       264 9.36494E-05-2.78492E-05-2.82056E-05 4.86054E-06 4.13446E-19-7.28921E-19
 -1       265 9.04303E-05-2.65666E-05-2.73829E-05 3.13246E-06-1.65062E-19-1.88025E-18
 -1       266 8.90355E-05-2.60181E-05-2.70209E-05 4.82669E-07 4.90925E-19-1.99209E-18
 -1       267 8.98003E-05-2.63808E-05-2.71864E-05-2.13237E-06 2.33463E-19-1.59718E-18
 -1       268 9.22394E-05-2.74313E-05-2.77714E-05-3.77317E-06-2.15969E-19-1.60604E-18
 -1       269 9.53278E-05-2.86997E-05-2.85441E-05-4.01765E-06 1.55538E-18-3.17773E-18
 -1       270 9.80079E-05-2.97305E-05-2.92503E-05-3.07779E-06-4.28159E-19-3.27093E-18
 -1       271 9.96048E-05-3.02766E-05-2.97046E-05-1.53977E-06-6.39626E-20-2.40561E-18
 -1       272 9.99428E-05-3.03153E-05-2.98381E-05-9.64654E-09-4.90014E-19-2.93710E-18
 -1       273 9.92442E-05-2.99669E-05-2.96925E-05 1.08799E-06-3.41231E-19-1.40166E-18
 -1       274 9.79570E-05-2.94103E-05-2.93836E-05 1.53594E-06 6.25010E-19 8.92131E-20
 -1       275 9.65930E-05-2.88290E-05-2.90483E-05 1.28385E-06 1.66548E-18-1.19944E-18
 -1       276 9.55842E-05-2.84421E-05-2.87719E-05 5.08765E-07 1.22055E-19-1.74398E-18
 -1       277 9.53365E-05-2.77801E-05-2.89455E-05 1.07237E-06 1.40756E-19 6.31851E-18
 -1       278 9.49487E-05-2.64315E-05-2.93562E-05 2.24013E-06 1.23452E-18 2.99156E-18
 -1       279 9.43176E-05-2.43553E-05-2.99771E-05 3.47176E-06 1.55638E-18-5.54494E-19
 -1       280 9.34151E-05-2.15066E-05-3.08135E-05 4.61361E-06-2.48250E-19-3.99662E-18
 -1       281 9.22479E-05-1.80623E-05-3.17947E-05 5.40893E-06-2.51644E-18-4.64775E-18
 -1       282 9.08626E-05-1.42313E-05-3.28490E-05 5.54830E-06-3.65910E-18-4.77097E-18
 -1       283 8.94828E-05-1.06291E-05-3.38073E-05 4.72833E-06-4.17322E-18-1.58039E-19
 -1       284 8.84016E-05-7.94742E-06-3.44974E-05 2.88002E-06-4.20667E-18 3.24911E-18
 -1       285 8.79070E-05-6.81808E-06-3.47712E-05 2.63018E-07-5.06994E-18 5.15406E-19
 -1       286 8.81682E-05-7.58929E-06-3.45514E-05-2.57544E-06-3.46961E-18 7.14188E-19
 -1       287 8.91296E-05-1.01173E-05-3.38754E-05-4.94995E-06-1.70324E-18 1.08653E-19
 -1       288 9.06170E-05-1.40066E-05-3.28398E-05-6.42201E-06-1.02884E-18-1.75143E-18
 -1       289 9.23203E-05-1.84812E-05-3.16449E-05-6.67892E-06-4.44858E-20 4.61136E-18
 -1       290 9.40363E-05-2.27930E-05-3.05243E-05-5.58018E-06-1.73140E-19 2.50226E-18
 -1       291 9.56881E-05-2.58056E-05-2.99371E-05-5.15702E-06-8.22174E-19 5.81922E-20
 -1       292 1.34122E-05-5.13639E-05 1.29042E-05 8.30009E-06 5.16605E-18 5.34647E-18
 -1       293 2.69281E-05-4.70196E-05 5.81097E-06 2.27961E-05 6.70638E-18 4.35846E-18
 -1       294 5.08673E-05-4.00748E-05-6.57022E-06 3.41050E-05 8.07201E-18 6.38456E-18
 -1       295 8.84446E-05-3.53275E-05-2.32429E-05 4.46529E-05 6.30425E-18 3.99249E-18
 -1       296 1.34558E-04-3.72769E-05-4.09365E-05 4.20529E-05 5.64410E-18 2.47863E-18
 -1       297 1.70709E-04-3.24035E-05-5.70679E-05 3.97344E-05 5.65548E-18 3.13508E-18
 -1       298 1.98865E-04-3.36188E-05-6.77614E-05 2.47184E-05 4.83476E-18 2.52829E-18
 -1       299 2.10817E-04-3.47354E-05-7.20855E-05 3.64334E-06 4.91586E-18-1.03853E-18
 -1       300 1.99226E-04-3.23540E-05-6.87195E-05-1.64012E-05 5.89281E-18-3.83738E-18
 -1       301 1.74797E-04-3.25322E-05-5.89226E-05-3.31496E-05 7.20497E-18-7.24234E-18
 -1       302 1.38009E-04-3.50129E-05-4.32740E-05-4.11465E-05 8.09541E-18-7.74506E-18
 -1       303 9.33027E-05-3.34464E-05-2.59524E-05-4.47708E-05 7.20613E-18-9.94141E-18
 -1       304 6.15839E-05-4.14518E-05-9.68832E-06-4.03505E-05 5.21857E-18-8.27234E-18
 -1       305 2.66628E-05-4.44732E-05 4.82417E-06-2.21096E-05 6.18101E-18-6.07466E-18
 -1       306 1.39233E-05-5.08204E-05 1.23212E-05-9.44842E-06 1.23243E-18-6.36503E-18
 -1       307 1.16135E-05-4.99402E-05 1.31267E-05 2.66943E-06-1.24429E-18-6.80644E-18
 -1       308 2.14959E-05-4.86540E-05 8.39680E-06 1.41782E-05-5.29925E-18-3.07134E-18
 -1       309 4.26596E-05-4.17016E-05-2.85259E-06 2.71557E-05-5.10443E-18-3.40100E-18
 -1       310 7.83211E-05-3.57486E-05-1.93363E-05 3.92214E-05-6.19605E-18-2.30456E-18
 -1       311 1.25695E-04-3.61814E-05-3.78705E-05 4.26956E-05-3.76739E-18-4.12569E-18
 -1       312 1.69582E-04-3.53763E-05-5.53055E-05 3.97555E-05-4.60722E-18-2.18323E-19
 -1       313 2.04989E-04-3.80685E-05-6.80060E-05 2.43192E-05-4.02203E-18 7.90705E-19
 -1       314 2.06816E-04-3.17393E-05-7.20301E-05-8.55096E-08-6.18196E-18 4.37710E-18
 -1       315 2.00357E-04-3.25709E-05-6.91133E-05-1.69749E-05-7.69180E-18 6.94758E-18
 -1       316 1.79009E-04-3.49032E-05-5.92931E-05-3.77246E-05-6.25831E-18 1.29096E-17
 -1       317 1.35992E-04-3.27200E-05-4.31574E-05-4.79818E-05-5.65003E-18 1.12454E-17
 -1       318 9.23025E-05-3.67383E-05-2.43665E-05-4.40064E-05-3.93235E-18 9.78895E-18
 -1       319 5.13340E-05-4.07495E-05-6.65730E-06-3.29645E-05-4.33215E-18 4.56853E-18
 -1       320 2.61120E-05-4.89422E-05 6.54558E-06-1.93228E-05-9.49736E-19 5.75554E-18
 -1       321 1.36957E-05-5.42248E-05 1.35921E-05-5.74229E-06 1.49687E-18 4.26619E-18
 -1       322 9.16508E-05-1.43977E-05-3.31714E-05-1.30659E-05-3.36862E-18-1.14502E-18
 -1       323 9.57001E-05-1.91006E-05-3.28915E-05-1.46332E-05-3.49654E-18 1.13256E-18
 -1       324 8.79993E-05-1.03723E-05-3.33240E-05-8.16468E-06-2.25248E-18-3.22597E-18
 -1       325 8.71926E-05-9.45724E-06-3.33636E-05-5.72103E-06-1.64649E-18-3.55105E-18
 -1       326 8.67332E-05-8.92680E-06-3.33905E-05-3.36812E-06-8.71454E-19-3.68079E-18
 -1       327 8.65284E-05-8.68694E-06-3.34041E-05-1.07285E-06-1.04815E-19-3.71025E-18
 -1       328 8.65369E-05-8.69636E-06-3.34038E-05 1.20391E-06 4.72731E-19-3.60212E-18
 -1       329 8.67602E-05-8.95699E-06-3.33894E-05 3.50117E-06 1.12381E-18-3.52762E-18
 -1       330 8.72313E-05-9.50052E-06-3.33619E-05 5.81662E-06 1.74846E-18-3.19913E-18
 -1       331 8.80694E-05-1.04515E-05-3.33202E-05 8.25628E-06 2.51777E-18-2.61450E-18
 -1       332 8.94831E-05-1.20338E-05-3.32592E-05 1.07656E-05 3.19481E-18-1.84439E-18
 -1       333 9.19019E-05-1.47223E-05-3.31581E-05 1.31710E-05 3.69431E-18-6.02247E-19
 -1       334 9.58046E-05-1.94573E-05-3.28281E-05 1.43776E-05 3.78406E-18 2.04633E-18
 -1       335 9.87917E-05-2.44444E-05-3.19513E-05 1.18996E-05 3.32782E-18 4.59891E-18
 -1       336 9.63903E-05-2.68125E-05-2.97896E-05 5.74287E-06 2.75531E-18 3.56026E-18
 -1       337 9.64374E-05-2.60292E-05-3.01305E-05-6.35237E-06-2.90623E-18 1.48566E-18
 -1       338 9.49166E-05-2.70269E-05-2.90703E-05-2.83842E-06-2.36864E-18 1.10143E-18
 -1       339 9.39396E-05-2.74240E-05-2.84919E-05-9.24964E-07-1.62841E-18 6.02288E-19
 -1       340 9.34202E-05-2.76376E-05-2.81857E-05 1.33781E-07-1.23305E-18 4.75084E-19
 -1       341 9.32270E-05-2.77907E-05-2.80413E-05 6.97398E-07-9.81232E-19 3.32140E-19
 -1       342 9.32428E-05-2.79199E-05-2.79946E-05 9.64379E-07-8.43355E-19 1.20587E-19
 -1       343 9.33808E-05-2.80340E-05-2.80057E-05 1.05196E-06-4.62862E-19 5.10928E-20
 -1       344 9.35820E-05-2.81343E-05-2.80494E-05 1.03338E-06-7.03805E-19-4.00223E-19
 -1       345 9.38079E-05-2.82206E-05-2.81095E-05 9.56245E-07-7.30763E-19-5.07672E-19
 -1       346 9.40353E-05-2.82930E-05-2.81760E-05 8.52326E-07-5.52666E-19-6.69495E-19
 -1       347 9.42516E-05-2.83525E-05-2.82432E-05 7.43147E-07-5.21064E-19-7.52332E-19
 -1       348 9.44521E-05-2.84004E-05-2.83084E-05 6.43590E-07 1.23034E-20-1.14220E-18
 -1       349 9.46372E-05-2.84388E-05-2.83712E-05 5.64348E-07-2.63316E-19-2.42753E-19
 -1       350 9.48118E-05-2.84699E-05-2.84325E-05 5.13716E-07-8.86131E-19-4.02816E-19
 -1       351 9.49839E-05-2.84962E-05-2.84947E-05 4.98961E-07-7.50212E-19-1.03574E-18
 -1       352 9.51643E-05-2.85204E-05-2.85614E-05 5.27402E-07-5.11127E-19-1.28263E-18
 -1       353 9.53663E-05-2.85456E-05-2.86368E-05 6.07295E-07 6.16359E-20-1.30334E-18
 -1       354 9.56061E-05-2.85751E-05-2.87265E-05 7.48543E-07-1.86884E-19-1.21421E-18
 -1       355 9.59028E-05-2.86129E-05-2.88370E-05 9.63267E-07 8.84592E-20-8.14762E-19
 -1       356 9.62784E-05-2.86636E-05-2.89757E-05 1.26616E-06 2.78385E-19-8.12442E-19
 -1       357 9.67586E-05-2.87327E-05-2.91511E-05 1.67453E-06-1.49312E-19-4.96218E-19
 -1       358 9.73723E-05-2.88277E-05-2.93726E-05 2.20760E-06-4.30504E-19-3.31445E-19
 -1       359 9.81517E-05-2.89584E-05-2.96497E-05 2.88467E-06-1.44734E-20-7.30098E-19
 -1       360 9.91321E-05-2.91398E-05-2.99913E-05 3.72077E-06 9.50451E-19-5.98502E-19
 -1       361 1.00351E-04-2.93960E-05-3.04035E-05 4.71807E-06 5.04885E-19-2.49975E-19
 -1       362 1.01851E-04-2.97676E-05-3.08867E-05 5.84992E-06 1.06538E-18 7.71878E-19
 -1       363 1.03676E-04-3.03242E-05-3.14317E-05 7.03340E-06 1.02628E-18 4.85610E-19
 -1       364 1.05882E-04-3.11810E-05-3.20139E-05 8.08616E-06 3.22680E-19-5.00600E-19
 -1       365 1.08543E-04-3.25110E-05-3.25910E-05 8.66751E-06-2.74837E-20 3.84665E-19
 -1       366 1.11736E-04-3.45214E-05-3.31078E-05 8.21956E-06-1.30502E-18 1.77115E-18
 -1       367 1.15475E-04-3.73198E-05-3.35213E-05 5.96780E-06-1.20582E-18 2.04540E-18
 -1       368 1.19478E-04-4.05568E-05-3.38578E-05 1.13573E-06-7.16008E-20 2.15746E-18
 -1       369 1.22772E-04-4.28797E-05-3.42768E-05-6.36534E-06 8.26092E-19 2.37888E-18
 -1       370 1.23419E-04-4.17175E-05-3.50734E-05-1.46344E-05-1.98522E-19 2.46554E-18
 -1       371 1.19865E-04-3.52294E-05-3.63686E-05-1.87310E-05-1.38612E-18 1.68978E-18
 -1       372 1.13915E-04-2.62600E-05-3.77052E-05-1.32956E-05-1.41883E-18 2.02072E-19
 -1       373 1.11150E-04-2.26020E-05-3.81262E-05 4.32402E-07-3.03394E-18-3.00413E-18
 -1       374 1.14354E-04-2.80388E-05-3.71359E-05 1.27284E-05-2.75942E-18-4.09386E-18
 -1       375 1.19322E-04-3.67927E-05-3.54553E-05 1.55119E-05-1.18611E-18-3.64067E-18
 -1       376 1.20989E-04-4.17465E-05-3.40100E-05 9.75016E-06 1.30665E-18-2.50214E-18
 -1       377 1.18685E-04-4.15779E-05-3.30882E-05 1.24745E-06 4.37977E-18-2.20983E-18
 -1       378 1.14270E-04-3.85793E-05-3.24741E-05-5.76579E-06 2.76340E-18-1.13014E-18
 -1       379 1.09445E-04-3.49949E-05-3.19305E-05-9.89163E-06 2.38666E-18-2.58651E-18
 -1       380 1.05000E-04-3.18330E-05-3.13654E-05-1.12971E-05-3.67690E-19-2.54091E-18
 -1       381 1.01154E-04-2.92205E-05-3.08216E-05-1.05545E-05 1.15527E-18-3.90566E-19
 -1       382 9.82940E-05-2.73768E-05-3.03759E-05-8.35204E-06 6.14076E-19-6.13594E-20
 -1       383 9.43698E-05-2.73411E-05-2.86884E-05 2.47076E-06 2.18723E-18 2.71164E-18
 -1       384 9.31625E-05-2.74607E-05-2.81361E-05 7.46129E-07 1.57712E-18 1.96561E-18
 -1       385 9.26073E-05-2.75380E-05-2.78770E-05-1.74480E-07 9.90294E-19 1.53852E-18
 -1       386 9.24640E-05-2.76302E-05-2.77818E-05-6.49540E-07 5.28490E-19 1.20879E-18
 -1       387 9.25648E-05-2.77389E-05-2.77809E-05-8.66835E-07 5.53608E-19 1.09490E-18
 -1       388 9.27982E-05-2.78544E-05-2.78327E-05-9.31460E-07 8.23994E-19 1.01088E-18
 -1       389 9.30930E-05-2.79677E-05-2.79111E-05-9.07021E-07 7.66567E-19 9.49679E-19
 -1       390 9.34046E-05-2.80727E-05-2.80000E-05-8.34033E-07 3.60704E-19 5.32056E-19
 -1       391 9.37070E-05-2.81660E-05-2.80898E-05-7.39148E-07 7.65858E-19 4.72285E-19
 -1       392 9.39870E-05-2.82466E-05-2.81752E-05-6.40233E-07 9.63196E-19 2.25178E-19
 -1       393 9.42400E-05-2.83151E-05-2.82542E-05-5.49460E-07 1.01755E-18-4.85714E-19
 -1       394 9.44676E-05-2.83730E-05-2.83268E-05-4.75358E-07 5.26880E-19-4.01914E-19
 -1       395 9.46760E-05-2.84229E-05-2.83945E-05-4.24253E-07 4.65717E-19-3.75127E-19
 -1       396 9.48748E-05-2.84679E-05-2.84601E-05-4.01303E-07 1.22935E-18-2.90058E-19
 -1       397 9.50763E-05-2.85117E-05-2.85275E-05-4.11210E-07 6.30293E-19-7.13754E-19
 -1       398 9.52953E-05-2.85586E-05-2.86009E-05-4.58654E-07 3.70726E-19-6.38454E-19
 -1       399 9.55489E-05-2.86135E-05-2.86857E-05-5.48426E-07-4.42106E-19-1.08431E-18
 -1       400 9.58563E-05-2.86823E-05-2.87876E-05-6.85200E-07-8.06418E-19-1.75386E-18
 -1       401 9.62385E-05-2.87719E-05-2.89127E-05-8.72847E-07-4.85824E-19-1.50612E-18
 -1       402 9.67173E-05-2.88900E-05-2.90669E-05-1.11310E-06 1.24865E-18-4.34456E-19
 -1       403 9.73146E-05-2.90460E-05-2.92558E-05-1.40338E-06 3.07518E-19-2.50447E-19
 -1       404 9.80496E-05-2.92502E-05-2.94832E-05-1.73340E-06-6.93793E-19-9.94778E-20
 -1       405 9.89355E-05-2.95140E-05-2.97501E-05-2.08051E-06-6.20455E-19 1.76026E-19
 -1       406 9.99743E-05-2.98490E-05-3.00525E-05-2.40347E-06 5.35204E-19-6.41750E-19
 -1       407 1.01149E-04-3.02651E-05-3.03792E-05-2.63539E-06 8.19342E-19 3.08157E-19
 -1       408 1.02416E-04-3.07664E-05-3.07094E-05-2.67776E-06 6.61099E-19 3.35451E-19
 -1       409 1.03691E-04-3.13436E-05-3.10112E-05-2.39992E-06-2.48811E-19 2.23969E-19
 -1       410 1.04837E-04-3.19597E-05-3.12415E-05-1.65250E-06-4.61190E-19 1.23287E-19
 -1       411 1.05657E-04-3.25296E-05-3.13517E-05-3.07423E-07-4.89276E-19-5.31427E-19
 -1       412 1.05897E-04-3.28988E-05-3.12979E-05 1.66336E-06-4.72957E-19-1.33266E-18
 -1       413 1.05283E-04-3.28405E-05-3.10579E-05 4.07257E-06-8.11261E-19 4.73850E-20
 -1       414 1.03617E-04-3.21149E-05-3.06498E-05 6.40950E-06-5.90986E-19 3.00698E-19
 -1       415 1.00952E-04-3.06238E-05-3.01400E-05 7.85392E-06 5.77246E-19 1.64782E-18
 -1       416 9.77687E-05-2.86165E-05-2.96295E-05 7.54803E-06 9.45269E-19 1.77123E-18
 -1       417 9.49816E-05-2.67652E-05-2.92229E-05 5.12184E-06 3.59036E-19 8.99977E-19
 -1       418 9.35778E-05-2.58850E-05-2.89936E-05 1.16504E-06 7.51729E-19-1.91978E-18
 -1       419 9.40271E-05-2.63916E-05-2.89700E-05-2.87970E-06-7.23728E-19-1.39172E-18
 -1       420 9.59263E-05-2.79459E-05-2.91225E-05-5.50500E-06 1.63980E-20-1.95316E-18
 -1       421 9.83047E-05-2.97553E-05-2.93735E-05-5.98947E-06 1.14049E-18-1.02134E-18
 -1       422 1.00193E-04-3.10737E-05-2.96267E-05-4.61838E-06-3.54228E-19 6.11200E-19
 -1       423 1.01066E-04-3.15823E-05-2.97891E-05-2.28592E-06-9.55013E-19-2.57622E-20
 -1       424 1.00874E-04-3.13471E-05-2.98094E-05 7.16096E-08-2.80255E-19 6.01307E-19
 -1       425 9.98720E-05-3.06164E-05-2.96906E-05 1.79839E-06-9.06698E-19 1.79724E-18
 -1       426 9.84187E-05-2.96453E-05-2.94788E-05 2.56840E-06-1.53839E-20 1.83824E-18
 -1       427 9.68969E-05-2.86858E-05-2.92332E-05 2.32631E-06 1.06010E-18 4.90679E-18
 -1       428 9.60477E-05-2.81518E-05-2.90936E-05 1.82712E-06 3.87381E-19 6.06171E-18
 -1       429 9.54514E-05-2.50929E-05-3.01447E-05 6.75349E-06-1.82178E-18-3.12334E-18
 -1       430 9.59929E-05-2.67095E-05-2.96844E-05 4.83578E-06-1.07320E-18 1.55977E-18
 -1       431 9.60377E-05-2.74829E-05-2.93724E-05 3.21942E-06-3.00854E-19 4.17404E-18
 -1       432 9.44476E-05-2.28798E-05-3.06666E-05 8.39519E-06-1.35023E-18-7.23672E-18
 -1       433 9.28600E-05-2.00273E-05-3.12155E-05 9.28349E-06-8.41571E-19-3.21646E-18
 -1       434 9.08443E-05-1.68658E-05-3.17146E-05 8.80882E-06 1.41787E-18-3.06194E-18
 -1       435 8.88190E-05-1.39683E-05-3.20954E-05 6.60823E-06-1.95184E-18 3.82179E-19
 -1       436 8.73711E-05-1.20449E-05-3.23036E-05 2.81658E-06-3.74498E-18 2.20393E-18
 -1       437 8.70104E-05-1.16717E-05-3.23098E-05-1.86195E-06-2.18799E-18 1.92598E-18
 -1       438 8.78783E-05-1.29787E-05-3.21186E-05-6.27164E-06-8.35141E-19 2.47568E-18
 -1       439 8.97503E-05-1.56853E-05-3.17544E-05-9.54002E-06 1.11722E-18 1.06527E-18
 -1       440 9.21275E-05-1.91454E-05-3.12798E-05-1.09664E-05 3.68798E-18 2.64847E-18
 -1       441 9.45519E-05-2.26929E-05-3.07834E-05-1.04827E-05 1.25767E-18 2.52286E-18
 -1       442 6.03382E-05-4.37245E-05-7.04834E-06 4.55368E-05 8.04999E-19 2.74275E-18
 -1       443 1.28267E-05-2.60423E-05 5.39925E-06-3.97626E-08 1.38733E-18 8.67902E-18
 -1       444 2.58159E-05-3.01524E-05 1.75000E-06 2.86864E-05 1.06356E-18 3.54843E-18
 -1       445 9.25623E-05-5.45725E-05-1.63969E-05 4.50967E-05 1.08950E-18 1.39149E-18
 -1       446 1.28976E-04-5.71948E-05-3.07777E-05 3.21197E-05 3.43122E-18-1.49925E-19
 -1       447 8.94242E-05-1.19266E-05-3.32758E-05-1.07621E-05-2.92780E-18-2.55910E-18
 -1       448 1.58922E-04-2.79839E-05-5.59936E-05 2.13731E-06 4.29202E-18 3.97788E-19
 -1       449 1.63513E-04-1.58952E-05-6.29433E-05 8.23469E-07 5.18003E-18 1.40803E-18
 -1       450 1.58578E-04-1.24987E-05-6.25059E-05 2.07018E-06 6.80591E-18 2.77668E-19
 -1       451 1.56286E-04-2.40339E-05-5.67492E-05 2.65629E-06 6.41066E-18-1.17918E-18
 -1       452 1.51391E-04-4.25620E-05-4.67245E-05-5.70278E-06 4.21354E-18-1.18659E-18
 -1       453 1.32653E-04-5.65263E-05-3.26973E-05-2.61314E-05 2.01239E-18-2.02981E-18
 -1       454 1.05478E-04-5.56439E-05-2.12940E-05-3.99790E-05 2.58557E-19-5.00676E-18
 -1       455 5.35850E-05-3.98792E-05-6.07325E-06-4.28216E-05 2.10361E-18-5.72975E-18
 -1       456 2.71885E-05-3.12768E-05 1.48735E-06-3.08428E-05 1.03380E-18-7.71679E-18
 -1       457 1.15853E-05-2.56887E-05 5.65860E-06-6.82134E-06 6.24488E-19-7.91351E-18
 -1       458 1.95001E-05-2.94379E-05 3.86850E-06 1.98360E-05 9.60694E-19-4.37588E-18
 -1       459 4.57349E-05-4.01545E-05-2.75920E-06 3.68197E-05 6.42051E-19-9.23160E-19
 -1       460 8.79702E-05-5.33312E-05-1.49391E-05 4.12253E-05 5.65606E-19 1.57681E-18
 -1       461 1.26204E-04-5.99371E-05-2.85035E-05 2.90463E-05-7.60636E-19 6.60686E-19
 -1       462 1.53250E-04-5.15857E-05-4.35570E-05 8.73364E-06-2.69636E-18 6.88214E-21
 -1       463 1.66043E-04-3.43895E-05-5.60616E-05-2.87509E-08-5.00062E-18-9.35124E-19
 -1       464 1.66471E-04-1.96763E-05-6.25929E-05-4.82473E-06-6.95308E-18 1.30951E-18
 -1       465 1.63541E-04-1.54413E-05-6.32843E-05-1.30636E-07-7.86354E-18 2.42852E-18
 -1       466 1.62631E-04-2.96098E-05-5.68928E-05 1.54283E-06-5.09130E-18 2.05691E-18
 -1       467 1.56764E-04-4.78218E-05-4.66399E-05-1.06043E-05-7.48698E-20 5.72552E-18
 -1       468 1.37044E-04-5.91076E-05-3.33812E-05-2.71938E-05 1.02999E-18 5.55421E-18
 -1       469 9.69026E-05-5.57555E-05-1.78029E-05-4.33214E-05 6.03193E-19 4.46063E-18
 -1       470 5.64647E-05-4.42454E-05-5.49282E-06-4.27416E-05 1.67575E-18 5.01465E-18
 -1       471 2.52826E-05-3.01533E-05 1.93584E-06-2.69426E-05 5.95041E-19 3.85019E-18
 -1       472 1.52296E-04-4.26103E-05-4.69401E-05 1.25801E-05 3.62710E-18-1.18796E-19
 -1       473 1.44510E-04-5.67326E-05-3.77885E-05 1.18580E-05 3.22668E-18 4.61845E-19
 -1       474 1.44514E-04-1.08932E-05-5.76690E-05-4.83825E-06-8.25190E-18-4.01864E-19
 -1       475 8.92437E-05-5.08792E-05-1.61661E-05-4.45400E-05-1.61418E-18-2.44973E-18
 -1       476 9.58192E-05-2.51486E-05-3.02732E-05 6.02022E-06 2.91203E-18 7.17643E-19
 -1       477 8.95428E-05-1.34038E-05-3.26499E-05-3.92532E-06-1.18640E-18-3.04929E-18
 -1       478 9.02511E-05-1.43683E-05-3.25415E-05-5.88118E-06-1.82777E-18-2.93624E-18
 -1       479 8.90461E-05-1.27241E-05-3.27272E-05 5.47499E-08 1.05758E-19-3.21069E-18
 -1       480 8.91810E-05-1.29074E-05-3.27067E-05 2.04664E-06 8.12032E-19-3.11960E-18
 -1       481 8.95750E-05-1.34444E-05-3.26465E-05 4.00008E-06 1.41326E-18-2.89912E-18
 -1       482 9.02977E-05-1.44305E-05-3.25356E-05 5.95414E-06 2.13967E-18-2.33294E-18
 -1       483 9.14454E-05-1.60092E-05-3.23529E-05 7.78271E-06 2.72465E-18-1.76768E-18
 -1       484 9.32320E-05-1.84790E-05-3.20572E-05 9.29805E-06 3.23256E-18-1.07222E-18
 -1       485 9.51111E-05-2.65777E-05-2.93535E-05 2.87725E-06 2.30818E-18 4.53496E-19
 -1       486 9.54790E-05-2.44348E-05-3.04377E-05-5.81932E-06-2.65475E-18-2.36112E-19
 -1       487 9.46295E-05-2.07703E-05-3.16747E-05-9.51879E-06-3.20288E-18-7.32220E-19
 -1       488 1.20992E-04-6.20603E-05-2.50849E-05 3.35531E-05 1.73695E-19-1.80312E-19
 -1       489 9.52683E-05-2.62186E-05-2.95844E-05-2.90043E-06-2.09364E-18-1.44923E-19
 -1       490 9.49129E-05-2.71537E-05-2.90352E-05-1.03989E-06-1.37999E-18-2.01347E-19
 -1       491 9.46391E-05-2.76878E-05-2.86914E-05 8.38552E-08-1.26967E-18-2.63974E-19
 -1       492 9.44840E-05-2.80158E-05-2.84856E-05 7.20010E-07-1.01651E-18-3.98469E-19
 -1       493 9.44295E-05-2.82278E-05-2.83719E-05 1.03939E-06-8.94871E-19-6.47209E-19
 -1       494 9.44458E-05-2.83683E-05-2.83190E-05 1.15752E-06-7.37266E-19-9.34874E-19
 -1       495 9.45063E-05-2.84609E-05-2.83054E-05 1.15307E-06-7.23978E-19-8.13761E-19
 -1       496 9.45910E-05-2.85199E-05-2.83164E-05 1.07998E-06-6.75088E-19-5.22220E-19
 -1       497 9.46864E-05-2.85542E-05-2.83427E-05 9.75585E-07-4.67236E-19-4.84011E-19
 -1       498 9.47849E-05-2.85702E-05-2.83780E-05 8.65948E-07-6.24070E-19-2.11307E-19
 -1       499 9.48826E-05-2.85722E-05-2.84190E-05 7.69632E-07 9.41047E-20-9.87012E-19
 -1       500 9.49792E-05-2.85630E-05-2.84642E-05 7.00461E-07-7.11424E-19-1.06481E-18
 -1       501 9.50766E-05-2.85448E-05-2.85137E-05 6.69592E-07-1.15115E-18-4.43524E-19
 -1       502 9.51789E-05-2.85184E-05-2.85687E-05 6.87120E-07-9.19532E-19-3.24069E-19
 -1       503 9.52914E-05-2.84844E-05-2.86314E-05 7.63324E-07-3.24241E-19-5.35724E-19
 -1       504 9.54209E-05-2.84424E-05-2.87047E-05 9.09641E-07 2.55129E-19-3.02331E-19
 -1       505 9.55752E-05-2.83918E-05-2.87923E-05 1.13939E-06 2.59381E-19-1.11388E-20
 -1       506 9.57628E-05-2.83317E-05-2.88982E-05 1.46825E-06 3.18128E-19-1.28958E-20
 -1       507 9.59930E-05-2.82612E-05-2.90267E-05 1.91432E-06-1.74029E-19-9.81707E-20
 -1       508 9.62754E-05-2.81802E-05-2.91821E-05 2.49772E-06-2.75888E-19 2.75540E-19
 -1       509 9.66198E-05-2.80911E-05-2.93674E-05 3.23920E-06-1.58462E-19 2.03195E-19
 -1       510 9.70374E-05-2.80019E-05-2.95842E-05 4.15719E-06 4.41186E-19 2.04729E-19
 -1       511 9.75429E-05-2.79322E-05-2.98301E-05 5.26224E-06 3.02648E-19-2.01633E-19
 -1       512 9.81613E-05-2.79255E-05-3.00977E-05 6.54730E-06 4.39599E-19-8.35162E-19
 -1       513 9.89427E-05-2.80686E-05-3.03714E-05 7.97146E-06 1.11873E-18-1.28448E-18
 -1       514 9.99892E-05-2.85224E-05-3.06264E-05 9.43412E-06 3.04283E-19-7.13908E-19
 -1       515 1.01500E-04-2.95598E-05-3.08320E-05 1.07353E-05 9.46298E-19 7.59154E-20
 -1       516 1.03826E-04-3.15906E-05-3.09641E-05 1.15168E-05-2.57715E-19 1.58274E-19
 -1       517 1.07493E-04-3.50979E-05-3.10386E-05 1.11780E-05-1.56804E-18 3.09015E-19
 -1       518 1.13068E-04-4.03333E-05-3.11862E-05 8.78373E-06-5.11349E-19 4.65934E-19
 -1       519 1.20508E-04-4.64198E-05-3.17778E-05 3.15066E-06 5.48751E-19 8.16476E-19
 -1       520 1.28080E-04-5.02501E-05-3.34242E-05-6.19961E-06 1.13639E-18 1.23545E-18
 -1       521 1.31652E-04-4.58412E-05-3.69588E-05-1.68407E-05-7.62442E-19 2.27686E-18
 -1       522 1.28309E-04-3.12310E-05-4.19336E-05-2.03578E-05-2.30141E-18 2.28046E-18
 -1       523 1.22049E-04-1.67466E-05-4.56803E-05-9.03065E-06-5.00787E-18 8.56256E-19
 -1       524 1.22567E-04-1.90104E-05-4.49142E-05 9.26445E-06-4.80178E-18-2.71049E-18
 -1       525 1.28697E-04-3.51540E-05-4.04191E-05 1.75143E-05-2.36629E-18-3.94707E-18
 -1       526 1.30454E-04-4.78260E-05-3.55350E-05 1.09067E-05 1.48815E-18-4.37414E-18
 -1       527 1.24958E-04-4.94801E-05-3.23898E-05-9.62975E-08 3.07699E-18-2.52144E-18
 -1       528 1.16726E-04-4.45706E-05-3.09365E-05-8.74779E-06 3.32492E-18-3.69101E-18
 -1       529 1.09278E-04-3.82347E-05-3.04577E-05-1.34969E-05 2.78139E-18-2.76746E-18
 -1       530 1.03757E-04-3.28873E-05-3.03772E-05-1.50858E-05 1.11219E-18-2.24288E-18
 -1       531 9.99146E-05-2.88803E-05-3.04403E-05-1.44409E-05 1.24039E-18-2.85111E-19
 -1       532 9.41402E-05-2.76858E-05-2.84769E-05-1.16198E-07 1.09219E-18 8.60872E-20
 -1       533 9.39635E-05-2.79321E-05-2.82979E-05-7.25641E-07 5.84263E-19 1.42264E-19
 -1       534 9.39331E-05-2.81027E-05-2.82127E-05-1.02394E-06 9.67236E-19-2.64801E-19
 -1       535 9.39968E-05-2.82276E-05-2.81870E-05-1.12867E-06 7.50884E-19-4.69225E-19
 -1       536 9.41142E-05-2.83208E-05-2.81976E-05-1.11694E-06 7.77610E-19-1.66051E-19
 -1       537 9.42572E-05-2.83900E-05-2.82293E-05-1.04051E-06 5.56473E-19-4.24212E-19
 -1       538 9.44080E-05-2.84401E-05-2.82725E-05-9.34611E-07 1.11065E-18-6.27775E-19
 -1       539 9.45566E-05-2.84750E-05-2.83212E-05-8.23513E-07 9.08450E-19-2.30808E-19
 -1       540 9.46987E-05-2.84977E-05-2.83722E-05-7.24190E-07 4.58123E-19 6.21604E-21
 -1       541 9.48341E-05-2.85108E-05-2.84245E-05-6.48918E-07 3.82466E-19-9.27083E-20
 -1       542 9.49661E-05-2.85166E-05-2.84785E-05-6.07120E-07 6.92408E-19 2.72909E-19
 -1       543 9.51002E-05-2.85175E-05-2.85354E-05-6.06683E-07 9.35176E-19 4.88900E-19
 -1       544 9.52441E-05-2.85156E-05-2.85977E-05-6.54828E-07 6.75273E-19 1.03795E-18
 -1       545 9.54075E-05-2.85138E-05-2.86683E-05-7.58555E-07-1.45141E-19 1.14716E-18
 -1       546 9.56013E-05-2.85154E-05-2.87505E-05-9.24631E-07-4.64123E-19 1.06692E-18
 -1       547 9.58387E-05-2.85253E-05-2.88477E-05-1.15903E-06-3.22531E-19 4.79444E-19
 -1       548 9.61339E-05-2.85503E-05-2.89633E-05-1.46563E-06-3.66460E-19-1.04577E-18
 -1       549 9.65032E-05-2.86003E-05-2.91000E-05-1.84409E-06 4.48762E-19 5.56243E-19
 -1       550 9.69640E-05-2.86894E-05-2.92591E-05-2.28634E-06 2.18394E-19 9.33144E-19
 -1       551 9.75353E-05-2.88380E-05-2.94403E-05-2.77178E-06-3.19009E-19-1.37008E-19
 -1       552 9.82366E-05-2.90737E-05-2.96401E-05-3.26066E-06 2.65417E-19-6.33989E-19
 -1       553 9.90878E-05-2.94331E-05-2.98515E-05-3.68608E-06 3.81179E-19-1.12310E-19
 -1       554 1.00107E-04-2.99596E-05-3.00636E-05-3.94550E-06 3.84607E-19-4.74772E-19
 -1       555 1.01302E-04-3.06961E-05-3.02621E-05-3.89474E-06-4.46825E-19 2.47953E-19
 -1       556 1.02664E-04-3.16655E-05-3.04323E-05-3.35078E-06-4.08366E-19 1.19982E-18
 -1       557 1.04132E-04-3.28315E-05-3.05644E-05-2.11471E-06-8.81700E-20 1.23582E-18
 -1       558 1.05560E-04-3.40379E-05-3.06610E-05-3.34746E-08-4.68089E-20 5.09613E-19
 -1       559 1.06660E-04-3.49441E-05-3.07443E-05 2.88048E-06-1.18020E-18 1.08097E-18
 -1       560 1.06999E-04-3.50166E-05-3.08549E-05 6.27133E-06-9.76748E-19 2.16729E-18
 -1       561 1.06133E-04-3.37066E-05-3.10392E-05 9.27583E-06-2.72759E-19 2.54148E-18
 -1       562 1.03944E-04-3.08839E-05-3.13086E-05 1.05902E-05 4.89885E-19 3.16345E-18
 -1       563 1.01043E-04-2.73158E-05-3.15931E-05 9.02693E-06 1.76607E-18 2.48203E-18
 -1       564 9.87891E-05-2.46770E-05-3.17559E-05 4.50545E-06 2.04328E-18 1.19079E-18
 -1       565 9.84144E-05-2.44725E-05-3.16774E-05-1.38469E-06 6.70940E-19 5.24258E-19
 -1       566 1.00008E-04-2.68072E-05-3.13700E-05-6.08917E-06 2.04264E-20-9.91258E-19
 -1       567 1.02425E-04-3.02785E-05-3.09176E-05-7.91055E-06 4.80086E-19-1.96873E-18
 -1       568 1.04202E-04-3.30852E-05-3.04805E-05-6.71629E-06-4.17717E-19-1.95442E-18
 -1       569 1.04642E-04-3.43317E-05-3.01404E-05-3.71399E-06-1.37527E-18-1.61348E-20
 -1       570 1.03788E-04-3.40311E-05-2.99051E-05-3.27744E-07-1.99287E-19 1.03996E-18
 -1       571 1.02088E-04-3.27038E-05-2.97443E-05 2.40544E-06-1.43493E-18-3.88210E-19
 -1       572 1.00022E-04-3.09054E-05-2.96257E-05 3.96312E-06-1.16675E-18 1.24643E-18
 -1       573 9.79214E-05-2.90441E-05-2.95175E-05 4.23890E-06-1.54391E-18 3.89199E-18
 -1       574 9.56030E-05-2.53406E-05-3.01112E-05 1.15685E-05-4.59072E-20-5.08945E-18
 -1       575 9.28436E-05-2.24605E-05-3.01672E-05 1.22625E-05 5.56821E-19-1.69890E-18
 -1       576 9.78789E-05-2.83829E-05-2.97779E-05 7.11414E-06-1.80245E-18-2.14121E-18
 -1       577 9.72369E-05-2.72870E-05-2.99737E-05 9.57014E-06-2.26079E-18-4.69010E-18
 -1       578 8.93792E-05-1.90611E-05-3.01435E-05 1.08035E-05 6.42941E-19-4.17681E-18
 -1       579 8.61967E-05-1.60346E-05-3.00783E-05 6.86186E-06-2.44392E-18 2.14167E-19
 -1       580 8.44105E-05-1.43665E-05-3.00285E-05 9.87379E-07-1.26878E-18 4.31149E-18
 -1       581 8.47747E-05-1.46964E-05-3.00425E-05-5.33634E-06 5.33630E-19 3.09350E-18
 -1       582 8.71835E-05-1.69023E-05-3.01287E-05-1.06514E-05 8.34559E-19 2.16471E-18
 -1       583 9.07392E-05-2.01825E-05-3.02431E-05-1.37045E-05 1.03351E-18 1.90283E-18
 -1       584 9.45478E-05-2.36375E-05-3.03937E-05-1.40588E-05 5.52760E-19 3.27380E-18
 -1       585 2.79971E-05-1.71953E-05-3.96686E-06 1.48358E-05-5.47157E-19 4.55598E-18
 -1       586 5.38242E-05-3.06020E-05-9.40560E-06 3.87634E-05-1.11560E-18 2.02229E-18
 -1       587 2.60945E-05-1.69169E-05-3.35149E-06-1.16788E-05 1.75286E-18 6.45852E-18
 -1       588 9.45183E-05-2.72935E-05-2.88020E-05 9.87271E-07 1.50143E-18 1.88773E-19
 -1       589 8.71930E-05-5.02379E-05-1.54742E-05 4.51867E-05-1.68337E-18 4.66292E-19
 -1       590 1.44347E-04-3.82209E-05-4.59582E-05-6.98842E-06 4.00988E-18-9.67206E-20
 -1       591 1.40381E-04-5.46992E-05-3.69823E-05-3.52577E-06 8.83899E-19-7.26013E-19
 -1       592 8.91612E-05-1.28825E-05-3.27089E-05-1.93775E-06-4.68666E-19-3.03317E-18
 -1       593 1.33365E-04-7.36197E-06-5.46554E-05-1.17480E-06 6.01976E-18-1.75825E-18
 -1       594 2.24818E-05-1.56768E-05-2.33896E-06 7.98721E-06 2.76280E-18-6.40092E-18
 -1       595 1.37871E-04-1.66792E-05-5.25137E-05-8.74566E-06 4.00731E-18-1.98968E-18
 -1       596 1.34217E-04-1.29446E-05-5.26123E-05 9.99066E-06 6.31421E-18-3.25817E-19
 -1       597 1.39429E-04-3.28393E-05-4.61676E-05 1.20440E-05 4.05422E-18 1.09648E-18
 -1       598 1.30784E-04-6.07447E-05-3.00085E-05-2.06324E-05-4.96044E-19 6.63068E-20
 -1       599 5.04936E-05-3.00344E-05-8.24601E-06-3.88342E-05-1.19569E-18-5.51064E-18
 -1       600 2.76914E-05-1.77978E-05-3.61293E-06-2.12134E-05 7.21646E-19-7.31222E-18
 -1       601 4.19303E-05-2.84593E-05-5.30280E-06 3.25217E-05 4.06740E-18-2.06464E-19
 -1       602 7.57841E-05-4.52273E-05-1.27688E-05 4.08863E-05 3.61254E-18 1.05990E-18
 -1       603 1.16832E-04-6.17335E-05-2.34791E-05 3.07136E-05 2.38498E-18 2.16041E-18
 -1       604 1.43136E-04-6.24240E-05-3.47556E-05 7.03155E-06 1.42664E-18 1.72959E-18
 -1       605 1.49199E-04-4.39051E-05-4.55621E-05-1.28523E-05-2.07025E-18 2.92470E-18
 -1       606 1.44233E-04-2.51536E-05-5.15793E-05-1.63376E-05-4.48557E-18 2.51749E-18
 -1       607 1.40090E-04-1.89530E-05-5.25779E-05 1.06357E-05-5.87026E-18-1.84971E-18
 -1       608 1.49146E-04-4.16856E-05-4.65370E-05 9.92384E-06-2.25316E-18 4.04035E-19
 -1       609 1.47138E-04-5.92330E-05-3.78814E-05-5.11467E-06 1.45532E-18 5.38665E-18
 -1       610 1.25480E-04-6.42854E-05-2.61798E-05-3.01111E-05 2.27349E-18 4.03021E-18
 -1       611 8.97834E-05-5.16342E-05-1.59982E-05-4.37466E-05 1.42794E-18 3.78174E-18
 -1       612 5.33113E-05-3.30816E-05-8.13537E-06-3.94549E-05 2.45989E-18 4.17635E-18
 -1       613 9.61592E-05-2.31902E-05-3.12760E-05 9.58485E-06 3.42186E-18 1.22627E-18
 -1       614 9.13401E-05-1.59053E-05-3.23640E-05-7.67295E-06-2.43909E-18-2.51812E-18
 -1       615 1.34357E-04-6.23568E-05-3.09248E-05 1.73528E-05-2.67040E-19 3.97311E-20
 -1       616 1.17974E-04-5.94667E-05-2.48326E-05-2.94838E-05-2.47519E-18-1.62722E-18
 -1       617 9.79423E-05-2.67232E-05-3.05174E-05-1.30391E-05 8.14182E-19 4.60224E-19
 -1       618 9.15575E-05-1.68532E-05-3.20218E-05 2.44190E-06 1.05411E-18-2.53418E-18
 -1       619 9.12990E-05-1.64510E-05-3.20831E-05 8.41414E-07 3.31025E-19-2.55905E-18
 -1       620 9.28948E-05-1.90019E-05-3.16740E-05 5.26538E-06 2.12303E-18-1.59936E-18
 -1       621 9.39844E-05-2.09300E-05-3.13170E-05 6.14583E-06 2.58051E-18-1.06391E-18
 -1       622 9.52722E-05-2.40961E-05-3.04938E-05 5.15102E-06 2.63147E-18-4.72077E-19
 -1       623 5.00405E-05-1.89018E-05-1.28702E-05 2.31071E-05-5.78034E-19 2.46275E-18
 -1       624 9.53354E-05-2.59399E-05-2.97370E-05 2.60814E-06 1.91543E-18-3.27158E-19
 -1       625 9.41758E-05-2.09815E-05-3.13690E-05-7.06373E-06-2.56836E-18-1.30065E-18
 -1       626 9.51322E-05-2.40599E-05-3.04602E-05-4.21457E-06-1.96809E-18-9.94977E-19
 -1       627 9.54538E-05-2.59305E-05-2.97947E-05-2.08904E-06-1.52148E-18-7.48988E-19
 -1       628 9.55113E-05-2.70899E-05-2.93234E-05-6.51820E-07-1.19045E-18-7.24945E-19
 -1       629 9.54635E-05-2.78059E-05-2.89964E-05 2.56921E-07-9.13420E-19-4.60770E-19
 -1       630 9.53941E-05-2.82500E-05-2.87763E-05 7.83394E-07-8.63257E-19-5.04791E-19
 -1       631 9.53327E-05-2.85208E-05-2.86339E-05 1.04698E-06-8.04333E-19-3.05080E-19
 -1       632 9.52871E-05-2.86776E-05-2.85471E-05 1.13862E-06-5.23578E-19-3.10055E-19
 -1       633 9.52571E-05-2.87578E-05-2.84998E-05 1.12501E-06-6.27029E-19-7.33853E-19
 -1       634 9.52397E-05-2.87859E-05-2.84803E-05 1.05434E-06-6.23528E-19-7.55289E-19
 -1       635 9.52317E-05-2.87778E-05-2.84803E-05 9.61156E-07-6.93631E-19-6.76336E-19
 -1       636 9.52307E-05-2.87439E-05-2.84944E-05 8.70409E-07-5.20931E-19-5.78425E-19
 -1       637 9.52348E-05-2.86905E-05-2.85190E-05 8.00542E-07-4.12105E-19-1.00843E-18
 -1       638 9.52426E-05-2.86207E-05-2.85522E-05 7.65949E-07-6.89103E-19-7.82383E-19
 -1       639 9.52532E-05-2.85352E-05-2.85934E-05 7.78879E-07-4.15283E-19-4.44246E-20
 -1       640 9.52656E-05-2.84326E-05-2.86426E-05 8.50895E-07-5.56751E-19-1.05312E-19
 -1       641 9.52785E-05-2.83098E-05-2.87008E-05 9.93970E-07 8.36554E-20-5.78927E-20
 -1       642 9.52904E-05-2.81624E-05-2.87689E-05 1.22126E-06 4.44441E-20-2.54078E-19
 -1       643 9.52982E-05-2.79848E-05-2.88484E-05 1.54756E-06 2.58530E-19-3.90338E-19
 -1       644 9.52976E-05-2.77705E-05-2.89398E-05 1.98940E-06 2.73604E-19 2.42470E-20
 -1       645 9.52821E-05-2.75136E-05-2.90433E-05 2.56468E-06-2.61777E-19 6.16303E-19
 -1       646 9.52431E-05-2.72097E-05-2.91567E-05 3.29183E-06-9.47521E-20 5.27139E-19
 -1       647 9.51707E-05-2.68604E-05-2.92752E-05 4.18825E-06-3.93144E-19 1.57354E-19
 -1       648 9.50569E-05-2.64797E-05-2.93895E-05 5.26791E-06-3.38731E-19-5.71592E-19
 -1       649 9.49036E-05-2.61060E-05-2.94839E-05 6.53827E-06-1.70481E-19-9.24079E-19
 -1       650 9.47394E-05-2.58244E-05-2.95342E-05 7.99653E-06 3.53301E-19-3.15807E-19
 -1       651 9.46521E-05-2.57996E-05-2.95075E-05 9.62520E-06 1.06423E-18-1.41792E-18
 -1       652 9.48447E-05-2.63258E-05-2.93650E-05 1.13846E-05 1.28434E-18-2.00724E-18
 -1       653 9.57241E-05-2.78844E-05-2.90743E-05 1.31933E-05 2.72262E-19-1.88754E-18
 -1       654 9.80188E-05-3.11826E-05-2.86438E-05 1.48498E-05-7.93649E-19-1.08742E-18
 -1       655 1.02843E-04-3.70386E-05-2.81883E-05 1.58729E-05-3.03236E-19 3.36332E-20
 -1       656 1.11890E-04-4.60865E-05-2.81828E-05 1.49773E-05 1.35863E-18-8.22052E-20
 -1       657 1.24518E-04-5.56092E-05-2.95145E-05 9.43197E-06 1.39488E-18 1.02138E-18
 -1       658 1.41178E-04-4.57866E-05-4.12847E-05-1.62862E-05-1.62686E-18 3.16542E-18
 -1       659 1.41341E-04-5.08279E-05-3.90838E-05 8.99679E-06-7.39936E-19-1.44684E-18
 -1       660 1.32423E-04-5.72660E-05-3.22502E-05-4.05355E-06 3.40557E-18 4.49576E-19
 -1       661 1.19759E-04-5.12477E-05-2.93173E-05-1.39714E-05 2.89687E-18 8.46272E-20
 -1       662 1.09008E-04-4.20359E-05-2.86961E-05-1.79948E-05 3.44450E-18 7.18104E-19
 -1       663 1.01991E-04-3.43932E-05-2.89648E-05-1.85745E-05 2.36242E-18 8.53205E-19
 -1       664 9.79179E-05-2.89879E-05-2.95423E-05-1.73007E-05 1.52920E-18 1.50231E-18
 -1       665 9.49820E-05-2.81140E-05-2.86575E-05-7.32561E-07 1.00463E-18-3.09928E-19
 -1       666 6.46963E-05-3.28194E-05-1.32224E-05 3.47572E-05 3.64460E-18-2.37222E-19
 -1       667 9.50927E-05-2.77087E-05-2.88783E-05-1.23050E-07 8.38425E-19-1.86038E-20
 -1       668 9.49001E-05-2.85223E-05-2.84477E-05-1.15987E-06 7.75034E-19-2.13111E-19
 -1       669 9.49096E-05-2.86128E-05-2.84131E-05-1.15710E-06 8.59306E-19-5.75387E-19
 -1       670 9.49379E-05-2.86588E-05-2.84055E-05-1.08767E-06 7.06596E-19-6.09613E-19
 -1       671 9.49771E-05-2.86735E-05-2.84160E-05-9.88741E-07 7.81492E-19-4.88845E-19
 -1       672 9.50220E-05-2.86659E-05-2.84385E-05-8.86662E-07 4.74604E-19 2.45778E-19
 -1       673 9.50701E-05-2.86417E-05-2.84694E-05-8.00359E-07 1.51198E-19 3.93950E-19
 -1       674 9.51204E-05-2.86049E-05-2.85067E-05-7.43947E-07 3.65150E-19 4.39152E-19
 -1       675 9.51738E-05-2.85575E-05-2.85498E-05-7.28613E-07 6.92296E-19 9.05309E-19
 -1       676 9.52322E-05-2.85011E-05-2.85990E-05-7.63963E-07 1.25391E-19 1.56349E-18
 -1       677 9.52989E-05-2.84367E-05-2.86551E-05-8.58866E-07 2.19080E-19 1.91253E-18
 -1       678 9.53783E-05-2.83657E-05-2.87195E-05-1.02181E-06 2.16343E-19 1.24035E-18
 -1       679 9.54763E-05-2.82908E-05-2.87935E-05-1.26071E-06 6.42141E-20 5.06181E-19
 -1       680 9.56006E-05-2.82172E-05-2.88783E-05-1.58210E-06 7.04048E-20 3.37769E-19
 -1       681 9.57617E-05-2.81542E-05-2.89742E-05-1.98953E-06-1.04151E-19 1.71054E-19
 -1       682 9.59740E-05-2.81177E-05-2.90808E-05-2.48093E-06 4.57622E-19 2.20636E-20
 -1       683 9.62579E-05-2.81327E-05-2.91960E-05-3.04475E-06-4.11788E-20 8.33206E-19
 -1       684 9.66422E-05-2.82375E-05-2.93158E-05-3.65468E-06 3.03577E-20 3.84377E-19
 -1       685 9.71684E-05-2.84869E-05-2.94346E-05-4.26255E-06 7.39660E-20 3.55279E-19
 -1       686 9.78939E-05-2.89548E-05-2.95453E-05-4.78962E-06 8.73147E-19-6.26293E-20
 -1       687 9.88940E-05-2.97307E-05-2.96418E-05-5.11677E-06-4.58047E-19 5.04386E-19
 -1       688 1.00256E-04-3.09050E-05-2.97231E-05-5.07531E-06-9.93034E-19 1.19549E-18
 -1       689 1.02057E-04-3.25291E-05-2.98000E-05-4.44373E-06-2.05445E-19 8.54784E-19
 -1       690 1.04307E-04-3.45374E-05-2.99047E-05-2.96307E-06-1.94561E-19 9.81324E-19
 -1       691 1.06845E-04-3.66216E-05-3.01002E-05-4.02777E-07-8.47617E-19 1.20493E-18
 -1       692 1.09218E-04-3.81114E-05-3.04794E-05 3.27730E-06-1.39208E-18 1.02683E-18
 -1       693 1.10608E-04-3.79538E-05-3.11362E-05 7.61401E-06-7.38872E-19 1.29804E-18
 -1       694 1.10112E-04-3.51590E-05-3.21247E-05 1.13127E-05-8.83479E-20 1.54613E-18
 -1       695 1.07433E-04-2.97473E-05-3.33135E-05 1.23360E-05 1.24574E-18 1.77939E-18
 -1       696 1.03988E-04-2.39520E-05-3.43296E-05 8.93864E-06 2.91152E-18 2.50195E-18
 -1       697 1.02180E-04-2.11857E-05-3.47354E-05 1.88425E-06 1.85111E-18 2.25930E-18
 -1       698 1.03297E-04-2.34219E-05-3.42526E-05-5.43678E-06 7.97770E-19 2.01662E-18
 -1       699 1.06633E-04-2.92515E-05-3.31552E-05-9.15529E-06 1.90776E-18 5.81574E-19
 -1       700 1.09339E-04-3.47732E-05-3.19503E-05-8.43643E-06 1.09948E-18-1.43761E-18
 -1       701 1.09803E-04-3.77298E-05-3.08933E-05-4.74071E-06-9.64907E-19-2.40463E-18
 -1       702 1.08218E-04-3.78322E-05-3.01712E-05-2.92415E-07-2.42206E-18-4.95838E-18
 -1       703 1.05452E-04-3.59588E-05-2.97875E-05 3.38653E-06-2.09467E-18-1.34181E-18
 -1       704 1.02356E-04-3.31642E-05-2.96559E-05 5.62569E-06-1.99176E-18 1.66243E-18
 -1       705 1.00102E-04-3.08756E-05-2.96673E-05 6.85103E-06-2.81461E-18-1.56421E-19
 -1       706 1.28782E-04-2.67076E-05-4.41751E-05-1.27497E-05 4.68282E-18-2.82470E-18
 -1       707 8.58051E-05-2.01596E-05-2.81371E-05 1.20442E-05-2.79647E-19-4.32648E-18
 -1       708 1.24691E-04-2.18631E-05-4.44879E-05 1.49187E-05 4.23318E-18 1.38245E-18
 -1       709 9.63356E-05-2.82989E-05-2.91588E-05 1.45459E-05 1.36744E-18-4.11346E-18
 -1       710 8.13656E-05-1.66112E-05-2.77536E-05 5.82905E-06 2.65172E-19 2.82470E-18
 -1       711 9.14970E-05-2.46053E-05-2.86670E-05 1.49671E-05 1.59915E-21-2.47035E-18
 -1       712 8.00524E-05-1.54699E-05-2.76775E-05-2.36849E-06-1.16218E-19 4.31583E-18
 -1       713 8.25077E-05-1.72073E-05-2.79862E-05-1.02179E-05 1.30332E-18 3.84062E-18
 -1       714 8.76673E-05-2.09141E-05-2.86140E-05-1.52874E-05 2.93745E-18 3.01011E-18
 -1       715 7.89786E-05-3.90685E-05-1.67113E-05-3.87065E-05 2.97899E-18 3.78679E-18
 -1       716 9.52319E-05-2.70421E-05-2.92221E-05 9.30518E-07 1.30724E-18-1.48638E-19
 -1       717 4.82607E-05-2.04868E-05-1.13571E-05-2.57643E-05 2.33384E-18 4.00043E-18
 -1       718 1.36161E-04-6.27330E-05-3.15298E-05-1.18248E-05 3.50967E-18 4.84671E-18
 -1       719 1.20149E-04-1.26801E-05-4.65704E-05-7.08553E-06 4.60204E-18-1.99386E-18
 -1       720 4.03235E-05-1.32018E-05-1.10345E-05 4.63138E-06 3.08274E-19 4.29594E-18
 -1       721 1.12137E-04-5.73322E-05-2.33063E-05-3.30293E-05 1.90950E-18 3.50491E-18
 -1       722 9.49202E-05-2.83668E-05-2.85229E-05-1.04323E-06 9.05300E-19-1.35428E-19
 -1       723 9.20809E-05-1.76796E-05-3.18921E-05 3.95287E-06 1.70721E-18-2.16413E-18
 -1       724 8.08664E-05-4.08898E-05-1.67622E-05-3.96479E-05-1.58406E-18-1.25565E-18
 -1       725 4.11619E-05-1.80944E-05-9.30953E-06 2.13118E-05 3.77623E-18-1.15774E-18
 -1       726 9.20378E-05-1.76199E-05-3.18989E-05-3.89985E-06-1.28821E-18-2.48410E-18
 -1       727 9.56488E-05-2.58848E-05-2.98957E-05-1.60033E-05 3.23051E-18 2.61399E-18
 -1       728 1.30863E-04-5.72697E-05-3.16405E-05-7.03381E-06-1.26133E-18 3.25155E-19
 -1       729 4.71158E-05-1.98927E-05-1.11665E-05-2.74389E-05-7.46633E-19-4.25322E-18
 -1       730 1.18954E-04-9.58024E-06-4.74092E-05 5.07554E-06 5.00655E-18-1.54412E-18
 -1       731 3.32625E-05-1.20126E-05-8.50176E-06-6.28287E-06 1.76822E-18-5.49359E-18
 -1       732 1.01075E-04-5.20316E-05-2.07623E-05 3.29651E-05 2.98222E-18 8.03212E-19
 -1       733 1.30735E-04-6.21584E-05-2.93497E-05 1.36587E-05 2.05683E-18 1.01921E-18
 -1       734 1.32913E-04-4.42044E-05-3.82905E-05 1.06079E-05 1.31948E-18 1.88441E-18
 -1       735 1.39907E-04-5.14095E-05-3.81874E-05-1.95030E-06 2.64366E-18-1.23847E-18
 -1       736 9.28706E-05-1.89293E-05-3.16929E-05-5.28993E-06-1.82548E-18-2.32056E-18
 -1       737 9.12921E-05-1.64417E-05-3.20842E-05-7.83659E-07-3.25701E-19-2.69054E-18
 -1       738 8.24557E-05-4.02213E-05-1.77114E-05 3.90565E-05-7.39857E-19 7.61615E-19
 -1       739 1.37858E-04-5.62553E-05-3.50903E-05-6.79491E-06 3.83269E-19 1.55183E-18
 -1       740 9.99284E-05-3.07434E-05-2.96463E-05 9.88035E-06-1.90033E-18-4.32915E-18
 -1       741 1.30286E-04-3.98101E-05-3.90400E-05-1.07917E-05 3.69812E-18-4.28641E-18
 -1       742 9.25218E-05-2.50579E-05-2.89104E-05-1.75781E-05 2.38085E-18 2.91405E-18
 -1       743 1.08210E-04-5.46470E-05-2.27195E-05 3.45500E-05-1.42839E-18 1.02793E-18
 -1       744 9.88110E-05-3.00127E-05-2.94835E-05 1.24795E-05 1.46228E-19-2.79302E-18
 -1       745 9.15341E-05-1.68213E-05-3.20253E-05-2.38163E-06-7.36376E-19-2.47599E-18
 -1       746 1.21526E-04-5.87209E-05-2.68773E-05 2.38817E-05-7.99348E-19-1.33457E-18
 -1       747 1.16439E-04-2.19686E-05-4.07284E-05-1.11313E-05 2.71481E-18-3.86378E-18
 -1       748 9.46316E-05-2.27229E-05-3.08173E-05 3.91638E-06 1.99446E-18-8.26375E-19
 -1       749 4.51675E-05-1.28518E-05-1.34497E-05 7.96765E-06 1.61707E-18-2.66138E-18
 -1       750 1.16574E-04-5.42488E-05-2.65103E-05 1.95773E-05 1.98914E-18-2.48882E-19
 -1       751 9.50905E-05-2.38495E-05-3.05302E-05-3.11999E-06-1.39857E-18-1.48633E-18
 -1       752 9.56642E-05-2.57844E-05-2.99486E-05-1.52042E-06-1.17065E-18-1.24805E-18
 -1       753 9.59278E-05-2.70689E-05-2.95109E-05-4.03090E-07-1.10752E-18-1.06786E-18
 -1       754 9.60068E-05-2.78984E-05-2.91893E-05 3.20909E-07-9.34407E-19-1.18697E-18
 -1       755 9.59883E-05-2.84184E-05-2.89585E-05 7.45276E-07-7.90638E-19-8.10568E-19
 -1       756 9.59227E-05-2.87281E-05-2.87977E-05 9.57736E-07-5.53062E-19-7.21188E-19
 -1       757 9.58376E-05-2.88943E-05-2.86900E-05 1.02926E-06-6.22754E-19-7.95104E-19
 -1       758 9.57475E-05-2.89625E-05-2.86222E-05 1.01479E-06-5.93049E-19-8.79876E-19
 -1       759 9.56598E-05-2.89636E-05-2.85841E-05 9.55368E-07-6.59911E-19-2.41422E-19
 -1       760 9.55775E-05-2.89180E-05-2.85684E-05 8.81233E-07-6.14560E-19-4.37064E-19
 -1       761 9.55010E-05-2.88387E-05-2.85696E-05 8.14719E-07-8.10218E-19 1.58326E-19
 -1       762 9.54286E-05-2.87327E-05-2.85840E-05 7.72780E-07 6.50572E-20 3.30148E-19
 -1       763 9.53571E-05-2.86027E-05-2.86091E-05 7.69026E-07-6.86319E-19 7.00578E-19
 -1       764 9.52819E-05-2.84477E-05-2.86433E-05 8.15307E-07-9.26514E-19 6.29555E-19
 -1       765 9.51969E-05-2.82639E-05-2.86856E-05 9.22897E-07-1.23859E-19 3.16053E-19
 -1       766 9.50942E-05-2.80449E-05-2.87354E-05 1.10330E-06 3.16385E-20 8.60062E-20
 -1       767 9.49636E-05-2.77827E-05-2.87918E-05 1.36872E-06 1.09334E-19-1.02135E-19
 -1       768 9.47921E-05-2.74674E-05-2.88535E-05 1.73215E-06 4.80883E-19 1.57615E-19
 -1       769 9.45632E-05-2.70888E-05-2.89176E-05 2.20719E-06 1.76409E-19 1.21122E-19
 -1       770 9.42567E-05-2.66377E-05-2.89796E-05 2.80749E-06-2.08086E-19 4.80878E-19
 -1       771 9.38481E-05-2.61081E-05-2.90315E-05 3.54613E-06-8.76010E-19-5.53252E-19
 -1       772 9.33109E-05-2.55026E-05-2.90607E-05 4.43523E-06-9.15550E-19-6.87584E-19
 -1       773 9.26198E-05-2.48409E-05-2.90480E-05 5.48680E-06-5.29202E-19-1.02396E-18
 -1       774 9.17608E-05-2.41741E-05-2.89656E-05 6.71639E-06-8.12991E-21-6.65005E-19
 -1       775 9.07497E-05-2.36084E-05-2.87746E-05 8.15265E-06-7.33101E-20-1.07688E-18
 -1       776 8.96674E-05-2.33425E-05-2.84247E-05 9.85575E-06 5.81199E-19-9.70119E-19
 -1       777 8.87251E-05-2.37243E-05-2.78570E-05 1.19417E-05 5.55826E-19-2.18073E-18
 -1       778 8.83427E-05-2.53072E-05-2.70150E-05 1.46229E-05 6.31038E-19-2.38924E-18
 -1       779 8.95501E-05-2.91084E-05-2.59070E-05 1.80408E-05 6.83218E-20-1.27703E-18
 -1       780 9.40639E-05-3.63376E-05-2.46362E-05 2.21897E-05 4.79480E-19-3.25476E-19
 -1       781 1.04099E-04-4.45250E-05-2.54312E-05-2.61831E-05 2.72288E-18 2.89932E-18
 -1       782 9.64240E-05-3.45677E-05-2.64801E-05-2.33638E-05 2.09780E-18 5.04880E-19
 -1       783 9.36976E-05-2.89462E-05-2.77375E-05-2.03003E-05 2.46593E-18-1.95326E-19
 -1       784 9.57318E-05-2.77495E-05-2.91352E-05-1.92377E-07 1.03503E-18-5.32916E-19
 -1       785 9.55068E-05-2.88490E-05-2.85677E-05-1.08956E-06 7.58969E-19-2.74391E-19
 -1       786 9.55675E-05-2.87626E-05-2.86307E-05-1.09212E-06 9.57975E-19-1.80476E-19
 -1       787 9.54078E-05-2.88525E-05-2.85238E-05-9.45602E-07 1.53676E-19-1.17133E-19
 -1       788 9.53690E-05-2.88019E-05-2.85288E-05-8.63468E-07 2.15150E-20 3.70125E-20
 -1       789 9.53356E-05-2.87287E-05-2.85458E-05-8.01300E-07 1.34846E-19 4.14381E-19
 -1       790 9.53061E-05-2.86371E-05-2.85724E-05-7.73271E-07 3.07203E-19 4.19713E-19
 -1       791 9.52788E-05-2.85292E-05-2.86070E-05-7.91009E-07-2.65508E-19 1.01716E-18
 -1       792 9.52522E-05-2.84052E-05-2.86487E-05-8.64809E-07-5.97315E-20 9.73639E-19
 -1       793 9.52253E-05-2.82651E-05-2.86972E-05-1.00437E-06 1.04462E-19 1.15204E-18
 -1       794 9.51977E-05-2.81096E-05-2.87520E-05-1.21905E-06 6.69061E-19 1.00733E-18
 -1       795 9.51709E-05-2.79414E-05-2.88126E-05-1.51765E-06 3.54861E-20 1.15018E-18
 -1       796 9.51487E-05-2.77676E-05-2.88775E-05-1.90757E-06-9.78126E-20 1.30680E-18
 -1       797 9.51399E-05-2.76024E-05-2.89445E-05-2.39330E-06-1.86208E-19 1.16657E-18
 -1       798 9.51609E-05-2.74705E-05-2.90100E-05-2.97407E-06-2.24882E-19 1.61673E-18
 -1       799 9.52397E-05-2.74121E-05-2.90688E-05-3.64056E-06 2.20018E-19 1.38978E-18
 -1       800 9.54225E-05-2.74886E-05-2.91144E-05-4.37022E-06 1.16616E-19 1.16436E-18
 -1       801 9.57812E-05-2.77876E-05-2.91400E-05-5.12088E-06 2.89547E-19 7.71020E-19
 -1       802 9.64218E-05-2.84269E-05-2.91406E-05-5.82152E-06 1.69218E-19 9.35162E-19
 -1       803 9.74909E-05-2.95495E-05-2.91179E-05-6.35886E-06-1.06628E-18 1.44563E-18
 -1       804 9.91711E-05-3.13014E-05-2.90875E-05-6.55758E-06-6.55024E-20 9.77875E-19
 -1       805 1.01649E-04-3.37710E-05-2.90915E-05-6.15387E-06-3.71654E-19-2.03682E-19
 -1       806 1.05026E-04-3.68614E-05-2.92147E-05-4.77478E-06-1.00911E-18-5.64161E-19
 -1       807 1.09135E-04-4.00669E-05-2.96022E-05-1.96546E-06-7.44011E-19 3.91883E-19
 -1       808 1.13265E-04-4.21634E-05-3.04768E-05 2.68392E-06-1.62200E-18 7.70800E-20
 -1       809 1.15918E-04-4.13196E-05-3.19899E-05 8.50529E-06-1.46005E-18 1.16994E-18
 -1       810 1.15164E-04-3.57535E-05-3.41048E-05 1.31699E-05 4.75311E-19 1.73733E-18
 -1       811 1.11281E-04-2.63448E-05-3.64944E-05 1.34627E-05 2.12307E-18 1.89908E-18
 -1       812 1.07225E-04-1.83146E-05-3.82166E-05 7.12225E-06 2.90987E-18 1.50674E-18
 -1       813 1.06904E-04-1.79351E-05-3.83191E-05-2.69956E-06 1.06566E-18-3.25863E-19
 -1       814 1.16172E-04-4.14801E-05-3.20283E-05-5.49997E-06 1.04026E-18-4.67807E-18
 -1       815 1.13828E-04-4.25763E-05-3.05491E-05 4.66842E-07-8.63613E-19-4.71763E-18
 -1       816 1.09593E-04-4.01768E-05-2.97554E-05 5.22888E-06-4.12947E-18-3.86344E-18
 -1       817 1.05098E-04-3.62661E-05-2.95032E-05 7.99381E-06-2.42404E-18-4.78751E-18
 -1       818 1.02380E-04-3.35447E-05-2.95038E-05 9.33827E-06-1.83140E-18-4.27482E-18
 -1       819 7.43120E-05-1.59585E-05-2.49950E-05 3.03555E-06 1.07906E-18 3.48488E-18
 -1       820 7.93265E-05-1.96985E-05-2.55066E-05 1.28029E-05 1.58176E-18-9.44510E-19
 -1       821 1.12489E-04-1.71254E-05-4.11107E-05 1.04724E-05 3.08929E-18 1.15342E-18
 -1       822 8.60345E-05-3.87255E-05-2.00606E-05 3.05156E-05 1.89676E-18 7.42385E-19
 -1       823 1.23146E-04-5.71454E-05-2.82436E-05-1.84861E-05 2.11987E-18 3.01637E-18
 -1       824 9.93256E-05-4.49354E-05-2.31503E-05 3.13220E-05-9.37579E-19 1.62716E-18
 -1       825 9.92768E-05-4.57570E-05-2.27654E-05-3.22638E-05 1.69129E-18 3.88948E-18
 -1       826 5.77347E-05-1.50130E-05-1.80665E-05 8.95533E-06-1.97162E-19 2.40511E-18
 -1       827 7.53634E-05-1.64592E-05-2.52239E-05-8.12998E-06 1.02111E-18 5.00446E-18
 -1       828 8.20844E-05-2.08779E-05-2.62221E-05-1.63357E-05 2.74376E-18 5.15551E-18
 -1       829 9.54534E-05-2.88724E-05-2.85348E-05-1.02928E-06 6.02003E-19-3.65070E-19
 -1       830 7.06482E-05-2.64379E-05-1.86972E-05-2.86023E-05 7.49075E-19 4.12660E-18
 -1       831 6.03832E-05-2.31886E-05-1.55938E-05 2.53406E-05 2.09934E-18-1.37397E-18
 -1       832 1.26209E-04-4.84898E-05-3.33818E-05 5.91156E-06-1.21920E-18 1.75914E-18
 -1       833 1.10415E-04-1.36822E-05-4.17238E-05-6.27469E-07 3.61004E-18-1.31930E-19
 -1       834 9.52137E-05-2.44790E-05-3.03147E-05 3.43050E-06 1.97423E-18-7.33800E-19
 -1       835 1.15902E-04-5.37747E-05-2.65799E-05-1.97884E-05-3.18909E-18 6.32424E-19
 -1       836 7.25812E-05-2.71181E-05-1.93179E-05 2.83657E-05-7.59266E-19 3.54616E-19
 -1       837 1.21056E-04-3.24380E-05-3.81404E-05 1.53434E-05 2.04212E-18 2.56991E-18
 -1       838 4.83273E-05-1.38514E-05-1.44377E-05-1.37258E-05 1.15666E-19-3.58141E-18
 -1       839 9.32093E-05-1.97811E-05-3.14705E-05 1.23342E-06 5.59532E-19-1.97529E-18
 -1       840 5.53665E-05-1.51817E-05-1.69144E-05-1.17727E-05 1.56742E-18 4.46130E-18
 -1       841 6.97097E-05-2.79103E-05-1.76686E-05-3.02670E-05-2.07317E-18-1.88630E-18
 -1       842 1.33248E-04-5.65253E-05-3.29848E-05 5.66503E-06-2.25589E-20-3.51492E-19
 -1       843 9.30970E-05-1.95830E-05-3.15081E-05 2.20961E-08-3.69762E-20-1.97952E-18
 -1       844 9.40398E-05-2.13616E-05-3.11475E-05 3.31637E-06 1.62204E-18-1.64704E-18
 -1       845 1.10520E-04-5.02765E-05-2.57825E-05 2.50930E-05-1.00216E-18 9.52267E-20
 -1       846 1.20245E-04-5.11429E-05-2.96125E-05-5.79111E-06-2.64316E-18 8.30205E-19
 -1       847 9.39984E-05-2.13118E-05-3.11552E-05-3.26250E-06-1.36623E-18-2.09857E-18
 -1       848 9.35246E-05-2.03663E-05-3.13546E-05 2.36525E-06 1.15655E-18-1.80874E-18
 -1       849 9.56944E-05-2.69126E-05-2.94776E-05 6.92759E-07 1.06142E-18-3.40000E-19
 -1       850 9.56328E-05-2.85838E-05-2.87353E-05-9.89715E-07 6.89029E-19-3.72776E-19
 -1       851 1.17664E-04-3.58931E-05-3.51121E-05-1.07406E-05 3.75524E-18-3.25918E-18
 -1       852 9.62365E-05-3.14027E-05-2.77829E-05 1.79137E-05-3.30644E-19-2.45632E-18
 -1       853 9.35011E-05-2.03310E-05-3.13596E-05-2.31292E-06-9.19265E-19-2.01208E-18
 -1       854 8.78869E-05-2.58597E-05-2.65480E-05 1.80208E-05-2.03903E-19-3.78479E-18
 -1       855 9.55174E-05-2.58991E-05-2.98366E-05 1.83081E-06 1.28410E-18-3.56436E-19
 -1       856 9.56943E-05-2.82685E-05-2.88968E-05-7.18206E-07 8.71635E-19-3.40528E-19
 -1       857 8.76793E-05-2.49535E-05-2.68644E-05-1.94402E-05 3.68802E-18 1.39791E-18
 -1       858 1.00712E-04-3.38902E-05-2.86321E-05 1.53591E-05-1.60649E-18-2.70858E-18
 -1       859 1.29173E-04-4.80594E-05-3.48354E-05-5.22524E-06 2.70063E-18-2.93299E-18
 -1       860 1.02173E-04-4.47349E-05-2.45497E-05-2.39860E-05-2.38879E-18 2.77726E-19
 -1       861 7.70376E-05-2.62457E-05-2.16268E-05 2.19796E-05 1.82247E-18-7.00324E-20
 -1       862 9.59010E-05-2.58767E-05-3.00099E-05-9.53962E-07-9.04583E-19-1.73050E-18
 -1       863 9.62694E-05-2.71923E-05-2.96042E-05-1.57700E-07-7.08267E-19-1.47082E-18
 -1       864 9.64113E-05-2.80592E-05-2.92938E-05 3.63671E-07-6.35493E-19-9.68949E-19
 -1       865 9.64148E-05-2.86003E-05-2.90634E-05 6.68189E-07-5.73368E-19-5.84418E-19
 -1       866 9.63385E-05-2.89139E-05-2.88963E-05 8.16417E-07-6.31492E-19-5.69829E-19
 -1       867 9.62202E-05-2.90685E-05-2.87793E-05 8.61212E-07-6.99790E-19-7.27995E-19
 -1       868 9.60827E-05-2.91129E-05-2.87013E-05 8.44245E-07-1.51805E-19-5.72830E-19
 -1       869 9.59395E-05-2.90808E-05-2.86537E-05 7.97360E-07-5.16767E-19-4.95191E-19
 -1       870 9.57967E-05-2.89946E-05-2.86294E-05 7.44430E-07-6.58402E-19-3.72340E-19
 -1       871 9.56557E-05-2.88679E-05-2.86233E-05 7.03427E-07-5.07510E-19-3.73495E-19
 -1       872 9.55140E-05-2.87074E-05-2.86314E-05 6.88279E-07 1.50366E-19-2.32705E-19
 -1       873 9.53658E-05-2.85143E-05-2.86506E-05 7.10383E-07-1.78224E-19 5.82302E-19
 -1       874 9.52027E-05-2.82858E-05-2.86787E-05 7.79743E-07-1.01947E-18 8.75849E-19
 -1       875 9.50133E-05-2.80154E-05-2.87134E-05 9.05745E-07-2.72529E-19 5.46768E-19
 -1       876 9.47831E-05-2.76939E-05-2.87525E-05 1.09757E-06 3.74564E-20-3.41478E-19
 -1       877 9.44942E-05-2.73102E-05-2.87931E-05 1.36426E-06 1.80807E-19-8.10194E-20
 -1       878 9.41245E-05-2.68521E-05-2.88310E-05 1.71445E-06 2.16303E-19-6.01353E-19
 -1       879 9.36471E-05-2.63072E-05-2.88600E-05 2.15584E-06-1.04467E-19-9.16413E-19
 -1       880 9.30299E-05-2.56652E-05-2.88706E-05 2.69469E-06-1.42936E-18-1.40555E-18
 -1       881 9.22348E-05-2.49206E-05-2.88489E-05 3.33571E-06-8.38436E-19-3.41971E-19
 -1       882 9.12190E-05-2.40777E-05-2.87748E-05 4.08346E-06-7.53905E-19 6.25462E-20
 -1       883 8.99362E-05-2.31581E-05-2.86191E-05 4.94702E-06-4.18453E-19-1.95016E-19
 -1       884 8.83413E-05-2.22118E-05-2.83411E-05 5.95120E-06-3.57935E-19-8.45729E-19
 -1       885 8.63973E-05-2.13334E-05-2.78845E-05 7.16013E-06 2.18716E-19-6.53870E-19
 -1       886 8.40900E-05-2.06882E-05-2.71724E-05 8.72093E-06 5.96997E-19-7.16009E-19
 -1       887 8.14590E-05-2.05645E-05-2.60990E-05 1.09543E-05 2.51149E-20-2.76313E-19
 -1       888 7.87391E-05-2.14008E-05-2.45644E-05 1.44896E-05 4.80832E-19-1.19717E-18
 -1       889 5.53499E-05-1.28779E-05-1.80272E-05-6.65540E-07 1.15778E-18-3.43201E-18
 -1       890 9.55960E-05-2.88749E-05-2.85948E-05-7.75582E-07-3.10727E-19 4.67237E-19
 -1       891 9.57046E-05-2.89702E-05-2.86005E-05-8.33229E-07-1.13947E-19 7.46556E-19
 -1       892 9.53856E-05-2.86007E-05-2.86221E-05-7.42561E-07-8.30489E-20 7.33903E-20
 -1       893 9.52764E-05-2.84269E-05-2.86498E-05-7.91055E-07-4.42452E-20-5.14342E-19
 -1       894 9.51580E-05-2.82283E-05-2.86841E-05-8.96714E-07 1.44567E-19-7.13241E-19
 -1       895 9.50251E-05-2.80038E-05-2.87234E-05-1.06950E-06-1.65878E-19-6.16767E-19
 -1       896 9.48732E-05-2.77533E-05-2.87657E-05-1.31945E-06-1.25380E-19 8.91922E-19
 -1       897 9.46995E-05-2.74806E-05-2.88081E-05-1.65659E-06 1.12206E-19 8.67124E-19
 -1       898 9.45052E-05-2.71956E-05-2.88470E-05-2.09044E-06 2.57535E-19 4.50839E-19
 -1       899 9.42984E-05-2.69181E-05-2.88773E-05-2.62920E-06-5.89080E-19 1.09007E-19
 -1       900 9.40983E-05-2.66830E-05-2.88923E-05-3.27840E-06 4.01900E-20 9.19785E-19
 -1       901 9.39420E-05-2.65462E-05-2.88839E-05-4.03912E-06 4.99205E-19 9.19080E-20
 -1       902 9.38930E-05-2.65923E-05-2.88431E-05-4.90521E-06 9.99923E-20 2.37417E-19
 -1       903 9.40533E-05-2.69418E-05-2.87620E-05-5.85857E-06-1.33246E-19 9.92845E-19
 -1       904 9.45779E-05-2.77571E-05-2.86373E-05-6.85957E-06-5.70608E-19 1.14602E-18
 -1       905 9.56887E-05-2.92402E-05-2.84780E-05-7.82854E-06 3.10888E-20-4.31111E-19
 -1       906 9.76839E-05-3.16127E-05-2.83161E-05-8.60808E-06 1.00326E-18-1.01790E-18
 -1       907 1.00903E-04-3.50367E-05-2.82268E-05-8.88779E-06-7.82054E-19-1.47238E-18
 -1       908 1.05647E-04-3.94539E-05-2.83619E-05-8.11560E-06-1.71540E-18-1.77061E-18
 -1       909 1.11739E-04-4.40849E-05-2.89830E-05-5.51939E-06-1.28599E-18-4.53214E-19
 -1       910 7.28770E-05-1.95634E-05-2.27899E-05-1.68206E-05 1.45893E-18 7.22042E-18
 -1       911 6.88688E-05-1.74854E-05-2.19271E-05 1.22778E-05 1.73590E-18 1.07792E-18
 -1       912 9.31964E-05-1.97648E-05-3.14725E-05-1.18284E-06-5.62347E-19-2.34814E-18
 -1       913 8.93417E-05-3.32279E-05-2.40102E-05 2.61012E-05 4.41271E-19-1.21649E-18
 -1       914 6.54814E-05-1.49087E-05-2.15917E-05-3.06007E-06 1.15806E-18 3.10224E-18
 -1       915 6.16171E-05-1.68616E-05-1.90285E-05 1.39258E-05 1.57703E-18-1.19523E-18
 -1       916 1.07576E-04-3.98152E-05-2.90325E-05 1.16173E-05-3.34241E-18-7.81975E-19
 -1       917 9.60451E-05-2.89607E-05-2.87504E-05-9.55688E-07 6.82809E-19-3.93695E-19
 -1       918 1.13886E-04-4.51090E-05-2.94598E-05 8.61069E-06-2.83800E-18-3.21695E-19
 -1       919 9.53645E-05-2.46952E-05-3.02874E-05 2.33869E-06 1.31704E-18-8.07259E-19
 -1       920 9.54907E-05-2.87503E-05-2.86030E-05-7.41071E-07 1.51710E-20 5.44916E-19
 -1       921 9.52055E-05-2.39740E-05-3.05272E-05-2.00395E-06-1.13854E-18-1.87926E-18
 -1       922 1.02233E-04-3.41316E-05-2.91836E-05 1.23213E-05-1.56050E-18-8.68982E-19
 -1       923 1.25235E-04-5.57312E-05-2.98169E-05 1.18480E-05-4.72184E-19 9.36815E-19
 -1       924 6.42695E-05-1.90446E-05-1.92390E-05-1.83777E-05-1.07555E-18-9.20315E-19
 -1       925 8.68166E-05-3.22324E-05-2.32794E-05-2.72697E-05-5.39655E-19 3.32930E-18
 -1       926 1.11342E-04-4.72179E-05-2.74489E-05-1.32410E-05-2.92640E-18 8.19433E-19
 -1       927 1.22065E-04-4.94140E-05-3.11251E-05 2.77212E-06-1.02345E-19-6.84154E-19
 -1       928 9.60565E-05-2.69515E-05-2.96166E-05 4.00749E-07 9.77502E-19-1.03303E-18
 -1       929 8.69165E-05-2.79164E-05-2.52237E-05-2.29284E-05 1.27227E-18 2.83458E-18
 -1       930 9.61427E-05-2.87788E-05-2.88702E-05-8.81910E-07 7.49978E-19-5.71461E-19
 -1       931 9.58174E-05-2.90276E-05-2.86242E-05-8.97859E-07 1.72773E-19 5.37837E-19
 -1       932 7.27378E-05-2.24090E-05-2.14990E-05-2.17661E-05 5.24227E-19 4.99986E-18
 -1       933 9.88841E-05-3.92797E-05-2.55198E-05 2.43709E-05-1.99896E-18-7.71416E-19
 -1       934 9.49327E-05-2.31735E-05-3.07533E-05-1.48878E-06-8.58311E-19-1.60720E-18
 -1       935 9.45557E-05-2.22809E-05-3.09742E-05 4.36745E-07 2.32242E-19-1.67500E-18
 -1       936 9.59328E-05-2.90322E-05-2.86717E-05-9.48229E-07 7.60936E-19 2.91690E-20
 -1       937 1.03381E-04-3.87526E-05-2.76996E-05 1.82013E-05-2.64558E-18-2.04449E-18
 -1       938 8.40949E-05-3.11729E-05-2.26013E-05-2.32322E-05-2.13809E-18 6.57748E-19
 -1       939 9.46920E-05-2.26135E-05-3.08913E-05 1.22537E-06 7.11563E-19-1.53475E-18
 -1       940 9.61965E-05-2.78627E-05-2.92859E-05-2.73980E-07 7.37387E-19-7.35404E-19
 -1       941 9.62048E-05-2.84366E-05-2.90435E-05-6.76077E-07 6.12663E-19-5.55601E-19
 -1       942 9.65610E-05-2.74424E-05-2.96221E-05 2.23976E-08-1.45905E-19-1.02983E-18
 -1       943 9.67108E-05-2.82790E-05-2.93280E-05 3.53914E-07-2.85873E-19-6.10550E-19
 -1       944 9.67053E-05-2.87918E-05-2.91058E-05 5.42260E-07-4.11101E-19-3.44374E-19
 -1       945 9.66066E-05-2.90763E-05-2.89416E-05 6.28653E-07-7.28975E-19 1.95596E-20
 -1       946 9.64556E-05-2.91989E-05-2.88243E-05 6.48772E-07-6.02757E-19-1.52484E-19
 -1       947 9.62785E-05-2.92079E-05-2.87445E-05 6.31206E-07-2.37736E-19-4.18190E-19
 -1       948 9.60905E-05-2.91371E-05-2.86943E-05 5.97894E-07-5.98752E-19-4.55058E-19
 -1       949 9.58987E-05-2.90085E-05-2.86673E-05 5.65449E-07-5.42104E-19-2.48116E-19
 -1       950 9.57037E-05-2.88345E-05-2.86582E-05 5.46527E-07 1.70725E-19 1.71100E-19
 -1       951 9.55009E-05-2.86204E-05-2.86631E-05 5.51042E-07 3.11448E-19 3.97702E-19
 -1       952 9.52817E-05-2.83656E-05-2.86783E-05 5.87107E-07-2.83842E-19 2.52820E-19
 -1       953 9.50336E-05-2.80651E-05-2.87008E-05 6.61671E-07-2.48265E-19 7.68542E-19
 -1       954 9.47407E-05-2.77103E-05-2.87273E-05 7.80824E-07-4.02222E-19 1.05639E-18
 -1       955 9.43828E-05-2.72903E-05-2.87540E-05 9.49762E-07 8.07010E-22 7.69309E-19
 -1       956 9.39360E-05-2.67925E-05-2.87758E-05 1.17242E-06-2.83488E-19 3.04771E-19
 -1       957 9.33714E-05-2.62042E-05-2.87860E-05 1.45078E-06-8.82242E-20-3.74991E-19
 -1       958 9.26547E-05-2.55136E-05-2.87748E-05 1.78409E-06-6.94744E-19-4.79190E-19
 -1       959 9.17450E-05-2.47121E-05-2.87285E-05 2.16812E-06-1.78750E-19 8.68445E-20
 -1       960 9.05941E-05-2.37968E-05-2.86275E-05 2.59539E-06-1.92660E-19 3.32611E-19
 -1       961 8.91435E-05-2.27736E-05-2.84444E-05 3.05742E-06-8.61083E-19 1.77962E-19
 -1       962 8.73216E-05-2.16605E-05-2.81406E-05 3.55122E-06-3.66159E-19 1.96133E-19
 -1       963 8.50349E-05-2.04904E-05-2.76621E-05 4.09208E-06-3.89685E-19 8.32571E-19
 -1       964 8.21506E-05-1.93106E-05-2.69315E-05 4.74235E-06 3.11606E-19 8.85021E-21
 -1       965 7.84618E-05-1.81849E-05-2.58337E-05 5.65956E-06 2.96823E-19-5.87711E-19
 -1       966 7.36576E-05-1.72479E-05-2.41677E-05 7.13175E-06 3.68762E-19-1.43899E-18
 -1       967 9.49617E-05-2.79802E-05-2.87063E-05-8.46162E-07-3.47396E-19-6.70534E-19
 -1       968 9.58768E-05-2.90249E-05-2.86508E-05-6.70920E-07 1.84104E-19 2.23079E-19
 -1       969 1.16231E-04-4.98542E-05-2.84282E-05 1.51660E-05-2.32623E-18-1.26310E-18
 -1       970 9.49740E-05-2.32946E-05-3.07202E-05 1.89012E-06 1.23498E-18-1.42499E-18
 -1       971 6.49245E-05-1.54970E-05-2.11311E-05-7.36533E-06 9.58562E-20-4.75900E-19
 -1       972 9.58521E-05-2.52839E-05-3.02418E-05-7.86345E-07-7.34184E-19-1.39228E-18
 -1       973 9.51749E-05-2.82566E-05-2.86793E-05-7.22926E-07 3.38310E-19-9.23503E-19
 -1       974 9.53651E-05-2.84981E-05-2.86573E-05-6.53434E-07 6.21304E-19-5.06131E-19
 -1       975 9.47158E-05-2.76668E-05-2.87353E-05-1.03308E-06-6.59859E-19-6.26021E-20
 -1       976 9.44284E-05-2.73159E-05-2.87625E-05-1.29452E-06 3.93156E-20-7.37130E-19
 -1       977 9.40928E-05-2.69321E-05-2.87832E-05-1.64249E-06 2.74587E-19-2.12029E-20
 -1       978 9.37071E-05-2.65277E-05-2.87912E-05-2.09045E-06-2.57391E-19 2.96375E-19
 -1       979 9.32774E-05-2.61277E-05-2.87785E-05-2.65353E-06-9.34185E-19-5.86666E-19
 -1       980 9.28234E-05-2.57749E-05-2.87351E-05-3.34903E-06 6.36070E-19-2.18180E-19
 -1       981 9.23860E-05-2.55374E-05-2.86495E-05-4.19690E-06 3.78281E-19 2.74061E-19
 -1       982 9.20375E-05-2.55168E-05-2.85089E-05-5.22024E-06 4.10689E-20-2.87486E-19
 -1       983 9.18974E-05-2.58589E-05-2.83023E-05-6.44433E-06 1.95393E-19-1.17541E-18
 -1       984 9.21554E-05-2.67652E-05-2.80243E-05-7.88740E-06 3.51627E-19-1.42855E-18
 -1       985 9.30919E-05-2.84929E-05-2.76862E-05-9.53981E-06 2.60096E-20-3.54142E-19
 -1       986 9.51282E-05-3.13756E-05-2.73254E-05-1.13407E-05 1.74067E-19 1.04079E-18
 -1       987 9.89563E-05-3.58170E-05-2.70597E-05-1.29763E-05 1.40856E-19 3.37655E-19
 -1       988 1.08247E-04-4.30403E-05-2.79729E-05 1.68691E-05-2.13241E-18-1.20101E-18
 -1       989 9.47424E-05-2.26827E-05-3.08828E-05-8.02830E-07-4.67910E-19-1.94423E-18
 -1       990 9.57873E-05-2.59902E-05-2.99142E-05 1.21491E-06 1.21569E-18-1.21377E-18
 -1       991 9.72664E-05-3.78942E-05-2.54330E-05-1.85909E-05-1.92114E-18 1.95544E-18
 -1       992 7.58606E-05-2.27765E-05-2.27122E-05-1.66720E-05-6.31874E-19 8.25785E-19
 -1       993 9.63123E-05-2.65347E-05-2.99064E-05-3.43420E-07-5.58408E-19-1.24983E-18
 -1       994 9.46093E-05-2.23859E-05-3.09526E-05-2.09401E-07-1.34112E-19-1.65673E-18
 -1       995 9.57098E-05-2.88835E-05-2.86398E-05-6.37583E-07-1.79604E-19 1.77065E-19
 -1       996 9.56005E-05-2.44019E-05-3.05130E-05 9.17470E-08 3.68808E-19-1.18901E-18
 -1       997 9.60439E-05-2.91228E-05-2.86804E-05-7.15431E-07 3.15465E-19 2.88936E-19
 -1       998 6.54497E-05-1.48265E-05-2.16507E-05 4.08314E-06 7.95440E-19-1.92403E-18
 -1       999 1.04883E-04-4.16969E-05-2.70913E-05-1.34871E-05-1.85726E-18-7.15199E-19
 -1      1000 9.63756E-05-2.71483E-05-2.96691E-05 1.42450E-07 6.52876E-19-1.03423E-18
 -1      1001 9.63636E-05-2.91194E-05-2.88189E-05-7.67572E-07 5.47440E-19-1.11215E-19
 -1      1002 9.64923E-05-2.89580E-05-2.89433E-05-7.25185E-07 5.11123E-19-1.59398E-19
 -1      1003 8.77320E-05-2.99209E-05-2.47797E-05-1.74967E-05-5.45124E-19 8.76108E-19
 -1      1004 9.55409E-05-2.87069E-05-2.86431E-05-6.28202E-07 3.41663E-19-3.60998E-19
 -1      1005 9.56494E-05-2.45815E-05-3.04572E-05 5.70995E-07 6.50698E-19-1.44674E-18
 -1      1006 9.59571E-05-2.57761E-05-3.00751E-05 8.54990E-07 7.83076E-19-1.04490E-18
 -1      1007 9.58144E-05-2.49351E-05-3.03760E-05-4.63892E-07-4.25063E-19-1.46624E-18
 -1      1008 9.67982E-05-2.77799E-05-2.95793E-05 1.03786E-07-7.79362E-21-8.58723E-19
 -1      1009 9.69114E-05-2.85298E-05-2.93065E-05 2.71569E-07-2.43775E-19-6.98954E-19
 -1      1010 9.68729E-05-2.89755E-05-2.90989E-05 3.63244E-07-4.31292E-19-8.10216E-19
 -1      1011 9.67431E-05-2.92054E-05-2.89448E-05 4.00870E-07-6.72491E-19-5.56021E-19
 -1      1012 9.65606E-05-2.92805E-05-2.88343E-05 4.04644E-07-4.35757E-19-3.21737E-19
 -1      1013 9.63512E-05-2.92466E-05-2.87591E-05 3.90763E-07-4.93310E-19-8.29298E-21
 -1      1014 9.61293E-05-2.91351E-05-2.87118E-05 3.71525E-07-3.29900E-19-4.17005E-20
 -1      1015 9.59003E-05-2.89654E-05-2.86864E-05 3.56273E-07-3.50193E-19 1.18535E-19
 -1      1016 9.56629E-05-2.87478E-05-2.86779E-05 3.52113E-07 1.11662E-19-2.59926E-19
 -1      1017 9.54100E-05-2.84854E-05-2.86820E-05 3.64488E-07-1.76162E-19-7.76133E-19
 -1      1018 9.51300E-05-2.81755E-05-2.86948E-05 3.97577E-07 2.17029E-19 3.39686E-19
 -1      1019 9.48072E-05-2.78115E-05-2.87125E-05 4.54430E-07-1.18817E-19 8.61425E-19
 -1      1020 9.44220E-05-2.73838E-05-2.87308E-05 5.36812E-07-6.50659E-19 5.75328E-19
 -1      1021 9.39509E-05-2.68809E-05-2.87444E-05 6.44726E-07-7.28724E-19-2.75581E-19
 -1      1022 9.33663E-05-2.62911E-05-2.87466E-05 7.75601E-07-4.35771E-19-3.53896E-19
 -1      1023 9.26360E-05-2.56041E-05-2.87281E-05 9.23165E-07-1.33736E-19-3.51850E-19
 -1      1024 9.17229E-05-2.48123E-05-2.86762E-05 1.07610E-06-4.50359E-19 4.62705E-19
 -1      1025 9.05833E-05-2.39126E-05-2.85734E-05 1.21677E-06-2.89306E-19 8.11987E-19
 -1      1026 8.91644E-05-2.29088E-05-2.83956E-05 1.32039E-06-9.02268E-19 3.37027E-19
 -1      1027 8.73989E-05-2.18110E-05-2.81095E-05 1.35572E-06-3.49805E-20 1.09384E-18
 -1      1028 8.51936E-05-2.06349E-05-2.76683E-05 1.28958E-06 7.28676E-20 4.69986E-19
 -1      1029 8.24260E-05-1.94080E-05-2.70068E-05 1.08502E-06-8.77144E-19 8.32372E-19
 -1      1030 7.88670E-05-1.81089E-05-2.60340E-05 7.27986E-07-8.93562E-19-7.70889E-19
 -1      1031 7.41311E-05-1.67729E-05-2.45707E-05 2.24416E-07-3.29794E-19-1.24998E-18
 -1      1032 9.43285E-05-2.72780E-05-2.87360E-05-8.76610E-07 3.83196E-20 2.61109E-19
 -1      1033 9.56968E-05-2.46202E-05-3.04602E-05-2.09214E-07-1.63763E-20-1.18529E-18
 -1      1034 7.04289E-05-1.58506E-05-2.33734E-05-1.72774E-06-3.62994E-20-1.53996E-18
 -1      1035 9.49947E-05-2.80329E-05-2.86980E-05-5.80525E-07-3.38467E-19 1.15172E-18
 -1      1036 9.52612E-05-2.83403E-05-2.86804E-05-5.05814E-07 3.85624E-19 8.23740E-19
 -1      1037 9.39017E-05-2.68258E-05-2.87469E-05-1.11956E-06 1.36550E-19 5.96262E-20
 -1      1038 9.33963E-05-2.63278E-05-2.87437E-05-1.44443E-06 9.13366E-20-5.65176E-19
 -1      1039 9.28051E-05-2.57974E-05-2.87177E-05-1.86997E-06 1.05041E-19-6.84764E-19
 -1      1040 9.21289E-05-2.52614E-05-2.86576E-05-2.42071E-06-5.89097E-19-1.28155E-18
 -1      1041 9.13811E-05-2.47658E-05-2.85495E-05-3.12935E-06-2.42071E-19-8.03835E-20
 -1      1042 9.05945E-05-2.43822E-05-2.83769E-05-4.04032E-06 3.95640E-19 2.54674E-19
 -1      1043 8.98311E-05-2.42165E-05-2.81208E-05-5.21443E-06 4.72512E-19-9.32608E-19
 -1      1044 8.91956E-05-2.44198E-05-2.77619E-05-6.73634E-06-7.49354E-19 1.18216E-19
 -1      1045 8.88867E-05-2.52282E-05-2.72837E-05-8.71032E-06-9.31883E-19 1.84221E-18
 -1      1046 8.91895E-05-2.69130E-05-2.66947E-05-1.12258E-05-5.69506E-19 1.32478E-18
 -1      1047 9.55007E-05-2.86062E-05-2.86691E-05-4.68262E-07 1.01050E-19 7.98234E-20
 -1      1048 9.62087E-05-2.91623E-05-2.87342E-05-7.54757E-07-4.30327E-21 4.04915E-19
 -1      1049 9.65483E-05-2.80533E-05-2.93551E-05-3.19537E-07 5.78513E-19-6.99327E-19
 -1      1050 9.46884E-05-2.76800E-05-2.87179E-05-7.00866E-07-5.29481E-19 4.93937E-19
 -1      1051 9.62399E-05-2.61721E-05-3.00293E-05 3.92945E-07 6.86481E-19-1.19785E-18
 -1      1052 7.54947E-05-1.95988E-05-2.39561E-05-1.02230E-05-3.84512E-19 7.81418E-19
 -1      1053 9.65678E-05-2.86261E-05-2.91179E-05-5.91167E-07 6.58191E-19-6.40596E-19
 -1      1054 9.61482E-05-2.91588E-05-2.87097E-05-4.98526E-07 1.20980E-19 2.83261E-19
 -1      1055 9.65812E-05-2.69625E-05-2.98358E-05-8.78089E-08-4.77299E-20-9.28638E-19
 -1      1056 9.63302E-05-2.60857E-05-3.01049E-05-2.87384E-09 1.95592E-19-7.05579E-19
 -1      1057 9.57031E-05-2.48809E-05-3.03532E-05 8.91754E-07 6.58668E-19-1.13153E-18
 -1      1058 8.36283E-05-2.48131E-05-2.52109E-05-1.32606E-05 1.62192E-19 3.79277E-19
 -1      1059 9.07157E-05-3.00004E-05-2.60004E-05-1.43356E-05 1.91577E-19 7.46087E-19
 -1      1060 9.66433E-05-2.74434E-05-2.96566E-05-2.87790E-08 3.70496E-19-9.60807E-19
 -1      1061 9.59383E-05-2.90192E-05-2.86796E-05-4.73083E-07 2.83985E-19 1.44687E-19
 -1      1062 9.57238E-05-2.88329E-05-2.86675E-05-4.60013E-07 1.89744E-19-5.13994E-19
 -1      1063 9.65428E-05-2.92341E-05-2.88465E-05-5.40067E-07 7.08098E-20 4.11273E-20
 -1      1064 9.67069E-05-2.91141E-05-2.89685E-05-5.24524E-07 4.34232E-19-1.22189E-19
 -1      1065 7.61270E-05-1.78884E-05-2.49535E-05-3.85528E-06-6.05773E-19 2.76811E-19
 -1      1066 9.63524E-05-2.92382E-05-2.87632E-05-5.25482E-07-9.27673E-20-2.50548E-19
 -1      1067 9.61490E-05-2.57198E-05-3.01839E-05 2.55486E-07 4.79771E-19-1.35441E-18
 -1      1068 9.70046E-05-2.87744E-05-2.92415E-05 1.13053E-07-4.01775E-19-6.43500E-19
 -1      1069 9.69239E-05-2.91294E-05-2.90547E-05 1.35100E-07-4.16250E-19-8.06305E-19
 -1      1070 9.67626E-05-2.92879E-05-2.89177E-05 1.43404E-07-9.09613E-20-3.63253E-19
 -1      1071 9.65540E-05-2.93087E-05-2.88193E-05 1.42801E-07-4.17719E-20-1.91331E-19
 -1      1072 9.63222E-05-2.92310E-05-2.87533E-05 1.37429E-07-2.30934E-19 8.54998E-20
 -1      1073 9.60783E-05-2.90816E-05-2.87128E-05 1.31571E-07-4.49194E-19 2.60272E-19
 -1      1074 9.58251E-05-2.88764E-05-2.86922E-05 1.27989E-07-3.02089E-19-1.23917E-20
 -1      1075 9.55586E-05-2.86228E-05-2.86867E-05 1.28519E-07-2.02293E-19-8.64875E-20
 -1      1076 9.52692E-05-2.83214E-05-2.86919E-05 1.34129E-07 3.55785E-19 1.18847E-19
 -1      1077 9.49430E-05-2.79681E-05-2.87035E-05 1.44827E-07 2.42772E-19-6.18781E-19
 -1      1078 9.45624E-05-2.75553E-05-2.87173E-05 1.59347E-07-1.97343E-19-9.42431E-19
 -1      1079 9.41058E-05-2.70737E-05-2.87280E-05 1.74590E-07-1.73117E-19-4.07751E-19
 -1      1080 9.35488E-05-2.65137E-05-2.87293E-05 1.84765E-07-4.52583E-19 3.27104E-19
 -1      1081 9.28638E-05-2.58672E-05-2.87129E-05 1.80142E-07-3.45451E-19 3.82589E-19
 -1      1082 9.20203E-05-2.51297E-05-2.86675E-05 1.45402E-07 2.44080E-19 1.30876E-19
 -1      1083 9.09845E-05-2.43023E-05-2.85782E-05 5.74925E-08-1.74705E-19 3.43859E-20
 -1      1084 8.97184E-05-2.33938E-05-2.84251E-05-1.17042E-07-2.93701E-19 7.81235E-19
 -1      1085 8.81771E-05-2.24222E-05-2.81810E-05-4.25521E-07 1.22027E-19 1.92651E-18
 -1      1086 8.63024E-05-2.14143E-05-2.78097E-05-9.34181E-07-7.01370E-19 2.10664E-18
 -1      1087 8.40058E-05-2.03949E-05-2.72611E-05-1.74324E-06-8.18756E-19 2.19697E-19
 -1      1088 8.12628E-05-1.94636E-05-2.64827E-05-2.89947E-06-1.32153E-18 8.43290E-21
 -1      1089 9.33349E-05-2.63130E-05-2.87237E-05-7.77725E-07 4.20640E-19-2.85336E-21
 -1      1090 9.63768E-05-2.62638E-05-3.00492E-05-1.18067E-07 3.98017E-20-8.04227E-19
 -1      1091 9.47628E-05-2.77754E-05-2.87089E-05-3.60773E-07 2.29496E-19 6.86167E-19
 -1      1092 9.38998E-05-2.68642E-05-2.87296E-05-5.88024E-07 2.33087E-19 2.04382E-19
 -1      1093 9.26566E-05-2.57001E-05-2.86956E-05-1.03990E-06-2.72720E-20 4.81381E-19
 -1      1094 9.18492E-05-2.50372E-05-2.86337E-05-1.39891E-06-2.07003E-19 5.08500E-19
 -1      1095 9.09020E-05-2.43487E-05-2.85228E-05-1.88891E-06-1.82711E-19-9.89748E-20
 -1      1096 8.98117E-05-2.36760E-05-2.83437E-05-2.55811E-06-8.98365E-20-1.36981E-18
 -1      1097 8.85859E-05-2.30825E-05-2.80726E-05-3.47481E-06 4.26857E-19-5.12978E-19
 -1      1098 8.72478E-05-2.26607E-05-2.76803E-05-4.73691E-06-7.35053E-19 5.26349E-19
 -1      1099 8.58890E-05-2.25495E-05-2.71493E-05-6.46693E-06-1.82859E-18 6.95000E-19
 -1      1100 8.45917E-05-2.29850E-05-2.64097E-05-8.87566E-06-3.83852E-19 1.51482E-19
 -1      1101 9.53922E-05-2.84614E-05-2.86846E-05-2.66918E-07 1.54996E-19 9.01907E-19
 -1      1102 9.43695E-05-2.73508E-05-2.87223E-05-4.53284E-07-2.36700E-19 1.04260E-19
 -1      1103 9.66769E-05-2.70990E-05-2.98195E-05 2.06508E-08 1.49537E-19-1.07575E-18
 -1      1104 9.50982E-05-2.81436E-05-2.86948E-05-3.01057E-07-2.93491E-19 7.21194E-19
 -1      1105 9.69566E-05-2.81503E-05-2.94886E-05 6.67235E-08-1.52165E-20-6.03771E-19
 -1      1106 9.56591E-05-2.87332E-05-2.86825E-05-2.52511E-07-8.67037E-20 9.22930E-19
 -1      1107 9.67961E-05-2.74521E-05-2.97192E-05 7.41844E-09 9.23698E-20-5.55684E-19
 -1      1108 9.59098E-05-2.89604E-05-2.86926E-05-2.52661E-07 1.19589E-19 4.25124E-19
 -1      1109 9.66035E-05-2.93004E-05-2.88441E-05-2.85186E-07 3.01678E-20-9.84065E-20
 -1      1110 9.68081E-05-2.82950E-05-2.93627E-05-2.96433E-07 3.73678E-19-7.89702E-19
 -1      1111 9.67954E-05-2.92322E-05-2.89556E-05-2.80061E-07 1.43722E-19-1.89320E-20
 -1      1112 9.68095E-05-2.88212E-05-2.91378E-05-4.51728E-07 1.63731E-19-5.50778E-19
 -1      1113 8.07220E-05-2.07204E-05-2.57109E-05-7.72761E-06-9.87417E-19 4.93086E-19
 -1      1114 9.61510E-05-2.91393E-05-2.87193E-05-2.62222E-07 2.40274E-19-6.17132E-19
 -1      1115 9.63841E-05-2.92592E-05-2.87678E-05-2.75417E-07-1.57418E-20-4.14327E-19
 -1      1116 9.69868E-05-2.89812E-05-2.91452E-05-1.07084E-07-1.79460E-19-5.93182E-19
 -1      1117 9.68967E-05-2.78807E-05-2.95782E-05-6.17161E-08 1.34556E-19-9.44504E-19
 -1      1118 9.70074E-05-2.85562E-05-2.93363E-05-1.06199E-07-2.65341E-19-7.66623E-19
 -1      1119 1.16856E-04 2.57566E-10-4.18554E-05-4.14668E-05-3.05779E-19 1.50854E-17
 -1      1120 8.86496E-05 7.19172E-11-3.72508E-05-2.41696E-05-2.09958E-19 3.82848E-18
 -1      1121 8.40752E-05 4.14559E-11-3.57659E-05-1.78798E-05-1.57601E-19-1.34754E-18
 -1      1122 8.23336E-05 3.20115E-11-3.50722E-05-1.38390E-05-1.14138E-19-3.90134E-18
 -1      1123 8.15318E-05 2.73441E-11-3.47386E-05-1.05358E-05-7.96740E-20-5.11393E-18
 -1      1124 8.11304E-05 2.46069E-11-3.45738E-05-7.64201E-06-5.05374E-20-5.71636E-18
 -1      1125 8.09214E-05 2.29548E-11-3.44904E-05-4.98098E-06-3.09465E-20-5.93251E-18
 -1      1126 8.08200E-05 2.20635E-11-3.44513E-05-2.43290E-06-7.95417E-21-5.96622E-18
 -1      1127 8.07912E-05 2.17935E-11-3.44403E-05 5.24627E-08 3.42453E-22-5.94700E-18
 -1      1128 8.08244E-05 2.21074E-11-3.44527E-05 2.54035E-06 2.78561E-20-5.87439E-18
 -1      1129 8.09304E-05 2.30563E-11-3.44933E-05 5.09687E-06 3.47945E-20-5.67046E-18
 -1      1130 8.11455E-05 2.47713E-11-3.45777E-05 7.77441E-06 6.07746E-20-5.25964E-18
 -1      1131 8.15535E-05 2.76428E-11-3.47447E-05 1.06955E-05 9.15854E-20-4.49448E-18
 -1      1132 8.23573E-05 3.24997E-11-3.50823E-05 1.40450E-05 1.18108E-19-3.15335E-18
 -1      1133 8.40724E-05 4.19224E-11-3.57862E-05 1.81314E-05 1.64589E-19-5.19615E-19
 -1      1134 8.83472E-05 6.67401E-11-3.73209E-05 2.40120E-05 1.88465E-19 4.66795E-18
 -1      1135 1.06619E-04 1.63920E-10-4.06340E-05 3.61933E-05 4.08270E-19 1.55614E-17
 -1      1136 1.30222E-04-2.57565E-05-4.02739E-05-2.61066E-05-1.43911E-18 2.24150E-17
 -1      1137 9.74563E-05-2.88625E-05-3.15776E-05-6.80375E-07-4.62215E-19 1.90683E-17
 -1      1138 9.01575E-05-2.70258E-05-2.78925E-05 3.87068E-07-2.10858E-19 1.39302E-17
 -1      1139 8.82443E-05-2.65709E-05-2.66422E-05 2.50708E-07-8.27412E-20 1.04842E-17
 -1      1140 8.78829E-05-2.64433E-05-2.63851E-05 1.65788E-07-1.02059E-19 7.86274E-18
 -1      1141 8.82389E-05-2.65190E-05-2.64690E-05 1.17984E-07-1.12791E-19 6.32686E-18
 -1      1142 8.89216E-05-2.67024E-05-2.66705E-05 8.73389E-08-9.27803E-20 4.65772E-18
 -1      1143 8.97315E-05-2.69328E-05-2.69117E-05 6.60435E-08-1.16648E-19 3.16376E-18
 -1      1144 9.05586E-05-2.71737E-05-2.71582E-05 5.02647E-08-2.21098E-20 2.34600E-18
 -1      1145 9.13410E-05-2.74042E-05-2.73921E-05 3.80853E-08-1.21921E-20 1.65811E-18
 -1      1146 9.20459E-05-2.76133E-05-2.76036E-05 2.84827E-08 7.42829E-21 8.16444E-19
 -1      1147 9.26595E-05-2.77961E-05-2.77883E-05 2.08482E-08-4.14404E-20 5.20419E-19
 -1      1148 9.31800E-05-2.79518E-05-2.79455E-05 1.47743E-08 9.97549E-21 1.35658E-20
 -1      1149 9.36139E-05-2.80820E-05-2.80770E-05 9.96318E-09-4.46028E-20-2.53167E-19
 -1      1150 9.39731E-05-2.81902E-05-2.81863E-05 6.18807E-09 3.71259E-21-1.68778E-20
 -1      1151 9.42733E-05-2.82810E-05-2.82781E-05 3.27770E-09-2.46191E-19-5.45852E-19
 -1      1152 9.45335E-05-2.83600E-05-2.83580E-05 1.11239E-09 3.04231E-20-1.37994E-18
 -1      1153 9.47754E-05-2.84338E-05-2.84326E-05-3.73641E-10 9.62891E-20-1.81598E-18
 -1      1154 9.50238E-05-2.85098E-05-2.85096E-05-1.18508E-09 1.89197E-20-3.02366E-18
 -1      1155 9.53082E-05-2.85968E-05-2.85977E-05-1.25327E-09-1.63823E-21-3.25393E-18
 -1      1156 9.56634E-05-2.87055E-05-2.87077E-05-4.17029E-10-2.33073E-19-2.42810E-18
 -1      1157 9.61313E-05-2.88483E-05-2.88524E-05 1.60615E-09 3.00060E-20-1.83652E-18
 -1      1158 9.67638E-05-2.90409E-05-2.90476E-05 5.26234E-09-1.13059E-20-1.84294E-18
 -1      1159 9.76242E-05-2.93023E-05-2.93125E-05 1.12202E-08-1.72169E-19-2.97254E-18
 -1      1160 9.87902E-05-2.96557E-05-2.96708E-05 2.04462E-08 2.19664E-19-3.91426E-18
 -1      1161 1.00356E-04-3.01290E-05-3.01506E-05 3.42826E-08 3.84052E-20-3.18131E-18
 -1      1162 1.02429E-04-3.07542E-05-3.07843E-05 5.44760E-08 3.58225E-19-2.47966E-18
 -1      1163 1.05127E-04-3.15656E-05-3.16054E-05 8.30196E-08-2.80927E-20-1.61598E-18
 -1      1164 1.08557E-04-3.25935E-05-3.26422E-05 1.21480E-07-8.23839E-20-1.90945E-18
 -1      1165 1.12772E-04-3.38518E-05-3.39021E-05 1.69146E-07-1.72934E-19-7.27284E-19
 -1      1166 1.17687E-04-3.53127E-05-3.53443E-05 2.18875E-07-2.25609E-20 1.30914E-18
 -1      1167 1.22934E-04-3.68638E-05-3.68360E-05 2.49521E-07-2.69758E-19 4.49007E-19
 -1      1168 1.27662E-04-3.82484E-05-3.81001E-05 2.16242E-07-9.59265E-20-3.94106E-18
 -1      1169 1.30351E-04-3.90135E-05-3.86898E-05 4.82925E-08 1.39774E-19-4.90067E-18
 -1      1170 1.28911E-04-3.85411E-05-3.80677E-05-3.18958E-07-1.19683E-19-6.94556E-18
 -1      1171 1.21504E-04-3.63084E-05-3.58716E-05-8.49283E-07 2.27250E-19-5.49894E-18
 -1      1172 1.08330E-04-3.24193E-05-3.23389E-05-1.28426E-06 1.24583E-19-3.37458E-18
 -1      1173 9.33707E-05-2.80787E-05-2.85728E-05-1.20180E-06 2.01832E-19-2.95170E-18
 -1      1174 8.35415E-05-2.52614E-05-2.61716E-05-4.23350E-07 1.12404E-19-3.67120E-18
 -1      1175 8.41056E-05-2.54085E-05-2.62513E-05 6.24030E-07 1.68930E-19-4.06009E-18
 -1      1176 9.41915E-05-2.82830E-05-2.86306E-05 1.24106E-06-3.08161E-19-8.61782E-18
 -1      1177 1.07580E-04-3.21685E-05-3.19662E-05 1.15681E-06-5.22980E-19-1.34587E-17
 -1      1178 1.17760E-04-3.51817E-05-3.46995E-05 6.54927E-07-6.29848E-20-1.15660E-17
 -1      1179 1.21717E-04-3.63927E-05-3.59313E-05 1.37986E-07-1.40621E-19-8.59463E-18
 -1      1180 1.19930E-04-3.59028E-05-3.56089E-05-1.97377E-07 3.79180E-21-5.95472E-18
 -1      1181 1.14481E-04-3.43162E-05-3.41990E-05-3.46098E-07 3.99436E-19-2.64147E-18
 -1      1182 1.07567E-04-3.22828E-05-3.23095E-05-3.66704E-07-1.65245E-19-1.99476E-18
 -1      1183 1.01008E-04-3.03472E-05-3.04888E-05-2.86684E-07 4.10626E-19-3.59380E-19
 -1      1184 9.64250E-05-2.90379E-05-2.91558E-05-6.64758E-08-2.10064E-19-2.42086E-18
 -1      1185 9.49140E-05-2.84508E-05-2.83892E-05 1.25688E-07 3.48640E-19-1.92925E-18
 -1      1186 1.31056E-04-3.77390E-05-3.86593E-05 1.21748E-05-2.90744E-19 2.45385E-17
 -1      1187 9.65579E-05-2.81891E-05-3.13300E-05 8.01509E-07 1.69565E-19 1.97082E-17
 -1      1188 9.03712E-05-2.69285E-05-2.78733E-05 1.20188E-07 9.28560E-20 1.51678E-17
 -1      1189 8.83306E-05-2.64981E-05-2.66785E-05 9.02824E-09 1.21443E-19 1.20637E-17
 -1      1190 8.79235E-05-2.64059E-05-2.64121E-05-2.52548E-08 7.70767E-20 9.53926E-18
 -1      1191 8.82610E-05-2.65017E-05-2.64848E-05-3.42706E-08 8.52749E-20 7.63865E-18
 -1      1192 8.89348E-05-2.66956E-05-2.66808E-05-3.54305E-08 1.51353E-20 6.58313E-18
 -1      1193 8.97399E-05-2.69315E-05-2.69191E-05-3.36713E-08-3.16922E-20 5.84586E-18
 -1      1194 9.05643E-05-2.71754E-05-2.71639E-05-3.05509E-08-3.20408E-20 5.21866E-18
 -1      1195 9.13452E-05-2.74075E-05-2.73966E-05-2.67694E-08 8.63263E-20 4.09005E-18
 -1      1196 9.20495E-05-2.76174E-05-2.76072E-05-2.27366E-08 8.26282E-20 3.52046E-18
 -1      1197 9.26631E-05-2.78006E-05-2.77913E-05-1.87059E-08 4.02958E-20 2.90688E-18
 -1      1198 9.31843E-05-2.79565E-05-2.79483E-05-1.48261E-08 2.14473E-19 1.85459E-18
 -1      1199 9.36196E-05-2.80868E-05-2.80798E-05-1.11723E-08-1.65888E-20 6.88151E-19
 -1      1200 9.39811E-05-2.81953E-05-2.81895E-05-7.76792E-09-2.27326E-20 3.69746E-19
 -1      1201 9.42847E-05-2.82866E-05-2.82820E-05-4.60374E-09 4.27611E-20-2.62457E-19
 -1      1202 9.45491E-05-2.83663E-05-2.83630E-05-1.65493E-09-3.94877E-20-1.14310E-18
 -1      1203 9.47959E-05-2.84409E-05-2.84389E-05 1.10174E-09-1.58826E-20-2.62279E-18
 -1      1204 9.50491E-05-2.85176E-05-2.85171E-05 3.66938E-09 1.67050E-19-3.81917E-18
 -1      1205 9.53359E-05-2.86046E-05-2.86057E-05 6.00949E-09-1.50446E-19-4.29633E-18
 -1      1206 9.56870E-05-2.87110E-05-2.87141E-05 8.01573E-09-1.05620E-19-1.76721E-18
 -1      1207 9.61365E-05-2.88469E-05-2.88524E-05 9.48154E-09-8.01939E-20-1.60301E-18
 -1      1208 9.67215E-05-2.90235E-05-2.90318E-05 1.00609E-08-1.22581E-19-2.76733E-18
 -1      1209 9.74812E-05-2.92521E-05-2.92637E-05 9.22494E-09 1.51835E-19-3.89127E-18
 -1      1210 9.84528E-05-2.95438E-05-2.95590E-05 6.22406E-09 6.74781E-20-4.11845E-18
 -1      1211 9.96661E-05-2.99069E-05-2.99256E-05 7.93071E-11 2.60379E-19-3.17609E-18
 -1      1212 1.01133E-04-3.03444E-05-3.03657E-05-1.03453E-08-9.77955E-20-2.18856E-18
 -1      1213 1.02832E-04-3.08491E-05-3.08705E-05-2.60949E-08 3.68362E-20-3.43078E-18
 -1      1214 1.04685E-04-3.13972E-05-3.14138E-05-4.75530E-08-8.27212E-20-4.08081E-18
 -1      1215 1.06533E-04-3.19407E-05-3.19438E-05-7.33740E-08-3.27245E-20-4.09174E-18
 -1      1216 1.08102E-04-3.23991E-05-3.23763E-05-9.88657E-08 4.83173E-20-3.51000E-18
 -1      1217 1.08996E-04-3.26567E-05-3.25935E-05-1.14242E-07 4.50471E-19-4.15966E-18
 -1      1218 1.08721E-04-3.25704E-05-3.24557E-05-1.04180E-07-1.52496E-19-2.10199E-18
 -1      1219 1.06786E-04-3.19994E-05-3.18364E-05-5.15293E-08-5.98680E-20-8.14316E-19
 -1      1220 1.02912E-04-3.08624E-05-3.06815E-05 5.21329E-08 8.54643E-20 3.60413E-19
 -1      1221 9.73067E-05-2.92154E-05-2.90783E-05 1.91410E-07-1.39183E-19-1.76543E-18
 -1      1222 9.08743E-05-2.73136E-05-2.72955E-05 3.18424E-07 3.35405E-20-3.25462E-18
 -1      1223 8.51386E-05-2.55961E-05-2.57432E-05 3.67646E-07 1.43417E-19-3.03709E-18
 -1      1224 8.17373E-05-2.45506E-05-2.48356E-05 2.96149E-07 3.05130E-20-3.76571E-18
 -1      1225 8.16554E-05-2.44893E-05-2.48093E-05 1.21449E-07 2.09022E-19-3.78517E-18
 -1      1226 8.46849E-05-2.53731E-05-2.56054E-05-8.23725E-08 2.39386E-20-4.24136E-18
 -1      1227 8.95306E-05-2.68239E-05-2.68962E-05-2.32590E-07-4.37452E-19-3.02793E-18
 -1      1228 9.44785E-05-2.83219E-05-2.82418E-05-2.85142E-07 6.95973E-20-6.16725E-18
 -1      1229 9.81455E-05-2.94396E-05-2.92712E-05-2.47144E-07 2.48485E-21-6.74836E-18
 -1      1230 9.98893E-05-2.99769E-05-2.97944E-05-1.55810E-07 1.63858E-19-5.40750E-18
 -1      1231 9.97970E-05-2.99586E-05-2.98178E-05-5.06400E-08 2.80292E-19-3.63659E-18
 -1      1232 9.84522E-05-2.95610E-05-2.94930E-05 3.89513E-08 2.96968E-19-3.86408E-18
 -1      1233 9.66857E-05-2.90322E-05-2.90438E-05 8.81202E-08 2.53026E-19-6.52295E-18
 -1      1234 9.53717E-05-2.86309E-05-2.86777E-05 5.80819E-08 4.69306E-19-8.31522E-18
 -1      1235 9.50827E-05-2.85221E-05-2.84561E-05-5.19856E-08 1.12306E-19-5.85841E-18
 -1      1236 9.52870E-05-2.87278E-05-2.84653E-05-5.33436E-08-6.40872E-18-7.38325E-20
 -1      1237 9.51592E-05-2.84278E-05-2.87041E-05-4.44119E-08-4.49130E-18 6.83030E-19
 -1      1238 9.47069E-05-2.69397E-05-2.91844E-05 4.80157E-08 5.44256E-18-2.95750E-20
 -1      1239 9.38713E-05-2.41619E-05-3.00175E-05 1.18260E-07 7.85168E-18-5.77870E-19
 -1      1240 9.26720E-05-2.01368E-05-3.12063E-05 1.87976E-07 1.09550E-18-9.68594E-19
 -1      1241 9.11817E-05-1.51081E-05-3.26668E-05 2.49479E-07-6.43787E-18-6.47618E-19
 -1      1242 8.95456E-05-9.54165E-06-3.42575E-05 2.80713E-07-1.32807E-17-3.34499E-19
 -1      1243 8.79894E-05-4.22259E-06-3.57514E-05 2.56614E-07-1.79644E-17-5.41838E-19
 -1      1244 8.68333E-05-2.51561E-07-3.68486E-05 1.66606E-07-1.30279E-17 9.73572E-19
 -1      1245 8.63545E-05 1.40710E-06-3.72928E-05 2.32798E-08-8.62793E-18 2.59530E-19
 -1      1246 8.67048E-05 2.15318E-07-3.69436E-05-1.38389E-07-8.10920E-18-7.81699E-19
 -1      1247 8.78507E-05-3.68329E-06-3.58437E-05-2.76717E-07-9.09904E-18 8.21655E-20
 -1      1248 8.95757E-05-9.58255E-06-3.41833E-05-3.55125E-07-1.08718E-17-8.90156E-19
 -1      1249 9.15885E-05-1.64326E-05-3.22652E-05-3.70933E-07-1.02539E-17 3.78846E-19
 -1      1250 9.34946E-05-2.29242E-05-3.04739E-05-3.45464E-07-3.52257E-18 1.15542E-18
 -1      1251 9.47040E-05-2.72419E-05-2.91715E-05 1.75352E-09 8.88882E-19-7.22572E-19
 -1      1252 9.53740E-05-2.88827E-05-2.83932E-05 8.57690E-08 2.16015E-18 5.99650E-19
 -1      1253 3.69449E-05-1.16078E-04 1.99620E-05-1.41398E-05 1.29727E-17 1.84539E-18
 -1      1254 2.00473E-05-7.43257E-05 1.16843E-05-2.70641E-05 1.73743E-17 5.75368E-18
 -1      1255 7.45959E-06-1.71973E-05-3.08351E-06-6.86836E-06 1.93005E-17 1.10106E-17
 -1      1256 2.65564E-05 2.18708E-05-2.22171E-05 4.32427E-05 1.99154E-17 1.77216E-17
 -1      1257 9.20779E-05 1.92171E-05-4.31794E-05 9.54489E-05 1.39083E-17 1.65290E-17
 -1      1258 1.88242E-04-2.12622E-05-6.16464E-05 1.14851E-04 6.70257E-18 1.14993E-17
 -1      1259 2.74646E-04-6.99172E-05-7.41446E-05 8.18836E-05 1.73134E-18 4.99749E-18
 -1      1260 3.14723E-04-9.48893E-05-7.91455E-05 1.02903E-05 2.17635E-19-3.06774E-18
 -1      1261 2.87762E-04-7.81164E-05-7.57836E-05-6.61588E-05 3.26505E-18-1.37601E-17
 -1      1262 2.05691E-04-3.12236E-05-6.41867E-05-1.10028E-04 9.15219E-18-2.11572E-17
 -1      1263 1.04626E-04 1.46848E-05-4.59505E-05-9.96742E-05 1.77640E-17-2.46961E-17
 -1      1264 3.32941E-05 2.40166E-05-2.54650E-05-5.19561E-05 2.25091E-17-2.13689E-17
 -1      1265 8.40822E-06-1.00057E-05-5.65520E-06-3.20476E-07 1.83789E-17-1.22718E-17
 -1      1266 1.79386E-05-6.60022E-05 9.96415E-06 2.56066E-05 1.28156E-17-5.23085E-18
 -1      1267 3.44062E-05-1.08203E-04 1.85563E-05 1.56239E-05 7.13541E-18-1.87197E-18
 -1      1268 3.69991E-05-1.15277E-04 2.00572E-05-1.08826E-05-7.85581E-18-2.06560E-18
 -1      1269 2.33758E-05-8.47045E-05 1.41396E-05-2.88833E-05-1.72896E-17-5.27342E-18
 -1      1270 7.91651E-06-3.09812E-05 1.17641E-06-1.71955E-05-1.95766E-17-1.04075E-17
 -1      1271 1.88232E-05 1.42293E-05-1.77524E-05 2.88428E-05-1.48248E-17-1.19305E-17
 -1      1272 7.74043E-05 1.99706E-05-3.91825E-05 8.45602E-05-8.44746E-18-1.05371E-17
 -1      1273 1.75349E-04-1.69876E-05-5.92083E-05 1.12227E-04-5.68952E-18-1.04778E-17
 -1      1274 2.74296E-04-6.93113E-05-7.39268E-05 8.50667E-05-9.61594E-19-1.47638E-18
 -1      1275 3.22609E-04-9.66012E-05-8.05574E-05 8.88817E-06-5.73547E-19 7.49243E-18
 -1      1276 2.93460E-04-7.78285E-05-7.69877E-05-7.27980E-05-4.68325E-18 1.91201E-17
 -1      1277 2.03350E-04-2.78811E-05-6.42136E-05-1.14967E-04-1.04007E-17 2.46216E-17
 -1      1278 9.91689E-05 1.71881E-05-4.52191E-05-9.96008E-05-1.55388E-17 2.15604E-17
 -1      1279 2.86379E-05 2.19090E-05-2.34648E-05-4.52790E-05-1.40167E-17 1.44877E-17
 -1      1280 7.46318E-06-1.77680E-05-3.13984E-06 7.87875E-06-1.11707E-17 5.87756E-18
 -1      1281 2.04035E-05-7.59800E-05 1.20268E-05 2.89253E-05-6.18842E-18 2.93687E-18
 -1      1282 3.77612E-05-1.17471E-04 2.01362E-05 1.45902E-05 1.64790E-18 1.05858E-18
 -1      1283 1.04443E-04-2.20193E-05-3.78922E-05-1.72764E-05-5.01232E-19 1.29132E-17
 -1      1284 9.03183E-05-6.68097E-06-3.60166E-05-2.04744E-05-1.67130E-18 1.40576E-18
 -1      1285 9.26547E-05-6.73955E-06-3.72219E-05-2.57623E-05-2.07989E-18 4.11563E-18
 -1      1286 8.59013E-05-4.09676E-06-3.51287E-05-1.64348E-05-1.75765E-18-2.48779E-18
 -1      1287 8.71550E-05-4.08995E-06-3.55985E-05-1.88558E-05-1.98237E-18-7.78053E-19
 -1      1288 9.21329E-05-1.04634E-05-3.50929E-05-1.90385E-05-2.97785E-18 1.29167E-18
 -1      1289 8.40938E-05-3.18931E-06-3.46859E-05-1.28218E-05-1.54832E-18-4.41957E-18
 -1      1290 8.47023E-05-3.15892E-06-3.49099E-05-1.46345E-05-1.72562E-18-3.56183E-18
 -1      1291 8.78603E-05-7.39410E-06-3.45723E-05-1.54127E-05-2.82448E-18-1.92658E-18
 -1      1292 8.31861E-05-2.72852E-06-3.44702E-05-9.68819E-06-1.17002E-18-5.40146E-18
 -1      1293 8.35002E-05-2.71189E-06-3.45792E-05-1.12363E-05-1.31626E-18-4.94666E-18
 -1      1294 8.58627E-05-5.98422E-06-3.43045E-05-1.19625E-05-2.34670E-18-3.54883E-18
 -1      1295 8.26930E-05-2.45693E-06-3.43638E-05-6.91697E-06-8.38444E-19-5.85590E-18
 -1      1296 8.28627E-05-2.44864E-06-3.44183E-05-8.28792E-06-9.58246E-19-5.64099E-18
 -1      1297 8.48207E-05-5.21661E-06-3.41731E-05-8.94443E-06-1.77549E-18-4.38771E-18
 -1      1298 8.24183E-05-2.29209E-06-3.43108E-05-4.29674E-06-5.19420E-19-6.01982E-18
 -1      1299 8.25091E-05-2.28815E-06-3.43381E-05-5.59836E-06-6.24687E-19-5.95578E-18
 -1      1300 8.42342E-05-4.76145E-06-3.41094E-05-6.21908E-06-1.22496E-18-4.81951E-18
 -1      1301 8.22863E-05-2.20297E-06-3.42885E-05-1.79081E-06-1.93554E-19-6.05280E-18
 -1      1302 8.23251E-05-2.20137E-06-3.42996E-05-3.04235E-06-3.02533E-19-6.03968E-18
 -1      1303 8.39129E-05-4.49884E-06-3.40804E-05-3.64634E-06-6.85212E-19-4.91423E-18
 -1      1304 8.22603E-05-2.17549E-06-3.42859E-05 6.70076E-07 1.09596E-19-6.00091E-18
 -1      1305 8.22589E-05-2.17553E-06-3.42855E-05-5.66331E-07 1.42606E-20-6.03318E-18
 -1      1306 8.37720E-05-4.37940E-06-3.40695E-05-1.17110E-06-1.33665E-19-4.96600E-18
 -1      1307 8.23337E-05-2.20568E-06-3.43011E-05 3.14969E-06 4.30329E-19-5.89559E-18
 -1      1308 8.22920E-05-2.20732E-06-3.42894E-05 1.89556E-06 3.19824E-19-5.95562E-18
 -1      1309 8.37769E-05-4.38357E-06-3.40699E-05 1.27426E-06 3.34220E-19-4.88063E-18
 -1      1310 8.25265E-05-2.29858E-06-3.43406E-05 5.71484E-06 7.02842E-19-5.66485E-18
 -1      1311 8.24322E-05-2.30196E-06-3.43127E-05 4.40727E-06 5.98955E-19-5.82536E-18
 -1      1312 8.39285E-05-4.51233E-06-3.40814E-05 3.75363E-06 8.50487E-19-4.75849E-18
 -1      1313 8.28856E-05-2.46414E-06-3.44207E-05 8.39717E-06 1.02875E-18-5.15780E-18
 -1      1314 8.27131E-05-2.47284E-06-3.43658E-05 7.01713E-06 9.10269E-19-5.45869E-18
 -1      1315 8.42605E-05-4.78517E-06-3.41104E-05 6.31288E-06 1.32707E-18-4.44716E-18
 -1      1316 8.35431E-05-2.74128E-06-3.45840E-05 1.13978E-05 1.48353E-18-4.33465E-18
 -1      1317 8.32220E-05-2.75839E-06-3.44733E-05 9.83268E-06 1.30924E-18-4.83362E-18
 -1      1318 8.48627E-05-5.25807E-06-3.41734E-05 9.05646E-06 1.92369E-18-3.89564E-18
 -1      1319 8.47636E-05-3.20326E-06-3.49185E-05 1.48466E-05 1.86829E-18-2.84108E-18
 -1      1320 8.41515E-05-3.24001E-06-3.46918E-05 1.30063E-05 1.67445E-18-3.76136E-18
 -1      1321 8.59452E-05-6.06286E-06-3.43060E-05 1.21253E-05 2.58034E-18-2.98730E-18
 -1      1322 8.72538E-05-4.09016E-06-3.56202E-05 1.90937E-05 2.14633E-18 3.13932E-20
 -1      1323 8.59705E-05-4.15405E-06-3.51369E-05 1.66958E-05 1.90789E-18-1.70505E-18
 -1      1324 8.79896E-05-7.51696E-06-3.45752E-05 1.56531E-05 3.06234E-18-1.23593E-18
 -1      1325 9.34674E-05-6.79218E-06-3.71172E-05 2.50983E-05 1.82080E-18 5.64399E-18
 -1      1326 9.01332E-05-6.43771E-06-3.60392E-05 2.11512E-05 1.78009E-18 2.21526E-18
 -1      1327 9.23617E-05-1.06979E-05-3.50781E-05 1.96788E-05 3.19093E-18 2.05935E-18
 -1      1328 1.23629E-04-2.49241E-05-3.90158E-05 2.83679E-05 8.91926E-19 1.63384E-17
 -1      1329 1.00083E-04-1.44243E-05-3.73549E-05 2.40519E-05 8.94361E-19 8.92032E-18
 -1      1330 1.01681E-04-1.93427E-05-3.54030E-05 2.14004E-05 2.96352E-18 7.15044E-18
 -1      1331 1.02607E-04-2.78060E-05-3.47587E-05 7.32980E-06 1.58003E-18 1.57288E-17
 -1      1332 1.05150E-04-3.02309E-05-3.35263E-05-7.96009E-06-1.64631E-18 1.33842E-17
 -1      1333 9.82630E-05-2.78436E-05-3.07629E-05-4.98876E-06-1.60624E-18 1.14634E-17
 -1      1334 9.55051E-05-2.78499E-05-2.92552E-05-2.49029E-06-1.31452E-18 1.05612E-17
 -1      1335 9.32721E-05-2.75589E-05-2.82157E-05-2.04363E-06-1.26721E-18 8.67108E-18
 -1      1336 9.94868E-05-2.80531E-05-3.09833E-05-7.88748E-06-2.81056E-18 6.50257E-18
 -1      1337 9.15819E-05-2.72008E-05-2.75812E-05-8.39122E-07-1.01191E-18 7.90819E-18
 -1      1338 9.08645E-05-2.71051E-05-2.72787E-05-7.29007E-07-9.65048E-19 6.48131E-18
 -1      1339 9.47192E-05-2.77703E-05-2.88167E-05-3.12204E-06-2.20882E-18 5.13622E-18
 -1      1340 9.01136E-05-2.69220E-05-2.70353E-05-1.74910E-07-7.06938E-19 5.81761E-18
 -1      1341 9.00402E-05-2.69485E-05-2.70002E-05-1.16834E-07-7.16458E-19 4.80617E-18
 -1      1342 9.25187E-05-2.74996E-05-2.78955E-05-1.05521E-06-1.66560E-18 3.65773E-18
 -1      1343 8.97802E-05-2.68810E-05-2.69258E-05 1.53290E-07-5.62701E-19 4.31092E-18
 -1      1344 8.99937E-05-2.69708E-05-2.69871E-05 1.81897E-07-6.53294E-19 3.54392E-18
 -1      1345 9.15590E-05-2.73555E-05-2.75282E-05-7.20526E-08-1.20659E-18 2.46880E-18
 -1      1346 8.99967E-05-2.69737E-05-2.69933E-05 3.12659E-07-5.39595E-19 3.32650E-18
 -1      1347 9.03375E-05-2.70929E-05-2.70919E-05 3.24278E-07-4.58197E-19 2.71184E-18
 -1      1348 9.13046E-05-2.73433E-05-2.74199E-05 4.14611E-07-1.10398E-18 1.76405E-18
 -1      1349 9.04785E-05-2.71344E-05-2.71388E-05 3.78451E-07-3.96136E-19 2.48422E-18
 -1      1350 9.08641E-05-2.72620E-05-2.72502E-05 3.80033E-07-3.97726E-19 1.89403E-18
 -1      1351 9.14357E-05-2.74164E-05-2.74415E-05 6.41962E-07-8.12082E-19 1.47442E-18
 -1      1352 9.10710E-05-2.73219E-05-2.73163E-05 3.90258E-07-3.09489E-19 1.80806E-18
 -1      1353 9.14558E-05-2.74458E-05-2.74277E-05 3.85981E-07-2.21627E-19 1.55306E-18
 -1      1354 9.17661E-05-2.75346E-05-2.75297E-05 7.23544E-07-6.77095E-19 1.26364E-18
 -1      1355 9.16858E-05-2.75121E-05-2.75003E-05 3.71180E-07-2.17667E-19 1.28763E-18
 -1      1356 9.20446E-05-2.76256E-05-2.76047E-05 3.63739E-07-3.26606E-19 1.05810E-18
 -1      1357 9.21853E-05-2.76709E-05-2.76491E-05 7.21222E-07-5.02396E-19 9.89559E-19
 -1      1358 9.22727E-05-2.76912E-05-2.76763E-05 3.35697E-07-3.52087E-19 7.83403E-19
 -1      1359 9.25926E-05-2.77910E-05-2.77697E-05 3.26879E-07-1.02768E-19 4.85558E-19
 -1      1360 9.26274E-05-2.78086E-05-2.77783E-05 6.72062E-07-5.19856E-19 7.13081E-19
 -1      1361 9.28050E-05-2.78519E-05-2.78362E-05 2.93231E-07-2.37544E-19 1.58385E-19
 -1      1362 9.30815E-05-2.79373E-05-2.79173E-05 2.84229E-07-2.77053E-19-1.23750E-19
 -1      1363 9.30538E-05-2.79381E-05-2.79049E-05 5.99600E-07-3.79787E-19-2.09111E-20
 -1      1364 9.32717E-05-2.79917E-05-2.79767E-05 2.50021E-07-1.15156E-19-1.14746E-19
 -1      1365 9.35053E-05-2.80632E-05-2.80454E-05 2.41631E-07-2.70367E-19-5.06797E-19
 -1      1366 9.34444E-05-2.80546E-05-2.80221E-05 5.19251E-07-4.13690E-19-3.82084E-19
 -1      1367 9.36718E-05-2.81107E-05-2.80974E-05 2.10247E-07 1.56662E-20-3.38261E-19
 -1      1368 9.38667E-05-2.81697E-05-2.81550E-05 2.03004E-07 1.30556E-19-2.77842E-19
 -1      1369 9.37911E-05-2.81563E-05-2.81272E-05 4.41285E-07-1.48423E-19-7.62232E-19
 -1      1370 9.40114E-05-2.82109E-05-2.82001E-05 1.76779E-07-2.58903E-20-3.00870E-19
 -1      1371 9.41742E-05-2.82597E-05-2.82484E-05 1.71062E-07-3.61623E-19-4.67430E-19
 -1      1372 9.40941E-05-2.82439E-05-2.82198E-05 3.72680E-07-1.63451E-19-2.62341E-19
 -1      1373 9.43016E-05-2.82959E-05-2.82881E-05 1.51726E-07-4.36533E-19-4.40026E-19
 -1      1374 9.44407E-05-2.83370E-05-2.83295E-05 1.47831E-07-4.11886E-19-7.79155E-19
 -1      1375 9.43595E-05-2.83195E-05-2.83016E-05 3.18401E-07-5.61338E-19-6.32079E-19
 -1      1376 9.45572E-05-2.83699E-05-2.83658E-05 1.36845E-07-2.49919E-19-8.33920E-19
 -1      1377 9.46823E-05-2.84064E-05-2.84032E-05 1.35056E-07-1.84895E-19-1.25693E-18
 -1      1378 9.45977E-05-2.83862E-05-2.83757E-05 2.82339E-07-4.74633E-19-4.37702E-19
 -1      1379 9.47958E-05-2.84385E-05-2.84386E-05 1.33882E-07-2.40838E-19-1.33098E-18
 -1      1380 9.49185E-05-2.84739E-05-2.84754E-05 1.34518E-07-1.12403E-19-1.73224E-18
 -1      1381 9.48225E-05-2.84483E-05-2.84461E-05 2.68048E-07-3.86797E-19-1.01067E-18
 -1      1382 9.50388E-05-2.85078E-05-2.85129E-05 1.44847E-07-2.76429E-19-2.16958E-18
 -1      1383 9.51725E-05-2.85461E-05-2.85531E-05 1.48314E-07-1.66559E-19-2.34493E-18
 -1      1384 9.50513E-05-2.85106E-05-2.85183E-05 2.79335E-07-4.37179E-19-1.64792E-18
 -1      1385 9.53111E-05-2.85852E-05-2.85962E-05 1.72256E-07 1.34973E-19-2.50621E-18
 -1      1386 9.54714E-05-2.86312E-05-2.86445E-05 1.79088E-07-1.62259E-19-2.38215E-18
 -1      1387 9.53047E-05-2.85792E-05-2.85985E-05 3.20779E-07-1.57165E-19-1.79035E-18
 -1      1388 9.56422E-05-2.86792E-05-2.86977E-05 2.19355E-07-6.53407E-20-2.36244E-18
 -1      1389 9.58481E-05-2.87386E-05-2.87596E-05 2.30254E-07-1.72679E-19-2.20738E-18
 -1      1390 9.56074E-05-2.86612E-05-2.86943E-05 3.98165E-07-2.24538E-19-1.96547E-18
 -1      1391 9.60676E-05-2.88004E-05-2.88280E-05 2.90307E-07 7.16777E-20-1.99294E-18
 -1      1392 9.63422E-05-2.88801E-05-2.89103E-05 3.06182E-07 1.57010E-19-1.59014E-18
 -1      1393 9.59889E-05-2.87648E-05-2.88148E-05 5.18876E-07 8.77390E-20-2.11808E-18
 -1      1394 9.66303E-05-2.89611E-05-2.90002E-05 3.90337E-07-1.24139E-19-1.84846E-18
 -1      1395 9.70017E-05-2.90697E-05-2.91113E-05 4.12332E-07-1.42010E-19-2.02183E-18
 -1      1396 9.64845E-05-2.89001E-05-2.89709E-05 6.92198E-07-1.35194E-19-1.91165E-18
 -1      1397 9.73819E-05-2.91767E-05-2.92301E-05 5.25769E-07-2.85386E-19-2.09772E-18
 -1      1398 9.78847E-05-2.93246E-05-2.93801E-05 5.55271E-07-2.20017E-19-2.62013E-18
 -1      1399 9.71363E-05-2.90793E-05-2.91755E-05 9.29456E-07-4.94436E-19-1.81450E-18
 -1      1400 9.83850E-05-2.94655E-05-2.95367E-05 7.03819E-07 1.30998E-19-3.08113E-18
 -1      1401 9.90608E-05-2.96656E-05-2.97379E-05 7.42404E-07-3.55696E-20-2.99754E-18
 -1      1402 9.79944E-05-2.93168E-05-2.94439E-05 1.24377E-06-6.63614E-20-1.93318E-18
 -1      1403 9.97131E-05-2.98495E-05-2.99421E-05 9.31836E-07-6.93177E-20-2.81218E-18
 -1      1404 1.00611E-04-3.01172E-05-3.02089E-05 9.81085E-07 2.02328E-19-2.41594E-18
 -1      1405 9.91165E-05-2.96297E-05-2.97935E-05 1.64897E-06 9.07748E-21-2.11458E-18
 -1      1406 1.01450E-04-3.03542E-05-3.04717E-05 1.21544E-06 4.65057E-19-2.38524E-18
 -1      1407 1.02624E-04-3.07071E-05-3.08196E-05 1.27647E-06 4.95607E-19-1.96387E-18
 -1      1408 1.00568E-04-3.00384E-05-3.02434E-05 2.15687E-06 3.70514E-19-1.67709E-18
 -1      1409 1.03683E-04-3.10079E-05-3.11514E-05 1.55453E-06 3.82465E-19-2.04648E-18
 -1      1410 1.05187E-04-3.14644E-05-3.15955E-05 1.62695E-06-1.34928E-19-1.97034E-18
 -1      1411 1.02415E-04-3.05659E-05-3.08125E-05 2.77115E-06 4.15172E-19-2.16350E-18
 -1      1412 1.06493E-04-3.18386E-05-3.20034E-05 1.93539E-06 1.01895E-19-1.76763E-18
 -1      1413 1.08363E-04-3.24141E-05-3.25530E-05 2.01524E-06 2.52628E-19-1.46287E-18
 -1      1414 1.04720E-04-3.12373E-05-3.15155E-05 3.47539E-06 3.69485E-19-1.97789E-18
 -1      1415 1.09922E-04-3.28680E-05-3.30359E-05 2.31673E-06 3.41316E-19-6.61493E-19
 -1      1416 1.12149E-04-3.35668E-05-3.36855E-05 2.39264E-06 4.94952E-19-4.19546E-20
 -1      1417 1.07518E-04-3.20781E-05-3.23557E-05 4.21126E-06 7.92828E-19-6.17560E-19
 -1      1418 1.13921E-04-3.40983E-05-3.42254E-05 2.60739E-06 3.45618E-19 3.44941E-19
 -1      1419 1.16396E-04-3.48972E-05-3.49376E-05 2.65449E-06-2.72459E-19 5.98402E-19
 -1      1420 1.10789E-04-3.31084E-05-3.33130E-05 4.84307E-06 6.81901E-19 3.43340E-19
 -1      1421 1.18263E-04-3.54877E-05-3.54879E-05 2.63838E-06-8.72467E-19 1.21560E-18
 -1      1422 1.20695E-04-3.63092E-05-3.61707E-05 2.61073E-06-9.37940E-19-4.87044E-21
 -1      1423 1.14401E-04-3.43302E-05-3.43254E-05 5.10987E-06-8.95929E-19 6.45532E-19
 -1      1424 1.22421E-04-3.69087E-05-3.66436E-05 2.14607E-06-1.07625E-18-4.75080E-19
 -1      1425 1.24247E-04-3.75827E-05-3.71294E-05 1.97383E-06-8.13721E-19-1.97200E-18
 -1      1426 1.18036E-04-3.56978E-05-3.52705E-05 4.58574E-06-1.91796E-18 4.08588E-19
 -1      1427 1.25440E-04-3.80860E-05-3.73954E-05 8.16071E-07-4.30551E-19-2.49140E-18
 -1      1428 1.25803E-04-3.83202E-05-3.74463E-05 4.24633E-07-8.62650E-20-3.08033E-18
 -1      1429 1.21105E-04-3.70537E-05-3.59583E-05 2.71425E-06-1.22472E-18 3.36398E-19
 -1      1430 1.25937E-04-3.85379E-05-3.73633E-05-1.52447E-06 7.47110E-20-3.26449E-18
 -1      1431 1.23888E-04-3.79520E-05-3.67487E-05-2.14403E-06 2.04056E-19-3.43022E-18
 -1      1432 1.22704E-04-3.80309E-05-3.61641E-05-9.49144E-07-3.61868E-19-1.30192E-19
 -1      1433 1.22465E-04-3.76190E-05-3.62400E-05-4.50712E-06 6.62737E-19-3.43361E-18
 -1      1434 1.17565E-04-3.59448E-05-3.49040E-05-5.17475E-06 5.61980E-19-2.80463E-18
 -1      1435 1.21737E-04-3.79841E-05-3.57262E-05-6.15037E-06 6.57986E-19 5.49751E-19
 -1      1436 1.14505E-04-3.48703E-05-3.40566E-05-6.83347E-06 5.85988E-19-2.46995E-18
 -1      1437 1.07697E-04-3.23419E-05-3.23073E-05-7.11679E-06-3.45596E-21-1.93801E-18
 -1      1438 1.17461E-04-3.62236E-05-3.46872E-05-1.11688E-05 8.98960E-19-8.16831E-19
 -1      1439 1.03891E-04-3.07769E-05-3.14086E-05-6.61463E-06-1.60142E-20-2.22230E-18
 -1      1440 9.78144E-05-2.84041E-05-2.99118E-05-6.09452E-06-1.54848E-19-2.24464E-18
 -1      1441 1.10543E-04-3.27732E-05-3.33679E-05-1.28150E-05 1.54577E-19-1.06001E-18
 -1      1442 9.51412E-05-2.72324E-05-2.93319E-05-3.00520E-06-9.60853E-19-2.54179E-18
 -1      1443 9.28572E-05-2.63441E-05-2.87672E-05-1.82130E-06-3.47310E-19-3.45086E-18
 -1      1444 1.03836E-04-2.91743E-05-3.22626E-05-8.52752E-06-1.09130E-18-2.66197E-18
 -1      1445 9.29039E-05-2.64252E-05-2.87411E-05 2.23070E-06-7.12064E-19-4.53421E-18
 -1      1446 9.55328E-05-2.75321E-05-2.93438E-05 3.30115E-06-1.47789E-18-6.27630E-18
 -1      1447 1.01120E-04-2.77886E-05-3.17879E-05 3.43042E-07-1.33217E-18-4.01333E-18
 -1      1448 9.80271E-05-2.87123E-05-2.98321E-05 5.80669E-06-1.29503E-18-6.73942E-18
 -1      1449 1.03761E-04-3.09967E-05-3.12188E-05 6.10726E-06-1.78041E-18-9.03382E-18
 -1      1450 1.03846E-04-2.95338E-05-3.20654E-05 8.45161E-06-2.32926E-18-5.78701E-18
 -1      1451 1.06872E-04-3.23120E-05-3.19347E-05 5.94892E-06-1.28408E-18-9.30709E-18
 -1      1452 1.12540E-04-3.44317E-05-3.33813E-05 5.51717E-06-3.40461E-19-1.04030E-17
 -1      1453 1.09691E-04-3.29317E-05-3.28829E-05 1.11638E-05-2.09131E-18-7.24920E-18
 -1      1454 1.14564E-04-3.51310E-05-3.39557E-05 3.51699E-06 1.23489E-18-8.87415E-18
 -1      1455 1.17887E-04-3.62581E-05-3.48627E-05 2.82055E-06 1.39034E-18-7.76120E-18
 -1      1456 1.14846E-04-3.56633E-05-3.37842E-05 8.31092E-06 1.01243E-18-5.81537E-18
 -1      1457 1.18207E-04-3.62351E-05-3.50520E-05 4.45950E-07 3.02814E-19-5.67282E-18
 -1      1458 1.18640E-04-3.62914E-05-3.52095E-05-1.38574E-07 1.17990E-18-4.81692E-18
 -1      1459 1.16977E-04-3.65729E-05-3.42960E-05 2.91330E-06 2.38162E-18-3.78176E-18
 -1      1460 1.17492E-04-3.57771E-05-3.49766E-05-1.93528E-06 1.34013E-18-4.51374E-18
 -1      1461 1.15686E-04-3.50866E-05-3.45068E-05-2.27820E-06 1.28776E-18-2.82713E-18
 -1      1462 1.15865E-04-3.58889E-05-3.41646E-05-2.08818E-06 2.13971E-18-2.27309E-18
 -1      1463 1.13631E-04-3.43381E-05-3.39675E-05-3.22635E-06 1.30054E-18-2.85363E-18
 -1      1464 1.10613E-04-3.32829E-05-3.31383E-05-3.34880E-06 1.14742E-18-1.38696E-18
 -1      1465 1.12447E-04-3.43346E-05-3.34276E-05-5.31306E-06 1.86543E-18-6.13450E-19
 -1      1466 1.08222E-04-3.24803E-05-3.24639E-05-3.53290E-06-4.89745E-19-9.12678E-19
 -1      1467 1.04943E-04-3.13647E-05-3.15499E-05-3.48775E-06-1.90596E-19-1.70696E-18
 -1      1468 1.07891E-04-3.24932E-05-3.23141E-05-6.61117E-06 6.59276E-19-1.34132E-18
 -1      1469 1.02685E-04-3.06208E-05-3.09046E-05-3.05177E-06 1.38560E-18-1.45364E-18
 -1      1470 9.99300E-05-2.96801E-05-3.01353E-05-2.86263E-06 8.02994E-19-5.70291E-20
 -1      1471 1.03203E-04-3.06970E-05-3.11115E-05-6.28023E-06 2.00502E-19-2.10977E-19
 -1      1472 9.81236E-05-2.90479E-05-2.96368E-05-1.87882E-06-6.76710E-19 1.02253E-19
 -1      1473 9.65354E-05-2.85499E-05-2.91540E-05-1.57883E-06-7.80673E-19-9.39727E-20
 -1      1474 9.91153E-05-2.90990E-05-3.00671E-05-4.61534E-06 7.30083E-19-7.01476E-19
 -1      1475 9.52813E-05-2.83633E-05-2.87037E-05-6.29255E-08-1.96862E-19 5.60729E-20
 -1      1476 9.58990E-05-2.79559E-05-2.91607E-05-1.58597E-06 3.14966E-20 4.24519E-19
 -1      1477 9.65795E-05-2.83643E-05-2.97731E-05 2.99631E-06 1.43678E-18 1.26016E-17
 -1      1478 1.02539E-04-2.93993E-05-3.21567E-05 4.46345E-06 1.25011E-18 1.48002E-17
 -1      1479 1.02328E-04-2.67187E-05-3.27064E-05 1.27843E-05 2.46031E-18 9.79054E-18
 -1      1480 9.20319E-05-2.74296E-05-2.77621E-05 1.15258E-06 1.03312E-18 9.76777E-18
 -1      1481 9.39791E-05-2.75850E-05-2.86765E-05 1.47452E-06 9.86145E-19 1.14290E-17
 -1      1482 9.64883E-05-2.80307E-05-2.95342E-05 4.86878E-06 2.14326E-18 7.73354E-18
 -1      1483 9.01978E-05-2.70044E-05-2.70628E-05 3.32455E-07 7.86880E-19 7.67084E-18
 -1      1484 9.08135E-05-2.70222E-05-2.73357E-05 4.95303E-07 7.61780E-19 8.88556E-18
 -1      1485 9.30425E-05-2.75789E-05-2.80988E-05 1.85302E-06 1.68194E-18 5.87206E-18
 -1      1486 8.96787E-05-2.68857E-05-2.68866E-05-5.42508E-08 6.69593E-19 6.07009E-18
 -1      1487 8.97170E-05-2.68237E-05-2.69151E-05 3.48323E-08 6.02806E-19 7.06717E-18
 -1      1488 9.14879E-05-2.73074E-05-2.75146E-05 5.19297E-07 1.23711E-18 4.56745E-18
 -1      1489 8.98084E-05-2.69375E-05-2.69277E-05-2.41298E-07 4.40312E-19 5.00238E-18
 -1      1490 8.95811E-05-2.68304E-05-2.68630E-05-1.91116E-07 3.71232E-19 5.68916E-18
 -1      1491 9.09545E-05-2.72259E-05-2.73179E-05-1.30206E-07 9.15894E-19 3.75499E-18
 -1      1492 9.02581E-05-2.70790E-05-2.70651E-05-3.24161E-07 1.71650E-19 4.40076E-18
 -1      1493 8.99127E-05-2.69523E-05-2.69641E-05-2.96573E-07 2.36500E-19 4.86272E-18
 -1      1494 9.09698E-05-2.72683E-05-2.73064E-05-4.48472E-07 5.31847E-19 3.18310E-18
 -1      1495 9.08487E-05-2.72602E-05-2.72433E-05-3.48363E-07 1.91783E-19 3.94593E-18
 -1      1496 9.04631E-05-2.71305E-05-2.71304E-05-3.34758E-07 1.50252E-19 4.24755E-18
 -1      1497 9.12715E-05-2.73795E-05-2.73872E-05-5.88131E-07 4.01057E-19 2.79594E-18
 -1      1498 9.14778E-05-2.74510E-05-2.74328E-05-3.38953E-07 2.97342E-19 3.25555E-18
 -1      1499 9.10954E-05-2.73282E-05-2.73206E-05-3.34122E-07 1.95252E-19 3.63343E-18
 -1      1500 9.17089E-05-2.75223E-05-2.75121E-05-6.26107E-07 5.27530E-19 2.26397E-18
 -1      1501 9.20867E-05-2.76346E-05-2.76163E-05-3.11124E-07 2.42611E-19 2.55827E-18
 -1      1502 9.17316E-05-2.75238E-05-2.75118E-05-3.11683E-07 2.70767E-19 2.97849E-18
 -1      1503 9.21930E-05-2.76735E-05-2.76535E-05-6.05934E-07 5.83111E-19 1.86127E-18
 -1      1504 9.26439E-05-2.78017E-05-2.77845E-05-2.74577E-07 3.06584E-19 2.43673E-18
 -1      1505 9.23279E-05-2.77052E-05-2.76912E-05-2.78249E-07 2.61597E-19 2.56871E-18
 -1      1506 9.26720E-05-2.78197E-05-2.77952E-05-5.54319E-07 3.58402E-19 1.47786E-18
 -1      1507 9.31351E-05-2.79484E-05-2.79331E-05-2.35666E-07 4.87409E-19 1.79603E-18
 -1      1508 9.28625E-05-2.78666E-05-2.78523E-05-2.40882E-07 2.51103E-19 2.13479E-18
 -1      1509 9.31172E-05-2.79535E-05-2.79281E-05-4.88418E-07 4.60370E-19 1.47253E-18
 -1      1510 9.35576E-05-2.80741E-05-2.80611E-05-1.98602E-07 2.67869E-19 1.04543E-18
 -1      1511 9.33272E-05-2.80059E-05-2.79926E-05-2.04263E-07 4.03291E-19 1.46431E-18
 -1      1512 9.35153E-05-2.80716E-05-2.80476E-05-4.19528E-07 6.93969E-19 1.09484E-18
 -1      1513 9.39162E-05-2.81804E-05-2.81700E-05-1.66217E-07 3.03919E-19 4.73700E-19
 -1      1514 9.37238E-05-2.81241E-05-2.81126E-05-1.71531E-07 2.51702E-19 7.80969E-19
 -1      1515 9.38632E-05-2.81737E-05-2.81527E-05-3.55202E-07 5.60913E-19 9.71805E-19
 -1      1516 9.42212E-05-2.82704E-05-2.82628E-05-1.40483E-07 1.49648E-19-4.58928E-20
 -1      1517 9.40601E-05-2.82235E-05-2.82145E-05-1.44852E-07 2.15179E-19 2.45973E-19
 -1      1518 9.41648E-05-2.82613E-05-2.82444E-05-3.00598E-07 4.85705E-19 1.18208E-19
 -1      1519 9.44867E-05-2.83483E-05-2.83437E-05-1.22894E-07 1.29966E-19-6.09258E-19
 -1      1520 9.43484E-05-2.83082E-05-2.83021E-05-1.25826E-07 2.37381E-19-2.11612E-19
 -1      1521 9.44291E-05-2.83371E-05-2.83252E-05-2.59422E-07 4.43278E-19-4.57509E-19
 -1      1522 9.47299E-05-2.84194E-05-2.84180E-05-1.14735E-07 1.82742E-19-1.79654E-18
 -1      1523 9.46045E-05-2.83828E-05-2.83800E-05-1.15779E-07 2.90468E-19-1.25468E-18
 -1      1524 9.46687E-05-2.84052E-05-2.83990E-05-2.34591E-07 5.65075E-19-1.17696E-18
 -1      1525 9.49706E-05-2.84896E-05-2.84916E-05-1.17284E-07 4.02435E-19-2.62980E-18
 -1      1526 9.48469E-05-2.84529E-05-2.84540E-05-1.15975E-07 2.30307E-19-1.97287E-18
 -1      1527 9.48994E-05-2.84703E-05-2.84703E-05-2.28721E-07 4.73013E-19-1.83309E-18
 -1      1528 9.52315E-05-2.85656E-05-2.85713E-05-1.31923E-07 1.12170E-19-3.05937E-18
 -1      1529 9.50970E-05-2.85248E-05-2.85304E-05-1.27750E-07 4.68212E-19-2.31125E-18
 -1      1530 9.51396E-05-2.85377E-05-2.85449E-05-2.44445E-07 8.11196E-19-1.50167E-18
 -1      1531 9.55384E-05-2.86552E-05-2.86650E-05-1.60173E-07-8.61495E-19-2.44125E-18
 -1      1532 9.53788E-05-2.86057E-05-2.86164E-05-1.52558E-07-4.95399E-19-2.92856E-18
 -1      1533 9.54103E-05-2.86137E-05-2.86290E-05-2.84568E-07-4.50496E-19-1.38832E-18
 -1      1534 9.59200E-05-2.87668E-05-2.87812E-05-2.03605E-07-1.26608E-19-1.53049E-18
 -1      1535 9.57193E-05-2.87037E-05-2.87203E-05-1.91919E-07-5.77280E-19-2.28163E-18
 -1      1536 9.57352E-05-2.87054E-05-2.87297E-05-3.52032E-07-9.46520E-19-2.07368E-18
 -1      1537 9.64077E-05-2.89102E-05-2.89294E-05-2.63611E-07 2.44523E-19-1.44839E-18
 -1      1538 9.61484E-05-2.88278E-05-2.88510E-05-2.47220E-07 1.29893E-19-1.34078E-18
 -1      1539 9.61404E-05-2.88207E-05-2.88550E-05-4.49637E-07-2.81978E-19-1.51473E-18
 -1      1540 9.70350E-05-2.90954E-05-2.91195E-05-3.40952E-07 2.65180E-19-2.81903E-18
 -1      1541 9.66984E-05-2.89877E-05-2.90181E-05-3.19326E-07 1.82132E-19-2.07625E-18
 -1      1542 9.66539E-05-2.89681E-05-2.90132E-05-5.79411E-07 6.47975E-19-1.36581E-18
 -1      1543 9.78348E-05-2.93326E-05-2.93612E-05-4.34992E-07 6.46344E-19-3.43989E-18
 -1      1544 9.74023E-05-2.91938E-05-2.92314E-05-4.07910E-07 4.38536E-19-2.98283E-18
 -1      1545 9.73040E-05-2.91567E-05-2.92123E-05-7.41495E-07 7.13546E-19-2.43027E-18
 -1      1546 9.88356E-05-2.96311E-05-2.96628E-05-5.42513E-07-3.05576E-19-2.85354E-18
 -1      1547 9.82909E-05-2.94561E-05-2.94999E-05-5.10392E-07-1.90050E-19-3.27372E-18
 -1      1548 9.81165E-05-2.93950E-05-2.94598E-05-9.32361E-07 4.65488E-20-2.50911E-18
 -1      1549 1.00054E-04-2.99968E-05-3.00285E-05-6.55976E-07-2.17611E-19-2.22522E-18
 -1      1550 9.93876E-05-2.97826E-05-2.98302E-05-6.20392E-07-1.39990E-19-2.51863E-18
 -1      1551 9.91105E-05-2.96903E-05-2.97604E-05-1.14214E-06-5.71451E-19-1.75739E-18
 -1      1552 1.01485E-04-3.04297E-05-3.04556E-05-7.61194E-07-9.17877E-20-1.75538E-18
 -1      1553 1.00700E-04-3.01777E-05-3.02234E-05-7.25616E-07-1.24182E-19-2.00601E-18
 -1      1554 1.00291E-04-3.00464E-05-3.01141E-05-1.35092E-06-3.84375E-19-1.37134E-18
 -1      1555 1.03083E-04-3.09183E-05-3.09296E-05-8.34570E-07 5.41556E-19-2.97380E-18
 -1      1556 1.02205E-04-3.06374E-05-3.06719E-05-8.05312E-07 5.57930E-19-2.17803E-18
 -1      1557 1.01637E-04-3.04610E-05-3.05125E-05-1.52413E-06 8.15486E-19-1.87353E-18
 -1      1558 1.04747E-04-3.14345E-05-3.14177E-05-8.40656E-07-1.45516E-19-3.58063E-18
 -1      1559 1.03836E-04-3.11449E-05-3.11533E-05-8.27847E-07-3.79566E-20-3.45628E-18
 -1      1560 1.03091E-04-3.09210E-05-3.09353E-05-1.60776E-06 3.23977E-19-2.43349E-18
 -1      1561 1.06292E-04-3.19250E-05-3.18629E-05-7.31810E-07 7.94515E-20-3.14574E-18
 -1      1562 1.05456E-04-3.16635E-05-3.16248E-05-7.49892E-07-4.61659E-19-3.65099E-18
 -1      1563 1.04538E-04-3.13974E-05-3.13450E-05-1.52571E-06-2.65889E-19-2.97043E-18
 -1      1564 1.07437E-04-3.23056E-05-3.21805E-05-4.53474E-07-7.83092E-20-2.77855E-18
 -1      1565 1.06842E-04-3.21284E-05-3.20180E-05-5.20136E-07 1.60632E-19-2.82247E-18
 -1      1566 1.05795E-04-3.18385E-05-3.16839E-05-1.18379E-06-1.44148E-19-2.78660E-18
 -1      1567 1.07809E-04-3.24598E-05-3.22614E-05 3.97751E-08-8.05919E-19-2.14710E-18
 -1      1568 1.07676E-04-3.24418E-05-3.22379E-05-9.20603E-08-5.36622E-19-2.94440E-18
 -1      1569 1.06602E-04-3.21644E-05-3.18751E-05-4.88241E-07-5.54826E-19-1.77074E-18
 -1      1570 1.06997E-04-3.22514E-05-3.19913E-05 7.52730E-07 1.86857E-19-1.02095E-18
 -1      1571 1.07567E-04-3.24745E-05-3.21728E-05 5.49594E-07-2.72212E-19-1.54071E-18
 -1      1572 1.06644E-04-3.22661E-05-3.18320E-05 6.12307E-07-7.69821E-19-9.06952E-19
 -1      1573 1.04673E-04-3.15602E-05-3.12884E-05 1.60509E-06-2.39068E-19-7.72547E-19
 -1      1574 1.06132E-04-3.20864E-05-3.17206E-05 1.34906E-06-5.03521E-20-9.32491E-19
 -1      1575 1.05609E-04-3.20179E-05-3.14803E-05 2.05845E-06-1.36505E-19-1.43651E-18
 -1      1576 1.00792E-04-3.03485E-05-3.01587E-05 2.39566E-06-1.84845E-19 5.07426E-20
 -1      1577 1.03150E-04-3.11760E-05-3.08342E-05 2.14182E-06 8.49382E-20 1.51434E-19
 -1      1578 1.03311E-04-3.13152E-05-3.07936E-05 3.60391E-06-4.74537E-19-6.70188E-19
 -1      1579 9.57975E-05-2.87403E-05-2.87443E-05 2.82075E-06 4.05520E-19-8.27128E-19
 -1      1580 9.87683E-05-2.97590E-05-2.95740E-05 2.65703E-06 2.78593E-19-1.46748E-19
 -1      1581 9.98545E-05-3.01438E-05-2.98304E-05 4.79141E-06 3.77201E-19 4.88288E-19
 -1      1582 9.06960E-05-2.70637E-05-2.73279E-05 2.59012E-06 1.60155E-19-2.00154E-18
 -1      1583 9.36643E-05-2.80458E-05-2.81408E-05 2.60388E-06 1.88617E-19-1.64806E-18
 -1      1584 9.57701E-05-2.86599E-05-2.87514E-05 5.06399E-06 7.27151E-19-3.50248E-19
 -1      1585 8.68277E-05-2.57837E-05-2.62618E-05 1.61950E-06 9.50133E-20-2.26917E-18
 -1      1586 8.90021E-05-2.64462E-05-2.68504E-05 1.84152E-06-2.26118E-20-2.27802E-18
 -1      1587 9.19955E-05-2.72195E-05-2.77935E-05 4.04406E-06 2.13565E-19-1.43448E-18
 -1      1588 8.53238E-05-2.53057E-05-2.58311E-05 1.68290E-07-1.88994E-19-2.41032E-18
 -1      1589 8.60652E-05-2.54388E-05-2.60349E-05 5.33884E-07 3.23931E-19-2.44493E-18
 -1      1590 8.95839E-05-2.62783E-05-2.71930E-05 1.85388E-06 3.57554E-19-2.26625E-18
 -1      1591 8.65235E-05-2.57489E-05-2.61217E-05-1.23649E-06 2.54993E-19-2.58671E-18
 -1      1592 8.56771E-05-2.53365E-05-2.59036E-05-8.65590E-07 1.02994E-19-2.93569E-18
 -1      1593 8.92209E-05-2.61645E-05-2.70904E-05-8.01492E-07 1.37325E-19-2.27805E-18
 -1      1594 8.97752E-05-2.68721E-05-2.69745E-05-2.09091E-06-2.50338E-19-2.48615E-18
 -1      1595 8.77606E-05-2.61039E-05-2.64414E-05-1.84682E-06-1.11477E-19-3.00961E-18
 -1      1596 9.08442E-05-2.68667E-05-2.74659E-05-2.95505E-06-1.06885E-19-1.27812E-18
 -1      1597 9.37911E-05-2.82169E-05-2.80632E-05-2.18260E-06 6.48577E-19-3.64105E-18
 -1      1598 9.13785E-05-2.73828E-05-2.74133E-05-2.12375E-06 3.98664E-19-2.78298E-18
 -1      1599 9.36773E-05-2.80384E-05-2.81484E-05-3.91291E-06 7.52131E-19-2.32787E-18
 -1      1600 9.72678E-05-2.93403E-05-2.90413E-05-1.64331E-06-6.08927E-19-5.49047E-18
 -1      1601 9.52133E-05-2.86918E-05-2.84749E-05-1.74210E-06 7.33147E-20-4.48684E-18
 -1      1602 9.66420E-05-2.92072E-05-2.88927E-05-3.56630E-06 7.89991E-19-3.35036E-18
 -1      1603 9.93782E-05-2.99845E-05-2.96683E-05-7.99618E-07 1.75931E-19-4.34107E-18
 -1      1604 9.81468E-05-2.96487E-05-2.93169E-05-9.80444E-07-6.94435E-20-5.14194E-18
 -1      1605 9.88426E-05-3.00110E-05-2.94774E-05-2.32096E-06-3.68466E-19-2.73678E-18
 -1      1606 9.99158E-05-3.01060E-05-2.98653E-05 2.15095E-08-4.80976E-19-3.62663E-18
 -1      1607 9.96070E-05-3.00824E-05-2.97643E-05-1.64052E-07-3.47409E-19-4.78468E-18
 -1      1608 9.98405E-05-3.03111E-05-2.97740E-05-7.78693E-07-7.97071E-20-2.59597E-18
 -1      1609 9.91732E-05-2.98166E-05-2.96993E-05 5.96873E-07-1.72389E-19-2.38708E-18
 -1      1610 9.95983E-05-3.00184E-05-2.98017E-05 4.62180E-07 1.44644E-19-2.56902E-18
 -1      1611 9.96586E-05-3.01576E-05-2.97686E-05 5.43401E-07-3.74375E-19-2.33652E-18
 -1      1612 9.77345E-05-2.93105E-05-2.93289E-05 8.16244E-07 3.39908E-19-2.33379E-18
 -1      1613 9.85374E-05-2.96080E-05-2.95382E-05 7.64735E-07 1.01174E-19-2.37816E-18
 -1      1614 9.86381E-05-2.97019E-05-2.95398E-05 1.32532E-06-2.65669E-19-8.39866E-19
 -1      1615 9.62835E-05-2.88120E-05-2.89402E-05 6.57570E-07 4.85929E-19-4.85713E-18
 -1      1616 9.70477E-05-2.90608E-05-2.91473E-05 7.03810E-07 1.06692E-18-2.93134E-18
 -1      1617 9.72691E-05-2.91261E-05-2.92146E-05 1.43497E-06 1.51684E-18-5.36145E-20
 -1      1618 9.54090E-05-2.85294E-05-2.86611E-05 2.21943E-07 2.94006E-19-5.01451E-18
 -1      1619 9.57725E-05-2.86085E-05-2.87948E-05 3.41626E-07 1.73144E-19-5.49560E-18
 -1      1620 9.60398E-05-2.86208E-05-2.89085E-05 9.17105E-07 1.29318E-18-1.23194E-18
 -1      1621 9.52226E-05-2.85293E-05-2.85697E-05-1.35921E-08-2.86883E-18-2.91253E-18
 -1      1622 9.51368E-05-2.77077E-05-2.89097E-05 5.90325E-07 3.43536E-19 3.27260E-18
 -1      1623 9.52651E-05-2.81703E-05-2.87487E-05 4.57918E-07-3.42173E-18 2.81779E-18
 -1      1624 9.46202E-05-2.59628E-05-2.94324E-05 1.21084E-06 3.95120E-18 1.37475E-18
 -1      1625 9.49436E-05-2.70226E-05-2.91195E-05 1.08639E-06 1.14380E-18 1.69105E-18
 -1      1626 9.51475E-05-2.72172E-05-2.91441E-05 1.64500E-06 8.13153E-19 4.66034E-18
 -1      1627 9.37960E-05-2.32378E-05-3.02460E-05 1.85178E-06 2.74067E-18-1.71198E-18
 -1      1628 9.43131E-05-2.49005E-05-2.97610E-05 1.72482E-06 4.79215E-18 1.30066E-19
 -1      1629 9.46298E-05-2.55129E-05-2.96587E-05 2.85797E-06 2.03066E-18 1.80127E-18
 -1      1630 9.26591E-05-1.95607E-05-3.13353E-05 2.44149E-06-1.42025E-18-3.06535E-18
 -1      1631 9.33608E-05-2.17747E-05-3.06943E-05 2.32869E-06 1.91574E-18-2.23122E-18
 -1      1632 9.38601E-05-2.30427E-05-3.03887E-05 4.05331E-06 4.81803E-19-3.19057E-18
 -1      1633 9.12835E-05-1.52370E-05-3.25984E-05 2.83664E-06-5.84622E-18-1.95969E-18
 -1      1634 9.21128E-05-1.77913E-05-3.18665E-05 2.77324E-06-2.44628E-18-3.28272E-18
 -1      1635 9.28203E-05-1.98543E-05-3.13001E-05 5.03672E-06-1.39808E-18-4.73447E-18
 -1      1636 8.97705E-05-1.06129E-05-3.39275E-05 2.87130E-06-9.33594E-18-2.65963E-18
 -1      1637 9.06531E-05-1.32696E-05-3.31745E-05 2.89308E-06-6.50490E-18-2.98518E-18
 -1      1638 9.15476E-05-1.61482E-05-3.23222E-05 5.52299E-06-3.75291E-18-3.88171E-18
 -1      1639 8.83943E-05-6.50927E-06-3.50887E-05 2.39232E-06-1.01176E-17 6.07204E-19
 -1      1640 8.91595E-05-8.76688E-06-3.44554E-05 2.52745E-06-1.04718E-17-1.83512E-19
 -1      1641 9.01700E-05-1.23347E-05-3.33343E-05 5.19362E-06-4.46104E-18-3.08114E-18
 -1      1642 8.74515E-05-3.76905E-06-3.58510E-05 1.37958E-06-6.99796E-18 2.08152E-18
 -1      1643 8.79254E-05-5.13747E-06-3.54716E-05 1.62073E-06-9.63577E-18 2.36161E-18
 -1      1644 8.89483E-05-9.09272E-06-3.41644E-05 3.85467E-06-4.02615E-18 1.70330E-18
 -1      1645 8.71936E-05-3.08022E-06-3.60315E-05-1.26630E-08-7.05616E-18-6.50693E-20
 -1      1646 8.72439E-05-3.19411E-06-3.60044E-05 2.88563E-07-7.66814E-18 9.57796E-19
 -1      1647 8.81683E-05-7.11449E-06-3.46506E-05 1.59937E-06-4.49208E-18 1.70843E-18
 -1      1648 8.77276E-05-4.72502E-06-3.55575E-05-1.48582E-06-5.66171E-18 3.24744E-19
 -1      1649 8.73173E-05-3.47962E-06-3.59106E-05-1.19574E-06-5.90979E-18-1.37107E-19
 -1      1650 8.80527E-05-6.91511E-06-3.46787E-05-1.16250E-06-4.76309E-18 1.37172E-18
 -1      1651 8.89448E-05-8.38190E-06-3.45183E-05-2.68551E-06-5.41085E-18-1.12821E-19
 -1      1652 8.81565E-05-6.02765E-06-3.51819E-05-2.47832E-06-4.78597E-18 6.05562E-20
 -1      1653 8.86656E-05-8.61434E-06-3.42275E-05-3.80091E-06-2.37125E-18-2.73049E-19
 -1      1654 9.06444E-05-1.34826E-05-3.30711E-05-3.39504E-06-6.35126E-18-1.42057E-18
 -1      1655 8.96056E-05-1.03829E-05-3.39432E-05-3.30128E-06-5.19162E-18-4.74322E-19
 -1      1656 8.98771E-05-1.19108E-05-3.33669E-05-5.74530E-06-1.54675E-18-7.36045E-19
 -1      1657 9.24797E-05-1.89983E-05-3.15065E-05-3.47034E-06-3.39650E-18 2.77869E-18
 -1      1658 9.13972E-05-1.57808E-05-3.24083E-05-3.50234E-06-5.99379E-18 1.30504E-18
 -1      1659 9.14670E-05-1.62140E-05-3.22443E-05-6.61617E-06-1.14293E-18 3.93735E-19
 -1      1660 9.41058E-05-2.38233E-05-3.01277E-05-2.85650E-06-1.14285E-18 1.67696E-18
 -1      1661 9.31903E-05-2.11708E-05-3.08821E-05-3.02554E-06-2.69195E-18 2.29984E-18
 -1      1662 9.31570E-05-2.07179E-05-3.10750E-05-6.22598E-06-2.06107E-19 3.49215E-18
 -1      1663 9.53228E-05-2.68467E-05-2.93231E-05-2.25795E-06-1.65707E-19-3.23699E-19
 -1      1664 9.47995E-05-2.52920E-05-2.98014E-05-2.78047E-06-1.98060E-19 5.73951E-19
 -1      1665 9.48156E-05-2.44335E-05-3.02259E-05-5.35860E-06-6.69434E-19 1.82848E-18
 -1      1666 9.66067E-05-2.71800E-05-2.97747E-05-4.30717E-06-3.53067E-19-1.25999E-18
 -1      1667 2.22163E-05-7.23356E-05 1.52955E-05-5.81573E-06 1.05409E-17 3.80233E-18
 -1      1668 2.55605E-05-8.22815E-05 1.73906E-05 2.35321E-06 6.28700E-18 3.60921E-18
 -1      1669 2.09937E-05-4.51814E-05 5.82471E-06 1.66693E-06 1.22024E-17 5.85893E-18
 -1      1670 2.59107E-05-6.76351E-05 1.15470E-05-8.03448E-07 1.13858E-17 3.86909E-18
 -1      1671 3.14105E-05-1.58782E-05-9.00955E-06 2.35757E-05 1.40319E-17 9.66083E-18
 -1      1672 2.81888E-05-3.81744E-05-7.38099E-07 7.57041E-06 1.25581E-17 6.91687E-18
 -1      1673 6.91389E-05-3.76478E-06-2.77209E-05 5.56198E-05 1.18153E-17 1.03711E-17
 -1      1674 4.78724E-05-1.26388E-05-1.78106E-05 3.26139E-05 1.26369E-17 9.83744E-18
 -1      1675 1.31992E-04-1.56977E-05-4.69144E-05 7.41805E-05 7.81557E-18 8.09086E-18
 -1      1676 9.37554E-05-6.85444E-06-3.71468E-05 5.91575E-05 1.10546E-17 9.46898E-18
 -1      1677 1.96743E-04-3.72341E-05-6.30870E-05 7.15932E-05 4.97907E-18 5.46167E-18
 -1      1678 1.53514E-04-1.74229E-05-5.54831E-05 7.59208E-05 6.99819E-18 8.62957E-18
 -1      1679 2.44049E-04-5.90057E-05-7.30057E-05 3.84609E-05 2.61437E-18 1.50772E-18
 -1      1680 2.14987E-04-4.30295E-05-6.87374E-05 6.25025E-05 4.27858E-18 5.06526E-18
 -1      1681 2.55025E-04-6.37806E-05-7.57349E-05-1.05379E-05 2.68509E-18-4.50696E-18
 -1      1682 2.52044E-04-6.18144E-05-7.53046E-05 2.40665E-05 2.45174E-18-6.71274E-19
 -1      1683 2.23038E-04-4.74616E-05-7.03658E-05-5.25331E-05 5.76406E-18-1.08556E-17
 -1      1684 2.47812E-04-6.09578E-05-7.39586E-05-2.50393E-05 3.65918E-18-6.41035E-18
 -1      1685 1.63459E-04-2.20570E-05-5.77969E-05-7.22095E-05 9.58799E-18-1.49671E-17
 -1      1686 2.06785E-04-4.26582E-05-6.51775E-05-6.33884E-05 6.57192E-18-1.27360E-17
 -1      1687 1.00279E-04-7.08999E-06-3.97185E-05-6.15141E-05 1.39955E-17-1.50069E-17
 -1      1688 1.41171E-04-1.84510E-05-4.94440E-05-7.41219E-05 1.10728E-17-1.50780E-17
 -1      1689 5.21285E-05-8.43013E-06-2.09030E-05-3.74809E-05 1.39777E-17-1.32806E-17
 -1      1690 7.54866E-05-2.48657E-06-3.05184E-05-5.91900E-05 1.43132E-17-1.60716E-17
 -1      1691 3.32549E-05-3.53067E-05-3.19217E-06-1.39336E-05 1.01525E-17-8.00319E-18
 -1      1692 3.99621E-05-1.52872E-05-1.21634E-05-3.15078E-05 1.26216E-17-1.17640E-17
 -1      1693 2.41876E-05-6.25794E-05 1.02180E-05 1.32465E-06 7.94517E-18-4.32050E-18
 -1      1694 1.92449E-05-3.99376E-05 4.45652E-06-2.22173E-06 1.08513E-17-6.39002E-18
 -1      1695 2.48803E-05-7.93057E-05 1.66014E-05-1.86243E-06 6.94567E-19-3.75490E-18
 -1      1696 2.12046E-05-6.81679E-05 1.41285E-05 5.62461E-06 5.98048E-18-3.99397E-18
 -1      1697 2.19719E-05-7.37996E-05 1.59517E-05-7.80227E-06-7.53266E-18-4.32431E-18
 -1      1698 2.40366E-05-7.90863E-05 1.70504E-05 1.11480E-06-1.19167E-18-3.78200E-18
 -1      1699 1.92597E-05-5.25175E-05 8.95462E-06-5.63010E-06-1.16408E-17-4.90549E-18
 -1      1700 2.46018E-05-7.12323E-05 1.34363E-05-4.54188E-06-9.67439E-18-3.13741E-18
 -1      1701 2.62905E-05-2.26129E-05-4.84438E-06 1.41276E-05-1.17119E-17-6.85292E-18
 -1      1702 2.57886E-05-4.60406E-05 3.05876E-06 7.69395E-07-1.10927E-17-6.08318E-18
 -1      1703 5.87717E-05-4.92449E-06-2.36124E-05 4.67665E-05-9.04292E-18-5.96819E-18
 -1      1704 4.03209E-05-1.73895E-05-1.35323E-05 2.30182E-05-1.10936E-17-6.97616E-18
 -1      1705 1.20749E-04-1.32076E-05-4.36047E-05 7.15256E-05-4.96700E-18-8.05020E-18
 -1      1706 8.30647E-05-7.13023E-06-3.34131E-05 5.30226E-05-7.40646E-18-6.62464E-18
 -1      1707 1.93071E-04-3.70084E-05-6.15618E-05 7.27883E-05-4.00477E-18-2.99172E-18
 -1      1708 1.45544E-04-1.69116E-05-5.28408E-05 7.30937E-05-5.69037E-18-6.10541E-18
 -1      1709 2.48978E-04-6.16446E-05-7.35129E-05 3.96278E-05-1.90688E-18 1.59327E-18
 -1      1710 2.14696E-04-4.34032E-05-6.82372E-05 6.39373E-05-3.06430E-18-1.71355E-18
 -1      1711 2.56652E-04-6.29879E-05-7.66391E-05-1.43603E-05-3.96941E-18 8.38393E-18
 -1      1712 2.52474E-04-6.08829E-05-7.58204E-05 2.26056E-05-2.40684E-18 3.74685E-18
 -1      1713 2.24042E-04-4.65349E-05-7.09174E-05-5.57195E-05-7.15478E-18 1.45037E-17
 -1      1714 2.51029E-04-6.14179E-05-7.49610E-05-2.78646E-05-5.69121E-18 1.02355E-17
 -1      1715 1.63032E-04-2.11351E-05-5.77040E-05-7.60697E-05-9.27205E-18 1.79876E-17
 -1      1716 2.09004E-04-4.27912E-05-6.56644E-05-6.90879E-05-6.98336E-18 1.81612E-17
 -1      1717 9.55472E-05-3.88081E-06-3.91469E-05-6.39016E-05-1.09860E-17 1.41844E-17
 -1      1718 1.37427E-04-1.46088E-05-4.91727E-05-7.95844E-05-9.53844E-18 1.70296E-17
 -1      1719 5.02518E-05-1.33138E-05-1.86451E-05-3.28324E-05-7.87571E-18 9.86963E-18
 -1      1720 7.37360E-05-4.42786E-06-2.92013E-05-5.73692E-05-9.64855E-18 1.38863E-17
 -1      1721 2.84374E-05-3.94020E-05-6.13063E-07-6.15443E-06-6.96261E-18 4.73407E-18
 -1      1722 3.20922E-05-1.64335E-05-9.29358E-06-2.32392E-05-7.99006E-18 5.25669E-18
 -1      1723 2.57258E-05-6.97573E-05 1.20745E-05 3.68404E-06-1.39506E-18 2.61236E-18
 -1      1724 2.03435E-05-4.68668E-05 6.33753E-06 1.43115E-06-5.01782E-18 5.65998E-18
 -1      1725 2.59920E-05-8.41138E-05 1.77541E-05-1.21437E-06 3.90906E-18 3.36039E-18
 -1      1726 2.26814E-05-7.49917E-05 1.58000E-05 7.91706E-06-3.43895E-19 9.96534E-19
 -1      1727 1.12675E-04-3.54094E-05-3.22235E-05 4.53490E-05 6.51453E-18 3.38728E-18
 -1      1728 6.92590E-05-3.78288E-05-1.48645E-05 3.96416E-05 7.55723E-18 6.32014E-18
 -1      1729 9.53519E-05-2.84583E-05-2.86744E-05 1.98147E-07-3.33241E-18-8.07054E-19
 -1      1730 9.54543E-05-2.81396E-05-2.88612E-05 7.72547E-07-3.22622E-19 2.85667E-18
 -1      1731 1.96110E-05-5.21572E-05 9.54978E-06 1.50353E-05 6.21807E-18 4.48631E-18
 -1      1732 3.83031E-05-4.57226E-05-2.04276E-07 2.75706E-05 7.55892E-18 5.70477E-18
 -1      1733 1.30945E-05-5.62588E-05 1.34737E-05 1.29957E-06 3.44817E-18 6.21214E-18
 -1      1734 1.53440E-04-3.37867E-05-4.90366E-05 4.12449E-05 5.64378E-18 3.31444E-18
 -1      1735 1.88310E-04-3.21540E-05-6.25933E-05 3.33536E-05 5.42853E-18 3.01628E-18
 -1      1736 2.09753E-04-3.38605E-05-7.01413E-05 1.47506E-05 4.61506E-18 1.12253E-18
 -1      1737 2.09684E-04-3.28430E-05-7.06132E-05-6.83150E-06 5.42270E-18-2.44729E-18
 -1      1738 1.91189E-04-3.16797E-05-6.40311E-05-2.58371E-05 6.66191E-18-5.77931E-18
 -1      1739 1.58657E-04-3.28285E-05-5.11844E-05-3.79227E-05 8.02003E-18-8.55927E-18
 -1      1740 1.16991E-04-3.36714E-05-3.47461E-05-4.44929E-05 7.97524E-18-9.00989E-18
 -1      1741 7.67523E-05-3.88254E-05-1.75550E-05-4.09881E-05 6.26974E-18-9.82135E-18
 -1      1742 4.25763E-05-4.25836E-05-2.38439E-06-3.17639E-05 6.14607E-18-7.39039E-18
 -1      1743 1.97229E-05-5.02723E-05 8.76249E-06-1.49828E-05 4.15681E-18-6.03786E-18
 -1      1744 1.24070E-05-5.35346E-05 1.29138E-05-3.38570E-06-3.57130E-19-6.77542E-18
 -1      1745 1.60839E-05-5.22267E-05 1.09498E-05 7.99235E-06-3.16748E-18-5.31005E-18
 -1      1746 3.13661E-05-4.71883E-05 2.94167E-06 1.98758E-05-5.80726E-18-3.58327E-18
 -1      1747 5.99149E-05-3.95065E-05-1.09635E-05 3.27930E-05-6.10457E-18-3.35870E-18
 -1      1748 1.02634E-04-3.56952E-05-2.86431E-05 4.18095E-05-5.75898E-18-3.00951E-18
 -1      1749 1.48957E-04-3.50150E-05-4.66371E-05 4.16932E-05-3.66723E-18-2.48181E-18
 -1      1750 1.90865E-04-3.61371E-05-6.18461E-05 3.33720E-05-4.50198E-18-1.27902E-19
 -1      1751 2.11412E-04-3.48047E-05-7.03950E-05 1.23190E-05-4.58414E-18 2.51696E-18
 -1      1752 2.08921E-04-3.17755E-05-7.08960E-05-8.82924E-06-7.37681E-18 5.34203E-18
 -1      1753 1.94432E-04-3.31571E-05-6.44568E-05-2.82664E-05-6.98802E-18 1.01148E-17
 -1      1754 1.60389E-04-3.31374E-05-5.14020E-05-4.44619E-05-6.11092E-18 1.29333E-17
 -1      1755 1.14590E-04-3.43749E-05-3.37179E-05-4.60014E-05-4.93397E-18 1.00170E-17
 -1      1756 7.15277E-05-3.90309E-05-1.54718E-05-3.87694E-05-4.25634E-18 7.73807E-18
 -1      1757 3.80906E-05-4.66880E-05 1.08617E-07-2.54329E-05-2.73507E-18 5.60693E-18
 -1      1758 1.92399E-05-5.44708E-05 1.02752E-05-1.20554E-05 2.16417E-19 3.88301E-18
 -1      1759 1.06053E-04-2.31704E-05-3.56045E-05-1.68547E-05-2.01585E-18 1.07179E-17
 -1      1760 8.91410E-05-1.05808E-05-3.37944E-05-1.33250E-05-3.02426E-18-1.76575E-18
 -1      1761 9.04847E-05-1.16348E-05-3.39352E-05-1.51388E-05-3.31119E-18-7.35463E-19
 -1      1762 9.24898E-05-1.38742E-05-3.38541E-05-1.60049E-05-3.21729E-18 5.88714E-19
 -1      1763 9.42063E-05-1.58203E-05-3.40982E-05-1.76663E-05-3.34755E-18 2.39896E-18
 -1      1764 9.34138E-05-1.63445E-05-3.30454E-05-1.37829E-05-3.41491E-18 6.29187E-20
 -1      1765 8.62081E-05-7.67086E-06-3.37303E-05-7.86891E-06-1.90006E-18-3.51310E-18
 -1      1766 8.66105E-05-7.97132E-06-3.37645E-05-9.25731E-06-2.23574E-18-3.24332E-18
 -1      1767 8.55961E-05-7.03806E-06-3.37271E-05-5.32399E-06-1.32740E-18-3.78191E-18
 -1      1768 8.58293E-05-7.21547E-06-3.37424E-05-6.62881E-06-1.63428E-18-3.68224E-18
 -1      1769 8.75944E-05-9.86967E-06-3.33432E-05-6.93699E-06-1.92990E-18-3.39155E-18
 -1      1770 8.52622E-05-6.67990E-06-3.37305E-05-2.89058E-06-6.52583E-19-3.89353E-18
 -1      1771 8.53826E-05-6.77425E-06-3.37364E-05-4.13088E-06-9.38429E-19-3.83265E-18
 -1      1772 8.69614E-05-9.15857E-06-3.33766E-05-4.54077E-06-1.19920E-18-3.63286E-18
 -1      1773 8.51319E-05-6.53187E-06-3.37341E-05-5.17841E-07 2.21711E-20-3.87270E-18
 -1      1774 8.51673E-05-6.56035E-06-3.37355E-05-1.72810E-06-2.98761E-19-3.89770E-18
 -1      1775 8.66299E-05-8.77950E-06-3.33968E-05-2.21871E-06-5.19080E-19-3.69416E-18
 -1      1776 8.51771E-05-6.56924E-06-3.37357E-05 1.84610E-06 5.60510E-19-3.76400E-18
 -1      1777 8.51355E-05-6.53637E-06-3.37340E-05 6.34878E-07 2.96478E-19-3.81469E-18
 -1      1778 8.65319E-05-8.66596E-06-3.34035E-05 6.54561E-08 1.93129E-19-3.67586E-18
 -1      1779 8.54076E-05-6.79917E-06-3.37365E-05 4.25317E-06 1.14123E-18-3.63675E-18
 -1      1780 8.52800E-05-6.69861E-06-3.37305E-05 3.00982E-06 8.75452E-19-3.74227E-18
 -1      1781 8.66473E-05-8.79882E-06-3.33961E-05 2.35071E-06 7.70193E-19-3.57423E-18
 -1      1782 8.58637E-05-7.25195E-06-3.37418E-05 6.71529E-06 1.74140E-18-3.27260E-18
 -1      1783 8.56261E-05-7.06990E-06-3.37270E-05 5.42767E-06 1.42725E-18-3.50050E-18
 -1      1784 8.69947E-05-9.19537E-06-3.33751E-05 4.65514E-06 1.40554E-18-3.34677E-18
 -1      1785 8.66762E-05-8.04125E-06-3.37623E-05 9.37754E-06 2.50067E-18-2.70283E-18
 -1      1786 8.62557E-05-7.72486E-06-3.37286E-05 7.95646E-06 2.08467E-18-3.00736E-18
 -1      1787 8.76460E-05-9.92741E-06-3.33406E-05 7.03112E-06 2.10007E-18-2.89521E-18
 -1      1788 8.80877E-05-9.38842E-06-3.38174E-05 1.22567E-05 3.15139E-18-1.76924E-18
 -1      1789 8.73481E-05-8.83074E-06-3.37455E-05 1.06636E-05 2.78006E-18-2.33264E-18
 -1      1790 8.87662E-05-1.11617E-05-3.32899E-05 9.50587E-06 2.80442E-18-2.23270E-18
 -1      1791 9.06311E-05-1.18402E-05-3.39274E-05 1.53050E-05 3.59044E-18-6.27334E-20
 -1      1792 8.92509E-05-1.07410E-05-3.37876E-05 1.35154E-05 3.32482E-18-1.13132E-18
 -1      1793 9.06627E-05-1.32236E-05-3.32068E-05 1.19780E-05 3.41163E-18-1.19064E-18
 -1      1794 9.58758E-05-1.70345E-05-3.39931E-05 1.76924E-05 3.50655E-18 3.32132E-18
 -1      1795 9.28562E-05-1.43432E-05-3.38268E-05 1.61958E-05 3.50808E-18 1.29395E-18
 -1      1796 9.39696E-05-1.68872E-05-3.30240E-05 1.38967E-05 3.68322E-18 7.48592E-19
 -1      1797 1.01925E-04-2.50945E-05-3.33593E-05 1.44239E-05 2.90421E-18 7.50535E-18
 -1      1798 9.80764E-05-1.96166E-05-3.36252E-05 1.69659E-05 3.22227E-18 4.77102E-18
 -1      1799 9.73290E-05-2.18543E-05-3.24275E-05 1.32503E-05 3.58034E-18 3.33379E-18
 -1      1800 9.87521E-05-2.61354E-05-3.13424E-05 9.43635E-06 2.94971E-18 6.59763E-18
 -1      1801 1.00155E-04-1.95626E-05-3.42183E-05-1.88711E-05-2.79010E-18 5.43890E-18
 -1      1802 9.53102E-05-2.72855E-05-2.91850E-05 4.06842E-06 2.32958E-18 5.11165E-18
 -1      1803 9.77411E-05-2.73908E-05-3.01942E-05 6.40237E-06 2.50184E-18 6.00530E-18
 -1      1804 9.75760E-05-2.56148E-05-3.08325E-05 8.76165E-06 3.01552E-18 4.13435E-18
 -1      1805 9.98138E-05-2.25397E-05-3.28364E-05-1.44694E-05-3.05128E-18 4.06671E-18
 -1      1806 9.69607E-05-2.69801E-05-2.98766E-05-5.70657E-06-2.57763E-18 3.56870E-18
 -1      1807 9.51511E-05-2.70350E-05-2.91658E-05-3.90044E-06-2.35592E-18 2.84949E-18
 -1      1808 9.43306E-05-2.72351E-05-2.86583E-05-2.42528E-06-2.09595E-18 2.63294E-18
 -1      1809 9.35579E-05-2.73150E-05-2.83531E-05-1.57191E-06-1.79410E-18 2.02111E-18
 -1      1810 9.55050E-05-2.65441E-05-2.95748E-05-4.47841E-06-2.66667E-18 1.35410E-18
 -1      1811 9.30323E-05-2.73656E-05-2.80840E-05-7.45328E-07-1.44048E-18 1.72549E-18
 -1      1812 9.27301E-05-2.74290E-05-2.79615E-05-3.07223E-07-1.30683E-18 1.27074E-18
 -1      1813 9.42930E-05-2.72188E-05-2.87660E-05-1.83422E-06-2.06084E-18 8.63133E-19
 -1      1814 9.24534E-05-2.74564E-05-2.78251E-05 1.46993E-07-1.18310E-18 1.30566E-18
 -1      1815 9.24206E-05-2.75322E-05-2.77948E-05 3.70432E-07-1.13989E-18 1.01409E-18
 -1      1816 9.35907E-05-2.75261E-05-2.83294E-05-3.68999E-07-1.42969E-18 5.92897E-19
 -1      1817 9.23158E-05-2.75632E-05-2.77362E-05 6.09034E-07-1.00941E-18 9.80534E-19
 -1      1818 9.24288E-05-2.76476E-05-2.77547E-05 7.12162E-07-7.83058E-19 8.10374E-19
 -1      1819 9.32673E-05-2.77107E-05-2.81077E-05 4.31336E-07-1.15184E-18 4.00518E-19
 -1      1820 9.24325E-05-2.76851E-05-2.77423E-05 8.22143E-07-7.69918E-19 7.44688E-19
 -1      1821 9.26177E-05-2.77710E-05-2.77863E-05 8.54987E-07-6.44509E-19 6.49249E-19
 -1      1822 9.32009E-05-2.78529E-05-2.80144E-05 8.40451E-07-9.80569E-19 2.23155E-19
 -1      1823 9.26847E-05-2.78119E-05-2.78007E-05 8.87555E-07-5.63051E-19 6.60493E-19
 -1      1824 9.28982E-05-2.78935E-05-2.78562E-05 8.79408E-07-3.41534E-19 5.85198E-19
 -1      1825 9.32924E-05-2.79754E-05-2.79981E-05 1.01395E-06-6.52068E-19 1.74590E-19
 -1      1826 9.29978E-05-2.79344E-05-2.78849E-05 8.66475E-07-5.36990E-19 3.33298E-19
 -1      1827 9.32135E-05-2.80084E-05-2.79434E-05 8.35706E-07-4.28749E-19 1.62292E-19
 -1      1828 9.34715E-05-2.80831E-05-2.80264E-05 1.04601E-06-6.24669E-19-2.54880E-19
 -1      1829 9.33262E-05-2.80468E-05-2.79788E-05 7.97985E-07-4.81463E-19-4.60516E-20
 -1      1830 9.35292E-05-2.81115E-05-2.80354E-05 7.56572E-07-6.15783E-19-2.82833E-19
 -1      1831 9.36910E-05-2.81767E-05-2.80789E-05 9.96525E-07-7.85654E-19-5.41059E-19
 -1      1832 9.36431E-05-2.81460E-05-2.80727E-05 7.07847E-07-5.82643E-19-2.45469E-19
 -1      1833 9.38264E-05-2.82011E-05-2.81249E-05 6.63768E-07-3.62298E-19-5.63626E-19
 -1      1834 9.39211E-05-2.82563E-05-2.81425E-05 9.04899E-07-5.98488E-19-5.22946E-19
 -1      1835 9.39351E-05-2.82311E-05-2.81615E-05 6.13362E-07-4.03971E-19-6.62577E-19
 -1      1836 9.40967E-05-2.82771E-05-2.82082E-05 5.72017E-07-2.16270E-19-7.51416E-19
 -1      1837 9.41448E-05-2.83224E-05-2.82096E-05 7.97593E-07-5.40272E-19-7.52079E-19
 -1      1838 9.41975E-05-2.83029E-05-2.82430E-05 5.26360E-07 3.66325E-20-8.46612E-19
 -1      1839 9.43389E-05-2.83410E-05-2.82846E-05 4.91507E-07-1.93950E-19-5.99112E-19
 -1      1840 9.43538E-05-2.83762E-05-2.82759E-05 6.92693E-07-3.01162E-19-1.09066E-18
 -1      1841 9.44322E-05-2.83631E-05-2.83175E-05 4.55213E-07-5.36088E-19-2.65647E-19
 -1      1842 9.45575E-05-2.83948E-05-2.83549E-05 4.29641E-07-4.01649E-19-9.78771E-20
 -1      1843 9.45462E-05-2.84194E-05-2.83399E-05 6.02899E-07-1.28803E-19-7.71448E-19
 -1      1844 9.46457E-05-2.84142E-05-2.83865E-05 4.06294E-07-6.04429E-19-2.35752E-19
 -1      1845 9.47609E-05-2.84416E-05-2.84215E-05 3.92323E-07-4.77785E-19-5.49466E-19
 -1      1846 9.47251E-05-2.84542E-05-2.84018E-05 5.37639E-07-5.36465E-19-2.44253E-19
 -1      1847 9.48479E-05-2.84594E-05-2.84532E-05 3.85081E-07-4.00915E-19-9.32014E-19
 -1      1848 9.49608E-05-2.84849E-05-2.84880E-05 3.84966E-07-4.82531E-19-9.18554E-19
 -1      1849 9.48968E-05-2.84829E-05-2.84635E-05 5.04643E-07-8.38994E-19-8.12901E-19
 -1      1850 9.50521E-05-2.85025E-05-2.85216E-05 3.97039E-07-5.95175E-19-1.29115E-18
 -1      1851 9.51721E-05-2.85285E-05-2.85588E-05 4.13297E-07-3.60620E-19-1.55781E-18
 -1      1852 9.50710E-05-2.85081E-05-2.85278E-05 5.11162E-07-6.86632E-19-1.20247E-18
 -1      1853 9.52744E-05-2.85477E-05-2.85969E-05 4.48337E-07-6.96968E-20-1.57634E-18
 -1      1854 9.54128E-05-2.85773E-05-2.86399E-05 4.84026E-07-1.08437E-19-1.52048E-18
 -1      1855 9.52595E-05-2.85328E-05-2.85986E-05 5.64949E-07-2.03645E-19-1.39724E-18
 -1      1856 9.55342E-05-2.86000E-05-2.86851E-05 5.46454E-07-3.48950E-19-1.43091E-18
 -1      1857 9.57045E-05-2.86367E-05-2.87379E-05 6.05411E-07-2.25760E-19-1.56130E-18
 -1      1858 9.54773E-05-2.85602E-05-2.86809E-05 6.75056E-07-1.09508E-19-1.53201E-18
 -1      1859 9.58547E-05-2.86651E-05-2.87938E-05 7.00671E-07 4.56314E-20-1.44935E-18
 -1      1860 9.60729E-05-2.87132E-05-2.88610E-05 7.87705E-07 2.04015E-19-1.71340E-18
 -1      1861 9.57419E-05-2.85938E-05-2.87807E-05 8.52474E-07-7.17637E-20-8.27160E-19
 -1      1862 9.62631E-05-2.87500E-05-2.89316E-05 9.22441E-07 5.87993E-20-1.47407E-18
 -1      1863 9.65484E-05-2.88146E-05-2.90190E-05 1.04345E-06-1.64214E-19-1.39607E-18
 -1      1864 9.60738E-05-2.86380E-05-2.89049E-05 1.11060E-06 3.02151E-19-9.01518E-19
 -1      1865 9.67914E-05-2.88629E-05-2.91089E-05 1.22553E-06-2.73305E-19-1.02033E-18
 -1      1866 9.71669E-05-2.89504E-05-2.92230E-05 1.38747E-06-2.48342E-19-7.86131E-19
 -1      1867 9.64969E-05-2.86980E-05-2.90616E-05 1.46544E-06-7.04344E-22-7.67096E-19
 -1      1868 9.74772E-05-2.90139E-05-2.93373E-05 1.62572E-06-5.02645E-19-1.00041E-18
 -1      1869 9.79694E-05-2.91322E-05-2.94858E-05 1.83622E-06-5.17666E-20-1.12579E-18
 -1      1870 9.70386E-05-2.87801E-05-2.92597E-05 1.93530E-06-3.85497E-19-3.35909E-19
 -1      1871 9.83633E-05-2.92156E-05-2.96299E-05 2.13961E-06-4.92172E-20-1.28590E-18
 -1      1872 9.90028E-05-2.93745E-05-2.98213E-05 2.40596E-06 4.54916E-20-1.04575E-18
 -1      1873 9.77297E-05-2.88931E-05-2.95086E-05 2.53957E-06-1.08925E-19-5.75800E-19
 -1      1874 9.94976E-05-2.94843E-05-3.00004E-05 2.78165E-06 5.90040E-19-1.23507E-18
 -1      1875 1.00317E-04-2.96963E-05-3.02434E-05 3.10846E-06 7.38060E-19-7.41068E-19
 -1      1876 9.86043E-05-2.90494E-05-2.98177E-05 3.29566E-06 4.13189E-19-8.79484E-19
 -1      1877 1.00932E-04-2.98417E-05-3.04618E-05 3.55793E-06 2.39085E-19-7.12106E-19
 -1      1878 1.01964E-04-3.01228E-05-3.07640E-05 3.94235E-06 3.40297E-19-1.15483E-18
 -1      1879 9.96998E-05-2.92685E-05-3.01944E-05 4.21268E-06 6.38708E-19-2.76296E-19
 -1      1880 1.02717E-04-3.03185E-05-3.10231E-05 4.45402E-06 6.64372E-19-4.43123E-19
 -1      1881 1.03987E-04-3.06894E-05-3.13886E-05 4.87690E-06 7.60952E-19-1.11876E-20
 -1      1882 1.01057E-04-2.95829E-05-3.06423E-05 5.27930E-06 9.52168E-19 8.29653E-20
 -1      1883 1.04900E-04-3.09595E-05-3.16851E-05 5.41332E-06 1.02626E-18-1.82658E-20
 -1      1884 1.06414E-04-3.14463E-05-3.21098E-05 5.82408E-06 1.26413E-18 5.50030E-19
 -1      1885 1.02719E-04-3.00475E-05-3.11571E-05 6.44234E-06 9.40969E-19 3.07897E-19
 -1      1886 1.07511E-04-3.18302E-05-3.24322E-05 6.30139E-06 8.60821E-19 1.35294E-19
 -1      1887 1.09236E-04-3.24636E-05-3.28973E-05 6.59552E-06 1.46906E-19-4.84860E-20
 -1      1888 1.04739E-04-3.07544E-05-3.17220E-05 7.57159E-06 5.47521E-19 6.94253E-21
 -1      1889 1.10548E-04-3.30211E-05-3.32239E-05 6.85489E-06-3.79389E-19 1.99238E-19
 -1      1890 1.12381E-04-3.38263E-05-3.36870E-05 6.84802E-06-7.58946E-19 3.74862E-19
 -1      1891 1.07181E-04-3.18473E-05-3.23035E-05 8.40877E-06 3.26911E-19-4.28509E-19
 -1      1892 1.13940E-04-3.46309E-05-3.39857E-05 6.62671E-06-1.52043E-18 9.28332E-19
 -1      1893 1.15668E-04-3.55958E-05-3.43759E-05 6.04479E-06-1.69085E-18 1.31552E-18
 -1      1894 1.10120E-04-3.35163E-05-3.28519E-05 8.50746E-06-9.05885E-19 1.13866E-18
 -1      1895 1.17477E-04-3.66887E-05-3.46141E-05 4.97652E-06-1.74449E-18 1.57972E-18
 -1      1896 1.18735E-04-3.76866E-05-3.48385E-05 3.51169E-06-7.12163E-19 1.39477E-18
 -1      1897 1.13602E-04-3.59206E-05-3.33165E-05 7.20015E-06-1.21724E-18 1.81427E-18
 -1      1898 1.20663E-04-3.89485E-05-3.50075E-05 1.23549E-06-4.46532E-19 1.63906E-18
 -1      1899 1.20934E-04-3.96120E-05-3.49842E-05-1.25040E-06 5.24366E-20 1.79533E-18
 -1      1900 1.17501E-04-3.89394E-05-3.36871E-05 3.69467E-06-7.32181E-19 2.05958E-18
 -1      1901 1.22526E-04-4.05571E-05-3.51317E-05-4.75081E-06 3.73819E-19 1.68573E-18
 -1      1902 1.21271E-04-4.02085E-05-3.48523E-05-7.82806E-06 9.56896E-19 1.85400E-18
 -1      1903 1.21203E-04-4.17230E-05-3.40566E-05-2.48890E-06 5.49784E-19 2.01515E-18
 -1      1904 1.21637E-04-3.99067E-05-3.50918E-05-1.16038E-05 8.39688E-19 1.28783E-18
 -1      1905 1.18700E-04-3.78806E-05-3.46660E-05-1.38940E-05-8.05236E-20 9.73148E-19
 -1      1906 1.23258E-04-4.22916E-05-3.46593E-05-1.05469E-05 3.57832E-19 2.41033E-18
 -1      1907 1.17112E-04-3.56342E-05-3.50661E-05-1.56486E-05-5.46019E-19 7.21434E-20
 -1      1908 1.13318E-04-3.22844E-05-3.46739E-05-1.51949E-05-9.15537E-19-6.57774E-20
 -1      1909 1.21851E-04-3.84680E-05-3.57191E-05-1.70662E-05-6.08990E-19 2.33136E-18
 -1      1910 1.10607E-04-2.91008E-05-3.50959E-05-1.25830E-05-8.79008E-19-1.06284E-18
 -1      1911 1.07901E-04-2.65019E-05-3.48596E-05-8.62390E-06-1.16329E-18-1.38953E-18
 -1      1912 1.16977E-04-3.07237E-05-3.70609E-05-1.66293E-05-1.63663E-18 8.73185E-19
 -1      1913 1.06623E-04-2.51889E-05-3.49760E-05-2.32145E-06-2.02589E-18-2.48455E-18
 -1      1914 1.06701E-04-2.55105E-05-3.49077E-05 2.99182E-06-2.32336E-18-3.64023E-18
 -1      1915 1.12458E-04-2.44294E-05-3.79600E-05-6.70767E-06-2.26735E-18-1.46290E-18
 -1      1916 1.08125E-04-2.74227E-05-3.45473E-05 8.65864E-06-2.26910E-18-4.20897E-18
 -1      1917 1.10680E-04-3.02657E-05-3.46449E-05 1.18146E-05-2.44078E-18-4.76772E-18
 -1      1918 1.12728E-04-2.53443E-05-3.76718E-05 6.97690E-06-2.72422E-18-3.73023E-18
 -1      1919 1.12882E-04-3.33163E-05-3.40563E-05 1.32227E-05-2.18916E-18-4.62872E-18
 -1      1920 1.15969E-04-3.62786E-05-3.42873E-05 1.28204E-05-9.92895E-19-4.55055E-18
 -1      1921 1.16979E-04-3.24196E-05-3.63137E-05 1.47238E-05-2.22081E-18-4.07771E-18
 -1      1922 1.16652E-04-3.79339E-05-3.37839E-05 1.02806E-05-1.80312E-19-4.16424E-18
 -1      1923 1.18557E-04-3.93303E-05-3.40044E-05 7.58497E-06 2.30914E-18-3.67854E-18
 -1      1924 1.20353E-04-3.92498E-05-3.47235E-05 1.29198E-05 1.96737E-19-3.48683E-18
 -1      1925 1.17393E-04-3.91222E-05-3.36635E-05 3.67130E-06 3.96062E-18-4.01704E-18
 -1      1926 1.17570E-04-3.89517E-05-3.36969E-05 6.03817E-07 3.27446E-18-2.60629E-18
 -1      1927 1.19980E-04-4.16692E-05-3.35334E-05 5.48453E-06 2.82361E-18-2.57297E-18
 -1      1928 1.15425E-04-3.77344E-05-3.34200E-05-2.68063E-06 1.84388E-18-1.56301E-18
 -1      1929 1.14183E-04-3.67122E-05-3.31906E-05-4.95826E-06 2.90629E-18-7.68636E-19
 -1      1930 1.16532E-04-4.00822E-05-3.27710E-05-2.39733E-06 3.52315E-18-1.31427E-18
 -1      1931 1.11848E-04-3.53041E-05-3.28916E-05-6.91119E-06 2.31973E-18-1.36660E-18
 -1      1932 1.09771E-04-3.40255E-05-3.24472E-05-8.09273E-06 1.77509E-18-8.55636E-19
 -1      1933 1.11856E-04-3.67867E-05-3.21988E-05-7.97297E-06 2.57704E-18-2.04896E-18
 -1      1934 1.07613E-04-3.27857E-05-3.21105E-05-8.77589E-06 5.89515E-19-1.75563E-18
 -1      1935 1.05245E-04-3.15431E-05-3.15653E-05-8.97484E-06-2.24681E-19-1.92713E-18
 -1      1936 1.07186E-04-3.34116E-05-3.16465E-05-1.07095E-05 1.02343E-18-2.39812E-18
 -1      1937 1.03359E-04-3.05114E-05-3.12281E-05-8.66441E-06 4.51836E-19-9.36223E-19
 -1      1938 1.01126E-04-2.94067E-05-3.07075E-05-8.06289E-06 1.23870E-18-1.08606E-19
 -1      1939 1.03018E-04-3.05393E-05-3.10861E-05-1.10153E-05 2.97761E-19-2.31649E-18
 -1      1940 9.97082E-05-2.86574E-05-3.04416E-05-7.02959E-06 1.34197E-18-5.75307E-19
 -1      1941 9.78920E-05-2.77469E-05-3.00182E-05-5.80989E-06 6.26503E-19 5.14275E-20
 -1      1942 9.70200E-05-2.66835E-05-3.01581E-05-6.80640E-06-3.89531E-19 4.91349E-19
 -1      1943 9.96171E-05-2.82592E-05-3.06024E-05-9.48899E-06 1.27251E-18-1.45746E-19
 -1      1944 9.32095E-05-2.73621E-05-2.81924E-05 1.60721E-06 1.86658E-18 3.84308E-18
 -1      1945 9.44047E-05-2.74676E-05-2.86292E-05 2.67802E-06 2.00457E-18 4.57031E-18
 -1      1946 9.52287E-05-2.70468E-05-2.92262E-05 4.05611E-06 2.50248E-18 3.17725E-18
 -1      1947 9.21559E-05-2.73482E-05-2.77502E-05 3.51034E-07 1.41514E-18 3.01546E-18
 -1      1948 9.26511E-05-2.73807E-05-2.79228E-05 8.98841E-07 1.46338E-18 3.48930E-18
 -1      1949 9.36231E-05-2.73677E-05-2.84021E-05 1.58803E-06 1.84823E-18 2.47854E-18
 -1      1950 9.17785E-05-2.73853E-05-2.75814E-05-3.01434E-07 8.30453E-19 2.55177E-18
 -1      1951 9.18947E-05-2.73589E-05-2.76287E-05-9.39815E-09 1.07021E-18 2.78945E-18
 -1      1952 9.27905E-05-2.74825E-05-2.79991E-05 2.76131E-07 1.34604E-18 1.72838E-18
 -1      1953 9.17996E-05-2.74751E-05-2.75575E-05-6.26028E-07 3.46178E-19 2.07415E-18
 -1      1954 9.17132E-05-2.74136E-05-2.75416E-05-4.73795E-07 5.72660E-19 2.36135E-18
 -1      1955 9.24746E-05-2.75749E-05-2.78242E-05-4.16142E-07 7.67322E-19 1.45252E-18
 -1      1956 9.20406E-05-2.75961E-05-2.76121E-05-7.62617E-07 5.26482E-19 1.82551E-18
 -1      1957 9.18516E-05-2.75179E-05-2.75640E-05-6.91988E-07 4.09568E-19 2.02846E-18
 -1      1958 9.24756E-05-2.76794E-05-2.77780E-05-7.59733E-07 5.25868E-19 1.13837E-18
 -1      1959 9.23898E-05-2.77291E-05-2.77066E-05-7.88919E-07 7.07030E-19 1.57484E-18
 -1      1960 9.21567E-05-2.76464E-05-2.76439E-05-7.67210E-07 5.81433E-19 1.81850E-18
 -1      1961 9.26573E-05-2.77937E-05-2.78047E-05-8.99377E-07 7.02077E-19 1.03838E-18
 -1      1962 9.27780E-05-2.78608E-05-2.78179E-05-7.51927E-07 5.35677E-19 1.23194E-18
 -1      1963 9.25354E-05-2.77810E-05-2.77509E-05-7.59127E-07 6.89631E-19 1.48013E-18
 -1      1964 9.29311E-05-2.79094E-05-2.78706E-05-9.18785E-07 8.00298E-19 1.04855E-18
 -1      1965 9.31638E-05-2.79834E-05-2.79317E-05-6.81592E-07 3.06979E-19 9.44960E-19
 -1      1966 9.29316E-05-2.79105E-05-2.78665E-05-7.04756E-07 3.73361E-19 1.02670E-18
 -1      1967 9.32407E-05-2.80192E-05-2.79548E-05-8.69709E-07 5.78617E-19 8.60463E-19
 -1      1968 9.35242E-05-2.80927E-05-2.80400E-05-5.97600E-07 7.72729E-19 8.76464E-19
 -1      1969 9.33126E-05-2.80286E-05-2.79799E-05-6.28087E-07 4.04227E-19 1.07935E-18
 -1      1970 9.35518E-05-2.81188E-05-2.80445E-05-7.85583E-07 4.93258E-19 6.28885E-19
 -1      1971 9.38487E-05-2.81876E-05-2.81389E-05-5.13115E-07 7.62981E-19 7.23387E-19
 -1      1972 9.36619E-05-2.81325E-05-2.80853E-05-5.45037E-07 8.48508E-19 9.84238E-19
 -1      1973 9.38455E-05-2.82061E-05-2.81323E-05-6.88582E-07 8.37557E-19 3.63734E-19
 -1      1974 9.41356E-05-2.82686E-05-2.82275E-05-4.37081E-07 8.37594E-19 1.40929E-19
 -1      1975 9.39731E-05-2.82219E-05-2.81804E-05-4.66344E-07 7.82065E-19 4.47786E-19
 -1      1976 9.41132E-05-2.82808E-05-2.82147E-05-5.93670E-07 1.09455E-18-2.27834E-19
 -1      1977 9.43889E-05-2.83376E-05-2.83066E-05-3.75761E-07 5.19950E-19-4.59171E-19
 -1      1978 9.42475E-05-2.82981E-05-2.82651E-05-3.99412E-07 5.83656E-19 4.95969E-20
 -1      1979 9.43539E-05-2.83441E-05-2.82905E-05-5.11159E-07 6.66972E-19-3.55722E-19
 -1      1980 9.46173E-05-2.83978E-05-2.83787E-05-3.33833E-07 4.46701E-19-5.15251E-19
 -1      1981 9.44915E-05-2.83635E-05-2.83414E-05-3.49585E-07 3.96933E-19-3.69301E-19
 -1      1982 9.45716E-05-2.83980E-05-2.83606E-05-4.48447E-07 5.22584E-19-4.78027E-19
 -1      1983 9.48327E-05-2.84526E-05-2.84474E-05-3.15174E-07 8.13379E-19-8.88887E-19
 -1      1984 9.47153E-05-2.84213E-05-2.84121E-05-3.21067E-07 8.31498E-19-5.38401E-19
 -1      1985 9.47744E-05-2.84454E-05-2.84272E-05-4.11253E-07 8.49964E-19-4.04260E-19
 -1      1986 9.50497E-05-2.85067E-05-2.85170E-05-3.23407E-07 5.11095E-19-1.41204E-18
 -1      1987 9.49322E-05-2.84757E-05-2.84812E-05-3.17560E-07 4.37358E-19-1.19052E-18
 -1      1988 9.49732E-05-2.84898E-05-2.84936E-05-4.04487E-07 1.01864E-18-4.76096E-19
 -1      1989 9.52858E-05-2.85650E-05-2.85927E-05-3.62226E-07 3.08129E-19-7.84417E-19
 -1      1990 9.51582E-05-2.85314E-05-2.85536E-05-3.42689E-07 6.73140E-19-1.15843E-18
 -1      1991 9.51817E-05-2.85350E-05-2.85638E-05-4.32830E-07 4.43782E-19-6.71624E-19
 -1      1992 9.55606E-05-2.86335E-05-2.86806E-05-4.35488E-07-1.10712E-18-1.55103E-18
 -1      1993 9.54116E-05-2.85937E-05-2.86349E-05-4.00195E-07-1.47052E-19-1.24960E-18
 -1      1994 9.54158E-05-2.85859E-05-2.86427E-05-5.01013E-07 1.51254E-19-9.18704E-19
 -1      1995 9.58963E-05-2.87187E-05-2.87873E-05-5.47012E-07-8.18924E-19-2.08078E-18
 -1      1996 9.57135E-05-2.86689E-05-2.87314E-05-4.93865E-07-1.10603E-18-1.93347E-18
 -1      1997 9.56938E-05-2.86477E-05-2.87358E-05-6.13782E-07-6.77136E-19-1.48370E-18
 -1      1998 9.63169E-05-2.88283E-05-2.89199E-05-6.99994E-07-7.75089E-20-1.34660E-18
 -1      1999 9.60866E-05-2.87642E-05-2.88498E-05-6.27128E-07-6.56432E-19-1.86281E-18
 -1      2000 9.60358E-05-2.87269E-05-2.88490E-05-7.75445E-07-8.40975E-19-1.73695E-18
 -1      2001 9.68475E-05-2.89708E-05-2.90856E-05-8.95896E-07 1.17863E-18-1.33173E-18
 -1      2002 9.65556E-05-2.88875E-05-2.89973E-05-8.02197E-07 7.97075E-19-8.06035E-19
 -1      2003 9.64634E-05-2.88307E-05-2.89884E-05-9.88877E-07 5.97217E-19-7.61840E-19
 -1      2004 9.75128E-05-2.91553E-05-2.92910E-05-1.13259E-06 8.57141E-20-1.59480E-18
 -1      2005 9.71456E-05-2.90478E-05-2.91808E-05-1.01858E-06 7.45937E-19-1.36869E-18
 -1      2006 9.69986E-05-2.89679E-05-2.91597E-05-1.25378E-06 8.23074E-19-6.30585E-19
 -1      2007 9.83335E-05-2.93914E-05-2.95414E-05-1.40155E-06-6.57228E-19-1.30088E-18
 -1      2008 9.78798E-05-2.92549E-05-2.94064E-05-1.27073E-06-2.46816E-19-1.53924E-18
 -1      2009 9.76625E-05-2.91482E-05-2.93676E-05-1.56392E-06-2.88395E-19-2.50883E-19
 -1      2010 9.93223E-05-2.96877E-05-2.98386E-05-1.68380E-06-5.16938E-19-5.00132E-19
 -1      2011 9.87761E-05-2.95183E-05-2.96778E-05-1.54468E-06-7.42594E-19-1.03550E-18
 -1      2012 9.84718E-05-2.93825E-05-2.96147E-05-1.90317E-06-6.71753E-19 2.36440E-19
 -1      2013 1.00476E-04-3.00509E-05-3.01790E-05-1.94465E-06 1.81121E-19-1.55153E-18
 -1      2014 9.98414E-05-2.98467E-05-2.99943E-05-1.81337E-06 5.01214E-20-1.02720E-18
 -1      2015 9.94351E-05-2.96823E-05-2.98995E-05-2.23999E-06 5.19279E-20-1.61447E-19
 -1      2016 1.01767E-04-3.04826E-05-3.05501E-05-2.12762E-06 9.43672E-19-7.57654E-19
 -1      2017 1.01064E-04-3.02458E-05-3.03487E-05-2.03108E-06 5.88875E-19-1.33669E-18
 -1      2018 1.00546E-04-3.00585E-05-3.02145E-05-2.52088E-06 6.11073E-19-5.96807E-19
 -1      2019 1.03129E-04-3.09746E-05-3.09275E-05-2.14928E-06 6.37975E-19-1.44741E-18
 -1      2020 1.02400E-04-3.07144E-05-3.07235E-05-2.12797E-06 6.58010E-19-9.27078E-19
 -1      2021 1.01776E-04-3.05178E-05-3.05439E-05-2.66370E-06 7.68396E-19 7.91455E-19
 -1      2022 1.04444E-04-3.15018E-05-3.12716E-05-1.89906E-06-6.02667E-19-1.64587E-18
 -1      2023 1.03766E-04-3.12384E-05-3.10882E-05-2.00748E-06-6.75112E-20-1.43013E-18
 -1      2024 1.03060E-04-3.10575E-05-3.08614E-05-2.55412E-06 5.53491E-20 1.59848E-19
 -1      2025 1.05534E-04-3.20118E-05-3.15271E-05-1.25138E-06-2.63646E-19-1.02590E-18
 -1      2026 1.05017E-04-3.17814E-05-3.13968E-05-1.55245E-06-5.13755E-19-1.63916E-18
 -1      2027 1.04291E-04-3.16541E-05-3.11295E-05-2.05161E-06-2.78144E-19 1.01902E-19
 -1      2028 1.06155E-04-3.24120E-05-3.16274E-05-1.01349E-07-9.23977E-19-8.92116E-19
 -1      2029 1.05944E-04-3.22709E-05-3.15898E-05-6.48883E-07-4.78349E-19-9.76593E-19
 -1      2030 1.05300E-04-3.22459E-05-3.13023E-05-1.01515E-06-5.51630E-19-4.74939E-19
 -1      2031 1.06023E-04-3.25616E-05-3.15079E-05 1.56593E-06-2.70819E-19-1.77188E-18
 -1      2032 1.06276E-04-3.25857E-05-3.16016E-05 7.61656E-07-7.53873E-19-1.11477E-18
 -1      2033 1.05858E-04-3.27126E-05-3.13329E-05 6.38157E-07-3.55049E-19-8.76167E-19
 -1      2034 1.04873E-04-3.22830E-05-3.11289E-05 3.57631E-06-5.42581E-19-5.87510E-19
 -1      2035 1.05716E-04-3.25542E-05-3.13776E-05 2.59817E-06-1.50355E-19-9.95717E-19
 -1      2036 1.05693E-04-3.28636E-05-3.11876E-05 2.83604E-06-6.61347E-19-8.11040E-19
 -1      2037 1.02582E-04-3.14213E-05-3.05043E-05 5.48091E-06-5.32731E-19-1.29252E-19
 -1      2038 1.04041E-04-3.19907E-05-3.08987E-05 4.54670E-06-7.20368E-19-3.01643E-19
 -1      2039 1.04558E-04-3.24668E-05-3.08634E-05 5.23604E-06-5.49592E-19 3.90433E-19
 -1      2040 9.93290E-05-2.99653E-05-2.97215E-05 6.58427E-06 7.88348E-19 5.22527E-19
 -1      2041 1.01250E-04-3.07953E-05-3.02069E-05 6.02998E-06 2.32954E-19 4.03664E-19
 -1      2042 1.02369E-04-3.13575E-05-3.04019E-05 7.17036E-06-3.36411E-19 6.05202E-19
 -1      2043 9.57216E-05-2.81839E-05-2.89342E-05 6.19265E-06 4.82931E-19 3.79226E-19
 -1      2044 9.77364E-05-2.91005E-05-2.94137E-05 6.34650E-06 8.12746E-19 2.31041E-19
 -1      2045 9.93927E-05-2.96169E-05-2.98872E-05 7.78108E-06 1.02916E-18 1.97404E-18
 -1      2046 9.27333E-05-2.66435E-05-2.83207E-05 4.05704E-06-1.94328E-19-7.29855E-19
 -1      2047 9.43286E-05-2.73592E-05-2.86818E-05 5.02415E-06 4.51965E-19-4.33800E-19
 -1      2048 9.63396E-05-2.77050E-05-2.94231E-05 6.42300E-06 8.16953E-19 9.91240E-19
 -1      2049 9.13270E-05-2.59657E-05-2.80206E-05 7.24637E-07 9.08575E-19-1.95464E-18
 -1      2050 9.20411E-05-2.62131E-05-2.81764E-05 2.23417E-06 3.63033E-20-1.79932E-18
 -1      2051 9.41908E-05-2.63537E-05-2.91009E-05 3.18916E-06 3.26167E-19-5.06301E-19
 -1      2052 9.19198E-05-2.64288E-05-2.80831E-05-2.59435E-06-5.88026E-20-1.60157E-18
 -1      2053 9.15757E-05-2.61290E-05-2.80081E-05-1.10504E-06 1.57111E-19-1.82158E-18
 -1      2054 9.36984E-05-2.61617E-05-2.89726E-05-8.83280E-07 3.97047E-20-1.54184E-18
 -1      2055 9.40827E-05-2.77404E-05-2.84423E-05-4.69098E-06-1.34175E-19-1.56117E-18
 -1      2056 9.29037E-05-2.70639E-05-2.81861E-05-3.75356E-06-7.57168E-20-1.21383E-18
 -1      2057 9.49004E-05-2.71733E-05-2.90392E-05-4.26807E-06-5.82322E-19-1.78760E-18
 -1      2058 9.68233E-05-2.92703E-05-2.89476E-05-5.01482E-06 1.29403E-18-2.35633E-18
 -1      2059 9.53011E-05-2.85153E-05-2.86111E-05-4.85720E-06 6.57301E-19-1.85779E-18
 -1      2060 9.70848E-05-2.88319E-05-2.92443E-05-5.82830E-06 8.35495E-19-1.99380E-18
 -1      2061 9.91192E-05-3.04271E-05-2.94248E-05-3.82828E-06-3.52713E-19-1.39158E-18
 -1      2062 9.77774E-05-2.98554E-05-2.91188E-05-4.32292E-06 6.87969E-19-1.37400E-18
 -1      2063 9.92607E-05-3.03900E-05-2.95001E-05-5.35228E-06 3.01871E-19 3.85840E-19
 -1      2064 1.00362E-04-3.09368E-05-2.97349E-05-1.87725E-06-7.90007E-19-1.52076E-18
 -1      2065 9.95433E-05-3.06686E-05-2.95411E-05-2.70072E-06-8.38682E-19-1.41470E-18
 -1      2066 1.00666E-04-3.13092E-05-2.97106E-05-3.46066E-06-5.40824E-19 1.27828E-19
 -1      2067 1.00436E-04-3.08252E-05-2.98160E-05 6.73832E-08-8.80881E-20-9.27260E-19
 -1      2068 1.00239E-04-3.08509E-05-2.97649E-05-7.55486E-07-1.31217E-19-7.13792E-19
 -1      2069 1.01013E-04-3.14562E-05-2.98029E-05-1.08640E-06-4.04114E-19-1.46233E-20
 -1      2070 9.95847E-05-3.02776E-05-2.96889E-05 1.46852E-06-7.71225E-19 9.65618E-20
 -1      2071 9.99049E-05-3.05144E-05-2.97615E-05 8.77853E-07-6.15548E-19-6.28055E-19
 -1      2072 1.00408E-04-3.09825E-05-2.97530E-05 9.70614E-07-7.05314E-19 1.26089E-18
 -1      2073 9.82132E-05-2.95115E-05-2.94328E-05 2.05663E-06 3.32350E-19 1.12043E-18
 -1      2074 9.88342E-05-2.98532E-05-2.95772E-05 1.82353E-06-4.35635E-19 4.72906E-19
 -1      2075 9.91632E-05-3.01373E-05-2.95861E-05 2.22614E-06-5.86883E-19 1.78882E-18
 -1      2076 9.67673E-05-2.87402E-05-2.91443E-05 1.78888E-06 1.32288E-18 1.58890E-18
 -1      2077 9.74379E-05-2.90823E-05-2.93005E-05 1.94733E-06 1.42954E-18 2.58109E-18
 -1      2078 9.76562E-05-2.91765E-05-2.93561E-05 2.49121E-06 8.76081E-19 3.41014E-18
 -1      2079 9.58053E-05-2.82615E-05-2.89330E-05 1.14523E-06 2.27022E-19 2.48519E-18
 -1      2080 9.63400E-05-2.85112E-05-2.90705E-05 1.55557E-06 9.96133E-19 2.43335E-18
 -1      2081 9.64785E-05-2.84573E-05-2.91626E-05 2.07507E-06 6.84433E-19 5.97902E-18
 -1      2082 9.56994E-05-2.79543E-05-2.90249E-05 1.45187E-06-6.78619E-21 6.24094E-18
 -1      2083 9.44091E-05-2.32591E-05-3.04676E-05 5.72328E-06-6.69199E-19-3.80443E-18
 -1      2084 9.48982E-05-2.46807E-05-3.00784E-05 5.06593E-06-4.23755E-19-1.99346E-18
 -1      2085 9.51513E-05-2.54888E-05-2.98265E-05 4.20483E-06 2.85907E-19 6.67948E-19
 -1      2086 9.54691E-05-2.65251E-05-2.95342E-05 3.50620E-06 1.33245E-19 2.47146E-18
 -1      2087 9.57151E-05-2.59726E-05-2.99112E-05 5.79395E-06-1.82480E-18-1.09721E-18
 -1      2088 9.54943E-05-2.69085E-05-2.93694E-05 2.74345E-06 4.78206E-19 3.56014E-18
 -1      2089 9.56803E-05-2.75986E-05-2.91640E-05 2.09723E-06 8.47935E-20 5.63876E-18
 -1      2090 9.60413E-05-2.78205E-05-2.92316E-05 2.49239E-06 2.01923E-19 5.22717E-18
 -1      2091 9.60219E-05-2.71279E-05-2.95290E-05 4.01315E-06-5.66750E-19 3.06262E-18
 -1      2092 9.32892E-05-2.04460E-05-3.12117E-05 6.91895E-06-1.91229E-18-6.29198E-18
 -1      2093 9.39733E-05-2.21626E-05-3.07608E-05 6.46121E-06-7.74363E-19-5.21077E-18
 -1      2094 9.49419E-05-2.40515E-05-3.04036E-05 7.59534E-06-1.37102E-18-5.39376E-18
 -1      2095 9.17700E-05-1.71344E-05-3.20066E-05 7.39503E-06-2.55687E-18-3.62377E-18
 -1      2096 9.26325E-05-1.90410E-05-3.15280E-05 7.31555E-06-1.82788E-18-4.13214E-18
 -1      2097 9.36474E-05-2.14891E-05-3.09414E-05 8.89068E-06-1.14133E-18-5.47747E-18
 -1      2098 9.00582E-05-1.37929E-05-3.27323E-05 6.70067E-06-1.46904E-18-2.28229E-18
 -1      2099 9.09594E-05-1.55856E-05-3.23019E-05 7.17688E-06-1.17835E-18-3.98081E-18
 -1      2100 9.18465E-05-1.84251E-05-3.14683E-05 9.12411E-06-2.49693E-20-3.12613E-18
 -1      2101 8.85229E-05-1.10439E-05-3.32706E-05 4.63675E-06-3.35345E-18 1.81647E-18
 -1      2102 8.92562E-05-1.23780E-05-3.29638E-05 5.70972E-06-2.55088E-18 2.31439E-19
 -1      2103 8.98330E-05-1.53226E-05-3.19112E-05 7.79491E-06 1.59745E-20-1.56715E-18
 -1      2104 8.76020E-05-9.54520E-06-3.35208E-05 1.41527E-06-3.76025E-18 9.45421E-19
 -1      2105 8.79560E-05-1.01073E-05-3.34009E-05 2.93474E-06-3.92488E-18 2.81905E-18
 -1      2106 8.81044E-05-1.28444E-05-3.22079E-05 4.77837E-06-3.48263E-18 1.64173E-18
 -1      2107 8.76183E-05-9.74825E-06-3.34278E-05-2.32761E-06-3.09161E-18 1.21568E-18
 -1      2108 8.74664E-05-9.36554E-06-3.35268E-05-6.82031E-07-3.34478E-18 1.28141E-18
 -1      2109 8.72044E-05-1.16580E-05-3.23161E-05 4.96221E-07-2.78458E-18 2.12511E-18
 -1      2110 8.85917E-05-1.16454E-05-3.30086E-05-5.67860E-06-1.33950E-18 1.97577E-18
 -1      2111 8.79654E-05-1.03891E-05-3.33092E-05-4.30657E-06-2.47725E-18 1.73670E-18
 -1      2112 8.74629E-05-1.21419E-05-3.22225E-05-4.10368E-06-2.02100E-18 1.93610E-18
 -1      2113 9.03052E-05-1.49039E-05-3.23212E-05-7.99898E-06 7.14816E-19-4.81724E-19
 -1      2114 8.93352E-05-1.29682E-05-3.27818E-05-7.15243E-06-3.64244E-19 1.08117E-18
 -1      2115 8.88191E-05-1.41985E-05-3.19428E-05-7.98500E-06 1.23783E-19 1.94762E-18
 -1      2116 9.23544E-05-1.88310E-05-3.14936E-05-8.79171E-06 2.30240E-18 4.10703E-18
 -1      2117 9.12469E-05-1.65942E-05-3.20257E-05-8.64701E-06 1.69506E-18 2.79154E-19
 -1      2118 9.09329E-05-1.73581E-05-3.15200E-05-1.03481E-05 2.79668E-18 1.32872E-18
 -1      2119 9.44368E-05-2.27794E-05-3.06904E-05-8.02556E-06 8.00843E-19 2.56653E-18
 -1      2120 9.32887E-05-2.05657E-05-3.11819E-05-8.55621E-06 8.87161E-19 5.04913E-18
 -1      2121 9.33213E-05-2.09364E-05-3.10284E-05-1.07797E-05 2.12595E-18 3.28734E-18
 -1      2122 5.70249E-05-4.25252E-05-6.67933E-06 4.09205E-05 4.18350E-18 4.24406E-18
 -1      2123 4.32638E-05-4.39624E-05-9.31881E-07 3.42843E-05 3.43048E-18 3.84394E-18
 -1      2124 1.29533E-05-3.74839E-05 9.10154E-06 5.36755E-06 3.19660E-18 7.06764E-18
 -1      2125 1.32476E-05-3.89573E-05 9.39658E-06-4.36885E-06 1.31650E-18 7.25314E-18
 -1      2126 2.67999E-05-3.80039E-05 3.80058E-06 2.70860E-05 3.69603E-18 3.92388E-18
 -1      2127 1.92127E-05-3.93318E-05 7.13708E-06 1.75339E-05 2.71135E-18 4.33173E-18
 -1      2128 9.04429E-05-4.53145E-05-1.94649E-05 4.48803E-05 4.03526E-18 2.44496E-18
 -1      2129 7.19806E-05-4.73057E-05-1.17488E-05 3.98655E-05 4.06661E-18 3.97301E-18
 -1      2130 7.66943E-05-4.99832E-05-1.16518E-05 4.52091E-05 7.90282E-19 2.15535E-18
 -1      2131 1.29600E-04-4.67329E-05-3.55665E-05 3.63792E-05 4.41982E-18 1.45944E-18
 -1      2132 1.09073E-04-4.68472E-05-2.72689E-05 3.76800E-05 4.53374E-18 1.53652E-18
 -1      2133 8.72679E-05-8.72478E-06-3.37497E-05-1.05251E-05-2.50791E-18-2.92363E-18
 -1      2134 8.79633E-05-9.25350E-06-3.38200E-05-1.21121E-05-2.95562E-18-2.40868E-18
 -1      2135 9.04687E-05-1.30774E-05-3.32340E-05-1.19235E-05-3.08743E-18-1.88114E-18
 -1      2136 8.86688E-05-1.10345E-05-3.32956E-05-9.41281E-06-2.53672E-18-2.89107E-18
 -1      2137 1.76765E-04-2.99530E-05-6.16309E-05 1.44020E-05 4.59304E-18 1.58141E-18
 -1      2138 1.65084E-04-3.17337E-05-5.66414E-05 1.92893E-05 4.77610E-18 1.72498E-18
 -1      2139 1.85364E-04-2.51025E-05-6.73911E-05 3.87978E-06 5.10591E-18 3.53636E-19
 -1      2140 1.80244E-04-2.52986E-05-6.53554E-05 1.09598E-05 4.86451E-18 1.80799E-18
 -1      2141 1.77505E-04-2.28061E-05-6.55765E-05-5.20556E-06 5.91991E-18-1.63541E-18
 -1      2142 1.83085E-04-2.34319E-05-6.71407E-05 8.38587E-07 6.01478E-18-9.75544E-20
 -1      2143 1.65171E-04-2.94081E-05-5.79119E-05-1.32800E-05 6.61363E-18-3.54017E-18
 -1      2144 1.75534E-04-2.73918E-05-6.25002E-05-8.03601E-06 6.20918E-18-1.80418E-18
 -1      2145 1.44879E-04-3.98192E-05-4.52226E-05-2.21619E-05 5.69391E-18-4.22754E-18
 -1      2146 1.61313E-04-3.70027E-05-5.24863E-05-1.96289E-05 6.14647E-18-3.52196E-18
 -1      2147 1.13850E-04-4.61873E-05-2.95668E-05-3.52401E-05 4.21568E-18-5.54298E-18
 -1      2148 1.33969E-04-4.53497E-05-3.76187E-05-3.36207E-05 4.77451E-18-4.39187E-18
 -1      2149 8.33533E-05-4.73885E-05-1.57914E-05-4.08518E-05 2.82994E-18-6.44592E-18
 -1      2150 1.00133E-04-4.51722E-05-2.32896E-05-4.28722E-05 3.76337E-18-7.07844E-18
 -1      2151 1.19331E-04-5.63868E-05-2.68959E-05-3.31927E-05 1.30210E-18-4.05094E-18
 -1      2152 4.04406E-05-4.23813E-05-8.61683E-07-3.21476E-05 3.90906E-18-6.33919E-18
 -1      2153 5.72376E-05-4.09223E-05-7.68556E-06-4.09874E-05 3.83113E-18-6.76319E-18
 -1      2154 1.98995E-05-3.96662E-05 6.75401E-06-1.93834E-05 1.29702E-18-7.06002E-18
 -1      2155 2.78340E-05-3.78278E-05 3.16759E-06-2.76305E-05 3.56686E-18-6.51432E-18
 -1      2156 4.08234E-05-3.66735E-05-2.25472E-06-3.70309E-05 1.64621E-18-6.62803E-18
 -1      2157 1.16562E-05-3.68815E-05 9.29941E-06-9.16552E-07-3.62212E-19-7.20444E-18
 -1      2158 1.30028E-05-3.75279E-05 8.91550E-06-9.56288E-06 9.28348E-19-7.18665E-18
 -1      2159 2.12115E-05-3.87537E-05 6.09482E-06 1.83602E-05-2.03203E-18-2.85387E-18
 -1      2160 1.52178E-05-3.84573E-05 8.35358E-06 1.03099E-05 2.22346E-20-5.69884E-18
 -1      2161 4.49486E-05-4.09246E-05-2.71729E-06 3.28547E-05-2.30224E-18-1.85913E-18
 -1      2162 3.29317E-05-4.31410E-05 2.62539E-06 2.50253E-05-2.26539E-18-1.88655E-18
 -1      2163 8.40915E-05-4.54026E-05-1.68886E-05 4.04301E-05-2.77149E-18-2.43522E-19
 -1      2164 6.53510E-05-4.70646E-05-9.21368E-06 3.46390E-05-2.10107E-18-9.73558E-19
 -1      2165 1.25300E-04-4.80632E-05-3.28659E-05 3.56172E-05-2.67789E-18-1.70211E-18
 -1      2166 1.03113E-04-4.87912E-05-2.42145E-05 3.41538E-05-3.21534E-18-7.39883E-19
 -1      2167 1.60117E-04-4.31626E-05-4.90761E-05 2.39389E-05-3.76972E-18 2.15146E-19
 -1      2168 1.40099E-04-4.51153E-05-4.09880E-05 2.47548E-05-2.93476E-18-1.62757E-18
 -1      2169 1.83357E-04-3.54959E-05-6.17987E-05 1.33867E-05-4.68854E-18-1.23667E-19
 -1      2170 1.67611E-04-3.59309E-05-5.58297E-05 1.83963E-05-4.82470E-18-3.66765E-19
 -1      2171 1.85113E-04-2.54938E-05-6.71499E-05-1.01387E-06-6.52046E-18 2.56778E-18
 -1      2172 1.86146E-04-2.95982E-05-6.53451E-05 6.98244E-06-5.33504E-18 8.23316E-19
 -1      2173 1.81687E-04-2.42700E-05-6.62045E-05-6.38872E-06-7.17056E-18 4.58795E-18
 -1      2174 1.83884E-04-2.35044E-05-6.74671E-05-1.88470E-06-7.44288E-18 3.50183E-18
 -1      2175 1.70963E-04-3.35556E-05-5.81319E-05-1.57364E-05-5.49597E-18 6.71994E-18
 -1      2176 1.79284E-04-3.06816E-05-6.27326E-05-9.20697E-06-6.34978E-18 4.90136E-18
 -1      2177 1.47074E-04-4.18812E-05-4.51110E-05-2.79717E-05-2.38016E-18 9.28136E-18
 -1      2178 1.65616E-04-4.07065E-05-5.26407E-05-2.42563E-05-3.09731E-18 9.50413E-18
 -1      2179 1.15360E-04-4.87792E-05-2.92027E-05-3.53512E-05-1.41878E-18 6.97574E-18
 -1      2180 1.36137E-04-4.62962E-05-3.79229E-05-3.69713E-05-2.20229E-18 8.06121E-18
 -1      2181 7.40395E-05-4.80239E-05-1.25068E-05-3.81477E-05-1.71312E-18 5.15928E-18
 -1      2182 9.44660E-05-4.62019E-05-2.08471E-05-4.37424E-05-1.84145E-18 7.13181E-18
 -1      2183 4.06268E-05-4.51595E-05 2.86567E-07-3.09058E-05 1.14773E-19 5.68401E-18
 -1      2184 5.47462E-05-4.26586E-05-5.92748E-06-3.87046E-05-1.61868E-18 4.79132E-18
 -1      2185 1.89406E-05-4.02301E-05 7.52426E-06-1.56471E-05 9.91664E-19 3.66426E-18
 -1      2186 2.63881E-05-3.90244E-05 4.25752E-06-2.48462E-05-5.68359E-19 4.66143E-18
 -1      2187 1.60930E-04-3.70741E-05-5.17507E-05 2.69856E-05 4.68055E-18 1.19516E-18
 -1      2188 1.44433E-04-4.05374E-05-4.41998E-05 2.75207E-05 4.30250E-18 1.02067E-18
 -1      2189 1.57566E-04-3.55315E-05-5.15609E-05 7.39998E-06 3.79958E-18 4.13352E-19
 -1      2190 1.11688E-04-5.62624E-05-2.35217E-05 3.91508E-05 2.63893E-18 4.99538E-19
 -1      2191 9.71859E-05-2.43136E-05-3.13050E-05-1.00035E-05-3.00453E-18 3.34769E-18
 -1      2192 9.63455E-05-2.30976E-05-3.14550E-05-1.03858E-05-3.22696E-18 1.47038E-18
 -1      2193 4.29076E-05-3.80217E-05-2.50679E-06 3.75755E-05 1.53017E-18 4.10515E-18
 -1      2194 1.85554E-05-2.91595E-05 3.83975E-06 1.45456E-05 1.02427E-18 5.36892E-18
 -1      2195 9.52391E-05-2.42377E-05-3.04046E-05-7.82674E-06 1.44790E-20 1.04685E-18
 -1      2196 1.85008E-05-2.91922E-05 3.83035E-06-1.37812E-05 1.18161E-18 6.15031E-18
 -1      2197 1.40971E-04-4.85537E-05-3.92399E-05 2.54164E-05 4.04374E-18 5.36172E-19
 -1      2198 1.38225E-04-5.65389E-05-3.44595E-05 2.25158E-05 3.66797E-18 1.22608E-19
 -1      2199 1.47489E-04-5.06691E-05-4.21960E-05 1.17973E-05 3.56462E-18 8.95737E-20
 -1      2200 4.07396E-05-3.85550E-05-1.54458E-06-3.48000E-05 1.11004E-18 4.84630E-18
 -1      2201 7.68204E-05-5.07143E-05-1.15352E-05-4.33534E-05 1.12528E-18 4.66597E-18
 -1      2202 1.18172E-04-5.80877E-05-2.56423E-05-3.61549E-05 7.02614E-19 5.16436E-18
 -1      2203 1.48188E-04-5.35688E-05-4.00254E-05-1.86984E-05 6.09440E-19 6.21680E-18
 -1      2204 1.61876E-04-3.86084E-05-5.19362E-05-4.74393E-06-2.72438E-18 3.57194E-18
 -1      2205 1.65315E-04-2.20225E-05-6.04207E-05 6.60189E-07-6.64794E-18 2.78886E-18
 -1      2206 1.72439E-04-2.04478E-05-6.43230E-05-2.64807E-06-7.52928E-18 2.06798E-18
 -1      2207 1.55188E-04-1.50814E-05-6.01101E-05-5.26959E-06-7.70038E-18 7.61165E-19
 -1      2208 1.53380E-04-1.25735E-05-6.04199E-05-2.02157E-06-8.12813E-18 5.20773E-19
 -1      2209 1.68689E-04-2.65906E-05-5.95928E-05-2.22717E-06-5.79074E-18-5.08220E-21
 -1      2210 1.60774E-04-4.26015E-05-4.98420E-05 3.99078E-06-3.90122E-18-9.12678E-19
 -1      2211 1.41413E-04-5.64169E-05-3.60966E-05 1.92050E-05-1.91154E-18 2.62157E-19
 -1      2212 1.07919E-04-5.72777E-05-2.16657E-05 3.54191E-05-2.63004E-19 9.87005E-19
 -1      2213 6.68218E-05-4.72388E-05-8.79176E-06 3.97577E-05 3.97258E-19 1.73006E-19
 -1      2214 3.22555E-05-3.57778E-05 7.28739E-07 2.82856E-05 7.19978E-19-2.22939E-18
 -1      2215 1.88487E-05-2.96165E-05 3.80513E-06-1.89458E-05 7.08543E-19-8.13787E-18
 -1      2216 7.75330E-05-4.71610E-05-1.32005E-05-4.28330E-05 1.99984E-18-5.32524E-18
 -1      2217 9.63061E-05-5.37187E-05-1.86234E-05-4.15400E-05-7.54283E-19-3.89294E-18
 -1      2218 7.26346E-05-4.50803E-05-1.12959E-05-4.44179E-05 4.90220E-19-4.19991E-18
 -1      2219 1.43965E-04-5.01722E-05-3.98105E-05-1.65871E-05 2.84264E-18-1.73388E-18
 -1      2220 1.55504E-04-3.30000E-05-5.18437E-05-1.32743E-06 5.74468E-18-1.93335E-18
 -1      2221 1.59621E-04-1.78406E-05-5.98726E-05 2.37494E-06 6.55095E-18-4.18646E-19
 -1      2222 1.63241E-04-2.14430E-05-5.96592E-05 1.54390E-06 4.86896E-18 1.01856E-18
 -1      2223 1.63233E-04-1.35796E-05-6.29358E-05 1.45392E-06 6.11642E-18 9.58682E-19
 -1      2224 1.49881E-05-2.86346E-05 5.01545E-06 6.54336E-06 6.03299E-19-6.70130E-18
 -1      2225 9.52114E-05-2.63761E-05-2.94876E-05 4.19954E-06 2.54426E-18 1.68666E-18
 -1      2226 9.61867E-05-2.58617E-05-3.00658E-05 6.00452E-06 2.81056E-18 2.14080E-18
 -1      2227 8.81385E-05-1.11861E-05-3.30189E-05-3.66303E-06-1.01305E-18-3.37496E-18
 -1      2228 8.83724E-05-1.14569E-05-3.30010E-05-4.80525E-06-1.43823E-18-3.33912E-18
 -1      2229 8.87249E-05-1.19419E-05-3.29523E-05-5.82241E-06-1.70805E-18-3.29201E-18
 -1      2230 8.91295E-05-1.24125E-05-3.29239E-05-6.99825E-06-2.08726E-18-3.11222E-18
 -1      2231 8.98923E-05-1.38254E-05-3.25990E-05-4.90432E-06-1.47593E-18-3.00972E-18
 -1      2232 8.77937E-05-1.07277E-05-3.30623E-05 6.16046E-07 3.22825E-19-3.43471E-18
 -1      2233 8.77894E-05-1.07229E-05-3.30626E-05-4.95690E-07-8.74813E-21-3.48386E-18
 -1      2234 8.79741E-05-1.09523E-05-3.30438E-05 2.75959E-06 9.96977E-19-3.39565E-18
 -1      2235 8.78597E-05-1.08194E-05-3.30531E-05 1.63954E-06 6.07895E-19-3.39429E-18
 -1      2236 8.91118E-05-1.27744E-05-3.27192E-05 1.05064E-06 4.64912E-19-3.16275E-18
 -1      2237 8.84073E-05-1.14987E-05-3.29984E-05 4.89016E-06 1.60851E-18-3.08504E-18
 -1      2238 8.81684E-05-1.12223E-05-3.30166E-05 3.76643E-06 1.23946E-18-3.25918E-18
 -1      2239 8.93768E-05-1.31298E-05-3.26791E-05 3.02331E-06 1.09609E-18-3.02993E-18
 -1      2240 8.91852E-05-1.24804E-05-3.29193E-05 7.07831E-06 2.36315E-18-2.49332E-18
 -1      2241 8.87679E-05-1.19943E-05-3.29485E-05 5.90631E-06 1.89596E-18-2.82517E-18
 -1      2242 8.99326E-05-1.38769E-05-3.25944E-05 4.97867E-06 1.74220E-18-2.62841E-18
 -1      2243 9.04534E-05-1.40885E-05-3.27921E-05 9.22759E-06 3.01430E-18-1.85780E-18
 -1      2244 8.97737E-05-1.32780E-05-3.28376E-05 8.04846E-06 2.57888E-18-2.23369E-18
 -1      2245 9.08664E-05-1.51356E-05-3.24492E-05 6.87520E-06 2.41567E-18-2.01055E-18
 -1      2246 9.24491E-05-1.66590E-05-3.25819E-05 1.11118E-05 3.53687E-18-8.58858E-19
 -1      2247 9.13714E-05-1.53196E-05-3.26541E-05 1.00318E-05 3.16437E-18-1.44390E-18
 -1      2248 9.22882E-05-1.70883E-05-3.22078E-05 8.52135E-06 2.96104E-18-1.39822E-18
 -1      2249 9.42298E-05-2.71158E-05-2.87464E-05 1.77011E-06 1.92965E-18 1.15258E-18
 -1      2250 9.48311E-05-2.68925E-05-2.90452E-05 2.74273E-06 2.22441E-18 1.60497E-18
 -1      2251 9.53356E-05-2.58470E-05-2.97887E-05 4.36673E-06 2.66804E-18 6.44235E-19
 -1      2252 9.59082E-05-2.50922E-05-3.03026E-05-6.18937E-06-2.76860E-18 6.05683E-19
 -1      2253 9.52500E-05-2.58505E-05-2.97591E-05-4.28799E-06-2.55872E-18 4.19749E-19
 -1      2254 9.50701E-05-2.00236E-05-3.22112E-05-1.17382E-05-3.27229E-18 1.27677E-19
 -1      2255 9.54714E-05-2.33857E-05-3.09246E-05-7.98527E-06-3.09989E-18 3.49236E-19
 -1      2256 9.50642E-05-2.25322E-05-3.10513E-05-7.66735E-06-2.90108E-18-3.99965E-19
 -1      2257 9.32164E-05-1.75772E-05-3.24141E-05-1.13682E-05-3.29071E-18-8.50262E-19
 -1      2258 1.23970E-04-5.98992E-05-2.76734E-05 3.28422E-05 2.02187E-18-8.38351E-19
 -1      2259 1.07392E-04-5.81146E-05-2.10461E-05 3.88222E-05 9.38513E-19 2.17052E-21
 -1      2260 9.51315E-05-2.65360E-05-2.93421E-05-2.94080E-06-2.26346E-18 4.99248E-19
 -1      2261 9.46666E-05-2.69083E-05-2.90384E-05-1.88490E-06-1.89279E-18 2.42600E-19
 -1      2262 9.53327E-05-2.53440E-05-2.99945E-05-4.30088E-06-2.44470E-18-1.71635E-19
 -1      2263 9.44651E-05-2.72373E-05-2.87746E-05-1.03029E-06-1.47993E-18 2.92346E-19
 -1      2264 9.42108E-05-2.74516E-05-2.86081E-05-4.33244E-07-1.24308E-18 9.43770E-20
 -1      2265 9.50303E-05-2.66870E-05-2.92979E-05-1.93559E-06-1.74172E-18-1.14598E-19
 -1      2266 9.40577E-05-2.76307E-05-2.84468E-05 7.70634E-08-1.20928E-18 1.42652E-19
 -1      2267 9.39617E-05-2.77745E-05-2.83630E-05 4.04098E-07-1.07744E-18 2.83982E-20
 -1      2268 9.47237E-05-2.74182E-05-2.88549E-05-4.57053E-07-1.34239E-18-2.27437E-19
 -1      2269 9.38739E-05-2.78829E-05-2.82696E-05 6.87909E-07-9.93755E-19-3.73485E-20
 -1      2270 9.38810E-05-2.79898E-05-2.82365E-05 8.50852E-07-9.42199E-19-2.34254E-19
 -1      2271 9.45214E-05-2.78489E-05-2.85826E-05 4.14726E-07-1.15014E-18-2.71465E-19
 -1      2272 9.38472E-05-2.80609E-05-2.81878E-05 9.88518E-07-9.36909E-19-2.31890E-19
 -1      2273 9.39154E-05-2.81444E-05-2.81855E-05 1.05092E-06-6.71726E-19-3.88932E-19
 -1      2274 9.44278E-05-2.81194E-05-2.84247E-05 8.87346E-07-9.97801E-19-4.29947E-19
 -1      2275 9.39194E-05-2.81931E-05-2.81658E-05 1.09641E-06-6.03136E-19-5.67773E-19
 -1      2276 9.40193E-05-2.82591E-05-2.81812E-05 1.09840E-06-7.03237E-19-7.20794E-19
 -1      2277 9.44177E-05-2.82964E-05-2.83427E-05 1.10278E-06-8.19459E-19-9.40836E-19
 -1      2278 9.40469E-05-2.82929E-05-2.81799E-05 1.08828E-06-8.06951E-19-5.48900E-19
 -1      2279 9.41595E-05-2.83448E-05-2.82049E-05 1.05616E-06-8.11821E-19-5.96677E-19
 -1      2280 9.44627E-05-2.84135E-05-2.83103E-05 1.15743E-06-7.33128E-19-8.50834E-19
 -1      2281 9.42002E-05-2.83678E-05-2.82148E-05 1.01541E-06-7.36448E-19-3.69545E-19
 -1      2282 9.43137E-05-2.84079E-05-2.82441E-05 9.66846E-07-7.15874E-19-6.02905E-19
 -1      2283 9.45399E-05-2.84898E-05-2.83097E-05 1.11719E-06-6.91866E-19-6.23550E-19
 -1      2284 9.43605E-05-2.84228E-05-2.82606E-05 9.12671E-07-5.05186E-19-6.18822E-19
 -1      2285 9.44686E-05-2.84530E-05-2.82913E-05 8.59726E-07-4.09299E-19-5.02160E-19
 -1      2286 9.46330E-05-2.85368E-05-2.83287E-05 1.02745E-06-6.29250E-19-6.37792E-19
 -1      2287 9.45174E-05-2.84616E-05-2.83115E-05 8.04077E-07-5.40747E-19-3.95064E-19
 -1      2288 9.46177E-05-2.84837E-05-2.83420E-05 7.55159E-07-3.53640E-19-6.20968E-19
 -1      2289 9.47319E-05-2.85622E-05-2.83598E-05 9.19729E-07-4.81081E-19-1.71048E-19
 -1      2290 9.46664E-05-2.84874E-05-2.83643E-05 7.06510E-07 7.42728E-20-9.05331E-19
 -1      2291 9.47591E-05-2.85029E-05-2.83942E-05 6.67702E-07 6.57052E-20-7.12749E-19
 -1      2292 9.48309E-05-2.85714E-05-2.83981E-05 8.16223E-07-2.83658E-19-4.48743E-19
 -1      2293 9.48075E-05-2.85027E-05-2.84181E-05 6.32334E-07-3.99846E-19-6.67348E-19
 -1      2294 9.48951E-05-2.85131E-05-2.84477E-05 6.08369E-07-8.81891E-19-7.19741E-19
 -1      2295 9.49282E-05-2.85679E-05-2.84412E-05 7.33036E-07-2.64056E-19-1.23556E-18
 -1      2296 9.49440E-05-2.85096E-05-2.84734E-05 5.91344E-07-1.02965E-18-4.57850E-19
 -1      2297 9.50304E-05-2.85164E-05-2.85038E-05 5.86351E-07-9.41039E-19-6.80442E-19
 -1      2298 9.50248E-05-2.85544E-05-2.84886E-05 6.82589E-07-9.70152E-19-8.04937E-19
 -1      2299 9.50818E-05-2.85101E-05-2.85320E-05 5.92261E-07-9.86618E-19-6.43974E-19
 -1      2300 9.51724E-05-2.85145E-05-2.85648E-05 6.10347E-07-6.64096E-19-5.87138E-19
 -1      2301 9.51237E-05-2.85322E-05-2.85408E-05 6.75453E-07-1.02114E-18-4.15325E-19
 -1      2302 9.52291E-05-2.85058E-05-2.85967E-05 6.43907E-07-3.29368E-19-6.66377E-19
 -1      2303 9.53305E-05-2.85091E-05-2.86340E-05 6.89627E-07-6.47662E-21-9.07550E-19
 -1      2304 9.52297E-05-2.85021E-05-2.85995E-05 7.21772E-07-7.11359E-19-3.94259E-19
 -1      2305 9.53957E-05-2.84980E-05-2.86713E-05 7.56131E-07 1.52086E-19-6.92940E-19
 -1      2306 9.55162E-05-2.85018E-05-2.87155E-05 8.34862E-07 6.13865E-20-8.08742E-19
 -1      2307 9.53488E-05-2.84642E-05-2.86674E-05 8.32369E-07-2.53760E-20-6.29590E-19
 -1      2308 9.55937E-05-2.84882E-05-2.87601E-05 9.40542E-07 2.79787E-19-5.63810E-19
 -1      2309 9.57427E-05-2.84940E-05-2.88144E-05 1.05877E-06 2.43424E-19-3.37419E-19
 -1      2310 9.54884E-05-2.84181E-05-2.87476E-05 1.01960E-06 1.85337E-19-1.77476E-19
 -1      2311 9.58369E-05-2.84778E-05-2.88687E-05 1.21103E-06 4.38158E-21-1.88162E-19
 -1      2312 9.60255E-05-2.84877E-05-2.89365E-05 1.37650E-06 3.54016E-19-5.65796E-19
 -1      2313 9.56567E-05-2.83629E-05-2.88441E-05 1.29796E-06 2.69224E-19 9.94864E-20
 -1      2314 9.61409E-05-2.84688E-05-2.90028E-05 1.58399E-06 1.04267E-19-4.81265E-19
 -1      2315 9.63817E-05-2.84852E-05-2.90880E-05 1.80569E-06-1.30718E-19-5.06357E-19
 -1      2316 9.58628E-05-2.82979E-05-2.89611E-05 1.68435E-06 1.52917E-19-3.10355E-19
 -1      2317 9.65231E-05-2.84639E-05-2.91688E-05 2.07814E-06-2.47786E-19-3.89086E-19
 -1      2318 9.68307E-05-2.84904E-05-2.92757E-05 2.36591E-06-2.28801E-19-1.13563E-19
 -1      2319 9.61161E-05-2.82225E-05-2.91027E-05 2.19793E-06-2.71966E-19 6.84368E-20
 -1      2320 9.70029E-05-2.84676E-05-2.93731E-05 2.71351E-06-4.18981E-19-2.56245E-19
 -1      2321 9.73933E-05-2.85096E-05-2.95058E-05 3.07695E-06-2.08065E-20-3.40530E-19
 -1      2322 9.64265E-05-2.81378E-05-2.92728E-05 2.85928E-06-2.50182E-19 1.91532E-19
 -1      2323 9.76018E-05-2.84885E-05-2.96211E-05 3.50904E-06 3.16587E-19-4.12423E-19
 -1      2324 9.80926E-05-2.85548E-05-2.97833E-05 3.95523E-06 7.62584E-19-2.03583E-19
 -1      2325 9.68049E-05-2.80490E-05-2.94736E-05 3.68821E-06 1.76881E-19 1.38259E-19
 -1      2326 9.83446E-05-2.85434E-05-2.99163E-05 4.47762E-06 7.02133E-19-2.76161E-19
 -1      2327 9.89548E-05-2.86490E-05-3.01101E-05 5.00670E-06 5.46220E-19 8.68933E-20
 -1      2328 9.72643E-05-2.79699E-05-2.97049E-05 4.69965E-06 4.95431E-19-6.62263E-20
 -1      2329 9.92629E-05-2.86649E-05-3.02578E-05 5.61691E-06 8.68095E-19-5.32756E-19
 -1      2330 1.00013E-04-2.88361E-05-3.04824E-05 6.21411E-06 1.13573E-18 2.69723E-20
 -1      2331 9.78245E-05-2.79317E-05-2.99619E-05 5.89604E-06 2.26235E-19-5.07428E-19
 -1      2332 1.00402E-04-2.89149E-05-3.06381E-05 6.89307E-06 1.06445E-18-3.01287E-19
 -1      2333 1.01316E-04-2.91972E-05-3.08877E-05 7.51540E-06 1.11289E-18-4.22495E-19
 -1      2334 9.85221E-05-2.79994E-05-3.02329E-05 7.25452E-06 7.04201E-19-1.24598E-18
 -1      2335 1.01838E-04-2.94059E-05-3.10401E-05 8.21380E-06 5.05440E-19-1.23763E-19
 -1      2336 1.02946E-04-2.98746E-05-3.13017E-05 8.76970E-06-1.10222E-20-1.96563E-19
 -1      2337 9.94301E-05-2.82960E-05-3.04980E-05 8.70589E-06 9.64514E-19-1.20461E-18
 -1      2338 1.03699E-04-3.03282E-05-3.14356E-05 9.38641E-06 4.74810E-19-3.33263E-20
 -1      2339 1.05039E-04-3.10970E-05-3.16886E-05 9.70881E-06 7.34551E-19 3.78961E-19
 -1      2340 1.00693E-04-2.90374E-05-3.07290E-05 1.01020E-05 2.95384E-19-4.50706E-20
 -1      2341 1.06200E-04-3.19692E-05-3.17907E-05 1.00582E-05-4.24840E-21 7.58951E-19
 -1      2342 1.07817E-04-3.31772E-05-3.20109E-05 9.87796E-06-7.01593E-19 1.17808E-18
 -1      2343 1.02577E-04-3.05633E-05-3.08973E-05 1.11665E-05 5.56807E-19 5.49947E-20
 -1      2344 1.09645E-04-3.46733E-05-3.20849E-05 9.64587E-06-1.45488E-18 1.19050E-18
 -1      2345 1.11546E-04-3.64075E-05-3.22589E-05 8.59268E-06-1.48255E-18 1.28655E-18
 -1      2346 1.05508E-04-3.33197E-05-3.09970E-05 1.14226E-05-9.14118E-19 5.83497E-19
 -1      2347 1.14313E-04-3.86295E-05-3.23607E-05 7.29603E-06-1.11312E-18 1.18775E-18
 -1      2348 1.16354E-04-4.07019E-05-3.25186E-05 4.98758E-06-3.84381E-19 8.93213E-19
 -1      2349 1.10036E-04-3.76741E-05-3.10980E-05 1.01050E-05-1.28383E-18 2.31637E-19
 -1      2350 1.20028E-04-4.32824E-05-3.28113E-05 2.05727E-06 1.84034E-19 9.27438E-19
 -1      2351 1.21718E-04-4.48519E-05-3.30627E-05-1.59335E-06 7.90487E-19 9.91416E-19
 -1      2352 1.16484E-04-4.33137E-05-3.14505E-05 6.12161E-06-4.63138E-20 6.48574E-19
 -1      2353 1.25443E-04-4.65013E-05-3.38306E-05-6.30560E-06 8.87700E-19 1.74582E-18
 -1      2354 1.25808E-04-4.58419E-05-3.43710E-05-1.05044E-05 7.15015E-21 1.91374E-18
 -1      2355 1.24083E-04-4.82352E-05-3.25611E-05-1.42806E-06 9.87569E-19 9.25354E-19
 -1      2356 1.27507E-04-4.41780E-05-3.59210E-05-1.55610E-05-3.79285E-19 2.53726E-18
 -1      2357 1.25601E-04-3.97864E-05-3.68432E-05-1.78866E-05-1.18521E-18 2.61439E-18
 -1      2358 1.30099E-04-4.83029E-05-3.50954E-05-1.16432E-05 3.49083E-19 1.89947E-18
 -1      2359 1.23998E-04-3.40722E-05-3.89545E-05-1.91977E-05-1.82904E-18 1.83548E-18
 -1      2360 1.20702E-04-2.76583E-05-3.99557E-05-1.68115E-05-1.94421E-18 1.63729E-18
 -1      2361 1.30440E-04-3.87233E-05-3.94394E-05-1.91917E-05-1.66288E-18 1.96300E-18
 -1      2362 1.17977E-04-2.22092E-05-4.15007E-05-1.09324E-05-3.34075E-18 2.40362E-19
 -1      2363 1.16522E-04-1.95128E-05-4.18503E-05-4.28450E-06-4.15692E-18-1.55592E-18
 -1      2364 1.25541E-04-2.36279E-05-4.39745E-05-1.55868E-05-3.62657E-18 1.99227E-18
 -1      2365 1.16654E-04-2.04207E-05-4.15520E-05 4.96632E-06-3.64012E-18-3.22262E-18
 -1      2366 1.18768E-04-2.44920E-05-4.08499E-05 1.08805E-05-3.57543E-18-3.69365E-18
 -1      2367 1.22659E-04-1.71889E-05-4.55065E-05-6.62882E-08-5.05075E-18-5.41856E-19
 -1      2368 1.21231E-04-3.05758E-05-3.89483E-05 1.48862E-05-2.79791E-18-4.48965E-18
 -1      2369 1.24065E-04-3.67906E-05-3.77865E-05 1.59600E-05-1.27685E-18-3.98344E-18
 -1      2370 1.26551E-04-2.74120E-05-4.26922E-05 1.36899E-05-3.66098E-18-3.43048E-18
 -1      2371 1.24693E-04-4.16551E-05-3.56506E-05 1.32899E-05 2.27349E-19-4.34889E-18
 -1      2372 1.25646E-04-4.49937E-05-3.46976E-05 1.01840E-05 1.91401E-18-3.38743E-18
 -1      2373 1.29994E-04-4.17932E-05-3.79663E-05 1.46378E-05-3.59724E-19-4.32823E-18
 -1      2374 1.22999E-04-4.55807E-05-3.32898E-05 4.88892E-06 2.23936E-18-2.14118E-18
 -1      2375 1.21831E-04-4.54068E-05-3.27275E-05 6.62397E-07 3.54519E-18-2.29566E-18
 -1      2376 1.27710E-04-4.87564E-05-3.38901E-05 5.36064E-06 2.69799E-18-2.91132E-18
 -1      2377 1.17826E-04-4.33187E-05-3.20426E-05-3.74463E-06 3.81246E-18-2.59012E-18
 -1      2378 1.15559E-04-4.13600E-05-3.17222E-05-7.11089E-06 3.59144E-18-2.63182E-18
 -1      2379 1.20621E-04-4.70484E-05-3.16065E-05-4.62205E-06 2.87623E-18-2.98008E-18
 -1      2380 1.11903E-04-3.86822E-05-3.14593E-05-9.64683E-06 2.44419E-18-2.54586E-18
 -1      2381 1.09428E-04-3.64213E-05-3.12207E-05-1.15775E-05 2.48506E-18-3.02572E-18
 -1      2382 1.12752E-04-4.14009E-05-3.06680E-05-1.12956E-05 3.06056E-18-3.20734E-18
 -1      2383 1.06698E-04-3.41579E-05-3.11312E-05-1.25018E-05 2.01074E-18-2.41534E-18
 -1      2384 1.04428E-04-3.22059E-05-3.09016E-05-1.31121E-05 4.37853E-19-1.80953E-18
 -1      2385 1.06329E-04-3.55419E-05-3.04054E-05-1.44066E-05 1.92773E-18-2.30493E-18
 -1      2386 1.02496E-04-3.04995E-05-3.08719E-05-1.28893E-05 4.05251E-19-7.56321E-19
 -1      2387 1.00568E-04-2.89513E-05-3.06579E-05-1.24370E-05 1.10840E-18-2.00790E-19
 -1      2388 1.01701E-04-3.08635E-05-3.04007E-05-1.48542E-05 1.04711E-18-1.03315E-18
 -1      2389 9.33324E-05-2.76895E-05-2.81254E-05-4.04496E-07 8.32976E-19 5.92066E-19
 -1      2390 9.34113E-05-2.75847E-05-2.81870E-05-1.19070E-07 1.04610E-18 8.06308E-19
 -1      2391 9.32799E-05-2.78535E-05-2.80352E-05-8.10838E-07 4.91858E-19 5.48920E-19
 -1      2392 9.32356E-05-2.77628E-05-2.80468E-05-6.71611E-07 6.05843E-19 5.90753E-19
 -1      2393 9.40054E-05-2.78068E-05-2.83821E-05-4.37072E-07 8.53496E-19 5.01230E-20
 -1      2394 9.33726E-05-2.79885E-05-2.80187E-05-9.87257E-07 9.94249E-19 2.26129E-19
 -1      2395 9.32605E-05-2.79081E-05-2.80017E-05-9.36053E-07 7.48789E-19 4.79762E-19
 -1      2396 9.39178E-05-2.80157E-05-2.82519E-05-8.84905E-07 7.26501E-19 9.26724E-20
 -1      2397 9.35465E-05-2.81025E-05-2.80454E-05-1.02387E-06 8.01035E-19 1.35739E-19
 -1      2398 9.34024E-05-2.80322E-05-2.80133E-05-1.02504E-06 8.10135E-19 2.61039E-19
 -1      2399 9.39460E-05-2.81639E-05-2.81977E-05-1.08259E-06 9.34448E-19-4.25191E-19
 -1      2400 9.37579E-05-2.81984E-05-2.80957E-05-9.79121E-07 6.11782E-19 1.04389E-19
 -1      2401 9.36045E-05-2.81382E-05-2.80567E-05-1.00970E-06 8.76873E-19 3.28559E-19
 -1      2402 9.40444E-05-2.82733E-05-2.81910E-05-1.12651E-06 7.79864E-19-3.68214E-19
 -1      2403 9.39792E-05-2.82776E-05-2.81570E-05-8.91933E-07 6.71648E-19-2.25919E-20
 -1      2404 9.38295E-05-2.82273E-05-2.81163E-05-9.36686E-07 4.55233E-19 5.41295E-20
 -1      2405 9.41798E-05-2.83548E-05-2.82127E-05-1.08068E-06 6.69806E-19-1.56359E-19
 -1      2406 9.41941E-05-2.83418E-05-2.82218E-05-7.88650E-07 1.02112E-18-4.42528E-19
 -1      2407 9.40551E-05-2.83006E-05-2.81822E-05-8.37276E-07 1.04370E-18-1.83917E-19
 -1      2408 9.43300E-05-2.84146E-05-2.82505E-05-9.88297E-07 8.89228E-19-5.04187E-19
 -1      2409 9.43950E-05-2.83927E-05-2.82861E-05-6.87341E-07 1.05592E-18-5.16298E-19
 -1      2410 9.42691E-05-2.83597E-05-2.82489E-05-7.32757E-07 1.04552E-18-3.47500E-19
 -1      2411 9.44815E-05-2.84572E-05-2.82967E-05-8.78951E-07 9.83972E-19-6.61201E-19
 -1      2412 9.45805E-05-2.84326E-05-2.83484E-05-6.00658E-07 4.12663E-19-2.06978E-19
 -1      2413 9.44670E-05-2.84063E-05-2.83136E-05-6.37857E-07 7.63251E-19-2.81274E-19
 -1      2414 9.46276E-05-2.84861E-05-2.83466E-05-7.73133E-07 7.42357E-19 6.82232E-20
 -1      2415 9.47533E-05-2.84639E-05-2.84088E-05-5.37838E-07 4.85899E-19-2.49406E-19
 -1      2416 9.46493E-05-2.84427E-05-2.83760E-05-5.63083E-07 4.95614E-19-7.42611E-20
 -1      2417 9.47663E-05-2.85041E-05-2.83983E-05-6.85383E-07 3.74521E-19-4.49144E-20
 -1      2418 9.49199E-05-2.84891E-05-2.84689E-05-5.06134E-07 9.86418E-19 6.36129E-20
 -1      2419 9.48206E-05-2.84714E-05-2.84367E-05-5.16385E-07 6.31068E-19-3.11768E-20
 -1      2420 9.48994E-05-2.85136E-05-2.84514E-05-6.26483E-07 5.40400E-19-1.28505E-19
 -1      2421 9.50891E-05-2.85113E-05-2.85313E-05-5.11820E-07 8.68515E-19 5.46444E-20
 -1      2422 9.49883E-05-2.84952E-05-2.84981E-05-5.04333E-07 1.18029E-18 1.32277E-19
 -1      2423 9.50314E-05-2.85169E-05-2.85068E-05-6.05045E-07 8.36027E-19 3.03969E-19
 -1      2424 9.52720E-05-2.85337E-05-2.85994E-05-5.60833E-07 3.79969E-19-1.67861E-20
 -1      2425 9.51626E-05-2.85169E-05-2.85630E-05-5.32925E-07 7.39993E-19 2.57853E-19
 -1      2426 9.51691E-05-2.85164E-05-2.85663E-05-6.28597E-07 8.13970E-19 9.09221E-19
 -1      2427 9.54820E-05-2.85602E-05-2.86771E-05-6.59053E-07-9.86388E-20 7.98993E-20
 -1      2428 9.53555E-05-2.85402E-05-2.86352E-05-6.08024E-07 2.36207E-19 2.11682E-19
 -1      2429 9.53210E-05-2.85146E-05-2.86326E-05-7.04238E-07 2.15592E-19 1.05859E-18
 -1      2430 9.57342E-05-2.85954E-05-2.87691E-05-8.12167E-07-5.74084E-19-3.15113E-19
 -1      2431 9.55810E-05-2.85692E-05-2.87190E-05-7.35428E-07-3.58488E-19 1.65272E-19
 -1      2432 9.54977E-05-2.85145E-05-2.87088E-05-8.38864E-07-3.13429E-19 1.04477E-18
 -1      2433 9.60454E-05-2.86453E-05-2.88801E-05-1.02502E-06-6.16167E-19-7.30694E-19
 -1      2434 9.58552E-05-2.86092E-05-2.88189E-05-9.20476E-07-4.59578E-19-5.89419E-19
 -1      2435 9.57112E-05-2.85203E-05-2.87983E-05-1.03888E-06-3.70156E-19 7.66492E-19
 -1      2436 9.64338E-05-2.87173E-05-2.90146E-05-1.30031E-06 4.21232E-19-5.09924E-19
 -1      2437 9.61957E-05-2.86668E-05-2.89397E-05-1.16707E-06-3.21061E-19-1.04954E-18
 -1      2438 9.59754E-05-2.85378E-05-2.89046E-05-1.30929E-06-4.21702E-19-3.35225E-19
 -1      2439 9.69180E-05-2.88212E-05-2.91768E-05-1.63631E-06 5.45363E-19 4.23579E-19
 -1      2440 9.66212E-05-2.87506E-05-2.90857E-05-1.47592E-06 8.17120E-19 1.06421E-19
 -1      2441 9.63057E-05-2.85754E-05-2.90306E-05-1.65198E-06 1.36452E-19-5.21903E-19
 -1      2442 9.75163E-05-2.89697E-05-2.93692E-05-2.02353E-06-3.02955E-19 1.19829E-19
 -1      2443 9.71511E-05-2.88721E-05-2.92603E-05-1.84170E-06 2.93772E-19 6.34877E-19
 -1      2444 9.67191E-05-2.86450E-05-2.91785E-05-2.06291E-06 3.66168E-19 1.14851E-18
 -1      2445 9.82443E-05-2.91789E-05-2.95921E-05-2.43981E-06-5.74103E-19-2.86461E-20
 -1      2446 9.78041E-05-2.90461E-05-2.94651E-05-2.24900E-06-5.69989E-19 3.15117E-19
 -1      2447 9.72340E-05-2.87640E-05-2.93488E-05-2.52801E-06-1.59958E-19 3.86687E-19
 -1      2448 9.91126E-05-2.94690E-05-2.98417E-05-2.84396E-06 3.71304E-19-2.99736E-19
 -1      2449 9.85959E-05-2.92915E-05-2.96989E-05-2.66658E-06-1.90003E-19-2.90144E-19
 -1      2450 9.78701E-05-2.89563E-05-2.95395E-05-3.01741E-06 1.40455E-20-5.31177E-19
 -1      2451 1.00122E-04-2.98637E-05-3.01092E-05-3.16823E-06 4.25344E-19 9.87922E-20
 -1      2452 9.95370E-05-2.96316E-05-2.99560E-05-3.04030E-06 5.37531E-19-2.38311E-19
 -1      2453 9.86473E-05-2.92540E-05-2.97455E-05-3.47818E-06 3.81041E-19-2.91847E-19
 -1      2454 1.01260E-04-3.03869E-05-3.03789E-05-3.31115E-06 6.30241E-19 4.35990E-20
 -1      2455 1.00627E-04-3.00928E-05-3.02252E-05-3.28534E-06 7.65240E-19 1.10986E-19
 -1      2456 9.95846E-05-2.96971E-05-2.99577E-05-3.82596E-06 4.66072E-19-4.32691E-19
 -1      2457 1.02488E-04-3.10547E-05-3.06282E-05-3.13456E-06-3.31578E-19 3.67341E-19
 -1      2458 1.01848E-04-3.06986E-05-3.04887E-05-3.28027E-06-2.11258E-20 3.12616E-19
 -1      2459 1.00696E-04-3.03287E-05-3.01636E-05-3.93759E-06-8.74413E-20-1.96632E-19
 -1      2460 1.03733E-04-3.18572E-05-3.08294E-05-2.47219E-06-4.88354E-19 1.00697E-18
 -1      2461 1.03153E-04-3.14572E-05-3.07227E-05-2.86834E-06-1.41839E-19 8.45465E-19
 -1      2462 1.01981E-04-3.11818E-05-3.03485E-05-3.64910E-06-4.26668E-19 7.39905E-19
 -1      2463 1.04867E-04-3.27281E-05-3.09541E-05-1.16186E-06-2.36342E-20 4.12246E-19
 -1      2464 1.04445E-04-3.23358E-05-3.09007E-05-1.87616E-06-1.43079E-19 1.18944E-18
 -1      2465 1.03406E-04-3.22497E-05-3.04998E-05-2.76795E-06-3.78299E-19 1.47812E-18
 -1      2466 1.05689E-04-3.35028E-05-3.09830E-05 8.83030E-07-1.95483E-19-1.21918E-19
 -1      2467 1.05554E-04-3.32213E-05-3.09992E-05-1.65075E-07-5.14804E-20 9.49306E-20
 -1      2468 1.04868E-04-3.34362E-05-3.06136E-05-1.11437E-06-5.01205E-20 6.19080E-19
 -1      2469 1.05922E-04-3.38873E-05-3.09163E-05 3.55536E-06-1.18753E-18 5.22141E-19
 -1      2470 1.06215E-04-3.38769E-05-3.10078E-05 2.26949E-06-6.54902E-19 5.98734E-20
 -1      2471 1.06152E-04-3.44920E-05-3.07024E-05 1.38868E-06-3.89989E-19 7.35073E-19
 -1      2472 1.05257E-04-3.34926E-05-3.07820E-05 6.41073E-06-4.12025E-19 1.06182E-18
 -1      2473 1.06082E-04-3.39334E-05-3.09365E-05 5.15348E-06-7.23955E-19 9.21144E-19
 -1      2474 1.06896E-04-3.49800E-05-3.07981E-05 4.56722E-06-1.10064E-18 1.51754E-18
 -1      2475 1.03509E-04-3.20144E-05-3.06322E-05 8.59641E-06-2.07629E-19 2.15479E-18
 -1      2476 1.04841E-04-3.29947E-05-3.08190E-05 7.80257E-06-5.55018E-19 1.31347E-18
 -1      2477 1.06649E-04-3.43539E-05-3.09450E-05 7.81801E-06-7.30698E-19 2.33890E-18
 -1      2478 1.00865E-04-2.95597E-05-3.05159E-05 9.03567E-06 8.19000E-19 2.91922E-18
 -1      2479 1.02463E-04-3.09203E-05-3.06967E-05 9.16894E-06 4.55732E-19 2.87384E-18
 -1      2480 1.05108E-04-3.22815E-05-3.11735E-05 1.00465E-05-5.22861E-20 2.67338E-18
 -1      2481 9.80771E-05-2.69018E-05-3.04448E-05 6.97856E-06 7.84501E-19 2.06928E-18
 -1      2482 9.94820E-05-2.81690E-05-3.05887E-05 8.25149E-06 1.31107E-18 2.51879E-18
 -1      2483 1.02512E-04-2.90933E-05-3.14543E-05 9.96844E-06 1.34259E-18 2.67283E-18
 -1      2484 9.62892E-05-2.52813E-05-3.03886E-05 2.72824E-06 1.38292E-18-2.17007E-19
 -1      2485 9.70044E-05-2.58675E-05-3.04802E-05 4.82218E-06 1.24474E-18 1.56602E-18
 -1      2486 9.98633E-05-2.60053E-05-3.16816E-05 6.88874E-06 1.80101E-18 1.57010E-18
 -1      2487 9.63237E-05-2.55859E-05-3.03115E-05-2.18695E-06-2.28997E-19-6.29903E-19
 -1      2488 9.61123E-05-2.51929E-05-3.03451E-05-5.62873E-08 9.03271E-19-4.19017E-19
 -1      2489 9.85140E-05-2.45968E-05-3.17255E-05 1.56934E-06 1.32857E-18 1.44397E-18
 -1      2490 9.80197E-05-2.75953E-05-3.02135E-05-5.77815E-06-1.69192E-19-1.70022E-18
 -1      2491 9.70842E-05-2.64863E-05-3.01929E-05-4.42964E-06-7.28488E-19-1.32496E-18
 -1      2492 9.91614E-05-2.56586E-05-3.15299E-05-3.85655E-06 2.07007E-19-5.90054E-19
 -1      2493 1.00348E-04-3.01900E-05-3.01064E-05-6.88220E-06 4.73607E-19-1.41997E-18
 -1      2494 9.91602E-05-2.89302E-05-3.00494E-05-6.67982E-06 4.19362E-19-2.05783E-18
 -1      2495 1.01224E-04-2.85328E-05-3.11479E-05-7.17070E-06 2.10170E-19-1.55628E-18
 -1      2496 1.02135E-04-3.21584E-05-3.00188E-05-5.60270E-06-3.43493E-19-5.59158E-19
 -1      2497 1.01183E-04-3.12699E-05-2.99506E-05-6.35686E-06 6.18979E-19-1.10463E-18
 -1      2498 1.03375E-04-3.16655E-05-3.06984E-05-7.43029E-06-4.65173E-20-1.90834E-18
 -1      2499 1.02772E-04-3.29407E-05-2.99410E-05-2.96135E-06-9.44372E-19 3.29309E-19
 -1      2500 1.02326E-04-3.26205E-05-2.98968E-05-4.19062E-06-4.66510E-19 3.82171E-19
 -1      2501 1.04501E-04-3.37006E-05-3.03076E-05-5.26222E-06-7.87938E-19-1.27181E-18
 -1      2502 1.02257E-04-3.26130E-05-2.98460E-05-1.17980E-07-5.26884E-19 9.50627E-19
 -1      2503 1.02346E-04-3.27939E-05-2.98500E-05-1.33730E-06-7.18032E-19 8.87207E-19
 -1      2504 1.04274E-04-3.41792E-05-3.00196E-05-2.00740E-06-1.06762E-18 2.83469E-19
 -1      2505 1.00930E-04-3.15616E-05-2.97170E-05 2.09020E-06-1.09550E-18 3.98282E-19
 -1      2506 1.01430E-04-3.20630E-05-2.97728E-05 1.21059E-06-1.08639E-18 1.99148E-19
 -1      2507 1.02968E-04-3.33685E-05-2.98224E-05 1.08595E-06-6.92019E-19 4.49760E-19
 -1      2508 9.91976E-05-3.01794E-05-2.95579E-05 3.25048E-06-2.92316E-19 1.24001E-18
 -1      2509 9.99284E-05-3.08294E-05-2.96503E-05 2.86346E-06-4.14444E-19 1.76744E-18
 -1      2510 1.01062E-04-3.18093E-05-2.96828E-05 3.24234E-06-1.33837E-18 8.07076E-20
 -1      2511 9.73919E-05-2.87874E-05-2.93822E-05 3.24743E-06-3.51386E-19 4.01970E-18
 -1      2512 9.81735E-05-2.94143E-05-2.94911E-05 3.38069E-06-6.64754E-19 3.02748E-18
 -1      2513 9.89620E-05-2.99506E-05-2.95740E-05 4.15475E-06-1.40148E-18 3.12500E-18
 -1      2514 9.64948E-05-2.81385E-05-2.92972E-05 2.77597E-06 1.58377E-19 4.34804E-18
 -1      2515 9.41199E-05-2.26631E-05-3.06403E-05 1.04229E-05-4.87544E-19-3.64907E-18
 -1      2516 9.51001E-05-2.40909E-05-3.04059E-05 9.94277E-06-1.06148E-18-5.77327E-18
 -1      2517 9.16928E-05-1.96656E-05-3.09165E-05 1.04939E-05 1.03945E-18-1.91403E-18
 -1      2518 9.29823E-05-2.12459E-05-3.07113E-05 1.07266E-05-9.80011E-20-2.22186E-18
 -1      2519 9.42163E-05-2.39365E-05-3.01405E-05 1.19961E-05 4.74907E-19-3.28499E-18
 -1      2520 9.66607E-05-2.67196E-05-2.99484E-05 6.96663E-06-1.91781E-18-2.76626E-18
 -1      2521 9.69373E-05-2.75376E-05-2.97369E-05 5.94849E-06-1.37078E-18-3.05041E-19
 -1      2522 9.57885E-05-2.50604E-05-3.03015E-05 9.00331E-06-1.92120E-18-6.15158E-18
 -1      2523 9.63668E-05-2.61621E-05-3.00705E-05 8.13491E-06-2.08502E-18-3.72092E-18
 -1      2524 9.75646E-05-2.79002E-05-2.98759E-05 8.34629E-06-1.98312E-18-3.98932E-18
 -1      2525 9.64401E-05-2.63818E-05-3.00441E-05 1.06056E-05-1.54871E-18-5.14922E-18
 -1      2526 8.89447E-05-1.65496E-05-3.10973E-05 8.62424E-06-4.55424E-19-1.95564E-18
 -1      2527 9.02690E-05-1.79951E-05-3.09474E-05 9.78049E-06 1.11524E-18-3.38107E-18
 -1      2528 9.11042E-05-2.07493E-05-3.01575E-05 1.16509E-05 6.27542E-19-3.08063E-18
 -1      2529 8.66786E-05-1.41045E-05-3.11766E-05 4.73921E-06-3.38194E-18 1.79388E-18
 -1      2530 8.76400E-05-1.50623E-05-3.10987E-05 6.75168E-06-2.66430E-18 2.94021E-19
 -1      2531 8.77909E-05-1.74692E-05-3.01122E-05 8.94633E-06-1.13434E-18-2.41478E-18
 -1      2532 8.57002E-05-1.30995E-05-3.11673E-05-5.26010E-07-1.50885E-18 2.74261E-18
 -1      2533 8.59492E-05-1.32854E-05-3.11674E-05 1.96843E-06-2.78109E-18 2.73009E-18
 -1      2534 8.53135E-05-1.50656E-05-3.00530E-05 3.99423E-06-1.84892E-18 2.80575E-18
 -1      2535 8.64163E-05-1.39105E-05-3.10916E-05-5.84964E-06 1.38985E-19 2.39683E-18
 -1      2536 8.58489E-05-1.32621E-05-3.11651E-05-3.50485E-06-8.60707E-19 2.52588E-18
 -1      2537 8.46138E-05-1.43889E-05-3.00344E-05-2.18897E-06-4.69587E-19 3.44013E-18
 -1      2538 8.86205E-05-1.63405E-05-3.09631E-05-1.00882E-05 5.92633E-19 2.44918E-18
 -1      2539 8.73983E-05-1.49908E-05-3.11015E-05-8.36703E-06 2.54782E-19 1.89828E-18
 -1      2540 8.59836E-05-1.56860E-05-3.00842E-05-8.08551E-06 8.62186E-19 2.30574E-18
 -1      2541 9.16278E-05-1.96976E-05-3.07967E-05-1.22691E-05 2.37207E-18 1.93437E-18
 -1      2542 9.00946E-05-1.79504E-05-3.09781E-05-1.15397E-05 1.44224E-18 2.11921E-18
 -1      2543 8.89665E-05-1.84945E-05-3.01922E-05-1.22834E-05 1.14882E-18 3.10686E-18
 -1      2544 9.46910E-05-2.31594E-05-3.06154E-05-1.21841E-05 7.25219E-19 2.78422E-18
 -1      2545 9.31715E-05-2.13436E-05-3.08109E-05-1.24837E-05 1.54018E-18 2.90868E-18
 -1      2546 9.26251E-05-2.18976E-05-3.03140E-05-1.39780E-05 6.85698E-19 2.27857E-18
 -1      2547 2.62847E-05-2.32659E-05-1.07164E-06 2.20716E-05 6.28604E-19 3.72567E-18
 -1      2548 2.05630E-05-2.12978E-05 5.92486E-07 6.89486E-06 9.77000E-20 6.51284E-18
 -1      2549 5.63970E-05-3.69825E-05-8.12107E-06 4.24052E-05-5.23043E-20 2.35602E-18
 -1      2550 4.04967E-05-2.99764E-05-4.12495E-06 3.34566E-05 9.52912E-21 3.16070E-18
 -1      2551 1.99119E-05-2.11974E-05 8.15196E-07-5.25764E-06 2.06374E-18 8.12347E-18
 -1      2552 2.51154E-05-2.31981E-05-6.78858E-07-1.95794E-05 1.19358E-18 4.73110E-18
 -1      2553 2.72809E-05-1.75568E-05-3.59630E-06 1.44501E-06 2.78303E-19 6.02685E-18
 -1      2554 9.36167E-05-2.74704E-05-2.83369E-05 3.75507E-07 1.23370E-18 7.81745E-19
 -1      2555 9.39001E-05-2.73348E-05-2.84842E-05 9.08910E-07 1.51876E-18 1.01603E-18
 -1      2556 9.42625E-05-2.74881E-05-2.86313E-05 4.09879E-07 1.34164E-18 1.60957E-19
 -1      2557 9.64324E-05-2.51539E-05-3.05476E-05-9.49863E-06 3.11182E-19 7.34715E-19
 -1      2558 8.92218E-05-5.22841E-05-1.58452E-05 4.56256E-05-4.26481E-19 7.87026E-19
 -1      2559 7.38701E-05-4.65468E-05-1.14281E-05 4.44718E-05-6.43745E-19 1.01845E-18
 -1      2560 7.07332E-05-4.10221E-05-1.22299E-05 4.20835E-05-1.13926E-18 1.25446E-18
 -1      2561 1.04958E-04-5.67986E-05-2.02702E-05 3.99185E-05-6.58568E-19 5.45026E-19
 -1      2562 1.50413E-04-3.32018E-05-5.07293E-05-1.83158E-06 4.13310E-18-2.47757E-20
 -1      2563 1.48953E-04-4.07926E-05-4.65710E-05 1.48836E-06 3.97301E-18 1.06303E-19
 -1      2564 1.36971E-04-5.54319E-05-3.50943E-05-1.43103E-05 1.53789E-18-1.35906E-18
 -1      2565 1.44880E-04-4.90947E-05-4.15444E-05-5.15950E-06 2.44834E-18-1.25022E-18
 -1      2566 8.78457E-05-1.08023E-05-3.30543E-05-1.51922E-06-2.84974E-19-3.46831E-18
 -1      2567 8.79508E-05-1.09244E-05-3.30455E-05-2.63867E-06-7.21900E-19-3.39947E-18
 -1      2568 8.93499E-05-1.30968E-05-3.26819E-05-2.93168E-06-7.92783E-19-2.99546E-18
 -1      2569 8.91021E-05-1.27624E-05-3.27203E-05-9.41462E-07-2.16233E-19-3.16634E-18
 -1      2570 1.44843E-04-9.65285E-06-5.85131E-05 1.15218E-06 6.33835E-18-6.51157E-20
 -1      2571 1.47616E-04-1.16642E-05-5.86687E-05-1.25847E-06 5.49597E-18 1.11491E-19
 -1      2572 2.08755E-05-2.21791E-05 7.08360E-07 1.43793E-05 1.85945E-18-5.68867E-18
 -1      2573 1.68508E-05-2.01251E-05 1.54113E-06 2.40018E-07 1.76808E-18-6.60855E-18
 -1      2574 1.49457E-04-1.62481E-05-5.75115E-05-3.24908E-06 4.45857E-18 1.70889E-19
 -1      2575 1.47839E-04-2.20594E-05-5.43380E-05-4.14936E-06 4.24364E-18-5.51630E-19
 -1      2576 1.36600E-04-1.18066E-05-5.36729E-05-4.99776E-06 4.91237E-18-2.24241E-18
 -1      2577 1.44688E-04-1.81863E-05-5.47087E-05 7.12954E-06 5.96099E-18-4.54010E-19
 -1      2578 1.45477E-04-1.27731E-05-5.73818E-05 5.19665E-06 6.54672E-18 2.01170E-20
 -1      2579 1.45247E-04-3.72817E-05-4.65575E-05 4.25689E-06 4.05581E-18-4.32199E-19
 -1      2580 1.46814E-04-2.87643E-05-5.11629E-05 6.67973E-06 5.18151E-18-4.12929E-19
 -1      2581 1.18587E-04-5.81070E-05-2.59484E-05-3.04057E-05-1.31502E-19-2.62030E-18
 -1      2582 1.31292E-04-5.84818E-05-3.12541E-05-2.40289E-05 1.13714E-18-1.13121E-18
 -1      2583 1.36435E-04-5.81492E-05-3.34990E-05-1.22862E-05 3.55542E-19-1.69195E-19
 -1      2584 3.94211E-05-3.02981E-05-3.65673E-06-3.44811E-05-2.08794E-19-7.19004E-18
 -1      2585 5.18136E-05-3.48510E-05-7.07924E-06-4.15463E-05 6.43957E-19-5.58301E-18
 -1      2586 1.96376E-05-2.11286E-05 8.73096E-07-1.36706E-05 6.55709E-19-7.40137E-18
 -1      2587 2.71939E-05-2.42548E-05-1.05707E-06-2.64586E-05 7.65294E-19-7.81007E-18
 -1      2588 3.92958E-05-2.42926E-05-5.88655E-06-3.04067E-05-5.19443E-19-6.89485E-18
 -1      2589 4.36553E-05-3.42887E-05-4.00867E-06 3.50786E-05 2.11250E-18-2.87568E-19
 -1      2590 3.07029E-05-2.84576E-05-8.62967E-07 2.57850E-05 2.79034E-18-2.09598E-18
 -1      2591 8.08042E-05-4.91905E-05-1.36802E-05 4.13766E-05 2.15506E-18 1.68125E-18
 -1      2592 6.14166E-05-4.24436E-05-8.01246E-06 3.84595E-05 2.31918E-18 1.39760E-20
 -1      2593 1.20390E-04-6.09059E-05-2.57916E-05 3.04639E-05 7.62330E-19 1.60428E-18
 -1      2594 1.03015E-04-5.72841E-05-1.94313E-05 3.51616E-05 1.59835E-18 1.75908E-18
 -1      2595 1.47116E-04-5.72301E-05-3.89141E-05 8.71992E-06-5.60101E-19 9.05902E-19
 -1      2596 1.35221E-04-6.07536E-05-3.19024E-05 1.71893E-05 4.69044E-19 1.52657E-18
 -1      2597 1.56572E-04-3.91684E-05-5.05847E-05-5.93319E-06-3.55246E-18 7.68894E-19
 -1      2598 1.51061E-04-4.70454E-05-4.48568E-05-3.24008E-06-2.24051E-18 1.15366E-18
 -1      2599 1.54538E-04-2.25906E-05-5.69629E-05-9.06477E-06-5.77931E-18 2.33040E-18
 -1      2600 1.54974E-04-3.01103E-05-5.38562E-05-9.28301E-06-4.76604E-18 1.27224E-18
 -1      2601 1.47488E-04-3.40122E-05-4.86790E-05-1.42949E-05-3.61175E-18 2.69102E-18
 -1      2602 1.51266E-04-2.39566E-05-5.48635E-05 7.28028E-06-5.36892E-18 2.89685E-19
 -1      2603 1.51790E-04-1.75997E-05-5.78656E-05 3.63760E-06-7.44923E-18 4.54010E-19
 -1      2604 1.53135E-04-4.46097E-05-4.67210E-05 3.34571E-07-1.14212E-18 2.81003E-18
 -1      2605 1.54550E-04-3.56755E-05-5.15003E-05 4.75758E-06-3.49274E-18 1.61508E-18
 -1      2606 1.42475E-04-5.88717E-05-3.58364E-05-1.50737E-05 1.43434E-18 5.58766E-18
 -1      2607 1.50845E-04-5.37988E-05-4.19778E-05-8.49637E-06 5.28257E-19 4.95853E-18
 -1      2608 1.12039E-04-5.99060E-05-2.22616E-05-3.61061E-05 1.82154E-18 4.09498E-18
 -1      2609 1.29972E-04-6.18695E-05-2.95172E-05-2.92133E-05 1.48548E-18 5.10507E-18
 -1      2610 7.36914E-05-4.75871E-05-1.10439E-05-4.29116E-05 1.83594E-18 4.52612E-18
 -1      2611 9.26513E-05-5.38475E-05-1.67115E-05-4.40495E-05 8.61856E-19 3.94135E-18
 -1      2612 3.95521E-05-3.12381E-05-3.25108E-06-3.28394E-05 1.75908E-18 3.63504E-18
 -1      2613 5.47403E-05-3.87378E-05-6.80150E-06-4.15800E-05 2.06422E-18 4.82724E-18
 -1      2614 9.63315E-05-2.50947E-05-3.05560E-05 7.59664E-06 3.11295E-18 2.37830E-18
 -1      2615 9.74535E-05-2.37782E-05-3.15965E-05 1.06961E-05 3.31436E-18 2.84847E-18
 -1      2616 9.58880E-05-2.13028E-05-3.20209E-05 1.18982E-05 3.60835E-18 1.64510E-18
 -1      2617 9.58764E-05-2.41612E-05-3.07683E-05 7.68851E-06 3.22170E-18 1.04247E-18
 -1      2618 1.34762E-04-9.69979E-06-5.38895E-05 4.53610E-06 6.29155E-18-8.14157E-19
 -1      2619 9.08101E-05-1.50674E-05-3.24571E-05-6.79619E-06-2.13433E-18-2.68226E-18
 -1      2620 8.97068E-05-1.32058E-05-3.28435E-05-7.97042E-06-2.30907E-18-2.91172E-18
 -1      2621 9.04050E-05-1.40323E-05-3.27967E-05-9.14622E-06-2.66079E-18-2.59411E-18
 -1      2622 9.47289E-05-2.69385E-05-2.90657E-05 1.88987E-06 1.93856E-18 3.32732E-19
 -1      2623 9.42441E-05-1.90814E-05-3.22578E-05 1.16074E-05 3.50964E-18 3.07751E-19
 -1      2624 1.32914E-04-6.04188E-05-3.08900E-05 2.43210E-05 1.76585E-18-8.04681E-21
 -1      2625 1.28319E-04-6.20250E-05-2.81079E-05 2.58300E-05-1.00691E-19 8.03093E-20
 -1      2626 1.37791E-04-5.97915E-05-3.41298E-05 1.44580E-05 1.42222E-18 7.37554E-19
 -1      2627 9.69710E-05-2.82687E-05-2.94453E-05 3.78329E-06-7.58704E-19 3.30502E-18
 -1      2628 1.42134E-04-2.73781E-05-4.94370E-05-8.18430E-06 3.77459E-18-1.28029E-18
 -1      2629 9.69868E-05-2.79158E-05-2.95869E-05 4.58497E-06-8.45945E-19 2.64659E-18
 -1      2630 3.87578E-05-2.49054E-05-5.38486E-06-2.62016E-05 2.10424E-18 3.82499E-18
 -1      2631 9.47144E-05-2.06031E-05-3.17176E-05 9.67462E-06 3.30613E-18 7.00192E-20
 -1      2632 4.05377E-05-2.39884E-05-6.52773E-06 2.76410E-05-2.83756E-19 3.44277E-18
 -1      2633 7.20667E-05-4.28820E-05-1.20362E-05-4.19688E-05 2.12245E-18 4.95885E-18
 -1      2634 1.45778E-04-4.74328E-05-4.21915E-05 2.92715E-06 3.90906E-18 6.34004E-19
 -1      2635 6.99029E-05-4.12725E-05-1.19051E-05-4.17897E-05-1.27648E-18-3.98635E-18
 -1      2636 1.08401E-04-5.85462E-05-2.10034E-05-3.74022E-05 1.87343E-18 3.79914E-18
 -1      2637 1.41487E-04-4.45321E-05-4.16972E-05 4.48864E-06 2.57556E-18-7.06214E-20
 -1      2638 1.37692E-04-6.26172E-05-3.20823E-05-1.78483E-05 1.97422E-18 5.31238E-18
 -1      2639 1.49178E-04-5.06359E-05-4.22769E-05 2.55436E-06-6.14417E-19 2.92904E-18
 -1      2640 1.45734E-04-1.77958E-05-5.49463E-05-1.14712E-05-6.02452E-18 1.10135E-18
 -1      2641 1.43295E-04-1.44418E-05-5.54559E-05 2.87684E-06-7.74993E-18-1.29024E-18
 -1      2642 1.47490E-04-5.37137E-05-4.03114E-05-3.35377E-06-1.40819E-20 2.46571E-18
 -1      2643 1.31175E-04-6.26314E-05-2.91705E-05 1.90134E-05 1.81064E-18 1.92298E-18
 -1      2644 9.69400E-05-5.40476E-05-1.80236E-05 3.65988E-05 3.08659E-18 1.38551E-18
 -1      2645 2.46547E-05-1.68970E-05-2.77224E-06-6.80407E-06 1.68830E-18-6.61067E-18
 -1      2646 1.12862E-04-5.82584E-05-2.31853E-05-3.41135E-05-1.41476E-18-3.39740E-18
 -1      2647 1.23740E-04-6.01216E-05-2.73578E-05-2.49766E-05-1.46876E-18-4.82121E-19
 -1      2648 1.03222E-04-5.42778E-05-2.06275E-05-3.68568E-05-2.34522E-18-2.22645E-18
 -1      2649 9.20855E-05-1.62848E-05-3.25213E-05-1.03795E-05-3.06894E-18-1.63571E-18
 -1      2650 3.17652E-05-2.22515E-05-3.59480E-06 2.04180E-05 3.60667E-18-3.55288E-18
 -1      2651 9.79195E-05-2.87893E-05-2.96440E-05 5.64640E-06-1.68634E-18 1.32787E-18
 -1      2652 1.37634E-04-2.27489E-05-4.95097E-05 1.15159E-05 5.10443E-18 5.95358E-19
 -1      2653 9.81888E-05-2.69767E-05-3.04785E-05-1.06553E-05 6.65909E-19-7.24905E-19
 -1      2654 9.60896E-05-2.46854E-05-3.06147E-05-1.18210E-05 7.39283E-19 8.76225E-19
 -1      2655 9.62928E-05-2.52519E-05-3.04481E-05-1.35904E-05 4.70357E-19 2.48858E-18
 -1      2656 9.96449E-05-2.80733E-05-3.06673E-05-1.17672E-05 1.23166E-18 1.70512E-19
 -1      2657 5.90456E-05-3.70617E-05-8.99116E-06 3.71895E-05 3.45716E-18 6.64921E-20
 -1      2658 1.45763E-04-3.00693E-05-4.98103E-05 1.07346E-05-3.74389E-18-6.98590E-19
 -1      2659 9.88744E-05-2.78069E-05-3.04820E-05-1.37347E-05 1.21195E-18-1.97210E-19
 -1      2660 9.05638E-05-1.51779E-05-3.23305E-05 3.19797E-06 1.25311E-18-2.71601E-18
 -1      2661 9.03740E-05-1.49065E-05-3.23634E-05 2.26346E-06 9.04542E-19-2.79694E-18
 -1      2662 9.02399E-05-1.47038E-05-3.23925E-05 1.42402E-06 5.95295E-19-2.86410E-18
 -1      2663 9.01751E-05-1.46116E-05-3.24036E-05 4.66315E-07 2.01096E-19-2.86291E-18
 -1      2664 9.14262E-05-1.65993E-05-3.20558E-05 1.64329E-06 6.97701E-19-2.59886E-18
 -1      2665 9.21447E-05-1.75550E-05-3.20050E-05 6.47837E-06 2.44927E-18-1.72111E-18
 -1      2666 9.16195E-05-1.67599E-05-3.21051E-05 5.63810E-06 2.14992E-18-1.97119E-18
 -1      2667 9.35610E-05-1.97765E-05-3.16642E-05 7.60206E-06 2.88442E-18-1.16449E-18
 -1      2668 9.27724E-05-1.85233E-05-3.18381E-05 7.02458E-06 2.62051E-18-1.40831E-18
 -1      2669 9.34390E-05-1.98704E-05-3.15065E-05 5.73997E-06 2.34133E-18-1.29138E-18
 -1      2670 9.52158E-05-2.54096E-05-2.99293E-05 3.98370E-06 2.47244E-18 2.72817E-20
 -1      2671 9.55530E-05-2.45598E-05-3.03932E-05 5.61583E-06 2.71841E-18 1.37612E-19
 -1      2672 5.08355E-05-2.45199E-05-1.10571E-05 3.09256E-05-1.14159E-18 1.89058E-18
 -1      2673 3.97280E-05-1.79781E-05-8.63722E-06 1.87236E-05-5.09914E-19 3.46564E-18
 -1      2674 9.49762E-05-2.66898E-05-2.92713E-05 1.78691E-06 1.70161E-18-9.97911E-21
 -1      2675 9.52443E-05-2.61929E-05-2.95564E-05 2.79503E-06 2.03996E-18 1.01497E-19
 -1      2676 9.52705E-05-2.50221E-05-3.01034E-05 3.82689E-06 2.32268E-18-4.19216E-19
 -1      2677 9.43321E-05-2.08745E-05-3.15170E-05-8.24921E-06-2.81186E-18-1.06281E-18
 -1      2678 9.47128E-05-2.26465E-05-3.09107E-05-6.40125E-06-2.61196E-18-7.93230E-19
 -1      2679 9.52874E-05-2.42048E-05-3.04484E-05-5.02383E-06-2.24520E-18-6.40669E-19
 -1      2680 9.51763E-05-2.51519E-05-3.00282E-05-3.54211E-06-2.02016E-18-5.65481E-19
 -1      2681 9.46200E-05-2.24952E-05-3.09053E-05-5.55836E-06-2.31399E-18-1.11919E-18
 -1      2682 9.53685E-05-2.60274E-05-2.96974E-05-2.52797E-06-1.72845E-18-4.50961E-19
 -1      2683 9.51954E-05-2.65728E-05-2.94201E-05-1.55248E-06-1.49598E-18-5.06768E-19
 -1      2684 9.52654E-05-2.49740E-05-3.01164E-05-3.12271E-06-1.76511E-18-8.13339E-19
 -1      2685 9.52304E-05-2.70866E-05-2.91880E-05-8.77891E-07-1.25268E-18-5.31776E-19
 -1      2686 9.50932E-05-2.74146E-05-2.90105E-05-2.72465E-07-1.22608E-18-6.16622E-19
 -1      2687 9.54535E-05-2.65052E-05-2.95518E-05-1.34888E-06-1.41062E-18-6.63667E-19
 -1      2688 9.50721E-05-2.77230E-05-2.88521E-05 1.45505E-07-1.10518E-18-4.06948E-19
 -1      2689 9.49919E-05-2.79304E-05-2.87428E-05 4.98468E-07-9.68483E-19-3.68282E-19
 -1      2690 9.54563E-05-2.74435E-05-2.91540E-05-1.81795E-07-1.04823E-18-6.15854E-19
 -1      2691 9.49584E-05-2.81177E-05-2.86380E-05 7.34030E-07-9.21007E-19-4.77436E-19
 -1      2692 9.49275E-05-2.82528E-05-2.85751E-05 9.19648E-07-8.44202E-19-4.64217E-19
 -1      2693 9.54016E-05-2.80246E-05-2.88819E-05 5.30903E-07-9.15617E-19-4.63254E-19
 -1      2694 9.48976E-05-2.83654E-05-2.85088E-05 1.03135E-06-7.74930E-19-4.57855E-19
 -1      2695 9.49021E-05-2.84539E-05-2.84769E-05 1.10892E-06-8.07096E-19-5.03950E-19
 -1      2696 9.53414E-05-2.83830E-05-2.87018E-05 9.22086E-07-8.41922E-19-3.86339E-19
 -1      2697 9.48801E-05-2.85183E-05-2.84379E-05 1.14059E-06-6.53615E-19-4.55731E-19
 -1      2698 9.49069E-05-2.85752E-05-2.84264E-05 1.15118E-06-6.04611E-19-6.53053E-19
 -1      2699 9.52929E-05-2.85976E-05-2.85881E-05 1.09689E-06-7.05544E-19-2.29424E-19
 -1      2700 9.48926E-05-2.86077E-05-2.84064E-05 1.13466E-06-6.32647E-19-7.56732E-19
 -1      2701 9.49321E-05-2.86423E-05-2.84081E-05 1.10678E-06-6.12765E-19-6.89628E-19
 -1      2702 9.52592E-05-2.87167E-05-2.85217E-05 1.13389E-06-5.97027E-19-4.82662E-19
 -1      2703 9.49241E-05-2.86533E-05-2.84014E-05 1.06489E-06-5.64192E-19-6.27282E-19
 -1      2704 9.49694E-05-2.86716E-05-2.84114E-05 1.01847E-06-6.62646E-19-6.75315E-19
 -1      2705 9.52387E-05-2.87713E-05-2.84888E-05 1.09031E-06-6.10927E-19-7.11712E-19
 -1      2706 9.49662E-05-2.86679E-05-2.84138E-05 9.67490E-07-4.63068E-19-6.32587E-19
 -1      2707 9.50135E-05-2.86742E-05-2.84291E-05 9.16548E-07-5.63963E-19-4.69077E-19
 -1      2708 9.52284E-05-2.87816E-05-2.84794E-05 1.00736E-06-6.83725E-19-8.33025E-19
 -1      2709 9.50138E-05-2.86599E-05-2.84379E-05 8.68159E-07-5.46513E-19-4.86145E-19
 -1      2710 9.50611E-05-2.86572E-05-2.84566E-05 8.22739E-07-3.37731E-19-7.00997E-19
 -1      2711 9.52256E-05-2.87609E-05-2.84867E-05 9.14643E-07-5.37015E-19-3.93039E-19
 -1      2712 9.50641E-05-2.86350E-05-2.84703E-05 7.85560E-07-2.39227E-19-1.03917E-18
 -1      2713 9.51112E-05-2.86252E-05-2.84916E-05 7.53170E-07-5.95585E-19-1.13744E-18
 -1      2714 9.52282E-05-2.87174E-05-2.85061E-05 8.33744E-07-5.11885E-19-7.10629E-19
 -1      2715 9.51161E-05-2.85963E-05-2.85093E-05 7.33923E-07-5.91731E-19-1.01663E-18
 -1      2716 9.51639E-05-2.85804E-05-2.85331E-05 7.20611E-07-9.60259E-19-6.58856E-19
 -1      2717 9.52347E-05-2.86560E-05-2.85351E-05 7.80998E-07-5.25562E-19-1.15793E-18
 -1      2718 9.51703E-05-2.85452E-05-2.85544E-05 7.25047E-07-8.78657E-19-2.59852E-19
 -1      2719 9.52207E-05-2.85239E-05-2.85812E-05 7.36230E-07-6.72685E-19-2.96363E-19
 -1      2720 9.52440E-05-2.85785E-05-2.85724E-05 7.69661E-07-5.39595E-19-3.04675E-19
 -1      2721 9.52284E-05-2.84817E-05-2.86065E-05 7.69834E-07-7.66540E-19-2.86169E-19
 -1      2722 9.52839E-05-2.84549E-05-2.86373E-05 8.10951E-07-4.81341E-19-1.96947E-19
 -1      2723 9.52553E-05-2.84846E-05-2.86175E-05 8.11584E-07-5.23740E-19-2.24697E-19
 -1      2724 9.52923E-05-2.84044E-05-2.86670E-05 8.79476E-07-1.11684E-19-2.90035E-19
 -1      2725 9.53563E-05-2.83718E-05-2.87031E-05 9.56479E-07 1.62676E-19-2.47523E-19
 -1      2726 9.52676E-05-2.83721E-05-2.86712E-05 9.18498E-07-2.46113E-19 3.10643E-20
 -1      2727 9.53646E-05-2.83111E-05-2.87380E-05 1.06633E-06 1.53419E-19-3.51264E-19
 -1      2728 9.54409E-05-2.82721E-05-2.87810E-05 1.18605E-06 2.46350E-20-7.86517E-20
 -1      2729 9.52794E-05-2.82372E-05-2.87342E-05 1.10294E-06 2.10560E-20-1.57174E-19
 -1      2730 9.54477E-05-2.81987E-05-2.88220E-05 1.34453E-06 1.64853E-19-5.49764E-20
 -1      2731 9.55404E-05-2.81524E-05-2.88736E-05 1.51487E-06 3.44170E-19-1.15805E-19
 -1      2732 9.52887E-05-2.80750E-05-2.88079E-05 1.37888E-06 2.02395E-19-3.85262E-19
 -1      2733 9.55438E-05-2.80634E-05-2.89214E-05 1.73022E-06 3.62142E-19-2.68167E-20
 -1      2734 9.56573E-05-2.80092E-05-2.89836E-05 1.96023E-06-7.73962E-21-2.72433E-20
 -1      2735 9.52918E-05-2.78794E-05-2.88933E-05 1.76197E-06 2.79263E-19-3.83170E-19
 -1      2736 9.56541E-05-2.79018E-05-2.90383E-05 2.24150E-06-1.64945E-19 2.44675E-19
 -1      2737 9.57931E-05-2.78396E-05-2.91127E-05 2.54107E-06-1.84947E-19 4.22412E-19
 -1      2738 9.52836E-05-2.76441E-05-2.89907E-05 2.26947E-06-2.86199E-21 3.44024E-19
 -1      2739 9.57791E-05-2.77115E-05-2.91740E-05 2.89769E-06-3.20412E-19 7.35717E-19
 -1      2740 9.59484E-05-2.76428E-05-2.92617E-05 3.27684E-06-4.63430E-20 5.16391E-19
 -1      2741 9.52566E-05-2.73641E-05-2.90992E-05 2.91960E-06-1.88996E-19 7.49480E-19
 -1      2742 9.59187E-05-2.74942E-05-2.93276E-05 3.71783E-06-1.99078E-19 5.40619E-19
 -1      2743 9.61237E-05-2.74239E-05-2.94286E-05 4.18529E-06-9.22873E-20 4.35050E-19
 -1      2744 9.52019E-05-2.70378E-05-2.92153E-05 3.73039E-06-2.29009E-19 1.09560E-19
 -1      2745 9.60743E-05-2.72601E-05-2.94953E-05 4.71794E-06 8.44651E-20 2.12464E-20
 -1      2746 9.63227E-05-2.72005E-05-2.96077E-05 5.27846E-06-3.08923E-20-4.56791E-19
 -1      2747 9.51103E-05-2.66727E-05-2.93321E-05 4.71769E-06-3.04804E-19 2.26492E-20
 -1      2748 9.62542E-05-2.70377E-05-2.96682E-05 5.90644E-06-3.75581E-21-5.41331E-19
 -1      2749 9.65595E-05-2.70150E-05-2.97871E-05 6.55640E-06-1.24746E-19-6.30104E-19
 -1      2750 9.49786E-05-2.62948E-05-2.94371E-05 5.89241E-06-3.19434E-19-9.55325E-19
 -1      2751 9.64857E-05-2.68896E-05-2.98305E-05 7.27699E-06 1.70532E-19-3.65062E-19
 -1      2752 9.68751E-05-2.69553E-05-2.99470E-05 7.99739E-06 7.51628E-19-8.70909E-19
 -1      2753 9.48202E-05-2.59651E-05-2.95104E-05 7.25715E-06-5.15329E-20-3.43235E-19
 -1      2754 9.68391E-05-2.69398E-05-2.99580E-05 8.79750E-06 9.67415E-19-1.30353E-18
 -1      2755 9.73681E-05-2.71874E-05-3.00588E-05 9.54326E-06 8.49553E-19-1.46974E-18
 -1      2756 9.46899E-05-2.58075E-05-2.95235E-05 8.80200E-06 8.39582E-19-1.00193E-18
 -1      2757 9.74700E-05-2.74131E-05-3.00192E-05 1.03923E-05 8.55476E-19-1.49581E-18
 -1      2758 9.82453E-05-2.79998E-05-3.00880E-05 1.10766E-05 1.09406E-18-7.98141E-19
 -1      2759 9.47256E-05-2.60501E-05-2.94400E-05 1.04987E-05 1.14652E-18-1.68489E-18
 -1      2760 9.86863E-05-2.86825E-05-2.99826E-05 1.19110E-05 7.01835E-19-1.11565E-18
 -1      2761 9.98930E-05-2.98446E-05-3.00079E-05 1.23832E-05-1.31592E-19-1.26194E-18
 -1      2762 9.52189E-05-2.70789E-05-2.92231E-05 1.22871E-05 7.86792E-19-2.09215E-18
 -1      2763 1.01033E-04-3.13000E-05-2.98405E-05 1.30619E-05-6.42796E-19-6.47934E-19
 -1      2764 1.02942E-04-3.33212E-05-2.98329E-05 1.30685E-05-9.52667E-19-6.13826E-19
 -1      2765 9.67178E-05-2.94908E-05-2.88579E-05 1.40323E-05-3.02247E-19-1.29338E-18
 -1      2766 1.05335E-04-3.59131E-05-2.96605E-05 1.32832E-05-1.11826E-18-3.47950E-19
 -1      2767 1.08231E-04-3.89684E-05-2.96913E-05 1.24158E-05-2.94509E-19 2.12304E-19
 -1      2768 1.00126E-04-3.40549E-05-2.84030E-05 1.54023E-05-7.02066E-19-6.81848E-19
 -1      2769 1.12545E-04-4.28798E-05-2.97139E-05 1.14850E-05 5.94415E-19 6.15594E-19
 -1      2770 1.16437E-04-4.64987E-05-2.99995E-05 9.11224E-06 7.61225E-19 1.01085E-18
 -1      2771 1.06694E-04-4.13337E-05-2.81088E-05 1.56070E-05 7.83711E-19-5.19734E-20
 -1      2772 1.22694E-04-5.08389E-05-3.07113E-05 5.91902E-06 1.07163E-18 1.34595E-18
 -1      2773 1.26669E-04-5.30869E-05-3.16037E-05 1.53554E-06 1.60100E-18 1.09043E-18
 -1      2774 1.17490E-04-5.05331E-05-2.87235E-05 1.21915E-05 9.46056E-19 8.70326E-19
 -1      2775 1.36529E-04-4.65130E-05-3.90185E-05-1.62092E-05-1.13328E-18 2.12558E-18
 -1      2776 1.34579E-04-3.75935E-05-4.18199E-05-1.83036E-05-1.95225E-18 2.25692E-18
 -1      2777 1.30289E-04-1.87138E-05-4.85583E-05 1.03812E-05-5.36108E-18-2.62400E-18
 -1      2778 1.32983E-04-2.73743E-05-4.60221E-05 1.40683E-05-3.79534E-18-2.88796E-18
 -1      2779 1.35448E-04-4.23879E-05-4.00275E-05 1.32720E-05-1.86416E-18-2.61977E-18
 -1      2780 1.36061E-04-4.97614E-05-3.71863E-05 9.90932E-06 2.76900E-19-3.23847E-18
 -1      2781 1.31681E-04-5.26091E-05-3.40198E-05 3.31717E-06 2.28707E-18-2.12552E-18
 -1      2782 1.28874E-04-5.32839E-05-3.23438E-05-1.90912E-06 3.59329E-18-1.89287E-18
 -1      2783 1.36878E-04-5.46967E-05-3.54487E-05 2.49916E-06 1.48967E-18-3.75553E-19
 -1      2784 1.22564E-04-5.06692E-05-3.09032E-05-7.13399E-06 3.13761E-18-1.70093E-18
 -1      2785 1.18436E-04-4.76192E-05-3.01791E-05-1.09881E-05 3.41533E-18-1.68807E-18
 -1      2786 1.25626E-04-5.43031E-05-3.06545E-05-9.27574E-06 3.15223E-18 1.56986E-19
 -1      2787 1.13031E-04-4.35945E-05-2.98063E-05-1.35552E-05 2.92854E-18-2.10310E-18
 -1      2788 1.09268E-04-3.98891E-05-2.96077E-05-1.55228E-05 3.55486E-18-1.31767E-18
 -1      2789 1.13906E-04-4.66715E-05-2.89619E-05-1.62029E-05 3.02551E-18 6.91973E-19
 -1      2790 1.05750E-04-3.65137E-05-2.96886E-05-1.61380E-05 2.70823E-18-1.61999E-18
 -1      2791 1.02946E-04-3.34804E-05-2.96963E-05-1.67002E-05 1.49191E-18-1.22441E-18
 -1      2792 1.05126E-04-3.81849E-05-2.88022E-05-1.83768E-05 3.24041E-18 5.25604E-19
 -1      2793 1.00888E-04-3.10512E-05-2.99321E-05-1.62442E-05 1.37618E-18-1.18064E-18
 -1      2794 9.89771E-05-2.88470E-05-3.00115E-05-1.57997E-05 1.55614E-18-8.73619E-20
 -1      2795 9.97162E-05-3.16386E-05-2.92438E-05-1.79882E-05 1.70767E-18 1.53924E-18
 -1      2796 9.44721E-05-2.81277E-05-2.84331E-05-8.84453E-07 9.37270E-19-2.04706E-19
 -1      2797 9.44890E-05-2.80010E-05-2.84837E-05-7.08924E-07 8.30494E-19 8.07853E-20
 -1      2798 6.91394E-05-3.89138E-05-1.29210E-05 3.80314E-05 3.58962E-18 3.58189E-19
 -1      2799 5.39658E-05-3.05521E-05-9.43913E-06 3.31875E-05 4.07836E-18-4.46386E-19
 -1      2800 9.47055E-05-2.19075E-05-3.12059E-05 7.84711E-06 3.08464E-18-1.67392E-19
 -1      2801 9.45496E-05-2.78503E-05-2.85863E-05-4.33395E-07 7.13078E-19-8.85507E-21
 -1      2802 9.46384E-05-2.76636E-05-2.86851E-05-8.99821E-08 9.37173E-19 9.66927E-20
 -1      2803 9.50057E-05-2.79108E-05-2.87633E-05-4.43251E-07 9.11765E-19-2.44978E-19
 -1      2804 9.45130E-05-2.84288E-05-2.83208E-05-1.14092E-06 7.26973E-19-2.41286E-19
 -1      2805 9.44558E-05-2.83662E-05-2.83210E-05-1.13598E-06 7.83244E-19-2.41893E-19
 -1      2806 9.45868E-05-2.85052E-05-2.83196E-05-1.10034E-06 6.87093E-19-4.26675E-19
 -1      2807 9.45165E-05-2.84618E-05-2.83081E-05-1.13213E-06 7.45403E-19-2.04517E-19
 -1      2808 9.48939E-05-2.85670E-05-2.84289E-05-1.16227E-06 7.59135E-19-4.14633E-19
 -1      2809 9.46748E-05-2.85509E-05-2.83377E-05-1.01211E-06 9.31058E-19-5.11726E-19
 -1      2810 9.46003E-05-2.85220E-05-2.83195E-05-1.06146E-06 7.62872E-19-5.12213E-19
 -1      2811 9.49166E-05-2.86353E-05-2.84083E-05-1.12431E-06 8.49860E-19-6.05566E-19
 -1      2812 9.47678E-05-2.85740E-05-2.83675E-05-9.06863E-07 7.05681E-19-2.36085E-19
 -1      2813 9.46941E-05-2.85563E-05-2.83458E-05-9.60514E-07 8.89679E-19-3.55704E-19
 -1      2814 9.49529E-05-2.86658E-05-2.84101E-05-1.03882E-06 7.96623E-19-5.28070E-19
 -1      2815 9.48608E-05-2.85804E-05-2.84046E-05-8.06171E-07 5.53707E-19 2.87987E-19
 -1      2816 9.47903E-05-2.85713E-05-2.83810E-05-8.54797E-07 7.48074E-19 2.09307E-19
 -1      2817 9.49966E-05-2.86694E-05-2.84268E-05-9.37390E-07 5.46020E-19-3.73286E-19
 -1      2818 9.49525E-05-2.85740E-05-2.84464E-05-7.25591E-07 1.93665E-19 1.33227E-19
 -1      2819 9.48851E-05-2.85716E-05-2.84217E-05-7.62434E-07 2.94774E-19 2.63781E-19
 -1      2820 9.50439E-05-2.86536E-05-2.84536E-05-8.42519E-07 3.78966E-19 5.01217E-19
 -1      2821 9.50438E-05-2.85577E-05-2.84922E-05-6.76855E-07 5.12958E-19 3.23270E-19
 -1      2822 9.49780E-05-2.85605E-05-2.84663E-05-6.96737E-07 4.00337E-19 2.67690E-19
 -1      2823 9.50934E-05-2.86232E-05-2.84878E-05-7.70639E-07 3.01630E-19 3.80793E-19
 -1      2824 9.51378E-05-2.85339E-05-2.85424E-05-6.69473E-07 8.62317E-19 6.12633E-19
 -1      2825 9.50709E-05-2.85404E-05-2.85147E-05-6.68095E-07 7.77331E-19 6.76525E-19
 -1      2826 9.51452E-05-2.85811E-05-2.85280E-05-7.34334E-07 5.26918E-19 5.93679E-19
 -1      2827 9.52395E-05-2.85042E-05-2.85982E-05-7.11837E-07 4.04158E-19 1.40153E-18
 -1      2828 9.51677E-05-2.85132E-05-2.85677E-05-6.85317E-07 4.85647E-19 9.84433E-19
 -1      2829 9.52007E-05-2.85292E-05-2.85741E-05-7.43956E-07 3.21118E-19 1.17414E-18
 -1      2830 9.53551E-05-2.84705E-05-2.86616E-05-8.11853E-07-4.89748E-20 1.67519E-18
 -1      2831 9.52736E-05-2.84806E-05-2.86270E-05-7.56486E-07 3.71404E-19 1.58850E-18
 -1      2832 9.52626E-05-2.84688E-05-2.86267E-05-8.08716E-07 2.07368E-19 1.81562E-18
 -1      2833 9.54925E-05-2.84353E-05-2.87348E-05-9.77113E-07-2.19579E-19 1.09048E-18
 -1      2834 9.53956E-05-2.84447E-05-2.86946E-05-8.89372E-07-1.65163E-20 1.07438E-18
 -1      2835 9.53348E-05-2.84011E-05-2.86869E-05-9.37287E-07 2.94559E-19 1.44748E-18
 -1      2836 9.56608E-05-2.84024E-05-2.88202E-05-1.21451E-06-2.34677E-19 5.83542E-19
 -1      2837 9.55423E-05-2.84085E-05-2.87729E-05-1.09133E-06-2.86590E-19 8.39923E-19
 -1      2838 9.54226E-05-2.83282E-05-2.87561E-05-1.13789E-06 1.64765E-19 1.05786E-18
 -1      2839 9.58714E-05-2.83781E-05-2.89201E-05-1.52920E-06-1.96583E-19-1.36608E-19
 -1      2840 9.57239E-05-2.83769E-05-2.88642E-05-1.36862E-06 3.64875E-20 5.65443E-19
 -1      2841 9.55328E-05-2.82540E-05-2.88354E-05-1.41781E-06-1.36554E-20 1.26501E-21
 -1      2842 9.61373E-05-2.83720E-05-2.90360E-05-1.92267E-06-2.87731E-20 2.54767E-19
 -1      2843 9.59528E-05-2.83578E-05-2.89704E-05-1.72495E-06-2.25407E-19-3.49679E-19
 -1      2844 9.56745E-05-2.81857E-05-2.89257E-05-1.78217E-06 5.78152E-20 4.84358E-19
 -1      2845 9.64746E-05-2.83996E-05-2.91683E-05-2.38973E-06 3.94563E-19 4.88081E-19
 -1      2846 9.62443E-05-2.83636E-05-2.90925E-05-2.15907E-06 3.60497E-19 2.03290E-19
 -1      2847 9.58601E-05-2.81360E-05-2.90270E-05-2.23184E-06 1.41239E-19 8.49328E-20
 -1      2848 9.69028E-05-2.84839E-05-2.93158E-05-2.91421E-06-1.20196E-20 1.99793E-19
 -1      2849 9.66171E-05-2.84138E-05-2.92303E-05-2.66111E-06 1.73107E-19 6.20930E-19
 -1      2850 9.61070E-05-2.81252E-05-2.91380E-05-2.76022E-06 1.26135E-19 4.63547E-19
 -1      2851 9.74465E-05-2.86586E-05-2.94747E-05-3.46293E-06 1.57808E-19-2.06046E-19
 -1      2852 9.70952E-05-2.85370E-05-2.93814E-05-3.20747E-06 1.19701E-19 8.24346E-20
 -1      2853 9.64395E-05-2.81850E-05-2.92557E-05-3.34864E-06 1.10394E-19 7.51587E-19
 -1      2854 9.81363E-05-2.89700E-05-2.96389E-05-3.97830E-06 8.29952E-20 2.69924E-19
 -1      2855 9.77091E-05-2.87740E-05-2.95413E-05-3.75400E-06 1.93585E-19-3.12538E-19
 -1      2856 9.68924E-05-2.83619E-05-2.93753E-05-3.96020E-06-5.83443E-20 1.40982E-19
 -1      2857 9.90099E-05-2.94774E-05-2.97995E-05-4.36967E-06 6.23754E-19-5.26769E-19
 -1      2858 9.84976E-05-2.91793E-05-2.97028E-05-4.22759E-06 8.48081E-19-3.57499E-19
 -1      2859 9.75147E-05-2.87202E-05-2.94902E-05-4.53186E-06 6.01819E-19 1.96315E-19
 -1      2860 1.00110E-04-3.02473E-05-2.99467E-05-4.50551E-06-3.43080E-19 9.51521E-20
 -1      2861 9.95071E-05-2.98191E-05-2.98573E-05-4.51707E-06-2.03775E-19 1.40832E-20
 -1      2862 9.83720E-05-2.93418E-05-2.95940E-05-4.96514E-06 7.68272E-20 4.54457E-20
 -1      2863 1.01474E-04-3.13355E-05-3.00731E-05-4.21003E-06-5.23520E-19 8.04584E-19
 -1      2864 1.00786E-04-3.07600E-05-2.99969E-05-4.46592E-06-4.55631E-19 5.69492E-19
 -1      2865 9.95452E-05-3.03168E-05-2.96826E-05-5.11653E-06-6.96253E-19 8.33760E-19
 -1      2866 1.03109E-04-3.27464E-05-3.01799E-05-3.27285E-06-3.79849E-19 6.67953E-19
 -1      2867 1.02367E-04-3.20407E-05-3.01193E-05-3.87257E-06-3.18878E-19 8.71242E-19
 -1      2868 1.01117E-04-3.17165E-05-2.97607E-05-4.79099E-06-6.14073E-19 1.20739E-18
 -1      2869 1.04942E-04-3.43610E-05-3.02853E-05-1.48716E-06-1.10361E-19 5.73757E-19
 -1      2870 1.04223E-04-3.36149E-05-3.02353E-05-2.51077E-06-7.36484E-20 9.17628E-19
 -1      2871 1.03136E-04-3.35346E-05-2.98494E-05-3.74725E-06-5.31449E-20 8.66238E-19
 -1      2872 1.06748E-04-3.58410E-05-3.04326E-05 1.25661E-06-1.04692E-18 9.69769E-19
 -1      2873 1.06198E-04-3.52604E-05-3.03769E-05-1.94735E-07-2.88205E-19 7.86189E-19
 -1      2874 1.05534E-04-3.55849E-05-2.99962E-05-1.73612E-06-5.37516E-19 7.21519E-19
 -1      2875 1.08077E-04-3.65618E-05-3.06880E-05 4.79850E-06-1.39998E-18 1.89224E-18
 -1      2876 1.07919E-04-3.64843E-05-3.06010E-05 3.07845E-06-1.50450E-18 1.46644E-18
 -1      2877 1.08011E-04-3.73732E-05-3.02800E-05 1.38476E-06-1.08240E-18 1.23116E-18
 -1      2878 1.08313E-04-3.57188E-05-3.11214E-05 8.47481E-06-4.68828E-19 2.38204E-18
 -1      2879 1.08771E-04-3.65175E-05-3.09752E-05 6.89876E-06-1.17239E-18 2.02450E-18
 -1      2880 1.09946E-04-3.80511E-05-3.07959E-05 5.42817E-06-1.15821E-18 9.28939E-19
 -1      2881 1.06958E-04-3.27797E-05-3.17581E-05 1.09565E-05 1.13975E-19 2.59058E-18
 -1      2882 1.08076E-04-3.45774E-05-3.15490E-05 1.01949E-05-1.66234E-19 2.46658E-18
 -1      2883 1.10442E-04-3.65432E-05-3.16227E-05 9.52780E-06-4.28240E-19 1.57552E-18
 -1      2884 1.04203E-04-2.82476E-05-3.24895E-05 1.06268E-05 1.67043E-18 2.01521E-18
 -1      2885 1.05675E-04-3.05859E-05-3.22676E-05 1.13357E-05 9.50330E-19 2.50982E-18
 -1      2886 1.08888E-04-3.24334E-05-3.27216E-05 1.20216E-05 6.21117E-19 1.40826E-18
 -1      2887 1.01393E-04-2.41377E-05-3.30584E-05 6.63959E-06 2.44724E-18 1.57927E-18
 -1      2888 1.02534E-04-2.58901E-05-3.29219E-05 8.91633E-06 2.70701E-18 2.34392E-18
 -1      2889 1.05785E-04-2.68539E-05-3.38401E-05 1.08655E-05 2.21069E-18 1.99648E-18
 -1      2890 1.00332E-04-2.28899E-05-3.31915E-05 2.18155E-07 1.40091E-18 1.41443E-18
 -1      2891 1.00519E-04-2.30192E-05-3.32262E-05 3.23513E-06 2.02510E-18 1.80270E-18
 -1      2892 1.03075E-04-2.25712E-05-3.45619E-05 5.53107E-06 2.08759E-18 2.52698E-18
 -1      2893 1.01722E-04-2.54035E-05-3.28041E-05-5.64377E-06 7.56824E-19 2.44280E-19
 -1      2894 1.00968E-04-2.38331E-05-3.30006E-05-3.28869E-06 9.78581E-19 8.21642E-19
 -1      2895 1.02842E-04-2.23099E-05-3.45481E-05-1.87318E-06 1.46265E-18 2.04074E-18
 -1      2896 1.04521E-04-2.99819E-05-3.20447E-05-8.42119E-06 1.12621E-18-1.01852E-18
 -1      2897 1.03328E-04-2.76681E-05-3.23456E-05-7.57036E-06 1.14051E-18-1.13588E-20
 -1      2898 1.05109E-04-2.64628E-05-3.36968E-05-7.56676E-06 1.22465E-18 1.47039E-18
 -1      2899 1.06718E-04-3.40678E-05-3.11948E-05-7.47050E-06 1.01219E-19-1.63568E-18
 -1      2900 1.05812E-04-3.22552E-05-3.14806E-05-8.16224E-06 1.11567E-18-1.41478E-18
 -1      2901 1.08083E-04-3.19413E-05-3.25990E-05-9.06751E-06 1.43232E-18-3.01875E-19
 -1      2902 1.07185E-04-3.60631E-05-3.04995E-05-4.17939E-06-1.65312E-18-1.63517E-18
 -1      2903 1.06942E-04-3.52861E-05-3.07180E-05-5.75347E-06-9.00638E-19-2.30028E-18
 -1      2904 1.09654E-04-3.62317E-05-3.14225E-05-6.67541E-06 1.43723E-19-1.95938E-18
 -1      2905 1.05984E-04-3.58769E-05-3.00323E-05-3.14862E-07-1.07830E-18-2.19422E-18
 -1      2906 1.06399E-04-3.60840E-05-3.01742E-05-2.03202E-06-1.76781E-18-2.56133E-18
 -1      2907 1.09044E-04-3.77860E-05-3.05184E-05-2.50034E-06-1.65541E-18-3.79839E-18
 -1      2908 1.03764E-04-3.42352E-05-2.97681E-05 2.86387E-06-1.33143E-18 1.07715E-19
 -1      2909 1.04616E-04-3.50678E-05-2.98533E-05 1.50755E-06-4.61181E-19-2.08615E-19
 -1      2910 1.06817E-04-3.69052E-05-2.99671E-05 1.60710E-06-2.42055E-18-4.11068E-18
 -1      2911 1.01186E-04-3.19480E-05-2.96448E-05 4.75935E-06-2.25932E-18 1.18138E-18
 -1      2912 1.02228E-04-3.30334E-05-2.96963E-05 4.02036E-06-1.80396E-18 8.32327E-19
 -1      2913 1.03862E-04-3.45740E-05-2.97105E-05 4.58745E-06-1.97958E-18 9.37107E-19
 -1      2914 9.90033E-05-2.98756E-05-2.96061E-05 5.48372E-06-2.42401E-18 2.38612E-18
 -1      2915 1.00072E-04-3.09826E-05-2.96414E-05 5.38184E-06-2.17229E-18 7.70974E-19
 -1      2916 1.01213E-04-3.20127E-05-2.96541E-05 6.29005E-06-2.24562E-18 9.64431E-19
 -1      2917 9.89517E-05-2.95693E-05-2.97195E-05 7.01182E-06-2.51089E-18-7.02788E-19
 -1      2918 1.33018E-04-2.20817E-05-4.81749E-05-1.04019E-05 4.24978E-18-2.58811E-18
 -1      2919 1.36137E-04-3.18632E-05-4.51123E-05-1.00829E-05 4.11023E-18-2.15655E-18
 -1      2920 8.58144E-05-1.81345E-05-2.90915E-05 9.36203E-06-9.97694E-19-2.49425E-18
 -1      2921 8.78104E-05-1.96305E-05-2.91621E-05 1.13836E-05 2.22670E-19-4.34073E-18
 -1      2922 1.31826E-04-2.63884E-05-4.53999E-05 1.39675E-05 4.09445E-18 8.00658E-19
 -1      2923 1.29093E-04-1.80263E-05-4.83542E-05 1.18725E-05 5.25626E-18 1.28220E-19
 -1      2924 9.44237E-05-2.53557E-05-2.96373E-05 1.34086E-05 9.09991E-19-2.83203E-18
 -1      2925 9.60820E-05-2.67961E-05-2.96516E-05 1.29943E-05 1.19558E-18-4.53407E-18
 -1      2926 8.28094E-05-1.55577E-05-2.88872E-05 3.29843E-06-3.40030E-19 4.27549E-18
 -1      2927 8.39510E-05-1.63883E-05-2.89315E-05 6.35239E-06-7.42542E-19 1.81964E-18
 -1      2928 8.35908E-05-1.83289E-05-2.79374E-05 9.09397E-06-1.29479E-20-6.07418E-19
 -1      2929 9.02110E-05-2.18251E-05-2.93808E-05 1.28351E-05 2.81897E-19-3.53298E-18
 -1      2930 9.23644E-05-2.35260E-05-2.94392E-05 1.35311E-05 3.85845E-19-1.99782E-18
 -1      2931 9.39118E-05-2.65217E-05-2.89140E-05 1.48857E-05 8.39366E-19-2.90646E-18
 -1      2932 8.86258E-05-2.23775E-05-2.83979E-05 1.36917E-05-4.02322E-19-4.55286E-18
 -1      2933 8.24840E-05-1.51475E-05-2.88719E-05-3.90833E-06 1.56261E-19 3.32121E-18
 -1      2934 8.22514E-05-1.49886E-05-2.88561E-05-6.16765E-07-3.43153E-19 4.70161E-18
 -1      2935 8.07449E-05-1.59285E-05-2.77034E-05 1.76909E-06 3.74705E-19 3.81248E-18
 -1      2936 8.50341E-05-1.70966E-05-2.90817E-05-1.04134E-05 1.25005E-18 2.53407E-18
 -1      2937 8.35074E-05-1.60002E-05-2.90022E-05-7.67527E-06 1.00585E-18 2.95212E-18
 -1      2938 8.12934E-05-1.62272E-05-2.78188E-05-6.38611E-06 2.58713E-19 3.55988E-18
 -1      2939 8.93835E-05-2.05376E-05-2.94598E-05-1.43959E-05 1.82656E-18 2.48300E-18
 -1      2940 8.72027E-05-1.89073E-05-2.93437E-05-1.29316E-05 2.15763E-18 2.90984E-18
 -1      2941 8.50389E-05-1.89957E-05-2.82859E-05-1.29438E-05 2.23426E-18 4.77577E-18
 -1      2942 6.70930E-05-3.60353E-05-1.26830E-05-3.85586E-05 2.56863E-18 4.65572E-18
 -1      2943 8.32742E-05-4.52490E-05-1.62746E-05-4.14504E-05 2.39308E-18 3.33964E-18
 -1      2944 9.47203E-05-2.74138E-05-2.88485E-05 3.93738E-07 1.17517E-18-4.34726E-20
 -1      2945 9.49016E-05-2.71209E-05-2.90211E-05 9.98436E-07 1.37090E-18 2.63153E-20
 -1      2946 9.52521E-05-2.65020E-05-2.94708E-05 1.74160E-06 1.62051E-18-2.39042E-19
 -1      2947 9.51276E-05-2.73816E-05-2.90436E-05 3.81299E-07 1.11092E-18 2.66352E-21
 -1      2948 3.72146E-05-1.85304E-05-7.41567E-06-1.86766E-05 2.06194E-18 4.46556E-18
 -1      2949 4.99683E-05-2.67234E-05-9.68003E-06-3.27849E-05 2.49674E-18 3.30978E-18
 -1      2950 1.31576E-04-6.29510E-05-2.90889E-05-1.99895E-05 2.61701E-18 4.40965E-18
 -1      2951 1.40733E-04-6.14332E-05-3.45205E-05-9.13780E-06 2.46772E-18 5.65903E-18
 -1      2952 1.26228E-04-1.01498E-05-5.04392E-05-3.76742E-06 5.19803E-18-2.69597E-18
 -1      2953 1.28645E-04-1.45099E-05-4.94560E-05-8.29530E-06 4.34867E-18-2.17222E-18
 -1      2954 3.43802E-05-1.52468E-05-7.66417E-06 9.93379E-06-6.19922E-19 4.10705E-18
 -1      2955 3.29936E-05-1.47504E-05-7.29369E-06-3.35581E-06 5.41704E-19 5.60355E-18
 -1      2956 4.60234E-05-1.65663E-05-1.19943E-05 1.39632E-05 2.35052E-19 3.85644E-18
 -1      2957 1.01611E-04-5.41921E-05-1.98360E-05-3.77008E-05 1.66982E-18 2.97499E-18
 -1      2958 1.17536E-04-6.09052E-05-2.45860E-05-3.21840E-05 2.04093E-18 3.60664E-18
 -1      2959 9.44680E-05-2.83094E-05-2.83529E-05-1.08999E-06 8.67913E-19-2.28078E-19
 -1      2960 9.44379E-05-2.82206E-05-2.83725E-05-1.02038E-06 1.00709E-18-1.79942E-19
 -1      2961 9.49280E-05-2.82397E-05-2.85870E-05-8.98036E-07 1.02073E-18-2.79325E-19
 -1      2962 9.48940E-05-2.84439E-05-2.84831E-05-1.10796E-06 8.37660E-19-9.91111E-20
 -1      2963 9.11795E-05-1.60918E-05-3.22084E-05 4.92152E-06 1.96146E-18-2.24307E-18
 -1      2964 9.08380E-05-1.55937E-05-3.22693E-05 3.99881E-06 1.54656E-18-2.48416E-18
 -1      2965 9.18172E-05-1.72056E-05-3.19610E-05 3.20196E-06 1.36302E-18-2.37849E-18
 -1      2966 9.24847E-05-1.82647E-05-3.17885E-05 4.61965E-06 1.92796E-18-1.85527E-18
 -1      2967 1.32128E-04-1.42900E-05-5.11643E-05 2.24324E-06-6.94736E-18-1.17092E-18
 -1      2968 6.57088E-05-3.48926E-05-1.25654E-05-3.89630E-05-1.56235E-18-3.17457E-18
 -1      2969 8.35751E-05-4.54342E-05-1.62253E-05-4.22496E-05-1.73546E-18-1.72276E-18
 -1      2970 4.12629E-05-2.32430E-05-7.32436E-06 2.70139E-05 3.99524E-18-8.18022E-19
 -1      2971 3.17490E-05-1.67773E-05-5.90007E-06 1.46777E-05 3.42942E-18-4.11849E-18
 -1      2972 9.08013E-05-1.55439E-05-3.22743E-05-3.93514E-06-1.20631E-18-2.80215E-18
 -1      2973 9.11355E-05-1.60297E-05-3.22150E-05-4.85794E-06-1.58062E-18-2.74163E-18
 -1      2974 9.68689E-05-2.62502E-05-3.02426E-05-1.44731E-05 1.74089E-18 2.14515E-18
 -1      2975 9.50836E-05-2.47589E-05-3.01423E-05-1.50435E-05 2.02810E-18 2.84757E-18
 -1      2976 9.78592E-05-2.74459E-05-3.01677E-05-1.52259E-05 1.94637E-18 8.45138E-19
 -1      2977 1.31387E-04-5.89200E-05-3.09008E-05-1.31608E-05-8.95023E-19-1.86665E-19
 -1      2978 1.34551E-04-5.61916E-05-3.40824E-05-5.93408E-06-2.29069E-19-4.87891E-19
 -1      2979 9.20377E-05-1.66592E-05-3.23128E-05-9.02762E-06-2.73079E-18-1.85955E-18
 -1      2980 3.81529E-05-1.88734E-05-7.58032E-06-2.39318E-05 1.29914E-19-6.00631E-18
 -1      2981 4.80839E-05-2.49250E-05-9.70379E-06-3.32089E-05-1.08685E-18-4.35947E-18
 -1      2982 1.26164E-04-1.07667E-05-5.00099E-05 7.82484E-06 5.64907E-18-1.09040E-18
 -1      2983 1.25844E-04-8.54026E-06-5.09467E-05 1.57439E-06 5.71112E-18-2.17055E-18
 -1      2984 2.79505E-05-1.37600E-05-5.49217E-06 8.95787E-07 2.18062E-18-6.04337E-18
 -1      2985 3.01263E-05-1.48989E-05-6.08530E-06-1.37486E-05 1.31941E-18-5.54425E-18
 -1      2986 4.03398E-05-1.59691E-05-9.76983E-06-1.72286E-05 6.33581E-19-4.90549E-18
 -1      2987 1.07553E-04-5.69677E-05-2.19528E-05 3.23352E-05 2.86551E-18 1.53911E-18
 -1      2988 8.94062E-05-4.84373E-05-1.69622E-05 3.63928E-05 3.57977E-18 1.05953E-18
 -1      2989 1.35647E-04-6.21481E-05-3.18806E-05 1.08231E-05 1.58977E-18 1.35901E-18
 -1      2990 1.24770E-04-6.17589E-05-2.66352E-05 2.12178E-05 2.15348E-18 1.99254E-18
 -1      2991 1.44218E-04-5.41670E-05-3.86356E-05 2.97796E-06 1.86347E-20 1.99243E-18
 -1      2992 1.44225E-04-4.61559E-05-4.26299E-05 9.11254E-06-1.80969E-18-7.38930E-19
 -1      2993 1.36863E-04-4.87528E-05-3.77748E-05 4.13439E-06 9.47406E-19 1.66124E-19
 -1      2994 1.35592E-04-3.93083E-05-4.20179E-05 1.06747E-05 2.84010E-18 9.12996E-19
 -1      2995 1.41507E-04-4.50074E-05-4.19329E-05-4.38238E-06 3.75379E-18-7.07908E-19
 -1      2996 1.42486E-04-5.36108E-05-3.81221E-05 4.47129E-06 2.90190E-18-4.53163E-20
 -1      2997 1.38304E-04-5.73298E-05-3.46808E-05 7.92858E-06 1.26481E-18-3.12767E-19
 -1      2998 1.32411E-04-1.42676E-05-5.13977E-05-6.36409E-06-6.14162E-18 6.80340E-19
 -1      2999 9.15587E-05-1.66705E-05-3.21145E-05-5.58508E-06-1.79941E-18-2.60024E-18
 -1      3000 9.20360E-05-1.73737E-05-3.20226E-05-6.41453E-06-2.16858E-18-2.38879E-18
 -1      3001 9.24295E-05-1.81852E-05-3.17978E-05-4.58175E-06-1.54178E-18-2.36800E-18
 -1      3002 9.12938E-05-1.63966E-05-3.20868E-05 2.86825E-08 2.01410E-20-2.57851E-18
 -1      3003 9.01710E-05-1.46066E-05-3.24041E-05-3.83317E-07-7.59103E-20-2.96698E-18
 -1      3004 9.02275E-05-1.46870E-05-3.23941E-05-1.34152E-06-4.15765E-19-2.86017E-18
 -1      3005 1.25105E-04-6.05720E-05-2.74362E-05-2.25179E-05 2.65693E-18 4.35417E-18
 -1      3006 1.32113E-04-1.94786E-05-4.88621E-05-1.28633E-05-4.62565E-18 1.56976E-18
 -1      3007 6.33417E-05-3.00039E-05-1.37045E-05-3.41975E-05-1.72689E-18-2.70119E-18
 -1      3008 8.42778E-05-4.52704E-05-1.65861E-05 4.23107E-05-8.00340E-19 1.05593E-18
 -1      3009 6.88306E-05-3.53760E-05-1.37319E-05 3.87623E-05-1.05434E-18 1.57156E-18
 -1      3010 1.34420E-04-5.03311E-05-3.61863E-05-1.16089E-05-6.59442E-19 1.52916E-18
 -1      3011 1.39690E-04-5.10951E-05-3.80236E-05-1.12620E-05-6.30272E-19 2.28582E-18
 -1      3012 1.32925E-04-5.34828E-05-3.41695E-05-6.16794E-06 7.22331E-19 1.24244E-18
 -1      3013 1.38427E-04-3.80711E-05-4.34300E-05 1.46954E-05-2.45714E-18-2.27047E-18
 -1      3014 1.35768E-04-2.90581E-05-4.64423E-05-1.81154E-05-3.33519E-18 2.17211E-18
 -1      3015 9.66527E-05-2.74344E-05-2.97146E-05-1.66723E-05 2.29436E-18 1.79279E-18
 -1      3016 5.31920E-05-2.55767E-05-1.11951E-05 2.82175E-05 3.68099E-18-6.03299E-19
 -1      3017 9.43538E-05-2.14249E-05-3.12595E-05 7.22107E-06 2.94268E-18-6.75704E-19
 -1      3018 1.25214E-04-1.99732E-05-4.54973E-05-1.00532E-05 4.48927E-18-1.59454E-18
 -1      3019 9.89220E-05-2.95139E-05-2.97281E-05 8.45437E-06-1.74029E-18-3.46656E-18
 -1      3020 1.00034E-04-3.08794E-05-2.96597E-05 8.35720E-06-2.41875E-18-2.78000E-18
 -1      3021 9.85215E-05-2.89611E-05-2.98028E-05 9.73578E-06-1.83020E-18-4.40093E-18
 -1      3022 1.22070E-04-1.54575E-05-4.60998E-05 1.03038E-05 4.58054E-18 4.16581E-19
 -1      3023 9.60595E-05-4.85540E-05-1.98976E-05-3.62760E-05 2.47842E-18 3.12936E-18
 -1      3024 6.38574E-05-2.99268E-05-1.39447E-05-3.30310E-05 2.59054E-18 4.31542E-18
 -1      3025 9.30825E-05-2.30694E-05-3.00094E-05-1.49444E-05 2.09915E-18 1.81604E-18
 -1      3026 1.37075E-04-3.94475E-05-4.21858E-05-8.77801E-06 3.98010E-18-1.95273E-18
 -1      3027 1.34850E-04-4.51673E-05-3.86686E-05-6.09308E-06 3.27076E-18-2.81649E-18
 -1      3028 1.29589E-04-3.33194E-05-4.15746E-05-1.18773E-05 4.41061E-18-3.67988E-18
 -1      3029 6.56425E-05-2.93353E-05-1.50129E-05 3.21837E-05-1.22047E-18 1.62810E-18
 -1      3030 1.32853E-04-5.13673E-05-3.49975E-05 1.85524E-06-1.53770E-19 1.16912E-18
 -1      3031 1.39572E-04-5.74143E-05-3.53892E-05-1.22383E-06 1.52147E-18 1.91789E-18
 -1      3032 9.41383E-05-2.54488E-05-2.94079E-05-1.67371E-05 2.90318E-18 3.16353E-18
 -1      3033 9.14108E-05-2.25648E-05-2.95455E-05-1.56548E-05 1.22544E-18 2.50826E-18
 -1      3034 9.01361E-05-2.30339E-05-2.87449E-05-1.65286E-05 2.14888E-18 2.29600E-18
 -1      3035 9.53522E-05-2.71019E-05-2.92173E-05-1.74632E-05 1.95990E-18 2.56168E-18
 -1      3036 1.40705E-04-5.90141E-05-3.50264E-05-1.00332E-06 1.04572E-18 1.93791E-18
 -1      3037 1.34935E-04-5.92802E-05-3.24458E-05 3.45267E-06 1.08608E-18 1.54340E-18
 -1      3038 1.13700E-04-5.84714E-05-2.37025E-05 3.42006E-05-7.32895E-19 7.10819E-19
 -1      3039 9.83863E-05-5.23704E-05-1.93349E-05 3.94649E-05-1.31629E-18 4.97791E-19
 -1      3040 9.61560E-05-4.80104E-05-2.01975E-05 3.67666E-05-6.57509E-19 9.41795E-19
 -1      3041 3.64631E-05-1.46012E-05-8.67505E-06 7.62896E-06 3.07126E-18-4.27730E-18
 -1      3042 1.19977E-04-1.10004E-05-4.71170E-05-1.20038E-06 4.94011E-18-2.65193E-18
 -1      3043 1.29526E-04-3.33013E-05-4.15069E-05 1.34111E-05 2.86339E-18 1.24651E-18
 -1      3044 1.42828E-04-5.09425E-05-3.98510E-05-9.84670E-06-3.08796E-19 2.46190E-18
 -1      3045 8.32351E-05-4.26375E-05-1.69286E-05 3.46790E-05 3.14810E-18 3.03238E-19
 -1      3046 9.89661E-05-5.08392E-05-2.04775E-05-3.50184E-05-2.02144E-18-2.12359E-18
 -1      3047 4.31766E-05-1.61432E-05-1.08988E-05-1.05408E-05 1.07618E-18 4.23072E-18
 -1      3048 9.71149E-05-2.76354E-05-2.97826E-05 1.20251E-05 6.96445E-20-4.68753E-18
 -1      3049 9.80862E-05-2.86175E-05-2.97465E-05 1.09790E-05-1.00761E-18-3.50068E-18
 -1      3050 9.93951E-05-3.04415E-05-2.95676E-05 1.12018E-05-9.56026E-19-3.28089E-18
 -1      3051 9.75733E-05-2.92134E-05-2.93253E-05 1.35548E-05 7.91453E-19-3.78140E-18
 -1      3052 9.03524E-05-1.48777E-05-3.23663E-05-2.17929E-06-5.72768E-19-2.68121E-18
 -1      3053 9.05364E-05-1.51412E-05-3.23340E-05-3.13046E-06-9.77160E-19-2.76776E-18
 -1      3054 9.17850E-05-1.71626E-05-3.19661E-05-3.14604E-06-9.92030E-19-2.49326E-18
 -1      3055 9.14116E-05-1.65800E-05-3.20581E-05-1.58465E-06-5.66086E-19-2.54712E-18
 -1      3056 9.28226E-05-1.84332E-05-3.18796E-05-7.47596E-06-2.49946E-18-1.92329E-18
 -1      3057 1.24690E-04-5.82496E-05-2.84764E-05-1.85410E-05-1.21454E-18-2.49981E-19
 -1      3058 9.46130E-05-2.24678E-05-3.09123E-05 5.69689E-06 2.64199E-18-7.71253E-19
 -1      3059 1.31584E-04-5.65981E-05-3.22045E-05 1.50546E-06 1.26975E-18 1.34419E-18
 -1      3060 1.21706E-04-6.03934E-05-2.60301E-05 2.82172E-05-4.95355E-19-6.29716E-19
 -1      3061 1.15103E-04-5.65852E-05-2.48405E-05 2.95790E-05-9.83299E-19-1.36677E-19
 -1      3062 1.26787E-04-6.06253E-05-2.87392E-05 2.08520E-05-8.70962E-19-5.86014E-19
 -1      3063 1.42795E-04-3.58001E-05-4.62859E-05-1.67844E-05-3.02888E-18 2.75370E-18
 -1      3064 1.17061E-04-5.78655E-05-2.50519E-05 2.34435E-05 2.53686E-18 1.05595E-18
 -1      3065 1.18114E-04-1.74706E-05-4.36135E-05-8.84152E-06 3.96178E-18-2.24739E-18
 -1      3066 1.22880E-04-2.42617E-05-4.25413E-05-1.21657E-05 3.92504E-18-2.93772E-18
 -1      3067 9.42750E-05-2.18528E-05-3.10596E-05 4.97669E-06 2.28439E-18-9.73963E-19
 -1      3068 9.38160E-05-2.09116E-05-3.12456E-05 4.62989E-06 1.99482E-18-1.19109E-18
 -1      3069 4.29037E-05-1.54055E-05-1.13862E-05 1.45652E-05 2.82779E-18-1.78840E-18
 -1      3070 3.88413E-05-1.23755E-05-1.09855E-05 1.01263E-06 1.67145E-18-4.52739E-18
 -1      3071 1.22753E-04-5.82379E-05-2.77602E-05 1.68773E-05 2.16645E-18 5.17736E-19
 -1      3072 1.09807E-04-5.32172E-05-2.37837E-05 2.56023E-05 2.45041E-18 5.64362E-19
 -1      3073 9.50964E-05-2.39262E-05-3.04984E-05-3.68072E-06-1.64511E-18-1.24814E-18
 -1      3074 9.52609E-05-2.49224E-05-3.01631E-05-2.59080E-06-1.46440E-18-1.13868E-18
 -1      3075 9.55612E-05-2.58205E-05-2.98755E-05-1.82240E-06-1.31401E-18-9.39508E-19
 -1      3076 9.55999E-05-2.64765E-05-2.96357E-05-1.08600E-06-1.26135E-18-9.09703E-19
 -1      3077 9.53639E-05-2.48119E-05-3.02325E-05-2.28538E-06-1.30872E-18-1.30055E-18
 -1      3078 9.57271E-05-2.70485E-05-2.94211E-05-5.45480E-07-1.10861E-18-8.19745E-19
 -1      3079 9.57077E-05-2.74680E-05-2.92527E-05-7.10431E-08-9.56858E-19-7.88115E-19
 -1      3080 9.57831E-05-2.64296E-05-2.97241E-05-9.43107E-07-1.18444E-18-1.10361E-18
 -1      3081 9.57429E-05-2.78287E-05-2.90964E-05 2.73535E-07-9.01473E-19-8.58371E-19
 -1      3082 9.57104E-05-2.80961E-05-2.89814E-05 5.55205E-07-8.80135E-19-9.17148E-19
 -1      3083 9.59514E-05-2.74847E-05-2.93457E-05-2.64363E-08-1.07074E-18-1.13907E-18
 -1      3084 9.56978E-05-2.83175E-05-2.88704E-05 7.51966E-07-7.94674E-19-6.76120E-19
 -1      3085 9.56682E-05-2.84843E-05-2.87947E-05 8.99418E-07-7.66352E-19-5.77101E-19
 -1      3086 9.59819E-05-2.81587E-05-2.90705E-05 5.43725E-07-8.30560E-19-1.06240E-18
 -1      3087 9.56328E-05-2.86130E-05-2.87183E-05 9.92775E-07-6.63170E-19-5.29204E-19
 -1      3088 9.56107E-05-2.87121E-05-2.86710E-05 1.05131E-06-5.22559E-19-5.22481E-19
 -1      3089 9.59417E-05-2.85732E-05-2.88755E-05 8.58748E-07-6.90506E-19-7.36581E-19
 -1      3090 9.55661E-05-2.87787E-05-2.86206E-05 1.07671E-06-5.12888E-19-6.36580E-19
 -1      3091 9.55515E-05-2.88313E-05-2.85936E-05 1.08000E-06-5.92075E-19-8.65948E-19
 -1      3092 9.58686E-05-2.88110E-05-2.87419E-05 9.98088E-07-5.91300E-19-7.76907E-19
 -1      3093 9.55049E-05-2.88560E-05-2.85626E-05 1.06456E-06-6.12510E-19-9.33253E-19
 -1      3094 9.54965E-05-2.88765E-05-2.85501E-05 1.03717E-06-6.69040E-19-9.19743E-19
 -1      3095 9.57832E-05-2.89282E-05-2.86546E-05 1.02462E-06-5.97700E-19-7.76483E-19
 -1      3096 9.54516E-05-2.88728E-05-2.85334E-05 1.00099E-06-5.63004E-19-6.05959E-19
 -1      3097 9.54478E-05-2.88708E-05-2.85313E-05 9.60676E-07-7.13103E-19-5.87697E-19
 -1      3098 9.56962E-05-2.89629E-05-2.86020E-05 9.86214E-07-6.20390E-19-6.15077E-19
 -1      3099 9.54059E-05-2.88477E-05-2.85253E-05 9.18458E-07-8.07736E-19-6.45695E-19
 -1      3100 9.54056E-05-2.88295E-05-2.85307E-05 8.78116E-07-5.35413E-19-6.03717E-19
 -1      3101 9.56128E-05-2.89406E-05-2.85754E-05 9.18364E-07-6.97440E-19-3.12213E-19
 -1      3102 9.53667E-05-2.87923E-05-2.85327E-05 8.40668E-07-6.37658E-19-2.52323E-19
 -1      3103 9.53689E-05-2.87619E-05-2.85438E-05 8.09890E-07-5.94424E-19-2.37749E-19
 -1      3104 9.55347E-05-2.88782E-05-2.85684E-05 8.47238E-07-6.18913E-19-2.67109E-19
 -1      3105 9.53323E-05-2.87136E-05-2.85521E-05 7.85387E-07-8.39589E-20-2.03382E-19
 -1      3106 9.53362E-05-2.86729E-05-2.85677E-05 7.71671E-07-4.00779E-19 1.92223E-20
 -1      3107 9.54613E-05-2.87856E-05-2.85763E-05 7.92387E-07-4.01756E-19 2.97310E-19
 -1      3108 9.53002E-05-2.86146E-05-2.85811E-05 7.66672E-07-6.61270E-19 2.80690E-19
 -1      3109 9.53054E-05-2.85642E-05-2.86009E-05 7.76380E-07-3.53759E-19 5.60676E-19
 -1      3110 9.53902E-05-2.86676E-05-2.85961E-05 7.69016E-07-3.07809E-19 4.97971E-19
 -1      3111 9.52677E-05-2.84951E-05-2.86188E-05 7.96624E-07-6.79047E-19 8.52536E-20
 -1      3112 9.52737E-05-2.84344E-05-2.86426E-05 8.35702E-07-6.46823E-19 5.81451E-20
 -1      3113 9.53176E-05-2.85252E-05-2.86258E-05 7.89798E-07-8.75935E-19 5.57265E-19
 -1      3114 9.52311E-05-2.83526E-05-2.86646E-05 8.86708E-07-3.61509E-19-4.84763E-21
 -1      3115 9.52372E-05-2.82800E-05-2.86928E-05 9.61228E-07-6.05262E-21 1.78762E-19
 -1      3116 9.52383E-05-2.83558E-05-2.86641E-05 8.66253E-07-5.06512E-19 4.77952E-19
 -1      3117 9.51858E-05-2.81824E-05-2.87186E-05 1.04871E-06 2.03890E-19 4.20831E-20
 -1      3118 9.51912E-05-2.80955E-05-2.87516E-05 1.16524E-06 4.06088E-20 1.95209E-19
 -1      3119 9.51453E-05-2.81545E-05-2.87102E-05 1.00974E-06 4.60185E-20 3.18342E-20
 -1      3120 9.51257E-05-2.79783E-05-2.87810E-05 1.29536E-06-1.56506E-20-1.06215E-19
 -1      3121 9.51289E-05-2.78741E-05-2.88192E-05 1.46115E-06 1.03968E-19-1.65092E-19
 -1      3122 9.50299E-05-2.79140E-05-2.87634E-05 1.23211E-06 2.51525E-20 2.63885E-19
 -1      3123 9.50428E-05-2.77326E-05-2.88517E-05 1.64062E-06 3.90169E-19-1.77127E-19
 -1      3124 9.50416E-05-2.76078E-05-2.88953E-05 1.86363E-06 5.28251E-19 2.26055E-20
 -1      3125 9.48805E-05-2.76253E-05-2.88225E-05 1.54596E-06 2.60123E-19-1.83265E-19
 -1      3126 9.49266E-05-2.74369E-05-2.89298E-05 2.09961E-06 2.94079E-19 2.49948E-19
 -1      3127 9.49177E-05-2.72883E-05-2.89783E-05 2.38827E-06-1.39771E-19 3.65695E-19
 -1      3128 9.46827E-05-2.72785E-05-2.88856E-05 1.96460E-06 3.89874E-19 3.62834E-19
 -1      3129 9.47635E-05-2.70833E-05-2.90128E-05 2.68821E-06-1.53672E-19 6.42670E-19
 -1      3130 9.47424E-05-2.69091E-05-2.90650E-05 3.05094E-06 1.10548E-19 5.41236E-19
 -1      3131 9.44184E-05-2.68638E-05-2.89489E-05 2.50170E-06-3.70374E-20 5.27690E-21
 -1      3132 9.45368E-05-2.66669E-05-2.90958E-05 3.42229E-06-3.07440E-19-1.57358E-19
 -1      3133 9.44987E-05-2.64680E-05-2.91488E-05 3.86671E-06-4.08311E-19-2.73830E-19
 -1      3134 9.40656E-05-2.63735E-05-2.90063E-05 3.17064E-06-5.40249E-19 2.32676E-21
 -1      3135 9.42283E-05-2.61896E-05-2.91701E-05 4.31669E-06-5.46454E-19-5.33513E-19
 -1      3136 9.41691E-05-2.59735E-05-2.92187E-05 4.84853E-06-5.84594E-19-8.36756E-19
 -1      3137 9.35990E-05-2.58060E-05-2.90475E-05 3.98405E-06-8.19946E-19-5.29329E-19
 -1      3138 9.38216E-05-2.56682E-05-2.92215E-05 5.38446E-06-4.54630E-19-1.34280E-18
 -1      3139 9.37424E-05-2.54547E-05-2.92572E-05 6.00627E-06-1.62941E-19-1.27783E-18
 -1      3140 9.29926E-05-2.51724E-05-2.90569E-05 4.95394E-06-1.01232E-18-9.60635E-19
 -1      3141 9.33116E-05-2.51480E-05-2.92280E-05 6.63702E-06 7.18943E-20-7.11139E-19
 -1      3142 9.32269E-05-2.49798E-05-2.92380E-05 7.34703E-06 1.85585E-19-3.10837E-19
 -1      3143 9.22265E-05-2.45078E-05-2.90108E-05 6.09387E-06 2.27843E-20-6.21393E-19
 -1      3144 9.27224E-05-2.47252E-05-2.91585E-05 8.08675E-06 7.70349E-20-7.90601E-19
 -1      3145 9.26768E-05-2.46843E-05-2.91255E-05 8.87828E-06 5.42698E-19-1.31115E-18
 -1      3146 9.12998E-05-2.38905E-05-2.88760E-05 7.42535E-06-2.14616E-19-8.08597E-19
 -1      3147 9.21426E-05-2.45831E-05-2.89715E-05 9.75341E-06 7.97937E-19-1.20690E-18
 -1      3148 9.22391E-05-2.48154E-05-2.88749E-05 1.06143E-05 9.10318E-19-1.63560E-18
 -1      3149 9.02566E-05-2.34724E-05-2.86079E-05 8.99163E-06 3.76870E-19-9.61003E-19
 -1      3150 9.17865E-05-2.50435E-05-2.86186E-05 1.16717E-05 9.26327E-19-2.21957E-18
 -1      3151 9.22330E-05-2.57908E-05-2.84408E-05 1.25791E-05 5.58544E-19-1.74707E-18
 -1      3152 8.92339E-05-2.35254E-05-2.81513E-05 1.08799E-05 4.74202E-19-1.57899E-18
 -1      3153 9.20923E-05-2.66290E-05-2.80575E-05 1.38956E-05 7.09624E-19-1.76657E-18
 -1      3154 9.32574E-05-2.82720E-05-2.77996E-05 1.48008E-05-1.68741E-20-1.31262E-18
 -1      3155 8.85363E-05-2.45024E-05-2.74474E-05 1.32422E-05 7.77086E-19-2.53538E-18
 -1      3156 9.39019E-05-3.01272E-05-2.72903E-05 1.63953E-05-4.84966E-19-9.70621E-19
 -1      3157 9.63198E-05-3.31385E-05-2.70046E-05 1.71631E-05-7.66571E-20-2.54552E-19
 -1      3158 8.88179E-05-2.71937E-05-2.64569E-05 1.63202E-05 2.71218E-19-1.53089E-18
 -1      3159 9.85953E-05-3.66358E-05-2.64411E-05 1.87660E-05 1.51132E-19-1.19352E-19
 -1      3160 1.03194E-04-4.13491E-05-2.64150E-05 1.88775E-05 1.12170E-18-3.52197E-19
 -1      3161 9.13487E-05-3.27072E-05-2.52559E-05 2.01634E-05 5.23308E-20-8.52245E-19
 -1      3162 1.12264E-04-4.83775E-05-2.73816E-05-2.04589E-05 2.13144E-18 1.91328E-18
 -1      3163 1.06959E-04-4.30663E-05-2.71850E-05-2.16116E-05 3.10324E-18 2.03830E-18
 -1      3164 1.03017E-04-3.85498E-05-2.75650E-05-2.09155E-05 2.84629E-18 1.73775E-18
 -1      3165 9.94765E-05-3.44446E-05-2.77739E-05-2.08274E-05 2.53125E-18 1.43171E-18
 -1      3166 9.97534E-05-3.94520E-05-2.59376E-05-2.48241E-05 2.45825E-18 1.68922E-18
 -1      3167 9.80143E-05-3.17864E-05-2.83299E-05-1.95460E-05 2.28328E-18 1.00018E-18
 -1      3168 9.59566E-05-2.89366E-05-2.86766E-05-1.87332E-05 1.74676E-18 1.42463E-18
 -1      3169 9.29710E-05-2.69891E-05-2.83300E-05-1.88992E-05 2.69397E-18 1.19096E-18
 -1      3170 9.47876E-05-3.17136E-05-2.71046E-05-2.18056E-05 2.30585E-18-2.81407E-20
 -1      3171 9.53709E-05-2.79573E-05-2.88955E-05-4.67318E-07 9.90023E-19-4.70774E-19
 -1      3172 9.54255E-05-2.77001E-05-2.90122E-05-1.36412E-07 9.48878E-19-2.36017E-19
 -1      3173 9.52263E-05-2.87575E-05-2.84856E-05-1.09081E-06 5.94767E-19-5.62883E-19
 -1      3174 9.52129E-05-2.87263E-05-2.84927E-05-1.11821E-06 9.04121E-19-4.98693E-19
 -1      3175 9.52442E-05-2.86946E-05-2.85207E-05-1.12729E-06 8.59643E-19-4.80923E-19
 -1      3176 9.52402E-05-2.86342E-05-2.85422E-05-1.11828E-06 7.99633E-19-2.37557E-19
 -1      3177 9.55271E-05-2.88055E-05-2.85976E-05-1.09415E-06 8.93683E-19-2.38227E-19
 -1      3178 9.52169E-05-2.87588E-05-2.84805E-05-9.17825E-07 1.57977E-19 8.73781E-20
 -1      3179 9.51949E-05-2.87629E-05-2.84713E-05-9.65230E-07 5.42635E-19-3.23174E-19
 -1      3180 9.52209E-05-2.87202E-05-2.84986E-05-8.33552E-07 1.58114E-19 3.53338E-19
 -1      3181 9.51973E-05-2.87352E-05-2.84847E-05-8.74018E-07 1.88126E-19 3.34679E-19
 -1      3182 9.53842E-05-2.88270E-05-2.85257E-05-9.04040E-07-4.85996E-20-4.66250E-20
 -1      3183 9.52291E-05-2.86642E-05-2.85259E-05-7.74317E-07 1.83493E-19 3.26935E-19
 -1      3184 9.52043E-05-2.86876E-05-2.85084E-05-8.00372E-07 2.21271E-19 3.88025E-19
 -1      3185 9.53490E-05-2.87652E-05-2.85368E-05-8.31220E-07 1.82880E-19 2.32730E-19
 -1      3186 9.52409E-05-2.85939E-05-2.85608E-05-7.52785E-07 4.51087E-19 5.96935E-19
 -1      3187 9.52145E-05-2.86242E-05-2.85402E-05-7.58522E-07 3.16258E-19 3.75680E-19
 -1      3188 9.53182E-05-2.86828E-05-2.85587E-05-7.85590E-07 1.80650E-19 2.88707E-19
 -1      3189 9.52565E-05-2.85110E-05-2.86027E-05-7.79556E-07-1.22132E-19 1.27327E-18
 -1      3190 9.52275E-05-2.85473E-05-2.85790E-05-7.59944E-07 1.04166E-19 1.09870E-18
 -1      3191 9.52903E-05-2.85831E-05-2.85894E-05-7.79991E-07 1.12505E-20 7.96145E-19
 -1      3192 9.52766E-05-2.84161E-05-2.86517E-05-8.64192E-07 2.44295E-19 1.37480E-18
 -1      3193 9.52435E-05-2.84577E-05-2.86244E-05-8.14638E-07 1.98957E-19 1.31850E-18
 -1      3194 9.52636E-05-2.84671E-05-2.86275E-05-8.25344E-07-1.59203E-19 9.39407E-19
 -1      3195 9.53030E-05-2.83099E-05-2.87080E-05-1.01576E-06 3.85250E-20 1.09104E-18
 -1      3196 9.52636E-05-2.83561E-05-2.86767E-05-9.31919E-07 1.54773E-19 1.41025E-18
 -1      3197 9.52370E-05-2.83351E-05-2.86727E-05-9.31624E-07 1.16281E-19 1.03600E-18
 -1      3198 9.53384E-05-2.81941E-05-2.87723E-05-1.24288E-06 3.70877E-19 9.94957E-19
 -1      3199 9.52897E-05-2.82434E-05-2.87365E-05-1.12073E-06 3.12110E-19 1.30386E-18
 -1      3200 9.52099E-05-2.81873E-05-2.87243E-05-1.10836E-06 2.15744E-19 7.74506E-19
 -1      3201 9.53874E-05-2.80728E-05-2.88447E-05-1.55318E-06-2.02804E-19 2.67868E-19
 -1      3202 9.53255E-05-2.81223E-05-2.88040E-05-1.38943E-06 9.72761E-20 7.80538E-19
 -1      3203 9.51827E-05-2.80255E-05-2.87821E-05-1.36466E-06 4.86477E-19 1.17256E-18
 -1      3204 9.54571E-05-2.79544E-05-2.89248E-05-1.95209E-06-1.11904E-19 6.48088E-19
 -1      3205 9.53768E-05-2.79988E-05-2.88791E-05-1.74495E-06-5.54083E-20 7.71369E-19
 -1      3206 9.51581E-05-2.78545E-05-2.88449E-05-1.70866E-06-1.09106E-19 8.31203E-19
 -1      3207 9.55594E-05-2.78541E-05-2.90111E-05-2.44082E-06 1.43300E-19 7.17768E-19
 -1      3208 9.54533E-05-2.78845E-05-2.89609E-05-2.19124E-06 1.21399E-21 5.81220E-19
 -1      3209 9.51424E-05-2.76849E-05-2.89110E-05-2.14638E-06 3.63737E-20 1.28170E-18
 -1      3210 9.57125E-05-2.77970E-05-2.91008E-05-3.01323E-06-3.64606E-19 1.31192E-18
 -1      3211 9.55704E-05-2.77994E-05-2.90474E-05-2.72674E-06 3.00578E-20 9.05883E-19
 -1      3212 9.51479E-05-2.75363E-05-2.89774E-05-2.67983E-06-2.30844E-19 1.41763E-18
 -1      3213 9.59455E-05-2.78230E-05-2.91893E-05-3.65157E-06 2.60084E-19 7.13426E-19
 -1      3214 9.57526E-05-2.77758E-05-2.91349E-05-3.34079E-06 2.82103E-19 1.00571E-18
 -1      3215 9.51963E-05-2.74410E-05-2.90398E-05-3.30410E-06 1.29073E-20 1.47969E-18
 -1      3216 9.63024E-05-2.79907E-05-2.92707E-05-4.32068E-06-7.64191E-21 7.22971E-19
 -1      3217 9.60376E-05-2.78630E-05-2.92182E-05-4.00856E-06-1.77014E-21 8.28814E-19
 -1      3218 9.53242E-05-2.74497E-05-2.90922E-05-4.00351E-06 1.06441E-19 1.51935E-18
 -1      3219 9.68485E-05-2.83817E-05-2.93381E-05-4.96042E-06 3.63873E-19 8.81457E-19
 -1      3220 9.64825E-05-2.81317E-05-2.92909E-05-4.68430E-06 2.90656E-19 5.87401E-19
 -1      3221 9.55893E-05-2.76369E-05-2.91280E-05-4.74598E-06 3.38021E-19 3.78886E-19
 -1      3222 9.76751E-05-2.91005E-05-2.93863E-05-5.47616E-06-2.21902E-19 7.27786E-19
 -1      3223 9.71696E-05-2.86769E-05-2.93472E-05-5.29232E-06 3.55343E-19 1.04558E-18
 -1      3224 9.60792E-05-2.81054E-05-2.91411E-05-5.47539E-06 2.03591E-19 1.15563E-18
 -1      3225 9.88996E-05-3.02648E-05-2.94158E-05-5.72733E-06-1.25253E-18 1.33423E-18
 -1      3226 9.82103E-05-2.96140E-05-2.93847E-05-5.71548E-06-6.70871E-19 1.01150E-18
 -1      3227 9.69184E-05-2.89856E-05-2.91296E-05-6.10026E-06-3.43715E-19 6.83620E-19
 -1      3228 1.00651E-04-3.19737E-05-2.94404E-05-5.51542E-06-1.44049E-19 9.44071E-19
 -1      3229 9.97394E-05-3.10601E-05-2.94107E-05-5.78109E-06-7.19377E-19 1.04235E-18
 -1      3230 9.82703E-05-3.04224E-05-2.91016E-05-6.47739E-06-6.74673E-19 1.32537E-18
 -1      3231 1.03024E-04-3.42364E-05-2.94980E-05-4.57763E-06-5.25490E-19 5.93041E-19
 -1      3232 1.01887E-04-3.30850E-05-2.94514E-05-5.24716E-06-3.20335E-19 4.59316E-19
 -1      3233 1.00321E-04-3.25340E-05-2.90855E-05-6.38873E-06-1.80307E-19 4.66700E-19
 -1      3234 1.05981E-04-3.68412E-05-2.96637E-05-2.60798E-06-8.61553E-19 4.45690E-19
 -1      3235 1.04703E-04-3.56102E-05-2.95646E-05-3.80204E-06-4.92754E-19 4.19413E-19
 -1      3236 1.03220E-04-3.53178E-05-2.91440E-05-5.51696E-06-5.76250E-19-3.05900E-19
 -1      3237 1.09197E-04-3.91722E-05-3.00571E-05 6.39232E-07-1.05336E-18 4.36009E-19
 -1      3238 1.08009E-04-3.82366E-05-2.98526E-05-1.11791E-06-1.06313E-18 1.02546E-18
 -1      3239 1.06950E-04-3.84757E-05-2.93915E-05-3.44724E-06-1.14353E-18-3.76156E-19
 -1      3240 1.11858E-04-4.00565E-05-3.08187E-05 5.01063E-06-9.55119E-19 1.93104E-19
 -1      3241 1.11173E-04-4.00314E-05-3.04556E-05 2.92459E-06-1.14873E-18 1.94358E-19
 -1      3242 1.11018E-04-4.11456E-05-3.00025E-05 2.69257E-07-9.88703E-19 6.13381E-19
 -1      3243 1.12868E-04-3.80496E-05-3.20751E-05 9.82712E-06-5.37518E-19 1.01025E-18
 -1      3244 1.13227E-04-3.96961E-05-3.15084E-05 7.92105E-06-8.77488E-19 9.61953E-19
 -1      3245 1.14615E-04-4.18093E-05-3.12156E-05 5.54299E-06-1.64105E-18 6.16928E-19
 -1      3246 1.11275E-04-3.24361E-05-3.37541E-05 1.26904E-05 8.79505E-19 1.73884E-18
 -1      3247 1.12608E-04-3.57391E-05-3.30570E-05 1.19977E-05 2.80363E-19 1.42221E-18
 -1      3248 1.15568E-04-3.83821E-05-3.30277E-05 1.09895E-05-4.47975E-19 1.42594E-18
 -1      3249 1.07516E-04-2.47386E-05-3.54478E-05 1.10882E-05 2.49681E-18 2.01137E-18
 -1      3250 1.09323E-04-2.84326E-05-3.48351E-05 1.27396E-05 1.54976E-18 1.88378E-18
 -1      3251 1.13597E-04-3.12832E-05-3.52761E-05 1.36385E-05 1.21447E-18 1.60828E-18
 -1      3252 1.04568E-04-1.96008E-05-3.64553E-05 4.41676E-06 2.32516E-18 1.63223E-18
 -1      3253 1.05614E-04-2.14482E-05-3.61957E-05 7.99502E-06 2.92166E-18 1.99785E-18
 -1      3254 1.09408E-04-2.24941E-05-3.73865E-05 1.04842E-05 2.56106E-18 1.82234E-18
 -1      3255 1.04929E-04-2.06503E-05-3.62095E-05-4.03314E-06 8.54577E-19 1.30643E-18
 -1      3256 1.04523E-04-1.94746E-05-3.64933E-05-5.19020E-07 1.32766E-18 1.35635E-18
 -1      3257 1.06996E-04-1.78945E-05-3.83538E-05 2.02284E-06 1.92599E-18 6.41151E-19
 -1      3258 1.11384E-04-2.65126E-05-3.65387E-05-9.87860E-06 2.20623E-18-1.64634E-18
 -1      3259 1.09373E-04-2.24871E-05-3.73129E-05-7.94687E-06 1.32972E-18-9.53724E-19
 -1      3260 1.12948E-04-3.96199E-05-3.14582E-05-5.01003E-06-2.13206E-20-3.48060E-18
 -1      3261 1.12693E-04-3.79710E-05-3.20297E-05-6.87465E-06 9.35334E-19-3.08896E-18
 -1      3262 1.11002E-04-4.01068E-05-3.03584E-05 7.54026E-08-1.72792E-18-4.48816E-18
 -1      3263 1.11785E-04-4.01319E-05-3.07510E-05-2.13772E-06-3.65212E-19-3.61288E-18
 -1      3264 1.14989E-04-4.19877E-05-3.12876E-05-2.54758E-06 2.06157E-19-5.12003E-18
 -1      3265 1.07545E-04-3.79434E-05-2.97786E-05 4.23692E-06-3.48945E-18-2.92050E-18
 -1      3266 1.08925E-04-3.90985E-05-2.99773E-05 2.47584E-06-3.42791E-18-3.97368E-18
 -1      3267 1.11599E-04-4.13872E-05-3.01265E-05 2.94858E-06-2.63829E-18-4.31423E-18
 -1      3268 1.03766E-04-3.46175E-05-2.95917E-05 6.72842E-06-2.37395E-18-1.77425E-18
 -1      3269 1.05307E-04-3.62180E-05-2.96469E-05 5.72831E-06-3.01151E-18-2.87680E-18
 -1      3270 1.07209E-04-3.82259E-05-2.96079E-05 6.72618E-06-3.39718E-18-4.19084E-18
 -1      3271 1.01284E-04-3.21795E-05-2.95972E-05 8.05520E-06-2.21949E-18-2.81809E-18
 -1      3272 1.02422E-04-3.34535E-05-2.95867E-05 7.47560E-06-1.59070E-18-1.66129E-18
 -1      3273 1.03688E-04-3.49349E-05-2.94935E-05 8.71668E-06-2.04699E-18-4.53665E-18
 -1      3274 1.01116E-04-3.21001E-05-2.95677E-05 9.59592E-06-2.15623E-18-3.96133E-18
 -1      3275 7.71720E-05-1.57783E-05-2.63471E-05 2.42332E-07 2.82777E-19 3.74605E-18
 -1      3276 7.79788E-05-1.63218E-05-2.63961E-05 4.47797E-06 4.79816E-19 3.08016E-18
 -1      3277 8.03105E-05-1.83438E-05-2.66462E-05 9.17555E-06 7.03524E-19 9.42190E-19
 -1      3278 8.30244E-05-1.99804E-05-2.68790E-05 1.21949E-05 6.43368E-19-1.69592E-18
 -1      3279 7.70421E-05-1.79161E-05-2.52562E-05 8.18736E-06 1.40207E-18 1.47234E-18
 -1      3280 1.18202E-04-1.86543E-05-4.28124E-05 1.28366E-05 3.85464E-18 1.64851E-18
 -1      3281 1.15539E-04-1.36505E-05-4.41331E-05 7.52155E-06 4.03802E-18 4.83848E-19
 -1      3282 9.20773E-05-4.52419E-05-2.02585E-05 3.21562E-05 2.15273E-18 5.33260E-19
 -1      3283 7.60293E-05-3.55444E-05-1.67539E-05 3.22546E-05 2.49462E-18 3.83388E-19
 -1      3284 1.27624E-04-5.87679E-05-2.93782E-05 1.13726E-05 1.78817E-18 6.14390E-19
 -1      3285 1.18395E-04-5.69193E-05-2.59771E-05-2.49475E-05 2.20223E-18 2.76287E-18
 -1      3286 1.28781E-04-5.99393E-05-2.97602E-05-1.55048E-05 2.86400E-18 3.58471E-18
 -1      3287 1.03096E-04-4.97406E-05-2.28842E-05 3.29446E-05-1.07020E-18 1.25467E-18
 -1      3288 9.17728E-05-4.27236E-05-2.05964E-05 3.46455E-05-7.23472E-19 3.99217E-19
 -1      3289 8.99169E-05-4.23725E-05-1.98870E-05-3.48984E-05 2.24728E-18 3.23641E-18
 -1      3290 1.04865E-04-5.17250E-05-2.29773E-05-3.29812E-05 1.52074E-18 3.17796E-18
 -1      3291 5.35422E-05-1.70172E-05-1.55594E-05 1.58398E-05 3.91753E-21 2.38503E-18
 -1      3292 4.99373E-05-1.43951E-05-1.47551E-05 6.55732E-06 1.99403E-19 3.70879E-18
 -1      3293 7.91639E-05-1.68864E-05-2.66363E-05-9.17088E-06 1.13600E-18 4.60832E-18
 -1      3294 7.76056E-05-1.60207E-05-2.64507E-05-5.12630E-06 1.20020E-19 4.72805E-18
 -1      3295 7.48609E-05-1.60690E-05-2.50795E-05-2.58130E-06 8.12859E-19 3.82171E-18
 -1      3296 8.51136E-05-2.08917E-05-2.74599E-05-1.56703E-05 3.09553E-18 4.18630E-18
 -1      3297 8.20536E-05-1.90703E-05-2.70836E-05-1.32319E-05 2.27995E-18 5.03947E-18
 -1      3298 7.87446E-05-1.86192E-05-2.57004E-05-1.25392E-05 2.04957E-18 5.60706E-18
 -1      3299 9.52180E-05-2.87743E-05-2.84745E-05-1.01088E-06 7.15429E-19-4.85124E-19
 -1      3300 9.51990E-05-2.87637E-05-2.84720E-05-1.05522E-06 5.44316E-19-5.16447E-19
 -1      3301 9.54726E-05-2.88605E-05-2.85501E-05-1.06104E-06 6.48422E-19-3.76618E-19
 -1      3302 9.54250E-05-2.88622E-05-2.85284E-05-9.87837E-07 4.47269E-19-2.72581E-19
 -1      3303 1.34384E-04-5.95263E-05-3.19158E-05-7.46501E-06 3.24936E-18 2.63777E-18
 -1      3304 6.01709E-05-2.35302E-05-1.52467E-05-2.68729E-05 1.61487E-18 4.59272E-18
 -1      3305 7.37588E-05-3.26480E-05-1.76384E-05-3.38103E-05 1.84272E-18 4.31246E-18
 -1      3306 6.18251E-05-2.79971E-05-1.43853E-05 3.00974E-05 2.69092E-18-1.26441E-18
 -1      3307 5.11779E-05-2.06884E-05-1.25612E-05 2.31576E-05 2.97849E-18-9.77053E-19
 -1      3308 1.28289E-04-5.22038E-05-3.25887E-05-2.54362E-07-1.32442E-18 1.48922E-18
 -1      3309 1.29106E-04-4.71104E-05-3.56391E-05 7.46616E-06 6.66377E-20 2.76292E-18
 -1      3310 1.14435E-04-1.16914E-05-4.44476E-05 2.31612E-06 4.31309E-18-8.00320E-19
 -1      3311 1.15194E-04-1.30029E-05-4.41070E-05-4.06864E-06 4.44385E-18-1.13510E-18
 -1      3312 9.52118E-05-2.42780E-05-3.04017E-05 4.27751E-06 2.31470E-18-7.53364E-19
 -1      3313 9.46398E-05-2.27360E-05-3.08057E-05 4.77928E-06 2.29840E-18-8.54712E-19
 -1      3314 9.49183E-05-2.35914E-05-3.05683E-05 3.68143E-06 2.01597E-18-7.42944E-19
 -1      3315 9.52384E-05-2.52034E-05-3.00288E-05 3.00673E-06 1.99032E-18-6.00686E-19
 -1      3316 1.17291E-04-5.65515E-05-2.57361E-05-2.47691E-05-2.87838E-18-6.94726E-19
 -1      3317 1.22855E-04-5.55827E-05-2.89003E-05-1.34204E-05-2.23951E-18 9.70336E-19
 -1      3318 7.65505E-05-3.36869E-05-1.84318E-05 3.37694E-05-9.91399E-19 6.50098E-19
 -1      3319 6.17781E-05-2.29245E-05-1.62069E-05 2.58197E-05-1.18076E-18 2.05511E-18
 -1      3320 1.00671E-04-4.86296E-05-2.20618E-05-3.03034E-05-2.21954E-18-9.85271E-19
 -1      3321 1.26954E-04-3.73396E-05-3.83227E-05 1.34968E-05 1.95860E-18 2.52681E-18
 -1      3322 1.22620E-04-2.79289E-05-4.11529E-05 1.47432E-05 3.31714E-18 2.90040E-18
 -1      3323 4.14703E-05-1.30438E-05-1.16180E-05-9.87697E-06 1.05924E-18-4.53808E-18
 -1      3324 4.69408E-05-1.68352E-05-1.28121E-05-2.04713E-05-5.11661E-20-3.68533E-18
 -1      3325 9.34797E-05-1.98531E-05-3.15478E-05-6.23726E-06-2.16183E-18-1.87405E-18
 -1      3326 1.44880E-04-4.51357E-05-4.32658E-05-1.47058E-05-2.28302E-18 3.24752E-18
 -1      3327 9.23785E-05-1.83457E-05-3.17435E-05 1.81306E-06 8.52553E-19-2.28627E-18
 -1      3328 9.22584E-05-1.81435E-05-3.17755E-05 1.05842E-06 4.14170E-19-2.27907E-18
 -1      3329 4.71879E-05-1.39815E-05-1.39557E-05-3.83282E-06 1.18798E-18 3.85156E-18
 -1      3330 5.13902E-05-1.75335E-05-1.41776E-05-1.85001E-05 1.63464E-18 4.61696E-18
 -1      3331 6.29448E-05-2.06170E-05-1.76984E-05-2.03213E-05 9.81963E-19 4.41860E-18
 -1      3332 5.61885E-05-1.47592E-05-1.73893E-05-1.00137E-06 6.44341E-19 3.63843E-18
 -1      3333 5.92096E-05-2.39491E-05-1.44879E-05-2.86302E-05-1.70931E-18-2.80548E-18
 -1      3334 7.38057E-05-3.41004E-05-1.71272E-05-3.49356E-05-1.82387E-18-1.01570E-18
 -1      3335 1.35906E-04-5.39913E-05-3.54659E-05 1.97152E-06 1.10314E-18-6.91179E-19
 -1      3336 1.34173E-04-5.89439E-05-3.20781E-05 1.11294E-05-4.78527E-19-4.98744E-19
 -1      3337 1.27924E-04-5.75790E-05-3.02579E-05-1.15829E-05 2.82763E-18 2.40847E-18
 -1      3338 1.19877E-04-5.45581E-05-2.79984E-05 1.49367E-05 1.25906E-18 2.25476E-19
 -1      3339 9.21998E-05-1.80428E-05-3.17940E-05 4.10154E-07 1.67168E-19-2.25057E-18
 -1      3340 9.21961E-05-1.80396E-05-3.17945E-05-3.61089E-07-2.03477E-19-2.38924E-18
 -1      3341 9.31499E-05-1.96261E-05-3.14932E-05 6.28981E-07 2.19123E-19-1.94415E-18
 -1      3342 9.43610E-05-2.19913E-05-3.09900E-05 3.64415E-06 1.79306E-18-1.21705E-18
 -1      3343 9.34330E-05-2.02168E-05-3.14046E-05 4.24040E-06 1.86506E-18-1.65226E-18
 -1      3344 9.30716E-05-1.95526E-05-3.15182E-05 3.65722E-06 1.63033E-18-1.91497E-18
 -1      3345 4.65165E-05-1.30223E-05-1.38316E-05-3.07358E-06 9.36057E-19-3.73605E-18
 -1      3346 1.15122E-04-5.43907E-05-2.62733E-05 2.46740E-05-4.66106E-19-8.44446E-19
 -1      3347 1.09546E-04-5.21551E-05-2.43647E-05 2.92488E-05-1.25724E-18 7.06121E-19
 -1      3348 1.04939E-04-4.75421E-05-2.45030E-05 2.83127E-05-7.58862E-19 1.19965E-18
 -1      3349 1.17744E-04-5.22326E-05-2.80981E-05-1.26717E-05-2.70766E-18 1.21009E-18
 -1      3350 1.25170E-04-5.43917E-05-3.04336E-05-7.00937E-06-2.25855E-18 9.64721E-19
 -1      3351 1.23487E-04-5.00014E-05-3.14163E-05 3.39145E-08-2.11085E-18 1.11990E-18
 -1      3352 1.02103E-04-4.71347E-05-2.32448E-05 2.56322E-05 2.11038E-18-4.61898E-21
 -1      3353 9.04436E-05-3.76378E-05-2.24906E-05 2.59048E-05 1.21278E-18 3.23275E-19
 -1      3354 1.00667E-04-4.33379E-05-2.44155E-05 2.30723E-05 1.75075E-18 6.58436E-20
 -1      3355 9.30456E-05-1.95044E-05-3.15264E-05-3.61837E-06-1.30347E-18-2.24874E-18
 -1      3356 9.34222E-05-2.01759E-05-3.14135E-05-4.22982E-06-1.59385E-18-2.25886E-18
 -1      3357 1.14119E-04-5.01795E-05-2.73583E-05 1.70513E-05 1.60406E-18-7.49962E-19
 -1      3358 1.28440E-04-5.84436E-05-2.99405E-05 1.49322E-05-9.00528E-19-6.08011E-19
 -1      3359 9.27909E-05-1.90562E-05-3.16195E-05 3.12766E-06 1.46963E-18-2.06624E-18
 -1      3360 9.25527E-05-1.86411E-05-3.16872E-05 2.42566E-06 1.10227E-18-2.14311E-18
 -1      3361 9.33660E-05-2.00167E-05-3.14167E-05 1.80516E-06 8.79374E-19-1.89555E-18
 -1      3362 9.37765E-05-2.07954E-05-3.12554E-05 2.85273E-06 1.41015E-18-1.77806E-18
 -1      3363 1.21673E-04-5.38159E-05-2.87843E-05-1.60067E-05 2.24705E-18 1.54871E-18
 -1      3364 9.56946E-05-2.73386E-05-2.93007E-05 2.31313E-07 1.10910E-18-3.74843E-19
 -1      3365 9.54129E-05-2.73489E-05-2.91772E-05 2.79022E-07 9.50866E-19-1.42085E-19
 -1      3366 9.54728E-05-2.69396E-05-2.93560E-05 8.38383E-07 1.13624E-18-2.02602E-19
 -1      3367 7.33054E-05-3.09383E-05-1.77393E-05 2.83490E-05 1.82313E-18-4.65974E-19
 -1      3368 9.55870E-05-2.86729E-05-2.86809E-05-1.04655E-06 8.21779E-19-2.30697E-19
 -1      3369 9.52744E-05-2.85644E-05-2.85903E-05-1.07811E-06 7.15269E-19-3.45994E-19
 -1      3370 9.52852E-05-2.84621E-05-2.86329E-05-1.00529E-06 7.51107E-19-3.27595E-19
 -1      3371 1.11846E-04-3.20760E-05-3.41578E-05-9.80937E-06 2.98746E-18-1.58299E-18
 -1      3372 1.17303E-04-2.94173E-05-3.78145E-05-1.15038E-05 3.09797E-18-3.49496E-18
 -1      3373 1.17035E-04-3.88877E-05-3.35018E-05-8.20193E-06 2.46711E-18-3.72965E-18
 -1      3374 1.13472E-04-3.56257E-05-3.34483E-05-9.35644E-06 2.37586E-18-2.73555E-18
 -1      3375 9.36182E-05-2.79473E-05-2.81953E-05 1.64684E-05-5.52474E-20-2.30753E-18
 -1      3376 9.64493E-05-2.98217E-05-2.84925E-05 1.61527E-05 5.98488E-19-3.55221E-18
 -1      3377 9.25319E-05-1.86077E-05-3.16918E-05-2.37502E-06-7.64120E-19-2.27609E-18
 -1      3378 9.27609E-05-1.90101E-05-3.16257E-05-3.08887E-06-1.12003E-18-2.21860E-18
 -1      3379 9.37441E-05-2.07632E-05-3.12626E-05-2.79614E-06-1.18455E-18-2.00935E-18
 -1      3380 1.16885E-04-2.46715E-05-3.97392E-05 1.33006E-05 2.74701E-18 2.28085E-18
 -1      3381 8.65214E-05-2.30049E-05-2.73377E-05 1.49876E-05-4.24847E-19-4.09416E-18
 -1      3382 9.00649E-05-2.52562E-05-2.76662E-05 1.63722E-05-1.76461E-19-3.46243E-18
 -1      3383 9.20889E-05-2.88057E-05-2.71759E-05 1.81994E-05-3.17220E-19-3.42490E-18
 -1      3384 8.31611E-05-2.27254E-05-2.59957E-05 1.56972E-05 6.48781E-19-1.96839E-18
 -1      3385 1.23748E-04-3.05438E-05-4.01746E-05-1.13120E-05 3.09961E-18-3.84346E-18
 -1      3386 9.53853E-05-2.65035E-05-2.95305E-05 1.37678E-06 1.33553E-18-2.95421E-19
 -1      3387 9.54271E-05-2.58849E-05-2.97902E-05 2.23816E-06 1.59907E-18-3.84515E-19
 -1      3388 9.53425E-05-2.51642E-05-3.00720E-05 2.61538E-06 1.61890E-18-5.09114E-19
 -1      3389 9.55852E-05-2.64010E-05-2.96531E-05 1.24550E-06 1.15336E-18-3.22909E-19
 -1      3390 9.53493E-05-2.81711E-05-2.87818E-05-7.09717E-07 9.29490E-19-3.58901E-19
 -1      3391 9.56926E-05-2.80090E-05-2.90121E-05-4.68433E-07 9.46844E-19-5.08486E-19
 -1      3392 9.53180E-05-2.83351E-05-2.87087E-05-8.84783E-07 8.22648E-19-2.48891E-19
 -1      3393 5.26177E-05-1.78040E-05-1.43927E-05 1.69691E-05 2.33366E-18-1.38077E-18
 -1      3394 1.11838E-04-5.20884E-05-2.55048E-05-2.56830E-05 1.67792E-18 3.24626E-18
 -1      3395 8.66899E-05-3.65226E-05-2.11576E-05 3.04427E-05-5.94564E-19 5.88767E-19
 -1      3396 9.02300E-05-2.49913E-05-2.79323E-05-1.84046E-05 3.07549E-18 1.44698E-18
 -1      3397 8.74860E-05-2.29053E-05-2.77398E-05-1.73441E-05 3.15669E-18 1.26905E-18
 -1      3398 8.47567E-05-2.28937E-05-2.65155E-05-1.79869E-05 2.90214E-18 3.08756E-18
 -1      3399 9.08282E-05-2.69918E-05-2.72978E-05-1.98521E-05 3.42309E-18 8.29308E-19
 -1      3400 1.11522E-04-1.53295E-05-4.14881E-05 4.87759E-06 2.96705E-18 5.79066E-19
 -1      3401 6.47089E-05-2.07080E-05-1.85430E-05 1.91079E-05-7.54495E-19 1.43191E-18
 -1      3402 8.47641E-05-3.60058E-05-2.05789E-05-3.11739E-05 1.45862E-18 4.67342E-18
 -1      3403 5.87341E-05-2.06404E-05-1.58829E-05-2.23725E-05-1.36161E-18-2.61966E-18
 -1      3404 9.83853E-05-3.10121E-05-2.88803E-05 1.49281E-05-2.88758E-19-3.43666E-18
 -1      3405 9.98141E-05-3.19250E-05-2.90725E-05 1.38603E-05-6.25485E-19-2.73577E-18
 -1      3406 9.84439E-05-3.27220E-05-2.82179E-05 1.66951E-05-9.79690E-19-2.65494E-18
 -1      3407 1.24560E-04-4.09785E-05-3.58166E-05 1.10643E-05 4.26706E-19 1.62302E-18
 -1      3408 1.13564E-04-1.74649E-05-4.14186E-05-6.17529E-06 3.52959E-18-2.06528E-18
 -1      3409 1.29252E-04-4.36290E-05-3.69009E-05-8.16619E-06 2.98881E-18-4.51426E-18
 -1      3410 1.34367E-04-4.97419E-05-3.64347E-05-3.59192E-06 2.20686E-18-2.44851E-18
 -1      3411 1.31478E-04-5.18637E-05-3.40023E-05-4.03768E-08 1.81614E-18-1.74957E-18
 -1      3412 9.40829E-05-2.15472E-05-3.10962E-05-4.87231E-06-1.91386E-18-1.71947E-18
 -1      3413 9.38591E-05-4.33192E-05-2.11762E-05-3.08950E-05-1.86207E-18-2.52914E-19
 -1      3414 1.08284E-04-4.90991E-05-2.55188E-05-2.19718E-05-2.84585E-18-4.19678E-20
 -1      3415 8.74307E-05-3.73382E-05-2.12639E-05-2.80889E-05-1.87951E-18-2.24623E-19
 -1      3416 9.40710E-05-2.14845E-05-3.11037E-05-4.22482E-06-1.64304E-18-1.84232E-18
 -1      3417 1.12923E-04-5.09058E-05-2.66722E-05-2.27886E-05 1.95673E-18 3.71114E-18
 -1      3418 8.55001E-05-3.13380E-05-2.30629E-05 2.25140E-05 1.04299E-18-4.98644E-19
 -1      3419 8.03345E-05-3.19514E-05-2.07317E-05 2.59481E-05 1.85929E-18 2.64910E-19
 -1      3420 6.93807E-05-2.47707E-05-1.87505E-05 2.34150E-05 2.03612E-18-4.48080E-19
 -1      3421 1.09948E-04-1.77353E-05-3.96337E-05 8.81541E-06 2.65195E-18 1.15318E-18
 -1      3422 1.08737E-04-1.57617E-05-3.99816E-05 3.34977E-06 2.91300E-18 1.04456E-18
 -1      3423 9.45546E-05-2.25612E-05-3.08487E-05-3.23513E-06-1.39377E-18-1.86450E-18
 -1      3424 9.57814E-05-2.58089E-05-2.99825E-05-1.25524E-06-9.53643E-19-1.55010E-18
 -1      3425 9.59241E-05-2.65019E-05-2.97609E-05-6.81178E-07-9.83839E-19-1.44001E-18
 -1      3426 9.61020E-05-2.71084E-05-2.95609E-05-2.93413E-07-9.59259E-19-1.27922E-18
 -1      3427 9.61464E-05-2.75690E-05-2.93966E-05 8.25830E-08-8.80779E-19-1.23553E-18
 -1      3428 9.60868E-05-2.65449E-05-2.98021E-05-5.42588E-07-8.30378E-19-1.60542E-18
 -1      3429 9.62148E-05-2.79604E-05-2.92450E-05 3.30698E-07-7.75479E-19-1.00699E-18
 -1      3430 9.62069E-05-2.82553E-05-2.91261E-05 5.56000E-07-7.46705E-19-8.96962E-19
 -1      3431 9.63341E-05-2.76315E-05-2.94449E-05 1.14121E-07-6.75325E-19-1.22922E-18
 -1      3432 9.62074E-05-2.84959E-05-2.90140E-05 6.97242E-07-7.32611E-19-7.62309E-19
 -1      3433 9.61750E-05-2.86756E-05-2.89302E-05 8.15236E-07-5.88668E-19-6.86199E-19
 -1      3434 9.64028E-05-2.83301E-05-2.91756E-05 5.24068E-07-6.32028E-19-7.69179E-19
 -1      3435 9.61360E-05-2.88120E-05-2.88496E-05 8.79540E-07-5.22217E-19-6.43629E-19
 -1      3436 9.60935E-05-2.89114E-05-2.87928E-05 9.25469E-07-5.75547E-19-6.36668E-19
 -1      3437 9.63664E-05-2.87572E-05-2.89774E-05 7.47718E-07-5.74453E-19-4.99138E-19
 -1      3438 9.60336E-05-2.89760E-05-2.87368E-05 9.39459E-07-6.57018E-19-6.69815E-19
 -1      3439 9.59884E-05-2.90197E-05-2.87003E-05 9.40707E-07-5.76028E-19-7.20824E-19
 -1      3440 9.62699E-05-2.89912E-05-2.88359E-05 8.42220E-07-7.02666E-19-7.20869E-19
 -1      3441 9.59191E-05-2.90349E-05-2.86635E-05 9.25233E-07-3.23704E-19-6.57464E-19
 -1      3442 9.58749E-05-2.90401E-05-2.86424E-05 9.02438E-07-3.76371E-19-4.17976E-19
 -1      3443 9.61432E-05-2.90907E-05-2.87388E-05 8.54585E-07-4.60099E-19-6.68274E-19
 -1      3444 9.58029E-05-2.90214E-05-2.86203E-05 8.73311E-07-7.12733E-19-2.98444E-19
 -1      3445 9.57614E-05-2.89995E-05-2.86107E-05 8.41770E-07-5.78731E-19-2.98908E-19
 -1      3446 9.60041E-05-2.90968E-05-2.86764E-05 8.21500E-07-3.11790E-19-6.64879E-19
 -1      3447 9.56897E-05-2.89570E-05-2.86000E-05 8.10784E-07-6.29876E-19-2.51408E-19
 -1      3448 9.56510E-05-2.89154E-05-2.85993E-05 7.81851E-07-7.53050E-19-2.08624E-19
 -1      3449 9.58624E-05-2.90377E-05-2.86407E-05 7.70729E-07-6.56564E-19-4.01319E-19
 -1      3450 9.55804E-05-2.88551E-05-2.85973E-05 7.57864E-07-6.41869E-19-6.76134E-20
 -1      3451 9.55437E-05-2.87980E-05-2.86034E-05 7.40166E-07-1.93403E-19-1.42648E-19
 -1      3452 9.57218E-05-2.89312E-05-2.86257E-05 7.23107E-07-5.64641E-19-4.62537E-19
 -1      3453 9.54727E-05-2.87227E-05-2.86084E-05 7.30050E-07 7.91988E-20-2.41600E-19
 -1      3454 9.54365E-05-2.86519E-05-2.86200E-05 7.30487E-07-2.84506E-19-8.46179E-20
 -1      3455 9.55817E-05-2.87876E-05-2.86268E-05 6.94512E-07-1.92867E-19-3.06734E-19
 -1      3456 9.53624E-05-2.85620E-05-2.86304E-05 7.39904E-07-6.54883E-19 4.79079E-19
 -1      3457 9.53243E-05-2.84770E-05-2.86467E-05 7.64423E-07-6.17084E-19 7.11065E-19
 -1      3458 9.54381E-05-2.86109E-05-2.86406E-05 6.97549E-07 2.72043E-20 2.56910E-19
 -1      3459 9.52426E-05-2.83709E-05-2.86615E-05 7.98414E-07-8.77979E-19 1.08923E-18
 -1      3460 9.51995E-05-2.82700E-05-2.86819E-05 8.52583E-07-5.53934E-19 8.22035E-19
 -1      3461 9.52839E-05-2.84001E-05-2.86643E-05 7.42879E-07-5.35790E-19 5.76727E-19
 -1      3462 9.51047E-05-2.81445E-05-2.87001E-05 9.15976E-07-3.10102E-19 6.00754E-19
 -1      3463 9.50526E-05-2.80245E-05-2.87240E-05 1.00536E-06-2.66111E-19 7.16436E-20
 -1      3464 9.51093E-05-2.81507E-05-2.86958E-05 8.40173E-07-7.08914E-19 9.43012E-19
 -1      3465 9.49374E-05-2.78750E-05-2.87446E-05 1.10301E-06 7.17849E-20-8.95338E-20
 -1      3466 9.48712E-05-2.77318E-05-2.87716E-05 1.23337E-06 2.50265E-19-2.53571E-19
 -1      3467 9.49015E-05-2.78548E-05-2.87329E-05 9.98705E-07-8.01675E-20-1.00412E-19
 -1      3468 9.47265E-05-2.75527E-05-2.87932E-05 1.37020E-06 1.88009E-19 4.64947E-20
 -1      3469 9.46395E-05-2.73814E-05-2.88224E-05 1.54753E-06 2.97632E-19 1.06332E-19
 -1      3470 9.46445E-05-2.75023E-05-2.87729E-05 1.22759E-06 3.19794E-20-1.91811E-19
 -1      3471 9.44543E-05-2.71666E-05-2.88432E-05 1.72849E-06 3.22367E-19-2.08011E-19
 -1      3472 9.43383E-05-2.69622E-05-2.88729E-05 1.95881E-06 3.01180E-19-3.16805E-19
 -1      3473 9.43186E-05-2.70815E-05-2.88124E-05 1.53569E-06 1.87499E-19-3.89078E-19
 -1      3474 9.40990E-05-2.67055E-05-2.88900E-05 2.18864E-06 1.16433E-19-4.65360E-19
 -1      3475 9.39438E-05-2.64634E-05-2.89177E-05 2.47775E-06-3.43905E-19-3.46856E-19
 -1      3476 9.38996E-05-2.65802E-05-2.88462E-05 1.93119E-06 1.81566E-19-5.86264E-19
 -1      3477 9.36343E-05-2.61593E-05-2.89265E-05 2.76075E-06-9.83217E-19-4.03913E-19
 -1      3478 9.34275E-05-2.58768E-05-2.89480E-05 3.11383E-06-1.33652E-18-1.24810E-18
 -1      3479 9.33583E-05-2.59869E-05-2.88665E-05 2.42111E-06-8.60660E-19-1.20925E-18
 -1      3480 9.30287E-05-2.55225E-05-2.89420E-05 3.45388E-06-1.03190E-18-6.05222E-19
 -1      3481 9.27568E-05-2.52009E-05-2.89505E-05 3.87533E-06-7.03959E-19-4.44040E-19
 -1      3482 9.26600E-05-2.52938E-05-2.88617E-05 3.01093E-06-1.10514E-18-1.08786E-18
 -1      3483 9.22475E-05-2.47987E-05-2.89199E-05 4.27658E-06-9.49623E-19-2.27861E-19
 -1      3484 9.18978E-05-2.44475E-05-2.89055E-05 4.77047E-06-9.67643E-19-2.21081E-19
 -1      3485 9.17649E-05-2.45002E-05-2.88149E-05 3.70518E-06-7.10320E-19-6.68412E-20
 -1      3486 9.12550E-05-2.40092E-05-2.88361E-05 5.23957E-06-2.93274E-19-2.55183E-19
 -1      3487 9.08202E-05-2.36520E-05-2.87843E-05 5.81178E-06 2.65178E-20-6.08324E-19
 -1      3488 9.06287E-05-2.36192E-05-2.87016E-05 4.51039E-06-6.37875E-19 1.01046E-20
 -1      3489 9.00222E-05-2.32058E-05-2.86563E-05 6.36320E-06-3.40910E-19-8.72168E-19
 -1      3490 8.95099E-05-2.28909E-05-2.85470E-05 7.02661E-06-2.63507E-19-8.71518E-19
 -1      3491 8.92062E-05-2.26865E-05-2.84868E-05 5.44288E-06-2.68192E-19-5.01646E-19
 -1      3492 8.85401E-05-2.24915E-05-2.83331E-05 7.69381E-06 1.72866E-19-7.76035E-19
 -1      3493 8.79901E-05-2.23084E-05-2.81401E-05 8.47868E-06 5.18432E-19-7.84174E-19
 -1      3494 8.74567E-05-2.17743E-05-2.81224E-05 6.54564E-06-1.90834E-19-7.10281E-19
 -1      3495 8.68461E-05-2.20527E-05-2.78033E-05 9.33457E-06 4.96001E-19-7.92377E-19
 -1      3496 8.63644E-05-2.21581E-05-2.74953E-05 1.03032E-05 4.12239E-19-1.22862E-18
 -1      3497 8.53543E-05-2.10123E-05-2.75419E-05 7.92188E-06 3.92618E-19-9.17896E-19
 -1      3498 8.50814E-05-2.22161E-05-2.69860E-05 1.14930E-05 1.99229E-19-1.28538E-18
 -1      3499 8.48744E-05-2.28732E-05-2.65310E-05 1.27589E-05 2.60260E-19-1.46543E-18
 -1      3500 8.29077E-05-2.06225E-05-2.66543E-05 9.79378E-06 2.94172E-19-3.79759E-19
 -1      3501 8.35558E-05-2.34341E-05-2.57850E-05 1.44897E-05 3.20783E-19-1.73655E-18
 -1      3502 8.41403E-05-2.51930E-05-2.51834E-05 1.62377E-05 5.24199E-19-1.44818E-18
 -1      3503 8.03122E-05-2.10416E-05-2.53339E-05 1.26044E-05 2.27627E-19-7.29125E-19
 -1      3504 8.34746E-05-2.76596E-05-2.38558E-05 1.97447E-05 7.43151E-19-1.02910E-18
 -1      3505 1.22349E-04-4.46040E-05-3.33494E-05-5.45908E-06 2.02264E-18-2.99095E-18
 -1      3506 1.23204E-04-4.14186E-05-3.51187E-05-7.91619E-06 3.27892E-18-2.78755E-18
 -1      3507 5.05516E-05-1.29960E-05-1.58388E-05 3.64178E-06 1.35986E-18-3.47675E-18
 -1      3508 5.12576E-05-1.33190E-05-1.62349E-05-6.95175E-06 6.26348E-19-3.79926E-18
 -1      3509 9.54675E-05-2.87999E-05-2.85700E-05-7.90474E-07-1.40551E-19 4.61853E-19
 -1      3510 9.54846E-05-2.88400E-05-2.85627E-05-8.18222E-07-1.99154E-19 1.18188E-19
 -1      3511 9.55391E-05-2.88853E-05-2.85642E-05-8.50525E-07-1.96601E-19 2.08249E-19
 -1      3512 9.55589E-05-2.89117E-05-2.85633E-05-8.87242E-07-7.72750E-20 9.41712E-20
 -1      3513 9.56457E-05-2.89225E-05-2.85969E-05-8.03739E-07-2.49012E-19 6.08575E-19
 -1      3514 9.53330E-05-2.85612E-05-2.86143E-05-7.68630E-07-3.14747E-19 5.79344E-19
 -1      3515 9.53471E-05-2.86223E-05-2.85979E-05-7.57855E-07-4.60307E-21 4.49058E-19
 -1      3516 9.52648E-05-2.84116E-05-2.86490E-05-8.29721E-07-1.57847E-19 3.81499E-19
 -1      3517 9.52785E-05-2.84822E-05-2.86289E-05-7.91453E-07-2.90000E-20 4.49197E-19
 -1      3518 9.53295E-05-2.85138E-05-2.86356E-05-7.64621E-07-6.50925E-20-1.38564E-19
 -1      3519 9.51919E-05-2.82416E-05-2.86903E-05-9.52283E-07 1.85100E-19 3.28330E-19
 -1      3520 9.52058E-05-2.83216E-05-2.86669E-05-8.81627E-07-5.88892E-20 1.87020E-19
 -1      3521 9.52166E-05-2.83276E-05-2.86667E-05-8.41281E-07-1.01702E-20-7.70411E-19
 -1      3522 9.51114E-05-2.80508E-05-2.87373E-05-1.14597E-06 3.95530E-19 2.27749E-19
 -1      3523 9.51256E-05-2.81399E-05-2.87109E-05-1.03823E-06 1.59613E-19 4.43989E-19
 -1      3524 9.50919E-05-2.81161E-05-2.87036E-05-9.80088E-07 3.61477E-20-5.42253E-19
 -1      3525 9.50217E-05-2.78408E-05-2.87884E-05-1.42018E-06 3.29136E-21 1.48831E-18
 -1      3526 9.50356E-05-2.79375E-05-2.87595E-05-1.27097E-06 4.27070E-19 1.28665E-18
 -1      3527 9.49504E-05-2.78786E-05-2.87445E-05-1.19104E-06-2.20072E-19 5.19190E-20
 -1      3528 9.49236E-05-2.76171E-05-2.88418E-05-1.78363E-06-2.66587E-19 1.09820E-18
 -1      3529 9.49351E-05-2.77176E-05-2.88112E-05-1.58923E-06-6.50688E-20 1.25289E-18
 -1      3530 9.47885E-05-2.76170E-05-2.87870E-05-1.48417E-06 4.97107E-20 9.35267E-19
 -1      3531 9.48220E-05-2.73917E-05-2.88943E-05-2.24335E-06 1.04130E-19 7.55985E-19
 -1      3532 9.48268E-05-2.74886E-05-2.88633E-05-2.00142E-06 3.27629E-19 1.04435E-18
 -1      3533 9.46054E-05-2.73381E-05-2.88278E-05-1.86930E-06 2.08412E-19 6.89664E-19
 -1      3534 9.47294E-05-2.71872E-05-2.89417E-05-2.80316E-06-4.66167E-19 1.05671E-18
 -1      3535 9.47191E-05-2.72673E-05-2.89122E-05-2.51373E-06-5.16898E-19 7.46222E-19
 -1      3536 9.44053E-05-2.70567E-05-2.88626E-05-2.35532E-06-1.33403E-19 1.46561E-19
 -1      3537 9.46698E-05-2.70414E-05-2.89779E-05-3.46132E-06-1.50614E-19 1.19248E-18
 -1      3538 9.46301E-05-2.70834E-05-2.89529E-05-3.12835E-06-4.18580E-20 1.11755E-18
 -1      3539 9.42015E-05-2.68002E-05-2.88856E-05-2.94916E-06-2.65862E-19 5.35342E-19
 -1      3540 9.46852E-05-2.70133E-05-2.89957E-05-4.20741E-06 2.67528E-19 6.84496E-19
 -1      3541 9.45927E-05-2.69848E-05-2.89785E-05-3.84074E-06 9.86361E-21 8.65846E-19
 -1      3542 9.40216E-05-2.66139E-05-2.88892E-05-3.65421E-06 2.62182E-20 7.23930E-19
 -1      3543 9.48442E-05-2.71895E-05-2.89873E-05-5.01779E-06 2.73216E-19 4.44914E-19
 -1      3544 9.46625E-05-2.70438E-05-2.89815E-05-4.63595E-06 4.30165E-19 5.61857E-19
 -1      3545 9.39145E-05-2.65681E-05-2.88650E-05-4.46807E-06 5.87472E-19-1.39370E-19
 -1      3546 9.52520E-05-2.76902E-05-2.89463E-05-5.84861E-06 3.79018E-20 9.50847E-19
 -1      3547 9.49271E-05-2.73642E-05-2.89545E-05-5.48288E-06 1.59835E-19 8.52924E-19
 -1      3548 9.39613E-05-2.67650E-05-2.88042E-05-5.37885E-06-1.31060E-19 4.72641E-19
 -1      3549 9.60608E-05-2.86698E-05-2.88723E-05-6.62430E-06-9.15325E-19 1.33541E-18
 -1      3550 9.55185E-05-2.80849E-05-2.88935E-05-6.32478E-06-1.82919E-19 1.12160E-18
 -1      3551 9.42879E-05-2.73463E-05-2.87011E-05-6.35822E-06-2.79297E-19 1.19505E-18
 -1      3552 9.74741E-05-3.03049E-05-2.87777E-05-7.21829E-06-1.25899E-20 3.92207E-19
 -1      3553 9.66217E-05-2.93764E-05-2.88040E-05-7.06334E-06-5.55055E-19 9.41834E-19
 -1      3554 9.50792E-05-2.84938E-05-2.85580E-05-7.34744E-06-3.65212E-19 3.13791E-19
 -1      3555 9.97341E-05-3.27541E-05-2.87001E-05-7.41963E-06 4.30928E-19-7.73312E-19
 -1      3556 9.84768E-05-3.14187E-05-2.87099E-05-7.52964E-06 4.10615E-19 1.50281E-19
 -1      3557 9.65913E-05-3.04200E-05-2.83948E-05-8.23046E-06 3.98379E-19-7.24008E-19
 -1      3558 1.03060E-04-3.60546E-05-2.87207E-05-6.88434E-06-1.05684E-18-1.13426E-18
 -1      3559 1.01348E-04-3.43358E-05-2.86701E-05-7.43610E-06-4.50608E-19-1.10081E-18
 -1      3560 9.91451E-05-3.33203E-05-2.82641E-05-8.77623E-06 3.83927E-19-1.35947E-18
 -1      3561 1.07516E-04-3.99100E-05-2.89901E-05-5.09401E-06-1.18655E-18-7.04894E-19
 -1      3562 1.05421E-04-3.80437E-05-2.88022E-05-6.32571E-06-1.65450E-18-9.10254E-19
 -1      3563 1.03061E-04-3.72444E-05-2.82777E-05-8.56945E-06-1.49771E-18-1.55839E-18
 -1      3564 1.12848E-04-4.33702E-05-2.97629E-05-1.34792E-06-1.62769E-18 2.25612E-19
 -1      3565 1.10610E-04-4.19943E-05-2.93090E-05-3.62228E-06-5.72232E-19-3.72016E-20
 -1      3566 1.08436E-04-4.17767E-05-2.86424E-05-6.91884E-06-1.27620E-18-9.91171E-19
 -1      3567 1.18622E-04-4.63439E-05-3.10123E-05 1.91741E-06-2.17799E-18 8.05023E-19
 -1      3568 1.16757E-04-4.63309E-05-3.01568E-05-9.74862E-07-2.27138E-18 2.32355E-19
 -1      3569 1.15898E-04-2.87340E-05-3.73490E-05 1.43837E-05 2.04588E-18 2.13843E-18
 -1      3570 1.17861E-04-3.46315E-05-3.59907E-05 1.39166E-05 1.00888E-18 1.71912E-18
 -1      3571 1.11825E-04-2.20905E-05-3.87282E-05 1.19844E-05 2.78496E-18 1.68755E-18
 -1      3572 1.08762E-04-1.60939E-05-4.00167E-05-1.63050E-06 2.32619E-18-6.76845E-19
 -1      3573 7.78686E-05-2.02639E-05-2.45558E-05-1.64893E-05 1.76595E-18 6.79128E-18
 -1      3574 7.36590E-05-1.79193E-05-2.39773E-05-1.22572E-05 9.27338E-19 5.96170E-18
 -1      3575 7.13465E-05-1.67977E-05-2.35093E-05 7.41890E-06 1.80822E-18 2.70208E-18
 -1      3576 7.45259E-05-1.85244E-05-2.37824E-05 1.26829E-05 1.71080E-18-3.06599E-19
 -1      3577 9.22516E-05-1.81298E-05-3.17774E-05-1.00734E-06-4.52103E-19-2.44166E-18
 -1      3578 9.23629E-05-1.83229E-05-3.17466E-05-1.76512E-06-6.58316E-19-2.36339E-18
 -1      3579 9.33428E-05-1.99921E-05-3.14206E-05-1.74882E-06-7.20424E-19-2.19933E-18
 -1      3580 9.38780E-05-3.91601E-05-2.35536E-05 2.85901E-05-5.24168E-19 3.80582E-19
 -1      3581 8.21703E-05-3.04402E-05-2.18226E-05 2.71531E-05 3.54702E-19-1.24583E-18
 -1      3582 7.06491E-05-1.58134E-05-2.34501E-05-5.66661E-06 1.21418E-18 4.15899E-18
 -1      3583 6.99671E-05-1.54904E-05-2.33223E-05 1.22480E-07 1.40792E-18 3.16422E-18
 -1      3584 6.71601E-05-1.60021E-05-2.17260E-05 4.59775E-06 1.42026E-18 1.79211E-18
 -1      3585 6.91896E-05-1.70725E-05-2.21397E-05-1.01259E-05 8.76904E-19 5.36530E-18
 -1      3586 1.02083E-04-4.48884E-05-2.41472E-05-2.88382E-05 2.39679E-18 3.45912E-18
 -1      3587 6.03973E-05-1.98817E-05-1.73120E-05 1.94256E-05 1.69814E-18-1.10395E-18
 -1      3588 5.35370E-05-1.48452E-05-1.63308E-05 1.10656E-05 1.52872E-18-1.38686E-18
 -1      3589 5.85630E-05-1.47804E-05-1.84514E-05 6.87374E-06 1.68071E-18-2.17910E-18
 -1      3590 6.97745E-05-2.18110E-05-2.02953E-05 1.82890E-05 1.92679E-18-1.01017E-18
 -1      3591 1.06366E-04-3.78758E-05-2.92854E-05 9.66807E-06-2.57259E-18-2.70202E-18
 -1      3592 1.08662E-04-4.01517E-05-2.93966E-05 8.46585E-06-3.60104E-18-2.60290E-18
 -1      3593 9.57809E-05-2.89104E-05-2.86584E-05-1.02533E-06 7.60127E-19-2.38977E-19
 -1      3594 9.58117E-05-2.88549E-05-2.86930E-05-1.01729E-06 8.69853E-19-2.42412E-19
 -1      3595 1.11826E-04-4.24669E-05-2.96333E-05 6.76785E-06-3.82669E-18-3.00226E-18
 -1      3596 1.13971E-04-4.40347E-05-3.00222E-05 4.61640E-06-2.14653E-18-2.81415E-18
 -1      3597 1.10425E-04-4.24480E-05-2.92126E-05 1.01937E-05-3.37666E-18-7.20067E-19
 -1      3598 9.52796E-05-2.45654E-05-3.03029E-05 2.87815E-06 1.58160E-18-6.64084E-19
 -1      3599 9.49832E-05-2.37249E-05-3.05472E-05 3.10248E-06 1.69579E-18-7.62764E-19
 -1      3600 9.54245E-05-2.52999E-05-3.00624E-05 2.06656E-06 1.26498E-18-5.25351E-19
 -1      3601 9.53996E-05-2.86909E-05-2.85875E-05-7.59094E-07 1.66847E-19 3.85601E-19
 -1      3602 9.54148E-05-2.87421E-05-2.85752E-05-7.70566E-07 9.23827E-20 5.27386E-19
 -1      3603 9.55399E-05-2.88126E-05-2.85984E-05-7.57065E-07-1.04067E-19 6.20929E-19
 -1      3604 9.54357E-05-2.86755E-05-2.86121E-05-7.40065E-07 2.51954E-20 2.93769E-19
 -1      3605 9.51317E-05-2.38921E-05-3.05326E-05-2.57482E-06-1.25615E-18-1.80300E-18
 -1      3606 9.54412E-05-2.49020E-05-3.02411E-05-1.77229E-06-1.16835E-18-1.70470E-18
 -1      3607 9.55664E-05-2.49437E-05-3.02635E-05-1.47193E-06-1.05184E-18-1.73722E-18
 -1      3608 9.46031E-05-2.26292E-05-3.08381E-05-2.64520E-06-1.20155E-18-1.95036E-18
 -1      3609 1.00440E-04-3.20001E-05-2.93249E-05 1.23454E-05-6.35447E-19-1.47780E-18
 -1      3610 1.01100E-04-3.24013E-05-2.94279E-05 1.10631E-05-1.79325E-18-2.78746E-18
 -1      3611 1.02402E-04-3.38544E-05-2.93544E-05 1.08059E-05-1.83960E-18-2.30852E-18
 -1      3612 1.01498E-04-3.40245E-05-2.89141E-05 1.37884E-05-1.59485E-18-1.77835E-18
 -1      3613 1.28826E-04-5.66586E-05-3.13139E-05 9.14820E-06-2.19051E-19 6.01896E-19
 -1      3614 1.23740E-04-5.66522E-05-2.84652E-05 1.74441E-05-6.30477E-19 2.42728E-19
 -1      3615 5.69284E-05-1.65349E-05-1.69183E-05-1.60807E-05-1.06983E-18-2.04871E-18
 -1      3616 6.57431E-05-2.32045E-05-1.83856E-05-2.39734E-05-1.68219E-18-1.83759E-18
 -1      3617 1.20744E-04-4.16022E-05-3.39351E-05 9.89448E-06-2.74584E-19 1.55203E-18
 -1      3618 9.19580E-05-3.86388E-05-2.29121E-05-2.99369E-05 1.13280E-18 4.12764E-18
 -1      3619 9.53436E-05-3.84108E-05-2.42740E-05-2.71414E-05 1.38768E-18 2.47789E-18
 -1      3620 9.17243E-05-3.32931E-05-2.49381E-05-2.51348E-05 6.85600E-19 9.70766E-19
 -1      3621 7.91838E-05-2.94078E-05-2.10724E-05-2.78400E-05 3.18789E-19 4.11346E-18
 -1      3622 1.20949E-04-4.49324E-05-3.26767E-05 7.14913E-06-1.55077E-18 1.22861E-18
 -1      3623 9.47522E-05-2.30701E-05-3.07199E-05 2.88260E-06 1.48247E-18-1.21555E-18
 -1      3624 1.18500E-04-5.33307E-05-2.77589E-05 1.87295E-05-4.09779E-19 2.67636E-19
 -1      3625 1.13741E-04-5.04248E-05-2.70028E-05-1.61202E-05-2.95271E-18 1.04750E-18
 -1      3626 1.15797E-04-4.91426E-05-2.84838E-05-9.56222E-06-2.67470E-18 7.51621E-19
 -1      3627 1.06388E-04-4.58806E-05-2.59773E-05-1.85733E-05-2.83477E-18 5.91646E-19
 -1      3628 1.11583E-04-1.94647E-05-3.96431E-05-6.81866E-06 1.85439E-18-2.53932E-18
 -1      3629 1.19143E-04-4.53763E-05-3.16584E-05-1.37375E-06 8.43374E-19-2.74989E-18
 -1      3630 1.25299E-04-4.90489E-05-3.28372E-05-9.59924E-07 1.36823E-18-1.36877E-18
 -1      3631 7.76013E-05-2.37167E-05-2.31653E-05 1.80031E-05 1.14737E-18-6.22582E-19
 -1      3632 9.59031E-05-2.73765E-05-2.93756E-05 1.03576E-07 1.03927E-18-7.38717E-19
 -1      3633 9.58817E-05-2.69054E-05-2.95510E-05 5.62911E-07 1.10199E-18-6.89272E-19
 -1      3634 5.92971E-05-1.55173E-05-1.84953E-05-9.77820E-06-4.23047E-19-1.70291E-18
 -1      3635 9.18622E-05-3.13199E-05-2.58436E-05-2.30468E-05 2.18449E-18 6.07270E-19
 -1      3636 9.04728E-05-2.84831E-05-2.65254E-05-2.14423E-05 2.66860E-18 8.81781E-19
 -1      3637 8.72756E-05-2.63917E-05-2.60423E-05-2.09976E-05 2.83139E-18 2.64421E-18
 -1      3638 8.67964E-05-3.01637E-05-2.42933E-05-2.49386E-05 1.00271E-19 2.71551E-18
 -1      3639 9.58614E-05-2.87800E-05-2.87498E-05-9.89773E-07 8.26975E-19-3.26618E-19
 -1      3640 9.58942E-05-2.86703E-05-2.88058E-05-9.26900E-07 6.55782E-19-3.88508E-19
 -1      3641 9.60833E-05-2.88697E-05-2.88083E-05-9.23206E-07 6.78296E-19-4.95224E-19
 -1      3642 9.57552E-05-2.89988E-05-2.86114E-05-8.65648E-07 1.06191E-19 6.49743E-19
 -1      3643 9.56156E-05-2.89408E-05-2.85735E-05-9.24079E-07 2.76145E-19 1.89264E-19
 -1      3644 9.56389E-05-2.89487E-05-2.85810E-05-9.60267E-07 4.44255E-19 1.61796E-19
 -1      3645 7.14222E-05-2.43328E-05-2.01228E-05-2.49655E-05 4.31100E-19 3.88071E-18
 -1      3646 8.01802E-05-2.73589E-05-2.23761E-05-2.44389E-05-2.93060E-19 4.33292E-18
 -1      3647 8.02101E-05-2.53137E-05-2.34053E-05-2.24503E-05 3.22931E-19 4.68817E-18
 -1      3648 6.43485E-05-1.89206E-05-1.92236E-05-1.72683E-05 9.38751E-19 5.52334E-18
 -1      3649 7.86937E-05-2.52319E-05-2.28149E-05 2.01579E-05 1.22814E-18-2.71196E-19
 -1      3650 6.95414E-05-2.20782E-05-2.05361E-05 2.02911E-05 5.32651E-19 1.86294E-19
 -1      3651 1.17930E-04-4.58394E-05-3.08488E-05 1.48509E-06-4.37966E-19-2.52294E-18
 -1      3652 1.03781E-04-3.53501E-05-2.93377E-05 1.02149E-05-1.55461E-18-2.48495E-18
 -1      3653 8.32002E-05-2.59949E-05-2.45776E-05 1.95043E-05 1.01012E-18-1.12595E-18
 -1      3654 1.27923E-04-5.26400E-05-3.23486E-05 3.27708E-06 1.14760E-18-8.45657E-19
 -1      3655 9.92663E-05-4.18166E-05-2.43738E-05 2.70109E-05-1.73105E-18 9.00542E-19
 -1      3656 9.38520E-05-3.62440E-05-2.47954E-05 2.50406E-05-1.20289E-18-1.32667E-18
 -1      3657 1.04074E-04-4.47905E-05-2.55602E-05 2.50210E-05-1.83679E-18 4.45553E-19
 -1      3658 9.42353E-05-2.17773E-05-3.10526E-05-1.91659E-06-8.50604E-19-1.84228E-18
 -1      3659 9.44465E-05-2.22535E-05-3.09521E-05-2.33345E-06-1.11181E-18-1.86042E-18
 -1      3660 9.50497E-05-2.35294E-05-3.06443E-05-1.74761E-06-1.00357E-18-1.70966E-18
 -1      3661 1.23973E-04-3.79210E-05-3.70607E-05-1.09481E-05 3.39842E-18-3.42665E-18
 -1      3662 8.88470E-05-2.92699E-05-2.52855E-05 2.15751E-05-5.16492E-21-2.21758E-18
 -1      3663 9.56468E-05-2.84259E-05-2.88132E-05-8.62758E-07 7.97866E-19-3.43518E-19
 -1      3664 9.38776E-05-2.10562E-05-3.12205E-05 8.08639E-07 4.29215E-19-1.77861E-18
 -1      3665 9.38260E-05-2.09615E-05-3.12391E-05 2.46982E-07 8.61457E-20-1.81899E-18
 -1      3666 9.56970E-05-2.89551E-05-2.86027E-05-9.91284E-07 5.95797E-19-1.08954E-19
 -1      3667 9.57241E-05-2.89369E-05-2.86216E-05-1.01414E-06 7.03171E-19-5.95115E-20
 -1      3668 9.59800E-05-2.89964E-05-2.87095E-05-9.54499E-07 8.37482E-19-2.79989E-19
 -1      3669 9.58678E-05-2.90298E-05-2.86468E-05-9.24172E-07 3.81536E-19 3.29414E-19
 -1      3670 9.97732E-05-3.49914E-05-2.77070E-05 1.79558E-05-1.55636E-18-1.98434E-18
 -1      3671 1.02045E-04-3.62563E-05-2.81584E-05 1.67889E-05-2.05122E-18-2.50685E-18
 -1      3672 6.40427E-05-1.64658E-05-2.00436E-05 1.03570E-05 6.68349E-19 1.53071E-18
 -1      3673 9.72899E-05-3.48737E-05-2.66841E-05 2.09678E-05-1.16432E-18-1.66695E-18
 -1      3674 1.01461E-04-3.92120E-05-2.67114E-05 2.11886E-05-2.15836E-18-1.34556E-18
 -1      3675 1.17654E-04-4.74088E-05-3.01973E-05 5.93602E-06-1.28696E-18-2.26257E-19
 -1      3676 9.31429E-05-1.96184E-05-3.14944E-05-5.79811E-07-3.24695E-19-2.19622E-18
 -1      3677 7.80555E-05-2.96058E-05-2.03321E-05-2.66437E-05-2.11438E-18-8.94943E-19
 -1      3678 9.22729E-05-3.79382E-05-2.34078E-05-2.38282E-05-1.84066E-18 1.03370E-18
 -1      3679 8.39987E-05-2.42584E-05-2.56624E-05-1.96106E-05 1.54553E-18 3.54016E-18
 -1      3680 7.45258E-05-2.53737E-05-2.09280E-05-2.15016E-05-1.73774E-18-7.06161E-19
 -1      3681 6.11144E-05-1.49787E-05-1.98212E-05 2.81266E-06 3.14538E-19 2.47413E-18
 -1      3682 6.05659E-05-1.50755E-05-1.93280E-05-7.17376E-06 1.32434E-18 3.42768E-18
 -1      3683 9.40988E-05-2.15183E-05-3.11203E-05 1.76871E-06 9.39425E-19-1.69350E-18
 -1      3684 9.39617E-05-2.12264E-05-3.11795E-05 1.25013E-06 6.08120E-19-1.78611E-18
 -1      3685 9.46221E-05-2.23928E-05-3.09373E-05 8.38151E-07 4.58868E-19-1.53893E-18
 -1      3686 9.59542E-05-2.80857E-05-2.90910E-05-4.98319E-07 8.13739E-19-6.40083E-19
 -1      3687 9.59719E-05-2.77832E-05-2.92146E-05-2.19052E-07 8.53904E-19-6.75815E-19
 -1      3688 9.61147E-05-2.74099E-05-2.94466E-05 4.78651E-08 8.75545E-19-8.16026E-19
 -1      3689 1.04671E-04-3.69007E-05-2.90725E-05 1.21009E-05-2.61737E-18-9.01339E-19
 -1      3690 9.59264E-05-2.85243E-05-2.88889E-05-8.35548E-07 6.43152E-19-4.09069E-19
 -1      3691 9.59569E-05-2.83361E-05-2.89737E-05-6.85565E-07 7.65454E-19-4.18749E-19
 -1      3692 9.61878E-05-2.81501E-05-2.91614E-05-4.85077E-07 7.05907E-19-6.42576E-19
 -1      3693 7.08923E-05-1.92493E-05-2.19705E-05 1.41746E-05 1.16156E-18-1.32218E-18
 -1      3694 1.04147E-04-3.69466E-05-2.87957E-05 1.36538E-05-2.42984E-18-1.24358E-18
 -1      3695 9.64164E-05-2.73057E-05-2.96160E-05-7.51120E-08-3.45807E-19-1.26063E-18
 -1      3696 9.64910E-05-2.77668E-05-2.94578E-05 1.93358E-07-3.67900E-19-1.10647E-18
 -1      3697 9.65646E-05-2.81563E-05-2.93137E-05 3.51364E-07-4.72349E-19-7.79439E-19
 -1      3698 9.65674E-05-2.84510E-05-2.91959E-05 5.12152E-07-4.71102E-19-6.01458E-19
 -1      3699 9.66340E-05-2.78671E-05-2.94711E-05 1.96657E-07-2.24880E-19-8.24269E-19
 -1      3700 9.65643E-05-2.86867E-05-2.90870E-05 5.98392E-07-4.95327E-19-4.43402E-19
 -1      3701 9.65266E-05-2.88607E-05-2.90011E-05 6.81414E-07-5.76513E-19-4.84903E-19
 -1      3702 9.67008E-05-2.85358E-05-2.92142E-05 4.53500E-07-4.12642E-19-4.99784E-19
 -1      3703 9.64769E-05-2.89889E-05-2.89210E-05 7.16666E-07-7.85306E-19-3.53632E-19
 -1      3704 9.64179E-05-2.90774E-05-2.88604E-05 7.47556E-07-7.20897E-19-3.75611E-19
 -1      3705 9.66478E-05-2.89343E-05-2.90214E-05 5.88957E-07-5.73627E-19-2.30435E-19
 -1      3706 9.63421E-05-2.91301E-05-2.88035E-05 7.50192E-07-6.06948E-19-5.07299E-19
 -1      3707 9.62732E-05-2.91587E-05-2.87628E-05 7.49332E-07-3.41430E-19-3.57172E-19
 -1      3708 9.65230E-05-2.91377E-05-2.88811E-05 6.40850E-07-6.01756E-19-7.42941E-20
 -1      3709 9.61843E-05-2.91588E-05-2.87243E-05 7.33951E-07-2.94004E-19-5.32004E-19
 -1      3710 9.61124E-05-2.91454E-05-2.86990E-05 7.17052E-07-3.02222E-19-4.88778E-19
 -1      3711 9.63596E-05-2.92034E-05-2.87830E-05 6.41065E-07-5.24874E-19-2.52096E-19
 -1      3712 9.60181E-05-2.91088E-05-2.86751E-05 6.94813E-07-5.19136E-19-5.07131E-19
 -1      3713 9.59464E-05-2.90656E-05-2.86618E-05 6.73717E-07-6.51203E-19-3.84456E-19
 -1      3714 9.61780E-05-2.91725E-05-2.87183E-05 6.14824E-07-2.56817E-19-4.83779E-19
 -1      3715 9.58502E-05-2.90025E-05-2.86492E-05 6.53018E-07-5.75691E-19-3.07587E-19
 -1      3716 9.57793E-05-2.89369E-05-2.86452E-05 6.36673E-07-4.75832E-19-3.13706E-19
 -1      3717 9.59894E-05-2.90728E-05-2.86799E-05 5.81341E-07-7.11160E-19-3.22682E-19
 -1      3718 9.56815E-05-2.88530E-05-2.86415E-05 6.23902E-07-1.76168E-19 1.34023E-20
 -1      3719 9.56102E-05-2.87688E-05-2.86447E-05 6.19239E-07 1.26460E-19 2.44214E-19
 -1      3720 9.57974E-05-2.89215E-05-2.86621E-05 5.55193E-07-9.24448E-20-1.52867E-19
 -1      3721 9.55085E-05-2.86664E-05-2.86478E-05 6.19419E-07 2.32935E-19 2.74877E-19
 -1      3722 9.54339E-05-2.85646E-05-2.86567E-05 6.32070E-07 1.35222E-19 4.77781E-19
 -1      3723 9.56000E-05-2.87274E-05-2.86601E-05 5.47617E-07 2.58781E-19 4.28942E-19
 -1      3724 9.53240E-05-2.84431E-05-2.86650E-05 6.49371E-07-1.55618E-19 2.60460E-19
 -1      3725 9.52418E-05-2.83223E-05-2.86783E-05 6.84205E-07-5.91498E-19 2.36660E-19
 -1      3726 9.53908E-05-2.84930E-05-2.86703E-05 5.67595E-07-8.37294E-20 3.13337E-19
 -1      3727 9.51175E-05-2.81791E-05-2.86902E-05 7.22287E-07-7.41392E-19 6.55689E-19
 -1      3728 9.50220E-05-2.80362E-05-2.87068E-05 7.83766E-07-2.46482E-19 6.54580E-19
 -1      3729 9.51592E-05-2.82154E-05-2.86894E-05 6.22636E-07-1.96705E-19 4.73815E-19
 -1      3730 9.48751E-05-2.78670E-05-2.87208E-05 8.45970E-07-3.42240E-19 5.47607E-19
 -1      3731 9.47591E-05-2.76975E-05-2.87394E-05 9.38320E-07-3.22096E-19 3.06456E-19
 -1      3732 9.48911E-05-2.78879E-05-2.87140E-05 7.19256E-07-4.27175E-19 7.92648E-19
 -1      3733 9.45797E-05-2.74966E-05-2.87537E-05 1.02768E-06-2.75447E-20 3.37840E-19
 -1      3734 9.44340E-05-2.72952E-05-2.87728E-05 1.15489E-06 2.53240E-19 3.40678E-19
 -1      3735 9.45687E-05-2.75006E-05-2.87408E-05 8.63106E-07-2.07634E-19 9.43929E-19
 -1      3736 9.42099E-05-2.70562E-05-2.87850E-05 1.27400E-06-9.70386E-22 1.13600E-19
 -1      3737 9.40236E-05-2.68169E-05-2.88023E-05 1.43963E-06-9.73971E-20-3.26438E-20
 -1      3738 9.41701E-05-2.70418E-05-2.87653E-05 1.05877E-06-1.53633E-20 6.32229E-19
 -1      3739 9.37403E-05-2.65331E-05-2.88091E-05 1.59034E-06-1.04137E-19-4.70524E-19
 -1      3740 9.34998E-05-2.62500E-05-2.88213E-05 1.79723E-06-1.33568E-19-5.42070E-19
 -1      3741 9.36692E-05-2.64988E-05-2.87817E-05 1.30926E-06-3.17991E-19 4.81821E-20
 -1      3742 9.31401E-05-2.59153E-05-2.88181E-05 1.98034E-06-4.56334E-19-7.61634E-19
 -1      3743 9.28290E-05-2.55836E-05-2.88203E-05 2.23025E-06-1.04459E-18-6.24846E-19
 -1      3744 9.30348E-05-2.58595E-05-2.87818E-05 1.61521E-06-3.00064E-19-5.92013E-19
 -1      3745 9.23725E-05-2.51932E-05-2.88003E-05 2.44520E-06-6.85760E-19-4.98862E-19
 -1      3746 9.19718E-05-2.48105E-05-2.87853E-05 2.73871E-06-4.69639E-19-1.95682E-19
 -1      3747 9.22297E-05-2.51137E-05-2.87537E-05 1.97417E-06-4.86890E-19-1.03833E-19
 -1      3748 9.13940E-05-2.43629E-05-2.87390E-05 2.98382E-06-7.76968E-19 1.14320E-19
 -1      3749 9.08819E-05-2.39312E-05-2.86965E-05 3.32091E-06-5.86309E-19 1.12138E-19
 -1      3750 9.12100E-05-2.42556E-05-2.86811E-05 2.38026E-06-2.03399E-19 1.75861E-19
 -1      3751 9.01537E-05-2.34298E-05-2.86103E-05 3.59466E-06-6.17159E-19 2.13793E-19
 -1      3752 8.95066E-05-2.29586E-05-2.85254E-05 3.97696E-06-7.19442E-19-2.39918E-20
 -1      3753 8.99234E-05-2.32869E-05-2.85405E-05 2.82534E-06-4.98654E-19 1.60567E-19
 -1      3754 8.85920E-05-2.24146E-05-2.83804E-05 4.28142E-06-6.46653E-19-3.27534E-19
 -1      3755 8.77864E-05-2.19254E-05-2.82324E-05 4.71755E-06-1.87715E-19-2.86400E-19
 -1      3756 8.83062E-05-2.22194E-05-2.82991E-05 3.30329E-06-6.92189E-19-2.87224E-19
 -1      3757 8.66391E-05-2.13608E-05-2.80017E-05 5.06532E-06-3.28597E-19-4.75675E-19
 -1      3758 8.56544E-05-2.08922E-05-2.77618E-05 5.58187E-06-2.01071E-19-4.84899E-20
 -1      3759 8.62784E-05-2.10794E-05-2.79109E-05 3.81964E-06-1.66771E-19 6.94516E-19
 -1      3760 8.42079E-05-2.03419E-05-2.74074E-05 6.01157E-06 1.07500E-20-3.93749E-19
 -1      3761 8.30333E-05-1.99600E-05-2.70360E-05 6.67470E-06 4.67744E-19-7.51767E-19
 -1      3762 8.37309E-05-1.99060E-05-2.73105E-05 4.41117E-06-3.84001E-19 7.38060E-19
 -1      3763 8.11860E-05-1.94769E-05-2.65015E-05 7.27344E-06 4.47276E-19-4.84171E-19
 -1      3764 7.98206E-05-1.92969E-05-2.59423E-05 8.23422E-06-4.09157E-20-6.07409E-19
 -1      3765 8.05032E-05-1.87577E-05-2.64027E-05 5.18068E-06 5.93853E-19-2.72847E-19
 -1      3766 7.73631E-05-1.88946E-05-2.51378E-05 9.14419E-06 2.05418E-19-8.98039E-19
 -1      3767 7.57367E-05-1.92438E-05-2.42868E-05 1.08533E-05 4.48699E-19-1.15940E-18
 -1      3768 7.63652E-05-1.77495E-05-2.50399E-05 6.33444E-06 2.67131E-19-1.40980E-18
 -1      3769 9.49924E-05-2.79869E-05-2.87145E-05-9.58529E-07-2.73329E-19-7.50408E-19
 -1      3770 9.50594E-05-2.81090E-05-2.86957E-05-8.73151E-07 3.95322E-20-7.54201E-19
 -1      3771 9.57387E-05-2.89488E-05-2.86226E-05-7.25568E-07-6.09482E-20 2.87629E-19
 -1      3772 9.57934E-05-2.89982E-05-2.86266E-05-7.49955E-07 1.26298E-19 6.96271E-19
 -1      3773 1.20036E-04-5.29043E-05-2.90573E-05 1.39221E-05-1.22175E-18-3.81276E-19
 -1      3774 1.13830E-04-4.99304E-05-2.71732E-05 1.99098E-05-1.74408E-18-1.11706E-18
 -1      3775 9.44759E-05-2.23490E-05-3.09311E-05 2.56457E-06 1.45806E-18-1.55128E-18
 -1      3776 9.42554E-05-2.18533E-05-3.10346E-05 2.13996E-06 1.09493E-18-1.56059E-18
 -1      3777 9.48208E-05-2.28903E-05-3.08093E-05 1.55761E-06 9.49322E-19-1.42517E-18
 -1      3778 6.02216E-05-1.41709E-05-1.96100E-05-4.14428E-06 3.49646E-19-1.87411E-18
 -1      3779 6.39491E-05-1.71882E-05-2.01472E-05-1.26102E-05-2.50159E-19-7.17596E-19
 -1      3780 9.55250E-05-2.46482E-05-3.03831E-05-1.36273E-06-9.06676E-19-1.64162E-18
 -1      3781 9.58573E-05-2.55546E-05-3.01302E-05-8.65150E-07-8.66107E-19-1.62948E-18
 -1      3782 9.54142E-05-2.42568E-05-3.04937E-05-1.14870E-06-7.64427E-19-1.45170E-18
 -1      3783 9.51662E-05-2.82381E-05-2.86815E-05-8.10892E-07 2.39846E-19-1.06398E-18
 -1      3784 9.52259E-05-2.83458E-05-2.86650E-05-7.57948E-07 1.88828E-19-8.49925E-19
 -1      3785 9.50697E-05-2.81184E-05-2.86927E-05-7.82098E-07-7.82382E-20-8.98443E-19
 -1      3786 9.53211E-05-2.84589E-05-2.86533E-05-7.23662E-07 2.27362E-19-6.34256E-19
 -1      3787 9.53762E-05-2.85527E-05-2.86402E-05-6.98227E-07 3.69113E-19-3.45443E-19
 -1      3788 9.52698E-05-2.83773E-05-2.86680E-05-6.86133E-07 5.27749E-19-4.72936E-19
 -1      3789 9.47928E-05-2.77041E-05-2.87499E-05-1.17656E-06-5.94647E-19-4.21636E-20
 -1      3790 9.48694E-05-2.78407E-05-2.87298E-05-1.05381E-06-5.88944E-19-4.59028E-19
 -1      3791 9.48417E-05-2.78236E-05-2.87208E-05-9.36749E-07-4.77531E-19-2.61963E-19
 -1      3792 9.45615E-05-2.73916E-05-2.87844E-05-1.47542E-06 1.80258E-19 1.39746E-19
 -1      3793 9.46491E-05-2.75408E-05-2.87646E-05-1.31034E-06-6.19343E-20-4.42714E-20
 -1      3794 9.45769E-05-2.74914E-05-2.87491E-05-1.16046E-06-4.21039E-19-4.80273E-19
 -1      3795 9.42960E-05-2.70563E-05-2.88139E-05-1.86593E-06 1.64642E-19 2.78746E-19
 -1      3796 9.43938E-05-2.72133E-05-2.87963E-05-1.65375E-06 4.38290E-19 2.97775E-19
 -1      3797 9.42672E-05-2.71241E-05-2.87733E-05-1.46464E-06 2.21982E-19-3.87093E-19
 -1      3798 9.39993E-05-2.67146E-05-2.88325E-05-2.35899E-06-3.37587E-19 4.30036E-20
 -1      3799 9.41033E-05-2.68693E-05-2.88199E-05-2.09544E-06-8.30150E-20 2.77671E-19
 -1      3800 9.39083E-05-2.67299E-05-2.87879E-05-1.86202E-06-2.27612E-20 3.43980E-19
 -1      3801 9.36844E-05-2.63964E-05-2.88331E-05-2.96513E-06-5.13214E-19 2.72619E-19
 -1      3802 9.37848E-05-2.65313E-05-2.88289E-05-2.64693E-06-6.65924E-19-3.58179E-19
 -1      3803 9.35020E-05-2.63276E-05-2.87860E-05-2.36688E-06-4.03457E-19-7.79189E-20
 -1      3804 9.33803E-05-2.61513E-05-2.88064E-05-3.69384E-06 6.80144E-19 3.30740E-19
 -1      3805 9.34584E-05-2.62381E-05-2.88150E-05-3.31934E-06 3.25742E-19 7.15613E-19
 -1      3806 9.30606E-05-2.59509E-05-2.87584E-05-2.99541E-06-3.54005E-19-5.13671E-19
 -1      3807 9.31397E-05-2.60556E-05-2.87424E-05-4.55253E-06 9.63878E-20 3.79819E-20
 -1      3808 9.31633E-05-2.60516E-05-2.87684E-05-4.12275E-06 6.81260E-19 1.75083E-19
 -1      3809 9.26137E-05-2.56553E-05-2.86944E-05-3.76619E-06 6.86864E-19 2.23616E-19
 -1      3810 9.30510E-05-2.62210E-05-2.86306E-05-5.54450E-06-1.18059E-19 1.59684E-20
 -1      3811 9.29685E-05-2.60647E-05-2.86784E-05-5.06486E-06-1.86702E-21-6.57217E-20
 -1      3812 9.22162E-05-2.55256E-05-2.85817E-05-4.70072E-06 1.12191E-19 1.07785E-20
 -1      3813 9.32534E-05-2.68029E-05-2.84640E-05-6.66380E-06-1.89379E-19-1.92286E-19
 -1      3814 9.29862E-05-2.64101E-05-2.85355E-05-6.14794E-06-4.71686E-20-1.82104E-20
 -1      3815 9.19616E-05-2.56851E-05-2.84084E-05-5.82320E-06 8.00188E-20-7.86956E-19
 -1      3816 9.39549E-05-2.80051E-05-2.82445E-05-7.88088E-06 2.49330E-19-9.68945E-19
 -1      3817 9.33907E-05-2.72683E-05-2.83360E-05-7.35913E-06-2.98091E-20-2.85728E-19
 -1      3818 9.20011E-05-2.63081E-05-2.81659E-05-7.15619E-06 2.23863E-19-1.50420E-18
 -1      3819 9.54495E-05-3.00724E-05-2.79941E-05-9.11571E-06 3.76117E-19-6.84027E-19
 -1      3820 9.44365E-05-2.88667E-05-2.80899E-05-8.65170E-06 7.33424E-20-5.46440E-19
 -1      3821 9.25641E-05-2.76219E-05-2.78564E-05-8.70460E-06 1.93091E-19-7.05887E-19
 -1      3822 9.81263E-05-3.32718E-05-2.77698E-05-1.01730E-05 4.47827E-20-7.42254E-20
 -1      3823 9.64915E-05-3.14788E-05-2.78336E-05-9.90299E-06 7.86533E-19-9.14399E-20
 -1      3824 9.39930E-05-2.99235E-05-2.75040E-05-1.04341E-05 8.66468E-20 3.49688E-19
 -1      3825 1.02401E-04-3.77180E-05-2.77036E-05-1.05858E-05-1.05144E-18-1.41965E-18
 -1      3826 1.00023E-04-3.53352E-05-2.76584E-05-1.07649E-05-4.68311E-19-4.16619E-19
 -1      3827 9.68323E-05-3.35462E-05-2.71767E-05-1.21892E-05 1.65306E-19 7.62545E-19
 -1      3828 1.15395E-04-4.73506E-05-2.92172E-05-5.76910E-06-1.94702E-18 4.19493E-19
 -1      3829 9.51738E-05-2.39234E-05-3.05179E-05 2.16939E-06 1.31400E-18-1.26914E-18
 -1      3830 1.08212E-04-4.13857E-05-2.85448E-05 1.40239E-05-2.68024E-18-1.40954E-18
 -1      3831 1.11400E-04-4.44042E-05-2.87231E-05 1.28273E-05-2.43542E-18-3.21697E-19
 -1      3832 7.99485E-05-2.37669E-05-2.39655E-05-2.03184E-05 1.01301E-18 5.68883E-18
 -1      3833 1.08009E-04-4.50575E-05-2.69048E-05 2.04168E-05-2.08283E-18-8.22747E-19
 -1      3834 9.39860E-05-2.12533E-05-3.11744E-05-1.00394E-06-4.98543E-19-2.18444E-18
 -1      3835 9.41117E-05-2.15284E-05-3.11202E-05-1.52031E-06-6.94867E-19-1.97592E-18
 -1      3836 9.48273E-05-2.28782E-05-3.08230E-05-1.14285E-06-6.69658E-19-1.77357E-18
 -1      3837 9.57283E-05-2.64539E-05-2.96961E-05 9.50596E-07 1.18472E-18-7.96024E-19
 -1      3838 9.56532E-05-2.59151E-05-2.98777E-05 1.53439E-06 1.21479E-18-6.85647E-19
 -1      3839 9.55636E-05-2.53530E-05-3.00978E-05 1.74542E-06 1.27949E-18-1.03292E-18
 -1      3840 9.58890E-05-2.64511E-05-2.97623E-05 7.83904E-07 1.11526E-18-1.15854E-18
 -1      3841 9.26634E-05-3.20824E-05-2.59309E-05 2.10960E-05-1.06740E-18-2.80798E-18
 -1      3842 9.03371E-05-3.45325E-05-2.40236E-05-2.09828E-05-1.70941E-18 1.87061E-18
 -1      3843 9.94313E-05-4.10127E-05-2.49009E-05-2.11418E-05-2.23564E-18 1.02785E-18
 -1      3844 1.23879E-04-5.21646E-05-3.05491E-05 6.84715E-06-4.65332E-19-7.30301E-19
 -1      3845 7.07366E-05-2.09198E-05-2.10655E-05-1.74991E-05-6.64658E-19-6.21246E-20
 -1      3846 7.92829E-05-2.68897E-05-2.25884E-05-1.99121E-05-1.75657E-18 5.18556E-19
 -1      3847 7.03436E-05-1.90297E-05-2.18701E-05-1.24513E-05-1.29245E-19 5.58777E-20
 -1      3848 9.61073E-05-2.62010E-05-2.99603E-05-6.35806E-07-8.17359E-19-1.54569E-18
 -1      3849 9.62832E-05-2.68590E-05-2.97577E-05-2.49893E-07-6.59952E-19-1.44147E-18
 -1      3850 9.64233E-05-2.69692E-05-2.97624E-05-1.60548E-07-3.22145E-19-1.09706E-18
 -1      3851 9.60847E-05-2.59132E-05-3.00729E-05-5.65884E-07-6.79833E-19-1.26371E-18
 -1      3852 9.38622E-05-2.10130E-05-3.12281E-05-1.10775E-07-1.08631E-20-1.73121E-18
 -1      3853 9.38996E-05-2.11032E-05-3.12112E-05-6.68346E-07-3.88936E-19-2.03900E-18
 -1      3854 9.46748E-05-2.24891E-05-3.09206E-05-5.06281E-07-3.62479E-19-1.88461E-18
 -1      3855 9.45860E-05-2.22864E-05-3.09660E-05 1.12175E-07 5.47860E-20-1.67280E-18
 -1      3856 1.11449E-04-4.54330E-05-2.82452E-05-9.07326E-06-2.06252E-18-2.71054E-19
 -1      3857 1.19568E-04-5.00253E-05-2.97881E-05 8.92606E-06-1.48710E-18-6.65450E-19
 -1      3858 1.04318E-04-4.27099E-05-2.63616E-05-1.62715E-05-2.49269E-18 1.46253E-18
 -1      3859 9.56550E-05-2.88810E-05-2.86181E-05-7.05312E-07-1.35142E-19 3.68324E-19
 -1      3860 9.57890E-05-2.89542E-05-2.86446E-05-6.53493E-07-7.51616E-21 6.92139E-20
 -1      3861 9.56019E-05-2.88149E-05-2.86213E-05-6.91367E-07-1.17161E-19 2.62412E-19
 -1      3862 9.61616E-05-2.86078E-05-2.89543E-05-7.85870E-07 6.90115E-19-5.80040E-19
 -1      3863 9.50802E-05-2.33683E-05-3.07409E-05 2.45679E-07 2.74629E-19-1.49869E-18
 -1      3864 9.51029E-05-2.34262E-05-3.07304E-05-4.97043E-08 6.06008E-20-1.46581E-18
 -1      3865 9.59547E-05-2.90738E-05-2.86647E-05-6.93014E-07 3.45140E-19 2.56862E-19
 -1      3866 9.58772E-05-2.90467E-05-2.86403E-05-7.76880E-07 1.56364E-19 5.35586E-19
 -1      3867 9.59340E-05-2.90746E-05-2.86536E-05-8.03560E-07 9.60385E-20 4.03408E-19
 -1      3868 6.07408E-05-1.40422E-05-1.99133E-05 1.65821E-06 1.28357E-18-2.54725E-18
 -1      3869 6.53875E-05-1.52039E-05-2.13520E-05-1.59197E-06 3.85939E-19-1.34260E-18
 -1      3870 1.11833E-04-4.64388E-05-2.81432E-05 1.62332E-05-2.43752E-18-1.08081E-18
 -1      3871 1.15233E-04-4.71618E-05-2.89955E-05 1.15056E-05-2.37181E-18-7.20471E-19
 -1      3872 1.08617E-04-4.30924E-05-2.80565E-05-9.51133E-06-1.83724E-18-1.02301E-18
 -1      3873 1.05488E-04-4.05069E-05-2.77573E-05-1.06433E-05-1.69446E-18-1.52003E-18
 -1      3874 9.54314E-05-2.46820E-05-3.03227E-05 1.61000E-06 1.25866E-18-1.40565E-18
 -1      3875 6.98528E-05-1.60016E-05-2.29411E-05 5.75509E-06 3.78301E-19-1.48770E-18
 -1      3876 7.20027E-05-1.80687E-05-2.30522E-05 9.84392E-06 5.73905E-19-1.44694E-18
 -1      3877 7.26542E-05-2.11338E-05-2.21606E-05-1.93689E-05 1.71506E-18 5.73566E-18
 -1      3878 1.04252E-04-4.15022E-05-2.68143E-05 2.06330E-05-1.77571E-18-8.96791E-19
 -1      3879 1.05660E-04-4.08019E-05-2.78489E-05 1.75199E-05-2.33008E-18-1.47060E-18
 -1      3880 6.31432E-05-1.57643E-05-2.03450E-05 8.85878E-06 1.31306E-18-1.28715E-18
 -1      3881 9.62908E-05-2.75240E-05-2.94779E-05-6.47240E-08 6.56135E-19-8.46951E-19
 -1      3882 9.62208E-05-2.70315E-05-2.96457E-05 2.77825E-07 7.32882E-19-9.82557E-19
 -1      3883 9.61525E-05-2.90796E-05-2.87451E-05-8.60569E-07 7.54705E-19-6.55110E-20
 -1      3884 9.62087E-05-2.90350E-05-2.87866E-05-8.56075E-07 5.94326E-19-3.00118E-19
 -1      3885 9.62736E-05-2.89659E-05-2.88467E-05-8.42844E-07 4.95608E-19-2.79593E-19
 -1      3886 9.63224E-05-2.88601E-05-2.89091E-05-7.96676E-07 6.69909E-19-3.60057E-19
 -1      3887 9.64189E-05-2.90387E-05-2.88792E-05-7.49390E-07 5.08458E-19-2.47130E-19
 -1      3888 8.63010E-05-3.04643E-05-2.37295E-05-2.00301E-05-1.52897E-18 9.30697E-19
 -1      3889 9.21630E-05-3.37288E-05-2.50888E-05-1.80566E-05-1.23545E-18 1.84282E-18
 -1      3890 8.17431E-05-2.64357E-05-2.37418E-05-1.72661E-05-7.48546E-19 6.59487E-19
 -1      3891 1.05719E-04-3.94564E-05-2.84054E-05 1.49323E-05-2.83061E-18-1.20325E-18
 -1      3892 6.47922E-05-1.76917E-05-2.00200E-05-1.43992E-05 1.61651E-18 5.62766E-18
 -1      3893 9.54642E-05-2.86509E-05-2.86325E-05-6.87120E-07 1.92655E-19-1.66375E-19
 -1      3894 9.55173E-05-2.87312E-05-2.86237E-05-6.84136E-07 1.07182E-19 2.32769E-19
 -1      3895 9.56224E-05-2.87952E-05-2.86409E-05-6.31654E-07 6.41052E-20 4.24507E-20
 -1      3896 9.51077E-05-2.34573E-05-3.07145E-05 5.24442E-07 4.32034E-19-1.50605E-18
 -1      3897 9.56181E-05-2.44446E-05-3.04901E-05 3.40965E-07 5.25228E-19-1.29561E-18
 -1      3898 9.51678E-05-2.36277E-05-3.06707E-05 8.74118E-07 7.03541E-19-1.40773E-18
 -1      3899 1.01544E-04-3.85765E-05-2.70576E-05-1.32108E-05-8.87666E-19-3.43009E-19
 -1      3900 9.54514E-05-2.86025E-05-2.86498E-05-6.39163E-07 4.41575E-19-5.65377E-19
 -1      3901 9.61665E-05-2.64707E-05-2.98680E-05 4.84745E-07 6.91994E-19-9.97931E-19
 -1      3902 9.60185E-05-2.63891E-05-2.98479E-05 6.33234E-07 8.18101E-19-1.17213E-18
 -1      3903 9.58807E-05-2.58608E-05-3.00002E-05 1.05044E-06 9.93200E-19-1.19046E-18
 -1      3904 9.53604E-05-2.40661E-05-3.05652E-05-9.44935E-07-6.35298E-19-1.50045E-18
 -1      3905 9.58260E-05-2.50741E-05-3.03141E-05-6.38890E-07-5.98727E-19-1.39938E-18
 -1      3906 9.52819E-05-2.38240E-05-3.06265E-05-6.42344E-07-4.15616E-19-1.67746E-18
 -1      3907 9.66800E-05-2.76053E-05-2.96025E-05 6.04281E-08-1.16060E-19-8.77485E-19
 -1      3908 9.67574E-05-2.80391E-05-2.94538E-05 2.28305E-07-9.63400E-20-7.78202E-19
 -1      3909 9.68135E-05-2.83966E-05-2.93194E-05 3.07924E-07-2.42314E-19-6.28535E-19
 -1      3910 9.68117E-05-2.86675E-05-2.92067E-05 4.08245E-07-3.07745E-19-4.94489E-19
 -1      3911 9.68534E-05-2.81599E-05-2.94394E-05 1.92265E-07-1.14442E-19-8.26921E-19
 -1      3912 9.67924E-05-2.88779E-05-2.91042E-05 4.47775E-07-3.32495E-19-4.66314E-19
 -1      3913 9.67435E-05-2.90305E-05-2.90206E-05 4.98284E-07-6.00539E-19-3.56015E-19
 -1      3914 9.68861E-05-2.87530E-05-2.92002E-05 3.20299E-07-3.01547E-19-8.00497E-19
 -1      3915 9.66785E-05-2.91371E-05-2.89447E-05 5.10250E-07-6.20722E-19-2.09720E-19
 -1      3916 9.66032E-05-2.92048E-05-2.88848E-05 5.27580E-07-5.94220E-19-3.37981E-19
 -1      3917 9.68007E-05-2.90907E-05-2.90198E-05 3.83926E-07-5.49571E-19-6.27980E-19
 -1      3918 9.65117E-05-2.92375E-05-2.88306E-05 5.22729E-07-6.36971E-19-2.20558E-19
 -1      3919 9.64231E-05-2.92455E-05-2.87896E-05 5.20764E-07-4.13826E-19-2.99798E-19
 -1      3920 9.66442E-05-2.92432E-05-2.88879E-05 4.03794E-07-5.98473E-19-4.92152E-19
 -1      3921 9.63181E-05-2.92264E-05-2.87529E-05 5.07717E-07-3.14535E-19-1.58648E-19
 -1      3922 9.62239E-05-2.91921E-05-2.87269E-05 4.97012E-07-5.17190E-19-2.76412E-19
 -1      3923 9.64487E-05-2.92637E-05-2.87954E-05 3.98100E-07-4.25720E-19-3.82621E-20
 -1      3924 9.61127E-05-2.91362E-05-2.87039E-05 4.82224E-07-6.26810E-19-2.44987E-19
 -1      3925 9.60164E-05-2.90712E-05-2.86896E-05 4.70829E-07-5.39356E-19-1.34092E-19
 -1      3926 9.62341E-05-2.91909E-05-2.87344E-05 3.81102E-07-4.40312E-19 1.72814E-21
 -1      3927 9.59016E-05-2.89878E-05-2.86775E-05 4.59194E-07-4.92947E-19-3.31886E-20
 -1      3928 9.58037E-05-2.88987E-05-2.86724E-05 4.53261E-07 4.72617E-22-3.07857E-20
 -1      3929 9.60101E-05-2.90503E-05-2.86983E-05 3.63522E-07-3.88851E-19 2.94855E-20
 -1      3930 9.56846E-05-2.87926E-05-2.86686E-05 4.48510E-07 2.11132E-19 7.33928E-21
 -1      3931 9.55826E-05-2.86823E-05-2.86705E-05 4.52835E-07 2.92877E-19 1.22265E-19
 -1      3932 9.57785E-05-2.88567E-05-2.86815E-05 3.53561E-07 4.86021E-20-1.34329E-19
 -1      3933 9.54558E-05-2.85547E-05-2.86730E-05 4.57871E-07-1.29372E-20-1.56219E-19
 -1      3934 9.53456E-05-2.84233E-05-2.86801E-05 4.76322E-07-2.93792E-19 2.95934E-20
 -1      3935 9.55352E-05-2.86167E-05-2.86795E-05 3.57468E-07-2.12639E-20-8.04476E-19
 -1      3936 9.52051E-05-2.82728E-05-2.86869E-05 4.93456E-07-9.80114E-20 3.81584E-19
 -1      3937 9.50804E-05-2.81178E-05-2.86976E-05 5.29254E-07 4.52865E-20 6.34778E-19
 -1      3938 9.52710E-05-2.83306E-05-2.86881E-05 3.80046E-07 9.37016E-20-2.04719E-19
 -1      3939 9.49185E-05-2.79408E-05-2.87070E-05 5.60312E-07-2.97174E-19 9.55695E-19
 -1      3940 9.47711E-05-2.77582E-05-2.87196E-05 6.16147E-07-3.19460E-19 1.08472E-18
 -1      3941 9.49722E-05-2.79937E-05-2.87036E-05 4.24908E-07-1.95577E-20 5.12846E-19
 -1      3942 9.45779E-05-2.75497E-05-2.87293E-05 6.62421E-07-3.71915E-19 1.07881E-18
 -1      3943 9.43979E-05-2.73341E-05-2.87418E-05 7.40397E-07-4.53570E-19 4.95006E-19
 -1      3944 9.46213E-05-2.75979E-05-2.87218E-05 4.94476E-07-2.89652E-19 8.56401E-19
 -1      3945 9.41615E-05-2.70883E-05-2.87494E-05 8.02452E-07-4.96516E-19 2.46138E-19
 -1      3946 9.39368E-05-2.68338E-05-2.87593E-05 9.03865E-07-5.19821E-19-3.00085E-19
 -1      3947 9.41970E-05-2.71326E-05-2.87380E-05 5.89664E-07-6.74042E-19 1.38836E-19
 -1      3948 9.36434E-05-2.65444E-05-2.87614E-05 9.81173E-07-4.98443E-19-3.72700E-19
 -1      3949 9.33594E-05-2.62451E-05-2.87651E-05 1.10612E-06-1.15398E-19-2.57456E-19
 -1      3950 9.36738E-05-2.65864E-05-2.87463E-05 7.09231E-07-7.61145E-19-5.15593E-19
 -1      3951 9.29929E-05-2.59062E-05-2.87572E-05 1.19656E-06-1.11621E-19-3.18703E-19
 -1      3952 9.26324E-05-2.55568E-05-2.87497E-05 1.34346E-06-5.12237E-19-4.33264E-19
 -1      3953 9.30223E-05-2.59482E-05-2.87387E-05 8.48816E-07-1.71868E-19-1.76914E-19
 -1      3954 9.21739E-05-2.51641E-05-2.87255E-05 1.44272E-06-6.13481E-19-1.74714E-19
 -1      3955 9.17164E-05-2.47611E-05-2.86998E-05 1.60790E-06-4.24773E-19 3.49751E-19
 -1      3956 9.22081E-05-2.52090E-05-2.87041E-05 9.99693E-07-2.00844E-19-2.29263E-19
 -1      3957 9.11441E-05-2.43123E-05-2.86508E-05 1.70898E-06-2.67691E-19 2.38423E-19
 -1      3958 9.05651E-05-2.38549E-05-2.85970E-05 1.88656E-06 3.83293E-20 6.65403E-19
 -1      3959 9.11915E-05-2.43636E-05-2.86277E-05 1.14744E-06-5.51695E-19 6.85964E-19
 -1      3960 8.98523E-05-2.33513E-05-2.85110E-05 1.97962E-06-3.13259E-19 3.91327E-19
 -1      3961 8.91221E-05-2.28425E-05-2.84154E-05 2.16241E-06-9.14669E-19 4.29125E-19
 -1      3962 8.99251E-05-2.34124E-05-2.84887E-05 1.27088E-06-4.95140E-19 6.05567E-19
 -1      3963 8.82348E-05-2.22893E-05-2.82757E-05 2.23549E-06-5.54927E-19 8.50015E-19
 -1      3964 8.73168E-05-2.17375E-05-2.81189E-05 2.41766E-06-1.94587E-19 8.62603E-19
 -1      3965 8.83504E-05-2.23625E-05-2.82585E-05 1.34198E-06-5.62751E-19 9.05424E-19
 -1      3966 8.62082E-05-2.11442E-05-2.79023E-05 2.45957E-06-3.44565E-19 9.43381E-19
 -1      3967 8.50537E-05-2.05635E-05-2.76569E-05 2.64267E-06-9.71280E-20 8.10590E-19
 -1      3968 8.63898E-05-2.12271E-05-2.78974E-05 1.32796E-06 3.01232E-20 9.40969E-19
 -1      3969 8.36565E-05-1.99435E-05-2.73306E-05 2.64386E-06-9.02784E-19 1.32870E-18
 -1      3970 8.21985E-05-1.93491E-05-2.69579E-05 2.84557E-06-4.37573E-19 6.77396E-19
 -1      3971 8.39364E-05-2.00267E-05-2.73494E-05 1.19774E-06-3.52633E-19 6.73288E-19
 -1      3972 8.03892E-05-1.87105E-05-2.64728E-05 2.82083E-06-3.01797E-20-5.36352E-20
 -1      3973 7.85303E-05-1.81309E-05-2.59143E-05 3.09906E-06-1.12018E-19-4.31544E-19
 -1      3974 8.08080E-05-1.87544E-05-2.65350E-05 9.04516E-07-8.77565E-19 1.00105E-20
 -1      3975 7.61028E-05-1.74237E-05-2.51930E-05 3.08380E-06-3.88924E-20-1.04654E-18
 -1      3976 7.36640E-05-1.69564E-05-2.43376E-05 3.57131E-06 1.09105E-19-1.46281E-18
 -1      3977 7.67370E-05-1.74534E-05-2.53315E-05 4.93550E-07-7.25714E-19-1.16538E-18
 -1      3978 9.43749E-05-2.72914E-05-2.87486E-05-1.08411E-06 1.52462E-20-5.49651E-19
 -1      3979 9.45194E-05-2.74775E-05-2.87359E-05-9.58669E-07-1.64122E-19-8.10645E-20
 -1      3980 9.51582E-05-2.35256E-05-3.07040E-05-2.24943E-07-7.75182E-20-1.46857E-18
 -1      3981 9.52173E-05-2.36802E-05-3.06700E-05-4.96619E-07-2.72092E-19-1.56596E-18
 -1      3982 9.57502E-05-2.47376E-05-3.04201E-05-3.34219E-07-2.62538E-19-1.37331E-18
 -1      3983 9.56525E-05-2.44792E-05-3.04881E-05-6.21294E-08 1.66586E-19-1.20144E-18
 -1      3984 6.77788E-05-1.54189E-05-2.25175E-05 1.07226E-06 3.45288E-19-2.18701E-18
 -1      3985 6.77594E-05-1.57956E-05-2.22845E-05-4.46289E-06-3.31170E-20-8.40151E-19
 -1      3986 9.49768E-05-2.80026E-05-2.87019E-05-7.13338E-07-3.03728E-19 1.64594E-19
 -1      3987 9.50841E-05-2.81483E-05-2.86890E-05-6.53352E-07 4.84714E-20 8.23685E-20
 -1      3988 9.52176E-05-2.82951E-05-2.86797E-05-6.14994E-07 3.07902E-19-8.88064E-20
 -1      3989 9.53133E-05-2.84221E-05-2.86693E-05-5.80299E-07 5.70608E-19 1.05425E-19
 -1      3990 9.51295E-05-2.81866E-05-2.86890E-05-5.41400E-07 3.47421E-20 1.22355E-18
 -1      3991 9.39926E-05-2.68724E-05-2.87641E-05-1.37879E-06 9.81173E-20-2.22846E-19
 -1      3992 9.41612E-05-2.70769E-05-2.87550E-05-1.21213E-06 1.98587E-19-6.78805E-19
 -1      3993 9.41241E-05-2.70520E-05-2.87420E-05-9.94904E-07 5.57232E-20 2.68052E-19
 -1      3994 9.35458E-05-2.64200E-05-2.87661E-05-1.76445E-06-1.87284E-19-2.03926E-19
 -1      3995 9.37396E-05-2.66372E-05-2.87638E-05-1.54991E-06 1.31362E-19-1.89980E-19
 -1      3996 9.36609E-05-2.65768E-05-2.87462E-05-1.27809E-06 1.93232E-19-1.01131E-19
 -1      3997 9.30345E-05-2.59533E-05-2.87462E-05-2.25818E-06-3.61588E-19-6.15567E-19
 -1      3998 9.32501E-05-2.61713E-05-2.87548E-05-1.98804E-06 1.27269E-20-1.49045E-19
 -1      3999 9.31157E-05-2.60625E-05-2.87320E-05-1.65234E-06 1.81170E-19-5.91752E-19
 -1      4000 9.24689E-05-2.55072E-05-2.86938E-05-2.88110E-06 1.56284E-20-1.08134E-18
 -1      4001 9.26965E-05-2.57052E-05-2.87185E-05-2.54624E-06-6.18812E-19-1.00428E-18
 -1      4002 9.24850E-05-2.55292E-05-2.86895E-05-2.13923E-06-2.88761E-19-9.16673E-19
 -1      4003 9.18767E-05-2.51384E-05-2.85961E-05-3.65992E-06 2.19324E-19 2.40230E-19
 -1      4004 9.20957E-05-2.52835E-05-2.86430E-05-3.24926E-06 2.21268E-19-2.63576E-19
 -1      4005 9.17755E-05-2.50131E-05-2.86061E-05-2.76719E-06-4.69003E-19-7.98734E-19
 -1      4006 9.13112E-05-2.49335E-05-2.84384E-05-4.62898E-06 1.51546E-19-3.59331E-20
 -1      4007 9.14852E-05-2.49763E-05-2.85142E-05-4.12888E-06 3.61554E-19 2.29038E-19
 -1      4008 9.10095E-05-2.45730E-05-2.84664E-05-3.57461E-06 2.15705E-19 4.37272E-19
 -1      4009 9.08647E-05-2.50183E-05-2.82057E-05-5.83226E-06 2.87379E-19-1.03010E-18
 -1      4010 9.09331E-05-2.48876E-05-2.83166E-05-5.22642E-06 1.34313E-19-5.51723E-19
 -1      4011 9.02332E-05-2.42976E-05-2.82528E-05-4.61382E-06 2.44050E-19-4.90582E-19
 -1      4012 9.06868E-05-2.55716E-05-2.78855E-05-7.32444E-06-2.27503E-19-6.53981E-19
 -1      4013 9.05543E-05-2.51660E-05-2.80351E-05-6.59578E-06-2.72768E-20-5.47181E-19
 -1      4014 8.95276E-05-2.43148E-05-2.79461E-05-5.95658E-06 5.89587E-20-8.45168E-19
 -1      4015 9.10183E-05-2.68395E-05-2.74758E-05-9.15133E-06-1.71822E-19 4.70790E-19
 -1      4016 9.05444E-05-2.60259E-05-2.76596E-05-8.29393E-06-1.41307E-19 3.95077E-19
 -1      4017 8.90385E-05-2.48227E-05-2.75276E-05-7.70222E-06-1.05133E-18 1.42421E-18
 -1      4018 9.21918E-05-2.91255E-05-2.69956E-05-1.13546E-05-5.53330E-19 1.32305E-18
 -1      4019 9.11839E-05-2.77237E-05-2.71975E-05-1.03602E-05-4.07940E-19 4.91751E-19
 -1      4020 8.89975E-05-2.60683E-05-2.69902E-05-9.93956E-06-6.71138E-19 1.43374E-18
 -1      4021 1.07874E-04-4.43770E-05-2.72309E-05-1.34956E-05-2.33737E-18 4.39266E-20
 -1      4022 9.54333E-05-2.85494E-05-2.86631E-05-5.62038E-07 3.38288E-19-2.39255E-19
 -1      4023 9.55217E-05-2.86588E-05-2.86566E-05-5.48021E-07 3.24011E-19-3.49641E-19
 -1      4024 9.53805E-05-2.84733E-05-2.86744E-05-4.85608E-07 2.29121E-19 4.13066E-19
 -1      4025 9.54794E-05-2.45802E-05-3.03890E-05 1.35517E-06 1.09909E-18-1.19576E-18
 -1      4026 9.60748E-05-2.90948E-05-2.87045E-05-8.47277E-07 3.99175E-19 3.54656E-19
 -1      4027 9.62780E-05-2.91408E-05-2.87750E-05-7.62729E-07 3.22089E-19 2.08789E-19
 -1      4028 9.60168E-05-2.90968E-05-2.86790E-05-8.29019E-07-5.66987E-20 4.80847E-19
 -1      4029 9.63766E-05-2.79410E-05-2.93237E-05-2.87373E-07 6.61551E-19-6.21903E-19
 -1      4030 9.64548E-05-2.76016E-05-2.95086E-05-9.75053E-08 6.43299E-19-8.66512E-19
 -1      4031 9.63820E-05-2.82594E-05-2.91994E-05-4.98635E-07 5.82041E-19-6.68581E-19
 -1      4032 9.46996E-05-2.76687E-05-2.87262E-05-8.66274E-07-5.82120E-19 2.98985E-19
 -1      4033 9.48233E-05-2.78344E-05-2.87124E-05-7.76183E-07-5.49579E-19 2.44398E-21
 -1      4034 9.45147E-05-2.74791E-05-2.87272E-05-7.86126E-07-2.54091E-19 4.15201E-19
 -1      4035 9.63083E-05-2.66728E-05-2.98498E-05 2.71449E-07 7.41916E-19-1.09637E-18
 -1      4036 9.60916E-05-2.59545E-05-3.00546E-05 6.27391E-07 7.29586E-19-1.01842E-18
 -1      4037 1.01148E-04-3.99071E-05-2.62557E-05-1.60588E-05-1.65796E-18 7.74987E-19
 -1      4038 7.04540E-05-1.75494E-05-2.25997E-05-8.96549E-06 1.79324E-20 2.69740E-19
 -1      4039 7.54263E-05-2.12518E-05-2.33282E-05-1.33821E-05-3.85883E-19 1.00377E-18
 -1      4040 7.29179E-05-1.76534E-05-2.36258E-05-6.14870E-06-3.40539E-19-1.04537E-19
 -1      4041 9.63605E-05-2.87126E-05-2.89940E-05-7.38485E-07 7.74224E-19-5.99256E-19
 -1      4042 9.63911E-05-2.85189E-05-2.90835E-05-6.25344E-07 6.14465E-19-6.27632E-19
 -1      4043 9.65493E-05-2.83402E-05-2.92336E-05-4.62380E-07 6.04628E-19-6.89319E-19
 -1      4044 9.65207E-05-2.87923E-05-2.90282E-05-6.62984E-07 6.23830E-19-2.87529E-19
 -1      4045 9.83797E-05-3.67802E-05-2.62963E-05-1.54953E-05-8.10649E-19 9.08312E-19
 -1      4046 9.36203E-05-3.31832E-05-2.59373E-05-1.53986E-05 1.81196E-19 9.35085E-19
 -1      4047 9.60152E-05-2.90914E-05-2.86803E-05-5.87209E-07 1.18084E-19 4.48864E-19
 -1      4048 9.60990E-05-2.91406E-05-2.86961E-05-6.04223E-07 2.29357E-19 3.15426E-19
 -1      4049 9.65663E-05-2.71982E-05-2.97325E-05-3.09039E-08-1.14436E-19-9.05563E-19
 -1      4050 9.66815E-05-2.73606E-05-2.97070E-05 5.77350E-09-6.45541E-20-7.82427E-19
 -1      4051 9.64456E-05-2.67422E-05-2.98726E-05-2.15971E-07-1.71304E-19-9.72218E-19
 -1      4052 7.23346E-05-1.63062E-05-2.39806E-05-7.14798E-07 6.16878E-20-1.34130E-18
 -1      4053 7.19596E-05-1.64861E-05-2.37323E-05 2.91487E-06 2.19200E-19-1.63476E-18
 -1      4054 9.61195E-05-2.91426E-05-2.87061E-05-7.35725E-07 8.26360E-20 3.05169E-19
 -1      4055 9.59645E-05-2.52518E-05-3.03067E-05 3.31058E-08 3.67652E-19-9.35284E-19
 -1      4056 9.60063E-05-2.53714E-05-3.02812E-05-9.45606E-08 1.22942E-19-9.14221E-19
 -1      4057 9.53337E-05-2.41131E-05-3.05314E-05 1.35762E-06 9.65671E-19-1.30762E-18
 -1      4058 9.52145E-05-2.37775E-05-3.06204E-05 1.08036E-06 6.99391E-19-1.37111E-18
 -1      4059 9.48453E-05-2.78565E-05-2.87080E-05-6.38543E-07-4.03326E-19 5.29417E-19
 -1      4060 9.58130E-05-2.53153E-05-3.02145E-05 8.68938E-07 7.28463E-19-1.04963E-18
 -1      4061 7.96510E-05-2.23110E-05-2.45785E-05-1.19853E-05-8.09644E-20 7.31923E-19
 -1      4062 8.01903E-05-2.38854E-05-2.40310E-05-1.47386E-05 7.05717E-20 8.80613E-19
 -1      4063 8.53476E-05-2.72856E-05-2.49744E-05-1.53267E-05-1.42116E-19 5.45231E-19
 -1      4064 9.47834E-05-3.29427E-05-2.65088E-05-1.38414E-05 3.70703E-19 1.05963E-18
 -1      4065 9.29420E-05-3.06788E-05-2.66775E-05-1.27472E-05 3.41857E-20 1.15020E-18
 -1      4066 9.60761E-05-2.57471E-05-3.01429E-05-4.36711E-07-4.57161E-19-1.31101E-18
 -1      4067 9.65985E-05-2.77628E-05-2.95054E-05-1.74330E-07 4.61196E-19-8.56752E-19
 -1      4068 9.65079E-05-2.72834E-05-2.96643E-05 6.62306E-08 5.54852E-19-1.03830E-18
 -1      4069 9.64409E-05-2.68133E-05-2.98388E-05 1.75954E-07 5.91819E-19-1.08578E-18
 -1      4070 9.59099E-05-2.90228E-05-2.86660E-05-5.70098E-07 9.93251E-20 1.44395E-19
 -1      4071 9.60379E-05-2.90890E-05-2.86938E-05-4.85455E-07 1.54620E-19 5.66794E-19
 -1      4072 9.58260E-05-2.89501E-05-2.86597E-05-5.57465E-07-2.61387E-20 1.19880E-19
 -1      4073 8.98388E-05-2.84800E-05-2.63506E-05-1.27899E-05-1.41552E-19 1.08577E-18
 -1      4074 9.56336E-05-2.87679E-05-2.86553E-05-5.45802E-07 3.46146E-19-5.60714E-19
 -1      4075 9.57185E-05-2.88598E-05-2.86543E-05-5.47736E-07 9.92382E-21-1.03279E-19
 -1      4076 9.58272E-05-2.89260E-05-2.86729E-05-4.65791E-07 2.68633E-19-2.33108E-19
 -1      4077 9.56836E-05-2.46992E-05-3.04080E-05 7.38252E-07 6.34671E-19-1.28365E-18
 -1      4078 9.59564E-05-2.55173E-05-3.01898E-05 6.31112E-07 6.59257E-19-1.05910E-18
 -1      4079 9.63795E-05-2.92004E-05-2.87904E-05-6.50172E-07 3.66548E-20 1.03373E-19
 -1      4080 9.64572E-05-2.91735E-05-2.88343E-05-6.49236E-07 2.44288E-19 1.10863E-20
 -1      4081 9.65365E-05-2.91190E-05-2.88933E-05-6.47422E-07 4.73642E-19-1.63719E-19
 -1      4082 9.66029E-05-2.90299E-05-2.89572E-05-6.16599E-07 5.35291E-19-1.89118E-19
 -1      4083 9.66130E-05-2.91726E-05-2.89052E-05-5.34613E-07 2.46000E-19-3.47680E-20
 -1      4084 9.56100E-05-2.87195E-05-2.86678E-05-4.63034E-07 1.74673E-19-2.96908E-19
 -1      4085 7.52434E-05-1.74329E-05-2.47635E-05-1.89441E-06-5.29159E-19-4.91717E-19
 -1      4086 7.34107E-05-1.68663E-05-2.41815E-05-2.90245E-06-4.55092E-19-5.87704E-19
 -1      4087 7.55377E-05-1.86651E-05-2.44277E-05-6.89402E-06-4.85267E-19 3.33896E-19
 -1      4088 7.74347E-05-1.79970E-05-2.54987E-05-1.41594E-06-9.43356E-19-3.51234E-19
 -1      4089 9.62014E-05-2.91812E-05-2.87219E-05-6.23175E-07 1.79390E-19 1.28030E-19
 -1      4090 9.62840E-05-2.91987E-05-2.87500E-05-6.36516E-07 2.85085E-20 1.87046E-20
 -1      4091 9.64401E-05-2.92363E-05-2.88034E-05-5.33657E-07 6.74225E-21-8.86177E-20
 -1      4092 9.62437E-05-2.91985E-05-2.87353E-05-5.12168E-07-1.37798E-20-2.92869E-19
 -1      4093 9.58774E-05-2.50744E-05-3.03498E-05 1.89938E-07 4.95529E-19-1.20381E-18
 -1      4094 9.62372E-05-2.58771E-05-3.01480E-05 1.29603E-07 3.16818E-19-1.04144E-18
 -1      4095 9.59448E-05-2.53852E-05-3.02419E-05 5.01985E-07 5.66730E-19-1.40773E-18
 -1      4096 9.69597E-05-2.86488E-05-2.92754E-05 1.88385E-07-3.41363E-19-6.71515E-19
 -1      4097 9.69416E-05-2.88779E-05-2.91708E-05 2.40189E-07-4.01121E-19-8.79292E-19
 -1      4098 9.68990E-05-2.90485E-05-2.90778E-05 2.46691E-07-3.96857E-19-7.86652E-19
 -1      4099 9.68362E-05-2.91689E-05-2.89999E-05 2.73573E-07-6.08920E-19-7.36508E-19
 -1      4100 9.69549E-05-2.89517E-05-2.91452E-05 1.24821E-07-3.33463E-19-6.77860E-19
 -1      4101 9.67532E-05-2.92442E-05-2.89313E-05 2.67492E-07-5.34900E-19-5.46300E-19
 -1      4102 9.66625E-05-2.92842E-05-2.88755E-05 2.78705E-07-2.75421E-19-3.61108E-19
 -1      4103 9.68336E-05-2.92097E-05-2.89842E-05 1.38275E-07-3.31651E-19-6.08310E-19
 -1      4104 9.65578E-05-2.92926E-05-2.88269E-05 2.69325E-07-2.26556E-19-1.88463E-19
 -1      4105 9.64532E-05-2.92768E-05-2.87888E-05 2.70880E-07-3.60396E-19-5.23640E-20
 -1      4106 9.66458E-05-2.92990E-05-2.88662E-05 1.42859E-07-3.33333E-20-1.42586E-19
 -1      4107 9.63373E-05-2.92376E-05-2.87563E-05 2.60380E-07-4.56793E-19 1.18825E-19
 -1      4108 9.62262E-05-2.91818E-05-2.87322E-05 2.57913E-07-2.73333E-19 1.23272E-19
 -1      4109 9.64268E-05-2.92705E-05-2.87845E-05 1.39794E-07-1.52390E-19 2.93791E-20
 -1      4110 9.61044E-05-2.91078E-05-2.87124E-05 2.48622E-07-2.06885E-19 9.09197E-20
 -1      4111 9.59897E-05-2.90222E-05-2.86993E-05 2.46538E-07-3.90687E-19 2.34925E-19
 -1      4112 9.61909E-05-2.91568E-05-2.87316E-05 1.34175E-07-2.94116E-19 1.74117E-19
 -1      4113 9.58632E-05-2.89211E-05-2.86894E-05 2.40066E-07-2.64970E-19 1.44294E-19
 -1      4114 9.57441E-05-2.88109E-05-2.86848E-05 2.41717E-07-3.32875E-20-8.18486E-20
 -1      4115 9.59450E-05-2.89793E-05-2.87014E-05 1.29463E-07-4.33905E-19 8.97541E-20
 -1      4116 9.56109E-05-2.86862E-05-2.86824E-05 2.39182E-07-3.09919E-19-1.46352E-20
 -1      4117 9.54840E-05-2.85531E-05-2.86842E-05 2.47085E-07-2.48835E-19-3.77121E-19
 -1      4118 9.56883E-05-2.87498E-05-2.86887E-05 1.27973E-07-2.00750E-19-9.44699E-20
 -1      4119 9.53395E-05-2.84050E-05-2.86871E-05 2.49203E-07 1.31056E-19-1.12889E-19
 -1      4120 9.51990E-05-2.82480E-05-2.86932E-05 2.65190E-07 3.59333E-19 2.91407E-19
 -1      4121 9.54139E-05-2.84723E-05-2.86888E-05 1.31126E-07 1.03743E-19 7.40150E-20
 -1      4122 9.50361E-05-2.80742E-05-2.86994E-05 2.72271E-07 2.04852E-19-5.06605E-20
 -1      4123 9.48740E-05-2.78900E-05-2.87079E-05 2.97514E-07 2.48025E-19 4.10313E-20
 -1      4124 9.51103E-05-2.81449E-05-2.86975E-05 1.39439E-07 2.72511E-19-2.38976E-19
 -1      4125 9.46839E-05-2.76866E-05-2.87152E-05 3.09347E-07 3.63550E-20 3.57189E-20
 -1      4126 9.44905E-05-2.74707E-05-2.87239E-05 3.44239E-07-5.10857E-19-2.11681E-20
 -1      4127 9.47618E-05-2.77619E-05-2.87106E-05 1.52327E-07 1.87348E-19-8.56262E-19
 -1      4128 9.42626E-05-2.72327E-05-2.87298E-05 3.59859E-07-4.44605E-19 6.59136E-20
 -1      4129 9.40258E-05-2.69797E-05-2.87361E-05 4.03739E-07-2.58196E-19 2.56721E-21
 -1      4130 9.43489E-05-2.73147E-05-2.87232E-05 1.67676E-07-3.92416E-19-8.25605E-19
 -1      4131 9.37480E-05-2.67019E-05-2.87375E-05 4.21032E-07-7.42407E-19 1.63192E-19
 -1      4132 9.34539E-05-2.64065E-05-2.87378E-05 4.71735E-07-5.86679E-19 1.09634E-19
 -1      4133 9.38492E-05-2.67939E-05-2.87297E-05 1.81131E-07-2.81601E-19 8.20532E-20
 -1      4134 9.31125E-05-2.60844E-05-2.87306E-05 4.86881E-07-3.29912E-19-8.92978E-20
 -1      4135 9.27449E-05-2.57421E-05-2.87203E-05 5.40118E-07-1.02570E-19-5.85769E-20
 -1      4136 9.32367E-05-2.61907E-05-2.87229E-05 1.85056E-07-3.60607E-19 3.84696E-19
 -1      4137 9.23248E-05-2.53726E-05-2.86989E-05 5.46832E-07 1.97315E-19-6.17047E-20
 -1      4138 9.18646E-05-2.49804E-05-2.86717E-05 5.95437E-07 4.37593E-20 1.83812E-19
 -1      4139 9.24829E-05-2.54987E-05-2.86928E-05 1.67090E-07-1.17857E-19 3.29450E-19
 -1      4140 9.13493E-05-2.45630E-05-2.86286E-05 5.84032E-07-3.20187E-19 3.53338E-19
 -1      4141 9.07741E-05-2.41209E-05-2.85756E-05 6.17172E-07-3.15057E-19 4.42412E-19
 -1      4142 9.15562E-05-2.47164E-05-2.86267E-05 1.08264E-07 8.26306E-20-6.83772E-20
 -1      4143 9.01450E-05-2.36588E-05-2.85008E-05 5.73439E-07-4.71304E-19 5.58661E-19
 -1      4144 8.94275E-05-2.31699E-05-2.84102E-05 5.75981E-07-7.29568E-19 3.55472E-19
 -1      4145 9.04215E-05-2.38486E-05-2.85071E-05-1.93914E-08-2.65960E-19 2.63806E-19
 -1      4146 8.86627E-05-2.26705E-05-2.82902E-05 4.79876E-07-3.41146E-19 9.59011E-19
 -1      4147 8.77678E-05-2.21415E-05-2.81452E-05 4.32238E-07 1.12645E-19 1.33579E-18
 -1      4148 8.90388E-05-2.29090E-05-2.83106E-05-2.55871E-07-1.55493E-19 1.29547E-18
 -1      4149 8.68387E-05-2.16165E-05-2.79615E-05 2.56224E-07-4.74096E-19 1.27985E-18
 -1      4150 8.57170E-05-2.10569E-05-2.77391E-05 1.35533E-07-1.86654E-19 1.15359E-18
 -1      4151 8.73588E-05-2.19202E-05-2.80057E-05-6.57370E-07-2.25642E-19 2.33049E-18
 -1      4152 8.45790E-05-2.05163E-05-2.74663E-05-1.56733E-07-6.30630E-20 1.22060E-19
 -1      4153 8.31677E-05-1.99375E-05-2.71338E-05-3.76168E-07-3.16118E-19 2.44658E-19
 -1      4154 8.53130E-05-2.09119E-05-2.75497E-05-1.30373E-06-8.02816E-19 1.22499E-18
 -1      4155 8.17655E-05-1.94324E-05-2.67345E-05-8.02001E-07-9.46002E-19 7.00287E-20
 -1      4156 8.00486E-05-1.88419E-05-2.62545E-05-1.17866E-06-1.19260E-18-4.50476E-19
 -1      4157 8.27530E-05-1.98895E-05-2.68811E-05-2.29491E-06-9.08691E-19-2.71275E-19
 -1      4158 9.33649E-05-2.63187E-05-2.87336E-05-1.10357E-06 3.56338E-19-3.35650E-19
 -1      4159 9.36173E-05-2.65799E-05-2.87361E-05-9.55115E-07 4.87834E-19 1.51152E-19
 -1      4160 9.60405E-05-2.54544E-05-3.02530E-05-1.78953E-07 5.61859E-20-9.84437E-19
 -1      4161 9.60956E-05-2.56195E-05-3.02102E-05-2.82718E-07-1.51095E-19-1.14255E-18
 -1      4162 9.63579E-05-2.61536E-05-3.00784E-05-6.27613E-08 7.41939E-20-7.12910E-19
 -1      4163 9.47249E-05-2.77261E-05-2.87133E-05-5.28602E-07-9.31529E-20 5.64321E-19
 -1      4164 9.48784E-05-2.79087E-05-2.87037E-05-4.72405E-07-1.73264E-19 9.80286E-19
 -1      4165 9.38999E-05-2.68434E-05-2.87381E-05-8.48390E-07 2.96307E-19 1.59837E-19
 -1      4166 9.41133E-05-2.70792E-05-2.87333E-05-7.37061E-07 3.33803E-19 3.77230E-19
 -1      4167 9.36406E-05-2.65881E-05-2.87280E-05-6.79329E-07 2.90007E-19 1.04452E-19
 -1      4168 9.27307E-05-2.57467E-05-2.87065E-05-1.44489E-06 6.49309E-20-1.54748E-19
 -1      4169 9.30254E-05-2.60275E-05-2.87208E-05-1.25048E-06 1.32625E-19-2.03579E-19
 -1      4170 9.30267E-05-2.60056E-05-2.87118E-05-9.03846E-07 2.81600E-19-9.08834E-21
 -1      4171 9.19902E-05-2.51465E-05-2.86455E-05-1.89669E-06-4.61838E-19-6.05236E-19
 -1      4172 9.23264E-05-2.54349E-05-2.86773E-05-1.64462E-06 4.40555E-20-2.54687E-19
 -1      4173 9.22929E-05-2.53671E-05-2.86677E-05-1.21241E-06-1.46993E-19 9.83506E-19
 -1      4174 9.11450E-05-2.45532E-05-2.85359E-05-2.49229E-06-5.18254E-19-3.92025E-19
 -1      4175 9.15154E-05-2.48279E-05-2.85924E-05-2.16667E-06-6.41696E-19-7.09445E-19
 -1      4176 9.14262E-05-2.46906E-05-2.85825E-05-1.63401E-06-1.96894E-19 5.71747E-21
 -1      4177 9.02105E-05-2.40229E-05-2.83600E-05-3.27782E-06 1.83582E-19-4.98484E-19
 -1      4178 9.05978E-05-2.42508E-05-2.84498E-05-2.85678E-06-4.15011E-19-7.80516E-19
 -1      4179 9.04198E-05-2.40087E-05-2.84390E-05-2.20944E-06-3.12733E-19-7.72857E-19
 -1      4180 8.92225E-05-2.36401E-05-2.80962E-05-4.31771E-06 4.99041E-19-5.19792E-19
 -1      4181 8.95945E-05-2.37718E-05-2.82293E-05-3.77079E-06 4.98894E-19-2.30996E-19
 -1      4182 8.92761E-05-2.33738E-05-2.82158E-05-2.99643E-06 3.43000E-19-1.09156E-18
 -1      4183 8.82469E-05-2.35268E-05-2.77204E-05-5.70304E-06-8.19638E-19 3.82597E-19
 -1      4184 8.85489E-05-2.34909E-05-2.79073E-05-4.98700E-06 1.91899E-19 1.10082E-19
 -1      4185 8.80105E-05-2.28634E-05-2.78863E-05-4.07671E-06-1.17892E-19-2.83810E-19
 -1      4186 8.73851E-05-2.38562E-05-2.72056E-05-7.58056E-06-1.65685E-18 1.48798E-18
 -1      4187 8.75303E-05-2.35322E-05-2.74569E-05-6.61703E-06-1.41729E-18 1.08721E-18
 -1      4188 8.66550E-05-2.25889E-05-2.74189E-05-5.56042E-06-1.50446E-18 9.91219E-19
 -1      4189 8.68964E-05-2.48893E-05-2.65365E-05-1.00536E-05-3.40154E-19 8.03275E-19
 -1      4190 8.67342E-05-2.41504E-05-2.68475E-05-8.80572E-06-7.86687E-19 1.19267E-18
 -1      4191 8.52860E-05-2.27848E-05-2.68002E-05-7.60406E-06-1.09561E-18 2.72574E-19
 -1      4192 8.93729E-05-2.99552E-05-2.54008E-05-1.58211E-05-9.50900E-20 4.67638E-19
 -1      4193 9.53265E-05-2.83990E-05-2.86823E-05-3.86410E-07 2.19540E-19 9.74462E-19
 -1      4194 9.54465E-05-2.85358E-05-2.86770E-05-3.66913E-07 1.85015E-19 6.16121E-19
 -1      4195 9.58953E-05-2.51631E-05-3.03197E-05 4.02863E-07 5.97886E-19-1.43869E-18
 -1      4196 9.43482E-05-2.73128E-05-2.87291E-05-6.61283E-07-1.50192E-19 3.85485E-19
 -1      4197 9.45283E-05-2.75215E-05-2.87205E-05-5.80246E-07-3.40424E-19 4.69077E-19
 -1      4198 9.41512E-05-2.71072E-05-2.87268E-05-5.18109E-07-3.41704E-20 2.59666E-19
 -1      4199 9.64163E-05-2.64182E-05-2.99978E-05 1.29671E-07 2.79399E-19-1.20975E-18
 -1      4200 9.65075E-05-2.66096E-05-2.99616E-05 1.86297E-08 1.27265E-19-8.96303E-19
 -1      4201 9.50459E-05-2.80865E-05-2.86962E-05-4.39791E-07-3.99255E-19 1.22809E-18
 -1      4202 9.51795E-05-2.82452E-05-2.86878E-05-4.03917E-07 1.33891E-19 9.68997E-19
 -1      4203 9.49365E-05-2.79596E-05-2.87019E-05-3.29616E-07-9.08083E-20 8.81626E-19
 -1      4204 9.68784E-05-2.79637E-05-2.95351E-05 8.39994E-08 3.30547E-20-7.87829E-19
 -1      4205 9.69363E-05-2.83447E-05-2.93978E-05 1.69511E-07-9.93921E-20-7.03312E-19
 -1      4206 9.69775E-05-2.84664E-05-2.93617E-05 9.05640E-08-1.90071E-19-6.26205E-19
 -1      4207 9.55799E-05-2.86678E-05-2.86755E-05-3.61350E-07-1.07487E-19 6.28844E-19
 -1      4208 9.56917E-05-2.87841E-05-2.86751E-05-3.54516E-07-3.25492E-20 3.84969E-19
 -1      4209 9.55237E-05-2.85974E-05-2.86830E-05-2.59195E-07 2.90164E-20 9.51914E-19
 -1      4210 9.61905E-05-2.59273E-05-3.01092E-05 3.26673E-07 5.09455E-19-1.36053E-18
 -1      4211 8.71645E-05-2.74384E-05-2.55814E-05-1.39428E-05 6.02022E-21 2.84532E-19
 -1      4212 9.64659E-05-2.66371E-05-2.99270E-05 1.82146E-07 4.53677E-19-1.23618E-18
 -1      4213 9.66858E-05-2.71990E-05-2.97796E-05-3.98729E-08 5.88731E-20-9.17745E-19
 -1      4214 9.67930E-05-2.76065E-05-2.96519E-05 5.91682E-08 7.37601E-20-7.40012E-19
 -1      4215 9.68667E-05-2.77910E-05-2.96030E-05 3.57145E-08 4.54189E-21-4.69377E-19
 -1      4216 9.57792E-05-2.88470E-05-2.86867E-05-2.52424E-07 5.36779E-20 8.42475E-19
 -1      4217 9.58169E-05-2.88947E-05-2.86797E-05-3.58133E-07 2.14999E-19 2.60179E-19
 -1      4218 9.59245E-05-2.89899E-05-2.86862E-05-3.60133E-07 4.36894E-19 2.36059E-19
 -1      4219 9.64783E-05-2.92689E-05-2.88030E-05-4.09313E-07-9.51055E-20-3.84270E-20
 -1      4220 9.65740E-05-2.92645E-05-2.88456E-05-4.07791E-07 9.06060E-20 2.82877E-20
 -1      4221 9.45771E-05-2.75630E-05-2.87160E-05-4.05200E-07 3.10885E-20 3.02301E-19
 -1      4222 9.67340E-05-2.72574E-05-2.97724E-05 1.80001E-08 7.10680E-20-7.33066E-19
 -1      4223 9.65702E-05-2.67856E-05-2.99079E-05-1.26212E-08 8.42748E-20-6.39353E-19
 -1      4224 9.66899E-05-2.84709E-05-2.92395E-05-4.47155E-07 4.76945E-19-7.92942E-19
 -1      4225 9.66791E-05-2.81638E-05-2.93602E-05-3.01200E-07 4.40930E-19-7.68331E-19
 -1      4226 9.67221E-05-2.78750E-05-2.95055E-05-1.68123E-07 3.76580E-19-8.49568E-19
 -1      4227 8.64931E-05-2.59003E-05-2.59756E-05-1.21988E-05 1.85983E-20 5.53581E-19
 -1      4228 8.40847E-05-2.38141E-05-2.58195E-05-1.09597E-05-2.60052E-19 6.45457E-20
 -1      4229 9.52469E-05-2.83026E-05-2.86894E-05-2.83105E-07-8.23379E-20 7.43298E-19
 -1      4230 9.66865E-05-2.92665E-05-2.88975E-05-2.85346E-07 8.69487E-20-3.35122E-21
 -1      4231 9.66703E-05-2.92349E-05-2.89004E-05-4.16117E-07 9.43997E-20 4.67364E-20
 -1      4232 9.67565E-05-2.91728E-05-2.89626E-05-3.99910E-07 2.30510E-19-8.07099E-20
 -1      4233 9.62184E-05-2.59875E-05-3.00985E-05-2.76257E-07-2.18241E-19-1.12460E-18
 -1      4234 9.66523E-05-2.88965E-05-2.90395E-05-5.92812E-07 3.93698E-19-3.83217E-19
 -1      4235 9.66901E-05-2.87156E-05-2.91287E-05-5.14741E-07 4.03273E-19-5.71188E-19
 -1      4236 9.67987E-05-2.85598E-05-2.92466E-05-3.79405E-07 2.56007E-19-5.99910E-19
 -1      4237 9.67488E-05-2.89694E-05-2.90508E-05-4.93639E-07 3.30348E-19-3.64083E-19
 -1      4238 9.66566E-05-2.72596E-05-2.97426E-05-7.95975E-09 2.78374E-19-1.07505E-18
 -1      4239 7.89476E-05-1.86886E-05-2.57554E-05-3.31712E-06-1.07078E-18 4.78372E-19
 -1      4240 7.83158E-05-1.93118E-05-2.53172E-05-6.01939E-06-6.94433E-19 7.57234E-19
 -1      4241 7.83526E-05-2.01288E-05-2.48632E-05-8.88908E-06-9.38045E-19 7.59727E-19
 -1      4242 8.19428E-05-2.26627E-05-2.54262E-05-1.04298E-05-6.42216E-19 5.56839E-19
 -1      4243 8.08138E-05-2.00371E-05-2.60885E-05-5.29250E-06-1.08103E-18 8.28660E-19
 -1      4244 9.60449E-05-2.90775E-05-2.86990E-05-3.70216E-07 2.91876E-19-1.41522E-19
 -1      4245 9.61502E-05-2.91482E-05-2.87147E-05-3.76718E-07 1.36411E-19-3.12426E-20
 -1      4246 9.60223E-05-2.90501E-05-2.87047E-05-2.57678E-07 2.26724E-19-2.26526E-19
 -1      4247 9.62665E-05-2.92077E-05-2.87382E-05-3.90254E-07 6.70968E-20-2.57736E-19
 -1      4248 9.63690E-05-2.92469E-05-2.87657E-05-3.95991E-07-8.92893E-20-1.29959E-19
 -1      4249 9.62570E-05-2.91995E-05-2.87420E-05-2.69540E-07 4.04319E-20-6.50719E-19
 -1      4250 9.65858E-05-2.68702E-05-2.98809E-05-4.59437E-08 3.66224E-20-7.56338E-19
 -1      4251 9.69967E-05-2.88791E-05-2.91933E-05-1.57714E-09-3.74549E-19-6.03710E-19
 -1      4252 9.69611E-05-2.90581E-05-2.90998E-05 1.54084E-08-3.95886E-19-7.61677E-19
 -1      4253 9.64814E-05-2.92801E-05-2.88040E-05-2.81606E-07-1.12520E-21 4.25127E-20
 -1      4254 9.27161E-05-2.57657E-05-2.87003E-05-4.24464E-07-2.90729E-19 5.13043E-19
 -1      4255 9.30644E-05-2.60833E-05-2.87150E-05-3.12427E-07-6.39968E-20 1.90280E-19
 -1      4256 9.68714E-05-2.91822E-05-2.90087E-05-7.56296E-08-9.55271E-20-5.10996E-19
 -1      4257 9.67928E-05-2.92596E-05-2.89407E-05-6.43001E-08 9.75949E-20-2.74090E-19
 -1      4258 9.66989E-05-2.92981E-05-2.88842E-05-7.33127E-08 5.29927E-20-3.93450E-19
 -1      4259 9.65936E-05-2.93063E-05-2.88352E-05-6.73569E-08 6.65967E-20-3.11506E-19
 -1      4260 9.64837E-05-2.92875E-05-2.87962E-05-6.90572E-08 4.86063E-20-4.24665E-19
 -1      4261 9.63663E-05-2.92473E-05-2.87633E-05-6.59612E-08-6.39736E-20-4.58035E-19
 -1      4262 9.62487E-05-2.91880E-05-2.87384E-05-6.49982E-08 9.91635E-20-4.45816E-19
 -1      4263 9.61252E-05-2.91124E-05-2.87182E-05-6.30949E-08-9.20348E-20-2.55509E-19
 -1      4264 9.60031E-05-2.90229E-05-2.87043E-05-6.26494E-08-4.14011E-19 1.15414E-19
 -1      4265 9.58748E-05-2.89198E-05-2.86940E-05-6.10150E-08-3.26893E-19 1.35140E-19
 -1      4266 9.57475E-05-2.88056E-05-2.86886E-05-6.36141E-08-1.89287E-19 2.32025E-19
 -1      4267 9.56124E-05-2.86785E-05-2.86857E-05-6.17167E-08 2.36679E-20 1.80409E-19
 -1      4268 9.54767E-05-2.85416E-05-2.86864E-05-6.96196E-08 5.58427E-20 3.55264E-19
 -1      4269 9.53300E-05-2.83909E-05-2.86889E-05-6.73347E-08 2.12694E-19 4.06876E-19
 -1      4270 9.51804E-05-2.82305E-05-2.86936E-05-8.28193E-08-7.79487E-20 1.65745E-19
 -1      4271 9.50150E-05-2.80541E-05-2.86993E-05-8.05280E-08-1.50833E-19-7.96597E-20
 -1      4272 9.48442E-05-2.78679E-05-2.87060E-05-1.06181E-07 1.37773E-19-3.22042E-21
 -1      4273 9.46514E-05-2.76624E-05-2.87126E-05-1.04959E-07 1.07512E-19-2.69316E-19
 -1      4274 9.44508E-05-2.74468E-05-2.87189E-05-1.44007E-07-2.28716E-19-3.65329E-19
 -1      4275 9.42198E-05-2.72079E-05-2.87239E-05-1.45930E-07-2.17648E-19-3.23301E-19
 -1      4276 9.39799E-05-2.69598E-05-2.87272E-05-2.02653E-07-1.54061E-19 4.10255E-20
 -1      4277 9.36986E-05-2.66833E-05-2.87273E-05-2.11253E-07-7.94578E-20 1.68179E-20
 -1      4278 9.34094E-05-2.64003E-05-2.87239E-05-2.91526E-07-1.31222E-20 2.42673E-19
 -1      4279 9.22923E-05-2.54073E-05-2.86769E-05-4.66241E-07-7.70641E-20 3.15988E-19
 -1      4280 9.18760E-05-2.50589E-05-2.86449E-05-6.21638E-07-1.08059E-19 6.52063E-19
 -1      4281 9.13574E-05-2.46619E-05-2.85994E-05-6.96934E-07-2.34945E-19 2.28634E-19
 -1      4282 9.08661E-05-2.42922E-05-2.85424E-05-9.12130E-07-2.12632E-20 1.27506E-19
 -1      4283 9.02346E-05-2.38640E-05-2.84651E-05-1.03911E-06 4.79674E-20 6.71178E-19
 -1      4284 8.96642E-05-2.34899E-05-2.83731E-05-1.33746E-06-6.47684E-20 1.57459E-19
 -1      4285 8.88990E-05-2.30438E-05-2.82507E-05-1.54178E-06-3.30297E-20 3.24531E-19
 -1      4286 8.82498E-05-2.26914E-05-2.81112E-05-1.95645E-06 8.06722E-20 8.48191E-19
 -1      4287 8.73248E-05-2.22473E-05-2.79261E-05-2.27435E-06-1.32418E-19 8.61129E-19
 -1      4288 8.66038E-05-2.19545E-05-2.77232E-05-2.85181E-06-7.73459E-19 9.12657E-19
 -1      4289 8.54844E-05-2.15376E-05-2.74518E-05-3.33952E-06-1.14406E-18 6.06897E-19
 -1      4290 8.47240E-05-2.13747E-05-2.71674E-05-4.14702E-06-1.64060E-18 4.05762E-19
 -1      4291 8.34376E-05-2.10132E-05-2.67935E-05-4.86503E-06-1.31728E-18 2.02869E-19
 -1      4292 9.64763E-05-2.66100E-05-2.99422E-05-1.03565E-07-4.41555E-20-1.00182E-18
 -1      4293 9.67740E-05-2.74770E-05-2.96972E-05-1.81899E-08 1.21382E-19-9.76055E-19
 -1      4294 9.68472E-05-2.76646E-05-2.96513E-05-2.38076E-08 9.12496E-20-6.22285E-19
 -1      4295 9.69273E-05-2.80087E-05-2.95358E-05 7.00454E-09 5.90803E-21-7.23684E-19
 -1      4296 9.69848E-05-2.83576E-05-2.94127E-05-1.76134E-08-1.78683E-19-6.84633E-19
 -1      4297 9.70061E-05-2.86618E-05-2.92897E-05 8.34253E-09-3.32038E-19-7.14475E-19
 -1      4298 9.69852E-05-2.87667E-05-2.92379E-05-1.11169E-07-1.55291E-19-6.27675E-19
 -1      4299 9.69438E-05-2.82186E-05-2.94537E-05-8.93780E-08-1.15731E-19-7.73985E-19
 -1      4300 8.26838E-05-2.19206E-05-2.60607E-05-8.31222E-06-6.72016E-19-3.33069E-19
 -1      4301 9.67767E-05-2.76590E-05-2.96214E-05-4.66538E-08 2.35034E-19-1.04862E-18
 -1      4302 8.35618E-05-2.17070E-05-2.64718E-05-7.01955E-06-1.15148E-18-2.82002E-20
 -1      4303 9.68600E-05-2.80924E-05-2.94733E-05-1.78387E-07 2.82635E-19-9.01931E-19
 -1      4304 9.68583E-05-2.90521E-05-2.90601E-05-3.17530E-07 1.64513E-19-3.73868E-19
 -1      4305 9.69099E-05-2.88944E-05-2.91472E-05-2.73548E-07 5.62219E-20-5.53815E-19
 -1      4306 9.68812E-05-2.91102E-05-2.90470E-05-1.90185E-07 4.21332E-21-3.93506E-19
 -1      4307 9.69179E-05-2.84195E-05-2.93546E-05-1.97107E-07 5.46356E-20-7.67871E-19
 -1      4308 9.69213E-05-2.86943E-05-2.92405E-05-2.77661E-07-2.42767E-20-6.90236E-19
 -3
    1PSTEP                         4           1           1          
  100CL  101 1.000000000        4308                     0    1           1
 -4  ERROR       1    1
 -5  STR(%)      1    1    0    0
 -1         1 2.76702E+01
 -1         2 2.41984E+01
 -1         3 7.48233E-02
 -1         4 2.11197E-01
 -1         5 1.40400E+01
 -1         6 1.31443E+01
 -1         7 1.31443E+01
 -1         8 3.66365E+00
 -1         9 1.82479E+00
 -1        10 1.28901E+00
 -1        11 1.04621E+00
 -1        12 8.99913E-01
 -1        13 8.08929E-01
 -1        14 7.54120E-01
 -1        15 7.56077E-01
 -1        16 8.13200E-01
 -1        17 9.00792E-01
 -1        18 1.05247E+00
 -1        19 1.30756E+00
 -1        20 1.83550E+00
 -1        21 3.50545E+00
 -1        22 8.64200E+00
 -1        23 1.31443E+01
 -1        24 4.31831E+00
 -1        25 3.34161E+00
 -1        26 2.11232E+00
 -1        27 1.36389E+00
 -1        28 1.01483E+00
 -1        29 7.76164E-01
 -1        30 5.96809E-01
 -1        31 4.57267E-01
 -1        32 3.50417E-01
 -1        33 2.72618E-01
 -1        34 2.10617E-01
 -1        35 1.62411E-01
 -1        36 1.26085E-01
 -1        37 9.98916E-02
 -1        38 8.22869E-02
 -1        39 7.19254E-02
 -1        40 7.84443E-02
 -1        41 9.07939E-02
 -1        42 1.09428E-01
 -1        43 1.46216E-01
 -1        44 1.96376E-01
 -1        45 2.62172E-01
 -1        46 3.45640E-01
 -1        47 4.47846E-01
 -1        48 5.67557E-01
 -1        49 6.99052E-01
 -1        50 8.72838E-01
 -1        51 1.14552E+00
 -1        52 1.43814E+00
 -1        53 1.82212E+00
 -1        54 2.12467E+00
 -1        55 2.15107E+00
 -1        56 2.20773E+00
 -1        57 2.20773E+00
 -1        58 2.86433E+00
 -1        59 5.35945E+00
 -1        60 6.43435E+00
 -1        61 6.43435E+00
 -1        62 6.30683E+00
 -1        63 4.78681E+00
 -1        64 2.47935E+00
 -1        65 1.77584E+00
 -1        66 1.99573E+00
 -1        67 1.99573E+00
 -1        68 1.69149E+00
 -1        69 1.43170E+00
 -1        70 1.36712E+00
 -1        71 1.06190E+00
 -1        72 1.40400E+01
 -1        73 3.39508E+00
 -1        74 2.41366E+00
 -1        75 1.66658E+00
 -1        76 1.14563E+00
 -1        77 9.06223E-01
 -1        78 7.31792E-01
 -1        79 5.88723E-01
 -1        80 4.69761E-01
 -1        81 3.71141E-01
 -1        82 2.97551E-01
 -1        83 2.37159E-01
 -1        84 1.88042E-01
 -1        85 1.49526E-01
 -1        86 1.20747E-01
 -1        87 1.00810E-01
 -1        88 8.88628E-02
 -1        89 9.41407E-02
 -1        90 1.07671E-01
 -1        91 1.26466E-01
 -1        92 1.49017E-01
 -1        93 1.73016E-01
 -1        94 2.18227E-01
 -1        95 2.69039E-01
 -1        96 3.20826E-01
 -1        97 3.66421E-01
 -1        98 3.94957E-01
 -1        99 4.05369E-01
 -1       100 5.08295E-01
 -1       101 6.31767E-01
 -1       102 7.11969E-01
 -1       103 8.89775E-01
 -1       104 1.07211E+00
 -1       105 1.10159E+00
 -1       106 1.39510E+00
 -1       107 1.54510E+00
 -1       108 2.30182E+00
 -1       109 2.66936E+00
 -1       110 2.86508E+00
 -1       111 2.86508E+00
 -1       112 2.79376E+00
 -1       113 2.13566E+00
 -1       114 1.35751E+00
 -1       115 6.87537E-01
 -1       116 4.03166E-01
 -1       117 4.22244E-01
 -1       118 4.22244E-01
 -1       119 3.92387E-01
 -1       120 2.58926E-01
 -1       121 1.53581E-01
 -1       122 1.79994E-01
 -1       123 1.93191E-01
 -1       124 1.93191E-01
 -1       125 1.85376E-01
 -1       126 1.34781E-01
 -1       127 1.61570E-01
 -1       128 3.20226E-01
 -1       129 4.06060E-01
 -1       130 4.06060E-01
 -1       131 3.81013E-01
 -1       132 2.56550E-01
 -1       133 1.40178E-01
 -1       134 2.99690E-01
 -1       135 5.49085E-01
 -1       136 6.67462E-01
 -1       137 2.44051E+01
 -1       138 3.29935E+01
 -1       139 3.29935E+01
 -1       140 2.36638E+01
 -1       141 1.20853E+01
 -1       142 1.24508E+01
 -1       143 1.24508E+01
 -1       144 1.28163E+01
 -1       145 1.28163E+01
 -1       146 1.26099E+01
 -1       147 1.97546E+01
 -1       148 4.62053E+01
 -1       149 4.62053E+01
 -1       150 2.39990E+01
 -1       151 2.39431E+01
 -1       152 2.43519E+01
 -1       153 3.19650E+01
 -1       154 3.12517E+01
 -1       155 1.32264E+01
 -1       156 1.24598E+01
 -1       157 1.31278E+01
 -1       158 1.36260E+01
 -1       159 1.36260E+01
 -1       160 1.25692E+01
 -1       161 2.35939E+01
 -1       162 3.30098E+01
 -1       163 3.30098E+01
 -1       164 2.41065E+01
 -1       165 6.07786E+00
 -1       166 2.29864E+00
 -1       167 1.50745E+00
 -1       168 1.15778E+00
 -1       169 9.73482E-01
 -1       170 8.64615E-01
 -1       171 7.96179E-01
 -1       172 7.56077E-01
 -1       173 7.99602E-01
 -1       174 8.67273E-01
 -1       175 9.80940E-01
 -1       176 1.17233E+00
 -1       177 1.52733E+00
 -1       178 2.26058E+00
 -1       179 3.93118E+00
 -1       180 1.40400E+01
 -1       181 4.31831E+00
 -1       182 3.34161E+00
 -1       183 2.11232E+00
 -1       184 1.44831E+00
 -1       185 1.02683E+00
 -1       186 7.76164E-01
 -1       187 5.96809E-01
 -1       188 4.69934E-01
 -1       189 3.70634E-01
 -1       190 2.93025E-01
 -1       191 2.37198E-01
 -1       192 1.90157E-01
 -1       193 1.51725E-01
 -1       194 1.21245E-01
 -1       195 9.78082E-02
 -1       196 8.03757E-02
 -1       197 7.12738E-02
 -1       198 7.84443E-02
 -1       199 9.28226E-02
 -1       200 1.20453E-01
 -1       201 1.58074E-01
 -1       202 2.07276E-01
 -1       203 2.69484E-01
 -1       204 3.50818E-01
 -1       205 4.88349E-01
 -1       206 6.60228E-01
 -1       207 8.64328E-01
 -1       208 1.08876E+00
 -1       209 1.30535E+00
 -1       210 1.50929E+00
 -1       211 1.82212E+00
 -1       212 2.12467E+00
 -1       213 2.15107E+00
 -1       214 2.20773E+00
 -1       215 1.99156E+00
 -1       216 3.12865E+00
 -1       217 5.35945E+00
 -1       218 6.43435E+00
 -1       219 6.30683E+00
 -1       220 4.78681E+00
 -1       221 2.76578E+00
 -1       222 1.66588E+00
 -1       223 1.77584E+00
 -1       224 1.99573E+00
 -1       225 1.69149E+00
 -1       226 1.43170E+00
 -1       227 1.36712E+00
 -1       228 1.06190E+00
 -1       229 3.39508E+00
 -1       230 2.41366E+00
 -1       231 1.66658E+00
 -1       232 1.14563E+00
 -1       233 9.06223E-01
 -1       234 7.31792E-01
 -1       235 5.88723E-01
 -1       236 4.69761E-01
 -1       237 3.71141E-01
 -1       238 2.97551E-01
 -1       239 2.37159E-01
 -1       240 1.90095E-01
 -1       241 1.52955E-01
 -1       242 1.24061E-01
 -1       243 1.02799E-01
 -1       244 8.88628E-02
 -1       245 8.69199E-02
 -1       246 9.41407E-02
 -1       247 1.07671E-01
 -1       248 1.26466E-01
 -1       249 1.55300E-01
 -1       250 1.92968E-01
 -1       251 2.34192E-01
 -1       252 2.75297E-01
 -1       253 3.20826E-01
 -1       254 3.66421E-01
 -1       255 3.94957E-01
 -1       256 4.34446E-01
 -1       257 5.13750E-01
 -1       258 6.31767E-01
 -1       259 7.11969E-01
 -1       260 8.89775E-01
 -1       261 1.07211E+00
 -1       262 1.10159E+00
 -1       263 1.39510E+00
 -1       264 1.71219E+00
 -1       265 2.30182E+00
 -1       266 2.66936E+00
 -1       267 2.86508E+00
 -1       268 2.79376E+00
 -1       269 2.13566E+00
 -1       270 1.37956E+00
 -1       271 7.88882E-01
 -1       272 3.42286E-01
 -1       273 4.03166E-01
 -1       274 4.22244E-01
 -1       275 3.92387E-01
 -1       276 2.61551E-01
 -1       277 2.41538E-01
 -1       278 3.21056E-01
 -1       279 3.57024E-01
 -1       280 3.57024E-01
 -1       281 3.45163E-01
 -1       282 2.48656E-01
 -1       283 5.30142E-01
 -1       284 7.58137E-01
 -1       285 7.86825E-01
 -1       286 7.86825E-01
 -1       287 6.85174E-01
 -1       288 4.04960E-01
 -1       289 4.55002E-01
 -1       290 4.55002E-01
 -1       291 6.54986E-01
 -1       292 2.90183E+01
 -1       293 3.04388E+01
 -1       294 3.29935E+01
 -1       295 2.59380E+01
 -1       296 1.17663E+01
 -1       297 1.20853E+01
 -1       298 1.24508E+01
 -1       299 1.20481E+01
 -1       300 1.28163E+01
 -1       301 1.26099E+01
 -1       302 1.13619E+01
 -1       303 2.04272E+01
 -1       304 4.62053E+01
 -1       305 2.71870E+01
 -1       306 2.75366E+01
 -1       307 2.75366E+01
 -1       308 2.43519E+01
 -1       309 3.19650E+01
 -1       310 3.19650E+01
 -1       311 1.32264E+01
 -1       312 1.16042E+01
 -1       313 1.24598E+01
 -1       314 1.31278E+01
 -1       315 1.36260E+01
 -1       316 1.25692E+01
 -1       317 1.19481E+01
 -1       318 2.59708E+01
 -1       319 3.30098E+01
 -1       320 3.18412E+01
 -1       321 2.90183E+01
 -1       322 1.04786E+00
 -1       323 2.47986E+00
 -1       324 7.95107E-01
 -1       325 6.94912E-01
 -1       326 6.31883E-01
 -1       327 5.87748E-01
 -1       328 5.90938E-01
 -1       329 6.34533E-01
 -1       330 7.01176E-01
 -1       331 7.96296E-01
 -1       332 9.31649E-01
 -1       333 1.15982E+00
 -1       334 1.32885E+00
 -1       335 2.20112E+00
 -1       336 1.91472E+00
 -1       337 1.73010E+00
 -1       338 1.26834E+00
 -1       339 9.08298E-01
 -1       340 6.57591E-01
 -1       341 5.39828E-01
 -1       342 4.43192E-01
 -1       343 3.58297E-01
 -1       344 2.93208E-01
 -1       345 2.38766E-01
 -1       346 1.92268E-01
 -1       347 1.56189E-01
 -1       348 1.27356E-01
 -1       349 1.03065E-01
 -1       350 8.29000E-02
 -1       351 6.83070E-02
 -1       352 6.47542E-02
 -1       353 7.36700E-02
 -1       354 9.28226E-02
 -1       355 1.20453E-01
 -1       356 1.65213E-01
 -1       357 2.37745E-01
 -1       358 3.32498E-01
 -1       359 4.53717E-01
 -1       360 6.04430E-01
 -1       361 7.84484E-01
 -1       362 9.87246E-01
 -1       363 1.19484E+00
 -1       364 1.37277E+00
 -1       365 1.50823E+00
 -1       366 1.67285E+00
 -1       367 1.76537E+00
 -1       368 1.71781E+00
 -1       369 1.92237E+00
 -1       370 2.02409E+00
 -1       371 2.83950E+00
 -1       372 3.80710E+00
 -1       373 4.45166E+00
 -1       374 3.44564E+00
 -1       375 2.65637E+00
 -1       376 2.14510E+00
 -1       377 1.83387E+00
 -1       378 1.41574E+00
 -1       379 1.25931E+00
 -1       380 1.06521E+00
 -1       381 1.03368E+00
 -1       382 9.27096E-01
 -1       383 1.13098E+00
 -1       384 8.92238E-01
 -1       385 7.04959E-01
 -1       386 5.46451E-01
 -1       387 4.39116E-01
 -1       388 3.73053E-01
 -1       389 3.09860E-01
 -1       390 2.54621E-01
 -1       391 2.09892E-01
 -1       392 1.70837E-01
 -1       393 1.38558E-01
 -1       394 1.13848E-01
 -1       395 9.51014E-02
 -1       396 8.19576E-02
 -1       397 7.56549E-02
 -1       398 7.73293E-02
 -1       399 8.39868E-02
 -1       400 1.04472E-01
 -1       401 1.29891E-01
 -1       402 1.73469E-01
 -1       403 2.32790E-01
 -1       404 3.00433E-01
 -1       405 3.72314E-01
 -1       406 4.40710E-01
 -1       407 4.98872E-01
 -1       408 5.50082E-01
 -1       409 5.55795E-01
 -1       410 5.55795E-01
 -1       411 4.86771E-01
 -1       412 4.52078E-01
 -1       413 5.42017E-01
 -1       414 9.55524E-01
 -1       415 1.42485E+00
 -1       416 1.70722E+00
 -1       417 1.72103E+00
 -1       418 1.72103E+00
 -1       419 1.69206E+00
 -1       420 1.78073E+00
 -1       421 1.53450E+00
 -1       422 1.15825E+00
 -1       423 8.27112E-01
 -1       424 6.32208E-01
 -1       425 4.72476E-01
 -1       426 4.49893E-01
 -1       427 3.87993E-01
 -1       428 2.61551E-01
 -1       429 4.98979E-01
 -1       430 4.58944E-01
 -1       431 3.87993E-01
 -1       432 4.98979E-01
 -1       433 4.90672E-01
 -1       434 6.38393E-01
 -1       435 1.04222E+00
 -1       436 1.18469E+00
 -1       437 1.18615E+00
 -1       438 1.18615E+00
 -1       439 9.04493E-01
 -1       440 6.04840E-01
 -1       441 7.51860E-01
 -1       442 3.04388E+01
 -1       443 3.07497E+01
 -1       444 2.97900E+01
 -1       445 1.76448E+01
 -1       446 9.95801E+00
 -1       447 9.10742E-01
 -1       448 9.24618E+00
 -1       449 1.00642E+01
 -1       450 1.06775E+01
 -1       451 9.73926E+00
 -1       452 7.07146E+00
 -1       453 8.98527E+00
 -1       454 1.55314E+01
 -1       455 2.71870E+01
 -1       456 2.56921E+01
 -1       457 3.26001E+01
 -1       458 3.26001E+01
 -1       459 2.49905E+01
 -1       460 2.16742E+01
 -1       461 1.22255E+01
 -1       462 7.39476E+00
 -1       463 8.85360E+00
 -1       464 9.78948E+00
 -1       465 9.68781E+00
 -1       466 9.10084E+00
 -1       467 7.02827E+00
 -1       468 1.03012E+01
 -1       469 1.83706E+01
 -1       470 3.18412E+01
 -1       471 3.07497E+01
 -1       472 7.23525E+00
 -1       473 5.29740E+00
 -1       474 9.78948E+00
 -1       475 1.53955E+01
 -1       476 1.04860E+00
 -1       477 4.86446E-01
 -1       478 5.14476E-01
 -1       479 4.31719E-01
 -1       480 4.57546E-01
 -1       481 4.87036E-01
 -1       482 5.11125E-01
 -1       483 5.11125E-01
 -1       484 6.08456E-01
 -1       485 8.92238E-01
 -1       486 8.03142E-01
 -1       487 8.72688E-01
 -1       488 9.04477E+00
 -1       489 7.02534E-01
 -1       490 5.89769E-01
 -1       491 4.77794E-01
 -1       492 3.79498E-01
 -1       493 3.25003E-01
 -1       494 2.75590E-01
 -1       495 2.28986E-01
 -1       496 1.92357E-01
 -1       497 1.62730E-01
 -1       498 1.35510E-01
 -1       499 1.11438E-01
 -1       500 9.05711E-02
 -1       501 7.24822E-02
 -1       502 5.63657E-02
 -1       503 5.73707E-02
 -1       504 6.98143E-02
 -1       505 9.09407E-02
 -1       506 1.39816E-01
 -1       507 2.03492E-01
 -1       508 2.86108E-01
 -1       509 3.92114E-01
 -1       510 5.25824E-01
 -1       511 6.90445E-01
 -1       512 8.86268E-01
 -1       513 1.10757E+00
 -1       514 1.33798E+00
 -1       515 1.54508E+00
 -1       516 1.77604E+00
 -1       517 2.16841E+00
 -1       518 2.58031E+00
 -1       519 2.57708E+00
 -1       520 3.44150E+00
 -1       521 2.55326E+00
 -1       522 3.80710E+00
 -1       523 7.10661E+00
 -1       524 7.56979E+00
 -1       525 5.14769E+00
 -1       526 3.05233E+00
 -1       527 2.95152E+00
 -1       528 2.19145E+00
 -1       529 1.66885E+00
 -1       530 1.26768E+00
 -1       531 1.06521E+00
 -1       532 5.46451E-01
 -1       533 4.39116E-01
 -1       534 3.73053E-01
 -1       535 3.09860E-01
 -1       536 2.54621E-01
 -1       537 2.10287E-01
 -1       538 1.71661E-01
 -1       539 1.38711E-01
 -1       540 1.11330E-01
 -1       541 8.94868E-02
 -1       542 7.16148E-02
 -1       543 5.96917E-02
 -1       544 5.78209E-02
 -1       545 6.85160E-02
 -1       546 8.39868E-02
 -1       547 1.14574E-01
 -1       548 1.59433E-01
 -1       549 2.12668E-01
 -1       550 2.73475E-01
 -1       551 3.39155E-01
 -1       552 4.04292E-01
 -1       553 4.59940E-01
 -1       554 5.14035E-01
 -1       555 5.50082E-01
 -1       556 5.62460E-01
 -1       557 5.30270E-01
 -1       558 5.46400E-01
 -1       559 6.01981E-01
 -1       560 8.38914E-01
 -1       561 1.19480E+00
 -1       562 1.46363E+00
 -1       563 1.70722E+00
 -1       564 1.72103E+00
 -1       565 1.61702E+00
 -1       566 1.82403E+00
 -1       567 1.54287E+00
 -1       568 1.36624E+00
 -1       569 1.17020E+00
 -1       570 9.27104E-01
 -1       571 6.74145E-01
 -1       572 5.01096E-01
 -1       573 5.04894E-01
 -1       574 7.14034E-01
 -1       575 9.67717E-01
 -1       576 5.18776E-01
 -1       577 6.13620E-01
 -1       578 1.22427E+00
 -1       579 1.71516E+00
 -1       580 1.72169E+00
 -1       581 1.72169E+00
 -1       582 1.60199E+00
 -1       583 1.07560E+00
 -1       584 1.00185E+00
 -1       585 2.97900E+01
 -1       586 1.99183E+01
 -1       587 3.07497E+01
 -1       588 7.04959E-01
 -1       589 1.21178E+01
 -1       590 4.81652E+00
 -1       591 3.75738E+00
 -1       592 4.57449E-01
 -1       593 8.61037E+00
 -1       594 3.26001E+01
 -1       595 7.50284E+00
 -1       596 7.49901E+00
 -1       597 5.15025E+00
 -1       598 7.21375E+00
 -1       599 1.90089E+01
 -1       600 2.76617E+01
 -1       601 2.49905E+01
 -1       602 1.59351E+01
 -1       603 1.13581E+01
 -1       604 7.15869E+00
 -1       605 4.42116E+00
 -1       606 7.10661E+00
 -1       607 7.56979E+00
 -1       608 5.14769E+00
 -1       609 6.31726E+00
 -1       610 9.24947E+00
 -1       611 1.39989E+01
 -1       612 2.17338E+01
 -1       613 1.32840E+00
 -1       614 5.30260E-01
 -1       615 5.16962E+00
 -1       616 8.67667E+00
 -1       617 7.51860E-01
 -1       618 3.58529E-01
 -1       619 3.43000E-01
 -1       620 3.61764E-01
 -1       621 3.37793E-01
 -1       622 5.44217E-01
 -1       623 1.50488E+01
 -1       624 5.16223E-01
 -1       625 5.30260E-01
 -1       626 3.98953E-01
 -1       627 3.75677E-01
 -1       628 3.78356E-01
 -1       629 3.48477E-01
 -1       630 3.05494E-01
 -1       631 2.59292E-01
 -1       632 2.22657E-01
 -1       633 1.92357E-01
 -1       634 1.62730E-01
 -1       635 1.35510E-01
 -1       636 1.11438E-01
 -1       637 9.05711E-02
 -1       638 7.24822E-02
 -1       639 5.63657E-02
 -1       640 4.10846E-02
 -1       641 4.72141E-02
 -1       642 7.91226E-02
 -1       643 1.18971E-01
 -1       644 1.69304E-01
 -1       645 2.33089E-01
 -1       646 3.13813E-01
 -1       647 4.20860E-01
 -1       648 5.62239E-01
 -1       649 7.38464E-01
 -1       650 9.53429E-01
 -1       651 1.20733E+00
 -1       652 1.51455E+00
 -1       653 1.95129E+00
 -1       654 2.48698E+00
 -1       655 3.21566E+00
 -1       656 5.78827E+00
 -1       657 3.74141E+00
 -1       658 3.32367E+00
 -1       659 3.39356E+00
 -1       660 3.17104E+00
 -1       661 4.18910E+00
 -1       662 2.86226E+00
 -1       663 2.01772E+00
 -1       664 1.43429E+00
 -1       665 3.29441E-01
 -1       666 1.26738E+01
 -1       667 3.97822E-01
 -1       668 2.36012E-01
 -1       669 1.99332E-01
 -1       670 1.65416E-01
 -1       671 1.36472E-01
 -1       672 1.11266E-01
 -1       673 8.94868E-02
 -1       674 7.07602E-02
 -1       675 5.57281E-02
 -1       676 4.24595E-02
 -1       677 4.92233E-02
 -1       678 6.19818E-02
 -1       679 9.48032E-02
 -1       680 1.34387E-01
 -1       681 1.81679E-01
 -1       682 2.36998E-01
 -1       683 2.99592E-01
 -1       684 3.67057E-01
 -1       685 4.34613E-01
 -1       686 4.96609E-01
 -1       687 5.57731E-01
 -1       688 6.34768E-01
 -1       689 6.98006E-01
 -1       690 7.16389E-01
 -1       691 8.94418E-01
 -1       692 1.00966E+00
 -1       693 1.34457E+00
 -1       694 1.41512E+00
 -1       695 1.61549E+00
 -1       696 2.08541E+00
 -1       697 2.04976E+00
 -1       698 3.72580E+00
 -1       699 2.78185E+00
 -1       700 2.13275E+00
 -1       701 1.47824E+00
 -1       702 1.17020E+00
 -1       703 9.50117E-01
 -1       704 6.74145E-01
 -1       705 5.04894E-01
 -1       706 3.72368E+00
 -1       707 2.04305E+00
 -1       708 3.86241E+00
 -1       709 1.28452E+00
 -1       710 2.61007E+00
 -1       711 1.68309E+00
 -1       712 2.61007E+00
 -1       713 2.59139E+00
 -1       714 1.77639E+00
 -1       715 1.15673E+01
 -1       716 4.65190E-01
 -1       717 1.75428E+01
 -1       718 6.18530E+00
 -1       719 5.80180E+00
 -1       720 1.44759E+01
 -1       721 8.40905E+00
 -1       722 2.74731E-01
 -1       723 3.61764E-01
 -1       724 1.17833E+01
 -1       725 1.77614E+01
 -1       726 3.58679E-01
 -1       727 1.06174E+00
 -1       728 4.80663E+00
 -1       729 1.42314E+01
 -1       730 5.66381E+00
 -1       731 1.50175E+01
 -1       732 1.07235E+01
 -1       733 7.55307E+00
 -1       734 2.63885E+00
 -1       735 3.41290E+00
 -1       736 3.78815E-01
 -1       737 3.42617E-01
 -1       738 1.16900E+01
 -1       739 3.76410E+00
 -1       740 6.63116E-01
 -1       741 2.88958E+00
 -1       742 1.32235E+00
 -1       743 7.29004E+00
 -1       744 8.78763E-01
 -1       745 3.57709E-01
 -1       746 4.49403E+00
 -1       747 3.72580E+00
 -1       748 2.43050E-01
 -1       749 1.04758E+01
 -1       750 7.50391E+00
 -1       751 2.57052E-01
 -1       752 2.28618E-01
 -1       753 2.46908E-01
 -1       754 2.39287E-01
 -1       755 2.18013E-01
 -1       756 1.90678E-01
 -1       757 1.66418E-01
 -1       758 1.45205E-01
 -1       759 1.22884E-01
 -1       760 1.01038E-01
 -1       761 8.03899E-02
 -1       762 6.10426E-02
 -1       763 4.26386E-02
 -1       764 2.91914E-02
 -1       765 3.21634E-02
 -1       766 5.88007E-02
 -1       767 9.32039E-02
 -1       768 1.39408E-01
 -1       769 2.00192E-01
 -1       770 2.79077E-01
 -1       771 3.80993E-01
 -1       772 5.11764E-01
 -1       773 6.78107E-01
 -1       774 8.87390E-01
 -1       775 1.14652E+00
 -1       776 1.45952E+00
 -1       777 1.88639E+00
 -1       778 2.55182E+00
 -1       779 3.53800E+00
 -1       780 5.03585E+00
 -1       781 4.19346E+00
 -1       782 3.42437E+00
 -1       783 1.94468E+00
 -1       784 2.87852E-01
 -1       785 1.64078E-01
 -1       786 1.89964E-01
 -1       787 1.12826E-01
 -1       788 8.97880E-02
 -1       789 6.87383E-02
 -1       790 5.12512E-02
 -1       791 3.53884E-02
 -1       792 2.82068E-02
 -1       793 4.15557E-02
 -1       794 6.91323E-02
 -1       795 1.02273E-01
 -1       796 1.42378E-01
 -1       797 1.90776E-01
 -1       798 2.48555E-01
 -1       799 3.18146E-01
 -1       800 3.97383E-01
 -1       801 4.82001E-01
 -1       802 5.66350E-01
 -1       803 6.58233E-01
 -1       804 7.98360E-01
 -1       805 9.53826E-01
 -1       806 1.08564E+00
 -1       807 1.32782E+00
 -1       808 1.49373E+00
 -1       809 2.23344E+00
 -1       810 2.15915E+00
 -1       811 2.33402E+00
 -1       812 2.25856E+00
 -1       813 3.72580E+00
 -1       814 2.60853E+00
 -1       815 1.87975E+00
 -1       816 1.35114E+00
 -1       817 9.82172E-01
 -1       818 5.64520E-01
 -1       819 4.09820E+00
 -1       820 4.20492E+00
 -1       821 3.77284E+00
 -1       822 8.13470E+00
 -1       823 5.46445E+00
 -1       824 7.00906E+00
 -1       825 7.50060E+00
 -1       826 9.28486E+00
 -1       827 4.00426E+00
 -1       828 3.29383E+00
 -1       829 1.37819E-01
 -1       830 9.34377E+00
 -1       831 9.72326E+00
 -1       832 2.23344E+00
 -1       833 3.95859E+00
 -1       834 2.82771E-01
 -1       835 8.22729E+00
 -1       836 9.46889E+00
 -1       837 2.33402E+00
 -1       838 1.04758E+01
 -1       839 2.88874E-01
 -1       840 9.28486E+00
 -1       841 9.69019E+00
 -1       842 4.00294E+00
 -1       843 2.81303E-01
 -1       844 2.79387E-01
 -1       845 3.82062E+00
 -1       846 3.74555E+00
 -1       847 2.82169E-01
 -1       848 2.88874E-01
 -1       849 3.06523E-01
 -1       850 2.18673E-01
 -1       851 2.78185E+00
 -1       852 2.34142E+00
 -1       853 2.88964E-01
 -1       854 3.32174E+00
 -1       855 2.70671E-01
 -1       856 2.55364E-01
 -1       857 1.72107E+00
 -1       858 1.56222E+00
 -1       859 2.72102E+00
 -1       860 8.91812E+00
 -1       861 6.13558E+00
 -1       862 1.45054E-01
 -1       863 1.73261E-01
 -1       864 1.78684E-01
 -1       865 1.70256E-01
 -1       866 1.54156E-01
 -1       867 1.34384E-01
 -1       868 1.18682E-01
 -1       869 1.01825E-01
 -1       870 8.45177E-02
 -1       871 6.75688E-02
 -1       872 5.12297E-02
 -1       873 4.16323E-02
 -1       874 4.47072E-02
 -1       875 5.42431E-02
 -1       876 8.50980E-02
 -1       877 1.25806E-01
 -1       878 1.78156E-01
 -1       879 2.45606E-01
 -1       880 3.32559E-01
 -1       881 4.44846E-01
 -1       882 5.90597E-01
 -1       883 7.81841E-01
 -1       884 1.03765E+00
 -1       885 1.38922E+00
 -1       886 1.88639E+00
 -1       887 2.64715E+00
 -1       888 6.08616E+00
 -1       889 8.00199E+00
 -1       890 7.72875E-02
 -1       891 9.63288E-02
 -1       892 4.17184E-02
 -1       893 3.48150E-02
 -1       894 3.73881E-02
 -1       895 5.89625E-02
 -1       896 9.02067E-02
 -1       897 1.28011E-01
 -1       898 1.73102E-01
 -1       899 2.25624E-01
 -1       900 2.84601E-01
 -1       901 3.50216E-01
 -1       902 4.35271E-01
 -1       903 5.50427E-01
 -1       904 6.88453E-01
 -1       905 8.53375E-01
 -1       906 1.03670E+00
 -1       907 1.34530E+00
 -1       908 1.69902E+00
 -1       909 2.12158E+00
 -1       910 6.89126E+00
 -1       911 6.89613E+00
 -1       912 2.88964E-01
 -1       913 6.89613E+00
 -1       914 6.89126E+00
 -1       915 8.00199E+00
 -1       916 1.35114E+00
 -1       917 1.52921E-01
 -1       918 1.87975E+00
 -1       919 1.62863E-01
 -1       920 5.91505E-02
 -1       921 1.50029E-01
 -1       922 1.14362E+00
 -1       923 3.67570E+00
 -1       924 7.71483E+00
 -1       925 5.95543E+00
 -1       926 3.69193E+00
 -1       927 2.60853E+00
 -1       928 2.08177E-01
 -1       929 4.23767E+00
 -1       930 1.76717E-01
 -1       931 1.16010E-01
 -1       932 6.32263E+00
 -1       933 3.82062E+00
 -1       934 2.00453E-01
 -1       935 2.27987E-01
 -1       936 1.35449E-01
 -1       937 1.56222E+00
 -1       938 6.61924E+00
 -1       939 2.17647E-01
 -1       940 2.10468E-01
 -1       941 1.97546E-01
 -1       942 1.24046E-01
 -1       943 1.34207E-01
 -1       944 1.31941E-01
 -1       945 1.22286E-01
 -1       946 1.08492E-01
 -1       947 9.41646E-02
 -1       948 8.13522E-02
 -1       949 6.79829E-02
 -1       950 5.47854E-02
 -1       951 4.98113E-02
 -1       952 5.20993E-02
 -1       953 5.78928E-02
 -1       954 7.08715E-02
 -1       955 1.02987E-01
 -1       956 1.43897E-01
 -1       957 1.96018E-01
 -1       958 2.62428E-01
 -1       959 3.47310E-01
 -1       960 4.56843E-01
 -1       961 6.00988E-01
 -1       962 7.96971E-01
 -1       963 1.07809E+00
 -1       964 1.50888E+00
 -1       965 2.17803E+00
 -1       966 3.53677E+00
 -1       967 5.49712E-02
 -1       968 7.92354E-02
 -1       969 3.82062E+00
 -1       970 2.04875E-01
 -1       971 4.89998E+00
 -1       972 1.21798E-01
 -1       973 4.87447E-02
 -1       974 4.58001E-02
 -1       975 8.34215E-02
 -1       976 1.18570E-01
 -1       977 1.61779E-01
 -1       978 2.14289E-01
 -1       979 2.77020E-01
 -1       980 3.50216E-01
 -1       981 4.32841E-01
 -1       982 5.25822E-01
 -1       983 6.65312E-01
 -1       984 8.56948E-01
 -1       985 1.16790E+00
 -1       986 1.63923E+00
 -1       987 2.82091E+00
 -1       988 2.76937E+00
 -1       989 2.26971E-01
 -1       990 1.62894E-01
 -1       991 4.45376E+00
 -1       992 4.69157E+00
 -1       993 9.90929E-02
 -1       994 2.27987E-01
 -1       995 6.39492E-02
 -1       996 1.60409E-01
 -1       997 9.46284E-02
 -1       998 6.08616E+00
 -1       999 2.86344E+00
 -1      1000 1.46974E-01
 -1      1001 1.24807E-01
 -1      1002 1.41111E-01
 -1      1003 3.48045E+00
 -1      1004 4.91008E-02
 -1      1005 1.53375E-01
 -1      1006 1.21401E-01
 -1      1007 1.50565E-01
 -1      1008 9.06230E-02
 -1      1009 1.00558E-01
 -1      1010 1.00539E-01
 -1      1011 9.43625E-02
 -1      1012 8.45392E-02
 -1      1013 7.29499E-02
 -1      1014 6.20501E-02
 -1      1015 5.57505E-02
 -1      1016 5.40742E-02
 -1      1017 5.50108E-02
 -1      1018 5.92263E-02
 -1      1019 6.95555E-02
 -1      1020 8.83796E-02
 -1      1021 1.14270E-01
 -1      1022 1.48907E-01
 -1      1023 1.94498E-01
 -1      1024 2.55226E-01
 -1      1025 3.36317E-01
 -1      1026 4.43984E-01
 -1      1027 5.89777E-01
 -1      1028 7.92182E-01
 -1      1029 1.08776E+00
 -1      1030 1.66121E+00
 -1      1031 2.24767E+00
 -1      1032 9.98482E-02
 -1      1033 1.60409E-01
 -1      1034 3.93768E+00
 -1      1035 6.09877E-02
 -1      1036 5.51004E-02
 -1      1037 1.37429E-01
 -1      1038 1.84939E-01
 -1      1039 2.44662E-01
 -1      1040 3.19271E-01
 -1      1041 4.11856E-01
 -1      1042 5.25822E-01
 -1      1043 6.65312E-01
 -1      1044 8.35474E-01
 -1      1045 1.10056E+00
 -1      1046 1.47475E+00
 -1      1047 5.26090E-02
 -1      1048 1.09262E-01
 -1      1049 1.56353E-01
 -1      1050 7.32318E-02
 -1      1051 8.15507E-02
 -1      1052 3.93768E+00
 -1      1053 1.52903E-01
 -1      1054 7.43120E-02
 -1      1055 7.36222E-02
 -1      1056 9.56241E-02
 -1      1057 1.44176E-01
 -1      1058 2.66594E+00
 -1      1059 2.14290E+00
 -1      1060 1.05188E-01
 -1      1061 6.27084E-02
 -1      1062 5.29528E-02
 -1      1063 9.92022E-02
 -1      1064 1.12573E-01
 -1      1065 2.24767E+00
 -1      1066 8.57697E-02
 -1      1067 9.56241E-02
 -1      1068 7.30758E-02
 -1      1069 8.98498E-02
 -1      1070 7.06461E-02
 -1      1071 6.73550E-02
 -1      1072 6.35727E-02
 -1      1073 5.92505E-02
 -1      1074 5.57505E-02
 -1      1075 5.50108E-02
 -1      1076 5.92263E-02
 -1      1077 6.78892E-02
 -1      1078 8.41999E-02
 -1      1079 1.06670E-01
 -1      1080 1.36791E-01
 -1      1081 1.76857E-01
 -1      1082 2.28389E-01
 -1      1083 2.94155E-01
 -1      1084 3.78121E-01
 -1      1085 5.21808E-01
 -1      1086 7.29450E-01
 -1      1087 1.02914E+00
 -1      1088 1.66121E+00
 -1      1089 1.46036E-01
 -1      1090 9.33349E-02
 -1      1091 7.32318E-02
 -1      1092 1.15470E-01
 -1      1093 1.99349E-01
 -1      1094 2.73824E-01
 -1      1095 3.76853E-01
 -1      1096 5.21808E-01
 -1      1097 7.29450E-01
 -1      1098 1.02914E+00
 -1      1099 1.55489E+00
 -1      1100 1.47475E+00
 -1      1101 5.51004E-02
 -1      1102 9.14275E-02
 -1      1103 7.26340E-02
 -1      1104 6.09877E-02
 -1      1105 6.61106E-02
 -1      1106 5.33820E-02
 -1      1107 5.06605E-02
 -1      1108 5.54628E-02
 -1      1109 7.60962E-02
 -1      1110 1.17361E-01
 -1      1111 8.98498E-02
 -1      1112 1.17896E-01
 -1      1113 1.86511E+00
 -1      1114 5.93007E-02
 -1      1115 6.62348E-02
 -1      1116 1.12573E-01
 -1      1117 8.60654E-02
 -1      1118 1.04436E-01
 -1      1119 1.31443E+01
 -1      1120 8.40397E+00
 -1      1121 2.74422E+00
 -1      1122 1.55690E+00
 -1      1123 1.16761E+00
 -1      1124 9.73063E-01
 -1      1125 8.54421E-01
 -1      1126 7.81524E-01
 -1      1127 7.55098E-01
 -1      1128 7.84638E-01
 -1      1129 8.56996E-01
 -1      1130 9.76630E-01
 -1      1131 1.18002E+00
 -1      1132 1.57153E+00
 -1      1133 2.67047E+00
 -1      1134 6.07372E+00
 -1      1135 1.13410E+01
 -1      1136 1.31443E+01
 -1      1137 8.73130E+00
 -1      1138 3.82996E+00
 -1      1139 2.72696E+00
 -1      1140 1.73811E+00
 -1      1141 1.18936E+00
 -1      1142 8.95499E-01
 -1      1143 6.86487E-01
 -1      1144 5.27038E-01
 -1      1145 4.03842E-01
 -1      1146 3.11517E-01
 -1      1147 2.41617E-01
 -1      1148 1.86514E-01
 -1      1149 1.44248E-01
 -1      1150 1.12988E-01
 -1      1151 9.10893E-02
 -1      1152 7.71062E-02
 -1      1153 7.51848E-02
 -1      1154 8.46191E-02
 -1      1155 1.00111E-01
 -1      1156 1.27822E-01
 -1      1157 1.71296E-01
 -1      1158 2.29274E-01
 -1      1159 3.03906E-01
 -1      1160 3.96743E-01
 -1      1161 5.07701E-01
 -1      1162 6.33305E-01
 -1      1163 7.85945E-01
 -1      1164 1.00918E+00
 -1      1165 1.29183E+00
 -1      1166 1.63013E+00
 -1      1167 1.97340E+00
 -1      1168 2.13787E+00
 -1      1169 2.17940E+00
 -1      1170 2.20773E+00
 -1      1171 2.53603E+00
 -1      1172 4.11189E+00
 -1      1173 5.89690E+00
 -1      1174 6.43435E+00
 -1      1175 6.37059E+00
 -1      1176 5.54682E+00
 -1      1177 3.63308E+00
 -1      1178 2.12760E+00
 -1      1179 1.88578E+00
 -1      1180 1.99573E+00
 -1      1181 1.84361E+00
 -1      1182 1.56160E+00
 -1      1183 1.39941E+00
 -1      1184 1.21451E+00
 -1      1185 6.36547E-01
 -1      1186 1.40400E+01
 -1      1187 8.71754E+00
 -1      1188 2.90437E+00
 -1      1189 2.04012E+00
 -1      1190 1.40610E+00
 -1      1191 1.02593E+00
 -1      1192 8.19008E-01
 -1      1193 6.60258E-01
 -1      1194 5.29242E-01
 -1      1195 4.20451E-01
 -1      1196 3.34346E-01
 -1      1197 2.67355E-01
 -1      1198 2.12601E-01
 -1      1199 1.68784E-01
 -1      1200 1.35136E-01
 -1      1201 1.10779E-01
 -1      1202 9.48366E-02
 -1      1203 9.15018E-02
 -1      1204 1.00906E-01
 -1      1205 1.17068E-01
 -1      1206 1.37741E-01
 -1      1207 1.61016E-01
 -1      1208 1.95622E-01
 -1      1209 2.43633E-01
 -1      1210 2.94933E-01
 -1      1211 3.43624E-01
 -1      1212 3.80689E-01
 -1      1213 4.00163E-01
 -1      1214 4.56832E-01
 -1      1215 5.70031E-01
 -1      1216 6.71868E-01
 -1      1217 8.00872E-01
 -1      1218 9.80945E-01
 -1      1219 1.08685E+00
 -1      1220 1.24834E+00
 -1      1221 1.47010E+00
 -1      1222 1.92346E+00
 -1      1223 2.48559E+00
 -1      1224 2.76722E+00
 -1      1225 2.86508E+00
 -1      1226 2.82942E+00
 -1      1227 2.46471E+00
 -1      1228 1.74659E+00
 -1      1229 1.02252E+00
 -1      1230 5.45351E-01
 -1      1231 4.12705E-01
 -1      1232 4.22244E-01
 -1      1233 4.07315E-01
 -1      1234 3.25656E-01
 -1      1235 1.66875E-01
 -1      1236 1.14202E-01
 -1      1237 1.66788E-01
 -1      1238 1.86592E-01
 -1      1239 1.93191E-01
 -1      1240 1.89283E-01
 -1      1241 1.60078E-01
 -1      1242 1.48176E-01
 -1      1243 2.40898E-01
 -1      1244 3.63143E-01
 -1      1245 4.06060E-01
 -1      1246 3.93536E-01
 -1      1247 3.18781E-01
 -1      1248 1.98364E-01
 -1      1249 2.19934E-01
 -1      1250 4.24387E-01
 -1      1251 6.08273E-01
 -1      1252 4.39330E-01
 -1      1253 2.43018E+01
 -1      1254 2.86993E+01
 -1      1255 3.29935E+01
 -1      1256 2.83287E+01
 -1      1257 1.78746E+01
 -1      1258 1.22681E+01
 -1      1259 1.24508E+01
 -1      1260 1.26335E+01
 -1      1261 1.28163E+01
 -1      1262 1.27131E+01
 -1      1263 1.61823E+01
 -1      1264 3.29800E+01
 -1      1265 4.62053E+01
 -1      1266 3.51022E+01
 -1      1267 2.39711E+01
 -1      1268 2.41475E+01
 -1      1269 2.60110E+01
 -1      1270 2.98176E+01
 -1      1271 3.16083E+01
 -1      1272 2.22391E+01
 -1      1273 1.28431E+01
 -1      1274 1.27938E+01
 -1      1275 1.33769E+01
 -1      1276 1.36260E+01
 -1      1277 1.30976E+01
 -1      1278 1.80815E+01
 -1      1279 2.83018E+01
 -1      1280 3.30098E+01
 -1      1281 2.85581E+01
 -1      1282 2.41524E+01
 -1      1283 1.31443E+01
 -1      1284 4.87075E+00
 -1      1285 9.61107E+00
 -1      1286 2.06171E+00
 -1      1287 2.98114E+00
 -1      1288 4.18825E+00
 -1      1289 1.39823E+00
 -1      1290 1.66612E+00
 -1      1291 1.90305E+00
 -1      1292 1.10200E+00
 -1      1293 1.22340E+00
 -1      1294 1.33262E+00
 -1      1295 9.36697E-01
 -1      1296 1.00985E+00
 -1      1297 1.06563E+00
 -1      1298 8.36772E-01
 -1      1299 8.82264E-01
 -1      1300 9.19048E-01
 -1      1301 7.75149E-01
 -1      1302 8.02554E-01
 -1      1303 8.30397E-01
 -1      1304 7.56077E-01
 -1      1305 7.55098E-01
 -1      1306 7.76128E-01
 -1      1307 8.06401E-01
 -1      1308 7.77839E-01
 -1      1309 7.77839E-01
 -1      1310 8.84032E-01
 -1      1311 8.40236E-01
 -1      1312 8.33437E-01
 -1      1313 1.01670E+00
 -1      1314 9.40866E-01
 -1      1315 9.24106E-01
 -1      1316 1.23994E+00
 -1      1317 1.11240E+00
 -1      1318 1.07663E+00
 -1      1319 1.68141E+00
 -1      1320 1.41745E+00
 -1      1321 1.34983E+00
 -1      1322 2.88302E+00
 -1      1323 2.04804E+00
 -1      1324 1.89396E+00
 -1      1325 6.28659E+00
 -1      1326 3.71832E+00
 -1      1327 3.09588E+00
 -1      1328 1.40400E+01
 -1      1329 1.13410E+01
 -1      1330 8.98559E+00
 -1      1331 1.40400E+01
 -1      1332 8.73130E+00
 -1      1333 4.31831E+00
 -1      1334 3.82996E+00
 -1      1335 3.34161E+00
 -1      1336 3.82996E+00
 -1      1337 2.72696E+00
 -1      1338 2.11232E+00
 -1      1339 2.72696E+00
 -1      1340 1.78031E+00
 -1      1341 1.40610E+00
 -1      1342 1.78031E+00
 -1      1343 1.19536E+00
 -1      1344 1.02083E+00
 -1      1345 1.23757E+00
 -1      1346 8.95499E-01
 -1      1347 7.76164E-01
 -1      1348 9.01496E-01
 -1      1349 6.86487E-01
 -1      1350 5.96809E-01
 -1      1351 6.86487E-01
 -1      1352 5.33372E-01
 -1      1353 4.63601E-01
 -1      1354 5.33372E-01
 -1      1355 4.13951E-01
 -1      1356 3.60525E-01
 -1      1357 4.20284E-01
 -1      1358 3.21721E-01
 -1      1359 2.82821E-01
 -1      1360 3.31830E-01
 -1      1361 2.54908E-01
 -1      1362 2.23907E-01
 -1      1363 2.65111E-01
 -1      1364 2.00387E-01
 -1      1365 1.76284E-01
 -1      1366 2.13678E-01
 -1      1367 1.57068E-01
 -1      1368 1.38905E-01
 -1      1369 1.70941E-01
 -1      1370 1.23665E-01
 -1      1371 1.10568E-01
 -1      1372 1.36485E-01
 -1      1373 9.88499E-02
 -1      1374 9.00476E-02
 -1      1375 1.09527E-01
 -1      1376 8.13313E-02
 -1      1377 7.61506E-02
 -1      1378 8.90920E-02
 -1      1379 7.15996E-02
 -1      1380 7.48590E-02
 -1      1381 7.58248E-02
 -1      1382 7.84443E-02
 -1      1383 8.46191E-02
 -1      1384 7.48590E-02
 -1      1385 9.18083E-02
 -1      1386 1.01125E-01
 -1      1387 8.56334E-02
 -1      1388 1.14941E-01
 -1      1389 1.33334E-01
 -1      1390 1.06638E-01
 -1      1391 1.52145E-01
 -1      1392 1.77225E-01
 -1      1393 1.39263E-01
 -1      1394 2.01826E-01
 -1      1395 2.34724E-01
 -1      1396 1.82675E-01
 -1      1397 2.65828E-01
 -1      1398 3.07562E-01
 -1      1399 2.38380E-01
 -1      1400 3.48229E-01
 -1      1401 3.99332E-01
 -1      1402 3.10151E-01
 -1      1403 4.68097E-01
 -1      1404 5.27953E-01
 -1      1405 4.19583E-01
 -1      1406 6.13892E-01
 -1      1407 6.79640E-01
 -1      1408 5.74288E-01
 -1      1409 7.81690E-01
 -1      1410 8.68583E-01
 -1      1411 7.62278E-01
 -1      1412 9.80800E-01
 -1      1413 1.11714E+00
 -1      1414 9.76545E-01
 -1      1415 1.22544E+00
 -1      1416 1.37174E+00
 -1      1417 1.19706E+00
 -1      1418 1.47371E+00
 -1      1419 1.66571E+00
 -1      1420 1.40732E+00
 -1      1421 1.82212E+00
 -1      1422 1.97340E+00
 -1      1423 1.66571E+00
 -1      1424 2.12467E+00
 -1      1425 2.13787E+00
 -1      1426 1.97340E+00
 -1      1427 2.15107E+00
 -1      1428 2.17940E+00
 -1      1429 2.13787E+00
 -1      1430 2.20773E+00
 -1      1431 2.20773E+00
 -1      1432 2.17940E+00
 -1      1433 2.09964E+00
 -1      1434 2.42794E+00
 -1      1435 2.09964E+00
 -1      1436 2.99649E+00
 -1      1437 4.24405E+00
 -1      1438 2.56010E+00
 -1      1439 5.35945E+00
 -1      1440 5.89690E+00
 -1      1441 4.24405E+00
 -1      1442 6.43435E+00
 -1      1443 6.43435E+00
 -1      1444 5.89690E+00
 -1      1445 6.37059E+00
 -1      1446 6.30683E+00
 -1      1447 6.37059E+00
 -1      1448 5.54682E+00
 -1      1449 4.78681E+00
 -1      1450 5.54682E+00
 -1      1451 3.77630E+00
 -1      1452 2.62257E+00
 -1      1453 3.77630E+00
 -1      1454 2.07261E+00
 -1      1455 1.72086E+00
 -1      1456 2.21583E+00
 -1      1457 1.77584E+00
 -1      1458 1.88578E+00
 -1      1459 1.72086E+00
 -1      1460 1.99573E+00
 -1      1461 1.99573E+00
 -1      1462 1.88578E+00
 -1      1463 1.84361E+00
 -1      1464 1.69149E+00
 -1      1465 1.84361E+00
 -1      1466 1.56160E+00
 -1      1467 1.43170E+00
 -1      1468 1.56160E+00
 -1      1469 1.39941E+00
 -1      1470 1.36712E+00
 -1      1471 1.39941E+00
 -1      1472 1.21451E+00
 -1      1473 1.06190E+00
 -1      1474 1.21451E+00
 -1      1475 8.64680E-01
 -1      1476 8.64680E-01
 -1      1477 3.39508E+00
 -1      1478 8.71754E+00
 -1      1479 8.71754E+00
 -1      1480 2.41366E+00
 -1      1481 2.90437E+00
 -1      1482 2.90437E+00
 -1      1483 1.66658E+00
 -1      1484 2.04012E+00
 -1      1485 2.04012E+00
 -1      1486 1.14563E+00
 -1      1487 1.40610E+00
 -1      1488 1.40610E+00
 -1      1489 9.06223E-01
 -1      1490 1.02593E+00
 -1      1491 1.02593E+00
 -1      1492 7.31792E-01
 -1      1493 8.19008E-01
 -1      1494 8.19008E-01
 -1      1495 5.88723E-01
 -1      1496 6.60258E-01
 -1      1497 6.60258E-01
 -1      1498 4.69761E-01
 -1      1499 5.29242E-01
 -1      1500 5.29242E-01
 -1      1501 3.71141E-01
 -1      1502 4.20451E-01
 -1      1503 4.20451E-01
 -1      1504 2.97551E-01
 -1      1505 3.34346E-01
 -1      1506 3.34346E-01
 -1      1507 2.37159E-01
 -1      1508 2.67355E-01
 -1      1509 2.67355E-01
 -1      1510 1.89069E-01
 -1      1511 2.13627E-01
 -1      1512 2.13627E-01
 -1      1513 1.51240E-01
 -1      1514 1.70499E-01
 -1      1515 1.71525E-01
 -1      1516 1.22404E-01
 -1      1517 1.36793E-01
 -1      1518 1.38508E-01
 -1      1519 1.01805E-01
 -1      1520 1.11773E-01
 -1      1521 1.13430E-01
 -1      1522 8.88628E-02
 -1      1523 9.48366E-02
 -1      1524 9.58310E-02
 -1      1525 9.05303E-02
 -1      1526 8.78914E-02
 -1      1527 8.78914E-02
 -1      1528 1.00906E-01
 -1      1529 9.41407E-02
 -1      1530 9.05303E-02
 -1      1531 1.17068E-01
 -1      1532 1.07671E-01
 -1      1533 1.00906E-01
 -1      1534 1.37741E-01
 -1      1535 1.26466E-01
 -1      1536 1.17068E-01
 -1      1537 1.64158E-01
 -1      1538 1.52158E-01
 -1      1539 1.40883E-01
 -1      1540 2.05598E-01
 -1      1541 1.82992E-01
 -1      1542 1.74134E-01
 -1      1543 2.51616E-01
 -1      1544 2.26210E-01
 -1      1545 2.13580E-01
 -1      1546 2.98062E-01
 -1      1547 2.72168E-01
 -1      1548 2.54744E-01
 -1      1549 3.43624E-01
 -1      1550 3.20826E-01
 -1      1551 2.98062E-01
 -1      1552 3.80689E-01
 -1      1553 3.66421E-01
 -1      1554 3.43624E-01
 -1      1555 4.00163E-01
 -1      1556 3.94957E-01
 -1      1557 3.80689E-01
 -1      1558 4.71371E-01
 -1      1559 4.19908E-01
 -1      1560 4.14702E-01
 -1      1561 5.72759E-01
 -1      1562 5.11023E-01
 -1      1563 4.74098E-01
 -1      1564 6.71868E-01
 -1      1565 6.31767E-01
 -1      1566 5.72759E-01
 -1      1567 8.00872E-01
 -1      1568 7.11969E-01
 -1      1569 6.71868E-01
 -1      1570 9.80945E-01
 -1      1571 8.89775E-01
 -1      1572 8.00872E-01
 -1      1573 1.08685E+00
 -1      1574 1.07211E+00
 -1      1575 9.80945E-01
 -1      1576 1.24834E+00
 -1      1577 1.10159E+00
 -1      1578 1.08685E+00
 -1      1579 1.47010E+00
 -1      1580 1.39510E+00
 -1      1581 1.24834E+00
 -1      1582 2.00700E+00
 -1      1583 1.62864E+00
 -1      1584 1.55364E+00
 -1      1585 2.48559E+00
 -1      1586 2.30182E+00
 -1      1587 2.00700E+00
 -1      1588 2.76722E+00
 -1      1589 2.66936E+00
 -1      1590 2.48559E+00
 -1      1591 2.86508E+00
 -1      1592 2.86508E+00
 -1      1593 2.76722E+00
 -1      1594 2.79376E+00
 -1      1595 2.82942E+00
 -1      1596 2.82942E+00
 -1      1597 2.13566E+00
 -1      1598 2.46471E+00
 -1      1599 2.46471E+00
 -1      1600 1.36854E+00
 -1      1601 1.75761E+00
 -1      1602 1.75761E+00
 -1      1603 7.38209E-01
 -1      1604 1.07320E+00
 -1      1605 1.08422E+00
 -1      1606 3.72726E-01
 -1      1607 5.14911E-01
 -1      1608 5.65584E-01
 -1      1609 4.12705E-01
 -1      1610 4.03166E-01
 -1      1611 3.72726E-01
 -1      1612 4.22244E-01
 -1      1613 4.22244E-01
 -1      1614 4.12705E-01
 -1      1615 3.92387E-01
 -1      1616 4.07315E-01
 -1      1617 4.07315E-01
 -1      1618 2.60238E-01
 -1      1619 3.26969E-01
 -1      1620 3.26969E-01
 -1      1621 2.06254E-01
 -1      1622 2.10766E-01
 -1      1623 1.97560E-01
 -1      1624 2.57123E-01
 -1      1625 2.50525E-01
 -1      1626 2.81297E-01
 -1      1627 2.75107E-01
 -1      1628 2.75107E-01
 -1      1629 3.39040E-01
 -1      1630 2.71200E-01
 -1      1631 2.75107E-01
 -1      1632 3.57024E-01
 -1      1633 2.39972E-01
 -1      1634 2.65270E-01
 -1      1635 3.51094E-01
 -1      1636 2.05113E-01
 -1      1637 1.91719E-01
 -1      1638 2.96910E-01
 -1      1639 4.25184E-01
 -1      1640 3.45856E-01
 -1      1641 3.89399E-01
 -1      1642 5.82098E-01
 -1      1643 5.39181E-01
 -1      1644 6.44139E-01
 -1      1645 5.96442E-01
 -1      1646 5.96442E-01
 -1      1647 7.72481E-01
 -1      1648 5.83919E-01
 -1      1649 5.96442E-01
 -1      1650 7.86825E-01
 -1      1651 4.70862E-01
 -1      1652 5.33093E-01
 -1      1653 7.35999E-01
 -1      1654 2.72569E-01
 -1      1655 3.30755E-01
 -1      1656 5.45067E-01
 -1      1657 3.77346E-01
 -1      1658 2.97590E-01
 -1      1659 4.29981E-01
 -1      1660 5.02043E-01
 -1      1661 3.77346E-01
 -1      1662 4.55002E-01
 -1      1663 6.61224E-01
 -1      1664 6.02035E-01
 -1      1665 5.54994E-01
 -1      1666 8.58442E-01
 -1      1667 2.67117E+01
 -1      1668 2.66084E+01
 -1      1669 3.17161E+01
 -1      1670 2.74219E+01
 -1      1671 3.29935E+01
 -1      1672 3.29935E+01
 -1      1673 2.48009E+01
 -1      1674 2.94657E+01
 -1      1675 1.19258E+01
 -1      1676 1.77151E+01
 -1      1677 1.22681E+01
 -1      1678 1.20853E+01
 -1      1679 1.24508E+01
 -1      1680 1.24508E+01
 -1      1681 1.24322E+01
 -1      1682 1.22495E+01
 -1      1683 1.28163E+01
 -1      1684 1.28163E+01
 -1      1685 1.26099E+01
 -1      1686 1.27131E+01
 -1      1687 1.55583E+01
 -1      1688 1.19859E+01
 -1      1689 3.33163E+01
 -1      1690 2.00909E+01
 -1      1691 4.62053E+01
 -1      1692 4.62053E+01
 -1      1693 2.55930E+01
 -1      1694 3.66962E+01
 -1      1695 2.57398E+01
 -1      1696 2.57678E+01
 -1      1697 2.59442E+01
 -1      1698 2.57398E+01
 -1      1699 2.60110E+01
 -1      1700 2.43519E+01
 -1      1701 3.19650E+01
 -1      1702 2.98176E+01
 -1      1703 3.16083E+01
 -1      1704 3.19650E+01
 -1      1705 1.32264E+01
 -1      1706 2.22391E+01
 -1      1707 1.20320E+01
 -1      1708 1.24153E+01
 -1      1709 1.27938E+01
 -1      1710 1.24598E+01
 -1      1711 1.33769E+01
 -1      1712 1.31278E+01
 -1      1713 1.36260E+01
 -1      1714 1.36260E+01
 -1      1715 1.25692E+01
 -1      1716 1.30976E+01
 -1      1717 1.77710E+01
 -1      1718 1.22586E+01
 -1      1719 2.94903E+01
 -1      1720 2.47823E+01
 -1      1721 3.30098E+01
 -1      1722 3.30098E+01
 -1      1723 2.79738E+01
 -1      1724 3.24255E+01
 -1      1725 2.66084E+01
 -1      1726 2.65624E+01
 -1      1727 1.88521E+01
 -1      1728 2.94657E+01
 -1      1729 2.07566E-01
 -1      1730 2.51545E-01
 -1      1731 2.97286E+01
 -1      1732 3.17161E+01
 -1      1733 2.90183E+01
 -1      1734 1.19258E+01
 -1      1735 1.22681E+01
 -1      1736 1.22495E+01
 -1      1737 1.24322E+01
 -1      1738 1.27131E+01
 -1      1739 1.19859E+01
 -1      1740 1.58946E+01
 -1      1741 3.33163E+01
 -1      1742 3.66962E+01
 -1      1743 2.73618E+01
 -1      1744 2.75366E+01
 -1      1745 2.59442E+01
 -1      1746 2.81584E+01
 -1      1747 3.19650E+01
 -1      1748 2.25957E+01
 -1      1749 1.24153E+01
 -1      1750 1.20320E+01
 -1      1751 1.27938E+01
 -1      1752 1.33769E+01
 -1      1753 1.30976E+01
 -1      1754 1.22586E+01
 -1      1755 1.89594E+01
 -1      1756 2.94903E+01
 -1      1757 3.24255E+01
 -1      1758 3.04298E+01
 -1      1759 9.61107E+00
 -1      1760 1.27766E+00
 -1      1761 1.67325E+00
 -1      1762 2.38925E+00
 -1      1763 4.27886E+00
 -1      1764 1.76386E+00
 -1      1765 8.84294E-01
 -1      1766 9.76444E-01
 -1      1767 7.79764E-01
 -1      1768 8.34197E-01
 -1      1769 7.45010E-01
 -1      1770 7.14031E-01
 -1      1771 7.48249E-01
 -1      1772 6.63398E-01
 -1      1773 6.71912E-01
 -1      1774 6.91963E-01
 -1      1775 6.09816E-01
 -1      1776 6.95270E-01
 -1      1777 6.73507E-01
 -1      1778 5.89343E-01
 -1      1779 7.50903E-01
 -1      1780 7.17068E-01
 -1      1781 6.12736E-01
 -1      1782 8.41058E-01
 -1      1783 7.84224E-01
 -1      1784 6.67854E-01
 -1      1785 9.84311E-01
 -1      1786 8.88618E-01
 -1      1787 7.48736E-01
 -1      1788 1.22949E+00
 -1      1789 1.05199E+00
 -1      1790 8.63973E-01
 -1      1791 1.71020E+00
 -1      1792 1.34358E+00
 -1      1793 1.04573E+00
 -1      1794 2.63002E+00
 -1      1795 1.79472E+00
 -1      1796 1.24434E+00
 -1      1797 8.12055E+00
 -1      1798 3.06615E+00
 -1      1799 1.76499E+00
 -1      1800 2.79810E+00
 -1      1801 5.19808E+00
 -1      1802 2.16419E+00
 -1      1803 2.65490E+00
 -1      1804 2.05792E+00
 -1      1805 3.39909E+00
 -1      1806 2.53585E+00
 -1      1807 1.92121E+00
 -1      1808 1.69033E+00
 -1      1809 1.35832E+00
 -1      1810 1.49922E+00
 -1      1811 1.17830E+00
 -1      1812 9.67563E-01
 -1      1813 1.08832E+00
 -1      1814 8.42210E-01
 -1      1815 7.16878E-01
 -1      1816 7.82945E-01
 -1      1817 6.57996E-01
 -1      1818 5.68319E-01
 -1      1819 5.98710E-01
 -1      1820 5.20001E-01
 -1      1821 4.56563E-01
 -1      1822 4.91510E-01
 -1      1823 4.14116E-01
 -1      1824 3.64466E-01
 -1      1825 4.00745E-01
 -1      1826 3.31921E-01
 -1      1827 2.93116E-01
 -1      1828 3.25753E-01
 -1      1829 2.65895E-01
 -1      1830 2.37982E-01
 -1      1831 2.65987E-01
 -1      1832 2.14733E-01
 -1      1833 1.91213E-01
 -1      1834 2.15517E-01
 -1      1835 1.73173E-01
 -1      1836 1.53957E-01
 -1      1837 1.74229E-01
 -1      1838 1.39541E-01
 -1      1839 1.24301E-01
 -1      1840 1.41773E-01
 -1      1841 1.12155E-01
 -1      1842 1.00437E-01
 -1      1843 1.15211E-01
 -1      1844 9.03541E-02
 -1      1845 8.16379E-02
 -1      1846 9.29827E-02
 -1      1847 7.43413E-02
 -1      1848 6.97904E-02
 -1      1849 7.56035E-02
 -1      1850 6.80140E-02
 -1      1851 7.15992E-02
 -1      1852 6.65306E-02
 -1      1853 7.60571E-02
 -1      1854 8.32463E-02
 -1      1855 6.92121E-02
 -1      1856 9.28226E-02
 -1      1857 1.06638E-01
 -1      1858 8.32463E-02
 -1      1859 1.20453E-01
 -1      1860 1.39263E-01
 -1      1861 1.06638E-01
 -1      1862 1.61643E-01
 -1      1863 1.86244E-01
 -1      1864 1.42833E-01
 -1      1865 2.22510E-01
 -1      1866 2.53614E-01
 -1      1867 2.01479E-01
 -1      1868 3.00991E-01
 -1      1869 3.41658E-01
 -1      1870 2.85121E-01
 -1      1871 4.02267E-01
 -1      1872 4.71033E-01
 -1      1873 3.93107E-01
 -1      1874 5.46389E-01
 -1      1875 6.32329E-01
 -1      1876 5.29073E-01
 -1      1877 7.22356E-01
 -1      1878 8.24406E-01
 -1      1879 6.94457E-01
 -1      1880 9.25787E-01
 -1      1881 1.03800E+00
 -1      1882 8.85865E-01
 -1      1883 1.14180E+00
 -1      1884 1.25009E+00
 -1      1885 1.09104E+00
 -1      1886 1.33906E+00
 -1      1887 1.44103E+00
 -1      1888 1.28380E+00
 -1      1889 1.50876E+00
 -1      1890 1.66517E+00
 -1      1891 1.44050E+00
 -1      1892 1.74749E+00
 -1      1893 1.89876E+00
 -1      1894 1.59054E+00
 -1      1895 1.94502E+00
 -1      1896 1.95822E+00
 -1      1897 1.71911E+00
 -1      1898 1.93444E+00
 -1      1899 1.96277E+00
 -1      1900 1.74159E+00
 -1      1901 2.06505E+00
 -1      1902 1.95697E+00
 -1      1903 1.82009E+00
 -1      1904 2.00782E+00
 -1      1905 2.57637E+00
 -1      1906 1.97323E+00
 -1      1907 2.98408E+00
 -1      1908 4.09947E+00
 -1      1909 2.43180E+00
 -1      1910 4.58328E+00
 -1      1911 5.12073E+00
 -1      1912 3.32330E+00
 -1      1913 5.44301E+00
 -1      1914 5.37924E+00
 -1      1915 4.12938E+00
 -1      1916 4.87623E+00
 -1      1917 4.11622E+00
 -1      1918 3.94865E+00
 -1      1919 3.72159E+00
 -1      1920 2.71108E+00
 -1      1921 3.05100E+00
 -1      1922 2.45544E+00
 -1      1923 1.90549E+00
 -1      1924 2.40073E+00
 -1      1925 1.74987E+00
 -1      1926 1.80485E+00
 -1      1927 1.98948E+00
 -1      1928 1.59579E+00
 -1      1929 1.70573E+00
 -1      1930 1.62480E+00
 -1      1931 1.62752E+00
 -1      1932 1.47540E+00
 -1      1933 1.33752E+00
 -1      1934 1.37835E+00
 -1      1935 1.24846E+00
 -1      1936 1.16226E+00
 -1      1937 1.23269E+00
 -1      1938 1.20040E+00
 -1      1939 1.04945E+00
 -1      1940 1.14711E+00
 -1      1941 9.94497E-01
 -1      1942 7.91041E-01
 -1      1943 9.80387E-01
 -1      1944 1.39878E+00
 -1      1945 1.77232E+00
 -1      1946 1.52285E+00
 -1      1947 1.01893E+00
 -1      1948 1.27941E+00
 -1      1949 1.01161E+00
 -1      1950 8.05591E-01
 -1      1951 9.25295E-01
 -1      1952 7.98598E-01
 -1      1953 6.39122E-01
 -1      1954 7.26337E-01
 -1      1955 6.25705E-01
 -1      1956 5.13920E-01
 -1      1957 5.85454E-01
 -1      1958 4.92784E-01
 -1      1959 4.21407E-01
 -1      1960 4.80888E-01
 -1      1961 4.06085E-01
 -1      1962 3.40500E-01
 -1      1963 3.89810E-01
 -1      1964 3.41457E-01
 -1      1965 2.76086E-01
 -1      1966 3.12881E-01
 -1      1967 2.82240E-01
 -1      1968 2.23525E-01
 -1      1969 2.53722E-01
 -1      1970 2.32256E-01
 -1      1971 1.80466E-01
 -1      1972 2.03998E-01
 -1      1973 1.90364E-01
 -1      1974 1.45756E-01
 -1      1975 1.64326E-01
 -1      1976 1.54697E-01
 -1      1977 1.18955E-01
 -1      1978 1.33401E-01
 -1      1979 1.26203E-01
 -1      1980 9.89503E-02
 -1      1981 1.09581E-01
 -1      1982 1.04475E-01
 -1      1983 8.54102E-02
 -1      1984 9.23784E-02
 -1      1985 8.85295E-02
 -1      1986 8.12874E-02
 -1      1987 8.22589E-02
 -1      1988 7.88063E-02
 -1      1989 8.57350E-02
 -1      1990 8.21246E-02
 -1      1991 7.64921E-02
 -1      1992 9.58287E-02
 -1      1993 8.90637E-02
 -1      1994 8.06580E-02
 -1      1995 1.15469E-01
 -1      1996 1.06071E-01
 -1      1997 9.42292E-02
 -1      1998 1.42595E-01
 -1      1999 1.28179E-01
 -1      2000 1.17181E-01
 -1      2001 1.83219E-01
 -1      2002 1.64385E-01
 -1      2003 1.51680E-01
 -1      2004 2.33491E-01
 -1      2005 2.12879E-01
 -1      2006 2.03130E-01
 -1      2007 2.87865E-01
 -1      2008 2.67312E-01
 -1      2009 2.66611E-01
 -1      2010 3.46570E-01
 -1      2011 3.23805E-01
 -1      2012 3.36373E-01
 -1      2013 4.03566E-01
 -1      2014 3.80768E-01
 -1      2015 4.06512E-01
 -1      2016 4.46914E-01
 -1      2017 4.32646E-01
 -1      2018 4.69791E-01
 -1      2019 4.92264E-01
 -1      2020 4.72520E-01
 -1      2021 5.24477E-01
 -1      2022 5.34773E-01
 -1      2023 4.95121E-01
 -1      2024 5.52939E-01
 -1      2025 5.93781E-01
 -1      2026 5.34773E-01
 -1      2027 5.55795E-01
 -1      2028 5.99370E-01
 -1      2029 5.59269E-01
 -1      2030 5.21283E-01
 -1      2031 6.70927E-01
 -1      2032 5.82024E-01
 -1      2033 4.69424E-01
 -1      2034 8.07066E-01
 -1      2035 7.15896E-01
 -1      2036 4.97047E-01
 -1      2037 1.02856E+00
 -1      2038 1.01382E+00
 -1      2039 7.48770E-01
 -1      2040 1.40998E+00
 -1      2041 1.26322E+00
 -1      2042 1.19019E+00
 -1      2043 1.70970E+00
 -1      2044 1.55116E+00
 -1      2045 1.56603E+00
 -1      2046 2.01143E+00
 -1      2047 1.71661E+00
 -1      2048 1.71412E+00
 -1      2049 2.19520E+00
 -1      2050 2.01143E+00
 -1      2051 1.72103E+00
 -1      2052 2.27857E+00
 -1      2053 2.18071E+00
 -1      2054 1.70654E+00
 -1      2055 2.28724E+00
 -1      2056 2.32290E+00
 -1      2057 1.73639E+00
 -1      2058 1.83508E+00
 -1      2059 2.16413E+00
 -1      2060 1.65761E+00
 -1      2061 1.26891E+00
 -1      2062 1.64696E+00
 -1      2063 1.34637E+00
 -1      2064 8.07997E-01
 -1      2065 1.10334E+00
 -1      2066 9.92682E-01
 -1      2067 4.87247E-01
 -1      2068 7.10545E-01
 -1      2069 7.29660E-01
 -1      2070 4.37821E-01
 -1      2071 4.07381E-01
 -1      2072 5.52342E-01
 -1      2073 4.36068E-01
 -1      2074 4.26529E-01
 -1      2075 4.61185E-01
 -1      2076 3.90190E-01
 -1      2077 4.05118E-01
 -1      2078 4.18943E-01
 -1      2079 2.61551E-01
 -1      2080 3.26969E-01
 -1      2081 3.24772E-01
 -1      2082 2.51545E-01
 -1      2083 4.28001E-01
 -1      2084 4.28001E-01
 -1      2085 4.07984E-01
 -1      2086 3.90000E-01
 -1      2087 4.78961E-01
 -1      2088 3.54524E-01
 -1      2089 3.14766E-01
 -1      2090 3.24772E-01
 -1      2091 4.23468E-01
 -1      2092 4.22071E-01
 -1      2093 4.28001E-01
 -1      2094 4.98979E-01
 -1      2095 3.69664E-01
 -1      2096 4.17918E-01
 -1      2097 4.94825E-01
 -1      2098 5.84267E-01
 -1      2099 4.43525E-01
 -1      2100 5.64533E-01
 -1      2101 9.00181E-01
 -1      2102 7.86183E-01
 -1      2103 8.40309E-01
 -1      2104 9.85758E-01
 -1      2105 9.71414E-01
 -1      2106 1.11346E+00
 -1      2107 9.86487E-01
 -1      2108 9.86487E-01
 -1      2109 1.18542E+00
 -1      2110 9.35661E-01
 -1      2111 9.86487E-01
 -1      2112 1.18615E+00
 -1      2113 6.54727E-01
 -1      2114 7.94834E-01
 -1      2115 1.04532E+00
 -1      2116 5.29921E-01
 -1      2117 5.04900E-01
 -1      2118 7.54667E-01
 -1      2119 6.03431E-01
 -1      2120 6.03431E-01
 -1      2121 6.78350E-01
 -1      2122 3.17161E+01
 -1      2123 3.04388E+01
 -1      2124 2.98840E+01
 -1      2125 2.98840E+01
 -1      2126 3.01144E+01
 -1      2127 2.94042E+01
 -1      2128 2.17914E+01
 -1      2129 2.53192E+01
 -1      2130 2.40418E+01
 -1      2131 1.08622E+01
 -1      2132 1.79480E+01
 -1      2133 1.03426E+00
 -1      2134 1.20910E+00
 -1      2135 9.79299E-01
 -1      2136 8.52924E-01
 -1      2137 1.08485E+01
 -1      2138 1.06657E+01
 -1      2139 1.10561E+01
 -1      2140 1.12575E+01
 -1      2141 1.17469E+01
 -1      2142 1.13628E+01
 -1      2143 1.11746E+01
 -1      2144 1.12778E+01
 -1      2145 9.21669E+00
 -1      2146 9.84070E+00
 -1      2147 1.47062E+01
 -1      2148 1.01736E+01
 -1      2149 3.08684E+01
 -1      2150 1.79793E+01
 -1      2151 1.22583E+01
 -1      2152 2.71870E+01
 -1      2153 3.66962E+01
 -1      2154 2.66144E+01
 -1      2155 2.64396E+01
 -1      2156 2.64396E+01
 -1      2157 3.00684E+01
 -1      2158 3.00684E+01
 -1      2159 2.84760E+01
 -1      2160 3.00684E+01
 -1      2161 2.84778E+01
 -1      2162 2.46712E+01
 -1      2163 2.68196E+01
 -1      2164 2.68196E+01
 -1      2165 1.27260E+01
 -1      2166 2.20953E+01
 -1      2167 9.49947E+00
 -1      2168 1.03106E+01
 -1      2169 1.06567E+01
 -1      2170 1.02289E+01
 -1      2171 1.14586E+01
 -1      2172 1.11246E+01
 -1      2173 1.16569E+01
 -1      2174 1.14078E+01
 -1      2175 1.08350E+01
 -1      2176 1.13634E+01
 -1      2177 9.48819E+00
 -1      2178 9.79872E+00
 -1      2179 1.81360E+01
 -1      2180 1.11247E+01
 -1      2181 2.56902E+01
 -1      2182 2.21707E+01
 -1      2183 3.18412E+01
 -1      2184 3.24255E+01
 -1      2185 2.98840E+01
 -1      2186 3.12955E+01
 -1      2187 9.66028E+00
 -1      2188 9.50079E+00
 -1      2189 8.24072E+00
 -1      2190 1.38014E+01
 -1      2191 2.91074E+00
 -1      2192 2.10498E+00
 -1      2193 3.01144E+01
 -1      2194 3.02699E+01
 -1      2195 7.03423E-01
 -1      2196 3.07497E+01
 -1      2197 8.53186E+00
 -1      2198 7.62770E+00
 -1      2199 6.26633E+00
 -1      2200 3.12955E+01
 -1      2201 2.51059E+01
 -1      2202 1.43359E+01
 -1      2203 8.66476E+00
 -1      2204 8.06456E+00
 -1      2205 9.39432E+00
 -1      2206 1.14586E+01
 -1      2207 9.78948E+00
 -1      2208 9.73864E+00
 -1      2209 9.32154E+00
 -1      2210 8.12418E+00
 -1      2211 9.81013E+00
 -1      2212 1.69498E+01
 -1      2213 2.33323E+01
 -1      2214 2.87953E+01
 -1      2215 2.91461E+01
 -1      2216 3.08004E+01
 -1      2217 1.54634E+01
 -1      2218 2.12912E+01
 -1      2219 8.02836E+00
 -1      2220 8.40536E+00
 -1      2221 1.02084E+01
 -1      2222 9.65518E+00
 -1      2223 1.03708E+01
 -1      2224 3.26001E+01
 -1      2225 1.08979E+00
 -1      2226 1.48166E+00
 -1      2227 5.59165E-01
 -1      2228 5.90679E-01
 -1      2229 6.04694E-01
 -1      2230 6.54791E-01
 -1      2231 5.00461E-01
 -1      2232 5.11329E-01
 -1      2233 5.09734E-01
 -1      2234 5.46040E-01
 -1      2235 5.24242E-01
 -1      2236 4.44633E-01
 -1      2237 5.94106E-01
 -1      2238 5.60785E-01
 -1      2239 4.72291E-01
 -1      2240 6.53710E-01
 -1      2241 6.06150E-01
 -1      2242 4.99080E-01
 -1      2243 7.21387E-01
 -1      2244 6.53710E-01
 -1      2245 5.11125E-01
 -1      2246 8.84138E-01
 -1      2247 7.70053E-01
 -1      2248 5.59790E-01
 -1      2249 8.92238E-01
 -1      2250 1.01161E+00
 -1      2251 9.70417E-01
 -1      2252 1.26662E+00
 -1      2253 1.03574E+00
 -1      2254 1.67627E+00
 -1      2255 1.30139E+00
 -1      2256 8.37915E-01
 -1      2257 9.60272E-01
 -1      2258 9.50139E+00
 -1      2259 1.33448E+01
 -1      2260 9.85436E-01
 -1      2261 8.05416E-01
 -1      2262 7.52838E-01
 -1      2263 7.49033E-01
 -1      2264 6.23680E-01
 -1      2265 6.46152E-01
 -1      2266 5.67692E-01
 -1      2267 5.08811E-01
 -1      2268 5.33781E-01
 -1      2269 4.59663E-01
 -1      2270 4.11345E-01
 -1      2271 4.28646E-01
 -1      2272 3.84098E-01
 -1      2273 3.41650E-01
 -1      2274 3.52251E-01
 -1      2275 3.16944E-01
 -1      2276 2.84399E-01
 -1      2277 3.00297E-01
 -1      2278 2.61097E-01
 -1      2279 2.33876E-01
 -1      2280 2.52288E-01
 -1      2281 2.15562E-01
 -1      2282 1.92313E-01
 -1      2283 2.10672E-01
 -1      2284 1.77499E-01
 -1      2285 1.59460E-01
 -1      2286 1.77544E-01
 -1      2287 1.45850E-01
 -1      2288 1.31433E-01
 -1      2289 1.49120E-01
 -1      2290 1.19397E-01
 -1      2291 1.07252E-01
 -1      2292 1.23474E-01
 -1      2293 9.68182E-02
 -1      2294 8.67355E-02
 -1      2295 1.01004E-01
 -1      2296 7.76911E-02
 -1      2297 7.03946E-02
 -1      2298 8.15266E-02
 -1      2299 6.23363E-02
 -1      2300 6.05599E-02
 -1      2301 6.44239E-02
 -1      2302 6.10624E-02
 -1      2303 6.55203E-02
 -1      2304 5.68682E-02
 -1      2305 7.17421E-02
 -1      2306 8.13185E-02
 -1      2307 6.35925E-02
 -1      2308 9.18816E-02
 -1      2309 1.05697E-01
 -1      2310 8.03775E-02
 -1      2311 1.30134E-01
 -1      2312 1.52514E-01
 -1      2313 1.15378E-01
 -1      2314 1.84353E-01
 -1      2315 2.20619E-01
 -1      2316 1.71654E-01
 -1      2317 2.61926E-01
 -1      2318 3.09303E-01
 -1      2319 2.44800E-01
 -1      2320 3.62306E-01
 -1      2321 4.22915E-01
 -1      2322 3.39111E-01
 -1      2323 4.89770E-01
 -1      2324 5.65127E-01
 -1      2325 4.58969E-01
 -1      2326 6.47438E-01
 -1      2327 7.37465E-01
 -1      2328 6.08135E-01
 -1      2329 8.35376E-01
 -1      2330 9.36757E-01
 -1      2331 7.88357E-01
 -1      2332 1.04741E+00
 -1      2333 1.15120E+00
 -1      2334 9.96920E-01
 -1      2335 1.26641E+00
 -1      2336 1.35538E+00
 -1      2337 1.22278E+00
 -1      2338 1.45892E+00
 -1      2339 1.52665E+00
 -1      2340 1.44153E+00
 -1      2341 1.64213E+00
 -1      2342 1.72445E+00
 -1      2343 1.66056E+00
 -1      2344 1.92063E+00
 -1      2345 1.96689E+00
 -1      2346 1.97222E+00
 -1      2347 2.17284E+00
 -1      2348 2.14906E+00
 -1      2349 2.37436E+00
 -1      2350 2.14744E+00
 -1      2351 2.24973E+00
 -1      2352 2.57869E+00
 -1      2353 2.68194E+00
 -1      2354 2.73279E+00
 -1      2355 3.00929E+00
 -1      2356 2.28868E+00
 -1      2357 2.69638E+00
 -1      2358 2.99738E+00
 -1      2359 3.32330E+00
 -1      2360 3.80710E+00
 -1      2361 3.18018E+00
 -1      2362 5.45686E+00
 -1      2363 5.77913E+00
 -1      2364 5.45686E+00
 -1      2365 6.01072E+00
 -1      2366 5.50771E+00
 -1      2367 7.33820E+00
 -1      2368 4.29667E+00
 -1      2369 3.90203E+00
 -1      2370 6.35874E+00
 -1      2371 2.85435E+00
 -1      2372 2.59871E+00
 -1      2373 4.10001E+00
 -1      2374 2.54831E+00
 -1      2375 2.39269E+00
 -1      2376 3.00192E+00
 -1      2377 2.01266E+00
 -1      2378 1.80359E+00
 -1      2379 2.57148E+00
 -1      2380 1.54230E+00
 -1      2381 1.46408E+00
 -1      2382 1.93015E+00
 -1      2383 1.26350E+00
 -1      2384 1.16645E+00
 -1      2385 1.46827E+00
 -1      2386 1.06521E+00
 -1      2387 1.04945E+00
 -1      2388 1.16645E+00
 -1      2389 5.46451E-01
 -1      2390 6.25705E-01
 -1      2391 4.39116E-01
 -1      2392 4.92784E-01
 -1      2393 4.92784E-01
 -1      2394 3.73053E-01
 -1      2395 4.06085E-01
 -1      2396 4.06085E-01
 -1      2397 3.09860E-01
 -1      2398 3.41457E-01
 -1      2399 3.41457E-01
 -1      2400 2.54621E-01
 -1      2401 2.82240E-01
 -1      2402 2.82240E-01
 -1      2403 2.10090E-01
 -1      2404 2.32454E-01
 -1      2405 2.32454E-01
 -1      2406 1.71249E-01
 -1      2407 1.90777E-01
 -1      2408 1.90974E-01
 -1      2409 1.38634E-01
 -1      2410 1.54774E-01
 -1      2411 1.55186E-01
 -1      2412 1.12589E-01
 -1      2413 1.24944E-01
 -1      2414 1.25021E-01
 -1      2415 9.22941E-02
 -1      2416 1.01667E-01
 -1      2417 1.00409E-01
 -1      2418 7.67862E-02
 -1      2419 8.33581E-02
 -1      2420 8.05508E-02
 -1      2421 6.76733E-02
 -1      2422 7.08246E-02
 -1      2423 6.56533E-02
 -1      2424 6.75751E-02
 -1      2425 6.67379E-02
 -1      2426 5.87563E-02
 -1      2427 7.62514E-02
 -1      2428 7.29227E-02
 -1      2429 6.31685E-02
 -1      2430 9.42292E-02
 -1      2431 8.39868E-02
 -1      2432 7.62514E-02
 -1      2433 1.22233E-01
 -1      2434 1.09523E-01
 -1      2435 9.92804E-02
 -1      2436 1.66451E-01
 -1      2437 1.44662E-01
 -1      2438 1.37004E-01
 -1      2439 2.22729E-01
 -1      2440 1.93069E-01
 -1      2441 1.86051E-01
 -1      2442 2.86954E-01
 -1      2443 2.53132E-01
 -1      2444 2.43071E-01
 -1      2445 3.55734E-01
 -1      2446 3.19794E-01
 -1      2447 3.06315E-01
 -1      2448 4.22501E-01
 -1      2449 3.88303E-01
 -1      2450 3.71724E-01
 -1      2451 4.79406E-01
 -1      2452 4.50325E-01
 -1      2453 4.32116E-01
 -1      2454 5.32059E-01
 -1      2455 5.06453E-01
 -1      2456 4.86988E-01
 -1      2457 5.52939E-01
 -1      2458 5.50082E-01
 -1      2459 5.32059E-01
 -1      2460 5.59127E-01
 -1      2461 5.59127E-01
 -1      2462 5.56271E-01
 -1      2463 5.08520E-01
 -1      2464 5.43032E-01
 -1      2465 5.46365E-01
 -1      2466 4.99239E-01
 -1      2467 5.16585E-01
 -1      2468 5.38335E-01
 -1      2469 5.71999E-01
 -1      2470 5.27030E-01
 -1      2471 5.74190E-01
 -1      2472 8.97219E-01
 -1      2473 6.90465E-01
 -1      2474 7.20447E-01
 -1      2475 1.30983E+00
 -1      2476 1.07516E+00
 -1      2477 1.01686E+00
 -1      2478 1.58543E+00
 -1      2479 1.44424E+00
 -1      2480 1.32922E+00
 -1      2481 1.71412E+00
 -1      2482 1.70722E+00
 -1      2483 1.58543E+00
 -1      2484 1.72103E+00
 -1      2485 1.72103E+00
 -1      2486 1.71412E+00
 -1      2487 1.65454E+00
 -1      2488 1.66902E+00
 -1      2489 1.66902E+00
 -1      2490 1.80238E+00
 -1      2491 1.75804E+00
 -1      2492 1.72052E+00
 -1      2493 1.53869E+00
 -1      2494 1.66180E+00
 -1      2495 1.68345E+00
 -1      2496 1.26224E+00
 -1      2497 1.45037E+00
 -1      2498 1.45456E+00
 -1      2499 9.98656E-01
 -1      2500 1.16423E+00
 -1      2501 1.26822E+00
 -1      2502 7.79656E-01
 -1      2503 8.77108E-01
 -1      2504 1.04865E+00
 -1      2505 5.73310E-01
 -1      2506 6.53176E-01
 -1      2507 8.00624E-01
 -1      2508 4.75495E-01
 -1      2509 4.86786E-01
 -1      2510 5.87620E-01
 -1      2511 4.46444E-01
 -1      2512 4.77394E-01
 -1      2513 5.02995E-01
 -1      2514 3.87993E-01
 -1      2515 6.02353E-01
 -1      2516 6.06506E-01
 -1      2517 8.03055E-01
 -1      2518 7.29195E-01
 -1      2519 8.40876E-01
 -1      2520 5.08877E-01
 -1      2521 4.88860E-01
 -1      2522 5.56299E-01
 -1      2523 5.56299E-01
 -1      2524 5.66198E-01
 -1      2525 6.63827E-01
 -1      2526 1.13325E+00
 -1      2527 9.31333E-01
 -1      2528 1.09599E+00
 -1      2529 1.44992E+00
 -1      2530 1.37869E+00
 -1      2531 1.46972E+00
 -1      2532 1.45392E+00
 -1      2533 1.45319E+00
 -1      2534 1.71843E+00
 -1      2535 1.45392E+00
 -1      2536 1.45392E+00
 -1      2537 1.72169E+00
 -1      2538 1.25324E+00
 -1      2539 1.39407E+00
 -1      2540 1.66184E+00
 -1      2541 8.40218E-01
 -1      2542 9.90045E-01
 -1      2543 1.33880E+00
 -1      2544 8.76857E-01
 -1      2545 8.03347E-01
 -1      2546 1.03872E+00
 -1      2547 2.97900E+01
 -1      2548 3.02699E+01
 -1      2549 2.51785E+01
 -1      2550 2.48542E+01
 -1      2551 3.07497E+01
 -1      2552 3.07497E+01
 -1      2553 3.02699E+01
 -1      2554 7.04959E-01
 -1      2555 7.98598E-01
 -1      2556 6.25705E-01
 -1      2557 8.39478E-01
 -1      2558 1.48813E+01
 -1      2559 2.12783E+01
 -1      2560 1.60181E+01
 -1      2561 1.05813E+01
 -1      2562 7.03135E+00
 -1      2563 6.02589E+00
 -1      2564 6.37132E+00
 -1      2565 5.41442E+00
 -1      2566 5.22599E-01
 -1      2567 5.44666E-01
 -1      2568 4.71948E-01
 -1      2569 4.44584E-01
 -1      2570 9.64391E+00
 -1      2571 9.33727E+00
 -1      2572 3.26001E+01
 -1      2573 3.26001E+01
 -1      2574 8.78351E+00
 -1      2575 8.37451E+00
 -1      2576 8.05660E+00
 -1      2577 8.61913E+00
 -1      2578 9.08823E+00
 -1      2579 6.11085E+00
 -1      2580 7.44476E+00
 -1      2581 1.13726E+01
 -1      2582 8.09951E+00
 -1      2583 5.48557E+00
 -1      2584 2.23505E+01
 -1      2585 2.30979E+01
 -1      2586 3.01309E+01
 -1      2587 2.66769E+01
 -1      2588 2.33353E+01
 -1      2589 2.49905E+01
 -1      2590 2.87953E+01
 -1      2591 1.88046E+01
 -1      2592 2.04628E+01
 -1      2593 1.17918E+01
 -1      2594 1.65161E+01
 -1      2595 7.27672E+00
 -1      2596 9.69210E+00
 -1      2597 6.63738E+00
 -1      2598 5.90796E+00
 -1      2599 8.44804E+00
 -1      2600 7.98010E+00
 -1      2601 5.76388E+00
 -1      2602 8.33531E+00
 -1      2603 8.62880E+00
 -1      2604 6.08798E+00
 -1      2605 7.12427E+00
 -1      2606 8.30925E+00
 -1      2607 6.67277E+00
 -1      2608 1.38100E+01
 -1      2609 9.77536E+00
 -1      2610 2.29201E+01
 -1      2611 1.61848E+01
 -1      2612 2.62418E+01
 -1      2613 2.67875E+01
 -1      2614 1.62156E+00
 -1      2615 1.76476E+00
 -1      2616 1.32863E+00
 -1      2617 1.18850E+00
 -1      2618 8.05469E+00
 -1      2619 5.22368E-01
 -1      2620 6.62684E-01
 -1      2621 7.20501E-01
 -1      2622 7.98598E-01
 -1      2623 1.24411E+00
 -1      2624 7.56381E+00
 -1      2625 7.10719E+00
 -1      2626 5.23351E+00
 -1      2627 4.46444E-01
 -1      2628 6.15968E+00
 -1      2629 4.81919E-01
 -1      2630 2.62418E+01
 -1      2631 9.68429E-01
 -1      2632 2.48542E+01
 -1      2633 1.78664E+01
 -1      2634 5.05696E+00
 -1      2635 1.72022E+01
 -1      2636 1.16242E+01
 -1      2637 4.45381E+00
 -1      2638 7.78336E+00
 -1      2639 5.73248E+00
 -1      2640 8.44804E+00
 -1      2641 8.67963E+00
 -1      2642 5.78993E+00
 -1      2643 9.25837E+00
 -1      2644 1.36466E+01
 -1      2645 3.01309E+01
 -1      2646 1.21040E+01
 -1      2647 7.94521E+00
 -1      2648 1.20361E+01
 -1      2649 8.91715E-01
 -1      2650 2.87953E+01
 -1      2651 5.11835E-01
 -1      2652 6.32463E+00
 -1      2653 8.39478E-01
 -1      2654 7.51860E-01
 -1      2655 8.76857E-01
 -1      2656 8.92769E-01
 -1      2657 2.04628E+01
 -1      2658 6.35874E+00
 -1      2659 9.08538E-01
 -1      2660 4.22783E-01
 -1      2661 4.08038E-01
 -1      2662 4.00273E-01
 -1      2663 3.87360E-01
 -1      2664 3.50764E-01
 -1      2665 4.36444E-01
 -1      2666 4.36444E-01
 -1      2667 4.73125E-01
 -1      2668 4.24459E-01
 -1      2669 3.49778E-01
 -1      2670 7.18227E-01
 -1      2671 7.96407E-01
 -1      2672 1.74835E+01
 -1      2673 2.24194E+01
 -1      2674 6.10591E-01
 -1      2675 7.04230E-01
 -1      2676 5.30220E-01
 -1      2677 7.01474E-01
 -1      2678 6.66701E-01
 -1      2679 6.01047E-01
 -1      2680 5.50744E-01
 -1      2681 4.64606E-01
 -1      2682 5.39106E-01
 -1      2683 4.82723E-01
 -1      2684 3.87315E-01
 -1      2685 4.84062E-01
 -1      2686 4.28075E-01
 -1      2687 3.77016E-01
 -1      2688 4.13135E-01
 -1      2689 3.63988E-01
 -1      2690 3.63416E-01
 -1      2691 3.42496E-01
 -1      2692 3.15249E-01
 -1      2693 3.26986E-01
 -1      2694 2.92148E-01
 -1      2695 2.67441E-01
 -1      2696 2.82393E-01
 -1      2697 2.49123E-01
 -1      2698 2.25822E-01
 -1      2699 2.40975E-01
 -1      2700 2.10672E-01
 -1      2701 1.92357E-01
 -1      2702 2.07507E-01
 -1      2703 1.77544E-01
 -1      2704 1.62730E-01
 -1      2705 1.77544E-01
 -1      2706 1.49120E-01
 -1      2707 1.35510E-01
 -1      2708 1.49120E-01
 -1      2709 1.23474E-01
 -1      2710 1.11438E-01
 -1      2711 1.23474E-01
 -1      2712 1.01004E-01
 -1      2713 9.05711E-02
 -1      2714 1.01004E-01
 -1      2715 8.15266E-02
 -1      2716 7.24822E-02
 -1      2717 8.15266E-02
 -1      2718 6.44239E-02
 -1      2719 5.63657E-02
 -1      2720 6.44239E-02
 -1      2721 4.87251E-02
 -1      2722 4.92277E-02
 -1      2723 4.87251E-02
 -1      2724 5.22924E-02
 -1      2725 5.85142E-02
 -1      2726 4.41494E-02
 -1      2727 7.44684E-02
 -1      2728 8.50316E-02
 -1      2729 6.31683E-02
 -1      2730 1.04956E-01
 -1      2731 1.29393E-01
 -1      2732 9.90467E-02
 -1      2733 1.54560E-01
 -1      2734 1.86398E-01
 -1      2735 1.44137E-01
 -1      2736 2.18291E-01
 -1      2737 2.59598E-01
 -1      2738 2.01196E-01
 -1      2739 2.99960E-01
 -1      2740 3.52964E-01
 -1      2741 2.73451E-01
 -1      2742 4.06487E-01
 -1      2743 4.73342E-01
 -1      2744 3.67337E-01
 -1      2745 5.44032E-01
 -1      2746 6.26342E-01
 -1      2747 4.91550E-01
 -1      2748 7.14455E-01
 -1      2749 8.12366E-01
 -1      2750 6.50351E-01
 -1      2751 9.19848E-01
 -1      2752 1.03050E+00
 -1      2753 8.45946E-01
 -1      2754 1.15745E+00
 -1      2755 1.27266E+00
 -1      2756 1.08038E+00
 -1      2757 1.42627E+00
 -1      2758 1.52981E+00
 -1      2759 1.36094E+00
 -1      2760 1.74818E+00
 -1      2761 1.86367E+00
 -1      2762 1.73292E+00
 -1      2763 2.13151E+00
 -1      2764 2.32769E+00
 -1      2765 2.21914E+00
 -1      2766 2.69203E+00
 -1      2767 2.89798E+00
 -1      2768 2.85132E+00
 -1      2769 4.18429E+00
 -1      2770 4.18267E+00
 -1      2771 4.50196E+00
 -1      2772 3.15925E+00
 -1      2773 3.59146E+00
 -1      2774 4.76484E+00
 -1      2775 2.93847E+00
 -1      2776 3.56539E+00
 -1      2777 7.56979E+00
 -1      2778 6.35874E+00
 -1      2779 4.27063E+00
 -1      2780 3.22295E+00
 -1      2781 3.11168E+00
 -1      2782 3.06128E+00
 -1      2783 3.28230E+00
 -1      2784 3.57031E+00
 -1      2785 3.19027E+00
 -1      2786 3.68007E+00
 -1      2787 2.52685E+00
 -1      2788 2.26556E+00
 -1      2789 3.52568E+00
 -1      2790 1.84329E+00
 -1      2791 1.64270E+00
 -1      2792 2.43999E+00
 -1      2793 1.35099E+00
 -1      2794 1.24975E+00
 -1      2795 1.72600E+00
 -1      2796 3.51247E-01
 -1      2797 3.84279E-01
 -1      2798 1.43044E+01
 -1      2799 1.88321E+01
 -1      2800 8.28526E-01
 -1      2801 4.18469E-01
 -1      2802 4.72137E-01
 -1      2803 3.63632E-01
 -1      2804 2.45316E-01
 -1      2805 2.72936E-01
 -1      2806 2.04810E-01
 -1      2807 2.26976E-01
 -1      2808 2.17672E-01
 -1      2809 1.68539E-01
 -1      2810 1.87852E-01
 -1      2811 1.82374E-01
 -1      2812 1.37592E-01
 -1      2813 1.54067E-01
 -1      2814 1.50944E-01
 -1      2815 1.11298E-01
 -1      2816 1.24989E-01
 -1      2817 1.23869E-01
 -1      2818 8.94868E-02
 -1      2819 1.00409E-01
 -1      2820 1.00377E-01
 -1      2821 7.11875E-02
 -1      2822 8.01235E-02
 -1      2823 8.01235E-02
 -1      2824 5.77099E-02
 -1      2825 6.36715E-02
 -1      2826 6.32442E-02
 -1      2827 5.01402E-02
 -1      2828 5.10756E-02
 -1      2829 4.90938E-02
 -1      2830 5.88697E-02
 -1      2831 5.35221E-02
 -1      2832 4.58414E-02
 -1      2833 7.29843E-02
 -1      2834 6.52489E-02
 -1      2835 5.56026E-02
 -1      2836 1.04689E-01
 -1      2837 8.93950E-02
 -1      2838 7.83925E-02
 -1      2839 1.46910E-01
 -1      2840 1.24480E-01
 -1      2841 1.14595E-01
 -1      2842 1.97173E-01
 -1      2843 1.70556E-01
 -1      2844 1.58033E-01
 -1      2845 2.55236E-01
 -1      2846 2.24833E-01
 -1      2847 2.09338E-01
 -1      2848 3.19373E-01
 -1      2849 2.86533E-01
 -1      2850 2.68295E-01
 -1      2851 3.85675E-01
 -1      2852 3.53106E-01
 -1      2853 3.33324E-01
 -1      2854 4.47276E-01
 -1      2855 4.19453E-01
 -1      2856 4.00835E-01
 -1      2857 5.05322E-01
 -1      2858 4.78275E-01
 -1      2859 4.65611E-01
 -1      2860 5.53907E-01
 -1      2861 5.35883E-01
 -1      2862 5.27170E-01
 -1      2863 5.98614E-01
 -1      2864 5.92425E-01
 -1      2865 5.96250E-01
 -1      2866 6.14138E-01
 -1      2867 6.30233E-01
 -1      2868 6.66387E-01
 -1      2869 6.31394E-01
 -1      2870 6.23329E-01
 -1      2871 7.07197E-01
 -1      2872 7.48199E-01
 -1      2873 7.20409E-01
 -1      2874 8.05403E-01
 -1      2875 9.24285E-01
 -1      2876 8.05818E-01
 -1      2877 9.52037E-01
 -1      2878 1.26968E+00
 -1      2879 1.09174E+00
 -1      2880 1.17711E+00
 -1      2881 1.43937E+00
 -1      2882 1.30496E+00
 -1      2883 1.37984E+00
 -1      2884 1.66136E+00
 -1      2885 1.53956E+00
 -1      2886 1.51530E+00
 -1      2887 1.90322E+00
 -1      2888 1.89632E+00
 -1      2889 1.85045E+00
 -1      2890 1.83339E+00
 -1      2891 1.88539E+00
 -1      2892 2.06759E+00
 -1      2893 2.77491E+00
 -1      2894 2.67141E+00
 -1      2895 2.88778E+00
 -1      2896 2.16236E+00
 -1      2897 2.30294E+00
 -1      2898 3.25383E+00
 -1      2899 1.74950E+00
 -1      2900 1.83781E+00
 -1      2901 2.45730E+00
 -1      2902 1.32422E+00
 -1      2903 1.42224E+00
 -1      2904 1.80550E+00
 -1      2905 1.04865E+00
 -1      2906 1.17020E+00
 -1      2907 1.32422E+00
 -1      2908 8.12131E-01
 -1      2909 9.38610E-01
 -1      2910 1.06016E+00
 -1      2911 5.87620E-01
 -1      2912 6.74145E-01
 -1      2913 8.12131E-01
 -1      2914 5.04894E-01
 -1      2915 5.02995E-01
 -1      2916 5.89520E-01
 -1      2917 5.11835E-01
 -1      2918 5.61326E+00
 -1      2919 4.27010E+00
 -1      2920 1.87910E+00
 -1      2921 1.63366E+00
 -1      2922 4.50633E+00
 -1      2923 5.68071E+00
 -1      2924 1.12612E+00
 -1      2925 9.99275E-01
 -1      2926 2.16588E+00
 -1      2927 2.16261E+00
 -1      2928 2.32656E+00
 -1      2929 1.45368E+00
 -1      2930 1.32540E+00
 -1      2931 1.48380E+00
 -1      2932 1.86307E+00
 -1      2933 2.16588E+00
 -1      2934 2.16588E+00
 -1      2935 2.61007E+00
 -1      2936 2.09669E+00
 -1      2937 2.15654E+00
 -1      2938 2.60073E+00
 -1      2939 1.42599E+00
 -1      2940 1.68919E+00
 -1      2941 2.18389E+00
 -1      2942 1.66506E+01
 -1      2943 1.27831E+01
 -1      2944 5.05820E-01
 -1      2945 5.85074E-01
 -1      2946 4.90706E-01
 -1      2947 4.31506E-01
 -1      2948 2.41463E+01
 -1      2949 1.96383E+01
 -1      2950 7.71738E+00
 -1      2951 6.25128E+00
 -1      2952 7.20608E+00
 -1      2953 6.65232E+00
 -1      2954 2.21330E+01
 -1      2955 2.26128E+01
 -1      2956 1.47623E+01
 -1      2957 1.12040E+01
 -1      2958 8.82926E+00
 -1      2959 2.92296E-01
 -1      2960 3.23892E-01
 -1      2961 3.02086E-01
 -1      2962 2.55371E-01
 -1      2963 4.36444E-01
 -1      2964 4.24400E-01
 -1      2965 3.60146E-01
 -1      2966 3.61764E-01
 -1      2967 8.67963E+00
 -1      2968 1.53961E+01
 -1      2969 1.35894E+01
 -1      2970 2.13760E+01
 -1      2971 2.51808E+01
 -1      2972 4.22562E-01
 -1      2973 4.36577E-01
 -1      2974 9.06800E-01
 -1      2975 1.03180E+00
 -1      2976 1.06348E+00
 -1      2977 6.01019E+00
 -1      2978 4.28200E+00
 -1      2979 7.20501E-01
 -1      2980 2.09465E+01
 -1      2981 1.66202E+01
 -1      2982 6.58141E+00
 -1      2983 7.13709E+00
 -1      2984 2.38088E+01
 -1      2985 2.13396E+01
 -1      2986 1.46244E+01
 -1      2987 1.10408E+01
 -1      2988 1.33293E+01
 -1      2989 7.35588E+00
 -1      2990 9.45556E+00
 -1      2991 4.85541E+00
 -1      2992 4.27063E+00
 -1      2993 3.19811E+00
 -1      2994 3.89455E+00
 -1      2995 4.11471E+00
 -1      2996 4.35515E+00
 -1      2997 4.29126E+00
 -1      2998 8.44804E+00
 -1      2999 4.46645E-01
 -1      3000 4.54537E-01
 -1      3001 3.68747E-01
 -1      3002 3.42808E-01
 -1      3003 3.87168E-01
 -1      3004 4.00033E-01
 -1      3005 7.29717E+00
 -1      3006 7.10661E+00
 -1      3007 1.30073E+01
 -1      3008 1.19039E+01
 -1      3009 1.58041E+01
 -1      3010 3.15868E+00
 -1      3011 3.54389E+00
 -1      3012 3.60280E+00
 -1      3013 5.14769E+00
 -1      3014 5.45686E+00
 -1      3015 1.24801E+00
 -1      3016 1.52176E+01
 -1      3017 5.76336E-01
 -1      3018 4.76274E+00
 -1      3019 5.90946E-01
 -1      3020 5.84005E-01
 -1      3021 6.38368E-01
 -1      3022 4.76311E+00
 -1      3023 9.98818E+00
 -1      3024 1.45551E+01
 -1      3025 1.06867E+00
 -1      3026 3.85305E+00
 -1      3027 3.15124E+00
 -1      3028 3.30663E+00
 -1      3029 1.33694E+01
 -1      3030 3.72274E+00
 -1      3031 4.78943E+00
 -1      3032 1.19204E+00
 -1      3033 1.19897E+00
 -1      3034 1.54937E+00
 -1      3035 1.37832E+00
 -1      3036 5.46140E+00
 -1      3037 5.65859E+00
 -1      3038 8.16740E+00
 -1      3039 9.70394E+00
 -1      3040 9.49000E+00
 -1      3041 1.63894E+01
 -1      3042 5.73280E+00
 -1      3043 3.25063E+00
 -1      3044 4.09263E+00
 -1      3045 1.16987E+01
 -1      3046 1.02300E+01
 -1      3047 1.60094E+01
 -1      3048 7.96399E-01
 -1      3049 7.46191E-01
 -1      3050 7.70940E-01
 -1      3051 1.08164E+00
 -1      3052 4.07579E-01
 -1      3053 4.22078E-01
 -1      3054 3.58194E-01
 -1      3055 3.50163E-01
 -1      3056 5.30260E-01
 -1      3057 6.74165E+00
 -1      3058 4.41005E-01
 -1      3059 3.75276E+00
 -1      3060 6.76940E+00
 -1      3061 5.89204E+00
 -1      3062 4.83183E+00
 -1      3063 5.21514E+00
 -1      3064 9.13831E+00
 -1      3065 4.76380E+00
 -1      3066 3.72474E+00
 -1      3067 2.90422E-01
 -1      3068 3.02407E-01
 -1      3069 1.41186E+01
 -1      3070 1.27466E+01
 -1      3071 7.52849E+00
 -1      3072 9.11373E+00
 -1      3073 3.28003E-01
 -1      3074 3.16364E-01
 -1      3075 3.02147E-01
 -1      3076 3.03487E-01
 -1      3077 2.42835E-01
 -1      3078 3.12632E-01
 -1      3079 2.97693E-01
 -1      3080 2.37763E-01
 -1      3081 2.93882E-01
 -1      3082 2.72391E-01
 -1      3083 2.43098E-01
 -1      3084 2.61754E-01
 -1      3085 2.38652E-01
 -1      3086 2.28650E-01
 -1      3087 2.24985E-01
 -1      3088 2.06668E-01
 -1      3089 2.04346E-01
 -1      3090 1.94538E-01
 -1      3091 1.79388E-01
 -1      3092 1.78548E-01
 -1      3093 1.68781E-01
 -1      3094 1.53968E-01
 -1      3095 1.55812E-01
 -1      3096 1.42807E-01
 -1      3097 1.29197E-01
 -1      3098 1.34045E-01
 -1      3099 1.18274E-01
 -1      3100 1.06238E-01
 -1      3101 1.11961E-01
 -1      3102 9.59138E-02
 -1      3103 8.54805E-02
 -1      3104 9.07139E-02
 -1      3105 7.58068E-02
 -1      3106 6.67624E-02
 -1      3107 7.07163E-02
 -1      3108 5.75604E-02
 -1      3109 4.95021E-02
 -1      3110 5.18406E-02
 -1      3111 4.27785E-02
 -1      3112 3.51380E-02
 -1      3113 3.59150E-02
 -1      3114 3.66240E-02
 -1      3115 3.96887E-02
 -1      3116 3.06774E-02
 -1      3117 5.30074E-02
 -1      3118 6.89616E-02
 -1      3119 4.54820E-02
 -1      3120 8.61633E-02
 -1      3121 1.06087E-01
 -1      3122 7.60023E-02
 -1      3123 1.29189E-01
 -1      3124 1.54356E-01
 -1      3125 1.16306E-01
 -1      3126 1.84748E-01
 -1      3127 2.16640E-01
 -1      3128 1.69800E-01
 -1      3129 2.56083E-01
 -1      3130 2.96445E-01
 -1      3131 2.39634E-01
 -1      3132 3.47403E-01
 -1      3133 4.00927E-01
 -1      3134 3.30035E-01
 -1      3135 4.66312E-01
 -1      3136 5.37001E-01
 -1      3137 4.46378E-01
 -1      3138 6.20173E-01
 -1      3139 7.08285E-01
 -1      3140 5.94935E-01
 -1      3141 8.12927E-01
 -1      3142 9.20410E-01
 -1      3143 7.82748E-01
 -1      3144 1.04997E+00
 -1      3145 1.17692E+00
 -1      3146 1.01695E+00
 -1      3147 1.33343E+00
 -1      3148 1.48704E+00
 -1      3149 1.30302E+00
 -1      3150 1.70047E+00
 -1      3151 1.91884E+00
 -1      3152 1.67296E+00
 -1      3153 2.25155E+00
 -1      3154 2.51940E+00
 -1      3155 2.21910E+00
 -1      3156 3.01249E+00
 -1      3157 3.37683E+00
 -1      3158 3.04491E+00
 -1      3159 4.12575E+00
 -1      3160 5.41206E+00
 -1      3161 4.28692E+00
 -1      3162 4.19128E+00
 -1      3163 3.52786E+00
 -1      3164 3.14331E+00
 -1      3165 2.72104E+00
 -1      3166 3.80891E+00
 -1      3167 1.98120E+00
 -1      3168 1.68949E+00
 -1      3169 1.63351E+00
 -1      3170 2.68452E+00
 -1      3171 3.08646E-01
 -1      3172 3.42837E-01
 -1      3173 1.64747E-01
 -1      3174 1.81705E-01
 -1      3175 1.94648E-01
 -1      3176 2.12988E-01
 -1      3177 1.77021E-01
 -1      3178 1.12046E-01
 -1      3179 1.24649E-01
 -1      3180 8.96374E-02
 -1      3181 1.00527E-01
 -1      3182 1.01307E-01
 -1      3183 6.97493E-02
 -1      3184 7.91125E-02
 -1      3185 7.92632E-02
 -1      3186 5.34896E-02
 -1      3187 6.10057E-02
 -1      3188 5.99947E-02
 -1      3189 3.89240E-02
 -1      3190 4.55583E-02
 -1      3191 4.33198E-02
 -1      3192 3.87150E-02
 -1      3193 3.53332E-02
 -1      3194 3.17976E-02
 -1      3195 5.17688E-02
 -1      3196 4.53895E-02
 -1      3197 3.48812E-02
 -1      3198 8.19678E-02
 -1      3199 6.55571E-02
 -1      3200 5.53440E-02
 -1      3201 1.18330E-01
 -1      3202 9.85379E-02
 -1      3203 8.57024E-02
 -1      3204 1.62029E-01
 -1      3205 1.38382E-01
 -1      3206 1.22325E-01
 -1      3207 2.13887E-01
 -1      3208 1.86228E-01
 -1      3209 1.66577E-01
 -1      3210 2.74073E-01
 -1      3211 2.42776E-01
 -1      3212 2.19665E-01
 -1      3213 3.42602E-01
 -1      3214 3.08869E-01
 -1      3215 2.83351E-01
 -1      3216 4.15998E-01
 -1      3217 3.82220E-01
 -1      3218 3.57764E-01
 -1      3219 4.89305E-01
 -1      3220 4.58307E-01
 -1      3221 4.39692E-01
 -1      3222 5.62041E-01
 -1      3223 5.31480E-01
 -1      3224 5.24176E-01
 -1      3225 6.46501E-01
 -1      3226 6.07982E-01
 -1      3227 6.12292E-01
 -1      3228 7.48183E-01
 -1      3229 7.16564E-01
 -1      3230 7.28297E-01
 -1      3231 8.35107E-01
 -1      3232 8.25916E-01
 -1      3233 8.76093E-01
 -1      3234 9.90031E-01
 -1      3235 9.01016E-01
 -1      3236 1.01973E+00
 -1      3237 1.16874E+00
 -1      3238 1.11112E+00
 -1      3239 1.20673E+00
 -1      3240 1.41915E+00
 -1      3241 1.25169E+00
 -1      3242 1.41078E+00
 -1      3243 1.82428E+00
 -1      3244 1.78900E+00
 -1      3245 1.86358E+00
 -1      3246 1.88732E+00
 -1      3247 1.78713E+00
 -1      3248 2.19629E+00
 -1      3249 2.20971E+00
 -1      3250 1.97475E+00
 -1      3251 2.24658E+00
 -1      3252 2.15416E+00
 -1      3253 2.17199E+00
 -1      3254 2.29629E+00
 -1      3255 3.72580E+00
 -1      3256 2.88778E+00
 -1      3257 2.99218E+00
 -1      3258 3.25383E+00
 -1      3259 3.72580E+00
 -1      3260 2.04339E+00
 -1      3261 2.37064E+00
 -1      3262 1.52498E+00
 -1      3263 1.67900E+00
 -1      3264 2.24414E+00
 -1      3265 1.15063E+00
 -1      3266 1.26067E+00
 -1      3267 1.61544E+00
 -1      3268 8.28158E-01
 -1      3269 9.66144E-01
 -1      3270 1.16665E+00
 -1      3271 5.34707E-01
 -1      3272 6.19332E-01
 -1      3273 7.73346E-01
 -1      3274 6.13818E-01
 -1      3275 3.35413E+00
 -1      3276 3.35413E+00
 -1      3277 3.40750E+00
 -1      3278 3.12399E+00
 -1      3279 4.15156E+00
 -1      3280 3.81763E+00
 -1      3281 4.71833E+00
 -1      3282 9.42912E+00
 -1      3283 1.04042E+01
 -1      3284 5.64724E+00
 -1      3285 6.93675E+00
 -1      3286 5.82487E+00
 -1      3287 7.14955E+00
 -1      3288 9.34951E+00
 -1      3289 9.53395E+00
 -1      3290 7.95483E+00
 -1      3291 1.21668E+01
 -1      3292 1.18804E+01
 -1      3293 3.29782E+00
 -1      3294 3.30717E+00
 -1      3295 4.05123E+00
 -1      3296 2.53511E+00
 -1      3297 2.94261E+00
 -1      3298 3.64905E+00
 -1      3299 1.37146E-01
 -1      3300 1.51618E-01
 -1      3301 1.50948E-01
 -1      3302 1.25323E-01
 -1      3303 4.67817E+00
 -1      3304 1.34433E+01
 -1      3305 1.04555E+01
 -1      3306 1.11985E+01
 -1      3307 1.37423E+01
 -1      3308 3.52003E+00
 -1      3309 2.43614E+00
 -1      3310 4.81120E+00
 -1      3311 4.88019E+00
 -1      3312 4.13494E-01
 -1      3313 3.10282E-01
 -1      3314 2.62911E-01
 -1      3315 3.99497E-01
 -1      3316 8.45198E+00
 -1      3317 6.51696E+00
 -1      3318 1.05794E+01
 -1      3319 1.22588E+01
 -1      3320 1.00053E+01
 -1      3321 2.48643E+00
 -1      3322 3.09821E+00
 -1      3323 1.27466E+01
 -1      3324 1.23536E+01
 -1      3325 4.54537E-01
 -1      3326 3.87242E+00
 -1      3327 3.23701E-01
 -1      3328 3.15937E-01
 -1      3329 1.18804E+01
 -1      3330 1.34138E+01
 -1      3331 9.31432E+00
 -1      3332 9.28486E+00
 -1      3333 1.19608E+01
 -1      3334 1.07367E+01
 -1      3335 3.70792E+00
 -1      3336 4.58628E+00
 -1      3337 4.31774E+00
 -1      3338 5.62266E+00
 -1      3339 3.12151E-01
 -1      3340 3.11960E-01
 -1      3341 2.85088E-01
 -1      3342 2.61219E-01
 -1      3343 3.20575E-01
 -1      3344 3.20575E-01
 -1      3345 1.04758E+01
 -1      3346 4.15732E+00
 -1      3347 5.55533E+00
 -1      3348 5.41484E+00
 -1      3349 5.98642E+00
 -1      3350 4.27609E+00
 -1      3351 2.98949E+00
 -1      3352 7.81930E+00
 -1      3353 6.58527E+00
 -1      3354 6.96148E+00
 -1      3355 3.20424E-01
 -1      3356 3.30492E-01
 -1      3357 6.64609E+00
 -1      3358 4.24849E+00
 -1      3359 3.25319E-01
 -1      3360 3.23701E-01
 -1      3361 2.88874E-01
 -1      3362 2.84130E-01
 -1      3363 4.82677E+00
 -1      3364 2.97188E-01
 -1      3365 3.52173E-01
 -1      3366 3.85857E-01
 -1      3367 8.92898E+00
 -1      3368 2.04318E-01
 -1      3369 2.27342E-01
 -1      3370 2.46702E-01
 -1      3371 2.78185E+00
 -1      3372 3.25383E+00
 -1      3373 2.69519E+00
 -1      3374 2.45730E+00
 -1      3375 2.01226E+00
 -1      3376 1.81297E+00
 -1      3377 3.23337E-01
 -1      3378 3.23821E-01
 -1      3379 2.85567E-01
 -1      3380 3.05343E+00
 -1      3381 2.68239E+00
 -1      3382 2.50241E+00
 -1      3383 2.83158E+00
 -1      3384 3.76333E+00
 -1      3385 3.30769E+00
 -1      3386 3.67931E-01
 -1      3387 3.93447E-01
 -1      3388 2.76721E-01
 -1      3389 2.88597E-01
 -1      3390 2.92403E-01
 -1      3391 2.71608E-01
 -1      3392 2.65047E-01
 -1      3393 1.00995E+01
 -1      3394 6.48253E+00
 -1      3395 8.23897E+00
 -1      3396 1.52171E+00
 -1      3397 1.74873E+00
 -1      3398 2.50745E+00
 -1      3399 1.83287E+00
 -1      3400 3.86571E+00
 -1      3401 9.37688E+00
 -1      3402 8.42219E+00
 -1      3403 1.00830E+01
 -1      3404 1.42337E+00
 -1      3405 1.22049E+00
 -1      3406 1.95182E+00
 -1      3407 2.28373E+00
 -1      3408 3.84219E+00
 -1      3409 2.80530E+00
 -1      3410 3.06696E+00
 -1      3411 3.36198E+00
 -1      3412 3.88884E-01
 -1      3413 1.03507E+01
 -1      3414 8.57270E+00
 -1      3415 9.30416E+00
 -1      3416 3.17933E-01
 -1      3417 4.82895E+00
 -1      3418 5.58571E+00
 -1      3419 7.13514E+00
 -1      3420 7.92942E+00
 -1      3421 3.01570E+00
 -1      3422 3.10857E+00
 -1      3423 2.69611E-01
 -1      3424 1.86836E-01
 -1      3425 1.95981E-01
 -1      3426 2.10085E-01
 -1      3427 2.06274E-01
 -1      3428 1.59158E-01
 -1      3429 2.08985E-01
 -1      3430 1.98348E-01
 -1      3431 1.75972E-01
 -1      3432 1.94134E-01
 -1      3433 1.80467E-01
 -1      3434 1.74470E-01
 -1      3435 1.72417E-01
 -1      3436 1.60287E-01
 -1      3437 1.62206E-01
 -1      3438 1.50401E-01
 -1      3439 1.39795E-01
 -1      3440 1.44270E-01
 -1      3441 1.31944E-01
 -1      3442 1.20783E-01
 -1      3443 1.26533E-01
 -1      3444 1.12355E-01
 -1      3445 1.01432E-01
 -1      3446 1.10254E-01
 -1      3447 9.27778E-02
 -1      3448 8.24538E-02
 -1      3449 9.31714E-02
 -1      3450 7.39793E-02
 -1      3451 6.43057E-02
 -1      3452 7.60432E-02
 -1      3453 5.61362E-02
 -1      3454 4.69342E-02
 -1      3455 5.93992E-02
 -1      3456 4.21355E-02
 -1      3457 3.54119E-02
 -1      3458 4.64310E-02
 -1      3459 3.69493E-02
 -1      3460 3.84353E-02
 -1      3461 4.31698E-02
 -1      3462 4.32032E-02
 -1      3463 5.65219E-02
 -1      3464 4.94752E-02
 -1      3465 7.19494E-02
 -1      3466 8.91510E-02
 -1      3467 6.96706E-02
 -1      3468 1.09505E-01
 -1      3469 1.32607E-01
 -1      3470 1.05452E-01
 -1      3471 1.58782E-01
 -1      3472 1.89174E-01
 -1      3473 1.51981E-01
 -1      3474 2.22899E-01
 -1      3475 2.62342E-01
 -1      3476 2.11881E-01
 -1      3477 3.05818E-01
 -1      3478 3.56776E-01
 -1      3479 2.89083E-01
 -1      3480 4.12920E-01
 -1      3481 4.78305E-01
 -1      3482 3.88703E-01
 -1      3483 5.51180E-01
 -1      3484 6.34352E-01
 -1      3485 5.17722E-01
 -1      3486 7.29974E-01
 -1      3487 8.34616E-01
 -1      3488 6.86219E-01
 -1      3489 9.62520E-01
 -1      3490 1.09208E+00
 -1      3491 9.09745E-01
 -1      3492 1.26787E+00
 -1      3493 1.42437E+00
 -1      3494 1.21343E+00
 -1      3495 1.67296E+00
 -1      3496 1.88639E+00
 -1      3497 1.63781E+00
 -1      3498 2.26677E+00
 -1      3499 2.59948E+00
 -1      3500 2.26677E+00
 -1      3501 4.31899E+00
 -1      3502 4.81208E+00
 -1      3503 4.36665E+00
 -1      3504 4.83679E+00
 -1      3505 2.66478E+00
 -1      3506 2.75144E+00
 -1      3507 9.23889E+00
 -1      3508 9.23889E+00
 -1      3509 7.30129E-02
 -1      3510 8.35378E-02
 -1      3511 9.30584E-02
 -1      3512 1.04577E-01
 -1      3513 8.68081E-02
 -1      3514 3.85534E-02
 -1      3515 4.64848E-02
 -1      3516 3.15109E-02
 -1      3517 3.51017E-02
 -1      3518 3.82667E-02
 -1      3519 3.94719E-02
 -1      3520 3.27974E-02
 -1      3521 3.61016E-02
 -1      3522 6.40474E-02
 -1      3523 5.02591E-02
 -1      3524 4.81753E-02
 -1      3525 9.62396E-02
 -1      3526 7.96695E-02
 -1      3527 7.45846E-02
 -1      3528 1.35195E-01
 -1      3529 1.15142E-01
 -1      3530 1.09109E-01
 -1      3531 1.81939E-01
 -1      3532 1.57740E-01
 -1      3533 1.50557E-01
 -1      3534 2.37090E-01
 -1      3535 2.08200E-01
 -1      3536 1.99363E-01
 -1      3537 3.01374E-01
 -1      3538 2.66578E-01
 -1      3539 2.55113E-01
 -1      3540 3.73799E-01
 -1      3541 3.34181E-01
 -1      3542 3.17409E-01
 -1      3543 4.58636E-01
 -1      3544 4.16327E-01
 -1      3545 3.92744E-01
 -1      3546 5.58388E-01
 -1      3547 5.16214E-01
 -1      3548 4.92849E-01
 -1      3549 6.73343E-01
 -1      3550 6.27401E-01
 -1      3551 6.19440E-01
 -1      3552 8.25867E-01
 -1      3553 7.55804E-01
 -1      3554 7.70914E-01
 -1      3555 9.95264E-01
 -1      3556 9.17531E-01
 -1      3557 9.45039E-01
 -1      3558 1.21547E+00
 -1      3559 1.14956E+00
 -1      3560 1.19100E+00
 -1      3561 1.51342E+00
 -1      3562 1.39233E+00
 -1      3563 1.52216E+00
 -1      3564 1.80766E+00
 -1      3565 1.72470E+00
 -1      3566 1.91030E+00
 -1      3567 2.98949E+00
 -1      3568 2.61964E+00
 -1      3569 2.33402E+00
 -1      3570 2.24658E+00
 -1      3571 3.05343E+00
 -1      3572 3.84219E+00
 -1      3573 5.09255E+00
 -1      3574 5.44776E+00
 -1      3575 5.49716E+00
 -1      3576 5.55052E+00
 -1      3577 3.15791E-01
 -1      3578 3.23337E-01
 -1      3579 2.88964E-01
 -1      3580 6.95259E+00
 -1      3581 8.18251E+00
 -1      3582 5.44776E+00
 -1      3583 5.49473E+00
 -1      3584 6.89369E+00
 -1      3585 6.89126E+00
 -1      3586 5.84703E+00
 -1      3587 8.86262E+00
 -1      3588 9.23889E+00
 -1      3589 8.00199E+00
 -1      3590 7.06878E+00
 -1      3591 1.16665E+00
 -1      3592 1.35114E+00
 -1      3593 1.58499E-01
 -1      3594 1.71443E-01
 -1      3595 1.61544E+00
 -1      3596 1.87975E+00
 -1      3597 1.61544E+00
 -1      3598 2.22817E-01
 -1      3599 2.02957E-01
 -1      3600 2.16767E-01
 -1      3601 5.52008E-02
 -1      3602 6.39444E-02
 -1      3603 6.82190E-02
 -1      3604 5.04345E-02
 -1      3605 2.03541E-01
 -1      3606 1.89323E-01
 -1      3607 1.47542E-01
 -1      3608 2.16099E-01
 -1      3609 1.01119E+00
 -1      3610 9.03367E-01
 -1      3611 8.54069E-01
 -1      3612 1.35292E+00
 -1      3613 3.83932E+00
 -1      3614 4.08486E+00
 -1      3615 9.09532E+00
 -1      3616 8.70251E+00
 -1      3617 2.19629E+00
 -1      3618 6.72802E+00
 -1      3619 5.07444E+00
 -1      3620 4.68990E+00
 -1      3621 7.64960E+00
 -1      3622 2.23344E+00
 -1      3623 2.21125E-01
 -1      3624 3.74816E+00
 -1      3625 5.95961E+00
 -1      3626 3.71874E+00
 -1      3627 6.30503E+00
 -1      3628 3.72580E+00
 -1      3629 2.60853E+00
 -1      3630 2.66478E+00
 -1      3631 6.11087E+00
 -1      3632 2.48014E-01
 -1      3633 2.57350E-01
 -1      3634 7.85841E+00
 -1      3635 3.83102E+00
 -1      3636 3.09117E+00
 -1      3637 2.97937E+00
 -1      3638 5.09655E+00
 -1      3639 1.83341E-01
 -1      3640 1.97695E-01
 -1      3641 1.64819E-01
 -1      3642 1.06169E-01
 -1      3643 1.14418E-01
 -1      3644 1.26915E-01
 -1      3645 7.83320E+00
 -1      3646 6.13903E+00
 -1      3647 5.28015E+00
 -1      3648 7.80375E+00
 -1      3649 6.89613E+00
 -1      3650 8.18251E+00
 -1      3651 2.24414E+00
 -1      3652 1.06289E+00
 -1      3653 5.55052E+00
 -1      3654 3.19836E+00
 -1      3655 5.41484E+00
 -1      3656 5.35837E+00
 -1      3657 3.82062E+00
 -1      3658 2.44708E-01
 -1      3659 2.41311E-01
 -1      3660 1.75241E-01
 -1      3661 2.83572E+00
 -1      3662 5.10893E+00
 -1      3663 2.37018E-01
 -1      3664 2.58430E-01
 -1      3665 2.54645E-01
 -1      3666 1.36634E-01
 -1      3667 1.49764E-01
 -1      3668 1.44185E-01
 -1      3669 1.25730E-01
 -1      3670 1.95182E+00
 -1      3671 1.56222E+00
 -1      3672 8.09049E+00
 -1      3673 3.08102E+00
 -1      3674 2.69142E+00
 -1      3675 2.24414E+00
 -1      3676 2.85133E-01
 -1      3677 8.15472E+00
 -1      3678 7.76868E+00
 -1      3679 3.76575E+00
 -1      3680 7.16703E+00
 -1      3681 8.08806E+00
 -1      3682 8.08806E+00
 -1      3683 2.53260E-01
 -1      3684 2.53260E-01
 -1      3685 2.22817E-01
 -1      3686 2.32916E-01
 -1      3687 2.49160E-01
 -1      3688 2.09322E-01
 -1      3689 1.24738E+00
 -1      3690 2.08109E-01
 -1      3691 2.26455E-01
 -1      3692 2.04007E-01
 -1      3693 7.04407E+00
 -1      3694 1.45668E+00
 -1      3695 1.48654E-01
 -1      3696 1.51365E-01
 -1      3697 1.56445E-01
 -1      3698 1.52231E-01
 -1      3699 1.29126E-01
 -1      3700 1.51098E-01
 -1      3701 1.43048E-01
 -1      3702 1.33074E-01
 -1      3703 1.38221E-01
 -1      3704 1.28335E-01
 -1      3705 1.27113E-01
 -1      3706 1.21438E-01
 -1      3707 1.13587E-01
 -1      3708 1.15389E-01
 -1      3709 1.06424E-01
 -1      3710 9.79949E-02
 -1      3711 1.01328E-01
 -1      3712 9.15887E-02
 -1      3713 8.29349E-02
 -1      3714 8.77584E-02
 -1      3715 7.62503E-02
 -1      3716 6.77758E-02
 -1      3717 7.46675E-02
 -1      3718 6.11771E-02
 -1      3719 5.30075E-02
 -1      3720 6.13841E-02
 -1      3721 5.05205E-02
 -1      3722 4.57218E-02
 -1      3723 5.22983E-02
 -1      3724 4.68658E-02
 -1      3725 4.84032E-02
 -1      3726 5.09553E-02
 -1      3727 5.13000E-02
 -1      3728 5.60679E-02
 -1      3729 5.49960E-02
 -1      3730 6.25573E-02
 -1      3731 7.79848E-02
 -1      3732 6.43822E-02
 -1      3733 9.40425E-02
 -1      3734 1.14396E-01
 -1      3735 8.69293E-02
 -1      3736 1.34851E-01
 -1      3737 1.61027E-01
 -1      3738 1.23442E-01
 -1      3739 1.87087E-01
 -1      3740 2.20812E-01
 -1      3741 1.69957E-01
 -1      3742 2.54017E-01
 -1      3743 2.97494E-01
 -1      3744 2.29223E-01
 -1      3745 3.39934E-01
 -1      3746 3.96078E-01
 -1      3747 3.04869E-01
 -1      3748 4.50844E-01
 -1      3749 5.23720E-01
 -1      3750 4.02076E-01
 -1      3751 5.95792E-01
 -1      3752 6.91414E-01
 -1      3753 5.28915E-01
 -1      3754 7.89406E-01
 -1      3755 9.17310E-01
 -1      3756 6.98979E-01
 -1      3757 1.05787E+00
 -1      3758 1.23365E+00
 -1      3759 9.37529E-01
 -1      3760 1.44905E+00
 -1      3761 1.69764E+00
 -1      3762 1.29348E+00
 -1      3763 2.03221E+00
 -1      3764 2.41259E+00
 -1      3765 1.84345E+00
 -1      3766 3.09196E+00
 -1      3767 4.81146E+00
 -1      3768 2.85740E+00
 -1      3769 5.69668E-02
 -1      3770 4.61796E-02
 -1      3771 7.82615E-02
 -1      3772 8.77821E-02
 -1      3773 3.74816E+00
 -1      3774 3.82062E+00
 -1      3775 2.42131E-01
 -1      3776 2.46874E-01
 -1      3777 2.11261E-01
 -1      3778 6.45098E+00
 -1      3779 6.30740E+00
 -1      3780 1.35914E-01
 -1      3781 1.33426E-01
 -1      3782 1.61126E-01
 -1      3783 4.30664E-02
 -1      3784 4.17799E-02
 -1      3785 5.18580E-02
 -1      3786 4.03076E-02
 -1      3787 4.37593E-02
 -1      3788 4.72724E-02
 -1      3789 8.68141E-02
 -1      3790 7.11920E-02
 -1      3791 6.91964E-02
 -1      3792 1.23291E-01
 -1      3793 1.04389E-01
 -1      3794 1.00996E-01
 -1      3795 1.67441E-01
 -1      3796 1.44895E-01
 -1      3797 1.40175E-01
 -1      3798 2.19956E-01
 -1      3799 1.93696E-01
 -1      3800 1.88034E-01
 -1      3801 2.80811E-01
 -1      3802 2.51322E-01
 -1      3803 2.45654E-01
 -1      3804 3.50216E-01
 -1      3805 3.17409E-01
 -1      3806 3.13618E-01
 -1      3807 4.34056E-01
 -1      3808 3.91528E-01
 -1      3809 3.91528E-01
 -1      3810 5.38124E-01
 -1      3811 4.80547E-01
 -1      3812 4.79331E-01
 -1      3813 6.76882E-01
 -1      3814 6.07869E-01
 -1      3815 5.95567E-01
 -1      3816 8.55162E-01
 -1      3817 7.72700E-01
 -1      3818 7.61130E-01
 -1      3819 1.10230E+00
 -1      3820 1.01064E+00
 -1      3821 1.01243E+00
 -1      3822 1.49226E+00
 -1      3823 1.33797E+00
 -1      3824 1.40357E+00
 -1      3825 2.25996E+00
 -1      3826 2.08310E+00
 -1      3827 2.23007E+00
 -1      3828 2.93357E+00
 -1      3829 1.83869E-01
 -1      3830 2.06025E+00
 -1      3831 2.32456E+00
 -1      3832 5.56446E+00
 -1      3833 3.82062E+00
 -1      3834 2.57968E-01
 -1      3835 2.57968E-01
 -1      3836 2.13712E-01
 -1      3837 2.34709E-01
 -1      3838 2.16783E-01
 -1      3839 1.62879E-01
 -1      3840 1.85536E-01
 -1      3841 3.57118E+00
 -1      3842 5.53650E+00
 -1      3843 6.68594E+00
 -1      3844 3.14211E+00
 -1      3845 6.20320E+00
 -1      3846 5.65540E+00
 -1      3847 4.79577E+00
 -1      3848 1.22073E-01
 -1      3849 1.36177E-01
 -1      3850 1.11569E-01
 -1      3851 1.10446E-01
 -1      3852 2.54645E-01
 -1      3853 2.58475E-01
 -1      3854 2.27479E-01
 -1      3855 2.27987E-01
 -1      3856 2.90676E+00
 -1      3857 3.21457E+00
 -1      3858 4.07285E+00
 -1      3859 7.06184E-02
 -1      3860 7.15923E-02
 -1      3861 6.15499E-02
 -1      3862 1.87132E-01
 -1      3863 1.94198E-01
 -1      3864 1.94198E-01
 -1      3865 8.69319E-02
 -1      3866 9.54786E-02
 -1      3867 1.05319E-01
 -1      3868 7.04407E+00
 -1      3869 5.49307E+00
 -1      3870 3.29499E+00
 -1      3871 2.85018E+00
 -1      3872 2.49251E+00
 -1      3873 2.28123E+00
 -1      3874 1.83885E-01
 -1      3875 4.81146E+00
 -1      3876 6.08616E+00
 -1      3877 6.60695E+00
 -1      3878 3.29499E+00
 -1      3879 2.16579E+00
 -1      3880 7.04407E+00
 -1      3881 1.78721E-01
 -1      3882 1.77575E-01
 -1      3883 1.30128E-01
 -1      3884 1.38864E-01
 -1      3885 1.47016E-01
 -1      3886 1.58914E-01
 -1      3887 1.32959E-01
 -1      3888 5.04984E+00
 -1      3889 3.96710E+00
 -1      3890 4.08601E+00
 -1      3891 1.45668E+00
 -1      3892 8.08806E+00
 -1      3893 4.54096E-02
 -1      3894 5.41256E-02
 -1      3895 5.65250E-02
 -1      3896 1.90681E-01
 -1      3897 1.56892E-01
 -1      3898 1.85511E-01
 -1      3899 2.84218E+00
 -1      3900 4.74505E-02
 -1      3901 1.34187E-01
 -1      3902 1.64789E-01
 -1      3903 1.42148E-01
 -1      3904 1.75509E-01
 -1      3905 1.36181E-01
 -1      3906 1.88768E-01
 -1      3907 1.07334E-01
 -1      3908 1.12415E-01
 -1      3909 1.17382E-01
 -1      3910 1.16250E-01
 -1      3911 9.55906E-02
 -1      3912 1.16240E-01
 -1      3913 1.11412E-01
 -1      3914 1.00549E-01
 -1      3915 1.08324E-01
 -1      3916 1.01427E-01
 -1      3917 9.74507E-02
 -1      3918 9.65154E-02
 -1      3919 8.93519E-02
 -1      3920 8.94508E-02
 -1      3921 8.35573E-02
 -1      3922 7.71510E-02
 -1      3923 7.87445E-02
 -1      3924 7.17011E-02
 -1      3925 6.50165E-02
 -1      3926 6.75000E-02
 -1      3927 6.18667E-02
 -1      3928 5.52679E-02
 -1      3929 5.89003E-02
 -1      3930 5.44298E-02
 -1      3931 5.19428E-02
 -1      3932 5.49124E-02
 -1      3933 5.24111E-02
 -1      3934 5.35550E-02
 -1      3935 5.45425E-02
 -1      3936 5.56628E-02
 -1      3937 5.85595E-02
 -1      3938 5.71185E-02
 -1      3939 6.37242E-02
 -1      3940 7.02135E-02
 -1      3941 6.43909E-02
 -1      3942 7.96256E-02
 -1      3943 9.56833E-02
 -1      3944 7.89676E-02
 -1      3945 1.08628E-01
 -1      3946 1.29083E-01
 -1      3947 1.01325E-01
 -1      3948 1.46402E-01
 -1      3949 1.72462E-01
 -1      3950 1.31588E-01
 -1      3951 1.95258E-01
 -1      3952 2.28463E-01
 -1      3953 1.71702E-01
 -1      3954 2.58827E-01
 -1      3955 3.01268E-01
 -1      3956 2.24862E-01
 -1      3957 3.41814E-01
 -1      3958 3.96580E-01
 -1      3959 2.95771E-01
 -1      3960 4.50413E-01
 -1      3961 5.22486E-01
 -1      3962 3.90150E-01
 -1      3963 5.95382E-01
 -1      3964 6.93374E-01
 -1      3965 5.16880E-01
 -1      3966 7.94577E-01
 -1      3967 9.35134E-01
 -1      3968 6.90980E-01
 -1      3969 1.08292E+00
 -1      3970 1.29832E+00
 -1      3971 9.39972E-01
 -1      3972 1.58505E+00
 -1      3973 1.91962E+00
 -1      3974 1.37449E+00
 -1      3975 2.21285E+00
 -1      3976 2.89222E+00
 -1      3977 1.95444E+00
 -1      3978 1.09209E-01
 -1      3979 9.16348E-02
 -1      3980 1.94198E-01
 -1      3981 1.93690E-01
 -1      3982 1.55487E-01
 -1      3983 1.60409E-01
 -1      3984 5.01192E+00
 -1      3985 4.41883E+00
 -1      3986 5.79795E-02
 -1      3987 5.48662E-02
 -1      3988 5.19225E-02
 -1      3989 5.04503E-02
 -1      3990 5.80441E-02
 -1      3991 1.49604E-01
 -1      3992 1.28000E-01
 -1      3993 1.18639E-01
 -1      3994 1.99614E-01
 -1      3995 1.73359E-01
 -1      3996 1.61184E-01
 -1      3997 2.60841E-01
 -1      3998 2.29475E-01
 -1      3999 2.14800E-01
 -1      4000 3.34743E-01
 -1      4001 2.98145E-01
 -1      4002 2.81966E-01
 -1      4003 4.22348E-01
 -1      4004 3.81036E-01
 -1      4005 3.65563E-01
 -1      4006 5.25822E-01
 -1      4007 4.79331E-01
 -1      4008 4.68839E-01
 -1      4009 6.65312E-01
 -1      4010 5.95567E-01
 -1      4011 5.95567E-01
 -1      4012 8.46211E-01
 -1      4013 7.50393E-01
 -1      4014 7.50393E-01
 -1      4015 1.13423E+00
 -1      4016 9.78753E-01
 -1      4017 9.68016E-01
 -1      4018 1.55699E+00
 -1      4019 1.32132E+00
 -1      4020 1.28765E+00
 -1      4021 3.27769E+00
 -1      4022 4.92046E-02
 -1      4023 5.08549E-02
 -1      4024 5.38547E-02
 -1      4025 1.63138E-01
 -1      4026 1.22356E-01
 -1      4027 1.17034E-01
 -1      4028 1.12636E-01
 -1      4029 1.83410E-01
 -1      4030 1.51663E-01
 -1      4031 1.76950E-01
 -1      4032 7.83267E-02
 -1      4033 6.41015E-02
 -1      4034 8.65400E-02
 -1      4035 1.14262E-01
 -1      4036 1.01476E-01
 -1      4037 3.65860E+00
 -1      4038 4.41883E+00
 -1      4039 4.31462E+00
 -1      4040 3.93768E+00
 -1      4041 1.64810E-01
 -1      4042 1.75225E-01
 -1      4043 1.54628E-01
 -1      4044 1.47007E-01
 -1      4045 3.63733E+00
 -1      4046 3.15068E+00
 -1      4047 7.67737E-02
 -1      4048 8.44702E-02
 -1      4049 9.88340E-02
 -1      4050 8.21226E-02
 -1      4051 8.63576E-02
 -1      4052 3.09267E+00
 -1      4053 3.73722E+00
 -1      4054 1.01945E-01
 -1      4055 1.28017E-01
 -1      4056 1.28017E-01
 -1      4057 1.74526E-01
 -1      4058 1.80911E-01
 -1      4059 6.71098E-02
 -1      4060 1.32788E-01
 -1      4061 3.30181E+00
 -1      4062 3.67875E+00
 -1      4063 3.07319E+00
 -1      4064 2.48190E+00
 -1      4065 1.89106E+00
 -1      4066 1.24829E-01
 -1      4067 1.30770E-01
 -1      4068 1.26081E-01
 -1      4069 9.33692E-02
 -1      4070 7.09719E-02
 -1      4071 6.85102E-02
 -1      4072 6.33288E-02
 -1      4073 1.80882E+00
 -1      4074 5.10268E-02
 -1      4075 5.84510E-02
 -1      4076 5.78306E-02
 -1      4077 1.48776E-01
 -1      4078 1.12863E-01
 -1      4079 1.04232E-01
 -1      4080 1.12004E-01
 -1      4081 1.18690E-01
 -1      4082 1.26842E-01
 -1      4083 1.05888E-01
 -1      4084 5.27809E-02
 -1      4085 2.24767E+00
 -1      4086 3.09267E+00
 -1      4087 3.09267E+00
 -1      4088 1.95444E+00
 -1      4089 9.01991E-02
 -1      4090 9.75157E-02
 -1      4091 9.24859E-02
 -1      4092 8.00408E-02
 -1      4093 1.28017E-01
 -1      4094 9.56241E-02
 -1      4095 1.17463E-01
 -1      4096 8.68170E-02
 -1      4097 8.68074E-02
 -1      4098 9.51944E-02
 -1      4099 9.21062E-02
 -1      4100 8.14628E-02
 -1      4101 8.25043E-02
 -1      4102 7.75926E-02
 -1      4103 8.02480E-02
 -1      4104 7.59471E-02
 -1      4105 7.01525E-02
 -1      4106 6.90006E-02
 -1      4107 6.82613E-02
 -1      4108 6.28114E-02
 -1      4109 6.54639E-02
 -1      4110 6.06503E-02
 -1      4111 5.75005E-02
 -1      4112 6.14116E-02
 -1      4113 5.57505E-02
 -1      4114 5.49124E-02
 -1      4115 5.75005E-02
 -1      4116 5.45425E-02
 -1      4117 5.50108E-02
 -1      4118 5.53807E-02
 -1      4119 5.71185E-02
 -1      4120 5.92263E-02
 -1      4121 5.71185E-02
 -1      4122 6.35577E-02
 -1      4123 6.87224E-02
 -1      4124 6.35577E-02
 -1      4125 7.68777E-02
 -1      4126 8.62897E-02
 -1      4127 7.60445E-02
 -1      4128 9.75249E-02
 -1      4129 1.10470E-01
 -1      4130 9.54350E-02
 -1      4131 1.25531E-01
 -1      4132 1.42849E-01
 -1      4133 1.21731E-01
 -1      4134 1.62882E-01
 -1      4135 1.85677E-01
 -1      4136 1.56824E-01
 -1      4137 2.11443E-01
 -1      4138 2.41807E-01
 -1      4139 2.02623E-01
 -1      4140 2.74690E-01
 -1      4141 3.15236E-01
 -1      4142 2.61272E-01
 -1      4143 3.57219E-01
 -1      4144 4.11053E-01
 -1      4145 3.36138E-01
 -1      4146 4.82896E-01
 -1      4147 5.55793E-01
 -1      4148 4.49965E-01
 -1      4149 6.59614E-01
 -1      4150 7.60816E-01
 -1      4151 6.25629E-01
 -1      4152 9.10659E-01
 -1      4153 1.05845E+00
 -1      4154 8.79293E-01
 -1      4155 1.37449E+00
 -1      4156 1.66121E+00
 -1      4157 1.34517E+00
 -1      4158 1.65488E-01
 -1      4159 1.41733E-01
 -1      4160 1.26872E-01
 -1      4161 1.21950E-01
 -1      4162 9.44795E-02
 -1      4163 7.32318E-02
 -1      4164 6.71098E-02
 -1      4165 1.26450E-01
 -1      4166 1.07659E-01
 -1      4167 1.30753E-01
 -1      4168 2.22005E-01
 -1      4169 1.92144E-01
 -1      4170 1.72693E-01
 -1      4171 2.96547E-01
 -1      4172 2.59243E-01
 -1      4173 2.36587E-01
 -1      4174 3.94354E-01
 -1      4175 3.48062E-01
 -1      4176 3.25338E-01
 -1      4177 5.23815E-01
 -1      4178 4.66832E-01
 -1      4179 4.49330E-01
 -1      4180 6.97381E-01
 -1      4181 6.27636E-01
 -1      4182 6.25629E-01
 -1      4183 9.32305E-01
 -1      4184 8.47224E-01
 -1      4185 8.79293E-01
 -1      4186 1.32772E+00
 -1      4187 1.19518E+00
 -1      4188 1.29201E+00
 -1      4189 1.47475E+00
 -1      4190 1.28765E+00
 -1      4191 1.51482E+00
 -1      4192 2.81167E+00
 -1      4193 5.51004E-02
 -1      4194 5.38547E-02
 -1      4195 1.24500E-01
 -1      4196 9.56378E-02
 -1      4197 8.23296E-02
 -1      4198 1.03449E-01
 -1      4199 8.41290E-02
 -1      4200 8.41290E-02
 -1      4201 6.09877E-02
 -1      4202 5.80441E-02
 -1      4203 6.71098E-02
 -1      4204 7.83668E-02
 -1      4205 8.33344E-02
 -1      4206 6.95932E-02
 -1      4207 5.29955E-02
 -1      4208 5.31674E-02
 -1      4209 5.42412E-02
 -1      4210 8.85874E-02
 -1      4211 2.40442E+00
 -1      4212 7.70923E-02
 -1      4213 6.21414E-02
 -1      4214 7.06417E-02
 -1      4215 5.83856E-02
 -1      4216 5.44224E-02
 -1      4217 5.42078E-02
 -1      4218 5.90856E-02
 -1      4219 8.09329E-02
 -1      4220 8.76492E-02
 -1      4221 8.23296E-02
 -1      4222 6.16472E-02
 -1      4223 7.31423E-02
 -1      4224 1.35132E-01
 -1      4225 1.36857E-01
 -1      4226 1.11274E-01
 -1      4227 2.07034E+00
 -1      4228 2.07034E+00
 -1      4229 5.80441E-02
 -1      4230 8.29730E-02
 -1      4231 9.45260E-02
 -1      4232 1.01212E-01
 -1      4233 1.12093E-01
 -1      4234 1.29503E-01
 -1      4235 1.35400E-01
 -1      4236 1.17629E-01
 -1      4237 1.15235E-01
 -1      4238 8.89108E-02
 -1      4239 1.95444E+00
 -1      4240 2.05639E+00
 -1      4241 2.90139E+00
 -1      4242 2.26553E+00
 -1      4243 1.76316E+00
 -1      4244 6.10045E-02
 -1      4245 6.68063E-02
 -1      4246 5.73817E-02
 -1      4247 7.02734E-02
 -1      4248 7.60023E-02
 -1      4249 6.27677E-02
 -1      4250 7.19977E-02
 -1      4251 9.28246E-02
 -1      4252 1.01212E-01
 -1      4253 7.11655E-02
 -1      4254 1.88103E-01
 -1      4255 1.61447E-01
 -1      4256 8.98498E-02
 -1      4257 8.02480E-02
 -1      4258 7.33711E-02
 -1      4259 7.17256E-02
 -1      4260 6.67949E-02
 -1      4261 6.49037E-02
 -1      4262 6.14367E-02
 -1      4263 5.92756E-02
 -1      4264 5.73567E-02
 -1      4265 5.56067E-02
 -1      4266 5.45663E-02
 -1      4267 5.41964E-02
 -1      4268 5.50556E-02
 -1      4269 5.71634E-02
 -1      4270 6.01070E-02
 -1      4271 6.44384E-02
 -1      4272 7.05605E-02
 -1      4273 7.87158E-02
 -1      4274 8.78137E-02
 -1      4275 9.90488E-02
 -1      4276 1.11070E-01
 -1      4277 1.26131E-01
 -1      4278 1.41414E-01
 -1      4279 2.13869E-01
 -1      4280 2.51106E-01
 -1      4281 2.83989E-01
 -1      4282 3.35504E-01
 -1      4283 3.77487E-01
 -1      4284 4.49965E-01
 -1      4285 5.21808E-01
 -1      4286 6.25629E-01
 -1      4287 7.29450E-01
 -1      4288 8.79293E-01
 -1      4289 1.02914E+00
 -1      4290 1.29201E+00
 -1      4291 1.60805E+00
 -1      4292 8.34786E-02
 -1      4293 7.93497E-02
 -1      4294 6.83629E-02
 -1      4295 7.60880E-02
 -1      4296 8.52731E-02
 -1      4297 8.87556E-02
 -1      4298 1.08504E-01
 -1      4299 9.52505E-02
 -1      4300 1.66993E+00
 -1      4301 9.56265E-02
 -1      4302 1.71000E+00
 -1      4303 1.01713E-01
 -1      4304 1.12573E-01
 -1      4305 1.15235E-01
 -1      4306 1.01212E-01
 -1      4307 1.10898E-01
 -1      4308 1.11166E-01
 -3
 9999
